# vtk DataFile Version 3.0
# Dislocation lines converted from MoDELib file
ASCII
DATASET UNSTRUCTURED_GRID
POINTS 2434 double
-1.429999999999855e+00  6.192081637058740e+02 -2.918975276816622e+03
-1.429999999999864e+00 -6.192081637058660e+02 -2.918975276816622e+03
-1.429999999999864e+00  0.000000000000000e+00 -2.918975276816622e+03
-1.430000000000189e+00  0.000000000000000e+00  2.918975276816619e+03
-1.430000000000189e+00 -6.192081637058667e+02  2.918975276816619e+03
-1.430000000000180e+00  6.192081637058732e+02  2.918975276816619e+03
-4.784632664223203e+02  2.307130707777105e-06 -2.918975276816622e+03
-4.780850489172198e+02 -6.130773898077932e+00 -2.918975276816622e+03
-4.795221618062878e+02 -1.220720233107814e+01 -2.918975276816622e+03
-4.786530702735207e+02 -1.839169244260831e+01 -2.918975276816622e+03
-4.795969472260298e+02 -2.452349776811978e+01 -2.918975276816622e+03
-4.791668351498496e+02 -3.068743593969562e+01 -2.918975276816622e+03
-4.803304030367892e+02 -3.678464338846760e+01 -2.918975276816622e+03
-4.804742204208978e+02 -4.288345420035746e+01 -2.918975276816622e+03
-4.821082396850522e+02 -4.904619118462345e+01 -2.918975276816622e+03
-4.818582352737141e+02 -5.520061811267537e+01 -2.918975276816622e+03
-4.828009835974829e+02 -6.125168927648227e+01 -2.918975276816622e+03
-4.825792797018036e+02 -6.744618520855560e+01 -2.918975276816622e+03
-4.835001594806406e+02 -7.356928677693517e+01 -2.918975276816622e+03
-4.826561437447776e+02 -7.970008094247164e+01 -2.918975276816622e+03
-4.832122039869510e+02 -8.583106591774889e+01 -2.918975276816622e+03
-4.825127232836116e+02 -9.196109900358064e+01 -2.918975276816622e+03
-4.837413505261869e+02 -9.809238236924691e+01 -2.918975276816622e+03
-4.825169197144699e+02 -1.042231562673248e+02 -2.918975276816622e+03
-4.833703838677654e+02 -1.103539301654028e+02 -2.918975276816622e+03
-4.824683026690595e+02 -1.164848183851674e+02 -2.918975276816622e+03
-4.832690746954430e+02 -1.226154779615586e+02 -2.918975276816622e+03
-4.823667590466733e+02 -1.287462518596366e+02 -2.918975276816622e+03
-4.835962371033946e+02 -1.348785614625923e+02 -2.918975276816622e+03
-4.828238669672850e+02 -1.410115176863414e+02 -2.918975276816622e+03
-4.840100495405581e+02 -1.471385735538704e+02 -2.918975276816622e+03
-4.833191874260730e+02 -1.532693474519483e+02 -2.918975276816622e+03
-4.848850616911347e+02 -1.594000361965617e+02 -2.918975276816622e+03
-4.848562063701447e+02 -1.655308952481035e+02 -2.918975276816622e+03
-4.839333489735265e+02 -1.716616691461815e+02 -2.918975276816622e+03
-4.840625076153484e+02 -1.777924430442594e+02 -2.918975276816622e+03
-4.832352774061541e+02 -1.839232169423373e+02 -2.918975276816622e+03
-4.838634389120643e+02 -1.900534635485310e+02 -2.918975276816622e+03
-4.826926911109857e+02 -1.961847647384932e+02 -2.918975276816622e+03
-4.831626743548076e+02 -2.023155571449389e+02 -2.918975276816622e+03
-4.840596016729384e+02 -2.084463125346491e+02 -2.918975276816622e+03
-4.823647516513680e+02 -2.145887478606696e+02 -2.918975276816622e+03
-4.838547681552282e+02 -2.207095948759200e+02 -2.918975276816622e+03
-4.822768017218091e+02 -2.268386342288829e+02 -2.918975276816622e+03
-4.835930970928861e+02 -2.329707853906014e+02 -2.918975276816622e+03
-4.831614799610702e+02 -2.390392943256707e+02 -2.918975276816622e+03
-4.848118294547862e+02 -2.452314296173859e+02 -2.918975276816622e+03
-4.841215481014819e+02 -2.513625796886284e+02 -2.918975276816622e+03
-4.852545540332996e+02 -2.574925037192725e+02 -2.918975276816622e+03
-4.845749824823807e+02 -2.636232776173504e+02 -2.918975276816622e+03
-4.857637807975649e+02 -2.697633855635240e+02 -2.918975276816622e+03
-4.858094807783655e+02 -2.758899278049619e+02 -2.918975276816622e+03
-4.853744316659441e+02 -2.820155993115842e+02 -2.918975276816622e+03
-4.864252613704973e+02 -2.881459483940930e+02 -2.918975276816622e+03
-4.855425446361824e+02 -2.942771471077401e+02 -2.918975276816622e+03
-4.864751132905263e+02 -3.004068354244168e+02 -2.918975276816622e+03
-4.866024097377961e+02 -3.065386949038960e+02 -2.918975276816622e+03
-4.877896317134263e+02 -3.126694688019740e+02 -2.918975276816622e+03
-4.870392641440254e+02 -3.188008077338579e+02 -2.918975276816622e+03
-4.886681054199674e+02 -3.249312885760959e+02 -2.918975276816622e+03
-4.881713024161513e+02 -3.310617904962076e+02 -2.918975276816622e+03
-4.886454482486786e+02 -3.371914500647501e+02 -2.918975276816622e+03
-4.903594663168768e+02 -3.433245851776332e+02 -2.918975276816622e+03
-4.893486542861842e+02 -3.494552208318866e+02 -2.918975276816622e+03
-4.904965346370703e+02 -3.555848860885195e+02 -2.918975276816622e+03
-4.899900636112771e+02 -3.617157669924052e+02 -2.918975276816622e+03
-4.915316815626766e+02 -3.678464412722216e+02 -2.918975276816622e+03
-4.905942398414080e+02 -3.739767420502393e+02 -2.918975276816622e+03
-4.927337801175315e+02 -3.801068582789961e+02 -2.918975276816622e+03
-4.933967531988941e+02 -3.862387555789090e+02 -2.918975276816622e+03
-4.928714490213779e+02 -3.923695294769871e+02 -2.918975276816622e+03
-4.942499561119454e+02 -3.985007068052626e+02 -2.918975276816622e+03
-4.942645314895285e+02 -4.046310772731430e+02 -2.918975276816622e+03
-4.959370772985614e+02 -4.107620085633882e+02 -2.918975276816622e+03
-4.949772423576237e+02 -4.168897355246257e+02 -2.918975276816622e+03
-4.965189603830087e+02 -4.230237188457251e+02 -2.918975276816622e+03
-4.965229069185559e+02 -4.291541728654546e+02 -2.918975276816622e+03
-4.962696722640949e+02 -4.352848978208811e+02 -2.918975276816622e+03
-4.976762694357743e+02 -4.414157206616106e+02 -2.918975276816622e+03
-4.985729728745531e+02 -4.475464945596885e+02 -2.918975276816622e+03
-4.984041073838563e+02 -4.537255562240970e+02 -2.918975276816622e+03
-5.000124258250707e+02 -4.598041183711089e+02 -2.918975276816622e+03
-4.994582827746329e+02 -4.659388162539221e+02 -2.918975276816622e+03
-5.014179113189798e+02 -4.720706449136103e+02 -2.918975276816622e+03
-5.008264906830856e+02 -4.781995346657566e+02 -2.918975276816622e+03
-5.028427577807288e+02 -4.843311379481552e+02 -2.918975276816622e+03
-5.027727253494297e+02 -4.904619118462332e+02 -2.918975276816622e+03
-5.026122344622994e+02 -4.965926857443111e+02 -2.918975276816622e+03
-5.034884264818908e+02 -5.027241810285263e+02 -2.918975276816622e+03
-5.031384738550739e+02 -5.088542335404670e+02 -2.918975276816622e+03
-5.041956976082163e+02 -5.149850074385452e+02 -2.918975276816622e+03
-5.038506737371562e+02 -5.211157813366231e+02 -2.918975276816622e+03
-5.030409337596703e+02 -5.272468576356799e+02 -2.918975276816622e+03
-5.036487510471388e+02 -5.333818024765861e+02 -2.918975276816622e+03
-5.033041835060902e+02 -5.395079166377234e+02 -2.918975276816622e+03
-5.028755133869092e+02 -5.456145935863320e+02 -2.918975276816622e+03
-5.035294400045066e+02 -5.517696508270126e+02 -2.918975276816622e+03
-5.030283725102900e+02 -5.579004247250906e+02 -2.918975276816622e+03
-5.038412721920693e+02 -5.640311986231686e+02 -2.918975276816622e+03
-5.029515959908197e+02 -5.701620410038496e+02 -2.918975276816622e+03
-5.039994782796739e+02 -5.762927464193242e+02 -2.918975276816622e+03
-5.030997808815493e+02 -5.824235203174022e+02 -2.918975276816622e+03
-5.045077340803855e+02 -5.885542942154801e+02 -2.918975276816622e+03
-5.046132969408740e+02 -5.946850681135581e+02 -2.918975276816622e+03
-5.033139455175637e+02 -6.008175379793013e+02 -2.918975276816622e+03
-5.038128803043662e+02 -6.069479575067154e+02 -2.918975276816622e+03
-5.036116411814156e+02 -6.130764791859250e+02 -2.918975276816622e+03
-5.038229800789891e+02 -6.192081637058734e+02 -2.918975276816622e+03
-5.038229800789891e+02  6.192081637058737e+02 -2.918975276816622e+03
-5.040343084116749e+02  6.130767857104800e+02 -2.918975276816622e+03
-5.028877714439207e+02  6.069468304516863e+02 -2.918975276816622e+03
-5.032462343130447e+02  6.008149814982318e+02 -2.918975276816622e+03
-5.021772079517150e+02  5.946863234305528e+02 -2.918975276816622e+03
-5.023044598096516e+02  5.885542296339188e+02 -2.918975276816622e+03
-5.009631034066524e+02  5.824235203174019e+02 -2.918975276816622e+03
-5.014597797828590e+02  5.762927464193239e+02 -2.918975276816622e+03
-4.993385685361770e+02  5.701619725212468e+02 -2.918975276816622e+03
-4.991366629401509e+02  5.640311986231688e+02 -2.918975276816622e+03
-4.972411918404757e+02  5.579004247250908e+02 -2.918975276816622e+03
-4.982450357295832e+02  5.517696508270124e+02 -2.918975276816622e+03
-4.976167996817311e+02  5.456388769289343e+02 -2.918975276816622e+03
-4.964401935488120e+02  5.395081030308563e+02 -2.918975276816622e+03
-4.965769887418588e+02  5.333773291327784e+02 -2.918975276816622e+03
-4.948264539773226e+02  5.272466844141368e+02 -2.918975276816622e+03
-4.933637849855240e+02  5.211157813366234e+02 -2.918975276816622e+03
-4.948446840180724e+02  5.149850074385453e+02 -2.918975276816622e+03
-4.941901485272203e+02  5.088644563511338e+02 -2.918975276816622e+03
-4.945841408652015e+02  5.027234596423888e+02 -2.918975276816622e+03
-4.953716947667800e+02  4.965925269857784e+02 -2.918975276816622e+03
-4.942053789937764e+02  4.904619118462329e+02 -2.918975276816622e+03
-4.942232463214300e+02  4.843311379481549e+02 -2.918975276816622e+03
-4.950780780051603e+02  4.782003640500778e+02 -2.918975276816622e+03
-4.936553273775464e+02  4.720695901519998e+02 -2.918975276816622e+03
-4.944348331266461e+02  4.659388162539213e+02 -2.918975276816622e+03
-4.938611704884892e+02  4.598080423558433e+02 -2.918975276816622e+03
-4.934546192251705e+02  4.536772684577654e+02 -2.918975276816622e+03
-4.944592859888244e+02  4.475459898487644e+02 -2.918975276816622e+03
-4.934307761251013e+02  4.414144206687987e+02 -2.918975276816622e+03
-4.939220861463694e+02  4.352799405316537e+02 -2.918975276816622e+03
-4.931569965980312e+02  4.291612456487301e+02 -2.918975276816622e+03
-4.940457736179139e+02  4.230233989673761e+02 -2.918975276816622e+03
-4.930290941838419e+02  4.168917684636393e+02 -2.918975276816622e+03
-4.936534816862844e+02  4.107618511712202e+02 -2.918975276816622e+03
-4.927911522421939e+02  4.046309376334310e+02 -2.918975276816622e+03
-4.913808257731376e+02  3.985003033750642e+02 -2.918975276816622e+03
-4.918539723466172e+02  3.923684779790410e+02 -2.918975276816622e+03
-4.910019582168821e+02  3.862395780341847e+02 -2.918975276816622e+03
-4.923959457168597e+02  3.801079816808308e+02 -2.918975276816622e+03
-4.910007911780997e+02  3.739761386226420e+02 -2.918975276816622e+03
-4.918341564064254e+02  3.678461476411205e+02 -2.918975276816622e+03
-4.907262872247276e+02  3.617156599865969e+02 -2.918975276816622e+03
-4.913296741692438e+02  3.555848860885192e+02 -2.918975276816622e+03
-4.901198713031541e+02  3.494541121904413e+02 -2.918975276816622e+03
-4.908343413839931e+02  3.433217640570801e+02 -2.918975276816622e+03
-4.894897626026359e+02  3.371909414117098e+02 -2.918975276816622e+03
-4.897811265499741e+02  3.310617904962073e+02 -2.918975276816622e+03
-4.880627120308625e+02  3.249310122280648e+02 -2.918975276816622e+03
-4.883568463676299e+02  3.188001246052949e+02 -2.918975276816622e+03
-4.873243730976083e+02  3.126694688019737e+02 -2.918975276816622e+03
-4.872822613997810e+02  3.065391068032427e+02 -2.918975276816622e+03
-4.855018502808589e+02  3.004079210058178e+02 -2.918975276816622e+03
-4.852811007483493e+02  2.942775445871361e+02 -2.918975276816622e+03
-4.866249181328515e+02  2.881452988013431e+02 -2.918975276816622e+03
-4.849527205603629e+02  2.820157091137407e+02 -2.918975276816622e+03
-4.855164600214758e+02  2.758848254135060e+02 -2.918975276816622e+03
-4.844624034170380e+02  2.697538619901893e+02 -2.918975276816622e+03
-4.850476141827348e+02  2.636232776173501e+02 -2.918975276816622e+03
-4.838600741253848e+02  2.574925037192722e+02 -2.918975276816622e+03
-4.840315264996914e+02  2.513617298211942e+02 -2.918975276816622e+03
-4.834963237308017e+02  2.452314233282912e+02 -2.918975276816622e+03
-4.826340099641595e+02  2.391000361148774e+02 -2.918975276816622e+03
-4.835328325529325e+02  2.329687303215998e+02 -2.918975276816622e+03
-4.833566579273138e+02  2.268381914962521e+02 -2.918975276816622e+03
-4.841419281187240e+02  2.207078603308049e+02 -2.918975276816622e+03
-4.828045522925004e+02  2.145770864327270e+02 -2.918975276816622e+03
-4.834754685015830e+02  2.084455179260856e+02 -2.918975276816622e+03
-4.824916827853951e+02  2.023155386365711e+02 -2.918975276816622e+03
-4.828903577216049e+02  1.961853855529923e+02 -2.918975276816622e+03
-4.817133147637262e+02  1.900539908404153e+02 -2.918975276816622e+03
-4.811589049835977e+02  1.839232169423373e+02 -2.918975276816622e+03
-4.822104686744537e+02  1.777924430442594e+02 -2.918975276816622e+03
-4.820023852284000e+02  1.716614891839916e+02 -2.918975276816622e+03
-4.811167863144709e+02  1.655321163857524e+02 -2.918975276816622e+03
-4.812786705042482e+02  1.594001213500256e+02 -2.918975276816622e+03
-4.798755982272395e+02  1.533141590046919e+02 -2.918975276816622e+03
-4.808020552282821e+02  1.471375106489120e+02 -2.918975276816622e+03
-4.791537481692407e+02  1.410483387268075e+02 -2.918975276816622e+03
-4.784445463011475e+02  1.348733421470391e+02 -2.918975276816622e+03
-4.793591503515557e+02  1.287455192944572e+02 -2.918975276816622e+03
-4.781497106339942e+02  1.226154779615580e+02 -2.918975276816622e+03
-4.783893848385480e+02  1.164847040634801e+02 -2.918975276816622e+03
-4.777567576610440e+02  1.103539301654021e+02 -2.918975276816622e+03
-4.781158351757862e+02  1.042231562673242e+02 -2.918975276816622e+03
-4.768167569818410e+02  9.809238236924627e+01 -2.918975276816622e+03
-4.776343411659943e+02  9.196160847116832e+01 -2.918975276816622e+03
-4.777048848999544e+02  8.583073994808754e+01 -2.918975276816622e+03
-4.763377476363657e+02  7.970006067501247e+01 -2.918975276816622e+03
-4.772989272536556e+02  7.356928677693486e+01 -2.918975276816622e+03
-4.774535438681297e+02  6.743851287885693e+01 -2.918975276816622e+03
-4.771407208103785e+02  6.130798707476028e+01 -2.918975276816622e+03
-4.779096234262184e+02  5.518058195577259e+01 -2.918975276816622e+03
-4.767995296550812e+02  4.904619118462314e+01 -2.918975276816622e+03
-4.777170511779921e+02  4.286907818142922e+01 -2.918975276816622e+03
-4.766949271993142e+02  3.678464338846726e+01 -2.918975276816622e+03
-4.779359784779943e+02  3.072260169702180e+01 -2.918975276816622e+03
-4.768580320736904e+02  2.452309559231140e+01 -2.918975276816622e+03
-4.775158101284097e+02  1.841817569463732e+01 -2.918975276816622e+03
-4.772215358700470e+02  1.226001789547940e+01 -2.918975276816622e+03
-4.783849722844441e+02  6.130773898077607e+00 -2.918975276816622e+03
 5.175609880806345e+02 -9.463572473325264e-32  2.918975276816622e+03
 5.178780644576582e+02 -6.130936887487614e+00  2.918975276816622e+03
 5.172686269981750e+02 -1.226154779615586e+01  2.918975276816622e+03
 5.160668737713255e+02 -1.839232169423380e+01  2.918975276816622e+03
 5.157537312806073e+02 -2.452309559231173e+01  2.918975276816622e+03
 5.146008721305490e+02 -3.065386949038966e+01  2.918975276816622e+03
 5.148646898896665e+02 -3.678464338846760e+01  2.918975276816622e+03
 5.139411009338254e+02 -4.291541728654551e+01  2.918975276816622e+03
 5.141127146746379e+02 -4.904619118462345e+01  2.918975276816622e+03
 5.127200902049054e+02 -5.517696508270138e+01  2.918975276816622e+03
 5.132923522388010e+02 -6.130773898077932e+01  2.918975276816622e+03
 5.121930260036510e+02 -6.746283446569021e+01  2.918975276816622e+03
 5.129318766243366e+02 -7.356928677693517e+01  2.918975276816622e+03
 5.118018709045895e+02 -7.970006067501311e+01  2.918975276816622e+03
 5.128539337422089e+02 -8.582153062221229e+01  2.918975276816622e+03
 5.116773173866746e+02 -9.195981311156076e+01  2.918975276816622e+03
 5.116562346574161e+02 -9.809238236924691e+01  2.918975276816622e+03
 5.130712164643548e+02 -1.042231562673248e+02  2.918975276816622e+03
 5.128669638779982e+02 -1.103538359692959e+02  2.918975276816622e+03
 5.142774231089105e+02 -1.164847040634807e+02  2.918975276816622e+03
 5.141748699227122e+02 -1.226154779615586e+02  2.918975276816622e+03
 5.160408055355427e+02 -1.287462518596366e+02  2.918975276816622e+03
 5.149487223473402e+02 -1.348770257577145e+02  2.918975276816622e+03
 5.147944313823336e+02 -1.410077996557924e+02  2.918975276816622e+03
 5.155889916849427e+02 -1.471385735538704e+02  2.918975276816622e+03
 5.148957905179855e+02 -1.532693474519483e+02  2.918975276816622e+03
 5.161073839475331e+02 -1.593802842349363e+02  2.918975276816622e+03
 5.157559341008174e+02 -1.655344121335878e+02  2.918975276816622e+03
 5.169369178115611e+02 -1.716616691461815e+02  2.918975276816622e+03
 5.164235451569515e+02 -1.777924430442594e+02  2.918975276816622e+03
 5.180794828286046e+02 -1.839232169423373e+02  2.918975276816622e+03
 5.170387374320525e+02 -1.900539908404153e+02  2.918975276816622e+03
 5.179911043031091e+02 -1.961864027337073e+02  2.918975276816622e+03
 5.179100918041167e+02 -2.023155386365711e+02  2.918975276816622e+03
 5.172516051882010e+02 -2.084456176981386e+02  2.918975276816622e+03
 5.182683402214473e+02 -2.145910991722051e+02  2.918975276816622e+03
 5.171080206649634e+02 -2.207078603308049e+02  2.918975276816622e+03
 5.175530482551950e+02 -2.268379924225416e+02  2.918975276816622e+03
 5.171945105835505e+02 -2.329699100927782e+02  2.918975276816622e+03
 5.179950839140274e+02 -2.391001820250387e+02  2.918975276816622e+03
 5.168941388277312e+02 -2.452065458277156e+02  2.918975276816622e+03
 5.180346403995943e+02 -2.513617298211946e+02  2.918975276816622e+03
 5.192133616944426e+02 -2.574925037192725e+02  2.918975276816622e+03
 5.183523363875016e+02 -2.637674661148443e+02  2.918975276816622e+03
 5.193691898807015e+02 -2.697540515154283e+02  2.918975276816622e+03
 5.186730320069286e+02 -2.758848254135063e+02  2.918975276816622e+03
 5.192935256305931e+02 -2.820147717050136e+02  2.918975276816622e+03
 5.181611596216463e+02 -2.881463732096621e+02  2.918975276816622e+03
 5.180654688258641e+02 -2.942773742269109e+02  2.918975276816622e+03
 5.166338821881596e+02 -3.004419679697247e+02  2.918975276816622e+03
 5.172187980328958e+02 -3.065384120180416e+02  2.918975276816622e+03
 5.170454189459641e+02 -3.126694688019740e+02  2.918975276816622e+03
 5.149201085654912e+02 -3.188002427000516e+02  2.918975276816622e+03
 5.155236894090448e+02 -3.249310165981296e+02  2.918975276816622e+03
 5.141106895407903e+02 -3.310617904962076e+02  2.918975276816622e+03
 5.142138901449626e+02 -3.371931568882162e+02  2.918975276816622e+03
 5.128502932589988e+02 -3.433235216284862e+02  2.918975276816622e+03
 5.133286484639319e+02 -3.494541121904415e+02  2.918975276816622e+03
 5.118332579756948e+02 -3.555848860885195e+02  2.918975276816622e+03
 5.127392007520583e+02 -3.617156599865974e+02  2.918975276816622e+03
 5.109987405420580e+02 -3.678464338846752e+02  2.918975276816622e+03
 5.110800961904881e+02 -3.739772077827531e+02  2.918975276816622e+03
 5.092034634299816e+02 -3.801079816808311e+02  2.918975276816622e+03
 5.086519956735740e+02 -3.862387555789090e+02  2.918975276816622e+03
 5.094746605280449e+02 -3.923695294769871e+02  2.918975276816622e+03
 5.083215688496683e+02 -3.984929761908038e+02  2.918975276816622e+03
 5.082514547511773e+02 -4.046924661993167e+02  2.918975276816622e+03
 5.092122317219086e+02 -4.108026751747573e+02  2.918975276816622e+03
 5.083629857240066e+02 -4.168926250692986e+02  2.918975276816622e+03
 5.095890955185076e+02 -4.230218931966754e+02  2.918975276816622e+03
 5.088931663561077e+02 -4.291546883568716e+02  2.918975276816622e+03
 5.105502437090275e+02 -4.352837097855898e+02  2.918975276816622e+03
 5.097252082628306e+02 -4.414157206616106e+02  2.918975276816622e+03
 5.106875980963414e+02 -4.475465304489662e+02  2.918975276816622e+03
 5.098771548222875e+02 -4.536764738336872e+02  2.918975276816622e+03
 5.104038432584749e+02 -4.598077994537144e+02  2.918975276816622e+03
 5.100185111386708e+02 -4.659388162539221e+02  2.918975276816622e+03
 5.086303552845858e+02 -4.720695901519996e+02  2.918975276816622e+03
 5.083654371846590e+02 -4.782003640500775e+02  2.918975276816622e+03
 5.095628368521545e+02 -4.843311379481552e+02  2.918975276816622e+03
 5.089988695640445e+02 -4.904619118462332e+02  2.918975276816622e+03
 5.100952180593118e+02 -4.965926857443111e+02  2.918975276816622e+03
 5.096065723054355e+02 -5.027234596423891e+02  2.918975276816622e+03
 5.110585581932869e+02 -5.088542335404670e+02  2.918975276816622e+03
 5.107778742815846e+02 -5.149337694011305e+02  2.918975276816622e+03
 5.119073446949110e+02 -5.211165777737325e+02  2.918975276816622e+03
 5.115512247899850e+02 -5.272469923082136e+02  2.918975276816622e+03
 5.117052356433394e+02 -5.333773291327788e+02  2.918975276816622e+03
 5.115860424289635e+02 -5.395081030308567e+02  2.918975276816622e+03
 5.115314431354770e+02 -5.456388005176383e+02  2.918975276816622e+03
 5.110032980026051e+02 -5.517696508270126e+02  2.918975276816622e+03
 5.117559747314143e+02 -5.579004247250906e+02  2.918975276816622e+03
 5.112969483690700e+02 -5.641764133958695e+02  2.918975276816622e+03
 5.121776600779496e+02 -5.701619725212465e+02  2.918975276816622e+03
 5.115168655679611e+02 -5.762922298726423e+02  2.918975276816622e+03
 5.124149955346902e+02 -5.824235203174022e+02  2.918975276816622e+03
 5.126556973753135e+02 -5.885547882482268e+02  2.918975276816622e+03
 5.140626904785208e+02 -5.946084119466093e+02  2.918975276816622e+03
 5.134463511451142e+02 -6.008438508347249e+02  2.918975276816622e+03
 5.142676273251457e+02 -6.069466159097141e+02  2.918975276816622e+03
 5.135228949669170e+02 -6.130773898077921e+02  2.918975276816622e+03
 5.130143257531374e+02 -6.192081637058737e+02  2.918975276816622e+03
5.130143257531374e+02 6.192081637058734e+02 2.918975276816622e+03
5.125057565393574e+02 6.130773898077923e+02 2.918975276816622e+03
5.128055092106807e+02 6.069466159097144e+02 2.918975276816622e+03
5.112536147999787e+02 6.008156020023581e+02 2.918975276816622e+03
5.107771432351757e+02 5.946849531042485e+02 2.918975276816622e+03
5.111970932290957e+02 5.885543155154082e+02 2.918975276816622e+03
5.094588279916418e+02 5.824235203174019e+02 2.918975276816622e+03
5.094526427306982e+02 5.762969449891912e+02 2.918975276816622e+03
5.083865398484796e+02 5.701619725212468e+02 2.918975276816622e+03
5.084535851411331e+02 5.640416216622605e+02 2.918975276816622e+03
5.094525548569122e+02 5.579000893762659e+02 2.918975276816622e+03
5.075912210385719e+02 5.517696508270124e+02 2.918975276816622e+03
5.076688505744769e+02 5.456266811584314e+02 2.918975276816622e+03
5.062442841653240e+02 5.395081030308563e+02 2.918975276816622e+03
5.059012784686486e+02 5.333648671358394e+02 2.918975276816622e+03
5.037821494638109e+02 5.272605354573357e+02 2.918975276816622e+03
5.043953686787641e+02 5.211152553554790e+02 2.918975276816622e+03
5.035484470940272e+02 5.149846747841435e+02 2.918975276816622e+03
5.035708559351532e+02 5.088548120254538e+02 2.918975276816622e+03
5.025904065667196e+02 5.027234596423888e+02 2.918975276816622e+03
5.030429289629512e+02 4.965926857443109e+02 2.918975276816622e+03
5.031796843295182e+02 4.904619118462329e+02 2.918975276816622e+03
5.022416162593913e+02 4.843311379481549e+02 2.918975276816622e+03
5.028741936533080e+02 4.782002351576435e+02 2.918975276816622e+03
5.018844479918072e+02 4.720695901519998e+02 2.918975276816622e+03
5.025989743172925e+02 4.659396474524889e+02 2.918975276816622e+03
5.011106325862468e+02 4.598080423558433e+02 2.918975276816622e+03
5.018843097573399e+02 4.536814704812730e+02 2.918975276816622e+03
5.006432581256569e+02 4.475456986871645e+02 2.918975276816622e+03
5.014271712892316e+02 4.414158072859938e+02 2.918975276816622e+03
4.997284860883601e+02 4.352849467635320e+02 2.918975276816622e+03
5.000349814091101e+02 4.291541728654540e+02 2.918975276816622e+03
4.990163701484358e+02 4.230233572061995e+02 2.918975276816622e+03
4.996176358614835e+02 4.168926250692981e+02 2.918975276816622e+03
4.995943149294266e+02 4.107618511712202e+02 2.918975276816622e+03
4.981127772667301e+02 4.046310772731421e+02 2.918975276816622e+03
4.986721459688259e+02 3.985003033750642e+02 2.918975276816622e+03
4.971977388375746e+02 3.923693737652669e+02 2.918975276816622e+03
4.974126396679532e+02 3.862387555789089e+02 2.918975276816622e+03
4.965509120788073e+02 3.801080632399545e+02 2.918975276816622e+03
4.972255470486309e+02 3.739772077827529e+02 2.918975276816622e+03
4.966011764465749e+02 3.678464338846749e+02 2.918975276816622e+03
4.979891796082640e+02 3.617156599865969e+02 2.918975276816622e+03
4.974305802367527e+02 3.556011593609970e+02 2.918975276816622e+03
4.984994021146398e+02 3.494245075191705e+02 2.918975276816622e+03
4.981075920326200e+02 3.433232700334760e+02 2.918975276816622e+03
4.995527388735452e+02 3.371932506430556e+02 2.918975276816622e+03
4.997730926986272e+02 3.310618980618696e+02 2.918975276816622e+03
4.991773589365927e+02 3.248896846615233e+02 2.918975276816622e+03
5.001541867034950e+02 3.188055754013370e+02 2.918975276816622e+03
5.005217845615496e+02 3.126697152717541e+02 2.918975276816622e+03
4.992776099520455e+02 3.065390670258680e+02 2.918975276816622e+03
5.006203300237008e+02 3.003913069108125e+02 2.918975276816622e+03
5.002690743647391e+02 2.942771544612240e+02 2.918975276816622e+03
5.013678442680911e+02 2.881463732096618e+02 2.918975276816622e+03
5.018382729678885e+02 2.820155993115839e+02 2.918975276816622e+03
5.016963671873356e+02 2.758451107096074e+02 2.918975276816622e+03
5.031989349452499e+02 2.697189184719371e+02 2.918975276816622e+03
5.026900199251828e+02 2.636232776173501e+02 2.918975276816622e+03
5.034798249001529e+02 2.574917530603547e+02 2.918975276816622e+03
5.054421652038891e+02 2.513617298211942e+02 2.918975276816622e+03
5.062495576751964e+02 2.452310883250757e+02 2.918975276816622e+03
5.058543479167675e+02 2.390994811239640e+02 2.918975276816622e+03
5.069261719851509e+02 2.329694535962101e+02 2.918975276816622e+03
5.067844851416538e+02 2.268386342288829e+02 2.918975276816622e+03
5.080926194646491e+02 2.207078603308049e+02 2.918975276816622e+03
5.075384458060820e+02 2.145774445458199e+02 2.918975276816622e+03
5.089027191485239e+02 2.084464603720602e+02 2.918975276816622e+03
5.081662558481792e+02 2.023142841358325e+02 2.918975276816622e+03
5.086856320915089e+02 1.961847647384932e+02 2.918975276816622e+03
5.099134345225289e+02 1.900544771763458e+02 2.918975276816622e+03
5.103359054162085e+02 1.839229932804072e+02 2.918975276816622e+03
5.097767790869739e+02 1.777924430442594e+02 2.918975276816622e+03
5.113767491567386e+02 1.716615146328419e+02 2.918975276816622e+03
5.114942838774200e+02 1.655308952481035e+02 2.918975276816622e+03
5.126593254866095e+02 1.593974195075567e+02 2.918975276816622e+03
5.122875478510089e+02 1.532693474519477e+02 2.918975276816622e+03
5.132581292101875e+02 1.471385735538697e+02 2.918975276816622e+03
5.129293870815252e+02 1.410080290154970e+02 2.918975276816622e+03
5.140640064535584e+02 1.348767652621868e+02 2.918975276816622e+03
5.137283906157403e+02 1.287464811804148e+02 2.918975276816622e+03
5.150295917073562e+02 1.226154779615580e+02 2.918975276816622e+03
5.148357326136470e+02 1.164847040634801e+02 2.918975276816622e+03
5.162029404951923e+02 1.103536697320849e+02 2.918975276816622e+03
5.148616879755303e+02 1.042116624007693e+02 2.918975276816622e+03
5.144311406970730e+02 9.810793395193518e+01 2.918975276816622e+03
5.145321376716613e+02 9.196160847116832e+01 2.918975276816622e+03
5.136636781148044e+02 8.583083457309041e+01 2.918975276816622e+03
5.149695484778382e+02 7.969864765026217e+01 2.918975276816622e+03
5.144179657172086e+02 7.356928677693486e+01 2.918975276816622e+03
5.157028794492521e+02 6.744882961951042e+01 2.918975276816622e+03
5.145960336735104e+02 6.130831013009814e+01 2.918975276816622e+03
5.157620261477064e+02 5.517685904355304e+01 2.918975276816622e+03
5.154488428076759e+02 4.904619118462314e+01 2.918975276816622e+03
5.166386378320195e+02 4.291544970423245e+01 2.918975276816622e+03
5.161061868233509e+02 3.680053587575062e+01 2.918975276816622e+03
5.171780467671057e+02 3.065383036083688e+01 2.918975276816622e+03
5.167392888970163e+02 2.452309559231140e+01 2.918975276816622e+03
5.179008837819954e+02 1.839232169423347e+01 2.918975276816622e+03
5.174257312979759e+02 1.226140256806616e+01 2.918975276816622e+03
5.181113383263835e+02 6.130773898077607e+00 2.918975276816622e+03
-4.866218588705022e+02  8.897852300660230e-32 -2.918975276816622e+03
-4.882384976073272e+02 -6.130773898077932e+00 -2.918975276816622e+03
-4.872944548038564e+02 -1.226154779615586e+01 -2.918975276816622e+03
-4.887286303624050e+02 -1.839213823413865e+01 -2.918975276816622e+03
-4.881054404044737e+02 -2.454600805623625e+01 -2.918975276816622e+03
-4.893481794339518e+02 -3.065386949038966e+01 -2.918975276816622e+03
-4.884471082892320e+02 -3.678487396777333e+01 -2.918975276816622e+03
-4.907692751288060e+02 -4.291575559216617e+01 -2.918975276816622e+03
-4.896581952645766e+02 -4.904619118462345e+01 -2.918975276816622e+03
-4.908349997084654e+02 -5.517675761024622e+01 -2.918975276816622e+03
-4.921784643065101e+02 -6.130757267229020e+01 -2.918975276816622e+03
-4.912136259248650e+02 -6.743886900544368e+01 -2.918975276816622e+03
-4.926429936453938e+02 -7.357033725664706e+01 -2.918975276816622e+03
-4.915122329367816e+02 -7.969904376543376e+01 -2.918975276816622e+03
-4.927850451604572e+02 -8.583083457309105e+01 -2.918975276816622e+03
-4.917048763678177e+02 -9.196160847116897e+01 -2.918975276816622e+03
-4.922356744564268e+02 -9.810934893481826e+01 -2.918975276816622e+03
-4.923000405604532e+02 -1.042231562673248e+02 -2.918975276816622e+03
-4.934511929923798e+02 -1.103539301654028e+02 -2.918975276816622e+03
-4.934306561378565e+02 -1.164847040634807e+02 -2.918975276816622e+03
-4.924391960009278e+02 -1.226154779615586e+02 -2.918975276816622e+03
-4.930875195080887e+02 -1.287462518596366e+02 -2.918975276816622e+03
-4.925170302201818e+02 -1.348765947443521e+02 -2.918975276816622e+03
-4.935179748068463e+02 -1.410077996557924e+02 -2.918975276816622e+03
-4.923410907354711e+02 -1.471388566094593e+02 -2.918975276816622e+03
-4.934645848740190e+02 -1.532705224540592e+02 -2.918975276816622e+03
-4.924578734127641e+02 -1.594001213500256e+02 -2.918975276816622e+03
-4.933875951973689e+02 -1.655308952481035e+02 -2.918975276816622e+03
-4.928361337893325e+02 -1.716616691461815e+02 -2.918975276816622e+03
-4.932564368509755e+02 -1.777924430442594e+02 -2.918975276816622e+03
-4.919644156370956e+02 -1.839232169423373e+02 -2.918975276816622e+03
-4.923430384295784e+02 -1.900540680653199e+02 -2.918975276816622e+03
-4.908758124193669e+02 -1.961847647384932e+02 -2.918975276816622e+03
-4.910688296026055e+02 -2.023188684868172e+02 -2.918975276816622e+03
-4.924798020338563e+02 -2.084463125346491e+02 -2.918975276816622e+03
-4.915226924826413e+02 -2.145768232745128e+02 -2.918975276816622e+03
-4.927348857284668e+02 -2.207078603308049e+02 -2.918975276816622e+03
-4.920350202345346e+02 -2.268370548605015e+02 -2.918975276816622e+03
-4.926462634795444e+02 -2.329698401229822e+02 -2.918975276816622e+03
-4.917745644378539e+02 -2.390996524427993e+02 -2.918975276816622e+03
-4.921895816978046e+02 -2.452311041184776e+02 -2.918975276816622e+03
-4.934852738403224e+02 -2.513617298211946e+02 -2.918975276816622e+03
-4.924193439253829e+02 -2.574925037192725e+02 -2.918975276816622e+03
-4.936127581508606e+02 -2.636232776173504e+02 -2.918975276816622e+03
-4.925098781876270e+02 -2.697543214797775e+02 -2.918975276816622e+03
-4.941019010981230e+02 -2.758480431593034e+02 -2.918975276816622e+03
-4.945697441045784e+02 -2.820155993115842e+02 -2.918975276816622e+03
-4.933741103251775e+02 -2.881463732096621e+02 -2.918975276816622e+03
-4.950168689769923e+02 -2.942770747048441e+02 -2.918975276816622e+03
-4.943224659108851e+02 -3.004070499042052e+02 -2.918975276816622e+03
-4.952951075349002e+02 -3.065387200200067e+02 -2.918975276816622e+03
-4.963104438050617e+02 -3.126689519625397e+02 -2.918975276816622e+03
-4.962187557711360e+02 -3.188001737298504e+02 -2.918975276816622e+03
-4.974880245580554e+02 -3.249310165981296e+02 -2.918975276816622e+03
-4.969211857749671e+02 -3.310617904962076e+02 -2.918975276816622e+03
-4.979700881560731e+02 -3.371925643942856e+02 -2.918975276816622e+03
-4.975828363511832e+02 -3.433230372153997e+02 -2.918975276816622e+03
-4.991995125650184e+02 -3.494541121904415e+02 -2.918975276816622e+03
-4.986467296181720e+02 -3.555848860885195e+02 -2.918975276816622e+03
-4.999164457847855e+02 -3.617159299054719e+02 -2.918975276816622e+03
-5.005235630874046e+02 -3.678487342400887e+02 -2.918975276816622e+03
-5.002170203766593e+02 -3.739773783808985e+02 -2.918975276816622e+03
-5.018680991032723e+02 -3.801072691562277e+02 -2.918975276816622e+03
-5.021830946429308e+02 -3.862387555789090e+02 -2.918975276816622e+03
-5.025935959428150e+02 -3.923359817009112e+02 -2.918975276816622e+03
-5.036206227550961e+02 -3.985010039952433e+02 -2.918975276816622e+03
-5.028948521705262e+02 -4.046311005015565e+02 -2.918975276816622e+03
-5.039074779625272e+02 -4.107616769665821e+02 -2.918975276816622e+03
-5.035083465230096e+02 -4.168926250692986e+02 -2.918975276816622e+03
-5.047911873901714e+02 -4.230233989673766e+02 -2.918975276816622e+03
-5.045752874369279e+02 -4.291541728654546e+02 -2.918975276816622e+03
-5.061623926074504e+02 -4.352849467635326e+02 -2.918975276816622e+03
-5.060402018067013e+02 -4.414157206616106e+02 -2.918975276816622e+03
-5.069814222515825e+02 -4.475464945596885e+02 -2.918975276816622e+03
-5.095258653283281e+02 -4.536771279372472e+02 -2.918975276816622e+03
-5.087056785216898e+02 -4.598080423558442e+02 -2.918975276816622e+03
-5.102677951517011e+02 -4.658934016892194e+02 -2.918975276816622e+03
-5.094906279553551e+02 -4.720690009883222e+02 -2.918975276816622e+03
-5.110466001490715e+02 -4.782003640500775e+02 -2.918975276816622e+03
-5.110593394316805e+02 -4.843311379481552e+02 -2.918975276816622e+03
-5.124676403418810e+02 -4.904619118462332e+02 -2.918975276816622e+03
-5.119903691424782e+02 -4.965929598853366e+02 -2.918975276816622e+03
-5.131437127365774e+02 -5.027539391877537e+02 -2.918975276816622e+03
-5.131731775862337e+02 -5.088542335404670e+02 -2.918975276816622e+03
-5.113967389800627e+02 -5.149850074385452e+02 -2.918975276816622e+03
-5.121880707145033e+02 -5.211157813366231e+02 -2.918975276816622e+03
-5.114293998247749e+02 -5.272435512848973e+02 -2.918975276816622e+03
-5.114724080301533e+02 -5.333773291327788e+02 -2.918975276816622e+03
-5.126762609280418e+02 -5.395081030308567e+02 -2.918975276816622e+03
-5.121641664868961e+02 -5.456394962455540e+02 -2.918975276816622e+03
-5.126374092969310e+02 -5.517698481039239e+02 -2.918975276816622e+03
-5.128012721469414e+02 -5.579005112588761e+02 -2.918975276816622e+03
-5.120512870530475e+02 -5.640305110846168e+02 -2.918975276816622e+03
-5.127433650758787e+02 -5.701858550709516e+02 -2.918975276816622e+03
-5.124535959553942e+02 -5.762927464193242e+02 -2.918975276816622e+03
-5.129961897020746e+02 -5.824194578732699e+02 -2.918975276816622e+03
-5.121120860391648e+02 -5.885542942154801e+02 -2.918975276816622e+03
-5.129344767674166e+02 -5.946850681135581e+02 -2.918975276816622e+03
-5.121969627050630e+02 -6.008314491374932e+02 -2.918975276816622e+03
-5.127663466386009e+02 -6.069466159097141e+02 -2.918975276816622e+03
-5.120657605920874e+02 -6.130756546492106e+02 -2.918975276816622e+03
-5.124584624437684e+02 -6.192081637058734e+02 -2.918975276816622e+03
-5.124584624437684e+02  6.192081637058737e+02 -2.918975276816622e+03
-5.128510589927401e+02  6.130772990769608e+02 -2.918975276816622e+03
-5.112851961400463e+02  6.069490610485897e+02 -2.918975276816622e+03
-5.115872843821205e+02  6.008154985104046e+02 -2.918975276816622e+03
-5.102409762108970e+02  5.946850681135579e+02 -2.918975276816622e+03
-5.106497580584726e+02  5.885524525053659e+02 -2.918975276816622e+03
-5.089857693404213e+02  5.824234777642951e+02 -2.918975276816622e+03
-5.097638518744266e+02  5.762927464193239e+02 -2.918975276816622e+03
-5.077594532862444e+02  5.701619907501178e+02 -2.918975276816622e+03
-5.081284044389350e+02  5.640464095035298e+02 -2.918975276816622e+03
-5.066787283986439e+02  5.578901239627266e+02 -2.918975276816622e+03
-5.066022802889660e+02  5.517670549353875e+02 -2.918975276816622e+03
-5.058988672783277e+02  5.456388769289343e+02 -2.918975276816622e+03
-5.064871226612946e+02  5.395081030308563e+02 -2.918975276816622e+03
-5.045899687062960e+02  5.333773291327784e+02 -2.918975276816622e+03
-5.042490534202146e+02  5.272465552347004e+02 -2.918975276816622e+03
-5.025638977209485e+02  5.211159675600996e+02 -2.918975276816622e+03
-5.032056601806188e+02  5.150060376791307e+02 -2.918975276816622e+03
-5.030020634882206e+02  5.088238010690807e+02 -2.918975276816622e+03
-5.047478967469503e+02  5.027234596423888e+02 -2.918975276816622e+03
-5.035322710217468e+02  4.965927065065006e+02 -2.918975276816622e+03
-5.044093455606196e+02  4.904619118462329e+02 -2.918975276816622e+03
-5.038470765929029e+02  4.843306472638785e+02 -2.918975276816622e+03
-5.023809695373798e+02  4.782006917283468e+02 -2.918975276816622e+03
-5.037694202417653e+02  4.720695901519998e+02 -2.918975276816622e+03
-5.018694513544489e+02  4.659388162539213e+02 -2.918975276816622e+03
-5.028779134958821e+02  4.598077419405475e+02 -2.918975276816622e+03
-5.019034146675846e+02  4.536910616196602e+02 -2.918975276816622e+03
-5.025366039964667e+02  4.475464945596876e+02 -2.918975276816622e+03
-5.038234909712893e+02  4.414169946772660e+02 -2.918975276816622e+03
-5.032472574842928e+02  4.352849467635320e+02 -2.918975276816622e+03
-5.022458622103683e+02  4.291541728654540e+02 -2.918975276816622e+03
-5.023602792729280e+02  4.230233989673761e+02 -2.918975276816622e+03
-5.033403097850727e+02  4.168926250692981e+02 -2.918975276816622e+03
-5.016063949599485e+02  4.107618511712202e+02 -2.918975276816622e+03
-5.008963838613003e+02  4.046312638547431e+02 -2.918975276816622e+03
-5.013027546919804e+02  3.985005659423148e+02 -2.918975276816622e+03
-5.000808915182635e+02  3.923702714863272e+02 -2.918975276816622e+03
-5.005138216478085e+02  3.862396537409313e+02 -2.918975276816622e+03
-4.996585379323244e+02  3.801100721604015e+02 -2.918975276816622e+03
-5.004644259441839e+02  3.739772077827529e+02 -2.918975276816622e+03
-4.993397449252661e+02  3.678423055399963e+02 -2.918975276816622e+03
-5.002925439874405e+02  3.617154845274856e+02 -2.918975276816622e+03
-4.990356673099961e+02  3.555848860885192e+02 -2.918975276816622e+03
-4.995574057091284e+02  3.494541121904413e+02 -2.918975276816622e+03
-4.984131698462585e+02  3.433233382923632e+02 -2.918975276816622e+03
-4.986615373288222e+02  3.371924913480395e+02 -2.918975276816622e+03
-4.967421877999986e+02  3.310617904962073e+02 -2.918975276816622e+03
-4.976071679527691e+02  3.249313380185415e+02 -2.918975276816622e+03
-4.961230927770732e+02  3.187981057098146e+02 -2.918975276816622e+03
-4.963672015430408e+02  3.126695639115374e+02 -2.918975276816622e+03
-4.950483267265988e+02  3.065386949038958e+02 -2.918975276816622e+03
-4.960674982648943e+02  3.004085066414320e+02 -2.918975276816622e+03
-4.950627106261908e+02  2.942771471077398e+02 -2.918975276816622e+03
-4.956858557979028e+02  2.881459629417747e+02 -2.918975276816622e+03
-4.946171314336447e+02  2.820170410893376e+02 -2.918975276816622e+03
-4.950644480416438e+02  2.758848788663300e+02 -2.918975276816622e+03
-4.938812034853559e+02  2.697531969288626e+02 -2.918975276816622e+03
-4.942611814065576e+02  2.636231890160418e+02 -2.918975276816622e+03
-4.926734530963162e+02  2.574918819403881e+02 -2.918975276816622e+03
-4.928469099516980e+02  2.513615755408408e+02 -2.918975276816622e+03
-4.915283197060319e+02  2.452309444241160e+02 -2.918975276816622e+03
-4.919007868455403e+02  2.390999029825492e+02 -2.918975276816622e+03
-4.912413591342133e+02  2.329675529873068e+02 -2.918975276816622e+03
-4.923602462236439e+02  2.268276500562551e+02 -2.918975276816622e+03
-4.920022720584560e+02  2.207073949405095e+02 -2.918975276816622e+03
-4.914996378915300e+02  2.145770864327270e+02 -2.918975276816622e+03
-4.926688021175220e+02  2.084463125346491e+02 -2.918975276816622e+03
-4.912610326548880e+02  2.023153636725552e+02 -2.918975276816622e+03
-4.919417467888080e+02  1.961853984779649e+02 -2.918975276816622e+03
-4.908865672454675e+02  1.900532383040079e+02 -2.918975276816622e+03
-4.915275347863443e+02  1.839226465482697e+02 -2.918975276816622e+03
-4.904350689969340e+02  1.777886970407045e+02 -2.918975276816622e+03
-4.910844890951789e+02  1.716614321058639e+02 -2.918975276816622e+03
-4.900270063415664e+02  1.655325512146734e+02 -2.918975276816622e+03
-4.905148110324075e+02  1.594001213500256e+02 -2.918975276816622e+03
-4.896119359741510e+02  1.532706864514095e+02 -2.918975276816622e+03
-4.899712035775883e+02  1.471409452115022e+02 -2.918975276816622e+03
-4.882290607935467e+02  1.410077996557918e+02 -2.918975276816622e+03
-4.884415756813358e+02  1.348770257577139e+02 -2.918975276816622e+03
-4.871277784531495e+02  1.287476201951777e+02 -2.918975276816622e+03
-4.876463019969321e+02  1.226161195920176e+02 -2.918975276816622e+03
-4.868628067360634e+02  1.164847040634801e+02 -2.918975276816622e+03
-4.873811764699658e+02  1.103539301654021e+02 -2.918975276816622e+03
-4.858806472141436e+02  1.042231562673242e+02 -2.918975276816622e+03
-4.865708518625946e+02  9.809267096278289e+01 -2.918975276816622e+03
-4.854293641347376e+02  9.197123996410816e+01 -2.918975276816622e+03
-4.862495131710762e+02  8.583182936266029e+01 -2.918975276816622e+03
-4.857329659930620e+02  7.970006915720839e+01 -2.918975276816622e+03
-4.854963950587785e+02  7.356928677693486e+01 -2.918975276816622e+03
-4.861857256039023e+02  6.743851287885693e+01 -2.918975276816622e+03
-4.847996075543741e+02  6.129084360207526e+01 -2.918975276816622e+03
-4.854490950306163e+02  5.520634980502072e+01 -2.918975276816622e+03
-4.868099645293333e+02  4.904619118462314e+01 -2.918975276816622e+03
-4.862100886020496e+02  4.291541728654521e+01 -2.918975276816622e+03
-4.867541277160107e+02  3.678464338846726e+01 -2.918975276816622e+03
-4.863510117991016e+02  3.065386949038935e+01 -2.918975276816622e+03
-4.867827955730419e+02  2.452309559231140e+01 -2.918975276816622e+03
-4.851965018326134e+02  1.839232169423347e+01 -2.918975276816622e+03
-4.865816986108690e+02  1.226048840493366e+01 -2.918975276816622e+03
-4.860589661449188e+02  6.130773898077607e+00 -2.918975276816622e+03
5.272607115869237e+02 9.810442676830916e-02 2.918975276816622e+03
 5.265269799795736e+02 -6.130773898077932e+00  2.918975276816622e+03
 5.267726329486261e+02 -1.226081241682281e+01  2.918975276816622e+03
 5.255211219859856e+02 -1.839232169423380e+01  2.918975276816622e+03
 5.262399991666700e+02 -2.452309559231173e+01  2.918975276816622e+03
 5.242925466117682e+02 -3.065386949038966e+01  2.918975276816622e+03
 5.245678665345407e+02 -3.682271527394935e+01  2.918975276816622e+03
 5.229645453643977e+02 -4.294567750851984e+01  2.918975276816622e+03
 5.235592506411616e+02 -4.904619118462345e+01  2.918975276816622e+03
 5.230470447165180e+02 -5.517696508270138e+01  2.918975276816622e+03
 5.213680326926245e+02 -6.130773898077932e+01  2.918975276816622e+03
 5.222527351385615e+02 -6.743851287885727e+01  2.918975276816622e+03
 5.214186034023714e+02 -7.356928677693517e+01  2.918975276816622e+03
 5.225867475539274e+02 -7.970006067501311e+01  2.918975276816622e+03
 5.214781725293188e+02 -8.583083457309105e+01  2.918975276816622e+03
 5.225329835919313e+02 -9.196160847116897e+01  2.918975276816622e+03
 5.223868553353059e+02 -9.807782364974187e+01  2.918975276816622e+03
 5.209433379805621e+02 -1.042231562673248e+02  2.918975276816622e+03
 5.224775814301025e+02 -1.103539301654028e+02  2.918975276816622e+03
 5.224992408569004e+02 -1.164845191034511e+02  2.918975276816622e+03
 5.246370058970340e+02 -1.226341904249230e+02  2.918975276816622e+03
 5.238308933543809e+02 -1.288610601139148e+02  2.918975276816622e+03
 5.246299686450503e+02 -1.348770257577145e+02  2.918975276816622e+03
 5.234968378679914e+02 -1.410077996557924e+02  2.918975276816622e+03
 5.241904003313487e+02 -1.471484439400464e+02  2.918975276816622e+03
 5.234314817552497e+02 -1.532584904896817e+02  2.918975276816622e+03
 5.248090348922043e+02 -1.594005939003947e+02  2.918975276816622e+03
 5.245449169155318e+02 -1.655308952481035e+02  2.918975276816622e+03
 5.260962928360776e+02 -1.716681298994008e+02  2.918975276816622e+03
 5.255471365566125e+02 -1.777924430442594e+02  2.918975276816622e+03
 5.262997769010861e+02 -1.839232121217478e+02  2.918975276816622e+03
 5.266525049011600e+02 -1.900226864082750e+02  2.918975276816622e+03
 5.260824355581846e+02 -1.961847647384932e+02  2.918975276816622e+03
 5.266765132790299e+02 -2.023155460857245e+02  2.918975276816622e+03
 5.256416368842807e+02 -2.084460055166956e+02  2.918975276816622e+03
 5.265800529926858e+02 -2.145461833215474e+02  2.918975276816622e+03
 5.258549481504022e+02 -2.207036070854907e+02  2.918975276816622e+03
 5.267015046370111e+02 -2.268386342288829e+02  2.918975276816622e+03
 5.253460990290196e+02 -2.329694081269608e+02  2.918975276816622e+03
 5.251720659335811e+02 -2.390995865267034e+02  2.918975276816622e+03
 5.269492608949710e+02 -2.452309559231166e+02  2.918975276816622e+03
 5.264074941701081e+02 -2.513611537501299e+02  2.918975276816622e+03
 5.263123815996132e+02 -2.574925037192725e+02  2.918975276816622e+03
 5.276371053605735e+02 -2.636232776173504e+02  2.918975276816622e+03
 5.267163700623298e+02 -2.697323403668763e+02  2.918975276816622e+03
 5.278601148241546e+02 -2.758847485750435e+02  2.918975276816622e+03
 5.270511065809678e+02 -2.820161134739735e+02  2.918975276816622e+03
 5.272389946011788e+02 -2.881464046778704e+02  2.918975276816622e+03
 5.255392285085545e+02 -2.942353194914705e+02  2.918975276816622e+03
 5.259854924787995e+02 -3.004079210058180e+02  2.918975276816622e+03
 5.246104066451934e+02 -3.065386949038960e+02  2.918975276816622e+03
 5.256242288460789e+02 -3.126700152873517e+02  2.918975276816622e+03
 5.238969005009716e+02 -3.188002427000516e+02  2.918975276816622e+03
 5.241662960256197e+02 -3.249310165981296e+02  2.918975276816622e+03
 5.222906215060176e+02 -3.310617904962076e+02  2.918975276816622e+03
 5.236492035347699e+02 -3.371927592949087e+02  2.918975276816622e+03
 5.232110380366707e+02 -3.433232620707346e+02  2.918975276816622e+03
 5.214252784208788e+02 -3.494541121904415e+02  2.918975276816622e+03
 5.216434561148221e+02 -3.555848860885195e+02  2.918975276816622e+03
 5.203931310741932e+02 -3.617156599865974e+02  2.918975276816622e+03
 5.205008561277544e+02 -3.678463648482646e+02  2.918975276816622e+03
 5.191830175512451e+02 -3.739772077827531e+02  2.918975276816622e+03
 5.195885651666881e+02 -3.800748420298956e+02  2.918975276816622e+03
 5.189044160892755e+02 -3.862387555789090e+02  2.918975276816622e+03
 5.171940156456702e+02 -3.923663171139095e+02  2.918975276816622e+03
 5.180701881127950e+02 -3.984995194282660e+02  2.918975276816622e+03
 5.172661978965911e+02 -4.046310772731430e+02  2.918975276816622e+03
 5.184507312173148e+02 -4.107618511712207e+02  2.918975276816622e+03
 5.178529446708505e+02 -4.168926250692986e+02  2.918975276816622e+03
 5.186289070903000e+02 -4.230233989673766e+02  2.918975276816622e+03
 5.181866178571516e+02 -4.291541728654546e+02  2.918975276816622e+03
 5.196684741397755e+02 -4.352873709981079e+02  2.918975276816622e+03
 5.197471788856003e+02 -4.414157206616106e+02  2.918975276816622e+03
 5.189395403376167e+02 -4.475454438031674e+02  2.918975276816622e+03
 5.198583381610698e+02 -4.536766102128274e+02  2.918975276816622e+03
 5.186096875210847e+02 -4.598089314226802e+02  2.918975276816622e+03
 5.197016102444767e+02 -4.659018859773987e+02  2.918975276816622e+03
 5.192887942499348e+02 -4.720686679062972e+02  2.918975276816622e+03
 5.179728849867631e+02 -4.782312719228510e+02  2.918975276816622e+03
 5.182724831724963e+02 -4.843314570187373e+02  2.918975276816622e+03
 5.173011676045991e+02 -4.904619118462332e+02  2.918975276816622e+03
 5.189267416622641e+02 -4.965930490393850e+02  2.918975276816622e+03
 5.195496632278069e+02 -5.027234596423891e+02  2.918975276816622e+03
 5.190947842391165e+02 -5.088542335404670e+02  2.918975276816622e+03
 5.201044442957932e+02 -5.149867290656299e+02  2.918975276816622e+03
 5.196212833033879e+02 -5.211170513813970e+02  2.918975276816622e+03
 5.205668506903055e+02 -5.272462451909768e+02  2.918975276816622e+03
 5.198810014542036e+02 -5.333773291327788e+02  2.918975276816622e+03
 5.204158366311325e+02 -5.394595365271500e+02  2.918975276816622e+03
 5.195994370906496e+02 -5.456388769289347e+02  2.918975276816622e+03
 5.206713134542271e+02 -5.516977724214703e+02  2.918975276816622e+03
 5.198903988123668e+02 -5.579004247250906e+02  2.918975276816622e+03
 5.197468544007828e+02 -5.639913720162433e+02  2.918975276816622e+03
 5.207807462843156e+02 -5.701619725212465e+02  2.918975276816622e+03
 5.201664466487780e+02 -5.762927464193242e+02  2.918975276816622e+03
 5.214330243080110e+02 -5.824235203174022e+02  2.918975276816622e+03
 5.213507372335442e+02 -5.884057881287534e+02  2.918975276816622e+03
 5.229483978574203e+02 -5.947033308814815e+02  2.918975276816622e+03
 5.223686145911558e+02 -6.008160722018011e+02  2.918975276816622e+03
 5.232816268509015e+02 -6.069206589942102e+02  2.918975276816622e+03
 5.223542529222780e+02 -6.130773898077921e+02  2.918975276816622e+03
 5.217775284704405e+02 -6.192081637058737e+02  2.918975276816622e+03
5.217775284704409e+02 6.192081637058734e+02 2.918975276816622e+03
5.212008040186024e+02 6.130773898077923e+02 2.918975276816622e+03
5.219579747605767e+02 6.069466331964024e+02 2.918975276816622e+03
5.208153345236973e+02 6.008158420116364e+02 2.918975276816622e+03
5.217830234221614e+02 5.946850681135579e+02 2.918975276816622e+03
5.201692140179717e+02 5.886517561281165e+02 2.918975276816622e+03
5.185287754960042e+02 5.824260649910640e+02 2.918975276816622e+03
5.192111545955680e+02 5.762921527582059e+02 2.918975276816622e+03
5.177944555081781e+02 5.701619725212468e+02 2.918975276816622e+03
5.182472913308098e+02 5.640311986231688e+02 2.918975276816622e+03
5.173825298665981e+02 5.579004247250908e+02 2.918975276816622e+03
5.180982918069421e+02 5.517755177902444e+02 2.918975276816622e+03
5.156986024821276e+02 5.456396151343818e+02 2.918975276816622e+03
5.149993350083196e+02 5.395073804991156e+02 2.918975276816622e+03
5.146448238990704e+02 5.333772299099066e+02 2.918975276816622e+03
5.132925440540735e+02 5.272442972395347e+02 2.918975276816622e+03
5.130492781082248e+02 5.211157813366234e+02 2.918975276816622e+03
5.116328626034263e+02 5.149847713467719e+02 2.918975276816622e+03
5.123762425516028e+02 5.088542335404669e+02 2.918975276816622e+03
5.115223544108183e+02 5.027229030931962e+02 2.918975276816622e+03
5.116771303422046e+02 4.966179708242155e+02 2.918975276816622e+03
5.110416093017049e+02 4.904646533491717e+02 2.918975276816622e+03
5.114267861250151e+02 4.843311379481549e+02 2.918975276816622e+03
5.103017448157182e+02 4.782003640500778e+02 2.918975276816622e+03
5.109204764869989e+02 4.720697540917682e+02 2.918975276816622e+03
5.098085114805065e+02 4.658646536246698e+02 2.918975276816622e+03
5.109268679832406e+02 4.598078889316238e+02 2.918975276816622e+03
5.097128410470058e+02 4.536729803136248e+02 2.918975276816622e+03
5.104715525997045e+02 4.475464945596876e+02 2.918975276816622e+03
5.088561492614511e+02 4.414162592808809e+02 2.918975276816622e+03
5.091173621743561e+02 4.352849467635320e+02 2.918975276816622e+03
5.080249417765267e+02 4.291541728654540e+02 2.918975276816622e+03
5.086946748962592e+02 4.230246675591231e+02 2.918975276816622e+03
5.076203790625953e+02 4.168904724578319e+02 2.918975276816622e+03
5.081681304530854e+02 4.107616506814097e+02 2.918975276816622e+03
5.073350023711979e+02 4.046301076075249e+02 2.918975276816622e+03
5.073938487773123e+02 3.984873036642697e+02 2.918975276816622e+03
5.062795200151935e+02 3.923473547865366e+02 2.918975276816622e+03
5.065433896545651e+02 3.862405795141744e+02 2.918975276816622e+03
5.057372752146729e+02 3.801254839588758e+02 2.918975276816622e+03
5.058618774168177e+02 3.739772077827529e+02 2.918975276816622e+03
5.052449306115966e+02 3.678464338846749e+02 2.918975276816622e+03
5.066686349611284e+02 3.617156599865969e+02 2.918975276816622e+03
5.057919295470999e+02 3.555848860885192e+02 2.918975276816622e+03
5.071077393751209e+02 3.494597525036904e+02 2.918975276816622e+03
5.067073478948638e+02 3.433233382923632e+02 2.918975276816622e+03
5.077222330802416e+02 3.371931139939874e+02 2.918975276816622e+03
5.071162162482860e+02 3.310615234668413e+02 2.918975276816622e+03
5.085004241992320e+02 3.249309507193839e+02 2.918975276816622e+03
5.091664141793386e+02 3.188002427000514e+02 2.918975276816622e+03
5.085375059498051e+02 3.126695633574521e+02 2.918975276816622e+03
5.092589634546102e+02 3.065386949038958e+02 2.918975276816622e+03
5.088943259356960e+02 3.004079210058178e+02 2.918975276816622e+03
5.100106952803091e+02 2.942771471077398e+02 2.918975276816622e+03
5.097313489364514e+02 2.881463732096618e+02 2.918975276816622e+03
5.106369652677641e+02 2.819989524367371e+02 2.918975276816622e+03
5.105162326594158e+02 2.758833740977525e+02 2.918975276816622e+03
5.118909583284554e+02 2.697540365871536e+02 2.918975276816622e+03
5.119126815414934e+02 2.636239472539511e+02 2.918975276816622e+03
5.134739890491520e+02 2.574925037192722e+02 2.918975276816622e+03
5.143406308578271e+02 2.513617298211942e+02 2.918975276816622e+03
5.144242520987269e+02 2.452534189019061e+02 2.918975276816622e+03
5.157558173772491e+02 2.390997691937422e+02 2.918975276816622e+03
5.154540231271234e+02 2.329689856880290e+02 2.918975276816622e+03
5.166911707881220e+02 2.268381950106002e+02 2.918975276816622e+03
5.158794726526658e+02 2.207077753725726e+02 2.918975276816622e+03
5.169982089244335e+02 2.145770864327270e+02 2.918975276816622e+03
5.165103466140109e+02 2.084463125346491e+02 2.918975276816622e+03
5.167411409105897e+02 2.023155386365711e+02 2.918975276816622e+03
5.181566225857301e+02 1.961847647384932e+02 2.918975276816622e+03
5.176760980676170e+02 1.900933065728691e+02 2.918975276816622e+03
5.194957584578542e+02 1.839232169423373e+02 2.918975276816622e+03
5.203520993998284e+02 1.777924430442594e+02 2.918975276816622e+03
5.199387022083918e+02 1.716893114422217e+02 2.918975276816622e+03
5.215111390517931e+02 1.655308952481035e+02 2.918975276816622e+03
5.213179093218713e+02 1.594001213500256e+02 2.918975276816622e+03
5.222383605417339e+02 1.532693474519477e+02 2.918975276816622e+03
5.215568025082647e+02 1.471392682651264e+02 2.918975276816622e+03
5.230322891706427e+02 1.410093980197846e+02 2.918975276816622e+03
5.226831495240303e+02 1.348912245560128e+02 2.918975276816622e+03
5.242300687148517e+02 1.288030233239912e+02 2.918975276816622e+03
5.235053926103361e+02 1.226152888019639e+02 2.918975276816622e+03
5.246732763419840e+02 1.164848646720114e+02 2.918975276816622e+03
5.257972446739807e+02 1.103539301654021e+02 2.918975276816622e+03
5.241741234425693e+02 1.042231562673242e+02 2.918975276816622e+03
5.242533630953006e+02 9.809238236924627e+01 2.918975276816622e+03
5.231100868068869e+02 9.196195832852580e+01 2.918975276816622e+03
5.234490258163454e+02 8.583059013914402e+01 2.918975276816622e+03
5.229340323953120e+02 7.968519404643186e+01 2.918975276816622e+03
5.242704658458147e+02 7.356928677693486e+01 2.918975276816622e+03
5.228574331043211e+02 6.743851287885693e+01 2.918975276816622e+03
5.245771831942650e+02 6.130773898077901e+01 2.918975276816622e+03
5.247977734703801e+02 5.517696508270107e+01 2.918975276816622e+03
5.244985998849577e+02 4.904619118462314e+01 2.918975276816622e+03
5.258455097121323e+02 4.292910042702430e+01 2.918975276816622e+03
5.255099138520540e+02 3.679549180590340e+01 2.918975276816622e+03
5.265133453800008e+02 3.065386949038935e+01 2.918975276816622e+03
5.252961146359972e+02 2.452309559231140e+01 2.918975276816622e+03
5.252784827240499e+02 1.839232169423347e+01 2.918975276816622e+03
5.265906498113682e+02 1.226154779615554e+01 2.918975276816622e+03
5.260349845699296e+02 6.122793724958125e+00 2.918975276816622e+03
-4.783687120460450e+02 -1.532691744171452e+00 -2.918975276816622e+03
-4.781796032934949e+02 -4.598079846775772e+00 -2.918975276816622e+03
-4.784436928878512e+02  1.532695204867432e+00 -2.918975276816622e+03
-4.784045458189132e+02  4.598081000340883e+00 -2.918975276816622e+03
-4.784443271394867e+02 -7.649881006327986e+00 -2.918975276816622e+03
-4.791628835840209e+02 -1.068809522282809e+01 -2.918975276816622e+03
-4.793048889230962e+02 -1.375332485896068e+01 -2.918975276816622e+03
-4.788703431567124e+02 -1.684556991472577e+01 -2.918975276816622e+03
-4.788890395116479e+02 -1.992464377398618e+01 -2.918975276816622e+03
-4.793609779879025e+02 -2.299054643674191e+01 -2.918975276816622e+03
-4.794894192069847e+02 -2.606448231101374e+01 -2.918975276816622e+03
-4.792743631688947e+02 -2.914645139680166e+01 -2.918975276816622e+03
-4.794577271215846e+02 -3.221173780188862e+01 -2.918975276816622e+03
-4.800395110650542e+02 -3.526034152627460e+01 -2.918975276816622e+03
-4.803663573828161e+02 -3.830934609144006e+01 -2.918975276816622e+03
-4.804382660748708e+02 -4.135875149738498e+01 -2.918975276816622e+03
-4.808827252369366e+02 -4.442413844642397e+01 -2.918975276816622e+03
-4.816997348690138e+02 -4.750550693855696e+01 -2.918975276816622e+03
-4.820457385822178e+02 -5.058479791663644e+01 -2.918975276816622e+03
-4.819207363765486e+02 -5.366201138066239e+01 -2.918975276816622e+03
-4.820939223546563e+02 -5.671338590362711e+01 -2.918975276816622e+03
-4.825652965165407e+02 -5.973892148553054e+01 -2.918975276816622e+03
-4.827455576235629e+02 -6.280031325950061e+01 -2.918975276816622e+03
-4.826347056757235e+02 -6.589756122553727e+01 -2.918975276816622e+03
-4.828094996465129e+02 -6.897696060065050e+01 -2.918975276816622e+03
-4.832699395359315e+02 -7.203851138484028e+01 -2.918975276816622e+03
-4.832891555466749e+02 -7.510198531831931e+01 -2.918975276816622e+03
-4.828671476787433e+02 -7.816738240108755e+01 -2.918975276816622e+03
-4.827951588053207e+02 -8.123282718629096e+01 -2.918975276816622e+03
-4.830731889264075e+02 -8.429831967392958e+01 -2.918975276816622e+03
-4.830373338111161e+02 -8.736357418920682e+01 -2.918975276816622e+03
-4.826875934594462e+02 -9.042859073212270e+01 -2.918975276816622e+03
-4.828198800942554e+02 -9.349391984499721e+01 -2.918975276816622e+03
-4.834341937155431e+02 -9.655956152783035e+01 -2.918975276816622e+03
-4.834352428232576e+02 -9.962507584376638e+01 -2.918975276816622e+03
-4.828230274173992e+02 -1.026904627928054e+02 -2.918975276816622e+03
-4.827302857527936e+02 -1.057558497418443e+02 -2.918975276816622e+03
-4.831570178294416e+02 -1.088212366908833e+02 -2.918975276816622e+03
-4.831448635680890e+02 -1.118866522203439e+02 -2.918975276816622e+03
-4.826938229687360e+02 -1.149520963302263e+02 -2.918975276816622e+03
-4.826684956756554e+02 -1.180174832792652e+02 -2.918975276816622e+03
-4.830688816888472e+02 -1.210828130674608e+02 -2.918975276816622e+03
-4.830434957832507e+02 -1.241481714360781e+02 -2.918975276816622e+03
-4.825923379588657e+02 -1.272135583851171e+02 -2.918975276816622e+03
-4.826741285608537e+02 -1.302793292603755e+02 -2.918975276816622e+03
-4.832888675892145e+02 -1.333454840618534e+02 -2.918975276816622e+03
-4.834031445693672e+02 -1.364118005185296e+02 -2.918975276816622e+03
-4.830169595013123e+02 -1.394782786304041e+02 -2.918975276816622e+03
-4.831204126106032e+02 -1.425432816532237e+02 -2.918975276816622e+03
-4.837135038972397e+02 -1.456068095869882e+02 -2.918975276816622e+03
-4.838373340119368e+02 -1.486712670283898e+02 -2.918975276816622e+03
-4.834919029546944e+02 -1.517366539774289e+02 -2.918975276816622e+03
-4.837106559923386e+02 -1.548020196381017e+02 -2.918975276816622e+03
-4.844935931248693e+02 -1.578673640104084e+02 -2.918975276816622e+03
-4.848778478608873e+02 -1.609327509594471e+02 -2.918975276816622e+03
-4.848634202003923e+02 -1.639981804852181e+02 -2.918975276816622e+03
-4.846254920209902e+02 -1.670635887226230e+02 -2.918975276816622e+03
-4.841640633226812e+02 -1.701289756716619e+02 -2.918975276816622e+03
-4.839656386339821e+02 -1.731943626207009e+02 -2.918975276816622e+03
-4.840302179548930e+02 -1.762597495697399e+02 -2.918975276816622e+03
-4.838557000630499e+02 -1.793251365187789e+02 -2.918975276816622e+03
-4.834420849584528e+02 -1.823905234678178e+02 -2.918975276816622e+03
-4.833923177826317e+02 -1.854557785938858e+02 -2.918975276816622e+03
-4.837063985355868e+02 -1.885209018969826e+02 -2.918975276816622e+03
-4.835707519617947e+02 -1.915862888460215e+02 -2.918975276816622e+03
-4.829853780612555e+02 -1.946519394410026e+02 -2.918975276816622e+03
-4.828101869219411e+02 -1.977174628401046e+02 -2.918975276816622e+03
-4.830451785438519e+02 -2.007828590433274e+02 -2.918975276816622e+03
-4.833869061843402e+02 -2.038482459923664e+02 -2.918975276816622e+03
-4.838353698434058e+02 -2.069136236872215e+02 -2.918975276816622e+03
-4.836358891675459e+02 -2.099819213661542e+02 -2.918975276816622e+03
-4.827884641567608e+02 -2.130531390291645e+02 -2.918975276816622e+03
-4.827372557773331e+02 -2.161189596144822e+02 -2.918975276816622e+03
-4.834822640292630e+02 -2.191793831221075e+02 -2.918975276816622e+03
-4.834602765468734e+02 -2.222418547141608e+02 -2.918975276816622e+03
-4.826712933301639e+02 -2.253063743906422e+02 -2.918975276816622e+03
-4.826058755645785e+02 -2.283716720193125e+02 -2.918975276816622e+03
-4.832640232501167e+02 -2.314377476001718e+02 -2.918975276816622e+03
-4.834851928099322e+02 -2.344879126243688e+02 -2.918975276816622e+03
-4.832693842440241e+02 -2.375221670919034e+02 -2.918975276816622e+03
-4.835740673344992e+02 -2.405873281485995e+02 -2.918975276816622e+03
-4.843992420813572e+02 -2.436833957944571e+02 -2.918975276816622e+03
-4.846392591164602e+02 -2.467642171351965e+02 -2.918975276816622e+03
-4.842941184398080e+02 -2.498297921708178e+02 -2.918975276816622e+03
-4.844047995844363e+02 -2.528950606962894e+02 -2.918975276816622e+03
-4.849713025503452e+02 -2.559600227116115e+02 -2.918975276816622e+03
-4.850846611455700e+02 -2.590251971937920e+02 -2.918975276816622e+03
-4.847448753701105e+02 -2.620905841428309e+02 -2.918975276816622e+03
-4.848721820611769e+02 -2.651583046038938e+02 -2.918975276816622e+03
-4.854665812187689e+02 -2.682283585769806e+02 -2.918975276816622e+03
-4.857752057927651e+02 -2.712950211238835e+02 -2.918975276816622e+03
-4.857980557831652e+02 -2.743582922446024e+02 -2.918975276816622e+03
-4.857007185002601e+02 -2.774213456816175e+02 -2.918975276816622e+03
-4.854831939440494e+02 -2.804841814349286e+02 -2.918975276816622e+03
-4.856371390920825e+02 -2.835481865822114e+02 -2.918975276816622e+03
-4.861625539443589e+02 -2.866133611234657e+02 -2.918975276816622e+03
-4.862045821869185e+02 -2.896787480725046e+02 -2.918975276816622e+03
-4.857632238197610e+02 -2.927443474293283e+02 -2.918975276816622e+03
-4.857756867997685e+02 -2.958095691869092e+02 -2.918975276816622e+03
-4.862419711269403e+02 -2.988744133452477e+02 -2.918975276816622e+03
-4.865069374023439e+02 -3.019398002942868e+02 -2.918975276816622e+03
-4.865705856259785e+02 -3.050057300340262e+02 -2.918975276816622e+03
-4.868992152317036e+02 -3.080713883784154e+02 -2.918975276816622e+03
-4.874928262195188e+02 -3.111367753274544e+02 -2.918975276816622e+03
-4.876020398210761e+02 -3.142023035349450e+02 -2.918975276816622e+03
-4.872268560363756e+02 -3.172679730008869e+02 -2.918975276816622e+03
-4.874464744630109e+02 -3.203334279444173e+02 -2.918975276816622e+03
-4.882608951009816e+02 -3.233986683655365e+02 -2.918975276816622e+03
-4.885439046690130e+02 -3.264639140561238e+02 -2.918975276816622e+03
-4.882955031671053e+02 -3.295291650161797e+02 -2.918975276816622e+03
-4.882898388742831e+02 -3.325942053883432e+02 -2.918975276816622e+03
-4.885269117905467e+02 -3.356590351726146e+02 -2.918975276816622e+03
-4.890739527657280e+02 -3.387247338429709e+02 -2.918975276816622e+03
-4.899309617998269e+02 -3.417913013994124e+02 -2.918975276816622e+03
-4.901067633092036e+02 -3.448572440911964e+02 -2.918975276816622e+03
-4.896013572938573e+02 -3.479225619183234e+02 -2.918975276816622e+03
-4.896356243739057e+02 -3.509876371460448e+02 -2.918975276816622e+03
-4.902095645493490e+02 -3.540524697743613e+02 -2.918975276816622e+03
-4.903699168806221e+02 -3.571176063144911e+02 -2.918975276816622e+03
-4.901166813677254e+02 -3.601830467664338e+02 -2.918975276816622e+03
-4.903754680991269e+02 -3.632484355623595e+02 -2.918975276816622e+03
-4.911462770748265e+02 -3.663137727022677e+02 -2.918975276816622e+03
-4.912973211323594e+02 -3.693790164667260e+02 -2.918975276816622e+03
-4.908286002717251e+02 -3.724441668557346e+02 -2.918975276816622e+03
-4.911291249104388e+02 -3.755092711074284e+02 -2.918975276816622e+03
-4.921988950485006e+02 -3.785743292218070e+02 -2.918975276816622e+03
-4.928995233878722e+02 -3.816398326039745e+02 -2.918975276816622e+03
-4.932310099285534e+02 -3.847057812539310e+02 -2.918975276816622e+03
-4.932654271545152e+02 -3.877714490534284e+02 -2.918975276816622e+03
-4.930027750657570e+02 -3.908368360024675e+02 -2.918975276816622e+03
-4.932160757940199e+02 -3.939023238090558e+02 -2.918975276816622e+03
-4.939053293393036e+02 -3.969679124731935e+02 -2.918975276816622e+03
-4.942535999563410e+02 -4.000332994222325e+02 -2.918975276816622e+03
-4.942608876451325e+02 -4.030984846561727e+02 -2.918975276816622e+03
-4.946826679417870e+02 -4.061638100957043e+02 -2.918975276816622e+03
-4.955189408463031e+02 -4.092292757408267e+02 -2.918975276816622e+03
-4.956971185633270e+02 -4.122939403036974e+02 -2.918975276816622e+03
-4.952172010928582e+02 -4.153578037843163e+02 -2.918975276816622e+03
-4.953626718639699e+02 -4.184232313549005e+02 -2.918975276816622e+03
-4.961335308766623e+02 -4.214902230154501e+02 -2.918975276816622e+03
-4.965199470168956e+02 -4.245563323506573e+02 -2.918975276816622e+03
-4.965219202846691e+02 -4.276215593605221e+02 -2.918975276816622e+03
-4.964595982549406e+02 -4.306868541043114e+02 -2.918975276816622e+03
-4.963329809277102e+02 -4.337522165820246e+02 -2.918975276816622e+03
-4.966213215570146e+02 -4.368176035310636e+02 -2.918975276816622e+03
-4.973246201428545e+02 -4.398830149514281e+02 -2.918975276816622e+03
-4.979004452954688e+02 -4.429484141361298e+02 -2.918975276816622e+03
-4.983487970148585e+02 -4.460138010851689e+02 -2.918975276816622e+03
-4.985307565018790e+02 -4.490912599757904e+02 -2.918975276816622e+03
-4.984463237565306e+02 -4.521807908079948e+02 -2.918975276816622e+03
-4.988061869941602e+02 -4.552451967608499e+02 -2.918975276816622e+03
-4.996103462147672e+02 -4.582844778343557e+02 -2.918975276816622e+03
-4.998738900624612e+02 -4.613377928418121e+02 -2.918975276816622e+03
-4.995968185372424e+02 -4.644051417832189e+02 -2.918975276816622e+03
-4.999481899107195e+02 -4.674717734188442e+02 -2.918975276816622e+03
-5.009280041828928e+02 -4.705376877486883e+02 -2.918975276816622e+03
-5.012700561600063e+02 -4.736028673516469e+02 -2.918975276816622e+03
-5.009743458420592e+02 -4.766673122277201e+02 -2.918975276816622e+03
-5.013305574574964e+02 -4.797324354863563e+02 -2.918975276816622e+03
-5.023386910063182e+02 -4.827982371275558e+02 -2.918975276816622e+03
-5.028252496729041e+02 -4.858638314226748e+02 -2.918975276816622e+03
-5.027902334572546e+02 -4.889292183717138e+02 -2.918975276816622e+03
-5.027326026276471e+02 -4.919946053207528e+02 -2.918975276816622e+03
-5.026523571840819e+02 -4.950599922697918e+02 -2.918975276816622e+03
-5.028312824671974e+02 -4.981255595653648e+02 -2.918975276816622e+03
-5.032693784769931e+02 -5.011913072074723e+02 -2.918975276816622e+03
-5.034009383251866e+02 -5.042566941565113e+02 -2.918975276816622e+03
-5.032259620117782e+02 -5.073217204124819e+02 -2.918975276816622e+03
-5.034027797933595e+02 -5.103869270149864e+02 -2.918975276816622e+03
-5.039313916699305e+02 -5.134523139640254e+02 -2.918975276816622e+03
-5.041094416404512e+02 -5.165177009130643e+02 -2.918975276816622e+03
-5.039369297049213e+02 -5.195830878621034e+02 -2.918975276816622e+03
-5.036482387427848e+02 -5.226485504113871e+02 -2.918975276816622e+03
-5.032433687540417e+02 -5.257140885609156e+02 -2.918975276816622e+03
-5.031928880815373e+02 -5.287805938459064e+02 -2.918975276816622e+03
-5.034967967252718e+02 -5.318480662663596e+02 -2.918975276816622e+03
-5.035626091618765e+02 -5.349133310168705e+02 -2.918975276816622e+03
-5.033903253913522e+02 -5.379763880974392e+02 -2.918975276816622e+03
-5.031970159762949e+02 -5.410345858748757e+02 -2.918975276816622e+03
-5.029826809167045e+02 -5.440879243491798e+02 -2.918975276816622e+03
-5.030389950413087e+02 -5.471533578965021e+02 -2.918975276816622e+03
-5.033659583501075e+02 -5.502308865168424e+02 -2.918975276816622e+03
-5.034041731309522e+02 -5.533023443015320e+02 -2.918975276816622e+03
-5.031536393838439e+02 -5.563677312505710e+02 -2.918975276816622e+03
-5.032315974307348e+02 -5.594331181996099e+02 -2.918975276816622e+03
-5.036380472716244e+02 -5.624985051486489e+02 -2.918975276816622e+03
-5.036188531417569e+02 -5.655639092183388e+02 -2.918975276816622e+03
-5.031740150411320e+02 -5.686293304086793e+02 -2.918975276816622e+03
-5.032135665630331e+02 -5.716947173577182e+02 -2.918975276816622e+03
-5.037375077074603e+02 -5.747600700654556e+02 -2.918975276816622e+03
-5.037745539301426e+02 -5.778254398938438e+02 -2.918975276816622e+03
-5.033247052310805e+02 -5.808908268428828e+02 -2.918975276816622e+03
-5.034517691812583e+02 -5.839562137919219e+02 -2.918975276816622e+03
-5.041557457806765e+02 -5.870216007409607e+02 -2.918975276816622e+03
-5.045341247955076e+02 -5.900869876899998e+02 -2.918975276816622e+03
-5.045869062257518e+02 -5.931523746390387e+02 -2.918975276816622e+03
-5.042884590850464e+02 -5.962181855799938e+02 -2.918975276816622e+03
-5.036387833733914e+02 -5.992844205128656e+02 -2.918975276816622e+03
-5.034386792142642e+02 -6.023501428611549e+02 -2.918975276816622e+03
-5.036881466076654e+02 -6.054153526248618e+02 -2.918975276816622e+03
-5.037625705236284e+02 -6.084800879265180e+02 -2.918975276816622e+03
-5.036619509621534e+02 -6.115443487661224e+02 -2.918975276816622e+03
-5.036644759058089e+02 -6.146094003159121e+02 -2.918975276816622e+03
-5.037701453545958e+02 -6.176752425758863e+02 -2.918975276816622e+03
-5.038758121621607e+02  6.176753192070252e+02 -2.918975276816622e+03
-5.039814763285033e+02  6.146096302093285e+02 -2.918975276816622e+03
-5.037476741697363e+02  6.115442968957816e+02 -2.918975276816622e+03
-5.031744056858594e+02  6.084793192663849e+02 -2.918975276816622e+03
-5.029773871612018e+02  6.054138682133228e+02 -2.918975276816622e+03
-5.031566185957637e+02  6.023479437365953e+02 -2.918975276816622e+03
-5.029789777227123e+02  5.992828169813120e+02 -2.918975276816622e+03
-5.024444645420474e+02  5.962184879474723e+02 -2.918975276816622e+03
-5.022090209161992e+02  5.931532999813941e+02 -2.918975276816622e+03
-5.022726468451678e+02  5.900872530830774e+02 -2.918975276816622e+03
-5.019691207089019e+02  5.870215523047896e+02 -2.918975276816622e+03
-5.012984425074022e+02  5.839561976465311e+02 -2.918975276816622e+03
-5.010872725007040e+02  5.808908268428825e+02 -2.918975276816622e+03
-5.013356106888074e+02  5.778254398938436e+02 -2.918975276816622e+03
-5.009294769711883e+02  5.747600529448046e+02 -2.918975276816622e+03
-4.998688713478473e+02  5.716946659957662e+02 -2.918975276816622e+03
-4.992880921371703e+02  5.686292790467272e+02 -2.918975276816622e+03
-4.991871393391575e+02  5.655638920976882e+02 -2.918975276816622e+03
-4.986627951652318e+02  5.624985051486492e+02 -2.918975276816622e+03
-4.977150596153942e+02  5.594331181996102e+02 -2.918975276816622e+03
-4.974921528127523e+02  5.563677312505712e+02 -2.918975276816622e+03
-4.979940747573060e+02  5.533023443015320e+02 -2.918975276816622e+03
-4.980879767176202e+02  5.502369573524927e+02 -2.918975276816622e+03
-4.977738586936941e+02  5.471715704034538e+02 -2.918975276816622e+03
-4.973226481485016e+02  5.441061834544147e+02 -2.918975276816622e+03
-4.967343450820420e+02  5.410407965053761e+02 -2.918975276816622e+03
-4.964743923470737e+02  5.379754095563370e+02 -2.918975276816622e+03
-4.965427899435972e+02  5.349100226072981e+02 -2.918975276816622e+03
-4.961393550507248e+02  5.318446679531182e+02 -2.918975276816622e+03
-4.952640876684566e+02  5.287793455937973e+02 -2.918975276816622e+03
-4.944607867293731e+02  5.257139586447586e+02 -2.918975276816622e+03
-4.937294522334738e+02  5.226485071060015e+02 -2.918975276816622e+03
-4.937340097436610e+02  5.195830878621038e+02 -2.918975276816622e+03
-4.944744592599355e+02  5.165177009130647e+02 -2.918975276816622e+03
-4.946810501453594e+02  5.134548696666924e+02 -2.918975276816622e+03
-4.943537823999334e+02  5.103945941229864e+02 -2.918975276816622e+03
-4.942886466117156e+02  5.073292071739475e+02 -2.918975276816622e+03
-4.944856427807065e+02  5.042587088195751e+02 -2.918975276816622e+03
-4.947810293405963e+02  5.011907264782361e+02 -2.918975276816622e+03
-4.951748062913854e+02  4.981252601499311e+02 -2.918975276816622e+03
-4.950801158235292e+02  4.950598732008921e+02 -2.918975276816622e+03
-4.944969579370275e+02  4.919945656311194e+02 -2.918975276816622e+03
-4.942098458256900e+02  4.889292183717135e+02 -2.918975276816622e+03
-4.942187794895168e+02  4.858638314226746e+02 -2.918975276816622e+03
-4.944369542423629e+02  4.827984444736355e+02 -2.918975276816622e+03
-4.948643700842279e+02  4.797330575245971e+02 -2.918975276816622e+03
-4.947223903482569e+02  4.766676705755582e+02 -2.918975276816622e+03
-4.940110150344497e+02  4.736022836265192e+02 -2.918975276816622e+03
-4.938502038148213e+02  4.705368966774802e+02 -2.918975276816622e+03
-4.942399566893712e+02  4.674715097284410e+02 -2.918975276816622e+03
-4.942914174671070e+02  4.644061227794016e+02 -2.918975276816622e+03
-4.940045861480284e+02  4.613407358303627e+02 -2.918975276816622e+03
-4.937595326726596e+02  4.582753488813237e+02 -2.918975276816622e+03
-4.935562570410003e+02  4.552099619322847e+02 -2.918975276816622e+03
-4.937057859160842e+02  4.521444488055151e+02 -2.918975276816622e+03
-4.942081192979110e+02  4.490788095010145e+02 -2.918975276816622e+03
-4.942021585228937e+02  4.460130975537729e+02 -2.918975276816622e+03
-4.936879035910321e+02  4.429473129637902e+02 -2.918975276816622e+03
-4.935536036304185e+02  4.398808006345124e+02 -2.918975276816622e+03
-4.937992586410523e+02  4.368135605659397e+02 -2.918975276816622e+03
-4.937308137592848e+02  4.337502668109228e+02 -2.918975276816622e+03
-4.933482689851158e+02  4.306909193694610e+02 -2.918975276816622e+03
-4.933791908530019e+02  4.276267839783916e+02 -2.918975276816622e+03
-4.938235793629432e+02  4.245578606377146e+02 -2.918975276816622e+03
-4.937916037593959e+02  4.214904913414418e+02 -2.918975276816622e+03
-4.932832640423599e+02  4.184246760895733e+02 -2.918975276816622e+03
-4.931851910594526e+02  4.153592891405346e+02 -2.918975276816622e+03
-4.934973848106736e+02  4.122943304943249e+02 -2.918975276816622e+03
-4.934378993252618e+02  4.092291227867728e+02 -2.918975276816622e+03
-4.930067346032165e+02  4.061636660178783e+02 -2.918975276816622e+03
-4.924385706249298e+02  4.030982790688394e+02 -2.918975276816622e+03
-4.917334073904017e+02  4.000329619396559e+02 -2.918975276816622e+03
-4.914991124165076e+02  3.969673470260584e+02 -2.918975276816622e+03
-4.917356857032474e+02  3.939014343280468e+02 -2.918975276816622e+03
-4.916409688141835e+02  3.908362529928270e+02 -2.918975276816622e+03
-4.912149617493158e+02  3.877718030203989e+02 -2.918975276816622e+03
-4.913504550918764e+02  3.847066789458464e+02 -2.918975276816622e+03
-4.920474488418655e+02  3.816408807691695e+02 -2.918975276816622e+03
-4.920471570821699e+02  3.785750209162836e+02 -2.918975276816622e+03
-4.913495798127897e+02  3.755090993871892e+02 -2.918975276816622e+03
-4.912091324851810e+02  3.724436408772617e+02 -2.918975276816622e+03
-4.916258150993440e+02  3.693786453865008e+02 -2.918975276816622e+03
-4.915571891110009e+02  3.663135257274896e+02 -2.918975276816622e+03
-4.910032545201518e+02  3.632482819002281e+02 -2.918975276816622e+03
-4.908771339608565e+02  3.601829665120776e+02 -2.918975276816622e+03
-4.911788274331147e+02  3.571175795630386e+02 -2.918975276816622e+03
-4.910272234527214e+02  3.540521926139996e+02 -2.918975276816622e+03
-4.904223220196766e+02  3.509868056649606e+02 -2.918975276816622e+03
-4.902984888233641e+02  3.479210251571008e+02 -2.918975276816622e+03
-4.906557238637835e+02  3.448548510904203e+02 -2.918975276816622e+03
-4.904981966886538e+02  3.417890583957375e+02 -2.918975276816622e+03
-4.898259072979753e+02  3.387236470730524e+02 -2.918975276816622e+03
-4.895626035894705e+02  3.356586536828342e+02 -2.918975276816622e+03
-4.897082855631396e+02  3.325940782250829e+02 -2.918975276816622e+03
-4.893515229201962e+02  3.295290959291717e+02 -2.918975276816622e+03
-4.884923156606407e+02  3.264637067951004e+02 -2.918975276816622e+03
-4.881362456150546e+02  3.233982903223724e+02 -2.918975276816622e+03
-4.882833127834382e+02  3.203328465109876e+02 -2.918975276816622e+03
-4.880987280501246e+02  3.172674606544646e+02 -2.918975276816622e+03
-4.875824914151136e+02  3.142021327528040e+02 -2.918975276816622e+03
-4.873138451731516e+02  3.111368783022909e+02 -2.918975276816622e+03
-4.872927893242377e+02  3.080716973029255e+02 -2.918975276816622e+03
-4.868371586200506e+02  3.050063103538866e+02 -2.918975276816622e+03
-4.859469530605893e+02  3.019407174551740e+02 -2.918975276816622e+03
-4.854466628977314e+02  2.988753269011473e+02 -2.918975276816622e+03
-4.853362881314767e+02  2.958101386918066e+02 -2.918975276816622e+03
-4.856170550944750e+02  2.927444831406879e+02 -2.918975276816622e+03
-4.862889637867261e+02  2.896783602477913e+02 -2.918975276816622e+03
-4.862068687397293e+02  2.866129013794426e+02 -2.918975276816622e+03
-4.853707699534851e+02  2.835481065356413e+02 -2.918975276816622e+03
-4.850936554256413e+02  2.804829881886820e+02 -2.918975276816622e+03
-4.853755251561976e+02  2.774175463385646e+02 -2.918975276816622e+03
-4.852529458703663e+02  2.743520845576768e+02 -2.918975276816622e+03
-4.847259175681474e+02  2.712866028460184e+02 -2.918975276816622e+03
-4.846087061084621e+02  2.682212158969795e+02 -2.918975276816622e+03
-4.849013114913104e+02  2.651559237105599e+02 -2.918975276816622e+03
-4.847507291683971e+02  2.620905841428306e+02 -2.918975276816622e+03
-4.841569591397221e+02  2.590251971937917e+02 -2.918975276816622e+03
-4.839029372189615e+02  2.559598102447527e+02 -2.918975276816622e+03
-4.839886634061147e+02  2.528944232957137e+02 -2.918975276816622e+03
-4.838977258074688e+02  2.498291531979685e+02 -2.918975276816622e+03
-4.836301244230241e+02  2.467639999515170e+02 -2.918975276816622e+03
-4.832807452891412e+02  2.436985765249378e+02 -2.918975276816622e+03
-4.828495884058201e+02  2.406328829182309e+02 -2.918975276816622e+03
-4.828587156113526e+02  2.375672096665580e+02 -2.918975276816622e+03
-4.833081269057393e+02  2.345015567699192e+02 -2.918975276816622e+03
-4.834887888965278e+02  2.314360956152629e+02 -2.918975276816622e+03
-4.834007015837184e+02  2.283708262025890e+02 -2.918975276816622e+03
-4.835529754751665e+02  2.253056087048903e+02 -2.918975276816622e+03
-4.839456105708713e+02  2.222404431221667e+02 -2.918975276816622e+03
-4.838075841621679e+02  2.191751668562854e+02 -2.918975276816622e+03
-4.831388962490565e+02  2.161097799072465e+02 -2.918975276816622e+03
-4.829722813447713e+02  2.130441943060666e+02 -2.918975276816622e+03
-4.833077394493122e+02  2.099784100527460e+02 -2.918975276816622e+03
-4.832295220725358e+02  2.069130231037070e+02 -2.918975276816622e+03
-4.827376292144421e+02  2.038480334589497e+02 -2.918975276816622e+03
-4.825913515194474e+02  2.007830003656764e+02 -2.918975276816622e+03
-4.827906889875527e+02  1.977179238238870e+02 -2.918975276816622e+03
-4.825960969821354e+02  1.946525368748481e+02 -2.918975276816622e+03
-4.820075755031961e+02  1.915868395185595e+02 -2.918975276816622e+03
-4.815747123186940e+02  1.885212973658957e+02 -2.918975276816622e+03
-4.812975074286296e+02  1.854559104168568e+02 -2.918975276816622e+03
-4.814217959063116e+02  1.823905234678178e+02 -2.918975276816622e+03
-4.819475777517395e+02  1.793251365187789e+02 -2.918975276816622e+03
-4.821584478129402e+02  1.762597045791924e+02 -2.918975276816622e+03
-4.820544060899135e+02  1.731942276490585e+02 -2.918975276816622e+03
-4.817809854999178e+02  1.701291459844318e+02 -2.918975276816622e+03
-4.813381860429531e+02  1.670644595853122e+02 -2.918975276816622e+03
-4.811572573619151e+02  1.639991176268207e+02 -2.918975276816622e+03
-4.812381994568040e+02  1.609331201089573e+02 -2.918975276816622e+03
-4.809279024349960e+02  1.578786307636921e+02 -2.918975276816622e+03
-4.802263662964917e+02  1.548356495910253e+02 -2.918975276816622e+03
-4.801072124775000e+02  1.517699969157469e+02 -2.918975276816622e+03
-4.805704409780213e+02  1.486816727378569e+02 -2.918975276816622e+03
-4.803899784635217e+02  1.456152176683858e+02 -2.918975276816622e+03
-4.795658249340009e+02  1.425706317073336e+02 -2.918975276816622e+03
-4.789764477022172e+02  1.395045895818654e+02 -2.918975276816622e+03
-4.786218467681708e+02  1.364170912919811e+02 -2.918975276816622e+03
-4.786731973137495e+02  1.333413864338936e+02 -2.918975276816622e+03
-4.791304993389538e+02  1.302774750076027e+02 -2.918975276816622e+03
-4.790567904221654e+02  1.272130089612324e+02 -2.918975276816622e+03
-4.784520705633846e+02  1.241479882947828e+02 -2.918975276816622e+03
-4.782096291851327e+02  1.210827844870385e+02 -2.918975276816622e+03
-4.783294662874096e+02  1.180173975379996e+02 -2.918975276816622e+03
-4.782312280441722e+02  1.149520105889606e+02 -2.918975276816622e+03
-4.779149144554201e+02  1.118866236399216e+02 -2.918975276816622e+03
-4.778465270397296e+02  1.088212366908827e+02 -2.918975276816622e+03
-4.780260657971007e+02  1.057558497418437e+02 -2.918975276816622e+03
-4.777910656273000e+02  1.026904627928047e+02 -2.918975276816622e+03
-4.771415265303273e+02  9.962507584376574e+01 -2.918975276816622e+03
-4.770211530278792e+02  9.655968889472676e+01 -2.918975276816622e+03
-4.774299451199558e+02  9.349430194568781e+01 -2.918975276816622e+03
-4.776519770994844e+02  9.042889134039812e+01 -2.918975276816622e+03
-4.776872489664644e+02  8.736345707885773e+01 -2.918975276816622e+03
-4.773631005840571e+02  8.429807012981877e+01 -2.918975276816622e+03
-4.766795319522631e+02  8.123273049328122e+01 -2.918975276816622e+03
-4.765780425406883e+02  7.816736720049305e+01 -2.918975276816622e+03
-4.770586323493333e+02  7.510198025145428e+01 -2.918975276816622e+03
-4.773375814072743e+02  7.203659330241537e+01 -2.918975276816622e+03
-4.774148897145110e+02  6.897120635337642e+01 -2.918975276816622e+03
-4.773753381036917e+02  6.590588142783275e+01 -2.918975276816622e+03
-4.772189265748164e+02  6.284061852578444e+01 -2.918975276816622e+03
-4.773329464643385e+02  5.977613579501335e+01 -2.918975276816622e+03
-4.777173977722583e+02  5.671243323551952e+01 -2.918975276816622e+03
-4.776320999834341e+02  5.364698426298523e+01 -2.918975276816622e+03
-4.770770530978655e+02  5.057978887741051e+01 -2.918975276816622e+03
-4.770289100358090e+02  4.750191293382466e+01 -2.918975276816622e+03
-4.774876707972642e+02  4.441335643222769e+01 -2.918975276816622e+03
-4.774615201833225e+02  4.134796948318871e+01 -2.918975276816622e+03
-4.769504581939838e+02  3.830575208670776e+01 -2.918975276816622e+03
-4.770051900189842e+02  3.526913296560591e+01 -2.918975276816622e+03
-4.776257156583243e+02  3.223811211988318e+01 -2.918975276816622e+03
-4.776664918769183e+02  2.917272517084420e+01 -2.918975276816622e+03
-4.771275186747664e+02  2.607297211848901e+01 -2.918975276816622e+03
-4.770224765873701e+02  2.299686561789288e+01 -2.918975276816622e+03
-4.773513656147299e+02  1.994440566905584e+01 -2.918975276816622e+03
-4.774422415638189e+02  1.687863624484783e+01 -2.918975276816622e+03
-4.772951044346376e+02  1.379955734526887e+01 -2.918975276816622e+03
-4.775123949736463e+02  1.072770689612895e+01 -2.918975276816622e+03
-4.780941131808447e+02  7.663084897428053e+00 -2.918975276816622e+03
 5.176402571748905e+02 -1.532734221871904e+00  2.918975276816622e+03
 5.177987953634024e+02 -4.598202665615711e+00  2.918975276816622e+03
5.176985756420718e+02 1.532693474519402e+00 2.918975276816622e+03
5.179737507649461e+02 4.598080423558205e+00 2.918975276816622e+03
 5.177257050927876e+02 -7.663589614654676e+00  2.918975276816622e+03
 5.174209863630459e+02 -1.072889506898880e+01  2.918975276816622e+03
 5.169681886914628e+02 -1.379424127067535e+01  2.918975276816622e+03
 5.163673120780379e+02 -1.685962821971431e+01  2.918975276816622e+03
 5.159885881486458e+02 -1.992501516875328e+01  2.918975276816622e+03
 5.158320169032871e+02 -2.299040211779224e+01  2.918975276816622e+03
 5.154655164930927e+02 -2.605578906683121e+01  2.918975276816622e+03
 5.148890869180635e+02 -2.912117601587017e+01  2.918975276816622e+03
 5.146668265703281e+02 -3.218656296490916e+01  2.918975276816622e+03
 5.147987354498869e+02 -3.525194991394811e+01  2.918975276816622e+03
 5.146337926507060e+02 -3.831733686298706e+01  2.918975276816622e+03
 5.141719981727857e+02 -4.138272381202606e+01  2.918975276816622e+03
 5.139840043690286e+02 -4.444811076106500e+01  2.918975276816622e+03
 5.140698112394350e+02 -4.751349771010396e+01  2.918975276816622e+03
 5.137645585572049e+02 -5.057888465914296e+01  2.918975276816622e+03
 5.130682463223386e+02 -5.364427160818190e+01  2.918975276816622e+03
 5.128631557133793e+02 -5.670965855722087e+01  2.918975276816622e+03
 5.131492867303270e+02 -5.977504550625983e+01  2.918975276816622e+03
 5.130175206800135e+02 -6.284651285200705e+01  2.918975276816622e+03
 5.124678575624386e+02 -6.592406059446250e+01  2.918975276816622e+03
 5.123777386588223e+02 -6.898944754350146e+01  2.918975276816622e+03
 5.127471639691653e+02 -7.204267369912395e+01  2.918975276816622e+03
 5.126493751943998e+02 -7.510198025145466e+01  2.918975276816622e+03
 5.120843723345264e+02 -7.816736720049363e+01  2.918975276816622e+03
 5.120648866139944e+02 -8.123042816181291e+01  2.918975276816622e+03
 5.125909180328042e+02 -8.429116313541249e+01  2.918975276816622e+03
 5.125597796533254e+02 -8.735610124454942e+01  2.918975276816622e+03
 5.119714714755584e+02 -9.042524248922363e+01  2.918975276816622e+03
 5.116720467043599e+02 -9.349295542598230e+01  2.918975276816622e+03
 5.116615053397308e+02 -9.655924005482538e+01  2.918975276816622e+03
 5.120099801091509e+02 -9.962507584376638e+01  2.918975276816622e+03
 5.127174710126203e+02 -1.026904627928054e+02  2.918975276816622e+03
 5.130201533177656e+02 -1.057558261928176e+02  2.918975276816622e+03
 5.129180270245874e+02 -1.088211660438031e+02  2.918975276816622e+03
 5.132195786857262e+02 -1.118865529928421e+02  2.918975276816622e+03
 5.139248083011826e+02 -1.149519870399345e+02  2.918975276816622e+03
 5.142517848123611e+02 -1.180173975380002e+02  2.918975276816622e+03
 5.142005082192619e+02 -1.210827844870392e+02  2.918975276816622e+03
 5.146413538259199e+02 -1.241481714360781e+02  2.918975276816622e+03
 5.155743216323351e+02 -1.272135583851171e+02  2.918975276816622e+03
 5.157677847384921e+02 -1.302789453341560e+02  2.918975276816622e+03
 5.152217431443909e+02 -1.333443322831950e+02  2.918975276816622e+03
 5.149101496060885e+02 -1.364097192322340e+02  2.918975276816622e+03
 5.148330041235853e+02 -1.394751061812729e+02  2.918975276816622e+03
 5.149930714579859e+02 -1.425404931303119e+02  2.918975276816622e+03
 5.153903516092903e+02 -1.456058800793509e+02  2.918975276816622e+03
 5.154156913932031e+02 -1.486712670283898e+02  2.918975276816622e+03
 5.150690908097247e+02 -1.517366539774289e+02  2.918975276816622e+03
 5.151986888753722e+02 -1.547970816476953e+02  2.918975276816622e+03
 5.158044855901460e+02 -1.578525500391893e+02  2.918975276816622e+03
 5.160195214858541e+02 -1.609188162095992e+02  2.918975276816622e+03
 5.158437965624961e+02 -1.639958801589249e+02  2.918975276816622e+03
 5.160511800285033e+02 -1.670662263867362e+02  2.918975276816622e+03
 5.166416718838752e+02 -1.701298548930330e+02  2.918975276816622e+03
 5.168085746479087e+02 -1.731943626207009e+02  2.918975276816622e+03
 5.165518883206039e+02 -1.762597495697399e+02  2.918975276816622e+03
 5.168375295748644e+02 -1.793251365187789e+02  2.918975276816622e+03
 5.176654984106913e+02 -1.823905234678178e+02  2.918975276816622e+03
 5.178192964794667e+02 -1.854559104168568e+02  2.918975276816622e+03
 5.172989237811903e+02 -1.885212973658957e+02  2.918975276816622e+03
 5.172768291498164e+02 -1.915870938137382e+02  2.918975276816622e+03
 5.177530125853449e+02 -1.946532997603843e+02  2.918975276816622e+03
 5.179708511783609e+02 -1.977186867094233e+02  2.918975276816622e+03
 5.179303449288645e+02 -2.007832546608551e+02  2.918975276816622e+03
 5.177454701501376e+02 -2.038480584019630e+02  2.918975276816622e+03
 5.174162268421801e+02 -2.069130979327467e+02  2.918975276816622e+03
 5.175057889465127e+02 -2.099819880666552e+02  2.918975276816622e+03
 5.180141564631357e+02 -2.130547288036885e+02  2.918975276816622e+03
 5.179782603323263e+02 -2.161202894618551e+02  2.918975276816622e+03
 5.173981005540844e+02 -2.191786700411550e+02  2.918975276816622e+03
 5.172192775625213e+02 -2.222403933537391e+02  2.918975276816622e+03
 5.174417913576372e+02 -2.253054593996074e+02  2.918975276816622e+03
 5.174634138372840e+02 -2.283709718401008e+02  2.918975276816622e+03
 5.172841450014616e+02 -2.314369306752191e+02  2.918975276816622e+03
 5.173946539161698e+02 -2.345024780758433e+02  2.918975276816622e+03
 5.177949405814082e+02 -2.375676140419736e+02  2.918975276816622e+03
 5.177198476424535e+02 -2.406267729757080e+02  2.918975276816622e+03
 5.171693750993052e+02 -2.436799548770464e+02  2.918975276816622e+03
 5.171792642206971e+02 -2.467453418260854e+02  2.918975276816622e+03
 5.177495150066288e+02 -2.498229338228249e+02  2.918975276816622e+03
 5.183293207233063e+02 -2.528944232957141e+02  2.918975276816622e+03
 5.189186813707303e+02 -2.559598102447530e+02  2.918975276816622e+03
 5.189981053677071e+02 -2.590612443181654e+02  2.918975276816622e+03
 5.185675927142368e+02 -2.621987255159513e+02  2.918975276816622e+03
 5.186065497608017e+02 -2.652641124649903e+02  2.918975276816622e+03
 5.191149765074016e+02 -2.682574051652823e+02  2.918975276816622e+03
 5.191951504122584e+02 -2.712867449899479e+02  2.918975276816622e+03
 5.188470714753718e+02 -2.743521319389868e+02  2.918975276816622e+03
 5.188281554128447e+02 -2.774173119863831e+02  2.918975276816622e+03
 5.191384022246771e+02 -2.804822851321368e+02  2.918975276816622e+03
 5.190104341283565e+02 -2.835476720811758e+02  2.918975276816622e+03
 5.184442511238831e+02 -2.866134728335001e+02  2.918975276816622e+03
 5.181372369227008e+02 -2.896791234639742e+02  2.918975276816622e+03
 5.180893915248097e+02 -2.927446239725988e+02  2.918975276816622e+03
 5.177075721664380e+02 -2.958185226626144e+02  2.918975276816622e+03
 5.169917788475858e+02 -2.989008195340213e+02  2.918975276816622e+03
 5.167801111493438e+02 -3.019660789818038e+02  2.918975276816622e+03
 5.170725690717118e+02 -3.050143010059623e+02  2.918975276816622e+03
 5.171754532611629e+02 -3.080711762140247e+02  2.918975276816622e+03
 5.170887637176970e+02 -3.111367046059907e+02  2.918975276816622e+03
 5.165140913508461e+02 -3.142021622764933e+02  2.918975276816622e+03
 5.154514361606095e+02 -3.172675492255323e+02  2.918975276816622e+03
 5.150710037763793e+02 -3.203329361745713e+02  2.918975276816622e+03
 5.153727941981565e+02 -3.233983231236103e+02  2.918975276816622e+03
 5.151704394419812e+02 -3.264637100726492e+02  2.918975276816622e+03
 5.144639395078538e+02 -3.295290970216883e+02  2.918975276816622e+03
 5.141364896918333e+02 -3.325946320942099e+02  2.918975276816622e+03
 5.141880899939198e+02 -3.356603152902139e+02  2.918975276816622e+03
 5.138729909234719e+02 -3.387257480732837e+02  2.918975276816622e+03
 5.131911924804897e+02 -3.417909304434187e+02  2.918975276816622e+03
 5.129698820602321e+02 -3.448561692689751e+02  2.918975276816622e+03
 5.132090596626986e+02 -3.479214645499526e+02  2.918975276816622e+03
 5.129548008418726e+02 -3.509868056649609e+02  2.918975276816622e+03
 5.122071055977541e+02 -3.540521926139999e+02  2.918975276816622e+03
 5.120597436697857e+02 -3.571175795630388e+02  2.918975276816622e+03
 5.125127150579674e+02 -3.601829665120778e+02  2.918975276816622e+03
 5.123040856995581e+02 -3.632483534611168e+02  2.918975276816622e+03
 5.114338555945582e+02 -3.663137404101558e+02  2.918975276816622e+03
 5.110190794541655e+02 -3.693791273591949e+02  2.918975276816622e+03
 5.110597572783806e+02 -3.724445143082337e+02  2.918975276816622e+03
 5.106109380003615e+02 -3.755099012572728e+02  2.918975276816622e+03
 5.096726216201082e+02 -3.785752882063117e+02  2.918975276816622e+03
 5.090655964908797e+02 -3.816406751553508e+02  2.918975276816622e+03
 5.087898626126760e+02 -3.847060621043898e+02  2.918975276816622e+03
 5.088576618871918e+02 -3.877714490534284e+02  2.918975276816622e+03
 5.092689943144272e+02 -3.908368360024675e+02  2.918975276816622e+03
 5.091863876084508e+02 -3.939003911554411e+02  2.918975276816622e+03
 5.086098417692627e+02 -3.969621145123497e+02  2.918975276816622e+03
 5.083040403250455e+02 -4.000428486929320e+02  2.918975276816622e+03
 5.082689832757999e+02 -4.031425936971885e+02  2.918975276816622e+03
 5.084916489938599e+02 -4.062200184431770e+02  2.918975276816622e+03
 5.089720374792256e+02 -4.092751229308971e+02  2.918975276816622e+03
 5.089999202224330e+02 -4.123251626483927e+02  2.918975276816622e+03
 5.085752972234820e+02 -4.153701375956633e+02  2.918975276816622e+03
 5.086695131726317e+02 -4.184249421011428e+02  2.918975276816622e+03
 5.092825680698821e+02 -4.214895761648312e+02  2.918975276816622e+03
 5.094151132279075e+02 -4.245550919867243e+02  2.918975276816622e+03
 5.090671486467078e+02 -4.276214895668224e+02  2.918975276816622e+03
 5.093074356943375e+02 -4.306869437140510e+02  2.918975276816622e+03
 5.101359743707976e+02 -4.337514544284101e+02  2.918975276816622e+03
 5.103439848474782e+02 -4.368167125045950e+02  2.918975276816622e+03
 5.099314671243799e+02 -4.398827179426053e+02  2.918975276816622e+03
 5.099658057212084e+02 -4.429484231084495e+02  2.918975276816622e+03
 5.104470006379635e+02 -4.460138280021272e+02  2.918975276816622e+03
 5.104849872778278e+02 -4.490790162951463e+02  2.918975276816622e+03
 5.100797656408010e+02 -4.521439879875070e+02  2.918975276816622e+03
 5.100088269313343e+02 -4.552093052386940e+02  2.918975276816622e+03
 5.102721711494281e+02 -4.582749680487075e+02  2.918975276816622e+03
 5.103075102285237e+02 -4.613405536537664e+02  2.918975276816622e+03
 5.101148441686220e+02 -4.644060620538702e+02  2.918975276816622e+03
 5.096714721751495e+02 -4.674715097284415e+02  2.918975276816622e+03
 5.089773942481071e+02 -4.705368966774802e+02  2.918975276816622e+03
 5.085641257596042e+02 -4.736022836265189e+02  2.918975276816622e+03
 5.084316667096407e+02 -4.766676705755578e+02  2.918975276816622e+03
 5.086647871015328e+02 -4.797330575245969e+02  2.918975276816622e+03
 5.092634869352805e+02 -4.827984444736358e+02  2.918975276816622e+03
 5.094218450301269e+02 -4.858638314226748e+02  2.918975276816622e+03
 5.091398613860719e+02 -4.889292183717138e+02  2.918975276816622e+03
 5.092729566878613e+02 -4.919946053207528e+02  2.918975276816622e+03
 5.098211309354949e+02 -4.950599922697918e+02  2.918975276816622e+03
 5.099730566208427e+02 -4.981253792188307e+02  2.918975276816622e+03
 5.097287337439045e+02 -5.011907661678697e+02  2.918975276816622e+03
 5.099695687773981e+02 -5.042561531169088e+02  2.918975276816622e+03
 5.106955617213238e+02 -5.073215400659474e+02  2.918975276816622e+03
 5.109883872153612e+02 -5.103741175056329e+02  2.918975276816622e+03
 5.108480452595102e+02 -5.134138854359646e+02  2.918975276816622e+03
 5.110602418849161e+02 -5.164794714942808e+02  2.918975276816622e+03
 5.116249770915791e+02 -5.195708756805818e+02  2.918975276816622e+03
 5.118183147186796e+02 -5.226491814073527e+02  2.918975276816622e+03
 5.116402547662165e+02 -5.257143886745934e+02  2.918975276816622e+03
 5.115897275033236e+02 -5.287795765143550e+02  2.918975276816622e+03
 5.116667329300009e+02 -5.318447449266374e+02  2.918975276816622e+03
 5.116754373397455e+02 -5.349100226072984e+02  2.918975276816622e+03
 5.116158407325573e+02 -5.379754095563374e+02  2.918975276816622e+03
 5.115723926055920e+02 -5.410407774025520e+02  2.918975276816622e+03
 5.115450929588488e+02 -5.441061261459427e+02  2.918975276816622e+03
 5.113994068522591e+02 -5.471715130949817e+02  2.918975276816622e+03
 5.111353342858231e+02 -5.502369382496690e+02  2.918975276816622e+03
 5.111914671848075e+02 -5.533023443015320e+02  2.918975276816622e+03
 5.115678055492118e+02 -5.563677312505710e+02  2.918975276816622e+03
 5.116412181408282e+02 -5.594694218927851e+02  2.918975276816622e+03
 5.114117049596560e+02 -5.626074162281748e+02  2.918975276816622e+03
 5.115171262962898e+02 -5.656728031772137e+02  2.918975276816622e+03
 5.119574821507294e+02 -5.686655827399020e+02  2.918975276816622e+03
 5.120124614504525e+02 -5.716945368590954e+02  2.918975276816622e+03
 5.116820641954581e+02 -5.747596655347933e+02  2.918975276816622e+03
 5.117413980596432e+02 -5.778250524838323e+02  2.918975276816622e+03
 5.121904630430079e+02 -5.808906977062123e+02  2.918975276816622e+03
 5.124751709948459e+02 -5.839563373001083e+02  2.918975276816622e+03
 5.125955219151579e+02 -5.870219712655206e+02  2.918975276816622e+03
 5.130074456511155e+02 -5.900681941728222e+02  2.918975276816622e+03
 5.137109422027191e+02 -5.930950060220136e+02  2.918975276816622e+03
 5.139086056451692e+02 -5.961672716686381e+02  2.918975276816622e+03
 5.136004359784661e+02 -5.992849911126958e+02  2.918975276816622e+03
 5.136516701901222e+02 -6.023695421034720e+02  2.918975276816622e+03
 5.140623082801378e+02 -6.054209246409667e+02  2.918975276816622e+03
 5.140814442355886e+02 -6.084793093842334e+02  2.918975276816622e+03
 5.137090780564740e+02 -6.115446963332724e+02  2.918975276816622e+03
 5.133957526634720e+02 -6.146100832823122e+02  2.918975276816622e+03
 5.131414680565823e+02 -6.176754702313532e+02  2.918975276816622e+03
5.128871834496924e+02 6.176754702313532e+02 2.918975276816622e+03
5.126328988428024e+02 6.146100832823125e+02 2.918975276816622e+03
5.125806947071883e+02 6.115446963332727e+02 2.918975276816622e+03
5.127305710428499e+02 6.084793093842337e+02 2.918975276816622e+03
5.124175356080052e+02 6.054138624328751e+02 2.918975276816622e+03
5.116415884026541e+02 6.023483554791972e+02 2.918975276816622e+03
5.111344969087780e+02 5.992829397778310e+02 2.918975276816622e+03
5.108962611263763e+02 5.962176153287760e+02 2.918975276816622e+03
5.108821307336555e+02 5.931522937070384e+02 2.918975276816622e+03
5.110921057306156e+02 5.900869749126183e+02 2.918975276816622e+03
5.107625269197322e+02 5.870216167159066e+02 2.918975276816622e+03
5.098933943010053e+02 5.839562191169035e+02 2.918975276816622e+03
5.094572816764059e+02 5.808918764853493e+02 2.918975276816622e+03
5.094541890459341e+02 5.778285888212438e+02 2.918975276816622e+03
5.091861170101434e+02 5.747632018722051e+02 2.918975276816622e+03
5.086530655690341e+02 5.716957156382329e+02 2.918975276816622e+03
5.084033011716427e+02 5.686318848065001e+02 2.918975276816622e+03
5.084368238179696e+02 5.655717093770072e+02 2.918975276816622e+03
5.087033275700776e+02 5.625062385907619e+02 2.918975276816622e+03
5.092028124279673e+02 5.594354724477648e+02 2.918975276816622e+03
5.089872214023271e+02 5.563674797389525e+02 2.918975276816622e+03
5.080565544931571e+02 5.533022604643256e+02 2.918975276816622e+03
5.076106284225482e+02 5.502339084098671e+02 2.918975276816622e+03
5.076494431905007e+02 5.471624235755767e+02 2.918975276816622e+03
5.073127089721888e+02 5.440970366265377e+02 2.918975276816622e+03
5.066004257676121e+02 5.410377475627502e+02 2.918975276816622e+03
5.061585327411553e+02 5.379722940571022e+02 2.918975276816622e+03
5.059870298928175e+02 5.349006761095935e+02 2.918975276816622e+03
5.053714962174392e+02 5.318387842162134e+02 2.918975276816622e+03
5.043119317150203e+02 5.287866183769615e+02 2.918975276816622e+03
5.039354542675489e+02 5.257242154318715e+02 2.918975276816622e+03
5.042420638750257e+02 5.226515753809433e+02 2.918975276816622e+03
5.041836382825800e+02 5.195826102126455e+02 2.918975276816622e+03
5.037601774902114e+02 5.165173199269775e+02 2.918975276816622e+03
5.035540493043086e+02 5.134522090944712e+02 2.918975276816622e+03
5.035652537248716e+02 5.103872777151262e+02 2.918975276816622e+03
5.033257435930449e+02 5.073219739296875e+02 2.918975276816622e+03
5.028355189088279e+02 5.042562977381550e+02 2.918975276816622e+03
5.027035371657774e+02 5.011907661678692e+02 2.918975276816622e+03
5.029297983638931e+02 4.981253792188305e+02 2.918975276816622e+03
5.030771178045931e+02 4.950599922697915e+02 2.918975276816622e+03
5.031454954878766e+02 4.919946053207525e+02 2.918975276816622e+03
5.029451673119866e+02 4.889292183717135e+02 2.918975276816622e+03
5.024761332769230e+02 4.858638314226746e+02 2.918975276816622e+03
5.023997606078706e+02 4.827984122505273e+02 2.918975276816622e+03
5.027160493048288e+02 4.797329608552716e+02 2.918975276816622e+03
5.026267572379328e+02 4.766675739062325e+02 2.918975276816622e+03
5.021318844071824e+02 4.736022514034108e+02 2.918975276816622e+03
5.020630795731785e+02 4.705371044771219e+02 2.918975276816622e+03
5.024203427359211e+02 4.674721331273668e+02 2.918975276816622e+03
5.022268888845311e+02 4.644067461783275e+02 2.918975276816622e+03
5.014827180190081e+02 4.613409436300047e+02 2.918975276816622e+03
5.013040518790201e+02 4.582763993872007e+02 2.918975276816622e+03
5.016908904645667e+02 4.552131134499154e+02 2.918975276816622e+03
5.015740468494192e+02 4.521475275327459e+02 2.918975276816622e+03
5.009535210335778e+02 4.490796416356916e+02 2.918975276816622e+03
5.008392364165508e+02 4.460132258368718e+02 2.918975276816622e+03
5.012311929983377e+02 4.429482801362865e+02 2.918975276816622e+03
5.010024999890136e+02 4.398830921553782e+02 2.918975276816622e+03
5.001531573885778e+02 4.368176618941476e+02 2.918975276816622e+03
4.998051099185476e+02 4.337522532890124e+02 2.918975276816622e+03
4.999583575789225e+02 4.306868663399734e+02 2.918975276816622e+03
4.997803285939415e+02 4.276214689506402e+02 2.918975276816622e+03
4.992710229636043e+02 4.245560611210130e+02 2.918975276816622e+03
4.991666865766978e+02 4.214906741719739e+02 2.918975276816622e+03
4.994673194332215e+02 4.184253081035233e+02 2.918975276816622e+03
4.996118056284693e+02 4.153599315947788e+02 2.918975276816622e+03
4.996001451624409e+02 4.122945446457397e+02 2.918975276816622e+03
4.992239305137524e+02 4.092291576967008e+02 2.918975276816622e+03
4.984831616824042e+02 4.061637707476618e+02 2.918975276816622e+03
4.982526194422539e+02 4.030983837986228e+02 2.918975276816622e+03
4.985323037933020e+02 4.000329968495838e+02 2.918975276816622e+03
4.983035441860130e+02 3.969675709726149e+02 2.918975276816622e+03
4.975663406203876e+02 3.939021061677161e+02 2.918975276816622e+03
4.972514640451693e+02 3.908367192186774e+02 2.918975276816622e+03
4.973589144603585e+02 3.877714101254982e+02 2.918975276816622e+03
4.971972077706669e+02 3.847060824941702e+02 2.918975276816622e+03
4.967663439760936e+02 3.816407363246930e+02 2.918975276816622e+03
4.967195708212632e+02 3.785753493756543e+02 2.918975276816622e+03
4.970568883061751e+02 3.755099216470533e+02 2.918975276816622e+03
4.970694543981169e+02 3.724445143082335e+02 2.918975276816622e+03
4.967572690970890e+02 3.693791273591945e+02 2.918975276816622e+03
4.969481772369971e+02 3.663137404101556e+02 2.918975276816622e+03
4.976421788178417e+02 3.632483534611165e+02 2.918975276816622e+03
4.978495297653864e+02 3.601870348301971e+02 2.918975276816622e+03
4.975702300796307e+02 3.571297845173970e+02 2.918975276816622e+03
4.976977857062246e+02 3.540569964005403e+02 2.918975276816622e+03
4.982321966451681e+02 3.509686704796272e+02 2.918975276816622e+03
4.984014495941349e+02 3.478991981477470e+02 2.918975276816622e+03
4.982055445531250e+02 3.448485794048999e+02 2.918975276816622e+03
4.984688787428513e+02 3.417907651858712e+02 2.918975276816622e+03
4.991914521633139e+02 3.387257554906608e+02 2.918975276816622e+03
4.996078273298158e+02 3.356604124977592e+02 2.918975276816622e+03
4.997180042423566e+02 3.325947362071660e+02 2.918975276816622e+03
4.996241592581185e+02 3.295188447117830e+02 2.918975276816622e+03
4.993262923771013e+02 3.264327380116099e+02 2.918975276816622e+03
4.994215658783182e+02 3.233686573464768e+02 2.918975276816622e+03
4.999099797617694e+02 3.203266027163837e+02 2.918975276816622e+03
5.002460861680084e+02 3.172716103689413e+02 2.918975276816622e+03
5.004298850970362e+02 3.142036803041499e+02 2.918975276816622e+03
5.002107409091735e+02 3.111370532102824e+02 2.918975276816622e+03
4.995886536044215e+02 3.080717290873393e+02 2.918975276816622e+03
4.996132899699593e+02 3.050021269971041e+02 2.918975276816622e+03
5.002846500057872e+02 3.019282469395765e+02 2.918975276816622e+03
5.005325161089605e+02 2.988627687984153e+02 2.918975276816622e+03
5.003568882794797e+02 2.958056925736212e+02 2.918975276816622e+03
5.005437668405771e+02 2.927444591483335e+02 2.918975276816622e+03
5.010931517922530e+02 2.896790685225523e+02 2.918975276816622e+03
5.014854514430404e+02 2.866136797351425e+02 2.918975276816622e+03
5.017206657929388e+02 2.835482927861034e+02 2.918975276816622e+03
5.018027965227502e+02 2.804729771610898e+02 2.918975276816622e+03
5.017318436324737e+02 2.773877328601015e+02 2.918975276816622e+03
5.020720091268141e+02 2.743135626501898e+02 2.918975276816622e+03
5.028232930057714e+02 2.712504665313547e+02 2.918975276816622e+03
5.030717061902332e+02 2.681950082582903e+02 2.918975276816622e+03
5.028172486801996e+02 2.651471878309969e+02 2.918975276816622e+03
5.028874711689254e+02 2.620903964781012e+02 2.918975276816622e+03
5.032823736564106e+02 2.590246341996035e+02 2.918975276816622e+03
5.039704099760871e+02 2.559592472505646e+02 2.918975276816622e+03
5.049515801279549e+02 2.528942356309844e+02 2.918975276816622e+03
5.056440133217158e+02 2.498290694471646e+02 2.918975276816622e+03
5.060477095573693e+02 2.467637486991053e+02 2.918975276816622e+03
5.061507552355891e+02 2.436981865247978e+02 2.918975276816622e+03
5.059531503563749e+02 2.406323829242419e+02 2.918975276816622e+03
5.061223039338635e+02 2.375669742420256e+02 2.918975276816622e+03
5.066582159680550e+02 2.345019604781486e+02 2.918975276816622e+03
5.068907502742766e+02 2.314367487543783e+02 2.918975276816622e+03
5.068199068525281e+02 2.283713390707146e+02 2.918975276816622e+03
5.071115187224026e+02 2.253059407543633e+02 2.918975276816622e+03
5.077655858839004e+02 2.222405538053244e+02 2.918975276816622e+03
5.079540760500074e+02 2.191752563845587e+02 2.918975276816622e+03
5.076769892207236e+02 2.161100484920661e+02 2.918975276816622e+03
5.078795141416923e+02 2.130446985023800e+02 2.918975276816622e+03
5.085616508129134e+02 2.099792064155002e+02 2.918975276816622e+03
5.087186033234377e+02 2.069134163130033e+02 2.918975276816622e+03
5.083503716732653e+02 2.038473281948895e+02 2.918975276816622e+03
5.082960999090117e+02 2.007819042864977e+02 2.918975276816622e+03
5.085557880306764e+02 1.977171445878280e+02 2.918975276816622e+03
5.089925826992638e+02 1.946521928479563e+02 2.918975276816622e+03
5.096064839147739e+02 1.915870490668827e+02 2.918975276816622e+03
5.100190522459487e+02 1.885216062023612e+02 2.918975276816622e+03
5.102302876927888e+02 1.854558642543919e+02 2.918975276816622e+03
5.101961238339002e+02 1.823903557213703e+02 2.918975276816622e+03
5.099165606692826e+02 1.793250806032964e+02 2.918975276816622e+03
5.101767716044151e+02 1.762597109414050e+02 2.918975276816622e+03
5.109767566392975e+02 1.731942467356963e+02 2.918975276816622e+03
5.114061328369090e+02 1.701288597866573e+02 2.918975276816622e+03
5.114649001972495e+02 1.670635500942881e+02 2.918975276816622e+03
5.117855442797171e+02 1.639975263129668e+02 2.918975276816622e+03
5.123680650843120e+02 1.609307884426935e+02 2.918975276816622e+03
5.125663810777093e+02 1.578654014936545e+02 2.918975276816622e+03
5.123804922599091e+02 1.548013654658499e+02 2.918975276816622e+03
5.125301931908035e+02 1.517366539774281e+02 2.918975276816622e+03
5.130154838703929e+02 1.486712670283892e+02 2.918975276816622e+03
5.131759436780219e+02 1.456059374192765e+02 2.918975276816622e+03
5.130115726136906e+02 1.425406651500902e+02 2.918975276816622e+03
5.132130419245335e+02 1.394752130771694e+02 2.918975276816622e+03
5.137803516105500e+02 1.364095812005143e+02 2.918975276816622e+03
5.139801024941040e+02 1.333441942417438e+02 2.918975276816622e+03
5.138122945751948e+02 1.302790522008578e+02 2.918975276816622e+03
5.140536908886443e+02 1.272137303757006e+02 2.918975276816622e+03
5.147042914344520e+02 1.241482287662722e+02 2.918975276816622e+03
5.149811269339287e+02 1.210827844870385e+02 2.918975276816622e+03
5.148841973870741e+02 1.180173975379996e+02 2.918975276816622e+03
5.151775345840332e+02 1.149519454806313e+02 2.918975276816622e+03
5.158611385248057e+02 1.118864283149337e+02 2.918975276816622e+03
5.158676273652767e+02 1.088181678992560e+02 2.918975276816622e+03
5.151970011054458e+02 1.057471642335982e+02 2.918975276816622e+03
5.147540511559159e+02 1.026857302885607e+02 2.918975276816622e+03
5.145387775166873e+02 9.963386606414370e+01 2.918975276816622e+03
5.144563899407201e+02 9.657135258174347e+01 2.918975276816622e+03
5.145068884280141e+02 9.349818984136004e+01 2.918975276816622e+03
5.143150227824468e+02 9.042891499664887e+01 2.918975276816622e+03
5.138807930040184e+02 8.736352804760986e+01 2.918975276816622e+03
5.139901457055629e+02 8.429778784238334e+01 2.918975276816622e+03
5.146430808870797e+02 8.123169438096926e+01 2.918975276816622e+03
5.148316527876808e+02 7.816630743193033e+01 2.918975276816622e+03
5.145558614073660e+02 7.510162699526670e+01 2.918975276816622e+03
5.147391941502195e+02 7.203917248757875e+01 2.918975276816622e+03
5.153816510162412e+02 6.897894390886653e+01 2.918975276816622e+03
5.154261680053165e+02 6.591369974715735e+01 2.918975276816622e+03
5.148727451174456e+02 6.284344000245122e+01 2.918975276816622e+03
5.148875317920591e+02 5.977544735846187e+01 2.918975276816622e+03
5.154705280291577e+02 5.670972181518933e+01 2.918975276816622e+03
5.156837303126989e+02 5.364419207882057e+01 2.918975276816622e+03
5.155271386426837e+02 5.057885814935562e+01 2.918975276816622e+03
5.157462915637618e+02 4.751350581452547e+01 2.918975276816622e+03
5.163411890759336e+02 4.444813507433013e+01 2.918975276816622e+03
5.165055250798526e+02 4.138672124711201e+01 2.918975276816622e+03
5.162392995755180e+02 3.832926433287108e+01 2.918975276816622e+03
5.163741518092895e+02 3.526385949702218e+01 2.918975276816622e+03
5.169100817811670e+02 3.219050673956531e+01 2.918975276816622e+03
5.170683572995836e+02 2.912114666870552e+01 2.918975276816622e+03
5.168489783645385e+02 2.605577928444277e+01 2.918975276816622e+03
5.170296876182609e+02 2.299040211779192e+01 2.918975276816622e+03
5.176104850607508e+02 1.992501516875296e+01 2.918975276816622e+03
5.177820956609908e+02 1.685959191269164e+01 2.918975276816622e+03
5.175445194189807e+02 1.379413234960799e+01 2.918975276816622e+03
5.175971330550777e+02 1.072874540056902e+01 2.918975276816622e+03
5.179399365692815e+02 7.663431065574744e+00 2.918975276816622e+03
-4.870260185547085e+02 -1.532693474519483e+00 -2.918975276816622e+03
-4.878343379231211e+02 -4.598080423558450e+00 -2.918975276816622e+03
-4.864811356891063e+02  1.532693474519402e+00 -2.918975276816622e+03
-4.861996893263147e+02  4.598080423558205e+00 -2.918975276816622e+03
-4.880024869064597e+02 -7.663467372597416e+00 -2.918975276816622e+03
-4.875304655047244e+02 -1.072885432163638e+01 -2.918975276816622e+03
-4.876529986934938e+02 -1.379419540565156e+01 -2.918975276816622e+03
-4.883700864727679e+02 -1.685949062464295e+01 -2.918975276816622e+03
-4.885728328729222e+02 -1.993060568966305e+01 -2.918975276816622e+03
-4.882612378939567e+02 -2.300754060071185e+01 -2.918975276816622e+03
-4.884161251618432e+02 -2.607297341477461e+01 -2.918975276816622e+03
-4.890374946765823e+02 -2.912690413185130e+01 -2.918975276816622e+03
-4.891229116477718e+02 -3.218662060973560e+01 -2.918975276816622e+03
-4.886723760754122e+02 -3.525212284842743e+01 -2.918975276816622e+03
-4.890276499991257e+02 -3.831759437387155e+01 -2.918975276816622e+03
-4.901887334189125e+02 -4.138303518606798e+01 -2.918975276816622e+03
-4.904915051627485e+02 -4.444836449028049e+01 -2.918975276816622e+03
-4.899359652306339e+02 -4.751358228650914e+01 -2.918975276816622e+03
-4.899523963755487e+02 -5.057883279102914e+01 -2.918975276816622e+03
-4.905407985974933e+02 -5.364411600384053e+01 -2.918975276816622e+03
-4.911708658579765e+02 -5.670946137575721e+01 -2.918975276816622e+03
-4.918425981569989e+02 -5.977486890677920e+01 -2.918975276816622e+03
-4.919372547110987e+02 -6.284039675557855e+01 -2.918975276816622e+03
-4.914548355202764e+02 -6.590604492215529e+01 -2.918975276816622e+03
-4.915709678549973e+02 -6.897173606824452e+01 -2.918975276816622e+03
-4.922856517152617e+02 -7.203747019384622e+01 -2.918975276816622e+03
-4.923603034682407e+02 -7.510251388384374e+01 -2.918975276816622e+03
-4.917949231139348e+02 -7.816686713823708e+01 -2.918975276816622e+03
-4.918304359927006e+02 -8.123199146734807e+01 -2.918975276816622e+03
-4.924668421045384e+02 -8.429788687117671e+01 -2.918975276816622e+03
-4.925150029622974e+02 -8.736352804761053e+01 -2.918975276816622e+03
-4.919749185659774e+02 -9.042891499664950e+01 -2.918975276816622e+03
-4.918375758899700e+02 -9.349854358708127e+01 -2.918975276816622e+03
-4.921029749342744e+02 -9.657241381890594e+01 -2.918975276816622e+03
-4.922517659824333e+02 -9.963780076794491e+01 -2.918975276816622e+03
-4.922839490344467e+02 -1.026947044341982e+02 -2.918975276816622e+03
-4.925878286684349e+02 -1.057558497418443e+02 -2.918975276816622e+03
-4.931634048843983e+02 -1.088212366908833e+02 -2.918975276816622e+03
-4.934460587787490e+02 -1.118866236399223e+02 -2.918975276816622e+03
-4.934357903514874e+02 -1.149520105889612e+02 -2.918975276816622e+03
-4.931827911036244e+02 -1.180173975380002e+02 -2.918975276816622e+03
-4.926870610351602e+02 -1.210827844870392e+02 -2.918975276816622e+03
-4.926012768777180e+02 -1.241481714360781e+02 -2.918975276816622e+03
-4.929254386312985e+02 -1.272135583851171e+02 -2.918975276816622e+03
-4.929448971861120e+02 -1.302788375808155e+02 -2.918975276816622e+03
-4.926596525421585e+02 -1.333440090231733e+02 -2.918975276816622e+03
-4.927672663668480e+02 -1.364093959722122e+02 -2.918975276816622e+03
-4.932677386601802e+02 -1.394749984279324e+02 -2.918975276816622e+03
-4.932237537890028e+02 -1.425405638942091e+02 -2.918975276816622e+03
-4.926353117533150e+02 -1.456060923710426e+02 -2.918975276816622e+03
-4.926219642701083e+02 -1.486717730706092e+02 -2.918975276816622e+03
-4.931837113393819e+02 -1.517376059929092e+02 -2.918975276816622e+03
-4.932129070087053e+02 -1.548029221780508e+02 -2.918975276816622e+03
-4.927095512780778e+02 -1.578677216260340e+02 -2.918975276816622e+03
-4.926903038589154e+02 -1.609328148245451e+02 -2.918975276816622e+03
-4.931551647512175e+02 -1.639982017735840e+02 -2.918975276816622e+03
-4.932497298453596e+02 -1.670635887226230e+02 -2.918975276816622e+03
-4.929739991413414e+02 -1.701289756716619e+02 -2.918975276816622e+03
-4.929412095547431e+02 -1.731943626207009e+02 -2.918975276816622e+03
-4.931513610855648e+02 -1.762597495697399e+02 -2.918975276816622e+03
-4.929334315475054e+02 -1.793251365187789e+02 -2.918975276816622e+03
-4.922874209405655e+02 -1.823905234678178e+02 -2.918975276816622e+03
-4.920590713352162e+02 -1.854559297230830e+02 -2.918975276816622e+03
-4.922483827314576e+02 -1.885213552845742e+02 -2.918975276816622e+03
-4.919762319270255e+02 -1.915867422336132e+02 -2.918975276816622e+03
-4.912426189219197e+02 -1.946520905701998e+02 -2.918975276816622e+03
-4.909240667151767e+02 -1.977182906755742e+02 -2.918975276816622e+03
-4.910205753067958e+02 -2.007853425497362e+02 -2.918975276816622e+03
-4.914215727104180e+02 -2.038507294987752e+02 -2.918975276816622e+03
-4.921270589260433e+02 -2.069144515226911e+02 -2.918975276816622e+03
-4.922405246460525e+02 -2.099789402196150e+02 -2.918975276816622e+03
-4.917619698704450e+02 -2.130441955895468e+02 -2.918975276816622e+03
-4.918257407940974e+02 -2.161095825385858e+02 -2.918975276816622e+03
-4.924318374170103e+02 -2.191751010667319e+02 -2.918975276816622e+03
-4.925599193549837e+02 -2.222401589632290e+02 -2.918975276816622e+03
-4.922099866080177e+02 -2.253047562280774e+02 -2.918975276816622e+03
-4.921878310457872e+02 -2.283702511761217e+02 -2.918975276816622e+03
-4.924934526682920e+02 -2.314366438073620e+02 -2.918975276816622e+03
-4.924283387191216e+02 -2.345022932029364e+02 -2.918975276816622e+03
-4.919924891982766e+02 -2.375671993628450e+02 -2.918975276816622e+03
-4.918783187528416e+02 -2.406325153617188e+02 -2.918975276816622e+03
-4.920858273828171e+02 -2.436982411995580e+02 -2.918975276816622e+03
-4.925135047334341e+02 -2.467637605441569e+02 -2.918975276816622e+03
-4.931613508046931e+02 -2.498290733955153e+02 -2.918975276816622e+03
-4.932187913615876e+02 -2.528944232957141e+02 -2.918975276816622e+03
-4.926858264041180e+02 -2.559598102447530e+02 -2.918975276816622e+03
-4.927176974817526e+02 -2.590251971937920e+02 -2.918975276816622e+03
-4.933144045944911e+02 -2.620905841428309e+02 -2.918975276816622e+03
-4.933370381600524e+02 -2.651560385829572e+02 -2.918975276816622e+03
-4.927855981784354e+02 -2.682215605141707e+02 -2.918975276816622e+03
-4.929078839152510e+02 -2.712777518996589e+02 -2.918975276816622e+03
-4.937038953704989e+02 -2.743246127394219e+02 -2.918975276816622e+03
-4.942188618497370e+02 -2.773899321973736e+02 -2.918975276816622e+03
-4.944527833529644e+02 -2.804737102735140e+02 -2.918975276816622e+03
-4.942708356597282e+02 -2.835482927861037e+02 -2.918975276816622e+03
-4.936730187700276e+02 -2.866136797351427e+02 -2.918975276816622e+03
-4.937847999881313e+02 -2.896790485834576e+02 -2.918975276816622e+03
-4.946061793140387e+02 -2.927443993310486e+02 -2.918975276816622e+03
-4.948432682104654e+02 -2.958095685046842e+02 -2.918975276816622e+03
-4.944960666774119e+02 -2.988745561043648e+02 -2.918975276816622e+03
-4.945656263168890e+02 -3.019399674331555e+02 -2.918975276816622e+03
-4.950519471288962e+02 -3.050058024910562e+02 -2.918975276816622e+03
-4.955489416024407e+02 -3.080712780056400e+02 -2.918975276816622e+03
-4.960566097375211e+02 -3.111363939769065e+02 -2.918975276816622e+03
-4.962875217965802e+02 -3.142017574043674e+02 -2.918975276816622e+03
-4.962416777796175e+02 -3.172673682880227e+02 -2.918975276816622e+03
-4.965360729678661e+02 -3.203328844469202e+02 -2.918975276816622e+03
-4.971707073613255e+02 -3.233983058810598e+02 -2.918975276816622e+03
-4.973463148622831e+02 -3.264637100726492e+02 -2.918975276816622e+03
-4.970628954707390e+02 -3.295290970216883e+02 -2.918975276816622e+03
-4.971834113702436e+02 -3.325944839707273e+02 -2.918975276816622e+03
-4.977078625607966e+02 -3.356598709197663e+02 -2.918975276816622e+03
-4.978732752048504e+02 -3.387251825995641e+02 -2.918975276816622e+03
-4.976796493024056e+02 -3.417904190101212e+02 -2.918975276816622e+03
-4.979870054046419e+02 -3.448558059591602e+02 -2.918975276816622e+03
-4.987953435115596e+02 -3.479213434466810e+02 -2.918975276816622e+03
-4.990613168283068e+02 -3.509868056649609e+02 -2.918975276816622e+03
-4.987849253548836e+02 -3.540521926139999e+02 -2.918975276816622e+03
-4.989641586598254e+02 -3.571176470427574e+02 -2.918975276816622e+03
-4.995990167431320e+02 -3.601831689512336e+02 -2.918975276816622e+03
-5.000682251104402e+02 -3.632491309891261e+02 -2.918975276816622e+03
-5.003717837617499e+02 -3.663155331564345e+02 -2.918975276816622e+03
-5.004469274097185e+02 -3.693808952752910e+02 -2.918975276816622e+03
-5.002936560543458e+02 -3.724452173456960e+02 -2.918975276816622e+03
-5.006297900583124e+02 -3.755098510747310e+02 -2.918975276816622e+03
-5.014553294216191e+02 -3.785747964623954e+02 -2.918975276816622e+03
-5.019468479881870e+02 -3.816401407618981e+02 -2.918975276816622e+03
-5.021043457580161e+02 -3.847058839732388e+02 -2.918975276816622e+03
-5.022857199679019e+02 -3.877630621094096e+02 -2.918975276816622e+03
-5.024909706178439e+02 -3.908116751704108e+02 -2.918975276816622e+03
-5.028503526458853e+02 -3.938772372744944e+02 -2.918975276816622e+03
-5.033638660520259e+02 -3.969597484216602e+02 -2.918975276816622e+03
-5.034391801089536e+02 -4.000335281218216e+02 -2.918975276816622e+03
-5.030762948166687e+02 -4.030985763749782e+02 -2.918975276816622e+03
-5.031480086185264e+02 -4.061637446178128e+02 -2.918975276816622e+03
-5.036543215145271e+02 -4.092290328503257e+02 -2.918975276816622e+03
-5.038076951026479e+02 -4.122944139922614e+02 -2.918975276816622e+03
-5.036081293828890e+02 -4.153598880436197e+02 -2.918975276816622e+03
-5.038290567398001e+02 -4.184253185438183e+02 -2.918975276816622e+03
-5.044704771733810e+02 -4.214907054928572e+02 -2.918975276816622e+03
-5.047372124018605e+02 -4.245560924418962e+02 -2.918975276816622e+03
-5.046292624252386e+02 -4.276214793909353e+02 -2.918975276816622e+03
-5.049720637295583e+02 -4.306868663399739e+02 -2.918975276816622e+03
-5.057656163148197e+02 -4.337522532890130e+02 -2.918975276816622e+03
-5.061318449072631e+02 -4.368176402380519e+02 -2.918975276816622e+03
-5.060707495068885e+02 -4.398830271870909e+02 -2.918975276816622e+03
-5.062755069179215e+02 -4.429484141361298e+02 -2.918975276816622e+03
-5.067461171403622e+02 -4.460138010851689e+02 -2.918975276816622e+03
-5.076175330207690e+02 -4.490791529040783e+02 -2.918975276816622e+03
-5.088897545591419e+02 -4.521444695928574e+02 -2.918975276816622e+03
-5.093208186266687e+02 -4.552098565418964e+02 -2.918975276816622e+03
-5.089107252233493e+02 -4.582753137511950e+02 -2.918975276816622e+03
-5.090962076791928e+02 -4.613293821891881e+02 -2.918975276816622e+03
-5.098772659941984e+02 -4.643720618558759e+02 -2.918975276816622e+03
-5.100735033526146e+02 -4.674373015139954e+02 -2.918975276816622e+03
-5.096849197544415e+02 -4.705251011635465e+02 -2.918975276816622e+03
-5.098796210037842e+02 -4.736018417537609e+02 -2.918975276816622e+03
-5.106576071006425e+02 -4.766675232846387e+02 -2.918975276816622e+03
-5.110497849697240e+02 -4.797330575245969e+02 -2.918975276816622e+03
-5.110561546110283e+02 -4.827984444736358e+02 -2.918975276816622e+03
-5.114114146592306e+02 -4.858638314226748e+02 -2.918975276816622e+03
-5.121155651143308e+02 -4.889292183717138e+02 -2.918975276816622e+03
-5.123483225420302e+02 -4.919946738560091e+02 -2.918975276816622e+03
-5.121096869423288e+02 -4.950601978755607e+02 -2.918975276816622e+03
-5.122787050410033e+02 -4.981332047109410e+02 -2.918975276816622e+03
-5.128553768380528e+02 -5.012136943621494e+02 -2.918975276816622e+03
-5.131510789489917e+02 -5.042790127759321e+02 -2.918975276816622e+03
-5.131658113738199e+02 -5.073291599522887e+02 -2.918975276816622e+03
-5.127290679346910e+02 -5.103869270149864e+02 -2.918975276816622e+03
-5.118408486316054e+02 -5.134523139640254e+02 -2.918975276816622e+03
-5.115945719136730e+02 -5.165177009130643e+02 -2.918975276816622e+03
-5.119902377808930e+02 -5.195830878621034e+02 -2.918975276816622e+03
-5.119984029920711e+02 -5.226477238236914e+02 -2.918975276816622e+03
-5.116190675472067e+02 -5.257116087978288e+02 -2.918975276816622e+03
-5.114401518761195e+02 -5.287769957468678e+02 -2.918975276816622e+03
-5.114616559788086e+02 -5.318438846708085e+02 -2.918975276816622e+03
-5.117733712546255e+02 -5.349100226072984e+02 -2.918975276816622e+03
-5.123752977035698e+02 -5.379754095563374e+02 -2.918975276816622e+03
-5.125482373177555e+02 -5.410409513345311e+02 -2.918975276816622e+03
-5.122921900971824e+02 -5.441066479418796e+02 -2.918975276816622e+03
-5.122824771894046e+02 -5.471720842101465e+02 -2.918975276816622e+03
-5.125190985944224e+02 -5.502372601393316e+02 -2.918975276816622e+03
-5.126783750094335e+02 -5.533025138926620e+02 -2.918975276816622e+03
-5.127603064344389e+02 -5.563678454701381e+02 -2.918975276816622e+03
-5.126137758734682e+02 -5.594330112153114e+02 -2.918975276816622e+03
-5.122387833265208e+02 -5.624980111281817e+02 -2.918975276816622e+03
-5.122243065587551e+02 -5.655693470812005e+02 -2.918975276816622e+03
-5.125703455701708e+02 -5.686470190743679e+02 -2.918975276816622e+03
-5.126709227957577e+02 -5.717125779080448e+02 -2.918975276816622e+03
-5.125260382355153e+02 -5.747660235822310e+02 -2.918975276816622e+03
-5.125892443920643e+02 -5.778244242828105e+02 -2.918975276816622e+03
-5.128605412654045e+02 -5.808877800097836e+02 -2.918975276816622e+03
-5.127751637863471e+02 -5.839531669588222e+02 -2.918975276816622e+03
-5.123331119548923e+02 -5.870205851299276e+02 -2.918975276816622e+03
-5.123176837212279e+02 -5.900869876899998e+02 -2.918975276816622e+03
-5.127288790853538e+02 -5.931523746390387e+02 -2.918975276816622e+03
-5.127500982518284e+02 -5.962216633695419e+02 -2.918975276816622e+03
-5.123813412206515e+02 -5.992948538815094e+02 -2.918975276816622e+03
-5.123393086884475e+02 -6.023602408305485e+02 -2.918975276816622e+03
-5.126240006552164e+02 -6.054178242166588e+02 -2.918975276816622e+03
-5.125912001269725e+02 -6.084788755945882e+02 -2.918975276816622e+03
-5.122409071037158e+02 -6.115433949643364e+02 -2.918975276816622e+03
-5.121639360550078e+02 -6.146087819133762e+02 -2.918975276816622e+03
-5.123602869808483e+02 -6.176750364417078e+02 -2.918975276816622e+03
-5.125566115810115e+02  6.176754475486456e+02 -2.918975276816622e+03
-5.127529098554974e+02  6.146100152341891e+02 -2.918975276816622e+03
-5.124595932795668e+02  6.115452395698680e+02 -2.918975276816622e+03
-5.116766618532197e+02  6.084811205556823e+02 -2.918975276816622e+03
-5.113607182005648e+02  6.054156704140433e+02 -2.918975276816622e+03
-5.115117623216018e+02  6.023488891449508e+02 -2.918975276816622e+03
-5.112507073393145e+02  5.992828909111930e+02 -2.918975276816622e+03
-5.105775532537031e+02  5.962176757127694e+02 -2.918975276816622e+03
-5.103431716727910e+02  5.931519142115097e+02 -2.918975276816622e+03
-5.105475625965787e+02  5.900856064074139e+02 -2.918975276816622e+03
-5.102337608789595e+02  5.870202088200982e+02 -2.918975276816622e+03
-5.094017665199340e+02  5.839557214495627e+02 -2.918975276816622e+03
-5.091802899739224e+02  5.808907949280521e+02 -2.918975276816622e+03
-5.095693312409251e+02  5.778254292555667e+02 -2.918975276816622e+03
-5.092627522273809e+02  5.747600575020224e+02 -2.918975276816622e+03
-5.082605529332900e+02  5.716946796674193e+02 -2.918975276816622e+03
-5.078516910744171e+02  5.686330954384706e+02 -2.918975276816622e+03
-5.080361666507621e+02  5.655753048151767e+02 -2.918975276816622e+03
-5.077659854288622e+02  5.625073381183290e+02 -2.918975276816622e+03
-5.070411474087165e+02  5.594291953479275e+02 -2.918975276816622e+03
-5.066596163712243e+02  5.563593567058919e+02 -2.918975276816622e+03
-5.066213923163857e+02  5.532978221922223e+02 -2.918975276816622e+03
-5.064264270363063e+02  5.502350104337742e+02 -2.918975276816622e+03
-5.060747205309872e+02  5.471709214305477e+02 -2.918975276816622e+03
-5.060459311240694e+02  5.441061834544147e+02 -2.918975276816622e+03
-5.063400588155529e+02  5.410407965053761e+02 -2.918975276816622e+03
-5.060128341725452e+02  5.379754095563370e+02 -2.918975276816622e+03
-5.050642571950458e+02  5.349100226072981e+02 -2.918975276816622e+03
-5.045047398847756e+02  5.318446356582590e+02 -2.918975276816622e+03
-5.043342822417351e+02  5.287792487092202e+02 -2.918975276816622e+03
-5.038277644953979e+02  5.257139083160502e+02 -2.918975276816622e+03
-5.029851866457649e+02  5.226486144787496e+02 -2.918975276816622e+03
-5.027243383358659e+02  5.195884850898573e+02 -2.918975276816622e+03
-5.030452195657011e+02  5.165335201493727e+02 -2.918975276816622e+03
-5.031547610075192e+02  5.134604785266181e+02 -2.918975276816622e+03
-5.030529626613199e+02  5.103693602215931e+02 -2.918975276816622e+03
-5.034385218029030e+02  5.072987157124077e+02 -2.918975276816622e+03
-5.043114384322678e+02  5.042485449990617e+02 -2.918975276816622e+03
-5.044439903156494e+02  5.011907713584168e+02 -2.918975276816622e+03
-5.038361774530479e+02  4.981253947904726e+02 -2.918975276816622e+03
-5.037515396564650e+02  4.950600078414337e+02 -2.918975276816622e+03
-5.041900769259013e+02  4.919946105112999e+02 -2.918975276816622e+03
-5.042687783186902e+02  4.889290957006445e+02 -2.918975276816622e+03
-5.039876438348320e+02  4.858634634094670e+02 -2.918975276816622e+03
-5.034805498290222e+02  4.827981583799954e+02 -2.918975276816622e+03
-5.027474963012605e+02  4.797331806122295e+02 -2.918975276816622e+03
-5.027280822134760e+02  4.766679163342600e+02 -2.918975276816622e+03
-5.034223075656689e+02  4.736023655460866e+02 -2.918975276816622e+03
-5.032944280199360e+02  4.705368966774802e+02 -2.918975276816622e+03
-5.023444435762779e+02  4.674715097284410e+02 -2.918975276816622e+03
-5.021215668898071e+02  4.644060476755777e+02 -2.918975276816622e+03
-5.026257979605239e+02  4.613405105188909e+02 -2.918975276816622e+03
-5.026342887888079e+02  4.582785718603258e+02 -2.918975276816622e+03
-5.021470393746590e+02  4.552202316998819e+02 -2.918975276816622e+03
-5.020617119998051e+02  4.521549198546669e+02 -2.918975276816622e+03
-5.023783066642460e+02  4.490826363246809e+02 -2.918975276816622e+03
-5.028583257401724e+02  4.460141195890824e+02 -2.918975276816622e+03
-5.035017692275837e+02  4.429493696478716e+02 -2.918975276816622e+03
-5.036794325995403e+02  4.398839826988327e+02 -2.918975276816622e+03
-5.033913158560418e+02  4.368179587419654e+02 -2.918975276816622e+03
-5.029969086658115e+02  4.337522532890124e+02 -2.918975276816622e+03
-5.024962110288494e+02  4.306868663399734e+02 -2.918975276816622e+03
-5.022744664760082e+02  4.276214793909344e+02 -2.918975276816622e+03
-5.023316750072881e+02  4.245560924418954e+02 -2.918975276816622e+03
-5.026052869009644e+02  4.214907054928564e+02 -2.918975276816622e+03
-5.030953021570364e+02  4.184253185438174e+02 -2.918975276816622e+03
-5.029068310787915e+02  4.153599315947788e+02 -2.918975276816622e+03
-5.020398736662298e+02  4.122945446457397e+02 -2.918975276816622e+03
-5.014288921852865e+02  4.092292043421010e+02 -2.918975276816622e+03
-5.010738866359624e+02  4.061639106838625e+02 -2.918975276816622e+03
-5.009979765689702e+02  4.030985893766360e+02 -2.918975276816622e+03
-5.012011619843104e+02  4.000332404204219e+02 -2.918975276816622e+03
-5.009972888985513e+02  3.969679923283180e+02 -2.918975276816622e+03
-5.003863573116929e+02  3.939028451003243e+02 -2.918975276816622e+03
-5.001891240506498e+02  3.908376170499781e+02 -2.918975276816622e+03
-5.004055891154223e+02  3.877723081772803e+02 -2.918975276816622e+03
-5.003000007189376e+02  3.847072583457987e+02 -2.918975276816622e+03
-4.998723588611956e+02  3.816424675555338e+02 -2.918975276816622e+03
-4.998600099352894e+02  3.785768560659891e+02 -2.918975276816622e+03
-5.002629539412190e+02  3.755104238771648e+02 -2.918975276816622e+03
-5.001832556894542e+02  3.724434822220638e+02 -2.918975276816622e+03
-4.996209151799955e+02  3.693760311006854e+02 -2.918975276816622e+03
-4.995779446908095e+02  3.663106002868687e+02 -2.918975276816622e+03
-5.000543442218967e+02  3.632471897806134e+02 -2.918975276816622e+03
-4.999783248180792e+02  3.601828349177441e+02 -2.918975276816622e+03
-4.993498864793573e+02  3.571175356982608e+02 -2.918975276816622e+03
-4.991661019097793e+02  3.540521926139996e+02 -2.918975276816622e+03
-4.994269711093455e+02  3.509868056649606e+02 -2.918975276816622e+03
-4.992713467434110e+02  3.479214187159217e+02 -2.918975276816622e+03
-4.986992288119759e+02  3.448560317668827e+02 -2.918975276816622e+03
-4.984752617168993e+02  3.417906265562823e+02 -2.918975276816622e+03
-4.985994454581814e+02  3.387252030841204e+02 -2.918975276816622e+03
-4.981816999466164e+02  3.356598161350814e+02 -2.918975276816622e+03
-4.972220251822046e+02  3.325944657091654e+02 -2.918975276816622e+03
-4.969584328381913e+02  3.295291773767908e+02 -2.918975276816622e+03
-4.973909229145765e+02  3.264639511379580e+02 -2.918975276816622e+03
-4.972361491588450e+02  3.233980299413598e+02 -2.918975276816622e+03
-4.964941115709969e+02  3.203314137869963e+02 -2.918975276816622e+03
-4.961841199685650e+02  3.172659702602453e+02 -2.918975276816622e+03
-4.963061743515487e+02  3.142016993611067e+02 -2.918975276816622e+03
-4.960374828389303e+02  3.111368466596269e+02 -2.918975276816622e+03
-4.953780454307093e+02  3.080714121558061e+02 -2.918975276816622e+03
-4.953031196111727e+02  3.050061478382799e+02 -2.918975276816622e+03
-4.958127053803203e+02  3.019410537070482e+02 -2.918975276816622e+03
-4.958163013552182e+02  2.988756667580092e+02 -2.918975276816622e+03
-4.953139075358669e+02  2.958099869911629e+02 -2.918975276816622e+03
-4.952184969191189e+02  2.927443510662485e+02 -2.918975276816622e+03
-4.955300695049747e+02  2.896787589832659e+02 -2.918975276816622e+03
-4.954186747068381e+02  2.866137324786653e+02 -2.918975276816622e+03
-4.948843125247089e+02  2.835492715524468e+02 -2.918975276816622e+03
-4.947289605856444e+02  2.804840005335857e+02 -2.918975276816622e+03
-4.949526188896440e+02  2.774179194220819e+02 -2.918975276816622e+03
-4.947686369025718e+02  2.743519583819631e+02 -2.918975276816622e+03
-4.941770146244277e+02  2.712861174132295e+02 -2.918975276816622e+03
-4.939761979656564e+02  2.682206949506574e+02 -2.918975276816622e+03
-4.941661869262573e+02  2.651556909942470e+02 -2.918975276816622e+03
-4.938642493289974e+02  2.620903622471284e+02 -2.918975276816622e+03
-4.930703851738765e+02  2.590247087093015e+02 -2.918975276816622e+03
-4.927168173101617e+02  2.559593053405013e+02 -2.918975276816622e+03
-4.928035457378528e+02  2.528941521407276e+02 -2.918975276816622e+03
-4.925172623902814e+02  2.498289177616596e+02 -2.918975276816622e+03
-4.918579672674481e+02  2.467636022032972e+02 -2.918975276816622e+03
-4.916214364909090e+02  2.436981840637243e+02 -2.918975276816622e+03
-4.918076700606632e+02  2.406326633429409e+02 -2.918975276816622e+03
-4.917359299177087e+02  2.375668154837387e+02 -2.918975276816622e+03
-4.914062160620453e+02  2.345006404861174e+02 -2.918975276816622e+03
-4.915210809065711e+02  2.314325772545439e+02 -2.918975276816622e+03
-4.920805244512864e+02  2.283626257890180e+02 -2.918975276816622e+03
-4.922707526823470e+02  2.252975862773187e+02 -2.918975276816622e+03
-4.920917655997529e+02  2.222374587194459e+02 -2.918975276816622e+03
-4.918766135167245e+02  2.191748178135639e+02 -2.918975276816622e+03
-4.916252964332615e+02  2.161096635596726e+02 -2.918975276816622e+03
-4.917919289480280e+02  2.130443929582075e+02 -2.918975276816622e+03
-4.923765110610240e+02  2.099790060091685e+02 -2.918975276816622e+03
-4.923168597518634e+02  2.069135753191256e+02 -2.918975276816622e+03
-4.916129750205465e+02  2.038481008880787e+02 -2.918975276816622e+03
-4.914312111883680e+02  2.007828723739076e+02 -2.918975276816622e+03
-4.917715682553279e+02  1.977178897766125e+02 -2.918975276816622e+03
-4.916779519029730e+02  1.946523584344757e+02 -2.918975276816622e+03
-4.911503621313026e+02  1.915862783474971e+02 -2.918975276816622e+03
-4.910468091306867e+02  1.885205903650733e+02 -2.918975276816622e+03
-4.913672929011252e+02  1.854552944872042e+02 -2.918975276816622e+03
-4.912544183389917e+02  1.823891591713784e+02 -2.918975276816622e+03
-4.907081854442865e+02  1.793221844175958e+02 -2.918975276816622e+03
-4.905974240214950e+02  1.762568808069944e+02 -2.918975276816622e+03
-4.909221340706174e+02  1.731932483395741e+02 -2.918975276816622e+03
-4.908201184067756e+02  1.701292118830663e+02 -2.918975276816622e+03
-4.902913770299693e+02  1.670647714374710e+02 -2.918975276816622e+03
-4.901489575142766e+02  1.639994437485114e+02 -2.918975276816622e+03
-4.903928598596971e+02  1.609332288161875e+02 -2.918975276816622e+03
-4.902890922678434e+02  1.578677626253716e+02 -2.918975276816622e+03
-4.898376547387152e+02  1.548030451760635e+02 -2.918975276816622e+03
-4.897017528750104e+02  1.517382511414327e+02 -2.918975276816622e+03
-4.898813866767291e+02  1.486733805214790e+02 -2.918975276816622e+03
-4.895356678815780e+02  1.456076588225746e+02 -2.918975276816622e+03
-4.886645964895571e+02  1.425410860447194e+02 -2.918975276816622e+03
-4.882821895154938e+02  1.394751061812723e+02 -2.918975276816622e+03
-4.883884469593884e+02  1.364097192322334e+02 -2.918975276816622e+03
-4.881131263742892e+02  1.333446743670798e+02 -2.918975276816622e+03
-4.874562277601960e+02  1.302799715858118e+02 -2.918975276816622e+03
-4.872574093390953e+02  1.272147450443877e+02 -2.918975276816622e+03
-4.875166711109864e+02  1.241489947428076e+02 -2.918975276816622e+03
-4.874504281817150e+02  1.210832657098832e+02 -2.918975276816622e+03
-4.870586805512806e+02  1.180175579456145e+02 -2.918975276816622e+03
-4.869923991695388e+02  1.149520105889606e+02 -2.918975276816622e+03
-4.872515840364901e+02  1.118866236399216e+02 -2.918975276816622e+03
-4.870060441560103e+02  1.088212366908827e+02 -2.918975276816622e+03
-4.862557795280991e+02  1.057558497418437e+02 -2.918975276816622e+03
-4.860531983762563e+02  1.026905349411889e+02 -2.918975276816622e+03
-4.863983007004819e+02  9.962529228891822e+01 -2.918975276816622e+03
-4.862854799306304e+02  9.656231321311425e+01 -2.918975276816622e+03
-4.857147360667018e+02  9.350159771377686e+01 -2.918975276816622e+03
-4.856344013938223e+02  9.043638731374622e+01 -2.918975276816622e+03
-4.860444759119912e+02  8.736668201302227e+01 -2.918975276816622e+03
-4.861203763765727e+02  8.429888931129733e+01 -2.918975276816622e+03
-4.858621027875655e+02  8.123300920857137e+01 -2.918975276816622e+03
-4.856738232594911e+02  7.816737356214000e+01 -2.918975276816622e+03
-4.855555377923493e+02  7.510198237200323e+01 -2.918975276816622e+03
-4.856687276950595e+02  7.203659330241537e+01 -2.918975276816622e+03
-4.860133929676214e+02  6.897120635337642e+01 -2.918975276816622e+03
-4.858391960915201e+02  6.590159555966152e+01 -2.918975276816622e+03
-4.851461370667560e+02  6.282776092127066e+01 -2.918975276816622e+03
-4.849619794234347e+02  5.976972015281162e+01 -2.918975276816622e+03
-4.852867231615557e+02  5.672747325428437e+01 -2.918975276816622e+03
-4.857893124052954e+02  5.366631014992132e+01 -2.918975276816622e+03
-4.864697471546539e+02  5.058623083972252e+01 -2.918975276816622e+03
-4.866599955475123e+02  4.751349771010365e+01 -2.918975276816622e+03
-4.863600575838705e+02  4.444811076106470e+01 -2.918975276816622e+03
-4.863460983805398e+02  4.138272381202571e+01 -2.918975276816622e+03
-4.866181179375204e+02  3.831733686298675e+01 -2.918975276816622e+03
-4.866533487367835e+02  3.525194991394780e+01 -2.918975276816622e+03
-4.864517907783288e+02  3.218656296490881e+01 -2.918975276816622e+03
-4.864589577425866e+02  2.912117601586985e+01 -2.918975276816622e+03
-4.866748496295569e+02  2.605578906683089e+01 -2.918975276816622e+03
-4.863862221379350e+02  2.299040211779192e+01 -2.918975276816622e+03
-4.855930752677207e+02  1.992501516875296e+01 -2.918975276816622e+03
-4.855428010271773e+02  1.685936337190852e+01 -2.918975276816622e+03
-4.862353994163051e+02  1.379344672725862e+01 -2.918975276816622e+03
-4.864510154943813e+02  1.072805977821965e+01 -2.918975276816622e+03
-4.861896492614064e+02  7.663202524791619e+00 -2.918975276816622e+03
 5.270772786850863e+02 -1.459115154443251e+00  2.918975276816622e+03
 5.267104128814110e+02 -4.573554316866372e+00  2.918975276816622e+03
5.269542798326753e+02 1.604276751315763e+00 2.918975276816622e+03
5.263414163241783e+02 4.616621400410671e+00 2.918975276816622e+03
 5.265883932218367e+02 -7.663283527764152e+00  2.918975276816622e+03
 5.267112197063631e+02 -1.072830278713659e+01  2.918975276816622e+03
 5.264597552079661e+02 -1.379368973617556e+01  2.918975276816622e+03
 5.258339997266459e+02 -1.685944437488105e+01  2.918975276816622e+03
 5.257008412811567e+02 -1.992501516875328e+01  2.918975276816622e+03
 5.260602798714990e+02 -2.299040211779224e+01  2.918975276816622e+03
 5.257531360279447e+02 -2.605578906683121e+01  2.918975276816622e+03
 5.247794097504936e+02 -2.912117601587017e+01  2.918975276816622e+03
 5.243613765924614e+02 -3.219608093627957e+01  2.918975276816622e+03
 5.244990365538475e+02 -3.528050382805943e+01  2.918975276816622e+03
 5.241670362420049e+02 -3.835345583259195e+01  2.918975276816622e+03
 5.233653756569336e+02 -4.141493694987720e+01  2.918975276816622e+03
 5.231132216835888e+02 -4.447080592754574e+01  2.918975276816622e+03
 5.234105743219706e+02 -4.752106276559756e+01  2.918975276816622e+03
 5.234311991600006e+02 -5.057888465914296e+01  2.918975276816622e+03
 5.231750961976791e+02 -5.364427160818190e+01  2.918975276816622e+03
 5.226272917105449e+02 -5.670965855722087e+01  2.918975276816622e+03
 5.217877856985980e+02 -5.977504550625983e+01  2.918975276816622e+03
 5.215892083041089e+02 -6.284043245529881e+01  2.918975276816622e+03
 5.220315595270773e+02 -6.590581940433778e+01  2.918975276816622e+03
 5.220442022045140e+02 -6.897120635337673e+01  2.918975276816622e+03
 5.216271363364190e+02 -7.203659330241571e+01  2.918975276816622e+03
 5.217106394402606e+02 -7.510198025145466e+01  2.918975276816622e+03
 5.222947115160383e+02 -7.816736720049363e+01  2.918975276816622e+03
 5.223096037977751e+02 -8.123275414953261e+01  2.918975276816622e+03
 5.217553162854711e+02 -8.429814109857156e+01  2.918975276816622e+03
 5.217418752949717e+02 -8.736352804761053e+01  2.918975276816622e+03
 5.222692808262781e+02 -9.042891499664950e+01  2.918975276816622e+03
 5.224964515277748e+02 -9.349066226581220e+01  2.918975276816622e+03
 5.224233873994622e+02 -9.654876985509866e+01  2.918975276816622e+03
 5.220259759966200e+02 -9.961415680413764e+01  2.918975276816622e+03
 5.213042173192479e+02 -1.026868231129291e+02  2.918975276816622e+03
 5.213268988429473e+02 -1.057558497418443e+02  2.918975276816622e+03
 5.220940205677176e+02 -1.088212366908833e+02  2.918975276816622e+03
 5.224829962868022e+02 -1.118865773999148e+02  2.918975276816622e+03
 5.224938260002012e+02 -1.149518718689390e+02  2.918975276816622e+03
 5.230336821169340e+02 -1.180219369338191e+02  2.918975276816622e+03
 5.241025646370006e+02 -1.210967725945550e+02  2.918975276816622e+03
 5.244354777613709e+02 -1.241909078471710e+02  2.918975276816622e+03
 5.240324214900443e+02 -1.273043426916669e+02  2.918975276816622e+03
 5.240306621770483e+02 -1.303650515248648e+02  2.918975276816622e+03
 5.244301998223829e+02 -1.333730343467646e+02  2.918975276816622e+03
 5.243466859507854e+02 -1.364097192322340e+02  2.918975276816622e+03
 5.237801205622562e+02 -1.394751061812729e+02  2.918975276816622e+03
 5.236702284838308e+02 -1.425429607268559e+02  2.918975276816622e+03
 5.240170097155089e+02 -1.456132828689829e+02  2.918975276816622e+03
 5.240006706873238e+02 -1.486759555774552e+02  2.918975276816622e+03
 5.236212113992746e+02 -1.517309788522729e+02  2.918975276816622e+03
 5.237758700394884e+02 -1.547940163423600e+02  2.918975276816622e+03
 5.244646466079657e+02 -1.578650680477165e+02  2.918975276816622e+03
 5.247430053980363e+02 -1.609331692373219e+02  2.918975276816622e+03
 5.246109464096997e+02 -1.639983199111763e+02  2.918975276816622e+03
 5.249327608956683e+02 -1.670652039109278e+02  2.918975276816622e+03
 5.257084488559411e+02 -1.701338212365765e+02  2.918975276816622e+03
 5.259590037662114e+02 -1.731992081856154e+02  2.918975276816622e+03
 5.256844256264790e+02 -1.762613647580447e+02  2.918975276816622e+03
 5.257352966427310e+02 -1.793251353136315e+02  2.918975276816622e+03
 5.261116168149679e+02 -1.823905198523756e+02  2.918975276816622e+03
 5.263879589011049e+02 -1.854480806933796e+02  2.918975276816622e+03
 5.265643229011417e+02 -1.884978178366432e+02  2.918975276816622e+03
 5.265099875654161e+02 -1.915632059908296e+02  2.918975276816622e+03
 5.262249528939286e+02 -1.946442451559386e+02  2.918975276816622e+03
 5.262309549883959e+02 -1.977174600753010e+02  2.918975276816622e+03
 5.265279938488187e+02 -2.007828507489167e+02  2.918975276816622e+03
 5.264177941803426e+02 -2.038481609434673e+02  2.918975276816622e+03
 5.259003559829683e+02 -2.069133906589528e+02  2.918975276816622e+03
 5.258762409113822e+02 -2.099710499679086e+02  2.918975276816622e+03
 5.263454489655845e+02 -2.130211388703344e+02  2.918975276816622e+03
 5.263987767821149e+02 -2.160855392625332e+02  2.918975276816622e+03
 5.260362243609731e+02 -2.191642511445049e+02  2.918975276816622e+03
 5.260665872720543e+02 -2.222373638713388e+02  2.918975276816622e+03
 5.264898655153589e+02 -2.253048774430348e+02  2.918975276816622e+03
 5.263626532350131e+02 -2.283713277034023e+02  2.918975276816622e+03
 5.256849504310176e+02 -2.314367146524413e+02  2.918975276816622e+03
 5.253025907551596e+02 -2.345019527268964e+02  2.918975276816622e+03
 5.252155742074407e+02 -2.375670419267678e+02  2.918975276816622e+03
 5.256163646739285e+02 -2.406324288758067e+02  2.918975276816622e+03
 5.265049621546234e+02 -2.436981135740133e+02  2.918975276816622e+03
 5.268138192137552e+02 -2.467635053798699e+02  2.918975276816622e+03
 5.265429358513238e+02 -2.498286042933766e+02  2.918975276816622e+03
 5.263837160274845e+02 -2.528939912424155e+02  2.918975276816622e+03
 5.263361597422369e+02 -2.559596662269869e+02  2.918975276816622e+03
 5.266435625398533e+02 -2.590251971937920e+02  2.918975276816622e+03
 5.273059244203337e+02 -2.620905841428309e+02  2.918975276816622e+03
 5.274069215360128e+02 -2.651505433047319e+02  2.918975276816622e+03
 5.269465538868908e+02 -2.682050746794949e+02  2.918975276816622e+03
 5.270023062527861e+02 -2.712704424189182e+02  2.918975276816622e+03
 5.275741786336985e+02 -2.743466465230018e+02  2.918975276816622e+03
 5.276578627633579e+02 -2.774175897997761e+02  2.918975276816622e+03
 5.272533586417646e+02 -2.804832722492411e+02  2.918975276816622e+03
 5.270980785860207e+02 -2.835486862749477e+02  2.918975276816622e+03
 5.271920225961260e+02 -2.866138318768963e+02  2.918975276816622e+03
 5.268140530780227e+02 -2.896686333812702e+02  2.918975276816622e+03
 5.259641700317106e+02 -2.927130907880702e+02  2.918975276816622e+03
 5.256507945011157e+02 -2.957784698700571e+02  2.918975276816622e+03
 5.258739264862382e+02 -2.988647706272311e+02  2.918975276816622e+03
 5.256417210203980e+02 -3.019406144803374e+02  2.918975276816622e+03
 5.249541781035946e+02 -3.050060014293764e+02  2.918975276816622e+03
 5.248638621954148e+02 -3.080715249997600e+02  2.918975276816622e+03
 5.253707732958577e+02 -3.111371851914878e+02  2.918975276816622e+03
 5.251923967598021e+02 -3.142025721405267e+02  2.918975276816622e+03
 5.243287325872487e+02 -3.172676858468769e+02  2.918975276816622e+03
 5.239642493821339e+02 -3.203329361745713e+02  2.918975276816622e+03
 5.240989471444578e+02 -3.233983231236103e+02  2.918975276816622e+03
 5.236973773957192e+02 -3.264637100726492e+02  2.918975276816622e+03
 5.227595401359182e+02 -3.295290970216883e+02  2.918975276816622e+03
 5.226302670132058e+02 -3.325945326958829e+02  2.918975276816622e+03
 5.233095580275821e+02 -3.356600170952333e+02  2.918975276816622e+03
 5.235396621602450e+02 -3.387253849888652e+02  2.918975276816622e+03
 5.233205794111956e+02 -3.417906363767782e+02  2.918975276816622e+03
 5.227645981327227e+02 -3.448559746006615e+02  2.918975276816622e+03
 5.218717183248268e+02 -3.479213996605146e+02  2.918975276816622e+03
 5.214798228443647e+02 -3.509868056649609e+02  2.918975276816622e+03
 5.215889116913363e+02 -3.540521926139999e+02  2.918975276816622e+03
 5.213308748546650e+02 -3.571175795630388e+02  2.918975276816622e+03
 5.207057123343503e+02 -3.601829665120778e+02  2.918975276816622e+03
 5.204200623375833e+02 -3.632483362020141e+02  2.918975276816622e+03
 5.204739248643643e+02 -3.663136886328480e+02  2.918975276816622e+03
 5.201713964836272e+02 -3.693790755818869e+02  2.918975276816622e+03
 5.195124771953725e+02 -3.724444970491311e+02  2.918975276816622e+03
 5.192844044551060e+02 -3.755016163445387e+02  2.918975276816622e+03
 5.194871782628272e+02 -3.785504334681100e+02  2.918975276816622e+03
 5.194175278973348e+02 -3.816158204171491e+02  2.918975276816622e+03
 5.190754533586288e+02 -3.846977771916556e+02  2.918975276816622e+03
 5.184768159783744e+02 -3.877706459626591e+02  2.918975276816622e+03
 5.176216157565716e+02 -3.908344267301594e+02  2.918975276816622e+03
 5.174130587624514e+02 -3.938996176924986e+02  2.918975276816622e+03
 5.178511449960139e+02 -3.969662188496767e+02  2.918975276816622e+03
 5.178691905587440e+02 -4.000324088894851e+02  2.918975276816622e+03
 5.174671954506420e+02 -4.030981878119237e+02  2.918975276816622e+03
 5.175623312267720e+02 -4.061637707476624e+02  2.918975276816622e+03
 5.181545978871338e+02 -4.092291576967013e+02  2.918975276816622e+03
 5.183012845806987e+02 -4.122945446457403e+02  2.918975276816622e+03
 5.180023913074664e+02 -4.153599315947793e+02  2.918975276816622e+03
 5.180469352757129e+02 -4.184253185438183e+02  2.918975276816622e+03
 5.184349164854376e+02 -4.214907054928572e+02  2.918975276816622e+03
 5.185183347820130e+02 -4.245560924418962e+02  2.918975276816622e+03
 5.182971901654390e+02 -4.276214793909353e+02  2.918975276816622e+03
 5.185570819278078e+02 -4.306874723986180e+02  2.918975276816622e+03
 5.192980100691196e+02 -4.337540714649446e+02  2.918975276816622e+03
 5.196881503262317e+02 -4.368194584139835e+02  2.918975276816622e+03
 5.197275026991442e+02 -4.398836332457349e+02  2.918975276816622e+03
 5.195452692486045e+02 -4.429481514469998e+02  2.918975276816622e+03
 5.191414499746126e+02 -4.460130130177782e+02  2.918975276816622e+03
 5.191692397934800e+02 -4.490782354055823e+02  2.918975276816622e+03
 5.196286387052066e+02 -4.521438186104125e+02  2.918975276816622e+03
 5.195461755010735e+02 -4.552096905152906e+02  2.918975276816622e+03
 5.189218501810808e+02 -4.582758511202172e+02  2.918975276816622e+03
 5.188826682019326e+02 -4.613321700613600e+02  2.918975276816622e+03
 5.194286295636286e+02 -4.643786473387192e+02  2.918975276816622e+03
 5.195984062458413e+02 -4.674435814596233e+02  2.918975276816622e+03
 5.193919982485703e+02 -4.705269724240725e+02  2.918975276816622e+03
 5.189598169341417e+02 -4.736093189104357e+02  2.918975276816622e+03
 5.183018623025561e+02 -4.766906209187125e+02  2.918975276816622e+03
 5.180477845331964e+02 -4.797563181968225e+02  2.918975276816622e+03
 5.181975836260632e+02 -4.828064107447658e+02  2.918975276816622e+03
 5.180296542805221e+02 -4.858640707256113e+02  2.918975276816622e+03
 5.175439964965736e+02 -4.889292981393592e+02  2.918975276816622e+03
 5.177075611190154e+02 -4.919946961445212e+02  2.918975276816622e+03
 5.185203481478478e+02 -4.950602647410972e+02  2.918975276816622e+03
 5.190824720536498e+02 -4.981256516901361e+02  2.918975276816622e+03
 5.193939328364212e+02 -5.011908569916382e+02  2.918975276816622e+03
 5.194359434806344e+02 -5.042561531169088e+02  2.918975276816622e+03
 5.192085039862892e+02 -5.073215400659474e+02  2.918975276816622e+03
 5.193471992532858e+02 -5.103873574217578e+02  2.918975276816622e+03
 5.198520292816241e+02 -5.134536051843393e+02  2.918975276816622e+03
 5.199836540476919e+02 -5.165193096445716e+02  2.918975276816622e+03
 5.197420735514894e+02 -5.195844708024554e+02  2.918975276816622e+03
 5.198576751501173e+02 -5.226493498337919e+02  2.918975276816622e+03
 5.203304588435759e+02 -5.257139467385816e+02  2.918975276816622e+03
 5.203953883812799e+02 -5.287790161764273e+02  2.918975276816622e+03
 5.200524637632290e+02 -5.318445581473284e+02  2.918975276816622e+03
 5.200147102484357e+02 -5.348978809813716e+02  2.918975276816622e+03
 5.202821278369000e+02 -5.379389846785572e+02  2.918975276816622e+03
 5.202117367460116e+02 -5.410043716275961e+02  2.918975276816622e+03
 5.198035369757702e+02 -5.440940418284886e+02  2.918975276816622e+03
 5.198674061815440e+02 -5.471536008020686e+02  2.918975276816622e+03
 5.204033443633327e+02 -5.501830485483364e+02  2.918975276816622e+03
 5.204760847937620e+02 -5.532484354973753e+02  2.918975276816622e+03
 5.200856274728320e+02 -5.563497616491854e+02  2.918975276816622e+03
 5.198545127094708e+02 -5.594231615478786e+02  2.918975276816622e+03
 5.197827405036786e+02 -5.624686351934549e+02  2.918975276816622e+03
 5.200053273716659e+02 -5.655340221424940e+02  2.918975276816622e+03
 5.205222733134324e+02 -5.686193223949956e+02  2.918975276816622e+03
 5.206271713754314e+02 -5.716946659957659e+02  2.918975276816622e+03
 5.203200215576624e+02 -5.747600529448048e+02  2.918975276816622e+03
 5.204830910635861e+02 -5.778254398938438e+02  2.918975276816622e+03
 5.211163798932025e+02 -5.808908268428828e+02  2.918975276816622e+03
 5.214124525393942e+02 -5.839190872702401e+02  2.918975276816622e+03
 5.213713090021611e+02 -5.869102211759155e+02  2.918975276816622e+03
 5.217501523895132e+02 -5.899801738169352e+02  2.918975276816622e+03
 5.225489827014513e+02 -5.931289451932993e+02  2.918975276816622e+03
 5.228034520408543e+02 -5.962315162115615e+02  2.918975276816622e+03
 5.225135604077220e+02 -5.992878868717212e+02  2.918975276816622e+03
 5.225968676560924e+02 -6.023422188999034e+02  2.918975276816622e+03
 5.230533737859649e+02 -6.053945122961081e+02  2.918975276816622e+03
 5.230497833687455e+02 -6.084598416976055e+02  2.918975276816622e+03
 5.225860964044340e+02 -6.115382071043966e+02  2.918975276816622e+03
 5.222100718093187e+02 -6.146100832823122e+02  2.918975276816622e+03
 5.219217095833998e+02 -6.176754702313532e+02  2.918975276816622e+03
5.216333473574813e+02 6.176754702313532e+02 2.918975276816622e+03
5.213449851315621e+02 6.146100832823125e+02 2.918975276816622e+03
5.213900967040961e+02 6.115447006549447e+02 2.918975276816622e+03
5.217686820750830e+02 6.084793223492497e+02 2.918975276816622e+03
5.216723147013570e+02 6.054139354002107e+02 2.918975276816622e+03
5.211009945829170e+02 6.023485398078279e+02 2.918975276816622e+03
5.210572567483134e+02 5.992831485371167e+02 2.918975276816622e+03
5.215411011975452e+02 5.962177615880775e+02 2.918975276816622e+03
5.213795710711139e+02 5.931767401171975e+02 2.918975276816622e+03
5.205726663690193e+02 5.901600841244768e+02 2.918975276816622e+03
5.197591043874797e+02 5.870953333438533e+02 2.918975276816622e+03
5.189388851264961e+02 5.839824877753272e+02 2.918975276816622e+03
5.186993702708953e+02 5.808925869328493e+02 2.918975276816622e+03
5.190405598206771e+02 5.778256308164202e+02 2.918975276816622e+03
5.188569798237205e+02 5.747596076989661e+02 2.918975276816622e+03
5.181486302800256e+02 5.716945175804866e+02 2.918975276816622e+03
5.179076644638359e+02 5.686292790467272e+02 2.918975276816622e+03
5.181340823751518e+02 5.655638920976882e+02 2.918975276816622e+03
5.180311009647568e+02 5.624985051486492e+02 2.918975276816622e+03
5.175987202326509e+02 5.594331181996102e+02 2.918975276816622e+03
5.175614703516841e+02 5.563691979913793e+02 2.918975276816622e+03
5.179193513218562e+02 5.533067445239559e+02 2.918975276816622e+03
5.174983694757384e+02 5.502415421262789e+02 2.918975276816622e+03
5.162985248133313e+02 5.471735907983474e+02 2.918975276816622e+03
5.155237856136756e+02 5.441065564755653e+02 2.918975276816622e+03
5.151741518767718e+02 5.410404391579322e+02 2.918975276816622e+03
5.149107072310074e+02 5.379748428518132e+02 2.918975276816622e+03
5.147334516763827e+02 5.349097675572087e+02 2.918975276816622e+03
5.143067539378211e+02 5.318439967423137e+02 2.918975276816622e+03
5.136306140153227e+02 5.287775304071276e+02 2.918975276816622e+03
5.132317275676113e+02 5.257121682638069e+02 2.918975276816622e+03
5.131100945946870e+02 5.226479103123513e+02 2.918975276816622e+03
5.126951742320254e+02 5.195830288391605e+02 2.918975276816622e+03
5.119869664796258e+02 5.165175238442348e+02 2.918975276816622e+03
5.118187075904702e+02 5.134521368951957e+02 2.918975276816622e+03
5.121903975645587e+02 5.103868679920431e+02 2.918975276816622e+03
5.121627705164067e+02 5.073214009286492e+02 2.918975276816622e+03
5.117358264460145e+02 5.042557357050138e+02 2.918975276816622e+03
5.115610483936650e+02 5.011966700259510e+02 2.918975276816622e+03
5.116384363593580e+02 4.981442038914607e+02 2.918975276816622e+03
5.115182500820798e+02 4.950796414554547e+02 2.918975276816622e+03
5.112004895618297e+02 4.920029827179327e+02 2.918975276816622e+03
5.111379035075324e+02 4.889312744989176e+02 2.918975276816622e+03
5.113304919191875e+02 4.858645167984093e+02 2.918975276816622e+03
5.111455257976907e+02 4.827984444736355e+02 2.918975276816622e+03
5.105830051430424e+02 4.797330575245971e+02 2.918975276816622e+03
5.104564277335386e+02 4.766677115605005e+02 2.918975276816622e+03
5.107657935691786e+02 4.736024065813455e+02 2.918975276816622e+03
5.106424852353759e+02 4.705184789749936e+02 2.918975276816622e+03
5.100865027321297e+02 4.674159287414442e+02 2.918975276816622e+03
5.100881006061901e+02 4.643504624514084e+02 2.918975276816622e+03
5.106472788575569e+02 4.613220801048855e+02 2.918975276816622e+03
5.106233612491820e+02 4.582741617771239e+02 2.918975276816622e+03
5.100163477810647e+02 4.552067074681246e+02 2.918975276816622e+03
5.099025189351805e+02 4.521413588751405e+02 2.918975276816622e+03
5.102818747115297e+02 4.490781159981719e+02 2.918975276816622e+03
5.100677017651410e+02 4.460139357399860e+02 2.918975276816622e+03
5.092600000960143e+02 4.429488181005825e+02 2.918975276816622e+03
5.089214524896774e+02 4.398834311515438e+02 2.918975276816622e+03
5.090520589461299e+02 4.368177748928691e+02 2.918975276816622e+03
5.088442570748986e+02 4.337522532890124e+02 2.918975276816622e+03
5.082980468759839e+02 4.306868663399734e+02 2.918975276816622e+03
5.081923750564598e+02 4.276217965388713e+02 2.918975276816622e+03
5.085272416163259e+02 4.245570438857059e+02 2.918975276816622e+03
5.084261009378434e+02 4.214911187838002e+02 2.918975276816622e+03
5.078889530210113e+02 4.184240212331549e+02 2.918975276816622e+03
5.077573169102177e+02 4.153582670137263e+02 2.918975276816622e+03
5.080311926054629e+02 4.122938561255153e+02 2.918975276816622e+03
5.079598484326135e+02 4.092287649129385e+02 2.918975276816622e+03
5.075432843916698e+02 4.061629933759962e+02 2.918975276816622e+03
5.073497139727265e+02 4.030944066217111e+02 2.918975276816622e+03
5.073791371757837e+02 4.000230046500836e+02 2.918975276816622e+03
5.071152665867828e+02 3.969523164448364e+02 2.918975276816622e+03
5.065581022057233e+02 3.938823420059700e+02 2.918975276816622e+03
5.063454874250364e+02 3.908206609684460e+02 2.918975276816622e+03
5.064774222447222e+02 3.877672733322651e+02 2.918975276816622e+03
5.063418610445919e+02 3.847118056253501e+02 2.918975276816622e+03
5.059388038246460e+02 3.816542578477006e+02 2.918975276816622e+03
5.057684257652089e+02 3.785884149148453e+02 2.918975276816622e+03
5.058307268662813e+02 3.755142768267837e+02 2.918975276816622e+03
5.057076407155124e+02 3.724445143082335e+02 2.918975276816622e+03
5.053991673129019e+02 3.693791273591945e+02 2.918975276816622e+03
5.056008566989794e+02 3.663137404101556e+02 2.918975276816622e+03
5.063127088737455e+02 3.632483534611165e+02 2.918975276816622e+03
5.064494586076214e+02 3.601829665120776e+02 2.918975276816622e+03
5.060111059006072e+02 3.571175795630386e+02 2.918975276816622e+03
5.061208820041051e+02 3.540536026923118e+02 2.918975276816622e+03
5.067787869181157e+02 3.509910358998976e+02 2.918975276816622e+03
5.070076415050567e+02 3.479256489508585e+02 2.918975276816622e+03
5.068074457649280e+02 3.448574418451951e+02 2.918975276816622e+03
5.069610691912083e+02 3.417907822177691e+02 2.918975276816622e+03
5.074685117838970e+02 3.387256700685812e+02 2.918975276816622e+03
5.075707288722528e+02 3.356602163622007e+02 2.918975276816622e+03
5.072677204562750e+02 3.325944210986279e+02 2.918975276816622e+03
5.074622682360225e+02 3.295288802799771e+02 2.918975276816622e+03
5.081543722114955e+02 3.264635939062483e+02 2.918975276816622e+03
5.086669216942584e+02 3.233982737145509e+02 2.918975276816622e+03
5.089999166843119e+02 3.203329197048847e+02 2.918975276816622e+03
5.090091871219552e+02 3.172675728644015e+02 2.918975276816622e+03
5.086947330071885e+02 3.142022331931020e+02 2.918975276816622e+03
5.087178703260062e+02 3.111368462440630e+02 2.918975276816622e+03
5.090785990784087e+02 3.080714120172846e+02 2.918975276816622e+03
5.091678040748816e+02 3.050060014293761e+02 2.918975276816622e+03
5.089854853154246e+02 3.019406144803371e+02 2.918975276816622e+03
5.091734182718492e+02 2.988752275312981e+02 2.918975276816622e+03
5.097316029441558e+02 2.958098405822591e+02 2.918975276816622e+03
5.099408586943448e+02 2.927444536332201e+02 2.918975276816622e+03
5.098011855224159e+02 2.896790666841815e+02 2.918975276816622e+03
5.099577530192797e+02 2.866095180164307e+02 2.918975276816622e+03
5.104105611849361e+02 2.835358076299683e+02 2.918975276816622e+03
5.106067821156770e+02 2.804700578519910e+02 2.918975276816622e+03
5.105464158115029e+02 2.774122686824986e+02 2.918975276816622e+03
5.108599140766759e+02 2.743510397201028e+02 2.918975276816622e+03
5.115472769111954e+02 2.712863709648033e+02 2.918975276816622e+03
5.118963891317150e+02 2.682215142538529e+02 2.918975276816622e+03
5.119072507382339e+02 2.651564695872516e+02 2.918975276816622e+03
5.123030084184080e+02 2.620910863702813e+02 2.918975276816622e+03
5.130836621722375e+02 2.590253646029419e+02 2.918975276816622e+03
5.136906495013211e+02 2.559598102447527e+02 2.918975276816622e+03
5.141239704056582e+02 2.528944232957137e+02 2.918975276816622e+03
5.143615361680518e+02 2.498346520913722e+02 2.918975276816622e+03
5.144033467885021e+02 2.467804966317281e+02 2.918975276816622e+03
5.147571434183576e+02 2.437150064748651e+02 2.918975276816622e+03
5.154229260576185e+02 2.406381816207832e+02 2.918975276816622e+03
5.156803688147177e+02 2.375670733173139e+02 2.918975276816622e+03
5.155294716896547e+02 2.345016815644573e+02 2.918975276816622e+03
5.157633100423730e+02 2.314362880186718e+02 2.918975276816622e+03
5.163818838728721e+02 2.283708926799574e+02 2.918975276816622e+03
5.164882462542579e+02 2.253055901010933e+02 2.918975276816622e+03
5.160823971865299e+02 2.222403802820795e+02 2.918975276816622e+03
5.161591567206076e+02 2.191751031376112e+02 2.918975276816622e+03
5.167185248564916e+02 2.161097586676884e+02 2.918975276816622e+03
5.168762433468279e+02 2.130443929582075e+02 2.918975276816622e+03
5.166323121916164e+02 2.099790060091685e+02 2.918975276816622e+03
5.165680451881555e+02 2.069136190601295e+02 2.918975276816622e+03
5.166834423364451e+02 2.038482321110906e+02 2.918975276816622e+03
5.170950113293748e+02 2.007828451620516e+02 2.918975276816622e+03
5.178027521669452e+02 1.977174582130127e+02 2.918975276816622e+03
5.180364914562020e+02 1.946619001970872e+02 2.918975276816622e+03
5.177962291971454e+02 1.916161711142751e+02 2.918975276816622e+03
5.181310131651763e+02 1.885507841652362e+02 2.918975276816622e+03
5.190408433602950e+02 1.854657393499703e+02 2.918975276816622e+03
5.197098436933477e+02 1.823905234678178e+02 2.918975276816622e+03
5.201380141643348e+02 1.793251365187789e+02 2.918975276816622e+03
5.202487501019691e+02 1.762666601437500e+02 2.918975276816622e+03
5.200420515062507e+02 1.732150943427311e+02 2.918975276816622e+03
5.203318114192417e+02 1.701497073936922e+02 2.918975276816622e+03
5.211180298409428e+02 1.670704992966330e+02 2.918975276816622e+03
5.214628316193127e+02 1.639982017735840e+02 2.918975276816622e+03
5.213662167543517e+02 1.609328148245451e+02 2.918975276816622e+03
5.215480221268368e+02 1.578674278755061e+02 2.918975276816622e+03
5.220082477367683e+02 1.548020409264671e+02 2.918975276816622e+03
5.220679710333665e+02 1.517368276552423e+02 2.918975276816622e+03
5.217271920166318e+02 1.486717880618317e+02 2.918975276816622e+03
5.219256741738591e+02 1.456068007037910e+02 2.918975276816622e+03
5.226634175050483e+02 1.425418655811201e+02 2.918975276816622e+03
5.229450042589896e+02 1.394798546538417e+02 2.918975276816622e+03
5.227704344356835e+02 1.364207679219558e+02 2.918975276816622e+03
5.230698793217357e+02 1.333691742480074e+02 2.918975276816622e+03
5.238433389171462e+02 1.303250736319966e+02 2.918975276816622e+03
5.240488996887226e+02 1.272560896934844e+02 2.918975276816622e+03
5.236865616364651e+02 1.241622224324707e+02 2.918975276816622e+03
5.237973635432481e+02 1.210826827694757e+02 2.918975276816622e+03
5.243813054090720e+02 1.180174707044995e+02 2.918975276816622e+03
5.249542684249832e+02 1.149521310453591e+02 2.918975276816622e+03
5.255162525909816e+02 1.118866637920545e+02 2.918975276816622e+03
5.253914643661282e+02 1.088212366908827e+02 2.918975276816622e+03
5.245799037504222e+02 1.057558497418437e+02 2.918975276816622e+03
5.241939333557521e+02 1.026904627928047e+02 2.918975276816622e+03
5.242335531821179e+02 9.962507584376574e+01 2.918975276816622e+03
5.239675440231973e+02 9.655977635906612e+01 2.918975276816622e+03
5.233959058789904e+02 9.349456433870591e+01 2.918975276816622e+03
5.231948215592515e+02 9.042911628118037e+01 2.918975276816622e+03
5.233642910639810e+02 8.736343218648946e+01 2.918975276816622e+03
5.233202774610870e+02 8.429424111596599e+01 2.918975276816622e+03
5.230627807505704e+02 8.122154306960989e+01 2.918975276816622e+03
5.232681407579377e+02 7.815621722905760e+01 2.918975276816622e+03
5.239363574831890e+02 7.509826359430910e+01 2.918975276816622e+03
5.239172076604415e+02 7.203659330241537e+01 2.918975276816622e+03
5.232106912896946e+02 6.897120635337642e+01 2.918975276816622e+03
5.232873706268070e+02 6.590581940433745e+01 2.918975276816622e+03
5.241472456717792e+02 6.284043245529848e+01 2.918975276816622e+03
5.246323307632939e+02 5.977504550625952e+01 2.918975276816622e+03
5.247426259013513e+02 5.670965855722056e+01 2.918975276816622e+03
5.247229800740245e+02 5.364427160818158e+01 2.918975276816622e+03
5.245733932813134e+02 5.057888465914262e+01 2.918975276816622e+03
5.248353273417514e+02 4.751691849522343e+01 2.918975276816622e+03
5.255087822553388e+02 4.445837311642401e+01 2.918975276816622e+03
5.257616107471127e+02 4.139569827174407e+01 2.918975276816622e+03
5.255938128170735e+02 3.832889396118362e+01 2.918975276816622e+03
5.257607717340408e+02 3.526008622702489e+01 2.918975276816622e+03
5.262624874980141e+02 3.218927506926786e+01 2.918975276816622e+03
5.262090376939999e+02 2.912117601586985e+01 2.918975276816622e+03
5.256004223219982e+02 2.605578906683089e+01 2.918975276816622e+03
5.252917066580105e+02 2.299040211779192e+01 2.918975276816622e+03
5.252828907020366e+02 1.992501516875296e+01 2.918975276816622e+03
5.256065244958794e+02 1.685962821971399e+01 2.918975276816622e+03
5.262626080395386e+02 1.379424127067502e+01 2.918975276816622e+03
5.264517335010084e+02 1.072685927835619e+01 2.918975276816622e+03
5.261739008802894e+02 7.657482242757479e+00 2.918975276816622e+03

CELLS 808 4040
4 6 818 819 7
4 6 820 821 208
4 7 822 823 8
4 8 824 825 9
4 9 826 827 10
4 10 828 829 11
4 11 830 831 12
4 12 832 833 13
4 13 834 835 14
4 14 836 837 15
4 15 838 839 16
4 16 840 841 17
4 17 842 843 18
4 18 844 845 19
4 19 846 847 20
4 20 848 849 21
4 21 850 851 22
4 22 852 853 23
4 23 854 855 24
4 24 856 857 25
4 25 858 859 26
4 26 860 861 27
4 27 862 863 28
4 28 864 865 29
4 29 866 867 30
4 30 868 869 31
4 31 870 871 32
4 32 872 873 33
4 33 874 875 34
4 34 876 877 35
4 35 878 879 36
4 36 880 881 37
4 37 882 883 38
4 38 884 885 39
4 39 886 887 40
4 40 888 889 41
4 41 890 891 42
4 42 892 893 43
4 43 894 895 44
4 44 896 897 45
4 45 898 899 46
4 46 900 901 47
4 47 902 903 48
4 48 904 905 49
4 49 906 907 50
4 50 908 909 51
4 51 910 911 52
4 52 912 913 53
4 53 914 915 54
4 54 916 917 55
4 55 918 919 56
4 56 920 921 57
4 57 922 923 58
4 58 924 925 59
4 59 926 927 60
4 60 928 929 61
4 61 930 931 62
4 62 932 933 63
4 63 934 935 64
4 64 936 937 65
4 65 938 939 66
4 66 940 941 67
4 67 942 943 68
4 68 944 945 69
4 69 946 947 70
4 70 948 949 71
4 71 950 951 72
4 72 952 953 73
4 73 954 955 74
4 74 956 957 75
4 75 958 959 76
4 76 960 961 77
4 77 962 963 78
4 78 964 965 79
4 79 966 967 80
4 80 968 969 81
4 81 970 971 82
4 82 972 973 83
4 83 974 975 84
4 84 976 977 85
4 85 978 979 86
4 86 980 981 87
4 87 982 983 88
4 88 984 985 89
4 89 986 987 90
4 90 988 989 91
4 91 990 991 92
4 92 992 993 93
4 93 994 995 94
4 94 996 997 95
4 95 998 999 96
4 96 1000 1001 97
4 97 1002 1003 98
4 98 1004 1005 99
4 99 1006 1007 100
4 100 1008 1009 101
4 101 1010 1011 102
4 102 1012 1013 103
4 103 1014 1015 104
4 104 1016 1017 105
4 105 1018 1019 106
4 106 1020 1021 107
4 108 1022 1023 109
4 109 1024 1025 110
4 110 1026 1027 111
4 111 1028 1029 112
4 112 1030 1031 113
4 113 1032 1033 114
4 114 1034 1035 115
4 115 1036 1037 116
4 116 1038 1039 117
4 117 1040 1041 118
4 118 1042 1043 119
4 119 1044 1045 120
4 120 1046 1047 121
4 121 1048 1049 122
4 122 1050 1051 123
4 123 1052 1053 124
4 124 1054 1055 125
4 125 1056 1057 126
4 126 1058 1059 127
4 127 1060 1061 128
4 128 1062 1063 129
4 129 1064 1065 130
4 130 1066 1067 131
4 131 1068 1069 132
4 132 1070 1071 133
4 133 1072 1073 134
4 134 1074 1075 135
4 135 1076 1077 136
4 136 1078 1079 137
4 137 1080 1081 138
4 138 1082 1083 139
4 139 1084 1085 140
4 140 1086 1087 141
4 141 1088 1089 142
4 142 1090 1091 143
4 143 1092 1093 144
4 144 1094 1095 145
4 145 1096 1097 146
4 146 1098 1099 147
4 147 1100 1101 148
4 148 1102 1103 149
4 149 1104 1105 150
4 150 1106 1107 151
4 151 1108 1109 152
4 152 1110 1111 153
4 153 1112 1113 154
4 154 1114 1115 155
4 155 1116 1117 156
4 156 1118 1119 157
4 157 1120 1121 158
4 158 1122 1123 159
4 159 1124 1125 160
4 160 1126 1127 161
4 161 1128 1129 162
4 162 1130 1131 163
4 163 1132 1133 164
4 164 1134 1135 165
4 165 1136 1137 166
4 166 1138 1139 167
4 167 1140 1141 168
4 168 1142 1143 169
4 169 1144 1145 170
4 170 1146 1147 171
4 171 1148 1149 172
4 172 1150 1151 173
4 173 1152 1153 174
4 174 1154 1155 175
4 175 1156 1157 176
4 176 1158 1159 177
4 177 1160 1161 178
4 178 1162 1163 179
4 179 1164 1165 180
4 180 1166 1167 181
4 181 1168 1169 182
4 182 1170 1171 183
4 183 1172 1173 184
4 184 1174 1175 185
4 185 1176 1177 186
4 186 1178 1179 187
4 187 1180 1181 188
4 188 1182 1183 189
4 189 1184 1185 190
4 190 1186 1187 191
4 191 1188 1189 192
4 192 1190 1191 193
4 193 1192 1193 194
4 194 1194 1195 195
4 195 1196 1197 196
4 196 1198 1199 197
4 197 1200 1201 198
4 198 1202 1203 199
4 199 1204 1205 200
4 200 1206 1207 201
4 201 1208 1209 202
4 202 1210 1211 203
4 203 1212 1213 204
4 204 1214 1215 205
4 205 1216 1217 206
4 206 1218 1219 207
4 207 1220 1221 208
4 209 1222 1223 210
4 209 1224 1225 411
4 210 1226 1227 211
4 211 1228 1229 212
4 212 1230 1231 213
4 213 1232 1233 214
4 214 1234 1235 215
4 215 1236 1237 216
4 216 1238 1239 217
4 217 1240 1241 218
4 218 1242 1243 219
4 219 1244 1245 220
4 220 1246 1247 221
4 221 1248 1249 222
4 222 1250 1251 223
4 223 1252 1253 224
4 224 1254 1255 225
4 225 1256 1257 226
4 226 1258 1259 227
4 227 1260 1261 228
4 228 1262 1263 229
4 229 1264 1265 230
4 230 1266 1267 231
4 231 1268 1269 232
4 232 1270 1271 233
4 233 1272 1273 234
4 234 1274 1275 235
4 235 1276 1277 236
4 236 1278 1279 237
4 237 1280 1281 238
4 238 1282 1283 239
4 239 1284 1285 240
4 240 1286 1287 241
4 241 1288 1289 242
4 242 1290 1291 243
4 243 1292 1293 244
4 244 1294 1295 245
4 245 1296 1297 246
4 246 1298 1299 247
4 247 1300 1301 248
4 248 1302 1303 249
4 249 1304 1305 250
4 250 1306 1307 251
4 251 1308 1309 252
4 252 1310 1311 253
4 253 1312 1313 254
4 254 1314 1315 255
4 255 1316 1317 256
4 256 1318 1319 257
4 257 1320 1321 258
4 258 1322 1323 259
4 259 1324 1325 260
4 260 1326 1327 261
4 261 1328 1329 262
4 262 1330 1331 263
4 263 1332 1333 264
4 264 1334 1335 265
4 265 1336 1337 266
4 266 1338 1339 267
4 267 1340 1341 268
4 268 1342 1343 269
4 269 1344 1345 270
4 270 1346 1347 271
4 271 1348 1349 272
4 272 1350 1351 273
4 273 1352 1353 274
4 274 1354 1355 275
4 275 1356 1357 276
4 276 1358 1359 277
4 277 1360 1361 278
4 278 1362 1363 279
4 279 1364 1365 280
4 280 1366 1367 281
4 281 1368 1369 282
4 282 1370 1371 283
4 283 1372 1373 284
4 284 1374 1375 285
4 285 1376 1377 286
4 286 1378 1379 287
4 287 1380 1381 288
4 288 1382 1383 289
4 289 1384 1385 290
4 290 1386 1387 291
4 291 1388 1389 292
4 292 1390 1391 293
4 293 1392 1393 294
4 294 1394 1395 295
4 295 1396 1397 296
4 296 1398 1399 297
4 297 1400 1401 298
4 298 1402 1403 299
4 299 1404 1405 300
4 300 1406 1407 301
4 301 1408 1409 302
4 302 1410 1411 303
4 303 1412 1413 304
4 304 1414 1415 305
4 305 1416 1417 306
4 306 1418 1419 307
4 307 1420 1421 308
4 308 1422 1423 309
4 309 1424 1425 310
4 311 1426 1427 312
4 312 1428 1429 313
4 313 1430 1431 314
4 314 1432 1433 315
4 315 1434 1435 316
4 316 1436 1437 317
4 317 1438 1439 318
4 318 1440 1441 319
4 319 1442 1443 320
4 320 1444 1445 321
4 321 1446 1447 322
4 322 1448 1449 323
4 323 1450 1451 324
4 324 1452 1453 325
4 325 1454 1455 326
4 326 1456 1457 327
4 327 1458 1459 328
4 328 1460 1461 329
4 329 1462 1463 330
4 330 1464 1465 331
4 331 1466 1467 332
4 332 1468 1469 333
4 333 1470 1471 334
4 334 1472 1473 335
4 335 1474 1475 336
4 336 1476 1477 337
4 337 1478 1479 338
4 338 1480 1481 339
4 339 1482 1483 340
4 340 1484 1485 341
4 341 1486 1487 342
4 342 1488 1489 343
4 343 1490 1491 344
4 344 1492 1493 345
4 345 1494 1495 346
4 346 1496 1497 347
4 347 1498 1499 348
4 348 1500 1501 349
4 349 1502 1503 350
4 350 1504 1505 351
4 351 1506 1507 352
4 352 1508 1509 353
4 353 1510 1511 354
4 354 1512 1513 355
4 355 1514 1515 356
4 356 1516 1517 357
4 357 1518 1519 358
4 358 1520 1521 359
4 359 1522 1523 360
4 360 1524 1525 361
4 361 1526 1527 362
4 362 1528 1529 363
4 363 1530 1531 364
4 364 1532 1533 365
4 365 1534 1535 366
4 366 1536 1537 367
4 367 1538 1539 368
4 368 1540 1541 369
4 369 1542 1543 370
4 370 1544 1545 371
4 371 1546 1547 372
4 372 1548 1549 373
4 373 1550 1551 374
4 374 1552 1553 375
4 375 1554 1555 376
4 376 1556 1557 377
4 377 1558 1559 378
4 378 1560 1561 379
4 379 1562 1563 380
4 380 1564 1565 381
4 381 1566 1567 382
4 382 1568 1569 383
4 383 1570 1571 384
4 384 1572 1573 385
4 385 1574 1575 386
4 386 1576 1577 387
4 387 1578 1579 388
4 388 1580 1581 389
4 389 1582 1583 390
4 390 1584 1585 391
4 391 1586 1587 392
4 392 1588 1589 393
4 393 1590 1591 394
4 394 1592 1593 395
4 395 1594 1595 396
4 396 1596 1597 397
4 397 1598 1599 398
4 398 1600 1601 399
4 399 1602 1603 400
4 400 1604 1605 401
4 401 1606 1607 402
4 402 1608 1609 403
4 403 1610 1611 404
4 404 1612 1613 405
4 405 1614 1615 406
4 406 1616 1617 407
4 407 1618 1619 408
4 408 1620 1621 409
4 409 1622 1623 410
4 410 1624 1625 411
4 412 1626 1627 413
4 412 1628 1629 614
4 413 1630 1631 414
4 414 1632 1633 415
4 415 1634 1635 416
4 416 1636 1637 417
4 417 1638 1639 418
4 418 1640 1641 419
4 419 1642 1643 420
4 420 1644 1645 421
4 421 1646 1647 422
4 422 1648 1649 423
4 423 1650 1651 424
4 424 1652 1653 425
4 425 1654 1655 426
4 426 1656 1657 427
4 427 1658 1659 428
4 428 1660 1661 429
4 429 1662 1663 430
4 430 1664 1665 431
4 431 1666 1667 432
4 432 1668 1669 433
4 433 1670 1671 434
4 434 1672 1673 435
4 435 1674 1675 436
4 436 1676 1677 437
4 437 1678 1679 438
4 438 1680 1681 439
4 439 1682 1683 440
4 440 1684 1685 441
4 441 1686 1687 442
4 442 1688 1689 443
4 443 1690 1691 444
4 444 1692 1693 445
4 445 1694 1695 446
4 446 1696 1697 447
4 447 1698 1699 448
4 448 1700 1701 449
4 449 1702 1703 450
4 450 1704 1705 451
4 451 1706 1707 452
4 452 1708 1709 453
4 453 1710 1711 454
4 454 1712 1713 455
4 455 1714 1715 456
4 456 1716 1717 457
4 457 1718 1719 458
4 458 1720 1721 459
4 459 1722 1723 460
4 460 1724 1725 461
4 461 1726 1727 462
4 462 1728 1729 463
4 463 1730 1731 464
4 464 1732 1733 465
4 465 1734 1735 466
4 466 1736 1737 467
4 467 1738 1739 468
4 468 1740 1741 469
4 469 1742 1743 470
4 470 1744 1745 471
4 471 1746 1747 472
4 472 1748 1749 473
4 473 1750 1751 474
4 474 1752 1753 475
4 475 1754 1755 476
4 476 1756 1757 477
4 477 1758 1759 478
4 478 1760 1761 479
4 479 1762 1763 480
4 480 1764 1765 481
4 481 1766 1767 482
4 482 1768 1769 483
4 483 1770 1771 484
4 484 1772 1773 485
4 485 1774 1775 486
4 486 1776 1777 487
4 487 1778 1779 488
4 488 1780 1781 489
4 489 1782 1783 490
4 490 1784 1785 491
4 491 1786 1787 492
4 492 1788 1789 493
4 493 1790 1791 494
4 494 1792 1793 495
4 495 1794 1795 496
4 496 1796 1797 497
4 497 1798 1799 498
4 498 1800 1801 499
4 499 1802 1803 500
4 500 1804 1805 501
4 501 1806 1807 502
4 502 1808 1809 503
4 503 1810 1811 504
4 504 1812 1813 505
4 505 1814 1815 506
4 506 1816 1817 507
4 507 1818 1819 508
4 508 1820 1821 509
4 509 1822 1823 510
4 510 1824 1825 511
4 511 1826 1827 512
4 512 1828 1829 513
4 514 1830 1831 515
4 515 1832 1833 516
4 516 1834 1835 517
4 517 1836 1837 518
4 518 1838 1839 519
4 519 1840 1841 520
4 520 1842 1843 521
4 521 1844 1845 522
4 522 1846 1847 523
4 523 1848 1849 524
4 524 1850 1851 525
4 525 1852 1853 526
4 526 1854 1855 527
4 527 1856 1857 528
4 528 1858 1859 529
4 529 1860 1861 530
4 530 1862 1863 531
4 531 1864 1865 532
4 532 1866 1867 533
4 533 1868 1869 534
4 534 1870 1871 535
4 535 1872 1873 536
4 536 1874 1875 537
4 537 1876 1877 538
4 538 1878 1879 539
4 539 1880 1881 540
4 540 1882 1883 541
4 541 1884 1885 542
4 542 1886 1887 543
4 543 1888 1889 544
4 544 1890 1891 545
4 545 1892 1893 546
4 546 1894 1895 547
4 547 1896 1897 548
4 548 1898 1899 549
4 549 1900 1901 550
4 550 1902 1903 551
4 551 1904 1905 552
4 552 1906 1907 553
4 553 1908 1909 554
4 554 1910 1911 555
4 555 1912 1913 556
4 556 1914 1915 557
4 557 1916 1917 558
4 558 1918 1919 559
4 559 1920 1921 560
4 560 1922 1923 561
4 561 1924 1925 562
4 562 1926 1927 563
4 563 1928 1929 564
4 564 1930 1931 565
4 565 1932 1933 566
4 566 1934 1935 567
4 567 1936 1937 568
4 568 1938 1939 569
4 569 1940 1941 570
4 570 1942 1943 571
4 571 1944 1945 572
4 572 1946 1947 573
4 573 1948 1949 574
4 574 1950 1951 575
4 575 1952 1953 576
4 576 1954 1955 577
4 577 1956 1957 578
4 578 1958 1959 579
4 579 1960 1961 580
4 580 1962 1963 581
4 581 1964 1965 582
4 582 1966 1967 583
4 583 1968 1969 584
4 584 1970 1971 585
4 585 1972 1973 586
4 586 1974 1975 587
4 587 1976 1977 588
4 588 1978 1979 589
4 589 1980 1981 590
4 590 1982 1983 591
4 591 1984 1985 592
4 592 1986 1987 593
4 593 1988 1989 594
4 594 1990 1991 595
4 595 1992 1993 596
4 596 1994 1995 597
4 597 1996 1997 598
4 598 1998 1999 599
4 599 2000 2001 600
4 600 2002 2003 601
4 601 2004 2005 602
4 602 2006 2007 603
4 603 2008 2009 604
4 604 2010 2011 605
4 605 2012 2013 606
4 606 2014 2015 607
4 607 2016 2017 608
4 608 2018 2019 609
4 609 2020 2021 610
4 610 2022 2023 611
4 611 2024 2025 612
4 612 2026 2027 613
4 613 2028 2029 614
4 615 2030 2031 616
4 615 2032 2033 817
4 616 2034 2035 617
4 617 2036 2037 618
4 618 2038 2039 619
4 619 2040 2041 620
4 620 2042 2043 621
4 621 2044 2045 622
4 622 2046 2047 623
4 623 2048 2049 624
4 624 2050 2051 625
4 625 2052 2053 626
4 626 2054 2055 627
4 627 2056 2057 628
4 628 2058 2059 629
4 629 2060 2061 630
4 630 2062 2063 631
4 631 2064 2065 632
4 632 2066 2067 633
4 633 2068 2069 634
4 634 2070 2071 635
4 635 2072 2073 636
4 636 2074 2075 637
4 637 2076 2077 638
4 638 2078 2079 639
4 639 2080 2081 640
4 640 2082 2083 641
4 641 2084 2085 642
4 642 2086 2087 643
4 643 2088 2089 644
4 644 2090 2091 645
4 645 2092 2093 646
4 646 2094 2095 647
4 647 2096 2097 648
4 648 2098 2099 649
4 649 2100 2101 650
4 650 2102 2103 651
4 651 2104 2105 652
4 652 2106 2107 653
4 653 2108 2109 654
4 654 2110 2111 655
4 655 2112 2113 656
4 656 2114 2115 657
4 657 2116 2117 658
4 658 2118 2119 659
4 659 2120 2121 660
4 660 2122 2123 661
4 661 2124 2125 662
4 662 2126 2127 663
4 663 2128 2129 664
4 664 2130 2131 665
4 665 2132 2133 666
4 666 2134 2135 667
4 667 2136 2137 668
4 668 2138 2139 669
4 669 2140 2141 670
4 670 2142 2143 671
4 671 2144 2145 672
4 672 2146 2147 673
4 673 2148 2149 674
4 674 2150 2151 675
4 675 2152 2153 676
4 676 2154 2155 677
4 677 2156 2157 678
4 678 2158 2159 679
4 679 2160 2161 680
4 680 2162 2163 681
4 681 2164 2165 682
4 682 2166 2167 683
4 683 2168 2169 684
4 684 2170 2171 685
4 685 2172 2173 686
4 686 2174 2175 687
4 687 2176 2177 688
4 688 2178 2179 689
4 689 2180 2181 690
4 690 2182 2183 691
4 691 2184 2185 692
4 692 2186 2187 693
4 693 2188 2189 694
4 694 2190 2191 695
4 695 2192 2193 696
4 696 2194 2195 697
4 697 2196 2197 698
4 698 2198 2199 699
4 699 2200 2201 700
4 700 2202 2203 701
4 701 2204 2205 702
4 702 2206 2207 703
4 703 2208 2209 704
4 704 2210 2211 705
4 705 2212 2213 706
4 706 2214 2215 707
4 707 2216 2217 708
4 708 2218 2219 709
4 709 2220 2221 710
4 710 2222 2223 711
4 711 2224 2225 712
4 712 2226 2227 713
4 713 2228 2229 714
4 714 2230 2231 715
4 715 2232 2233 716
4 717 2234 2235 718
4 718 2236 2237 719
4 719 2238 2239 720
4 720 2240 2241 721
4 721 2242 2243 722
4 722 2244 2245 723
4 723 2246 2247 724
4 724 2248 2249 725
4 725 2250 2251 726
4 726 2252 2253 727
4 727 2254 2255 728
4 728 2256 2257 729
4 729 2258 2259 730
4 730 2260 2261 731
4 731 2262 2263 732
4 732 2264 2265 733
4 733 2266 2267 734
4 734 2268 2269 735
4 735 2270 2271 736
4 736 2272 2273 737
4 737 2274 2275 738
4 738 2276 2277 739
4 739 2278 2279 740
4 740 2280 2281 741
4 741 2282 2283 742
4 742 2284 2285 743
4 743 2286 2287 744
4 744 2288 2289 745
4 745 2290 2291 746
4 746 2292 2293 747
4 747 2294 2295 748
4 748 2296 2297 749
4 749 2298 2299 750
4 750 2300 2301 751
4 751 2302 2303 752
4 752 2304 2305 753
4 753 2306 2307 754
4 754 2308 2309 755
4 755 2310 2311 756
4 756 2312 2313 757
4 757 2314 2315 758
4 758 2316 2317 759
4 759 2318 2319 760
4 760 2320 2321 761
4 761 2322 2323 762
4 762 2324 2325 763
4 763 2326 2327 764
4 764 2328 2329 765
4 765 2330 2331 766
4 766 2332 2333 767
4 767 2334 2335 768
4 768 2336 2337 769
4 769 2338 2339 770
4 770 2340 2341 771
4 771 2342 2343 772
4 772 2344 2345 773
4 773 2346 2347 774
4 774 2348 2349 775
4 775 2350 2351 776
4 776 2352 2353 777
4 777 2354 2355 778
4 778 2356 2357 779
4 779 2358 2359 780
4 780 2360 2361 781
4 781 2362 2363 782
4 782 2364 2365 783
4 783 2366 2367 784
4 784 2368 2369 785
4 785 2370 2371 786
4 786 2372 2373 787
4 787 2374 2375 788
4 788 2376 2377 789
4 789 2378 2379 790
4 790 2380 2381 791
4 791 2382 2383 792
4 792 2384 2385 793
4 793 2386 2387 794
4 794 2388 2389 795
4 795 2390 2391 796
4 796 2392 2393 797
4 797 2394 2395 798
4 798 2396 2397 799
4 799 2398 2399 800
4 800 2400 2401 801
4 801 2402 2403 802
4 802 2404 2405 803
4 803 2406 2407 804
4 804 2408 2409 805
4 805 2410 2411 806
4 806 2412 2413 807
4 807 2414 2415 808
4 808 2416 2417 809
4 809 2418 2419 810
4 810 2420 2421 811
4 811 2422 2423 812
4 812 2424 2425 813
4 813 2426 2427 814
4 814 2428 2429 815
4 815 2430 2431 816
4 816 2432 2433 817

CELL_TYPES 808
4
4
4
4
4
4
4
4
4
4
4
4
4
4
4
4
4
4
4
4
4
4
4
4
4
4
4
4
4
4
4
4
4
4
4
4
4
4
4
4
4
4
4
4
4
4
4
4
4
4
4
4
4
4
4
4
4
4
4
4
4
4
4
4
4
4
4
4
4
4
4
4
4
4
4
4
4
4
4
4
4
4
4
4
4
4
4
4
4
4
4
4
4
4
4
4
4
4
4
4
4
4
4
4
4
4
4
4
4
4
4
4
4
4
4
4
4
4
4
4
4
4
4
4
4
4
4
4
4
4
4
4
4
4
4
4
4
4
4
4
4
4
4
4
4
4
4
4
4
4
4
4
4
4
4
4
4
4
4
4
4
4
4
4
4
4
4
4
4
4
4
4
4
4
4
4
4
4
4
4
4
4
4
4
4
4
4
4
4
4
4
4
4
4
4
4
4
4
4
4
4
4
4
4
4
4
4
4
4
4
4
4
4
4
4
4
4
4
4
4
4
4
4
4
4
4
4
4
4
4
4
4
4
4
4
4
4
4
4
4
4
4
4
4
4
4
4
4
4
4
4
4
4
4
4
4
4
4
4
4
4
4
4
4
4
4
4
4
4
4
4
4
4
4
4
4
4
4
4
4
4
4
4
4
4
4
4
4
4
4
4
4
4
4
4
4
4
4
4
4
4
4
4
4
4
4
4
4
4
4
4
4
4
4
4
4
4
4
4
4
4
4
4
4
4
4
4
4
4
4
4
4
4
4
4
4
4
4
4
4
4
4
4
4
4
4
4
4
4
4
4
4
4
4
4
4
4
4
4
4
4
4
4
4
4
4
4
4
4
4
4
4
4
4
4
4
4
4
4
4
4
4
4
4
4
4
4
4
4
4
4
4
4
4
4
4
4
4
4
4
4
4
4
4
4
4
4
4
4
4
4
4
4
4
4
4
4
4
4
4
4
4
4
4
4
4
4
4
4
4
4
4
4
4
4
4
4
4
4
4
4
4
4
4
4
4
4
4
4
4
4
4
4
4
4
4
4
4
4
4
4
4
4
4
4
4
4
4
4
4
4
4
4
4
4
4
4
4
4
4
4
4
4
4
4
4
4
4
4
4
4
4
4
4
4
4
4
4
4
4
4
4
4
4
4
4
4
4
4
4
4
4
4
4
4
4
4
4
4
4
4
4
4
4
4
4
4
4
4
4
4
4
4
4
4
4
4
4
4
4
4
4
4
4
4
4
4
4
4
4
4
4
4
4
4
4
4
4
4
4
4
4
4
4
4
4
4
4
4
4
4
4
4
4
4
4
4
4
4
4
4
4
4
4
4
4
4
4
4
4
4
4
4
4
4
4
4
4
4
4
4
4
4
4
4
4
4
4
4
4
4
4
4
4
4
4
4
4
4
4
4
4
4
4
4
4
4
4
4
4
4
4
4
4
4
4
4
4
4
4
4
4
4
4
4
4
4
4
4
4
4
4
4
4
4
4
4
4
4
4
4
4
4
4
4
4
4
4
4
4
4
4
4
4
4
4
4
4
4
4
4
4
4
4
4
4
4
4
4
4
4
4
4
4
4
4
4
4
4
4
4
4
4
4
4
4
4
4
4
4
4
4
4
4
4
4
4
4
4
4
4
4
4
4
4
4
4
4
4
4
4
4
4
4
4
4
4
4
4
4
4
4
4
4
4
4
4
4
4
4
4
4
4
4
4
4
4
4
4
4
4
4
4
4
4
4
4
4
4
4
4
4
4
4
4
4
4
4
4
4
4
4
4
4
4
4
4
4
4
4
4
4
4
4
4
4
4
4
4
4
4
4
4
4
4
4
4
4

POINT_DATA 2434
VECTORS PK_force double
0.000000000000000e+00 0.000000000000000e+00 0.000000000000000e+00
0.000000000000000e+00 0.000000000000000e+00 0.000000000000000e+00
0.000000000000000e+00 0.000000000000000e+00 0.000000000000000e+00
0.000000000000000e+00 0.000000000000000e+00 0.000000000000000e+00
0.000000000000000e+00 0.000000000000000e+00 0.000000000000000e+00
0.000000000000000e+00 0.000000000000000e+00 0.000000000000000e+00
0.000000000000000e+00 0.000000000000000e+00 0.000000000000000e+00
0.000000000000000e+00 0.000000000000000e+00 0.000000000000000e+00
0.000000000000000e+00 0.000000000000000e+00 0.000000000000000e+00
0.000000000000000e+00 0.000000000000000e+00 0.000000000000000e+00
0.000000000000000e+00 0.000000000000000e+00 0.000000000000000e+00
0.000000000000000e+00 0.000000000000000e+00 0.000000000000000e+00
0.000000000000000e+00 0.000000000000000e+00 0.000000000000000e+00
0.000000000000000e+00 0.000000000000000e+00 0.000000000000000e+00
0.000000000000000e+00 0.000000000000000e+00 0.000000000000000e+00
0.000000000000000e+00 0.000000000000000e+00 0.000000000000000e+00
0.000000000000000e+00 0.000000000000000e+00 0.000000000000000e+00
0.000000000000000e+00 0.000000000000000e+00 0.000000000000000e+00
0.000000000000000e+00 0.000000000000000e+00 0.000000000000000e+00
0.000000000000000e+00 0.000000000000000e+00 0.000000000000000e+00
0.000000000000000e+00 0.000000000000000e+00 0.000000000000000e+00
0.000000000000000e+00 0.000000000000000e+00 0.000000000000000e+00
0.000000000000000e+00 0.000000000000000e+00 0.000000000000000e+00
0.000000000000000e+00 0.000000000000000e+00 0.000000000000000e+00
0.000000000000000e+00 0.000000000000000e+00 0.000000000000000e+00
0.000000000000000e+00 0.000000000000000e+00 0.000000000000000e+00
0.000000000000000e+00 0.000000000000000e+00 0.000000000000000e+00
0.000000000000000e+00 0.000000000000000e+00 0.000000000000000e+00
0.000000000000000e+00 0.000000000000000e+00 0.000000000000000e+00
0.000000000000000e+00 0.000000000000000e+00 0.000000000000000e+00
0.000000000000000e+00 0.000000000000000e+00 0.000000000000000e+00
0.000000000000000e+00 0.000000000000000e+00 0.000000000000000e+00
0.000000000000000e+00 0.000000000000000e+00 0.000000000000000e+00
0.000000000000000e+00 0.000000000000000e+00 0.000000000000000e+00
0.000000000000000e+00 0.000000000000000e+00 0.000000000000000e+00
0.000000000000000e+00 0.000000000000000e+00 0.000000000000000e+00
0.000000000000000e+00 0.000000000000000e+00 0.000000000000000e+00
0.000000000000000e+00 0.000000000000000e+00 0.000000000000000e+00
0.000000000000000e+00 0.000000000000000e+00 0.000000000000000e+00
0.000000000000000e+00 0.000000000000000e+00 0.000000000000000e+00
0.000000000000000e+00 0.000000000000000e+00 0.000000000000000e+00
0.000000000000000e+00 0.000000000000000e+00 0.000000000000000e+00
0.000000000000000e+00 0.000000000000000e+00 0.000000000000000e+00
0.000000000000000e+00 0.000000000000000e+00 0.000000000000000e+00
0.000000000000000e+00 0.000000000000000e+00 0.000000000000000e+00
0.000000000000000e+00 0.000000000000000e+00 0.000000000000000e+00
0.000000000000000e+00 0.000000000000000e+00 0.000000000000000e+00
0.000000000000000e+00 0.000000000000000e+00 0.000000000000000e+00
0.000000000000000e+00 0.000000000000000e+00 0.000000000000000e+00
0.000000000000000e+00 0.000000000000000e+00 0.000000000000000e+00
0.000000000000000e+00 0.000000000000000e+00 0.000000000000000e+00
0.000000000000000e+00 0.000000000000000e+00 0.000000000000000e+00
0.000000000000000e+00 0.000000000000000e+00 0.000000000000000e+00
0.000000000000000e+00 0.000000000000000e+00 0.000000000000000e+00
0.000000000000000e+00 0.000000000000000e+00 0.000000000000000e+00
0.000000000000000e+00 0.000000000000000e+00 0.000000000000000e+00
0.000000000000000e+00 0.000000000000000e+00 0.000000000000000e+00
0.000000000000000e+00 0.000000000000000e+00 0.000000000000000e+00
0.000000000000000e+00 0.000000000000000e+00 0.000000000000000e+00
0.000000000000000e+00 0.000000000000000e+00 0.000000000000000e+00
0.000000000000000e+00 0.000000000000000e+00 0.000000000000000e+00
0.000000000000000e+00 0.000000000000000e+00 0.000000000000000e+00
0.000000000000000e+00 0.000000000000000e+00 0.000000000000000e+00
0.000000000000000e+00 0.000000000000000e+00 0.000000000000000e+00
0.000000000000000e+00 0.000000000000000e+00 0.000000000000000e+00
0.000000000000000e+00 0.000000000000000e+00 0.000000000000000e+00
0.000000000000000e+00 0.000000000000000e+00 0.000000000000000e+00
0.000000000000000e+00 0.000000000000000e+00 0.000000000000000e+00
0.000000000000000e+00 0.000000000000000e+00 0.000000000000000e+00
0.000000000000000e+00 0.000000000000000e+00 0.000000000000000e+00
0.000000000000000e+00 0.000000000000000e+00 0.000000000000000e+00
0.000000000000000e+00 0.000000000000000e+00 0.000000000000000e+00
0.000000000000000e+00 0.000000000000000e+00 0.000000000000000e+00
0.000000000000000e+00 0.000000000000000e+00 0.000000000000000e+00
0.000000000000000e+00 0.000000000000000e+00 0.000000000000000e+00
0.000000000000000e+00 0.000000000000000e+00 0.000000000000000e+00
0.000000000000000e+00 0.000000000000000e+00 0.000000000000000e+00
0.000000000000000e+00 0.000000000000000e+00 0.000000000000000e+00
0.000000000000000e+00 0.000000000000000e+00 0.000000000000000e+00
0.000000000000000e+00 0.000000000000000e+00 0.000000000000000e+00
0.000000000000000e+00 0.000000000000000e+00 0.000000000000000e+00
0.000000000000000e+00 0.000000000000000e+00 0.000000000000000e+00
0.000000000000000e+00 0.000000000000000e+00 0.000000000000000e+00
0.000000000000000e+00 0.000000000000000e+00 0.000000000000000e+00
0.000000000000000e+00 0.000000000000000e+00 0.000000000000000e+00
0.000000000000000e+00 0.000000000000000e+00 0.000000000000000e+00
0.000000000000000e+00 0.000000000000000e+00 0.000000000000000e+00
0.000000000000000e+00 0.000000000000000e+00 0.000000000000000e+00
0.000000000000000e+00 0.000000000000000e+00 0.000000000000000e+00
0.000000000000000e+00 0.000000000000000e+00 0.000000000000000e+00
0.000000000000000e+00 0.000000000000000e+00 0.000000000000000e+00
0.000000000000000e+00 0.000000000000000e+00 0.000000000000000e+00
0.000000000000000e+00 0.000000000000000e+00 0.000000000000000e+00
0.000000000000000e+00 0.000000000000000e+00 0.000000000000000e+00
0.000000000000000e+00 0.000000000000000e+00 0.000000000000000e+00
0.000000000000000e+00 0.000000000000000e+00 0.000000000000000e+00
0.000000000000000e+00 0.000000000000000e+00 0.000000000000000e+00
0.000000000000000e+00 0.000000000000000e+00 0.000000000000000e+00
0.000000000000000e+00 0.000000000000000e+00 0.000000000000000e+00
0.000000000000000e+00 0.000000000000000e+00 0.000000000000000e+00
0.000000000000000e+00 0.000000000000000e+00 0.000000000000000e+00
0.000000000000000e+00 0.000000000000000e+00 0.000000000000000e+00
0.000000000000000e+00 0.000000000000000e+00 0.000000000000000e+00
0.000000000000000e+00 0.000000000000000e+00 0.000000000000000e+00
0.000000000000000e+00 0.000000000000000e+00 0.000000000000000e+00
0.000000000000000e+00 0.000000000000000e+00 0.000000000000000e+00
0.000000000000000e+00 0.000000000000000e+00 0.000000000000000e+00
0.000000000000000e+00 0.000000000000000e+00 0.000000000000000e+00
0.000000000000000e+00 0.000000000000000e+00 0.000000000000000e+00
0.000000000000000e+00 0.000000000000000e+00 0.000000000000000e+00
0.000000000000000e+00 0.000000000000000e+00 0.000000000000000e+00
0.000000000000000e+00 0.000000000000000e+00 0.000000000000000e+00
0.000000000000000e+00 0.000000000000000e+00 0.000000000000000e+00
0.000000000000000e+00 0.000000000000000e+00 0.000000000000000e+00
0.000000000000000e+00 0.000000000000000e+00 0.000000000000000e+00
0.000000000000000e+00 0.000000000000000e+00 0.000000000000000e+00
0.000000000000000e+00 0.000000000000000e+00 0.000000000000000e+00
0.000000000000000e+00 0.000000000000000e+00 0.000000000000000e+00
0.000000000000000e+00 0.000000000000000e+00 0.000000000000000e+00
0.000000000000000e+00 0.000000000000000e+00 0.000000000000000e+00
0.000000000000000e+00 0.000000000000000e+00 0.000000000000000e+00
0.000000000000000e+00 0.000000000000000e+00 0.000000000000000e+00
0.000000000000000e+00 0.000000000000000e+00 0.000000000000000e+00
0.000000000000000e+00 0.000000000000000e+00 0.000000000000000e+00
0.000000000000000e+00 0.000000000000000e+00 0.000000000000000e+00
0.000000000000000e+00 0.000000000000000e+00 0.000000000000000e+00
0.000000000000000e+00 0.000000000000000e+00 0.000000000000000e+00
0.000000000000000e+00 0.000000000000000e+00 0.000000000000000e+00
0.000000000000000e+00 0.000000000000000e+00 0.000000000000000e+00
0.000000000000000e+00 0.000000000000000e+00 0.000000000000000e+00
0.000000000000000e+00 0.000000000000000e+00 0.000000000000000e+00
0.000000000000000e+00 0.000000000000000e+00 0.000000000000000e+00
0.000000000000000e+00 0.000000000000000e+00 0.000000000000000e+00
0.000000000000000e+00 0.000000000000000e+00 0.000000000000000e+00
0.000000000000000e+00 0.000000000000000e+00 0.000000000000000e+00
0.000000000000000e+00 0.000000000000000e+00 0.000000000000000e+00
0.000000000000000e+00 0.000000000000000e+00 0.000000000000000e+00
0.000000000000000e+00 0.000000000000000e+00 0.000000000000000e+00
0.000000000000000e+00 0.000000000000000e+00 0.000000000000000e+00
0.000000000000000e+00 0.000000000000000e+00 0.000000000000000e+00
0.000000000000000e+00 0.000000000000000e+00 0.000000000000000e+00
0.000000000000000e+00 0.000000000000000e+00 0.000000000000000e+00
0.000000000000000e+00 0.000000000000000e+00 0.000000000000000e+00
0.000000000000000e+00 0.000000000000000e+00 0.000000000000000e+00
0.000000000000000e+00 0.000000000000000e+00 0.000000000000000e+00
0.000000000000000e+00 0.000000000000000e+00 0.000000000000000e+00
0.000000000000000e+00 0.000000000000000e+00 0.000000000000000e+00
0.000000000000000e+00 0.000000000000000e+00 0.000000000000000e+00
0.000000000000000e+00 0.000000000000000e+00 0.000000000000000e+00
0.000000000000000e+00 0.000000000000000e+00 0.000000000000000e+00
0.000000000000000e+00 0.000000000000000e+00 0.000000000000000e+00
0.000000000000000e+00 0.000000000000000e+00 0.000000000000000e+00
0.000000000000000e+00 0.000000000000000e+00 0.000000000000000e+00
0.000000000000000e+00 0.000000000000000e+00 0.000000000000000e+00
0.000000000000000e+00 0.000000000000000e+00 0.000000000000000e+00
0.000000000000000e+00 0.000000000000000e+00 0.000000000000000e+00
0.000000000000000e+00 0.000000000000000e+00 0.000000000000000e+00
0.000000000000000e+00 0.000000000000000e+00 0.000000000000000e+00
0.000000000000000e+00 0.000000000000000e+00 0.000000000000000e+00
0.000000000000000e+00 0.000000000000000e+00 0.000000000000000e+00
0.000000000000000e+00 0.000000000000000e+00 0.000000000000000e+00
0.000000000000000e+00 0.000000000000000e+00 0.000000000000000e+00
0.000000000000000e+00 0.000000000000000e+00 0.000000000000000e+00
0.000000000000000e+00 0.000000000000000e+00 0.000000000000000e+00
0.000000000000000e+00 0.000000000000000e+00 0.000000000000000e+00
0.000000000000000e+00 0.000000000000000e+00 0.000000000000000e+00
0.000000000000000e+00 0.000000000000000e+00 0.000000000000000e+00
0.000000000000000e+00 0.000000000000000e+00 0.000000000000000e+00
0.000000000000000e+00 0.000000000000000e+00 0.000000000000000e+00
0.000000000000000e+00 0.000000000000000e+00 0.000000000000000e+00
0.000000000000000e+00 0.000000000000000e+00 0.000000000000000e+00
0.000000000000000e+00 0.000000000000000e+00 0.000000000000000e+00
0.000000000000000e+00 0.000000000000000e+00 0.000000000000000e+00
0.000000000000000e+00 0.000000000000000e+00 0.000000000000000e+00
0.000000000000000e+00 0.000000000000000e+00 0.000000000000000e+00
0.000000000000000e+00 0.000000000000000e+00 0.000000000000000e+00
0.000000000000000e+00 0.000000000000000e+00 0.000000000000000e+00
0.000000000000000e+00 0.000000000000000e+00 0.000000000000000e+00
0.000000000000000e+00 0.000000000000000e+00 0.000000000000000e+00
0.000000000000000e+00 0.000000000000000e+00 0.000000000000000e+00
0.000000000000000e+00 0.000000000000000e+00 0.000000000000000e+00
0.000000000000000e+00 0.000000000000000e+00 0.000000000000000e+00
0.000000000000000e+00 0.000000000000000e+00 0.000000000000000e+00
0.000000000000000e+00 0.000000000000000e+00 0.000000000000000e+00
0.000000000000000e+00 0.000000000000000e+00 0.000000000000000e+00
0.000000000000000e+00 0.000000000000000e+00 0.000000000000000e+00
0.000000000000000e+00 0.000000000000000e+00 0.000000000000000e+00
0.000000000000000e+00 0.000000000000000e+00 0.000000000000000e+00
0.000000000000000e+00 0.000000000000000e+00 0.000000000000000e+00
0.000000000000000e+00 0.000000000000000e+00 0.000000000000000e+00
0.000000000000000e+00 0.000000000000000e+00 0.000000000000000e+00
0.000000000000000e+00 0.000000000000000e+00 0.000000000000000e+00
0.000000000000000e+00 0.000000000000000e+00 0.000000000000000e+00
0.000000000000000e+00 0.000000000000000e+00 0.000000000000000e+00
0.000000000000000e+00 0.000000000000000e+00 0.000000000000000e+00
0.000000000000000e+00 0.000000000000000e+00 0.000000000000000e+00
0.000000000000000e+00 0.000000000000000e+00 0.000000000000000e+00
0.000000000000000e+00 0.000000000000000e+00 0.000000000000000e+00
0.000000000000000e+00 0.000000000000000e+00 0.000000000000000e+00
0.000000000000000e+00 0.000000000000000e+00 0.000000000000000e+00
0.000000000000000e+00 0.000000000000000e+00 0.000000000000000e+00
0.000000000000000e+00 0.000000000000000e+00 0.000000000000000e+00
0.000000000000000e+00 0.000000000000000e+00 0.000000000000000e+00
0.000000000000000e+00 0.000000000000000e+00 0.000000000000000e+00
0.000000000000000e+00 0.000000000000000e+00 0.000000000000000e+00
0.000000000000000e+00 0.000000000000000e+00 0.000000000000000e+00
0.000000000000000e+00 0.000000000000000e+00 0.000000000000000e+00
0.000000000000000e+00 0.000000000000000e+00 0.000000000000000e+00
0.000000000000000e+00 0.000000000000000e+00 0.000000000000000e+00
0.000000000000000e+00 0.000000000000000e+00 0.000000000000000e+00
0.000000000000000e+00 0.000000000000000e+00 0.000000000000000e+00
0.000000000000000e+00 0.000000000000000e+00 0.000000000000000e+00
0.000000000000000e+00 0.000000000000000e+00 0.000000000000000e+00
0.000000000000000e+00 0.000000000000000e+00 0.000000000000000e+00
0.000000000000000e+00 0.000000000000000e+00 0.000000000000000e+00
0.000000000000000e+00 0.000000000000000e+00 0.000000000000000e+00
0.000000000000000e+00 0.000000000000000e+00 0.000000000000000e+00
0.000000000000000e+00 0.000000000000000e+00 0.000000000000000e+00
0.000000000000000e+00 0.000000000000000e+00 0.000000000000000e+00
0.000000000000000e+00 0.000000000000000e+00 0.000000000000000e+00
0.000000000000000e+00 0.000000000000000e+00 0.000000000000000e+00
0.000000000000000e+00 0.000000000000000e+00 0.000000000000000e+00
0.000000000000000e+00 0.000000000000000e+00 0.000000000000000e+00
0.000000000000000e+00 0.000000000000000e+00 0.000000000000000e+00
0.000000000000000e+00 0.000000000000000e+00 0.000000000000000e+00
0.000000000000000e+00 0.000000000000000e+00 0.000000000000000e+00
0.000000000000000e+00 0.000000000000000e+00 0.000000000000000e+00
0.000000000000000e+00 0.000000000000000e+00 0.000000000000000e+00
0.000000000000000e+00 0.000000000000000e+00 0.000000000000000e+00
0.000000000000000e+00 0.000000000000000e+00 0.000000000000000e+00
0.000000000000000e+00 0.000000000000000e+00 0.000000000000000e+00
0.000000000000000e+00 0.000000000000000e+00 0.000000000000000e+00
0.000000000000000e+00 0.000000000000000e+00 0.000000000000000e+00
0.000000000000000e+00 0.000000000000000e+00 0.000000000000000e+00
0.000000000000000e+00 0.000000000000000e+00 0.000000000000000e+00
0.000000000000000e+00 0.000000000000000e+00 0.000000000000000e+00
0.000000000000000e+00 0.000000000000000e+00 0.000000000000000e+00
0.000000000000000e+00 0.000000000000000e+00 0.000000000000000e+00
0.000000000000000e+00 0.000000000000000e+00 0.000000000000000e+00
0.000000000000000e+00 0.000000000000000e+00 0.000000000000000e+00
0.000000000000000e+00 0.000000000000000e+00 0.000000000000000e+00
0.000000000000000e+00 0.000000000000000e+00 0.000000000000000e+00
0.000000000000000e+00 0.000000000000000e+00 0.000000000000000e+00
0.000000000000000e+00 0.000000000000000e+00 0.000000000000000e+00
0.000000000000000e+00 0.000000000000000e+00 0.000000000000000e+00
0.000000000000000e+00 0.000000000000000e+00 0.000000000000000e+00
0.000000000000000e+00 0.000000000000000e+00 0.000000000000000e+00
0.000000000000000e+00 0.000000000000000e+00 0.000000000000000e+00
0.000000000000000e+00 0.000000000000000e+00 0.000000000000000e+00
0.000000000000000e+00 0.000000000000000e+00 0.000000000000000e+00
0.000000000000000e+00 0.000000000000000e+00 0.000000000000000e+00
0.000000000000000e+00 0.000000000000000e+00 0.000000000000000e+00
0.000000000000000e+00 0.000000000000000e+00 0.000000000000000e+00
0.000000000000000e+00 0.000000000000000e+00 0.000000000000000e+00
0.000000000000000e+00 0.000000000000000e+00 0.000000000000000e+00
0.000000000000000e+00 0.000000000000000e+00 0.000000000000000e+00
0.000000000000000e+00 0.000000000000000e+00 0.000000000000000e+00
0.000000000000000e+00 0.000000000000000e+00 0.000000000000000e+00
0.000000000000000e+00 0.000000000000000e+00 0.000000000000000e+00
0.000000000000000e+00 0.000000000000000e+00 0.000000000000000e+00
0.000000000000000e+00 0.000000000000000e+00 0.000000000000000e+00
0.000000000000000e+00 0.000000000000000e+00 0.000000000000000e+00
0.000000000000000e+00 0.000000000000000e+00 0.000000000000000e+00
0.000000000000000e+00 0.000000000000000e+00 0.000000000000000e+00
0.000000000000000e+00 0.000000000000000e+00 0.000000000000000e+00
0.000000000000000e+00 0.000000000000000e+00 0.000000000000000e+00
0.000000000000000e+00 0.000000000000000e+00 0.000000000000000e+00
0.000000000000000e+00 0.000000000000000e+00 0.000000000000000e+00
0.000000000000000e+00 0.000000000000000e+00 0.000000000000000e+00
0.000000000000000e+00 0.000000000000000e+00 0.000000000000000e+00
0.000000000000000e+00 0.000000000000000e+00 0.000000000000000e+00
0.000000000000000e+00 0.000000000000000e+00 0.000000000000000e+00
0.000000000000000e+00 0.000000000000000e+00 0.000000000000000e+00
0.000000000000000e+00 0.000000000000000e+00 0.000000000000000e+00
0.000000000000000e+00 0.000000000000000e+00 0.000000000000000e+00
0.000000000000000e+00 0.000000000000000e+00 0.000000000000000e+00
0.000000000000000e+00 0.000000000000000e+00 0.000000000000000e+00
0.000000000000000e+00 0.000000000000000e+00 0.000000000000000e+00
0.000000000000000e+00 0.000000000000000e+00 0.000000000000000e+00
0.000000000000000e+00 0.000000000000000e+00 0.000000000000000e+00
0.000000000000000e+00 0.000000000000000e+00 0.000000000000000e+00
0.000000000000000e+00 0.000000000000000e+00 0.000000000000000e+00
0.000000000000000e+00 0.000000000000000e+00 0.000000000000000e+00
0.000000000000000e+00 0.000000000000000e+00 0.000000000000000e+00
0.000000000000000e+00 0.000000000000000e+00 0.000000000000000e+00
0.000000000000000e+00 0.000000000000000e+00 0.000000000000000e+00
0.000000000000000e+00 0.000000000000000e+00 0.000000000000000e+00
0.000000000000000e+00 0.000000000000000e+00 0.000000000000000e+00
0.000000000000000e+00 0.000000000000000e+00 0.000000000000000e+00
0.000000000000000e+00 0.000000000000000e+00 0.000000000000000e+00
0.000000000000000e+00 0.000000000000000e+00 0.000000000000000e+00
0.000000000000000e+00 0.000000000000000e+00 0.000000000000000e+00
0.000000000000000e+00 0.000000000000000e+00 0.000000000000000e+00
0.000000000000000e+00 0.000000000000000e+00 0.000000000000000e+00
0.000000000000000e+00 0.000000000000000e+00 0.000000000000000e+00
0.000000000000000e+00 0.000000000000000e+00 0.000000000000000e+00
0.000000000000000e+00 0.000000000000000e+00 0.000000000000000e+00
0.000000000000000e+00 0.000000000000000e+00 0.000000000000000e+00
0.000000000000000e+00 0.000000000000000e+00 0.000000000000000e+00
0.000000000000000e+00 0.000000000000000e+00 0.000000000000000e+00
0.000000000000000e+00 0.000000000000000e+00 0.000000000000000e+00
0.000000000000000e+00 0.000000000000000e+00 0.000000000000000e+00
0.000000000000000e+00 0.000000000000000e+00 0.000000000000000e+00
0.000000000000000e+00 0.000000000000000e+00 0.000000000000000e+00
0.000000000000000e+00 0.000000000000000e+00 0.000000000000000e+00
0.000000000000000e+00 0.000000000000000e+00 0.000000000000000e+00
0.000000000000000e+00 0.000000000000000e+00 0.000000000000000e+00
0.000000000000000e+00 0.000000000000000e+00 0.000000000000000e+00
0.000000000000000e+00 0.000000000000000e+00 0.000000000000000e+00
0.000000000000000e+00 0.000000000000000e+00 0.000000000000000e+00
0.000000000000000e+00 0.000000000000000e+00 0.000000000000000e+00
0.000000000000000e+00 0.000000000000000e+00 0.000000000000000e+00
0.000000000000000e+00 0.000000000000000e+00 0.000000000000000e+00
0.000000000000000e+00 0.000000000000000e+00 0.000000000000000e+00
0.000000000000000e+00 0.000000000000000e+00 0.000000000000000e+00
0.000000000000000e+00 0.000000000000000e+00 0.000000000000000e+00
0.000000000000000e+00 0.000000000000000e+00 0.000000000000000e+00
0.000000000000000e+00 0.000000000000000e+00 0.000000000000000e+00
0.000000000000000e+00 0.000000000000000e+00 0.000000000000000e+00
0.000000000000000e+00 0.000000000000000e+00 0.000000000000000e+00
0.000000000000000e+00 0.000000000000000e+00 0.000000000000000e+00
0.000000000000000e+00 0.000000000000000e+00 0.000000000000000e+00
0.000000000000000e+00 0.000000000000000e+00 0.000000000000000e+00
0.000000000000000e+00 0.000000000000000e+00 0.000000000000000e+00
0.000000000000000e+00 0.000000000000000e+00 0.000000000000000e+00
0.000000000000000e+00 0.000000000000000e+00 0.000000000000000e+00
0.000000000000000e+00 0.000000000000000e+00 0.000000000000000e+00
0.000000000000000e+00 0.000000000000000e+00 0.000000000000000e+00
0.000000000000000e+00 0.000000000000000e+00 0.000000000000000e+00
0.000000000000000e+00 0.000000000000000e+00 0.000000000000000e+00
0.000000000000000e+00 0.000000000000000e+00 0.000000000000000e+00
0.000000000000000e+00 0.000000000000000e+00 0.000000000000000e+00
0.000000000000000e+00 0.000000000000000e+00 0.000000000000000e+00
0.000000000000000e+00 0.000000000000000e+00 0.000000000000000e+00
0.000000000000000e+00 0.000000000000000e+00 0.000000000000000e+00
0.000000000000000e+00 0.000000000000000e+00 0.000000000000000e+00
0.000000000000000e+00 0.000000000000000e+00 0.000000000000000e+00
0.000000000000000e+00 0.000000000000000e+00 0.000000000000000e+00
0.000000000000000e+00 0.000000000000000e+00 0.000000000000000e+00
0.000000000000000e+00 0.000000000000000e+00 0.000000000000000e+00
0.000000000000000e+00 0.000000000000000e+00 0.000000000000000e+00
0.000000000000000e+00 0.000000000000000e+00 0.000000000000000e+00
0.000000000000000e+00 0.000000000000000e+00 0.000000000000000e+00
0.000000000000000e+00 0.000000000000000e+00 0.000000000000000e+00
0.000000000000000e+00 0.000000000000000e+00 0.000000000000000e+00
0.000000000000000e+00 0.000000000000000e+00 0.000000000000000e+00
0.000000000000000e+00 0.000000000000000e+00 0.000000000000000e+00
0.000000000000000e+00 0.000000000000000e+00 0.000000000000000e+00
0.000000000000000e+00 0.000000000000000e+00 0.000000000000000e+00
0.000000000000000e+00 0.000000000000000e+00 0.000000000000000e+00
0.000000000000000e+00 0.000000000000000e+00 0.000000000000000e+00
0.000000000000000e+00 0.000000000000000e+00 0.000000000000000e+00
0.000000000000000e+00 0.000000000000000e+00 0.000000000000000e+00
0.000000000000000e+00 0.000000000000000e+00 0.000000000000000e+00
0.000000000000000e+00 0.000000000000000e+00 0.000000000000000e+00
0.000000000000000e+00 0.000000000000000e+00 0.000000000000000e+00
0.000000000000000e+00 0.000000000000000e+00 0.000000000000000e+00
0.000000000000000e+00 0.000000000000000e+00 0.000000000000000e+00
0.000000000000000e+00 0.000000000000000e+00 0.000000000000000e+00
0.000000000000000e+00 0.000000000000000e+00 0.000000000000000e+00
0.000000000000000e+00 0.000000000000000e+00 0.000000000000000e+00
0.000000000000000e+00 0.000000000000000e+00 0.000000000000000e+00
0.000000000000000e+00 0.000000000000000e+00 0.000000000000000e+00
0.000000000000000e+00 0.000000000000000e+00 0.000000000000000e+00
0.000000000000000e+00 0.000000000000000e+00 0.000000000000000e+00
0.000000000000000e+00 0.000000000000000e+00 0.000000000000000e+00
0.000000000000000e+00 0.000000000000000e+00 0.000000000000000e+00
0.000000000000000e+00 0.000000000000000e+00 0.000000000000000e+00
0.000000000000000e+00 0.000000000000000e+00 0.000000000000000e+00
0.000000000000000e+00 0.000000000000000e+00 0.000000000000000e+00
0.000000000000000e+00 0.000000000000000e+00 0.000000000000000e+00
0.000000000000000e+00 0.000000000000000e+00 0.000000000000000e+00
0.000000000000000e+00 0.000000000000000e+00 0.000000000000000e+00
0.000000000000000e+00 0.000000000000000e+00 0.000000000000000e+00
0.000000000000000e+00 0.000000000000000e+00 0.000000000000000e+00
0.000000000000000e+00 0.000000000000000e+00 0.000000000000000e+00
0.000000000000000e+00 0.000000000000000e+00 0.000000000000000e+00
0.000000000000000e+00 0.000000000000000e+00 0.000000000000000e+00
0.000000000000000e+00 0.000000000000000e+00 0.000000000000000e+00
0.000000000000000e+00 0.000000000000000e+00 0.000000000000000e+00
0.000000000000000e+00 0.000000000000000e+00 0.000000000000000e+00
0.000000000000000e+00 0.000000000000000e+00 0.000000000000000e+00
0.000000000000000e+00 0.000000000000000e+00 0.000000000000000e+00
0.000000000000000e+00 0.000000000000000e+00 0.000000000000000e+00
0.000000000000000e+00 0.000000000000000e+00 0.000000000000000e+00
0.000000000000000e+00 0.000000000000000e+00 0.000000000000000e+00
0.000000000000000e+00 0.000000000000000e+00 0.000000000000000e+00
0.000000000000000e+00 0.000000000000000e+00 0.000000000000000e+00
0.000000000000000e+00 0.000000000000000e+00 0.000000000000000e+00
0.000000000000000e+00 0.000000000000000e+00 0.000000000000000e+00
0.000000000000000e+00 0.000000000000000e+00 0.000000000000000e+00
0.000000000000000e+00 0.000000000000000e+00 0.000000000000000e+00
0.000000000000000e+00 0.000000000000000e+00 0.000000000000000e+00
0.000000000000000e+00 0.000000000000000e+00 0.000000000000000e+00
0.000000000000000e+00 0.000000000000000e+00 0.000000000000000e+00
0.000000000000000e+00 0.000000000000000e+00 0.000000000000000e+00
0.000000000000000e+00 0.000000000000000e+00 0.000000000000000e+00
0.000000000000000e+00 0.000000000000000e+00 0.000000000000000e+00
0.000000000000000e+00 0.000000000000000e+00 0.000000000000000e+00
0.000000000000000e+00 0.000000000000000e+00 0.000000000000000e+00
0.000000000000000e+00 0.000000000000000e+00 0.000000000000000e+00
0.000000000000000e+00 0.000000000000000e+00 0.000000000000000e+00
0.000000000000000e+00 0.000000000000000e+00 0.000000000000000e+00
0.000000000000000e+00 0.000000000000000e+00 0.000000000000000e+00
0.000000000000000e+00 0.000000000000000e+00 0.000000000000000e+00
0.000000000000000e+00 0.000000000000000e+00 0.000000000000000e+00
0.000000000000000e+00 0.000000000000000e+00 0.000000000000000e+00
0.000000000000000e+00 0.000000000000000e+00 0.000000000000000e+00
0.000000000000000e+00 0.000000000000000e+00 0.000000000000000e+00
0.000000000000000e+00 0.000000000000000e+00 0.000000000000000e+00
0.000000000000000e+00 0.000000000000000e+00 0.000000000000000e+00
0.000000000000000e+00 0.000000000000000e+00 0.000000000000000e+00
0.000000000000000e+00 0.000000000000000e+00 0.000000000000000e+00
0.000000000000000e+00 0.000000000000000e+00 0.000000000000000e+00
0.000000000000000e+00 0.000000000000000e+00 0.000000000000000e+00
0.000000000000000e+00 0.000000000000000e+00 0.000000000000000e+00
0.000000000000000e+00 0.000000000000000e+00 0.000000000000000e+00
0.000000000000000e+00 0.000000000000000e+00 0.000000000000000e+00
0.000000000000000e+00 0.000000000000000e+00 0.000000000000000e+00
0.000000000000000e+00 0.000000000000000e+00 0.000000000000000e+00
0.000000000000000e+00 0.000000000000000e+00 0.000000000000000e+00
0.000000000000000e+00 0.000000000000000e+00 0.000000000000000e+00
0.000000000000000e+00 0.000000000000000e+00 0.000000000000000e+00
0.000000000000000e+00 0.000000000000000e+00 0.000000000000000e+00
0.000000000000000e+00 0.000000000000000e+00 0.000000000000000e+00
0.000000000000000e+00 0.000000000000000e+00 0.000000000000000e+00
0.000000000000000e+00 0.000000000000000e+00 0.000000000000000e+00
0.000000000000000e+00 0.000000000000000e+00 0.000000000000000e+00
0.000000000000000e+00 0.000000000000000e+00 0.000000000000000e+00
0.000000000000000e+00 0.000000000000000e+00 0.000000000000000e+00
0.000000000000000e+00 0.000000000000000e+00 0.000000000000000e+00
0.000000000000000e+00 0.000000000000000e+00 0.000000000000000e+00
0.000000000000000e+00 0.000000000000000e+00 0.000000000000000e+00
0.000000000000000e+00 0.000000000000000e+00 0.000000000000000e+00
0.000000000000000e+00 0.000000000000000e+00 0.000000000000000e+00
0.000000000000000e+00 0.000000000000000e+00 0.000000000000000e+00
0.000000000000000e+00 0.000000000000000e+00 0.000000000000000e+00
0.000000000000000e+00 0.000000000000000e+00 0.000000000000000e+00
0.000000000000000e+00 0.000000000000000e+00 0.000000000000000e+00
0.000000000000000e+00 0.000000000000000e+00 0.000000000000000e+00
0.000000000000000e+00 0.000000000000000e+00 0.000000000000000e+00
0.000000000000000e+00 0.000000000000000e+00 0.000000000000000e+00
0.000000000000000e+00 0.000000000000000e+00 0.000000000000000e+00
0.000000000000000e+00 0.000000000000000e+00 0.000000000000000e+00
0.000000000000000e+00 0.000000000000000e+00 0.000000000000000e+00
0.000000000000000e+00 0.000000000000000e+00 0.000000000000000e+00
0.000000000000000e+00 0.000000000000000e+00 0.000000000000000e+00
0.000000000000000e+00 0.000000000000000e+00 0.000000000000000e+00
0.000000000000000e+00 0.000000000000000e+00 0.000000000000000e+00
0.000000000000000e+00 0.000000000000000e+00 0.000000000000000e+00
0.000000000000000e+00 0.000000000000000e+00 0.000000000000000e+00
0.000000000000000e+00 0.000000000000000e+00 0.000000000000000e+00
0.000000000000000e+00 0.000000000000000e+00 0.000000000000000e+00
0.000000000000000e+00 0.000000000000000e+00 0.000000000000000e+00
0.000000000000000e+00 0.000000000000000e+00 0.000000000000000e+00
0.000000000000000e+00 0.000000000000000e+00 0.000000000000000e+00
0.000000000000000e+00 0.000000000000000e+00 0.000000000000000e+00
0.000000000000000e+00 0.000000000000000e+00 0.000000000000000e+00
0.000000000000000e+00 0.000000000000000e+00 0.000000000000000e+00
0.000000000000000e+00 0.000000000000000e+00 0.000000000000000e+00
0.000000000000000e+00 0.000000000000000e+00 0.000000000000000e+00
0.000000000000000e+00 0.000000000000000e+00 0.000000000000000e+00
0.000000000000000e+00 0.000000000000000e+00 0.000000000000000e+00
0.000000000000000e+00 0.000000000000000e+00 0.000000000000000e+00
0.000000000000000e+00 0.000000000000000e+00 0.000000000000000e+00
0.000000000000000e+00 0.000000000000000e+00 0.000000000000000e+00
0.000000000000000e+00 0.000000000000000e+00 0.000000000000000e+00
0.000000000000000e+00 0.000000000000000e+00 0.000000000000000e+00
0.000000000000000e+00 0.000000000000000e+00 0.000000000000000e+00
0.000000000000000e+00 0.000000000000000e+00 0.000000000000000e+00
0.000000000000000e+00 0.000000000000000e+00 0.000000000000000e+00
0.000000000000000e+00 0.000000000000000e+00 0.000000000000000e+00
0.000000000000000e+00 0.000000000000000e+00 0.000000000000000e+00
0.000000000000000e+00 0.000000000000000e+00 0.000000000000000e+00
0.000000000000000e+00 0.000000000000000e+00 0.000000000000000e+00
0.000000000000000e+00 0.000000000000000e+00 0.000000000000000e+00
0.000000000000000e+00 0.000000000000000e+00 0.000000000000000e+00
0.000000000000000e+00 0.000000000000000e+00 0.000000000000000e+00
0.000000000000000e+00 0.000000000000000e+00 0.000000000000000e+00
0.000000000000000e+00 0.000000000000000e+00 0.000000000000000e+00
0.000000000000000e+00 0.000000000000000e+00 0.000000000000000e+00
0.000000000000000e+00 0.000000000000000e+00 0.000000000000000e+00
0.000000000000000e+00 0.000000000000000e+00 0.000000000000000e+00
0.000000000000000e+00 0.000000000000000e+00 0.000000000000000e+00
0.000000000000000e+00 0.000000000000000e+00 0.000000000000000e+00
0.000000000000000e+00 0.000000000000000e+00 0.000000000000000e+00
0.000000000000000e+00 0.000000000000000e+00 0.000000000000000e+00
0.000000000000000e+00 0.000000000000000e+00 0.000000000000000e+00
0.000000000000000e+00 0.000000000000000e+00 0.000000000000000e+00
0.000000000000000e+00 0.000000000000000e+00 0.000000000000000e+00
0.000000000000000e+00 0.000000000000000e+00 0.000000000000000e+00
0.000000000000000e+00 0.000000000000000e+00 0.000000000000000e+00
0.000000000000000e+00 0.000000000000000e+00 0.000000000000000e+00
0.000000000000000e+00 0.000000000000000e+00 0.000000000000000e+00
0.000000000000000e+00 0.000000000000000e+00 0.000000000000000e+00
0.000000000000000e+00 0.000000000000000e+00 0.000000000000000e+00
0.000000000000000e+00 0.000000000000000e+00 0.000000000000000e+00
0.000000000000000e+00 0.000000000000000e+00 0.000000000000000e+00
0.000000000000000e+00 0.000000000000000e+00 0.000000000000000e+00
0.000000000000000e+00 0.000000000000000e+00 0.000000000000000e+00
0.000000000000000e+00 0.000000000000000e+00 0.000000000000000e+00
0.000000000000000e+00 0.000000000000000e+00 0.000000000000000e+00
0.000000000000000e+00 0.000000000000000e+00 0.000000000000000e+00
0.000000000000000e+00 0.000000000000000e+00 0.000000000000000e+00
0.000000000000000e+00 0.000000000000000e+00 0.000000000000000e+00
0.000000000000000e+00 0.000000000000000e+00 0.000000000000000e+00
0.000000000000000e+00 0.000000000000000e+00 0.000000000000000e+00
0.000000000000000e+00 0.000000000000000e+00 0.000000000000000e+00
0.000000000000000e+00 0.000000000000000e+00 0.000000000000000e+00
0.000000000000000e+00 0.000000000000000e+00 0.000000000000000e+00
0.000000000000000e+00 0.000000000000000e+00 0.000000000000000e+00
0.000000000000000e+00 0.000000000000000e+00 0.000000000000000e+00
0.000000000000000e+00 0.000000000000000e+00 0.000000000000000e+00
0.000000000000000e+00 0.000000000000000e+00 0.000000000000000e+00
0.000000000000000e+00 0.000000000000000e+00 0.000000000000000e+00
0.000000000000000e+00 0.000000000000000e+00 0.000000000000000e+00
0.000000000000000e+00 0.000000000000000e+00 0.000000000000000e+00
0.000000000000000e+00 0.000000000000000e+00 0.000000000000000e+00
0.000000000000000e+00 0.000000000000000e+00 0.000000000000000e+00
0.000000000000000e+00 0.000000000000000e+00 0.000000000000000e+00
0.000000000000000e+00 0.000000000000000e+00 0.000000000000000e+00
0.000000000000000e+00 0.000000000000000e+00 0.000000000000000e+00
0.000000000000000e+00 0.000000000000000e+00 0.000000000000000e+00
0.000000000000000e+00 0.000000000000000e+00 0.000000000000000e+00
0.000000000000000e+00 0.000000000000000e+00 0.000000000000000e+00
0.000000000000000e+00 0.000000000000000e+00 0.000000000000000e+00
0.000000000000000e+00 0.000000000000000e+00 0.000000000000000e+00
0.000000000000000e+00 0.000000000000000e+00 0.000000000000000e+00
0.000000000000000e+00 0.000000000000000e+00 0.000000000000000e+00
0.000000000000000e+00 0.000000000000000e+00 0.000000000000000e+00
0.000000000000000e+00 0.000000000000000e+00 0.000000000000000e+00
0.000000000000000e+00 0.000000000000000e+00 0.000000000000000e+00
0.000000000000000e+00 0.000000000000000e+00 0.000000000000000e+00
0.000000000000000e+00 0.000000000000000e+00 0.000000000000000e+00
0.000000000000000e+00 0.000000000000000e+00 0.000000000000000e+00
0.000000000000000e+00 0.000000000000000e+00 0.000000000000000e+00
0.000000000000000e+00 0.000000000000000e+00 0.000000000000000e+00
0.000000000000000e+00 0.000000000000000e+00 0.000000000000000e+00
0.000000000000000e+00 0.000000000000000e+00 0.000000000000000e+00
0.000000000000000e+00 0.000000000000000e+00 0.000000000000000e+00
0.000000000000000e+00 0.000000000000000e+00 0.000000000000000e+00
0.000000000000000e+00 0.000000000000000e+00 0.000000000000000e+00
0.000000000000000e+00 0.000000000000000e+00 0.000000000000000e+00
0.000000000000000e+00 0.000000000000000e+00 0.000000000000000e+00
0.000000000000000e+00 0.000000000000000e+00 0.000000000000000e+00
0.000000000000000e+00 0.000000000000000e+00 0.000000000000000e+00
0.000000000000000e+00 0.000000000000000e+00 0.000000000000000e+00
0.000000000000000e+00 0.000000000000000e+00 0.000000000000000e+00
0.000000000000000e+00 0.000000000000000e+00 0.000000000000000e+00
0.000000000000000e+00 0.000000000000000e+00 0.000000000000000e+00
0.000000000000000e+00 0.000000000000000e+00 0.000000000000000e+00
0.000000000000000e+00 0.000000000000000e+00 0.000000000000000e+00
0.000000000000000e+00 0.000000000000000e+00 0.000000000000000e+00
0.000000000000000e+00 0.000000000000000e+00 0.000000000000000e+00
0.000000000000000e+00 0.000000000000000e+00 0.000000000000000e+00
0.000000000000000e+00 0.000000000000000e+00 0.000000000000000e+00
0.000000000000000e+00 0.000000000000000e+00 0.000000000000000e+00
0.000000000000000e+00 0.000000000000000e+00 0.000000000000000e+00
0.000000000000000e+00 0.000000000000000e+00 0.000000000000000e+00
0.000000000000000e+00 0.000000000000000e+00 0.000000000000000e+00
0.000000000000000e+00 0.000000000000000e+00 0.000000000000000e+00
0.000000000000000e+00 0.000000000000000e+00 0.000000000000000e+00
0.000000000000000e+00 0.000000000000000e+00 0.000000000000000e+00
0.000000000000000e+00 0.000000000000000e+00 0.000000000000000e+00
0.000000000000000e+00 0.000000000000000e+00 0.000000000000000e+00
0.000000000000000e+00 0.000000000000000e+00 0.000000000000000e+00
0.000000000000000e+00 0.000000000000000e+00 0.000000000000000e+00
0.000000000000000e+00 0.000000000000000e+00 0.000000000000000e+00
0.000000000000000e+00 0.000000000000000e+00 0.000000000000000e+00
0.000000000000000e+00 0.000000000000000e+00 0.000000000000000e+00
0.000000000000000e+00 0.000000000000000e+00 0.000000000000000e+00
0.000000000000000e+00 0.000000000000000e+00 0.000000000000000e+00
0.000000000000000e+00 0.000000000000000e+00 0.000000000000000e+00
0.000000000000000e+00 0.000000000000000e+00 0.000000000000000e+00
0.000000000000000e+00 0.000000000000000e+00 0.000000000000000e+00
0.000000000000000e+00 0.000000000000000e+00 0.000000000000000e+00
0.000000000000000e+00 0.000000000000000e+00 0.000000000000000e+00
0.000000000000000e+00 0.000000000000000e+00 0.000000000000000e+00
0.000000000000000e+00 0.000000000000000e+00 0.000000000000000e+00
0.000000000000000e+00 0.000000000000000e+00 0.000000000000000e+00
0.000000000000000e+00 0.000000000000000e+00 0.000000000000000e+00
0.000000000000000e+00 0.000000000000000e+00 0.000000000000000e+00
0.000000000000000e+00 0.000000000000000e+00 0.000000000000000e+00
0.000000000000000e+00 0.000000000000000e+00 0.000000000000000e+00
0.000000000000000e+00 0.000000000000000e+00 0.000000000000000e+00
0.000000000000000e+00 0.000000000000000e+00 0.000000000000000e+00
0.000000000000000e+00 0.000000000000000e+00 0.000000000000000e+00
0.000000000000000e+00 0.000000000000000e+00 0.000000000000000e+00
0.000000000000000e+00 0.000000000000000e+00 0.000000000000000e+00
0.000000000000000e+00 0.000000000000000e+00 0.000000000000000e+00
0.000000000000000e+00 0.000000000000000e+00 0.000000000000000e+00
0.000000000000000e+00 0.000000000000000e+00 0.000000000000000e+00
0.000000000000000e+00 0.000000000000000e+00 0.000000000000000e+00
0.000000000000000e+00 0.000000000000000e+00 0.000000000000000e+00
0.000000000000000e+00 0.000000000000000e+00 0.000000000000000e+00
0.000000000000000e+00 0.000000000000000e+00 0.000000000000000e+00
0.000000000000000e+00 0.000000000000000e+00 0.000000000000000e+00
0.000000000000000e+00 0.000000000000000e+00 0.000000000000000e+00
0.000000000000000e+00 0.000000000000000e+00 0.000000000000000e+00
0.000000000000000e+00 0.000000000000000e+00 0.000000000000000e+00
0.000000000000000e+00 0.000000000000000e+00 0.000000000000000e+00
0.000000000000000e+00 0.000000000000000e+00 0.000000000000000e+00
0.000000000000000e+00 0.000000000000000e+00 0.000000000000000e+00
0.000000000000000e+00 0.000000000000000e+00 0.000000000000000e+00
0.000000000000000e+00 0.000000000000000e+00 0.000000000000000e+00
0.000000000000000e+00 0.000000000000000e+00 0.000000000000000e+00
0.000000000000000e+00 0.000000000000000e+00 0.000000000000000e+00
0.000000000000000e+00 0.000000000000000e+00 0.000000000000000e+00
0.000000000000000e+00 0.000000000000000e+00 0.000000000000000e+00
0.000000000000000e+00 0.000000000000000e+00 0.000000000000000e+00
0.000000000000000e+00 0.000000000000000e+00 0.000000000000000e+00
0.000000000000000e+00 0.000000000000000e+00 0.000000000000000e+00
0.000000000000000e+00 0.000000000000000e+00 0.000000000000000e+00
0.000000000000000e+00 0.000000000000000e+00 0.000000000000000e+00
0.000000000000000e+00 0.000000000000000e+00 0.000000000000000e+00
0.000000000000000e+00 0.000000000000000e+00 0.000000000000000e+00
0.000000000000000e+00 0.000000000000000e+00 0.000000000000000e+00
0.000000000000000e+00 0.000000000000000e+00 0.000000000000000e+00
0.000000000000000e+00 0.000000000000000e+00 0.000000000000000e+00
0.000000000000000e+00 0.000000000000000e+00 0.000000000000000e+00
0.000000000000000e+00 0.000000000000000e+00 0.000000000000000e+00
0.000000000000000e+00 0.000000000000000e+00 0.000000000000000e+00
0.000000000000000e+00 0.000000000000000e+00 0.000000000000000e+00
0.000000000000000e+00 0.000000000000000e+00 0.000000000000000e+00
0.000000000000000e+00 0.000000000000000e+00 0.000000000000000e+00
0.000000000000000e+00 0.000000000000000e+00 0.000000000000000e+00
0.000000000000000e+00 0.000000000000000e+00 0.000000000000000e+00
0.000000000000000e+00 0.000000000000000e+00 0.000000000000000e+00
0.000000000000000e+00 0.000000000000000e+00 0.000000000000000e+00
0.000000000000000e+00 0.000000000000000e+00 0.000000000000000e+00
0.000000000000000e+00 0.000000000000000e+00 0.000000000000000e+00
0.000000000000000e+00 0.000000000000000e+00 0.000000000000000e+00
0.000000000000000e+00 0.000000000000000e+00 0.000000000000000e+00
0.000000000000000e+00 0.000000000000000e+00 0.000000000000000e+00
0.000000000000000e+00 0.000000000000000e+00 0.000000000000000e+00
0.000000000000000e+00 0.000000000000000e+00 0.000000000000000e+00
0.000000000000000e+00 0.000000000000000e+00 0.000000000000000e+00
0.000000000000000e+00 0.000000000000000e+00 0.000000000000000e+00
0.000000000000000e+00 0.000000000000000e+00 0.000000000000000e+00
0.000000000000000e+00 0.000000000000000e+00 0.000000000000000e+00
0.000000000000000e+00 0.000000000000000e+00 0.000000000000000e+00
0.000000000000000e+00 0.000000000000000e+00 0.000000000000000e+00
0.000000000000000e+00 0.000000000000000e+00 0.000000000000000e+00
0.000000000000000e+00 0.000000000000000e+00 0.000000000000000e+00
0.000000000000000e+00 0.000000000000000e+00 0.000000000000000e+00
0.000000000000000e+00 0.000000000000000e+00 0.000000000000000e+00
0.000000000000000e+00 0.000000000000000e+00 0.000000000000000e+00
0.000000000000000e+00 0.000000000000000e+00 0.000000000000000e+00
0.000000000000000e+00 0.000000000000000e+00 0.000000000000000e+00
0.000000000000000e+00 0.000000000000000e+00 0.000000000000000e+00
0.000000000000000e+00 0.000000000000000e+00 0.000000000000000e+00
0.000000000000000e+00 0.000000000000000e+00 0.000000000000000e+00
0.000000000000000e+00 0.000000000000000e+00 0.000000000000000e+00
0.000000000000000e+00 0.000000000000000e+00 0.000000000000000e+00
0.000000000000000e+00 0.000000000000000e+00 0.000000000000000e+00
0.000000000000000e+00 0.000000000000000e+00 0.000000000000000e+00
0.000000000000000e+00 0.000000000000000e+00 0.000000000000000e+00
0.000000000000000e+00 0.000000000000000e+00 0.000000000000000e+00
0.000000000000000e+00 0.000000000000000e+00 0.000000000000000e+00
0.000000000000000e+00 0.000000000000000e+00 0.000000000000000e+00
0.000000000000000e+00 0.000000000000000e+00 0.000000000000000e+00
0.000000000000000e+00 0.000000000000000e+00 0.000000000000000e+00
0.000000000000000e+00 0.000000000000000e+00 0.000000000000000e+00
0.000000000000000e+00 0.000000000000000e+00 0.000000000000000e+00
0.000000000000000e+00 0.000000000000000e+00 0.000000000000000e+00
0.000000000000000e+00 0.000000000000000e+00 0.000000000000000e+00
0.000000000000000e+00 0.000000000000000e+00 0.000000000000000e+00
0.000000000000000e+00 0.000000000000000e+00 0.000000000000000e+00
0.000000000000000e+00 0.000000000000000e+00 0.000000000000000e+00
0.000000000000000e+00 0.000000000000000e+00 0.000000000000000e+00
0.000000000000000e+00 0.000000000000000e+00 0.000000000000000e+00
0.000000000000000e+00 0.000000000000000e+00 0.000000000000000e+00
0.000000000000000e+00 0.000000000000000e+00 0.000000000000000e+00
0.000000000000000e+00 0.000000000000000e+00 0.000000000000000e+00
0.000000000000000e+00 0.000000000000000e+00 0.000000000000000e+00
0.000000000000000e+00 0.000000000000000e+00 0.000000000000000e+00
0.000000000000000e+00 0.000000000000000e+00 0.000000000000000e+00
0.000000000000000e+00 0.000000000000000e+00 0.000000000000000e+00
0.000000000000000e+00 0.000000000000000e+00 0.000000000000000e+00
0.000000000000000e+00 0.000000000000000e+00 0.000000000000000e+00
0.000000000000000e+00 0.000000000000000e+00 0.000000000000000e+00
0.000000000000000e+00 0.000000000000000e+00 0.000000000000000e+00
0.000000000000000e+00 0.000000000000000e+00 0.000000000000000e+00
0.000000000000000e+00 0.000000000000000e+00 0.000000000000000e+00
0.000000000000000e+00 0.000000000000000e+00 0.000000000000000e+00
0.000000000000000e+00 0.000000000000000e+00 0.000000000000000e+00
0.000000000000000e+00 0.000000000000000e+00 0.000000000000000e+00
0.000000000000000e+00 0.000000000000000e+00 0.000000000000000e+00
0.000000000000000e+00 0.000000000000000e+00 0.000000000000000e+00
0.000000000000000e+00 0.000000000000000e+00 0.000000000000000e+00
0.000000000000000e+00 0.000000000000000e+00 0.000000000000000e+00
0.000000000000000e+00 0.000000000000000e+00 0.000000000000000e+00
0.000000000000000e+00 0.000000000000000e+00 0.000000000000000e+00
0.000000000000000e+00 0.000000000000000e+00 0.000000000000000e+00
0.000000000000000e+00 0.000000000000000e+00 0.000000000000000e+00
0.000000000000000e+00 0.000000000000000e+00 0.000000000000000e+00
0.000000000000000e+00 0.000000000000000e+00 0.000000000000000e+00
0.000000000000000e+00 0.000000000000000e+00 0.000000000000000e+00
0.000000000000000e+00 0.000000000000000e+00 0.000000000000000e+00
0.000000000000000e+00 0.000000000000000e+00 0.000000000000000e+00
0.000000000000000e+00 0.000000000000000e+00 0.000000000000000e+00
0.000000000000000e+00 0.000000000000000e+00 0.000000000000000e+00
0.000000000000000e+00 0.000000000000000e+00 0.000000000000000e+00
0.000000000000000e+00 0.000000000000000e+00 0.000000000000000e+00
0.000000000000000e+00 0.000000000000000e+00 0.000000000000000e+00
0.000000000000000e+00 0.000000000000000e+00 0.000000000000000e+00
0.000000000000000e+00 0.000000000000000e+00 0.000000000000000e+00
0.000000000000000e+00 0.000000000000000e+00 0.000000000000000e+00
0.000000000000000e+00 0.000000000000000e+00 0.000000000000000e+00
0.000000000000000e+00 0.000000000000000e+00 0.000000000000000e+00
0.000000000000000e+00 0.000000000000000e+00 0.000000000000000e+00
0.000000000000000e+00 0.000000000000000e+00 0.000000000000000e+00
0.000000000000000e+00 0.000000000000000e+00 0.000000000000000e+00
0.000000000000000e+00 0.000000000000000e+00 0.000000000000000e+00
0.000000000000000e+00 0.000000000000000e+00 0.000000000000000e+00
0.000000000000000e+00 0.000000000000000e+00 0.000000000000000e+00
0.000000000000000e+00 0.000000000000000e+00 0.000000000000000e+00
0.000000000000000e+00 0.000000000000000e+00 0.000000000000000e+00
0.000000000000000e+00 0.000000000000000e+00 0.000000000000000e+00
0.000000000000000e+00 0.000000000000000e+00 0.000000000000000e+00
0.000000000000000e+00 0.000000000000000e+00 0.000000000000000e+00
0.000000000000000e+00 0.000000000000000e+00 0.000000000000000e+00
0.000000000000000e+00 0.000000000000000e+00 0.000000000000000e+00
0.000000000000000e+00 0.000000000000000e+00 0.000000000000000e+00
0.000000000000000e+00 0.000000000000000e+00 0.000000000000000e+00
0.000000000000000e+00 0.000000000000000e+00 0.000000000000000e+00
0.000000000000000e+00 0.000000000000000e+00 0.000000000000000e+00
0.000000000000000e+00 0.000000000000000e+00 0.000000000000000e+00
0.000000000000000e+00 0.000000000000000e+00 0.000000000000000e+00
0.000000000000000e+00 0.000000000000000e+00 0.000000000000000e+00
0.000000000000000e+00 0.000000000000000e+00 0.000000000000000e+00
0.000000000000000e+00 0.000000000000000e+00 0.000000000000000e+00
0.000000000000000e+00 0.000000000000000e+00 0.000000000000000e+00
0.000000000000000e+00 0.000000000000000e+00 0.000000000000000e+00
0.000000000000000e+00 0.000000000000000e+00 0.000000000000000e+00
0.000000000000000e+00 0.000000000000000e+00 0.000000000000000e+00
0.000000000000000e+00 0.000000000000000e+00 0.000000000000000e+00
0.000000000000000e+00 0.000000000000000e+00 0.000000000000000e+00
0.000000000000000e+00 0.000000000000000e+00 0.000000000000000e+00
0.000000000000000e+00 0.000000000000000e+00 0.000000000000000e+00
0.000000000000000e+00 0.000000000000000e+00 0.000000000000000e+00
0.000000000000000e+00 0.000000000000000e+00 0.000000000000000e+00
0.000000000000000e+00 0.000000000000000e+00 0.000000000000000e+00
0.000000000000000e+00 0.000000000000000e+00 0.000000000000000e+00
0.000000000000000e+00 0.000000000000000e+00 0.000000000000000e+00
0.000000000000000e+00 0.000000000000000e+00 0.000000000000000e+00
0.000000000000000e+00 0.000000000000000e+00 0.000000000000000e+00
0.000000000000000e+00 0.000000000000000e+00 0.000000000000000e+00
0.000000000000000e+00 0.000000000000000e+00 0.000000000000000e+00
0.000000000000000e+00 0.000000000000000e+00 0.000000000000000e+00
0.000000000000000e+00 0.000000000000000e+00 0.000000000000000e+00
0.000000000000000e+00 0.000000000000000e+00 0.000000000000000e+00
0.000000000000000e+00 0.000000000000000e+00 0.000000000000000e+00
0.000000000000000e+00 0.000000000000000e+00 0.000000000000000e+00
0.000000000000000e+00 0.000000000000000e+00 0.000000000000000e+00
0.000000000000000e+00 0.000000000000000e+00 0.000000000000000e+00
0.000000000000000e+00 0.000000000000000e+00 0.000000000000000e+00
0.000000000000000e+00 0.000000000000000e+00 0.000000000000000e+00
0.000000000000000e+00 0.000000000000000e+00 0.000000000000000e+00
0.000000000000000e+00 0.000000000000000e+00 0.000000000000000e+00
0.000000000000000e+00 0.000000000000000e+00 0.000000000000000e+00
0.000000000000000e+00 0.000000000000000e+00 0.000000000000000e+00
0.000000000000000e+00 0.000000000000000e+00 0.000000000000000e+00
0.000000000000000e+00 0.000000000000000e+00 0.000000000000000e+00
0.000000000000000e+00 0.000000000000000e+00 0.000000000000000e+00
0.000000000000000e+00 0.000000000000000e+00 0.000000000000000e+00
0.000000000000000e+00 0.000000000000000e+00 0.000000000000000e+00
0.000000000000000e+00 0.000000000000000e+00 0.000000000000000e+00
0.000000000000000e+00 0.000000000000000e+00 0.000000000000000e+00
0.000000000000000e+00 0.000000000000000e+00 0.000000000000000e+00
0.000000000000000e+00 0.000000000000000e+00 0.000000000000000e+00
0.000000000000000e+00 0.000000000000000e+00 0.000000000000000e+00
0.000000000000000e+00 0.000000000000000e+00 0.000000000000000e+00
0.000000000000000e+00 0.000000000000000e+00 0.000000000000000e+00
0.000000000000000e+00 0.000000000000000e+00 0.000000000000000e+00
0.000000000000000e+00 0.000000000000000e+00 0.000000000000000e+00
0.000000000000000e+00 0.000000000000000e+00 0.000000000000000e+00
0.000000000000000e+00 0.000000000000000e+00 0.000000000000000e+00
0.000000000000000e+00 0.000000000000000e+00 0.000000000000000e+00
0.000000000000000e+00 0.000000000000000e+00 0.000000000000000e+00
0.000000000000000e+00 0.000000000000000e+00 0.000000000000000e+00
0.000000000000000e+00 0.000000000000000e+00 0.000000000000000e+00
0.000000000000000e+00 0.000000000000000e+00 0.000000000000000e+00
0.000000000000000e+00 0.000000000000000e+00 0.000000000000000e+00
0.000000000000000e+00 0.000000000000000e+00 0.000000000000000e+00
0.000000000000000e+00 0.000000000000000e+00 0.000000000000000e+00
0.000000000000000e+00 0.000000000000000e+00 0.000000000000000e+00
0.000000000000000e+00 0.000000000000000e+00 0.000000000000000e+00
0.000000000000000e+00 0.000000000000000e+00 0.000000000000000e+00
0.000000000000000e+00 0.000000000000000e+00 0.000000000000000e+00
0.000000000000000e+00 0.000000000000000e+00 0.000000000000000e+00
0.000000000000000e+00 0.000000000000000e+00 0.000000000000000e+00
0.000000000000000e+00 0.000000000000000e+00 0.000000000000000e+00
0.000000000000000e+00 0.000000000000000e+00 0.000000000000000e+00
0.000000000000000e+00 0.000000000000000e+00 0.000000000000000e+00
0.000000000000000e+00 0.000000000000000e+00 0.000000000000000e+00
0.000000000000000e+00 0.000000000000000e+00 0.000000000000000e+00
0.000000000000000e+00 0.000000000000000e+00 0.000000000000000e+00
0.000000000000000e+00 0.000000000000000e+00 0.000000000000000e+00
0.000000000000000e+00 0.000000000000000e+00 0.000000000000000e+00
0.000000000000000e+00 0.000000000000000e+00 0.000000000000000e+00
0.000000000000000e+00 0.000000000000000e+00 0.000000000000000e+00
0.000000000000000e+00 0.000000000000000e+00 0.000000000000000e+00
0.000000000000000e+00 0.000000000000000e+00 0.000000000000000e+00
0.000000000000000e+00 0.000000000000000e+00 0.000000000000000e+00
0.000000000000000e+00 0.000000000000000e+00 0.000000000000000e+00
0.000000000000000e+00 0.000000000000000e+00 0.000000000000000e+00
0.000000000000000e+00 0.000000000000000e+00 0.000000000000000e+00
0.000000000000000e+00 0.000000000000000e+00 0.000000000000000e+00
0.000000000000000e+00 0.000000000000000e+00 0.000000000000000e+00
0.000000000000000e+00 0.000000000000000e+00 0.000000000000000e+00
0.000000000000000e+00 0.000000000000000e+00 0.000000000000000e+00
0.000000000000000e+00 0.000000000000000e+00 0.000000000000000e+00
0.000000000000000e+00 0.000000000000000e+00 0.000000000000000e+00
0.000000000000000e+00 0.000000000000000e+00 0.000000000000000e+00
0.000000000000000e+00 0.000000000000000e+00 0.000000000000000e+00
0.000000000000000e+00 0.000000000000000e+00 0.000000000000000e+00
0.000000000000000e+00 0.000000000000000e+00 0.000000000000000e+00
7.010486984749995e-03 4.324882866641394e-04 2.771183718335523e-19
6.150262234404224e-03 3.794196297744786e-04 2.382758154051028e-19
 7.703898164509635e-03 -9.838403798440489e-05  3.080594359145236e-19
 8.005031754610164e-03 -1.022297194737210e-04  3.204554678609060e-19
 6.338327027464656e-03 -1.499053525723987e-03  2.617314008389912e-19
 7.486491637411024e-03 -1.770601553964504e-03  3.179258060214800e-19
7.749085778075701e-03 1.088960401740604e-03 3.040184324908792e-19
6.336549669661237e-03 8.904600970409057e-04 2.386152457721196e-19
 6.140376880252745e-03 -9.451963833354247e-04  2.497181557568464e-19
 6.875265011202559e-03 -1.058318691147466e-03  2.881795685736341e-19
6.957157743133062e-03 4.854619689423114e-04 2.759404125790257e-19
6.035563204623278e-03 4.211542278000271e-04 2.327028910008597e-19
 5.954164184348919e-03 -1.136270054230975e-03  2.478188585238431e-19
 6.668748840848791e-03 -1.272638673109180e-03  2.838930094091973e-19
 6.911524194075822e-03 -1.629821551209201e-04  2.817406581539815e-19
 6.366695152279726e-03 -1.501344229983145e-04  2.533096633768077e-19
 6.475385735003564e-03 -1.716916535760177e-03  2.705037469426648e-19
 7.547101181150369e-03 -2.001076591457313e-03  3.204866228653178e-19
8.045885431916464e-03 3.268390176075501e-04 3.227400959252419e-19
7.099451819067697e-03 2.883931020061176e-04 2.779326446370081e-19
 6.839136941411044e-03 -1.065527856638806e-03  2.794870567038142e-19
 7.332600009718067e-03 -1.142408704325869e-03  3.061613682610923e-19
7.449155669228670e-03 2.666087522694997e-04 2.987127310134864e-19
6.839746193802732e-03 2.447977031950826e-04 2.680699835025686e-19
 6.931589731311708e-03 -1.042471817178808e-03  2.801497551221535e-19
 7.698756263690743e-03 -1.157849316437784e-03  3.184574367879872e-19
7.689120049341207e-03 1.058547741345863e-03 3.029456647780613e-19
6.609169843975221e-03 9.098728808520268e-04 2.525865520683128e-19
 6.501631374744852e-03 -5.896766557644495e-04  2.608479626328466e-19
 7.091122287667105e-03 -6.431415494349500e-04  2.918727260720950e-19
6.992720887814226e-03 7.979195636268669e-04 2.756825135487469e-19
6.116470202574635e-03 6.979330811672952e-04 2.330281067038468e-19
 6.385764651206512e-03 -1.279621891084254e-03  2.587634285023023e-19
 7.589048588897794e-03 -1.520743910444756e-03  3.181704261040210e-19
7.637121400645253e-03 1.525276728718363e-03 2.978874416772283e-19
6.042702065203555e-03 1.206841210859193e-03 2.244224972667884e-19
 5.924545895252863e-03 -8.247551826592676e-04  2.384156767950407e-19
 6.754937961949236e-03 -9.403539429280910e-04  2.815841606066991e-19
6.767878068391681e-03 9.958060466587688e-04 2.644111095235316e-19
5.710367115057658e-03 8.402069369974821e-04 2.145543717120077e-19
 5.785392962792886e-03 -7.556741307381024e-04  2.317785841900575e-19
 6.674327192115600e-03 -8.717845843143632e-04  2.759740022844554e-19
6.672616415034701e-03 9.820630004655319e-04 2.601319883582196e-19
5.533148892025305e-03 8.143583363613219e-04 2.068500999870807e-19
 5.665982885642133e-03 -1.135983353530824e-03  2.313052963642172e-19
 6.775372767495250e-03 -1.358406976015494e-03  2.864833350750461e-19
7.022216347896562e-03 8.843614724355185e-04 2.771680245480509e-19
5.885938977066904e-03 7.412613628720927e-04 2.236671499003730e-19
 5.944274291152745e-03 -1.150796520770853e-03  2.435293697786105e-19
 6.986280392156780e-03 -1.352526275644750e-03  2.961561437843427e-19
7.185609723577748e-03 8.097290179059860e-04 2.866105156560232e-19
6.040134414811429e-03 6.806481698661222e-04 2.323157292433662e-19
 6.150696881633309e-03 -1.570984657736390e-03  2.565306421974460e-19
 7.494854838936604e-03 -1.914303726963065e-03  3.183559336430046e-19
8.536261098767555e-03 4.017651555642252e-05 3.448267323313285e-19
8.400207744207773e-03 3.953617083726161e-05 3.376063184196749e-19
7.746980657511963e-03 1.166142891598962e-03 3.069501177125761e-19
6.831078169400802e-03 1.028273284957702e-03 2.663608118006698e-19
 6.761368655011666e-03 -1.424435490292012e-04  2.729003379040746e-19
 7.225830211814865e-03 -1.522284839905032e-04  2.967169943767445e-19
7.106501548236232e-03 9.588859188280686e-04 2.832624599311928e-19
6.429775051846256e-03 8.675746732198479e-04 2.506752546545532e-19
 6.712197842581448e-03 -6.877935873742694e-04  2.742226794363570e-19
 7.704361142469382e-03 -7.894597735170442e-04  3.228384532431122e-19
7.691504759160823e-03 1.468662524443580e-03 3.059533919985589e-19
6.509965802764028e-03 1.243052316718833e-03 2.510559158899101e-19
 6.357915872652843e-03 -4.873944064120525e-04  2.638878175300818e-19
 6.881587289307600e-03 -5.275387751623907e-04  2.873876244608241e-19
 7.579690166728207e-03 -1.108905957154634e-03  3.150469808750264e-19
 8.421551904638568e-03 -1.232070027945712e-03  3.560843958660880e-19
7.779434641804476e-03 2.146538672473073e-03 3.063492592838381e-19
5.655114016715772e-03 1.560386004002633e-03 2.080984286204890e-19
 5.859997868557425e-03 -1.426517198515334e-03  2.465629668210741e-19
 7.349845439445936e-03 -1.789195348014720e-03  3.237352513717625e-19
7.476766946367546e-03 1.924948852900164e-03 2.952491655271324e-19
5.467529242194297e-03 1.407655771332187e-03 2.020149915130083e-19
 5.458061788653704e-03 -1.171598885609218e-03  2.331805170516061e-19
 6.656470216880719e-03 -1.428842946483398e-03  2.942776474816214e-19
7.142101302114096e-03 5.079754041955986e-04 2.924112285630357e-19
6.331620386916712e-03 4.503306924959277e-04 2.505515527957299e-19
 6.526116273290933e-03 -1.739363269721703e-03  2.781097215707179e-19
 7.851701943746379e-03 -2.092662985740542e-03  3.436331082626369e-19
8.250437883760739e-03 9.288833842883598e-04 3.366306436047885e-19
6.930110516382351e-03 7.802330737644852e-04 2.743866405361924e-19
 6.837813961251183e-03 -1.263846621921298e-03  2.885066464288388e-19
 7.820828522338783e-03 -1.445539139350169e-03  3.389516230345226e-19
7.983734789702494e-03 8.849647896593661e-04 3.264631885386532e-19
6.818908747749191e-03 7.558485226039365e-04 2.714180129093329e-19
 6.785692619173983e-03 -1.313791227084051e-03  2.900510797724401e-19
 7.804631885686735e-03 -1.511070052460445e-03  3.386257449619851e-19
 8.430786462694937e-03 -6.288812911008376e-05  3.500816058810638e-19
 8.104881688765130e-03 -6.045709357251200e-05  3.353947172585141e-19
7.444804192940089e-03 5.287347603911744e-04 3.053004694198231e-19
6.684430572693190e-03 4.747325390446049e-04 2.697851949864987e-19
 6.895120788749735e-03 -1.181922537163936e-03  2.918487456961467e-19
 7.918536439176723e-03 -1.357350649184766e-03  3.418406581734661e-19
7.932254064679749e-03 1.142017039529985e-03 3.212608411862979e-19
6.537439797075130e-03 9.412037968381268e-04 2.569681062681837e-19
 6.304025244684797e-03 -9.590922141002138e-04  2.697622116777791e-19
 6.988206200146660e-03 -1.063183267347881e-03  3.042752496148901e-19
 7.275675929682004e-03 -1.510418985356334e-04  3.045989854880599e-19
 6.881146211341701e-03 -1.428515230622370e-04  2.829515030872920e-19
 6.972046854638958e-03 -1.350134155746192e-03  2.962036588027053e-19
 7.693227416778189e-03 -1.489790490493363e-03  3.331274865545240e-19
7.552149176405429e-03 9.242496433829215e-04 3.060216218013072e-19
6.128459828904039e-03 7.500152180583775e-04 2.390437579887631e-19
 6.088259343923679e-03 -1.617623213124818e-03  2.625193769558348e-19
 7.272203591366029e-03 -1.932191891875298e-03  3.210359624291451e-19
7.814609447174617e-03 6.332795418051033e-04 3.180015640055302e-19
6.777377523940194e-03 5.492244445501774e-04 2.694287628750567e-19
 6.226135833855331e-03 -4.816085339421060e-04  2.615575969494509e-19
 6.265601581657858e-03 -4.846613168314146e-04  2.618557164806871e-19
 6.842389808587717e-03 -1.912232413882229e-03  2.918649499111009e-19
 8.109144830151203e-03 -2.266250539193004e-03  3.511645367489104e-19
8.299183593822371e-03 1.368359676657568e-03 3.319605456780088e-19
6.521308661767494e-03 1.075225738883848e-03 2.497356226044459e-19
 6.246713481544733e-03 -1.169799550688628e-03  2.625879876517341e-19
 7.088195924160267e-03 -1.327380939076653e-03  3.072260936282306e-19
7.182730832754595e-03 5.933641690148808e-04 2.898063731235973e-19
6.060499107200121e-03 5.006567975734823e-04 2.358030229757660e-19
 6.048012409746322e-03 -1.520831816468912e-03  2.573593227167224e-19
 7.099839932691503e-03 -1.785324124678281e-03  3.116739033945202e-19
7.137959002049536e-03 1.091532180153410e-03 2.825100902187708e-19
5.367091361274836e-03 8.207322195284019e-04 1.996508712080741e-19
 5.209317939365441e-03 -1.818162189180084e-03  2.330901263933465e-19
 6.545650470700486e-03 -2.284570519200472e-03  2.940012739091246e-19
 7.795218107223472e-03 -8.428092506560039e-04  3.198320618066517e-19
 7.843297651165849e-03 -8.480075509273466e-04  3.194850091595906e-19
7.239125246023170e-03 6.202712408773032e-04 2.854367399367957e-19
6.041152121292585e-03 5.176250990630685e-04 2.311386962584950e-19
 5.917176121975594e-03 -1.330391995459460e-03  2.496436355610619e-19
 6.770739446846306e-03 -1.522303439637772e-03  2.920370402983272e-19
 7.171020616866984e-03 -1.704959491355500e-05  2.893524243731127e-19
 6.612338016817529e-03 -1.572128859217999e-05  2.579874281951516e-19
 6.828739775768345e-03 -1.862911122672213e-03  2.824509512671192e-19
 8.039972275832020e-03 -2.193340831608780e-03  3.431128412714392e-19
8.242568534533836e-03 1.291099510889512e-03 3.204810369681570e-19
6.512928968169475e-03 1.020172215739704e-03 2.388258775753027e-19
 6.319490215078115e-03 -1.588343408485636e-03  2.635447026953569e-19
 7.418690630905597e-03 -1.864616917212427e-03  3.177482885369320e-19
 8.135831916236730e-03 -5.237515812394725e-06  3.219260229705892e-19
 7.643002350402556e-03 -4.920252295836476e-06  2.977202545577356e-19
6.874324507352450e-03 2.839496477057393e-04 2.647473601980046e-19
5.990731273609429e-03 2.474520998858539e-04 2.244935851325994e-19
 5.888734521691020e-03 -1.351054750425253e-03  2.460471897750530e-19
 6.664764040249643e-03 -1.529099517710461e-03  2.787466198796128e-19
 7.366901986630045e-03 -1.077502849457226e-03  2.925996348987151e-19
 7.533976893704269e-03 -1.101939673616418e-03  2.988182666821575e-19
7.086560013867621e-03 1.936662067940750e-04 2.650811315303841e-19
6.032055690042832e-03 1.648480140399802e-04 2.142994701945513e-19
 5.969488007789118e-03 -1.579458663962875e-03  2.361077443269903e-19
 6.904486187691065e-03 -1.826848553030195e-03  2.815444237425701e-19
7.112558914120202e-03 6.424725664375258e-04 2.516307345634452e-19
5.773450661233560e-03 5.215118367820197e-04 1.844585389632922e-19
 5.744329066647507e-03 -1.835790240051602e-03  2.218672378496888e-19
 7.046834868844794e-03 -2.252049025288616e-03  2.850305013365909e-19
7.546542094792510e-03 7.282201026606722e-04 2.565367071422311e-19
6.067574240480933e-03 5.855038613450894e-04 1.817401740503974e-19
 5.919013962796652e-03 -1.946360935962196e-03  2.209154697717131e-19
 7.227789979340100e-03 -2.376728312781290e-03  2.805183800522432e-19
8.191858189683682e-03 9.357639923100576e-05 2.720928357052897e-19
7.558745930530730e-03 8.634429582433919e-05 2.363637257082226e-19
6.896003658214286e-03 1.805230078877443e-04 2.045301744394921e-19
6.369132443724909e-03 1.667306172332242e-04 1.746592516535983e-19
 6.438245472381959e-03 -9.200266886928705e-04  1.946693402654215e-19
 7.040278178561097e-03 -1.006057294317772e-03  2.182935079984162e-19
7.116268255514583e-03 4.062537415952840e-04 1.816563595125153e-19
6.488762192870292e-03 3.704306561423968e-04 1.393603994133123e-19
 6.736694701933761e-03 -1.161712008134004e-03  1.777789823493635e-19
 7.864147795498933e-03 -1.356136107095549e-03  2.206542383849131e-19
8.517031015405258e-03 4.793161613403581e-04 1.898179825072561e-19
8.189786010926172e-03 4.608996710069295e-04 1.579893797033916e-19
7.540862614074386e-03 9.959324636500332e-04 9.651193486358442e-20
6.737768833430524e-03 8.898667244326330e-04 3.457528704596835e-20
 6.834470140413914e-03 -6.771224859810825e-04  7.814147562420865e-20
 7.547785175285823e-03 -7.477938971917399e-04  8.996466301251779e-20
7.739338824810734e-03 4.353044814483891e-04 1.222494868918757e-20
 7.279958233634818e-03  4.094663013976303e-04 -4.905342530681722e-20
 6.766800353112152e-03  4.750087712601469e-04 -1.237210535136836e-19
 6.276686237343514e-03  4.406042533551015e-04 -2.045881207189871e-19
 6.409695659382343e-03 -6.809799549327740e-04 -1.502272736549546e-19
 7.049078937510610e-03 -7.489094197720633e-04 -1.778384400384604e-19
 7.079817319120472e-03  5.786327113965998e-04 -3.824013220889728e-19
 6.402505487229555e-03  5.232760879015850e-04 -5.379622203250815e-19
 6.555857035431878e-03 -8.692628673787209e-04 -4.785159973789031e-19
 7.414670788154300e-03 -9.831358364201502e-04 -5.583835306806654e-19
 7.369088657754449e-03  1.069364109630573e-03 -1.114360019958803e-18
 6.195064268317364e-03  8.989957500948448e-04 -1.507626732463136e-18
 6.262826432009796e-03 -1.070464889685672e-03 -1.245371775783626e-18
 7.268072347407670e-03 -1.242285148416368e-03 -1.504352139415127e-18
 7.324985990165483e-03  1.074949255381377e-03 -3.002471382406320e-18
 6.042530943157994e-03  8.867476533999317e-04 -4.143316188459331e-18
 6.140710856877550e-03 -1.410235255418391e-03 -3.442633338432451e-18
 7.439939857369279e-03 -1.708607639993927e-03 -4.430947568366690e-18
 8.505739650578945e-03 -1.464562587063684e-04 -8.331734212340736e-18
 8.609449509407200e-03 -1.482419891118268e-04 -1.226032003305150e-17
 7.803657963587109e-03  1.653443768008774e-03 -2.341936718426073e-17
 6.401090237869359e-03  1.356266870184789e-03 -3.844484592061293e-17
 6.318622248248236e-03 -5.142519904581197e-04 -5.354520758517672e-17
 6.994110919381473e-03 -5.692278032246582e-04 -9.432395278291009e-17
 7.297873572003292e-03  2.396365312726552e-04 -1.839589373495849e-16
 7.090036890429363e-03  2.328119047630013e-04 -2.384586374615809e-16
 7.079290360402351e-03 -2.439997386530561e-04  3.245427649979480e-15
 7.308640731476366e-03 -2.519046878433107e-04 -2.576872060316604e-15
 7.644530477573815e-03 -2.634816971329734e-04 -2.551220717598085e-15
 8.063720173450839e-03 -2.779297803493789e-04  3.272614922807696e-15
 7.741652080862855e-03  1.447986147935836e-03 -2.877340598797920e-16
 6.781036930135540e-03  1.268314235891524e-03 -1.782145484411424e-16
 6.965826932762195e-03 -4.072165389417535e-04 -8.076476427924373e-17
 7.856027975446897e-03 -4.592569630096336e-04 -5.135907790935927e-17
 7.905833803791633e-03  1.379020439909299e-03 -3.331447009446062e-17
 7.122671372060589e-03  1.242412837481808e-03 -2.067120151721798e-17
 7.274123952245818e-03 -1.509510158329190e-04 -1.350221315200255e-17
 8.023889008763252e-03 -1.665099749131240e-04 -9.371138581687910e-18
 7.806391653586586e-03  1.707984001239080e-03 -6.614806720266783e-18
 6.786711686237407e-03  1.484885142265456e-03 -4.829233146074532e-18
 7.201976127369840e-03 -5.834583796329283e-04 -3.606882532595218e-18
 8.477731255394243e-03 -6.868119601837919e-04 -2.687877626631222e-18
 8.107557064626703e-03  2.805166446277955e-03 -2.013462165171693e-18
 6.445522669146208e-03  2.230112446460512e-03 -1.624558249447844e-18
 6.558827586749491e-03  2.160027453549591e-04 -1.337146682739202e-18
 7.358876802325815e-03  2.423508730802091e-04 -1.026217498518569e-18
 6.797660419736578e-03  2.101654552136891e-03 -8.134250761483881e-19
 5.239658071970655e-03  1.619961951412788e-03 -7.196472406495283e-19
 5.688794325685959e-03 -9.314748048397200e-04 -5.423512378568790e-19
 7.188920539362880e-03 -1.177103261788929e-03 -3.625643395888427e-19
 8.035096571976111e-03  8.233768523201488e-04 -2.757223353172163e-19
 7.777585602451986e-03  7.969890460722224e-04 -2.154219887384085e-19
 7.136757372891936e-03  1.369672513405286e-03 -1.961870375885650e-19
 6.391393709480470e-03  1.226623777274291e-03 -1.773635584204884e-19
 6.744982537532873e-03 -1.504999537836932e-04 -1.083729345104169e-19
 7.782573922498306e-03 -1.736516008954105e-04 -2.214953446784115e-20
 7.636575412178868e-03  2.180535874208021e-03 -7.099583670670942e-21
 6.600607817609932e-03  1.884727297385491e-03 -2.605137310796358e-20
 5.746499928361785e-03  1.370960713343562e-03 -3.610419789356295e-20
 4.744612205369098e-03  1.131937181710842e-03 -6.115738627812496e-20
 5.337366384812534e-03 -1.289250076259326e-03  2.476113938715255e-20
 6.929064913774063e-03 -1.673727607291250e-03  1.172773358619806e-19
7.633505934543473e-03 8.163318110464276e-04 1.206885563945295e-19
6.666991445633512e-03 7.129721582342011e-04 8.769619459255415e-20
 6.272565760307327e-03 -4.024335081511916e-04  1.000985358982766e-19
 6.480537613496618e-03 -4.157765077583526e-04  1.193636264989092e-19
 7.008450899181291e-03 -9.002762155149519e-04  1.514066082313842e-19
 7.807052057195053e-03 -1.002861171675018e-03  1.956340656529499e-19
7.638694143022052e-03 1.453219499408342e-03 1.741449595540594e-19
6.356812036052198e-03 1.209348487045193e-03 1.236389607918885e-19
 5.965692539090154e-03 -1.738621992082206e-05  1.296680899068937e-19
 6.185558053331592e-03 -1.802698881036146e-05  1.439995381529046e-19
 6.906856615130263e-03 -9.630431602520429e-04  1.853870746280684e-19
 8.037240174684589e-03 -1.120655836488209e-03  2.425350257645205e-19
7.841238362454385e-03 1.819693074140456e-03 2.146503608127582e-19
6.231462623970038e-03 1.446117163444330e-03 1.449969832765378e-19
 6.301386907139247e-03 -8.011985767336480e-04  1.774511061874830e-19
 7.394749511275086e-03 -9.402156812531240e-04  2.334716669356547e-19
7.845525186447619e-03 7.341136292096677e-04 2.359704822305858e-19
7.305782780032104e-03 6.836093930501174e-04 2.138698259873361e-19
6.810481368745782e-03 4.516248438294454e-04 2.001857709015948e-19
6.421257138968735e-03 4.258141378792920e-04 1.838921928103070e-19
 6.786928839719265e-03 -1.112101123987602e-03  2.174177168497647e-19
 7.778279074723497e-03 -1.274543037944546e-03  2.675759247072396e-19
7.724222803370124e-03 1.295661699262960e-03 2.421283830326665e-19
6.406626986652098e-03 1.074648080380061e-03 1.836016110009294e-19
 6.272615758774359e-03 -5.023732921050083e-04  1.970966536191447e-19
 6.959127069350361e-03 -5.573559278067014e-04  2.327538324876083e-19
7.002860221255508e-03 8.756467296170364e-04 2.209531440240505e-19
6.254919447809950e-03 7.821232447091198e-04 1.856908904783323e-19
 6.510428710707152e-03 -9.427279187732156e-04  2.145873180283705e-19
 7.541500620533204e-03 -1.092029956910464e-03  2.665628371055122e-19
7.591027010425691e-03 1.258660488475806e-03 2.494151852399552e-19
6.476442615148915e-03 1.073852380497818e-03 1.986091443306948e-19
 6.627617764316174e-03 -6.750827956720517e-04  2.210372616049467e-19
 7.716309312109718e-03 -7.859758736745411e-04  2.726086166508535e-19
8.187291526184862e-03 1.151564527352136e-03 2.782534044814499e-19
7.785151526659276e-03 1.095002457099477e-03 2.607377892064551e-19
6.923765396425324e-03 1.592782931193081e-03 2.228423063068047e-19
5.829579863125727e-03 1.341070179357527e-03 1.746459786202949e-19
 6.044975881299469e-03 -4.664450535167154e-04  2.055104524245767e-19
 6.962978183988407e-03 -5.372803457683961e-04  2.511167991215125e-19
6.987537514802700e-03 9.713783465600744e-04 2.367239999627081e-19
6.070605195839083e-03 8.439102366550470e-04 1.927451131573106e-19
 6.492496305735093e-03 -1.476036283584839e-03  2.330157246239007e-19
 8.015843889434389e-03 -1.822361672182328e-03  3.081255461399112e-19
8.257456906815190e-03 1.878787237839271e-03 2.892942321389010e-19
6.575826478215815e-03 1.496172369403556e-03 2.116423452638906e-19
 6.633187893075747e-03 -9.017742700931312e-04  2.362763826971934e-19
 7.757737025403505e-03 -1.054655432112877e-03  2.934636840851380e-19
7.852040668689551e-03 1.418979102561433e-03 2.767423833382521e-19
6.669050065219170e-03 1.205195321289810e-03 2.217960664166369e-19
 6.783565850946149e-03 -6.676343215024112e-04  2.431113009280937e-19
 7.769880342638851e-03 -7.647067788085351e-04  2.923746631970239e-19
7.709726316992315e-03 1.521381990288059e-03 2.723299119919957e-19
6.522186676513092e-03 1.287041451143855e-03 2.171005334791180e-19
 6.777290146806869e-03 -7.896112441360951e-04  2.450503772873161e-19
 7.976956319541853e-03 -9.293824327206016e-04  3.040073992913207e-19
8.050554774499048e-03 1.765604023160132e-03 2.884092561995949e-19
6.898859253255128e-03 1.513020405916152e-03 2.344313565379513e-19
 7.153776224667174e-03 -3.400719786360977e-04  2.580769321483857e-19
 8.217475386692220e-03 -3.906374796167000e-04  3.105370622467073e-19
7.864678518863421e-03 2.204414702972759e-03 2.789866547271327e-19
6.356475750640523e-03 1.781675954102036e-03 2.095954802664975e-19
 6.507062668923812e-03 -3.121816415813342e-04  2.345924853314939e-19
 7.490199819964848e-03 -3.593484486842306e-04  2.819840419602174e-19
7.639259267906396e-03 1.286539523651696e-03 2.743768716303053e-19
6.968484398062193e-03 1.173573285530628e-03 2.419954431127398e-19
7.121219259222785e-03 4.891825860679099e-05 2.561777061891732e-19
7.791146818512078e-03 5.352023593682293e-05 2.892668192921060e-19
7.175541965661862e-03 2.083677631384405e-03 2.492848132607186e-19
5.644429436330148e-03 1.639063838618911e-03 1.806208056691039e-19
5.218737710392336e-03 1.879222140989783e-04 1.824073516580198e-19
5.317970328559735e-03 1.914954945264888e-04 1.851686056055216e-19
 6.122706953699459e-03 -1.341727049436871e-03  2.287796637260715e-19
 7.602635154439585e-03 -1.666037801719029e-03  2.970836772535985e-19
7.705319374459818e-03 2.102068329186967e-03 2.759059384197566e-19
5.934374315990385e-03 1.618941369845359e-03 1.941396995884422e-19
 5.954337372002841e-03 -5.475058907491337e-04  2.145033896618557e-19
 6.926607462763076e-03 -6.369068717203154e-04  2.637887705399232e-19
7.021448223877254e-03 1.207151855603749e-03 2.519542875375597e-19
6.105907200735515e-03 1.049748851304927e-03 2.086354675231715e-19
 6.329214367417702e-03 -6.041715048609566e-04  2.318215225816076e-19
 7.342029676984180e-03 -7.008524061868903e-04  2.812814980670140e-19
7.426581857285329e-03 1.438539993699660e-03 2.695217648493225e-19
6.465022487534741e-03 1.252284508163480e-03 2.246376264255903e-19
 6.507466333538161e-03 -1.819869028206792e-04  2.391145152167974e-19
 7.176926422278462e-03 -2.007089310060580e-04  2.713818284574447e-19
7.471668069858200e-03 6.523095450189337e-04 2.764330570307352e-19
7.319579063136129e-03 6.390315045800816e-04 2.699207642511777e-19
6.805154969455949e-03 9.570719659424729e-04 2.475083011485843e-19
6.024600025346978e-03 8.472952954276188e-04 2.123525930017208e-19
 6.237378515676994e-03 -9.143723855308276e-04  2.415915841213713e-19
 7.190307198439629e-03 -1.054067558865013e-03  2.869484123572583e-19
7.581544480520620e-03 2.178724902523582e-04 2.894129652566795e-19
7.167371819858808e-03 2.059703205553157e-04 2.672063629076843e-19
 7.380331406382589e-03 -9.453900775911280e-04  2.832999394093211e-19
 8.263359500160827e-03 -1.058502342085131e-03  3.267755607384893e-19
8.032570027356170e-03 1.752236366178982e-03 2.989203770835340e-19
6.521109202350448e-03 1.422524130293051e-03 2.291586779839944e-19
 6.519789407139361e-03 -7.133953389438599e-04  2.479494303392495e-19
 7.431986469059334e-03 -8.132079389427792e-04  2.940212786951974e-19
7.516186873899658e-03 1.206254856258398e-03 2.803425367754598e-19
6.603306175583552e-03 1.059748816160829e-03 2.366253750409383e-19
 6.705025915160103e-03 -4.360618311755388e-04  2.521747240744177e-19
 7.501095891948991e-03 -4.878342980108352e-04  2.912646018863977e-19
7.427533075993658e-03 1.425862452400312e-03 2.743734368703844e-19
6.468791576305190e-03 1.241812985103815e-03 2.313574260206260e-19
5.901158045216678e-03 5.336454726178840e-04 2.160970875211488e-19
5.534308044531660e-03 5.004709938977093e-04 1.995126860380383e-19
 5.968578583176631e-03 -1.023743597208388e-03  2.322146636983784e-19
 7.126123405615151e-03 -1.222288206102933e-03  2.829158237524836e-19
7.868475926310625e-03 2.670546253081594e-04 2.991455318410783e-19
7.783043785372209e-03 2.641550741623913e-04 2.942121107241505e-19
7.307921020469293e-03 1.055880777992212e-03 2.715360921486516e-19
6.630308732208366e-03 9.579763550924571e-04 2.408861348429534e-19
 6.752897080991976e-03 -1.782759552537719e-04  2.543892488724613e-19
 7.380643053824078e-03 -1.948483998832571e-04  2.861564086295310e-19
6.967538185917155e-03 1.606312874274487e-03 2.563434989085678e-19
5.709759890320879e-03 1.316341665608140e-03 1.978094783800707e-19
 6.102085011545154e-03 -9.152729853259744e-04  2.320226182888530e-19
 7.544367596629969e-03 -1.131605973941611e-03  3.013513830166676e-19
7.716732105802356e-03 2.088879106295423e-03 2.883298996824256e-19
6.414340868325835e-03 1.736328595679494e-03 2.282496271029099e-19
5.862012882944883e-03 6.732555125607025e-04 2.147880373603565e-19
5.617314036610158e-03 6.451517109311617e-04 2.036519307746422e-19
 6.249609286657286e-03 -9.327812021587528e-04  2.427625402781794e-19
 7.558061930111467e-03 -1.128073415439144e-03  3.037296817708926e-19
7.743076294620257e-03 1.527686927095087e-03 2.922848376134792e-19
6.540175267578419e-03 1.290357976213143e-03 2.367693123694613e-19
 6.448381862486807e-03 -2.520906527046132e-04  2.468609128213384e-19
 7.044127585653327e-03 -2.753805154022162e-04  2.769820137444412e-19
7.102590392387469e-03 7.329077515503859e-04 2.708176132094455e-19
6.619807750651422e-03 6.830899919874014e-04 2.472213058411410e-19
 6.851599695748327e-03 -4.012960568533062e-04  2.648337970685164e-19
 7.627444932073646e-03 -4.467370703233389e-04  3.029569553557933e-19
7.313996436325501e-03 1.549796720443778e-03 2.756234235052956e-19
5.964962121427927e-03 1.263943565442140e-03 2.138681693413530e-19
 6.047111039332071e-03 -8.064271212360973e-04  2.396987125108121e-19
 7.072708458829046e-03 -9.431981461391670e-04  2.869750693769905e-19
 7.854078003852584e-03 -9.037153335141061e-05  3.078706781481396e-19
 8.062303912666467e-03 -9.276744725165089e-05  3.178753359558869e-19
7.265997404128733e-03 1.620312426381407e-03 2.741499416052548e-19
5.761777696110349e-03 1.284872465513123e-03 2.060626635064946e-19
 5.820103480647667e-03 -9.124728670666711e-04  2.351243038096581e-19
 6.846097532284981e-03 -1.073327693274447e-03  2.836358358360664e-19
 7.569668458127804e-03 -1.909051824684349e-04  3.009587918790397e-19
 7.658329551648965e-03 -1.931411935077736e-04  3.032055593905858e-19
7.477723976317953e-03 3.815666965672999e-04 2.927923375877620e-19
7.110507301525821e-03 3.628286883219280e-04 2.743215882301418e-19
 7.378231312641225e-03 -9.258635990920332e-04  2.947106783787124e-19
 8.151128250837582e-03 -1.022851225340568e-03  3.345581588657550e-19
7.790992917452804e-03 1.409876388917544e-03 3.010288729390550e-19
6.276387325069506e-03 1.135789801258082e-03 2.316913382519592e-19
 6.239175643315421e-03 -9.267400377816678e-04  2.502905089513549e-19
 7.208409464296107e-03 -1.070705817754101e-03  2.988961442074010e-19
7.179471422455222e-03 1.206079142077562e-03 2.766088876101001e-19
5.889898820572509e-03 9.894438877800331e-04 2.156538350003949e-19
 6.058437416567824e-03 -1.240313393628561e-03  2.431095171542545e-19
 7.287329147040418e-03 -1.491898211267565e-03  3.047504025930091e-19
7.576398241572426e-03 1.317355141544643e-03 2.929983667422484e-19
6.266406054320707e-03 1.089578711605922e-03 2.322022024093079e-19
 6.197626065930860e-03 -6.677667333650013e-04  2.472956017507198e-19
 6.945310864381142e-03 -7.483264557710396e-04  2.854648509017239e-19
7.101603078033042e-03 3.393578156213967e-04 2.814312983691705e-19
6.458258036667241e-03 3.086148741292025e-04 2.504793258459036e-19
 6.539344752763391e-03 -1.241280623660342e-03  2.697365708462530e-19
 7.441210738878813e-03 -1.412470370649953e-03  3.107953554976510e-19
-6.975103349191020e-03 -3.607345076151725e-04 -3.014404490014370e-19
-7.554729550711028e-03 -3.907112924653100e-04 -3.288372395746954e-19
-7.054692831225177e-03  6.332890427691189e-04 -3.110727999509636e-19
-7.715469653668376e-03  6.926059728439326e-04 -3.441792552522952e-19
-7.723948319660874e-03  7.678294237295708e-04 -3.403095272298980e-19
-7.504600887516445e-03  7.460243306023534e-04 -3.309168351748045e-19
-6.929418501374704e-03  1.358303402255516e-03 -3.153799060501870e-19
-6.308349694811732e-03  1.236561603456396e-03 -2.884363639367663e-19
-6.254810041440385e-03  3.194779040799086e-04 -2.791133871373259e-19
-6.565659040126725e-03  3.353551866716562e-04 -2.965315558869423e-19
-6.303829998056088e-03  1.185401421499353e-03 -2.960830855488043e-19
-5.748963170351076e-03  1.081061690493412e-03 -2.682097164301874e-19
-5.917587807934333e-03 -2.546439945142311e-04 -2.593631560411340e-19
-6.776087690620049e-03 -2.915867229557041e-04 -2.991265656175930e-19
-6.840709979984162e-03  1.030539421720273e-03 -3.137603685006799e-19
-6.357045768855167e-03  9.576763654144104e-04 -2.873774780524740e-19
-6.474166163259446e-03 -1.812260397120280e-04 -2.811601645606202e-19
-7.143625136778179e-03 -1.999656573648747e-04 -3.145723266690724e-19
-6.696995892551924e-03  1.521243567078750e-03 -3.145824998116448e-19
-5.770974305675431e-03  1.310894866763939e-03 -2.693122838707664e-19
-5.868728044824515e-03 -5.478020072414625e-04 -2.526490525380982e-19
-7.030159436112070e-03 -6.562129682812482e-04 -3.065800087816118e-19
-6.953393420185484e-03  1.241905642060182e-03 -3.213979656403449e-19
-6.033592265856392e-03  1.077625243396317e-03 -2.744513122126997e-19
-6.021263416733954e-03 -7.285431844892496e-04 -2.556694478145745e-19
-7.090163726293237e-03 -8.578748515383346e-04 -3.062346453190078e-19
-6.833239571281402e-03  1.259482070015873e-03 -3.152293616143804e-19
-5.741708920313864e-03  1.058294438669799e-03 -2.604854175830205e-19
-5.691506151236608e-03 -9.781673623242275e-04 -2.380457909294569e-19
-7.074999441807999e-03 -1.215940624246725e-03 -3.020805958006806e-19
-6.994239000433457e-03  1.340690334259878e-03 -3.193654314056361e-19
-5.854170895124525e-03  1.122156439565841e-03 -2.675773416649582e-19
-5.207453600533640e-03  1.790233909685791e-05 -2.353572109271780e-19
-5.086765467403240e-03  1.748743383797174e-05 -2.308812806245633e-19
-5.530382740528650e-03 -1.276411606976488e-03 -2.298279724018836e-19
-6.893697109293753e-03 -1.591064383446576e-03 -2.904262067157657e-19
-7.216194299739939e-03  2.404180973440132e-04 -3.199062686802249e-19
-6.363008984475458e-03  2.119929771688080e-04 -2.780019265252182e-19
-6.150328449751837e-03 -1.414936254023048e-03 -2.559048757385994e-19
-7.152197015581802e-03 -1.645424782748063e-03 -3.031824341507148e-19
-7.245555162452753e-03  1.212008108664439e-04 -3.207765191347695e-19
-6.327376668580600e-03  1.058418803935768e-04 -2.759080249953755e-19
-6.294709441749282e-03 -1.915830320126936e-03 -2.599891324551974e-19
-8.125509775160154e-03 -2.473044727130975e-03 -3.442769383224725e-19
-8.370780305264152e-03  1.491098610957184e-03 -3.737766515074363e-19
-7.120510616548772e-03  1.268386351385280e-03 -3.153672179549867e-19
-6.427592606016834e-03  1.617608938670231e-04 -2.860499681236491e-19
-6.283530758134734e-03  1.581353415469012e-04 -2.814632303570021e-19
-6.622432136960483e-03 -8.582801731439848e-04 -2.839054166130771e-19
-7.494822293304708e-03 -9.713436457400035e-04 -3.239983225197359e-19
-7.343862671350910e-03  8.303640386002744e-04 -3.335111123806424e-19
-6.383901281680412e-03  7.218220557093422e-04 -2.859444201972734e-19
-6.222797520754870e-03 -1.233771655197057e-03 -2.614199390656318e-19
-7.332175506844444e-03 -1.453724033459700e-03 -3.134558588797608e-19
-7.457139366620721e-03  4.258622067166005e-04 -3.332648550588520e-19
-6.581685144041675e-03  3.758667796798348e-04 -2.900071304543281e-19
-6.412930254468988e-03 -1.236045126407784e-03 -2.704498351192524e-19
-7.371236829863665e-03 -1.420751668521769e-03 -3.159446901133159e-19
-7.306281739142162e-03  6.118061625020665e-04 -3.293110297564917e-19
-6.307650786133164e-03  5.281837957593420e-04 -2.792107318752129e-19
-6.244011656151468e-03 -1.686523479018653e-03 -2.585696906053697e-19
-7.931348099827273e-03 -2.142277357450243e-03 -3.369065068401174e-19
-7.953978427022387e-03  1.350248201910365e-03 -3.601532010390376e-19
-6.624587277344728e-03  1.124573965305755e-03 -2.950890813291936e-19
-6.298400365837412e-03 -9.781449702742902e-04 -2.676602019964190e-19
-7.348791999417388e-03 -1.141271356900531e-03 -3.162748642606479e-19
-7.902689099763792e-03  1.044546250691612e-04 -3.467927722091238e-19
-7.765623280996403e-03  1.026429431810843e-04 -3.406786053453286e-19
-7.254200631874446e-03  7.792385672809553e-04 -3.280393336955572e-19
-6.582068362775423e-03  7.070388290913753e-04 -2.955761779426216e-19
-6.739553873961385e-03 -1.115020940348291e-03 -2.853827437162229e-19
-8.034755636855694e-03 -1.329304721531913e-03 -3.456831389764292e-19
-7.854697637464885e-03  1.489997572686664e-03 -3.585104517414821e-19
-6.713896501546240e-03  1.273593198910465e-03 -3.030146126702895e-19
-6.417785054413891e-03 -4.659102568506856e-04 -2.786917380681261e-19
-7.043746396886389e-03 -5.113530081078939e-04 -3.099564631634685e-19
-7.185085119944906e-03  4.201171359452714e-04 -3.244677322289874e-19
-6.854366808615929e-03  4.007797965205086e-04 -3.051277248601771e-19
-7.101389706708322e-03 -9.273949461516379e-04 -3.023939535644914e-19
-8.065100343265788e-03 -1.053249238171649e-03 -3.478658872569874e-19
-7.541454583110600e-03  1.359684361282493e-03 -3.467867399762578e-19
-6.120410491975369e-03  1.103477630058964e-03 -2.799463858096898e-19
-5.652139988795452e-03 -1.047291932855438e-03 -2.396201375454608e-19
-6.595927235135061e-03 -1.222167426276112e-03 -2.820854982573094e-19
-7.569756872947392e-03 -1.455384551983372e-03 -3.208429174653763e-19
-8.577269217122109e-03 -1.649091949229474e-03 -3.662038839268274e-19
-8.324205110902452e-03  1.142214217205481e-03 -3.724856832545386e-19
-7.034584885830565e-03  9.652576746590236e-04 -3.115141517994725e-19
-6.839318967342598e-03 -1.161694842333758e-03 -2.891227866858305e-19
-7.981853207275928e-03 -1.355760383078085e-03 -3.431435233077877e-19
-8.098417543656537e-03  9.195865370085027e-04 -3.625883876140729e-19
-7.262107094756681e-03  8.246223263559853e-04 -3.202221137925200e-19
-7.241072462735882e-03 -7.329655233431668e-04 -3.095345629696785e-19
-8.216197344332227e-03 -8.316709185511803e-04 -3.557991659282096e-19
-8.101548756324071e-03  1.496170033967800e-03 -3.660312874963113e-19
-7.326048199088260e-03  1.352952887473948e-03 -3.277690612565059e-19
-7.305333530361860e-03  1.140194198319110e-04 -3.196276583088308e-19
-7.851981431921687e-03  1.225513337177232e-04 -3.483318616317499e-19
-7.344277044664517e-03  1.705541243978386e-03 -3.431936716063713e-19
-6.347919300872366e-03  1.474159827474049e-03 -2.948698488511546e-19
-6.393605481881870e-03 -6.134266339039904e-04 -2.746801932650581e-19
-7.555108728309236e-03 -7.248656378812556e-04 -3.262198879356494e-19
-8.374351850370538e-03  2.368168373948837e-04 -3.628786155996686e-19
-8.640635267019267e-03  2.443470197550464e-04 -3.765026600994668e-19
-7.380564893307086e-03  2.558566249918272e-03 -3.468267714109496e-19
-5.956650740690992e-03  2.064948383761678e-03 -2.809390217955142e-19
-6.040253567246834e-03 -5.946690261307202e-04 -2.566474065555421e-19
-7.504585414791241e-03 -7.388339662307997e-04 -3.252536740744605e-19
-7.530909994055558e-03  1.735698462599340e-03 -3.465008418041787e-19
-6.660025834267086e-03  1.534980050290585e-03 -2.995079412120696e-19
-6.591171602565138e-03 -1.109398538760801e-04 -2.824034721810204e-19
-7.214336553636650e-03 -1.214287066599559e-04 -3.145963046656121e-19
-6.792859057780791e-03  1.510957642884801e-03 -3.138453867831236e-19
-5.941441643747040e-03  1.321574109666053e-03 -2.712885947444017e-19
-6.137883992450251e-03 -4.789242937352205e-04 -2.596489414938614e-19
-7.354000512193148e-03 -5.738149345544343e-04 -3.164921431527891e-19
-7.090226640410592e-03  1.729415837833904e-03 -3.281952090272020e-19
-6.075434373671501e-03  1.481892323111909e-03 -2.747152772030236e-19
-6.292499815508707e-03 -9.298409707972982e-04 -2.582961912461750e-19
-8.025486486877474e-03 -1.185923935617225e-03 -3.381357920570461e-19
-7.822538627122498e-03  2.220733866235611e-03 -3.548284769101392e-19
-6.670510597320608e-03  1.893685604465018e-03 -2.955915619277836e-19
-6.668109150860126e-03 -8.848611167023344e-05 -2.800893336912569e-19
-7.567230154821809e-03 -1.004174882811492e-04 -3.247333595001605e-19
-6.990957185960537e-03  2.139935267647797e-03 -3.212203179800784e-19
-5.814558636193547e-03  1.779839120798027e-03 -2.692979876536628e-19
-5.295186772512259e-03  4.763060614764648e-04 -2.391504071394031e-19
-5.263633010961987e-03  4.734677767219411e-04 -2.374107004179068e-19
-5.941169558035785e-03 -7.972225808849573e-04 -2.420832366590051e-19
-7.372942571001567e-03 -9.893466678156427e-04 -3.045813603962918e-19
-7.366544549126100e-03  1.387176473475479e-03 -3.248448250931826e-19
-6.374393140441656e-03  1.200346802783284e-03 -2.773880363015602e-19
-5.856858525408164e-03  6.623905433112498e-05 -2.476517604639167e-19
-5.824320882976779e-03  6.587106479279662e-05 -2.457345372674045e-19
-6.239477898096606e-03 -9.811033792745418e-04 -2.477932814740844e-19
-7.239054718674157e-03 -1.138278100065251e-03 -2.928039260671781e-19
-7.030577245143920e-03  9.804168657826294e-04 -3.034368400044636e-19
-5.972427639449432e-03  8.328574714724849e-04 -2.500091233273884e-19
-5.821509849904124e-03 -1.164545276436884e-03 -2.226960577342784e-19
-7.081747957734909e-03 -1.416645568886663e-03 -2.804722195761418e-19
-7.080485503914829e-03  8.034699052243451e-04 -3.000771693355370e-19
-5.979866340976939e-03  6.785753095013730e-04 -2.434662493389873e-19
-5.819221880633428e-03 -1.573318171940084e-03 -2.140035341722422e-19
-7.441770943377689e-03 -2.011999833791760e-03 -2.880965097525236e-19
-7.596198818995309e-03  1.022035578334875e-03 -3.154679719546519e-19
-6.476860512065728e-03  8.714334678405548e-04 -2.584152524259392e-19
-6.313526805416559e-03 -9.910720152598929e-04 -2.354255714425372e-19
-7.448588324822395e-03 -1.169249402028314e-03 -2.865756774599278e-19
-7.487689133118887e-03  9.899516056325114e-04 -3.041237305951679e-19
-6.633969543331441e-03  8.770808569082009e-04 -2.600833261080124e-19
-6.522266229789866e-03 -5.602707169463347e-04 -2.409272558985513e-19
-7.308678699157010e-03 -6.278245184172791e-04 -2.742526143215847e-19
-7.658113834772414e-03  4.813095990134154e-04 -2.923572071245810e-19
-7.483903218344681e-03  4.703605267293253e-04 -2.835669621201520e-19
-6.654000115289009e-03  1.506626955532877e-03 -2.634037574729912e-19
-5.684689024465303e-03  1.287151423157034e-03 -2.218371725854982e-19
-5.255383012616198e-03  2.270914088883001e-04 -1.900375020880707e-19
-5.212510292505807e-03  2.252388271850502e-04 -1.839631582831949e-19
-5.738910370696830e-03 -1.120864915897897e-03 -1.778103242498601e-19
-7.130474683881748e-03 -1.392650937305153e-03 -2.350886012229512e-19
-7.366032135514114e-03  6.775981689518670e-04 -2.625761636336689e-19
-6.515526480467595e-03  5.993605148199787e-04 -2.139895499510602e-19
-6.354529958323652e-03 -1.136362141837072e-03 -1.820309600140314e-19
-7.285013827455828e-03 -1.302757870460062e-03 -2.198154442764557e-19
-7.165762312238377e-03  5.711382258380757e-04 -2.289124491678364e-19
-6.150233716910941e-03  4.901967746776663e-04 -1.720690354112436e-19
-5.996338648073407e-03 -1.420146826571038e-03 -1.332638504451674e-19
-7.322078723895793e-03 -1.734129353582269e-03 -1.832106610615691e-19
-7.652276086176186e-03  3.532951913632887e-04 -2.074538181633733e-19
-6.864286710308557e-03  3.169147923546447e-04 -1.557671392675112e-19
-6.760862820350414e-03 -1.235068930485115e-03 -1.192902750146334e-19
-7.814870682156347e-03 -1.427614230869733e-03 -1.504862789875298e-19
-8.064889333346842e-03  4.684948475302672e-04 -1.630426998141679e-19
-7.447206120137538e-03  4.326132140901206e-04 -1.131045937177902e-19
-7.200484974885023e-03 -1.808959062581749e-04 -7.128329525187576e-20
-7.368092271458835e-03 -1.851066606608235e-04 -5.244750468812627e-20
-7.418236461894771e-03  1.442237902740766e-04 -2.708431931394849e-20
-7.319816722249503e-03  1.423103344328749e-04  1.501198617323158e-20
-7.306866965551670e-03  6.507412489007931e-05  6.151198503745065e-20
-7.340370335511155e-03  6.537250208666171e-05  1.101598720288882e-19
-6.990716183361410e-03  6.022187039677067e-04  1.597282447746911e-19
-6.396310923434648e-03  5.510133687952292e-04  2.598734422948373e-19
-6.450796905001189e-03 -7.919660377933391e-04  3.736241716884533e-19
-7.334457163176500e-03 -9.004532408054152e-04  4.428116540450708e-19
-7.444629344727956e-03  5.445008438308022e-04  5.554703702379557e-19
-6.759781446551899e-03  4.944110084360166e-04  7.610510806772800e-19
-6.736120766282860e-03 -9.911489147504840e-04  1.003902912851382e-18
-7.580922910915730e-03 -1.115452613850256e-03  1.232996850318916e-18
-7.468880677254789e-03  8.050877906725477e-04  1.541226937361907e-18
-6.501592075262904e-03  7.008215321564704e-04  2.053088383113890e-18
-6.205629886721551e-03 -9.090194330066374e-04  2.734887762645501e-18
-6.846990868187488e-03 -1.002967929189473e-03  3.591961248028415e-18
-7.013934737948043e-03 -2.753536496014851e-04  4.861151088156319e-18
-6.636946516800709e-03 -2.605538137849263e-04  6.733210495994483e-18
-6.767580264937429e-03 -1.572932054021398e-03  9.455342724736880e-18
-7.897544565242973e-03 -1.835560201493673e-03  1.394239772657367e-17
-7.977195636438027e-03  7.885025463705900e-04  2.145844618522996e-17
-6.983576773285143e-03  6.902887078959287e-04  3.403184197767354e-17
-6.856905722143999e-03 -9.227642337728563e-04  6.044241893061485e-17
-7.819314780159795e-03 -1.052279891852857e-03  1.121554556976112e-16
-7.982744829888784e-03  9.696994997917291e-04  1.806795087166280e-16
-7.463270413861865e-03  9.065966332827264e-04  1.902382535410299e-16
-7.166209878865157e-03  5.944622627517345e-04 -3.207667649984698e-15
-7.066883663506105e-03  5.862228045540269e-04  2.478849854153314e-15
-6.923005622024866e-03  5.742876160039561e-04  2.524984462199348e-15
-6.753278292531021e-03  5.602081382817890e-04 -3.137875620549454e-15
-7.063633318585225e-03 -3.453630800441062e-04  2.348165557679377e-16
-7.834089295896752e-03 -3.830330775314611e-04  1.793269679405327e-16
-7.329184995981675e-03  1.855177855104397e-03  8.073613458157990e-17
-6.274352884251511e-03  1.588176657071095e-03  4.657941429097730e-17
-5.790055597131140e-03  4.500007905383049e-04  3.296123623513898e-17
-5.784086278419832e-03  4.495368574906854e-04  2.102727733877344e-17
-6.401360060943312e-03 -4.384945415084875e-04  1.561715299552544e-17
-7.557029448619226e-03 -5.176581432212254e-04  1.055781740068020e-17
-7.195365939098280e-03  2.040103131607169e-03  4.914727979028189e-18
-6.162108757358102e-03  1.747143575405931e-03  3.789948342607999e-18
-6.051604161389706e-03  6.109571638308196e-06  4.125230733940085e-18
-6.675128474971519e-03  6.739068604808432e-06  3.078917493372747e-18
-6.560309925001352e-03  1.140015763043090e-03  1.893217585960008e-18
-5.927145159692822e-03  1.029987758069674e-03  1.520913315048467e-18
-5.745614464684985e-03 -6.294024838352808e-05  1.549053336346562e-18
-6.045247648909322e-03 -6.622257565329932e-05  1.209253644350597e-18
-6.849087636818987e-03 -1.114059295186459e-03  1.087787571899859e-18
-8.348796900189656e-03 -1.357999091773921e-03  7.770358983088626e-19
-7.826262130352797e-03  2.376222558530190e-03  1.919576325624930e-19
-6.519544538411037e-03  1.979474817669600e-03  1.942629338618810e-19
-6.484504583808357e-03 -8.194555867489143e-05  3.774265918594243e-19
-7.482935314105818e-03 -9.456286242338450e-05  2.387058027968441e-19
-7.463175234242707e-03  1.737624088905536e-03  2.136596968680687e-20
-6.862860643458675e-03  1.597855014600308e-03  1.605106423873451e-20
-6.966726163835485e-03  3.889850238879645e-04  6.285308922537787e-20
-7.512933551936088e-03  4.194823462904176e-04 -9.211656713370492e-21
-6.616922450163269e-03  2.297075752990787e-03 -1.313582892294101e-19
-5.375195326064196e-03  1.866008094259411e-03 -8.725975692713437e-20
-5.468921004832996e-03 -5.457273532921694e-04  4.668904069649144e-20
-6.901080345370117e-03 -6.886382722308946e-04 -4.982740321478809e-20
-7.331376185380736e-03  1.012807949422797e-03 -1.588304751328216e-19
-6.898673421879740e-03  9.530313416578172e-04 -1.487713734416944e-19
-6.897473060502379e-03 -2.521498181434087e-05 -1.283687840371433e-19
-7.314610755314702e-03 -2.673990540541652e-05 -1.659885063076244e-19
-7.001970884945768e-03  1.119667816010420e-03 -2.047864849175530e-19
-6.266215660725137e-03  1.002015021024862e-03 -1.786543665074625e-19
-6.221242277659134e-03 -4.592000145213825e-04 -1.402405397683655e-19
-6.947750816493225e-03 -5.128247918075120e-04 -1.839981094467998e-19
-7.537116352086387e-03 -1.681257744492542e-04 -2.246687526711258e-19
-7.876591494654871e-03 -1.756982356644507e-04 -2.483208541148925e-19
-7.452457331841454e-03  1.140298497906656e-03 -2.679416108660622e-19
-6.654595634893826e-03  1.018217893609947e-03 -2.346038700888324e-19
-6.744468695287707e-03 -6.958842076603404e-04 -2.065843976446377e-19
-7.813810624107197e-03 -8.062173109001038e-04 -2.630648622679473e-19
-7.725824582074364e-03  1.247275181418078e-03 -3.009541644173278e-19
-6.857272328880474e-03  1.107054075222237e-03 -2.594364125302483e-19
-6.946191361240462e-03 -8.096709598704484e-04 -2.327070175642039e-19
-8.144565853736407e-03 -9.493574405852812e-04 -2.940389210804847e-19
-7.679089516093845e-03  1.863966971631699e-03 -3.215130736616650e-19
-6.374480631370654e-03  1.547295591916066e-03 -2.590259437066268e-19
-6.287316991067203e-03 -7.939764231943804e-04 -2.185158360677123e-19
-7.577915867683068e-03 -9.569561300057300e-04 -2.829865843489780e-19
-7.453967665183032e-03  1.507676465782234e-03 -3.167035140854811e-19
-6.461650103027088e-03  1.306965394545224e-03 -2.668515812878653e-19
-6.600913622544291e-03 -8.441492257664395e-04 -2.417239650816965e-19
-8.077632954015599e-03 -1.032997550652617e-03 -3.133511229307545e-19
-7.726351053502137e-03  2.140749759880616e-03 -3.412660139985251e-19
-6.467362087705699e-03  1.791920110857690e-03 -2.801403240657647e-19
-6.322794964571675e-03 -3.160950155593574e-04 -2.464426098479056e-19
-7.180157878463509e-03 -3.589570955611899e-04 -2.904535867761916e-19
-7.051828404480276e-03  1.171633958738078e-03 -3.087855293750672e-19
-6.247273457516573e-03  1.037960272501685e-03 -2.693120264004270e-19
-6.228251729307807e-03 -6.108298541575977e-04 -2.446688443540270e-19
-7.179889976998373e-03 -7.041608685917603e-04 -2.882692450483054e-19
-7.863353682765323e-03  2.991151525490571e-05 -3.232448148563921e-19
-8.107579969366245e-03  3.084053086224431e-05 -3.360211203301956e-19
-7.301649319022825e-03  1.764486612257266e-03 -3.267947353402436e-19
-6.212735642377326e-03  1.501344201495481e-03 -2.759830430783150e-19
-6.279142176574166e-03 -5.729057486017337e-04 -2.516685913509824e-19
-7.484399776772105e-03 -6.828728409659421e-04 -3.098578504245282e-19
-7.247733362233147e-03  1.742983598703764e-03 -3.299058070817450e-19
-6.227488675882123e-03  1.497628304006970e-03 -2.796387024499821e-19
-6.092845753099232e-03 -2.135767669599948e-04 -2.532391238382744e-19
-6.770020768225231e-03 -2.373142545409219e-04 -2.879133340983386e-19
-6.674970945744644e-03  9.382311658580840e-04 -3.011997938869040e-19
-6.016806797592461e-03  8.457198843759550e-04 -2.680298731202616e-19
-6.066940307250070e-03 -6.676017922256143e-04 -2.483398336186884e-19
-6.978684255125303e-03 -7.679294471598453e-04 -2.916181348728899e-19
-6.941948750529805e-03  7.069823146097663e-04 -3.102281968349654e-19
-6.108044204389350e-03  6.220557633803306e-04 -2.680121696849431e-19
-6.071406592557832e-03 -1.374562442926424e-03 -2.406239163914895e-19
-7.454103743370456e-03 -1.687604164720862e-03 -3.050429343268783e-19
-7.642758601425501e-03  6.982156700571906e-04 -3.382262486524003e-19
-6.685681501146525e-03  6.107804567111824e-04 -2.906246059542108e-19
-6.472622225438858e-03 -1.120037265982777e-03 -2.641870058748646e-19
-7.401583545151988e-03 -1.280786844823632e-03 -3.092446631867439e-19
-7.389583116479675e-03  4.745452334464553e-04 -3.278233240037368e-19
-6.494395789299778e-03  4.170579743604155e-04 -2.837454590728746e-19
-6.344137571423395e-03 -1.495625019402976e-03 -2.564701231572405e-19
-7.600922252472844e-03 -1.791910935623770e-03 -3.144178610880436e-19
-8.342268278224997e-03 -2.998116158915356e-04 -3.570060991511542e-19
-8.210767068631058e-03 -2.950856122645655e-04 -3.509307290225143e-19
-7.540555710327639e-03  7.278043271952485e-04 -3.341805603591503e-19
-6.516926158770739e-03  6.290049753056153e-04 -2.882498205930991e-19
-6.251470136684523e-03 -1.003698216505514e-03 -2.606663652931108e-19
-7.058049394452788e-03 -1.133197701393352e-03 -2.974954695346055e-19
-7.714512749358460e-03 -4.621745448414181e-04 -3.288732392642063e-19
-7.983973253767193e-03 -4.783178568073231e-04 -3.420519251896627e-19
-7.125435094294175e-03  1.446060036463411e-03 -3.274204053375002e-19
-5.750570521874902e-03  1.167040343291706e-03 -2.631164542483691e-19
-5.491477436572085e-03 -1.199382675825312e-03 -2.235553649364283e-19
-6.897080649563049e-03 -1.506377680761199e-03 -2.887111002404422e-19
-7.193775544780096e-03  4.132795821233618e-04 -3.205306074297719e-19
-6.340415136474418e-03  3.642543615351133e-04 -2.784069191892083e-19
-6.100107720251415e-03 -1.093272536596922e-03 -2.536716453836420e-19
-6.891287520221277e-03 -1.235069236997099e-03 -2.898521068184279e-19
-7.384215536094698e-03 -5.666082245763308e-04 -3.159186007214149e-19
-7.385624551031524e-03 -5.667163416062105e-04 -3.162499135399988e-19
-7.008993135840712e-03  1.611892843480297e-04 -3.087587604120557e-19
-6.287807977252073e-03  1.446038322948828e-04 -2.747276920649196e-19
-6.251096351995894e-03 -1.533202920464817e-03 -2.562272276370953e-19
-7.464893372088715e-03 -1.830910239511918e-03 -3.128301049667841e-19
-7.498686875090685e-03  6.260530225696608e-04 -3.337445323004275e-19
-6.326995671010677e-03  5.282304528249144e-04 -2.792778338434821e-19
-5.635462149436889e-03 -7.259069095307922e-04 -2.402767862731592e-19
-5.617080059150334e-03 -7.235391025973423e-04 -2.405262440094424e-19
-5.863453598307786e-03 -1.877006149265665e-03 -2.384988709387636e-19
-7.021508509915898e-03 -2.247722170776104e-03 -2.910960843061576e-19
-7.888698195306087e-03 -1.038924806700677e-03 -3.352568130163042e-19
-7.978904426423445e-03 -1.050804775854848e-03 -3.394118211861455e-19
-7.511083490453692e-03  4.841232313873099e-04 -3.312944574852434e-19
-6.515641012645839e-03  4.199624708753243e-04 -2.860559848269055e-19
-6.258453878216649e-03 -1.094279180177881e-03 -2.633414541035052e-19
-7.059915628215436e-03 -1.234413296973914e-03 -3.011695375455207e-19
-7.147174520145344e-03  1.651754091921779e-04 -3.170437815736048e-19
-6.451951758176241e-03  1.491084020323154e-04 -2.829049348283155e-19
-6.442848650090685e-03 -1.374722277670384e-03 -2.690052424865977e-19
-7.612046829824385e-03 -1.624196209464350e-03 -3.230387653349650e-19
-7.667044883348391e-03  6.930809365020904e-04 -3.441328566277711e-19
-6.629931984078366e-03  5.993286250938718e-04 -2.930004057156026e-19
-6.491731591607971e-03 -1.444547254684565e-03 -2.700654101912535e-19
-7.884191784396992e-03 -1.754399028493452e-03 -3.345928622913739e-19
-8.003029763877787e-03  9.611494330254061e-04 -3.596168241920000e-19
-6.856359898349344e-03  8.234364513625764e-04 -3.052057912691981e-19
-6.230670222420721e-03 -5.279471168573351e-04 -2.700513486440105e-19
-6.281211973806246e-03 -5.322297013903582e-04 -2.736570856396588e-19
-6.570102944178696e-03 -1.315890696013063e-03 -2.770547843480020e-19
-7.344275686647744e-03 -1.470945604220333e-03 -3.108618327188373e-19
-7.764335526362121e-03 -5.349774743477419e-04 -3.334981691898381e-19
-7.583868302318654e-03 -5.225429396224559e-04 -3.269717379451425e-19
-6.807182950616808e-03  6.208374565083817e-04 -3.066335224540482e-19
-5.677191506371903e-03  5.177785231418750e-04 -2.549757783960456e-19
-5.439759041459050e-03 -1.419597664336914e-03 -2.241675763243084e-19
-6.737907214706290e-03 -1.758371514549722e-03 -2.833888428751037e-19
-7.206608630938592e-03 -1.381633207577067e-04 -3.155803149512389e-19
-6.587468456566469e-03 -1.262933182521568e-04 -2.847570599887642e-19
-6.505727843509060e-03 -1.235750161306514e-03 -2.732582713363302e-19
-7.335045667984248e-03 -1.393277444958885e-03 -3.119278874960737e-19
-7.347232685979561e-03  4.457416250023650e-04 -3.257479884893913e-19
-6.505615464894713e-03  3.946824243767733e-04 -2.852777393086548e-19
-6.342234432981556e-03 -1.004058316050812e-03 -2.677733652557155e-19
-7.147107577034214e-03 -1.131480217935969e-03 -3.054990749488401e-19
-7.139010656468125e-03  3.828197552535226e-04 -3.173100755644896e-19
-6.314612557564073e-03  3.386125263193594e-04 -2.775313029414272e-19
-6.154398033262809e-03 -1.138900480014983e-03 -2.585567082940368e-19
-7.050259376703592e-03 -1.304683861030829e-03 -3.005065020131989e-19
-7.054235687417585e-03  3.861995934968134e-04 -3.142777969082136e-19
-6.165787629892829e-03  3.375595573733955e-04 -2.713470222765980e-19
-6.007097405116542e-03 -1.274904191362934e-03 -2.511162615119512e-19
-7.078567999814486e-03 -1.502305590071572e-03 -3.004173281416825e-19
-7.292984488266866e-03  2.306089552206393e-04 -3.217246001381154e-19
-6.539636115865353e-03  2.067875853334305e-04 -2.836887132659601e-19
-6.570504576340063e-03 -1.465208830506856e-03 -2.740362535894656e-19
-8.004743750187702e-03 -1.785041177956644e-03 -3.406386232035991e-19
-7.941272006041313e-03  1.734164502395748e-03 -3.563436494692477e-19
-6.842667294022227e-03  1.494258188608882e-03 -3.054898885642871e-19
-6.294335594735778e-03  4.439924027957343e-04 -2.824660587907335e-19
-6.215874574255045e-03  4.384578874390730e-04 -2.820200916925757e-19
-6.486673756084436e-03 -1.065896081414269e-04 -2.859694444708593e-19
-6.934626052759165e-03 -1.139504006776363e-04 -3.074384903499710e-19
-6.580776025404806e-03  9.322049590817710e-04 -3.060834498671644e-19
-5.729768429781100e-03  8.116548145708320e-04 -2.640467826521297e-19
-5.766393341703760e-03 -1.227973357839885e-03 -2.404859316728816e-19
-7.222117381184821e-03 -1.537974814716156e-03 -3.073335768584351e-19
-7.438871375638137e-03  6.694259473607287e-04 -3.359129078262935e-19
-6.519745723078394e-03  5.867135936126342e-04 -2.891195639054680e-19
-6.498610279917303e-03 -1.364302269109756e-03 -2.715562030217298e-19
-7.917572306636181e-03 -1.662195669305741e-03 -3.374543372878842e-19
-7.697083928671389e-03  1.387420860184335e-03 -3.511204829127112e-19
-6.238609142045865e-03  1.124526709390472e-03 -2.805279538380166e-19
-5.813820289023016e-03 -1.105589950510312e-03 -2.445776533551405e-19
-6.913159508302825e-03 -1.314646703663213e-03 -2.965048219154994e-19
-7.131255891954661e-03  3.642980814236861e-04 -3.197914823724995e-19
-6.390568494228198e-03  3.264602865086459e-04 -2.820045946284605e-19
-6.305153092306197e-03 -1.223643143483628e-03 -2.652930959558498e-19
-7.321350605258772e-03 -1.420856930515517e-03 -3.130173724404487e-19
-7.318817774121513e-03  6.372799380986777e-04 -3.288972861730781e-19
-6.389226549539654e-03  5.563365594900046e-04 -2.836480857035562e-19
-6.227108393349536e-03 -1.085880564158599e-03 -2.640269163993085e-19
-7.233968360432299e-03 -1.261456385233466e-03 -3.114021428954371e-19
-7.386729716061257e-03  5.286455734123612e-04 -3.331252583352834e-19
-6.698905217733293e-03  4.794200852325199e-04 -2.976436274831733e-19
-6.746346300243670e-03 -1.278227102310651e-03 -2.847223605513183e-19
-7.951710185944039e-03 -1.506606838286113e-03 -3.403217956541701e-19
-8.099089682706714e-03  6.276877091088741e-04 -3.606785265036673e-19
-7.240503425700109e-03  5.611463986843762e-04 -3.186866383718600e-19
-7.061069275912577e-03 -7.896610583082480e-04 -3.028640533839622e-19
-7.753119225899920e-03 -8.670551291713394e-04 -3.357801808748507e-19
-6.738770064376801e-03  1.776962730275559e-03 -3.846243854055585e-19
-5.297847417381896e-03  1.397002319628021e-03 -3.410679991325819e-19
-7.746491153675220e-03  7.112386774802044e-04 -4.076407712590336e-19
-7.914100692896510e-03  7.266276303162580e-04 -4.131383527501914e-19
-5.704932277460150e-03 -8.784698882002927e-04 -3.262729771626085e-19
-7.121668059768369e-03 -1.096624927342622e-03 -3.686185080727383e-19
-7.245418301351461e-03  1.694975703299245e-03 -3.945763037158490e-19
-5.785373975377711e-03  1.353416450908831e-03 -3.497248809441366e-19
-5.882235821099557e-03 -5.956821317101107e-04 -3.326266818077281e-19
-6.915291395362757e-03 -7.002975815777912e-04 -3.641049406535611e-19
-6.883496040085656e-03  1.400553905895554e-03 -3.805976445596265e-19
-5.719228191806681e-03  1.163665575762159e-03 -3.465398316983009e-19
-6.141371251822356e-03 -9.025947451907642e-04 -3.325536769593185e-19
-7.607342572805113e-03 -1.118047932543143e-03 -3.785909529832306e-19
-7.203139767432356e-03  2.728301300451711e-03 -3.967714890056078e-19
-4.934877272433853e-03  1.869161576015097e-03 -3.293056976287317e-19
-5.389174753778601e-03 -9.767337839915308e-04 -3.128824177930652e-19
-7.128178546978311e-03 -1.291910751321575e-03 -3.666483962541851e-19
-7.870798828301516e-03  1.510854037791590e-03 -4.122900692067695e-19
-7.081478454983368e-03  1.359338556433997e-03 -3.875754310625909e-19
-6.161448910137087e-03  1.350177488581675e-03 -3.622416822887689e-19
-5.162222211810726e-03  1.131213830236575e-03 -3.321179227729407e-19
-5.636310042714328e-03 -8.869459188683128e-04 -3.211998519378593e-19
-6.992636626358007e-03 -1.100381361365019e-03 -3.624020761500088e-19
-7.045232161875786e-03  1.642384339809791e-03 -3.847431217591998e-19
-5.479133029964628e-03  1.277295350583954e-03 -3.380832295460231e-19
-5.676924329099113e-03 -1.047405838068250e-03 -3.175832272868231e-19
-6.950951403254802e-03 -1.282466817917428e-03 -3.569364801858977e-19
-7.049286503833730e-03  1.463262252695651e-03 -3.809613629822220e-19
-5.520165133863291e-03  1.145853451216076e-03 -3.358457537460484e-19
-5.583737355181983e-03 -9.837875181230497e-04 -3.143078323453123e-19
-6.729766190875045e-03 -1.185704046828971e-03 -3.488099889090664e-19
-7.293671188392790e-03  6.297381531691664e-04 -3.811828189370465e-19
-6.787129374411662e-03  5.860031535784150e-04 -3.649450662293217e-19
-6.650197194757143e-03  7.001321126998246e-05 -3.552510847872765e-19
-6.838644041066707e-03  7.199717783179137e-05 -3.600259661032565e-19
-6.360735711498291e-03  1.194331499556694e-03 -3.528458516977201e-19
-5.311006618667379e-03  9.972278029980281e-04 -3.217616605685223e-19
-4.955331325186493e-03 -1.659935927052528e-05 -3.051918597278279e-19
-5.044019887402835e-03 -1.689644804437432e-05 -3.067436425908486e-19
-5.557783775166987e-03 -8.987969796887053e-04 -3.062975893119958e-19
-6.480661664394261e-03 -1.048043494669227e-03 -3.324877899450099e-19
-6.676632236946353e-03  7.060475071893464e-04 -3.554232515522669e-19
-5.864631041070152e-03  6.201791532293006e-04 -3.324869120788812e-19
-5.900494869712701e-03 -5.490996474134966e-04 -3.211526380285687e-19
-6.612206233619015e-03 -6.153314580684163e-04 -3.439873152468539e-19
-6.450066843636999e-03  1.053000117271956e-03 -3.549696961990979e-19
-5.316506141889384e-03  8.679416394590248e-04 -3.231576922090522e-19
-5.576916834346898e-03 -1.070514372860768e-03 -3.067826855189524e-19
-6.855840166926375e-03 -1.316009482431224e-03 -3.469754322274838e-19
-7.091226850119967e-03  1.299312781083799e-03 -3.787451032109788e-19
-5.779204945533198e-03  1.058913359979020e-03 -3.418704780122694e-19
-5.953640225269672e-03 -9.778124070909265e-04 -3.250663421551346e-19
-7.195050802208162e-03 -1.181698872932819e-03 -3.653228363954034e-19
-7.501976822074851e-03  1.137662454207939e-03 -3.954859185357839e-19
-6.376863251810473e-03  9.670408306055858e-04 -3.614385735461991e-19
-6.189062541840314e-03 -5.567044553409023e-04 -3.420047603031776e-19
-6.680430785014777e-03 -6.009028922348550e-04 -3.576046082328100e-19
-6.577557676095117e-03  4.509328961327839e-04 -3.630881782337846e-19
-5.797109929632273e-03  3.974283006699703e-04 -3.393766749437644e-19
-5.914995898617737e-03 -1.246547386688341e-03 -3.221508751922760e-19
-6.896854969977235e-03 -1.453467878346745e-03 -3.528401445935399e-19
-7.213012972434408e-03  4.454538299909683e-04 -3.821349750550018e-19
-6.344987328974860e-03  3.918471958580299e-04 -3.564755751943382e-19
-6.451877798775054e-03 -1.544092527443359e-03 -3.347933575603334e-19
-7.642558045605197e-03 -1.829051500481239e-03 -3.709841749655451e-19
-8.519755282529682e-03  2.680846679461499e-04 -4.187203070674349e-19
-8.359259054681144e-03  2.630344550559260e-04 -4.140164569532527e-19
-7.384900158412228e-03  1.700528058635779e-03 -3.980347465691707e-19
-5.884968030450454e-03  1.355137245634365e-03 -3.519585984065483e-19
-6.045920590499331e-03 -9.439031409613558e-04 -3.307784215679153e-19
-7.170200593752394e-03 -1.119428341880835e-03 -3.646707670076087e-19
-7.207836538267255e-03  1.425091821902412e-03 -3.843422610045167e-19
-5.835492647790401e-03  1.153759911866276e-03 -3.430672547385278e-19
-5.783553463787616e-03 -6.603982761528471e-04 -3.234584771702398e-19
-6.578471218562981e-03 -7.511664030879354e-04 -3.480184548026729e-19
-6.721692400592104e-03  6.699385188050293e-04 -3.653490136756602e-19
-6.032391779020299e-03  6.012372141475113e-04 -3.459479854936168e-19
-6.255037047561538e-03 -8.895068096081952e-04 -3.352197491340591e-19
-7.306345700260058e-03 -1.039009713981865e-03 -3.682459685938520e-19
-7.968413364257954e-03  5.393549938111085e-04 -4.048636005862050e-19
-7.864984670524629e-03  5.323542547783357e-04 -4.032356759481878e-19
-7.046576136903664e-03  1.489275936091573e-03 -3.889816677203484e-19
-5.795315510254591e-03  1.224825186558317e-03 -3.519434862548714e-19
-6.161427024204007e-03 -1.071259435268967e-03 -3.357975505386151e-19
-7.551828529254375e-03 -1.313002253165899e-03 -3.800818628325251e-19
-7.759685462387506e-03  1.510497560340525e-03 -4.113618584488010e-19
-6.399978634271122e-03  1.245817521877184e-03 -3.706392099445223e-19
-6.728476634573009e-03 -1.210348878570711e-03 -3.512537152711317e-19
-8.258383067430052e-03 -1.485555383087933e-03 -4.006160432596349e-19
-8.422639217985074e-03  2.200467186896184e-03 -4.354078299133925e-19
-6.817382613646158e-03  1.781083856686155e-03 -3.847032535764908e-19
-6.115498237529723e-03  4.638941277186834e-04 -3.575464284818973e-19
-5.883765133342671e-03  4.463158990846388e-04 -3.495587120126705e-19
-6.574592062298098e-03 -1.282187940078600e-03 -3.435102123337477e-19
-8.053268412328937e-03 -1.570561874966702e-03 -3.888717009703061e-19
-8.034843835722784e-03  2.152985141665817e-03 -4.189542356822813e-19
-6.177589543533668e-03  1.655322588773333e-03 -3.626431667526192e-19
-6.247527611966906e-03 -7.077193933495430e-04 -3.411285246285491e-19
-7.417649107609203e-03 -8.402706562611309e-04 -3.772478612472787e-19
-7.828663398417720e-03  1.241828692329802e-03 -4.068263382122105e-19
-7.251949342484475e-03  1.150346912429475e-03 -3.889984772087297e-19
-6.703727077163759e-03  1.110322955234810e-03 -3.737348108979076e-19
-6.169415662098661e-03  1.021826179849711e-03 -3.571138559909386e-19
-6.378314070170155e-03 -9.538312249135643e-05 -3.505861104565158e-19
-7.043418388818137e-03 -1.053292816169822e-04 -3.703057360714586e-19
-6.803566341275209e-03  1.408542770096826e-03 -3.750904092453822e-19
-5.779443045704922e-03  1.196518459418482e-03 -3.450188186544028e-19
-6.023362138132742e-03 -5.569077120182290e-04 -3.331681263580375e-19
-7.035924665807447e-03 -6.505271670054605e-04 -3.643409208493626e-19
-7.151061674186700e-03  1.223461465418232e-03 -3.845518560333995e-19
-6.322312395212978e-03  1.081672336263111e-03 -3.609443481807822e-19
-6.626643166564047e-03 -4.185940630509931e-04 -3.536900985180294e-19
-7.663166294014165e-03 -4.840695106433581e-04 -3.864048684042939e-19
-7.340477031483675e-03  1.935578126725524e-03 -3.951818905082508e-19
-5.819485380659592e-03  1.534514523142230e-03 -3.490345528219400e-19
-6.003093066598787e-03 -5.412705688899785e-04 -3.325157591313876e-19
-7.125291925905110e-03 -6.424539435679540e-04 -3.660825059328475e-19
-7.252306580554993e-03  1.501925477209400e-03 -3.863634807575222e-19
-6.316139042569589e-03  1.308048693234684e-03 -3.584997236321434e-19
-5.929020281643951e-03  5.869436890802753e-04 -3.435261717610894e-19
-5.846195801518832e-03  5.787444751121090e-04 -3.410314266625785e-19
-6.330268973645853e-03 -3.166275878228275e-04 -3.420208858168287e-19
-7.251869494381798e-03 -3.627242309562744e-04 -3.697737925392450e-19
-7.050774805218327e-03  1.899117735325161e-03 -3.843523437518403e-19
-5.896672148384884e-03  1.588261569226063e-03 -3.516798842564203e-19
-5.820227669688510e-03  2.990051073044361e-04 -3.400727247290534e-19
-6.217337019467415e-03  3.194059799989213e-04 -3.519480102866458e-19
-6.457025693993381e-03  4.347251336480364e-04 -3.582904905395195e-19
-6.557361910967426e-03  4.414803608069364e-04 -3.617873452833547e-19
-6.189492489042383e-03  1.031103285141970e-03 -3.585028637839403e-19
-5.483277606647696e-03  9.134554349276835e-04 -3.398075940404929e-19
-5.899986082050665e-03 -6.985267431457965e-04 -3.314965970338795e-19
-7.092106899473787e-03 -8.396674611831250e-04 -3.695607983445993e-19
-7.392206062138306e-03  1.221017070908688e-03 -4.020324053715381e-19
-6.565173158196079e-03  1.084410855466618e-03 -3.792031609514676e-19
-6.746883790987174e-03 -4.392295277399769e-04 -3.673260224043069e-19
-7.630051353565464e-03 -4.967247038010679e-04 -3.960942307975409e-19
-7.537248229546654e-03  1.577140213544051e-03 -4.146562940582275e-19
-6.521022973558396e-03  1.364498985813836e-03 -3.852160317255343e-19
-6.707920391006135e-03 -2.362246141933481e-04 -3.721780358522713e-19
-7.575440712496956e-03 -2.667750145117276e-04 -3.991355707394629e-19
-7.233580554476975e-03  1.872594437547687e-03 -4.088158002675140e-19
-5.954653046270362e-03  1.541511854052825e-03 -3.720948439178299e-19
-6.113248852022564e-03 -1.218415137838738e-04 -3.584042020058563e-19
-7.076031288542925e-03 -1.410304708097859e-04 -3.880529090573204e-19
-7.534353130120546e-03  1.156703431397054e-03 -4.151943393998541e-19
-7.514216161254745e-03  1.153611924988641e-03 -4.144819932969811e-19
-6.166803387744568e-03  2.559454989273085e-03 -3.868270454706070e-19
-4.206713384262287e-03  1.745944030125765e-03 -3.304385517050810e-19
-4.740148286325969e-03 -6.341316842004435e-04 -3.121604063043597e-19
-6.314169972423783e-03 -8.447025276596202e-04 -3.608360492604439e-19
-6.533101541959126e-03  1.677052414682450e-03 -4.004101032451960e-19
-5.193782147116456e-03  1.333248049982742e-03 -3.660399305170779e-19
-5.565201125706677e-03 -7.003517466875191e-04 -3.438565976749888e-19
-6.986108741030566e-03 -8.791656130322542e-04 -3.899825072748308e-19
-7.139477524667542e-03  1.811804062842115e-03 -4.365614576347438e-19
-5.896057385484082e-03  1.496258050937385e-03 -4.061942960673466e-19
-5.975368258714831e-03  1.241636149119338e-05 -3.898660072120863e-19
-6.764166434482965e-03  1.405542420162078e-05 -4.187858434684303e-19
-6.529617200239162e-03  1.499919259661583e-03 -4.405278813690461e-19
-5.394103746160009e-03  1.239080308901073e-03 -4.143343322400277e-19
-5.561808744342888e-03 -4.329587883394652e-04 -3.881878555620283e-19
-6.495304423863726e-03 -5.056267237007014e-04 -4.220953506185195e-19
-6.497884909197802e-03  1.216412775851801e-03 -4.655605050789153e-19
-5.437903390693700e-03  1.017982812980334e-03 -4.474765398226593e-19
-4.986714483602961e-03  2.408618077130714e-05 -4.249906641697383e-19
-4.987834832956552e-03  2.409159213727691e-05 -4.367259250559996e-19
-5.744308941505863e-03 -1.664457430515273e-03 -3.980075091426799e-19
-7.382363405265238e-03 -2.139096234165389e-03 -4.548832339710116e-19
-8.116324685994880e-03  1.047617380419899e-03 -5.921777958312628e-19
-6.861648917895706e-03  8.856696772038762e-04 -5.759243141352158e-19
-6.626430333823733e-03 -8.204093560173155e-04 -5.237710420248958e-19
-7.306089840724754e-03 -9.045570781357425e-04 -5.619169175813837e-19
-7.816240009646393e-03  5.480512401340645e-05 -6.392857684258264e-19
-7.873878399498128e-03  5.520926706682586e-05 -6.692804208250615e-19
-7.156561015801499e-03  1.405278821404448e-03 -7.495174834952135e-19
-5.880234035874004e-03  1.154656312895263e-03 -7.644154175770329e-19
-5.820124117140763e-03 -4.860972217574167e-04 -6.954275311896855e-19
-6.517262629750655e-03 -5.443222848899612e-04 -7.626517251614210e-19
-6.731963622211877e-03  5.196852407874024e-04 -9.047412589654175e-19
-6.299964070854376e-03  4.863363097078392e-04 -9.811038548419992e-19
-5.993617974032472e-03  1.601998508605524e-04 -1.043000238729336e-18
-5.846911428005371e-03  1.562786188274743e-04 -1.161381353070316e-18
-6.203723734688665e-03 -7.590049689914211e-04 -1.164734885737772e-18
-7.017013316918711e-03 -8.585082448529690e-04 -1.326994014763628e-18
-7.109129650131088e-03  7.993172117166615e-04 -1.871591276694431e-18
-6.299086847252547e-03  7.082397962757870e-04 -2.196286576665013e-18
-6.200947293934861e-03 -2.942320308372135e-04 -2.286747049679985e-18
-6.636942012508425e-03 -3.149197750477911e-04 -2.760813658232348e-18
-6.556154419490712e-03  5.806260694708994e-04 -3.866251857438299e-18
-5.943585650624750e-03  5.263757614717629e-04 -4.937451567002549e-18
-6.216853718958289e-03 -8.959233528184374e-04 -5.068489244426232e-18
-7.266469248638405e-03 -1.047185567924712e-03 -6.610089804536777e-18
-7.450908871355064e-03  9.994755107138376e-04 -1.191724753120602e-17
-6.401984364074420e-03  8.587712858044383e-04 -1.734457003440989e-17
-6.316528244765706e-03 -7.579302987607497e-04 -2.122779308392045e-17
-6.993272229917879e-03 -8.391338889253267e-04 -3.305658787904161e-17
-7.024048684026303e-03  6.540100406156883e-04 -6.341452344724155e-17
-6.239652014932122e-03  5.809747698636882e-04 -1.070528634135657e-16
-6.262963738451110e-03 -7.158944805982918e-04 -1.806212061617009e-16
-6.982167956532928e-03 -7.981038548896898e-04 -2.408722124269779e-16
-7.227438105875671e-03  4.628168178576715e-04  3.432599405774605e-15
-6.746064503227561e-03  4.319915384551180e-04 -2.694206136042952e-15
-6.149054222580166e-03  3.937613392799181e-04 -2.709936800077008e-15
-5.491257305305604e-03  3.516386020678941e-04  3.374487410128021e-15
-5.748920931353550e-03 -1.468941266283439e-03 -1.831512030312351e-16
-6.905449891343673e-03 -1.764452917124909e-03 -1.831244636830166e-16
-7.378129261518589e-03  3.633852405567827e-04 -1.170234822978341e-16
-6.454681470468234e-03  3.179038880623707e-04 -6.400730001236332e-17
-6.404581725444725e-03 -1.406514739106779e-03 -3.652134772378760e-17
-7.288521310922698e-03 -1.600637338950468e-03 -2.301762051781062e-17
-7.445737070371940e-03  4.963106039324423e-04 -1.528370807372187e-17
-6.329823725714104e-03  4.219271519264293e-04 -1.059513436168816e-17
-6.320890144199437e-03 -1.716092875617289e-03 -7.283047271742494e-18
-7.449940682580697e-03 -2.022624952733990e-03 -5.456499782185778e-18
-7.623105139373178e-03  9.674873404294928e-04 -4.547789831778015e-18
-5.953687440355231e-03  7.556129847490716e-04 -3.596216792790366e-18
-5.797160247628004e-03 -1.895332393390964e-03 -2.576923104666940e-18
-7.038842454922169e-03 -2.301289863817069e-03 -2.171325328932893e-18
-7.579078857387771e-03  4.572435175030483e-04 -2.132761475789729e-18
-6.300362279042141e-03  3.800989360606359e-04 -1.803641265190071e-18
-5.997038250588995e-03 -1.412176645635861e-03 -1.407447719758653e-18
-6.792738072469028e-03 -1.599547253999953e-03 -1.270653685591990e-18
-7.273175027152190e-03 -9.080748227706079e-05 -1.227728615477409e-18
-6.854399207493585e-03 -8.557895722716931e-05 -1.099324870261188e-18
-6.814499217738171e-03 -7.821912819266244e-04 -9.759540598882763e-19
-7.146260901668579e-03 -8.202720107602530e-04 -9.131796662181778e-19
-6.678429884011140e-03  6.408036561696506e-04 -9.203616748284416e-19
-5.344608666623155e-03  5.128218509215103e-04 -8.194569603121340e-19
-5.271336679112964e-03 -1.631203074059470e-03 -6.476428159281457e-19
-6.419758802159019e-03 -1.986579672343051e-03 -6.489265373768543e-19
-7.133311710640706e-03 -3.966636256647473e-04 -7.117853033323509e-19
-6.584270856786485e-03 -3.661329907279597e-04 -6.616579405881101e-19
-6.622257362363938e-03 -1.820304239743417e-03 -5.740589410996443e-19
-7.643788807034212e-03 -2.101099430569516e-03 -5.852562261090050e-19
-8.159003480837352e-03  8.569889089285744e-04 -6.675790230773882e-19
-7.247382097789652e-03  7.612358655270251e-04 -6.198726240247351e-19
-7.112950645496897e-03 -2.342474602576136e-04 -5.744943522813452e-19
-7.602800924587406e-03 -2.503794692511077e-04 -5.755270980379803e-19
-6.791619739189996e-03  1.943667541204142e-03 -5.742512108249004e-19
-4.954843633806139e-03  1.418007649515367e-03 -5.054093098024205e-19
-5.192931683733755e-03 -1.029671429276395e-03 -4.399190705812360e-19
-6.551616292271467e-03 -1.299075844356815e-03 -4.737245806698107e-19
-6.919879255030250e-03  9.899613741744949e-04 -5.196026220117762e-19
-5.699248580224421e-03  8.153373416363674e-04 -4.750422056730098e-19
-5.291025078578026e-03 -4.852146191272124e-04 -4.329400826547076e-19
-5.651235796956317e-03 -5.182478223208806e-04 -4.373449491491427e-19
-6.477159867989050e-03 -1.549148232342989e-03 -4.267458733267632e-19
-7.748461683492190e-03 -1.853206646895069e-03 -4.621290356455593e-19
-7.616901697685880e-03  1.724925349171899e-03 -5.103870030707572e-19
-5.519517029969899e-03  1.249951124231208e-03 -4.434668878200730e-19
-5.632601633879967e-03 -1.745581885245250e-03 -3.791301033406576e-19
-7.300834669828188e-03 -2.262578746944657e-03 -4.289924887727371e-19
-8.034918601364741e-03  1.321613603883480e-03 -5.038347914358915e-19
-6.536793427567062e-03  1.075196345882258e-03 -4.545399458659084e-19
-6.429495072031007e-03 -1.024335928239287e-03 -4.134261467469632e-19
-7.436851580619524e-03 -1.184826208227471e-03 -4.421490808806940e-19
-7.931644739379056e-03  8.173452678504410e-04 -4.804577363077840e-19
-7.443587011086495e-03  7.670515787398789e-04 -4.616912569618481e-19
-6.445946494149580e-03  1.353324862198859e-03 -4.360671516007172e-19
-5.130343837342527e-03  1.077114411825465e-03 -3.941524621944432e-19
-4.937251542167812e-03 -4.639575085431906e-04 -3.666645566710321e-19
-5.463184733348051e-03 -5.133798746017396e-04 -3.794166660655610e-19
-6.130680274933963e-03 -1.001379981601460e-03 -3.843256580523860e-19
-6.936475083180408e-03 -1.132997804431907e-03 -4.052141753608551e-19
-7.389330129896800e-03  1.379051750729751e-04 -4.350351410461264e-19
-7.167043317220122e-03  1.337566932377186e-04 -4.282528696906619e-19
-6.269456010847927e-03  1.002199442896610e-03 -4.129809924906461e-19
-4.879812286053274e-03  7.800589311194790e-04 -3.719935406315485e-19
-4.967452703096941e-03 -1.404902550345618e-03 -3.364680792226530e-19
-6.282609024379353e-03 -1.776857067138682e-03 -3.739549816362895e-19
-7.449931845654894e-03 -8.628103673481329e-04 -4.199998098281547e-19
-7.663413481594750e-03 -8.875346430252020e-04 -4.246214903265878e-19
-7.193835776904531e-03  4.768404938876330e-04 -4.280903337327071e-19
-6.148846175472374e-03  4.075737809534710e-04 -3.960576719133244e-19
-6.120586531080136e-03 -1.219928233067224e-03 -3.684040313417503e-19
-7.032967266067435e-03 -1.401779925264639e-03 -3.960978818733946e-19
-7.344163836975165e-03  5.186279643237694e-04 -4.295324624568643e-19
-6.551761703607667e-03  4.626703475716545e-04 -4.055795041341971e-19
-6.616219885495524e-03 -9.231861998707392e-04 -3.877585474717980e-19
-7.460011223735774e-03 -1.040923598644559e-03 -4.152190884142362e-19
-7.415115709603651e-03  9.743820324315394e-04 -4.361875194312762e-19
-6.220938526224336e-03  8.174613805369919e-04 -3.993948728353684e-19
-6.277402790501475e-03 -1.150804933349150e-03 -3.726979926553282e-19
-7.335477301621127e-03 -1.344776454356203e-03 -4.060372115977917e-19
-7.372940254463173e-03  1.146586548811522e-03 -4.323730863975557e-19
-5.935020273186020e-03  9.229715930546706e-04 -3.884014075343437e-19
-5.905242573931079e-03 -1.210674902249082e-03 -3.583981081453529e-19
-6.966718339405286e-03 -1.428295440697137e-03 -3.918037584850982e-19
-7.256575043196714e-03  6.175458284975720e-04 -4.225786326382758e-19
-6.212890510560916e-03  5.287266506402527e-04 -3.905417409488537e-19
-6.127792595451954e-03 -1.143679438275010e-03 -3.658385338890135e-19
-6.941073862080679e-03 -1.295468691532027e-03 -3.924623403034505e-19
-7.075732571521013e-03  2.866458585647165e-04 -4.152358223325088e-19
-6.156098643622506e-03  2.493904572104162e-04 -3.862134471022963e-19
-6.292611676710818e-03 -1.970039241623872e-03 -3.536127094826713e-19
-7.667086144839219e-03 -2.400348432455496e-03 -3.966013662445473e-19
-8.055970599868345e-03  1.136662376158398e-03 -4.464099039751314e-19
-6.294190942049564e-03  8.880829371822235e-04 -3.918510507778788e-19
-6.026787231544593e-03 -1.458318366126591e-03 -3.528562283656917e-19
-7.047514228980246e-03 -1.705306499268329e-03 -3.848861032404779e-19
-7.485166255585215e-03  2.981450984354845e-04 -4.199268405863355e-19
-6.621120424880916e-03  2.637288917071595e-04 -3.914624625578493e-19
-6.629140551214337e-03 -1.426063175832334e-03 -3.657879433996211e-19
-7.567762738112421e-03 -1.627979929054497e-03 -3.943496232776098e-19
-7.475052244557771e-03  1.242761260950621e-03 -4.175574149700404e-19
-5.827448454456324e-03  9.688396752888969e-04 -3.670321164981999e-19
-5.610381888110564e-03 -9.194114842884276e-04 -3.370415615266452e-19
-6.441439950969427e-03 -1.055602628196504e-03 -3.622523729385982e-19
-6.619548417179009e-03  6.727802531156922e-04 -3.852529893547833e-19
-5.694118481840578e-03  5.787238391582034e-04 -3.578571894090647e-19
-5.701681973530208e-03 -9.942248553781638e-04 -3.371694140500214e-19
-6.504296046952867e-03 -1.134179848444719e-03 -3.620077672141337e-19
-6.621780867506206e-03  4.830323218543288e-04 -3.824195952570026e-19
-5.712288734341205e-03  4.166885231722103e-04 -3.554939914973521e-19
-5.697938335491454e-03 -1.099544070663087e-03 -3.345284610167802e-19
-6.514646929150435e-03 -1.257146178433153e-03 -3.604623898502512e-19
-6.661417750716478e-03  4.129181732181151e-04 -3.842121391750972e-19
-5.716570185661678e-03  3.543503510018834e-04 -3.567487164024175e-19
-5.751911460464717e-03 -1.489482185625025e-03 -3.311145621592060e-19
-6.811803037214984e-03 -1.763945663221045e-03 -3.642953127363927e-19
-7.303077590913940e-03  2.066403848302962e-04 -4.030489356216490e-19
-6.521111150979617e-03  1.845146653564348e-04 -3.795764697171187e-19
-6.531585631131689e-03 -1.404828465123015e-03 -3.578905306455282e-19
-7.448802565058632e-03 -1.602105593563598e-03 -3.870405108786082e-19
-7.775081092063133e-03  4.723442569111439e-04 -4.204106549368297e-19
-6.993148870107477e-03  4.248410617725684e-04 -3.966546481581304e-19
-7.010713942865092e-03 -7.538804950301779e-04 -3.825924430705061e-19
-7.774414843441573e-03 -8.360032599402377e-04 -4.076271516085498e-19
-7.618052122322240e-03  1.388253244716006e-03 -4.243909618221806e-19
-6.365080805416837e-03  1.159921714778958e-03 -3.870461705373573e-19
-6.141522210739873e-03 -3.592180791151393e-04 -3.669632617829141e-19
-6.596616475536322e-03 -3.858365756387889e-04 -3.800263221873575e-19
-7.112100879993468e-03 -5.831329526679441e-04 -3.883423294078875e-19
-7.581667955291339e-03 -6.216335363512214e-04 -4.016589647324662e-19
-7.001546304379435e-03  1.335224166116050e-03 -4.006905410365172e-19
-5.458620383657338e-03  1.040981739327215e-03 -3.542703088136421e-19
-5.562430250647377e-03 -1.277227982328893e-03 -3.274213604988567e-19
-6.793170674070219e-03 -1.559826781225476e-03 -3.648501183215876e-19
-7.188319172364737e-03  7.982411489179988e-04 -3.983488417895406e-19
-6.062676555609063e-03  6.732419336460195e-04 -3.636659803056107e-19
-5.976555241146621e-03 -1.028404126963932e-03 -3.400218610509506e-19
-6.772339613570612e-03 -1.165337176145825e-03 -3.644186378932986e-19
-6.815522005442182e-03  7.125785819176425e-04 -3.833181627684774e-19
-5.781758821155438e-03  6.044962511277912e-04 -3.528831018564387e-19
-5.849479564542188e-03 -1.041801257450439e-03 -3.339403312307707e-19
-6.856790357875266e-03 -1.221204850463919e-03 -3.658187451880083e-19
-7.088745545922009e-03  7.513260611092387e-04 -3.930699861982049e-19
-6.058896025133586e-03  6.421737747171389e-04 -3.622932979447742e-19
-6.010568923445410e-03 -1.037069097733418e-03 -3.405880286125199e-19
-6.819827946111363e-03 -1.176699394824782e-03 -3.656598757093055e-19
-6.947169725922141e-03  5.526132471421636e-04 -3.852236196947130e-19
-6.006268513835573e-03  4.777691747264517e-04 -3.565124228364506e-19
-5.863210970221698e-03 -8.636598697710096e-04 -3.366133937500563e-19
-6.430036962859172e-03 -9.471541983002781e-04 -3.546720737412651e-19
-6.373877850065249e-03  3.735765883373247e-04 -3.665900764070042e-19
-5.457803990777450e-03  3.198849809567036e-04 -3.393899914695880e-19
-5.535256284951278e-03 -1.572310115104213e-03 -3.140385937322916e-19
-6.643697604541193e-03 -1.887166990571548e-03 -3.473885384728249e-19
-7.138927762581299e-03  2.474611619384856e-04 -3.856875366889986e-19
-6.260137150387279e-03  2.169990879091031e-04 -3.592716652643864e-19
-6.267917307357513e-03 -1.343486297470659e-03 -3.387739734104829e-19
-7.245155549186734e-03 -1.552950801049980e-03 -3.701133661259740e-19
-7.536404367237448e-03  6.373322540104966e-04 -4.025458201961226e-19
-6.526766734208232e-03  5.519500747859223e-04 -3.723634511369803e-19
-6.352923999437737e-03 -8.118004436416536e-04 -3.520905436308766e-19
-6.928942327089046e-03 -8.854062248495568e-04 -3.711014567793570e-19
-6.836209322958541e-03  5.780157719978477e-04 -3.833641059764662e-19
-5.875639048044033e-03  4.967975496200979e-04 -3.547581886555840e-19
-6.030353591231819e-03 -1.475951019728892e-03 -3.315709564505290e-19
-7.235333758637866e-03 -1.770874307381873e-03 -3.691176919898017e-19
-7.593016185967104e-03  8.548646325660898e-04 -4.069156106115183e-19
-6.382529985132808e-03  7.185812616422945e-04 -3.706879959659671e-19
-6.382372161289753e-03 -1.190146470376905e-03 -3.470147309074122e-19
-7.451130636492914e-03 -1.389442138947162e-03 -3.813318021579276e-19
-7.709319687925868e-03  1.029869400067036e-03 -4.129022724285015e-19
-6.565728713382226e-03  8.770998434069454e-04 -3.784302652688976e-19
-6.269893186657526e-03 -5.281836737742238e-04 -3.563112894859140e-19
-6.683254141941011e-03 -5.630057196140257e-04 -3.686852350504688e-19
-7.084102102081691e-03 -2.733570609586242e-04 -3.814309521427271e-19
-7.333845577824132e-03 -2.829940116319472e-04 -3.898330010465660e-19
-6.992511656382421e-03  7.862224169431192e-04 -3.926935349370967e-19
-6.112601467007966e-03  6.872872774998522e-04 -3.671656666416774e-19
-6.434203298552280e-03 -1.450723017931480e-03 -3.471529258986111e-19
-7.854732966922554e-03 -1.771010548793773e-03 -3.904673682596627e-19
-8.649464399339897e-03  9.232844984233480e-04 -4.409791208542163e-19
-8.084645466027678e-03  8.629930697907282e-04 -4.219552851755172e-19
-6.981663701462667e-03  1.542352034598503e-03 -3.940428209910830e-19
-5.637520115886720e-03  1.245410978332607e-03 -3.523065832280117e-19
-5.682006461211283e-03 -5.559655194295754e-04 -3.345561169625457e-19
-6.514148346706060e-03 -6.373878477508252e-04 -3.586390270139158e-19
-6.707052133534419e-03  5.951775029841951e-04 -3.736604571452320e-19
-6.102316400598455e-03  5.415138223793338e-04 -3.551304328665461e-19
-6.086040427548464e-03 -4.001745632906761e-04 -3.448087274403753e-19
-6.551679170068975e-03 -4.307916422696313e-04 -3.599080826629440e-19
-6.449295315469402e-03  4.542168928205396e-04 -3.666372637375009e-19
-5.781014888252549e-03  4.071506252152814e-04 -3.466532054523034e-19
-6.212099117081971e-03 -1.607336057106593e-03 -3.278400670407676e-19
-7.737802213190142e-03 -2.002100781975595e-03 -3.756343621401360e-19
-8.113408263635057e-03  1.832839618629079e-03 -4.245743281119029e-19
-6.498096823733797e-03  1.467936644777080e-03 -3.785797410476464e-19
-6.456809348950157e-03 -5.506266024903640e-04 -3.576997154642315e-19
-7.412050772837171e-03 -6.320880970718147e-04 -3.876349345897349e-19
 5.382605714030632e-03 -6.340448049101352e-04  2.988599196392284e-19
 6.225335964252341e-03 -7.333143344803357e-04  3.229578090118418e-19
5.655685715967184e-03 1.150652994465682e-03 2.886812370233900e-19
6.779888094625556e-03 1.379372710933783e-03 3.242140283345769e-19
6.308828578757377e-03 2.528177379104929e-04 3.176506159402274e-19
5.658772272850200e-03 2.267676142271079e-04 2.966461598631560e-19
 5.618364234658968e-03 -1.146772207894501e-03  3.052677024681497e-19
 6.617614122343518e-03 -1.350730504665181e-03  3.324417749725339e-19
6.335294100064922e-03 7.428586402263482e-04 3.094255407349120e-19
5.020542257295865e-03 5.886945634324230e-04 2.693941654739897e-19
 4.702066613059073e-03 -1.493620836643708e-03  2.785659148383782e-19
 6.360279513655157e-03 -2.020355471377092e-03  3.251991965363489e-19
6.797636439625760e-03 3.033832916655276e-04 3.245135825322751e-19
5.801442791686308e-03 2.589224690351252e-04 2.950694300445667e-19
 5.648896551747233e-03 -1.479185250927635e-03  3.059267225138693e-19
 7.035591776953434e-03 -1.842296719843160e-03  3.468722526137773e-19
7.212068183523331e-03 7.030645668285935e-04 3.338074650053859e-19
6.135044223373455e-03 5.980714684914585e-04 3.020966170009468e-19
 5.517878427142544e-03 -4.610005309005256e-04  2.987607282261243e-19
 5.523434367048629e-03 -4.614647113423703e-04  2.993421482295832e-19
 6.014254255217746e-03 -1.647101226882538e-03  3.182552596728452e-19
 7.523160527624780e-03 -2.060339721144101e-03  3.628882017087143e-19
7.598540054688525e-03 1.096508708964288e-03 3.419409712532010e-19
6.386547009179761e-03 9.216118314010108e-04 3.044571166591770e-19
 6.141795453062657e-03 -8.356312905607366e-04  3.167253261832783e-19
 7.115581339426885e-03 -9.681212054677204e-04  3.451391309523759e-19
6.751542881543003e-03 1.286424106021109e-03 3.150856310505690e-19
5.549363921191619e-03 1.057363575490349e-03 2.777619440905340e-19
 5.425341067392387e-03 -9.810176834575712e-04  2.951017954710515e-19
 6.812382636423297e-03 -1.231824460397046e-03  3.344405788769238e-19
6.798220862893175e-03 1.169646555471760e-03 3.139309451496761e-19
5.714471364520537e-03 9.831854366980542e-04 2.819528340465200e-19
 5.164670791361417e-03 -1.233940135772854e-04  2.822910536939837e-19
 5.258363625955434e-03 -1.256325173214788e-04  2.853868042019759e-19
 6.021589403476891e-03 -1.414450502189190e-03  3.122294693359980e-19
 7.888488149626539e-03 -1.852978553853261e-03  3.680287637092291e-19
7.883792943448776e-03 1.972941407089493e-03 3.403431115142086e-19
6.734114342384658e-03 1.685231096436423e-03 3.053162331569544e-19
6.627628204654889e-03 2.341547107342046e-05 3.234817392041659e-19
7.327979528732235e-03 2.588981870786487e-05 3.472930665143799e-19
6.397339263578686e-03 2.223860026437713e-03 3.010333011556761e-19
4.972779557765358e-03 1.728650806712835e-03 2.599097568152652e-19
 4.927295713480338e-03 -6.378734539794462e-04  2.852095235877049e-19
 6.405547260833115e-03 -8.292436243917152e-04  3.292149665576841e-19
6.582219227056083e-03 8.742883609266374e-04 3.237735239970413e-19
5.765042381966454e-03 7.657462142986597e-04 2.968653431474634e-19
 5.739169988491503e-03 -1.060751914333502e-03  3.115939018972745e-19
 7.066499504917869e-03 -1.306077863612572e-03  3.510563547693201e-19
7.299311937413500e-03 8.244295767311591e-04 3.434396019165155e-19
6.562264050348728e-03 7.411828155605818e-04 3.201899920263655e-19
 6.643557042438511e-03 -8.251850145363070e-04  3.371048847142305e-19
 7.770378531891691e-03 -9.651456111285434e-04  3.713532687631641e-19
7.500281319203272e-03 1.682165761209690e-03 3.412219596846212e-19
6.456533941800547e-03 1.448073728271680e-03 3.084913297050754e-19
 6.398535712714691e-03 -2.756745892664597e-04  3.258523738057077e-19
 7.234487703535745e-03 -3.116907548491787e-04  3.515861990495107e-19
6.758846033018700e-03 1.708507427540983e-03 3.201630648662047e-19
5.661454283590169e-03 1.431107713793776e-03 2.864712620793474e-19
 5.611518776053408e-03 -5.031749194265694e-04  3.055125624379540e-19
 6.693044894664978e-03 -6.001534450821216e-04  3.376104332086054e-19
6.968954478548437e-03 8.555396938072300e-04 3.339954591742059e-19
6.505779582920158e-03 7.986782937787496e-04 3.202437379748714e-19
6.130645891630242e-03 3.545306304990571e-04 3.165147234302290e-19
5.910953982769349e-03 3.418260130181605e-04 3.104959218993100e-19
 6.161873559795014e-03 -5.700503991494184e-04  3.235981967164458e-19
 6.944078462864052e-03 -6.424141393145076e-04  3.474367921945863e-19
6.904284280267401e-03 6.690307869391323e-04 3.383054842809006e-19
6.196003972179620e-03 6.003978464839193e-04 3.164879980591195e-19
 6.257698222652533e-03 -1.056355441057144e-03  3.318643736742887e-19
 7.475732339275338e-03 -1.261970496418879e-03  3.686841117411518e-19
7.429053424260172e-03 1.142842655828995e-03 3.499525633721776e-19
6.425515153806950e-03 9.884641264613712e-04 3.182962864326463e-19
 6.244222744816367e-03 -7.353263835886361e-04  3.306899535756351e-19
 7.092998547101739e-03 -8.352791345839718e-04  3.563892396617144e-19
6.842495306665499e-03 9.441781839040160e-04 3.355992989645285e-19
5.814274887055483e-03 8.022967145086772e-04 3.038589215183632e-19
 5.729680646886107e-03 -1.266730988599424e-03  3.201641770879876e-19
 7.233046053378290e-03 -1.599098473797219e-03  3.654861646304062e-19
 8.311350172316810e-03 -2.359556122904851e-04  3.863195427702041e-19
 8.566581312549783e-03 -2.432015132236283e-04  3.950088856880956e-19
7.365454945108015e-03 2.134898188396179e-03 3.375523796606254e-19
5.818866183974047e-03 1.686615011193147e-03 2.923835340222970e-19
 5.537015140274643e-03 -4.893431896836724e-04  3.113661676925899e-19
 6.539624111870509e-03 -5.779504735246649e-04  3.414503663671005e-19
 7.419255253306323e-03 -1.150912020762033e-04  3.618943318317596e-19
 7.886773222885569e-03 -1.223435748918066e-04  3.774762673740807e-19
7.181741929743212e-03 1.551814556788401e-03 3.445515526626087e-19
6.004344193471177e-03 1.297405116272348e-03 3.082884037962217e-19
 5.987008250295445e-03 -9.023396964372163e-04  3.286836930882276e-19
 7.360024493730364e-03 -1.109275616434202e-03  3.702603372442640e-19
7.238009752653899e-03 1.345560219759961e-03 3.485004805247359e-19
6.044816344615049e-03 1.123743223209464e-03 3.110058563197134e-19
 5.765235994063223e-03 -7.606990482540778e-04  3.224398346286848e-19
 6.623662423100452e-03 -8.739648656876057e-04  3.489731863193519e-19
6.697046272241745e-03 2.052585633376360e-04 3.445491363353491e-19
5.961300559930884e-03 1.827086059755821e-04 3.217025283548685e-19
 5.945770432905938e-03 -1.659806268566783e-03  3.340388818962005e-19
 7.428542473145301e-03 -2.073733169212693e-03  3.794972542222324e-19
7.660211792343006e-03 5.538145495740185e-04 3.690034919210870e-19
6.522235609193293e-03 4.715416589044703e-04 3.333121679729112e-19
 6.343990673338376e-03 -1.422908730359783e-03  3.452565452917650e-19
 7.696944752090710e-03 -1.726366012937961e-03  3.864273872446293e-19
7.473081182930656e-03 1.235684181945322e-03 3.584871424636016e-19
5.936988396879408e-03 9.816891414445742e-04 3.102091574818135e-19
 5.449749589111250e-03 -1.535588536161964e-03  3.216980909439380e-19
 6.925769703304414e-03 -1.951490134838744e-03  3.651477546588373e-19
7.211716846959666e-03 3.168938009944342e-04 3.572959376565358e-19
6.193627859936242e-03 2.721574232781571e-04 3.248799056025132e-19
 6.113042940558897e-03 -1.870249836555492e-03  3.400231614539277e-19
 7.929854153140398e-03 -2.426092631448745e-03  3.939347323466200e-19
7.731064944059618e-03 1.713152723651180e-03 3.527878904761007e-19
6.007410339541076e-03 1.331202293570552e-03 3.003608259307009e-19
 5.091722376481009e-03 -3.639207342131000e-04  3.002717753809683e-19
 5.064677539890202e-03 -3.619877582845104e-04  3.000454430198486e-19
 5.503811240240396e-03 -1.603119249999308e-03  3.172796300813773e-19
 6.929101578112372e-03 -2.018269820711973e-03  3.600298235888290e-19
7.280173843925423e-03 2.590817353862727e-04 3.564293237939719e-19
6.328732236724679e-03 2.252224968575178e-04 3.285823950622631e-19
 6.099793338394999e-03 -1.244006789428022e-03  3.375431397292808e-19
 7.042817955004240e-03 -1.436329538835846e-03  3.669133577797624e-19
7.178950041508038e-03 1.261441865469066e-04 3.599412399228050e-19
6.354748614984150e-03 1.116618154622047e-04 3.349108340824434e-19
 6.181677170163212e-03 -1.328765510618610e-03  3.434397210056520e-19
 7.149596368517965e-03 -1.536821934860100e-03  3.716328663530689e-19
7.117943408026366e-03 4.734073673468417e-04 3.522982313958980e-19
6.059286123616804e-03 4.029971197225422e-04 3.201093698243678e-19
 5.476474814393169e-03 -6.078484329715410e-04  3.172247365047812e-19
 5.578795059390210e-03 -6.192052277511416e-04  3.202539937748695e-19
 6.151303728075620e-03 -1.717027656948857e-03  3.424929086208345e-19
 7.696391838042238e-03 -2.148311679736897e-03  3.896934186465802e-19
7.811142931054618e-03 1.115878463188291e-03 3.666415228181442e-19
6.583489833198957e-03 9.404993075058115e-04 3.291772898789606e-19
 6.327576831590108e-03 -8.296928763591064e-04  3.452140654171633e-19
 7.316948623572326e-03 -9.594225896010086e-04  3.750054471585767e-19
7.075460199687426e-03 1.367057162002376e-03 3.446062964162089e-19
6.026375807121675e-03 1.164362454954872e-03 3.131060842301568e-19
 5.881157801111605e-03 -5.734475075389869e-04  3.333332282052614e-19
 6.786837457781924e-03 -6.617566057318968e-04  3.610508153633441e-19
6.843550704167064e-03 8.661774598629146e-04 3.474872456648327e-19
6.250975949267565e-03 7.911762042040355e-04 3.293761047184435e-19
 6.368604339349686e-03 -4.594469109942736e-04  3.487059433475977e-19
 7.261897385075477e-03 -5.238912866537117e-04  3.767274031716558e-19
6.860290231786905e-03 1.657530697805504e-03 3.417256171327198e-19
5.775631367731865e-03 1.395463743919533e-03 3.116294880074473e-19
5.317541181636715e-03 6.829175064956929e-05 3.232138477688763e-19
5.427840213629038e-03 6.970829144021158e-05 3.284735062781367e-19
 5.959747574849881e-03 -7.852429492399970e-04  3.510916279334009e-19
 6.966228141854717e-03 -9.178545672425484e-04  3.829393589339934e-19
6.754137701146735e-03 1.012154393548876e-03 3.594541953344435e-19
5.709433754431879e-03 8.555982591594682e-04 3.290873440097028e-19
 5.667588381732544e-03 -1.154022696764829e-03  3.567974541725544e-19
 7.156776886075164e-03 -1.457248199045801e-03  4.034789059433029e-19
7.080974145486924e-03 1.268986417635635e-03 3.726195144693368e-19
5.810132192259823e-03 1.041237926471523e-03 3.363285625756581e-19
 5.142322149697354e-03 -3.442367278360628e-04  3.471560691780127e-19
 5.228467820745793e-03 -3.500034812707346e-04  3.531885834291306e-19
 5.675301528684670e-03 -1.211854896538366e-03  3.767730312719074e-19
 6.789115450712342e-03 -1.449689106477633e-03  4.140567074536304e-19
7.117930475714074e-03 3.495826803907096e-04 4.083120861095563e-19
6.613431020348056e-03 3.248052155834529e-04 3.983903689422190e-19
 6.869100766342773e-03 -1.088347390128132e-03  4.335350884552031e-19
 8.213445410464069e-03 -1.301346738169597e-03  4.817366414075721e-19
7.864332082716691e-03 2.085103270695791e-03 4.234726970705718e-19
6.611755484327371e-03 1.753002396186895e-03 3.926240295961676e-19
5.914386294546057e-03 6.009709640033928e-04 4.110325769533428e-19
5.676773961438517e-03 5.768267661483403e-04 4.134319734684951e-19
 6.087955341822001e-03 -4.517020224718772e-04  4.541545734417776e-19
 7.054655163855152e-03 -5.234272964297666e-04  4.948843463225513e-19
6.971349252676442e-03 1.147769754203449e-03 4.717881078169549e-19
6.212921123298817e-03 1.022901405755330e-03 4.606835994675979e-19
 6.259211044321207e-03 -4.933193499581821e-04  5.166925332593993e-19
 7.178180916515981e-03 -5.657479063324851e-04  5.642861947909463e-19
7.051915840427202e-03 1.087918222388817e-03 5.409751395261448e-19
6.180118340686896e-03 9.534236527339655e-04 5.338018761166976e-19
 6.098831284977587e-03 -6.822413161558629e-04  6.077334934830457e-19
 6.996208531173461e-03 -7.826257676885708e-04  6.671177785314844e-19
7.064351166447420e-03 6.211993871651221e-04 6.639420510419452e-19
6.429492311976701e-03 5.653734631642501e-04 6.807075936066262e-19
 6.482761815443239e-03 -8.564868453692821e-04  7.804633077480646e-19
 7.481029448529152e-03 -9.883755558042740e-04  8.705104906145368e-19
7.164967049042784e-03 1.267550964551616e-03 8.258386981108084e-19
6.054574378682652e-03 1.071111917349847e-03 8.604456153201534e-19
 5.829416375179434e-03 -7.339241953350638e-04  1.054982277609317e-18
 6.802739003306419e-03 -8.564656267021995e-04  1.205952241095738e-18
 7.493985903445340e-03 -1.766096052894247e-04  1.338362179102574e-18
 7.738642253915498e-03 -1.823753836141771e-04  1.521810504556253e-18
7.220892337088804e-03 1.209869602339000e-03 1.615550935541784e-18
6.345323903916121e-03 1.063167009001306e-03 1.855406154122426e-18
 6.406201931213314e-03 -6.418973488418230e-04  2.376540973416959e-18
 7.479352699970717e-03 -7.494263716184242e-04  2.900262307629025e-18
7.304556398663861e-03 1.509073421881445e-03 3.295185879730092e-18
6.435593125146442e-03 1.329551311422267e-03 4.133954623829298e-18
 6.433181258030139e-03 -8.848946284753478e-05  5.631954235902148e-18
 7.110771886112627e-03 -9.780983301971032e-05  7.489215856081169e-18
6.648534665665967e-03 1.686705824618492e-03 9.747602941644876e-18
5.532014768687566e-03 1.403449331535701e-03 1.381529642007530e-17
 5.500194632464645e-03 -5.216842398515783e-04  2.208547079840934e-17
 6.527916449040272e-03 -6.191619311853651e-04  3.514492803386265e-17
6.444658315779214e-03 9.638739282883148e-04 5.276746244418231e-17
5.530390459066850e-03 8.271344911641705e-04 7.937264143592507e-17
 5.312699304521814e-03 -8.002394411592433e-04  1.757555360373042e-16
 6.113568316478632e-03 -9.208724628747017e-04  2.874314137933293e-16
 6.594544681957693e-03 -6.203515624691321e-04 -3.395124898864696e-15
 6.734876295328595e-03 -6.335526157361802e-04  2.751769634611985e-15
 6.960013609235817e-03 -6.547313765444876e-04  2.706348947642711e-15
 7.293757807633950e-03 -6.861268321713247e-04 -3.476223882583926e-15
6.814960261665740e-03 8.416723815563018e-04 2.415970747913565e-16
5.755105857720703e-03 7.107765074762795e-04 1.793791335810629e-16
 5.564898949834882e-03 -1.037170776595562e-03  1.094943599164008e-16
 6.609602580427434e-03 -1.231879806466810e-03  6.625010009307100e-17
6.214281717757518e-03 9.808698755121681e-04 3.142203764182785e-17
4.802349091809820e-03 7.580086918797263e-04 2.034785137684088e-17
 4.308109681215653e-03 -1.152346826187985e-03  1.872502450691003e-17
 5.403880153675269e-03 -1.445446983706036e-03  1.273658816791004e-17
 6.399865724168946e-03 -1.686332655801938e-03  8.840008968736776e-18
 7.414620799980634e-03 -1.953715550339811e-03  6.332931687457711e-18
7.204895724270128e-03 8.015227590710936e-04 3.389106634273678e-18
5.865313884705452e-03 6.524983494002395e-04 2.749886568571021e-18
 5.506904577454332e-03 -1.272658614862189e-03  3.077895895844983e-18
 6.732357340318494e-03 -1.555863633912418e-03  2.502671453691487e-18
6.934869487703493e-03 5.122285345236284e-04 1.627716455897103e-18
6.104067545573090e-03 4.508632179806968e-04 1.404409539764568e-18
 5.978511986498162e-03 -8.432845290335787e-04  1.479201267762542e-18
 6.746846122778012e-03 -9.516600398155992e-04  1.312527189837461e-18
6.319585661115331e-03 7.385122652619032e-04 9.454845739726848e-19
4.933073796444001e-03 5.764832853730198e-04 8.295694471391247e-19
 4.520625267641106e-03 -1.767970713466360e-03  9.663567157951091e-19
 6.406667623543992e-03 -2.505582758742864e-03  9.089545637366202e-19
 7.530667838637080e-03 -8.587328092970032e-04  8.158356987650010e-19
 7.232187882507786e-03 -8.246967135963403e-04  7.545410586130550e-19
 6.837021041403709e-03 -3.953899464745093e-04  6.790649736520374e-19
 6.294191854893725e-03 -3.639977360806506e-04  6.279674699810256e-19
 6.184058761403200e-03 -1.363552882900895e-03  6.352994046552065e-19
 6.857633306800947e-03 -1.512072576626663e-03  6.212071243564651e-19
 7.020151192729147e-03 -2.786586095155481e-04  5.577423243807674e-19
 6.505619426575493e-03 -2.582347322269141e-04  5.234419438228681e-19
 6.615468798709573e-03 -1.528337515925638e-03  5.453799477402730e-19
 7.800949430949554e-03 -1.802212970528193e-03  5.621128038762927e-19
7.751346876317464e-03 9.399168590541926e-04 4.796524118022358e-19
6.564991088106772e-03 7.960611106316024e-04 4.343112878597041e-19
 6.193126991377900e-03 -8.624943212225740e-04  4.634082492763619e-19
 6.916746090553344e-03 -9.632701271500021e-04  4.740129721634598e-19
7.092503862311060e-03 1.798134430958095e-04 4.449507832224079e-19
6.674322301370886e-03 1.692114515041785e-04 4.254103642997719e-19
 6.694304112038790e-03 -6.913947040698663e-04  4.383983695545912e-19
 7.256582635802456e-03 -7.494674158911440e-04  4.495420223948586e-19
7.118694205715594e-03 4.470447762827159e-04 4.187883381991866e-19
6.382928578615511e-03 4.008396478338241e-04 3.918351776487033e-19
 6.391379884906860e-03 -1.172864390935038e-03  4.161734018179443e-19
 7.534396895607128e-03 -1.382616271471692e-03  4.457594577533543e-19
7.565676436577952e-03 7.635657231181927e-04 4.108663569058499e-19
6.598715228320549e-03 6.659751850612593e-04 3.773237693148064e-19
 6.520830563243226e-03 -1.168544399569143e-03  4.028069432713137e-19
 7.763068757358784e-03 -1.391155686672215e-03  4.362322766171183e-19
7.404901792871953e-03 1.367284431847479e-03 3.834426302214138e-19
6.027366108104658e-03 1.112928175845578e-03 3.372792169734558e-19
 5.719917944896805e-03 -1.131905117182048e-03  3.655920732182178e-19
 7.020411321710092e-03 -1.389257604098341e-03  4.009253963713402e-19
6.979401336364159e-03 8.643376704852334e-04 3.693373833781489e-19
5.790002978580263e-03 7.170411107517243e-04 3.307387638156894e-19
 5.565217846447693e-03 -1.466513286747512e-03  3.546965022017965e-19
 7.108636675900964e-03 -1.873225886839939e-03  3.989718603689677e-19
7.525623763485178e-03 3.206148926717773e-04 3.864293732479224e-19
6.635759472394618e-03 2.827039163664297e-04 3.570912603387165e-19
 6.457656419996785e-03 -1.150666410579889e-03  3.691890885948029e-19
 7.392183956016874e-03 -1.317186487759968e-03  3.950555161424866e-19
7.269474470455772e-03 7.942904969648645e-04 3.656679410751443e-19
6.230290917200573e-03 6.807453398414178e-04 3.324303724143276e-19
 6.067790331539788e-03 -1.062666212124079e-03  3.503766332293636e-19
 7.182957852155147e-03 -1.257968089787245e-03  3.824961518029823e-19
7.296683354973092e-03 6.521267218158994e-04 3.650035169336357e-19
6.407873238894511e-03 5.726910660367436e-04 3.367875408248941e-19
 6.124242977442781e-03 -8.321361757272749e-04  3.463591790904649e-19
 6.719829490600497e-03 -9.130619465040489e-04  3.627668577445236e-19
6.765364346511650e-03 6.481036697990894e-05 3.521644611571727e-19
6.221097672393430e-03 5.959643893733070e-05 3.343704725089126e-19
 6.205699103875303e-03 -1.126261657581880e-03  3.457292125571170e-19
 7.046554533499784e-03 -1.278867063371569e-03  3.694311971784498e-19
7.115892781899230e-03 3.074729261225791e-04 3.542213049684426e-19
6.411826298394830e-03 2.770506883931690e-04 3.319281083048468e-19
 6.275434918451076e-03 -8.272509658469675e-04  3.408381742756732e-19
 6.927580343916165e-03 -9.132191800184617e-04  3.596207430025691e-19
7.118946884616303e-03 1.442740100420903e-04 3.538568909219736e-19
6.813064825763353e-03 1.380749426876181e-04 3.438764249273970e-19
 7.033890147572888e-03 -7.078284286721654e-04  3.584652455979089e-19
 7.870576122449206e-03 -7.920250974377556e-04  3.840388597684777e-19
7.345371904330214e-03 1.705761475301270e-03 3.430256453710614e-19
6.160922848487719e-03 1.430705617649999e-03 3.066347681351799e-19
 6.155038963785961e-03 -8.801753372113580e-04  3.362100603691731e-19
 7.576614499031208e-03 -1.083461739371884e-03  3.788222318641442e-19
7.482584077660830e-03 1.607419255763691e-03 3.493216167633689e-19
6.454396859838215e-03 1.386542628744910e-03 3.166495990392050e-19
 6.369224593798265e-03 -4.155819955070154e-04  3.378061236288948e-19
 7.269816076034030e-03 -4.743441885828548e-04  3.657021095678744e-19
7.230412188159627e-03 1.197026055944292e-03 3.485955785550992e-19
6.570562517805475e-03 1.087785084908972e-03 3.271987810913775e-19
 6.791821208548362e-03 -6.712708478805177e-04  3.526437578169958e-19
 7.994773186418844e-03 -7.901648189303323e-04  3.889025054808824e-19
7.743767947998748e-03 1.748447592983129e-03 3.537434119813307e-19
6.678218406202846e-03 1.507859607383845e-03 3.207426461846849e-19
6.013925701650799e-03 6.533037042011751e-04 3.156503257182088e-19
5.701005695024988e-03 6.193106338526038e-04 3.063458605974059e-19
 6.053620550604544e-03 -6.210032477632847e-04  3.259788081560596e-19
 7.052259785540031e-03 -7.234474302247784e-04  3.545976916488563e-19
7.073218856358259e-03 8.323497503993480e-04 3.395632554345800e-19
6.405670284271026e-03 7.537951490728559e-04 3.174335248420520e-19
 6.430414864250171e-03 -3.824591414836500e-04  3.299014412477728e-19
 7.192128961323738e-03 -4.277632977119467e-04  3.524204198202295e-19
6.982379456666273e-03 1.271440524062349e-03 3.295971239235978e-19
6.192903586073571e-03 1.127682708997939e-03 3.052816003588096e-19
 6.210317977072875e-03 -2.829707390829912e-04  3.226702269048091e-19
 7.034514925627318e-03 -3.205249545907005e-04  3.477835555469699e-19
7.086152050778119e-03 1.043906909970254e-03 3.362643705824331e-19
6.574397735762455e-03 9.685170704884318e-04 3.195898933501182e-19
 6.691708702250806e-03 -1.321064666574541e-04  3.344699398036639e-19
 7.404330657313904e-03 -1.461749165459330e-04  3.559630938054787e-19
7.114786019403346e-03 1.595748146301965e-03 3.295122866485625e-19
6.346245497289266e-03 1.423375131825230e-03 3.048452688729778e-19
6.401011727086974e-03 2.268328140889490e-05 3.223229727902683e-19
7.120813007135401e-03 2.523404302127076e-05 3.432493086671678e-19
6.823309642703300e-03 1.737483923969585e-03 3.152050287418731e-19
6.100686694717089e-03 1.553475602353960e-03 2.947078422601326e-19
5.793496702274134e-03 8.189645457624589e-04 2.989263389278642e-19
5.788372792302500e-03 8.182402335175242e-04 2.998516381956089e-19
6.250210892411429e-03 8.556381585918737e-05 3.184024450729852e-19
6.923275378743795e-03 9.477789947352152e-05 3.387295071851101e-19
6.569924426210284e-03 1.421641410113200e-03 3.162312912147427e-19
5.739468921191822e-03 1.241942244856328e-03 2.902856967876295e-19
 5.812891516320581e-03 -2.861456834344207e-04  3.082475412423851e-19
 6.717272164739998e-03 -3.306647696757966e-04  3.354406919867339e-19
6.490011045179020e-03 1.309635641934233e-03 3.152068976395839e-19
5.619218992365637e-03 1.133916324796148e-03 2.881087539372164e-19
 5.761470458806160e-03 -7.628474239983383e-04  3.112545557455184e-19
 7.152309152645022e-03 -9.470014038509125e-04  3.534500992026944e-19
7.181688793875029e-03 1.310524122996506e-03 3.371754720378369e-19
6.274746900294254e-03 1.145024159992342e-03 3.090633971738087e-19
 6.211317451713385e-03 -4.942716422330564e-04  3.259440405081776e-19
 7.133787293001177e-03 -5.676780792584266e-04  3.538156969768841e-19
7.703869757497902e-03 2.900138271574310e-04 3.606910487096910e-19
7.779518428920658e-03 2.928616375967670e-04 3.625915586899176e-19
7.009288742215404e-03 1.618314414348921e-03 3.274600489904306e-19
6.091497307679630e-03 1.406413440869295e-03 2.990916234534734e-19
 6.356073974803643e-03 -5.013987293009062e-04  3.261281132599979e-19
 7.710220108392068e-03 -6.082205116402076e-04  3.662626321007112e-19
7.394331289946177e-03 2.180709287272619e-03 3.288515938477813e-19
6.231296962967659e-03 1.837711434078328e-03 2.939169072883246e-19
5.551209127206773e-03 7.753878600186006e-04 2.911259285862556e-19
5.275205962309126e-03 7.368359880778598e-04 2.826724898679363e-19
 5.785426373021338e-03 -3.918773458978004e-04  3.033830649304447e-19
 6.931639816228139e-03 -4.695164087767022e-04  3.362173447309035e-19
6.647654973952481e-03 1.697354851276206e-03 3.096387556561810e-19
5.652354614251840e-03 1.443223446948765e-03 2.797526745029320e-19
 5.595452446033445e-03 -1.763574685532334e-04  2.972523222158840e-19
 6.381767448902769e-03 -2.011405445830843e-04  3.213472104514378e-19
6.350266970259410e-03 9.534050800764805e-04 3.108419955660829e-19
5.750691441524954e-03 8.633870764772363e-04 2.912334239828500e-19
 5.989969567820248e-03 -6.659802842288663e-04  3.109927921103753e-19
 7.230914666555181e-03 -8.039517647532070e-04  3.475567583147641e-19
6.951019309096368e-03 1.673140844750973e-03 3.185554653849819e-19
5.886445716655732e-03 1.416893310317456e-03 2.852670335140557e-19
 5.863161130776813e-03 -3.345871144963073e-04  3.041277973838110e-19
 6.825217289946475e-03 -3.894878049430204e-04  3.330818602284575e-19
6.404358556740942e-03 1.627249950973518e-03 3.036337862458336e-19
5.339968849697999e-03 1.356804740378728e-03 2.704177804948305e-19
 5.390627413877736e-03 -6.313229601685834e-04  2.926588040088153e-19
 6.804851483691359e-03 -7.969497151911762e-04  3.333862598961086e-19
6.983027164131775e-03 1.330309885542562e-03 3.204264072195484e-19
6.220690976486930e-03 1.185080124481357e-03 2.991696625516062e-19
5.270092660260872e-03 9.661524275681457e-04 2.805189044886543e-19
4.346961760851169e-03 7.969172324921447e-04 2.546929794638703e-19
 4.418066893937835e-03 -1.169682375596141e-03  2.698704342630995e-19
 6.106558157597016e-03 -1.616710118693502e-03  3.190472951051478e-19
6.669439098811135e-03 8.620184774211484e-05 3.257594068589285e-19
6.038895561144031e-03 7.805213421696356e-05 3.065303941262846e-19
 6.025294795421575e-03 -1.123670503794147e-03  3.164511176893767e-19
 7.014007011080434e-03 -1.308057623627855e-03  3.461080254468650e-19
7.232549321064404e-03 3.998117593045289e-04 3.399107963391139e-19
6.669018095367916e-03 3.686600310871274e-04 3.227065118824798e-19
 6.737902121827514e-03 -5.646463160321945e-04  3.338100578544903e-19
 7.497823978170592e-03 -6.283289087588582e-04  3.579351246723226e-19
6.950776202449029e-03 1.518867015895026e-03 3.255773794978198e-19
5.759133516307804e-03 1.258472102004006e-03 2.886641184811607e-19
 5.862700226018419e-03 -1.351246598006608e-03  3.166467637282914e-19
 7.949617450050772e-03 -1.832243355572401e-03  3.787865608367169e-19
7.803379067151507e-03 2.188934394857833e-03 3.411577345296039e-19
6.349554976498243e-03 1.781120609481199e-03 2.963596520871790e-19
5.750279316119655e-03 2.068997688007820e-04 3.021689430381583e-19
5.894626886974081e-03 2.120935128599643e-04 3.066737311995570e-19
 6.424764114678912e-03 -3.135199156969294e-04  3.223515390969167e-19
 7.175314680452934e-03 -3.501457817843903e-04  3.439773174730025e-19
6.762432510608748e-03 1.489006320991687e-03 3.168610547441372e-19
5.797481247959895e-03 1.276535656437327e-03 2.877418957410429e-19
 5.706463198500870e-03 -3.122249141415164e-04  3.024734172198168e-19
 6.460799041207074e-03 -3.534978419656521e-04  3.256782888779460e-19
6.241598670548778e-03 1.019765880913820e-03 3.098770593382162e-19
5.369344662508896e-03 8.772551358563852e-04 2.836528318183691e-19
 5.412689515432669e-03 -1.074659120603972e-03  3.018701231398107e-19
 6.921724426476581e-03 -1.374269531627799e-03  3.474228412736113e-19
 7.906089437215498e-03 -2.273766332329002e-05  3.669732101652015e-19
 8.088377948134520e-03 -2.326191931886100e-05  3.739049860883569e-19
7.311524366008154e-03 1.564882638097135e-03 3.389997928325103e-19
6.198765480577716e-03 1.326719298548679e-03 3.058831626190842e-19
 6.141418647231762e-03 -5.559064324468983e-04  3.224845582600799e-19
 7.135091172139027e-03 -6.458512774528138e-04  3.518765681497693e-19

VECTORS velocity double
0.000000000000000e+00 0.000000000000000e+00 0.000000000000000e+00
0.000000000000000e+00 0.000000000000000e+00 0.000000000000000e+00
0.000000000000000e+00 0.000000000000000e+00 0.000000000000000e+00
0.000000000000000e+00 0.000000000000000e+00 0.000000000000000e+00
0.000000000000000e+00 0.000000000000000e+00 0.000000000000000e+00
0.000000000000000e+00 0.000000000000000e+00 0.000000000000000e+00
0.000000000000000e+00 0.000000000000000e+00 0.000000000000000e+00
0.000000000000000e+00 0.000000000000000e+00 0.000000000000000e+00
0.000000000000000e+00 0.000000000000000e+00 0.000000000000000e+00
0.000000000000000e+00 0.000000000000000e+00 0.000000000000000e+00
0.000000000000000e+00 0.000000000000000e+00 0.000000000000000e+00
0.000000000000000e+00 0.000000000000000e+00 0.000000000000000e+00
0.000000000000000e+00 0.000000000000000e+00 0.000000000000000e+00
0.000000000000000e+00 0.000000000000000e+00 0.000000000000000e+00
0.000000000000000e+00 0.000000000000000e+00 0.000000000000000e+00
0.000000000000000e+00 0.000000000000000e+00 0.000000000000000e+00
0.000000000000000e+00 0.000000000000000e+00 0.000000000000000e+00
0.000000000000000e+00 0.000000000000000e+00 0.000000000000000e+00
0.000000000000000e+00 0.000000000000000e+00 0.000000000000000e+00
0.000000000000000e+00 0.000000000000000e+00 0.000000000000000e+00
0.000000000000000e+00 0.000000000000000e+00 0.000000000000000e+00
0.000000000000000e+00 0.000000000000000e+00 0.000000000000000e+00
0.000000000000000e+00 0.000000000000000e+00 0.000000000000000e+00
0.000000000000000e+00 0.000000000000000e+00 0.000000000000000e+00
0.000000000000000e+00 0.000000000000000e+00 0.000000000000000e+00
0.000000000000000e+00 0.000000000000000e+00 0.000000000000000e+00
0.000000000000000e+00 0.000000000000000e+00 0.000000000000000e+00
0.000000000000000e+00 0.000000000000000e+00 0.000000000000000e+00
0.000000000000000e+00 0.000000000000000e+00 0.000000000000000e+00
0.000000000000000e+00 0.000000000000000e+00 0.000000000000000e+00
0.000000000000000e+00 0.000000000000000e+00 0.000000000000000e+00
0.000000000000000e+00 0.000000000000000e+00 0.000000000000000e+00
0.000000000000000e+00 0.000000000000000e+00 0.000000000000000e+00
0.000000000000000e+00 0.000000000000000e+00 0.000000000000000e+00
0.000000000000000e+00 0.000000000000000e+00 0.000000000000000e+00
0.000000000000000e+00 0.000000000000000e+00 0.000000000000000e+00
0.000000000000000e+00 0.000000000000000e+00 0.000000000000000e+00
0.000000000000000e+00 0.000000000000000e+00 0.000000000000000e+00
0.000000000000000e+00 0.000000000000000e+00 0.000000000000000e+00
0.000000000000000e+00 0.000000000000000e+00 0.000000000000000e+00
0.000000000000000e+00 0.000000000000000e+00 0.000000000000000e+00
0.000000000000000e+00 0.000000000000000e+00 0.000000000000000e+00
0.000000000000000e+00 0.000000000000000e+00 0.000000000000000e+00
0.000000000000000e+00 0.000000000000000e+00 0.000000000000000e+00
0.000000000000000e+00 0.000000000000000e+00 0.000000000000000e+00
0.000000000000000e+00 0.000000000000000e+00 0.000000000000000e+00
0.000000000000000e+00 0.000000000000000e+00 0.000000000000000e+00
0.000000000000000e+00 0.000000000000000e+00 0.000000000000000e+00
0.000000000000000e+00 0.000000000000000e+00 0.000000000000000e+00
0.000000000000000e+00 0.000000000000000e+00 0.000000000000000e+00
0.000000000000000e+00 0.000000000000000e+00 0.000000000000000e+00
0.000000000000000e+00 0.000000000000000e+00 0.000000000000000e+00
0.000000000000000e+00 0.000000000000000e+00 0.000000000000000e+00
0.000000000000000e+00 0.000000000000000e+00 0.000000000000000e+00
0.000000000000000e+00 0.000000000000000e+00 0.000000000000000e+00
0.000000000000000e+00 0.000000000000000e+00 0.000000000000000e+00
0.000000000000000e+00 0.000000000000000e+00 0.000000000000000e+00
0.000000000000000e+00 0.000000000000000e+00 0.000000000000000e+00
0.000000000000000e+00 0.000000000000000e+00 0.000000000000000e+00
0.000000000000000e+00 0.000000000000000e+00 0.000000000000000e+00
0.000000000000000e+00 0.000000000000000e+00 0.000000000000000e+00
0.000000000000000e+00 0.000000000000000e+00 0.000000000000000e+00
0.000000000000000e+00 0.000000000000000e+00 0.000000000000000e+00
0.000000000000000e+00 0.000000000000000e+00 0.000000000000000e+00
0.000000000000000e+00 0.000000000000000e+00 0.000000000000000e+00
0.000000000000000e+00 0.000000000000000e+00 0.000000000000000e+00
0.000000000000000e+00 0.000000000000000e+00 0.000000000000000e+00
0.000000000000000e+00 0.000000000000000e+00 0.000000000000000e+00
0.000000000000000e+00 0.000000000000000e+00 0.000000000000000e+00
0.000000000000000e+00 0.000000000000000e+00 0.000000000000000e+00
0.000000000000000e+00 0.000000000000000e+00 0.000000000000000e+00
0.000000000000000e+00 0.000000000000000e+00 0.000000000000000e+00
0.000000000000000e+00 0.000000000000000e+00 0.000000000000000e+00
0.000000000000000e+00 0.000000000000000e+00 0.000000000000000e+00
0.000000000000000e+00 0.000000000000000e+00 0.000000000000000e+00
0.000000000000000e+00 0.000000000000000e+00 0.000000000000000e+00
0.000000000000000e+00 0.000000000000000e+00 0.000000000000000e+00
0.000000000000000e+00 0.000000000000000e+00 0.000000000000000e+00
0.000000000000000e+00 0.000000000000000e+00 0.000000000000000e+00
0.000000000000000e+00 0.000000000000000e+00 0.000000000000000e+00
0.000000000000000e+00 0.000000000000000e+00 0.000000000000000e+00
0.000000000000000e+00 0.000000000000000e+00 0.000000000000000e+00
0.000000000000000e+00 0.000000000000000e+00 0.000000000000000e+00
0.000000000000000e+00 0.000000000000000e+00 0.000000000000000e+00
0.000000000000000e+00 0.000000000000000e+00 0.000000000000000e+00
0.000000000000000e+00 0.000000000000000e+00 0.000000000000000e+00
0.000000000000000e+00 0.000000000000000e+00 0.000000000000000e+00
0.000000000000000e+00 0.000000000000000e+00 0.000000000000000e+00
0.000000000000000e+00 0.000000000000000e+00 0.000000000000000e+00
0.000000000000000e+00 0.000000000000000e+00 0.000000000000000e+00
0.000000000000000e+00 0.000000000000000e+00 0.000000000000000e+00
0.000000000000000e+00 0.000000000000000e+00 0.000000000000000e+00
0.000000000000000e+00 0.000000000000000e+00 0.000000000000000e+00
0.000000000000000e+00 0.000000000000000e+00 0.000000000000000e+00
0.000000000000000e+00 0.000000000000000e+00 0.000000000000000e+00
0.000000000000000e+00 0.000000000000000e+00 0.000000000000000e+00
0.000000000000000e+00 0.000000000000000e+00 0.000000000000000e+00
0.000000000000000e+00 0.000000000000000e+00 0.000000000000000e+00
0.000000000000000e+00 0.000000000000000e+00 0.000000000000000e+00
0.000000000000000e+00 0.000000000000000e+00 0.000000000000000e+00
0.000000000000000e+00 0.000000000000000e+00 0.000000000000000e+00
0.000000000000000e+00 0.000000000000000e+00 0.000000000000000e+00
0.000000000000000e+00 0.000000000000000e+00 0.000000000000000e+00
0.000000000000000e+00 0.000000000000000e+00 0.000000000000000e+00
0.000000000000000e+00 0.000000000000000e+00 0.000000000000000e+00
0.000000000000000e+00 0.000000000000000e+00 0.000000000000000e+00
0.000000000000000e+00 0.000000000000000e+00 0.000000000000000e+00
0.000000000000000e+00 0.000000000000000e+00 0.000000000000000e+00
0.000000000000000e+00 0.000000000000000e+00 0.000000000000000e+00
0.000000000000000e+00 0.000000000000000e+00 0.000000000000000e+00
0.000000000000000e+00 0.000000000000000e+00 0.000000000000000e+00
0.000000000000000e+00 0.000000000000000e+00 0.000000000000000e+00
0.000000000000000e+00 0.000000000000000e+00 0.000000000000000e+00
0.000000000000000e+00 0.000000000000000e+00 0.000000000000000e+00
0.000000000000000e+00 0.000000000000000e+00 0.000000000000000e+00
0.000000000000000e+00 0.000000000000000e+00 0.000000000000000e+00
0.000000000000000e+00 0.000000000000000e+00 0.000000000000000e+00
0.000000000000000e+00 0.000000000000000e+00 0.000000000000000e+00
0.000000000000000e+00 0.000000000000000e+00 0.000000000000000e+00
0.000000000000000e+00 0.000000000000000e+00 0.000000000000000e+00
0.000000000000000e+00 0.000000000000000e+00 0.000000000000000e+00
0.000000000000000e+00 0.000000000000000e+00 0.000000000000000e+00
0.000000000000000e+00 0.000000000000000e+00 0.000000000000000e+00
0.000000000000000e+00 0.000000000000000e+00 0.000000000000000e+00
0.000000000000000e+00 0.000000000000000e+00 0.000000000000000e+00
0.000000000000000e+00 0.000000000000000e+00 0.000000000000000e+00
0.000000000000000e+00 0.000000000000000e+00 0.000000000000000e+00
0.000000000000000e+00 0.000000000000000e+00 0.000000000000000e+00
0.000000000000000e+00 0.000000000000000e+00 0.000000000000000e+00
0.000000000000000e+00 0.000000000000000e+00 0.000000000000000e+00
0.000000000000000e+00 0.000000000000000e+00 0.000000000000000e+00
0.000000000000000e+00 0.000000000000000e+00 0.000000000000000e+00
0.000000000000000e+00 0.000000000000000e+00 0.000000000000000e+00
0.000000000000000e+00 0.000000000000000e+00 0.000000000000000e+00
0.000000000000000e+00 0.000000000000000e+00 0.000000000000000e+00
0.000000000000000e+00 0.000000000000000e+00 0.000000000000000e+00
0.000000000000000e+00 0.000000000000000e+00 0.000000000000000e+00
0.000000000000000e+00 0.000000000000000e+00 0.000000000000000e+00
0.000000000000000e+00 0.000000000000000e+00 0.000000000000000e+00
0.000000000000000e+00 0.000000000000000e+00 0.000000000000000e+00
0.000000000000000e+00 0.000000000000000e+00 0.000000000000000e+00
0.000000000000000e+00 0.000000000000000e+00 0.000000000000000e+00
0.000000000000000e+00 0.000000000000000e+00 0.000000000000000e+00
0.000000000000000e+00 0.000000000000000e+00 0.000000000000000e+00
0.000000000000000e+00 0.000000000000000e+00 0.000000000000000e+00
0.000000000000000e+00 0.000000000000000e+00 0.000000000000000e+00
0.000000000000000e+00 0.000000000000000e+00 0.000000000000000e+00
0.000000000000000e+00 0.000000000000000e+00 0.000000000000000e+00
0.000000000000000e+00 0.000000000000000e+00 0.000000000000000e+00
0.000000000000000e+00 0.000000000000000e+00 0.000000000000000e+00
0.000000000000000e+00 0.000000000000000e+00 0.000000000000000e+00
0.000000000000000e+00 0.000000000000000e+00 0.000000000000000e+00
0.000000000000000e+00 0.000000000000000e+00 0.000000000000000e+00
0.000000000000000e+00 0.000000000000000e+00 0.000000000000000e+00
0.000000000000000e+00 0.000000000000000e+00 0.000000000000000e+00
0.000000000000000e+00 0.000000000000000e+00 0.000000000000000e+00
0.000000000000000e+00 0.000000000000000e+00 0.000000000000000e+00
0.000000000000000e+00 0.000000000000000e+00 0.000000000000000e+00
0.000000000000000e+00 0.000000000000000e+00 0.000000000000000e+00
0.000000000000000e+00 0.000000000000000e+00 0.000000000000000e+00
0.000000000000000e+00 0.000000000000000e+00 0.000000000000000e+00
0.000000000000000e+00 0.000000000000000e+00 0.000000000000000e+00
0.000000000000000e+00 0.000000000000000e+00 0.000000000000000e+00
0.000000000000000e+00 0.000000000000000e+00 0.000000000000000e+00
0.000000000000000e+00 0.000000000000000e+00 0.000000000000000e+00
0.000000000000000e+00 0.000000000000000e+00 0.000000000000000e+00
0.000000000000000e+00 0.000000000000000e+00 0.000000000000000e+00
0.000000000000000e+00 0.000000000000000e+00 0.000000000000000e+00
0.000000000000000e+00 0.000000000000000e+00 0.000000000000000e+00
0.000000000000000e+00 0.000000000000000e+00 0.000000000000000e+00
0.000000000000000e+00 0.000000000000000e+00 0.000000000000000e+00
0.000000000000000e+00 0.000000000000000e+00 0.000000000000000e+00
0.000000000000000e+00 0.000000000000000e+00 0.000000000000000e+00
0.000000000000000e+00 0.000000000000000e+00 0.000000000000000e+00
0.000000000000000e+00 0.000000000000000e+00 0.000000000000000e+00
0.000000000000000e+00 0.000000000000000e+00 0.000000000000000e+00
0.000000000000000e+00 0.000000000000000e+00 0.000000000000000e+00
0.000000000000000e+00 0.000000000000000e+00 0.000000000000000e+00
0.000000000000000e+00 0.000000000000000e+00 0.000000000000000e+00
0.000000000000000e+00 0.000000000000000e+00 0.000000000000000e+00
0.000000000000000e+00 0.000000000000000e+00 0.000000000000000e+00
0.000000000000000e+00 0.000000000000000e+00 0.000000000000000e+00
0.000000000000000e+00 0.000000000000000e+00 0.000000000000000e+00
0.000000000000000e+00 0.000000000000000e+00 0.000000000000000e+00
0.000000000000000e+00 0.000000000000000e+00 0.000000000000000e+00
0.000000000000000e+00 0.000000000000000e+00 0.000000000000000e+00
0.000000000000000e+00 0.000000000000000e+00 0.000000000000000e+00
0.000000000000000e+00 0.000000000000000e+00 0.000000000000000e+00
0.000000000000000e+00 0.000000000000000e+00 0.000000000000000e+00
0.000000000000000e+00 0.000000000000000e+00 0.000000000000000e+00
0.000000000000000e+00 0.000000000000000e+00 0.000000000000000e+00
0.000000000000000e+00 0.000000000000000e+00 0.000000000000000e+00
0.000000000000000e+00 0.000000000000000e+00 0.000000000000000e+00
0.000000000000000e+00 0.000000000000000e+00 0.000000000000000e+00
0.000000000000000e+00 0.000000000000000e+00 0.000000000000000e+00
0.000000000000000e+00 0.000000000000000e+00 0.000000000000000e+00
0.000000000000000e+00 0.000000000000000e+00 0.000000000000000e+00
0.000000000000000e+00 0.000000000000000e+00 0.000000000000000e+00
0.000000000000000e+00 0.000000000000000e+00 0.000000000000000e+00
0.000000000000000e+00 0.000000000000000e+00 0.000000000000000e+00
0.000000000000000e+00 0.000000000000000e+00 0.000000000000000e+00
0.000000000000000e+00 0.000000000000000e+00 0.000000000000000e+00
0.000000000000000e+00 0.000000000000000e+00 0.000000000000000e+00
0.000000000000000e+00 0.000000000000000e+00 0.000000000000000e+00
0.000000000000000e+00 0.000000000000000e+00 0.000000000000000e+00
0.000000000000000e+00 0.000000000000000e+00 0.000000000000000e+00
0.000000000000000e+00 0.000000000000000e+00 0.000000000000000e+00
0.000000000000000e+00 0.000000000000000e+00 0.000000000000000e+00
0.000000000000000e+00 0.000000000000000e+00 0.000000000000000e+00
0.000000000000000e+00 0.000000000000000e+00 0.000000000000000e+00
0.000000000000000e+00 0.000000000000000e+00 0.000000000000000e+00
0.000000000000000e+00 0.000000000000000e+00 0.000000000000000e+00
0.000000000000000e+00 0.000000000000000e+00 0.000000000000000e+00
0.000000000000000e+00 0.000000000000000e+00 0.000000000000000e+00
0.000000000000000e+00 0.000000000000000e+00 0.000000000000000e+00
0.000000000000000e+00 0.000000000000000e+00 0.000000000000000e+00
0.000000000000000e+00 0.000000000000000e+00 0.000000000000000e+00
0.000000000000000e+00 0.000000000000000e+00 0.000000000000000e+00
0.000000000000000e+00 0.000000000000000e+00 0.000000000000000e+00
0.000000000000000e+00 0.000000000000000e+00 0.000000000000000e+00
0.000000000000000e+00 0.000000000000000e+00 0.000000000000000e+00
0.000000000000000e+00 0.000000000000000e+00 0.000000000000000e+00
0.000000000000000e+00 0.000000000000000e+00 0.000000000000000e+00
0.000000000000000e+00 0.000000000000000e+00 0.000000000000000e+00
0.000000000000000e+00 0.000000000000000e+00 0.000000000000000e+00
0.000000000000000e+00 0.000000000000000e+00 0.000000000000000e+00
0.000000000000000e+00 0.000000000000000e+00 0.000000000000000e+00
0.000000000000000e+00 0.000000000000000e+00 0.000000000000000e+00
0.000000000000000e+00 0.000000000000000e+00 0.000000000000000e+00
0.000000000000000e+00 0.000000000000000e+00 0.000000000000000e+00
0.000000000000000e+00 0.000000000000000e+00 0.000000000000000e+00
0.000000000000000e+00 0.000000000000000e+00 0.000000000000000e+00
0.000000000000000e+00 0.000000000000000e+00 0.000000000000000e+00
0.000000000000000e+00 0.000000000000000e+00 0.000000000000000e+00
0.000000000000000e+00 0.000000000000000e+00 0.000000000000000e+00
0.000000000000000e+00 0.000000000000000e+00 0.000000000000000e+00
0.000000000000000e+00 0.000000000000000e+00 0.000000000000000e+00
0.000000000000000e+00 0.000000000000000e+00 0.000000000000000e+00
0.000000000000000e+00 0.000000000000000e+00 0.000000000000000e+00
0.000000000000000e+00 0.000000000000000e+00 0.000000000000000e+00
0.000000000000000e+00 0.000000000000000e+00 0.000000000000000e+00
0.000000000000000e+00 0.000000000000000e+00 0.000000000000000e+00
0.000000000000000e+00 0.000000000000000e+00 0.000000000000000e+00
0.000000000000000e+00 0.000000000000000e+00 0.000000000000000e+00
0.000000000000000e+00 0.000000000000000e+00 0.000000000000000e+00
0.000000000000000e+00 0.000000000000000e+00 0.000000000000000e+00
0.000000000000000e+00 0.000000000000000e+00 0.000000000000000e+00
0.000000000000000e+00 0.000000000000000e+00 0.000000000000000e+00
0.000000000000000e+00 0.000000000000000e+00 0.000000000000000e+00
0.000000000000000e+00 0.000000000000000e+00 0.000000000000000e+00
0.000000000000000e+00 0.000000000000000e+00 0.000000000000000e+00
0.000000000000000e+00 0.000000000000000e+00 0.000000000000000e+00
0.000000000000000e+00 0.000000000000000e+00 0.000000000000000e+00
0.000000000000000e+00 0.000000000000000e+00 0.000000000000000e+00
0.000000000000000e+00 0.000000000000000e+00 0.000000000000000e+00
0.000000000000000e+00 0.000000000000000e+00 0.000000000000000e+00
0.000000000000000e+00 0.000000000000000e+00 0.000000000000000e+00
0.000000000000000e+00 0.000000000000000e+00 0.000000000000000e+00
0.000000000000000e+00 0.000000000000000e+00 0.000000000000000e+00
0.000000000000000e+00 0.000000000000000e+00 0.000000000000000e+00
0.000000000000000e+00 0.000000000000000e+00 0.000000000000000e+00
0.000000000000000e+00 0.000000000000000e+00 0.000000000000000e+00
0.000000000000000e+00 0.000000000000000e+00 0.000000000000000e+00
0.000000000000000e+00 0.000000000000000e+00 0.000000000000000e+00
0.000000000000000e+00 0.000000000000000e+00 0.000000000000000e+00
0.000000000000000e+00 0.000000000000000e+00 0.000000000000000e+00
0.000000000000000e+00 0.000000000000000e+00 0.000000000000000e+00
0.000000000000000e+00 0.000000000000000e+00 0.000000000000000e+00
0.000000000000000e+00 0.000000000000000e+00 0.000000000000000e+00
0.000000000000000e+00 0.000000000000000e+00 0.000000000000000e+00
0.000000000000000e+00 0.000000000000000e+00 0.000000000000000e+00
0.000000000000000e+00 0.000000000000000e+00 0.000000000000000e+00
0.000000000000000e+00 0.000000000000000e+00 0.000000000000000e+00
0.000000000000000e+00 0.000000000000000e+00 0.000000000000000e+00
0.000000000000000e+00 0.000000000000000e+00 0.000000000000000e+00
0.000000000000000e+00 0.000000000000000e+00 0.000000000000000e+00
0.000000000000000e+00 0.000000000000000e+00 0.000000000000000e+00
0.000000000000000e+00 0.000000000000000e+00 0.000000000000000e+00
0.000000000000000e+00 0.000000000000000e+00 0.000000000000000e+00
0.000000000000000e+00 0.000000000000000e+00 0.000000000000000e+00
0.000000000000000e+00 0.000000000000000e+00 0.000000000000000e+00
0.000000000000000e+00 0.000000000000000e+00 0.000000000000000e+00
0.000000000000000e+00 0.000000000000000e+00 0.000000000000000e+00
0.000000000000000e+00 0.000000000000000e+00 0.000000000000000e+00
0.000000000000000e+00 0.000000000000000e+00 0.000000000000000e+00
0.000000000000000e+00 0.000000000000000e+00 0.000000000000000e+00
0.000000000000000e+00 0.000000000000000e+00 0.000000000000000e+00
0.000000000000000e+00 0.000000000000000e+00 0.000000000000000e+00
0.000000000000000e+00 0.000000000000000e+00 0.000000000000000e+00
0.000000000000000e+00 0.000000000000000e+00 0.000000000000000e+00
0.000000000000000e+00 0.000000000000000e+00 0.000000000000000e+00
0.000000000000000e+00 0.000000000000000e+00 0.000000000000000e+00
0.000000000000000e+00 0.000000000000000e+00 0.000000000000000e+00
0.000000000000000e+00 0.000000000000000e+00 0.000000000000000e+00
0.000000000000000e+00 0.000000000000000e+00 0.000000000000000e+00
0.000000000000000e+00 0.000000000000000e+00 0.000000000000000e+00
0.000000000000000e+00 0.000000000000000e+00 0.000000000000000e+00
0.000000000000000e+00 0.000000000000000e+00 0.000000000000000e+00
0.000000000000000e+00 0.000000000000000e+00 0.000000000000000e+00
0.000000000000000e+00 0.000000000000000e+00 0.000000000000000e+00
0.000000000000000e+00 0.000000000000000e+00 0.000000000000000e+00
0.000000000000000e+00 0.000000000000000e+00 0.000000000000000e+00
0.000000000000000e+00 0.000000000000000e+00 0.000000000000000e+00
0.000000000000000e+00 0.000000000000000e+00 0.000000000000000e+00
0.000000000000000e+00 0.000000000000000e+00 0.000000000000000e+00
0.000000000000000e+00 0.000000000000000e+00 0.000000000000000e+00
0.000000000000000e+00 0.000000000000000e+00 0.000000000000000e+00
0.000000000000000e+00 0.000000000000000e+00 0.000000000000000e+00
0.000000000000000e+00 0.000000000000000e+00 0.000000000000000e+00
0.000000000000000e+00 0.000000000000000e+00 0.000000000000000e+00
0.000000000000000e+00 0.000000000000000e+00 0.000000000000000e+00
0.000000000000000e+00 0.000000000000000e+00 0.000000000000000e+00
0.000000000000000e+00 0.000000000000000e+00 0.000000000000000e+00
0.000000000000000e+00 0.000000000000000e+00 0.000000000000000e+00
0.000000000000000e+00 0.000000000000000e+00 0.000000000000000e+00
0.000000000000000e+00 0.000000000000000e+00 0.000000000000000e+00
0.000000000000000e+00 0.000000000000000e+00 0.000000000000000e+00
0.000000000000000e+00 0.000000000000000e+00 0.000000000000000e+00
0.000000000000000e+00 0.000000000000000e+00 0.000000000000000e+00
0.000000000000000e+00 0.000000000000000e+00 0.000000000000000e+00
0.000000000000000e+00 0.000000000000000e+00 0.000000000000000e+00
0.000000000000000e+00 0.000000000000000e+00 0.000000000000000e+00
0.000000000000000e+00 0.000000000000000e+00 0.000000000000000e+00
0.000000000000000e+00 0.000000000000000e+00 0.000000000000000e+00
0.000000000000000e+00 0.000000000000000e+00 0.000000000000000e+00
0.000000000000000e+00 0.000000000000000e+00 0.000000000000000e+00
0.000000000000000e+00 0.000000000000000e+00 0.000000000000000e+00
0.000000000000000e+00 0.000000000000000e+00 0.000000000000000e+00
0.000000000000000e+00 0.000000000000000e+00 0.000000000000000e+00
0.000000000000000e+00 0.000000000000000e+00 0.000000000000000e+00
0.000000000000000e+00 0.000000000000000e+00 0.000000000000000e+00
0.000000000000000e+00 0.000000000000000e+00 0.000000000000000e+00
0.000000000000000e+00 0.000000000000000e+00 0.000000000000000e+00
0.000000000000000e+00 0.000000000000000e+00 0.000000000000000e+00
0.000000000000000e+00 0.000000000000000e+00 0.000000000000000e+00
0.000000000000000e+00 0.000000000000000e+00 0.000000000000000e+00
0.000000000000000e+00 0.000000000000000e+00 0.000000000000000e+00
0.000000000000000e+00 0.000000000000000e+00 0.000000000000000e+00
0.000000000000000e+00 0.000000000000000e+00 0.000000000000000e+00
0.000000000000000e+00 0.000000000000000e+00 0.000000000000000e+00
0.000000000000000e+00 0.000000000000000e+00 0.000000000000000e+00
0.000000000000000e+00 0.000000000000000e+00 0.000000000000000e+00
0.000000000000000e+00 0.000000000000000e+00 0.000000000000000e+00
0.000000000000000e+00 0.000000000000000e+00 0.000000000000000e+00
0.000000000000000e+00 0.000000000000000e+00 0.000000000000000e+00
0.000000000000000e+00 0.000000000000000e+00 0.000000000000000e+00
0.000000000000000e+00 0.000000000000000e+00 0.000000000000000e+00
0.000000000000000e+00 0.000000000000000e+00 0.000000000000000e+00
0.000000000000000e+00 0.000000000000000e+00 0.000000000000000e+00
0.000000000000000e+00 0.000000000000000e+00 0.000000000000000e+00
0.000000000000000e+00 0.000000000000000e+00 0.000000000000000e+00
0.000000000000000e+00 0.000000000000000e+00 0.000000000000000e+00
0.000000000000000e+00 0.000000000000000e+00 0.000000000000000e+00
0.000000000000000e+00 0.000000000000000e+00 0.000000000000000e+00
0.000000000000000e+00 0.000000000000000e+00 0.000000000000000e+00
0.000000000000000e+00 0.000000000000000e+00 0.000000000000000e+00
0.000000000000000e+00 0.000000000000000e+00 0.000000000000000e+00
0.000000000000000e+00 0.000000000000000e+00 0.000000000000000e+00
0.000000000000000e+00 0.000000000000000e+00 0.000000000000000e+00
0.000000000000000e+00 0.000000000000000e+00 0.000000000000000e+00
0.000000000000000e+00 0.000000000000000e+00 0.000000000000000e+00
0.000000000000000e+00 0.000000000000000e+00 0.000000000000000e+00
0.000000000000000e+00 0.000000000000000e+00 0.000000000000000e+00
0.000000000000000e+00 0.000000000000000e+00 0.000000000000000e+00
0.000000000000000e+00 0.000000000000000e+00 0.000000000000000e+00
0.000000000000000e+00 0.000000000000000e+00 0.000000000000000e+00
0.000000000000000e+00 0.000000000000000e+00 0.000000000000000e+00
0.000000000000000e+00 0.000000000000000e+00 0.000000000000000e+00
0.000000000000000e+00 0.000000000000000e+00 0.000000000000000e+00
0.000000000000000e+00 0.000000000000000e+00 0.000000000000000e+00
0.000000000000000e+00 0.000000000000000e+00 0.000000000000000e+00
0.000000000000000e+00 0.000000000000000e+00 0.000000000000000e+00
0.000000000000000e+00 0.000000000000000e+00 0.000000000000000e+00
0.000000000000000e+00 0.000000000000000e+00 0.000000000000000e+00
0.000000000000000e+00 0.000000000000000e+00 0.000000000000000e+00
0.000000000000000e+00 0.000000000000000e+00 0.000000000000000e+00
0.000000000000000e+00 0.000000000000000e+00 0.000000000000000e+00
0.000000000000000e+00 0.000000000000000e+00 0.000000000000000e+00
0.000000000000000e+00 0.000000000000000e+00 0.000000000000000e+00
0.000000000000000e+00 0.000000000000000e+00 0.000000000000000e+00
0.000000000000000e+00 0.000000000000000e+00 0.000000000000000e+00
0.000000000000000e+00 0.000000000000000e+00 0.000000000000000e+00
0.000000000000000e+00 0.000000000000000e+00 0.000000000000000e+00
0.000000000000000e+00 0.000000000000000e+00 0.000000000000000e+00
0.000000000000000e+00 0.000000000000000e+00 0.000000000000000e+00
0.000000000000000e+00 0.000000000000000e+00 0.000000000000000e+00
0.000000000000000e+00 0.000000000000000e+00 0.000000000000000e+00
0.000000000000000e+00 0.000000000000000e+00 0.000000000000000e+00
0.000000000000000e+00 0.000000000000000e+00 0.000000000000000e+00
0.000000000000000e+00 0.000000000000000e+00 0.000000000000000e+00
0.000000000000000e+00 0.000000000000000e+00 0.000000000000000e+00
0.000000000000000e+00 0.000000000000000e+00 0.000000000000000e+00
0.000000000000000e+00 0.000000000000000e+00 0.000000000000000e+00
0.000000000000000e+00 0.000000000000000e+00 0.000000000000000e+00
0.000000000000000e+00 0.000000000000000e+00 0.000000000000000e+00
0.000000000000000e+00 0.000000000000000e+00 0.000000000000000e+00
0.000000000000000e+00 0.000000000000000e+00 0.000000000000000e+00
0.000000000000000e+00 0.000000000000000e+00 0.000000000000000e+00
0.000000000000000e+00 0.000000000000000e+00 0.000000000000000e+00
0.000000000000000e+00 0.000000000000000e+00 0.000000000000000e+00
0.000000000000000e+00 0.000000000000000e+00 0.000000000000000e+00
0.000000000000000e+00 0.000000000000000e+00 0.000000000000000e+00
0.000000000000000e+00 0.000000000000000e+00 0.000000000000000e+00
0.000000000000000e+00 0.000000000000000e+00 0.000000000000000e+00
0.000000000000000e+00 0.000000000000000e+00 0.000000000000000e+00
0.000000000000000e+00 0.000000000000000e+00 0.000000000000000e+00
0.000000000000000e+00 0.000000000000000e+00 0.000000000000000e+00
0.000000000000000e+00 0.000000000000000e+00 0.000000000000000e+00
0.000000000000000e+00 0.000000000000000e+00 0.000000000000000e+00
0.000000000000000e+00 0.000000000000000e+00 0.000000000000000e+00
0.000000000000000e+00 0.000000000000000e+00 0.000000000000000e+00
0.000000000000000e+00 0.000000000000000e+00 0.000000000000000e+00
0.000000000000000e+00 0.000000000000000e+00 0.000000000000000e+00
0.000000000000000e+00 0.000000000000000e+00 0.000000000000000e+00
0.000000000000000e+00 0.000000000000000e+00 0.000000000000000e+00
0.000000000000000e+00 0.000000000000000e+00 0.000000000000000e+00
0.000000000000000e+00 0.000000000000000e+00 0.000000000000000e+00
0.000000000000000e+00 0.000000000000000e+00 0.000000000000000e+00
0.000000000000000e+00 0.000000000000000e+00 0.000000000000000e+00
0.000000000000000e+00 0.000000000000000e+00 0.000000000000000e+00
0.000000000000000e+00 0.000000000000000e+00 0.000000000000000e+00
0.000000000000000e+00 0.000000000000000e+00 0.000000000000000e+00
0.000000000000000e+00 0.000000000000000e+00 0.000000000000000e+00
0.000000000000000e+00 0.000000000000000e+00 0.000000000000000e+00
0.000000000000000e+00 0.000000000000000e+00 0.000000000000000e+00
0.000000000000000e+00 0.000000000000000e+00 0.000000000000000e+00
0.000000000000000e+00 0.000000000000000e+00 0.000000000000000e+00
0.000000000000000e+00 0.000000000000000e+00 0.000000000000000e+00
0.000000000000000e+00 0.000000000000000e+00 0.000000000000000e+00
0.000000000000000e+00 0.000000000000000e+00 0.000000000000000e+00
0.000000000000000e+00 0.000000000000000e+00 0.000000000000000e+00
0.000000000000000e+00 0.000000000000000e+00 0.000000000000000e+00
0.000000000000000e+00 0.000000000000000e+00 0.000000000000000e+00
0.000000000000000e+00 0.000000000000000e+00 0.000000000000000e+00
0.000000000000000e+00 0.000000000000000e+00 0.000000000000000e+00
0.000000000000000e+00 0.000000000000000e+00 0.000000000000000e+00
0.000000000000000e+00 0.000000000000000e+00 0.000000000000000e+00
0.000000000000000e+00 0.000000000000000e+00 0.000000000000000e+00
0.000000000000000e+00 0.000000000000000e+00 0.000000000000000e+00
0.000000000000000e+00 0.000000000000000e+00 0.000000000000000e+00
0.000000000000000e+00 0.000000000000000e+00 0.000000000000000e+00
0.000000000000000e+00 0.000000000000000e+00 0.000000000000000e+00
0.000000000000000e+00 0.000000000000000e+00 0.000000000000000e+00
0.000000000000000e+00 0.000000000000000e+00 0.000000000000000e+00
0.000000000000000e+00 0.000000000000000e+00 0.000000000000000e+00
0.000000000000000e+00 0.000000000000000e+00 0.000000000000000e+00
0.000000000000000e+00 0.000000000000000e+00 0.000000000000000e+00
0.000000000000000e+00 0.000000000000000e+00 0.000000000000000e+00
0.000000000000000e+00 0.000000000000000e+00 0.000000000000000e+00
0.000000000000000e+00 0.000000000000000e+00 0.000000000000000e+00
0.000000000000000e+00 0.000000000000000e+00 0.000000000000000e+00
0.000000000000000e+00 0.000000000000000e+00 0.000000000000000e+00
0.000000000000000e+00 0.000000000000000e+00 0.000000000000000e+00
0.000000000000000e+00 0.000000000000000e+00 0.000000000000000e+00
0.000000000000000e+00 0.000000000000000e+00 0.000000000000000e+00
0.000000000000000e+00 0.000000000000000e+00 0.000000000000000e+00
0.000000000000000e+00 0.000000000000000e+00 0.000000000000000e+00
0.000000000000000e+00 0.000000000000000e+00 0.000000000000000e+00
0.000000000000000e+00 0.000000000000000e+00 0.000000000000000e+00
0.000000000000000e+00 0.000000000000000e+00 0.000000000000000e+00
0.000000000000000e+00 0.000000000000000e+00 0.000000000000000e+00
0.000000000000000e+00 0.000000000000000e+00 0.000000000000000e+00
0.000000000000000e+00 0.000000000000000e+00 0.000000000000000e+00
0.000000000000000e+00 0.000000000000000e+00 0.000000000000000e+00
0.000000000000000e+00 0.000000000000000e+00 0.000000000000000e+00
0.000000000000000e+00 0.000000000000000e+00 0.000000000000000e+00
0.000000000000000e+00 0.000000000000000e+00 0.000000000000000e+00
0.000000000000000e+00 0.000000000000000e+00 0.000000000000000e+00
0.000000000000000e+00 0.000000000000000e+00 0.000000000000000e+00
0.000000000000000e+00 0.000000000000000e+00 0.000000000000000e+00
0.000000000000000e+00 0.000000000000000e+00 0.000000000000000e+00
0.000000000000000e+00 0.000000000000000e+00 0.000000000000000e+00
0.000000000000000e+00 0.000000000000000e+00 0.000000000000000e+00
0.000000000000000e+00 0.000000000000000e+00 0.000000000000000e+00
0.000000000000000e+00 0.000000000000000e+00 0.000000000000000e+00
0.000000000000000e+00 0.000000000000000e+00 0.000000000000000e+00
0.000000000000000e+00 0.000000000000000e+00 0.000000000000000e+00
0.000000000000000e+00 0.000000000000000e+00 0.000000000000000e+00
0.000000000000000e+00 0.000000000000000e+00 0.000000000000000e+00
0.000000000000000e+00 0.000000000000000e+00 0.000000000000000e+00
0.000000000000000e+00 0.000000000000000e+00 0.000000000000000e+00
0.000000000000000e+00 0.000000000000000e+00 0.000000000000000e+00
0.000000000000000e+00 0.000000000000000e+00 0.000000000000000e+00
0.000000000000000e+00 0.000000000000000e+00 0.000000000000000e+00
0.000000000000000e+00 0.000000000000000e+00 0.000000000000000e+00
0.000000000000000e+00 0.000000000000000e+00 0.000000000000000e+00
0.000000000000000e+00 0.000000000000000e+00 0.000000000000000e+00
0.000000000000000e+00 0.000000000000000e+00 0.000000000000000e+00
0.000000000000000e+00 0.000000000000000e+00 0.000000000000000e+00
0.000000000000000e+00 0.000000000000000e+00 0.000000000000000e+00
0.000000000000000e+00 0.000000000000000e+00 0.000000000000000e+00
0.000000000000000e+00 0.000000000000000e+00 0.000000000000000e+00
0.000000000000000e+00 0.000000000000000e+00 0.000000000000000e+00
0.000000000000000e+00 0.000000000000000e+00 0.000000000000000e+00
0.000000000000000e+00 0.000000000000000e+00 0.000000000000000e+00
0.000000000000000e+00 0.000000000000000e+00 0.000000000000000e+00
0.000000000000000e+00 0.000000000000000e+00 0.000000000000000e+00
0.000000000000000e+00 0.000000000000000e+00 0.000000000000000e+00
0.000000000000000e+00 0.000000000000000e+00 0.000000000000000e+00
0.000000000000000e+00 0.000000000000000e+00 0.000000000000000e+00
0.000000000000000e+00 0.000000000000000e+00 0.000000000000000e+00
0.000000000000000e+00 0.000000000000000e+00 0.000000000000000e+00
0.000000000000000e+00 0.000000000000000e+00 0.000000000000000e+00
0.000000000000000e+00 0.000000000000000e+00 0.000000000000000e+00
0.000000000000000e+00 0.000000000000000e+00 0.000000000000000e+00
0.000000000000000e+00 0.000000000000000e+00 0.000000000000000e+00
0.000000000000000e+00 0.000000000000000e+00 0.000000000000000e+00
0.000000000000000e+00 0.000000000000000e+00 0.000000000000000e+00
0.000000000000000e+00 0.000000000000000e+00 0.000000000000000e+00
0.000000000000000e+00 0.000000000000000e+00 0.000000000000000e+00
0.000000000000000e+00 0.000000000000000e+00 0.000000000000000e+00
0.000000000000000e+00 0.000000000000000e+00 0.000000000000000e+00
0.000000000000000e+00 0.000000000000000e+00 0.000000000000000e+00
0.000000000000000e+00 0.000000000000000e+00 0.000000000000000e+00
0.000000000000000e+00 0.000000000000000e+00 0.000000000000000e+00
0.000000000000000e+00 0.000000000000000e+00 0.000000000000000e+00
0.000000000000000e+00 0.000000000000000e+00 0.000000000000000e+00
0.000000000000000e+00 0.000000000000000e+00 0.000000000000000e+00
0.000000000000000e+00 0.000000000000000e+00 0.000000000000000e+00
0.000000000000000e+00 0.000000000000000e+00 0.000000000000000e+00
0.000000000000000e+00 0.000000000000000e+00 0.000000000000000e+00
0.000000000000000e+00 0.000000000000000e+00 0.000000000000000e+00
0.000000000000000e+00 0.000000000000000e+00 0.000000000000000e+00
0.000000000000000e+00 0.000000000000000e+00 0.000000000000000e+00
0.000000000000000e+00 0.000000000000000e+00 0.000000000000000e+00
0.000000000000000e+00 0.000000000000000e+00 0.000000000000000e+00
0.000000000000000e+00 0.000000000000000e+00 0.000000000000000e+00
0.000000000000000e+00 0.000000000000000e+00 0.000000000000000e+00
0.000000000000000e+00 0.000000000000000e+00 0.000000000000000e+00
0.000000000000000e+00 0.000000000000000e+00 0.000000000000000e+00
0.000000000000000e+00 0.000000000000000e+00 0.000000000000000e+00
0.000000000000000e+00 0.000000000000000e+00 0.000000000000000e+00
0.000000000000000e+00 0.000000000000000e+00 0.000000000000000e+00
0.000000000000000e+00 0.000000000000000e+00 0.000000000000000e+00
0.000000000000000e+00 0.000000000000000e+00 0.000000000000000e+00
0.000000000000000e+00 0.000000000000000e+00 0.000000000000000e+00
0.000000000000000e+00 0.000000000000000e+00 0.000000000000000e+00
0.000000000000000e+00 0.000000000000000e+00 0.000000000000000e+00
0.000000000000000e+00 0.000000000000000e+00 0.000000000000000e+00
0.000000000000000e+00 0.000000000000000e+00 0.000000000000000e+00
0.000000000000000e+00 0.000000000000000e+00 0.000000000000000e+00
0.000000000000000e+00 0.000000000000000e+00 0.000000000000000e+00
0.000000000000000e+00 0.000000000000000e+00 0.000000000000000e+00
0.000000000000000e+00 0.000000000000000e+00 0.000000000000000e+00
0.000000000000000e+00 0.000000000000000e+00 0.000000000000000e+00
0.000000000000000e+00 0.000000000000000e+00 0.000000000000000e+00
0.000000000000000e+00 0.000000000000000e+00 0.000000000000000e+00
0.000000000000000e+00 0.000000000000000e+00 0.000000000000000e+00
0.000000000000000e+00 0.000000000000000e+00 0.000000000000000e+00
0.000000000000000e+00 0.000000000000000e+00 0.000000000000000e+00
0.000000000000000e+00 0.000000000000000e+00 0.000000000000000e+00
0.000000000000000e+00 0.000000000000000e+00 0.000000000000000e+00
0.000000000000000e+00 0.000000000000000e+00 0.000000000000000e+00
0.000000000000000e+00 0.000000000000000e+00 0.000000000000000e+00
0.000000000000000e+00 0.000000000000000e+00 0.000000000000000e+00
0.000000000000000e+00 0.000000000000000e+00 0.000000000000000e+00
0.000000000000000e+00 0.000000000000000e+00 0.000000000000000e+00
0.000000000000000e+00 0.000000000000000e+00 0.000000000000000e+00
0.000000000000000e+00 0.000000000000000e+00 0.000000000000000e+00
0.000000000000000e+00 0.000000000000000e+00 0.000000000000000e+00
0.000000000000000e+00 0.000000000000000e+00 0.000000000000000e+00
0.000000000000000e+00 0.000000000000000e+00 0.000000000000000e+00
0.000000000000000e+00 0.000000000000000e+00 0.000000000000000e+00
0.000000000000000e+00 0.000000000000000e+00 0.000000000000000e+00
0.000000000000000e+00 0.000000000000000e+00 0.000000000000000e+00
0.000000000000000e+00 0.000000000000000e+00 0.000000000000000e+00
0.000000000000000e+00 0.000000000000000e+00 0.000000000000000e+00
0.000000000000000e+00 0.000000000000000e+00 0.000000000000000e+00
0.000000000000000e+00 0.000000000000000e+00 0.000000000000000e+00
0.000000000000000e+00 0.000000000000000e+00 0.000000000000000e+00
0.000000000000000e+00 0.000000000000000e+00 0.000000000000000e+00
0.000000000000000e+00 0.000000000000000e+00 0.000000000000000e+00
0.000000000000000e+00 0.000000000000000e+00 0.000000000000000e+00
0.000000000000000e+00 0.000000000000000e+00 0.000000000000000e+00
0.000000000000000e+00 0.000000000000000e+00 0.000000000000000e+00
0.000000000000000e+00 0.000000000000000e+00 0.000000000000000e+00
0.000000000000000e+00 0.000000000000000e+00 0.000000000000000e+00
0.000000000000000e+00 0.000000000000000e+00 0.000000000000000e+00
0.000000000000000e+00 0.000000000000000e+00 0.000000000000000e+00
0.000000000000000e+00 0.000000000000000e+00 0.000000000000000e+00
0.000000000000000e+00 0.000000000000000e+00 0.000000000000000e+00
0.000000000000000e+00 0.000000000000000e+00 0.000000000000000e+00
0.000000000000000e+00 0.000000000000000e+00 0.000000000000000e+00
0.000000000000000e+00 0.000000000000000e+00 0.000000000000000e+00
0.000000000000000e+00 0.000000000000000e+00 0.000000000000000e+00
0.000000000000000e+00 0.000000000000000e+00 0.000000000000000e+00
0.000000000000000e+00 0.000000000000000e+00 0.000000000000000e+00
0.000000000000000e+00 0.000000000000000e+00 0.000000000000000e+00
0.000000000000000e+00 0.000000000000000e+00 0.000000000000000e+00
0.000000000000000e+00 0.000000000000000e+00 0.000000000000000e+00
0.000000000000000e+00 0.000000000000000e+00 0.000000000000000e+00
0.000000000000000e+00 0.000000000000000e+00 0.000000000000000e+00
0.000000000000000e+00 0.000000000000000e+00 0.000000000000000e+00
0.000000000000000e+00 0.000000000000000e+00 0.000000000000000e+00
0.000000000000000e+00 0.000000000000000e+00 0.000000000000000e+00
0.000000000000000e+00 0.000000000000000e+00 0.000000000000000e+00
0.000000000000000e+00 0.000000000000000e+00 0.000000000000000e+00
0.000000000000000e+00 0.000000000000000e+00 0.000000000000000e+00
0.000000000000000e+00 0.000000000000000e+00 0.000000000000000e+00
0.000000000000000e+00 0.000000000000000e+00 0.000000000000000e+00
0.000000000000000e+00 0.000000000000000e+00 0.000000000000000e+00
0.000000000000000e+00 0.000000000000000e+00 0.000000000000000e+00
0.000000000000000e+00 0.000000000000000e+00 0.000000000000000e+00
0.000000000000000e+00 0.000000000000000e+00 0.000000000000000e+00
0.000000000000000e+00 0.000000000000000e+00 0.000000000000000e+00
0.000000000000000e+00 0.000000000000000e+00 0.000000000000000e+00
0.000000000000000e+00 0.000000000000000e+00 0.000000000000000e+00
0.000000000000000e+00 0.000000000000000e+00 0.000000000000000e+00
0.000000000000000e+00 0.000000000000000e+00 0.000000000000000e+00
0.000000000000000e+00 0.000000000000000e+00 0.000000000000000e+00
0.000000000000000e+00 0.000000000000000e+00 0.000000000000000e+00
0.000000000000000e+00 0.000000000000000e+00 0.000000000000000e+00
0.000000000000000e+00 0.000000000000000e+00 0.000000000000000e+00
0.000000000000000e+00 0.000000000000000e+00 0.000000000000000e+00
0.000000000000000e+00 0.000000000000000e+00 0.000000000000000e+00
0.000000000000000e+00 0.000000000000000e+00 0.000000000000000e+00
0.000000000000000e+00 0.000000000000000e+00 0.000000000000000e+00
0.000000000000000e+00 0.000000000000000e+00 0.000000000000000e+00
0.000000000000000e+00 0.000000000000000e+00 0.000000000000000e+00
0.000000000000000e+00 0.000000000000000e+00 0.000000000000000e+00
0.000000000000000e+00 0.000000000000000e+00 0.000000000000000e+00
0.000000000000000e+00 0.000000000000000e+00 0.000000000000000e+00
0.000000000000000e+00 0.000000000000000e+00 0.000000000000000e+00
0.000000000000000e+00 0.000000000000000e+00 0.000000000000000e+00
0.000000000000000e+00 0.000000000000000e+00 0.000000000000000e+00
0.000000000000000e+00 0.000000000000000e+00 0.000000000000000e+00
0.000000000000000e+00 0.000000000000000e+00 0.000000000000000e+00
0.000000000000000e+00 0.000000000000000e+00 0.000000000000000e+00
0.000000000000000e+00 0.000000000000000e+00 0.000000000000000e+00
0.000000000000000e+00 0.000000000000000e+00 0.000000000000000e+00
0.000000000000000e+00 0.000000000000000e+00 0.000000000000000e+00
0.000000000000000e+00 0.000000000000000e+00 0.000000000000000e+00
0.000000000000000e+00 0.000000000000000e+00 0.000000000000000e+00
0.000000000000000e+00 0.000000000000000e+00 0.000000000000000e+00
0.000000000000000e+00 0.000000000000000e+00 0.000000000000000e+00
0.000000000000000e+00 0.000000000000000e+00 0.000000000000000e+00
0.000000000000000e+00 0.000000000000000e+00 0.000000000000000e+00
0.000000000000000e+00 0.000000000000000e+00 0.000000000000000e+00
0.000000000000000e+00 0.000000000000000e+00 0.000000000000000e+00
0.000000000000000e+00 0.000000000000000e+00 0.000000000000000e+00
0.000000000000000e+00 0.000000000000000e+00 0.000000000000000e+00
0.000000000000000e+00 0.000000000000000e+00 0.000000000000000e+00
0.000000000000000e+00 0.000000000000000e+00 0.000000000000000e+00
0.000000000000000e+00 0.000000000000000e+00 0.000000000000000e+00
0.000000000000000e+00 0.000000000000000e+00 0.000000000000000e+00
0.000000000000000e+00 0.000000000000000e+00 0.000000000000000e+00
0.000000000000000e+00 0.000000000000000e+00 0.000000000000000e+00
0.000000000000000e+00 0.000000000000000e+00 0.000000000000000e+00
0.000000000000000e+00 0.000000000000000e+00 0.000000000000000e+00
0.000000000000000e+00 0.000000000000000e+00 0.000000000000000e+00
0.000000000000000e+00 0.000000000000000e+00 0.000000000000000e+00
0.000000000000000e+00 0.000000000000000e+00 0.000000000000000e+00
0.000000000000000e+00 0.000000000000000e+00 0.000000000000000e+00
0.000000000000000e+00 0.000000000000000e+00 0.000000000000000e+00
0.000000000000000e+00 0.000000000000000e+00 0.000000000000000e+00
0.000000000000000e+00 0.000000000000000e+00 0.000000000000000e+00
0.000000000000000e+00 0.000000000000000e+00 0.000000000000000e+00
0.000000000000000e+00 0.000000000000000e+00 0.000000000000000e+00
0.000000000000000e+00 0.000000000000000e+00 0.000000000000000e+00
0.000000000000000e+00 0.000000000000000e+00 0.000000000000000e+00
0.000000000000000e+00 0.000000000000000e+00 0.000000000000000e+00
0.000000000000000e+00 0.000000000000000e+00 0.000000000000000e+00
0.000000000000000e+00 0.000000000000000e+00 0.000000000000000e+00
0.000000000000000e+00 0.000000000000000e+00 0.000000000000000e+00
0.000000000000000e+00 0.000000000000000e+00 0.000000000000000e+00
0.000000000000000e+00 0.000000000000000e+00 0.000000000000000e+00
0.000000000000000e+00 0.000000000000000e+00 0.000000000000000e+00
0.000000000000000e+00 0.000000000000000e+00 0.000000000000000e+00
0.000000000000000e+00 0.000000000000000e+00 0.000000000000000e+00
0.000000000000000e+00 0.000000000000000e+00 0.000000000000000e+00
0.000000000000000e+00 0.000000000000000e+00 0.000000000000000e+00
0.000000000000000e+00 0.000000000000000e+00 0.000000000000000e+00
0.000000000000000e+00 0.000000000000000e+00 0.000000000000000e+00
0.000000000000000e+00 0.000000000000000e+00 0.000000000000000e+00
0.000000000000000e+00 0.000000000000000e+00 0.000000000000000e+00
0.000000000000000e+00 0.000000000000000e+00 0.000000000000000e+00
0.000000000000000e+00 0.000000000000000e+00 0.000000000000000e+00
0.000000000000000e+00 0.000000000000000e+00 0.000000000000000e+00
0.000000000000000e+00 0.000000000000000e+00 0.000000000000000e+00
0.000000000000000e+00 0.000000000000000e+00 0.000000000000000e+00
0.000000000000000e+00 0.000000000000000e+00 0.000000000000000e+00
0.000000000000000e+00 0.000000000000000e+00 0.000000000000000e+00
0.000000000000000e+00 0.000000000000000e+00 0.000000000000000e+00
0.000000000000000e+00 0.000000000000000e+00 0.000000000000000e+00
0.000000000000000e+00 0.000000000000000e+00 0.000000000000000e+00
0.000000000000000e+00 0.000000000000000e+00 0.000000000000000e+00
0.000000000000000e+00 0.000000000000000e+00 0.000000000000000e+00
0.000000000000000e+00 0.000000000000000e+00 0.000000000000000e+00
0.000000000000000e+00 0.000000000000000e+00 0.000000000000000e+00
0.000000000000000e+00 0.000000000000000e+00 0.000000000000000e+00
0.000000000000000e+00 0.000000000000000e+00 0.000000000000000e+00
0.000000000000000e+00 0.000000000000000e+00 0.000000000000000e+00
0.000000000000000e+00 0.000000000000000e+00 0.000000000000000e+00
0.000000000000000e+00 0.000000000000000e+00 0.000000000000000e+00
0.000000000000000e+00 0.000000000000000e+00 0.000000000000000e+00
0.000000000000000e+00 0.000000000000000e+00 0.000000000000000e+00
0.000000000000000e+00 0.000000000000000e+00 0.000000000000000e+00
0.000000000000000e+00 0.000000000000000e+00 0.000000000000000e+00
0.000000000000000e+00 0.000000000000000e+00 0.000000000000000e+00
0.000000000000000e+00 0.000000000000000e+00 0.000000000000000e+00
0.000000000000000e+00 0.000000000000000e+00 0.000000000000000e+00
0.000000000000000e+00 0.000000000000000e+00 0.000000000000000e+00
0.000000000000000e+00 0.000000000000000e+00 0.000000000000000e+00
0.000000000000000e+00 0.000000000000000e+00 0.000000000000000e+00
0.000000000000000e+00 0.000000000000000e+00 0.000000000000000e+00
0.000000000000000e+00 0.000000000000000e+00 0.000000000000000e+00
0.000000000000000e+00 0.000000000000000e+00 0.000000000000000e+00
0.000000000000000e+00 0.000000000000000e+00 0.000000000000000e+00
0.000000000000000e+00 0.000000000000000e+00 0.000000000000000e+00
0.000000000000000e+00 0.000000000000000e+00 0.000000000000000e+00
0.000000000000000e+00 0.000000000000000e+00 0.000000000000000e+00
0.000000000000000e+00 0.000000000000000e+00 0.000000000000000e+00
0.000000000000000e+00 0.000000000000000e+00 0.000000000000000e+00
0.000000000000000e+00 0.000000000000000e+00 0.000000000000000e+00
0.000000000000000e+00 0.000000000000000e+00 0.000000000000000e+00
0.000000000000000e+00 0.000000000000000e+00 0.000000000000000e+00
0.000000000000000e+00 0.000000000000000e+00 0.000000000000000e+00
0.000000000000000e+00 0.000000000000000e+00 0.000000000000000e+00
0.000000000000000e+00 0.000000000000000e+00 0.000000000000000e+00
0.000000000000000e+00 0.000000000000000e+00 0.000000000000000e+00
0.000000000000000e+00 0.000000000000000e+00 0.000000000000000e+00
0.000000000000000e+00 0.000000000000000e+00 0.000000000000000e+00
0.000000000000000e+00 0.000000000000000e+00 0.000000000000000e+00
0.000000000000000e+00 0.000000000000000e+00 0.000000000000000e+00
0.000000000000000e+00 0.000000000000000e+00 0.000000000000000e+00
0.000000000000000e+00 0.000000000000000e+00 0.000000000000000e+00
0.000000000000000e+00 0.000000000000000e+00 0.000000000000000e+00
0.000000000000000e+00 0.000000000000000e+00 0.000000000000000e+00
0.000000000000000e+00 0.000000000000000e+00 0.000000000000000e+00
0.000000000000000e+00 0.000000000000000e+00 0.000000000000000e+00
0.000000000000000e+00 0.000000000000000e+00 0.000000000000000e+00
0.000000000000000e+00 0.000000000000000e+00 0.000000000000000e+00
0.000000000000000e+00 0.000000000000000e+00 0.000000000000000e+00
0.000000000000000e+00 0.000000000000000e+00 0.000000000000000e+00
0.000000000000000e+00 0.000000000000000e+00 0.000000000000000e+00
0.000000000000000e+00 0.000000000000000e+00 0.000000000000000e+00
0.000000000000000e+00 0.000000000000000e+00 0.000000000000000e+00
0.000000000000000e+00 0.000000000000000e+00 0.000000000000000e+00
0.000000000000000e+00 0.000000000000000e+00 0.000000000000000e+00
0.000000000000000e+00 0.000000000000000e+00 0.000000000000000e+00
0.000000000000000e+00 0.000000000000000e+00 0.000000000000000e+00
0.000000000000000e+00 0.000000000000000e+00 0.000000000000000e+00
0.000000000000000e+00 0.000000000000000e+00 0.000000000000000e+00
0.000000000000000e+00 0.000000000000000e+00 0.000000000000000e+00
0.000000000000000e+00 0.000000000000000e+00 0.000000000000000e+00
0.000000000000000e+00 0.000000000000000e+00 0.000000000000000e+00
0.000000000000000e+00 0.000000000000000e+00 0.000000000000000e+00
0.000000000000000e+00 0.000000000000000e+00 0.000000000000000e+00
0.000000000000000e+00 0.000000000000000e+00 0.000000000000000e+00
0.000000000000000e+00 0.000000000000000e+00 0.000000000000000e+00
0.000000000000000e+00 0.000000000000000e+00 0.000000000000000e+00
0.000000000000000e+00 0.000000000000000e+00 0.000000000000000e+00
0.000000000000000e+00 0.000000000000000e+00 0.000000000000000e+00
0.000000000000000e+00 0.000000000000000e+00 0.000000000000000e+00
0.000000000000000e+00 0.000000000000000e+00 0.000000000000000e+00
0.000000000000000e+00 0.000000000000000e+00 0.000000000000000e+00
0.000000000000000e+00 0.000000000000000e+00 0.000000000000000e+00
0.000000000000000e+00 0.000000000000000e+00 0.000000000000000e+00
0.000000000000000e+00 0.000000000000000e+00 0.000000000000000e+00
0.000000000000000e+00 0.000000000000000e+00 0.000000000000000e+00
0.000000000000000e+00 0.000000000000000e+00 0.000000000000000e+00
0.000000000000000e+00 0.000000000000000e+00 0.000000000000000e+00
0.000000000000000e+00 0.000000000000000e+00 0.000000000000000e+00
0.000000000000000e+00 0.000000000000000e+00 0.000000000000000e+00
0.000000000000000e+00 0.000000000000000e+00 0.000000000000000e+00
0.000000000000000e+00 0.000000000000000e+00 0.000000000000000e+00
0.000000000000000e+00 0.000000000000000e+00 0.000000000000000e+00
0.000000000000000e+00 0.000000000000000e+00 0.000000000000000e+00
0.000000000000000e+00 0.000000000000000e+00 0.000000000000000e+00
0.000000000000000e+00 0.000000000000000e+00 0.000000000000000e+00
0.000000000000000e+00 0.000000000000000e+00 0.000000000000000e+00
0.000000000000000e+00 0.000000000000000e+00 0.000000000000000e+00
0.000000000000000e+00 0.000000000000000e+00 0.000000000000000e+00
0.000000000000000e+00 0.000000000000000e+00 0.000000000000000e+00
0.000000000000000e+00 0.000000000000000e+00 0.000000000000000e+00
0.000000000000000e+00 0.000000000000000e+00 0.000000000000000e+00
0.000000000000000e+00 0.000000000000000e+00 0.000000000000000e+00
0.000000000000000e+00 0.000000000000000e+00 0.000000000000000e+00
0.000000000000000e+00 0.000000000000000e+00 0.000000000000000e+00
0.000000000000000e+00 0.000000000000000e+00 0.000000000000000e+00
0.000000000000000e+00 0.000000000000000e+00 0.000000000000000e+00
0.000000000000000e+00 0.000000000000000e+00 0.000000000000000e+00
0.000000000000000e+00 0.000000000000000e+00 0.000000000000000e+00
0.000000000000000e+00 0.000000000000000e+00 0.000000000000000e+00
0.000000000000000e+00 0.000000000000000e+00 0.000000000000000e+00
0.000000000000000e+00 0.000000000000000e+00 0.000000000000000e+00
0.000000000000000e+00 0.000000000000000e+00 0.000000000000000e+00
0.000000000000000e+00 0.000000000000000e+00 0.000000000000000e+00
0.000000000000000e+00 0.000000000000000e+00 0.000000000000000e+00
0.000000000000000e+00 0.000000000000000e+00 0.000000000000000e+00
0.000000000000000e+00 0.000000000000000e+00 0.000000000000000e+00
0.000000000000000e+00 0.000000000000000e+00 0.000000000000000e+00
0.000000000000000e+00 0.000000000000000e+00 0.000000000000000e+00
0.000000000000000e+00 0.000000000000000e+00 0.000000000000000e+00
0.000000000000000e+00 0.000000000000000e+00 0.000000000000000e+00
0.000000000000000e+00 0.000000000000000e+00 0.000000000000000e+00
0.000000000000000e+00 0.000000000000000e+00 0.000000000000000e+00
0.000000000000000e+00 0.000000000000000e+00 0.000000000000000e+00
0.000000000000000e+00 0.000000000000000e+00 0.000000000000000e+00
0.000000000000000e+00 0.000000000000000e+00 0.000000000000000e+00
0.000000000000000e+00 0.000000000000000e+00 0.000000000000000e+00
0.000000000000000e+00 0.000000000000000e+00 0.000000000000000e+00
0.000000000000000e+00 0.000000000000000e+00 0.000000000000000e+00
0.000000000000000e+00 0.000000000000000e+00 0.000000000000000e+00
0.000000000000000e+00 0.000000000000000e+00 0.000000000000000e+00
0.000000000000000e+00 0.000000000000000e+00 0.000000000000000e+00
0.000000000000000e+00 0.000000000000000e+00 0.000000000000000e+00
0.000000000000000e+00 0.000000000000000e+00 0.000000000000000e+00
0.000000000000000e+00 0.000000000000000e+00 0.000000000000000e+00
0.000000000000000e+00 0.000000000000000e+00 0.000000000000000e+00
0.000000000000000e+00 0.000000000000000e+00 0.000000000000000e+00
0.000000000000000e+00 0.000000000000000e+00 0.000000000000000e+00
0.000000000000000e+00 0.000000000000000e+00 0.000000000000000e+00
0.000000000000000e+00 0.000000000000000e+00 0.000000000000000e+00
0.000000000000000e+00 0.000000000000000e+00 0.000000000000000e+00
0.000000000000000e+00 0.000000000000000e+00 0.000000000000000e+00
0.000000000000000e+00 0.000000000000000e+00 0.000000000000000e+00
0.000000000000000e+00 0.000000000000000e+00 0.000000000000000e+00
 2.006281767212723e+01  1.669537553010730e+00 -3.741956641315304e-16
-2.635347767345735e+01 -1.313165746905999e+00  4.824838717789469e-16
 2.005681798318550e+01 -1.418166577974944e-01 -3.554778860095710e-16
 2.141475630931318e+01 -6.280088523395022e-01 -3.746485701500868e-16
-2.482363163266458e+01  6.507975481085338e+00  3.748990516959106e-16
 2.671834188316065e+01 -6.570642841957098e+00 -4.079737963277802e-16
 2.372669856329610e+01  3.675142277031331e+00 -4.600056549864090e-16
-2.771040688139124e+01 -4.512781315337352e+00  5.395069332749303e-16
-2.050147797064077e+01  3.345604074260943e+00  3.304733890348307e-16
 2.501175859922120e+01 -4.274076290891522e+00 -4.011994981400878e-16
 2.401078977769377e+01  2.055588253695402e+00 -4.484210677710750e-16
-2.353306577733188e+01 -1.877807041533922e+00  4.380927619626869e-16
-2.336125167323935e+01  4.490413549738013e+00  3.696039718494874e-16
 2.180378340524090e+01 -4.535693820568216e+00 -3.414217278708045e-16
 2.727639156607751e+01 -3.690282991345890e-01 -4.816242926597781e-16
-2.604208510030302e+01  5.503815689846935e-01  4.577949977986535e-16
-2.294212038159063e+01  6.527011127558431e+00  3.412197302832540e-16
 2.528259044974105e+01 -6.871884328957267e+00 -3.793277400979611e-16
 2.314441009676682e+01  9.993908082966914e-01 -4.221507628280257e-16
-2.509187093828089e+01 -1.513257297342022e+00  4.620879430206664e-16
-2.048932588564071e+01  3.400259143710495e+00  3.296955672037443e-16
 1.784956634392850e+01 -3.025181909629111e+00 -2.865716796643170e-16
 2.590939837122684e+01  1.090726077603319e+00 -4.722954640828572e-16
-2.282561047666521e+01 -1.022053386891915e+00  4.167101930731346e-16
-2.689655014976281e+01  4.404436466532230e+00  4.334022085941562e-16
 2.662520758667988e+01 -4.047438211085788e+00 -4.322413714002898e-16
 2.456134565595863e+01  3.586661813387061e+00 -4.739500909823504e-16
-2.309957580339460e+01 -3.675125112891765e+00  4.488450810597539e-16
-2.491566256219834e+01  2.445002092964217e+00  4.182824274667235e-16
 2.349805044218307e+01 -2.414086192476137e+00 -3.933719784463005e-16
 2.457371012899761e+01  3.348979487033660e+00 -4.717280319686731e-16
-2.126045166002463e+01 -2.507845365438699e+00  4.041222977761422e-16
-2.706699625521114e+01  6.051355084560222e+00  4.195140098343097e-16
 2.385032876548987e+01 -5.117997293542705e+00 -3.718594871149966e-16
 2.836144955691305e+01  6.042642632445123e+00 -5.668117835558647e-16
-2.757890922762088e+01 -6.196843559211908e+00  5.544699034538909e-16
-2.332237482803027e+01  3.592050584552041e+00  3.781424651326459e-16
 2.540007153298696e+01 -4.073126618164028e+00 -4.101746748803698e-16
 2.635662215262002e+01  4.231175818797123e+00 -5.125213249959108e-16
-2.981787521289342e+01 -4.675387596884563e+00  5.786825665857707e-16
-1.649913466530408e+01  2.644343993980512e+00  2.664521083250012e-16
 2.759165034671948e+01 -3.906846028770193e+00 -4.508849067320526e-16
 2.069630456322133e+01  3.821879279196235e+00 -4.075838483622621e-16
-2.764131092172241e+01 -4.322521269271120e+00  5.363224353939667e-16
-1.863794632588968e+01  4.304264230643750e+00  2.874597356632889e-16
 1.875886857022541e+01 -4.447958102577191e+00 -2.881352889076752e-16
 2.663784437502543e+01  3.812030490498323e+00 -5.132194439124547e-16
-1.988129579666780e+01 -3.170025369533872e+00  3.863822330620451e-16
-2.912575778115446e+01  5.927890864069362e+00  4.574206769815243e-16
 2.337879404881183e+01 -5.015986171993869e+00 -3.645160915807376e-16
 2.823171128085450e+01  3.757785420133670e+00 -5.410268583424694e-16
-2.610869571488675e+01 -3.310217794486990e+00  4.986466691568186e-16
-2.495994800302167e+01  6.520857983317759e+00  3.771926010804341e-16
 2.255989392544010e+01 -6.415219760617772e+00 -3.355661702439040e-16
 2.268819074874937e+01 -6.810151585117850e-01 -3.967662344676314e-16
 1.165343651262569e+01  5.878987571327630e-01 -2.134272496272261e-16
 1.956622175337282e+01  3.148467741441091e+00 -3.805536178299591e-16
-2.438553669365303e+01 -3.766055645653698e+00  4.726645672442473e-16
-2.776734394556090e+01  6.805219949520597e-01  4.871608913145192e-16
 2.772420472443543e+01 -7.152257709299022e-01 -4.860366087249139e-16
 2.260125837983694e+01  3.397076591812012e+00 -4.371200805474360e-16
-2.975723236351058e+01 -4.043456138018337e+00  5.711104885663329e-16
-1.729628713958823e+01  2.351114573794183e+00  2.836512132533554e-16
 2.566984237231159e+01 -2.833985015048219e+00 -4.277072985878161e-16
 2.884448015935248e+01  5.758124429014173e+00 -5.724845681216177e-16
-2.857010885332666e+01 -5.802361244685784e+00  5.680563206607100e-16
-1.266486058042850e+01  6.320202446045152e-02  2.247369233768680e-16
 2.109390633266902e+01 -1.557490700197175e+00 -3.593885737586316e-16
-2.465258536388926e+01  4.127532158674761e+00  3.963132697033091e-16
 2.563585492062905e+01 -3.011794410555757e+00 -4.252755243976102e-16
 2.921590173418464e+01  8.915350737179450e+00 -6.115338114811228e-16
-2.897915705086521e+01 -8.465348999235351e+00  6.026970530575636e-16
-2.196274498385421e+01  6.434317563718353e+00  3.247429695351472e-16
 1.951567314705868e+01 -6.072324264924173e+00 -2.849137568693537e-16
 2.938756512015133e+01  8.217460030556639e+00 -6.074181927149511e-16
-2.907008630124593e+01 -8.300851222718443e+00  6.026250926374939e-16
-1.742735682867149e+01  3.792090110396884e+00  2.711782545426123e-16
 2.486690481339544e+01 -6.269976182974358e+00 -3.781145058958681e-16
 2.345137020703674e+01  2.329228694456003e+00 -4.412770853350157e-16
-2.626323811414697e+01 -2.197764134415422e+00  4.899668782619095e-16
-2.107567386083760e+01  6.318595103705016e+00  3.101454870015827e-16
 2.701330821250134e+01 -7.547744223312034e+00 -4.031837122673646e-16
 2.241621247295612e+01  2.896551598429495e+00 -4.286842554216259e-16
-2.563806727755757e+01 -3.623117962323728e+00  4.934862102831914e-16
-2.422887508834893e+01  4.876109867934723e+00  3.810814759037449e-16
 2.415016842570422e+01 -4.870514863695379e+00 -3.797382835933901e-16
 2.580725852978442e+01  3.314532635311322e+00 -4.933265683035346e-16
-2.585149643691552e+01 -3.277707989878020e+00  4.937354747750152e-16
-1.990459627395697e+01  3.870697631075419e+00  3.144560217085737e-16
 1.082804118086693e+01 -2.772655722276137e+00 -1.642098786519654e-16
 2.102338877238307e+01 -5.554850494688747e-01 -3.684288737181427e-16
 2.237163391797802e+01 -4.997021566826484e-02 -3.976164856097057e-16
-1.630202137765669e+01 -7.944122440022237e-01  2.982762133904599e-16
-2.452179243056422e+01 -1.554467071160223e+00  4.523661314183931e-16
-1.376573241165477e+01  3.062434108720440e+00  2.135122306531805e-16
 2.490156340412886e+01 -4.455237171752257e+00 -3.973770809576918e-16
 2.174724867668678e+01  3.618479763282748e+00 -4.241967963360541e-16
-2.457121907329514e+01 -4.063262896374918e+00  4.790227032122819e-16
-2.499316951056344e+01  3.660479109614686e+00  4.071731712683332e-16
 2.704664860581457e+01 -4.454143017878900e+00 -4.355626729050570e-16
 2.099136251087022e+01 -2.433544240444181e-01 -3.710659569811692e-16
-2.010643101364406e+01  3.456663242606237e-01  3.542663277957979e-16
-2.380168824738579e+01  5.082057766057848e+00  3.713631366638987e-16
 1.924183734152974e+01 -3.660534331382023e+00 -3.048207874988818e-16
 2.891455138040083e+01  4.136820192282263e+00 -5.570732570280282e-16
-2.647801175735654e+01 -3.610116602896226e+00  5.083004399810332e-16
-2.397681102566277e+01  6.828503078220933e+00  3.565355642481945e-16
 2.612609007774582e+01 -7.515499872814306e+00 -3.877259062349988e-16
 2.194050577845001e+01  1.570674477589198e+00 -4.065955815863539e-16
-1.251760424383831e+01 -1.902417474381859e+00  2.423123475117631e-16
-2.314365804852978e+01  1.391496017520546e+00  3.975718856380131e-16
-1.206687992392140e+01  1.634640701511149e+00  1.979491827516509e-16
-1.925308529785179e+01  6.302741391980536e+00  2.778732405905103e-16
 2.061558636692494e+01 -5.446274062510107e+00 -3.109204630439994e-16
 2.874486987235747e+01  5.100191578244801e+00 -5.639518632133039e-16
-2.601024683630005e+01 -5.236532229214239e+00  5.166868349700713e-16
-2.652598209229940e+01  5.173106892391168e+00  4.189096985924128e-16
 2.605190158784191e+01 -5.418047802620877e+00 -4.079561916387555e-16
 2.462719290231558e+01  2.640448153377550e+00 -4.653999196524889e-16
-2.235858624894705e+01 -2.174842621979490e+00  4.202434304688397e-16
-2.324347726424794e+01  6.598353008832360e+00  3.458497235676187e-16
 1.522352195306376e+01 -4.366201697669884e+00 -2.260595961019526e-16
 2.996225083128224e+01  5.418931737281537e+00 -5.888915488666116e-16
-2.905729442494212e+01 -4.916743171666273e+00  5.676269650637798e-16
-2.610860740852827e+01  8.882702839330678e+00  3.733672674672486e-16
 2.634167947794273e+01 -9.932200180192277e+00 -3.667318590362513e-16
 1.578895186118694e+01 -2.576028425516350e+00 -2.545154758379204e-16
 1.353886796723928e+01 -6.791463336899333e-01 -2.339623233609669e-16
 2.143021550471433e+01  2.439545439593599e+00 -4.064416909669288e-16
-2.856078355574405e+01 -2.477036438558476e+00  5.337238614798527e-16
-2.404680704766893e+01  5.529038444442228e+00  3.711327540085840e-16
 2.320624027021480e+01 -5.693807640663933e+00 -3.544809219038931e-16
 1.900770996958140e+01  4.423378428520158e-01 -3.428097327724700e-16
-4.628278479712214e+00 -3.402271120876272e-01  8.586144633880053e-17
-2.869891181117587e+01  8.376174169926644e+00  4.246692222104663e-16
 2.474040612147459e+01 -6.811712578445064e+00 -3.702971661132299e-16
 2.886889169555169e+01  5.110585160164129e+00 -5.662657697739233e-16
-2.704451525297898e+01 -5.034055714158588e+00  5.330125025266222e-16
-2.405013469594220e+01  6.078828364718831e+00  3.655430817707024e-16
 1.630126377097255e+01 -5.066926461440389e+00 -2.380396049343646e-16
 2.849579998529016e+01 -4.002744429420312e-01 -5.030040772657448e-16
 5.219522559181343e+00 -3.866930414111686e-02 -9.249031695820337e-17
 2.093152731093245e+01  1.157889566391527e+00 -3.843983911936554e-16
-2.351961512229619e+01 -5.963484137629456e-01  4.246868696269061e-16
-2.793990491063101e+01  6.239546979865505e+00  4.331148572417072e-16
 2.766113254836891e+01 -6.562791882370598e+00 -4.248325465757795e-16
 2.281533734768520e+01 -3.447628019455744e+00 -3.706030177471672e-16
 1.365526919558745e+01 -1.562723471759672e+00 -2.269553879577280e-16
 1.904360609110277e+01  1.076550528172874e+00 -3.499648520244069e-16
-2.413674819640780e+01 -6.661239171895308e-01  4.363864067747883e-16
-2.814368903009488e+01  7.871775328478421e+00  4.199708853890384e-16
 2.658143896322141e+01 -7.288048808145503e+00 -3.981663598766488e-16
 2.657735375085622e+01  3.180545743135951e+00 -5.056546647211846e-16
-2.958816142094230e+01 -3.059304481618502e+00  5.579898687111309e-16
-1.398036507377401e+01  5.429982317757733e+00  1.930061771127973e-16
 1.488819983920175e+01 -5.655603039125957e+00 -2.068440087176422e-16
 2.907398001618839e+01  3.461088452133547e+00 -5.529675816178891e-16
-2.795286845543409e+01 -3.376145491042330e+00  5.321433060161283e-16
-2.186399818242866e+01  7.569630420449467e+00  3.113207252384714e-16
 1.418695691390509e+01 -5.709310608085167e+00 -1.938127286290814e-16
 2.595896033342087e+01 -4.038776045435358e-01 -4.578209684318558e-16
 2.708236627859457e+01  1.475134696492264e-01 -4.834786602571065e-16
 1.109430416788876e+01  4.199987862028809e-01 -2.017517113880488e-16
-2.244197946418236e+01 -4.094378553327060e-01  4.035886195532683e-16
-2.308134178213506e+01  3.516586486433466e+00  3.746283607606504e-16
 2.142390295786292e+01 -3.193138070765474e+00 -3.484555747909551e-16
 2.722362335033473e+01  1.804907995857996e+00 -5.030216250185898e-16
-2.864705576708411e+01 -1.777636798547614e+00  5.280731011609517e-16
-2.407927395423760e+01  4.399008569662022e+00  3.833211877939875e-16
 2.434821509149666e+01 -4.444884167891757e+00 -3.876359610306561e-16
 2.011331919696287e+01  5.409380724286834e-01 -3.634984493326678e-16
 1.327238882386268e+01  8.790148504326822e-01 -2.452295492651190e-16
 2.288865747469571e+01  3.289009463204939e+00 -4.411243397728251e-16
-2.570737187756898e+01 -3.234922013300265e+00  4.907309959567902e-16
-2.699747168214002e+01  2.715659919018183e+00  4.525497931872023e-16
 2.285865839556450e+01 -2.567850410561733e+00 -3.804133628028701e-16
 2.955916816038976e+01  1.535303938689688e+00 -5.418153471045125e-16
 4.331562198652414e+00  1.899972265821946e-01 -7.903746868130340e-17
 2.169012247494195e+01  1.626747250747288e+00 -4.027158394062533e-16
-2.821015527083091e+01 -1.833983206219947e+00  5.208768745458027e-16
-1.980386992782116e+01  2.320233380514842e+00  3.285939331654719e-16
 1.902870334752484e+01 -2.201081311445646e+00 -3.160231634443486e-16
 2.683989332442595e+01  2.419080982499407e+00 -5.025030958040366e-16
-2.776349106464202e+01 -2.406209391625338e+00  5.188073683790108e-16
-2.373494124642881e+01  3.555202027199328e+00  3.858631822180307e-16
 2.462412314119407e+01 -3.420203164856876e+00 -4.030742989577354e-16
 2.436767515072400e+01  4.081909348418007e+00 -4.755919818361464e-16
-2.450997235076704e+01 -3.913121335900299e+00  4.763900947373530e-16
-2.449484134923600e+01  4.645466079303533e+00  3.881844439135368e-16
 2.238184671770951e+01 -4.322829005455614e+00 -3.538961627034130e-16
 2.711443501981917e+01  4.628788168208478e+00 -5.300928313683292e-16
-2.631274728311964e+01 -4.258380160804399e+00  5.120200340885839e-16
-2.047106573200336e+01  4.647683819983771e+00  3.165537705926130e-16
 5.335158043004149e+00 -2.283971504448818e+00 -7.147852387585495e-17
 2.112133651680072e+01 -1.066156156494422e+00 -3.649250105548689e-16
 2.587470696983924e+01  2.083672613208897e-01 -4.626121729130889e-16
 1.143969879826794e+01  3.146320684122023e+00 -2.359103879410386e-16
-1.587059527752645e+01 -3.629491983324745e+00  3.197278857337228e-16
-2.856422606374849e+01  2.173080878835032e+00  4.860068588347222e-16
 1.900098555165176e+01 -2.026731216597722e+00 -3.173212760916177e-16
 2.763670660754336e+01  9.223336580210731e-01 -5.013048036169875e-16
-1.698101093926887e+01 -6.507078740996479e-01  3.088831323706964e-16
-1.860970309842661e+01  6.043445681488657e-01  3.249724441995030e-16
-1.087047671506101e+01  3.597309364548716e-01  1.897569952282793e-16
 5.460921858880440e+00 -1.603598700685189e-02 -9.701885456109814e-17
 1.911998089118868e+01 -2.700607965225127e-01 -3.374880905194084e-16
 2.156151524490762e+01  4.346093419342745e+00 -4.283674143616538e-16
-2.330103867854713e+01 -4.809865240664467e+00  4.640893958309214e-16
-2.649329323312008e+01  1.782240809974257e+00  4.531678785419832e-16
 2.689466281195071e+01 -1.841556113437293e+00 -4.597012857723719e-16
 2.724636736552803e+01  4.892094843424664e+00 -5.351461052712303e-16
-2.880644145447691e+01 -5.249041292840397e+00  5.665769797061355e-16
-1.479183179979821e+01  7.383669359477517e-01  2.556518391733892e-16
 2.546610827633510e+01 -6.754803659016926e-01 -4.462594584738612e-16
 2.342037993079412e+01  5.638433155033132e+00 -4.747264500949590e-16
-2.851835063956609e+01 -6.406572903446667e+00  5.733432768095792e-16
-1.942193391114689e+01  2.658753349041719e+00  3.183187564581830e-16
 2.772982585396741e+01 -2.446411726980787e+00 -4.683493366216668e-16
 2.118478253802644e+01  7.644216317713878e+00 -4.555500211269642e-16
-2.328569992350089e+01 -8.978407423080050e+00  5.066466810002303e-16
-2.565311578937614e+01 -5.250447941343092e-01  4.619224401423203e-16
 2.482399533329291e+01  3.237461985879754e-01 -4.450989826706111e-16
 2.423248327432692e+01  8.549723392664664e+00 -5.190912474084593e-16
-2.475772094322688e+01 -7.629430994178171e+00  5.189828081746351e-16
-2.678841221803643e+01  4.346057681439261e+00  4.320775859168139e-16
 2.472573115091626e+01 -5.017444812273406e+00 -3.884714569992468e-16
 1.347210961191415e+01  4.054636482669150e-01 -2.439182523499735e-16
 1.756802540168862e+01  1.962138671643087e+00 -3.328042299820711e-16
-1.365840211312387e+01 -2.289677109767360e+00  2.665931584646324e-16
-2.317575015476146e+01 -4.341618497691226e+00  4.570486719175117e-16
-1.900514210134320e+01  1.041242874033249e+00  3.275207815709037e-16
 2.599155469836772e+01 -6.901768780112155e-01 -4.554594030057434e-16
 2.572765785432703e+01  6.921197147570783e+00 -5.289671469971949e-16
-9.469649301484152e+00 -3.188594877356907e+00  2.012853591654760e-16
 2.336064578860787e+01  5.821658151801031e+00 -4.755459800628054e-16
-2.789781802924645e+01 -5.319749407645840e+00  5.511334422036729e-16
-2.842835079773047e+01  7.102908441284356e+00  4.329366090592662e-16
 2.891628105447236e+01 -7.675001501009106e+00 -4.357418616388002e-16
 2.430702710965777e+01  2.455580962289688e+00 -4.578027442332516e-16
-2.306421378142794e+01 -3.134655204250253e+00  4.426626397226176e-16
-2.309077613625696e+01  1.179185832524904e+00  3.988121989551645e-16
-8.068363799431491e+00  6.234059324711414e-01  1.371808886138824e-16
-2.962193946066716e+01  4.040746415222967e+00  4.856405455022349e-16
 2.741368241500408e+01 -3.162898497984394e+00 -4.553615457222599e-16
 2.975615883759891e+01  5.668892638482190e+00 -5.877921534597569e-16
-2.563830460947075e+01 -5.391072617297239e+00  5.116555257223180e-16
-1.024480289098261e+01 -6.725417077743747e-01  1.892286096203661e-16
-2.344411999079618e+01  3.689114973800015e-01  4.134256487736917e-16
-2.247653073095177e+01  3.756183791908619e+00  3.614032513860631e-16
 2.758747341696614e+01 -3.571412017449065e+00 -4.542570358976685e-16
 2.142926533268550e+01  5.687180049964613e+00 -4.397930473713655e-16
-1.672916350927228e+01 -4.812712873418532e+00  3.471642963663036e-16
-2.867859876821125e+01  3.673140459817319e+00  4.726296902741077e-16
 1.994193106080692e+01 -3.291609560280329e+00 -3.210703583368398e-16
 2.955223596889615e+01  2.581165855258715e+00 -5.524378317476938e-16
-2.616676357494240e+01 -2.594666150613187e+00  4.923280227893035e-16
 1.642517127776262e+01  1.155599967234761e+00 -3.041788854079541e-16
-2.574336733054348e+01 -1.325370733161121e+00  4.717516322610091e-16
-2.697964971820876e+01  4.883861015255593e+00  4.299551514617455e-16
 2.627653379828247e+01 -4.415551094412872e+00 -4.222540792731505e-16
 2.620534074083836e+01  4.584484932646013e+00 -5.134592146154280e-16
-2.327005185206743e+01 -4.545035106082651e+00  4.608169148632516e-16
-2.605303863659009e+01  2.243592026878476e+00  4.405928066846759e-16
 2.251861494375893e+01 -2.157057251674834e+00 -3.785826344366382e-16
 2.600247348092044e+01  3.632183369576424e+00 -5.000643971184664e-16
-2.418801014939840e+01 -3.177884669709109e+00  4.631061036595144e-16
-2.742345875715690e+01  4.367921180143167e+00  4.431543570838970e-16
 2.936629695440474e+01 -4.463573366602668e+00 -4.767466888383572e-16
 1.876291109947324e+01  3.515233760015754e+00 -3.700261341242380e-16
-2.498061966680450e+01 -4.655088670019333e+00  4.923892699559226e-16
-2.357078854187256e+01  2.676949411734370e+00  3.919656156108055e-16
 2.469312394062965e+01 -2.874644427704359e+00 -4.099076683305114e-16
 1.334331601188948e+01  1.034630451098043e+00 -2.480906769488244e-16
 1.683642189001617e+01  2.536937521680126e+00 -3.256903221803143e-16
-2.515689727038720e+01 -5.405729422586181e+00  5.032389012302995e-16
-1.758114186541897e+01 -3.608048320715235e+00  3.499487768351444e-16
-2.178647455082450e+01  1.819694122853722e+00  3.690196064100658e-16
 2.871322540681635e+01 -2.589171771843630e+00 -4.843832971058172e-16
 1.957439097221318e+01  3.594122101375123e+00 -3.852779354789225e-16
-2.504373191247758e+01 -3.481473703065757e+00  4.814539602061824e-16
-2.274131566695634e+01  6.149012423074557e+00  3.415299702298517e-16
 2.155087341828596e+01 -5.414880817502702e+00 -3.278875659624512e-16
 2.812031796976382e+01  6.793372402977061e+00 -5.702340350041209e-16
-2.616615217219695e+01 -6.908959634998483e+00  5.366449404415804e-16
-2.559775399451204e+01  3.870636183856486e+00  4.157731857413547e-16
 2.698866216285321e+01 -4.221189881616763e+00 -4.369242438326468e-16
 2.300344383454297e+01  4.541316982663338e+00 -4.560341048034692e-16
-2.464854485390886e+01 -4.990050268138147e+00  4.899212112854741e-16
-2.465989620437101e+01  2.855762685897909e+00  4.095103441647576e-16
 2.646473215416938e+01 -2.928293789082660e+00 -4.408843220413077e-16
 2.524107616003194e+01  5.475499693500514e+00 -5.054538291714610e-16
-2.617048906477604e+01 -5.551349545640195e+00  5.227731701307818e-16
-2.442989612544111e+01  3.393087922346174e+00  3.998963967967047e-16
 2.787722389053090e+01 -3.607448242521869e+00 -4.590432320789324e-16
 2.257784188166311e+01  5.249759357235028e+00 -4.557389984184601e-16
-2.688559825986387e+01 -6.419678878458493e+00  5.444211597248244e-16
-2.395413923015720e+01  1.708628357289079e+00  4.087369454571068e-16
 2.788262236888928e+01 -1.556504717887692e+00 -4.802120041067603e-16
 2.128285710205111e+01  6.567209925537261e+00 -4.462295255475010e-16
-2.501047734773109e+01 -7.509951821881966e+00  5.222533047997143e-16
-2.384618105940720e+01  1.235441268557336e+00  4.116775264722791e-16
 2.256013811029335e+01 -1.688792903927839e+00 -3.841328347828103e-16
 2.634806332550520e+01  4.515323227083682e+00 -5.152885218553360e-16
-2.511486115607608e+01 -4.486558362512871e+00  4.930466696995842e-16
-2.528231355636522e+01  2.275548878894853e-01  4.475908837618889e-16
 2.622319981907479e+01  1.961616189219622e-01 -4.686886103200940e-16
 2.402705999855213e+01  7.266227781322151e+00 -5.022480440285743e-16
-1.809215975948877e+01 -5.783314612087928e+00  3.813930207553650e-16
-2.350494725555670e+01 -1.764485849390431e+00  4.364280252437511e-16
-1.454598934674282e+01  6.949466568672787e-01  2.517229070643149e-16
-1.930722360333335e+01  5.448835579569063e+00  2.876102683363034e-16
 1.264645308202362e+01 -2.528589933431322e+00 -1.990783748291550e-16
 3.012749911056656e+01  8.459483704536561e+00 -6.230729060293062e-16
-2.426795984769284e+01 -7.821521695951040e+00  5.122405874505087e-16
-2.889364878336082e+01  2.809867343793259e+00  4.853265794795921e-16
 2.866422381088032e+01 -3.146349514720323e+00 -4.777864563516839e-16
 2.561503122204247e+01  4.754355174188994e+00 -5.046993076050652e-16
-2.739631503560835e+01 -5.009079307666095e+00  5.390165757971878e-16
-1.973628592174854e+01  2.390350981014843e+00  3.266707622876787e-16
 2.233075144949713e+01 -2.491202629993819e+00 -3.718061570852035e-16
 2.451728348858531e+01  4.923831858765872e+00 -4.869048886161472e-16
-2.160652158986295e+01 -4.711177198097871e+00  4.329194591567100e-16
-2.767274795630685e+01  7.382393959730865e-01  4.848844175177890e-16
 2.179617390191117e+01 -8.955258277526669e-01 -3.786877114409886e-16
 1.632525113302358e+01  1.234297723252714e+00 -3.032092780981856e-16
 1.758246994424234e+01  1.598534075108667e+00 -3.293253827074913e-16
-1.847249153321813e+01 -2.213447353923373e+00  3.514823890984863e-16
-1.872212360772103e+01 -2.145773850698413e+00  3.552295689744009e-16
-2.007120140844274e+01  2.958593776503517e+00  3.267924945779282e-16
 2.624977303934527e+01 -4.217811873019592e+00 -4.238095383127774e-16
 2.425806509486079e+01  8.158904815670033e-01 -4.400841827395968e-16
-2.862337812052039e+01 -9.539015468695442e-01  5.191881487255825e-16
-1.804683357269639e+01  3.004962089684502e+00  2.902900366141753e-16
 2.773687087236377e+01 -3.403276960221585e+00 -4.586432684576016e-16
 1.851200221123418e+01  4.695433652908397e+00 -3.776870363289687e-16
-2.234785197097844e+01 -5.554576995671482e+00  4.547779441182718e-16
-2.544494157161562e+01  3.056590929588435e+00  4.214177256631023e-16
 2.368815976824331e+01 -3.153583148033756e+00 -3.891571380967326e-16
 2.697447797763519e+01  4.519041854499910e+00 -5.264745253492556e-16
-2.623104033390628e+01 -4.577393811347260e+00  5.138437108342239e-16
-2.257124549733110e+01  1.843762523502341e+00  3.827382474390094e-16
 2.618214792713966e+01 -1.908909168335306e+00 -4.463292053075424e-16
 2.300109618425707e+01  4.244328454358967e+00 -4.529408763259983e-16
-1.964476812537798e+01 -4.160839192593878e+00  3.923531931075771e-16
-2.543880799992822e+01 -2.464044312498207e+00  4.780310930613050e-16
-2.460341554654994e+01 -1.545514290398620e+00  4.537267255599000e-16
-1.848896834605559e+01  3.353304126700930e+00  2.945792644163504e-16
 1.963355075421167e+01 -3.783417116135359e+00 -3.105292189553546e-16
 2.043386406652735e+01  1.472754531381506e-01 -3.651581872392272e-16
 1.758383520263129e+01  8.646622776863124e-01 -3.218094129858955e-16
-1.445679987853331e+01 -1.852768475800924e+00  2.763125215643539e-16
-2.333767700692485e+01 -3.389940997737478e+00  4.501522128106328e-16
-1.631312486799337e+01  9.022507167205746e-01  2.810412176740699e-16
 2.490126971105411e+01 -7.143229059670264e-01 -4.358083894529039e-16
 2.301305312400283e+01  6.137364441555876e+00 -4.726039214117643e-16
-2.665983408390197e+01 -6.267564002527165e+00  5.388404918213382e-16
-2.191383746358758e+01  4.186088769280468e+00  3.469723360181561e-16
 2.195425379106716e+01 -3.957593836383523e+00 -3.500392952066423e-16
 2.721794837085761e+01  6.985813632000652e+00 -5.561525553264778e-16
-2.058318638941135e+01 -6.489293108961760e+00  4.329774836326631e-16
-1.957842425802549e+01 -2.715500517920505e+00  3.763221950189272e-16
-2.440898056909957e+01 -2.011821914396418e+00  4.550576646453438e-16
-2.227649320315533e+01  3.976753669541823e+00  3.555770696004011e-16
 2.642942343153171e+01 -4.150607964934071e+00 -4.276971270792114e-16
 2.501647365868084e+01  5.059369924352704e+00 -4.971811775353446e-16
-2.517830335373580e+01 -5.593513087735650e+00  5.055492569607037e-16
-2.351727320694135e+01  9.250390063781854e-01  4.090134893858196e-16
 2.113943857192107e+01 -1.168249921315849e+00 -3.641981818718152e-16
 2.604243292799052e+01  2.823473703894455e+00 -4.924663251119632e-16
-2.554735026043301e+01 -2.726891566845911e+00  4.826633921153791e-16
-2.581361823993344e+01  1.867808959827477e+00  4.401930696373666e-16
 2.784841964889361e+01 -1.634995370795307e+00 -4.787968629616394e-16
 2.128955031319853e+01  5.251828846206595e+00 -4.328335764724985e-16
-2.592846115308591e+01 -5.745387471336504e+00  5.204596639386860e-16
-2.395946494620217e+01  2.878099832712499e+00  3.968158283541162e-16
 1.998404741106117e+01 -3.255458562704570e+00 -3.221913073977817e-16
 2.046125790412163e+01 -5.225457079208948e-01 -3.587635241533526e-16
 2.725435085436503e+01  1.957643334717385e-01 -4.870350910307460e-16
 1.305011870743081e+01  4.024648771501838e+00 -2.735942332255447e-16
-2.465610484164196e+01 -5.537318490721114e+00  4.956787324638444e-16
-2.390420622851604e+01  3.361638752455734e+00  3.908642468116904e-16
 2.441098732251810e+01 -4.399572667043811e+00 -3.892186269699611e-16
 1.468816950871141e+01 -6.388675787725152e-01 -2.548293648010443e-16
 1.822457127821998e+01 -3.365626063119081e-01 -3.208699264351702e-16
-7.675274081356554e+00 -1.296170118257151e-01  1.379224253883811e-16
-2.066749913818337e+01 -9.822806974441002e-01  3.778953775818944e-16
-1.787006756586281e+01  2.838009105978650e+00  2.888596559263169e-16
 1.696109983845840e+01 -2.103782659870783e+00 -2.802274009707056e-16
 2.886008083352462e+01  5.644805865230839e+00 -5.715978936512254e-16
-2.381363351846976e+01 -4.776821371823421e+00  4.728721187044103e-16
-2.807400810699493e+01  4.521625999087146e+00  4.531523975895244e-16
 2.927161887256268e+01 -4.706327029513136e+00 -4.725675737340840e-16
 2.099005841708546e+01  4.390965802709690e+00 -4.186587058901789e-16
-2.450970028849977e+01 -4.566430385303559e+00  4.830977662179443e-16
-2.404396628730126e+01  5.578034788373751e+00  3.705787796532799e-16
 2.309344994858145e+01 -5.367679125164527e+00 -3.558245356127040e-16
 2.593576976735064e+01  4.751068601233178e+00 -5.103734642660925e-16
-2.344483096794681e+01 -4.869696256799501e+00  4.672630930985345e-16
-2.656548238326193e+01  2.827447745622118e+00  4.437134490093648e-16
 2.487297397593828e+01 -3.072950936543937e+00 -4.110707869007455e-16
 2.446775596276112e+01  1.484495505926939e+00 -4.506855556016890e-16
-2.486067795151871e+01 -1.228451853863513e+00  4.550473155734160e-16
-2.638301408873430e+01  5.088928202426862e+00  4.172303178900245e-16
 2.656777007826178e+01 -5.289664864136629e+00 -4.184557748307190e-16
 1.869957579312727e+01  1.124185363463618e+00 -3.443318531252934e-16
-9.845998367001947e+00 -6.669629366410621e-01  1.820740875590253e-16
 2.680625395291765e+01 -2.598066206074238e+00 -4.503550782853151e-16
-2.455381525315434e+01  2.254453400949209e+00  4.138007415647797e-16
-2.286050562612713e+01  1.991441962999536e+00  3.863686238793886e-16
-2.019596346667293e+01  2.172905101525564e+00  3.370854499445873e-16
 1.651223251529753e+01 -3.097510248602446e+00 -2.620290815462603e-16
 8.278466920694941e+00 -1.646901877124775e+00 -1.304038752515189e-16
 2.297197084605587e+01 -1.076012806022660e+00 -3.977579824670531e-16
-2.001560782074663e+01  8.913341867983163e-01  3.470434816796017e-16
-2.681143153301122e+01  5.265173538097688e+00  4.230436605464910e-16
 2.266931446999303e+01 -4.258169381847790e+00 -3.596763484035976e-16
 2.625829759076213e+01  1.279131871845287e+00 -4.804403429694667e-16
-2.622704074768708e+01 -1.400436493109831e+00  4.811304510808743e-16
-2.246738400743310e+01  3.540706706005092e+00  3.634544233120391e-16
 2.343653658917257e+01 -3.726016786112271e+00 -3.787976557953160e-16
 2.196425208425126e+01  1.019314426791524e+00 -4.013531511938154e-16
-2.539249494752549e+01 -7.925720903643959e-01  4.600331271656617e-16
-2.291809446086504e+01  5.716350763417210e+00  3.491214011165974e-16
 2.329616390073298e+01 -5.519503120799072e+00 -3.578721357953744e-16
 2.662312587638751e+01  2.777809570888266e+00 -5.023312664271191e-16
-2.747808393609921e+01 -3.035396924728943e+00  5.201928814150946e-16
-2.327978266629853e+01  4.604119067357823e+00  3.669858508048934e-16
 2.522864061117229e+01 -4.804389224589630e+00 -3.996103995031944e-16
 2.567068938878613e+01  3.565280635041815e+00 -4.934725021409651e-16
-2.874121713083364e+01 -3.826656990795769e+00  5.508017530721605e-16
-2.090590408934898e+01  4.548138188774902e+00  3.253150330547138e-16
 2.794647004975520e+01 -5.440593241894869e+00 -4.414406511434023e-16
 1.706918081282479e+01  3.826610919028819e+00 -3.430834705163388e-16
-2.325369659968098e+01 -4.667147562802328e+00  4.617805147670393e-16
-2.636989658920669e+01  4.959808330939825e+00  4.183235361124506e-16
 2.427693471572104e+01 -5.244265787076172e+00 -3.781540859732833e-16
 2.183117613822496e+01 -6.493902853468383e-01 -3.818395712733049e-16
 1.450951474983018e+01  9.237725286216736e-01 -2.677055497005342e-16
 2.414513459987361e+01  5.950045821217200e+00 -4.908260308946581e-16
-2.648104779229829e+01 -6.332197326822681e+00  5.363228604271007e-16
-2.582303221099722e+01  1.181274570267202e+00  4.474144939360812e-16
 2.778416368761398e+01 -1.211430817930896e+00 -4.820053233933905e-16
 2.235124622241439e+01  5.465292579612444e+00 -4.539209839306315e-16
-2.512633657047857e+01 -6.129405464201255e+00  5.101305455591906e-16
-2.408508208406928e+01  9.531836756725616e-01  4.188291494090603e-16
 2.408316012819331e+01 -6.253830990530357e-01 -4.221629777556827e-16
 2.661399428205410e+01  9.063845428749435e+00 -5.667554937147820e-16
-2.897571629115422e+01 -8.948014997867284e+00  6.075950384320846e-16
-2.301100919817358e+01  3.414756257205020e+00  3.744229771468070e-16
 2.362742064001709e+01 -5.072492866533029e+00 -3.683601125844766e-16
 1.392127503252957e+01 -7.998524798479894e-01 -2.395275014351564e-16
 2.734720789193993e+01 -4.053095714351986e-01 -4.825117767583049e-16
 1.123024833844712e+01  1.961419136860903e+00 -2.200085342116305e-16
-2.478766629085973e+01 -3.241822068521130e+00  4.744346335371645e-16
-2.247947333314823e+01  3.081105040680125e+00  3.683918074337627e-16
 2.167419813050747e+01 -2.686517138873924e+00 -3.581152219857488e-16
 2.471901141853909e+01  5.168701975807299e+00 -4.930108292568786e-16
-2.013313045934192e+01 -4.629776226124881e+00  4.058623410489986e-16
-2.798192600708774e+01  1.843991656624910e+00  4.790254069435474e-16
 2.481819432160450e+01 -1.736292628125031e+00 -4.238295961606793e-16
 2.735548872456346e+01  5.616774345428857e+00 -5.445338686473308e-16
-2.888963973973149e+01 -5.784706151642563e+00  5.735613542693982e-16
-2.067430185265469e+01  2.473752850556905e+00  3.425069507716945e-16
 2.358026814930817e+01 -2.262628220482426e+00 -3.963913162627893e-16
 2.534604413403000e+01  7.768343953747754e+00 -5.308800013268960e-16
-2.187507882805955e+01 -6.443967382879548e+00  4.555025452314149e-16
-2.682555370429098e+01  4.826933923869907e+00  4.277977342653491e-16
 2.526658968679541e+01 -5.147052048158821e+00 -3.967650125382870e-16
 2.690323429035738e+01  4.094358122970663e+00 -5.208431878881590e-16
-2.126321015073396e+01 -3.938741640884299e+00  4.188733278310247e-16
-1.945854321627933e+01 -1.317138592435794e-01  3.476412995800729e-16
-1.631829082375668e+01  4.105732983112224e-01  2.861849588800486e-16
-2.645820863494874e+01  3.128687557052049e+00  4.387092550667573e-16
 2.750849834946137e+01 -2.781795519188697e+00 -4.609646030415200e-16
 2.678921489549995e+01  5.030571332602614e+00 -5.284333273782184e-16
-2.878689571297608e+01 -4.964599582661601e+00  5.633066046790751e-16
-1.993248549009165e+01  4.019391569166987e+00  3.134245673834309e-16
 2.708147508385780e+01 -5.650489301777377e+00 -4.238904281578307e-16
 1.601807109514886e+01  1.058122242585930e+00 -2.959325038421192e-16
-1.649346389617004e+01 -1.683266107659073e+00  3.108158119204840e-16
-2.723727222901418e+01  1.759658787383009e+00  4.666398943031453e-16
 1.710066068059851e+01 -1.054294444814099e+00 -2.934941627946924e-16
 2.858236901588801e+01  4.136632225535411e+00 -5.511597443183184e-16
-2.871851183353710e+01 -3.764097356256324e+00  5.497549077052667e-16
-2.569100658981914e+01  5.225097339626399e+00  4.035161305716858e-16
 2.741296412007567e+01 -5.255952226196315e+00 -4.338433960979810e-16
 3.057310324049937e+01  5.142668409332328e+00 -5.969238908036866e-16
-2.490747402585336e+01 -4.857197522819746e+00  4.931641510674847e-16
 1.860837136568331e+01  3.894582517194903e+00 -3.711735858936304e-16
-2.952010449723051e+01 -5.201019361870420e+00  5.787840569460938e-16
-2.683999720911066e+01  4.026786431903512e+00  4.362759984724058e-16
 2.100290870622548e+01 -3.466415409694985e+00 -3.381556545187585e-16
 2.798389150205949e+01  5.073525619746814e+00 -5.501353623493231e-16
-2.766757200658180e+01 -5.136394544089886e+00  5.451520349673629e-16
-2.154331318995474e+01  2.622379459857715e+00  3.564449596947808e-16
 1.830150932455571e+01 -2.594724600529525e+00 -2.990373365791412e-16
 2.801101771725146e+01  3.205948386258554e+00 -5.314294280690282e-16
-2.510342687767487e+01 -2.696826714070014e+00  4.744543405460329e-16
-2.586669968896143e+01  4.771743694673311e+00  4.113008428567738e-16
 2.207348149116438e+01 -4.509634566923583e+00 -3.464890763829946e-16
 2.532254323303949e+01 -1.466003976176137e-01 -4.491385968244197e-16
-2.445971168090507e+01  2.752914183581702e-01  4.324612266450711e-16
-2.426108661306369e+01  6.122220273343637e+00  3.688513866702863e-16
 2.194680105057246e+01 -5.174934499922435e+00 -3.373989317053096e-16
 2.780449123703118e+01  2.445014718161959e+00 -5.199357259857669e-16
-2.388307389073094e+01 -2.825092876108541e+00  4.540545916741127e-16
-2.052104768954985e+01  2.706384824826578e-01  3.624158099351699e-16
-1.693171987327255e+01  1.685467707329585e+00  2.840025836224589e-16
-2.185515469955054e+01  8.430557949398287e+00  3.023176273004647e-16
 2.799293647615363e+01 -9.858233137027913e+00 -3.968779315066991e-16
 2.213766383689242e+01  2.583794428323663e+00 -4.205136838715842e-16
-2.856658082595051e+01 -3.606987035870358e+00  5.454368627254925e-16
-1.728141600266734e+01  4.214315093518048e+00  2.642428551410830e-16
 2.228383517053991e+01 -5.686936930599967e+00 -3.381362169203923e-16
 2.294032956651798e+01  6.936147326701476e-01 -4.153771682595820e-16
-2.392752058850336e+01 -7.300720021652148e-01  4.333199952600695e-16
-2.395599080684370e+01  5.760476627272860e+00  3.671386274185019e-16
 2.238748297375558e+01 -5.189510535662438e+00 -3.450916287208332e-16
 2.631353707665788e+01  2.549312349254180e+00 -4.944740384984858e-16
-2.162446581767408e+01 -2.185352247212272e+00  4.072868642860215e-16
-2.728860306174175e+01  7.216826476112697e+00  4.114829721328991e-16
 2.273961912186600e+01 -5.932688078694135e+00 -3.437224322410475e-16
 2.735640514904474e+01  4.844564718253923e+00 -5.366160041163386e-16
-2.875695134880704e+01 -4.781712615963714e+00  5.608946118539747e-16
-1.910291711652460e+01  5.634569725435159e+00  2.820660398225650e-16
 1.521976073862187e+01 -5.414029577977594e+00 -2.152266099803216e-16
 2.911299488787708e+01  7.735023194738783e-01 -5.260479266078446e-16
-2.446880286269589e+01 -7.441291605071677e-01  4.430971911899135e-16
-2.355858962418722e+01  7.286804343426027e+00  3.443839365248991e-16
 9.625963836129269e+00 -3.639296684042287e+00 -1.339130573534615e-16
 2.160181944747662e+01 -2.600972805285670e+00 -3.577060939355594e-16
 2.064983906507814e+01 -1.071578363255192e+00 -3.564784397745224e-16
 1.807943814988533e+01  3.163180065866720e+00 -3.542456938952796e-16
-2.297707389174737e+01 -3.223600822639502e+00  4.420257653599700e-16
-2.856820871174827e+01  5.340887934494901e+00  4.535296680839891e-16
 2.439485602654451e+01 -5.074650103833335e+00 -3.819953758872696e-16
 2.097881779789033e+01 -7.084966992493195e-01 -3.660635409454147e-16
 1.268819594701877e+01  4.374855955590642e-01 -2.302965874737356e-16
 2.482939575906245e+01  4.372389691573652e+00 -4.867934308252780e-16
-2.508782444753390e+01 -3.918526468607666e+00  4.867291978592818e-16
-2.852799177601785e+01  4.413077528436340e+00  4.623468746152734e-16
 2.584237076623886e+01 -3.946468532128971e+00 -4.193472831525613e-16
 2.566571207869502e+01  5.573992590146818e+00 -5.140227106007343e-16
-2.514091933313186e+01 -5.607770637430980e+00  5.050304548629195e-16
-2.408363658085396e+01  3.468501081541836e+00  3.929594523533340e-16
 2.069560648789716e+01 -2.789789767783137e+00 -3.396389276503574e-16
 2.788730707924890e+01  8.166387716926161e+00 -5.801945618351208e-16
-2.645157206863701e+01 -7.750085498895288e+00  5.503665906550274e-16
-2.753223117608650e+01  3.903386342792182e+00  4.498630187292838e-16
 3.003167044084896e+01 -4.554270179039222e+00 -4.876559269140181e-16
 2.435158057805751e+01  4.255099413988327e+00 -4.770850247265814e-16
-2.929491712634264e+01 -4.910266937436735e+00  5.717892035278298e-16
-1.607031750694289e+01  2.331407077057291e+00  2.620361086207765e-16
 2.824964137156832e+01 -4.069912537706347e+00 -4.609191927570895e-16
 1.545729459570576e+01  1.397724570579504e+00 -2.894421076683556e-16
-1.275109197061750e+01 -1.494092314748916e+00  2.422721474417108e-16
-1.129434069762493e+01  2.319442903540364e-01  1.986131217670807e-16
-2.033664177379405e+01  1.675872354012208e+00  3.446958191486209e-16
-2.269247862567530e+01  5.307163700568561e+00  3.493105466302068e-16
 1.497774846609583e+01 -3.541053537783382e+00 -2.301638613252414e-16
 2.880645698035461e+01 -1.607487334001296e+00 -4.961289151483331e-16
 1.036526173583028e+01  6.370447372428383e-01 -1.910075999791698e-16
 2.118888575878075e+01  4.661485424157564e+00 -4.249765664444609e-16
-2.702555335411968e+01 -5.483762687103575e+00  5.372956286997993e-16
-2.707673750501803e+01  2.785216308369447e+00  4.532457564244670e-16
 2.897872747011919e+01 -2.970524080878425e+00 -4.851899665836887e-16
 2.030641936382102e+01  4.029932223880965e+00 -4.027830445944384e-16
-2.379029054555502e+01 -4.655878636085368e+00  4.712140599811398e-16
-2.349551137503509e+01  2.412257119574510e+00  3.933455857800576e-16
 2.268672799604147e+01 -2.094127526422243e+00 -3.822209868009931e-16
 2.659966218823913e+01  6.616264984516330e+00 -5.413524370802684e-16
-2.348860255591303e+01 -6.114341130019406e+00  4.808303346473086e-16
-2.729325564912624e+01  1.440730096274265e+00  4.709130624870509e-16
 2.522711844038850e+01 -1.577803820754825e+00 -4.327353035558751e-16
 2.386421033547401e+01  4.674131040079643e+00 -4.727170876363496e-16
-2.390302338071649e+01 -4.629926943118739e+00  4.729536310389514e-16
-2.325716989869214e+01  1.176447366279709e+00  4.018015111849463e-16
 1.381553039949118e+01 -1.172894001202827e+00 -2.338127834359065e-16
 2.409544279845978e+01  5.998193412001230e-01 -4.349700725168670e-16
 2.236832459864435e+01  5.198775819034120e-01 -4.034125714350771e-16
-1.360715820453454e+01  2.526744040217058e-01  2.395594737437516e-16
-1.251502659610180e+01  2.313743207256041e-01  2.203425396495953e-16
-8.412760513554344e+00  1.073551127091577e-01  1.486120736584509e-16
-2.583738184973776e+01  2.590175727322119e-01  4.571457184950621e-16
 1.836337688167005e+01 -1.331000753022616e+00 -3.131226470152735e-16
 2.517957571288193e+01 -2.060389807499305e+00 -4.269308283045119e-16
 1.340789921439186e+01  1.932685174941439e+00 -2.584671981236514e-16
-2.891326096394807e+01 -3.726138004083619e+00  5.528306822319401e-16
-1.227748579916190e+01  1.254292900331002e+00  2.056051010096191e-16
 1.877817720935666e+01 -1.583703885576586e+00 -3.179080807499042e-16
 2.525544947157609e+01  4.075325115573242e+00 -4.913233342505163e-16
-2.429631562418428e+01 -3.813117261720622e+00  4.715603128942978e-16
-2.729036684089405e+01  3.208847331316109e+00  4.526948904151970e-16
 2.679304980577991e+01 -3.158913999372837e+00 -4.443575873995963e-16
 2.464911257123563e+01  3.475353445658130e+00 -4.743683548881626e-16
-2.788127716284973e+01 -4.347106787471841e+00  5.408455281661422e-16
-1.739911462203110e+01 -4.260489212498803e-01  3.140154970090004e-16
 2.039017989358153e+01  8.195873593708379e-01 -3.712885358794987e-16
 2.636685230981733e+01  6.655894066297866e+00 -5.376164820082457e-16
-2.810321919460310e+01 -6.513554703911731e+00  5.670547166951922e-16
-2.183965090521285e+01  2.316221206314458e+00  3.648643076596357e-16
 2.286390653122182e+01 -2.840360451405762e+00 -3.777068179616794e-16
 2.446742193567536e+01  3.653298650944537e+00 -4.729632756421873e-16
-2.043004096794369e+01 -3.070955696426440e+00  3.951299030492800e-16
-2.467774388588082e+01  2.653126154898920e+00  4.119099816912596e-16
 5.052462015733148e+00 -9.931377334152330e-01 -7.971045893645824e-17
 1.343390502959374e+01 -1.127818819636463e+00 -2.274844358766660e-16
 2.319456358387115e+01 -1.927376940348647e+00 -3.929718285507613e-16
-1.302786010132356e+01  1.133473083464876e+00  2.202002865242101e-16
 1.292419394132092e+01 -9.098209318373287e-01 -2.206533681592997e-16
 1.648585139203317e+01  1.413152490248679e+00 -3.079050190361079e-16
-2.520378780774513e+01 -1.137009411126160e+00  4.602138268615008e-16
-2.767081083822195e+01  6.989334595093620e+00  4.206222118642816e-16
 2.707205376360235e+01 -7.188579015899371e+00 -4.079194514550076e-16
 1.773209446261978e+01 -1.850792985042060e+00 -2.965475469891991e-16
 1.537663363600525e+01 -7.652141791963469e-01 -2.657832397559520e-16
 2.280042158242213e+01  2.208959180234025e+00 -4.284569525116644e-16
-2.769396384516061e+01 -1.692467717504989e+00  5.102366121526712e-16
-2.183764848176947e+01  6.472677808534186e+00  3.221225904802764e-16
 2.267845332364558e+01 -7.007288923544214e+00 -3.315927805907423e-16
 2.439268430200209e+01 -3.306497284602878e-03 -4.340629407438079e-16
-2.728160318765769e+01 -3.376204435973809e-01  4.889775988092079e-16
-1.900021426213484e+01  3.506520097135200e+00  3.021032568925391e-16
 1.615255067797593e+01 -2.985953096084734e+00 -2.567743234235288e-16
 2.619881883362446e+01 -1.098047929322698e-01 -4.651110278673707e-16
 7.760939392426795e+00  6.473824633820203e-01 -1.447667937096399e-16
 2.388486078783174e+01  4.823829530906998e+00 -4.746226846833196e-16
-2.890960771223138e+01 -4.229684372795726e+00  5.579394242753991e-16
-2.318981737233283e+01  7.224188871852546e+00  3.384645456393443e-16
 2.131550137146665e+01 -7.473516199196934e+00 -3.025471089238965e-16
 2.620498929064110e+01  5.345780832058445e-01 -4.718416384778406e-16
-2.659275624868762e+01 -8.145926029602059e-01  4.816194615104586e-16
-2.117654960942658e+01  5.018879739804927e+00  3.252947944916233e-16
 1.837213968648874e+01 -4.639858029120389e+00 -2.792812850798728e-16
 2.879007836452527e+01 -1.280597208090964e+00 -4.991961154365684e-16
-2.810570566700890e+01  1.552652904901127e+00  4.842216134803010e-16
-1.790686457955220e+01  7.215788233310542e+00  2.445344124669115e-16
 2.259769946465753e+01 -7.949009514061372e+00 -3.204798323763907e-16
 2.401308795601023e+01  2.285093467043543e+00 -4.508200492898658e-16
-2.655617413965755e+01 -3.534367449227089e+00  5.089131377726298e-16
-2.133765735143628e+01  2.946131073106378e+00  3.494586385183663e-16
 2.388997301735957e+01 -3.593857814211582e+00 -3.882249833406395e-16
 2.364752028080717e+01  2.408620669335977e-01 -4.233106014193223e-16
-2.338332780941604e+01 -1.818818474429718e-01  4.180029809205892e-16
-2.155472807154278e+01  3.760740930306525e+00  3.449518505515620e-16
 1.632110873528768e+01 -2.693932314805992e+00 -2.627744225617676e-16
 2.881072328068034e+01  1.947626570920589e+00 -5.327323429537316e-16
-1.711911671123218e+01 -1.548869018143120e+00  3.205691687993512e-16
-2.262521411740865e+01 -5.460045129350024e-01  4.082526715741684e-16
-2.800364108739424e+01 -3.967693622642113e-01  5.024348581647075e-16
-1.649414336220715e+01  2.968140887794839e+00  2.630363866761307e-16
 2.694416861977487e+01 -4.178478641262783e+00 -4.365712706398973e-16
 2.266627146422903e+01  2.742905343171234e+00 -4.315556939954316e-16
-2.739993062997401e+01 -3.110162764506390e+00  5.195702419526489e-16
-2.013908795633324e+01  3.691216690735630e+00  3.204731823726966e-16
 2.609615967817722e+01 -4.500094487765390e+00 -4.181754539934871e-16
 2.359522148453773e+01  3.486067226898909e+00 -4.557231860841764e-16
-2.854001214801036e+01 -3.550241907521729e+00  5.443810058319180e-16
-1.950776098667635e+01  5.444130874052307e+00  2.912274094238876e-16
 2.497896979481992e+01 -6.577530835567251e+00 -3.769488235850132e-16
 2.158718128024823e+01  3.296145172548023e+00 -4.180363352575669e-16
-2.449357332750685e+01 -3.815426553312291e+00  4.750944761544785e-16
-2.376516806613055e+01  5.303324932307467e+00  3.684397767221748e-16
 2.143814554162122e+01 -4.876887000197994e+00 -3.314091299653768e-16
 2.703702220710074e+01  4.210031772216358e+00 -5.244126081775485e-16
-2.375160091031215e+01 -3.504255201768182e+00  4.586930193359117e-16
-2.752856457455031e+01  7.902352724707303e+00  4.087098403173228e-16
 2.797569577121028e+01 -8.286659962273664e+00 -4.127184560609006e-16
 1.908956648105745e+01  1.069089119915245e+00 -3.507061087279078e-16
-2.642090707224335e+01 -1.845343249635851e+00  4.891517888806599e-16
-1.904462247515711e+01  3.595276261177440e+00  3.019816166715557e-16
 2.330339780430048e+01 -4.055926059568280e+00 -3.730385943668942e-16
 2.732564283240055e+01  2.532440520946455e+00 -5.123123157986219e-16
-2.086631464503333e+01 -2.443389773658712e+00  3.964459016609771e-16
-1.928703888648191e+01 -1.463319802773379e-01  3.447393713365065e-16
-2.173055004186145e+01  7.103078519543516e-01  3.794229039871453e-16
-2.334467907155918e+01  6.171368898848860e+00  3.520378370658945e-16
 2.527646506945623e+01 -6.235202109200265e+00 -3.857604101692816e-16
 2.672987714179915e+01  2.932430103893285e+00 -5.058197023393116e-16
-2.500337675447446e+01 -2.831919681427475e+00  4.740618604244034e-16
-2.216785418587967e+01  5.628047318397351e+00  3.366772663237361e-16
 1.236876117771952e+01 -3.724283851542971e+00 -1.818511955018646e-16
 2.843719046636071e+01  1.029936190524002e+00 -5.166559456686327e-16
-2.396310531314678e+01 -1.268190942498697e+00  4.394822445107778e-16
-2.961668582247746e+01  4.383398884000038e+00  4.820264211030844e-16
 2.931852308936000e+01 -4.173739527938442e+00 -4.788744333247093e-16
 2.204737419391060e+01  2.648586720261457e+00 -4.195725892350788e-16
-2.772206516711966e+01 -3.340479219831407e+00  5.276694282079140e-16
-2.325910998055872e+01  2.944662421598377e+00  3.836682699040760e-16
 2.801532763898751e+01 -2.907255216196873e+00 -4.686951820053591e-16
 2.165735026941143e+01  5.463479435238179e+00 -4.415536483374414e-16
-2.836611322867162e+01 -6.838059493971596e+00  5.750673984593794e-16
-1.667214159838340e+01  1.902733884957501e+00  2.771507475340461e-16
 2.191436455114141e+01 -2.579948333976723e+00 -3.634842256781224e-16
 2.531191116435575e+01  4.631011733007975e+00 -4.980376155548745e-16
-2.424038390340877e+01 -4.574863213990605e+00  4.783916041460171e-16
-2.397873615204168e+01  2.025323377855813e+00  4.059207507319142e-16
 2.266936058076401e+01 -1.689099432670632e+00 -3.860734294587232e-16
 2.478432348315831e+01  5.914422471597283e+00 -5.018351425489344e-16
-1.159646859345232e+01 -3.474066368514664e+00  2.420677613000992e-16
-2.532877110443977e+01 -1.365202351715416e+00  4.647826532804879e-16
-2.455666590884190e+01 -6.033115952553255e-01  4.432139695748333e-16
-1.616128370353484e+01  1.994854284581608e+00  2.671129182793152e-16
 2.314751471122344e+01 -2.171588628944504e+00 -3.896253513524821e-16
 2.718137311732447e+01  4.223019607902600e+00 -5.271149501049098e-16
-2.089901240735638e+01 -3.737656098451158e+00  4.103259136555826e-16
-1.777769577749563e+01 -1.284135765494336e+00  3.295693308646724e-16
-2.440427553264666e+01 -7.837144667719496e-01  4.423555750220470e-16
-2.273906930407991e+01  5.477103265707596e+00  3.483936160303388e-16
 2.829284717718948e+01 -5.789818356701480e+00 -4.440166841088043e-16
 2.444431949321709e+01  5.470957451866028e+00 -4.912279239970063e-16
-2.679053980518317e+01 -6.645922445638604e+00  5.450540516013668e-16
-2.316677419330590e+01  1.588139747086057e+00  3.959628221226517e-16
 2.303929374228964e+01 -1.751282770695556e+00 -3.920179201305071e-16
 1.280860969686322e+01  2.130916900801465e+00 -2.498388852739634e-16
 2.050773898153652e+01  3.340743513850187e+00 -3.992846037004723e-16
-1.726467805467491e+01 -1.515618578370042e+00  3.228179703460184e-16
-2.199540139115706e+01 -1.528985520206141e+00  4.071441756020127e-16
-1.360923665127901e+01  7.790571310133290e-01  2.341880708818047e-16
 2.248484235772131e+01 -3.222821644923586e-01 -3.968332584823511e-16
 2.584248808358044e+01  6.864215682788132e+00 -5.304252240497377e-16
-2.737623992669434e+01 -6.952904938578519e+00  5.586314175089753e-16
-2.585357210878881e+01  2.223811642973427e+00  4.372462981485079e-16
 2.322566371707330e+01 -2.527838647140366e+00 -3.873557666120331e-16
 1.240642952416653e+01  7.032947832823362e-01 -2.280133107198717e-16
 2.716738305460830e+01  3.929895429486379e+00 -5.238542358030615e-16
 2.487122973452777e+01  8.120694371749101e+00 -5.260503852563257e-16
-2.379686525856296e+01 -7.795617547159573e+00  5.035907415766264e-16
-1.913278933612556e+01 -3.111043225692815e+00  3.724556476442895e-16
-2.412527633472348e+01 -2.638098346449337e+00  4.564435722118330e-16
-3.532616456580300e+00  7.584063653651651e-01  5.507477380539273e-17
 2.645943325493739e+01 -1.845026897640555e+00 -4.519201955992975e-16
 1.653797216088971e+01  3.114362447026888e+00 -3.263118845941517e-16
-1.843490487846620e+01 -3.629454151913087e+00  3.653624451959283e-16
-2.662724250190595e+01  8.834826338733807e-01  4.647860793262093e-16
 2.295760571329502e+01 -7.084849658677373e-01 -4.012785528395372e-16
 2.630658919756395e+01  6.065190106050087e+00 -5.304747594354405e-16
-2.553318058814259e+01 -5.641281156657754e+00  5.123555202146187e-16
-2.601989941659573e+01  2.790936300776521e+00  4.343792911545949e-16
 2.467836703413985e+01 -2.661262494866353e+00 -4.118374734199702e-16
 2.535661549716883e+01  6.223322872162552e+00 -5.151936009961780e-16
-2.321074473229958e+01 -5.650501055171905e+00  4.711197349656027e-16
-2.813539884179184e+01  3.386437582914221e+00  4.659085675402339e-16
 2.372859183952773e+01 -3.446452502878948e+00 -3.868675488030629e-16
 2.137999452959996e+01  1.268343045314539e+00 -3.935142696726614e-16
 1.826292909437935e+01  1.828615471526975e+00 -3.437989677310319e-16
 2.821208139040789e+01  5.724087401509101e+00 -5.608805595844559e-16
-2.500696890362929e+01 -5.067665771018585e+00  4.970972658917817e-16
-1.131392220511157e+01 -1.171053312544957e+00  2.133768887510602e-16
-2.159155347980658e+01 -1.109488266640605e+00  3.956470384047690e-16
-1.815464730424459e+01  2.382607825649058e+00  2.986031745513433e-16
 2.541700668503043e+01 -2.141621722496653e+00 -4.303215672542798e-16
 2.613524851310699e+01  6.937237496646325e+00 -5.363855177214182e-16
-2.769504767402104e+01 -7.744885427253927e+00  5.724422934772436e-16
-2.066155587459226e+01 -3.017783198424655e-01  3.707976953932833e-16
 2.565525864480748e+01  1.918141338273794e-01 -4.585367508283076e-16
 2.239216565696739e+01  4.638322816746226e+00 -4.461523801793994e-16
-2.394175660272421e+01 -4.613078920217150e+00  4.734698276129285e-16
-2.606057492807721e+01  1.776530418688733e+00  4.455258123349002e-16
 2.757133369594329e+01 -1.948555732445940e+00 -4.706440691003954e-16
 2.045347824718627e+01  3.510728609149857e+00 -4.000655043121977e-16
-2.006284250035303e+01 -3.483736804493728e+00  3.928363442422154e-16
-2.731276530058288e+01  1.719733633408884e+00  4.683936000165704e-16
 2.364771919764345e+01 -1.479808567362610e+00 -4.056348756847892e-16
 2.600364349115903e+01  5.086064156695248e+00 -5.150233157832541e-16
-2.325098827931665e+01 -4.614342900562836e+00  4.611897682576079e-16
-2.595736574964875e+01  1.763336408749221e+00  4.438246455515181e-16
 2.156319364888983e+01 -1.477276822455381e+00 -3.685642697917889e-16
 2.630119095060364e+01  5.835084580818500e+00 -5.280144405105260e-16
-1.837083187088612e+01 -4.383521461581024e+00  3.719699572734989e-16
-2.944226235474335e+01  1.167048569210077e+00  5.119691785114447e-16
 2.408443230570547e+01 -1.055948655332989e+00 -4.177617129936763e-16
 2.709069362347439e+01  6.871080889364787e+00 -5.527090680495844e-16
-2.231671324214450e+01 -4.942910277385496e+00  4.479391399650715e-16
-2.700040801126269e+01  5.466459623585272e+00  4.243385809892532e-16
 1.578142285058060e+01 -4.405908115965543e+00 -2.355801390377164e-16
 2.032102682505515e+01 -1.713049804988000e+00 -3.440359477061087e-16
 2.000311280324448e+01 -1.262034874313887e+00 -3.430123030352247e-16
-2.020377206239581e+01 -1.693671262427258e-01  3.612904094779109e-16
-2.038568361243968e+01 -3.181039537478880e-01  3.660559593749299e-16
-1.653289220893992e+01  3.088506757189500e+00  2.624892530419531e-16
 2.410260963629362e+01 -3.211215848625106e+00 -3.959406128097157e-16
 2.536254998806500e+01  5.780070845608059e+00 -5.107449587851546e-16
-2.601457213181051e+01 -6.149610151401781e+00  5.261453527185091e-16
-2.379844162580769e+01  2.585057622121383e+00  3.969611285513983e-16
 2.703840976896423e+01 -2.817203617523868e+00 -4.522350106606074e-16
 2.266107551854024e+01  5.642419500964256e+00 -4.612546806030529e-16
-2.420557613186398e+01 -5.408849102406033e+00  4.863410603695273e-16
-2.513418240074428e+01  5.094270801229637e+00  3.949509750787107e-16
 2.074822275118767e+01 -4.540234197001057e+00 -3.225901161969036e-16
 2.962917851474337e+01  5.699000422320891e+00 -5.858417336883881e-16
-2.817941168578831e+01 -5.932752112194180e+00  5.624431173198362e-16
-1.684056459730468e+01  1.258651884531462e+00  2.867657442788168e-16
 2.371653245733895e+01 -1.509235980584565e+00 -4.065571337454563e-16
 2.409642558560479e+01  5.113152677969118e+00 -4.813604228561855e-16
-2.109560909365439e+01 -4.410203869272728e+00  4.207347702287473e-16
-2.492465489650886e+01  2.481536261888579e+00  4.180670814682061e-16
 1.616942205713416e+01 -1.945008893083025e+00 -2.677698932820304e-16
 2.886934262239502e+01  5.254131787834078e+00 -5.677486840063583e-16
-2.370898600233806e+01 -4.511551403045200e+00  4.682842387621256e-16
-2.489313688167555e+01  2.120093146426559e+00  4.212198775072819e-16
 1.397036922794861e+01 -1.408075920008728e+00 -2.341519163066755e-16
 2.811328206304512e+01  5.618933578519075e+00 -5.580418903689267e-16
-2.161150258843000e+01 -4.487313805271638e+00  4.307079869279757e-16
-3.049754610499494e+01  2.423910418528838e+00  5.178354127152228e-16
 2.829538327157205e+01 -2.490578342531004e+00 -4.779603095591380e-16
 2.208774609274978e+01  2.717762419230576e+00 -4.210018105084828e-16
-2.386093402592882e+01 -2.855130705175163e+00  4.539692141526139e-16
-2.128324249198974e+01  6.515879750711794e+00  3.118123903106209e-16
 2.726975870713265e+01 -6.886476563793011e+00 -4.145418397076566e-16
-2.559612372215377e+01  2.735852179513222e+00  4.274036665095720e-16
-1.218054277188519e+01  4.732379687249263e-01  2.119049398880572e-16
 2.602435575144916e+01  4.594323007940412e+00 -5.103394534914926e-16
-2.852832289814962e+01 -4.999740130186108e+00  5.590660493645149e-16
-1.936601016201666e+01  5.136874511754896e+00  2.918617319176200e-16
 1.982160512193710e+01 -5.587189193254432e+00 -2.953427679176777e-16
 2.858540940983050e+01  3.207875429119320e+00 -5.416712130625407e-16
-2.509734891850519e+01 -3.075214206091457e+00  4.782339700359134e-16
-2.653099870822630e+01  5.978360317745619e+00  4.107252888363080e-16
 2.902301302917138e+01 -6.205075685339639e+00 -4.527442382163175e-16
 2.386246350359741e+01  4.767058968779930e+00 -4.736408013918992e-16
-2.760874943532212e+01 -4.269176814163952e+00  5.351948700056197e-16
-2.313372719197129e+01  1.016947282441694e+01  3.072046312981849e-16
 2.863619455465448e+01 -1.156796480693354e+01 -3.907586045094988e-16
 1.266431875658104e+01  2.720387215503047e+00 -2.533276492199590e-16
-2.553817185210951e+01 -5.876561852682616e+00  5.148617693915947e-16
-2.831908818405315e+01  4.658652441662968e+00  4.561059929835795e-16
 2.223364920158122e+01 -4.476585049898921e+00 -3.496790236271394e-16
-1.367895639092416e+01  3.539552371049406e+00  2.070657310344146e-16
 2.637666364273574e+01 -5.046683094211532e+00 -4.175513572679610e-16
 3.004688041895223e+01  5.172727356682072e+00 -5.878679727571077e-16
-2.796996104601402e+01 -4.898497048866435e+00  5.480890982829946e-16
-2.587149837336192e+01  6.831928997226234e+00  3.902185855936243e-16
 2.803880754337820e+01 -7.090715033314637e+00 -4.261295050207506e-16
 2.206980034800522e+01  4.789168454196518e+00 -4.419653891023230e-16
-2.565179925562987e+01 -5.459044108297827e+00  5.125940614251100e-16
-2.296061105806225e+01  5.537770066672251e+00  3.517128864651455e-16
 2.765980230697947e+01 -6.364908541905576e+00 -4.268420527813493e-16
 2.291598411689433e+01  4.197165372070615e+00 -4.509416220235580e-16
-2.597461141057835e+01 -5.215022795113472e+00  5.158316584398744e-16
-2.294116758945768e+01  1.717981999658885e+00  3.906138015179582e-16
 2.501430526237152e+01 -2.452823038398246e+00 -4.199575346092477e-16
 2.298316712820793e+01 -7.331799416333791e-02 -4.082595586047886e-16
-2.647230184510833e+01  3.345638670316234e-01  4.676686664404696e-16
-2.309674830750219e+01  4.547853111390459e+00  3.643066483165903e-16
 2.048073763609292e+01 -4.027289891803063e+00 -3.231002159020928e-16
 1.913910256991530e+01 -5.183372795528877e-01 -3.352774329301249e-16
 2.236888077442437e+01  4.743981556895605e-01 -4.029551846636413e-16
 2.513735204731088e+01  4.402700161365263e+00 -4.925853093835884e-16
-2.921306059695044e+01 -4.721234816787679e+00  5.683902325760171e-16
-1.988230689174977e+01  2.262843100741570e+00  3.305794767789919e-16
 2.002697462471854e+01 -2.603397782004850e+00 -3.296549360168976e-16
 2.654590628174488e+01  2.779496479477004e+00 -5.009743840016599e-16
-2.282192182279707e+01 -2.275040506342104e+00  4.295185365559753e-16
-2.719078206600672e+01  5.024807994111653e+00  4.322643244335767e-16
 2.682155991420927e+01 -4.552685379906237e+00 -4.305444641701528e-16
 2.362209116750992e+01  5.192701600379239e+00 -4.737364123601029e-16
-2.192726613975136e+01 -4.808770510443899e+00  4.396302268528980e-16
-2.778724812750954e+01  5.556737403505424e+00  4.374137680412484e-16
 2.802563707714769e+01 -5.714379534220009e+00 -4.400364681349005e-16
 2.391037604251464e+01  4.361770490206600e+00 -4.703292702862623e-16
-2.697907762266993e+01 -4.922024721483716e+00  5.306968840863487e-16
-2.576487513636688e+01  4.104569690948397e+00  4.163437240060945e-16
 2.760031484495549e+01 -4.643308054300812e+00 -4.434722220365380e-16
 1.789617565805402e+01  1.662837167554220e+00 -3.355688410017086e-16
-2.373849020501793e+01 -2.453961943127370e+00  4.476683170055579e-16
-2.158406154940631e+01  1.960242842337547e+00  3.639733385673834e-16
 2.230392295678038e+01 -1.503254438966449e+00 -3.814795208273571e-16
 2.697847075263568e+01  5.962440311277017e+00 -5.413759763420343e-16
-2.621464903833485e+01 -5.840135787813717e+00  5.265262232669994e-16
-2.212498749039726e+01  1.905121310730931e+00  3.741661146416420e-16
 2.074787347128495e+01 -1.693997203736242e+00 -3.518279514926147e-16
 2.623742520585235e+01  6.537527351679937e+00 -5.340969973133076e-16
-1.452325713696608e+01 -4.055826915237500e+00  3.001308329079075e-16
-2.243835115683899e+01 -2.517711230989678e-01  4.019040810994487e-16
-2.130231435687615e+01  1.362095951357030e+00  3.651050532091488e-16
-2.223775948732748e+01  5.945625388913945e+00  3.346583152420766e-16
 2.583215651911485e+01 -5.818170092996296e+00 -3.999344548398388e-16
 2.621801027591129e+01  4.575517875016605e+00 -5.135925508445982e-16
-2.793142829176754e+01 -4.918136820370934e+00  5.476051534762054e-16
-1.951253923741934e+01  4.400664012031092e+00  3.020336870410068e-16
 2.216982327210406e+01 -5.120491976040872e+00 -3.419272553234458e-16
 2.675182485006269e+01  3.145814064501276e+00 -5.084027306681088e-16
-2.568777987570010e+01 -3.397811584114071e+00  4.920559640786397e-16
-2.213914719921122e+01  2.566756014060715e+00  3.676200473254713e-16
 1.797574884492446e+01 -2.068141605200379e+00 -2.986504892481297e-16
 2.901827639437710e+01  4.261277652703453e+00 -5.601979225720779e-16
-2.048085213092033e+01 -3.261058466525562e+00  3.979873852066371e-16
-2.647778518025200e+01  1.314221460522115e+00  4.577006230410815e-16
-2.305071296335456e+01  1.908415637847754e+00  3.906066556636149e-16
-1.816275872641792e+01  4.699560960126806e+00  2.749416752110386e-16
 2.881470205406799e+01 -5.810418969613141e+00 -4.530920503194072e-16
 2.336620459838904e+01  4.680621714145541e+00 -4.639211708232626e-16
-2.795969627238847e+01 -5.396193270943372e+00  5.530200722761922e-16
-2.010259802260591e+01  4.761502254337223e+00  3.088270051139941e-16
 2.645886625650578e+01 -5.748272318071742e+00 -4.118056764272950e-16
 2.302461392249646e+01  5.082373917962592e+00 -4.619700152306476e-16
-2.666506463775651e+01 -5.268101729017805e+00  5.286644639842564e-16
-2.792884475025707e+01  6.992057116170555e+00  4.251862602079805e-16
 2.432359786899003e+01 -7.240002924216336e+00 -3.584790383563528e-16
 6.896966401062597e+00 -1.392485685442340e+00 -1.084324595384015e-16
 2.257478492406228e+01 -7.703853457374794e-01 -3.938297963322918e-16
 2.382841849382575e+01  5.609212165373324e+00 -4.816877479977564e-16
-2.830241101639653e+01 -5.519753811991836e+00  5.603886296237605e-16
-2.497118917243372e+01  7.245958557653405e+00  3.699425061061379e-16
 2.720155579150717e+01 -8.173768657966127e+00 -4.001016288364150e-16
 2.277993195206167e+01  2.800984437082655e+00 -4.341751595479082e-16
-2.457302392089603e+01 -3.498053803778096e+00  4.732475045283958e-16
-2.816492075184255e+01  4.066644860649046e+00  4.594450624652517e-16
 2.282441944430320e+01 -3.771597018751799e+00 -3.674359807106581e-16
 3.550430486463311e+00 -4.409728714730814e-01 -5.865330955340567e-17
 2.525281023206692e+01 -3.986790283404625e+00 -4.084410588474282e-16
 1.886350582908216e+01  6.152440825272071e-01 -3.420199968803069e-16
-2.905058153057429e+01 -5.326664493883770e-01  5.224627053888533e-16
-1.706678860494056e+01  4.187293994069805e+00  2.607009365640171e-16
 1.781413692374905e+01 -3.893311483516827e+00 -2.770214548649764e-16
 2.895105093634020e+01  2.901648166943675e+00 -5.450318663050632e-16
-2.200397378236176e+01 -2.541645818602445e+00  4.177014482273845e-16
-2.618158076202088e+01  4.713230585511154e+00  4.175057280961738e-16
 2.135288726241448e+01 -4.088970328966711e+00 -3.379874147581492e-16
 2.949000349959256e+01  2.254565954526901e+00 -5.479746353876310e-16
-2.685608980247162e+01 -1.834994580044271e+00  4.967900558495479e-16
-2.329878142089581e+01  6.811942611350738e+00  3.446393714306012e-16
 2.353095462488789e+01 -6.718007105284532e+00 -3.497363237426380e-16
 2.686729413401438e+01  2.737152789499683e+00 -5.062587981656227e-16
-2.475304113512481e+01 -2.850575191902979e+00  4.697985180575563e-16
-2.687441191451179e+01  5.355473616158105e+00  4.232366710614426e-16
 2.397439275162377e+01 -5.382257440196467e+00 -3.713521767281424e-16
 1.509160048696524e+01 -1.745716189826851e+00 -2.506364328966029e-16
 2.552617609485857e+01 -2.263412530303293e+00 -4.310130108172979e-16
 5.063509643355792e+00  1.080218018304941e+00 -1.012100418020150e-16
-2.108871837974922e+01 -8.917406361969470e-01  3.844612101938874e-16
-2.266352298505373e+01  6.212297017295779e+00  3.394953304454853e-16
 1.754944338533613e+01 -5.432568279074538e+00 -2.564956132036785e-16
 2.684098875761916e+01 -1.615200575754017e+00 -4.610718128726469e-16
 3.238561281335793e+00 -3.949469975613524e-01 -5.357612417085496e-17
-1.481174075068171e+01  1.003625715929773e+00  2.532807050994338e-16
-6.112673954157359e+00  5.465878381304144e-01  1.031663329970831e-16
-2.612269853895025e+01  4.691421012923958e+00  4.166819341348445e-16
 2.754802422401495e+01 -4.393197026325364e+00 -4.451114480166375e-16
 2.517432555122951e+01  3.348703897118132e+00 -4.824138682606220e-16
-2.506725097057098e+01 -3.346310447211697e+00  4.804837565463829e-16
-2.707293077383838e+01  4.658609498277190e+00  4.339295766266887e-16
 2.916201187266148e+01 -5.136848713679091e+00 -4.661935325182725e-16
 1.619249862295104e+01  1.584314613853820e+00 -3.044430852288955e-16
-2.722823250727946e+01 -1.961823473603808e+00  5.047158999948362e-16
-1.746239002349813e+01  4.016292313170263e+00  2.694981158490464e-16
 1.955817422872308e+01 -4.588796468892577e+00 -3.009128234986921e-16
 2.803891301528951e+01  1.354196763941638e+00 -5.128997829425688e-16
-2.912228621380926e+01 -1.207738980266278e+00  5.306749007808315e-16
-2.172750145433250e+01  6.043423488721397e+00  3.245728249382846e-16
 2.829221781340125e+01 -7.655551914455990e+00 -4.248357492908324e-16
 2.285546476973578e+01  4.869160506166997e-01 -4.117431440994023e-16
-2.796392276977485e+01 -8.909210908773115e-01  5.068052528254803e-16
-1.916911845744371e+01  2.349896708668045e+00  3.169929936727793e-16
-1.861771495491565e+00  1.459632547610246e+00  1.813525038009733e-17
-2.093342828305272e+01  1.006392516459462e+01  2.691321514650974e-16
 2.587548336860423e+01 -1.040717100135193e+01 -3.535551905292947e-16
 2.440346415717304e+01  3.686622139604535e+00 -4.721674574222630e-16
-2.103303853265659e+01 -4.346646229060253e+00  4.189682207959343e-16
-2.812088688208779e+01  7.763924248271289e+00  4.206732246366463e-16
 2.419485097088517e+01 -6.971217160446947e+00 -3.589495098105663e-16
 2.807862952429826e+01  4.051456557300612e+00 -5.413199501343720e-16
-2.004218422215681e+01 -3.310657057834843e+00  3.906903740181068e-16
-2.776636070473862e+01  7.135207411226473e+00  4.208238455217491e-16
 2.221225382484231e+01 -6.472949135865655e+00 -3.287863516143700e-16
 2.731753337290536e+01  1.487780057159622e-01 -4.876767318661378e-16
-2.380786095001345e+01 -2.940085380919766e-01  4.267101155743050e-16
-2.599608562815280e+01  6.439622784494197e+00  3.964665682258748e-16
 2.539638567459428e+01 -5.988217404229331e+00 -3.904322185046207e-16
 2.479427473365703e+01  2.227188304076833e+00 -4.641272453173720e-16
-2.441946431037479e+01 -2.385959097140245e+00  4.590883589646093e-16
-2.766672949578011e+01  5.241558989171252e+00  4.385073389409208e-16
 2.248659232842872e+01 -4.635107679011364e+00 -3.525516858648113e-16
 1.839956775273577e+01 -7.719810570400550e-01 -3.195104310363862e-16
 1.701861211715086e+01  1.174994609241765e+00 -3.149391459247664e-16
 2.029894639711273e+01  6.757182367718815e+00 -4.306715587331611e-16
-2.246705125419939e+01 -6.707411689164791e+00  4.687441952325825e-16
-2.931674218198071e+01  3.811643041494355e+00  4.825631498137238e-16
 2.739037487635883e+01 -4.307079158403160e+00 -4.431907196336295e-16
 2.511695627897102e+01  3.054282761990667e+00 -4.783678434201446e-16
-2.474298978487584e+01 -3.372426241404353e+00  4.749814722532234e-16
-2.077694054973583e+01 -1.648300044864996e-01  3.714440091324187e-16
-1.538081640929963e+01  7.022917764521824e-01  2.665041820249183e-16
-2.456271556051823e+01  5.253329573780283e+00  3.831467698806432e-16
 2.390188041923191e+01 -4.770786245828544e+00 -3.763443776684021e-16
 2.822065337755326e+01  2.343476355357897e+00 -5.262985579007161e-16
-2.452543537728598e+01 -2.446672925801711e+00  4.615980530442691e-16
-2.308352219544367e+01  1.689123703619549e+00  3.934436800450728e-16
 7.320563526786227e+00 -7.615677130279838e-01 -1.224533286479652e-16
 2.168369714702235e+01 -6.260617212804718e-01 -3.794546992247796e-16
 2.768206143386141e+01 -5.631973236418828e-01 -4.868486556666863e-16
 1.143790253338160e+01  1.831345445039188e+00 -2.223675283796569e-16
-2.065155358059951e+01 -2.554296459897735e+00  3.937634982549701e-16
-2.632275136082331e+01  3.011429363000555e+00  4.375034166438424e-16
 2.673183177726750e+01 -3.280730999495210e+00 -4.420165141389374e-16
 2.254672957014451e+01  1.157871834607722e+00 -4.131426598921085e-16
-2.551228099775878e+01 -1.344366127049200e+00  4.678343460910826e-16
-2.250224851514549e+01  2.322902231577693e+00  3.765873773955113e-16
 2.479678962625415e+01 -2.188120647492676e+00 -4.188063053105397e-16
 2.389280278759502e+01  3.842463789797738e+00 -4.646808455553172e-16
-2.327611441210290e+01 -3.579822983896757e+00  4.510076014272055e-16
-2.918586295775849e+01  4.141588591192034e+00  4.768439272372667e-16
 2.949365186720080e+01 -4.249526347016260e+00 -4.812123767950370e-16
 1.417964402899965e+01  1.960716991249283e+00 -2.724893343999276e-16
-2.292047328459295e+01 -3.105429184071256e+00  4.398043193808796e-16
-2.192718055326761e+01  2.292013208187955e+00  3.666707305431923e-16
 1.948086282126257e+01 -2.113263421799235e+00 -3.249721775467677e-16
 2.572574937464057e+01  3.179453727468914e+00 -4.904881289513745e-16
-1.482397595333689e+01 -1.963564532045915e+00  2.839852470280755e-16
-2.387915943556212e+01  1.312116418239505e+00  4.114766067056454e-16
 6.451044422313824e+00 -5.300453093774331e-01 -1.093580075747840e-16
-3.322607612944334e+00  5.883699452205383e-01  5.308447836993735e-17
 2.205335723272976e+01 -6.848423427940530e-01 -3.854292918636900e-16
 2.453483292087860e+01  6.548466381114163e+00 -5.039097312304803e-16
-2.420305846069440e+01 -6.929009560480489e+00  5.019153518831736e-16
-2.527763137939764e+01  1.565553183767124e+00  4.337601124047762e-16
 1.909923351850550e+01 -1.555576345001054e+00 -3.239106610038584e-16
 2.815511176450900e+01  6.470575165703474e+00 -5.675366077349671e-16
-2.160106193134613e+01 -5.088194939727273e+00  4.366960183577849e-16
-2.749658469407850e+01  2.349608298927630e+00  4.651931520183740e-16
 2.724410544906644e+01 -2.122971658869021e+00 -4.630285918314132e-16
 2.282042322572129e+01  6.924110326446920e+00 -4.772593707611175e-16
-2.383503556779356e+01 -6.880738313523263e+00  4.948699759818835e-16
-2.667033750305178e+01  4.312501479644060e+00  4.303210833022477e-16
 2.995169500899188e+01 -4.269445191039275e+00 -4.891591419903143e-16
 1.599135605820258e+01  5.902140829283516e+00 -3.452276091773727e-16
-2.505742870284685e+01 -8.953776798141220e+00  5.379236372991048e-16
-1.933437664947393e+01  1.559505130161471e+00  3.280549466678988e-16
 1.980379307942737e+01 -2.159969281642186e+00 -3.302392209542377e-16
 2.637039801531591e+01  6.335114810824884e+00 -5.343836917468698e-16
-2.348691275606094e+01 -5.950748184155709e+00  4.791194045527554e-16
-2.570647069233292e+01 -3.937593204789839e-01  4.615230437346771e-16
 2.294499113900259e+01  1.515107961279368e-02 -4.084891589337779e-16
 2.282048398362747e+01  2.853902587321111e+00 -4.354405460907195e-16
-1.901890112813503e+01 -2.112511671487817e+00  3.601693221510145e-16
-2.739089189558945e+01  3.332125063537654e+00  4.532172197586245e-16
 1.672778156158132e+01 -1.441411062706417e+00 -2.828808514626660e-16
 2.792589640230032e+01  8.674082144714900e+00 -5.860976806847736e-16
-2.142439404036975e+01 -7.386089323475584e+00  4.571620325345234e-16
-2.618482220042191e+01 -1.267954781052343e+00  4.790179202068009e-16
 1.945934250542592e+01  6.770979468612291e-01 -3.532591472624013e-16
 2.692538617657426e+01  7.907186056156887e+00 -5.604128290475095e-16
-2.316417870477989e+01 -6.336453647389004e+00  4.773389506583878e-16
-2.572198312613191e+01  2.348858606324455e+00  4.336197031148901e-16
 1.898126626130306e+01 -2.820180394025156e+00 -3.088179457362511e-16
 2.943375681722307e+01  1.305396827237981e+00 -5.372212906048570e-16
-2.038700693798119e+01 -4.629064732898584e-01  3.675673028133892e-16
-2.823611383625255e+01  8.934539142657016e+00  4.106961829440219e-16
 2.755743386312844e+01 -8.035403024589254e+00 -4.078565602469475e-16
 2.611045274395800e+01  5.441777780279387e+00 -5.205789421050995e-16
-2.517157405486537e+01 -5.980587285648332e+00  5.094065478300089e-16
-2.678552986639398e+01  3.951565926349854e+00  4.360795505057501e-16
 2.252819660847276e+01 -3.923410273434892e+00 -3.606045159572980e-16
 2.092935634145864e+01  1.192401270091721e+00 -3.847143514208970e-16
 1.503966850696158e+01  1.820111233805150e+00 -2.863498227800362e-16
 2.764492733858753e+01  7.204481543405669e+00 -5.659978887291776e-16
-2.587493452945786e+01 -5.648126446000243e+00  5.185077721213784e-16
-2.748784022097573e+01  7.358827445908028e+00  4.135696266601424e-16
 2.492255406233605e+01 -6.539667082314783e+00 -3.763338746409094e-16
 2.521361025771674e+01  8.535580027026235e+00 -5.364062544636993e-16
-2.508775724919484e+01 -8.810278118864931e+00  5.369889731591809e-16
-2.550457008929340e+01  4.442559575798372e+00  4.082385619047150e-16
 2.738343620798963e+01 -5.473933475614006e+00 -4.310782335275634e-16
 2.403944106349914e+01  4.090331397177776e+00 -4.698371982135605e-16
-2.381838402375198e+01 -4.327023610942770e+00  4.683351510197778e-16
-2.188612638885916e+01  1.478078416661355e+00  3.743030070187882e-16
-2.691721731348374e+00  6.149708430820507e-01  4.158379699992569e-17
-2.553719747212988e+01  5.756376826916738e+00  3.953202101191818e-16
 2.219601609533720e+01 -4.364941569793153e+00 -3.501563938123317e-16
 2.353580864140010e+01  1.411261501807101e+00 -4.333479885627002e-16
 2.893218487799827e+01  2.742173841807014e+00 -5.430575815344559e-16
-6.792297814264543e+00 -8.677672936300431e-01  1.297930354580462e-16
-2.313951032352060e+01 -3.696176701445057e+00  4.497720609066516e-16
-2.543432141528496e+01  8.029489496632733e-02  4.518090878631789e-16
 7.202632097770796e+00  3.674582473112523e-01 -1.319549297944319e-16
-2.443166417673013e+01  4.735013806300673e+00  3.861400604044078e-16
 2.977084215227928e+01 -4.356271940520086e+00 -4.850485363661298e-16
 2.665436489490260e+01  7.184809732874908e+00 -5.481675277511260e-16
-2.528270275802637e+01 -7.797302427091632e+00  5.300503037802824e-16
-1.752559695150404e+01 -2.486693653028102e+00  3.374387769823697e-16
-2.071239746873841e+01 -1.895969469742094e+00  3.880822171464636e-16
-1.669454826064315e+01  1.631926057021925e+00  2.803319528720674e-16
 2.331184637112976e+01 -1.630080540101778e+00 -3.981136281633909e-16
 2.567025463093534e+01  5.424606380824939e+00 -5.125686617037502e-16
-2.429816127918903e+01 -5.158413579289522e+00  4.854155894841627e-16
-2.520667658290975e+01  1.942449766362613e+00  4.286249116920499e-16
 2.517613883714241e+01 -2.173242127907532e+00 -4.257101484050340e-16
 2.257449285422183e+01  3.557672605115607e+00 -4.382938217875319e-16
-1.913938263310888e+01 -2.857587059139560e+00  3.699688131911349e-16
-2.794690948316458e+01  4.109450035705828e+00  4.551254842622088e-16
 2.744750252689120e+01 -3.884678365773085e+00 -4.485473890165562e-16
 2.417128359086320e+01  4.968812464626331e+00 -4.812095670966207e-16
-2.675050880353919e+01 -5.272310599048828e+00  5.302282894463182e-16
-2.453258503174369e+01  4.491201231721534e+00  3.904411530358213e-16
 2.661942417592757e+01 -4.635062422352241e+00 -4.261008234052793e-16
 2.187368340936026e+01  4.812728662703561e+00 -4.387173268262983e-16
-2.366520037341066e+01 -5.479722812957983e+00  4.774526307939821e-16
-2.584184465072289e+01  2.539483372123450e+00  4.337941817010830e-16
 2.564325840326371e+01 -2.606138605612906e+00 -4.295752442361758e-16
 2.209816742194987e+01  4.341998898011747e+00 -4.378757102742845e-16
-2.204741685507198e+01 -4.514439526253979e+00  4.387443082122701e-16
-2.615643671411728e+01  1.670370238754344e+00  4.483225444493566e-16
 2.531930387009577e+01 -1.106033935814491e+00 -4.392231174272562e-16
 1.889511485802792e+01  6.957214248876713e+00 -4.077439568584154e-16
-9.480250815731383e+00 -3.544242375271499e+00  2.051281746020407e-16
-2.990139789280659e+01  4.634296453741905e+00  4.845153306263556e-16
 2.789194649616332e+01 -4.794579591172360e+00 -4.471078950518690e-16
 2.481745031349665e+01  6.211225405501495e+00 -5.054742163356288e-16
-2.158969139895290e+01 -5.968585429405675e+00  4.455393586319820e-16
-2.815632436080308e+01  1.368689869937490e+00  4.870125868724731e-16
 2.916974161674383e+01 -1.474087024952132e+00 -5.039646383098673e-16
 2.289978612551556e+01  5.639233549567792e+00 -4.654700861044153e-16
-2.683825459707755e+01 -5.871777385614504e+00  5.379491339721097e-16
-2.253762964779237e+01  4.280299797675287e+00  3.571054779307277e-16
 2.606707444614934e+01 -5.040298207632358e+00 -4.121074506130425e-16
 2.264807990577648e+01  3.988593744648804e+00 -4.440309493149651e-16
-2.287335332653582e+01 -4.320719986906655e+00  4.514524350400841e-16
-2.448634491626290e+01  2.893532249666815e+00  4.060337234266853e-16
 1.996196279386304e+01 -2.458755352041574e+00 -3.299841213606511e-16
 2.588080500479400e+01  4.750767901800671e+00 -5.093922111746811e-16
-1.274626634536652e+01 -2.766000171699738e+00  2.552546608668487e-16
-2.993221734961236e+01  2.439771940441963e+00  5.076117417887370e-16
 1.918736784607859e+01 -1.771085090499261e+00 -3.232648424224262e-16
 2.969850503897544e+01  5.920026294968023e+00 -5.893464424323111e-16
-2.385435112693228e+01 -4.939660278334757e+00  4.752698477258459e-16
-2.744698814228186e+01  2.176901021834436e+00  4.660850267514392e-16
 2.598160907383993e+01 -1.848840324423274e+00 -4.433775627511459e-16
 2.429608836336549e+01  6.606716985805044e+00 -5.002594908469061e-16
-2.352942157936937e+01 -6.562015328803835e+00  4.861564476255998e-16
-2.570000198653211e+01  9.707745512530257e-01  4.473878355629586e-16
 2.431541128872641e+01 -1.139246646705762e+00 -4.210164029178966e-16
 2.373960193356934e+01  5.472402145426753e+00 -4.787014781059507e-16
-2.297597904130378e+01 -5.193190353274491e+00  4.622430981218735e-16
-2.587439462720816e+01  1.587289833955496e+00  4.441568900591940e-16
 2.590913202972970e+01 -1.963600281126719e+00 -4.409086304324709e-16
 2.286628025738607e+01  2.913184644327484e+00 -4.368646470099589e-16
-1.989130176160324e+01 -2.123890082199666e+00  3.758116410973536e-16
-2.754899776962313e+01  5.222474390860486e+00  4.366082497553165e-16
 2.304996330524053e+01 -4.694056888346699e+00 -3.619718626972928e-16
 1.473777442320185e+01  2.701758126701430e-01 -2.650522340425467e-16
 2.083421380168432e+01  1.144698310321806e+00 -3.825310458531001e-16
-1.691847152089318e+01 -1.121301057530353e+00  3.126053428271132e-16
-1.633906115167504e+01 -7.946950753833886e-01  2.989382863404540e-16
-2.595466902627466e+01  5.800001652571937e+00  4.023013851680165e-16
 2.971528143362838e+01 -5.749826001954212e+00 -4.697415053610893e-16
 8.970767955982550e+00  2.701272440568252e+00 -1.874001095277792e-16
-1.612807712015195e+01 -4.770986068463412e+00  3.360385193103580e-16
-2.645887745079168e+01  3.247137949089812e+00  4.375041226938793e-16
 2.292670684155967e+01 -3.225940619912851e+00 -3.748627282339040e-16
 2.861892096171948e+01  5.185319964327144e+00 -5.625851153535638e-16
-2.627146325565229e+01 -4.856549556692539e+00  5.174313088203260e-16
-2.448256306864960e+01  2.980032906156797e+00  4.050776581144610e-16
 2.549620816474568e+01 -3.038082589365656e+00 -4.225202423115141e-16
 2.238854496425180e+01  4.392578998570962e+00 -4.435630171738980e-16
-2.018440708138090e+01 -4.028952410885613e+00  4.006016232643189e-16
-2.788681744314935e+01  3.279451445373635e+00  4.625840087304388e-16
 2.650418591361489e+01 -3.188943142505266e+00 -4.389083713332063e-16
 2.101319835402827e+01  3.939505866534828e+00 -4.144319218301950e-16
-1.374546494980304e+01 -2.910146771830687e+00  2.745176458725977e-16
-2.941056086903228e+01  2.515437874592724e+00  4.975508024766352e-16
 2.646704408202004e+01 -2.418678805879261e+00 -4.461615743790573e-16
 2.549843965474751e+01  3.932326146082191e+00 -4.941783719454987e-16
-2.045847489157201e+01 -3.316253343413305e+00  3.981562628526688e-16
-2.696202209225726e+01  2.127471738540502e+00  4.579623453321915e-16
 2.372244387849147e+01 -1.410054830769844e+00 -4.076813848196079e-16
 2.683269361438160e+01  7.951077246529251e+00 -5.592142203720349e-16
-2.492953615713301e+01 -7.552087656971480e+00  5.212457901607547e-16
-2.434903637856443e+01  1.081338591434962e+00  4.222097857309343e-16
 2.726263250289530e+01 -1.416819752823871e+00 -4.706137571641079e-16
 2.244394832986476e+01  5.270788417759101e+00 -4.535722689064109e-16
-2.485994601003390e+01 -5.549947525816267e+00  4.994360879566193e-16
-2.349504055635243e+01  2.123444330541833e+00  3.963046534893264e-16
 1.984388602860284e+01 -2.279283493684200e+00 -3.297268126249566e-16
 2.770112616298981e+01  3.718783522966138e+00 -5.311837329402532e-16
-2.654289251056138e+01 -3.585774147833293e+00  5.092049604933758e-16
-2.610141824737879e+01  2.751699078670077e+00  4.362331641910062e-16
 2.759688924908531e+01 -2.393603743908324e+00 -4.665261540081537e-16
 2.285599217278022e+01  6.192117197992306e+00 -4.703713991191464e-16
-2.799135642632863e+01 -7.186012217828774e+00  5.719732419697754e-16
-2.002268234713664e+01  2.717664730000765e+00  3.284044984359958e-16
 2.679431265394636e+01 -3.623249802440184e+00 -4.396091795931163e-16
 2.147257134876563e+01  4.547655421990406e+00 -4.288555279891885e-16
-2.574667078357257e+01 -5.158589239039079e+00  5.111953487963736e-16
-2.256776522982940e+01  3.135183254914133e+00  3.694074330457506e-16
 2.119649085215514e+01 -3.483361498635661e+00 -3.414265648079681e-16
 2.583454748899031e+01  1.986960661063204e+00 -4.801718881166956e-16
-1.341678522043638e+01 -1.380858737705750e+00  2.529555190209457e-16
-2.353814145649934e+01 -9.390518100135501e-01  4.285377207475371e-16
-2.189842785176915e+01 -6.099982617192206e-01  3.959761555580701e-16
-1.883156899327781e+01  2.832536967930043e+00  3.060269449781184e-16
 2.628518475815434e+01 -2.778089442627705e+00 -4.392323570513979e-16
 2.619384874796208e+01  6.324029857277605e+00 -5.311278930678706e-16
-2.648666804229132e+01 -6.407831718333740e+00  5.371999953776198e-16
-3.043889736832908e+01  2.585606477475774e+00  5.151303202215091e-16
 2.072442188867099e+01 -1.971498241227950e+00 -3.485593802567827e-16
-2.583940574344244e+01  6.129007999665768e+00  3.968697168615666e-16
 2.902687167520834e+01 -6.211551010085948e+00 -4.527463758178053e-16
 2.885303920905208e+01  2.817496688167760e+00 -5.424230048311684e-16
-3.015310343293550e+01 -3.281103840262559e+00  5.703225935401779e-16
-2.062733334381635e+01  1.951540256007469e+00  3.470366348355962e-16
 2.459263793334006e+01 -2.380275798844743e+00 -4.131988580373294e-16
 2.111319860910067e+01  1.484997825025465e+00 -3.909923671786822e-16
-2.228722159532759e+01 -1.606737917369881e+00  4.131363418676142e-16
-2.611417938938590e+01  2.324308031996050e+00  4.408515516808844e-16
 2.545622413681959e+01 -1.581454114478048e+00 -4.367750072681755e-16
 2.536340788744707e+01  7.484883335701137e+00 -5.282765551549079e-16
-2.725288925133827e+01 -7.223573473994165e+00  5.592172659760597e-16
-2.416482514870327e+01  5.612803497248353e+00  3.723723714040352e-16
 2.948862322315304e+01 -7.442375343926971e+00 -4.483175225033764e-16
 1.668616085912451e+01  1.390703385447047e+00 -3.112391085435300e-16
-1.323406826344371e+01 -1.832351724494405e+00  2.543427792425434e-16
-2.187371216644989e+01  2.443922531589173e+00  3.641583837064943e-16
 2.839391104450623e+01 -3.746148807106294e+00 -4.668131983959385e-16
-2.823246233246205e+01 -6.027615318430986e+00  5.643619018409457e-16
 2.981508711491650e+01  6.385518423498032e+00 -5.962039220584104e-16
 1.500549405307989e+01  1.043872108160536e+00 -2.777660725777252e-16
-1.441038104721846e+01 -6.332599143398663e-01  2.629564356342766e-16
-2.798388168473878e+01  6.158677551575114e+00  4.347283803896208e-16
 1.489969219190237e+01 -3.333021512884407e+00 -2.309122102966505e-16
 2.957267178650228e+01  4.096899316327809e+00 -5.683751221895789e-16
-2.659793755194068e+01 -3.403586046465151e+00  5.083126361070319e-16
-2.542656622088504e+01  8.553405060990631e+00  3.646129460129196e-16
 2.293834711830948e+01 -8.273062416390617e+00 -3.232125378625243e-16
 2.461743774315107e+01  1.483207284204891e+00 -4.533360854198915e-16
-1.870966839857893e+01 -1.652981333217487e+00  3.499446495707906e-16
-2.897851891490657e+01  8.051408082428974e+00  4.329820177192776e-16
 2.836564382540094e+01 -7.726321097878666e+00 -4.254153251097804e-16
 2.552704771069997e+01  2.372664244122169e+00 -4.786625269638581e-16
-2.070746299373129e+01 -2.737933670872445e+00  3.966452785850615e-16
-1.562677033926665e+01  6.696265794431442e-01  2.712168486271453e-16
-2.295378287870426e+01  2.437240924516912e+00  3.834481814698545e-16
-2.288054051431131e+01  7.135885360297057e+00  3.338678815356427e-16
 2.760931024795284e+01 -7.335033528431956e+00 -4.159758045425795e-16
 2.459434529524366e+01  3.707780373982613e+00 -4.757818081378279e-16
-2.822227992731039e+01 -4.723605412890353e+00  5.507824657270854e-16
-2.255709548821346e+01  3.703734984770950e+00  3.633758897830752e-16
 2.458737969987776e+01 -3.696776346653259e+00 -3.995787166192140e-16
 1.828034926732147e+01  4.295557684714272e+00 -3.694559155595048e-16
-8.853505644637613e+00 -2.373958316155190e+00  1.819502530971952e-16
-2.988402856624410e+01  5.797016569672406e+00  4.722596959334392e-16
 2.694125827045041e+01 -5.483371671996321e+00 -4.231121756394078e-16
 2.779468608652591e+01  4.740386829108665e+00 -5.433453462330954e-16
-2.395522123512056e+01 -4.712369542368547e+00  4.747296218797763e-16
-2.726662976985494e+01  1.903593655513042e-01  4.832863282390533e-16
-1.139489470210606e+01  1.174967912208709e+00  1.907133750798735e-16
-2.604746895229817e+01  7.080519302231411e+00  3.907960168723558e-16
 2.741490384225249e+01 -6.100366058508284e+00 -4.252018703916019e-16
 2.653293997748982e+01  6.475795502022083e+00 -5.387217628474846e-16
-2.210247809885222e+01 -6.565997714980264e+00  4.608032038409732e-16
-2.625692846005670e+01  4.764396741785115e-01  4.623781177699844e-16
 2.296780372638545e+01 -1.119571229084548e-01 -4.075891455319949e-16
 2.671691179667011e+01  1.000950823861685e+01 -5.783033754908611e-16
-2.650665024521844e+01 -9.426204241008598e+00  5.685682836961281e-16
-2.337332292285210e+01  2.937656667357983e+00  3.857728070304108e-16
 2.550982855043571e+01 -4.348104591513231e+00 -4.093026331438073e-16
 2.374785685210943e+01  3.691121107073814e+00 -4.605463686485067e-16
-2.561418774372441e+01 -3.666417337382491e+00  4.935061308465706e-16
-2.496024719180836e+01  5.038104307776234e+00  3.924326808754309e-16
 2.579556632986742e+01 -5.253303693022311e+00 -4.050870858354673e-16
 2.273233408173728e+01  2.791449442114244e+00 -4.332301300581844e-16
-2.249403680747560e+01 -3.035853321952327e+00  4.315005068904473e-16
-2.704607438843132e+01  3.937784478732492e+00  4.408578504333969e-16
 2.581824411528179e+01 -3.331635652179052e+00 -4.252351051101915e-16
 2.443339507634673e+01  5.698115482769553e+00 -4.933674772153456e-16
-2.452027824251370e+01 -6.052377716816050e+00  4.985535825586266e-16
-2.436757688213465e+01  1.520366428732186e+00  4.180288845650192e-16
 2.224685438653977e+01 -1.332030578777326e+00 -3.822231805086115e-16
 2.711627024603996e+01  7.286736229618612e+00 -5.574349421817968e-16
-2.877506880545090e+01 -7.504102752980820e+00  5.891886032961380e-16
-2.094322422868161e+01  1.929111329198738e+00  3.528887390162810e-16
 2.265406275562179e+01 -2.723094245273358e+00 -3.751772653316249e-16
 2.469273687351748e+01  2.887751134882078e+00 -4.691073011002622e-16
-1.960492486329004e+01 -2.632730982714531e+00  3.759433779938085e-16
-2.383820014242331e+01 -1.450146881537729e+00  4.391289391800835e-16
-2.111054489819263e+01 -9.533253301864890e-01  3.854823994845686e-16
-9.042347243964555e+00  1.161925705116928e+00  1.489809907819965e-16
 1.773126208411963e+01 -1.754689617415423e+00 -2.975201610095102e-16
 3.048350178088630e+01  3.183052580900415e+00 -5.751949851847321e-16
-2.643129760139121e+01 -2.649835739108037e+00  4.976025688183982e-16
-2.371815255990585e+01  4.593527012449646e+00  3.748959954845692e-16
 2.639351938034326e+01 -4.722166341727204e+00 -4.211856169696583e-16
 2.283697099629754e+01  3.830007527771580e+00 -4.457630758196746e-16
-2.329856245413883e+01 -4.126984561128948e+00  4.570289775526697e-16
-2.621323669938014e+01  3.383469426578525e+00  4.317318961070666e-16
 2.563409132697030e+01 -3.388234278996075e+00 -4.213763562461575e-16
 2.277359666252175e+01  3.827385382250379e+00 -4.446083123618277e-16
-2.292583952558622e+01 -3.352216243783383e+00  4.424354654295416e-16
-2.777437657039935e+01  6.067307579348298e+00  4.319387802473435e-16
 2.226489822959577e+01 -5.652110458169806e+00 -3.381570408199998e-16
 1.647603568357624e+01 -1.266554054767627e+00 -2.801973255057313e-16
 2.237929011271405e+01  5.807743982396698e-01 -4.042334085018346e-16
 2.015255666776752e+01  6.564792519941696e+00 -4.260896430833503e-16
-2.566759762587859e+01 -7.754034029632102e+00  5.364554000068896e-16
-2.640161773689072e+01  1.761926063490640e+00  4.517451303737193e-16
 2.014007662007354e+01 -2.395864961140733e+00 -3.338000452791240e-16
 1.901193814499490e+01 -3.964358856705513e-01 -3.342668828407820e-16
 2.169881820902087e+01  2.156565608488803e-01 -3.883721461363344e-16
 2.090594536973324e+01  5.228884511867860e+00 -4.257711242237504e-16
-2.126530980845230e+01 -4.655075440331566e+00  4.262707633145918e-16
-2.836894882666854e+01  4.699088954075318e+00  4.565778521202525e-16
 2.322384310103861e+01 -4.253316443741774e+00 -3.695947090365587e-16
 2.751321029648306e+01  5.472396571003616e+00 -5.458572829728119e-16
-2.261407416930629e+01 -4.765409170379721e+00  4.514072729755125e-16
-2.752855955553194e+01  3.548807545297558e+00  4.534408461979289e-16
 2.299016041147894e+01 -3.603535184416750e+00 -3.721123132202669e-16
 2.596379901101955e+01  1.238955262792629e+00 -4.747865893902615e-16
-2.692775216008103e+01 -7.651475285945957e-01  4.870730831741645e-16
-2.475210164821577e+01  7.534091500988809e+00  3.630831209531795e-16
 2.331210951072587e+01 -6.950241416128087e+00 -3.434555907076730e-16
 2.531398972762824e+01  2.175730579210105e+00 -4.728474841439647e-16
-2.374091867092429e+01 -2.351070804304869e+00  4.466543653793234e-16
-2.711418850387902e+01  6.759969578391757e+00  4.130730956871784e-16
 2.588251249867869e+01 -6.088945866011913e+00 -3.980484768601509e-16
 2.701169892025779e+01  5.246568315771652e+00 -5.346119865225614e-16
-2.695194051189850e+01 -4.975950204991844e+00  5.307680115833558e-16
-2.242951244636419e+01  6.661930132859522e+00  3.307110168474699e-16
 2.029788352982840e+01 -6.921611180176558e+00 -2.901080091526473e-16
 2.882096362263464e+01  1.723577990729553e+00 -5.306125642832495e-16
-2.785035433465374e+01 -1.622232025618127e+00  5.122981212435075e-16
-2.530750888044265e+01  8.976321479063959e+00  3.581488660608852e-16
 2.853565083097748e+01 -8.894601666376358e+00 -4.164371441248013e-16
 2.053921815494128e+01  4.464990601887672e+00 -4.113960435648378e-16
-2.042512446013590e+01 -5.866619249112776e+00  4.237668353471823e-16
-2.049284290209581e+01  2.327135356581892e-01  3.623035371511761e-16
-1.611590116107369e+01  2.120486534762457e+00  2.650144560721952e-16
-1.167046570902611e+01  4.250520552801239e+00  1.640173037398519e-16
 2.140216148968373e+01 -6.335486551880421e+00 -3.157821703092376e-16
 2.695778466479682e+01  1.116557400369916e+00 -4.912181561952425e-16
-2.692806185554782e+01 -1.445383286890098e+00  4.940677698796853e-16
-2.307511536335643e+01  4.959258426993174e+00  3.596946241083128e-16
 2.551226548598568e+01 -5.492512613557720e+00 -3.975876246190790e-16
 2.287457849753866e+01  7.025915818167959e-01 -4.142992834210960e-16
-2.295375987001018e+01 -6.601192935621504e-01  4.152720230629577e-16
-2.478426111200974e+01  5.749573755491759e+00  3.819907085423770e-16
 2.066436079340939e+01 -4.706376765121165e+00 -3.193906380913314e-16
 2.833038534853925e+01  1.913183339733001e+00 -5.238302647947410e-16
-2.076773874730358e+01 -1.867787253008231e+00  3.887775191727603e-16
-2.368398562417509e+01  2.182331490696355e+00  3.990621121742361e-16
-2.149115787614844e+01  2.826233620029176e+00  3.534222662311874e-16
-1.735745078747826e+01  5.882454454230249e+00  2.484564588914377e-16
 1.798733900164097e+01 -4.502545161299548e+00 -2.738441377225934e-16
 2.520805721716654e+01  3.719131334064190e+00 -4.868201708418836e-16
-9.868233210585940e+00 -2.720078025266181e+00  2.035647948199925e-16
-3.006451434956864e+01  4.315847459494008e+00  4.906901302795704e-16
 2.526098918252701e+01 -3.629856638149251e+00 -4.122539765688398e-16
 2.683888638195341e+01  5.485850531974130e+00 -5.339951191128627e-16
-2.304415541986914e+01 -4.977295039714492e+00  4.612381321842850e-16
-2.806482289433056e+01  2.886763553614063e+00  4.697865535025036e-16
 2.729042993754014e+01 -3.063661404002875e+00 -4.541877459543740e-16
 2.475950275770913e+01  3.303279572849535e+00 -4.745648834014620e-16
-2.760143542546536e+01 -3.705364079686039e+00  5.292717374459108e-16
-2.135936862187245e+01  2.157397184415884e+00  3.579489706538350e-16
 2.632553938992683e+01 -1.945666948850499e+00 -4.485033545896147e-16
 2.298640485469476e+01  5.696159581088915e+00 -4.675964640095113e-16
-2.206248613984387e+01 -5.832341679491211e+00  4.525534499784710e-16
-2.331014698014614e+01 -9.182680104799554e-01  4.242667410888755e-16
-2.081064153991419e+01  1.290221093700324e-01  3.690245347299383e-16
-2.117451558149397e+01  3.276517170305517e+00  3.431607389903748e-16
 2.442286439423498e+01 -3.138701870232446e+00 -4.023849830282836e-16
 2.633308316907267e+01  4.496113263209614e+00 -5.148245567022813e-16
-2.343062213384504e+01 -3.810284987172267e+00  4.561251640050871e-16
-2.744814772296679e+01  6.210251127179279e+00  4.246644557412949e-16
 2.913070295429577e+01 -6.347930203746388e+00 -4.531929306102263e-16
 2.208209025848568e+01  4.050512443907232e+00 -4.345946805462628e-16
-2.434853768258277e+01 -5.059497995854906e+00  4.852957759836663e-16
-2.476423429688685e+01  9.814445674924934e-01  4.306251027614229e-16
-9.472622250524211e+00  1.181650983695780e+00  1.564355776999883e-16
-2.253330951417686e+01  5.207896214656010e+00  3.474978797838112e-16
 2.544192862051254e+01 -5.401023974152214e+00 -3.972759087400645e-16
 2.606313982525396e+01  1.430802526351220e+00 -4.785256386175024e-16
-1.993247347356166e+01 -1.426335290981917e+00  3.693772187450077e-16
-2.814329735490474e+01  5.160679398381614e+00  4.478194408790156e-16
 2.285330303216512e+01 -3.399679698663387e+00 -3.717713139664377e-16
 2.759017296391849e+01  7.019684637035602e+00 -5.631247482369906e-16
-1.766326457371669e+01 -5.536845534245247e+00  3.712279390806187e-16
-2.586324589801782e+01 -2.946234328329028e+00  4.905387989933579e-16
-1.746838840794824e+01 -1.247438667967933e+00  3.236877879218394e-16
-2.220164408481101e+01  2.006242354806185e+00  3.744913281834723e-16
 2.610403052399257e+01 -2.029353579999822e+00 -4.437014903620874e-16
 2.326727204589828e+01  4.126036119432020e+00 -4.564623825195609e-16
-2.173647431545142e+01 -3.874852919674797e+00  4.266391947740696e-16
-2.509958994827684e+01  2.246218137822876e+00  4.235980676244960e-16
 2.221792738538186e+01 -2.102553546200040e+00 -3.737915464357591e-16
 2.646722155866546e+01  4.396303793949330e+00 -5.161862033123209e-16
-1.984692431645142e+01 -3.336007825587163e+00  3.874759610108713e-16
-2.663368151521968e+01  3.100718903421594e+00  4.421193720408556e-16
 1.838423710643221e+01 -2.564063747759176e+00 -3.008246052638967e-16
 2.861598307898259e+01  2.712555970420993e+00 -5.371260804725143e-16
-2.300269216835948e+01 -2.220446016416354e+00  4.321746219351426e-16
-2.820152355040008e+01  4.138258841170986e+00  4.593606452932976e-16
 2.600689259046106e+01 -3.563256853023000e+00 -4.262125060553488e-16
 2.330599555892256e+01  4.568893336186449e+00 -4.617017106496947e-16
-2.214196588548931e+01 -4.414587052191861e+00  4.394009730931288e-16
-2.751672981251797e+01  3.239197889096727e+00  4.564114485552953e-16
 1.883771333033337e+01 -2.882959089437222e+00 -3.056182218020712e-16
 1.201093903333122e+01 -5.510112507464519e-01 -2.080875468286490e-16
 2.822387828171737e+01 -3.418985512579104e-01 -4.987646972725804e-16
 1.169497579794458e+01  2.495415732567292e+00 -2.337655347360204e-16
-2.738777329021077e+01 -4.665197092601159e+00  5.353313004114645e-16
-1.763453271456450e+01  2.430610516981726e+00  2.888539047959284e-16
 2.073471914208631e+01 -2.466447944068288e+00 -3.436572037650559e-16
 2.507406362796240e+01  5.293069672380518e+00 -5.006072397467884e-16
-2.430411723938517e+01 -5.472075692320206e+00  4.887443471649506e-16
-2.648130570248348e+01  7.368625837989765e-01  4.636954276526793e-16
 2.561252301467877e+01 -5.488628993863433e-01 -4.501660318635287e-16
 2.243174382133192e+01  6.260643849872814e+00 -4.635254800979513e-16
-2.147952054918658e+01 -5.672395942378849e+00  4.405354975608779e-16
-2.644905807850538e+01  2.651841588992911e+00  4.434458290968040e-16
 2.458171118728756e+01 -3.010262664411263e+00 -4.065315173687221e-16
 2.427582790940495e+01  4.088626660567343e+00 -4.740264685591273e-16
-2.098102110168257e+01 -3.398222367448558e+00  4.082977979220171e-16
-2.629547348339221e+01  3.549014138177433e+00  4.314944859992146e-16
 1.086222331147137e+01 -2.174462321262792e+00 -1.709644103253785e-16
 1.626968885661815e+01 -1.558834656243220e+00 -2.735220605790461e-16
 5.713175438676138e+00 -5.493675572498701e-01 -9.602821977305471e-17
 2.944008035068131e+00 -9.271154267372811e-02 -5.143955730251730e-17
 2.236611264738680e+01 -1.758795066230646e+00 -3.799606734399498e-16
 2.518061692782414e+01  3.545339836943970e+00 -4.845461936616583e-16
-2.762141041170103e+01 -3.662060697497139e+00  5.291822896334552e-16
-2.658262465853437e+01  5.509500735190617e+00  4.164613960911668e-16
 2.803563297911816e+01 -5.580836953664318e+00 -4.415864586362437e-16
 2.215756573449938e+01  4.424873534653167e+00 -4.397842808833827e-16
-2.778797526936506e+01 -4.740237269500901e+00  5.432243825646011e-16
-2.935204014258181e+01  7.065433798325314e+00  4.497598011109422e-16
 2.158521296650203e+01 -6.200644477107780e+00 -3.204252430265357e-16
-1.044000703605849e+01  3.153267931707804e+00  1.533936959909530e-16
 2.577718808502558e+01 -5.972218794929607e+00 -3.973734315348546e-16
 2.809162033272969e+01  3.531942949747354e+00 -5.362133234732600e-16
-2.392434659125064e+01 -3.362598857760478e+00  4.603117673122939e-16
-2.831663952184860e+01  6.865197930454842e+00  4.333909627965021e-16
 2.522661246373913e+01 -6.416356966057601e+00 -3.830119232378244e-16
 2.456802023985210e+01  1.937224737219739e+00 -4.571215064001916e-16
-2.127030812315109e+01 -2.126407708176791e+00  4.003785719323737e-16
-2.814000803839985e+01  4.264601091172925e+00  4.569677826559314e-16
 2.845334398723386e+01 -4.167944413968960e+00 -4.635370818717481e-16
 2.003455587099823e+01  3.673395760177276e+00 -3.942816268032452e-16
-2.257296161012712e+01 -2.437350560401291e+00  4.267556694437186e-16
-2.554870672830941e+01  9.860083044340197e+00  3.533609404367863e-16
 2.114250266303517e+01 -9.537918518282879e+00 -2.782574066568161e-16
 2.714442650560655e+01 -3.608661859818719e+00 -4.459897590259135e-16
 1.119008828782098e+01 -1.257254025230292e+00 -1.862231407193013e-16
 2.385330277565143e+01 -1.252789237007387e+00 -4.116260218349153e-16
-2.517494905550918e+01  1.529725171420442e+00  4.323008777773115e-16
-2.762492413623906e+01  6.234078906010959e+00  4.275655811096783e-16
 2.493257483195495e+01 -5.617170132804575e+00 -3.859905272295973e-16
 2.437542407292197e+01 -7.732571195800633e-01 -4.258448114338720e-16
-2.381732327884509e+01  7.791933300867571e-01  4.158517496690198e-16
-2.310627399508478e+01  6.014992547233487e+00  3.494018445558933e-16
 2.146462525130859e+01 -4.868224834469406e+00 -3.319693685922050e-16
 2.885938353119354e+01  3.655319497055462e+00 -5.511442346154977e-16
-2.748030439646125e+01 -3.850703539093970e+00  5.286093764413887e-16
-1.980364885717497e+01  2.792991228259122e+00  3.237325838038173e-16
 1.753431691024945e+01 -2.935752340351892e+00 -2.818802962862046e-16
 2.798459635615163e+01  7.603476896232124e-01 -5.058315696898316e-16
-2.686938987296540e+01 -8.143433565418510e-01  4.865399259175679e-16
-2.575037660825365e+01  2.808007624965561e+00  4.294074096280709e-16
 2.837918575467584e+01 -2.979048595304224e+00 -4.744328203088219e-16
 1.476787410511675e+01  1.379054494774887e+00 -2.769812194212111e-16
-1.547914902890004e+01 -1.051583833086939e+00  2.862745630395194e-16
-2.804334547330877e+01  5.496319762256526e+00  4.425920951080630e-16
 2.698860094251090e+01 -5.188196246350578e+00 -4.269875152313477e-16
 2.502468827414962e+01  2.893928272482495e+00 -4.750782400860805e-16
-2.875719047642514e+01 -3.198372896867533e+00  5.446306269843174e-16
-2.308551727491775e+01  4.882285626258445e+00  3.606706060940903e-16
 2.597736187055911e+01 -4.916144470643572e+00 -4.117865428652111e-16
 2.349770084748564e+01  5.039449986638425e+00 -4.699481335769335e-16
-2.665649786914484e+01 -5.434310879862672e+00  5.302197467643730e-16
-2.425399615769172e+01  5.247993599206452e+00  3.777075650543382e-16
 2.885447606239537e+01 -6.268746292272555e+00 -4.490907294986582e-16
 1.926008765380647e+01  3.282115033940164e+00 -3.764787737387305e-16
-2.238937505512421e+01 -3.217485086167984e+00  4.315041265591655e-16
-2.880917073386973e+01  7.837124392302337e+00  4.321699519044079e-16
 2.942563274355149e+01 -8.262869370343015e+00 -4.387662537201520e-16
 1.255224618075237e+01  7.473592713899631e-01 -2.310610386656502e-16
-2.521689526246531e+01 -1.549916206444249e+00  4.646895569775528e-16
-2.092489168660151e+01  4.264691488664268e+00  3.285652518718279e-16
 2.552719228655755e+01 -4.715117099868535e+00 -4.058407213468221e-16
 2.361387224101510e+01  2.981263870901735e+00 -4.508684274407853e-16
-2.266064568490541e+01 -2.907998093789763e+00  4.331518445805540e-16
-2.781677125617009e+01  5.148142441620633e+00  4.421373321331643e-16
 2.830762151321110e+01 -5.292747121881757e+00 -4.493868374073478e-16
 1.853270736073391e+01  1.925186254410602e+00 -3.495922234968337e-16
-2.122935836433462e+01 -2.314842905286344e+00  4.015859253239724e-16
-2.282808050732636e+01  3.134544153013386e+00  3.740466204661082e-16
 1.802509508378413e+01 -2.816931899419769e+00 -2.918351161727590e-16
 2.398379083255338e+01  4.366910265519520e-01 -4.313070084271602e-16
-6.863693676132458e+00 -1.883405057925717e-01  1.240827465557579e-16
-2.908765751500852e+01  5.479171412353179e+00  4.613530666583158e-16
 2.328166278992664e+01 -4.396112865493140e+00 -3.691564980083784e-16
 2.863829310530202e+01  1.324415162401119e+00 -5.232604714728844e-16
-2.093661347213319e+01 -1.225052377995691e+00  3.851789789909141e-16
-2.922961682378730e+01  3.930823522039618e+00  4.797881139951184e-16
 2.718589353670133e+01 -3.731536842924493e+00 -4.454652184929588e-16
 2.400918411714341e+01  5.446958549149533e-01 -4.328686225932116e-16
-2.638569549599949e+01 -6.506423963504505e-01  4.762500396127262e-16
-2.387360127553726e+01  2.935923143908831e+00  3.946936683943008e-16
 2.605565434710972e+01 -2.350762481794986e+00 -4.395382188802956e-16
 2.088418732896789e+01  5.578682393925887e+00 -4.289779601016233e-16
-2.594273245436521e+01 -6.415752842526452e+00  5.276013994338011e-16
-2.481290825673243e+01  4.164512918167432e+00  3.987864429511053e-16
 2.865192013885806e+01 -4.646191768356466e+00 -4.621571635274126e-16
 1.908568443290277e+01  4.417756481144541e+00 -3.850433637103357e-16
-2.622914521040694e+01 -6.168752017574133e+00  5.301606123239891e-16
-2.185136589904785e+01  1.679241138110437e+00  3.716175287522208e-16
 2.804883705715663e+01 -2.179994552312440e+00 -4.767638612005846e-16
 1.744270198034111e+01  3.335801287024379e+00 -3.446878345683512e-16
-1.931442353284615e+01 -3.467908216098075e+00  3.793547029758241e-16
-2.583068968738597e+01  3.093034276524236e+00  4.279081313687513e-16
 2.363478099621797e+01 -2.638896156225166e+00 -3.934954210453596e-16
 2.547685478474608e+01  5.512343026589366e+00 -5.100283429077434e-16
-1.118386497015373e+01 -3.151986799643437e+00  2.314157370803829e-16
-2.348102166176779e+01 -2.765884543178740e+00  4.462912485641714e-16
-1.871598376292247e+01 -1.430784502027854e+00  3.477740472920262e-16
-1.864285201510196e+01  2.241325991213483e+00  3.087429792586474e-16
 2.847871012195700e+01 -3.098831452342908e+00 -4.749732497993125e-16
 1.499888434720885e+01  1.929842229989239e+00 -2.867514661312961e-16
-1.642175480970223e+01 -2.272474183264027e+00  3.155935621273629e-16
-2.733072588267786e+01  1.906631577447629e+00  4.667929215184864e-16
 2.249932400277587e+01 -1.448582718646664e+00 -3.855186475888995e-16
 2.828134260518281e+01  5.326663891358894e+00 -5.580297633251555e-16
-2.487241867402124e+01 -4.799294399546866e+00  4.919453657078120e-16
-2.528510907337148e+01  1.311495350919457e+00  4.365035388286271e-16
 2.397163662690419e+01 -1.388527157150964e+00 -4.123372560515203e-16
 2.336955113108885e+01  3.564282422642652e+00 -4.525107456776020e-16
-2.107310880746060e+01 -3.321969439059476e+00  4.091531373521494e-16
-2.596513272057997e+01  8.207639556612637e-01  4.536474576101010e-16
 2.571562566746331e+01 -5.708035958058446e-01 -4.517754338685521e-16
 2.606787466023142e+01  6.025766270568332e+00 -5.258214839069910e-16
-2.949313263765228e+01 -6.797652779322668e+00  5.947088888820763e-16
-1.997213326735322e+01  3.332950947313262e-01  3.520034490946697e-16
 2.827670517764449e+01 -7.551210985416322e-02 -5.024418388141275e-16
 1.482829371837353e+01  3.641240141401637e+00 -3.012995942417918e-16
-1.902061695399581e+01 -5.167375073149215e+00  3.915874690253302e-16
-1.955579483951325e+01 -2.963625545559109e+00  3.784688720459930e-16
-2.453660871560625e+01 -3.265128805158235e+00  4.702062327652654e-16
 8.970004862864867e+00  4.834915205453982e-01 -1.645996360785321e-16
 1.355986228878053e+01  1.604490846229519e-01 -2.429624802745244e-16
 2.642218955660289e+01  6.014085598249975e+00 -5.320069254648005e-16
-2.177202494340656e+01 -4.849638279138225e+00  4.372874260624159e-16
-2.763887937277367e+01  1.620773693932841e+00  4.752139663638955e-16
 2.620474182146308e+01 -1.633507529185469e+00 -4.495609424047813e-16
 2.480108867342405e+01  5.523060648872363e+00 -4.981123985497332e-16
-2.577414832072674e+01 -5.374318609127025e+00  5.139008852554602e-16
-2.352579305904677e+01  3.625975206472111e+00  3.814139720342348e-16
 2.512964203144681e+01 -3.896377957219971e+00 -4.071780876031728e-16
 2.419970055420023e+01  4.678164066942860e+00 -4.787289741535303e-16
-2.288943812843209e+01 -4.690220058391163e+00  4.555351622824158e-16
-2.726909266855030e+01  2.067086348054008e+00  4.640474704752093e-16
 1.750094676216246e+01 -1.849834826028005e+00 -2.924438426727162e-16
 1.828174882388074e+01  4.027500354970183e-01 -3.294836378881388e-16
 2.250114821741110e+01  1.294133293753794e+00 -4.137315223416256e-16
 1.140681695143647e+01  3.302512021185028e+00 -2.369300255043898e-16
-2.554491034108058e+01 -5.922003159802523e+00  5.154485817623215e-16
-2.259720375600208e+01  2.607111557745270e+00  3.753570715917600e-16
 2.626974878390515e+01 -2.444551305046645e+00 -4.423846386765194e-16
 2.033887519144767e+01  5.709373554142419e+00 -4.206162843366256e-16
-1.784870914818704e+01 -5.922919593403278e+00  3.784949171974796e-16
-1.026034106516250e+01 -1.926260886181247e+00  2.023866390826663e-16
-2.543775415884013e+01 -3.069181731332567e+00  4.842299058518804e-16
 5.613063364080119e+00  5.833859539136173e-01 -1.058852368171750e-16
 1.731778953449845e+01 -1.258926959844073e+00 -2.952557049931859e-16
 2.348866554891455e+01  6.321670219083110e+00 -4.829616867555706e-16
-2.393090509586748e+01 -6.574117430060419e+00  4.934256704025578e-16
-2.542494682127332e+01  8.412583936594505e-01  4.438236322686268e-16
 2.485702383144590e+01 -1.226419503672714e+00 -4.297593747326125e-16
 2.340569512689988e+01  3.877418625783949e+00 -4.563713319297266e-16
-2.114810725541522e+01 -3.262550981053710e+00  4.098773211231803e-16
-2.668881087626170e+01  3.568157931101814e+00  4.382976985769363e-16
 2.726938538612394e+01 -3.228572988206057e+00 -4.521188264409336e-16
 2.350867569289372e+01  5.993349334764351e+00 -4.799444133205747e-16
-2.535457424629385e+01 -6.628083862915961e+00  5.193160466405969e-16
-2.419362100944349e+01  1.890800056536516e+00  4.111270613519016e-16
 2.572517327630955e+01 -1.882508776949152e+00 -4.384680507269948e-16
 2.409915035858375e+01  6.747728134497287e+00 -4.982035824627610e-16
-2.649687969686212e+01 -7.031759417672786e+00  5.437923544067212e-16
-2.585742520808618e+01  3.398710445589398e+00  4.252432102565861e-16
 2.781967870477127e+01 -3.851078248057517e+00 -4.555159370545335e-16
 2.249125920066933e+01  3.690072031911833e+00 -4.381729356513792e-16
-1.677919187835051e+01 -3.449884706615333e+00  3.340520465356316e-16
 1.694352100880171e+01  3.522981511030490e+00 -3.377275225431217e-16
-2.639933657657157e+01 -3.759469838833802e+00  5.084348715340613e-16
-2.950780794225881e+01  7.853156187352149e+00  4.444383135223176e-16
 2.518454003016583e+01 -7.620075362274243e+00 -3.698954248509671e-16
 2.505249168303694e+01  4.376517340189870e-01 -4.503356857741180e-16
-2.151078539607231e+01 -7.465894962795711e-01  3.904810209763596e-16
-2.696227280254636e+01  5.308446347805409e+00  4.252834484680163e-16
 2.427667054844462e+01 -4.695512622670670e+00 -3.837876242170465e-16
 2.677071369688275e+01  1.468678756434654e+00 -4.915069241927662e-16
-2.600274600279193e+01 -1.719946760937099e+00  4.804217104770765e-16
-2.478855563103162e+01  2.535672791798272e+00  4.150887995163612e-16
 2.550318264236253e+01 -2.002160561446148e+00 -4.332880839772540e-16
 2.514409771247499e+01  6.349650107883617e+00 -5.127095599708729e-16
-2.692366761523402e+01 -6.034431395861171e+00  5.411403713822353e-16
-2.546214256558320e+01  7.070217609202241e+00  3.804852817713564e-16
 2.856297990690552e+01 -7.226218411064175e+00 -4.340655295042159e-16
 1.997630763040198e+01  5.269173123915778e+00 -4.096410625933084e-16
-1.852167499642491e+01 -6.425424311130042e+00  3.956342006379518e-16
-2.249547391627956e+01 -1.397010253061388e+00  4.146875647694866e-16
-1.948081604882867e+01 -5.570727592378095e-01  3.524080793799673e-16
-1.772681861378246e+01  1.282827659616012e+00  3.022892943592197e-16
 2.335460882928477e+01 -8.956717344652387e-01 -4.064204208023710e-16
 2.547907755928403e+01  5.927642283256950e+00 -5.143349488287096e-16
-2.638793426004399e+01 -6.089886481863208e+00  5.321761381458868e-16
-2.081802407592984e+01  1.358913218246766e+00  3.565192314051202e-16
 2.101753633580225e+01 -1.634888859819517e+00 -3.572342405936141e-16
 2.717374304793252e+01  4.964483369108830e+00 -5.345974347146223e-16
-2.560585195774274e+01 -4.197917235407052e+00  4.988187539641617e-16
-2.604097512207361e+01  5.093130802406247e+00  4.111001462911702e-16
 2.350489323652534e+01 -5.376357197902936e+00 -3.630574956653108e-16
 1.848784821144637e+01 -7.449780719372282e-01 -3.213589329654925e-16
 2.564248952644212e+01  4.983121456526610e-01 -4.614586648645997e-16
 1.929139403313922e+01  4.670552960932312e+00 -3.913016034226383e-16
-2.442632957941840e+01 -5.340794715945289e+00  4.895703971941912e-16
-2.403116198466248e+01  2.612300104754214e+00  4.008227583223798e-16
 2.112867070899744e+01 -2.474327383704412e+00 -3.505870834422303e-16
VECTORS SF_force double
0.000000000000000e+00 0.000000000000000e+00 0.000000000000000e+00
0.000000000000000e+00 0.000000000000000e+00 0.000000000000000e+00
0.000000000000000e+00 0.000000000000000e+00 0.000000000000000e+00
0.000000000000000e+00 0.000000000000000e+00 0.000000000000000e+00
0.000000000000000e+00 0.000000000000000e+00 0.000000000000000e+00
0.000000000000000e+00 0.000000000000000e+00 0.000000000000000e+00
0.000000000000000e+00 0.000000000000000e+00 0.000000000000000e+00
0.000000000000000e+00 0.000000000000000e+00 0.000000000000000e+00
0.000000000000000e+00 0.000000000000000e+00 0.000000000000000e+00
0.000000000000000e+00 0.000000000000000e+00 0.000000000000000e+00
0.000000000000000e+00 0.000000000000000e+00 0.000000000000000e+00
0.000000000000000e+00 0.000000000000000e+00 0.000000000000000e+00
0.000000000000000e+00 0.000000000000000e+00 0.000000000000000e+00
0.000000000000000e+00 0.000000000000000e+00 0.000000000000000e+00
0.000000000000000e+00 0.000000000000000e+00 0.000000000000000e+00
0.000000000000000e+00 0.000000000000000e+00 0.000000000000000e+00
0.000000000000000e+00 0.000000000000000e+00 0.000000000000000e+00
0.000000000000000e+00 0.000000000000000e+00 0.000000000000000e+00
0.000000000000000e+00 0.000000000000000e+00 0.000000000000000e+00
0.000000000000000e+00 0.000000000000000e+00 0.000000000000000e+00
0.000000000000000e+00 0.000000000000000e+00 0.000000000000000e+00
0.000000000000000e+00 0.000000000000000e+00 0.000000000000000e+00
0.000000000000000e+00 0.000000000000000e+00 0.000000000000000e+00
0.000000000000000e+00 0.000000000000000e+00 0.000000000000000e+00
0.000000000000000e+00 0.000000000000000e+00 0.000000000000000e+00
0.000000000000000e+00 0.000000000000000e+00 0.000000000000000e+00
0.000000000000000e+00 0.000000000000000e+00 0.000000000000000e+00
0.000000000000000e+00 0.000000000000000e+00 0.000000000000000e+00
0.000000000000000e+00 0.000000000000000e+00 0.000000000000000e+00
0.000000000000000e+00 0.000000000000000e+00 0.000000000000000e+00
0.000000000000000e+00 0.000000000000000e+00 0.000000000000000e+00
0.000000000000000e+00 0.000000000000000e+00 0.000000000000000e+00
0.000000000000000e+00 0.000000000000000e+00 0.000000000000000e+00
0.000000000000000e+00 0.000000000000000e+00 0.000000000000000e+00
0.000000000000000e+00 0.000000000000000e+00 0.000000000000000e+00
0.000000000000000e+00 0.000000000000000e+00 0.000000000000000e+00
0.000000000000000e+00 0.000000000000000e+00 0.000000000000000e+00
0.000000000000000e+00 0.000000000000000e+00 0.000000000000000e+00
0.000000000000000e+00 0.000000000000000e+00 0.000000000000000e+00
0.000000000000000e+00 0.000000000000000e+00 0.000000000000000e+00
0.000000000000000e+00 0.000000000000000e+00 0.000000000000000e+00
0.000000000000000e+00 0.000000000000000e+00 0.000000000000000e+00
0.000000000000000e+00 0.000000000000000e+00 0.000000000000000e+00
0.000000000000000e+00 0.000000000000000e+00 0.000000000000000e+00
0.000000000000000e+00 0.000000000000000e+00 0.000000000000000e+00
0.000000000000000e+00 0.000000000000000e+00 0.000000000000000e+00
0.000000000000000e+00 0.000000000000000e+00 0.000000000000000e+00
0.000000000000000e+00 0.000000000000000e+00 0.000000000000000e+00
0.000000000000000e+00 0.000000000000000e+00 0.000000000000000e+00
0.000000000000000e+00 0.000000000000000e+00 0.000000000000000e+00
0.000000000000000e+00 0.000000000000000e+00 0.000000000000000e+00
0.000000000000000e+00 0.000000000000000e+00 0.000000000000000e+00
0.000000000000000e+00 0.000000000000000e+00 0.000000000000000e+00
0.000000000000000e+00 0.000000000000000e+00 0.000000000000000e+00
0.000000000000000e+00 0.000000000000000e+00 0.000000000000000e+00
0.000000000000000e+00 0.000000000000000e+00 0.000000000000000e+00
0.000000000000000e+00 0.000000000000000e+00 0.000000000000000e+00
0.000000000000000e+00 0.000000000000000e+00 0.000000000000000e+00
0.000000000000000e+00 0.000000000000000e+00 0.000000000000000e+00
0.000000000000000e+00 0.000000000000000e+00 0.000000000000000e+00
0.000000000000000e+00 0.000000000000000e+00 0.000000000000000e+00
0.000000000000000e+00 0.000000000000000e+00 0.000000000000000e+00
0.000000000000000e+00 0.000000000000000e+00 0.000000000000000e+00
0.000000000000000e+00 0.000000000000000e+00 0.000000000000000e+00
0.000000000000000e+00 0.000000000000000e+00 0.000000000000000e+00
0.000000000000000e+00 0.000000000000000e+00 0.000000000000000e+00
0.000000000000000e+00 0.000000000000000e+00 0.000000000000000e+00
0.000000000000000e+00 0.000000000000000e+00 0.000000000000000e+00
0.000000000000000e+00 0.000000000000000e+00 0.000000000000000e+00
0.000000000000000e+00 0.000000000000000e+00 0.000000000000000e+00
0.000000000000000e+00 0.000000000000000e+00 0.000000000000000e+00
0.000000000000000e+00 0.000000000000000e+00 0.000000000000000e+00
0.000000000000000e+00 0.000000000000000e+00 0.000000000000000e+00
0.000000000000000e+00 0.000000000000000e+00 0.000000000000000e+00
0.000000000000000e+00 0.000000000000000e+00 0.000000000000000e+00
0.000000000000000e+00 0.000000000000000e+00 0.000000000000000e+00
0.000000000000000e+00 0.000000000000000e+00 0.000000000000000e+00
0.000000000000000e+00 0.000000000000000e+00 0.000000000000000e+00
0.000000000000000e+00 0.000000000000000e+00 0.000000000000000e+00
0.000000000000000e+00 0.000000000000000e+00 0.000000000000000e+00
0.000000000000000e+00 0.000000000000000e+00 0.000000000000000e+00
0.000000000000000e+00 0.000000000000000e+00 0.000000000000000e+00
0.000000000000000e+00 0.000000000000000e+00 0.000000000000000e+00
0.000000000000000e+00 0.000000000000000e+00 0.000000000000000e+00
0.000000000000000e+00 0.000000000000000e+00 0.000000000000000e+00
0.000000000000000e+00 0.000000000000000e+00 0.000000000000000e+00
0.000000000000000e+00 0.000000000000000e+00 0.000000000000000e+00
0.000000000000000e+00 0.000000000000000e+00 0.000000000000000e+00
0.000000000000000e+00 0.000000000000000e+00 0.000000000000000e+00
0.000000000000000e+00 0.000000000000000e+00 0.000000000000000e+00
0.000000000000000e+00 0.000000000000000e+00 0.000000000000000e+00
0.000000000000000e+00 0.000000000000000e+00 0.000000000000000e+00
0.000000000000000e+00 0.000000000000000e+00 0.000000000000000e+00
0.000000000000000e+00 0.000000000000000e+00 0.000000000000000e+00
0.000000000000000e+00 0.000000000000000e+00 0.000000000000000e+00
0.000000000000000e+00 0.000000000000000e+00 0.000000000000000e+00
0.000000000000000e+00 0.000000000000000e+00 0.000000000000000e+00
0.000000000000000e+00 0.000000000000000e+00 0.000000000000000e+00
0.000000000000000e+00 0.000000000000000e+00 0.000000000000000e+00
0.000000000000000e+00 0.000000000000000e+00 0.000000000000000e+00
0.000000000000000e+00 0.000000000000000e+00 0.000000000000000e+00
0.000000000000000e+00 0.000000000000000e+00 0.000000000000000e+00
0.000000000000000e+00 0.000000000000000e+00 0.000000000000000e+00
0.000000000000000e+00 0.000000000000000e+00 0.000000000000000e+00
0.000000000000000e+00 0.000000000000000e+00 0.000000000000000e+00
0.000000000000000e+00 0.000000000000000e+00 0.000000000000000e+00
0.000000000000000e+00 0.000000000000000e+00 0.000000000000000e+00
0.000000000000000e+00 0.000000000000000e+00 0.000000000000000e+00
0.000000000000000e+00 0.000000000000000e+00 0.000000000000000e+00
0.000000000000000e+00 0.000000000000000e+00 0.000000000000000e+00
0.000000000000000e+00 0.000000000000000e+00 0.000000000000000e+00
0.000000000000000e+00 0.000000000000000e+00 0.000000000000000e+00
0.000000000000000e+00 0.000000000000000e+00 0.000000000000000e+00
0.000000000000000e+00 0.000000000000000e+00 0.000000000000000e+00
0.000000000000000e+00 0.000000000000000e+00 0.000000000000000e+00
0.000000000000000e+00 0.000000000000000e+00 0.000000000000000e+00
0.000000000000000e+00 0.000000000000000e+00 0.000000000000000e+00
0.000000000000000e+00 0.000000000000000e+00 0.000000000000000e+00
0.000000000000000e+00 0.000000000000000e+00 0.000000000000000e+00
0.000000000000000e+00 0.000000000000000e+00 0.000000000000000e+00
0.000000000000000e+00 0.000000000000000e+00 0.000000000000000e+00
0.000000000000000e+00 0.000000000000000e+00 0.000000000000000e+00
0.000000000000000e+00 0.000000000000000e+00 0.000000000000000e+00
0.000000000000000e+00 0.000000000000000e+00 0.000000000000000e+00
0.000000000000000e+00 0.000000000000000e+00 0.000000000000000e+00
0.000000000000000e+00 0.000000000000000e+00 0.000000000000000e+00
0.000000000000000e+00 0.000000000000000e+00 0.000000000000000e+00
0.000000000000000e+00 0.000000000000000e+00 0.000000000000000e+00
0.000000000000000e+00 0.000000000000000e+00 0.000000000000000e+00
0.000000000000000e+00 0.000000000000000e+00 0.000000000000000e+00
0.000000000000000e+00 0.000000000000000e+00 0.000000000000000e+00
0.000000000000000e+00 0.000000000000000e+00 0.000000000000000e+00
0.000000000000000e+00 0.000000000000000e+00 0.000000000000000e+00
0.000000000000000e+00 0.000000000000000e+00 0.000000000000000e+00
0.000000000000000e+00 0.000000000000000e+00 0.000000000000000e+00
0.000000000000000e+00 0.000000000000000e+00 0.000000000000000e+00
0.000000000000000e+00 0.000000000000000e+00 0.000000000000000e+00
0.000000000000000e+00 0.000000000000000e+00 0.000000000000000e+00
0.000000000000000e+00 0.000000000000000e+00 0.000000000000000e+00
0.000000000000000e+00 0.000000000000000e+00 0.000000000000000e+00
0.000000000000000e+00 0.000000000000000e+00 0.000000000000000e+00
0.000000000000000e+00 0.000000000000000e+00 0.000000000000000e+00
0.000000000000000e+00 0.000000000000000e+00 0.000000000000000e+00
0.000000000000000e+00 0.000000000000000e+00 0.000000000000000e+00
0.000000000000000e+00 0.000000000000000e+00 0.000000000000000e+00
0.000000000000000e+00 0.000000000000000e+00 0.000000000000000e+00
0.000000000000000e+00 0.000000000000000e+00 0.000000000000000e+00
0.000000000000000e+00 0.000000000000000e+00 0.000000000000000e+00
0.000000000000000e+00 0.000000000000000e+00 0.000000000000000e+00
0.000000000000000e+00 0.000000000000000e+00 0.000000000000000e+00
0.000000000000000e+00 0.000000000000000e+00 0.000000000000000e+00
0.000000000000000e+00 0.000000000000000e+00 0.000000000000000e+00
0.000000000000000e+00 0.000000000000000e+00 0.000000000000000e+00
0.000000000000000e+00 0.000000000000000e+00 0.000000000000000e+00
0.000000000000000e+00 0.000000000000000e+00 0.000000000000000e+00
0.000000000000000e+00 0.000000000000000e+00 0.000000000000000e+00
0.000000000000000e+00 0.000000000000000e+00 0.000000000000000e+00
0.000000000000000e+00 0.000000000000000e+00 0.000000000000000e+00
0.000000000000000e+00 0.000000000000000e+00 0.000000000000000e+00
0.000000000000000e+00 0.000000000000000e+00 0.000000000000000e+00
0.000000000000000e+00 0.000000000000000e+00 0.000000000000000e+00
0.000000000000000e+00 0.000000000000000e+00 0.000000000000000e+00
0.000000000000000e+00 0.000000000000000e+00 0.000000000000000e+00
0.000000000000000e+00 0.000000000000000e+00 0.000000000000000e+00
0.000000000000000e+00 0.000000000000000e+00 0.000000000000000e+00
0.000000000000000e+00 0.000000000000000e+00 0.000000000000000e+00
0.000000000000000e+00 0.000000000000000e+00 0.000000000000000e+00
0.000000000000000e+00 0.000000000000000e+00 0.000000000000000e+00
0.000000000000000e+00 0.000000000000000e+00 0.000000000000000e+00
0.000000000000000e+00 0.000000000000000e+00 0.000000000000000e+00
0.000000000000000e+00 0.000000000000000e+00 0.000000000000000e+00
0.000000000000000e+00 0.000000000000000e+00 0.000000000000000e+00
0.000000000000000e+00 0.000000000000000e+00 0.000000000000000e+00
0.000000000000000e+00 0.000000000000000e+00 0.000000000000000e+00
0.000000000000000e+00 0.000000000000000e+00 0.000000000000000e+00
0.000000000000000e+00 0.000000000000000e+00 0.000000000000000e+00
0.000000000000000e+00 0.000000000000000e+00 0.000000000000000e+00
0.000000000000000e+00 0.000000000000000e+00 0.000000000000000e+00
0.000000000000000e+00 0.000000000000000e+00 0.000000000000000e+00
0.000000000000000e+00 0.000000000000000e+00 0.000000000000000e+00
0.000000000000000e+00 0.000000000000000e+00 0.000000000000000e+00
0.000000000000000e+00 0.000000000000000e+00 0.000000000000000e+00
0.000000000000000e+00 0.000000000000000e+00 0.000000000000000e+00
0.000000000000000e+00 0.000000000000000e+00 0.000000000000000e+00
0.000000000000000e+00 0.000000000000000e+00 0.000000000000000e+00
0.000000000000000e+00 0.000000000000000e+00 0.000000000000000e+00
0.000000000000000e+00 0.000000000000000e+00 0.000000000000000e+00
0.000000000000000e+00 0.000000000000000e+00 0.000000000000000e+00
0.000000000000000e+00 0.000000000000000e+00 0.000000000000000e+00
0.000000000000000e+00 0.000000000000000e+00 0.000000000000000e+00
0.000000000000000e+00 0.000000000000000e+00 0.000000000000000e+00
0.000000000000000e+00 0.000000000000000e+00 0.000000000000000e+00
0.000000000000000e+00 0.000000000000000e+00 0.000000000000000e+00
0.000000000000000e+00 0.000000000000000e+00 0.000000000000000e+00
0.000000000000000e+00 0.000000000000000e+00 0.000000000000000e+00
0.000000000000000e+00 0.000000000000000e+00 0.000000000000000e+00
0.000000000000000e+00 0.000000000000000e+00 0.000000000000000e+00
0.000000000000000e+00 0.000000000000000e+00 0.000000000000000e+00
0.000000000000000e+00 0.000000000000000e+00 0.000000000000000e+00
0.000000000000000e+00 0.000000000000000e+00 0.000000000000000e+00
0.000000000000000e+00 0.000000000000000e+00 0.000000000000000e+00
0.000000000000000e+00 0.000000000000000e+00 0.000000000000000e+00
0.000000000000000e+00 0.000000000000000e+00 0.000000000000000e+00
0.000000000000000e+00 0.000000000000000e+00 0.000000000000000e+00
0.000000000000000e+00 0.000000000000000e+00 0.000000000000000e+00
0.000000000000000e+00 0.000000000000000e+00 0.000000000000000e+00
0.000000000000000e+00 0.000000000000000e+00 0.000000000000000e+00
0.000000000000000e+00 0.000000000000000e+00 0.000000000000000e+00
0.000000000000000e+00 0.000000000000000e+00 0.000000000000000e+00
0.000000000000000e+00 0.000000000000000e+00 0.000000000000000e+00
0.000000000000000e+00 0.000000000000000e+00 0.000000000000000e+00
0.000000000000000e+00 0.000000000000000e+00 0.000000000000000e+00
0.000000000000000e+00 0.000000000000000e+00 0.000000000000000e+00
0.000000000000000e+00 0.000000000000000e+00 0.000000000000000e+00
0.000000000000000e+00 0.000000000000000e+00 0.000000000000000e+00
0.000000000000000e+00 0.000000000000000e+00 0.000000000000000e+00
0.000000000000000e+00 0.000000000000000e+00 0.000000000000000e+00
0.000000000000000e+00 0.000000000000000e+00 0.000000000000000e+00
0.000000000000000e+00 0.000000000000000e+00 0.000000000000000e+00
0.000000000000000e+00 0.000000000000000e+00 0.000000000000000e+00
0.000000000000000e+00 0.000000000000000e+00 0.000000000000000e+00
0.000000000000000e+00 0.000000000000000e+00 0.000000000000000e+00
0.000000000000000e+00 0.000000000000000e+00 0.000000000000000e+00
0.000000000000000e+00 0.000000000000000e+00 0.000000000000000e+00
0.000000000000000e+00 0.000000000000000e+00 0.000000000000000e+00
0.000000000000000e+00 0.000000000000000e+00 0.000000000000000e+00
0.000000000000000e+00 0.000000000000000e+00 0.000000000000000e+00
0.000000000000000e+00 0.000000000000000e+00 0.000000000000000e+00
0.000000000000000e+00 0.000000000000000e+00 0.000000000000000e+00
0.000000000000000e+00 0.000000000000000e+00 0.000000000000000e+00
0.000000000000000e+00 0.000000000000000e+00 0.000000000000000e+00
0.000000000000000e+00 0.000000000000000e+00 0.000000000000000e+00
0.000000000000000e+00 0.000000000000000e+00 0.000000000000000e+00
0.000000000000000e+00 0.000000000000000e+00 0.000000000000000e+00
0.000000000000000e+00 0.000000000000000e+00 0.000000000000000e+00
0.000000000000000e+00 0.000000000000000e+00 0.000000000000000e+00
0.000000000000000e+00 0.000000000000000e+00 0.000000000000000e+00
0.000000000000000e+00 0.000000000000000e+00 0.000000000000000e+00
0.000000000000000e+00 0.000000000000000e+00 0.000000000000000e+00
0.000000000000000e+00 0.000000000000000e+00 0.000000000000000e+00
0.000000000000000e+00 0.000000000000000e+00 0.000000000000000e+00
0.000000000000000e+00 0.000000000000000e+00 0.000000000000000e+00
0.000000000000000e+00 0.000000000000000e+00 0.000000000000000e+00
0.000000000000000e+00 0.000000000000000e+00 0.000000000000000e+00
0.000000000000000e+00 0.000000000000000e+00 0.000000000000000e+00
0.000000000000000e+00 0.000000000000000e+00 0.000000000000000e+00
0.000000000000000e+00 0.000000000000000e+00 0.000000000000000e+00
0.000000000000000e+00 0.000000000000000e+00 0.000000000000000e+00
0.000000000000000e+00 0.000000000000000e+00 0.000000000000000e+00
0.000000000000000e+00 0.000000000000000e+00 0.000000000000000e+00
0.000000000000000e+00 0.000000000000000e+00 0.000000000000000e+00
0.000000000000000e+00 0.000000000000000e+00 0.000000000000000e+00
0.000000000000000e+00 0.000000000000000e+00 0.000000000000000e+00
0.000000000000000e+00 0.000000000000000e+00 0.000000000000000e+00
0.000000000000000e+00 0.000000000000000e+00 0.000000000000000e+00
0.000000000000000e+00 0.000000000000000e+00 0.000000000000000e+00
0.000000000000000e+00 0.000000000000000e+00 0.000000000000000e+00
0.000000000000000e+00 0.000000000000000e+00 0.000000000000000e+00
0.000000000000000e+00 0.000000000000000e+00 0.000000000000000e+00
0.000000000000000e+00 0.000000000000000e+00 0.000000000000000e+00
0.000000000000000e+00 0.000000000000000e+00 0.000000000000000e+00
0.000000000000000e+00 0.000000000000000e+00 0.000000000000000e+00
0.000000000000000e+00 0.000000000000000e+00 0.000000000000000e+00
0.000000000000000e+00 0.000000000000000e+00 0.000000000000000e+00
0.000000000000000e+00 0.000000000000000e+00 0.000000000000000e+00
0.000000000000000e+00 0.000000000000000e+00 0.000000000000000e+00
0.000000000000000e+00 0.000000000000000e+00 0.000000000000000e+00
0.000000000000000e+00 0.000000000000000e+00 0.000000000000000e+00
0.000000000000000e+00 0.000000000000000e+00 0.000000000000000e+00
0.000000000000000e+00 0.000000000000000e+00 0.000000000000000e+00
0.000000000000000e+00 0.000000000000000e+00 0.000000000000000e+00
0.000000000000000e+00 0.000000000000000e+00 0.000000000000000e+00
0.000000000000000e+00 0.000000000000000e+00 0.000000000000000e+00
0.000000000000000e+00 0.000000000000000e+00 0.000000000000000e+00
0.000000000000000e+00 0.000000000000000e+00 0.000000000000000e+00
0.000000000000000e+00 0.000000000000000e+00 0.000000000000000e+00
0.000000000000000e+00 0.000000000000000e+00 0.000000000000000e+00
0.000000000000000e+00 0.000000000000000e+00 0.000000000000000e+00
0.000000000000000e+00 0.000000000000000e+00 0.000000000000000e+00
0.000000000000000e+00 0.000000000000000e+00 0.000000000000000e+00
0.000000000000000e+00 0.000000000000000e+00 0.000000000000000e+00
0.000000000000000e+00 0.000000000000000e+00 0.000000000000000e+00
0.000000000000000e+00 0.000000000000000e+00 0.000000000000000e+00
0.000000000000000e+00 0.000000000000000e+00 0.000000000000000e+00
0.000000000000000e+00 0.000000000000000e+00 0.000000000000000e+00
0.000000000000000e+00 0.000000000000000e+00 0.000000000000000e+00
0.000000000000000e+00 0.000000000000000e+00 0.000000000000000e+00
0.000000000000000e+00 0.000000000000000e+00 0.000000000000000e+00
0.000000000000000e+00 0.000000000000000e+00 0.000000000000000e+00
0.000000000000000e+00 0.000000000000000e+00 0.000000000000000e+00
0.000000000000000e+00 0.000000000000000e+00 0.000000000000000e+00
0.000000000000000e+00 0.000000000000000e+00 0.000000000000000e+00
0.000000000000000e+00 0.000000000000000e+00 0.000000000000000e+00
0.000000000000000e+00 0.000000000000000e+00 0.000000000000000e+00
0.000000000000000e+00 0.000000000000000e+00 0.000000000000000e+00
0.000000000000000e+00 0.000000000000000e+00 0.000000000000000e+00
0.000000000000000e+00 0.000000000000000e+00 0.000000000000000e+00
0.000000000000000e+00 0.000000000000000e+00 0.000000000000000e+00
0.000000000000000e+00 0.000000000000000e+00 0.000000000000000e+00
0.000000000000000e+00 0.000000000000000e+00 0.000000000000000e+00
0.000000000000000e+00 0.000000000000000e+00 0.000000000000000e+00
0.000000000000000e+00 0.000000000000000e+00 0.000000000000000e+00
0.000000000000000e+00 0.000000000000000e+00 0.000000000000000e+00
0.000000000000000e+00 0.000000000000000e+00 0.000000000000000e+00
0.000000000000000e+00 0.000000000000000e+00 0.000000000000000e+00
0.000000000000000e+00 0.000000000000000e+00 0.000000000000000e+00
0.000000000000000e+00 0.000000000000000e+00 0.000000000000000e+00
0.000000000000000e+00 0.000000000000000e+00 0.000000000000000e+00
0.000000000000000e+00 0.000000000000000e+00 0.000000000000000e+00
0.000000000000000e+00 0.000000000000000e+00 0.000000000000000e+00
0.000000000000000e+00 0.000000000000000e+00 0.000000000000000e+00
0.000000000000000e+00 0.000000000000000e+00 0.000000000000000e+00
0.000000000000000e+00 0.000000000000000e+00 0.000000000000000e+00
0.000000000000000e+00 0.000000000000000e+00 0.000000000000000e+00
0.000000000000000e+00 0.000000000000000e+00 0.000000000000000e+00
0.000000000000000e+00 0.000000000000000e+00 0.000000000000000e+00
0.000000000000000e+00 0.000000000000000e+00 0.000000000000000e+00
0.000000000000000e+00 0.000000000000000e+00 0.000000000000000e+00
0.000000000000000e+00 0.000000000000000e+00 0.000000000000000e+00
0.000000000000000e+00 0.000000000000000e+00 0.000000000000000e+00
0.000000000000000e+00 0.000000000000000e+00 0.000000000000000e+00
0.000000000000000e+00 0.000000000000000e+00 0.000000000000000e+00
0.000000000000000e+00 0.000000000000000e+00 0.000000000000000e+00
0.000000000000000e+00 0.000000000000000e+00 0.000000000000000e+00
0.000000000000000e+00 0.000000000000000e+00 0.000000000000000e+00
0.000000000000000e+00 0.000000000000000e+00 0.000000000000000e+00
0.000000000000000e+00 0.000000000000000e+00 0.000000000000000e+00
0.000000000000000e+00 0.000000000000000e+00 0.000000000000000e+00
0.000000000000000e+00 0.000000000000000e+00 0.000000000000000e+00
0.000000000000000e+00 0.000000000000000e+00 0.000000000000000e+00
0.000000000000000e+00 0.000000000000000e+00 0.000000000000000e+00
0.000000000000000e+00 0.000000000000000e+00 0.000000000000000e+00
0.000000000000000e+00 0.000000000000000e+00 0.000000000000000e+00
0.000000000000000e+00 0.000000000000000e+00 0.000000000000000e+00
0.000000000000000e+00 0.000000000000000e+00 0.000000000000000e+00
0.000000000000000e+00 0.000000000000000e+00 0.000000000000000e+00
0.000000000000000e+00 0.000000000000000e+00 0.000000000000000e+00
0.000000000000000e+00 0.000000000000000e+00 0.000000000000000e+00
0.000000000000000e+00 0.000000000000000e+00 0.000000000000000e+00
0.000000000000000e+00 0.000000000000000e+00 0.000000000000000e+00
0.000000000000000e+00 0.000000000000000e+00 0.000000000000000e+00
0.000000000000000e+00 0.000000000000000e+00 0.000000000000000e+00
0.000000000000000e+00 0.000000000000000e+00 0.000000000000000e+00
0.000000000000000e+00 0.000000000000000e+00 0.000000000000000e+00
0.000000000000000e+00 0.000000000000000e+00 0.000000000000000e+00
0.000000000000000e+00 0.000000000000000e+00 0.000000000000000e+00
0.000000000000000e+00 0.000000000000000e+00 0.000000000000000e+00
0.000000000000000e+00 0.000000000000000e+00 0.000000000000000e+00
0.000000000000000e+00 0.000000000000000e+00 0.000000000000000e+00
0.000000000000000e+00 0.000000000000000e+00 0.000000000000000e+00
0.000000000000000e+00 0.000000000000000e+00 0.000000000000000e+00
0.000000000000000e+00 0.000000000000000e+00 0.000000000000000e+00
0.000000000000000e+00 0.000000000000000e+00 0.000000000000000e+00
0.000000000000000e+00 0.000000000000000e+00 0.000000000000000e+00
0.000000000000000e+00 0.000000000000000e+00 0.000000000000000e+00
0.000000000000000e+00 0.000000000000000e+00 0.000000000000000e+00
0.000000000000000e+00 0.000000000000000e+00 0.000000000000000e+00
0.000000000000000e+00 0.000000000000000e+00 0.000000000000000e+00
0.000000000000000e+00 0.000000000000000e+00 0.000000000000000e+00
0.000000000000000e+00 0.000000000000000e+00 0.000000000000000e+00
0.000000000000000e+00 0.000000000000000e+00 0.000000000000000e+00
0.000000000000000e+00 0.000000000000000e+00 0.000000000000000e+00
0.000000000000000e+00 0.000000000000000e+00 0.000000000000000e+00
0.000000000000000e+00 0.000000000000000e+00 0.000000000000000e+00
0.000000000000000e+00 0.000000000000000e+00 0.000000000000000e+00
0.000000000000000e+00 0.000000000000000e+00 0.000000000000000e+00
0.000000000000000e+00 0.000000000000000e+00 0.000000000000000e+00
0.000000000000000e+00 0.000000000000000e+00 0.000000000000000e+00
0.000000000000000e+00 0.000000000000000e+00 0.000000000000000e+00
0.000000000000000e+00 0.000000000000000e+00 0.000000000000000e+00
0.000000000000000e+00 0.000000000000000e+00 0.000000000000000e+00
0.000000000000000e+00 0.000000000000000e+00 0.000000000000000e+00
0.000000000000000e+00 0.000000000000000e+00 0.000000000000000e+00
0.000000000000000e+00 0.000000000000000e+00 0.000000000000000e+00
0.000000000000000e+00 0.000000000000000e+00 0.000000000000000e+00
0.000000000000000e+00 0.000000000000000e+00 0.000000000000000e+00
0.000000000000000e+00 0.000000000000000e+00 0.000000000000000e+00
0.000000000000000e+00 0.000000000000000e+00 0.000000000000000e+00
0.000000000000000e+00 0.000000000000000e+00 0.000000000000000e+00
0.000000000000000e+00 0.000000000000000e+00 0.000000000000000e+00
0.000000000000000e+00 0.000000000000000e+00 0.000000000000000e+00
0.000000000000000e+00 0.000000000000000e+00 0.000000000000000e+00
0.000000000000000e+00 0.000000000000000e+00 0.000000000000000e+00
0.000000000000000e+00 0.000000000000000e+00 0.000000000000000e+00
0.000000000000000e+00 0.000000000000000e+00 0.000000000000000e+00
0.000000000000000e+00 0.000000000000000e+00 0.000000000000000e+00
0.000000000000000e+00 0.000000000000000e+00 0.000000000000000e+00
0.000000000000000e+00 0.000000000000000e+00 0.000000000000000e+00
0.000000000000000e+00 0.000000000000000e+00 0.000000000000000e+00
0.000000000000000e+00 0.000000000000000e+00 0.000000000000000e+00
0.000000000000000e+00 0.000000000000000e+00 0.000000000000000e+00
0.000000000000000e+00 0.000000000000000e+00 0.000000000000000e+00
0.000000000000000e+00 0.000000000000000e+00 0.000000000000000e+00
0.000000000000000e+00 0.000000000000000e+00 0.000000000000000e+00
0.000000000000000e+00 0.000000000000000e+00 0.000000000000000e+00
0.000000000000000e+00 0.000000000000000e+00 0.000000000000000e+00
0.000000000000000e+00 0.000000000000000e+00 0.000000000000000e+00
0.000000000000000e+00 0.000000000000000e+00 0.000000000000000e+00
0.000000000000000e+00 0.000000000000000e+00 0.000000000000000e+00
0.000000000000000e+00 0.000000000000000e+00 0.000000000000000e+00
0.000000000000000e+00 0.000000000000000e+00 0.000000000000000e+00
0.000000000000000e+00 0.000000000000000e+00 0.000000000000000e+00
0.000000000000000e+00 0.000000000000000e+00 0.000000000000000e+00
0.000000000000000e+00 0.000000000000000e+00 0.000000000000000e+00
0.000000000000000e+00 0.000000000000000e+00 0.000000000000000e+00
0.000000000000000e+00 0.000000000000000e+00 0.000000000000000e+00
0.000000000000000e+00 0.000000000000000e+00 0.000000000000000e+00
0.000000000000000e+00 0.000000000000000e+00 0.000000000000000e+00
0.000000000000000e+00 0.000000000000000e+00 0.000000000000000e+00
0.000000000000000e+00 0.000000000000000e+00 0.000000000000000e+00
0.000000000000000e+00 0.000000000000000e+00 0.000000000000000e+00
0.000000000000000e+00 0.000000000000000e+00 0.000000000000000e+00
0.000000000000000e+00 0.000000000000000e+00 0.000000000000000e+00
0.000000000000000e+00 0.000000000000000e+00 0.000000000000000e+00
0.000000000000000e+00 0.000000000000000e+00 0.000000000000000e+00
0.000000000000000e+00 0.000000000000000e+00 0.000000000000000e+00
0.000000000000000e+00 0.000000000000000e+00 0.000000000000000e+00
0.000000000000000e+00 0.000000000000000e+00 0.000000000000000e+00
0.000000000000000e+00 0.000000000000000e+00 0.000000000000000e+00
0.000000000000000e+00 0.000000000000000e+00 0.000000000000000e+00
0.000000000000000e+00 0.000000000000000e+00 0.000000000000000e+00
0.000000000000000e+00 0.000000000000000e+00 0.000000000000000e+00
0.000000000000000e+00 0.000000000000000e+00 0.000000000000000e+00
0.000000000000000e+00 0.000000000000000e+00 0.000000000000000e+00
0.000000000000000e+00 0.000000000000000e+00 0.000000000000000e+00
0.000000000000000e+00 0.000000000000000e+00 0.000000000000000e+00
0.000000000000000e+00 0.000000000000000e+00 0.000000000000000e+00
0.000000000000000e+00 0.000000000000000e+00 0.000000000000000e+00
0.000000000000000e+00 0.000000000000000e+00 0.000000000000000e+00
0.000000000000000e+00 0.000000000000000e+00 0.000000000000000e+00
0.000000000000000e+00 0.000000000000000e+00 0.000000000000000e+00
0.000000000000000e+00 0.000000000000000e+00 0.000000000000000e+00
0.000000000000000e+00 0.000000000000000e+00 0.000000000000000e+00
0.000000000000000e+00 0.000000000000000e+00 0.000000000000000e+00
0.000000000000000e+00 0.000000000000000e+00 0.000000000000000e+00
0.000000000000000e+00 0.000000000000000e+00 0.000000000000000e+00
0.000000000000000e+00 0.000000000000000e+00 0.000000000000000e+00
0.000000000000000e+00 0.000000000000000e+00 0.000000000000000e+00
0.000000000000000e+00 0.000000000000000e+00 0.000000000000000e+00
0.000000000000000e+00 0.000000000000000e+00 0.000000000000000e+00
0.000000000000000e+00 0.000000000000000e+00 0.000000000000000e+00
0.000000000000000e+00 0.000000000000000e+00 0.000000000000000e+00
0.000000000000000e+00 0.000000000000000e+00 0.000000000000000e+00
0.000000000000000e+00 0.000000000000000e+00 0.000000000000000e+00
0.000000000000000e+00 0.000000000000000e+00 0.000000000000000e+00
0.000000000000000e+00 0.000000000000000e+00 0.000000000000000e+00
0.000000000000000e+00 0.000000000000000e+00 0.000000000000000e+00
0.000000000000000e+00 0.000000000000000e+00 0.000000000000000e+00
0.000000000000000e+00 0.000000000000000e+00 0.000000000000000e+00
0.000000000000000e+00 0.000000000000000e+00 0.000000000000000e+00
0.000000000000000e+00 0.000000000000000e+00 0.000000000000000e+00
0.000000000000000e+00 0.000000000000000e+00 0.000000000000000e+00
0.000000000000000e+00 0.000000000000000e+00 0.000000000000000e+00
0.000000000000000e+00 0.000000000000000e+00 0.000000000000000e+00
0.000000000000000e+00 0.000000000000000e+00 0.000000000000000e+00
0.000000000000000e+00 0.000000000000000e+00 0.000000000000000e+00
0.000000000000000e+00 0.000000000000000e+00 0.000000000000000e+00
0.000000000000000e+00 0.000000000000000e+00 0.000000000000000e+00
0.000000000000000e+00 0.000000000000000e+00 0.000000000000000e+00
0.000000000000000e+00 0.000000000000000e+00 0.000000000000000e+00
0.000000000000000e+00 0.000000000000000e+00 0.000000000000000e+00
0.000000000000000e+00 0.000000000000000e+00 0.000000000000000e+00
0.000000000000000e+00 0.000000000000000e+00 0.000000000000000e+00
0.000000000000000e+00 0.000000000000000e+00 0.000000000000000e+00
0.000000000000000e+00 0.000000000000000e+00 0.000000000000000e+00
0.000000000000000e+00 0.000000000000000e+00 0.000000000000000e+00
0.000000000000000e+00 0.000000000000000e+00 0.000000000000000e+00
0.000000000000000e+00 0.000000000000000e+00 0.000000000000000e+00
0.000000000000000e+00 0.000000000000000e+00 0.000000000000000e+00
0.000000000000000e+00 0.000000000000000e+00 0.000000000000000e+00
0.000000000000000e+00 0.000000000000000e+00 0.000000000000000e+00
0.000000000000000e+00 0.000000000000000e+00 0.000000000000000e+00
0.000000000000000e+00 0.000000000000000e+00 0.000000000000000e+00
0.000000000000000e+00 0.000000000000000e+00 0.000000000000000e+00
0.000000000000000e+00 0.000000000000000e+00 0.000000000000000e+00
0.000000000000000e+00 0.000000000000000e+00 0.000000000000000e+00
0.000000000000000e+00 0.000000000000000e+00 0.000000000000000e+00
0.000000000000000e+00 0.000000000000000e+00 0.000000000000000e+00
0.000000000000000e+00 0.000000000000000e+00 0.000000000000000e+00
0.000000000000000e+00 0.000000000000000e+00 0.000000000000000e+00
0.000000000000000e+00 0.000000000000000e+00 0.000000000000000e+00
0.000000000000000e+00 0.000000000000000e+00 0.000000000000000e+00
0.000000000000000e+00 0.000000000000000e+00 0.000000000000000e+00
0.000000000000000e+00 0.000000000000000e+00 0.000000000000000e+00
0.000000000000000e+00 0.000000000000000e+00 0.000000000000000e+00
0.000000000000000e+00 0.000000000000000e+00 0.000000000000000e+00
0.000000000000000e+00 0.000000000000000e+00 0.000000000000000e+00
0.000000000000000e+00 0.000000000000000e+00 0.000000000000000e+00
0.000000000000000e+00 0.000000000000000e+00 0.000000000000000e+00
0.000000000000000e+00 0.000000000000000e+00 0.000000000000000e+00
0.000000000000000e+00 0.000000000000000e+00 0.000000000000000e+00
0.000000000000000e+00 0.000000000000000e+00 0.000000000000000e+00
0.000000000000000e+00 0.000000000000000e+00 0.000000000000000e+00
0.000000000000000e+00 0.000000000000000e+00 0.000000000000000e+00
0.000000000000000e+00 0.000000000000000e+00 0.000000000000000e+00
0.000000000000000e+00 0.000000000000000e+00 0.000000000000000e+00
0.000000000000000e+00 0.000000000000000e+00 0.000000000000000e+00
0.000000000000000e+00 0.000000000000000e+00 0.000000000000000e+00
0.000000000000000e+00 0.000000000000000e+00 0.000000000000000e+00
0.000000000000000e+00 0.000000000000000e+00 0.000000000000000e+00
0.000000000000000e+00 0.000000000000000e+00 0.000000000000000e+00
0.000000000000000e+00 0.000000000000000e+00 0.000000000000000e+00
0.000000000000000e+00 0.000000000000000e+00 0.000000000000000e+00
0.000000000000000e+00 0.000000000000000e+00 0.000000000000000e+00
0.000000000000000e+00 0.000000000000000e+00 0.000000000000000e+00
0.000000000000000e+00 0.000000000000000e+00 0.000000000000000e+00
0.000000000000000e+00 0.000000000000000e+00 0.000000000000000e+00
0.000000000000000e+00 0.000000000000000e+00 0.000000000000000e+00
0.000000000000000e+00 0.000000000000000e+00 0.000000000000000e+00
0.000000000000000e+00 0.000000000000000e+00 0.000000000000000e+00
0.000000000000000e+00 0.000000000000000e+00 0.000000000000000e+00
0.000000000000000e+00 0.000000000000000e+00 0.000000000000000e+00
0.000000000000000e+00 0.000000000000000e+00 0.000000000000000e+00
0.000000000000000e+00 0.000000000000000e+00 0.000000000000000e+00
0.000000000000000e+00 0.000000000000000e+00 0.000000000000000e+00
0.000000000000000e+00 0.000000000000000e+00 0.000000000000000e+00
0.000000000000000e+00 0.000000000000000e+00 0.000000000000000e+00
0.000000000000000e+00 0.000000000000000e+00 0.000000000000000e+00
0.000000000000000e+00 0.000000000000000e+00 0.000000000000000e+00
0.000000000000000e+00 0.000000000000000e+00 0.000000000000000e+00
0.000000000000000e+00 0.000000000000000e+00 0.000000000000000e+00
0.000000000000000e+00 0.000000000000000e+00 0.000000000000000e+00
0.000000000000000e+00 0.000000000000000e+00 0.000000000000000e+00
0.000000000000000e+00 0.000000000000000e+00 0.000000000000000e+00
0.000000000000000e+00 0.000000000000000e+00 0.000000000000000e+00
0.000000000000000e+00 0.000000000000000e+00 0.000000000000000e+00
0.000000000000000e+00 0.000000000000000e+00 0.000000000000000e+00
0.000000000000000e+00 0.000000000000000e+00 0.000000000000000e+00
0.000000000000000e+00 0.000000000000000e+00 0.000000000000000e+00
0.000000000000000e+00 0.000000000000000e+00 0.000000000000000e+00
0.000000000000000e+00 0.000000000000000e+00 0.000000000000000e+00
0.000000000000000e+00 0.000000000000000e+00 0.000000000000000e+00
0.000000000000000e+00 0.000000000000000e+00 0.000000000000000e+00
0.000000000000000e+00 0.000000000000000e+00 0.000000000000000e+00
0.000000000000000e+00 0.000000000000000e+00 0.000000000000000e+00
0.000000000000000e+00 0.000000000000000e+00 0.000000000000000e+00
0.000000000000000e+00 0.000000000000000e+00 0.000000000000000e+00
0.000000000000000e+00 0.000000000000000e+00 0.000000000000000e+00
0.000000000000000e+00 0.000000000000000e+00 0.000000000000000e+00
0.000000000000000e+00 0.000000000000000e+00 0.000000000000000e+00
0.000000000000000e+00 0.000000000000000e+00 0.000000000000000e+00
0.000000000000000e+00 0.000000000000000e+00 0.000000000000000e+00
0.000000000000000e+00 0.000000000000000e+00 0.000000000000000e+00
0.000000000000000e+00 0.000000000000000e+00 0.000000000000000e+00
0.000000000000000e+00 0.000000000000000e+00 0.000000000000000e+00
0.000000000000000e+00 0.000000000000000e+00 0.000000000000000e+00
0.000000000000000e+00 0.000000000000000e+00 0.000000000000000e+00
0.000000000000000e+00 0.000000000000000e+00 0.000000000000000e+00
0.000000000000000e+00 0.000000000000000e+00 0.000000000000000e+00
0.000000000000000e+00 0.000000000000000e+00 0.000000000000000e+00
0.000000000000000e+00 0.000000000000000e+00 0.000000000000000e+00
0.000000000000000e+00 0.000000000000000e+00 0.000000000000000e+00
0.000000000000000e+00 0.000000000000000e+00 0.000000000000000e+00
0.000000000000000e+00 0.000000000000000e+00 0.000000000000000e+00
0.000000000000000e+00 0.000000000000000e+00 0.000000000000000e+00
0.000000000000000e+00 0.000000000000000e+00 0.000000000000000e+00
0.000000000000000e+00 0.000000000000000e+00 0.000000000000000e+00
0.000000000000000e+00 0.000000000000000e+00 0.000000000000000e+00
0.000000000000000e+00 0.000000000000000e+00 0.000000000000000e+00
0.000000000000000e+00 0.000000000000000e+00 0.000000000000000e+00
0.000000000000000e+00 0.000000000000000e+00 0.000000000000000e+00
0.000000000000000e+00 0.000000000000000e+00 0.000000000000000e+00
0.000000000000000e+00 0.000000000000000e+00 0.000000000000000e+00
0.000000000000000e+00 0.000000000000000e+00 0.000000000000000e+00
0.000000000000000e+00 0.000000000000000e+00 0.000000000000000e+00
0.000000000000000e+00 0.000000000000000e+00 0.000000000000000e+00
0.000000000000000e+00 0.000000000000000e+00 0.000000000000000e+00
0.000000000000000e+00 0.000000000000000e+00 0.000000000000000e+00
0.000000000000000e+00 0.000000000000000e+00 0.000000000000000e+00
0.000000000000000e+00 0.000000000000000e+00 0.000000000000000e+00
0.000000000000000e+00 0.000000000000000e+00 0.000000000000000e+00
0.000000000000000e+00 0.000000000000000e+00 0.000000000000000e+00
0.000000000000000e+00 0.000000000000000e+00 0.000000000000000e+00
0.000000000000000e+00 0.000000000000000e+00 0.000000000000000e+00
0.000000000000000e+00 0.000000000000000e+00 0.000000000000000e+00
0.000000000000000e+00 0.000000000000000e+00 0.000000000000000e+00
0.000000000000000e+00 0.000000000000000e+00 0.000000000000000e+00
0.000000000000000e+00 0.000000000000000e+00 0.000000000000000e+00
0.000000000000000e+00 0.000000000000000e+00 0.000000000000000e+00
0.000000000000000e+00 0.000000000000000e+00 0.000000000000000e+00
0.000000000000000e+00 0.000000000000000e+00 0.000000000000000e+00
0.000000000000000e+00 0.000000000000000e+00 0.000000000000000e+00
0.000000000000000e+00 0.000000000000000e+00 0.000000000000000e+00
0.000000000000000e+00 0.000000000000000e+00 0.000000000000000e+00
0.000000000000000e+00 0.000000000000000e+00 0.000000000000000e+00
0.000000000000000e+00 0.000000000000000e+00 0.000000000000000e+00
0.000000000000000e+00 0.000000000000000e+00 0.000000000000000e+00
0.000000000000000e+00 0.000000000000000e+00 0.000000000000000e+00
0.000000000000000e+00 0.000000000000000e+00 0.000000000000000e+00
0.000000000000000e+00 0.000000000000000e+00 0.000000000000000e+00
0.000000000000000e+00 0.000000000000000e+00 0.000000000000000e+00
0.000000000000000e+00 0.000000000000000e+00 0.000000000000000e+00
0.000000000000000e+00 0.000000000000000e+00 0.000000000000000e+00
0.000000000000000e+00 0.000000000000000e+00 0.000000000000000e+00
0.000000000000000e+00 0.000000000000000e+00 0.000000000000000e+00
0.000000000000000e+00 0.000000000000000e+00 0.000000000000000e+00
0.000000000000000e+00 0.000000000000000e+00 0.000000000000000e+00
0.000000000000000e+00 0.000000000000000e+00 0.000000000000000e+00
0.000000000000000e+00 0.000000000000000e+00 0.000000000000000e+00
0.000000000000000e+00 0.000000000000000e+00 0.000000000000000e+00
0.000000000000000e+00 0.000000000000000e+00 0.000000000000000e+00
0.000000000000000e+00 0.000000000000000e+00 0.000000000000000e+00
0.000000000000000e+00 0.000000000000000e+00 0.000000000000000e+00
0.000000000000000e+00 0.000000000000000e+00 0.000000000000000e+00
0.000000000000000e+00 0.000000000000000e+00 0.000000000000000e+00
0.000000000000000e+00 0.000000000000000e+00 0.000000000000000e+00
0.000000000000000e+00 0.000000000000000e+00 0.000000000000000e+00
0.000000000000000e+00 0.000000000000000e+00 0.000000000000000e+00
0.000000000000000e+00 0.000000000000000e+00 0.000000000000000e+00
0.000000000000000e+00 0.000000000000000e+00 0.000000000000000e+00
0.000000000000000e+00 0.000000000000000e+00 0.000000000000000e+00
0.000000000000000e+00 0.000000000000000e+00 0.000000000000000e+00
0.000000000000000e+00 0.000000000000000e+00 0.000000000000000e+00
0.000000000000000e+00 0.000000000000000e+00 0.000000000000000e+00
0.000000000000000e+00 0.000000000000000e+00 0.000000000000000e+00
0.000000000000000e+00 0.000000000000000e+00 0.000000000000000e+00
0.000000000000000e+00 0.000000000000000e+00 0.000000000000000e+00
0.000000000000000e+00 0.000000000000000e+00 0.000000000000000e+00
0.000000000000000e+00 0.000000000000000e+00 0.000000000000000e+00
0.000000000000000e+00 0.000000000000000e+00 0.000000000000000e+00
0.000000000000000e+00 0.000000000000000e+00 0.000000000000000e+00
0.000000000000000e+00 0.000000000000000e+00 0.000000000000000e+00
0.000000000000000e+00 0.000000000000000e+00 0.000000000000000e+00
0.000000000000000e+00 0.000000000000000e+00 0.000000000000000e+00
0.000000000000000e+00 0.000000000000000e+00 0.000000000000000e+00
0.000000000000000e+00 0.000000000000000e+00 0.000000000000000e+00
0.000000000000000e+00 0.000000000000000e+00 0.000000000000000e+00
0.000000000000000e+00 0.000000000000000e+00 0.000000000000000e+00
0.000000000000000e+00 0.000000000000000e+00 0.000000000000000e+00
0.000000000000000e+00 0.000000000000000e+00 0.000000000000000e+00
0.000000000000000e+00 0.000000000000000e+00 0.000000000000000e+00
0.000000000000000e+00 0.000000000000000e+00 0.000000000000000e+00
0.000000000000000e+00 0.000000000000000e+00 0.000000000000000e+00
0.000000000000000e+00 0.000000000000000e+00 0.000000000000000e+00
0.000000000000000e+00 0.000000000000000e+00 0.000000000000000e+00
0.000000000000000e+00 0.000000000000000e+00 0.000000000000000e+00
0.000000000000000e+00 0.000000000000000e+00 0.000000000000000e+00
0.000000000000000e+00 0.000000000000000e+00 0.000000000000000e+00
0.000000000000000e+00 0.000000000000000e+00 0.000000000000000e+00
0.000000000000000e+00 0.000000000000000e+00 0.000000000000000e+00
0.000000000000000e+00 0.000000000000000e+00 0.000000000000000e+00
0.000000000000000e+00 0.000000000000000e+00 0.000000000000000e+00
0.000000000000000e+00 0.000000000000000e+00 0.000000000000000e+00
0.000000000000000e+00 0.000000000000000e+00 0.000000000000000e+00
0.000000000000000e+00 0.000000000000000e+00 0.000000000000000e+00
0.000000000000000e+00 0.000000000000000e+00 0.000000000000000e+00
0.000000000000000e+00 0.000000000000000e+00 0.000000000000000e+00
0.000000000000000e+00 0.000000000000000e+00 0.000000000000000e+00
0.000000000000000e+00 0.000000000000000e+00 0.000000000000000e+00
0.000000000000000e+00 0.000000000000000e+00 0.000000000000000e+00
0.000000000000000e+00 0.000000000000000e+00 0.000000000000000e+00
0.000000000000000e+00 0.000000000000000e+00 0.000000000000000e+00
0.000000000000000e+00 0.000000000000000e+00 0.000000000000000e+00
0.000000000000000e+00 0.000000000000000e+00 0.000000000000000e+00
0.000000000000000e+00 0.000000000000000e+00 0.000000000000000e+00
0.000000000000000e+00 0.000000000000000e+00 0.000000000000000e+00
0.000000000000000e+00 0.000000000000000e+00 0.000000000000000e+00
0.000000000000000e+00 0.000000000000000e+00 0.000000000000000e+00
0.000000000000000e+00 0.000000000000000e+00 0.000000000000000e+00
0.000000000000000e+00 0.000000000000000e+00 0.000000000000000e+00
0.000000000000000e+00 0.000000000000000e+00 0.000000000000000e+00
0.000000000000000e+00 0.000000000000000e+00 0.000000000000000e+00
0.000000000000000e+00 0.000000000000000e+00 0.000000000000000e+00
0.000000000000000e+00 0.000000000000000e+00 0.000000000000000e+00
0.000000000000000e+00 0.000000000000000e+00 0.000000000000000e+00
0.000000000000000e+00 0.000000000000000e+00 0.000000000000000e+00
0.000000000000000e+00 0.000000000000000e+00 0.000000000000000e+00
0.000000000000000e+00 0.000000000000000e+00 0.000000000000000e+00
0.000000000000000e+00 0.000000000000000e+00 0.000000000000000e+00
0.000000000000000e+00 0.000000000000000e+00 0.000000000000000e+00
0.000000000000000e+00 0.000000000000000e+00 0.000000000000000e+00
0.000000000000000e+00 0.000000000000000e+00 0.000000000000000e+00
0.000000000000000e+00 0.000000000000000e+00 0.000000000000000e+00
0.000000000000000e+00 0.000000000000000e+00 0.000000000000000e+00
0.000000000000000e+00 0.000000000000000e+00 0.000000000000000e+00
0.000000000000000e+00 0.000000000000000e+00 0.000000000000000e+00
0.000000000000000e+00 0.000000000000000e+00 0.000000000000000e+00
0.000000000000000e+00 0.000000000000000e+00 0.000000000000000e+00
0.000000000000000e+00 0.000000000000000e+00 0.000000000000000e+00
0.000000000000000e+00 0.000000000000000e+00 0.000000000000000e+00
0.000000000000000e+00 0.000000000000000e+00 0.000000000000000e+00
0.000000000000000e+00 0.000000000000000e+00 0.000000000000000e+00
0.000000000000000e+00 0.000000000000000e+00 0.000000000000000e+00
0.000000000000000e+00 0.000000000000000e+00 0.000000000000000e+00
0.000000000000000e+00 0.000000000000000e+00 0.000000000000000e+00
0.000000000000000e+00 0.000000000000000e+00 0.000000000000000e+00
0.000000000000000e+00 0.000000000000000e+00 0.000000000000000e+00
0.000000000000000e+00 0.000000000000000e+00 0.000000000000000e+00
0.000000000000000e+00 0.000000000000000e+00 0.000000000000000e+00
0.000000000000000e+00 0.000000000000000e+00 0.000000000000000e+00
0.000000000000000e+00 0.000000000000000e+00 0.000000000000000e+00
0.000000000000000e+00 0.000000000000000e+00 0.000000000000000e+00
0.000000000000000e+00 0.000000000000000e+00 0.000000000000000e+00
0.000000000000000e+00 0.000000000000000e+00 0.000000000000000e+00
0.000000000000000e+00 0.000000000000000e+00 0.000000000000000e+00
0.000000000000000e+00 0.000000000000000e+00 0.000000000000000e+00
0.000000000000000e+00 0.000000000000000e+00 0.000000000000000e+00
0.000000000000000e+00 0.000000000000000e+00 0.000000000000000e+00
0.000000000000000e+00 0.000000000000000e+00 0.000000000000000e+00
0.000000000000000e+00 0.000000000000000e+00 0.000000000000000e+00
0.000000000000000e+00 0.000000000000000e+00 0.000000000000000e+00
0.000000000000000e+00 0.000000000000000e+00 0.000000000000000e+00
0.000000000000000e+00 0.000000000000000e+00 0.000000000000000e+00
0.000000000000000e+00 0.000000000000000e+00 0.000000000000000e+00
0.000000000000000e+00 0.000000000000000e+00 0.000000000000000e+00
0.000000000000000e+00 0.000000000000000e+00 0.000000000000000e+00
0.000000000000000e+00 0.000000000000000e+00 0.000000000000000e+00
0.000000000000000e+00 0.000000000000000e+00 0.000000000000000e+00
0.000000000000000e+00 0.000000000000000e+00 0.000000000000000e+00
0.000000000000000e+00 0.000000000000000e+00 0.000000000000000e+00
0.000000000000000e+00 0.000000000000000e+00 0.000000000000000e+00
0.000000000000000e+00 0.000000000000000e+00 0.000000000000000e+00
0.000000000000000e+00 0.000000000000000e+00 0.000000000000000e+00
0.000000000000000e+00 0.000000000000000e+00 0.000000000000000e+00
0.000000000000000e+00 0.000000000000000e+00 0.000000000000000e+00
0.000000000000000e+00 0.000000000000000e+00 0.000000000000000e+00
0.000000000000000e+00 0.000000000000000e+00 0.000000000000000e+00
0.000000000000000e+00 0.000000000000000e+00 0.000000000000000e+00
0.000000000000000e+00 0.000000000000000e+00 0.000000000000000e+00
0.000000000000000e+00 0.000000000000000e+00 0.000000000000000e+00
0.000000000000000e+00 0.000000000000000e+00 0.000000000000000e+00
0.000000000000000e+00 0.000000000000000e+00 0.000000000000000e+00
0.000000000000000e+00 0.000000000000000e+00 0.000000000000000e+00
0.000000000000000e+00 0.000000000000000e+00 0.000000000000000e+00
0.000000000000000e+00 0.000000000000000e+00 0.000000000000000e+00
0.000000000000000e+00 0.000000000000000e+00 0.000000000000000e+00
0.000000000000000e+00 0.000000000000000e+00 0.000000000000000e+00
0.000000000000000e+00 0.000000000000000e+00 0.000000000000000e+00
0.000000000000000e+00 0.000000000000000e+00 0.000000000000000e+00
0.000000000000000e+00 0.000000000000000e+00 0.000000000000000e+00
0.000000000000000e+00 0.000000000000000e+00 0.000000000000000e+00
0.000000000000000e+00 0.000000000000000e+00 0.000000000000000e+00
0.000000000000000e+00 0.000000000000000e+00 0.000000000000000e+00
0.000000000000000e+00 0.000000000000000e+00 0.000000000000000e+00
0.000000000000000e+00 0.000000000000000e+00 0.000000000000000e+00
0.000000000000000e+00 0.000000000000000e+00 0.000000000000000e+00
0.000000000000000e+00 0.000000000000000e+00 0.000000000000000e+00
0.000000000000000e+00 0.000000000000000e+00 0.000000000000000e+00
0.000000000000000e+00 0.000000000000000e+00 0.000000000000000e+00
0.000000000000000e+00 0.000000000000000e+00 0.000000000000000e+00
0.000000000000000e+00 0.000000000000000e+00 0.000000000000000e+00
0.000000000000000e+00 0.000000000000000e+00 0.000000000000000e+00
0.000000000000000e+00 0.000000000000000e+00 0.000000000000000e+00
0.000000000000000e+00 0.000000000000000e+00 0.000000000000000e+00
0.000000000000000e+00 0.000000000000000e+00 0.000000000000000e+00
0.000000000000000e+00 0.000000000000000e+00 0.000000000000000e+00
0.000000000000000e+00 0.000000000000000e+00 0.000000000000000e+00
0.000000000000000e+00 0.000000000000000e+00 0.000000000000000e+00
0.000000000000000e+00 0.000000000000000e+00 0.000000000000000e+00
0.000000000000000e+00 0.000000000000000e+00 0.000000000000000e+00
0.000000000000000e+00 0.000000000000000e+00 0.000000000000000e+00
0.000000000000000e+00 0.000000000000000e+00 0.000000000000000e+00
0.000000000000000e+00 0.000000000000000e+00 0.000000000000000e+00
0.000000000000000e+00 0.000000000000000e+00 0.000000000000000e+00
0.000000000000000e+00 0.000000000000000e+00 0.000000000000000e+00
0.000000000000000e+00 0.000000000000000e+00 0.000000000000000e+00
0.000000000000000e+00 0.000000000000000e+00 0.000000000000000e+00
0.000000000000000e+00 0.000000000000000e+00 0.000000000000000e+00
0.000000000000000e+00 0.000000000000000e+00 0.000000000000000e+00
0.000000000000000e+00 0.000000000000000e+00 0.000000000000000e+00
0.000000000000000e+00 0.000000000000000e+00 0.000000000000000e+00
0.000000000000000e+00 0.000000000000000e+00 0.000000000000000e+00
0.000000000000000e+00 0.000000000000000e+00 0.000000000000000e+00
0.000000000000000e+00 0.000000000000000e+00 0.000000000000000e+00
0.000000000000000e+00 0.000000000000000e+00 0.000000000000000e+00
0.000000000000000e+00 0.000000000000000e+00 0.000000000000000e+00
0.000000000000000e+00 0.000000000000000e+00 0.000000000000000e+00
0.000000000000000e+00 0.000000000000000e+00 0.000000000000000e+00
0.000000000000000e+00 0.000000000000000e+00 0.000000000000000e+00
0.000000000000000e+00 0.000000000000000e+00 0.000000000000000e+00
0.000000000000000e+00 0.000000000000000e+00 0.000000000000000e+00
0.000000000000000e+00 0.000000000000000e+00 0.000000000000000e+00
0.000000000000000e+00 0.000000000000000e+00 0.000000000000000e+00
0.000000000000000e+00 0.000000000000000e+00 0.000000000000000e+00
0.000000000000000e+00 0.000000000000000e+00 0.000000000000000e+00
0.000000000000000e+00 0.000000000000000e+00 0.000000000000000e+00
0.000000000000000e+00 0.000000000000000e+00 0.000000000000000e+00
0.000000000000000e+00 0.000000000000000e+00 0.000000000000000e+00
0.000000000000000e+00 0.000000000000000e+00 0.000000000000000e+00
0.000000000000000e+00 0.000000000000000e+00 0.000000000000000e+00
0.000000000000000e+00 0.000000000000000e+00 0.000000000000000e+00
0.000000000000000e+00 0.000000000000000e+00 0.000000000000000e+00
0.000000000000000e+00 0.000000000000000e+00 0.000000000000000e+00
0.000000000000000e+00 0.000000000000000e+00 0.000000000000000e+00
0.000000000000000e+00 0.000000000000000e+00 0.000000000000000e+00
0.000000000000000e+00 0.000000000000000e+00 0.000000000000000e+00
0.000000000000000e+00 0.000000000000000e+00 0.000000000000000e+00
0.000000000000000e+00 0.000000000000000e+00 0.000000000000000e+00
0.000000000000000e+00 0.000000000000000e+00 0.000000000000000e+00
0.000000000000000e+00 0.000000000000000e+00 0.000000000000000e+00
0.000000000000000e+00 0.000000000000000e+00 0.000000000000000e+00
0.000000000000000e+00 0.000000000000000e+00 0.000000000000000e+00
0.000000000000000e+00 0.000000000000000e+00 0.000000000000000e+00
0.000000000000000e+00 0.000000000000000e+00 0.000000000000000e+00
0.000000000000000e+00 0.000000000000000e+00 0.000000000000000e+00
0.000000000000000e+00 0.000000000000000e+00 0.000000000000000e+00
0.000000000000000e+00 0.000000000000000e+00 0.000000000000000e+00
0.000000000000000e+00 0.000000000000000e+00 0.000000000000000e+00
0.000000000000000e+00 0.000000000000000e+00 0.000000000000000e+00
0.000000000000000e+00 0.000000000000000e+00 0.000000000000000e+00
0.000000000000000e+00 0.000000000000000e+00 0.000000000000000e+00
0.000000000000000e+00 0.000000000000000e+00 0.000000000000000e+00
0.000000000000000e+00 0.000000000000000e+00 0.000000000000000e+00
0.000000000000000e+00 0.000000000000000e+00 0.000000000000000e+00
0.000000000000000e+00 0.000000000000000e+00 0.000000000000000e+00
0.000000000000000e+00 0.000000000000000e+00 0.000000000000000e+00
0.000000000000000e+00 0.000000000000000e+00 0.000000000000000e+00
0.000000000000000e+00 0.000000000000000e+00 0.000000000000000e+00
0.000000000000000e+00 0.000000000000000e+00 0.000000000000000e+00
0.000000000000000e+00 0.000000000000000e+00 0.000000000000000e+00
0.000000000000000e+00 0.000000000000000e+00 0.000000000000000e+00
0.000000000000000e+00 0.000000000000000e+00 0.000000000000000e+00
0.000000000000000e+00 0.000000000000000e+00 0.000000000000000e+00
0.000000000000000e+00 0.000000000000000e+00 0.000000000000000e+00
0.000000000000000e+00 0.000000000000000e+00 0.000000000000000e+00
0.000000000000000e+00 0.000000000000000e+00 0.000000000000000e+00
0.000000000000000e+00 0.000000000000000e+00 0.000000000000000e+00
0.000000000000000e+00 0.000000000000000e+00 0.000000000000000e+00
-9.382980509237912e-02 -5.788512514281536e-03  1.729288169144786e-18
-1.164212136058351e-01 -7.182213063554098e-03  2.145648998501441e-18
-8.861262958259684e-02  1.131643763791513e-03  1.565340215813932e-18
-1.091007015057030e-01  1.393290426723278e-03  1.927261570329574e-18
-1.135832142190004e-01  2.686313233764505e-02  1.745339857828852e-18
-1.048735114394117e-01  2.480323378662740e-02  1.611505016865918e-18
-1.410074787396194e-01 -1.981544211720629e-02  2.712992753350740e-18
-1.240466553731835e-01 -1.743197836987996e-02  2.386665445783091e-18
-8.844780139082242e-02  1.361488775345892e-02  1.434146104339316e-18
-8.915707667484532e-02  1.372406744166398e-02  1.445646722438242e-18
-1.008923082500921e-01 -7.040142026759210e-03  1.867833875854456e-18
-9.971033231534374e-02 -6.957665189850956e-03  1.845951784645925e-18
-1.059197259001719e-01  2.021331776659410e-02  1.677283370885365e-18
-9.085779873365007e-02  1.733895685405603e-02  1.438771424643135e-18
-6.860392099924717e-02  1.617763980886672e-03  1.204266670684621e-18
-1.251616297901375e-01  2.951463611908984e-03  2.197075283881865e-18
-1.176369657581995e-01  3.119086028112817e-02  1.773015369479446e-18
-1.017212172334556e-01  2.697087819212010e-02  1.533134422455157e-18
-1.341245276309770e-01 -5.448390884872889e-03  2.442886195818343e-18
-1.335189466712175e-01 -5.423791045906194e-03  2.431856405867343e-18
-1.154750840783750e-01  1.799085467761244e-02  1.870167368592230e-18
-1.197013145167067e-01  1.864929539888978e-02  1.938612941254075e-18
-8.946164043905834e-02 -3.201873795169281e-03  1.624974695416629e-18
-1.235490064918006e-01 -4.421876508901851e-03  2.244135119898705e-18
-1.511497853640895e-01  2.273207121634871e-02  2.456326954708634e-18
-9.960826244839170e-02  1.498051823401102e-02  1.618728464445480e-18
-1.196399342709135e-01 -1.647062100533777e-02  2.298364989553995e-18
-1.105501977306063e-01 -1.521925283545263e-02  2.123744931829750e-18
-1.232552142978772e-01  1.117884395215424e-02  2.078615001918666e-18
-9.875751640328841e-02  8.956983047440028e-03  1.665478059629964e-18
-9.680101404984871e-02 -1.104568938592898e-02  1.836179959303256e-18
-8.205120065820302e-02 -9.362629979747187e-03  1.556396611793531e-18
-1.260442108979254e-01  2.525757529741600e-02  1.983594673080543e-18
-1.316957151115124e-01  2.639006121010843e-02  2.072534050566445e-18
-1.073290761938113e-01 -2.143563440269902e-02  2.130292294159201e-18
-1.124187010675044e-01 -2.245212817967294e-02  2.231312344206129e-18
-8.800864367190368e-02  1.225167063780800e-02  1.440337329530336e-18
-9.625536156676760e-02  1.339969505081283e-02  1.575301977711482e-18
-9.415339354323170e-02 -1.385345859608160e-02  1.817911202843900e-18
-1.461052791143438e-01 -2.149750910412097e-02  2.820996819139016e-18
-7.064137857564846e-02  9.227007170058232e-03  1.162343449076050e-18
-7.623531054824530e-02  9.957673126197454e-03  1.254386813942748e-18
-1.223585671797336e-01 -1.800850133486470e-02  2.362547466787054e-18
-1.031802493326030e-01 -1.518587296881667e-02  1.992244942890878e-18
-6.697574193356653e-02  1.342808996470968e-02  1.053944472918893e-18
-1.290521485829176e-01  2.587390316675240e-02  2.030791967219809e-18
-1.045471622013376e-01 -1.316642463330323e-02  1.995821689863206e-18
-6.902475856202422e-02 -8.692816354868179e-03  1.317693444517966e-18
-1.424333831684734e-01  2.757474399118186e-02  2.251451476780051e-18
-1.108558865650161e-01  2.146142023692676e-02  1.752304438499159e-18
-9.087493578293845e-02 -1.024047719462704e-02  1.722445064906518e-18
-9.393097593275931e-02 -1.058485498362330e-02  1.780369301428548e-18
-1.049098227427747e-01  2.679561765869004e-02  1.591680199313668e-18
-1.125830092136355e-01  2.875547008739105e-02  1.708096933724286e-18
-1.236076303342438e-01 -5.817680393742019e-04  2.205722681581370e-18
-1.318887827683925e-01 -6.207438679888768e-04  2.353496129743447e-18
-1.153730754037752e-01 -1.736695852384291e-02  2.231640688708595e-18
-1.352416701874292e-01 -2.035775217589001e-02  2.615955351306338e-18
-1.571729229592682e-01  3.311203707405710e-03  2.763058231481308e-18
-6.512199775363764e-02  1.371942420714495e-03  1.144827420371425e-18
-9.734742341746772e-02 -1.313516544190031e-02  1.867372573208852e-18
-1.662498268892456e-01 -2.243222166767371e-02  3.189096908115912e-18
-9.284653092742118e-02  9.513910358349545e-03  1.554562796404396e-18
-1.107220698173672e-01  1.134560264569068e-02  1.853859360814676e-18
-8.293757031077224e-02 -1.583660222517048e-02  1.638688330073496e-18
-1.448330605311690e-01 -2.765530217598202e-02  2.861625258757174e-18
-8.007684238463163e-02  6.138647607667098e-03  1.361990555176287e-18
-6.190945187434175e-02  4.745945236139166e-03  1.052989681136292e-18
-1.614117680863635e-01  2.361448387053165e-02  2.629884708721175e-18
-1.370748908485680e-01  2.005400744551947e-02  2.233363550044207e-18
-9.063864910096300e-02 -2.500944791931628e-02  1.869985870598723e-18
-1.034641437579954e-01 -2.854831951378615e-02  2.134591466886623e-18
-5.978311492934362e-02  1.455318645849978e-02  9.143831379444204e-19
-1.590260619543782e-01  3.871220049537846e-02  2.432304668578176e-18
-9.765202172032039e-02 -2.514123397750639e-02  1.996151256087664e-18
-1.064397763370953e-01 -2.740370628545325e-02  2.175785912978902e-18
-4.306420909212430e-02  9.243937012010310e-03  6.714008749023091e-19
-9.443151112636013e-02  2.027017235899187e-02  1.472252725063523e-18
-1.208397391837067e-01 -8.594615612153840e-03  2.238793854869115e-18
-1.040926971468993e-01 -7.403497608099520e-03  1.928521960436769e-18
-9.590110967006786e-02  2.555989821516817e-02  1.444055972583520e-18
-1.036927138937708e-01  2.763654374696519e-02  1.561380085453061e-18
-1.569432667235481e-01 -1.766960672746613e-02  2.974541430311876e-18
-1.149130738861744e-01 -1.293759755230266e-02  2.177944338070982e-18
-1.163287137491188e-01  2.150126527826318e-02  1.849290533139673e-18
-1.187134844409710e-01  2.194204714217967e-02  1.887201498730357e-18
-1.206218637064014e-01 -1.337044692177633e-02  2.283986432642443e-18
-1.155708605270159e-01 -1.281056359850023e-02  2.188345208253551e-18
-9.805271319990559e-02  1.898417768435638e-02  1.549909463605198e-18
-1.439294173709172e-01  2.786645615613635e-02  2.275077953422524e-18
-1.189137997992562e-01  8.870188360049884e-04  2.107099116631333e-18
-8.649953783755766e-02  6.452297336151541e-04  1.532732955083622e-18
-1.720335881103340e-01 -1.221793557378029e-02  3.187077759108967e-18
-1.227522624894767e-01 -8.717944275337142e-03  2.274096645648100e-18
-8.805374545050519e-02  1.509367412380307e-02  1.411939416079998e-18
-1.188944037221785e-01  2.038020501848106e-02  1.906468533596138e-18
-1.435529205898847e-01 -2.066750258516361e-02  2.767046539168188e-18
-1.047009133694475e-01 -1.507392805970208e-02  2.018156780065485e-18
-1.138374947093013e-01  1.731919695918418e-02  1.847925551445038e-18
-6.190754777512220e-02  9.418592845137868e-03  1.004946038676354e-18
-1.001108156113000e-01  2.078284931877439e-03  1.760237757613093e-18
-1.179156060352961e-01  2.447909606568932e-03  2.073297482272536e-18
-1.354703514118623e-01  2.623378074552055e-02  2.141313931081744e-18
-1.378645658606622e-01  2.669741944028277e-02  2.179158113958527e-18
-9.043383276450159e-02 -1.106750353177269e-02  1.723092505705831e-18
-9.460237923064146e-02 -1.157765997793929e-02  1.802518434652102e-18
-9.504025353863960e-02  2.525176928588127e-02  1.431901923672373e-18
-9.893640497360744e-02  2.628695925513639e-02  1.490602385076142e-18
-1.421777411218477e-01 -1.152178561976398e-02  2.648604660719315e-18
-9.012614373215380e-02 -7.303633456435210e-03  1.678944414632850e-18
-1.334678611766336e-01  1.032410192532922e-02  2.269143399034557e-18
-9.343283936901754e-02  7.227284144023773e-03  1.588491108182827e-18
-1.122813895115956e-01  3.137911146633800e-02  1.675772289266786e-18
-1.534838860274738e-01  4.289391134980065e-02  2.290709477079103e-18
-1.230971293605684e-01 -2.029611060233490e-02  2.399195415984012e-18
-1.019472196658178e-01 -1.680893824808212e-02  1.986978115290598e-18
-1.141011399150238e-01  2.136730980218550e-02  1.811024543470201e-18
-9.170705706722240e-02  1.717365050744801e-02  1.455583452381387e-18
-1.116067113844894e-01 -9.219811391949989e-03  2.080904771149452e-18
-8.046242989620719e-02 -6.646987610138712e-03  1.500220302097039e-18
-9.639558400958569e-02  2.423961149494876e-02  1.466421199713378e-18
-1.524132627586769e-01  3.832580417356560e-02  2.318592100698141e-18
-8.296321335439950e-02 -1.268668216212203e-02  1.606780394251148e-18
-8.928493149169563e-02 -1.365339530501581e-02  1.729215535686648e-18
-8.988636860347893e-02  3.137224462392033e-02  1.277296732770242e-18
-6.274717093437868e-02  2.190009037628518e-02  8.916452813731292e-19
-1.264869310798121e-01  1.367560908941965e-02  2.110473902202579e-18
-1.273009176209766e-01  1.376361629811690e-02  2.124055521562036e-18
-1.137186032829677e-01 -9.743771073433148e-03  2.123871902026367e-18
-1.280318796306088e-01 -1.097017804657514e-02  2.391194614257101e-18
-1.025173734574660e-01  2.304955780119729e-02  1.587593114663967e-18
-9.339867662822085e-02  2.099934989449078e-02  1.446380168871670e-18
-1.242183195139803e-01  2.953376013972757e-04  2.207578682159704e-18
-5.872383706237535e-02  1.396199630674801e-04  1.043626184452846e-18
-1.670758395254921e-01  4.557904532931430e-02  2.505005726438335e-18
-1.313084707499335e-01  3.582154521821805e-02  1.968737503235808e-18
-1.195648184277407e-01 -1.872839491050465e-02  2.320226020214124e-18
-1.005493167413070e-01 -1.574984461713283e-02  1.951218962950427e-18
-9.604684911827970e-02  2.414045666829919e-02  1.461233826160260e-18
-1.333250349936724e-01  3.350997205645626e-02  2.028375243906635e-18
-8.063925540981687e-02  5.191225429150859e-05  1.434538360448813e-18
-1.136065168291394e-01  7.313522875223467e-05  2.021012043825670e-18
-8.194775708454601e-02 -3.384919744411961e-03  1.493136908871683e-18
-1.033709687908912e-01 -4.269823186231733e-03  1.883480577122589e-18
-1.411650390954773e-01  3.238755219162828e-02  2.179429925161692e-18
-3.850285097756904e-02  8.833724720743948e-03  5.944408485432394e-19
-7.213518642640013e-02  1.055068590048253e-02  1.175327223558250e-18
-1.228245587657786e-01  1.796464949494911e-02  2.001229286157594e-18
-1.150509399007647e-01 -3.144188305055171e-03  2.079774105903566e-18
-9.983878374563621e-02 -2.728460423832448e-03  1.804784188448859e-18
-1.410004401620219e-01  3.730711353233226e-02  2.125953985160540e-18
-9.041936583048973e-02  2.392393628476167e-02  1.363310716634162e-18
-1.137554409156495e-01 -1.027545092473234e-02  2.129990288969453e-18
-1.167928839756462e-01 -1.054982107220342e-02  2.186864265009756e-18
-5.420240901605494e-02  1.732217153726381e-02  7.866175035193665e-19
-1.492054967321290e-01  4.768354867642577e-02  2.165358652528334e-18
-1.063925618906489e-01 -1.026658320713581e-02  1.998867961382633e-18
-9.753524475797308e-02 -9.411876997240522e-03  1.832459641800028e-18
-8.238514435217917e-02  2.709086812069697e-02  1.187793087702995e-18
-1.431183434214617e-01  4.706188473384503e-02  2.063417869522968e-18
-1.183974147067283e-01 -1.352465275884319e-03  2.120919313652409e-18
-3.437309498813709e-02 -3.926472339897036e-04  6.157445347174951e-19
-1.008571850035912e-01 -2.640230966561536e-03  1.822001328004945e-18
-1.229414585101018e-01 -3.218351234183795e-03  2.220957293863541e-18
-1.243583497817892e-01  1.777083543208239e-02  2.030516295948494e-18
-1.030283774603265e-01  1.472277771371683e-02  1.682241680959974e-18
-7.799656534649207e-02 -4.452670327462551e-03  1.433791488098454e-18
-1.495611289091592e-01 -8.538150338764447e-03  2.749345084975495e-18
-1.251094033361144e-01  2.157454101999373e-02  2.004800496698639e-18
-1.072310907256201e-01  1.849150826227905e-02  1.718311639379422e-18
-1.318354626874168e-01 -7.419353973182151e-03  2.422400484389963e-18
-1.137116062256382e-01 -6.399390878973549e-03  2.089385089464535e-18
-8.869098937138920e-02 -1.171354526249366e-02  1.698714372681191e-18
-1.331279282851374e-01 -1.758239506315635e-02  2.549823006667081e-18
-1.439290510929288e-01  1.425971507354335e-02  2.414875756752018e-18
-1.006922232564378e-01  9.976043077164154e-03  1.689438004273620e-18
-4.633225719627033e-02 -2.605989949490172e-03  8.513133839738568e-19
-1.073861036577739e-01 -6.040005900459254e-03  1.973122675836867e-18
-6.919877889164003e-02 -4.857543479748608e-03  1.281384308315690e-18
-1.569884740347295e-01 -1.102011264732320e-02  2.907024812237404e-18
-1.088580477091325e-01  1.156531485461795e-02  1.818429400781026e-18
-1.109575260529506e-01  1.178836798286794e-02  1.853500332393752e-18
-7.777859183671360e-02 -6.356835982411767e-03  1.449476999859334e-18
-1.423093000815241e-01 -1.163092385741873e-02  2.652067265081063e-18
-1.198823871582218e-01  1.589560404477260e-02  1.970128523227230e-18
-1.079834656533476e-01  1.431788650606793e-02  1.774583496071115e-18
-1.160611232604522e-01 -1.684219114497092e-02  2.238493526866447e-18
-9.646050330126180e-02 -1.399785034730518e-02  1.860452545798606e-18
-1.044811952088700e-01  1.785830284739327e-02  1.675879924077254e-18
-1.231448479046324e-01  2.104836170356527e-02  1.975245190719256e-18
-1.047523965195727e-01 -1.537252232145027e-02  2.022140931701982e-18
-9.442139833482320e-02 -1.385643767351336e-02  1.822711276736356e-18
-8.033441660138842e-02  1.844907359346874e-02  1.240089240631189e-18
-1.517691821637455e-01  3.485431188045889e-02  2.342798240441857e-18
-1.183330238435293e-01  2.037519682648078e-03  2.084942537469378e-18
-1.013550154202089e-01  1.745183484255801e-03  1.785802273715950e-18
-1.548852996801550e-01 -3.281719095163993e-02  3.093553377161392e-18
-7.380247265465854e-02 -1.563731253264596e-02  1.474070741349594e-18
-1.404932135435303e-01  1.143428296107562e-02  2.382761217701901e-18
-1.018740074184319e-01  8.291192135342176e-03  1.727780494488472e-18
-6.001465315172036e-02 -1.970670382943063e-03  1.088280263200953e-18
-1.282922269075211e-01 -4.212666051561038e-03  2.326396823665574e-18
-1.387424496619209e-01  4.781993636953950e-03  2.419954142260534e-18
-1.371438991285258e-01  4.726896883958223e-03  2.392072127820622e-18
-1.070614144953708e-01  3.690053074083598e-03  1.867371623577762e-18
-1.288528478260610e-01  4.441131751024470e-03  2.247459112899857e-18
-1.268809203627684e-01 -2.373160317767232e-02  2.501830928532702e-18
-1.069963495020582e-01 -2.001242504060113e-02  2.109748066604451e-18
-1.363473360230140e-01  7.970753624107520e-03  2.344566887578650e-18
-9.632534096945651e-02  5.631100562874908e-03  1.656366830911837e-18
-9.258235915563102e-02 -1.614920940905779e-02  1.813540777541519e-18
-1.707128944670307e-01 -2.977757649208469e-02  3.343993371865509e-18
-1.016674076022430e-01  2.109779618193037e-03  1.787615572401288e-18
-1.095085618809870e-01  2.272497522293862e-03  1.925486398705061e-18
-1.186875135361852e-01 -2.596799946278824e-02  2.378997640014880e-18
-1.464159481017535e-01 -3.203478738722400e-02  2.934792250815975e-18
-9.387549072081028e-02  7.605196231497762e-03  1.592485707587496e-18
-1.305916746644338e-01  1.057970833917321e-02  2.215331966162764e-18
-1.581364270859351e-01 -5.471426172640452e-02  3.376395515062659e-18
-1.022126320468313e-01 -3.536496179034018e-02  2.182357846229382e-18
-1.106043586649932e-01 -3.642548123711730e-03  2.005762354835724e-18
-1.123608866128205e-01 -3.700396093338185e-03  2.037616231803090e-18
-1.019629782408615e-01 -3.152422217902518e-02  2.138452754679061e-18
-6.466929434647910e-02 -1.999401388927063e-02  1.356298462680240e-18
-8.703840852423071e-02  1.425154082783466e-02  1.402522898032318e-18
-1.046985406034854e-01  1.714318484591645e-02  1.687095422316632e-18
-1.491667793260423e-01 -1.528550057015744e-02  2.811653736254646e-18
-9.695624884267327e-02 -9.935354263603582e-03  1.827534257583480e-18
-1.609156325559692e-01 -3.088261340175354e-02  3.180993262379629e-18
-1.170990587346455e-01 -2.247342227209322e-02  2.314823680889703e-18
-1.000267642627543e-01  2.231884710584180e-03  1.757163781677844e-18
-1.140556674100035e-01  2.544909876112507e-03  2.003608627601861e-18
-1.037314725243106e-01 -2.961932344214831e-02  2.150353077463277e-18
-1.037462899328035e-01 -2.962355438193973e-02  2.150660242291630e-18
-4.272919520034562e-02 -1.019403961763595e-02  8.651570516869183e-19
-8.334587745190970e-02 -1.988409032109563e-02  1.687541112545226e-18
-1.047821417912657e-01  2.531030747287731e-02  1.604668987066668e-18
-6.517990814519599e-02  1.574431948046251e-02  9.981870516524277e-19
-1.291697366079694e-01 -1.381349093349200e-02  2.440658143472868e-18
-1.190382782464155e-01 -1.273002655634360e-02  2.249224553804486e-18
-1.272730482562477e-01  8.165548399184609e-03  2.181077667016244e-18
-1.112675636939436e-01  7.138673026617416e-03  1.906791748615596e-18
-2.007978207628997e-01  2.579364609391648e-02  3.308416397266518e-18
-9.796436427324080e-02  1.258409146214381e-02  1.614095750033477e-18
-7.005822348811307e-02 -1.332819125371537e-02  1.383711978825642e-18
-1.276793879705870e-01 -2.429030051437212e-02  2.521781024236278e-18
-8.309051166460121e-02  2.421562793704939e-04  1.476206701219537e-18
-1.378976315487518e-01  4.018843634594587e-04  2.449923627817717e-18
-1.301460306768956e-01  1.814664060098967e-02  2.129653719681350e-18
-1.096926944427170e-01  1.529477228197586e-02  1.794964114747094e-18
-1.516491964363600e-01 -3.519278201968003e-02  3.060371395014103e-18
-5.948196794654059e-02 -1.380380497382108e-02  1.200381653846289e-18
-1.309405263967912e-01  1.664861481001988e-02  2.159184389537919e-18
-1.225305764513825e-01  1.557932006174331e-02  2.020505913602246e-18
-6.040852402013803e-02 -5.652485939402446e-03  1.133118982474803e-18
-1.760894242652826e-01 -1.647686333811385e-02  3.303015137094472e-18
-8.168810674534902e-02 -5.417000128786110e-03  1.509395009116212e-18
-1.317564820020129e-01 -8.737194536754823e-03  2.434535261938499e-18
-1.427067431898270e-01  2.338382105514773e-02  2.299376455160815e-18
-1.103118279025027e-01  1.807561427218009e-02  1.777410191944232e-18
-1.169522152901964e-01 -1.961757316598244e-02  2.282867614517663e-18
-1.042613794956730e-01 -1.748881143950490e-02  2.035146799955995e-18
-1.231929480850052e-01  9.866513313367416e-03  2.090990620968075e-18
-1.019937871954653e-01  8.168674221112414e-03  1.731170945560724e-18
-8.680269345330248e-02 -1.085392143250680e-02  1.656277571801606e-18
-1.052061580082219e-01 -1.315511452247098e-02  2.007433099045204e-18
-1.351083258670411e-01  1.956405584229710e-02  2.203400255131997e-18
-7.309853657568120e-02  1.058486841857678e-02  1.192119975634474e-18
-1.470238558666976e-01 -2.437787640442038e-02  2.866938715820563e-18
-1.117442406530157e-01 -1.852819919248258e-02  2.178992571712753e-18
-1.110965813498308e-01  1.131619133666040e-02  1.860826430784389e-18
-1.092596968024826e-01  1.112908803655351e-02  1.830059297588439e-18
-1.479409394006408e-01 -2.080829019121498e-02  2.846583109631958e-18
-9.970254564003081e-02 -1.402343063986000e-02  1.918411384678499e-18
-2.026432841156431e-01 -4.661723001575816e-02  4.085254066200596e-18
-7.158188047363492e-02 -1.646710870070404e-02  1.443078508855591e-18
-8.714682773745024e-02  6.724461358656190e-03  1.481790354431486e-18
-6.272352860236523e-02  4.839900146863477e-03  1.066511795000785e-18
-1.214325816514177e-01 -1.688105146243440e-02  2.334484311886271e-18
-9.058377498889085e-02 -1.259257891459966e-02  1.741430501988614e-18
-9.394823467209823e-02  2.135865722900242e-02  1.452468457463020e-18
-1.558502922042395e-01  3.543177774280020e-02  2.409493209778020e-18
-1.273140363919523e-01 -2.896727036790069e-02  2.563333323322766e-18
-1.054502028271464e-01 -2.399267686588720e-02  2.123128183806881e-18
-1.075786236288829e-01  1.462519023497407e-02  1.764221415152877e-18
-1.061836588037776e-01  1.443554637032821e-02  1.741344873932887e-18
-1.356427673449491e-01 -2.451264077675845e-02  2.665783324691969e-18
-1.112204356413447e-01 -2.009916665130897e-02  2.185811956664662e-18
-1.161684116853347e-01  1.143322264716184e-02  1.949883247301630e-18
-1.077398817736285e-01  1.060369198843316e-02  1.808410629782050e-18
-1.176228958062828e-01 -2.321085703532710e-02  2.331722860738208e-18
-1.141447472280119e-01 -2.252450418842191e-02  2.262773031732506e-18
-1.093028873401142e-01  1.273470472574627e-02  1.814330796518364e-18
-1.051571979401429e-01  1.225169707903138e-02  1.745516036595666e-18
-1.424587088911489e-01 -3.124327162509891e-02  2.856235921776707e-18
-1.344259860944775e-01 -2.948157841463122e-02  2.695183280066621e-18
-1.178442279474856e-01  5.602009136204037e-03  2.039619997184360e-18
-1.100836554279374e-01  5.233091634567417e-03  1.905301845365133e-18
-1.421832718125156e-01 -3.985298243895390e-02  2.939795841359497e-18
-1.052535018514419e-01 -2.950182470449157e-02  2.176232148036392e-18
-9.965353105401953e-02  4.780959473833608e-03  1.724330834333396e-18
-1.150362973551576e-01  5.518960240121836e-03  1.990502820110985e-18
-9.196441698589386e-02 -1.548787036447361e-02  1.795748741085430e-18
-1.417099687112357e-01 -2.386559602818861e-02  2.767108260486122e-18
-1.423300009902408e-01 -9.777168125989300e-04  2.542977830064959e-18
-1.074586621909599e-01 -7.381728374377972e-04  1.919939532767851e-18
-1.079902621417492e-01 -3.135887082939606e-02  2.244016536249826e-18
-7.637872191445549e-02 -2.217931901568931e-02  1.587134910078188e-18
-1.045485049325237e-01 -3.764700894726664e-03  1.899246289330181e-18
-7.608076255201730e-02 -2.739602206994014e-03  1.382096339489390e-18
-8.924112060243179e-02  1.955625613634721e-02  1.387218764210587e-18
-1.807064039780551e-01  3.959991423031033e-02  2.809011279992217e-18
-7.895601129630317e-02 -2.153978604637951e-02  1.626429879994630e-18
-8.472132164830459e-02 -2.311260551172782e-02  1.745190603465681e-18
-1.240034789095539e-01  1.140221504673154e-02  2.089636206393347e-18
-7.081020252026750e-02  6.511052461903919e-03  1.193253320548543e-18
-9.847038088631678e-02 -1.692937115233554e-02  1.926341026227327e-18
-1.252803498106390e-01 -2.153863447006788e-02  2.450814909500160e-18
-8.937300116935715e-02  8.531330663786790e-03  1.502842840401860e-18
-1.227231254457457e-01  1.171485291499888e-02  2.063638548719944e-18
-1.141994800311942e-01 -2.212060978273910e-02  2.259597198957700e-18
-1.040788378181470e-01 -2.016022627587567e-02  2.059346070055818e-18
-1.450838643117347e-01  4.057395269072805e-03  2.540252165271263e-18
-9.378835696176090e-02  2.622872210055833e-03  1.642126627792595e-18
-1.079044216580585e-01 -9.420531471580099e-03  2.017080435118895e-18
-8.863353982292616e-02 -7.738098573804517e-03  1.656845718877953e-18
-1.649447735240607e-01 -2.319771105539269e-02  3.173737052136824e-18
-8.140898696841836e-02 -1.144929976656775e-02  1.566407427155637e-18
-9.046353290568768e-02  1.326155790908292e-02  1.473648786894252e-18
-7.842425013788526e-02  1.149665175871747e-02  1.277529158619890e-18
-9.808432540278986e-02 -2.818670560482026e-03  1.774488385827549e-18
-1.734996929804973e-01 -4.985898356832538e-03  3.138862288895156e-18
-1.184572263732325e-01  1.517388315860334e-02  1.952181506989829e-18
-1.090020793698129e-01  1.396271774244492e-02  1.796360172225594e-18
-1.610449350554360e-01 -3.513057350661487e-02  3.226940601510109e-18
-8.949648080704439e-02 -1.952289090304485e-02  1.793287243148064e-18
-1.098838499570523e-01  1.202349055917781e-02  1.831977186481768e-18
-1.154267613254542e-01  1.262999590581781e-02  1.924388283995840e-18
-9.658052897021756e-02 -1.549997811987413e-02  1.878022362932500e-18
-1.303426857847585e-01 -2.091838592406535e-02  2.534532388240956e-18
-1.130740811773891e-01  7.353780808694524e-03  1.936730727807237e-18
-9.918148822278824e-02  6.450275050444972e-03  1.698778657943556e-18
-1.130705579516364e-01 -2.170613868772620e-02  2.235248143989221e-18
-1.184239634489445e-01 -2.273383116825602e-02  2.341077547493164e-18
-1.527493429560542e-01 -1.381322016615499e-02  2.860282583173594e-18
-1.078132292866636e-01 -9.749618847062975e-03  2.018838811326765e-18
-8.529350200794387e-02  1.462972722018516e-02  1.367584477378073e-18
-1.130284136200284e-01  1.938687966214906e-02  1.812282299711679e-18
-1.147834662720695e-01 -3.895729727577890e-03  2.082735908729728e-18
-1.030725016382121e-01 -3.498261742471111e-03  1.870241484567756e-18
-1.682492603195476e-01 -2.430939789650461e-02  3.243966514845390e-18
-1.277544943219449e-01 -1.845853485263778e-02  2.463198357688382e-18
-1.009859138555984e-01  2.666020234553506e-03  1.769772407997806e-18
-1.046299727376032e-01  2.762223104284636e-03  1.833634333055128e-18
-1.122187017578357e-01 -2.587116719823942e-02  2.262882501799304e-18
-9.553226189502029e-02 -2.202423554716887e-02  1.926401574900194e-18
-7.748561534475212e-02  1.162233733916026e-02  1.259533659150909e-18
-1.464444245288952e-01  2.196570932219213e-02  2.380463535953849e-18
-1.163624091274620e-01 -3.149869683849571e-02  2.394445539967709e-18
-1.094178612916933e-01 -2.961884398395657e-02  2.251544222290156e-18
-1.169086935052548e-01 -1.342702991965130e-02  2.218487509431471e-18
-1.099045884974252e-01 -1.262260447719026e-02  2.085575926821766e-18
-9.949121951068129e-02  1.484949459761369e-02  1.617991766021891e-18
-1.096960890626688e-01  1.637261549237085e-02  1.783950078621232e-18
-1.264586863671405e-01 -2.494993909783924e-02  2.506834729914633e-18
-1.197217689056205e-01 -2.362076444641120e-02  2.373286460908615e-18
-1.140771470677973e-01  4.459689744848764e-03  1.984317216167743e-18
-9.911088643847767e-02  3.874604293793056e-03  1.723986296331865e-18
-7.392179321979557e-02 -7.627900845494421e-03  1.393900397641968e-18
-1.398585849614527e-01 -1.443183900186328e-02  2.637232251817268e-18
-1.428173894738237e-01  8.364769950219449e-03  2.455660831879011e-18
-8.858029433435073e-02  5.188120206926039e-03  1.523085949649345e-18
-1.271818778150058e-01 -2.694915958102407e-02  2.540246048588400e-18
-9.935225304305778e-02 -2.105221095953769e-02  1.984395674500766e-18
-9.537847659658640e-02  1.271942747692050e-02  1.566686265880815e-18
-1.009870947179123e-01  1.346737831431625e-02  1.658813392406612e-18
-9.544467225265613e-02  1.098216923420470e-03  1.687268013324927e-18
-8.646220772364122e-02  9.948618138374541e-04  1.528476278564574e-18
-1.455085537363629e-01 -3.244830745877300e-02  2.922892854219806e-18
-8.319086900597977e-02 -1.855150660186897e-02  1.671090738723688e-18
-8.688261161781885e-02  1.362141171282561e-02  1.406224653990248e-18
-7.925424529593127e-02  1.242544031611206e-02  1.282756947486509e-18
-1.149159816921421e-01  2.898152881441205e-03  2.015289502915885e-18
-9.568723082921339e-02  2.413208499473465e-03  1.678073571784046e-18
-1.513033717232532e-01 -7.720574858175427e-03  2.771950083013526e-18
-1.240431323590915e-01 -6.329563433474667e-03  2.272529469263625e-18
-1.155128332451167e-01  1.449522561679575e-02  1.906755478780921e-18
-1.539158428832681e-01  1.931425977456556e-02  2.540669018706297e-18
-8.868136420372025e-02 -1.604798808733869e-02  1.743077906787201e-18
-9.189204250330663e-02 -1.662899997824370e-02  1.806185443078071e-18
-1.285027741537728e-01  1.908724366525998e-02  2.090745654913899e-18
-7.008445824998058e-02  1.041004087712797e-02  1.140277145984396e-18
-1.367186525562006e-01 -2.296736145021004e-02  2.669052801664086e-18
-8.081558473593629e-02 -1.357620712855793e-02  1.577700327092562e-18
-9.061363744454724e-02  1.855087383762137e-02  1.421974276506116e-18
-1.289103872817888e-01  2.639117464285482e-02  2.022954379260223e-18
-1.238755419957854e-01 -2.153900533690910e-02  2.425818489241490e-18
-9.721020948085579e-02 -1.690253933162562e-02  1.903639085669723e-18
-1.219397856749594e-01  1.313847132453061e-02  2.035070921099274e-18
-8.206592016557245e-02  8.842239084220452e-03  1.369610146661975e-18
-8.837603312929607e-02 -4.223144721902545e-03  1.616148206153761e-18
-1.196810967877273e-01 -5.719091186986655e-03  2.188629462481291e-18
-1.374812243137420e-01  2.609631183393944e-02  2.178512256154684e-18
-7.686927724278501e-02  1.459111700081617e-02  1.218062054881053e-18
 1.186649976938536e-01  6.137050215781046e-03 -2.174841144247220e-18
 1.370742901630263e-01  7.089131743745924e-03 -2.512238754970900e-18
 1.592634900339942e-01 -1.429684120409551e-02 -2.687388931784602e-18
 1.004559280244172e-01 -9.017775829655551e-03 -1.695078696613684e-18
 9.310536075853079e-02 -9.255504120267767e-03 -1.561824012217072e-18
 8.843135267965956e-02 -8.790865986870124e-03 -1.483418451125803e-18
 1.611549500446232e-01 -3.158956511177714e-02 -2.543373262690210e-18
 8.869360173151494e-02 -1.738570429341399e-02 -1.399776644485116e-18
 1.243571210837834e-01 -6.351807990656337e-03 -2.147820788555943e-18
 9.176593197760292e-02 -4.687142762115401e-03 -1.584925532731781e-18
 5.036792411267708e-02 -9.471417988675224e-03 -7.990419114817955e-19
 1.048694181784240e-01 -1.972013163725039e-02 -1.663659200443033e-18
 1.193623060817621e-01  5.136365593821283e-03 -2.176968907819112e-18
 7.903287492820835e-02  3.400920716829679e-03 -1.441427508081253e-18
 9.436807526930868e-02 -1.421636379870525e-02 -1.533324492099452e-18
 1.236746747329534e-01 -1.863134501443018e-02 -2.009508059577274e-18
 1.126111770122682e-01  3.152232599938244e-03 -2.036438267255912e-18
 9.893041358597271e-02  2.769278175621080e-03 -1.789038045486203e-18
 9.854276314254022e-02 -2.238429691729006e-02 -1.523695496934929e-18
 9.430281399573155e-02 -2.142117920483975e-02 -1.458136228895321e-18
 1.035591701981805e-01  9.666476427179525e-03 -1.942278497260810e-18
 8.918573185440501e-02  8.324823122486809e-03 -1.672701016354057e-18
 1.057618591989267e-01 -1.888951792553944e-02 -1.688075507094652e-18
 1.093646217640581e-01 -1.953298664451789e-02 -1.745579557138220e-18
 1.019587720655609e-01  1.233650869364372e-02 -1.941231115058300e-18
 8.184993729027799e-02  9.903438836105536e-03 -1.558371504624341e-18
 1.202021721152849e-01 -2.215530115356008e-02 -1.911503364167867e-18
 1.176792842683449e-01 -2.169029008893471e-02 -1.871383385285799e-18
 5.042013408850075e-02  8.665426735709832e-03 -9.863205412252395e-19
 1.321840055286254e-01  2.271772648463073e-02 -2.585788440099536e-18
 9.922162145850090e-02 -1.901929128111874e-02 -1.570350800940178e-18
 1.168895159398904e-01 -2.240596070383282e-02 -1.849975260225805e-18
 1.079593448991091e-01 -3.711458515656156e-04 -1.917451932249607e-18
 7.305054127543079e-02 -2.511353266763166e-04 -1.297441195584823e-18
 1.012065381027597e-01  2.335845564350980e-02 -2.041090715344432e-18
 8.647557640956929e-02  1.995855162794851e-02 -1.744002901615077e-18
 9.998686946752912e-02 -3.331209210599258e-03 -1.745158646324118e-18
 1.327739818543736e-01 -4.423559949787855e-03 -2.317420914106028e-18
 9.742898699881121e-02  2.241438112186037e-02 -1.964164664668967e-18
 9.821790247233968e-02  2.259587794987127e-02 -1.980069170548044e-18
 1.093934669612322e-01 -1.829891099014782e-03 -1.927985767530754e-18
 9.777234158320018e-02 -1.635497462168700e-03 -1.723171303249478e-18
 1.182644352198014e-01  3.599444785871148e-02 -2.474486571654506e-18
 1.064809834476528e-01  3.240808785437073e-02 -2.227937445336620e-18
 1.598997823295747e-01 -2.848316819090870e-02 -2.552953155879315e-18
 1.361651979901092e-01 -2.425529403227537e-02 -2.174007787035526e-18
 1.067615923594942e-01 -2.686830306353320e-03 -1.872343680525299e-18
 1.589208275436042e-01 -3.999502876625396e-03 -2.787092254611326e-18
 8.890244018585844e-02  1.152193033882298e-02 -1.700508618419846e-18
 1.052199129209452e-01  1.363670675852826e-02 -2.012626069401352e-18
 1.148192999014994e-01 -1.298251640072226e-02 -1.909955763325833e-18
 9.211955088578806e-02 -1.041587591309024e-02 -1.532357950973716e-18
 1.008035495056928e-01  1.998595675153679e-02 -1.999267851574934e-18
 1.292488707064604e-01  2.562570815007268e-02 -2.563432670009288e-18
 8.410681880290789e-02 -4.803170987476245e-03 -1.447430329801339e-18
 1.184019253008162e-01 -6.761695431602126e-03 -2.037629531428061e-18
 1.335458536875198e-01  2.573998079698345e-02 -2.641076717719098e-18
 7.376465507744798e-02  1.421759457715800e-02 -1.458810646203041e-18
 1.289588602748311e-01 -1.079862893908169e-02 -2.184024756771820e-18
 9.073385371976586e-02 -7.597781311377613e-03 -1.536652715284252e-18
 9.899127060862148e-02  2.673779475329015e-02 -2.036388869555128e-18
 1.603833195276925e-01  4.331994379925973e-02 -3.299309168782927e-18
 1.265209446050584e-01 -2.147789053294349e-02 -2.030913605970951e-18
 1.117715792076771e-01 -1.897407382161399e-02 -1.794156862188458e-18
 1.160514471454399e-01  1.802285226802539e-02 -2.250452192996632e-18
 1.112647941883562e-01  1.727948248483164e-02 -2.157630139421696e-18
 1.130685811159293e-01 -1.494495873299565e-03 -1.996834871853156e-18
 1.044564237506076e-01 -1.380663776746736e-03 -1.844740842024220e-18
 6.616462549986141e-02 -7.107334163415695e-03 -1.104453158154637e-18
 1.391866394505838e-01 -1.495128174888906e-02 -2.323373288260358e-18
 1.269118038412093e-01  2.099683769975510e-02 -2.474281815047299e-18
 1.015302227712459e-01  1.679759915645934e-02 -1.979440653092536e-18
 1.462526249700204e-01 -2.774340480847791e-02 -2.317686511767053e-18
 1.388023207247324e-01 -2.633011867658306e-02 -2.199620462276287e-18
 8.162517414239109e-02  5.925721339640052e-03 -1.513501974015487e-18
 1.142749652080293e-01  8.295989650675283e-03 -2.118897597954174e-18
 6.419414151572579e-02 -3.753477993348944e-03 -1.103845698965839e-18
 1.057804442573409e-01 -6.185059263536356e-03 -1.818939947963275e-18
 1.642233891069636e-01  2.144649813455835e-02 -3.142906079340166e-18
 9.500014291034381e-02  1.240639593902446e-02 -1.818112074746140e-18
 1.088327443884363e-01 -1.962196800492775e-02 -1.735199913638907e-18
 1.160959474241662e-01 -2.093148508438061e-02 -1.851002463240691e-18
 1.582772974037243e-01  2.932739405847726e-02 -3.118061627439950e-18
 5.182011480699907e-02  9.601812464764979e-03 -1.020855891272216e-18
 1.463749355450601e-01  2.814249170289338e-02 -2.894070459251431e-18
 8.649505602051343e-02  1.662980336991681e-02 -1.710147885415847e-18
 1.153679526169743e-01 -1.583033021572316e-02 -1.890459440434649e-18
 1.018807722409243e-01 -1.397967312951532e-02 -1.669453806821651e-18
 1.331308415838359e-01  2.261298424038652e-02 -2.601562328619192e-18
 1.039674066746848e-01  1.765941911490143e-02 -2.031668134830839e-18
 1.351274437962622e-01 -1.534390853837233e-02 -2.247100961976016e-18
 1.091528458178106e-01 -1.239445693545985e-02 -1.815156551095853e-18
 1.554415884819734e-01  1.573431640648649e-02 -2.927932869724043e-18
 1.246192203437351e-01  1.261437342713068e-02 -2.347355781725816e-18
 1.086369485448497e-01 -2.006274996094146e-02 -1.727186618574002e-18
 1.336775324359072e-01 -2.468717084362909e-02 -2.125299433755469e-18
 1.460032335740707e-01 -2.278773982941468e-03 -2.574888125550569e-18
 1.080716739022194e-01 -1.686749757198859e-03 -1.905933608641784e-18
 9.555687137558613e-02 -2.219090923251582e-02 -1.472544979450188e-18
 9.748127656968236e-02 -2.263780855408238e-02 -1.502200337209403e-18
 1.247286208399784e-01  1.196693450200729e-02 -2.342650494294529e-18
 9.633013184847991e-02  9.242276316671931e-03 -1.809270634683125e-18
 1.018366672923218e-01 -2.879821377213278e-03 -1.782715851146752e-18
 1.540342856105726e-01 -4.355908734245746e-03 -2.696468471319838e-18
 1.155528812501137e-01 -4.005786905490915e-02 -1.644821305652521e-18
 1.308289412462001e-01 -4.535350863029675e-02 -1.862266242344347e-18
 5.949251502928832e-02  5.857097815623605e-03 -1.118919822526077e-18
 9.810008414783462e-02  9.658051744692694e-03 -1.845040988609245e-18
 1.426977656703365e-01 -3.288849457580394e-02 -2.201559621844406e-18
 1.137035381149480e-01 -2.620600384999962e-02 -1.754232921579322e-18
 1.077438504839465e-01  1.813499594530867e-03 -1.936063390420088e-18
 1.076219945834345e-01  1.811448566790750e-03 -1.933873745750549e-18
 9.232044123268884e-02 -2.053513477734367e-02 -1.431961325535034e-18
 9.566155416907397e-02 -2.127830934993986e-02 -1.483784566902454e-18
 1.075412742046269e-01  8.391186418509698e-03 -2.000041646518478e-18
 1.363639618687251e-01  1.064015126536216e-02 -2.536083051264178e-18
 8.437299087712910e-02 -2.057987623084960e-02 -1.290067264214425e-18
 8.621467935271324e-02 -2.102909250834888e-02 -1.318226773419119e-18
 1.020934924013951e-01  1.508632735318170e-02 -1.971882011930872e-18
 1.180958477625273e-01  1.745099101314170e-02 -2.280959073973963e-18
 1.533576551188704e-01 -4.353657483877878e-02 -2.281859913598867e-18
 8.467324903279873e-02 -2.403781696128316e-02 -1.259881631421364e-18
 1.433152274469425e-01  1.901799585611052e-03 -2.570005724882444e-18
 1.250347716997789e-01  1.659217106525864e-03 -2.242190762295417e-18
 1.019315896416966e-01 -3.120130731163953e-02 -1.493412127992115e-18
 7.234661000795219e-02 -2.214533119465909e-02 -1.059958989992979e-18
 1.060022325019823e-01 -9.534981113948007e-03 -1.788467704253220e-18
 9.704178313801068e-02 -8.728981905805303e-03 -1.637287168477619e-18
 8.059191188108419e-02  1.081431717453501e-02 -1.545342385871986e-18
 1.285304933489788e-01  1.724701014322952e-02 -2.464560209742752e-18
 7.781114359074569e-02 -1.465243127812340e-02 -1.234193708116255e-18
 1.279938827421722e-01 -2.410222346510933e-02 -2.030162229572299e-18
 1.150102509177381e-01 -1.300726358017237e-03 -2.033380113462516e-18
 9.179346031903679e-02 -1.038152446219606e-03 -1.622907482326452e-18
 1.242294554650040e-01  1.953399636199249e-02 -2.411516062734734e-18
 1.090047639081435e-01  1.714004664716058e-02 -2.115977552144597e-18
 7.607046289011672e-02 -1.060805709188041e-02 -1.244770694247474e-18
 1.024117411241112e-01 -1.428135909062011e-02 -1.675803317804115e-18
 9.466898671744178e-02  1.893775397608898e-02 -1.879326086451039e-18
 1.116325999478355e-01  2.233118560604364e-02 -2.216080096077206e-18
 1.154735397603136e-01 -1.310355257359690e-02 -1.920355139311681e-18
 6.900285407463257e-02 -7.830213986442083e-03 -1.147535493624282e-18
 1.110998018535401e-01  3.003757903386400e-02 -2.285778711402860e-18
 1.193206908230353e-01  3.226022568156335e-02 -2.454916123727416e-18
 1.115583703009554e-01 -1.500969448344603e-02 -1.831095112922438e-18
 1.629827195064953e-01 -2.192861745178007e-02 -2.675163328166656e-18
 1.016578481109374e-01  1.595783965118423e-02 -1.973083674393303e-18
 7.480883271925674e-02  1.174318932782646e-02 -1.451969417823083e-18
 1.436375390892593e-01 -1.899040009841940e-02 -2.361081882810776e-18
 1.530152295340843e-01 -2.023022984401041e-02 -2.515230270149304e-18
 8.877693899139454e-02  7.626048600995572e-03 -1.658246405367511e-18
 1.293897104213945e-01  1.111473577882591e-02 -2.416844111043508e-18
 1.242870036628855e-01 -7.811391836974451e-03 -2.131576271616187e-18
 9.891105489462892e-02 -6.216522918889536e-03 -1.696367692520667e-18
 8.251888110463218e-02 -1.868427539202883e-02 -1.276547779151885e-18
 8.637054103323991e-02 -1.955638458521213e-02 -1.336132056860136e-18
 1.567127548767632e-01 -6.771746266694033e-03 -2.719313173864367e-18
 6.522763086831775e-02 -2.818564233429359e-03 -1.131843774041643e-18
 8.791081184229177e-02  1.716983510062412e-02 -1.740891578893980e-18
 9.179424919773992e-02  1.792830812139734e-02 -1.817795013722797e-18
 9.527931376316232e-02 -8.764703622950348e-03 -1.605554895935635e-18
 1.486920475583999e-01 -1.367811832879597e-02 -2.505614655637711e-18
 8.911779914953440e-02  1.593667726512479e-02 -1.749701108984207e-18
 1.124075130496473e-01  2.010150917934659e-02 -2.206961483767209e-18
 1.112243212970622e-01 -8.864997018831483e-03 -1.888284846685899e-18
 9.022834297681592e-02 -7.191538524809185e-03 -1.531830545674004e-18
 1.113422924193184e-01  2.636982540891737e-02 -2.252409284167917e-18
 1.175355552999517e-01  2.783661091624984e-02 -2.377696472966724e-18
 9.878224699434640e-02 -4.560642149099758e-03 -1.711088975662912e-18
 1.269210132723471e-01 -5.859770761941113e-03 -2.198503812154717e-18
 1.197308285650391e-01  2.187233054585999e-02 -2.355483165182658e-18
 1.152998389677755e-01  2.106288096400924e-02 -2.268311619420039e-18
 1.183712362948050e-01 -6.876264757980270e-03 -2.035906225750146e-18
 1.214915624568518e-01 -7.057526604127166e-03 -2.089573752241640e-18
 1.579331073887187e-01  3.967712270618011e-03 -2.851374837636093e-18
 1.795905443149571e-01  4.511806410619146e-03 -3.242385131299054e-18
 1.033792598540175e-01 -2.009877788132251e-03 -1.819106480205288e-18
 9.272632996483325e-02 -1.802765769792826e-03 -1.631652886303063e-18
 9.947327467598621e-02 -8.858976535371437e-04 -1.761143302307529e-18
 6.254326851073919e-02 -5.570032252249067e-04 -1.107309061663981e-18
 1.678994352309262e-01 -1.446377990889334e-02 -2.839360643344591e-18
 1.297533751908209e-01 -1.117766869563842e-02 -2.194269601629254e-18
 8.256811090822948e-02  1.013690875826130e-02 -1.573551079461484e-18
 6.179104698554028e-02  7.586103139334741e-03 -1.177589842078623e-18
 1.371626074956254e-01 -1.003208515361356e-02 -2.337896183281984e-18
 1.039772556569732e-01 -7.604905606821962e-03 -1.772261650510877e-18
 1.251051379841980e-01  1.840789766766194e-02 -2.415529622710957e-18
 1.151538870297398e-01  1.694367635599984e-02 -2.223390899627013e-18
 8.859120403727173e-02 -9.549449216479289e-03 -1.478469029599501e-18
 1.312980624981025e-01 -1.415291951016096e-02 -2.191189533536477e-18
 1.132580808470447e-01  1.659038620000446e-02 -2.186022839193852e-18
 5.030868440938488e-02  7.369368236894486e-03 -9.710206309890931e-19
 1.042994790342001e-01  4.094597865049784e-03 -1.898204147948590e-18
 1.120021035776391e-01  4.396988157915041e-03 -2.038388490131663e-18
 1.405521426004763e-01  3.266735845056425e-02 -2.836938275201177e-18
 9.853722663213509e-02  2.290218308707257e-02 -1.988899098888083e-18
 1.393429413501773e-01 -1.377329441082164e-02 -2.338258258976764e-18
 1.181776707389064e-01 -1.168122214229424e-02 -1.983092304169542e-18
 1.210792223290116e-01  1.629416829480762e-02 -2.322165849892326e-18
 1.355097158278383e-01  1.823614384704628e-02 -2.598926788354673e-18
 1.143350722446114e-01 -1.388878947365721e-02 -1.892026727962570e-18
 1.108965743868222e-01 -1.347109985388521e-02 -1.835126166102945e-18
 1.316065684064570e-01 -1.091722678659290e-02 -2.229925331474719e-18
 1.691002001002100e-01 -1.402745513773046e-02 -2.865212765037048e-18
 9.297441821860007e-02 -7.712554330195343e-03 -1.575346982108491e-18
 1.078841600288785e-01 -8.949369746351963e-03 -1.827975793504915e-18
 1.069351942131008e-01  5.228395412511049e-03 -1.956759201475898e-18
 1.251527546392477e-01  6.119108802617188e-03 -2.290114176464468e-18
 7.770004361035937e-02 -1.966758927842801e-02 -1.180687624850968e-18
 1.508640562372071e-01 -3.818700938998522e-02 -2.292448188669261e-18
 1.036733977281226e-01 -8.057454743364291e-03 -1.762204358232327e-18
 1.012999205981429e-01 -7.872989056135891e-03 -1.721860819443492e-18
 1.176382175966448e-01  8.058243216725889e-03 -2.176307927799914e-18
 1.039738217570972e-01  7.122229161648667e-03 -1.923516499965055e-18
 1.211071963313081e-01 -3.433754065976368e-02 -1.802441264177413e-18
 1.058651683038419e-01 -3.001596627785325e-02 -1.575593800949073e-18
 1.030499985336060e-01 -1.040371001767635e-04 -1.832828702982696e-18
 6.714865010427354e-02 -6.779185771026031e-05 -1.194293789703637e-18
 9.900149685613868e-02 -1.720395351304014e-02 -1.585085357173653e-18
 9.098199576632585e-02 -1.581036727113312e-02 -1.456687361658776e-18
 1.367743655900838e-01  1.498292758007274e-03 -2.449457399846074e-18
 8.852108124596279e-02  9.697028707798691e-04 -1.585301577271723e-18
 1.278068898136724e-01  2.078882051681890e-02 -2.488073636636507e-18
 1.208665506661851e-01  1.965991842810278e-02 -2.352962963907094e-18
 1.393744661382785e-01 -4.231710425803867e-02 -2.045542003155917e-18
 1.010936705125363e-01 -3.069422623411135e-02 -1.483710431446119e-18
 1.129690953767315e-01  1.427605688915487e-03 -2.025087936488960e-18
 9.869979329925690e-02  1.247282594756656e-03 -1.769295930694404e-18
 1.142251860778481e-01 -2.659463682132422e-02 -1.759523206722243e-18
 1.141598468793009e-01 -2.657942413211595e-02 -1.758516722599959e-18
 1.666803452339141e-01 -9.306546080285876e-03 -2.870654186777753e-18
 8.687721541640803e-02 -4.850762742692080e-03 -1.496243854191158e-18
 1.154960300328160e-01 -4.009464099863089e-02 -1.643431752062577e-18
 7.601270700659112e-02 -2.638793903043628e-02 -1.081610304868204e-18
 6.164005085116937e-02  6.150877253132055e-03 -1.160156261148626e-18
 9.150384963638679e-02  9.130896868684039e-03 -1.722236802354011e-18
 1.137216048600315e-01 -1.571030356524756e-02 -1.862393948496544e-18
 1.389968875848579e-01 -1.920200916325780e-02 -2.276321747450778e-18
 1.365746487236672e-01  4.992737562959667e-04 -2.435638642649777e-18
 9.537908132315306e-02  3.486757802366357e-04 -1.700967041410007e-18
 9.700511332079041e-02 -1.551184732962138e-02 -1.566943107130426e-18
 8.871663026809350e-02 -1.418645654035013e-02 -1.433057573230356e-18
 1.515873677240290e-01  1.118891024548300e-02 -2.812640016767417e-18
 9.601113850915521e-02  7.086738344195722e-03 -1.781446398079004e-18
 7.189066812930890e-02  1.603620494934858e-03 -1.295856811690050e-18
 6.900561556550319e-02  1.539265418807849e-03 -1.243852634873014e-18
 1.237381712368424e-01 -1.893314439952968e-02 -2.007537176558552e-18
 1.386295548117743e-01 -2.121167100708167e-02 -2.249136077190826e-18
 1.061361953925646e-01  1.095097413476648e-02 -2.001337481905922e-18
 9.920364486659923e-02  1.023568392470185e-02 -1.870615128786854e-18
 1.309656088776763e-01 -2.114339405937865e-02 -2.113448538242506e-18
 1.305163955183131e-01 -2.107087200450375e-02 -2.106199388440196e-18
 1.075167437661673e-01  1.253250603101031e-02 -2.042155652700427e-18
 1.095155193673482e-01  1.276548990309366e-02 -2.080120073398552e-18
 1.432607981017789e-01 -3.477409599558181e-02 -2.192205585968246e-18
 1.062603363307731e-01 -2.579286996198319e-02 -1.626017067877083e-18
 7.341939579035932e-02  9.271565175661266e-03 -1.401847689999959e-18
 1.291269620506348e-01  1.630644098469692e-02 -2.465511075360335e-18
 1.191935282687492e-01 -2.410867413387549e-02 -1.873483145996708e-18
 9.269953589840953e-02 -1.874986784766736e-02 -1.457050736477956e-18
 1.142765202020462e-01  1.461410367837198e-02 -2.183841597371766e-18
 1.527866037401392e-01  1.953891546379752e-02 -2.919775122474356e-18
 9.962653164837601e-02 -2.760364785746151e-02 -1.489355515393020e-18
 1.437680514023027e-01 -3.983399400140892e-02 -2.149244149631268e-18
 7.569447851074881e-02  3.784188400332453e-03 -1.385954697866955e-18
 9.092149497164710e-02  4.545431494897403e-03 -1.664759115490132e-18
 1.157889507790368e-01 -1.923788541042494e-02 -1.862940213155259e-18
 1.077258878705250e-01 -1.789823875806854e-02 -1.733212773426298e-18
 1.299754680226105e-01  1.274722018744420e-02 -2.444041550537696e-18
 9.732352076141654e-02  9.544911570137666e-03 -1.830058642636636e-18
 9.655621628906319e-02 -3.672914704086676e-04 -1.714559258855865e-18
 1.186233747068221e-01 -4.512330266802521e-04 -2.106408196562150e-18
 1.027895649029754e-01 -2.483970445944702e-02 -1.574043979514156e-18
 1.123598103979532e-01 -2.715241071444471e-02 -1.720595697269371e-18
 1.072764771574760e-01  9.787851385584027e-03 -2.009679492371270e-18
 1.246333245000121e-01  1.137148133701904e-02 -2.334836517292115e-18
 1.206992831929976e-01 -2.902657430486309e-02 -1.849750213278978e-18
 7.240174602329214e-02 -1.741165817353287e-02 -1.109576971838427e-18
 1.340018833963570e-01  4.697261375406763e-03 -2.432986012522077e-18
 9.059557607250474e-02  3.175709844386194e-03 -1.644885607531515e-18
 3.385479868300275e-02 -4.758616553753540e-03 -5.535934696093719e-19
 1.544141426704903e-01 -2.170438827079398e-02 -2.524979155780095e-18
 9.520966202123973e-02  1.047680342702845e-02 -1.802014855153067e-18
 7.342129820036392e-02  8.079227383780134e-03 -1.389630707985956e-18
 1.006463256931394e-01 -1.025002846500034e-02 -1.685806102057178e-18
 1.241892579917749e-01 -1.264768903083498e-02 -2.080145574025245e-18
 8.014813423923922e-02  1.814548466098867e-02 -1.612769916097760e-18
 8.782938409767056e-02  1.988451455614934e-02 -1.767334820287921e-18
 1.519105004775224e-01 -1.387801151535171e-02 -2.560837034566730e-18
 1.027639357694670e-01 -9.388153415915782e-03 -1.732346952376915e-18
 1.170993863738137e-01  2.026314405418501e-02 -2.292119705861469e-18
 1.075882332472568e-01  1.861731249269758e-02 -2.105947069249583e-18
 1.094205604658052e-01 -7.026784135398437e-03 -1.875071740696910e-18
 9.792296135835461e-02 -6.288429783533707e-03 -1.678044572489523e-18
 1.085355727090034e-01  2.558716865945827e-02 -2.194418845162556e-18
 1.457669921692353e-01  3.436444402994116e-02 -2.947179681600353e-18
 9.806915274899329e-02  3.524493599844467e-03 -1.781470445678741e-18
 8.650132270001297e-02  3.108758969444713e-03 -1.571335589047133e-18
 1.203870001273773e-01 -1.161959184397474e-02 -2.023043184947578e-18
 1.120877182799244e-01 -1.081855628728275e-02 -1.883577914082084e-18
 1.311834402438294e-01  2.106201935367797e-02 -2.550970398039692e-18
 9.443665064509958e-02  1.516217717637705e-02 -1.836398708845394e-18
 9.762627315583249e-02  5.848765803661813e-03 -1.797469927585053e-18
 1.096234203975464e-01  6.567511918417498e-03 -2.018358328695778e-18
 1.104897478507321e-01 -2.242316527924105e-02 -1.735906982397135e-18
 1.140539267820885e-01 -2.314649187575535e-02 -1.791903879971857e-18
 6.978727949478085e-02  1.524210105309434e-02 -1.398554935190450e-18
 9.035099033805914e-02  1.973338028003855e-02 -1.810656961432167e-18
 1.151104062414869e-01 -6.613047667862195e-03 -1.980580325274177e-18
 1.066291594554092e-01 -6.125803368145528e-03 -1.834652680096203e-18
 7.453422434863588e-02  1.335816091351888e-02 -1.463675680673098e-18
 1.800487166397248e-01  3.226866248578631e-02 -3.535730467245281e-18
 9.977006611874226e-02  7.655591816500665e-03 -1.854185761482475e-18
 8.319570307185910e-02  6.383801959667108e-03 -1.546158021673260e-18
 1.143166316524806e-01 -2.628996160791710e-03 -2.007388841557226e-18
 1.029110563747514e-01 -2.366696500774389e-03 -1.807108058148071e-18
 1.171328316182667e-01  2.872910436936394e-02 -2.379699570678309e-18
 9.851425294578366e-02  2.416253594869952e-02 -2.001439922538472e-18
 1.125871681477955e-01 -9.399717323259157e-03 -1.907044275177887e-18
 1.106895059538484e-01 -9.241284630692254e-03 -1.874900951185249e-18
 8.025308719700973e-02  1.033744331213503e-02 -1.534412890752663e-18
 1.450420086319031e-01  1.868293911771617e-02 -2.773155968431626e-18
 1.251160542455764e-01  4.005209545080739e-02 -2.638110160106489e-18
 8.766129786611089e-02  2.806209555317132e-02 -1.848365199359577e-18
 1.124737354692901e-01  1.481255220929406e-02 -2.153797879177441e-18
 9.675411401806670e-02  1.274231143276929e-02 -1.852777492490263e-18
 1.560068670838767e-01 -1.005534670294218e-02 -2.673013256932324e-18
 1.310443267902568e-01 -8.446398315410246e-03 -2.245306436208344e-18
 8.276021497465594e-02  1.447047177403143e-02 -1.621495586200926e-18
 1.189942980616378e-01  2.080593473444844e-02 -2.331418896738134e-18
 8.177887371954470e-02 -1.889957897603786e-03 -1.435933976380802e-18
 1.096292564332563e-01 -2.533596631753870e-03 -1.924951603732515e-18
 1.279114526775559e-01  2.729269817048117e-02 -2.556759437744791e-18
 1.129157390189350e-01  2.409303560572698e-02 -2.257017455148068e-18
 1.115864190303170e-01 -1.008712235015262e-02 -1.882171913958884e-18
 1.078748516204962e-01 -9.751606299910611e-03 -1.819567450116095e-18
 1.083389767553131e-01  2.410770828072051e-02 -2.175719267712667e-18
 1.388138163605078e-01  3.088900311206340e-02 -2.787730731132949e-18
 1.017777091064446e-01 -1.222331920391166e-02 -1.685665573957787e-18
 1.242828595061658e-01 -1.492614715595498e-02 -2.058400995088918e-18
 1.144235885494118e-01  9.695522555142028e-03 -2.135922219781473e-18
 1.236557119194088e-01  1.047779360170168e-02 -2.308256418452625e-18
 1.730587117499319e-01  3.466100159929978e-02 -3.435915407574641e-18
 7.889176652701224e-02  1.580080897467695e-02 -1.566320663085887e-18
 1.231121225276512e-01  8.482659224065166e-03 -2.278083315854524e-18
 9.761189097101905e-02  6.725644805106719e-03 -1.806223592645357e-18
 1.102699814628667e-01 -1.005698470531474e-02 -1.859053990495096e-18
 9.394536687057232e-02 -8.568126204598039e-03 -1.583835481355153e-18
 9.496276855334286e-02  2.478214998308714e-02 -1.944603330526308e-18
 6.868679823732249e-02  1.792498851609620e-02 -1.406536252578369e-18
 1.190538642745662e-01  2.282471281511655e-03 -2.142157090616672e-18
 1.355909210860393e-01  2.599515650318235e-03 -2.439711258408568e-18
 1.179868015633448e-01  2.241136004627273e-02 -2.329984456639516e-18
 1.078465609938170e-01  2.048524136733304e-02 -2.129736610265778e-18
 9.648287126831175e-02 -5.853419057504300e-03 -1.656886028718550e-18
 1.415995577996509e-01 -8.590556429997929e-03 -2.431668190496955e-18
 9.945214416188927e-02  1.574456974903810e-02 -1.931639270791395e-18
 1.170606923755749e-01  1.853223227623691e-02 -2.273646610279336e-18
 7.794757006780498e-02 -4.179832631140317e-03 -1.344223726712673e-18
 1.105262602438314e-01 -5.926820666291523e-03 -1.906050712233083e-18
 1.209453672958203e-01  2.238151255806438e-02 -2.382328990855267e-18
 1.070477628426876e-01  1.980969508750344e-02 -2.108580051706927e-18
 9.203993470056054e-02 -5.038927949378218e-03 -1.586187273023478e-18
 9.353645378777782e-02 -5.120858166733222e-03 -1.611977812072680e-18
 1.170087655276628e-01  2.483311914841938e-02 -2.337461833759579e-18
 1.273511086598559e-01  2.702810546519125e-02 -2.544068853619399e-18
 6.379057530649847e-02 -2.017099850962528e-03 -1.114504411517871e-18
 1.123712554688596e-01 -3.553252836639932e-03 -1.963272150252693e-18
 1.313217950546920e-01  2.928448668082743e-02 -2.637915451733495e-18
 1.603204762910546e-01  3.575113217614790e-02 -3.220424008530457e-18
 1.182400593103684e-01 -2.582051256539492e-02 -1.838926510521528e-18
 1.063896984257227e-01 -2.323270608161023e-02 -1.654623974501815e-18
 1.221119492000243e-01 -8.613582310535398e-03 -2.084626367247740e-18
 1.311996953853866e-01 -9.254617445079442e-03 -2.239767247734624e-18
 4.084178728623322e-02  6.711159318829238e-04 -7.337237950087249e-19
 9.878073347242121e-02  1.623173920666507e-03 -1.774598504447938e-18
 1.095431692600201e-01 -1.551742305520010e-02 -1.790015479948696e-18
 8.907788970321934e-02 -1.261839792226816e-02 -1.455597848474153e-18
 9.000326498632441e-02  1.916650581612155e-02 -1.798644344828790e-18
 1.057501817102814e-01  2.251986606390327e-02 -2.113334069899750e-18
 1.205474193220719e-01 -1.084809325321161e-02 -2.033824903628798e-18
 1.240611792304309e-01 -1.116429741062649e-02 -2.093107569713083e-18
 9.384585567704849e-02  1.970176827535090e-02 -1.872527457101334e-18
 1.425967708396430e-01  2.993641557879734e-02 -2.845265427704141e-18
 1.265625299881930e-01 -2.281324925784384e-02 -2.017933341668006e-18
 7.811356649523687e-02 -1.408018837045407e-02 -1.245455272441572e-18
 1.330226636485178e-01  2.529636500763405e-02 -2.627207935808767e-18
 7.205986618650781e-02  1.370332413634148e-02 -1.423187952383336e-18
 1.311104663108988e-01 -6.697739087656477e-03 -2.264450306199458e-18
 1.101795003906653e-01 -5.628486933111281e-03 -1.902944977748168e-18
 1.095488948426548e-01  2.126019021076510e-02 -2.167993989572648e-18
 1.279866615658600e-01  2.483841368951469e-02 -2.532880988154099e-18
 1.084938533955408e-01 -9.447011567970936e-03 -1.833712925295170e-18
 8.021783682747893e-02 -6.984901068118441e-03 -1.355804772584590e-18
 1.454618839979354e-01  2.536558265597941e-02 -2.849289886157746e-18
 1.094940648118241e-01  1.909352934933052e-02 -2.144756570505159e-18
 1.043350124739115e-01 -7.466936603396822e-03 -1.780045941206068e-18
 8.030832243310733e-02 -5.747420143195984e-03 -1.370129738833985e-18
 1.448120271417021e-01  2.743746757061426e-02 -2.859012773065012e-18
 1.341161986214043e-01  2.541093390515182e-02 -2.647845848869403e-18
 5.825180838449028e-02 -4.514574549579522e-03 -9.902748019933364e-19
 1.655354560636236e-01 -1.282916664260763e-02 -2.814085871708786e-18
 1.223629048596087e-01  1.368421936869076e-02 -2.318194234660306e-18
 1.085097741135501e-01  1.213498122098807e-02 -2.055743389248011e-18
 1.008059865227325e-01 -2.658177669341827e-02 -1.520844676780829e-18
 9.311383691964530e-02 -2.455341498500405e-02 -1.404794378773787e-18
 7.973862743911643e-02 -7.321146413105639e-03 -1.343821871125617e-18
 1.316731964734021e-01 -1.208948261367368e-02 -2.219066554626650e-18
 8.758215248948674e-02  1.348627467669670e-02 -1.697195448448195e-18
 9.075842607353010e-02  1.397537087706568e-02 -1.758746311456634e-18
 1.521895948348598e-01 -3.560286719290284e-02 -2.342588851504128e-18
 6.599019240586448e-02 -1.543758664190849e-02 -1.015758595101939e-18
 1.240193997038031e-01  1.255919392486379e-02 -2.336114308605612e-18
 1.051821822105971e-01  1.065158698540885e-02 -1.981283585143845e-18
 9.744920816720602e-02 -1.982755104821865e-02 -1.530504016721218e-18
 1.245633515004564e-01 -2.534434355151226e-02 -1.956349501379141e-18
 8.965474642635284e-02  1.317652030592097e-02 -1.730897116199463e-18
 1.288208741163803e-01  1.893274958973105e-02 -2.487048242309185e-18
 1.477123074400387e-01 -5.594833551661538e-02 -2.053867885512996e-18
 1.022576990097525e-01 -3.873169509370170e-02 -1.421843634308133e-18
 1.377275965094581e-02  2.496174324360540e-03 -2.707499711249405e-19
 1.138811465176589e-01  2.063981374615795e-02 -2.238717433017417e-18
 9.844220732237131e-02 -1.889665962333042e-02 -1.557740192404113e-18
 1.566332304878332e-01 -3.006682725569696e-02 -2.478549447778854e-18
 9.144014577425069e-02 -2.003756392005418e-02 -1.421407777603064e-18
 9.111885912702662e-02 -1.996715937644915e-02 -1.416413479580707e-18
 1.397514748323406e-01  2.199169302593574e-02 -2.713000853122415e-18
 9.466110527299222e-02  1.489614310802022e-02 -1.837659743278128e-18
 1.185290867873849e-01 -2.763149765382974e-02 -1.825462885334987e-18
 9.812673522850829e-02 -2.287530198480423e-02 -1.511246885248083e-18
 6.754341011147508e-02  1.246191739973815e-02 -1.330057225853322e-18
 1.118187058716469e-01  2.063081319137213e-02 -2.201921364122597e-18
 1.370465951248505e-01 -2.844757542449112e-02 -2.146619132047889e-18
 9.805524445622021e-02 -2.035390926636337e-02 -1.535881015909952e-18
 7.618107063960246e-02  1.342219048733330e-02 -1.493641155461040e-18
 8.665922300438865e-02  1.526831519803474e-02 -1.699080636343055e-18
 1.122844395789868e-01 -9.694678274314609e-03 -1.898626242567023e-18
 1.504970535003785e-01 -1.299396889176377e-02 -2.544766276397799e-18
 1.405939653159052e-01 -1.480171896963806e-03 -2.486829090811860e-18
 7.002308410801476e-02 -7.372023472168973e-04 -1.238569821947237e-18
 8.431018602721134e-02 -1.583060757008945e-02 -1.337746587209446e-18
 8.959679186509116e-02 -1.682325372995213e-02 -1.421628965493638e-18
 9.017450050742158e-02  3.020663670570045e-04 -1.607866422756792e-18
 1.110158123251629e-01  3.718805529971771e-04 -1.979479742369164e-18
 1.221928661695102e-01  1.976085855361692e-02 -2.377603453496158e-18
 4.794529483919689e-02  7.753645685947877e-03 -9.329096056264723e-19
 1.197621739191942e-01 -1.266473595524825e-02 -2.001185181180952e-18
 9.148389352001908e-02 -9.674334705804769e-03 -1.528664736434420e-18
 1.279803905002221e-01  1.190984635207984e-02 -2.399933054247812e-18
 1.019539252759526e-01  9.487825285436347e-03 -1.911875673481754e-18
 7.837967318537500e-02 -1.279580616088610e-02 -1.263387519040066e-18
 9.233295275445035e-02 -1.507373682094727e-02 -1.488297863021135e-18
 8.338505250667266e-02  1.600613741276930e-02 -1.648393721990914e-18
 1.265223709945341e-01  2.428654051355109e-02 -2.501151894365074e-18
 1.020596419780672e-01 -1.870020520535116e-02 -1.624135254912930e-18
 1.107927646532930e-01 -2.030035961452814e-02 -1.763110584900487e-18
 9.104864778954655e-02  1.495362401637863e-02 -1.773962348717156e-18
 9.486849835161672e-02  1.558098763451804e-02 -1.848387079224977e-18
 1.141063515721212e-01 -1.730404066142530e-02 -1.852865905476617e-18
 1.337957191044634e-01 -2.028990088465793e-02 -2.172583057926422e-18
 8.853048012553152e-02  7.963292079562281e-03 -1.657325430094051e-18
 8.367898302575706e-02  7.526901263948586e-03 -1.566503495026234e-18
 9.544814656338518e-02 -6.543570011823234e-03 -1.631380817986580e-18
 8.882895405252342e-02 -6.089782786234766e-03 -1.518246890492144e-18
 1.256714703875315e-01  2.648445504915178e-02 -2.508591876486196e-18
 8.492353365833137e-02  1.789708915518791e-02 -1.695201671476018e-18
 1.236734277076567e-01 -7.637696237484175e-03 -2.122441614779107e-18
 8.415260584303860e-02 -5.197010003969292e-03 -1.444198611973223e-18
 1.272599931994050e-01  3.045643619893132e-02 -2.577672198188756e-18
 1.436372490677166e-01  3.437591502276912e-02 -2.909396222943521e-18
 1.248545362178626e-01 -3.928702852788733e-03 -2.181569409251827e-18
 1.127518401526806e-01 -3.547876508804340e-03 -1.970100348494576e-18
 1.122641645184177e-01 -2.585117708401332e-02 -1.732263267604170e-18
 9.289961878886864e-02 -2.139208452359150e-02 -1.433463633677923e-18
 9.974157725523285e-02  1.557188630687566e-02 -1.935015818298481e-18
 9.253745673029083e-02  1.444716230668904e-02 -1.795253769649302e-18
 1.460896150610763e-01 -2.888399516042020e-02 -2.303066404469826e-18
 7.941206213813382e-02 -1.570089439634633e-02 -1.251911385648762e-18
 1.111087210103218e-01  1.268701124320733e-02 -2.107666657353703e-18
 8.077375087150121e-02  9.223195768472249e-03 -1.532230233173526e-18
 1.038678745270333e-01 -1.035231692630531e-02 -1.742086429577440e-18
 8.165158641850789e-02 -8.138061012502957e-03 -1.369471757276893e-18
 1.547693625907050e-01  2.200920648372828e-02 -2.980442024184156e-18
 1.143382139237675e-01  1.625963509253367e-02 -2.201846748246676e-18
 8.607594883574199e-02 -5.826190325394871e-03 -1.471962195535543e-18
 8.984189412745437e-02 -6.081094445782910e-03 -1.536362636946115e-18
 1.133489896904991e-01 -2.395602054766530e-02 -1.771041070522394e-18
 1.211691148395425e-01 -2.560878409912994e-02 -1.893227980643059e-18
 8.573288650214060e-02  1.490598902128955e-02 -1.678872603468069e-18
 9.897818726029037e-02  1.720888952703337e-02 -1.938249996144533e-18
 1.567919160999977e-01 -3.052105757354933e-02 -2.476706396027339e-18
 1.024313045623789e-01 -1.993924062952489e-02 -1.618018795058732e-18
 9.441884556739057e-02  1.698448996036151e-02 -1.854805448110145e-18
 1.324406502619929e-01  2.382402454934757e-02 -2.601722549995206e-18
 1.248248548545321e-01 -3.261127422268791e-02 -1.886338192719453e-18
 1.282819896809449e-01 -3.351447232358166e-02 -1.938581998394555e-18
 8.595966569908561e-02 -6.520512734964737e-03 -1.462758887880368e-18
 1.053856653516982e-01 -7.994081496477828e-03 -1.793327340150678e-18
 1.121637641918599e-01  2.187436488802520e-02 -2.220839130467547e-18
 1.142693819817205e-01  2.228500599107647e-02 -2.262530298869600e-18
 1.496743329630048e-01 -4.010614537713705e-02 -2.251557218750849e-18
 1.087659838940579e-01 -2.914450511177919e-02 -1.636171221499514e-18
 8.297796422307509e-02  9.399736687653698e-03 -1.573270732857959e-18
 1.116523057550599e-01  1.264796364304045e-02 -2.116939196390835e-18
 8.364134007235081e-02 -1.326768193760289e-02 -1.352176805450481e-18
 1.614271515561052e-01 -2.560652544647142e-02 -2.609690972374327e-18
 1.199457683399875e-01 -1.986634277293857e-02 -1.930458568984633e-18
 1.330303893990304e-01 -2.203351857755841e-02 -2.141048064511882e-18
 1.015554645362197e-01  1.518689297353216e-03 -1.822904611998988e-18
 5.970579607973361e-02  8.928574539079185e-04 -1.071709646879715e-18
 1.241297401955769e-01 -2.569858796639678e-02 -1.944993138302463e-18
 6.835010641630196e-02 -1.415052685588804e-02 -1.070980151674300e-18
 1.363248028227295e-01  1.260431172661951e-02 -2.555567204546106e-18
 1.158701083284681e-01  1.071311261728582e-02 -2.172120132948153e-18
 9.566936715182559e-02 -1.636788905816831e-02 -1.534376392932682e-18
 9.866663332378182e-02 -1.688068559525135e-02 -1.582447521596959e-18
 1.610157634928244e-01  1.017109884470609e-02 -2.969971923669537e-18
 1.085268059198081e-01  6.855458412056622e-03 -2.001801311594731e-18
 1.256235352541674e-01 -3.312511789043121e-02 -1.895272106110097e-18
 8.239191012471944e-02 -2.172556066486437e-02 -1.243040077741567e-18
 1.059407084275962e-01  9.552173668315516e-03 -1.983486391530493e-18
 1.105428840403745e-01  9.967130122334224e-03 -2.069651123056883e-18
 9.269913266184399e-02 -1.919764250360512e-02 -1.452442838476259e-18
 1.327447000498244e-01 -2.749092923124798e-02 -2.079890969814939e-18
 1.086284931931423e-01 -1.075368366193815e-02 -1.822683420008794e-18
 1.382737129344180e-01 -1.368841382172690e-02 -2.320102181114759e-18
 7.363489901676326e-02  3.683072639143691e-03 -1.348263096302387e-18
 1.295820163607388e-01  6.481437271675451e-03 -2.372660965609022e-18
 1.197250458581537e-01 -3.224779747376958e-02 -1.799315599910939e-18
 8.306761788282652e-02 -2.237416322469037e-02 -1.248400947627046e-18
 1.310118712229882e-01 -6.730530287878077e-03 -2.262358771331441e-18
 1.144209552615398e-01 -5.878197889754336e-03 -1.975861037199242e-18
 7.627199269891244e-02 -5.135081350300532e-03 -1.304589995157403e-18
 1.130435594865642e-01 -7.610760562957230e-03 -1.933547184289774e-18
 5.330047601431969e-02 -8.879289540344663e-03 -8.573140753492992e-19
 1.184866281158077e-01 -1.973860566304789e-02 -1.905803880570774e-18
 1.051803189890911e-01  1.245278626842951e-02 -1.999757095203395e-18
 1.034246859847335e-01  1.224492872645597e-02 -1.966377850960929e-18
 9.608668611426306e-02 -1.587124101335217e-02 -1.546905959907771e-18
 1.586953474919681e-01 -2.621270656319184e-02 -2.554846969673150e-18
 9.087706456514542e-02  5.916196482391748e-03 -1.678052535694662e-18
 9.628916654093715e-02  6.268530251365672e-03 -1.777987447626210e-18
 1.422632560393836e-01 -2.976803936612826e-02 -2.225888548366908e-18
 9.408730509565397e-02 -1.968740685342522e-02 -1.472114872030923e-18
 1.431460267359906e-01  5.040998248034983e-03 -2.599248722276326e-18
 8.055624001201553e-02  2.836850410929052e-03 -1.462741989400755e-18
 1.245498512811694e-01 -3.224286464359049e-02 -1.885229450687873e-18
 1.365240844427283e-01 -3.534269635810101e-02 -2.066475568393894e-18
 9.735966957746633e-02  1.940449310989782e-03 -1.752568866709326e-18
 6.650886339885098e-02  1.325570215235036e-03 -1.197224311246301e-18
 1.036896101582957e-01 -1.591883547252906e-02 -1.681720046589077e-18
 1.544296955697230e-01 -2.370865231428872e-02 -2.504662853219087e-18
 9.952954937933937e-02 -4.130850064805140e-02 -1.346817216389178e-18
 5.652178502156043e-02 -2.345866335929398e-02 -7.648433419300466e-19
 4.156393695697716e-02  5.560376543611885e-03 -7.968106864676917e-19
 1.294619381809538e-01  1.731927187496775e-02 -2.481878844638348e-18
 8.694817834662394e-02 -2.231966723797758e-02 -1.318020076447037e-18
 6.890150510806871e-02 -1.768707171847976e-02 -1.044456235389075e-18
 1.069497636961712e-01  1.345907400658762e-02 -2.041585715389910e-18
 1.402173284089568e-01  1.764562477597799e-02 -2.676637000742718e-18
 9.682490399632235e-02 -2.457151154810920e-02 -1.470651308512360e-18
 9.262135725801553e-02 -2.350476639308953e-02 -1.406804599081918e-18
 1.247694466823372e-01 -2.592614356118816e-04 -2.217757317026903e-18
 9.839835759202341e-02 -2.044643150186439e-04 -1.749015350598907e-18
 7.993660716825907e-02 -1.836224895990571e-02 -1.233901838813335e-18
 9.491660992253886e-02 -2.180330744034847e-02 -1.465133230771564e-18
 9.258431326304405e-02  7.207222314212276e-03 -1.721699884182873e-18
 9.669336257052709e-02  7.527091099920611e-03 -1.798111853634927e-18
 7.034721707993041e-02 -1.316909345078128e-02 -1.116604989884145e-18
 9.906801177085998e-02 -1.854566476327263e-02 -1.572483473732221e-18
 9.430642019962548e-02 -4.555066251119831e-04 -1.673615075121874e-18
 6.887168833702094e-02 -3.326550859819968e-04 -1.222235936916534e-18
 8.688319805730976e-02  2.517507085117000e-02 -1.804854855071471e-18
 1.302953028238888e-01  3.775406008883758e-02 -2.706669588055269e-18
 1.078446403250584e-01 -1.392008377691154e-02 -1.776200212289073e-18
 1.343789210810501e-01 -1.734500512645841e-02 -2.213219566887258e-18
 1.254981730008219e-01  1.553775865829434e-02 -2.393034513979199e-18
 8.302986522996687e-02  1.027981504850657e-02 -1.583236858635789e-18
 9.690987573818743e-02 -6.795029005507018e-04 -1.717645191586080e-18
 1.267593964807518e-01 -8.887987619902228e-04 -2.246702580052128e-18
 9.368930124187165e-02 -1.839704720419244e-02 -1.478289895341743e-18
 9.817748729929350e-02 -1.927835776649907e-02 -1.549107374062944e-18
 1.299102246233864e-01  1.085011212756286e-02 -2.423388370273256e-18
 7.844908108847914e-02  6.552073392081878e-03 -1.463415149343218e-18
 8.417397609077515e-02 -6.497951487502968e-03 -1.431212219874627e-18
 9.739874919117561e-02 -7.518860063176801e-03 -1.656073367528513e-18
 1.402230959772635e-01 -3.747939751930679e-03 -2.456928537647280e-18
 1.523068586253490e-01 -4.070919458419250e-03 -2.668655008848941e-18
 8.682171282772035e-02  1.062234784636054e-02 -1.654236709782920e-18
 1.115641692531881e-01  1.364950511111359e-02 -2.125661176960040e-18
 8.790077672442026e-02 -9.883151274051784e-03 -1.462753384578669e-18
 1.407407012027376e-01 -1.582422467964776e-02 -2.342060499393584e-18
 1.187556006961991e-01  5.634897364844928e-03 -2.171294094623550e-18
 6.816710676970626e-02  3.234497135746583e-03 -1.246348260704588e-18
 8.578438540730765e-02 -7.597235716862661e-03 -1.448576628509986e-18
 1.121357119575375e-01 -9.930961584380081e-03 -1.893551731958661e-18
 1.128754043325070e-01  1.626670262353570e-02 -2.175886922981368e-18
 1.125544768445668e-01  1.622045311469972e-02 -2.169700438615144e-18
 7.504673692885010e-02 -1.006687600323961e-02 -1.232112708712355e-18
 1.550638155732370e-01 -2.080048071170563e-02 -2.545828181848194e-18
 7.828604682600228e-02  9.393667622526532e-03 -1.489710108615924e-18
 1.007508823487660e-01  1.208925906763547e-02 -1.917194876636419e-18
 1.086089485725372e-01 -1.011259261751528e-02 -1.828922577762837e-18
 9.557734361456927e-02 -8.899218270149166e-03 -1.609476603509659e-18
 1.237507588384655e-01  1.414545715447770e-02 -2.347631802400660e-18
 1.242651854538919e-01  1.420425921529687e-02 -2.357390807466261e-18
 8.951223649327049e-02 -5.732012899489153e-03 -1.534082672192765e-18
 1.114282706809241e-01 -7.135429857780887e-03 -1.909685043528793e-18
 1.047664088638593e-01 -6.708830329434119e-03 -1.795512421120040e-18
 8.184270389610185e-02 -5.240886082623696e-03 -1.402640340707457e-18
 9.732096397658292e-02  2.486706318746115e-02 -1.987442683368588e-18
 1.074099683567128e-01  2.744496520536173e-02 -2.193475557668801e-18
 1.147902226665892e-01 -5.653610989824220e-03 -1.984740139960975e-18
 8.478336978759765e-02 -4.175723158737345e-03 -1.465917160099536e-18
 1.477109987606899e-01  3.243891729255234e-02 -2.961991510052490e-18
 1.182795756074821e-01  2.597546156156923e-02 -2.371814568321838e-18
 9.878384527286857e-02 -6.584636207641057e-03 -1.690321615243436e-18
 1.125522893843257e-01 -7.502399586549359e-03 -1.925917816480393e-18
 9.975304955858208e-02  2.708249847146525e-02 -2.053487340135735e-18
 1.235463381260447e-01  3.354226791321059e-02 -2.543289076219877e-18
 1.287152305550126e-01 -1.633590955465660e-02 -2.122795528506474e-18
 1.193696904326349e-01 -1.514981916333086e-02 -1.968667142163085e-18
 5.527801473070982e-02  1.807267825731151e-02 -1.169428413941782e-18
 1.024886210970962e-01  3.350778574713013e-02 -2.168187591405535e-18
 1.589093404032745e-01 -9.586952073899625e-03 -2.729478816505528e-18
 7.746983214803853e-02 -4.673731362118156e-03 -1.330647180522517e-18
 1.225337191356572e-01  2.885411918946558e-02 -2.477099288324335e-18
 9.123883255951468e-02  2.148483019980286e-02 -1.844452684493349e-18
 9.030878361728367e-02  1.127528656628575e-03 -1.618737476033952e-18
 1.374831400042138e-01  1.716512768181740e-03 -2.464313017333687e-18
 1.388915626470185e-01  1.594244359921177e-02 -2.635543849704190e-18
 1.142760755552916e-01  1.311699468677988e-02 -2.168451433320705e-18
 7.584416439939062e-02 -7.277341933710792e-03 -1.274965330962891e-18
 3.968894639439827e-02 -3.808203784536322e-03 -6.671842333028460e-19
 1.183178521759080e-01  3.661318863395618e-02 -2.481794526801262e-18
 9.625607410420521e-02  2.978622188899860e-02 -2.019034266511438e-18
 9.247944826799524e-02  5.142524922153386e-03 -1.698619670850676e-18
 1.000605371678528e-01  5.564088191990386e-03 -1.837865600329498e-18
 1.497126278963241e-01  4.115251286542046e-02 -3.087141917261564e-18
 1.259044260638621e-01  3.460819295079438e-02 -2.596206056443498e-18
 1.336288614553663e-01 -1.403583813255697e-02 -2.233871849881184e-18
 1.172759223841812e-01 -1.231819118641888e-02 -1.960499991017117e-18
 1.834520109364280e-01  6.041538846922254e-03 -3.326821981027156e-18
 1.369974864380984e-01  4.511673826967709e-03 -2.484389497292964e-18
 7.428751599285661e-02 -2.126005858643961e-02 -1.103595581646017e-18
 7.863485783585979e-02 -2.250420763412637e-02 -1.168178535938155e-18
 7.433592318788267e-02  1.473956927167076e-02 -1.474340144029115e-18
 1.004247233103459e-01  1.991254163992812e-02 -1.991771873946327e-18
 1.017056753164442e-01 -1.455006458738737e-02 -1.660477183164649e-18
 9.086602087903918e-02 -1.299933822252636e-02 -1.483505752507520e-18
 9.463136212328951e-02  8.678189887257421e-03 -1.773243217911738e-18
 1.018074800494475e-01  9.336277360788821e-03 -1.907712406117186e-18
 1.601505729005551e-01  3.830335856672902e-02 -3.243623574040682e-18
 1.261078809512385e-01  3.016133688866076e-02 -2.554136948231520e-18
 1.273617029172479e-01 -2.884236118504801e-02 -1.970208642380669e-18
 5.169156580570305e-02 -1.170608414491339e-02 -7.996373113412033e-19
 7.976531414301107e-02  2.471981803247548e-02 -1.673506062965513e-18
 1.199990316079260e-01  3.718852307285887e-02 -2.517624472534592e-18
 1.523884103416439e-01 -2.506541835376986e-02 -2.454395469470945e-18
 1.176163653160169e-01 -1.934598172712972e-02 -1.894350584273949e-18
 1.034818604767201e-01  1.648654931993984e-02 -2.010976449984456e-18
 1.112870532755068e-01  1.773005900787966e-02 -2.162655776521879e-18
 1.206604660381257e-01 -1.243389790811680e-02 -2.019543138036367e-18
 1.248723719602980e-01 -1.286792911945272e-02 -2.090039515039339e-18
 6.211056565508478e-02 -1.304009780139361e-02 -9.713493361825751e-19
 7.649098849620020e-02 -1.605926399792926e-02 -1.196245278336963e-18
 8.615824439650431e-02  8.096359699166968e-03 -1.616475887042577e-18
 1.830889183508130e-01  1.720501329017025e-02 -3.435060959886552e-18
 7.159570723606011e-02  1.169438052216182e-02 -1.394286524347426e-18
 8.758306793655077e-02  1.430574210785235e-02 -1.705631470086695e-18
 7.859454888008546e-02 -1.466789929879755e-03 -1.383613014605990e-18
 1.442320389252032e-01 -2.691765590312055e-03 -2.539124265278839e-18
 7.717535015446314e-02 -1.233681084871239e-02 -1.246671164229174e-18
 1.080448922802779e-01 -1.727143960556697e-02 -1.745329971013808e-18
 9.150155064212578e-02  2.587860811992366e-02 -1.894272538150094e-18
 6.354430054621618e-02  1.797169600460419e-02 -1.315499274448764e-18
 1.055838492358946e-01  1.222814404649684e-02 -2.004630280069310e-18
 1.037975887806878e-01  1.202126912851550e-02 -1.970716079909797e-18
 1.251816366003438e-01 -8.297614134285281e-03 -2.142501574420857e-18
 1.005595776012091e-01 -6.665550915470760e-03 -1.721091520967502e-18
 1.200615926722764e-01  2.393014556107894e-02 -2.382512808756605e-18
 9.980446605658899e-02  1.989258469108606e-02 -1.980528605846526e-18
 1.071960255714574e-01 -7.569936858682814e-03 -1.829902791810843e-18
 1.236550729576144e-01 -8.732236942133400e-03 -2.110868961982873e-18
 1.164077196073874e-01  1.624280966470839e-02 -2.238503195323723e-18
 1.306876576550154e-01  1.823534346327212e-02 -2.513104287557571e-18
 8.957383749855911e-02 -1.177043504816781e-02 -1.473136341570855e-18
 1.177187459193777e-01 -1.546881200460003e-02 -1.936009079668720e-18
 1.036399797848596e-01  1.899980039660555e-02 -2.039613113504739e-18
 1.005388915618583e-01  1.843129336513373e-02 -1.978584346238493e-18
 1.265006372398891e-01 -1.967246770886842e-02 -2.049102275843083e-18
 9.740991968823250e-02 -1.514848890410142e-02 -1.577880495134049e-18
 8.170214611845315e-02  1.675032592262363e-02 -1.626090661965466e-18
 1.064083939958061e-01  2.181552584614586e-02 -2.117810902793924e-18
 1.070942868369623e-01 -9.113890464633581e-03 -1.812228667245253e-18
 1.099954469139232e-01 -9.360783701824114e-03 -1.861321533120908e-18
 9.991400480529906e-02  1.864775791797228e-02 -1.969687835658642e-18
 1.036286340273287e-01  1.934104918001726e-02 -2.042917409499384e-18
 9.369764005527839e-02 -3.795796436291768e-03 -1.628460841895994e-18
 9.575641772037272e-02 -3.879199827451583e-03 -1.664242306699144e-18
 8.401010130303599e-02  2.630119332999857e-02 -1.765295170557131e-18
 1.765549234888859e-01  5.527436705848236e-02 -3.709929507747790e-18
 1.048124059866119e-01 -1.478857413426608e-02 -1.713314562332297e-18
 1.079901810977327e-01 -1.523694436649639e-02 -1.765260019765990e-18
 9.839054520922044e-02  2.380783220300304e-02 -1.995593943669109e-18
 1.140144903315761e-01  2.758840139317267e-02 -2.312484659093965e-18
 9.011290382948975e-02 -3.589328501889105e-03 -1.566787567752015e-18
 1.511054020781280e-01 -6.018748740964960e-03 -2.627260418154488e-18
 1.131751979448002e-01  2.434629058770674e-02 -2.264236939167188e-18
 1.065207660472677e-01  2.291478672806739e-02 -2.131105203723578e-18
 1.443725243104692e-01 -2.400258546545015e-02 -2.322663437681871e-18
 9.620748804499137e-02 -1.599493023513426e-02 -1.547784912541791e-18
 8.292718593978511e-02  1.358984265836446e-02 -1.615418889439506e-18
 1.001752051623667e-01  1.641639301994951e-02 -1.951409743847684e-18
 1.008776897776735e-01 -1.025274133296125e-02 -1.689895628189742e-18
 7.518801977443061e-02 -7.641762215052495e-03 -1.259544168676782e-18
 1.119208932069123e-01  1.951608917842561e-02 -2.192286525361484e-18
 1.288187565293749e-01  2.246263649480873e-02 -2.523278862965049e-18
 4.752806242880771e-02 -3.466981286088741e-03 -8.101965911864089e-19
 7.519579972363732e-02 -5.485231610794858e-03 -1.281840190705944e-18
 1.572984772386455e-01  3.035424355064865e-02 -3.111192860530382e-18
 9.199321739664965e-02  1.775213959401022e-02 -1.819525822538348e-18
 8.094420809854719e-02 -5.017450607574367e-03 -1.388946254563793e-18
 9.704716623335191e-02 -6.015617109850280e-03 -1.665261804670904e-18
 1.013438962028995e-01  2.624343734314967e-02 -2.073177305515433e-18
 9.976930663772188e-02  2.583569061006391e-02 -2.040966156404962e-18
 1.070290513406237e-01 -3.028384141031730e-03 -1.873594090556550e-18
 1.123247370752009e-01 -3.178225427052684e-03 -1.966297570345150e-18
 1.193336251477952e-01  2.566655065423920e-02 -2.387398689853210e-18
 1.128821818030603e-01  2.427895937646218e-02 -2.258330563666590e-18
 1.094894330472013e-01 -6.651596848950623e-03 -1.880152323510467e-18
 1.424095690334530e-01 -8.651529323701668e-03 -2.445456832285744e-18
 1.292134464127105e-01  1.389466147671118e-02 -2.442270009431814e-18
 1.363979993779920e-01  1.466723533868557e-02 -2.578065615271760e-18
 9.582398445316496e-02 -1.746220099347010e-02 -1.525884334641257e-18
 1.053756364543959e-01 -1.920281810532373e-02 -1.677983167118284e-18
 8.410225854748710e-02  4.919147196413631e-03 -1.547242462115392e-18
 1.543330461488384e-01  9.026951052073956e-03 -2.839289294166431e-18
 6.929651662312385e-02  5.681736385618111e-03 -1.291591950535295e-18
 1.379780160676511e-01  1.131304649222977e-02 -2.571720825060055e-18
 9.998207517277892e-02 -1.906699993765993e-02 -1.583393792773011e-18
 1.198831490468493e-01 -2.286221796709702e-02 -1.898562654664161e-18
 3.275864180645965e-02  7.521937730981859e-03 -6.602642845490467e-19
 1.383522727506144e-01  3.176801977073206e-02 -2.788548588891922e-18
 1.103402833158035e-01 -1.225295544256829e-02 -1.837742294235366e-18
 8.969316059797766e-02 -9.960154780142167e-03 -1.493859810589595e-18
 1.398172129855317e-01  2.405877517285852e-02 -2.735409260121480e-18
 8.597581553451938e-02  1.479412135372920e-02 -1.682046415729635e-18
 1.061294222697125e-01 -1.109607645024160e-02 -1.774691510408360e-18
 1.008159414213062e-01 -1.054053974373834e-02 -1.685839718410289e-18
 9.349564703813205e-02  1.665171774270345e-02 -1.834956915401129e-18
 1.191361251471910e-01  2.121832611203086e-02 -2.338180050497675e-18
 8.705368158797393e-02 -9.226695932142280e-03 -1.454423156340594e-18
 1.126409346322489e-01 -1.193865250045498e-02 -1.881914477280673e-18
 9.124594127001538e-02  1.574365874345350e-02 -1.785590741365920e-18
 1.324623345049598e-01  2.285517319215355e-02 -2.592153851225560e-18
 6.036110565819242e-02 -4.801429634632585e-03 -1.024864931247070e-18
 1.211492223094882e-01 -9.636825897514339e-03 -2.056980037707411e-18
 1.191411510865968e-01  1.754967227930528e-02 -2.300575407670465e-18
 9.919225182630659e-02  1.461116915794041e-02 -1.915368897327439e-18
 7.258722075451031e-02 -4.254378091993186e-03 -1.248063989096456e-18
 7.792413797917321e-02 -4.567177831167330e-03 -1.339826893525835e-18
 1.155950652341506e-01  3.283520779659549e-02 -2.394521904643519e-18
 9.139412789693047e-02  2.596084162248268e-02 -1.893205741626565e-18
 1.177123894806988e-01 -4.080338903011495e-03 -2.052908383271989e-18
 1.256021487267753e-01 -4.353826610883059e-03 -2.190506073453312e-18
 1.074043008375307e-01  2.302139600585646e-02 -2.147924130835932e-18
 1.030628280514568e-01  2.209083025125001e-02 -2.061101218830930e-18
 1.245268670360177e-01 -1.053088249854920e-02 -2.107903147826070e-18
 9.807308716271189e-02 -8.293761673790206e-03 -1.660112183562022e-18
 1.453335577472418e-01  1.857126681598468e-02 -2.777197040378516e-18
 7.724001009615257e-02  9.870018037126211e-03 -1.475988964715982e-18
 8.689382330526178e-02 -7.347054191415381e-03 -1.470890923579676e-18
 1.119650950918445e-01 -9.466882568820575e-03 -1.895283644612711e-18
 9.483749723561323e-02  2.321182309391689e-02 -1.926239439666959e-18
 8.363135121847222e-02  2.046907801421227e-02 -1.698631994784092e-18
 1.521274827548305e-01 -1.712737092392334e-02 -2.531312505493657e-18
 1.147951646246436e-01 -1.292428776967114e-02 -1.910124525315835e-18
 9.526143002421451e-02  1.776377996162865e-02 -1.877807165259669e-18
 1.067726580826199e-01  1.991032470975663e-02 -2.104718167157470e-18
 1.350741815644302e-01 -1.804423372793503e-02 -2.218408236655342e-18
 1.026254723046793e-01 -1.370948901750001e-02 -1.685482676367351e-18
 1.312189188844659e-01  1.105404646965396e-02 -2.448773496997651e-18
 9.850526328163932e-02  8.298207050307009e-03 -1.838279724368392e-18
 6.006853312249247e-02  2.317888341224668e-03 -1.092806659938173e-18
 9.340477403819832e-02  3.604247107489229e-03 -1.699281700966696e-18
 1.121777226259664e-01 -1.261301296933277e-02 -1.866742258247773e-18
 1.058673150139955e-01 -1.190348481001229e-02 -1.761731171551779e-18
 1.193848126273816e-01  2.691775308202472e-02 -2.401165282530473e-18
 1.064312161650463e-01  2.399709924487695e-02 -2.140631924687473e-18
 7.175170757807645e-02 -7.659114632265420e-03 -1.198212604377872e-18
 1.821688367388230e-01 -1.944555816307018e-02 -3.042115702511956e-18
 6.948574422437434e-02 -1.535042126958970e-02 -1.078861701893349e-18
 1.354191966558337e-01 -2.991608911813707e-02 -2.102569190327447e-18
 1.284551122748566e-01  1.256890742853019e-02 -2.415152907638524e-18
 2.828687159256182e-02  2.767776729110541e-03 -5.318365222288272e-19
 1.020669113460237e-01 -9.057321789479400e-03 -1.723341746100865e-18
 1.255722434946648e-01 -1.114316287383521e-02 -2.120215910445783e-18
 1.124608232988733e-01  7.394620753294059e-03 -2.077351540714925e-18
 8.270843848776482e-02  5.438316364524589e-03 -1.527772046146893e-18
 6.747140356861422e-02 -4.751937969047096e-03 -1.151909672918367e-18
 9.710352557113737e-02 -6.838896268410627e-03 -1.657805892034247e-18
 1.124180108458999e-01  2.908735338815597e-02 -2.299474589518695e-18
 1.165613957924739e-01  3.015942450253791e-02 -2.384226208298907e-18
 1.608757100873832e-01 -3.634223319499709e-02 -2.489571916515142e-18
 1.524341764235598e-01 -3.443526921163719e-02 -2.358938117725028e-18
 7.727788423760266e-02  6.590137101123085e-03 -1.442963395110637e-18
 1.348520349185881e-01  1.149997062220945e-02 -2.518010839238533e-18
-7.453195385301108e-02  8.779502094519324e-03  1.236178829068246e-18
-4.571628039117392e-02  5.385155744601872e-03  7.582452229116474e-19
-1.253811495277933e-01 -2.550887768505240e-02  2.493401567463172e-18
-4.540499625120221e-02 -9.237676477080263e-03  9.029498393481468e-19
-1.090611666488972e-01 -4.370478148493984e-03  1.985778628691676e-18
-6.907705769145663e-02 -2.768169280406485e-03  1.257750573475858e-18
-1.279550664912494e-01  2.611708817421740e-02  2.008769445142147e-18
-1.427720090237437e-01  2.914139510636948e-02  2.241380956713182e-18
-5.767186420726021e-02 -6.762439430220750e-03  1.095821225602407e-18
-7.659311033513130e-02 -8.981091153081471e-03  1.455343211006831e-18
-6.660971197157109e-02  2.115870784290068e-02  9.680012427431208e-19
-1.151712011472769e-01  3.658436172237515e-02  1.673717878953807e-18
-1.164648047437144e-01 -5.197906086939285e-03  2.126036721454732e-18
-6.864203765534291e-02 -3.063542382042062e-03  1.253043724341225e-18
-1.365961243530031e-01  3.576821962058126e-02  2.063385507588014e-18
-8.435681735127250e-02  2.208915651015129e-02  1.274272130437924e-18
-1.136895636001631e-01 -1.108296562809693e-02  2.137114843789108e-18
-1.020226589863750e-01 -9.945623740888610e-03  1.917802584671927e-18
-9.161657256415835e-02  7.654262258408477e-03  1.551781428852540e-18
-1.155289477553458e-01  9.652062283143456e-03  1.956803999582888e-18
-1.082429772932972e-01  2.964409769449524e-02  1.621730562874432e-18
-1.082782746112950e-01  2.965376443841937e-02  1.622259398470199e-18
-1.338728496739869e-01 -1.931854599763779e-02  2.580918091513803e-18
-1.376250550941848e-01 -1.986000868539862e-02  2.653256395177675e-18
-9.046872747504041e-02  1.230885985590057e-02  1.483529856860644e-18
-1.184002840021017e-01  1.610913011993866e-02  1.941558826793027e-18
-1.311950249816570e-01 -2.499761101833862e-02  2.591613336934445e-18
-3.723978184608696e-02 -7.095585988313387e-03  7.356309075770355e-19
-1.286556552769411e-01  2.326369371726216e-02  2.050554849764587e-18
-1.023553890314509e-01  1.850804316073982e-02  1.631372821709146e-18
-8.371059211627382e-02 -1.440256321469849e-02  1.637710945309002e-18
-1.107980058139911e-01 -1.906300316908533e-02  2.167648110623120e-18
-1.355125572447572e-01  3.237658120730758e-03  2.378341840358174e-18
-7.305601616922792e-02  1.745450080993800e-03  1.282185086591895e-18
-1.212214406006243e-01  2.847449668930389e-02  1.864715024145440e-18
-1.307673779851435e-01  3.071680432980880e-02  2.011557470269386e-18
-1.260618941836449e-01 -3.154734436521711e-02  2.567559282171872e-18
-1.133296559633645e-01 -2.836106586070708e-02  2.308236061328616e-18
-1.240362008650056e-01 -4.382210322799401e-04  2.211874712042346e-18
-1.304708893381853e-01 -4.609548455171379e-04  2.326621250669294e-18
-6.944520980074309e-02 -2.414072784644861e-02  1.483897554634289e-18
-9.300200432454894e-02 -3.232960317947156e-02  1.987256532009341e-18
-4.597457019561585e-02  5.951734905146160e-03  7.570204030283579e-19
-9.372871011886984e-02  1.213384776095200e-02  1.543343322354349e-18
-1.004689722961585e-01 -1.334486896937924e-02  1.925078886588984e-18
-1.001278840814109e-01 -1.329956366338499e-02  1.918543319381835e-18
-9.233373097186617e-02  1.706573983387189e-02  1.467844605008344e-18
-1.043579239304451e-01  1.928813187395862e-02  1.658995190802471e-18
-1.201457675524863e-01 -1.357000839786487e-02  2.277564155347298e-18
-1.093030799270600e-01 -1.234536798705569e-02  2.072022860082688e-18
-1.318446880379297e-01  1.637620631841227e-02  2.178073922758068e-18
-1.243758780462354e-01  1.544851802700520e-02  2.054689200028363e-18
-1.166071937860163e-01 -2.615270288533878e-02  2.343873629134630e-18
-1.184831400604019e-01 -2.657344078280415e-02  2.381581259851432e-18
-1.061580564702068e-01  4.573714976161892e-03  1.842215984920788e-18
-1.262330340567589e-01  5.438625550890587e-03  2.190587515415527e-18
-7.546862786173721e-02 -1.907703040107819e-02  1.539063812268309e-18
-1.371996083466886e-01 -3.468144543771157e-02  2.797969941240066e-18
-6.775783219719705e-02  6.075724436998507e-03  1.143405586964050e-18
-1.040172192591210e-01  9.327039257720183e-03  1.755278552820402e-18
-8.630057192927909e-02 -1.059464014452037e-02  1.644677699284801e-18
-1.275300199227337e-01 -1.565614964651792e-02  2.430410078025292e-18
-1.499940099987985e-01 -8.674040529490629e-03  2.758444942669568e-18
-1.164632775850033e-01 -6.734983550194623e-03  2.141802456402411e-18
-7.984258393303857e-02  7.386437971905365e-03  1.345001053890648e-18
-1.154650013198986e-01  1.068195727346050e-02  1.945084199591964e-18
-2.689936861207080e-02 -2.606570792882028e-03  5.054879191842887e-19
-1.226002118975797e-01 -1.188006068625630e-02  2.303880321408391e-18
-1.013466363863129e-01  1.710821886424260e-02  1.627803551235523e-18
-1.104073547849316e-01  1.863774918668923e-02  1.773334474726620e-18
-1.250578920594551e-01 -1.923818356547037e-02  2.423219711104005e-18
-1.062376541778020e-01 -1.634298690774223e-02  2.058544034491719e-18
-1.160894766376066e-01  1.367082157655142e-02  1.925487987826483e-18
-9.923106684410588e-02  1.168555711480540e-02  1.645870347266576e-18
-1.073818868693300e-01 -1.481734811417489e-02  2.063231635744718e-18
-8.171672893011528e-02 -1.127587952316952e-02  1.570102232449639e-18
-1.116346108918938e-01  2.468043678731953e-02  1.733088541113443e-18
-1.083689667087306e-01  2.395846065296019e-02  1.682390549979899e-18
-1.250120169999779e-01  3.549036727287341e-03  2.188272899137113e-18
-1.336024565606323e-01  3.792915565785802e-03  2.338644251694831e-18
-1.265720273939612e-01 -3.668726426253859e-02  2.629448520917244e-18
-1.058238999534418e-01 -3.067336016353954e-02  2.198420163913308e-18
-9.341345624023353e-02  8.255574073381469e-03  1.577580856809294e-18
-8.809081742246794e-02  7.785176758106959e-03  1.487691311506287e-18
-8.542446886737846e-02  1.325147130405901e-03  1.506614916113143e-18
-1.157069382226951e-01  1.794903956522109e-03  2.040700999788895e-18
-1.129732512214875e-01 -2.441100466826239e-02  2.261307970004000e-18
-8.150385638329753e-02 -1.761116899037818e-02  1.631406709401290e-18
-1.131969805789829e-01  1.706062942007946e-02  1.839183525997210e-18
-1.333600591993952e-01  2.009953390809061e-02  2.166785921771132e-18
-9.141185867303214e-02 -1.699364395021052e-02  1.801386583381549e-18
-9.206002491357258e-02 -1.711413932654553e-02  1.814159521011957e-18
-1.136656044205923e-01  1.499770645833182e-02  1.868719030284362e-18
-9.143366468617005e-02  1.206429394681762e-02  1.503214891423483e-18
-7.499345508012982e-02 -2.298483275123074e-03  1.358214069260788e-18
-1.141598010029258e-01 -3.498897243982654e-03  2.067559731719419e-18
-9.891276305416924e-02  2.761223730569284e-02  1.476564898384834e-18
-1.300183606031584e-01  3.629559741552717e-02  1.940907740157130e-18
-1.233698927889558e-01 -8.919341064982803e-03  2.287157392415325e-18
-1.027578753868441e-01 -7.429142694126698e-03  1.905030708926359e-18
-1.217720804832760e-01  2.731254904927974e-02  1.886452907583110e-18
-1.273916655629305e-01  2.857297912911024e-02  1.973509666167280e-18
-1.112519393339979e-01 -1.839566014079488e-02  2.168869691894123e-18
-9.498094096623901e-02 -1.570522833424344e-02  1.851664657735167e-18
-5.652905005233071e-02  1.592832107257265e-02  8.423441632564180e-19
-1.327273471351215e-01  3.739889133678897e-02  1.977781442643727e-18
-8.556038217407495e-02 -3.759653255536459e-03  1.561278132331867e-18
-1.156049421035567e-01 -5.079856890441006e-03  2.109521527481722e-18
-9.946537257401307e-02  3.043085065953607e-02  1.457439015677946e-18
-1.184569952164000e-01  3.624122684832172e-02  1.735718090030692e-18
-1.655355369157774e-01 -3.668157724457184e-02  3.322792218170825e-18
-8.575925174098654e-02 -1.900368148003302e-02  1.721444105781875e-18
-8.170594596429943e-02  5.839770051534866e-03  1.394053254957146e-18
-8.344137149446813e-02  5.963806141174857e-03  1.423662796594721e-18
-6.217702707309963e-02  1.811057550081613e-02  9.204347799923698e-19
-1.236122434254752e-01  3.600508053803170e-02  1.829888198866864e-18
-1.025005078558024e-01 -3.647716390098829e-03  1.861597765122662e-18
-1.274535150163595e-01 -4.535726558105673e-03  2.314790274456686e-18
-1.038887995181075e-01  2.118733615654888e-02  1.631132928216127e-18
-9.012581072683887e-02  1.838047852230894e-02  1.415043568128807e-18
-1.076772545501653e-01 -1.892039867431858e-03  1.935685209112567e-18
-1.079723057497671e-01 -1.897224329414217e-03  1.940989265622793e-18
-1.146002283924682e-01  2.463357868830716e-02  1.786346691997912e-18
-1.259619890619333e-01  2.707581488115733e-02  1.963449686222879e-18
-7.803796877454894e-02 -5.190228024150289e-03  1.442106448888342e-18
-1.025199276967774e-01 -6.818498868197267e-03  1.894522002465380e-18
-1.192583151286799e-01  1.323679600959266e-02  1.986340703733917e-18
-1.142702088620035e-01  1.268315289418454e-02  1.903259884577965e-18
-9.280954075708203e-02  2.590614207217586e-02  1.385480286169798e-18
-1.639396086630072e-01  4.576084267453611e-02  2.447324855528457e-18
-1.341749397621110e-01 -1.916786402472232e-02  2.584745942444823e-18
-6.671721692367616e-02 -9.531038689998723e-03  1.285240418519491e-18
-1.592710928796589e-01  2.088415434364225e-02  2.619841983966097e-18
-1.171630448273424e-01  1.536280731993263e-02  1.927208875498179e-18
-9.231223943670600e-02 -1.783574559121993e-02  1.826062221534072e-18
-9.829032560226902e-02 -1.899077795336386e-02  1.944316933700328e-18
-1.228047313206658e-01  1.197418424591842e-02  2.062426287389629e-18
-7.775765812997421e-02  7.581829421117448e-03  1.305889736075074e-18
-8.924833421838284e-02 -1.129602143273434e-02  1.704343083382149e-18
-1.446438473145622e-01 -1.830734448645772e-02  2.762211114452154e-18
-1.030235943084359e-01  7.432377588928925e-03  1.757062771954572e-18
-1.056214557235588e-01  7.619793754036664e-03  1.801369181664410e-18
-1.071159029035472e-01 -2.588052273111150e-02  2.172168234050100e-18
-1.022356356026181e-01 -2.470138998432108e-02  2.073202895408487e-18
-1.066062491185008e-01 -1.369115373779892e-03  1.911252530705833e-18
-1.139476002976359e-01 -1.463398371697758e-03  2.042869355572502e-18
-1.066256965308444e-01  1.404876219287832e-02  1.753185529483381e-18
-1.052605442193691e-01  1.386889279173984e-02  1.730739108443336e-18
-8.867223096694557e-02 -1.328814900290479e-02  1.714559025922438e-18
-8.349222586812793e-02 -1.251188930087300e-02  1.614398869809836e-18
-1.033264095634079e-01  2.103911113159208e-02  1.622647486414739e-18
-8.575585328652405e-02  1.746143057813784e-02  1.346717846566969e-18
-1.304619109595053e-01 -2.338017194031393e-02  2.561948099462915e-18
-1.061881653356879e-01 -1.903005670632466e-02  2.085271987558588e-18
-1.072137797210723e-01  7.177092301051276e-03  1.834255083201610e-18
-8.190851261388775e-02  5.483110070376088e-03  1.401322721858837e-18
-1.100777797372903e-01  2.350505884145047e-02  1.717459455074416e-18
-9.043744053472628e-02  1.931123035286654e-02  1.411026255342233e-18
-9.514478586027141e-02 -4.672842672419754e-03  1.741226718141130e-18
-1.034530329215718e-01 -5.080885331300355e-03  1.893274375122557e-18
-1.509777133935397e-01  2.392106418710417e-02  2.441048257890502e-18
-1.587067216661724e-01  2.514565620692357e-02  2.566012941452459e-18
-1.040878475067873e-01 -2.759724652943619e-02  2.135919089660592e-18
-1.081582448626420e-01 -2.867644801157811e-02  2.219445069139677e-18
-1.443266965638638e-01 -1.466528387660341e-02  2.719146188822718e-18
-1.000561576643367e-01 -1.016687827466757e-02  1.885079657877694e-18
-1.082529209399857e-01  8.031935285590578e-03  1.843964639598589e-18
-9.037233947106636e-02  6.705267404668373e-03  1.539389394165463e-18
-1.008443553396486e-01 -1.660311322037930e-02  1.965236551672937e-18
-1.028627124690972e-01 -1.693541751075361e-02  2.004569930241946e-18
-1.139124596118740e-01  8.978003797915000e-03  1.934962370922478e-18
-1.143245538159387e-01  9.010482978347051e-03  1.941962367067390e-18
-8.293439481753181e-02 -1.279451448747234e-02  1.607375471982163e-18
-9.114015021067282e-02 -1.406043867356170e-02  1.766413588520418e-18
-1.190915598120649e-01  1.332209053058538e-02  1.982496723743676e-18
-1.200279876251347e-01  1.342684334531684e-02  1.998085276571122e-18
-6.074002709726400e-02 -5.341137030166652e-03  1.135819478225213e-18
-1.131255838731715e-01 -9.947628836527743e-03  2.115412978709981e-18
-1.453916515600688e-01  1.920879411164962e-02  2.390054487460293e-18
-1.099426655159778e-01  1.452535962912463e-02  1.807318083674463e-18
-1.163229459914378e-01 -2.057863788928807e-02  2.281543607631261e-18
-9.094586865030081e-02 -1.608919102357548e-02  1.783800809814767e-18
-1.199545593212986e-01  1.510229288158309e-02  1.979563896973738e-18
-9.879698569100939e-02  1.243855191636950e-02  1.630408607311917e-18
-1.114026524116157e-01  2.625409057890676e-03  1.955567961224994e-18
-6.574777933904231e-02  1.549467734171479e-03  1.154139942037102e-18
-1.334609120862940e-01 -2.236154385023606e-02  2.604852868265100e-18
-1.367149698625492e-01 -2.290676532757680e-02  2.668364660590466e-18
-7.927803303711431e-02  7.943608361761409e-03  1.329229473925309e-18
-1.384695307324668e-01  1.387455868967709e-02  2.321674421513889e-18
-1.037006324017219e-01 -2.142387020495340e-02  2.065598935856306e-18
-1.234752609390847e-01 -2.550917870620219e-02  2.459487099483862e-18
-1.270623164446959e-01  1.747762993047933e-03  2.243267856709581e-18
-1.021941141732553e-01  1.405696793959141e-03  1.804223139356614e-18
-9.867063449622319e-02 -2.503233303167432e-02  2.013159767822337e-18
-8.190749940137855e-02 -2.077959479307345e-02  1.671144442514952e-18
-9.206133697635627e-02  8.731863472022164e-03  1.548624581093661e-18
-9.781117500171023e-02  9.277225969163897e-03  1.645346405866389e-18
-9.030425155198242e-02 -1.350605562306236e-02  1.745841690340658e-18
-7.872147371262178e-02 -1.177371590395259e-02  1.521913180947395e-18
-9.699615962931943e-02  1.461030412737538e-02  1.576046794408530e-18
-1.026173949501058e-01  1.545701762533338e-02  1.667383708589444e-18
-8.536051688441802e-02  8.029899345029746e-03  1.436587920931412e-18
-9.748411950384084e-02  9.170371688524592e-03  1.640623952072344e-18
-9.972121526355966e-02  9.380816217594762e-03  1.678273498533249e-18
-1.045724435182405e-01  9.837173278291289e-03  1.759917989062653e-18
-9.216082764807682e-02 -1.138219744714944e-02  1.757059805354302e-18
-1.111212498865176e-01 -1.372387856163929e-02  2.118543058683196e-18
-1.010625044807811e-01  1.883575554595368e-02  1.604997273211940e-18
-8.552822040784593e-02  1.594051780291069e-02  1.358293674221851e-18
-1.134852738681993e-01 -1.791265531678114e-02  2.203651844843218e-18
-8.769696280960494e-02 -1.384219655636940e-02  1.702895603062789e-18
-1.060652970124722e-01  2.837068167366608e-02  1.596060031664431e-18
-5.183869371129275e-02  1.386597802567622e-02  7.800635029246136e-19
-1.086460035839235e-01  2.862767933927795e-02  1.639346225827385e-18
-1.100891396626758e-01  2.900793848864970e-02  1.661121529161303e-18
-9.766397149941849e-02 -1.086482010202646e-02  1.849678950303806e-18
-8.641581760870448e-02 -9.613497156356118e-03  1.636647745838038e-18
-1.157524739475821e-01  2.675066928962474e-02  1.785099939249430e-18
-1.025383272740733e-01  2.369684887825535e-02  1.581315332150702e-18
-1.073844293877906e-01 -7.931709312409758e-03  1.992529445561342e-18
-9.890090942259734e-02 -7.305093194099510e-03  1.835116835287909e-18
-1.386025651017388e-01  1.955024914203233e-02  2.265726269222519e-18
-6.813868008307822e-02  9.611136495602303e-03  1.113858154797186e-18
-1.138045866689773e-01 -1.329930277157884e-02  2.161933875520431e-18
-4.208038416971264e-02 -4.917550216540762e-03  7.993966736686439e-19
-6.198902529933038e-02  2.424327936890214e-02  8.540777597630976e-19
-1.061370265918307e-01  4.150911511554519e-02  1.462343914293588e-18
-8.574782560287032e-02  9.777947022609463e-03  1.425519986703499e-18
-9.813586081701062e-02  1.119057237125773e-02  1.631465638031509e-18
-6.740090338905927e-02  3.897843727838269e-03  1.159430546187903e-18
-1.353244022399966e-01  7.825909534919599e-03  2.327850781108955e-18
-1.520004658691229e-01  3.351531436468645e-02  2.360671922919244e-18
-8.093708691495595e-02  1.784620787973346e-02  1.257008703957031e-18
-9.012570881303640e-02  3.577459232709272e-03  1.567137400137622e-18
-1.222307001160933e-01  4.851838087153947e-03  2.125390236811411e-18
-1.182751300920043e-01  2.732449113143058e-02  1.824097803501126e-18
-1.438018048532595e-01  3.322178667941481e-02  2.217782860761031e-18
-9.204016683733991e-02 -1.116065451604146e-02  1.752636229160900e-18
-1.356238665776506e-01 -1.644554949229824e-02  2.582560530588281e-18
-8.870741263435683e-02  1.235395943826075e-02  1.451721776472927e-18
-1.147406571387573e-01  1.597951492570741e-02  1.877763150434102e-18
-6.086541613023050e-02 -1.543096803654017e-03  1.099027442028431e-18
-1.552379810146343e-01 -3.935687087012412e-03  2.803082801818438e-18
-1.476055415360464e-01  1.524485413291243e-02  2.470181343701709e-18
-5.931015850537493e-02  6.125614970854939e-03  9.925565497565706e-19
-1.235620155696450e-01 -7.759534545397814e-03  2.278659855805889e-18
-8.330839036356509e-02 -5.231659017274691e-03  1.536325576254980e-18
-1.401202868119613e-01  2.571308509410386e-02  2.229415036834675e-18
-9.887162638503494e-02  1.814365785621434e-02  1.573119036466891e-18
-1.121603662963418e-01 -1.131978242979214e-02  2.112334160283672e-18
-1.462632050196532e-01 -1.476161065605006e-02  2.754598389410437e-18
-1.003087114525307e-01  1.797549895815010e-02  1.600421451050382e-18
-1.238447163268694e-01  2.219319276531163e-02  1.975937460851222e-18
-1.283310663275380e-01 -2.369579962301913e-02  2.527270137254845e-18
-1.043012944708166e-01 -1.925880182351166e-02  2.054043142759694e-18
-7.687409132484938e-02  1.521248699501876e-02  1.211763376249374e-18
-7.819566142333907e-02  1.547401031958497e-02  1.232595235421912e-18
-1.348622234923331e-01 -1.670150410787899e-02  2.571636024058388e-18
-7.250576391024241e-02 -8.979203237448184e-03  1.382584608165326e-18
-1.196608602125984e-01  3.153232204870916e-02  1.805524589865582e-18
-5.946659894163368e-02  1.567028638802648e-02  8.972725624237987e-19
-1.581673689191205e-01 -6.738420043828580e-03  2.884011816857594e-18
-1.244906942508396e-01 -5.303689345929202e-03  2.269953883419657e-18
-1.010008661059210e-01  1.799697854901018e-02  1.612518473746255e-18
-1.076346426321326e-01  1.917902716348397e-02  1.718429319976051e-18
-1.151749876002422e-01 -1.258445827283892e-02  2.178977027223728e-18
-9.703071733961864e-02 -1.060194612551007e-02  1.835708502543164e-18
-1.259836430460201e-01  2.206380798120502e-02  2.015331594877553e-18
-7.798577559594902e-02  1.365782998818211e-02  1.247520659901348e-18
-1.311361194725629e-01 -1.172003272487022e-02  2.454142749534684e-18
-1.033117399337602e-01 -9.233283535893297e-03  1.933424280968585e-18
-1.063527479167449e-01  1.445076056836673e-02  1.744197696036974e-18
-1.057164385262349e-01  1.436430154563550e-02  1.733762146466002e-18
-8.166823663462165e-02 -7.823596950282536e-04  1.461422149969537e-18
-7.209374271291505e-02 -6.906386238589427e-04  1.290090209076388e-18
-1.615235232905055e-01  2.931462644813495e-02  2.573306631599446e-18
-1.028261846697252e-01  1.866174741160513e-02  1.638171936336325e-18
-6.565963031876847e-02 -2.837108326532463e-03  1.197641700579300e-18
-1.103600334476929e-01 -4.768582587059609e-03  2.012983891206935e-18
-1.663811588297223e-01  2.193297773448950e-02  2.735597809407770e-18
-6.409226840846810e-02  8.448879102918814e-03  1.053789204807841e-18
-8.600892853763344e-02 -1.743074252508173e-03  1.548540933226303e-18
-1.558293721837881e-01 -3.158069412749694e-03  2.805617573993696e-18
-1.381399942828772e-01  1.390118597797132e-02  2.315536341593844e-18
-1.179890644583367e-01  1.187337481021953e-02  1.977761531569733e-18
-1.297680958845929e-01 -3.013508663225731e-02  2.619005127184398e-18
-1.078783098434022e-01 -2.505178326546130e-02  2.177221178024561e-18
-8.556288335208675e-02  1.223555856434021e-02  1.396977652932505e-18
-9.994696297642153e-02  1.429249308714564e-02  1.631825252802541e-18
-1.422156591038323e-01 -3.055096829410956e-02  2.844797395659239e-18
-1.270194945519222e-01 -2.728650681115486e-02  2.540822364965040e-18
-9.370529686272379e-02  6.114124833611017e-03  1.604777121817897e-18
-7.974096353924637e-02  5.202973809961044e-03  1.365626898839728e-18
-1.259982611022503e-01 -2.085955788109159e-02  2.456613732027370e-18
-9.640680653067127e-02 -1.596056440275603e-02  1.879663121635916e-18
-1.209194236045326e-01  1.195109257382627e-02  2.029112246246792e-18
-1.370999745042270e-01  1.355030017781048e-02  2.300633173182130e-18
-1.078224495324373e-01 -2.434498342673806e-02  2.168964965575662e-18
-9.979448531523372e-02 -2.253236781036337e-02  2.007473799241408e-18
-1.407847150708779e-01 -1.529370005776175e-02  2.662569151102323e-18
-9.689679439020932e-02 -1.052607528605932e-02  1.832545638595703e-18
-8.916936851529630e-02  9.147330425834217e-03  1.492889780641108e-18
-6.732802326628710e-02  6.906762781765513e-03  1.127218007243872e-18
-1.280509973571097e-01 -1.506855900447192e-02  2.433644212522268e-18
-9.757529358025756e-02 -1.148229298513266e-02  1.854445130517138e-18
-1.435344049221441e-01  8.536936797823703e-03  2.466652025253022e-18
-1.125735236411965e-01  6.695489189191199e-03  1.934586416615901e-18
-6.357827513771008e-02 -1.157714156925315e-02  1.250402168966526e-18
-1.214589939595721e-01 -2.211679956531257e-02  2.388749760174938e-18
-1.183134035334991e-01  5.390904518077232e-03  2.050138559653342e-18
-9.632894056354059e-02  4.389190957206723e-03  1.669191060030262e-18
-9.365419858614424e-02 -1.379680598881121e-02  1.808445348161801e-18
-1.187265952752011e-01 -1.749038297751661e-02  2.292588716468838e-18
-1.391210634884263e-01  2.746502119690522e-03  2.447605962834063e-18
-9.888416906835763e-02  1.952152845443666e-03  1.739704080552394e-18
-8.313602474415568e-02 -1.864626104208908e-02  1.671088287115604e-18
-1.752214803374486e-01 -3.929975570287329e-02  3.522065967720590e-18
-9.736597898359799e-02 -3.450360654068975e-04  1.736288858587274e-18
-7.617001732056410e-02 -2.699238825780201e-04  1.358309686942850e-18
-1.223353765491055e-01 -3.115141496094045e-02  2.497173424915008e-18
-1.142298454495917e-01 -2.908742684987750e-02  2.331719102318443e-18
-1.197285897859794e-01 -1.692474772797665e-02  2.304608707300565e-18
-1.371234507334453e-01 -1.938367281700804e-02  2.639435569234478e-18
-5.670069373254663e-02 -7.762182430532361e-04  1.017031840475850e-18
-1.268936371618486e-01 -1.737141992600822e-03  2.276072140424469e-18
-6.656999642473202e-02 -1.440483290963468e-02  1.332696919226325e-18
-9.563839082305917e-02 -2.069483421273974e-02  1.914631149992093e-18
-1.208145489832969e-01  5.947222925214525e-03  2.088933456868036e-18
-8.919417820317213e-02  4.390676999331537e-03  1.542204184631899e-18
-8.626601857664748e-02 -1.740783672466337e-02  1.714065900979224e-18
-1.026729483103633e-01 -2.071863231567334e-02  2.040064008465053e-18
-8.001224800970361e-02  1.059402069643973e-02  1.315063681246144e-18
-1.152628973311843e-01  1.526138247871856e-02  1.894435587624794e-18
-1.107100043091987e-01 -2.020250883441117e-02  2.177790025634704e-18
-1.054542980639817e-01 -1.924344056851602e-02  2.074404385737762e-18
-1.289678880246044e-01  1.026274543280123e-02  2.189691424703584e-18
-1.104322948904080e-01  8.787757537008551e-03  1.874983399633022e-18
-1.013100759728907e-01 -3.813839510190620e-03  1.842119464478855e-18
-1.015516397312126e-01 -3.822933229614587e-03  1.846511814369468e-18
-1.296405601496384e-01 -2.993159433008570e-02  2.614644667168880e-18
-1.156512791325624e-01 -2.670172951085494e-02  2.332503036751629e-18
-8.675977969559222e-02  6.844042952653076e-03  1.473673715401266e-18
-1.271133595199826e-01  1.002733404191657e-02  2.159106644325268e-18
-1.304721007720441e-01 -3.847835736957313e-02  2.717257809877961e-18
-1.062966051996220e-01 -3.134860815332145e-02  2.213770445429012e-18
-8.851077983662591e-02 -1.236310551330857e-02  1.702181324658800e-18
-1.219966873527244e-01 -1.704038672803250e-02  2.346160357702730e-18
-3.639901096195763e-02  2.465496385122572e-03  6.224317386672521e-19
-1.418324759156379e-01  9.607059296981028e-03  2.425369048513938e-18
-1.020636751734470e-01 -2.606005800143492e-02  2.084102474760119e-18
-1.021901636070136e-01 -2.609235446645693e-02  2.086685321762020e-18
-9.991289015904697e-02  3.149054442733703e-03  1.745713670352158e-18
-8.096805934988575e-02  2.551951270846072e-03  1.414702826071553e-18
-8.218553101875206e-02 -1.233902498100178e-02  1.589368558193147e-18
-9.085159937896856e-02 -1.364011572846415e-02  1.756959816704793e-18
-1.142113097367106e-01  1.269830834020160e-02  1.902055987683675e-18
-1.058622457550728e-01  1.177003784724155e-02  1.763012077107417e-18
-1.127209055196007e-01 -2.713241651269085e-02  2.284778695320378e-18
-1.112602259899673e-01 -2.678082454129133e-02  2.255171680946131e-18
-9.095262909148819e-02  5.190302133064867e-03  1.565282057977493e-18
-1.052758214201601e-01  6.007669332214496e-03  1.811782199743371e-18
-9.512697122318835e-02 -2.417031430825524e-02  1.941239123607772e-18
-1.014559121149535e-01 -2.577840177940397e-02  2.070392690804504e-18
-8.228523616208462e-02  9.636829794298325e-03  1.365349005535562e-18
-8.823168902800527e-02  1.033324821419343e-02  1.464017781194857e-18
-1.089882077515697e-01 -2.076292799263463e-02  2.152906705324886e-18
-1.215445470839609e-01 -2.315498833372938e-02  2.400939292526051e-18
-6.346417483179291e-02 -1.163472267569404e-02  1.248963242870067e-18
-7.258489545982480e-02 -1.330680074794329e-02  1.428457340809430e-18
-1.043759211467212e-01  2.763350540695779e-02  1.573569791318257e-18
-8.783233636768041e-02  2.325359446179390e-02  1.324158960137978e-18
-9.685823595213108e-02 -1.251883222024436e-03  1.736570490787082e-18
-1.007520453663697e-01 -1.302210327691064e-03  1.806382566745779e-18
-1.332662008615634e-01  2.485310746531989e-02  2.116274359228120e-18
-1.003001975532496e-01  1.870520486415917e-02  1.592772472954003e-18
-8.603113072609313e-02 -4.755758475145133e-03  1.579890283619129e-18
-1.456342808769125e-01 -8.050591218627081e-03  2.674452647284672e-18
-1.360250687577068e-01  1.139910502903433e-02  2.303606691914731e-18
-1.108460998249900e-01  9.289069621531041e-03  1.877196752492198e-18
-9.957184291038976e-02 -2.175820131501074e-02  1.995557332562566e-18
-9.712365818222736e-02 -2.122322983497466e-02  1.946492327406952e-18
-7.443588401276149e-02  1.715612792130886e-02  1.148402364283419e-18
-1.261663683687795e-01  2.907907098585227e-02  1.946504131030658e-18
-1.609335355371476e-01 -4.514364202890495e-02  3.327838755804716e-18
-9.541030434395401e-02 -2.676364879946436e-02  1.972926944276594e-18
-1.057950616586429e-01 -3.806593139932653e-03  1.921860680819397e-18
-1.277212906364432e-01 -4.595516852466529e-03  2.320169984584847e-18
-1.129703080340359e-01  5.512800286342836e-03  1.953799367027700e-18
-1.097231619289861e-01  5.354343889354675e-03  1.897640610668626e-18
-8.689694901245269e-02 -1.913366324195476e-02  1.743026301207129e-18
-1.201984313869793e-01 -2.646624921250217e-02  2.411005560636218e-18
-8.038211828186521e-02  4.398048161541078e-03  1.385307330912707e-18
-1.059226439615798e-01  5.795479137626756e-03  1.825473355592540e-18
-6.287766759258556e-02 -1.027308923031441e-02  1.224535357928481e-18
-9.121250939200028e-02 -1.490249692428801e-02  1.776353149095795e-18
-8.962789355540787e-02  1.779511516321319e-02  1.412196933995009e-18
-9.882950035419019e-02  1.962204254235227e-02  1.557179487903129e-18
-1.167160529474011e-01  3.356716790793068e-04  2.073652481583968e-18
-9.204094572072781e-02  2.647068506338826e-04  1.635258652784765e-18
-1.178416841918246e-01 -2.522160857361577e-02  2.356276202646465e-18
-1.094234386806818e-01 -2.341985485111281e-02  2.187951117155900e-18
-9.422112611455856e-02  8.528669528673628e-03  1.589148349051062e-18
-1.300030387554876e-01  1.176756212742383e-02  2.192651721851820e-18

TENSORS stress double
0.000000000000000e+00 0.000000000000000e+00 0.000000000000000e+00
0.000000000000000e+00 0.000000000000000e+00 0.000000000000000e+00
0.000000000000000e+00 0.000000000000000e+00 0.000000000000000e+00

0.000000000000000e+00 0.000000000000000e+00 0.000000000000000e+00
0.000000000000000e+00 0.000000000000000e+00 0.000000000000000e+00
0.000000000000000e+00 0.000000000000000e+00 0.000000000000000e+00

0.000000000000000e+00 0.000000000000000e+00 0.000000000000000e+00
0.000000000000000e+00 0.000000000000000e+00 0.000000000000000e+00
0.000000000000000e+00 0.000000000000000e+00 0.000000000000000e+00

0.000000000000000e+00 0.000000000000000e+00 0.000000000000000e+00
0.000000000000000e+00 0.000000000000000e+00 0.000000000000000e+00
0.000000000000000e+00 0.000000000000000e+00 0.000000000000000e+00

0.000000000000000e+00 0.000000000000000e+00 0.000000000000000e+00
0.000000000000000e+00 0.000000000000000e+00 0.000000000000000e+00
0.000000000000000e+00 0.000000000000000e+00 0.000000000000000e+00

0.000000000000000e+00 0.000000000000000e+00 0.000000000000000e+00
0.000000000000000e+00 0.000000000000000e+00 0.000000000000000e+00
0.000000000000000e+00 0.000000000000000e+00 0.000000000000000e+00

0.000000000000000e+00 0.000000000000000e+00 0.000000000000000e+00
0.000000000000000e+00 0.000000000000000e+00 0.000000000000000e+00
0.000000000000000e+00 0.000000000000000e+00 0.000000000000000e+00

0.000000000000000e+00 0.000000000000000e+00 0.000000000000000e+00
0.000000000000000e+00 0.000000000000000e+00 0.000000000000000e+00
0.000000000000000e+00 0.000000000000000e+00 0.000000000000000e+00

0.000000000000000e+00 0.000000000000000e+00 0.000000000000000e+00
0.000000000000000e+00 0.000000000000000e+00 0.000000000000000e+00
0.000000000000000e+00 0.000000000000000e+00 0.000000000000000e+00

0.000000000000000e+00 0.000000000000000e+00 0.000000000000000e+00
0.000000000000000e+00 0.000000000000000e+00 0.000000000000000e+00
0.000000000000000e+00 0.000000000000000e+00 0.000000000000000e+00

0.000000000000000e+00 0.000000000000000e+00 0.000000000000000e+00
0.000000000000000e+00 0.000000000000000e+00 0.000000000000000e+00
0.000000000000000e+00 0.000000000000000e+00 0.000000000000000e+00

0.000000000000000e+00 0.000000000000000e+00 0.000000000000000e+00
0.000000000000000e+00 0.000000000000000e+00 0.000000000000000e+00
0.000000000000000e+00 0.000000000000000e+00 0.000000000000000e+00

0.000000000000000e+00 0.000000000000000e+00 0.000000000000000e+00
0.000000000000000e+00 0.000000000000000e+00 0.000000000000000e+00
0.000000000000000e+00 0.000000000000000e+00 0.000000000000000e+00

0.000000000000000e+00 0.000000000000000e+00 0.000000000000000e+00
0.000000000000000e+00 0.000000000000000e+00 0.000000000000000e+00
0.000000000000000e+00 0.000000000000000e+00 0.000000000000000e+00

0.000000000000000e+00 0.000000000000000e+00 0.000000000000000e+00
0.000000000000000e+00 0.000000000000000e+00 0.000000000000000e+00
0.000000000000000e+00 0.000000000000000e+00 0.000000000000000e+00

0.000000000000000e+00 0.000000000000000e+00 0.000000000000000e+00
0.000000000000000e+00 0.000000000000000e+00 0.000000000000000e+00
0.000000000000000e+00 0.000000000000000e+00 0.000000000000000e+00

0.000000000000000e+00 0.000000000000000e+00 0.000000000000000e+00
0.000000000000000e+00 0.000000000000000e+00 0.000000000000000e+00
0.000000000000000e+00 0.000000000000000e+00 0.000000000000000e+00

0.000000000000000e+00 0.000000000000000e+00 0.000000000000000e+00
0.000000000000000e+00 0.000000000000000e+00 0.000000000000000e+00
0.000000000000000e+00 0.000000000000000e+00 0.000000000000000e+00

0.000000000000000e+00 0.000000000000000e+00 0.000000000000000e+00
0.000000000000000e+00 0.000000000000000e+00 0.000000000000000e+00
0.000000000000000e+00 0.000000000000000e+00 0.000000000000000e+00

0.000000000000000e+00 0.000000000000000e+00 0.000000000000000e+00
0.000000000000000e+00 0.000000000000000e+00 0.000000000000000e+00
0.000000000000000e+00 0.000000000000000e+00 0.000000000000000e+00

0.000000000000000e+00 0.000000000000000e+00 0.000000000000000e+00
0.000000000000000e+00 0.000000000000000e+00 0.000000000000000e+00
0.000000000000000e+00 0.000000000000000e+00 0.000000000000000e+00

0.000000000000000e+00 0.000000000000000e+00 0.000000000000000e+00
0.000000000000000e+00 0.000000000000000e+00 0.000000000000000e+00
0.000000000000000e+00 0.000000000000000e+00 0.000000000000000e+00

0.000000000000000e+00 0.000000000000000e+00 0.000000000000000e+00
0.000000000000000e+00 0.000000000000000e+00 0.000000000000000e+00
0.000000000000000e+00 0.000000000000000e+00 0.000000000000000e+00

0.000000000000000e+00 0.000000000000000e+00 0.000000000000000e+00
0.000000000000000e+00 0.000000000000000e+00 0.000000000000000e+00
0.000000000000000e+00 0.000000000000000e+00 0.000000000000000e+00

0.000000000000000e+00 0.000000000000000e+00 0.000000000000000e+00
0.000000000000000e+00 0.000000000000000e+00 0.000000000000000e+00
0.000000000000000e+00 0.000000000000000e+00 0.000000000000000e+00

0.000000000000000e+00 0.000000000000000e+00 0.000000000000000e+00
0.000000000000000e+00 0.000000000000000e+00 0.000000000000000e+00
0.000000000000000e+00 0.000000000000000e+00 0.000000000000000e+00

0.000000000000000e+00 0.000000000000000e+00 0.000000000000000e+00
0.000000000000000e+00 0.000000000000000e+00 0.000000000000000e+00
0.000000000000000e+00 0.000000000000000e+00 0.000000000000000e+00

0.000000000000000e+00 0.000000000000000e+00 0.000000000000000e+00
0.000000000000000e+00 0.000000000000000e+00 0.000000000000000e+00
0.000000000000000e+00 0.000000000000000e+00 0.000000000000000e+00

0.000000000000000e+00 0.000000000000000e+00 0.000000000000000e+00
0.000000000000000e+00 0.000000000000000e+00 0.000000000000000e+00
0.000000000000000e+00 0.000000000000000e+00 0.000000000000000e+00

0.000000000000000e+00 0.000000000000000e+00 0.000000000000000e+00
0.000000000000000e+00 0.000000000000000e+00 0.000000000000000e+00
0.000000000000000e+00 0.000000000000000e+00 0.000000000000000e+00

0.000000000000000e+00 0.000000000000000e+00 0.000000000000000e+00
0.000000000000000e+00 0.000000000000000e+00 0.000000000000000e+00
0.000000000000000e+00 0.000000000000000e+00 0.000000000000000e+00

0.000000000000000e+00 0.000000000000000e+00 0.000000000000000e+00
0.000000000000000e+00 0.000000000000000e+00 0.000000000000000e+00
0.000000000000000e+00 0.000000000000000e+00 0.000000000000000e+00

0.000000000000000e+00 0.000000000000000e+00 0.000000000000000e+00
0.000000000000000e+00 0.000000000000000e+00 0.000000000000000e+00
0.000000000000000e+00 0.000000000000000e+00 0.000000000000000e+00

0.000000000000000e+00 0.000000000000000e+00 0.000000000000000e+00
0.000000000000000e+00 0.000000000000000e+00 0.000000000000000e+00
0.000000000000000e+00 0.000000000000000e+00 0.000000000000000e+00

0.000000000000000e+00 0.000000000000000e+00 0.000000000000000e+00
0.000000000000000e+00 0.000000000000000e+00 0.000000000000000e+00
0.000000000000000e+00 0.000000000000000e+00 0.000000000000000e+00

0.000000000000000e+00 0.000000000000000e+00 0.000000000000000e+00
0.000000000000000e+00 0.000000000000000e+00 0.000000000000000e+00
0.000000000000000e+00 0.000000000000000e+00 0.000000000000000e+00

0.000000000000000e+00 0.000000000000000e+00 0.000000000000000e+00
0.000000000000000e+00 0.000000000000000e+00 0.000000000000000e+00
0.000000000000000e+00 0.000000000000000e+00 0.000000000000000e+00

0.000000000000000e+00 0.000000000000000e+00 0.000000000000000e+00
0.000000000000000e+00 0.000000000000000e+00 0.000000000000000e+00
0.000000000000000e+00 0.000000000000000e+00 0.000000000000000e+00

0.000000000000000e+00 0.000000000000000e+00 0.000000000000000e+00
0.000000000000000e+00 0.000000000000000e+00 0.000000000000000e+00
0.000000000000000e+00 0.000000000000000e+00 0.000000000000000e+00

0.000000000000000e+00 0.000000000000000e+00 0.000000000000000e+00
0.000000000000000e+00 0.000000000000000e+00 0.000000000000000e+00
0.000000000000000e+00 0.000000000000000e+00 0.000000000000000e+00

0.000000000000000e+00 0.000000000000000e+00 0.000000000000000e+00
0.000000000000000e+00 0.000000000000000e+00 0.000000000000000e+00
0.000000000000000e+00 0.000000000000000e+00 0.000000000000000e+00

0.000000000000000e+00 0.000000000000000e+00 0.000000000000000e+00
0.000000000000000e+00 0.000000000000000e+00 0.000000000000000e+00
0.000000000000000e+00 0.000000000000000e+00 0.000000000000000e+00

0.000000000000000e+00 0.000000000000000e+00 0.000000000000000e+00
0.000000000000000e+00 0.000000000000000e+00 0.000000000000000e+00
0.000000000000000e+00 0.000000000000000e+00 0.000000000000000e+00

0.000000000000000e+00 0.000000000000000e+00 0.000000000000000e+00
0.000000000000000e+00 0.000000000000000e+00 0.000000000000000e+00
0.000000000000000e+00 0.000000000000000e+00 0.000000000000000e+00

0.000000000000000e+00 0.000000000000000e+00 0.000000000000000e+00
0.000000000000000e+00 0.000000000000000e+00 0.000000000000000e+00
0.000000000000000e+00 0.000000000000000e+00 0.000000000000000e+00

0.000000000000000e+00 0.000000000000000e+00 0.000000000000000e+00
0.000000000000000e+00 0.000000000000000e+00 0.000000000000000e+00
0.000000000000000e+00 0.000000000000000e+00 0.000000000000000e+00

0.000000000000000e+00 0.000000000000000e+00 0.000000000000000e+00
0.000000000000000e+00 0.000000000000000e+00 0.000000000000000e+00
0.000000000000000e+00 0.000000000000000e+00 0.000000000000000e+00

0.000000000000000e+00 0.000000000000000e+00 0.000000000000000e+00
0.000000000000000e+00 0.000000000000000e+00 0.000000000000000e+00
0.000000000000000e+00 0.000000000000000e+00 0.000000000000000e+00

0.000000000000000e+00 0.000000000000000e+00 0.000000000000000e+00
0.000000000000000e+00 0.000000000000000e+00 0.000000000000000e+00
0.000000000000000e+00 0.000000000000000e+00 0.000000000000000e+00

0.000000000000000e+00 0.000000000000000e+00 0.000000000000000e+00
0.000000000000000e+00 0.000000000000000e+00 0.000000000000000e+00
0.000000000000000e+00 0.000000000000000e+00 0.000000000000000e+00

0.000000000000000e+00 0.000000000000000e+00 0.000000000000000e+00
0.000000000000000e+00 0.000000000000000e+00 0.000000000000000e+00
0.000000000000000e+00 0.000000000000000e+00 0.000000000000000e+00

0.000000000000000e+00 0.000000000000000e+00 0.000000000000000e+00
0.000000000000000e+00 0.000000000000000e+00 0.000000000000000e+00
0.000000000000000e+00 0.000000000000000e+00 0.000000000000000e+00

0.000000000000000e+00 0.000000000000000e+00 0.000000000000000e+00
0.000000000000000e+00 0.000000000000000e+00 0.000000000000000e+00
0.000000000000000e+00 0.000000000000000e+00 0.000000000000000e+00

0.000000000000000e+00 0.000000000000000e+00 0.000000000000000e+00
0.000000000000000e+00 0.000000000000000e+00 0.000000000000000e+00
0.000000000000000e+00 0.000000000000000e+00 0.000000000000000e+00

0.000000000000000e+00 0.000000000000000e+00 0.000000000000000e+00
0.000000000000000e+00 0.000000000000000e+00 0.000000000000000e+00
0.000000000000000e+00 0.000000000000000e+00 0.000000000000000e+00

0.000000000000000e+00 0.000000000000000e+00 0.000000000000000e+00
0.000000000000000e+00 0.000000000000000e+00 0.000000000000000e+00
0.000000000000000e+00 0.000000000000000e+00 0.000000000000000e+00

0.000000000000000e+00 0.000000000000000e+00 0.000000000000000e+00
0.000000000000000e+00 0.000000000000000e+00 0.000000000000000e+00
0.000000000000000e+00 0.000000000000000e+00 0.000000000000000e+00

0.000000000000000e+00 0.000000000000000e+00 0.000000000000000e+00
0.000000000000000e+00 0.000000000000000e+00 0.000000000000000e+00
0.000000000000000e+00 0.000000000000000e+00 0.000000000000000e+00

0.000000000000000e+00 0.000000000000000e+00 0.000000000000000e+00
0.000000000000000e+00 0.000000000000000e+00 0.000000000000000e+00
0.000000000000000e+00 0.000000000000000e+00 0.000000000000000e+00

0.000000000000000e+00 0.000000000000000e+00 0.000000000000000e+00
0.000000000000000e+00 0.000000000000000e+00 0.000000000000000e+00
0.000000000000000e+00 0.000000000000000e+00 0.000000000000000e+00

0.000000000000000e+00 0.000000000000000e+00 0.000000000000000e+00
0.000000000000000e+00 0.000000000000000e+00 0.000000000000000e+00
0.000000000000000e+00 0.000000000000000e+00 0.000000000000000e+00

0.000000000000000e+00 0.000000000000000e+00 0.000000000000000e+00
0.000000000000000e+00 0.000000000000000e+00 0.000000000000000e+00
0.000000000000000e+00 0.000000000000000e+00 0.000000000000000e+00

0.000000000000000e+00 0.000000000000000e+00 0.000000000000000e+00
0.000000000000000e+00 0.000000000000000e+00 0.000000000000000e+00
0.000000000000000e+00 0.000000000000000e+00 0.000000000000000e+00

0.000000000000000e+00 0.000000000000000e+00 0.000000000000000e+00
0.000000000000000e+00 0.000000000000000e+00 0.000000000000000e+00
0.000000000000000e+00 0.000000000000000e+00 0.000000000000000e+00

0.000000000000000e+00 0.000000000000000e+00 0.000000000000000e+00
0.000000000000000e+00 0.000000000000000e+00 0.000000000000000e+00
0.000000000000000e+00 0.000000000000000e+00 0.000000000000000e+00

0.000000000000000e+00 0.000000000000000e+00 0.000000000000000e+00
0.000000000000000e+00 0.000000000000000e+00 0.000000000000000e+00
0.000000000000000e+00 0.000000000000000e+00 0.000000000000000e+00

0.000000000000000e+00 0.000000000000000e+00 0.000000000000000e+00
0.000000000000000e+00 0.000000000000000e+00 0.000000000000000e+00
0.000000000000000e+00 0.000000000000000e+00 0.000000000000000e+00

0.000000000000000e+00 0.000000000000000e+00 0.000000000000000e+00
0.000000000000000e+00 0.000000000000000e+00 0.000000000000000e+00
0.000000000000000e+00 0.000000000000000e+00 0.000000000000000e+00

0.000000000000000e+00 0.000000000000000e+00 0.000000000000000e+00
0.000000000000000e+00 0.000000000000000e+00 0.000000000000000e+00
0.000000000000000e+00 0.000000000000000e+00 0.000000000000000e+00

0.000000000000000e+00 0.000000000000000e+00 0.000000000000000e+00
0.000000000000000e+00 0.000000000000000e+00 0.000000000000000e+00
0.000000000000000e+00 0.000000000000000e+00 0.000000000000000e+00

0.000000000000000e+00 0.000000000000000e+00 0.000000000000000e+00
0.000000000000000e+00 0.000000000000000e+00 0.000000000000000e+00
0.000000000000000e+00 0.000000000000000e+00 0.000000000000000e+00

0.000000000000000e+00 0.000000000000000e+00 0.000000000000000e+00
0.000000000000000e+00 0.000000000000000e+00 0.000000000000000e+00
0.000000000000000e+00 0.000000000000000e+00 0.000000000000000e+00

0.000000000000000e+00 0.000000000000000e+00 0.000000000000000e+00
0.000000000000000e+00 0.000000000000000e+00 0.000000000000000e+00
0.000000000000000e+00 0.000000000000000e+00 0.000000000000000e+00

0.000000000000000e+00 0.000000000000000e+00 0.000000000000000e+00
0.000000000000000e+00 0.000000000000000e+00 0.000000000000000e+00
0.000000000000000e+00 0.000000000000000e+00 0.000000000000000e+00

0.000000000000000e+00 0.000000000000000e+00 0.000000000000000e+00
0.000000000000000e+00 0.000000000000000e+00 0.000000000000000e+00
0.000000000000000e+00 0.000000000000000e+00 0.000000000000000e+00

0.000000000000000e+00 0.000000000000000e+00 0.000000000000000e+00
0.000000000000000e+00 0.000000000000000e+00 0.000000000000000e+00
0.000000000000000e+00 0.000000000000000e+00 0.000000000000000e+00

0.000000000000000e+00 0.000000000000000e+00 0.000000000000000e+00
0.000000000000000e+00 0.000000000000000e+00 0.000000000000000e+00
0.000000000000000e+00 0.000000000000000e+00 0.000000000000000e+00

0.000000000000000e+00 0.000000000000000e+00 0.000000000000000e+00
0.000000000000000e+00 0.000000000000000e+00 0.000000000000000e+00
0.000000000000000e+00 0.000000000000000e+00 0.000000000000000e+00

0.000000000000000e+00 0.000000000000000e+00 0.000000000000000e+00
0.000000000000000e+00 0.000000000000000e+00 0.000000000000000e+00
0.000000000000000e+00 0.000000000000000e+00 0.000000000000000e+00

0.000000000000000e+00 0.000000000000000e+00 0.000000000000000e+00
0.000000000000000e+00 0.000000000000000e+00 0.000000000000000e+00
0.000000000000000e+00 0.000000000000000e+00 0.000000000000000e+00

0.000000000000000e+00 0.000000000000000e+00 0.000000000000000e+00
0.000000000000000e+00 0.000000000000000e+00 0.000000000000000e+00
0.000000000000000e+00 0.000000000000000e+00 0.000000000000000e+00

0.000000000000000e+00 0.000000000000000e+00 0.000000000000000e+00
0.000000000000000e+00 0.000000000000000e+00 0.000000000000000e+00
0.000000000000000e+00 0.000000000000000e+00 0.000000000000000e+00

0.000000000000000e+00 0.000000000000000e+00 0.000000000000000e+00
0.000000000000000e+00 0.000000000000000e+00 0.000000000000000e+00
0.000000000000000e+00 0.000000000000000e+00 0.000000000000000e+00

0.000000000000000e+00 0.000000000000000e+00 0.000000000000000e+00
0.000000000000000e+00 0.000000000000000e+00 0.000000000000000e+00
0.000000000000000e+00 0.000000000000000e+00 0.000000000000000e+00

0.000000000000000e+00 0.000000000000000e+00 0.000000000000000e+00
0.000000000000000e+00 0.000000000000000e+00 0.000000000000000e+00
0.000000000000000e+00 0.000000000000000e+00 0.000000000000000e+00

0.000000000000000e+00 0.000000000000000e+00 0.000000000000000e+00
0.000000000000000e+00 0.000000000000000e+00 0.000000000000000e+00
0.000000000000000e+00 0.000000000000000e+00 0.000000000000000e+00

0.000000000000000e+00 0.000000000000000e+00 0.000000000000000e+00
0.000000000000000e+00 0.000000000000000e+00 0.000000000000000e+00
0.000000000000000e+00 0.000000000000000e+00 0.000000000000000e+00

0.000000000000000e+00 0.000000000000000e+00 0.000000000000000e+00
0.000000000000000e+00 0.000000000000000e+00 0.000000000000000e+00
0.000000000000000e+00 0.000000000000000e+00 0.000000000000000e+00

0.000000000000000e+00 0.000000000000000e+00 0.000000000000000e+00
0.000000000000000e+00 0.000000000000000e+00 0.000000000000000e+00
0.000000000000000e+00 0.000000000000000e+00 0.000000000000000e+00

0.000000000000000e+00 0.000000000000000e+00 0.000000000000000e+00
0.000000000000000e+00 0.000000000000000e+00 0.000000000000000e+00
0.000000000000000e+00 0.000000000000000e+00 0.000000000000000e+00

0.000000000000000e+00 0.000000000000000e+00 0.000000000000000e+00
0.000000000000000e+00 0.000000000000000e+00 0.000000000000000e+00
0.000000000000000e+00 0.000000000000000e+00 0.000000000000000e+00

0.000000000000000e+00 0.000000000000000e+00 0.000000000000000e+00
0.000000000000000e+00 0.000000000000000e+00 0.000000000000000e+00
0.000000000000000e+00 0.000000000000000e+00 0.000000000000000e+00

0.000000000000000e+00 0.000000000000000e+00 0.000000000000000e+00
0.000000000000000e+00 0.000000000000000e+00 0.000000000000000e+00
0.000000000000000e+00 0.000000000000000e+00 0.000000000000000e+00

0.000000000000000e+00 0.000000000000000e+00 0.000000000000000e+00
0.000000000000000e+00 0.000000000000000e+00 0.000000000000000e+00
0.000000000000000e+00 0.000000000000000e+00 0.000000000000000e+00

0.000000000000000e+00 0.000000000000000e+00 0.000000000000000e+00
0.000000000000000e+00 0.000000000000000e+00 0.000000000000000e+00
0.000000000000000e+00 0.000000000000000e+00 0.000000000000000e+00

0.000000000000000e+00 0.000000000000000e+00 0.000000000000000e+00
0.000000000000000e+00 0.000000000000000e+00 0.000000000000000e+00
0.000000000000000e+00 0.000000000000000e+00 0.000000000000000e+00

0.000000000000000e+00 0.000000000000000e+00 0.000000000000000e+00
0.000000000000000e+00 0.000000000000000e+00 0.000000000000000e+00
0.000000000000000e+00 0.000000000000000e+00 0.000000000000000e+00

0.000000000000000e+00 0.000000000000000e+00 0.000000000000000e+00
0.000000000000000e+00 0.000000000000000e+00 0.000000000000000e+00
0.000000000000000e+00 0.000000000000000e+00 0.000000000000000e+00

0.000000000000000e+00 0.000000000000000e+00 0.000000000000000e+00
0.000000000000000e+00 0.000000000000000e+00 0.000000000000000e+00
0.000000000000000e+00 0.000000000000000e+00 0.000000000000000e+00

0.000000000000000e+00 0.000000000000000e+00 0.000000000000000e+00
0.000000000000000e+00 0.000000000000000e+00 0.000000000000000e+00
0.000000000000000e+00 0.000000000000000e+00 0.000000000000000e+00

0.000000000000000e+00 0.000000000000000e+00 0.000000000000000e+00
0.000000000000000e+00 0.000000000000000e+00 0.000000000000000e+00
0.000000000000000e+00 0.000000000000000e+00 0.000000000000000e+00

0.000000000000000e+00 0.000000000000000e+00 0.000000000000000e+00
0.000000000000000e+00 0.000000000000000e+00 0.000000000000000e+00
0.000000000000000e+00 0.000000000000000e+00 0.000000000000000e+00

0.000000000000000e+00 0.000000000000000e+00 0.000000000000000e+00
0.000000000000000e+00 0.000000000000000e+00 0.000000000000000e+00
0.000000000000000e+00 0.000000000000000e+00 0.000000000000000e+00

0.000000000000000e+00 0.000000000000000e+00 0.000000000000000e+00
0.000000000000000e+00 0.000000000000000e+00 0.000000000000000e+00
0.000000000000000e+00 0.000000000000000e+00 0.000000000000000e+00

0.000000000000000e+00 0.000000000000000e+00 0.000000000000000e+00
0.000000000000000e+00 0.000000000000000e+00 0.000000000000000e+00
0.000000000000000e+00 0.000000000000000e+00 0.000000000000000e+00

0.000000000000000e+00 0.000000000000000e+00 0.000000000000000e+00
0.000000000000000e+00 0.000000000000000e+00 0.000000000000000e+00
0.000000000000000e+00 0.000000000000000e+00 0.000000000000000e+00

0.000000000000000e+00 0.000000000000000e+00 0.000000000000000e+00
0.000000000000000e+00 0.000000000000000e+00 0.000000000000000e+00
0.000000000000000e+00 0.000000000000000e+00 0.000000000000000e+00

0.000000000000000e+00 0.000000000000000e+00 0.000000000000000e+00
0.000000000000000e+00 0.000000000000000e+00 0.000000000000000e+00
0.000000000000000e+00 0.000000000000000e+00 0.000000000000000e+00

0.000000000000000e+00 0.000000000000000e+00 0.000000000000000e+00
0.000000000000000e+00 0.000000000000000e+00 0.000000000000000e+00
0.000000000000000e+00 0.000000000000000e+00 0.000000000000000e+00

0.000000000000000e+00 0.000000000000000e+00 0.000000000000000e+00
0.000000000000000e+00 0.000000000000000e+00 0.000000000000000e+00
0.000000000000000e+00 0.000000000000000e+00 0.000000000000000e+00

0.000000000000000e+00 0.000000000000000e+00 0.000000000000000e+00
0.000000000000000e+00 0.000000000000000e+00 0.000000000000000e+00
0.000000000000000e+00 0.000000000000000e+00 0.000000000000000e+00

0.000000000000000e+00 0.000000000000000e+00 0.000000000000000e+00
0.000000000000000e+00 0.000000000000000e+00 0.000000000000000e+00
0.000000000000000e+00 0.000000000000000e+00 0.000000000000000e+00

0.000000000000000e+00 0.000000000000000e+00 0.000000000000000e+00
0.000000000000000e+00 0.000000000000000e+00 0.000000000000000e+00
0.000000000000000e+00 0.000000000000000e+00 0.000000000000000e+00

0.000000000000000e+00 0.000000000000000e+00 0.000000000000000e+00
0.000000000000000e+00 0.000000000000000e+00 0.000000000000000e+00
0.000000000000000e+00 0.000000000000000e+00 0.000000000000000e+00

0.000000000000000e+00 0.000000000000000e+00 0.000000000000000e+00
0.000000000000000e+00 0.000000000000000e+00 0.000000000000000e+00
0.000000000000000e+00 0.000000000000000e+00 0.000000000000000e+00

0.000000000000000e+00 0.000000000000000e+00 0.000000000000000e+00
0.000000000000000e+00 0.000000000000000e+00 0.000000000000000e+00
0.000000000000000e+00 0.000000000000000e+00 0.000000000000000e+00

0.000000000000000e+00 0.000000000000000e+00 0.000000000000000e+00
0.000000000000000e+00 0.000000000000000e+00 0.000000000000000e+00
0.000000000000000e+00 0.000000000000000e+00 0.000000000000000e+00

0.000000000000000e+00 0.000000000000000e+00 0.000000000000000e+00
0.000000000000000e+00 0.000000000000000e+00 0.000000000000000e+00
0.000000000000000e+00 0.000000000000000e+00 0.000000000000000e+00

0.000000000000000e+00 0.000000000000000e+00 0.000000000000000e+00
0.000000000000000e+00 0.000000000000000e+00 0.000000000000000e+00
0.000000000000000e+00 0.000000000000000e+00 0.000000000000000e+00

0.000000000000000e+00 0.000000000000000e+00 0.000000000000000e+00
0.000000000000000e+00 0.000000000000000e+00 0.000000000000000e+00
0.000000000000000e+00 0.000000000000000e+00 0.000000000000000e+00

0.000000000000000e+00 0.000000000000000e+00 0.000000000000000e+00
0.000000000000000e+00 0.000000000000000e+00 0.000000000000000e+00
0.000000000000000e+00 0.000000000000000e+00 0.000000000000000e+00

0.000000000000000e+00 0.000000000000000e+00 0.000000000000000e+00
0.000000000000000e+00 0.000000000000000e+00 0.000000000000000e+00
0.000000000000000e+00 0.000000000000000e+00 0.000000000000000e+00

0.000000000000000e+00 0.000000000000000e+00 0.000000000000000e+00
0.000000000000000e+00 0.000000000000000e+00 0.000000000000000e+00
0.000000000000000e+00 0.000000000000000e+00 0.000000000000000e+00

0.000000000000000e+00 0.000000000000000e+00 0.000000000000000e+00
0.000000000000000e+00 0.000000000000000e+00 0.000000000000000e+00
0.000000000000000e+00 0.000000000000000e+00 0.000000000000000e+00

0.000000000000000e+00 0.000000000000000e+00 0.000000000000000e+00
0.000000000000000e+00 0.000000000000000e+00 0.000000000000000e+00
0.000000000000000e+00 0.000000000000000e+00 0.000000000000000e+00

0.000000000000000e+00 0.000000000000000e+00 0.000000000000000e+00
0.000000000000000e+00 0.000000000000000e+00 0.000000000000000e+00
0.000000000000000e+00 0.000000000000000e+00 0.000000000000000e+00

0.000000000000000e+00 0.000000000000000e+00 0.000000000000000e+00
0.000000000000000e+00 0.000000000000000e+00 0.000000000000000e+00
0.000000000000000e+00 0.000000000000000e+00 0.000000000000000e+00

0.000000000000000e+00 0.000000000000000e+00 0.000000000000000e+00
0.000000000000000e+00 0.000000000000000e+00 0.000000000000000e+00
0.000000000000000e+00 0.000000000000000e+00 0.000000000000000e+00

0.000000000000000e+00 0.000000000000000e+00 0.000000000000000e+00
0.000000000000000e+00 0.000000000000000e+00 0.000000000000000e+00
0.000000000000000e+00 0.000000000000000e+00 0.000000000000000e+00

0.000000000000000e+00 0.000000000000000e+00 0.000000000000000e+00
0.000000000000000e+00 0.000000000000000e+00 0.000000000000000e+00
0.000000000000000e+00 0.000000000000000e+00 0.000000000000000e+00

0.000000000000000e+00 0.000000000000000e+00 0.000000000000000e+00
0.000000000000000e+00 0.000000000000000e+00 0.000000000000000e+00
0.000000000000000e+00 0.000000000000000e+00 0.000000000000000e+00

0.000000000000000e+00 0.000000000000000e+00 0.000000000000000e+00
0.000000000000000e+00 0.000000000000000e+00 0.000000000000000e+00
0.000000000000000e+00 0.000000000000000e+00 0.000000000000000e+00

0.000000000000000e+00 0.000000000000000e+00 0.000000000000000e+00
0.000000000000000e+00 0.000000000000000e+00 0.000000000000000e+00
0.000000000000000e+00 0.000000000000000e+00 0.000000000000000e+00

0.000000000000000e+00 0.000000000000000e+00 0.000000000000000e+00
0.000000000000000e+00 0.000000000000000e+00 0.000000000000000e+00
0.000000000000000e+00 0.000000000000000e+00 0.000000000000000e+00

0.000000000000000e+00 0.000000000000000e+00 0.000000000000000e+00
0.000000000000000e+00 0.000000000000000e+00 0.000000000000000e+00
0.000000000000000e+00 0.000000000000000e+00 0.000000000000000e+00

0.000000000000000e+00 0.000000000000000e+00 0.000000000000000e+00
0.000000000000000e+00 0.000000000000000e+00 0.000000000000000e+00
0.000000000000000e+00 0.000000000000000e+00 0.000000000000000e+00

0.000000000000000e+00 0.000000000000000e+00 0.000000000000000e+00
0.000000000000000e+00 0.000000000000000e+00 0.000000000000000e+00
0.000000000000000e+00 0.000000000000000e+00 0.000000000000000e+00

0.000000000000000e+00 0.000000000000000e+00 0.000000000000000e+00
0.000000000000000e+00 0.000000000000000e+00 0.000000000000000e+00
0.000000000000000e+00 0.000000000000000e+00 0.000000000000000e+00

0.000000000000000e+00 0.000000000000000e+00 0.000000000000000e+00
0.000000000000000e+00 0.000000000000000e+00 0.000000000000000e+00
0.000000000000000e+00 0.000000000000000e+00 0.000000000000000e+00

0.000000000000000e+00 0.000000000000000e+00 0.000000000000000e+00
0.000000000000000e+00 0.000000000000000e+00 0.000000000000000e+00
0.000000000000000e+00 0.000000000000000e+00 0.000000000000000e+00

0.000000000000000e+00 0.000000000000000e+00 0.000000000000000e+00
0.000000000000000e+00 0.000000000000000e+00 0.000000000000000e+00
0.000000000000000e+00 0.000000000000000e+00 0.000000000000000e+00

0.000000000000000e+00 0.000000000000000e+00 0.000000000000000e+00
0.000000000000000e+00 0.000000000000000e+00 0.000000000000000e+00
0.000000000000000e+00 0.000000000000000e+00 0.000000000000000e+00

0.000000000000000e+00 0.000000000000000e+00 0.000000000000000e+00
0.000000000000000e+00 0.000000000000000e+00 0.000000000000000e+00
0.000000000000000e+00 0.000000000000000e+00 0.000000000000000e+00

0.000000000000000e+00 0.000000000000000e+00 0.000000000000000e+00
0.000000000000000e+00 0.000000000000000e+00 0.000000000000000e+00
0.000000000000000e+00 0.000000000000000e+00 0.000000000000000e+00

0.000000000000000e+00 0.000000000000000e+00 0.000000000000000e+00
0.000000000000000e+00 0.000000000000000e+00 0.000000000000000e+00
0.000000000000000e+00 0.000000000000000e+00 0.000000000000000e+00

0.000000000000000e+00 0.000000000000000e+00 0.000000000000000e+00
0.000000000000000e+00 0.000000000000000e+00 0.000000000000000e+00
0.000000000000000e+00 0.000000000000000e+00 0.000000000000000e+00

0.000000000000000e+00 0.000000000000000e+00 0.000000000000000e+00
0.000000000000000e+00 0.000000000000000e+00 0.000000000000000e+00
0.000000000000000e+00 0.000000000000000e+00 0.000000000000000e+00

0.000000000000000e+00 0.000000000000000e+00 0.000000000000000e+00
0.000000000000000e+00 0.000000000000000e+00 0.000000000000000e+00
0.000000000000000e+00 0.000000000000000e+00 0.000000000000000e+00

0.000000000000000e+00 0.000000000000000e+00 0.000000000000000e+00
0.000000000000000e+00 0.000000000000000e+00 0.000000000000000e+00
0.000000000000000e+00 0.000000000000000e+00 0.000000000000000e+00

0.000000000000000e+00 0.000000000000000e+00 0.000000000000000e+00
0.000000000000000e+00 0.000000000000000e+00 0.000000000000000e+00
0.000000000000000e+00 0.000000000000000e+00 0.000000000000000e+00

0.000000000000000e+00 0.000000000000000e+00 0.000000000000000e+00
0.000000000000000e+00 0.000000000000000e+00 0.000000000000000e+00
0.000000000000000e+00 0.000000000000000e+00 0.000000000000000e+00

0.000000000000000e+00 0.000000000000000e+00 0.000000000000000e+00
0.000000000000000e+00 0.000000000000000e+00 0.000000000000000e+00
0.000000000000000e+00 0.000000000000000e+00 0.000000000000000e+00

0.000000000000000e+00 0.000000000000000e+00 0.000000000000000e+00
0.000000000000000e+00 0.000000000000000e+00 0.000000000000000e+00
0.000000000000000e+00 0.000000000000000e+00 0.000000000000000e+00

0.000000000000000e+00 0.000000000000000e+00 0.000000000000000e+00
0.000000000000000e+00 0.000000000000000e+00 0.000000000000000e+00
0.000000000000000e+00 0.000000000000000e+00 0.000000000000000e+00

0.000000000000000e+00 0.000000000000000e+00 0.000000000000000e+00
0.000000000000000e+00 0.000000000000000e+00 0.000000000000000e+00
0.000000000000000e+00 0.000000000000000e+00 0.000000000000000e+00

0.000000000000000e+00 0.000000000000000e+00 0.000000000000000e+00
0.000000000000000e+00 0.000000000000000e+00 0.000000000000000e+00
0.000000000000000e+00 0.000000000000000e+00 0.000000000000000e+00

0.000000000000000e+00 0.000000000000000e+00 0.000000000000000e+00
0.000000000000000e+00 0.000000000000000e+00 0.000000000000000e+00
0.000000000000000e+00 0.000000000000000e+00 0.000000000000000e+00

0.000000000000000e+00 0.000000000000000e+00 0.000000000000000e+00
0.000000000000000e+00 0.000000000000000e+00 0.000000000000000e+00
0.000000000000000e+00 0.000000000000000e+00 0.000000000000000e+00

0.000000000000000e+00 0.000000000000000e+00 0.000000000000000e+00
0.000000000000000e+00 0.000000000000000e+00 0.000000000000000e+00
0.000000000000000e+00 0.000000000000000e+00 0.000000000000000e+00

0.000000000000000e+00 0.000000000000000e+00 0.000000000000000e+00
0.000000000000000e+00 0.000000000000000e+00 0.000000000000000e+00
0.000000000000000e+00 0.000000000000000e+00 0.000000000000000e+00

0.000000000000000e+00 0.000000000000000e+00 0.000000000000000e+00
0.000000000000000e+00 0.000000000000000e+00 0.000000000000000e+00
0.000000000000000e+00 0.000000000000000e+00 0.000000000000000e+00

0.000000000000000e+00 0.000000000000000e+00 0.000000000000000e+00
0.000000000000000e+00 0.000000000000000e+00 0.000000000000000e+00
0.000000000000000e+00 0.000000000000000e+00 0.000000000000000e+00

0.000000000000000e+00 0.000000000000000e+00 0.000000000000000e+00
0.000000000000000e+00 0.000000000000000e+00 0.000000000000000e+00
0.000000000000000e+00 0.000000000000000e+00 0.000000000000000e+00

0.000000000000000e+00 0.000000000000000e+00 0.000000000000000e+00
0.000000000000000e+00 0.000000000000000e+00 0.000000000000000e+00
0.000000000000000e+00 0.000000000000000e+00 0.000000000000000e+00

0.000000000000000e+00 0.000000000000000e+00 0.000000000000000e+00
0.000000000000000e+00 0.000000000000000e+00 0.000000000000000e+00
0.000000000000000e+00 0.000000000000000e+00 0.000000000000000e+00

0.000000000000000e+00 0.000000000000000e+00 0.000000000000000e+00
0.000000000000000e+00 0.000000000000000e+00 0.000000000000000e+00
0.000000000000000e+00 0.000000000000000e+00 0.000000000000000e+00

0.000000000000000e+00 0.000000000000000e+00 0.000000000000000e+00
0.000000000000000e+00 0.000000000000000e+00 0.000000000000000e+00
0.000000000000000e+00 0.000000000000000e+00 0.000000000000000e+00

0.000000000000000e+00 0.000000000000000e+00 0.000000000000000e+00
0.000000000000000e+00 0.000000000000000e+00 0.000000000000000e+00
0.000000000000000e+00 0.000000000000000e+00 0.000000000000000e+00

0.000000000000000e+00 0.000000000000000e+00 0.000000000000000e+00
0.000000000000000e+00 0.000000000000000e+00 0.000000000000000e+00
0.000000000000000e+00 0.000000000000000e+00 0.000000000000000e+00

0.000000000000000e+00 0.000000000000000e+00 0.000000000000000e+00
0.000000000000000e+00 0.000000000000000e+00 0.000000000000000e+00
0.000000000000000e+00 0.000000000000000e+00 0.000000000000000e+00

0.000000000000000e+00 0.000000000000000e+00 0.000000000000000e+00
0.000000000000000e+00 0.000000000000000e+00 0.000000000000000e+00
0.000000000000000e+00 0.000000000000000e+00 0.000000000000000e+00

0.000000000000000e+00 0.000000000000000e+00 0.000000000000000e+00
0.000000000000000e+00 0.000000000000000e+00 0.000000000000000e+00
0.000000000000000e+00 0.000000000000000e+00 0.000000000000000e+00

0.000000000000000e+00 0.000000000000000e+00 0.000000000000000e+00
0.000000000000000e+00 0.000000000000000e+00 0.000000000000000e+00
0.000000000000000e+00 0.000000000000000e+00 0.000000000000000e+00

0.000000000000000e+00 0.000000000000000e+00 0.000000000000000e+00
0.000000000000000e+00 0.000000000000000e+00 0.000000000000000e+00
0.000000000000000e+00 0.000000000000000e+00 0.000000000000000e+00

0.000000000000000e+00 0.000000000000000e+00 0.000000000000000e+00
0.000000000000000e+00 0.000000000000000e+00 0.000000000000000e+00
0.000000000000000e+00 0.000000000000000e+00 0.000000000000000e+00

0.000000000000000e+00 0.000000000000000e+00 0.000000000000000e+00
0.000000000000000e+00 0.000000000000000e+00 0.000000000000000e+00
0.000000000000000e+00 0.000000000000000e+00 0.000000000000000e+00

0.000000000000000e+00 0.000000000000000e+00 0.000000000000000e+00
0.000000000000000e+00 0.000000000000000e+00 0.000000000000000e+00
0.000000000000000e+00 0.000000000000000e+00 0.000000000000000e+00

0.000000000000000e+00 0.000000000000000e+00 0.000000000000000e+00
0.000000000000000e+00 0.000000000000000e+00 0.000000000000000e+00
0.000000000000000e+00 0.000000000000000e+00 0.000000000000000e+00

0.000000000000000e+00 0.000000000000000e+00 0.000000000000000e+00
0.000000000000000e+00 0.000000000000000e+00 0.000000000000000e+00
0.000000000000000e+00 0.000000000000000e+00 0.000000000000000e+00

0.000000000000000e+00 0.000000000000000e+00 0.000000000000000e+00
0.000000000000000e+00 0.000000000000000e+00 0.000000000000000e+00
0.000000000000000e+00 0.000000000000000e+00 0.000000000000000e+00

0.000000000000000e+00 0.000000000000000e+00 0.000000000000000e+00
0.000000000000000e+00 0.000000000000000e+00 0.000000000000000e+00
0.000000000000000e+00 0.000000000000000e+00 0.000000000000000e+00

0.000000000000000e+00 0.000000000000000e+00 0.000000000000000e+00
0.000000000000000e+00 0.000000000000000e+00 0.000000000000000e+00
0.000000000000000e+00 0.000000000000000e+00 0.000000000000000e+00

0.000000000000000e+00 0.000000000000000e+00 0.000000000000000e+00
0.000000000000000e+00 0.000000000000000e+00 0.000000000000000e+00
0.000000000000000e+00 0.000000000000000e+00 0.000000000000000e+00

0.000000000000000e+00 0.000000000000000e+00 0.000000000000000e+00
0.000000000000000e+00 0.000000000000000e+00 0.000000000000000e+00
0.000000000000000e+00 0.000000000000000e+00 0.000000000000000e+00

0.000000000000000e+00 0.000000000000000e+00 0.000000000000000e+00
0.000000000000000e+00 0.000000000000000e+00 0.000000000000000e+00
0.000000000000000e+00 0.000000000000000e+00 0.000000000000000e+00

0.000000000000000e+00 0.000000000000000e+00 0.000000000000000e+00
0.000000000000000e+00 0.000000000000000e+00 0.000000000000000e+00
0.000000000000000e+00 0.000000000000000e+00 0.000000000000000e+00

0.000000000000000e+00 0.000000000000000e+00 0.000000000000000e+00
0.000000000000000e+00 0.000000000000000e+00 0.000000000000000e+00
0.000000000000000e+00 0.000000000000000e+00 0.000000000000000e+00

0.000000000000000e+00 0.000000000000000e+00 0.000000000000000e+00
0.000000000000000e+00 0.000000000000000e+00 0.000000000000000e+00
0.000000000000000e+00 0.000000000000000e+00 0.000000000000000e+00

0.000000000000000e+00 0.000000000000000e+00 0.000000000000000e+00
0.000000000000000e+00 0.000000000000000e+00 0.000000000000000e+00
0.000000000000000e+00 0.000000000000000e+00 0.000000000000000e+00

0.000000000000000e+00 0.000000000000000e+00 0.000000000000000e+00
0.000000000000000e+00 0.000000000000000e+00 0.000000000000000e+00
0.000000000000000e+00 0.000000000000000e+00 0.000000000000000e+00

0.000000000000000e+00 0.000000000000000e+00 0.000000000000000e+00
0.000000000000000e+00 0.000000000000000e+00 0.000000000000000e+00
0.000000000000000e+00 0.000000000000000e+00 0.000000000000000e+00

0.000000000000000e+00 0.000000000000000e+00 0.000000000000000e+00
0.000000000000000e+00 0.000000000000000e+00 0.000000000000000e+00
0.000000000000000e+00 0.000000000000000e+00 0.000000000000000e+00

0.000000000000000e+00 0.000000000000000e+00 0.000000000000000e+00
0.000000000000000e+00 0.000000000000000e+00 0.000000000000000e+00
0.000000000000000e+00 0.000000000000000e+00 0.000000000000000e+00

0.000000000000000e+00 0.000000000000000e+00 0.000000000000000e+00
0.000000000000000e+00 0.000000000000000e+00 0.000000000000000e+00
0.000000000000000e+00 0.000000000000000e+00 0.000000000000000e+00

0.000000000000000e+00 0.000000000000000e+00 0.000000000000000e+00
0.000000000000000e+00 0.000000000000000e+00 0.000000000000000e+00
0.000000000000000e+00 0.000000000000000e+00 0.000000000000000e+00

0.000000000000000e+00 0.000000000000000e+00 0.000000000000000e+00
0.000000000000000e+00 0.000000000000000e+00 0.000000000000000e+00
0.000000000000000e+00 0.000000000000000e+00 0.000000000000000e+00

0.000000000000000e+00 0.000000000000000e+00 0.000000000000000e+00
0.000000000000000e+00 0.000000000000000e+00 0.000000000000000e+00
0.000000000000000e+00 0.000000000000000e+00 0.000000000000000e+00

0.000000000000000e+00 0.000000000000000e+00 0.000000000000000e+00
0.000000000000000e+00 0.000000000000000e+00 0.000000000000000e+00
0.000000000000000e+00 0.000000000000000e+00 0.000000000000000e+00

0.000000000000000e+00 0.000000000000000e+00 0.000000000000000e+00
0.000000000000000e+00 0.000000000000000e+00 0.000000000000000e+00
0.000000000000000e+00 0.000000000000000e+00 0.000000000000000e+00

0.000000000000000e+00 0.000000000000000e+00 0.000000000000000e+00
0.000000000000000e+00 0.000000000000000e+00 0.000000000000000e+00
0.000000000000000e+00 0.000000000000000e+00 0.000000000000000e+00

0.000000000000000e+00 0.000000000000000e+00 0.000000000000000e+00
0.000000000000000e+00 0.000000000000000e+00 0.000000000000000e+00
0.000000000000000e+00 0.000000000000000e+00 0.000000000000000e+00

0.000000000000000e+00 0.000000000000000e+00 0.000000000000000e+00
0.000000000000000e+00 0.000000000000000e+00 0.000000000000000e+00
0.000000000000000e+00 0.000000000000000e+00 0.000000000000000e+00

0.000000000000000e+00 0.000000000000000e+00 0.000000000000000e+00
0.000000000000000e+00 0.000000000000000e+00 0.000000000000000e+00
0.000000000000000e+00 0.000000000000000e+00 0.000000000000000e+00

0.000000000000000e+00 0.000000000000000e+00 0.000000000000000e+00
0.000000000000000e+00 0.000000000000000e+00 0.000000000000000e+00
0.000000000000000e+00 0.000000000000000e+00 0.000000000000000e+00

0.000000000000000e+00 0.000000000000000e+00 0.000000000000000e+00
0.000000000000000e+00 0.000000000000000e+00 0.000000000000000e+00
0.000000000000000e+00 0.000000000000000e+00 0.000000000000000e+00

0.000000000000000e+00 0.000000000000000e+00 0.000000000000000e+00
0.000000000000000e+00 0.000000000000000e+00 0.000000000000000e+00
0.000000000000000e+00 0.000000000000000e+00 0.000000000000000e+00

0.000000000000000e+00 0.000000000000000e+00 0.000000000000000e+00
0.000000000000000e+00 0.000000000000000e+00 0.000000000000000e+00
0.000000000000000e+00 0.000000000000000e+00 0.000000000000000e+00

0.000000000000000e+00 0.000000000000000e+00 0.000000000000000e+00
0.000000000000000e+00 0.000000000000000e+00 0.000000000000000e+00
0.000000000000000e+00 0.000000000000000e+00 0.000000000000000e+00

0.000000000000000e+00 0.000000000000000e+00 0.000000000000000e+00
0.000000000000000e+00 0.000000000000000e+00 0.000000000000000e+00
0.000000000000000e+00 0.000000000000000e+00 0.000000000000000e+00

0.000000000000000e+00 0.000000000000000e+00 0.000000000000000e+00
0.000000000000000e+00 0.000000000000000e+00 0.000000000000000e+00
0.000000000000000e+00 0.000000000000000e+00 0.000000000000000e+00

0.000000000000000e+00 0.000000000000000e+00 0.000000000000000e+00
0.000000000000000e+00 0.000000000000000e+00 0.000000000000000e+00
0.000000000000000e+00 0.000000000000000e+00 0.000000000000000e+00

0.000000000000000e+00 0.000000000000000e+00 0.000000000000000e+00
0.000000000000000e+00 0.000000000000000e+00 0.000000000000000e+00
0.000000000000000e+00 0.000000000000000e+00 0.000000000000000e+00

0.000000000000000e+00 0.000000000000000e+00 0.000000000000000e+00
0.000000000000000e+00 0.000000000000000e+00 0.000000000000000e+00
0.000000000000000e+00 0.000000000000000e+00 0.000000000000000e+00

0.000000000000000e+00 0.000000000000000e+00 0.000000000000000e+00
0.000000000000000e+00 0.000000000000000e+00 0.000000000000000e+00
0.000000000000000e+00 0.000000000000000e+00 0.000000000000000e+00

0.000000000000000e+00 0.000000000000000e+00 0.000000000000000e+00
0.000000000000000e+00 0.000000000000000e+00 0.000000000000000e+00
0.000000000000000e+00 0.000000000000000e+00 0.000000000000000e+00

0.000000000000000e+00 0.000000000000000e+00 0.000000000000000e+00
0.000000000000000e+00 0.000000000000000e+00 0.000000000000000e+00
0.000000000000000e+00 0.000000000000000e+00 0.000000000000000e+00

0.000000000000000e+00 0.000000000000000e+00 0.000000000000000e+00
0.000000000000000e+00 0.000000000000000e+00 0.000000000000000e+00
0.000000000000000e+00 0.000000000000000e+00 0.000000000000000e+00

0.000000000000000e+00 0.000000000000000e+00 0.000000000000000e+00
0.000000000000000e+00 0.000000000000000e+00 0.000000000000000e+00
0.000000000000000e+00 0.000000000000000e+00 0.000000000000000e+00

0.000000000000000e+00 0.000000000000000e+00 0.000000000000000e+00
0.000000000000000e+00 0.000000000000000e+00 0.000000000000000e+00
0.000000000000000e+00 0.000000000000000e+00 0.000000000000000e+00

0.000000000000000e+00 0.000000000000000e+00 0.000000000000000e+00
0.000000000000000e+00 0.000000000000000e+00 0.000000000000000e+00
0.000000000000000e+00 0.000000000000000e+00 0.000000000000000e+00

0.000000000000000e+00 0.000000000000000e+00 0.000000000000000e+00
0.000000000000000e+00 0.000000000000000e+00 0.000000000000000e+00
0.000000000000000e+00 0.000000000000000e+00 0.000000000000000e+00

0.000000000000000e+00 0.000000000000000e+00 0.000000000000000e+00
0.000000000000000e+00 0.000000000000000e+00 0.000000000000000e+00
0.000000000000000e+00 0.000000000000000e+00 0.000000000000000e+00

0.000000000000000e+00 0.000000000000000e+00 0.000000000000000e+00
0.000000000000000e+00 0.000000000000000e+00 0.000000000000000e+00
0.000000000000000e+00 0.000000000000000e+00 0.000000000000000e+00

0.000000000000000e+00 0.000000000000000e+00 0.000000000000000e+00
0.000000000000000e+00 0.000000000000000e+00 0.000000000000000e+00
0.000000000000000e+00 0.000000000000000e+00 0.000000000000000e+00

0.000000000000000e+00 0.000000000000000e+00 0.000000000000000e+00
0.000000000000000e+00 0.000000000000000e+00 0.000000000000000e+00
0.000000000000000e+00 0.000000000000000e+00 0.000000000000000e+00

0.000000000000000e+00 0.000000000000000e+00 0.000000000000000e+00
0.000000000000000e+00 0.000000000000000e+00 0.000000000000000e+00
0.000000000000000e+00 0.000000000000000e+00 0.000000000000000e+00

0.000000000000000e+00 0.000000000000000e+00 0.000000000000000e+00
0.000000000000000e+00 0.000000000000000e+00 0.000000000000000e+00
0.000000000000000e+00 0.000000000000000e+00 0.000000000000000e+00

0.000000000000000e+00 0.000000000000000e+00 0.000000000000000e+00
0.000000000000000e+00 0.000000000000000e+00 0.000000000000000e+00
0.000000000000000e+00 0.000000000000000e+00 0.000000000000000e+00

0.000000000000000e+00 0.000000000000000e+00 0.000000000000000e+00
0.000000000000000e+00 0.000000000000000e+00 0.000000000000000e+00
0.000000000000000e+00 0.000000000000000e+00 0.000000000000000e+00

0.000000000000000e+00 0.000000000000000e+00 0.000000000000000e+00
0.000000000000000e+00 0.000000000000000e+00 0.000000000000000e+00
0.000000000000000e+00 0.000000000000000e+00 0.000000000000000e+00

0.000000000000000e+00 0.000000000000000e+00 0.000000000000000e+00
0.000000000000000e+00 0.000000000000000e+00 0.000000000000000e+00
0.000000000000000e+00 0.000000000000000e+00 0.000000000000000e+00

0.000000000000000e+00 0.000000000000000e+00 0.000000000000000e+00
0.000000000000000e+00 0.000000000000000e+00 0.000000000000000e+00
0.000000000000000e+00 0.000000000000000e+00 0.000000000000000e+00

0.000000000000000e+00 0.000000000000000e+00 0.000000000000000e+00
0.000000000000000e+00 0.000000000000000e+00 0.000000000000000e+00
0.000000000000000e+00 0.000000000000000e+00 0.000000000000000e+00

0.000000000000000e+00 0.000000000000000e+00 0.000000000000000e+00
0.000000000000000e+00 0.000000000000000e+00 0.000000000000000e+00
0.000000000000000e+00 0.000000000000000e+00 0.000000000000000e+00

0.000000000000000e+00 0.000000000000000e+00 0.000000000000000e+00
0.000000000000000e+00 0.000000000000000e+00 0.000000000000000e+00
0.000000000000000e+00 0.000000000000000e+00 0.000000000000000e+00

0.000000000000000e+00 0.000000000000000e+00 0.000000000000000e+00
0.000000000000000e+00 0.000000000000000e+00 0.000000000000000e+00
0.000000000000000e+00 0.000000000000000e+00 0.000000000000000e+00

0.000000000000000e+00 0.000000000000000e+00 0.000000000000000e+00
0.000000000000000e+00 0.000000000000000e+00 0.000000000000000e+00
0.000000000000000e+00 0.000000000000000e+00 0.000000000000000e+00

0.000000000000000e+00 0.000000000000000e+00 0.000000000000000e+00
0.000000000000000e+00 0.000000000000000e+00 0.000000000000000e+00
0.000000000000000e+00 0.000000000000000e+00 0.000000000000000e+00

0.000000000000000e+00 0.000000000000000e+00 0.000000000000000e+00
0.000000000000000e+00 0.000000000000000e+00 0.000000000000000e+00
0.000000000000000e+00 0.000000000000000e+00 0.000000000000000e+00

0.000000000000000e+00 0.000000000000000e+00 0.000000000000000e+00
0.000000000000000e+00 0.000000000000000e+00 0.000000000000000e+00
0.000000000000000e+00 0.000000000000000e+00 0.000000000000000e+00

0.000000000000000e+00 0.000000000000000e+00 0.000000000000000e+00
0.000000000000000e+00 0.000000000000000e+00 0.000000000000000e+00
0.000000000000000e+00 0.000000000000000e+00 0.000000000000000e+00

0.000000000000000e+00 0.000000000000000e+00 0.000000000000000e+00
0.000000000000000e+00 0.000000000000000e+00 0.000000000000000e+00
0.000000000000000e+00 0.000000000000000e+00 0.000000000000000e+00

0.000000000000000e+00 0.000000000000000e+00 0.000000000000000e+00
0.000000000000000e+00 0.000000000000000e+00 0.000000000000000e+00
0.000000000000000e+00 0.000000000000000e+00 0.000000000000000e+00

0.000000000000000e+00 0.000000000000000e+00 0.000000000000000e+00
0.000000000000000e+00 0.000000000000000e+00 0.000000000000000e+00
0.000000000000000e+00 0.000000000000000e+00 0.000000000000000e+00

0.000000000000000e+00 0.000000000000000e+00 0.000000000000000e+00
0.000000000000000e+00 0.000000000000000e+00 0.000000000000000e+00
0.000000000000000e+00 0.000000000000000e+00 0.000000000000000e+00

0.000000000000000e+00 0.000000000000000e+00 0.000000000000000e+00
0.000000000000000e+00 0.000000000000000e+00 0.000000000000000e+00
0.000000000000000e+00 0.000000000000000e+00 0.000000000000000e+00

0.000000000000000e+00 0.000000000000000e+00 0.000000000000000e+00
0.000000000000000e+00 0.000000000000000e+00 0.000000000000000e+00
0.000000000000000e+00 0.000000000000000e+00 0.000000000000000e+00

0.000000000000000e+00 0.000000000000000e+00 0.000000000000000e+00
0.000000000000000e+00 0.000000000000000e+00 0.000000000000000e+00
0.000000000000000e+00 0.000000000000000e+00 0.000000000000000e+00

0.000000000000000e+00 0.000000000000000e+00 0.000000000000000e+00
0.000000000000000e+00 0.000000000000000e+00 0.000000000000000e+00
0.000000000000000e+00 0.000000000000000e+00 0.000000000000000e+00

0.000000000000000e+00 0.000000000000000e+00 0.000000000000000e+00
0.000000000000000e+00 0.000000000000000e+00 0.000000000000000e+00
0.000000000000000e+00 0.000000000000000e+00 0.000000000000000e+00

0.000000000000000e+00 0.000000000000000e+00 0.000000000000000e+00
0.000000000000000e+00 0.000000000000000e+00 0.000000000000000e+00
0.000000000000000e+00 0.000000000000000e+00 0.000000000000000e+00

0.000000000000000e+00 0.000000000000000e+00 0.000000000000000e+00
0.000000000000000e+00 0.000000000000000e+00 0.000000000000000e+00
0.000000000000000e+00 0.000000000000000e+00 0.000000000000000e+00

0.000000000000000e+00 0.000000000000000e+00 0.000000000000000e+00
0.000000000000000e+00 0.000000000000000e+00 0.000000000000000e+00
0.000000000000000e+00 0.000000000000000e+00 0.000000000000000e+00

0.000000000000000e+00 0.000000000000000e+00 0.000000000000000e+00
0.000000000000000e+00 0.000000000000000e+00 0.000000000000000e+00
0.000000000000000e+00 0.000000000000000e+00 0.000000000000000e+00

0.000000000000000e+00 0.000000000000000e+00 0.000000000000000e+00
0.000000000000000e+00 0.000000000000000e+00 0.000000000000000e+00
0.000000000000000e+00 0.000000000000000e+00 0.000000000000000e+00

0.000000000000000e+00 0.000000000000000e+00 0.000000000000000e+00
0.000000000000000e+00 0.000000000000000e+00 0.000000000000000e+00
0.000000000000000e+00 0.000000000000000e+00 0.000000000000000e+00

0.000000000000000e+00 0.000000000000000e+00 0.000000000000000e+00
0.000000000000000e+00 0.000000000000000e+00 0.000000000000000e+00
0.000000000000000e+00 0.000000000000000e+00 0.000000000000000e+00

0.000000000000000e+00 0.000000000000000e+00 0.000000000000000e+00
0.000000000000000e+00 0.000000000000000e+00 0.000000000000000e+00
0.000000000000000e+00 0.000000000000000e+00 0.000000000000000e+00

0.000000000000000e+00 0.000000000000000e+00 0.000000000000000e+00
0.000000000000000e+00 0.000000000000000e+00 0.000000000000000e+00
0.000000000000000e+00 0.000000000000000e+00 0.000000000000000e+00

0.000000000000000e+00 0.000000000000000e+00 0.000000000000000e+00
0.000000000000000e+00 0.000000000000000e+00 0.000000000000000e+00
0.000000000000000e+00 0.000000000000000e+00 0.000000000000000e+00

0.000000000000000e+00 0.000000000000000e+00 0.000000000000000e+00
0.000000000000000e+00 0.000000000000000e+00 0.000000000000000e+00
0.000000000000000e+00 0.000000000000000e+00 0.000000000000000e+00

0.000000000000000e+00 0.000000000000000e+00 0.000000000000000e+00
0.000000000000000e+00 0.000000000000000e+00 0.000000000000000e+00
0.000000000000000e+00 0.000000000000000e+00 0.000000000000000e+00

0.000000000000000e+00 0.000000000000000e+00 0.000000000000000e+00
0.000000000000000e+00 0.000000000000000e+00 0.000000000000000e+00
0.000000000000000e+00 0.000000000000000e+00 0.000000000000000e+00

0.000000000000000e+00 0.000000000000000e+00 0.000000000000000e+00
0.000000000000000e+00 0.000000000000000e+00 0.000000000000000e+00
0.000000000000000e+00 0.000000000000000e+00 0.000000000000000e+00

0.000000000000000e+00 0.000000000000000e+00 0.000000000000000e+00
0.000000000000000e+00 0.000000000000000e+00 0.000000000000000e+00
0.000000000000000e+00 0.000000000000000e+00 0.000000000000000e+00

0.000000000000000e+00 0.000000000000000e+00 0.000000000000000e+00
0.000000000000000e+00 0.000000000000000e+00 0.000000000000000e+00
0.000000000000000e+00 0.000000000000000e+00 0.000000000000000e+00

0.000000000000000e+00 0.000000000000000e+00 0.000000000000000e+00
0.000000000000000e+00 0.000000000000000e+00 0.000000000000000e+00
0.000000000000000e+00 0.000000000000000e+00 0.000000000000000e+00

0.000000000000000e+00 0.000000000000000e+00 0.000000000000000e+00
0.000000000000000e+00 0.000000000000000e+00 0.000000000000000e+00
0.000000000000000e+00 0.000000000000000e+00 0.000000000000000e+00

0.000000000000000e+00 0.000000000000000e+00 0.000000000000000e+00
0.000000000000000e+00 0.000000000000000e+00 0.000000000000000e+00
0.000000000000000e+00 0.000000000000000e+00 0.000000000000000e+00

0.000000000000000e+00 0.000000000000000e+00 0.000000000000000e+00
0.000000000000000e+00 0.000000000000000e+00 0.000000000000000e+00
0.000000000000000e+00 0.000000000000000e+00 0.000000000000000e+00

0.000000000000000e+00 0.000000000000000e+00 0.000000000000000e+00
0.000000000000000e+00 0.000000000000000e+00 0.000000000000000e+00
0.000000000000000e+00 0.000000000000000e+00 0.000000000000000e+00

0.000000000000000e+00 0.000000000000000e+00 0.000000000000000e+00
0.000000000000000e+00 0.000000000000000e+00 0.000000000000000e+00
0.000000000000000e+00 0.000000000000000e+00 0.000000000000000e+00

0.000000000000000e+00 0.000000000000000e+00 0.000000000000000e+00
0.000000000000000e+00 0.000000000000000e+00 0.000000000000000e+00
0.000000000000000e+00 0.000000000000000e+00 0.000000000000000e+00

0.000000000000000e+00 0.000000000000000e+00 0.000000000000000e+00
0.000000000000000e+00 0.000000000000000e+00 0.000000000000000e+00
0.000000000000000e+00 0.000000000000000e+00 0.000000000000000e+00

0.000000000000000e+00 0.000000000000000e+00 0.000000000000000e+00
0.000000000000000e+00 0.000000000000000e+00 0.000000000000000e+00
0.000000000000000e+00 0.000000000000000e+00 0.000000000000000e+00

0.000000000000000e+00 0.000000000000000e+00 0.000000000000000e+00
0.000000000000000e+00 0.000000000000000e+00 0.000000000000000e+00
0.000000000000000e+00 0.000000000000000e+00 0.000000000000000e+00

0.000000000000000e+00 0.000000000000000e+00 0.000000000000000e+00
0.000000000000000e+00 0.000000000000000e+00 0.000000000000000e+00
0.000000000000000e+00 0.000000000000000e+00 0.000000000000000e+00

0.000000000000000e+00 0.000000000000000e+00 0.000000000000000e+00
0.000000000000000e+00 0.000000000000000e+00 0.000000000000000e+00
0.000000000000000e+00 0.000000000000000e+00 0.000000000000000e+00

0.000000000000000e+00 0.000000000000000e+00 0.000000000000000e+00
0.000000000000000e+00 0.000000000000000e+00 0.000000000000000e+00
0.000000000000000e+00 0.000000000000000e+00 0.000000000000000e+00

0.000000000000000e+00 0.000000000000000e+00 0.000000000000000e+00
0.000000000000000e+00 0.000000000000000e+00 0.000000000000000e+00
0.000000000000000e+00 0.000000000000000e+00 0.000000000000000e+00

0.000000000000000e+00 0.000000000000000e+00 0.000000000000000e+00
0.000000000000000e+00 0.000000000000000e+00 0.000000000000000e+00
0.000000000000000e+00 0.000000000000000e+00 0.000000000000000e+00

0.000000000000000e+00 0.000000000000000e+00 0.000000000000000e+00
0.000000000000000e+00 0.000000000000000e+00 0.000000000000000e+00
0.000000000000000e+00 0.000000000000000e+00 0.000000000000000e+00

0.000000000000000e+00 0.000000000000000e+00 0.000000000000000e+00
0.000000000000000e+00 0.000000000000000e+00 0.000000000000000e+00
0.000000000000000e+00 0.000000000000000e+00 0.000000000000000e+00

0.000000000000000e+00 0.000000000000000e+00 0.000000000000000e+00
0.000000000000000e+00 0.000000000000000e+00 0.000000000000000e+00
0.000000000000000e+00 0.000000000000000e+00 0.000000000000000e+00

0.000000000000000e+00 0.000000000000000e+00 0.000000000000000e+00
0.000000000000000e+00 0.000000000000000e+00 0.000000000000000e+00
0.000000000000000e+00 0.000000000000000e+00 0.000000000000000e+00

0.000000000000000e+00 0.000000000000000e+00 0.000000000000000e+00
0.000000000000000e+00 0.000000000000000e+00 0.000000000000000e+00
0.000000000000000e+00 0.000000000000000e+00 0.000000000000000e+00

0.000000000000000e+00 0.000000000000000e+00 0.000000000000000e+00
0.000000000000000e+00 0.000000000000000e+00 0.000000000000000e+00
0.000000000000000e+00 0.000000000000000e+00 0.000000000000000e+00

0.000000000000000e+00 0.000000000000000e+00 0.000000000000000e+00
0.000000000000000e+00 0.000000000000000e+00 0.000000000000000e+00
0.000000000000000e+00 0.000000000000000e+00 0.000000000000000e+00

0.000000000000000e+00 0.000000000000000e+00 0.000000000000000e+00
0.000000000000000e+00 0.000000000000000e+00 0.000000000000000e+00
0.000000000000000e+00 0.000000000000000e+00 0.000000000000000e+00

0.000000000000000e+00 0.000000000000000e+00 0.000000000000000e+00
0.000000000000000e+00 0.000000000000000e+00 0.000000000000000e+00
0.000000000000000e+00 0.000000000000000e+00 0.000000000000000e+00

0.000000000000000e+00 0.000000000000000e+00 0.000000000000000e+00
0.000000000000000e+00 0.000000000000000e+00 0.000000000000000e+00
0.000000000000000e+00 0.000000000000000e+00 0.000000000000000e+00

0.000000000000000e+00 0.000000000000000e+00 0.000000000000000e+00
0.000000000000000e+00 0.000000000000000e+00 0.000000000000000e+00
0.000000000000000e+00 0.000000000000000e+00 0.000000000000000e+00

0.000000000000000e+00 0.000000000000000e+00 0.000000000000000e+00
0.000000000000000e+00 0.000000000000000e+00 0.000000000000000e+00
0.000000000000000e+00 0.000000000000000e+00 0.000000000000000e+00

0.000000000000000e+00 0.000000000000000e+00 0.000000000000000e+00
0.000000000000000e+00 0.000000000000000e+00 0.000000000000000e+00
0.000000000000000e+00 0.000000000000000e+00 0.000000000000000e+00

0.000000000000000e+00 0.000000000000000e+00 0.000000000000000e+00
0.000000000000000e+00 0.000000000000000e+00 0.000000000000000e+00
0.000000000000000e+00 0.000000000000000e+00 0.000000000000000e+00

0.000000000000000e+00 0.000000000000000e+00 0.000000000000000e+00
0.000000000000000e+00 0.000000000000000e+00 0.000000000000000e+00
0.000000000000000e+00 0.000000000000000e+00 0.000000000000000e+00

0.000000000000000e+00 0.000000000000000e+00 0.000000000000000e+00
0.000000000000000e+00 0.000000000000000e+00 0.000000000000000e+00
0.000000000000000e+00 0.000000000000000e+00 0.000000000000000e+00

0.000000000000000e+00 0.000000000000000e+00 0.000000000000000e+00
0.000000000000000e+00 0.000000000000000e+00 0.000000000000000e+00
0.000000000000000e+00 0.000000000000000e+00 0.000000000000000e+00

0.000000000000000e+00 0.000000000000000e+00 0.000000000000000e+00
0.000000000000000e+00 0.000000000000000e+00 0.000000000000000e+00
0.000000000000000e+00 0.000000000000000e+00 0.000000000000000e+00

0.000000000000000e+00 0.000000000000000e+00 0.000000000000000e+00
0.000000000000000e+00 0.000000000000000e+00 0.000000000000000e+00
0.000000000000000e+00 0.000000000000000e+00 0.000000000000000e+00

0.000000000000000e+00 0.000000000000000e+00 0.000000000000000e+00
0.000000000000000e+00 0.000000000000000e+00 0.000000000000000e+00
0.000000000000000e+00 0.000000000000000e+00 0.000000000000000e+00

0.000000000000000e+00 0.000000000000000e+00 0.000000000000000e+00
0.000000000000000e+00 0.000000000000000e+00 0.000000000000000e+00
0.000000000000000e+00 0.000000000000000e+00 0.000000000000000e+00

0.000000000000000e+00 0.000000000000000e+00 0.000000000000000e+00
0.000000000000000e+00 0.000000000000000e+00 0.000000000000000e+00
0.000000000000000e+00 0.000000000000000e+00 0.000000000000000e+00

0.000000000000000e+00 0.000000000000000e+00 0.000000000000000e+00
0.000000000000000e+00 0.000000000000000e+00 0.000000000000000e+00
0.000000000000000e+00 0.000000000000000e+00 0.000000000000000e+00

0.000000000000000e+00 0.000000000000000e+00 0.000000000000000e+00
0.000000000000000e+00 0.000000000000000e+00 0.000000000000000e+00
0.000000000000000e+00 0.000000000000000e+00 0.000000000000000e+00

0.000000000000000e+00 0.000000000000000e+00 0.000000000000000e+00
0.000000000000000e+00 0.000000000000000e+00 0.000000000000000e+00
0.000000000000000e+00 0.000000000000000e+00 0.000000000000000e+00

0.000000000000000e+00 0.000000000000000e+00 0.000000000000000e+00
0.000000000000000e+00 0.000000000000000e+00 0.000000000000000e+00
0.000000000000000e+00 0.000000000000000e+00 0.000000000000000e+00

0.000000000000000e+00 0.000000000000000e+00 0.000000000000000e+00
0.000000000000000e+00 0.000000000000000e+00 0.000000000000000e+00
0.000000000000000e+00 0.000000000000000e+00 0.000000000000000e+00

0.000000000000000e+00 0.000000000000000e+00 0.000000000000000e+00
0.000000000000000e+00 0.000000000000000e+00 0.000000000000000e+00
0.000000000000000e+00 0.000000000000000e+00 0.000000000000000e+00

0.000000000000000e+00 0.000000000000000e+00 0.000000000000000e+00
0.000000000000000e+00 0.000000000000000e+00 0.000000000000000e+00
0.000000000000000e+00 0.000000000000000e+00 0.000000000000000e+00

0.000000000000000e+00 0.000000000000000e+00 0.000000000000000e+00
0.000000000000000e+00 0.000000000000000e+00 0.000000000000000e+00
0.000000000000000e+00 0.000000000000000e+00 0.000000000000000e+00

0.000000000000000e+00 0.000000000000000e+00 0.000000000000000e+00
0.000000000000000e+00 0.000000000000000e+00 0.000000000000000e+00
0.000000000000000e+00 0.000000000000000e+00 0.000000000000000e+00

0.000000000000000e+00 0.000000000000000e+00 0.000000000000000e+00
0.000000000000000e+00 0.000000000000000e+00 0.000000000000000e+00
0.000000000000000e+00 0.000000000000000e+00 0.000000000000000e+00

0.000000000000000e+00 0.000000000000000e+00 0.000000000000000e+00
0.000000000000000e+00 0.000000000000000e+00 0.000000000000000e+00
0.000000000000000e+00 0.000000000000000e+00 0.000000000000000e+00

0.000000000000000e+00 0.000000000000000e+00 0.000000000000000e+00
0.000000000000000e+00 0.000000000000000e+00 0.000000000000000e+00
0.000000000000000e+00 0.000000000000000e+00 0.000000000000000e+00

0.000000000000000e+00 0.000000000000000e+00 0.000000000000000e+00
0.000000000000000e+00 0.000000000000000e+00 0.000000000000000e+00
0.000000000000000e+00 0.000000000000000e+00 0.000000000000000e+00

0.000000000000000e+00 0.000000000000000e+00 0.000000000000000e+00
0.000000000000000e+00 0.000000000000000e+00 0.000000000000000e+00
0.000000000000000e+00 0.000000000000000e+00 0.000000000000000e+00

0.000000000000000e+00 0.000000000000000e+00 0.000000000000000e+00
0.000000000000000e+00 0.000000000000000e+00 0.000000000000000e+00
0.000000000000000e+00 0.000000000000000e+00 0.000000000000000e+00

0.000000000000000e+00 0.000000000000000e+00 0.000000000000000e+00
0.000000000000000e+00 0.000000000000000e+00 0.000000000000000e+00
0.000000000000000e+00 0.000000000000000e+00 0.000000000000000e+00

0.000000000000000e+00 0.000000000000000e+00 0.000000000000000e+00
0.000000000000000e+00 0.000000000000000e+00 0.000000000000000e+00
0.000000000000000e+00 0.000000000000000e+00 0.000000000000000e+00

0.000000000000000e+00 0.000000000000000e+00 0.000000000000000e+00
0.000000000000000e+00 0.000000000000000e+00 0.000000000000000e+00
0.000000000000000e+00 0.000000000000000e+00 0.000000000000000e+00

0.000000000000000e+00 0.000000000000000e+00 0.000000000000000e+00
0.000000000000000e+00 0.000000000000000e+00 0.000000000000000e+00
0.000000000000000e+00 0.000000000000000e+00 0.000000000000000e+00

0.000000000000000e+00 0.000000000000000e+00 0.000000000000000e+00
0.000000000000000e+00 0.000000000000000e+00 0.000000000000000e+00
0.000000000000000e+00 0.000000000000000e+00 0.000000000000000e+00

0.000000000000000e+00 0.000000000000000e+00 0.000000000000000e+00
0.000000000000000e+00 0.000000000000000e+00 0.000000000000000e+00
0.000000000000000e+00 0.000000000000000e+00 0.000000000000000e+00

0.000000000000000e+00 0.000000000000000e+00 0.000000000000000e+00
0.000000000000000e+00 0.000000000000000e+00 0.000000000000000e+00
0.000000000000000e+00 0.000000000000000e+00 0.000000000000000e+00

0.000000000000000e+00 0.000000000000000e+00 0.000000000000000e+00
0.000000000000000e+00 0.000000000000000e+00 0.000000000000000e+00
0.000000000000000e+00 0.000000000000000e+00 0.000000000000000e+00

0.000000000000000e+00 0.000000000000000e+00 0.000000000000000e+00
0.000000000000000e+00 0.000000000000000e+00 0.000000000000000e+00
0.000000000000000e+00 0.000000000000000e+00 0.000000000000000e+00

0.000000000000000e+00 0.000000000000000e+00 0.000000000000000e+00
0.000000000000000e+00 0.000000000000000e+00 0.000000000000000e+00
0.000000000000000e+00 0.000000000000000e+00 0.000000000000000e+00

0.000000000000000e+00 0.000000000000000e+00 0.000000000000000e+00
0.000000000000000e+00 0.000000000000000e+00 0.000000000000000e+00
0.000000000000000e+00 0.000000000000000e+00 0.000000000000000e+00

0.000000000000000e+00 0.000000000000000e+00 0.000000000000000e+00
0.000000000000000e+00 0.000000000000000e+00 0.000000000000000e+00
0.000000000000000e+00 0.000000000000000e+00 0.000000000000000e+00

0.000000000000000e+00 0.000000000000000e+00 0.000000000000000e+00
0.000000000000000e+00 0.000000000000000e+00 0.000000000000000e+00
0.000000000000000e+00 0.000000000000000e+00 0.000000000000000e+00

0.000000000000000e+00 0.000000000000000e+00 0.000000000000000e+00
0.000000000000000e+00 0.000000000000000e+00 0.000000000000000e+00
0.000000000000000e+00 0.000000000000000e+00 0.000000000000000e+00

0.000000000000000e+00 0.000000000000000e+00 0.000000000000000e+00
0.000000000000000e+00 0.000000000000000e+00 0.000000000000000e+00
0.000000000000000e+00 0.000000000000000e+00 0.000000000000000e+00

0.000000000000000e+00 0.000000000000000e+00 0.000000000000000e+00
0.000000000000000e+00 0.000000000000000e+00 0.000000000000000e+00
0.000000000000000e+00 0.000000000000000e+00 0.000000000000000e+00

0.000000000000000e+00 0.000000000000000e+00 0.000000000000000e+00
0.000000000000000e+00 0.000000000000000e+00 0.000000000000000e+00
0.000000000000000e+00 0.000000000000000e+00 0.000000000000000e+00

0.000000000000000e+00 0.000000000000000e+00 0.000000000000000e+00
0.000000000000000e+00 0.000000000000000e+00 0.000000000000000e+00
0.000000000000000e+00 0.000000000000000e+00 0.000000000000000e+00

0.000000000000000e+00 0.000000000000000e+00 0.000000000000000e+00
0.000000000000000e+00 0.000000000000000e+00 0.000000000000000e+00
0.000000000000000e+00 0.000000000000000e+00 0.000000000000000e+00

0.000000000000000e+00 0.000000000000000e+00 0.000000000000000e+00
0.000000000000000e+00 0.000000000000000e+00 0.000000000000000e+00
0.000000000000000e+00 0.000000000000000e+00 0.000000000000000e+00

0.000000000000000e+00 0.000000000000000e+00 0.000000000000000e+00
0.000000000000000e+00 0.000000000000000e+00 0.000000000000000e+00
0.000000000000000e+00 0.000000000000000e+00 0.000000000000000e+00

0.000000000000000e+00 0.000000000000000e+00 0.000000000000000e+00
0.000000000000000e+00 0.000000000000000e+00 0.000000000000000e+00
0.000000000000000e+00 0.000000000000000e+00 0.000000000000000e+00

0.000000000000000e+00 0.000000000000000e+00 0.000000000000000e+00
0.000000000000000e+00 0.000000000000000e+00 0.000000000000000e+00
0.000000000000000e+00 0.000000000000000e+00 0.000000000000000e+00

0.000000000000000e+00 0.000000000000000e+00 0.000000000000000e+00
0.000000000000000e+00 0.000000000000000e+00 0.000000000000000e+00
0.000000000000000e+00 0.000000000000000e+00 0.000000000000000e+00

0.000000000000000e+00 0.000000000000000e+00 0.000000000000000e+00
0.000000000000000e+00 0.000000000000000e+00 0.000000000000000e+00
0.000000000000000e+00 0.000000000000000e+00 0.000000000000000e+00

0.000000000000000e+00 0.000000000000000e+00 0.000000000000000e+00
0.000000000000000e+00 0.000000000000000e+00 0.000000000000000e+00
0.000000000000000e+00 0.000000000000000e+00 0.000000000000000e+00

0.000000000000000e+00 0.000000000000000e+00 0.000000000000000e+00
0.000000000000000e+00 0.000000000000000e+00 0.000000000000000e+00
0.000000000000000e+00 0.000000000000000e+00 0.000000000000000e+00

0.000000000000000e+00 0.000000000000000e+00 0.000000000000000e+00
0.000000000000000e+00 0.000000000000000e+00 0.000000000000000e+00
0.000000000000000e+00 0.000000000000000e+00 0.000000000000000e+00

0.000000000000000e+00 0.000000000000000e+00 0.000000000000000e+00
0.000000000000000e+00 0.000000000000000e+00 0.000000000000000e+00
0.000000000000000e+00 0.000000000000000e+00 0.000000000000000e+00

0.000000000000000e+00 0.000000000000000e+00 0.000000000000000e+00
0.000000000000000e+00 0.000000000000000e+00 0.000000000000000e+00
0.000000000000000e+00 0.000000000000000e+00 0.000000000000000e+00

0.000000000000000e+00 0.000000000000000e+00 0.000000000000000e+00
0.000000000000000e+00 0.000000000000000e+00 0.000000000000000e+00
0.000000000000000e+00 0.000000000000000e+00 0.000000000000000e+00

0.000000000000000e+00 0.000000000000000e+00 0.000000000000000e+00
0.000000000000000e+00 0.000000000000000e+00 0.000000000000000e+00
0.000000000000000e+00 0.000000000000000e+00 0.000000000000000e+00

0.000000000000000e+00 0.000000000000000e+00 0.000000000000000e+00
0.000000000000000e+00 0.000000000000000e+00 0.000000000000000e+00
0.000000000000000e+00 0.000000000000000e+00 0.000000000000000e+00

0.000000000000000e+00 0.000000000000000e+00 0.000000000000000e+00
0.000000000000000e+00 0.000000000000000e+00 0.000000000000000e+00
0.000000000000000e+00 0.000000000000000e+00 0.000000000000000e+00

0.000000000000000e+00 0.000000000000000e+00 0.000000000000000e+00
0.000000000000000e+00 0.000000000000000e+00 0.000000000000000e+00
0.000000000000000e+00 0.000000000000000e+00 0.000000000000000e+00

0.000000000000000e+00 0.000000000000000e+00 0.000000000000000e+00
0.000000000000000e+00 0.000000000000000e+00 0.000000000000000e+00
0.000000000000000e+00 0.000000000000000e+00 0.000000000000000e+00

0.000000000000000e+00 0.000000000000000e+00 0.000000000000000e+00
0.000000000000000e+00 0.000000000000000e+00 0.000000000000000e+00
0.000000000000000e+00 0.000000000000000e+00 0.000000000000000e+00

0.000000000000000e+00 0.000000000000000e+00 0.000000000000000e+00
0.000000000000000e+00 0.000000000000000e+00 0.000000000000000e+00
0.000000000000000e+00 0.000000000000000e+00 0.000000000000000e+00

0.000000000000000e+00 0.000000000000000e+00 0.000000000000000e+00
0.000000000000000e+00 0.000000000000000e+00 0.000000000000000e+00
0.000000000000000e+00 0.000000000000000e+00 0.000000000000000e+00

0.000000000000000e+00 0.000000000000000e+00 0.000000000000000e+00
0.000000000000000e+00 0.000000000000000e+00 0.000000000000000e+00
0.000000000000000e+00 0.000000000000000e+00 0.000000000000000e+00

0.000000000000000e+00 0.000000000000000e+00 0.000000000000000e+00
0.000000000000000e+00 0.000000000000000e+00 0.000000000000000e+00
0.000000000000000e+00 0.000000000000000e+00 0.000000000000000e+00

0.000000000000000e+00 0.000000000000000e+00 0.000000000000000e+00
0.000000000000000e+00 0.000000000000000e+00 0.000000000000000e+00
0.000000000000000e+00 0.000000000000000e+00 0.000000000000000e+00

0.000000000000000e+00 0.000000000000000e+00 0.000000000000000e+00
0.000000000000000e+00 0.000000000000000e+00 0.000000000000000e+00
0.000000000000000e+00 0.000000000000000e+00 0.000000000000000e+00

0.000000000000000e+00 0.000000000000000e+00 0.000000000000000e+00
0.000000000000000e+00 0.000000000000000e+00 0.000000000000000e+00
0.000000000000000e+00 0.000000000000000e+00 0.000000000000000e+00

0.000000000000000e+00 0.000000000000000e+00 0.000000000000000e+00
0.000000000000000e+00 0.000000000000000e+00 0.000000000000000e+00
0.000000000000000e+00 0.000000000000000e+00 0.000000000000000e+00

0.000000000000000e+00 0.000000000000000e+00 0.000000000000000e+00
0.000000000000000e+00 0.000000000000000e+00 0.000000000000000e+00
0.000000000000000e+00 0.000000000000000e+00 0.000000000000000e+00

0.000000000000000e+00 0.000000000000000e+00 0.000000000000000e+00
0.000000000000000e+00 0.000000000000000e+00 0.000000000000000e+00
0.000000000000000e+00 0.000000000000000e+00 0.000000000000000e+00

0.000000000000000e+00 0.000000000000000e+00 0.000000000000000e+00
0.000000000000000e+00 0.000000000000000e+00 0.000000000000000e+00
0.000000000000000e+00 0.000000000000000e+00 0.000000000000000e+00

0.000000000000000e+00 0.000000000000000e+00 0.000000000000000e+00
0.000000000000000e+00 0.000000000000000e+00 0.000000000000000e+00
0.000000000000000e+00 0.000000000000000e+00 0.000000000000000e+00

0.000000000000000e+00 0.000000000000000e+00 0.000000000000000e+00
0.000000000000000e+00 0.000000000000000e+00 0.000000000000000e+00
0.000000000000000e+00 0.000000000000000e+00 0.000000000000000e+00

0.000000000000000e+00 0.000000000000000e+00 0.000000000000000e+00
0.000000000000000e+00 0.000000000000000e+00 0.000000000000000e+00
0.000000000000000e+00 0.000000000000000e+00 0.000000000000000e+00

0.000000000000000e+00 0.000000000000000e+00 0.000000000000000e+00
0.000000000000000e+00 0.000000000000000e+00 0.000000000000000e+00
0.000000000000000e+00 0.000000000000000e+00 0.000000000000000e+00

0.000000000000000e+00 0.000000000000000e+00 0.000000000000000e+00
0.000000000000000e+00 0.000000000000000e+00 0.000000000000000e+00
0.000000000000000e+00 0.000000000000000e+00 0.000000000000000e+00

0.000000000000000e+00 0.000000000000000e+00 0.000000000000000e+00
0.000000000000000e+00 0.000000000000000e+00 0.000000000000000e+00
0.000000000000000e+00 0.000000000000000e+00 0.000000000000000e+00

0.000000000000000e+00 0.000000000000000e+00 0.000000000000000e+00
0.000000000000000e+00 0.000000000000000e+00 0.000000000000000e+00
0.000000000000000e+00 0.000000000000000e+00 0.000000000000000e+00

0.000000000000000e+00 0.000000000000000e+00 0.000000000000000e+00
0.000000000000000e+00 0.000000000000000e+00 0.000000000000000e+00
0.000000000000000e+00 0.000000000000000e+00 0.000000000000000e+00

0.000000000000000e+00 0.000000000000000e+00 0.000000000000000e+00
0.000000000000000e+00 0.000000000000000e+00 0.000000000000000e+00
0.000000000000000e+00 0.000000000000000e+00 0.000000000000000e+00

0.000000000000000e+00 0.000000000000000e+00 0.000000000000000e+00
0.000000000000000e+00 0.000000000000000e+00 0.000000000000000e+00
0.000000000000000e+00 0.000000000000000e+00 0.000000000000000e+00

0.000000000000000e+00 0.000000000000000e+00 0.000000000000000e+00
0.000000000000000e+00 0.000000000000000e+00 0.000000000000000e+00
0.000000000000000e+00 0.000000000000000e+00 0.000000000000000e+00

0.000000000000000e+00 0.000000000000000e+00 0.000000000000000e+00
0.000000000000000e+00 0.000000000000000e+00 0.000000000000000e+00
0.000000000000000e+00 0.000000000000000e+00 0.000000000000000e+00

0.000000000000000e+00 0.000000000000000e+00 0.000000000000000e+00
0.000000000000000e+00 0.000000000000000e+00 0.000000000000000e+00
0.000000000000000e+00 0.000000000000000e+00 0.000000000000000e+00

0.000000000000000e+00 0.000000000000000e+00 0.000000000000000e+00
0.000000000000000e+00 0.000000000000000e+00 0.000000000000000e+00
0.000000000000000e+00 0.000000000000000e+00 0.000000000000000e+00

0.000000000000000e+00 0.000000000000000e+00 0.000000000000000e+00
0.000000000000000e+00 0.000000000000000e+00 0.000000000000000e+00
0.000000000000000e+00 0.000000000000000e+00 0.000000000000000e+00

0.000000000000000e+00 0.000000000000000e+00 0.000000000000000e+00
0.000000000000000e+00 0.000000000000000e+00 0.000000000000000e+00
0.000000000000000e+00 0.000000000000000e+00 0.000000000000000e+00

0.000000000000000e+00 0.000000000000000e+00 0.000000000000000e+00
0.000000000000000e+00 0.000000000000000e+00 0.000000000000000e+00
0.000000000000000e+00 0.000000000000000e+00 0.000000000000000e+00

0.000000000000000e+00 0.000000000000000e+00 0.000000000000000e+00
0.000000000000000e+00 0.000000000000000e+00 0.000000000000000e+00
0.000000000000000e+00 0.000000000000000e+00 0.000000000000000e+00

0.000000000000000e+00 0.000000000000000e+00 0.000000000000000e+00
0.000000000000000e+00 0.000000000000000e+00 0.000000000000000e+00
0.000000000000000e+00 0.000000000000000e+00 0.000000000000000e+00

0.000000000000000e+00 0.000000000000000e+00 0.000000000000000e+00
0.000000000000000e+00 0.000000000000000e+00 0.000000000000000e+00
0.000000000000000e+00 0.000000000000000e+00 0.000000000000000e+00

0.000000000000000e+00 0.000000000000000e+00 0.000000000000000e+00
0.000000000000000e+00 0.000000000000000e+00 0.000000000000000e+00
0.000000000000000e+00 0.000000000000000e+00 0.000000000000000e+00

0.000000000000000e+00 0.000000000000000e+00 0.000000000000000e+00
0.000000000000000e+00 0.000000000000000e+00 0.000000000000000e+00
0.000000000000000e+00 0.000000000000000e+00 0.000000000000000e+00

0.000000000000000e+00 0.000000000000000e+00 0.000000000000000e+00
0.000000000000000e+00 0.000000000000000e+00 0.000000000000000e+00
0.000000000000000e+00 0.000000000000000e+00 0.000000000000000e+00

0.000000000000000e+00 0.000000000000000e+00 0.000000000000000e+00
0.000000000000000e+00 0.000000000000000e+00 0.000000000000000e+00
0.000000000000000e+00 0.000000000000000e+00 0.000000000000000e+00

0.000000000000000e+00 0.000000000000000e+00 0.000000000000000e+00
0.000000000000000e+00 0.000000000000000e+00 0.000000000000000e+00
0.000000000000000e+00 0.000000000000000e+00 0.000000000000000e+00

0.000000000000000e+00 0.000000000000000e+00 0.000000000000000e+00
0.000000000000000e+00 0.000000000000000e+00 0.000000000000000e+00
0.000000000000000e+00 0.000000000000000e+00 0.000000000000000e+00

0.000000000000000e+00 0.000000000000000e+00 0.000000000000000e+00
0.000000000000000e+00 0.000000000000000e+00 0.000000000000000e+00
0.000000000000000e+00 0.000000000000000e+00 0.000000000000000e+00

0.000000000000000e+00 0.000000000000000e+00 0.000000000000000e+00
0.000000000000000e+00 0.000000000000000e+00 0.000000000000000e+00
0.000000000000000e+00 0.000000000000000e+00 0.000000000000000e+00

0.000000000000000e+00 0.000000000000000e+00 0.000000000000000e+00
0.000000000000000e+00 0.000000000000000e+00 0.000000000000000e+00
0.000000000000000e+00 0.000000000000000e+00 0.000000000000000e+00

0.000000000000000e+00 0.000000000000000e+00 0.000000000000000e+00
0.000000000000000e+00 0.000000000000000e+00 0.000000000000000e+00
0.000000000000000e+00 0.000000000000000e+00 0.000000000000000e+00

0.000000000000000e+00 0.000000000000000e+00 0.000000000000000e+00
0.000000000000000e+00 0.000000000000000e+00 0.000000000000000e+00
0.000000000000000e+00 0.000000000000000e+00 0.000000000000000e+00

0.000000000000000e+00 0.000000000000000e+00 0.000000000000000e+00
0.000000000000000e+00 0.000000000000000e+00 0.000000000000000e+00
0.000000000000000e+00 0.000000000000000e+00 0.000000000000000e+00

0.000000000000000e+00 0.000000000000000e+00 0.000000000000000e+00
0.000000000000000e+00 0.000000000000000e+00 0.000000000000000e+00
0.000000000000000e+00 0.000000000000000e+00 0.000000000000000e+00

0.000000000000000e+00 0.000000000000000e+00 0.000000000000000e+00
0.000000000000000e+00 0.000000000000000e+00 0.000000000000000e+00
0.000000000000000e+00 0.000000000000000e+00 0.000000000000000e+00

0.000000000000000e+00 0.000000000000000e+00 0.000000000000000e+00
0.000000000000000e+00 0.000000000000000e+00 0.000000000000000e+00
0.000000000000000e+00 0.000000000000000e+00 0.000000000000000e+00

0.000000000000000e+00 0.000000000000000e+00 0.000000000000000e+00
0.000000000000000e+00 0.000000000000000e+00 0.000000000000000e+00
0.000000000000000e+00 0.000000000000000e+00 0.000000000000000e+00

0.000000000000000e+00 0.000000000000000e+00 0.000000000000000e+00
0.000000000000000e+00 0.000000000000000e+00 0.000000000000000e+00
0.000000000000000e+00 0.000000000000000e+00 0.000000000000000e+00

0.000000000000000e+00 0.000000000000000e+00 0.000000000000000e+00
0.000000000000000e+00 0.000000000000000e+00 0.000000000000000e+00
0.000000000000000e+00 0.000000000000000e+00 0.000000000000000e+00

0.000000000000000e+00 0.000000000000000e+00 0.000000000000000e+00
0.000000000000000e+00 0.000000000000000e+00 0.000000000000000e+00
0.000000000000000e+00 0.000000000000000e+00 0.000000000000000e+00

0.000000000000000e+00 0.000000000000000e+00 0.000000000000000e+00
0.000000000000000e+00 0.000000000000000e+00 0.000000000000000e+00
0.000000000000000e+00 0.000000000000000e+00 0.000000000000000e+00

0.000000000000000e+00 0.000000000000000e+00 0.000000000000000e+00
0.000000000000000e+00 0.000000000000000e+00 0.000000000000000e+00
0.000000000000000e+00 0.000000000000000e+00 0.000000000000000e+00

0.000000000000000e+00 0.000000000000000e+00 0.000000000000000e+00
0.000000000000000e+00 0.000000000000000e+00 0.000000000000000e+00
0.000000000000000e+00 0.000000000000000e+00 0.000000000000000e+00

0.000000000000000e+00 0.000000000000000e+00 0.000000000000000e+00
0.000000000000000e+00 0.000000000000000e+00 0.000000000000000e+00
0.000000000000000e+00 0.000000000000000e+00 0.000000000000000e+00

0.000000000000000e+00 0.000000000000000e+00 0.000000000000000e+00
0.000000000000000e+00 0.000000000000000e+00 0.000000000000000e+00
0.000000000000000e+00 0.000000000000000e+00 0.000000000000000e+00

0.000000000000000e+00 0.000000000000000e+00 0.000000000000000e+00
0.000000000000000e+00 0.000000000000000e+00 0.000000000000000e+00
0.000000000000000e+00 0.000000000000000e+00 0.000000000000000e+00

0.000000000000000e+00 0.000000000000000e+00 0.000000000000000e+00
0.000000000000000e+00 0.000000000000000e+00 0.000000000000000e+00
0.000000000000000e+00 0.000000000000000e+00 0.000000000000000e+00

0.000000000000000e+00 0.000000000000000e+00 0.000000000000000e+00
0.000000000000000e+00 0.000000000000000e+00 0.000000000000000e+00
0.000000000000000e+00 0.000000000000000e+00 0.000000000000000e+00

0.000000000000000e+00 0.000000000000000e+00 0.000000000000000e+00
0.000000000000000e+00 0.000000000000000e+00 0.000000000000000e+00
0.000000000000000e+00 0.000000000000000e+00 0.000000000000000e+00

0.000000000000000e+00 0.000000000000000e+00 0.000000000000000e+00
0.000000000000000e+00 0.000000000000000e+00 0.000000000000000e+00
0.000000000000000e+00 0.000000000000000e+00 0.000000000000000e+00

0.000000000000000e+00 0.000000000000000e+00 0.000000000000000e+00
0.000000000000000e+00 0.000000000000000e+00 0.000000000000000e+00
0.000000000000000e+00 0.000000000000000e+00 0.000000000000000e+00

0.000000000000000e+00 0.000000000000000e+00 0.000000000000000e+00
0.000000000000000e+00 0.000000000000000e+00 0.000000000000000e+00
0.000000000000000e+00 0.000000000000000e+00 0.000000000000000e+00

0.000000000000000e+00 0.000000000000000e+00 0.000000000000000e+00
0.000000000000000e+00 0.000000000000000e+00 0.000000000000000e+00
0.000000000000000e+00 0.000000000000000e+00 0.000000000000000e+00

0.000000000000000e+00 0.000000000000000e+00 0.000000000000000e+00
0.000000000000000e+00 0.000000000000000e+00 0.000000000000000e+00
0.000000000000000e+00 0.000000000000000e+00 0.000000000000000e+00

0.000000000000000e+00 0.000000000000000e+00 0.000000000000000e+00
0.000000000000000e+00 0.000000000000000e+00 0.000000000000000e+00
0.000000000000000e+00 0.000000000000000e+00 0.000000000000000e+00

0.000000000000000e+00 0.000000000000000e+00 0.000000000000000e+00
0.000000000000000e+00 0.000000000000000e+00 0.000000000000000e+00
0.000000000000000e+00 0.000000000000000e+00 0.000000000000000e+00

0.000000000000000e+00 0.000000000000000e+00 0.000000000000000e+00
0.000000000000000e+00 0.000000000000000e+00 0.000000000000000e+00
0.000000000000000e+00 0.000000000000000e+00 0.000000000000000e+00

0.000000000000000e+00 0.000000000000000e+00 0.000000000000000e+00
0.000000000000000e+00 0.000000000000000e+00 0.000000000000000e+00
0.000000000000000e+00 0.000000000000000e+00 0.000000000000000e+00

0.000000000000000e+00 0.000000000000000e+00 0.000000000000000e+00
0.000000000000000e+00 0.000000000000000e+00 0.000000000000000e+00
0.000000000000000e+00 0.000000000000000e+00 0.000000000000000e+00

0.000000000000000e+00 0.000000000000000e+00 0.000000000000000e+00
0.000000000000000e+00 0.000000000000000e+00 0.000000000000000e+00
0.000000000000000e+00 0.000000000000000e+00 0.000000000000000e+00

0.000000000000000e+00 0.000000000000000e+00 0.000000000000000e+00
0.000000000000000e+00 0.000000000000000e+00 0.000000000000000e+00
0.000000000000000e+00 0.000000000000000e+00 0.000000000000000e+00

0.000000000000000e+00 0.000000000000000e+00 0.000000000000000e+00
0.000000000000000e+00 0.000000000000000e+00 0.000000000000000e+00
0.000000000000000e+00 0.000000000000000e+00 0.000000000000000e+00

0.000000000000000e+00 0.000000000000000e+00 0.000000000000000e+00
0.000000000000000e+00 0.000000000000000e+00 0.000000000000000e+00
0.000000000000000e+00 0.000000000000000e+00 0.000000000000000e+00

0.000000000000000e+00 0.000000000000000e+00 0.000000000000000e+00
0.000000000000000e+00 0.000000000000000e+00 0.000000000000000e+00
0.000000000000000e+00 0.000000000000000e+00 0.000000000000000e+00

0.000000000000000e+00 0.000000000000000e+00 0.000000000000000e+00
0.000000000000000e+00 0.000000000000000e+00 0.000000000000000e+00
0.000000000000000e+00 0.000000000000000e+00 0.000000000000000e+00

0.000000000000000e+00 0.000000000000000e+00 0.000000000000000e+00
0.000000000000000e+00 0.000000000000000e+00 0.000000000000000e+00
0.000000000000000e+00 0.000000000000000e+00 0.000000000000000e+00

0.000000000000000e+00 0.000000000000000e+00 0.000000000000000e+00
0.000000000000000e+00 0.000000000000000e+00 0.000000000000000e+00
0.000000000000000e+00 0.000000000000000e+00 0.000000000000000e+00

0.000000000000000e+00 0.000000000000000e+00 0.000000000000000e+00
0.000000000000000e+00 0.000000000000000e+00 0.000000000000000e+00
0.000000000000000e+00 0.000000000000000e+00 0.000000000000000e+00

0.000000000000000e+00 0.000000000000000e+00 0.000000000000000e+00
0.000000000000000e+00 0.000000000000000e+00 0.000000000000000e+00
0.000000000000000e+00 0.000000000000000e+00 0.000000000000000e+00

0.000000000000000e+00 0.000000000000000e+00 0.000000000000000e+00
0.000000000000000e+00 0.000000000000000e+00 0.000000000000000e+00
0.000000000000000e+00 0.000000000000000e+00 0.000000000000000e+00

0.000000000000000e+00 0.000000000000000e+00 0.000000000000000e+00
0.000000000000000e+00 0.000000000000000e+00 0.000000000000000e+00
0.000000000000000e+00 0.000000000000000e+00 0.000000000000000e+00

0.000000000000000e+00 0.000000000000000e+00 0.000000000000000e+00
0.000000000000000e+00 0.000000000000000e+00 0.000000000000000e+00
0.000000000000000e+00 0.000000000000000e+00 0.000000000000000e+00

0.000000000000000e+00 0.000000000000000e+00 0.000000000000000e+00
0.000000000000000e+00 0.000000000000000e+00 0.000000000000000e+00
0.000000000000000e+00 0.000000000000000e+00 0.000000000000000e+00

0.000000000000000e+00 0.000000000000000e+00 0.000000000000000e+00
0.000000000000000e+00 0.000000000000000e+00 0.000000000000000e+00
0.000000000000000e+00 0.000000000000000e+00 0.000000000000000e+00

0.000000000000000e+00 0.000000000000000e+00 0.000000000000000e+00
0.000000000000000e+00 0.000000000000000e+00 0.000000000000000e+00
0.000000000000000e+00 0.000000000000000e+00 0.000000000000000e+00

0.000000000000000e+00 0.000000000000000e+00 0.000000000000000e+00
0.000000000000000e+00 0.000000000000000e+00 0.000000000000000e+00
0.000000000000000e+00 0.000000000000000e+00 0.000000000000000e+00

0.000000000000000e+00 0.000000000000000e+00 0.000000000000000e+00
0.000000000000000e+00 0.000000000000000e+00 0.000000000000000e+00
0.000000000000000e+00 0.000000000000000e+00 0.000000000000000e+00

0.000000000000000e+00 0.000000000000000e+00 0.000000000000000e+00
0.000000000000000e+00 0.000000000000000e+00 0.000000000000000e+00
0.000000000000000e+00 0.000000000000000e+00 0.000000000000000e+00

0.000000000000000e+00 0.000000000000000e+00 0.000000000000000e+00
0.000000000000000e+00 0.000000000000000e+00 0.000000000000000e+00
0.000000000000000e+00 0.000000000000000e+00 0.000000000000000e+00

0.000000000000000e+00 0.000000000000000e+00 0.000000000000000e+00
0.000000000000000e+00 0.000000000000000e+00 0.000000000000000e+00
0.000000000000000e+00 0.000000000000000e+00 0.000000000000000e+00

0.000000000000000e+00 0.000000000000000e+00 0.000000000000000e+00
0.000000000000000e+00 0.000000000000000e+00 0.000000000000000e+00
0.000000000000000e+00 0.000000000000000e+00 0.000000000000000e+00

0.000000000000000e+00 0.000000000000000e+00 0.000000000000000e+00
0.000000000000000e+00 0.000000000000000e+00 0.000000000000000e+00
0.000000000000000e+00 0.000000000000000e+00 0.000000000000000e+00

0.000000000000000e+00 0.000000000000000e+00 0.000000000000000e+00
0.000000000000000e+00 0.000000000000000e+00 0.000000000000000e+00
0.000000000000000e+00 0.000000000000000e+00 0.000000000000000e+00

0.000000000000000e+00 0.000000000000000e+00 0.000000000000000e+00
0.000000000000000e+00 0.000000000000000e+00 0.000000000000000e+00
0.000000000000000e+00 0.000000000000000e+00 0.000000000000000e+00

0.000000000000000e+00 0.000000000000000e+00 0.000000000000000e+00
0.000000000000000e+00 0.000000000000000e+00 0.000000000000000e+00
0.000000000000000e+00 0.000000000000000e+00 0.000000000000000e+00

0.000000000000000e+00 0.000000000000000e+00 0.000000000000000e+00
0.000000000000000e+00 0.000000000000000e+00 0.000000000000000e+00
0.000000000000000e+00 0.000000000000000e+00 0.000000000000000e+00

0.000000000000000e+00 0.000000000000000e+00 0.000000000000000e+00
0.000000000000000e+00 0.000000000000000e+00 0.000000000000000e+00
0.000000000000000e+00 0.000000000000000e+00 0.000000000000000e+00

0.000000000000000e+00 0.000000000000000e+00 0.000000000000000e+00
0.000000000000000e+00 0.000000000000000e+00 0.000000000000000e+00
0.000000000000000e+00 0.000000000000000e+00 0.000000000000000e+00

0.000000000000000e+00 0.000000000000000e+00 0.000000000000000e+00
0.000000000000000e+00 0.000000000000000e+00 0.000000000000000e+00
0.000000000000000e+00 0.000000000000000e+00 0.000000000000000e+00

0.000000000000000e+00 0.000000000000000e+00 0.000000000000000e+00
0.000000000000000e+00 0.000000000000000e+00 0.000000000000000e+00
0.000000000000000e+00 0.000000000000000e+00 0.000000000000000e+00

0.000000000000000e+00 0.000000000000000e+00 0.000000000000000e+00
0.000000000000000e+00 0.000000000000000e+00 0.000000000000000e+00
0.000000000000000e+00 0.000000000000000e+00 0.000000000000000e+00

0.000000000000000e+00 0.000000000000000e+00 0.000000000000000e+00
0.000000000000000e+00 0.000000000000000e+00 0.000000000000000e+00
0.000000000000000e+00 0.000000000000000e+00 0.000000000000000e+00

0.000000000000000e+00 0.000000000000000e+00 0.000000000000000e+00
0.000000000000000e+00 0.000000000000000e+00 0.000000000000000e+00
0.000000000000000e+00 0.000000000000000e+00 0.000000000000000e+00

0.000000000000000e+00 0.000000000000000e+00 0.000000000000000e+00
0.000000000000000e+00 0.000000000000000e+00 0.000000000000000e+00
0.000000000000000e+00 0.000000000000000e+00 0.000000000000000e+00

0.000000000000000e+00 0.000000000000000e+00 0.000000000000000e+00
0.000000000000000e+00 0.000000000000000e+00 0.000000000000000e+00
0.000000000000000e+00 0.000000000000000e+00 0.000000000000000e+00

0.000000000000000e+00 0.000000000000000e+00 0.000000000000000e+00
0.000000000000000e+00 0.000000000000000e+00 0.000000000000000e+00
0.000000000000000e+00 0.000000000000000e+00 0.000000000000000e+00

0.000000000000000e+00 0.000000000000000e+00 0.000000000000000e+00
0.000000000000000e+00 0.000000000000000e+00 0.000000000000000e+00
0.000000000000000e+00 0.000000000000000e+00 0.000000000000000e+00

0.000000000000000e+00 0.000000000000000e+00 0.000000000000000e+00
0.000000000000000e+00 0.000000000000000e+00 0.000000000000000e+00
0.000000000000000e+00 0.000000000000000e+00 0.000000000000000e+00

0.000000000000000e+00 0.000000000000000e+00 0.000000000000000e+00
0.000000000000000e+00 0.000000000000000e+00 0.000000000000000e+00
0.000000000000000e+00 0.000000000000000e+00 0.000000000000000e+00

0.000000000000000e+00 0.000000000000000e+00 0.000000000000000e+00
0.000000000000000e+00 0.000000000000000e+00 0.000000000000000e+00
0.000000000000000e+00 0.000000000000000e+00 0.000000000000000e+00

0.000000000000000e+00 0.000000000000000e+00 0.000000000000000e+00
0.000000000000000e+00 0.000000000000000e+00 0.000000000000000e+00
0.000000000000000e+00 0.000000000000000e+00 0.000000000000000e+00

0.000000000000000e+00 0.000000000000000e+00 0.000000000000000e+00
0.000000000000000e+00 0.000000000000000e+00 0.000000000000000e+00
0.000000000000000e+00 0.000000000000000e+00 0.000000000000000e+00

0.000000000000000e+00 0.000000000000000e+00 0.000000000000000e+00
0.000000000000000e+00 0.000000000000000e+00 0.000000000000000e+00
0.000000000000000e+00 0.000000000000000e+00 0.000000000000000e+00

0.000000000000000e+00 0.000000000000000e+00 0.000000000000000e+00
0.000000000000000e+00 0.000000000000000e+00 0.000000000000000e+00
0.000000000000000e+00 0.000000000000000e+00 0.000000000000000e+00

0.000000000000000e+00 0.000000000000000e+00 0.000000000000000e+00
0.000000000000000e+00 0.000000000000000e+00 0.000000000000000e+00
0.000000000000000e+00 0.000000000000000e+00 0.000000000000000e+00

0.000000000000000e+00 0.000000000000000e+00 0.000000000000000e+00
0.000000000000000e+00 0.000000000000000e+00 0.000000000000000e+00
0.000000000000000e+00 0.000000000000000e+00 0.000000000000000e+00

0.000000000000000e+00 0.000000000000000e+00 0.000000000000000e+00
0.000000000000000e+00 0.000000000000000e+00 0.000000000000000e+00
0.000000000000000e+00 0.000000000000000e+00 0.000000000000000e+00

0.000000000000000e+00 0.000000000000000e+00 0.000000000000000e+00
0.000000000000000e+00 0.000000000000000e+00 0.000000000000000e+00
0.000000000000000e+00 0.000000000000000e+00 0.000000000000000e+00

0.000000000000000e+00 0.000000000000000e+00 0.000000000000000e+00
0.000000000000000e+00 0.000000000000000e+00 0.000000000000000e+00
0.000000000000000e+00 0.000000000000000e+00 0.000000000000000e+00

0.000000000000000e+00 0.000000000000000e+00 0.000000000000000e+00
0.000000000000000e+00 0.000000000000000e+00 0.000000000000000e+00
0.000000000000000e+00 0.000000000000000e+00 0.000000000000000e+00

0.000000000000000e+00 0.000000000000000e+00 0.000000000000000e+00
0.000000000000000e+00 0.000000000000000e+00 0.000000000000000e+00
0.000000000000000e+00 0.000000000000000e+00 0.000000000000000e+00

0.000000000000000e+00 0.000000000000000e+00 0.000000000000000e+00
0.000000000000000e+00 0.000000000000000e+00 0.000000000000000e+00
0.000000000000000e+00 0.000000000000000e+00 0.000000000000000e+00

0.000000000000000e+00 0.000000000000000e+00 0.000000000000000e+00
0.000000000000000e+00 0.000000000000000e+00 0.000000000000000e+00
0.000000000000000e+00 0.000000000000000e+00 0.000000000000000e+00

0.000000000000000e+00 0.000000000000000e+00 0.000000000000000e+00
0.000000000000000e+00 0.000000000000000e+00 0.000000000000000e+00
0.000000000000000e+00 0.000000000000000e+00 0.000000000000000e+00

0.000000000000000e+00 0.000000000000000e+00 0.000000000000000e+00
0.000000000000000e+00 0.000000000000000e+00 0.000000000000000e+00
0.000000000000000e+00 0.000000000000000e+00 0.000000000000000e+00

0.000000000000000e+00 0.000000000000000e+00 0.000000000000000e+00
0.000000000000000e+00 0.000000000000000e+00 0.000000000000000e+00
0.000000000000000e+00 0.000000000000000e+00 0.000000000000000e+00

0.000000000000000e+00 0.000000000000000e+00 0.000000000000000e+00
0.000000000000000e+00 0.000000000000000e+00 0.000000000000000e+00
0.000000000000000e+00 0.000000000000000e+00 0.000000000000000e+00

0.000000000000000e+00 0.000000000000000e+00 0.000000000000000e+00
0.000000000000000e+00 0.000000000000000e+00 0.000000000000000e+00
0.000000000000000e+00 0.000000000000000e+00 0.000000000000000e+00

0.000000000000000e+00 0.000000000000000e+00 0.000000000000000e+00
0.000000000000000e+00 0.000000000000000e+00 0.000000000000000e+00
0.000000000000000e+00 0.000000000000000e+00 0.000000000000000e+00

0.000000000000000e+00 0.000000000000000e+00 0.000000000000000e+00
0.000000000000000e+00 0.000000000000000e+00 0.000000000000000e+00
0.000000000000000e+00 0.000000000000000e+00 0.000000000000000e+00

0.000000000000000e+00 0.000000000000000e+00 0.000000000000000e+00
0.000000000000000e+00 0.000000000000000e+00 0.000000000000000e+00
0.000000000000000e+00 0.000000000000000e+00 0.000000000000000e+00

0.000000000000000e+00 0.000000000000000e+00 0.000000000000000e+00
0.000000000000000e+00 0.000000000000000e+00 0.000000000000000e+00
0.000000000000000e+00 0.000000000000000e+00 0.000000000000000e+00

0.000000000000000e+00 0.000000000000000e+00 0.000000000000000e+00
0.000000000000000e+00 0.000000000000000e+00 0.000000000000000e+00
0.000000000000000e+00 0.000000000000000e+00 0.000000000000000e+00

0.000000000000000e+00 0.000000000000000e+00 0.000000000000000e+00
0.000000000000000e+00 0.000000000000000e+00 0.000000000000000e+00
0.000000000000000e+00 0.000000000000000e+00 0.000000000000000e+00

0.000000000000000e+00 0.000000000000000e+00 0.000000000000000e+00
0.000000000000000e+00 0.000000000000000e+00 0.000000000000000e+00
0.000000000000000e+00 0.000000000000000e+00 0.000000000000000e+00

0.000000000000000e+00 0.000000000000000e+00 0.000000000000000e+00
0.000000000000000e+00 0.000000000000000e+00 0.000000000000000e+00
0.000000000000000e+00 0.000000000000000e+00 0.000000000000000e+00

0.000000000000000e+00 0.000000000000000e+00 0.000000000000000e+00
0.000000000000000e+00 0.000000000000000e+00 0.000000000000000e+00
0.000000000000000e+00 0.000000000000000e+00 0.000000000000000e+00

0.000000000000000e+00 0.000000000000000e+00 0.000000000000000e+00
0.000000000000000e+00 0.000000000000000e+00 0.000000000000000e+00
0.000000000000000e+00 0.000000000000000e+00 0.000000000000000e+00

0.000000000000000e+00 0.000000000000000e+00 0.000000000000000e+00
0.000000000000000e+00 0.000000000000000e+00 0.000000000000000e+00
0.000000000000000e+00 0.000000000000000e+00 0.000000000000000e+00

0.000000000000000e+00 0.000000000000000e+00 0.000000000000000e+00
0.000000000000000e+00 0.000000000000000e+00 0.000000000000000e+00
0.000000000000000e+00 0.000000000000000e+00 0.000000000000000e+00

0.000000000000000e+00 0.000000000000000e+00 0.000000000000000e+00
0.000000000000000e+00 0.000000000000000e+00 0.000000000000000e+00
0.000000000000000e+00 0.000000000000000e+00 0.000000000000000e+00

0.000000000000000e+00 0.000000000000000e+00 0.000000000000000e+00
0.000000000000000e+00 0.000000000000000e+00 0.000000000000000e+00
0.000000000000000e+00 0.000000000000000e+00 0.000000000000000e+00

0.000000000000000e+00 0.000000000000000e+00 0.000000000000000e+00
0.000000000000000e+00 0.000000000000000e+00 0.000000000000000e+00
0.000000000000000e+00 0.000000000000000e+00 0.000000000000000e+00

0.000000000000000e+00 0.000000000000000e+00 0.000000000000000e+00
0.000000000000000e+00 0.000000000000000e+00 0.000000000000000e+00
0.000000000000000e+00 0.000000000000000e+00 0.000000000000000e+00

0.000000000000000e+00 0.000000000000000e+00 0.000000000000000e+00
0.000000000000000e+00 0.000000000000000e+00 0.000000000000000e+00
0.000000000000000e+00 0.000000000000000e+00 0.000000000000000e+00

0.000000000000000e+00 0.000000000000000e+00 0.000000000000000e+00
0.000000000000000e+00 0.000000000000000e+00 0.000000000000000e+00
0.000000000000000e+00 0.000000000000000e+00 0.000000000000000e+00

0.000000000000000e+00 0.000000000000000e+00 0.000000000000000e+00
0.000000000000000e+00 0.000000000000000e+00 0.000000000000000e+00
0.000000000000000e+00 0.000000000000000e+00 0.000000000000000e+00

0.000000000000000e+00 0.000000000000000e+00 0.000000000000000e+00
0.000000000000000e+00 0.000000000000000e+00 0.000000000000000e+00
0.000000000000000e+00 0.000000000000000e+00 0.000000000000000e+00

0.000000000000000e+00 0.000000000000000e+00 0.000000000000000e+00
0.000000000000000e+00 0.000000000000000e+00 0.000000000000000e+00
0.000000000000000e+00 0.000000000000000e+00 0.000000000000000e+00

0.000000000000000e+00 0.000000000000000e+00 0.000000000000000e+00
0.000000000000000e+00 0.000000000000000e+00 0.000000000000000e+00
0.000000000000000e+00 0.000000000000000e+00 0.000000000000000e+00

0.000000000000000e+00 0.000000000000000e+00 0.000000000000000e+00
0.000000000000000e+00 0.000000000000000e+00 0.000000000000000e+00
0.000000000000000e+00 0.000000000000000e+00 0.000000000000000e+00

0.000000000000000e+00 0.000000000000000e+00 0.000000000000000e+00
0.000000000000000e+00 0.000000000000000e+00 0.000000000000000e+00
0.000000000000000e+00 0.000000000000000e+00 0.000000000000000e+00

0.000000000000000e+00 0.000000000000000e+00 0.000000000000000e+00
0.000000000000000e+00 0.000000000000000e+00 0.000000000000000e+00
0.000000000000000e+00 0.000000000000000e+00 0.000000000000000e+00

0.000000000000000e+00 0.000000000000000e+00 0.000000000000000e+00
0.000000000000000e+00 0.000000000000000e+00 0.000000000000000e+00
0.000000000000000e+00 0.000000000000000e+00 0.000000000000000e+00

0.000000000000000e+00 0.000000000000000e+00 0.000000000000000e+00
0.000000000000000e+00 0.000000000000000e+00 0.000000000000000e+00
0.000000000000000e+00 0.000000000000000e+00 0.000000000000000e+00

0.000000000000000e+00 0.000000000000000e+00 0.000000000000000e+00
0.000000000000000e+00 0.000000000000000e+00 0.000000000000000e+00
0.000000000000000e+00 0.000000000000000e+00 0.000000000000000e+00

0.000000000000000e+00 0.000000000000000e+00 0.000000000000000e+00
0.000000000000000e+00 0.000000000000000e+00 0.000000000000000e+00
0.000000000000000e+00 0.000000000000000e+00 0.000000000000000e+00

0.000000000000000e+00 0.000000000000000e+00 0.000000000000000e+00
0.000000000000000e+00 0.000000000000000e+00 0.000000000000000e+00
0.000000000000000e+00 0.000000000000000e+00 0.000000000000000e+00

0.000000000000000e+00 0.000000000000000e+00 0.000000000000000e+00
0.000000000000000e+00 0.000000000000000e+00 0.000000000000000e+00
0.000000000000000e+00 0.000000000000000e+00 0.000000000000000e+00

0.000000000000000e+00 0.000000000000000e+00 0.000000000000000e+00
0.000000000000000e+00 0.000000000000000e+00 0.000000000000000e+00
0.000000000000000e+00 0.000000000000000e+00 0.000000000000000e+00

0.000000000000000e+00 0.000000000000000e+00 0.000000000000000e+00
0.000000000000000e+00 0.000000000000000e+00 0.000000000000000e+00
0.000000000000000e+00 0.000000000000000e+00 0.000000000000000e+00

0.000000000000000e+00 0.000000000000000e+00 0.000000000000000e+00
0.000000000000000e+00 0.000000000000000e+00 0.000000000000000e+00
0.000000000000000e+00 0.000000000000000e+00 0.000000000000000e+00

0.000000000000000e+00 0.000000000000000e+00 0.000000000000000e+00
0.000000000000000e+00 0.000000000000000e+00 0.000000000000000e+00
0.000000000000000e+00 0.000000000000000e+00 0.000000000000000e+00

0.000000000000000e+00 0.000000000000000e+00 0.000000000000000e+00
0.000000000000000e+00 0.000000000000000e+00 0.000000000000000e+00
0.000000000000000e+00 0.000000000000000e+00 0.000000000000000e+00

0.000000000000000e+00 0.000000000000000e+00 0.000000000000000e+00
0.000000000000000e+00 0.000000000000000e+00 0.000000000000000e+00
0.000000000000000e+00 0.000000000000000e+00 0.000000000000000e+00

0.000000000000000e+00 0.000000000000000e+00 0.000000000000000e+00
0.000000000000000e+00 0.000000000000000e+00 0.000000000000000e+00
0.000000000000000e+00 0.000000000000000e+00 0.000000000000000e+00

0.000000000000000e+00 0.000000000000000e+00 0.000000000000000e+00
0.000000000000000e+00 0.000000000000000e+00 0.000000000000000e+00
0.000000000000000e+00 0.000000000000000e+00 0.000000000000000e+00

0.000000000000000e+00 0.000000000000000e+00 0.000000000000000e+00
0.000000000000000e+00 0.000000000000000e+00 0.000000000000000e+00
0.000000000000000e+00 0.000000000000000e+00 0.000000000000000e+00

0.000000000000000e+00 0.000000000000000e+00 0.000000000000000e+00
0.000000000000000e+00 0.000000000000000e+00 0.000000000000000e+00
0.000000000000000e+00 0.000000000000000e+00 0.000000000000000e+00

0.000000000000000e+00 0.000000000000000e+00 0.000000000000000e+00
0.000000000000000e+00 0.000000000000000e+00 0.000000000000000e+00
0.000000000000000e+00 0.000000000000000e+00 0.000000000000000e+00

0.000000000000000e+00 0.000000000000000e+00 0.000000000000000e+00
0.000000000000000e+00 0.000000000000000e+00 0.000000000000000e+00
0.000000000000000e+00 0.000000000000000e+00 0.000000000000000e+00

0.000000000000000e+00 0.000000000000000e+00 0.000000000000000e+00
0.000000000000000e+00 0.000000000000000e+00 0.000000000000000e+00
0.000000000000000e+00 0.000000000000000e+00 0.000000000000000e+00

0.000000000000000e+00 0.000000000000000e+00 0.000000000000000e+00
0.000000000000000e+00 0.000000000000000e+00 0.000000000000000e+00
0.000000000000000e+00 0.000000000000000e+00 0.000000000000000e+00

0.000000000000000e+00 0.000000000000000e+00 0.000000000000000e+00
0.000000000000000e+00 0.000000000000000e+00 0.000000000000000e+00
0.000000000000000e+00 0.000000000000000e+00 0.000000000000000e+00

0.000000000000000e+00 0.000000000000000e+00 0.000000000000000e+00
0.000000000000000e+00 0.000000000000000e+00 0.000000000000000e+00
0.000000000000000e+00 0.000000000000000e+00 0.000000000000000e+00

0.000000000000000e+00 0.000000000000000e+00 0.000000000000000e+00
0.000000000000000e+00 0.000000000000000e+00 0.000000000000000e+00
0.000000000000000e+00 0.000000000000000e+00 0.000000000000000e+00

0.000000000000000e+00 0.000000000000000e+00 0.000000000000000e+00
0.000000000000000e+00 0.000000000000000e+00 0.000000000000000e+00
0.000000000000000e+00 0.000000000000000e+00 0.000000000000000e+00

0.000000000000000e+00 0.000000000000000e+00 0.000000000000000e+00
0.000000000000000e+00 0.000000000000000e+00 0.000000000000000e+00
0.000000000000000e+00 0.000000000000000e+00 0.000000000000000e+00

0.000000000000000e+00 0.000000000000000e+00 0.000000000000000e+00
0.000000000000000e+00 0.000000000000000e+00 0.000000000000000e+00
0.000000000000000e+00 0.000000000000000e+00 0.000000000000000e+00

0.000000000000000e+00 0.000000000000000e+00 0.000000000000000e+00
0.000000000000000e+00 0.000000000000000e+00 0.000000000000000e+00
0.000000000000000e+00 0.000000000000000e+00 0.000000000000000e+00

0.000000000000000e+00 0.000000000000000e+00 0.000000000000000e+00
0.000000000000000e+00 0.000000000000000e+00 0.000000000000000e+00
0.000000000000000e+00 0.000000000000000e+00 0.000000000000000e+00

0.000000000000000e+00 0.000000000000000e+00 0.000000000000000e+00
0.000000000000000e+00 0.000000000000000e+00 0.000000000000000e+00
0.000000000000000e+00 0.000000000000000e+00 0.000000000000000e+00

0.000000000000000e+00 0.000000000000000e+00 0.000000000000000e+00
0.000000000000000e+00 0.000000000000000e+00 0.000000000000000e+00
0.000000000000000e+00 0.000000000000000e+00 0.000000000000000e+00

0.000000000000000e+00 0.000000000000000e+00 0.000000000000000e+00
0.000000000000000e+00 0.000000000000000e+00 0.000000000000000e+00
0.000000000000000e+00 0.000000000000000e+00 0.000000000000000e+00

0.000000000000000e+00 0.000000000000000e+00 0.000000000000000e+00
0.000000000000000e+00 0.000000000000000e+00 0.000000000000000e+00
0.000000000000000e+00 0.000000000000000e+00 0.000000000000000e+00

0.000000000000000e+00 0.000000000000000e+00 0.000000000000000e+00
0.000000000000000e+00 0.000000000000000e+00 0.000000000000000e+00
0.000000000000000e+00 0.000000000000000e+00 0.000000000000000e+00

0.000000000000000e+00 0.000000000000000e+00 0.000000000000000e+00
0.000000000000000e+00 0.000000000000000e+00 0.000000000000000e+00
0.000000000000000e+00 0.000000000000000e+00 0.000000000000000e+00

0.000000000000000e+00 0.000000000000000e+00 0.000000000000000e+00
0.000000000000000e+00 0.000000000000000e+00 0.000000000000000e+00
0.000000000000000e+00 0.000000000000000e+00 0.000000000000000e+00

0.000000000000000e+00 0.000000000000000e+00 0.000000000000000e+00
0.000000000000000e+00 0.000000000000000e+00 0.000000000000000e+00
0.000000000000000e+00 0.000000000000000e+00 0.000000000000000e+00

0.000000000000000e+00 0.000000000000000e+00 0.000000000000000e+00
0.000000000000000e+00 0.000000000000000e+00 0.000000000000000e+00
0.000000000000000e+00 0.000000000000000e+00 0.000000000000000e+00

0.000000000000000e+00 0.000000000000000e+00 0.000000000000000e+00
0.000000000000000e+00 0.000000000000000e+00 0.000000000000000e+00
0.000000000000000e+00 0.000000000000000e+00 0.000000000000000e+00

0.000000000000000e+00 0.000000000000000e+00 0.000000000000000e+00
0.000000000000000e+00 0.000000000000000e+00 0.000000000000000e+00
0.000000000000000e+00 0.000000000000000e+00 0.000000000000000e+00

0.000000000000000e+00 0.000000000000000e+00 0.000000000000000e+00
0.000000000000000e+00 0.000000000000000e+00 0.000000000000000e+00
0.000000000000000e+00 0.000000000000000e+00 0.000000000000000e+00

0.000000000000000e+00 0.000000000000000e+00 0.000000000000000e+00
0.000000000000000e+00 0.000000000000000e+00 0.000000000000000e+00
0.000000000000000e+00 0.000000000000000e+00 0.000000000000000e+00

0.000000000000000e+00 0.000000000000000e+00 0.000000000000000e+00
0.000000000000000e+00 0.000000000000000e+00 0.000000000000000e+00
0.000000000000000e+00 0.000000000000000e+00 0.000000000000000e+00

0.000000000000000e+00 0.000000000000000e+00 0.000000000000000e+00
0.000000000000000e+00 0.000000000000000e+00 0.000000000000000e+00
0.000000000000000e+00 0.000000000000000e+00 0.000000000000000e+00

0.000000000000000e+00 0.000000000000000e+00 0.000000000000000e+00
0.000000000000000e+00 0.000000000000000e+00 0.000000000000000e+00
0.000000000000000e+00 0.000000000000000e+00 0.000000000000000e+00

0.000000000000000e+00 0.000000000000000e+00 0.000000000000000e+00
0.000000000000000e+00 0.000000000000000e+00 0.000000000000000e+00
0.000000000000000e+00 0.000000000000000e+00 0.000000000000000e+00

0.000000000000000e+00 0.000000000000000e+00 0.000000000000000e+00
0.000000000000000e+00 0.000000000000000e+00 0.000000000000000e+00
0.000000000000000e+00 0.000000000000000e+00 0.000000000000000e+00

0.000000000000000e+00 0.000000000000000e+00 0.000000000000000e+00
0.000000000000000e+00 0.000000000000000e+00 0.000000000000000e+00
0.000000000000000e+00 0.000000000000000e+00 0.000000000000000e+00

0.000000000000000e+00 0.000000000000000e+00 0.000000000000000e+00
0.000000000000000e+00 0.000000000000000e+00 0.000000000000000e+00
0.000000000000000e+00 0.000000000000000e+00 0.000000000000000e+00

0.000000000000000e+00 0.000000000000000e+00 0.000000000000000e+00
0.000000000000000e+00 0.000000000000000e+00 0.000000000000000e+00
0.000000000000000e+00 0.000000000000000e+00 0.000000000000000e+00

0.000000000000000e+00 0.000000000000000e+00 0.000000000000000e+00
0.000000000000000e+00 0.000000000000000e+00 0.000000000000000e+00
0.000000000000000e+00 0.000000000000000e+00 0.000000000000000e+00

0.000000000000000e+00 0.000000000000000e+00 0.000000000000000e+00
0.000000000000000e+00 0.000000000000000e+00 0.000000000000000e+00
0.000000000000000e+00 0.000000000000000e+00 0.000000000000000e+00

0.000000000000000e+00 0.000000000000000e+00 0.000000000000000e+00
0.000000000000000e+00 0.000000000000000e+00 0.000000000000000e+00
0.000000000000000e+00 0.000000000000000e+00 0.000000000000000e+00

0.000000000000000e+00 0.000000000000000e+00 0.000000000000000e+00
0.000000000000000e+00 0.000000000000000e+00 0.000000000000000e+00
0.000000000000000e+00 0.000000000000000e+00 0.000000000000000e+00

0.000000000000000e+00 0.000000000000000e+00 0.000000000000000e+00
0.000000000000000e+00 0.000000000000000e+00 0.000000000000000e+00
0.000000000000000e+00 0.000000000000000e+00 0.000000000000000e+00

0.000000000000000e+00 0.000000000000000e+00 0.000000000000000e+00
0.000000000000000e+00 0.000000000000000e+00 0.000000000000000e+00
0.000000000000000e+00 0.000000000000000e+00 0.000000000000000e+00

0.000000000000000e+00 0.000000000000000e+00 0.000000000000000e+00
0.000000000000000e+00 0.000000000000000e+00 0.000000000000000e+00
0.000000000000000e+00 0.000000000000000e+00 0.000000000000000e+00

0.000000000000000e+00 0.000000000000000e+00 0.000000000000000e+00
0.000000000000000e+00 0.000000000000000e+00 0.000000000000000e+00
0.000000000000000e+00 0.000000000000000e+00 0.000000000000000e+00

0.000000000000000e+00 0.000000000000000e+00 0.000000000000000e+00
0.000000000000000e+00 0.000000000000000e+00 0.000000000000000e+00
0.000000000000000e+00 0.000000000000000e+00 0.000000000000000e+00

0.000000000000000e+00 0.000000000000000e+00 0.000000000000000e+00
0.000000000000000e+00 0.000000000000000e+00 0.000000000000000e+00
0.000000000000000e+00 0.000000000000000e+00 0.000000000000000e+00

0.000000000000000e+00 0.000000000000000e+00 0.000000000000000e+00
0.000000000000000e+00 0.000000000000000e+00 0.000000000000000e+00
0.000000000000000e+00 0.000000000000000e+00 0.000000000000000e+00

0.000000000000000e+00 0.000000000000000e+00 0.000000000000000e+00
0.000000000000000e+00 0.000000000000000e+00 0.000000000000000e+00
0.000000000000000e+00 0.000000000000000e+00 0.000000000000000e+00

0.000000000000000e+00 0.000000000000000e+00 0.000000000000000e+00
0.000000000000000e+00 0.000000000000000e+00 0.000000000000000e+00
0.000000000000000e+00 0.000000000000000e+00 0.000000000000000e+00

0.000000000000000e+00 0.000000000000000e+00 0.000000000000000e+00
0.000000000000000e+00 0.000000000000000e+00 0.000000000000000e+00
0.000000000000000e+00 0.000000000000000e+00 0.000000000000000e+00

0.000000000000000e+00 0.000000000000000e+00 0.000000000000000e+00
0.000000000000000e+00 0.000000000000000e+00 0.000000000000000e+00
0.000000000000000e+00 0.000000000000000e+00 0.000000000000000e+00

0.000000000000000e+00 0.000000000000000e+00 0.000000000000000e+00
0.000000000000000e+00 0.000000000000000e+00 0.000000000000000e+00
0.000000000000000e+00 0.000000000000000e+00 0.000000000000000e+00

0.000000000000000e+00 0.000000000000000e+00 0.000000000000000e+00
0.000000000000000e+00 0.000000000000000e+00 0.000000000000000e+00
0.000000000000000e+00 0.000000000000000e+00 0.000000000000000e+00

0.000000000000000e+00 0.000000000000000e+00 0.000000000000000e+00
0.000000000000000e+00 0.000000000000000e+00 0.000000000000000e+00
0.000000000000000e+00 0.000000000000000e+00 0.000000000000000e+00

0.000000000000000e+00 0.000000000000000e+00 0.000000000000000e+00
0.000000000000000e+00 0.000000000000000e+00 0.000000000000000e+00
0.000000000000000e+00 0.000000000000000e+00 0.000000000000000e+00

0.000000000000000e+00 0.000000000000000e+00 0.000000000000000e+00
0.000000000000000e+00 0.000000000000000e+00 0.000000000000000e+00
0.000000000000000e+00 0.000000000000000e+00 0.000000000000000e+00

0.000000000000000e+00 0.000000000000000e+00 0.000000000000000e+00
0.000000000000000e+00 0.000000000000000e+00 0.000000000000000e+00
0.000000000000000e+00 0.000000000000000e+00 0.000000000000000e+00

0.000000000000000e+00 0.000000000000000e+00 0.000000000000000e+00
0.000000000000000e+00 0.000000000000000e+00 0.000000000000000e+00
0.000000000000000e+00 0.000000000000000e+00 0.000000000000000e+00

0.000000000000000e+00 0.000000000000000e+00 0.000000000000000e+00
0.000000000000000e+00 0.000000000000000e+00 0.000000000000000e+00
0.000000000000000e+00 0.000000000000000e+00 0.000000000000000e+00

0.000000000000000e+00 0.000000000000000e+00 0.000000000000000e+00
0.000000000000000e+00 0.000000000000000e+00 0.000000000000000e+00
0.000000000000000e+00 0.000000000000000e+00 0.000000000000000e+00

0.000000000000000e+00 0.000000000000000e+00 0.000000000000000e+00
0.000000000000000e+00 0.000000000000000e+00 0.000000000000000e+00
0.000000000000000e+00 0.000000000000000e+00 0.000000000000000e+00

0.000000000000000e+00 0.000000000000000e+00 0.000000000000000e+00
0.000000000000000e+00 0.000000000000000e+00 0.000000000000000e+00
0.000000000000000e+00 0.000000000000000e+00 0.000000000000000e+00

0.000000000000000e+00 0.000000000000000e+00 0.000000000000000e+00
0.000000000000000e+00 0.000000000000000e+00 0.000000000000000e+00
0.000000000000000e+00 0.000000000000000e+00 0.000000000000000e+00

0.000000000000000e+00 0.000000000000000e+00 0.000000000000000e+00
0.000000000000000e+00 0.000000000000000e+00 0.000000000000000e+00
0.000000000000000e+00 0.000000000000000e+00 0.000000000000000e+00

0.000000000000000e+00 0.000000000000000e+00 0.000000000000000e+00
0.000000000000000e+00 0.000000000000000e+00 0.000000000000000e+00
0.000000000000000e+00 0.000000000000000e+00 0.000000000000000e+00

0.000000000000000e+00 0.000000000000000e+00 0.000000000000000e+00
0.000000000000000e+00 0.000000000000000e+00 0.000000000000000e+00
0.000000000000000e+00 0.000000000000000e+00 0.000000000000000e+00

0.000000000000000e+00 0.000000000000000e+00 0.000000000000000e+00
0.000000000000000e+00 0.000000000000000e+00 0.000000000000000e+00
0.000000000000000e+00 0.000000000000000e+00 0.000000000000000e+00

0.000000000000000e+00 0.000000000000000e+00 0.000000000000000e+00
0.000000000000000e+00 0.000000000000000e+00 0.000000000000000e+00
0.000000000000000e+00 0.000000000000000e+00 0.000000000000000e+00

0.000000000000000e+00 0.000000000000000e+00 0.000000000000000e+00
0.000000000000000e+00 0.000000000000000e+00 0.000000000000000e+00
0.000000000000000e+00 0.000000000000000e+00 0.000000000000000e+00

0.000000000000000e+00 0.000000000000000e+00 0.000000000000000e+00
0.000000000000000e+00 0.000000000000000e+00 0.000000000000000e+00
0.000000000000000e+00 0.000000000000000e+00 0.000000000000000e+00

0.000000000000000e+00 0.000000000000000e+00 0.000000000000000e+00
0.000000000000000e+00 0.000000000000000e+00 0.000000000000000e+00
0.000000000000000e+00 0.000000000000000e+00 0.000000000000000e+00

0.000000000000000e+00 0.000000000000000e+00 0.000000000000000e+00
0.000000000000000e+00 0.000000000000000e+00 0.000000000000000e+00
0.000000000000000e+00 0.000000000000000e+00 0.000000000000000e+00

0.000000000000000e+00 0.000000000000000e+00 0.000000000000000e+00
0.000000000000000e+00 0.000000000000000e+00 0.000000000000000e+00
0.000000000000000e+00 0.000000000000000e+00 0.000000000000000e+00

0.000000000000000e+00 0.000000000000000e+00 0.000000000000000e+00
0.000000000000000e+00 0.000000000000000e+00 0.000000000000000e+00
0.000000000000000e+00 0.000000000000000e+00 0.000000000000000e+00

0.000000000000000e+00 0.000000000000000e+00 0.000000000000000e+00
0.000000000000000e+00 0.000000000000000e+00 0.000000000000000e+00
0.000000000000000e+00 0.000000000000000e+00 0.000000000000000e+00

0.000000000000000e+00 0.000000000000000e+00 0.000000000000000e+00
0.000000000000000e+00 0.000000000000000e+00 0.000000000000000e+00
0.000000000000000e+00 0.000000000000000e+00 0.000000000000000e+00

0.000000000000000e+00 0.000000000000000e+00 0.000000000000000e+00
0.000000000000000e+00 0.000000000000000e+00 0.000000000000000e+00
0.000000000000000e+00 0.000000000000000e+00 0.000000000000000e+00

0.000000000000000e+00 0.000000000000000e+00 0.000000000000000e+00
0.000000000000000e+00 0.000000000000000e+00 0.000000000000000e+00
0.000000000000000e+00 0.000000000000000e+00 0.000000000000000e+00

0.000000000000000e+00 0.000000000000000e+00 0.000000000000000e+00
0.000000000000000e+00 0.000000000000000e+00 0.000000000000000e+00
0.000000000000000e+00 0.000000000000000e+00 0.000000000000000e+00

0.000000000000000e+00 0.000000000000000e+00 0.000000000000000e+00
0.000000000000000e+00 0.000000000000000e+00 0.000000000000000e+00
0.000000000000000e+00 0.000000000000000e+00 0.000000000000000e+00

0.000000000000000e+00 0.000000000000000e+00 0.000000000000000e+00
0.000000000000000e+00 0.000000000000000e+00 0.000000000000000e+00
0.000000000000000e+00 0.000000000000000e+00 0.000000000000000e+00

0.000000000000000e+00 0.000000000000000e+00 0.000000000000000e+00
0.000000000000000e+00 0.000000000000000e+00 0.000000000000000e+00
0.000000000000000e+00 0.000000000000000e+00 0.000000000000000e+00

0.000000000000000e+00 0.000000000000000e+00 0.000000000000000e+00
0.000000000000000e+00 0.000000000000000e+00 0.000000000000000e+00
0.000000000000000e+00 0.000000000000000e+00 0.000000000000000e+00

0.000000000000000e+00 0.000000000000000e+00 0.000000000000000e+00
0.000000000000000e+00 0.000000000000000e+00 0.000000000000000e+00
0.000000000000000e+00 0.000000000000000e+00 0.000000000000000e+00

0.000000000000000e+00 0.000000000000000e+00 0.000000000000000e+00
0.000000000000000e+00 0.000000000000000e+00 0.000000000000000e+00
0.000000000000000e+00 0.000000000000000e+00 0.000000000000000e+00

0.000000000000000e+00 0.000000000000000e+00 0.000000000000000e+00
0.000000000000000e+00 0.000000000000000e+00 0.000000000000000e+00
0.000000000000000e+00 0.000000000000000e+00 0.000000000000000e+00

0.000000000000000e+00 0.000000000000000e+00 0.000000000000000e+00
0.000000000000000e+00 0.000000000000000e+00 0.000000000000000e+00
0.000000000000000e+00 0.000000000000000e+00 0.000000000000000e+00

0.000000000000000e+00 0.000000000000000e+00 0.000000000000000e+00
0.000000000000000e+00 0.000000000000000e+00 0.000000000000000e+00
0.000000000000000e+00 0.000000000000000e+00 0.000000000000000e+00

0.000000000000000e+00 0.000000000000000e+00 0.000000000000000e+00
0.000000000000000e+00 0.000000000000000e+00 0.000000000000000e+00
0.000000000000000e+00 0.000000000000000e+00 0.000000000000000e+00

0.000000000000000e+00 0.000000000000000e+00 0.000000000000000e+00
0.000000000000000e+00 0.000000000000000e+00 0.000000000000000e+00
0.000000000000000e+00 0.000000000000000e+00 0.000000000000000e+00

0.000000000000000e+00 0.000000000000000e+00 0.000000000000000e+00
0.000000000000000e+00 0.000000000000000e+00 0.000000000000000e+00
0.000000000000000e+00 0.000000000000000e+00 0.000000000000000e+00

0.000000000000000e+00 0.000000000000000e+00 0.000000000000000e+00
0.000000000000000e+00 0.000000000000000e+00 0.000000000000000e+00
0.000000000000000e+00 0.000000000000000e+00 0.000000000000000e+00

0.000000000000000e+00 0.000000000000000e+00 0.000000000000000e+00
0.000000000000000e+00 0.000000000000000e+00 0.000000000000000e+00
0.000000000000000e+00 0.000000000000000e+00 0.000000000000000e+00

0.000000000000000e+00 0.000000000000000e+00 0.000000000000000e+00
0.000000000000000e+00 0.000000000000000e+00 0.000000000000000e+00
0.000000000000000e+00 0.000000000000000e+00 0.000000000000000e+00

0.000000000000000e+00 0.000000000000000e+00 0.000000000000000e+00
0.000000000000000e+00 0.000000000000000e+00 0.000000000000000e+00
0.000000000000000e+00 0.000000000000000e+00 0.000000000000000e+00

0.000000000000000e+00 0.000000000000000e+00 0.000000000000000e+00
0.000000000000000e+00 0.000000000000000e+00 0.000000000000000e+00
0.000000000000000e+00 0.000000000000000e+00 0.000000000000000e+00

0.000000000000000e+00 0.000000000000000e+00 0.000000000000000e+00
0.000000000000000e+00 0.000000000000000e+00 0.000000000000000e+00
0.000000000000000e+00 0.000000000000000e+00 0.000000000000000e+00

0.000000000000000e+00 0.000000000000000e+00 0.000000000000000e+00
0.000000000000000e+00 0.000000000000000e+00 0.000000000000000e+00
0.000000000000000e+00 0.000000000000000e+00 0.000000000000000e+00

0.000000000000000e+00 0.000000000000000e+00 0.000000000000000e+00
0.000000000000000e+00 0.000000000000000e+00 0.000000000000000e+00
0.000000000000000e+00 0.000000000000000e+00 0.000000000000000e+00

0.000000000000000e+00 0.000000000000000e+00 0.000000000000000e+00
0.000000000000000e+00 0.000000000000000e+00 0.000000000000000e+00
0.000000000000000e+00 0.000000000000000e+00 0.000000000000000e+00

0.000000000000000e+00 0.000000000000000e+00 0.000000000000000e+00
0.000000000000000e+00 0.000000000000000e+00 0.000000000000000e+00
0.000000000000000e+00 0.000000000000000e+00 0.000000000000000e+00

0.000000000000000e+00 0.000000000000000e+00 0.000000000000000e+00
0.000000000000000e+00 0.000000000000000e+00 0.000000000000000e+00
0.000000000000000e+00 0.000000000000000e+00 0.000000000000000e+00

0.000000000000000e+00 0.000000000000000e+00 0.000000000000000e+00
0.000000000000000e+00 0.000000000000000e+00 0.000000000000000e+00
0.000000000000000e+00 0.000000000000000e+00 0.000000000000000e+00

0.000000000000000e+00 0.000000000000000e+00 0.000000000000000e+00
0.000000000000000e+00 0.000000000000000e+00 0.000000000000000e+00
0.000000000000000e+00 0.000000000000000e+00 0.000000000000000e+00

0.000000000000000e+00 0.000000000000000e+00 0.000000000000000e+00
0.000000000000000e+00 0.000000000000000e+00 0.000000000000000e+00
0.000000000000000e+00 0.000000000000000e+00 0.000000000000000e+00

0.000000000000000e+00 0.000000000000000e+00 0.000000000000000e+00
0.000000000000000e+00 0.000000000000000e+00 0.000000000000000e+00
0.000000000000000e+00 0.000000000000000e+00 0.000000000000000e+00

0.000000000000000e+00 0.000000000000000e+00 0.000000000000000e+00
0.000000000000000e+00 0.000000000000000e+00 0.000000000000000e+00
0.000000000000000e+00 0.000000000000000e+00 0.000000000000000e+00

0.000000000000000e+00 0.000000000000000e+00 0.000000000000000e+00
0.000000000000000e+00 0.000000000000000e+00 0.000000000000000e+00
0.000000000000000e+00 0.000000000000000e+00 0.000000000000000e+00

0.000000000000000e+00 0.000000000000000e+00 0.000000000000000e+00
0.000000000000000e+00 0.000000000000000e+00 0.000000000000000e+00
0.000000000000000e+00 0.000000000000000e+00 0.000000000000000e+00

0.000000000000000e+00 0.000000000000000e+00 0.000000000000000e+00
0.000000000000000e+00 0.000000000000000e+00 0.000000000000000e+00
0.000000000000000e+00 0.000000000000000e+00 0.000000000000000e+00

0.000000000000000e+00 0.000000000000000e+00 0.000000000000000e+00
0.000000000000000e+00 0.000000000000000e+00 0.000000000000000e+00
0.000000000000000e+00 0.000000000000000e+00 0.000000000000000e+00

0.000000000000000e+00 0.000000000000000e+00 0.000000000000000e+00
0.000000000000000e+00 0.000000000000000e+00 0.000000000000000e+00
0.000000000000000e+00 0.000000000000000e+00 0.000000000000000e+00

0.000000000000000e+00 0.000000000000000e+00 0.000000000000000e+00
0.000000000000000e+00 0.000000000000000e+00 0.000000000000000e+00
0.000000000000000e+00 0.000000000000000e+00 0.000000000000000e+00

0.000000000000000e+00 0.000000000000000e+00 0.000000000000000e+00
0.000000000000000e+00 0.000000000000000e+00 0.000000000000000e+00
0.000000000000000e+00 0.000000000000000e+00 0.000000000000000e+00

0.000000000000000e+00 0.000000000000000e+00 0.000000000000000e+00
0.000000000000000e+00 0.000000000000000e+00 0.000000000000000e+00
0.000000000000000e+00 0.000000000000000e+00 0.000000000000000e+00

0.000000000000000e+00 0.000000000000000e+00 0.000000000000000e+00
0.000000000000000e+00 0.000000000000000e+00 0.000000000000000e+00
0.000000000000000e+00 0.000000000000000e+00 0.000000000000000e+00

0.000000000000000e+00 0.000000000000000e+00 0.000000000000000e+00
0.000000000000000e+00 0.000000000000000e+00 0.000000000000000e+00
0.000000000000000e+00 0.000000000000000e+00 0.000000000000000e+00

0.000000000000000e+00 0.000000000000000e+00 0.000000000000000e+00
0.000000000000000e+00 0.000000000000000e+00 0.000000000000000e+00
0.000000000000000e+00 0.000000000000000e+00 0.000000000000000e+00

0.000000000000000e+00 0.000000000000000e+00 0.000000000000000e+00
0.000000000000000e+00 0.000000000000000e+00 0.000000000000000e+00
0.000000000000000e+00 0.000000000000000e+00 0.000000000000000e+00

0.000000000000000e+00 0.000000000000000e+00 0.000000000000000e+00
0.000000000000000e+00 0.000000000000000e+00 0.000000000000000e+00
0.000000000000000e+00 0.000000000000000e+00 0.000000000000000e+00

0.000000000000000e+00 0.000000000000000e+00 0.000000000000000e+00
0.000000000000000e+00 0.000000000000000e+00 0.000000000000000e+00
0.000000000000000e+00 0.000000000000000e+00 0.000000000000000e+00

0.000000000000000e+00 0.000000000000000e+00 0.000000000000000e+00
0.000000000000000e+00 0.000000000000000e+00 0.000000000000000e+00
0.000000000000000e+00 0.000000000000000e+00 0.000000000000000e+00

0.000000000000000e+00 0.000000000000000e+00 0.000000000000000e+00
0.000000000000000e+00 0.000000000000000e+00 0.000000000000000e+00
0.000000000000000e+00 0.000000000000000e+00 0.000000000000000e+00

0.000000000000000e+00 0.000000000000000e+00 0.000000000000000e+00
0.000000000000000e+00 0.000000000000000e+00 0.000000000000000e+00
0.000000000000000e+00 0.000000000000000e+00 0.000000000000000e+00

0.000000000000000e+00 0.000000000000000e+00 0.000000000000000e+00
0.000000000000000e+00 0.000000000000000e+00 0.000000000000000e+00
0.000000000000000e+00 0.000000000000000e+00 0.000000000000000e+00

0.000000000000000e+00 0.000000000000000e+00 0.000000000000000e+00
0.000000000000000e+00 0.000000000000000e+00 0.000000000000000e+00
0.000000000000000e+00 0.000000000000000e+00 0.000000000000000e+00

0.000000000000000e+00 0.000000000000000e+00 0.000000000000000e+00
0.000000000000000e+00 0.000000000000000e+00 0.000000000000000e+00
0.000000000000000e+00 0.000000000000000e+00 0.000000000000000e+00

0.000000000000000e+00 0.000000000000000e+00 0.000000000000000e+00
0.000000000000000e+00 0.000000000000000e+00 0.000000000000000e+00
0.000000000000000e+00 0.000000000000000e+00 0.000000000000000e+00

0.000000000000000e+00 0.000000000000000e+00 0.000000000000000e+00
0.000000000000000e+00 0.000000000000000e+00 0.000000000000000e+00
0.000000000000000e+00 0.000000000000000e+00 0.000000000000000e+00

0.000000000000000e+00 0.000000000000000e+00 0.000000000000000e+00
0.000000000000000e+00 0.000000000000000e+00 0.000000000000000e+00
0.000000000000000e+00 0.000000000000000e+00 0.000000000000000e+00

0.000000000000000e+00 0.000000000000000e+00 0.000000000000000e+00
0.000000000000000e+00 0.000000000000000e+00 0.000000000000000e+00
0.000000000000000e+00 0.000000000000000e+00 0.000000000000000e+00

0.000000000000000e+00 0.000000000000000e+00 0.000000000000000e+00
0.000000000000000e+00 0.000000000000000e+00 0.000000000000000e+00
0.000000000000000e+00 0.000000000000000e+00 0.000000000000000e+00

0.000000000000000e+00 0.000000000000000e+00 0.000000000000000e+00
0.000000000000000e+00 0.000000000000000e+00 0.000000000000000e+00
0.000000000000000e+00 0.000000000000000e+00 0.000000000000000e+00

0.000000000000000e+00 0.000000000000000e+00 0.000000000000000e+00
0.000000000000000e+00 0.000000000000000e+00 0.000000000000000e+00
0.000000000000000e+00 0.000000000000000e+00 0.000000000000000e+00

0.000000000000000e+00 0.000000000000000e+00 0.000000000000000e+00
0.000000000000000e+00 0.000000000000000e+00 0.000000000000000e+00
0.000000000000000e+00 0.000000000000000e+00 0.000000000000000e+00

0.000000000000000e+00 0.000000000000000e+00 0.000000000000000e+00
0.000000000000000e+00 0.000000000000000e+00 0.000000000000000e+00
0.000000000000000e+00 0.000000000000000e+00 0.000000000000000e+00

0.000000000000000e+00 0.000000000000000e+00 0.000000000000000e+00
0.000000000000000e+00 0.000000000000000e+00 0.000000000000000e+00
0.000000000000000e+00 0.000000000000000e+00 0.000000000000000e+00

0.000000000000000e+00 0.000000000000000e+00 0.000000000000000e+00
0.000000000000000e+00 0.000000000000000e+00 0.000000000000000e+00
0.000000000000000e+00 0.000000000000000e+00 0.000000000000000e+00

0.000000000000000e+00 0.000000000000000e+00 0.000000000000000e+00
0.000000000000000e+00 0.000000000000000e+00 0.000000000000000e+00
0.000000000000000e+00 0.000000000000000e+00 0.000000000000000e+00

0.000000000000000e+00 0.000000000000000e+00 0.000000000000000e+00
0.000000000000000e+00 0.000000000000000e+00 0.000000000000000e+00
0.000000000000000e+00 0.000000000000000e+00 0.000000000000000e+00

0.000000000000000e+00 0.000000000000000e+00 0.000000000000000e+00
0.000000000000000e+00 0.000000000000000e+00 0.000000000000000e+00
0.000000000000000e+00 0.000000000000000e+00 0.000000000000000e+00

0.000000000000000e+00 0.000000000000000e+00 0.000000000000000e+00
0.000000000000000e+00 0.000000000000000e+00 0.000000000000000e+00
0.000000000000000e+00 0.000000000000000e+00 0.000000000000000e+00

0.000000000000000e+00 0.000000000000000e+00 0.000000000000000e+00
0.000000000000000e+00 0.000000000000000e+00 0.000000000000000e+00
0.000000000000000e+00 0.000000000000000e+00 0.000000000000000e+00

0.000000000000000e+00 0.000000000000000e+00 0.000000000000000e+00
0.000000000000000e+00 0.000000000000000e+00 0.000000000000000e+00
0.000000000000000e+00 0.000000000000000e+00 0.000000000000000e+00

0.000000000000000e+00 0.000000000000000e+00 0.000000000000000e+00
0.000000000000000e+00 0.000000000000000e+00 0.000000000000000e+00
0.000000000000000e+00 0.000000000000000e+00 0.000000000000000e+00

0.000000000000000e+00 0.000000000000000e+00 0.000000000000000e+00
0.000000000000000e+00 0.000000000000000e+00 0.000000000000000e+00
0.000000000000000e+00 0.000000000000000e+00 0.000000000000000e+00

0.000000000000000e+00 0.000000000000000e+00 0.000000000000000e+00
0.000000000000000e+00 0.000000000000000e+00 0.000000000000000e+00
0.000000000000000e+00 0.000000000000000e+00 0.000000000000000e+00

0.000000000000000e+00 0.000000000000000e+00 0.000000000000000e+00
0.000000000000000e+00 0.000000000000000e+00 0.000000000000000e+00
0.000000000000000e+00 0.000000000000000e+00 0.000000000000000e+00

0.000000000000000e+00 0.000000000000000e+00 0.000000000000000e+00
0.000000000000000e+00 0.000000000000000e+00 0.000000000000000e+00
0.000000000000000e+00 0.000000000000000e+00 0.000000000000000e+00

0.000000000000000e+00 0.000000000000000e+00 0.000000000000000e+00
0.000000000000000e+00 0.000000000000000e+00 0.000000000000000e+00
0.000000000000000e+00 0.000000000000000e+00 0.000000000000000e+00

0.000000000000000e+00 0.000000000000000e+00 0.000000000000000e+00
0.000000000000000e+00 0.000000000000000e+00 0.000000000000000e+00
0.000000000000000e+00 0.000000000000000e+00 0.000000000000000e+00

0.000000000000000e+00 0.000000000000000e+00 0.000000000000000e+00
0.000000000000000e+00 0.000000000000000e+00 0.000000000000000e+00
0.000000000000000e+00 0.000000000000000e+00 0.000000000000000e+00

0.000000000000000e+00 0.000000000000000e+00 0.000000000000000e+00
0.000000000000000e+00 0.000000000000000e+00 0.000000000000000e+00
0.000000000000000e+00 0.000000000000000e+00 0.000000000000000e+00

0.000000000000000e+00 0.000000000000000e+00 0.000000000000000e+00
0.000000000000000e+00 0.000000000000000e+00 0.000000000000000e+00
0.000000000000000e+00 0.000000000000000e+00 0.000000000000000e+00

0.000000000000000e+00 0.000000000000000e+00 0.000000000000000e+00
0.000000000000000e+00 0.000000000000000e+00 0.000000000000000e+00
0.000000000000000e+00 0.000000000000000e+00 0.000000000000000e+00

0.000000000000000e+00 0.000000000000000e+00 0.000000000000000e+00
0.000000000000000e+00 0.000000000000000e+00 0.000000000000000e+00
0.000000000000000e+00 0.000000000000000e+00 0.000000000000000e+00

0.000000000000000e+00 0.000000000000000e+00 0.000000000000000e+00
0.000000000000000e+00 0.000000000000000e+00 0.000000000000000e+00
0.000000000000000e+00 0.000000000000000e+00 0.000000000000000e+00

0.000000000000000e+00 0.000000000000000e+00 0.000000000000000e+00
0.000000000000000e+00 0.000000000000000e+00 0.000000000000000e+00
0.000000000000000e+00 0.000000000000000e+00 0.000000000000000e+00

0.000000000000000e+00 0.000000000000000e+00 0.000000000000000e+00
0.000000000000000e+00 0.000000000000000e+00 0.000000000000000e+00
0.000000000000000e+00 0.000000000000000e+00 0.000000000000000e+00

0.000000000000000e+00 0.000000000000000e+00 0.000000000000000e+00
0.000000000000000e+00 0.000000000000000e+00 0.000000000000000e+00
0.000000000000000e+00 0.000000000000000e+00 0.000000000000000e+00

0.000000000000000e+00 0.000000000000000e+00 0.000000000000000e+00
0.000000000000000e+00 0.000000000000000e+00 0.000000000000000e+00
0.000000000000000e+00 0.000000000000000e+00 0.000000000000000e+00

0.000000000000000e+00 0.000000000000000e+00 0.000000000000000e+00
0.000000000000000e+00 0.000000000000000e+00 0.000000000000000e+00
0.000000000000000e+00 0.000000000000000e+00 0.000000000000000e+00

0.000000000000000e+00 0.000000000000000e+00 0.000000000000000e+00
0.000000000000000e+00 0.000000000000000e+00 0.000000000000000e+00
0.000000000000000e+00 0.000000000000000e+00 0.000000000000000e+00

0.000000000000000e+00 0.000000000000000e+00 0.000000000000000e+00
0.000000000000000e+00 0.000000000000000e+00 0.000000000000000e+00
0.000000000000000e+00 0.000000000000000e+00 0.000000000000000e+00

0.000000000000000e+00 0.000000000000000e+00 0.000000000000000e+00
0.000000000000000e+00 0.000000000000000e+00 0.000000000000000e+00
0.000000000000000e+00 0.000000000000000e+00 0.000000000000000e+00

0.000000000000000e+00 0.000000000000000e+00 0.000000000000000e+00
0.000000000000000e+00 0.000000000000000e+00 0.000000000000000e+00
0.000000000000000e+00 0.000000000000000e+00 0.000000000000000e+00

0.000000000000000e+00 0.000000000000000e+00 0.000000000000000e+00
0.000000000000000e+00 0.000000000000000e+00 0.000000000000000e+00
0.000000000000000e+00 0.000000000000000e+00 0.000000000000000e+00

0.000000000000000e+00 0.000000000000000e+00 0.000000000000000e+00
0.000000000000000e+00 0.000000000000000e+00 0.000000000000000e+00
0.000000000000000e+00 0.000000000000000e+00 0.000000000000000e+00

0.000000000000000e+00 0.000000000000000e+00 0.000000000000000e+00
0.000000000000000e+00 0.000000000000000e+00 0.000000000000000e+00
0.000000000000000e+00 0.000000000000000e+00 0.000000000000000e+00

0.000000000000000e+00 0.000000000000000e+00 0.000000000000000e+00
0.000000000000000e+00 0.000000000000000e+00 0.000000000000000e+00
0.000000000000000e+00 0.000000000000000e+00 0.000000000000000e+00

0.000000000000000e+00 0.000000000000000e+00 0.000000000000000e+00
0.000000000000000e+00 0.000000000000000e+00 0.000000000000000e+00
0.000000000000000e+00 0.000000000000000e+00 0.000000000000000e+00

0.000000000000000e+00 0.000000000000000e+00 0.000000000000000e+00
0.000000000000000e+00 0.000000000000000e+00 0.000000000000000e+00
0.000000000000000e+00 0.000000000000000e+00 0.000000000000000e+00

0.000000000000000e+00 0.000000000000000e+00 0.000000000000000e+00
0.000000000000000e+00 0.000000000000000e+00 0.000000000000000e+00
0.000000000000000e+00 0.000000000000000e+00 0.000000000000000e+00

0.000000000000000e+00 0.000000000000000e+00 0.000000000000000e+00
0.000000000000000e+00 0.000000000000000e+00 0.000000000000000e+00
0.000000000000000e+00 0.000000000000000e+00 0.000000000000000e+00

0.000000000000000e+00 0.000000000000000e+00 0.000000000000000e+00
0.000000000000000e+00 0.000000000000000e+00 0.000000000000000e+00
0.000000000000000e+00 0.000000000000000e+00 0.000000000000000e+00

0.000000000000000e+00 0.000000000000000e+00 0.000000000000000e+00
0.000000000000000e+00 0.000000000000000e+00 0.000000000000000e+00
0.000000000000000e+00 0.000000000000000e+00 0.000000000000000e+00

0.000000000000000e+00 0.000000000000000e+00 0.000000000000000e+00
0.000000000000000e+00 0.000000000000000e+00 0.000000000000000e+00
0.000000000000000e+00 0.000000000000000e+00 0.000000000000000e+00

0.000000000000000e+00 0.000000000000000e+00 0.000000000000000e+00
0.000000000000000e+00 0.000000000000000e+00 0.000000000000000e+00
0.000000000000000e+00 0.000000000000000e+00 0.000000000000000e+00

0.000000000000000e+00 0.000000000000000e+00 0.000000000000000e+00
0.000000000000000e+00 0.000000000000000e+00 0.000000000000000e+00
0.000000000000000e+00 0.000000000000000e+00 0.000000000000000e+00

0.000000000000000e+00 0.000000000000000e+00 0.000000000000000e+00
0.000000000000000e+00 0.000000000000000e+00 0.000000000000000e+00
0.000000000000000e+00 0.000000000000000e+00 0.000000000000000e+00

0.000000000000000e+00 0.000000000000000e+00 0.000000000000000e+00
0.000000000000000e+00 0.000000000000000e+00 0.000000000000000e+00
0.000000000000000e+00 0.000000000000000e+00 0.000000000000000e+00

0.000000000000000e+00 0.000000000000000e+00 0.000000000000000e+00
0.000000000000000e+00 0.000000000000000e+00 0.000000000000000e+00
0.000000000000000e+00 0.000000000000000e+00 0.000000000000000e+00

0.000000000000000e+00 0.000000000000000e+00 0.000000000000000e+00
0.000000000000000e+00 0.000000000000000e+00 0.000000000000000e+00
0.000000000000000e+00 0.000000000000000e+00 0.000000000000000e+00

0.000000000000000e+00 0.000000000000000e+00 0.000000000000000e+00
0.000000000000000e+00 0.000000000000000e+00 0.000000000000000e+00
0.000000000000000e+00 0.000000000000000e+00 0.000000000000000e+00

0.000000000000000e+00 0.000000000000000e+00 0.000000000000000e+00
0.000000000000000e+00 0.000000000000000e+00 0.000000000000000e+00
0.000000000000000e+00 0.000000000000000e+00 0.000000000000000e+00

0.000000000000000e+00 0.000000000000000e+00 0.000000000000000e+00
0.000000000000000e+00 0.000000000000000e+00 0.000000000000000e+00
0.000000000000000e+00 0.000000000000000e+00 0.000000000000000e+00

0.000000000000000e+00 0.000000000000000e+00 0.000000000000000e+00
0.000000000000000e+00 0.000000000000000e+00 0.000000000000000e+00
0.000000000000000e+00 0.000000000000000e+00 0.000000000000000e+00

0.000000000000000e+00 0.000000000000000e+00 0.000000000000000e+00
0.000000000000000e+00 0.000000000000000e+00 0.000000000000000e+00
0.000000000000000e+00 0.000000000000000e+00 0.000000000000000e+00

0.000000000000000e+00 0.000000000000000e+00 0.000000000000000e+00
0.000000000000000e+00 0.000000000000000e+00 0.000000000000000e+00
0.000000000000000e+00 0.000000000000000e+00 0.000000000000000e+00

0.000000000000000e+00 0.000000000000000e+00 0.000000000000000e+00
0.000000000000000e+00 0.000000000000000e+00 0.000000000000000e+00
0.000000000000000e+00 0.000000000000000e+00 0.000000000000000e+00

0.000000000000000e+00 0.000000000000000e+00 0.000000000000000e+00
0.000000000000000e+00 0.000000000000000e+00 0.000000000000000e+00
0.000000000000000e+00 0.000000000000000e+00 0.000000000000000e+00

0.000000000000000e+00 0.000000000000000e+00 0.000000000000000e+00
0.000000000000000e+00 0.000000000000000e+00 0.000000000000000e+00
0.000000000000000e+00 0.000000000000000e+00 0.000000000000000e+00

0.000000000000000e+00 0.000000000000000e+00 0.000000000000000e+00
0.000000000000000e+00 0.000000000000000e+00 0.000000000000000e+00
0.000000000000000e+00 0.000000000000000e+00 0.000000000000000e+00

0.000000000000000e+00 0.000000000000000e+00 0.000000000000000e+00
0.000000000000000e+00 0.000000000000000e+00 0.000000000000000e+00
0.000000000000000e+00 0.000000000000000e+00 0.000000000000000e+00

0.000000000000000e+00 0.000000000000000e+00 0.000000000000000e+00
0.000000000000000e+00 0.000000000000000e+00 0.000000000000000e+00
0.000000000000000e+00 0.000000000000000e+00 0.000000000000000e+00

0.000000000000000e+00 0.000000000000000e+00 0.000000000000000e+00
0.000000000000000e+00 0.000000000000000e+00 0.000000000000000e+00
0.000000000000000e+00 0.000000000000000e+00 0.000000000000000e+00

0.000000000000000e+00 0.000000000000000e+00 0.000000000000000e+00
0.000000000000000e+00 0.000000000000000e+00 0.000000000000000e+00
0.000000000000000e+00 0.000000000000000e+00 0.000000000000000e+00

0.000000000000000e+00 0.000000000000000e+00 0.000000000000000e+00
0.000000000000000e+00 0.000000000000000e+00 0.000000000000000e+00
0.000000000000000e+00 0.000000000000000e+00 0.000000000000000e+00

0.000000000000000e+00 0.000000000000000e+00 0.000000000000000e+00
0.000000000000000e+00 0.000000000000000e+00 0.000000000000000e+00
0.000000000000000e+00 0.000000000000000e+00 0.000000000000000e+00

0.000000000000000e+00 0.000000000000000e+00 0.000000000000000e+00
0.000000000000000e+00 0.000000000000000e+00 0.000000000000000e+00
0.000000000000000e+00 0.000000000000000e+00 0.000000000000000e+00

0.000000000000000e+00 0.000000000000000e+00 0.000000000000000e+00
0.000000000000000e+00 0.000000000000000e+00 0.000000000000000e+00
0.000000000000000e+00 0.000000000000000e+00 0.000000000000000e+00

0.000000000000000e+00 0.000000000000000e+00 0.000000000000000e+00
0.000000000000000e+00 0.000000000000000e+00 0.000000000000000e+00
0.000000000000000e+00 0.000000000000000e+00 0.000000000000000e+00

0.000000000000000e+00 0.000000000000000e+00 0.000000000000000e+00
0.000000000000000e+00 0.000000000000000e+00 0.000000000000000e+00
0.000000000000000e+00 0.000000000000000e+00 0.000000000000000e+00

0.000000000000000e+00 0.000000000000000e+00 0.000000000000000e+00
0.000000000000000e+00 0.000000000000000e+00 0.000000000000000e+00
0.000000000000000e+00 0.000000000000000e+00 0.000000000000000e+00

0.000000000000000e+00 0.000000000000000e+00 0.000000000000000e+00
0.000000000000000e+00 0.000000000000000e+00 0.000000000000000e+00
0.000000000000000e+00 0.000000000000000e+00 0.000000000000000e+00

0.000000000000000e+00 0.000000000000000e+00 0.000000000000000e+00
0.000000000000000e+00 0.000000000000000e+00 0.000000000000000e+00
0.000000000000000e+00 0.000000000000000e+00 0.000000000000000e+00

0.000000000000000e+00 0.000000000000000e+00 0.000000000000000e+00
0.000000000000000e+00 0.000000000000000e+00 0.000000000000000e+00
0.000000000000000e+00 0.000000000000000e+00 0.000000000000000e+00

0.000000000000000e+00 0.000000000000000e+00 0.000000000000000e+00
0.000000000000000e+00 0.000000000000000e+00 0.000000000000000e+00
0.000000000000000e+00 0.000000000000000e+00 0.000000000000000e+00

0.000000000000000e+00 0.000000000000000e+00 0.000000000000000e+00
0.000000000000000e+00 0.000000000000000e+00 0.000000000000000e+00
0.000000000000000e+00 0.000000000000000e+00 0.000000000000000e+00

0.000000000000000e+00 0.000000000000000e+00 0.000000000000000e+00
0.000000000000000e+00 0.000000000000000e+00 0.000000000000000e+00
0.000000000000000e+00 0.000000000000000e+00 0.000000000000000e+00

0.000000000000000e+00 0.000000000000000e+00 0.000000000000000e+00
0.000000000000000e+00 0.000000000000000e+00 0.000000000000000e+00
0.000000000000000e+00 0.000000000000000e+00 0.000000000000000e+00

0.000000000000000e+00 0.000000000000000e+00 0.000000000000000e+00
0.000000000000000e+00 0.000000000000000e+00 0.000000000000000e+00
0.000000000000000e+00 0.000000000000000e+00 0.000000000000000e+00

0.000000000000000e+00 0.000000000000000e+00 0.000000000000000e+00
0.000000000000000e+00 0.000000000000000e+00 0.000000000000000e+00
0.000000000000000e+00 0.000000000000000e+00 0.000000000000000e+00

0.000000000000000e+00 0.000000000000000e+00 0.000000000000000e+00
0.000000000000000e+00 0.000000000000000e+00 0.000000000000000e+00
0.000000000000000e+00 0.000000000000000e+00 0.000000000000000e+00

0.000000000000000e+00 0.000000000000000e+00 0.000000000000000e+00
0.000000000000000e+00 0.000000000000000e+00 0.000000000000000e+00
0.000000000000000e+00 0.000000000000000e+00 0.000000000000000e+00

0.000000000000000e+00 0.000000000000000e+00 0.000000000000000e+00
0.000000000000000e+00 0.000000000000000e+00 0.000000000000000e+00
0.000000000000000e+00 0.000000000000000e+00 0.000000000000000e+00

0.000000000000000e+00 0.000000000000000e+00 0.000000000000000e+00
0.000000000000000e+00 0.000000000000000e+00 0.000000000000000e+00
0.000000000000000e+00 0.000000000000000e+00 0.000000000000000e+00

0.000000000000000e+00 0.000000000000000e+00 0.000000000000000e+00
0.000000000000000e+00 0.000000000000000e+00 0.000000000000000e+00
0.000000000000000e+00 0.000000000000000e+00 0.000000000000000e+00

0.000000000000000e+00 0.000000000000000e+00 0.000000000000000e+00
0.000000000000000e+00 0.000000000000000e+00 0.000000000000000e+00
0.000000000000000e+00 0.000000000000000e+00 0.000000000000000e+00

0.000000000000000e+00 0.000000000000000e+00 0.000000000000000e+00
0.000000000000000e+00 0.000000000000000e+00 0.000000000000000e+00
0.000000000000000e+00 0.000000000000000e+00 0.000000000000000e+00

0.000000000000000e+00 0.000000000000000e+00 0.000000000000000e+00
0.000000000000000e+00 0.000000000000000e+00 0.000000000000000e+00
0.000000000000000e+00 0.000000000000000e+00 0.000000000000000e+00

0.000000000000000e+00 0.000000000000000e+00 0.000000000000000e+00
0.000000000000000e+00 0.000000000000000e+00 0.000000000000000e+00
0.000000000000000e+00 0.000000000000000e+00 0.000000000000000e+00

0.000000000000000e+00 0.000000000000000e+00 0.000000000000000e+00
0.000000000000000e+00 0.000000000000000e+00 0.000000000000000e+00
0.000000000000000e+00 0.000000000000000e+00 0.000000000000000e+00

0.000000000000000e+00 0.000000000000000e+00 0.000000000000000e+00
0.000000000000000e+00 0.000000000000000e+00 0.000000000000000e+00
0.000000000000000e+00 0.000000000000000e+00 0.000000000000000e+00

0.000000000000000e+00 0.000000000000000e+00 0.000000000000000e+00
0.000000000000000e+00 0.000000000000000e+00 0.000000000000000e+00
0.000000000000000e+00 0.000000000000000e+00 0.000000000000000e+00

0.000000000000000e+00 0.000000000000000e+00 0.000000000000000e+00
0.000000000000000e+00 0.000000000000000e+00 0.000000000000000e+00
0.000000000000000e+00 0.000000000000000e+00 0.000000000000000e+00

0.000000000000000e+00 0.000000000000000e+00 0.000000000000000e+00
0.000000000000000e+00 0.000000000000000e+00 0.000000000000000e+00
0.000000000000000e+00 0.000000000000000e+00 0.000000000000000e+00

0.000000000000000e+00 0.000000000000000e+00 0.000000000000000e+00
0.000000000000000e+00 0.000000000000000e+00 0.000000000000000e+00
0.000000000000000e+00 0.000000000000000e+00 0.000000000000000e+00

0.000000000000000e+00 0.000000000000000e+00 0.000000000000000e+00
0.000000000000000e+00 0.000000000000000e+00 0.000000000000000e+00
0.000000000000000e+00 0.000000000000000e+00 0.000000000000000e+00

0.000000000000000e+00 0.000000000000000e+00 0.000000000000000e+00
0.000000000000000e+00 0.000000000000000e+00 0.000000000000000e+00
0.000000000000000e+00 0.000000000000000e+00 0.000000000000000e+00

0.000000000000000e+00 0.000000000000000e+00 0.000000000000000e+00
0.000000000000000e+00 0.000000000000000e+00 0.000000000000000e+00
0.000000000000000e+00 0.000000000000000e+00 0.000000000000000e+00

0.000000000000000e+00 0.000000000000000e+00 0.000000000000000e+00
0.000000000000000e+00 0.000000000000000e+00 0.000000000000000e+00
0.000000000000000e+00 0.000000000000000e+00 0.000000000000000e+00

0.000000000000000e+00 0.000000000000000e+00 0.000000000000000e+00
0.000000000000000e+00 0.000000000000000e+00 0.000000000000000e+00
0.000000000000000e+00 0.000000000000000e+00 0.000000000000000e+00

0.000000000000000e+00 0.000000000000000e+00 0.000000000000000e+00
0.000000000000000e+00 0.000000000000000e+00 0.000000000000000e+00
0.000000000000000e+00 0.000000000000000e+00 0.000000000000000e+00

0.000000000000000e+00 0.000000000000000e+00 0.000000000000000e+00
0.000000000000000e+00 0.000000000000000e+00 0.000000000000000e+00
0.000000000000000e+00 0.000000000000000e+00 0.000000000000000e+00

0.000000000000000e+00 0.000000000000000e+00 0.000000000000000e+00
0.000000000000000e+00 0.000000000000000e+00 0.000000000000000e+00
0.000000000000000e+00 0.000000000000000e+00 0.000000000000000e+00

0.000000000000000e+00 0.000000000000000e+00 0.000000000000000e+00
0.000000000000000e+00 0.000000000000000e+00 0.000000000000000e+00
0.000000000000000e+00 0.000000000000000e+00 0.000000000000000e+00

0.000000000000000e+00 0.000000000000000e+00 0.000000000000000e+00
0.000000000000000e+00 0.000000000000000e+00 0.000000000000000e+00
0.000000000000000e+00 0.000000000000000e+00 0.000000000000000e+00

0.000000000000000e+00 0.000000000000000e+00 0.000000000000000e+00
0.000000000000000e+00 0.000000000000000e+00 0.000000000000000e+00
0.000000000000000e+00 0.000000000000000e+00 0.000000000000000e+00

0.000000000000000e+00 0.000000000000000e+00 0.000000000000000e+00
0.000000000000000e+00 0.000000000000000e+00 0.000000000000000e+00
0.000000000000000e+00 0.000000000000000e+00 0.000000000000000e+00

0.000000000000000e+00 0.000000000000000e+00 0.000000000000000e+00
0.000000000000000e+00 0.000000000000000e+00 0.000000000000000e+00
0.000000000000000e+00 0.000000000000000e+00 0.000000000000000e+00

0.000000000000000e+00 0.000000000000000e+00 0.000000000000000e+00
0.000000000000000e+00 0.000000000000000e+00 0.000000000000000e+00
0.000000000000000e+00 0.000000000000000e+00 0.000000000000000e+00

0.000000000000000e+00 0.000000000000000e+00 0.000000000000000e+00
0.000000000000000e+00 0.000000000000000e+00 0.000000000000000e+00
0.000000000000000e+00 0.000000000000000e+00 0.000000000000000e+00

0.000000000000000e+00 0.000000000000000e+00 0.000000000000000e+00
0.000000000000000e+00 0.000000000000000e+00 0.000000000000000e+00
0.000000000000000e+00 0.000000000000000e+00 0.000000000000000e+00

0.000000000000000e+00 0.000000000000000e+00 0.000000000000000e+00
0.000000000000000e+00 0.000000000000000e+00 0.000000000000000e+00
0.000000000000000e+00 0.000000000000000e+00 0.000000000000000e+00

0.000000000000000e+00 0.000000000000000e+00 0.000000000000000e+00
0.000000000000000e+00 0.000000000000000e+00 0.000000000000000e+00
0.000000000000000e+00 0.000000000000000e+00 0.000000000000000e+00

0.000000000000000e+00 0.000000000000000e+00 0.000000000000000e+00
0.000000000000000e+00 0.000000000000000e+00 0.000000000000000e+00
0.000000000000000e+00 0.000000000000000e+00 0.000000000000000e+00

0.000000000000000e+00 0.000000000000000e+00 0.000000000000000e+00
0.000000000000000e+00 0.000000000000000e+00 0.000000000000000e+00
0.000000000000000e+00 0.000000000000000e+00 0.000000000000000e+00

0.000000000000000e+00 0.000000000000000e+00 0.000000000000000e+00
0.000000000000000e+00 0.000000000000000e+00 0.000000000000000e+00
0.000000000000000e+00 0.000000000000000e+00 0.000000000000000e+00

0.000000000000000e+00 0.000000000000000e+00 0.000000000000000e+00
0.000000000000000e+00 0.000000000000000e+00 0.000000000000000e+00
0.000000000000000e+00 0.000000000000000e+00 0.000000000000000e+00

0.000000000000000e+00 0.000000000000000e+00 0.000000000000000e+00
0.000000000000000e+00 0.000000000000000e+00 0.000000000000000e+00
0.000000000000000e+00 0.000000000000000e+00 0.000000000000000e+00

0.000000000000000e+00 0.000000000000000e+00 0.000000000000000e+00
0.000000000000000e+00 0.000000000000000e+00 0.000000000000000e+00
0.000000000000000e+00 0.000000000000000e+00 0.000000000000000e+00

0.000000000000000e+00 0.000000000000000e+00 0.000000000000000e+00
0.000000000000000e+00 0.000000000000000e+00 0.000000000000000e+00
0.000000000000000e+00 0.000000000000000e+00 0.000000000000000e+00

0.000000000000000e+00 0.000000000000000e+00 0.000000000000000e+00
0.000000000000000e+00 0.000000000000000e+00 0.000000000000000e+00
0.000000000000000e+00 0.000000000000000e+00 0.000000000000000e+00

0.000000000000000e+00 0.000000000000000e+00 0.000000000000000e+00
0.000000000000000e+00 0.000000000000000e+00 0.000000000000000e+00
0.000000000000000e+00 0.000000000000000e+00 0.000000000000000e+00

0.000000000000000e+00 0.000000000000000e+00 0.000000000000000e+00
0.000000000000000e+00 0.000000000000000e+00 0.000000000000000e+00
0.000000000000000e+00 0.000000000000000e+00 0.000000000000000e+00

0.000000000000000e+00 0.000000000000000e+00 0.000000000000000e+00
0.000000000000000e+00 0.000000000000000e+00 0.000000000000000e+00
0.000000000000000e+00 0.000000000000000e+00 0.000000000000000e+00

0.000000000000000e+00 0.000000000000000e+00 0.000000000000000e+00
0.000000000000000e+00 0.000000000000000e+00 0.000000000000000e+00
0.000000000000000e+00 0.000000000000000e+00 0.000000000000000e+00

0.000000000000000e+00 0.000000000000000e+00 0.000000000000000e+00
0.000000000000000e+00 0.000000000000000e+00 0.000000000000000e+00
0.000000000000000e+00 0.000000000000000e+00 0.000000000000000e+00

0.000000000000000e+00 0.000000000000000e+00 0.000000000000000e+00
0.000000000000000e+00 0.000000000000000e+00 0.000000000000000e+00
0.000000000000000e+00 0.000000000000000e+00 0.000000000000000e+00

0.000000000000000e+00 0.000000000000000e+00 0.000000000000000e+00
0.000000000000000e+00 0.000000000000000e+00 0.000000000000000e+00
0.000000000000000e+00 0.000000000000000e+00 0.000000000000000e+00

0.000000000000000e+00 0.000000000000000e+00 0.000000000000000e+00
0.000000000000000e+00 0.000000000000000e+00 0.000000000000000e+00
0.000000000000000e+00 0.000000000000000e+00 0.000000000000000e+00

0.000000000000000e+00 0.000000000000000e+00 0.000000000000000e+00
0.000000000000000e+00 0.000000000000000e+00 0.000000000000000e+00
0.000000000000000e+00 0.000000000000000e+00 0.000000000000000e+00

0.000000000000000e+00 0.000000000000000e+00 0.000000000000000e+00
0.000000000000000e+00 0.000000000000000e+00 0.000000000000000e+00
0.000000000000000e+00 0.000000000000000e+00 0.000000000000000e+00

0.000000000000000e+00 0.000000000000000e+00 0.000000000000000e+00
0.000000000000000e+00 0.000000000000000e+00 0.000000000000000e+00
0.000000000000000e+00 0.000000000000000e+00 0.000000000000000e+00

0.000000000000000e+00 0.000000000000000e+00 0.000000000000000e+00
0.000000000000000e+00 0.000000000000000e+00 0.000000000000000e+00
0.000000000000000e+00 0.000000000000000e+00 0.000000000000000e+00

0.000000000000000e+00 0.000000000000000e+00 0.000000000000000e+00
0.000000000000000e+00 0.000000000000000e+00 0.000000000000000e+00
0.000000000000000e+00 0.000000000000000e+00 0.000000000000000e+00

0.000000000000000e+00 0.000000000000000e+00 0.000000000000000e+00
0.000000000000000e+00 0.000000000000000e+00 0.000000000000000e+00
0.000000000000000e+00 0.000000000000000e+00 0.000000000000000e+00

0.000000000000000e+00 0.000000000000000e+00 0.000000000000000e+00
0.000000000000000e+00 0.000000000000000e+00 0.000000000000000e+00
0.000000000000000e+00 0.000000000000000e+00 0.000000000000000e+00

0.000000000000000e+00 0.000000000000000e+00 0.000000000000000e+00
0.000000000000000e+00 0.000000000000000e+00 0.000000000000000e+00
0.000000000000000e+00 0.000000000000000e+00 0.000000000000000e+00

0.000000000000000e+00 0.000000000000000e+00 0.000000000000000e+00
0.000000000000000e+00 0.000000000000000e+00 0.000000000000000e+00
0.000000000000000e+00 0.000000000000000e+00 0.000000000000000e+00

0.000000000000000e+00 0.000000000000000e+00 0.000000000000000e+00
0.000000000000000e+00 0.000000000000000e+00 0.000000000000000e+00
0.000000000000000e+00 0.000000000000000e+00 0.000000000000000e+00

0.000000000000000e+00 0.000000000000000e+00 0.000000000000000e+00
0.000000000000000e+00 0.000000000000000e+00 0.000000000000000e+00
0.000000000000000e+00 0.000000000000000e+00 0.000000000000000e+00

0.000000000000000e+00 0.000000000000000e+00 0.000000000000000e+00
0.000000000000000e+00 0.000000000000000e+00 0.000000000000000e+00
0.000000000000000e+00 0.000000000000000e+00 0.000000000000000e+00

0.000000000000000e+00 0.000000000000000e+00 0.000000000000000e+00
0.000000000000000e+00 0.000000000000000e+00 0.000000000000000e+00
0.000000000000000e+00 0.000000000000000e+00 0.000000000000000e+00

0.000000000000000e+00 0.000000000000000e+00 0.000000000000000e+00
0.000000000000000e+00 0.000000000000000e+00 0.000000000000000e+00
0.000000000000000e+00 0.000000000000000e+00 0.000000000000000e+00

0.000000000000000e+00 0.000000000000000e+00 0.000000000000000e+00
0.000000000000000e+00 0.000000000000000e+00 0.000000000000000e+00
0.000000000000000e+00 0.000000000000000e+00 0.000000000000000e+00

0.000000000000000e+00 0.000000000000000e+00 0.000000000000000e+00
0.000000000000000e+00 0.000000000000000e+00 0.000000000000000e+00
0.000000000000000e+00 0.000000000000000e+00 0.000000000000000e+00

0.000000000000000e+00 0.000000000000000e+00 0.000000000000000e+00
0.000000000000000e+00 0.000000000000000e+00 0.000000000000000e+00
0.000000000000000e+00 0.000000000000000e+00 0.000000000000000e+00

0.000000000000000e+00 0.000000000000000e+00 0.000000000000000e+00
0.000000000000000e+00 0.000000000000000e+00 0.000000000000000e+00
0.000000000000000e+00 0.000000000000000e+00 0.000000000000000e+00

0.000000000000000e+00 0.000000000000000e+00 0.000000000000000e+00
0.000000000000000e+00 0.000000000000000e+00 0.000000000000000e+00
0.000000000000000e+00 0.000000000000000e+00 0.000000000000000e+00

0.000000000000000e+00 0.000000000000000e+00 0.000000000000000e+00
0.000000000000000e+00 0.000000000000000e+00 0.000000000000000e+00
0.000000000000000e+00 0.000000000000000e+00 0.000000000000000e+00

0.000000000000000e+00 0.000000000000000e+00 0.000000000000000e+00
0.000000000000000e+00 0.000000000000000e+00 0.000000000000000e+00
0.000000000000000e+00 0.000000000000000e+00 0.000000000000000e+00

0.000000000000000e+00 0.000000000000000e+00 0.000000000000000e+00
0.000000000000000e+00 0.000000000000000e+00 0.000000000000000e+00
0.000000000000000e+00 0.000000000000000e+00 0.000000000000000e+00

0.000000000000000e+00 0.000000000000000e+00 0.000000000000000e+00
0.000000000000000e+00 0.000000000000000e+00 0.000000000000000e+00
0.000000000000000e+00 0.000000000000000e+00 0.000000000000000e+00

0.000000000000000e+00 0.000000000000000e+00 0.000000000000000e+00
0.000000000000000e+00 0.000000000000000e+00 0.000000000000000e+00
0.000000000000000e+00 0.000000000000000e+00 0.000000000000000e+00

0.000000000000000e+00 0.000000000000000e+00 0.000000000000000e+00
0.000000000000000e+00 0.000000000000000e+00 0.000000000000000e+00
0.000000000000000e+00 0.000000000000000e+00 0.000000000000000e+00

0.000000000000000e+00 0.000000000000000e+00 0.000000000000000e+00
0.000000000000000e+00 0.000000000000000e+00 0.000000000000000e+00
0.000000000000000e+00 0.000000000000000e+00 0.000000000000000e+00

0.000000000000000e+00 0.000000000000000e+00 0.000000000000000e+00
0.000000000000000e+00 0.000000000000000e+00 0.000000000000000e+00
0.000000000000000e+00 0.000000000000000e+00 0.000000000000000e+00

0.000000000000000e+00 0.000000000000000e+00 0.000000000000000e+00
0.000000000000000e+00 0.000000000000000e+00 0.000000000000000e+00
0.000000000000000e+00 0.000000000000000e+00 0.000000000000000e+00

0.000000000000000e+00 0.000000000000000e+00 0.000000000000000e+00
0.000000000000000e+00 0.000000000000000e+00 0.000000000000000e+00
0.000000000000000e+00 0.000000000000000e+00 0.000000000000000e+00

0.000000000000000e+00 0.000000000000000e+00 0.000000000000000e+00
0.000000000000000e+00 0.000000000000000e+00 0.000000000000000e+00
0.000000000000000e+00 0.000000000000000e+00 0.000000000000000e+00

0.000000000000000e+00 0.000000000000000e+00 0.000000000000000e+00
0.000000000000000e+00 0.000000000000000e+00 0.000000000000000e+00
0.000000000000000e+00 0.000000000000000e+00 0.000000000000000e+00

0.000000000000000e+00 0.000000000000000e+00 0.000000000000000e+00
0.000000000000000e+00 0.000000000000000e+00 0.000000000000000e+00
0.000000000000000e+00 0.000000000000000e+00 0.000000000000000e+00

0.000000000000000e+00 0.000000000000000e+00 0.000000000000000e+00
0.000000000000000e+00 0.000000000000000e+00 0.000000000000000e+00
0.000000000000000e+00 0.000000000000000e+00 0.000000000000000e+00

0.000000000000000e+00 0.000000000000000e+00 0.000000000000000e+00
0.000000000000000e+00 0.000000000000000e+00 0.000000000000000e+00
0.000000000000000e+00 0.000000000000000e+00 0.000000000000000e+00

0.000000000000000e+00 0.000000000000000e+00 0.000000000000000e+00
0.000000000000000e+00 0.000000000000000e+00 0.000000000000000e+00
0.000000000000000e+00 0.000000000000000e+00 0.000000000000000e+00

 6.692563606369737e-18 -7.197827256041455e-20 -1.051810701220545e+00
-7.197827256041455e-20  4.907496956443939e-18  4.587513667736590e-01
-1.051810701220545e+00  4.587513667736590e-01  1.575279555124009e-17

 4.752002956461274e-18 -7.332153562450348e-20 -9.500998091958252e-01
-7.332153562450348e-20  4.390427840860250e-18  4.498351099465613e-01
-9.500998091958252e-01  4.498351099465613e-01  1.076582600543309e-17

 7.948070519000548e-18 -5.291648809046860e-20 -1.117425201749533e+00
-5.291648809046860e-20  6.547641202862817e-18  4.403004431886247e-01
-1.117425201749533e+00  4.403004431886247e-01  1.860931297634045e-17

 8.544425254244230e-18 -2.964997289358662e-20 -1.150344120088355e+00
-2.964997289358662e-20  6.710189563157334e-18  4.388750735389178e-01
-1.150344120088355e+00  4.388750735389178e-01  2.026517089985757e-17

 5.238117223534714e-18  1.781968313602828e-19 -9.747973028781283e-01
 1.781968313602828e-19  4.962611454428984e-18  4.244532367823260e-01
-9.747973028781283e-01  4.244532367823260e-01  1.215636822928962e-17

 8.602253929132260e-18 -2.330887943315454e-19 -1.115613875484335e+00
-2.330887943315454e-19  6.276525213156729e-18  4.393956712051484e-01
-1.115613875484335e+00  4.393956712051484e-01  2.068431348835511e-17

 8.615890324483420e-18  8.803436477018078e-20 -1.122489121870739e+00
 8.803436477018078e-20  6.193804897132014e-18  4.256484537003503e-01
-1.122489121870739e+00  4.256484537003503e-01  2.070047676606336e-17

 5.260045425071118e-18 -1.080886178527693e-19 -9.613857053763023e-01
-1.080886178527693e-19  5.110532627185909e-18  4.234186382387742e-01
-9.613857053763023e-01  4.234186382387742e-01  1.219651003590568e-17

 4.833028571645823e-18  8.338997502321841e-20 -9.396197227247727e-01
 8.338997502321841e-20  4.462635013890544e-18  4.218357073337175e-01
-9.396197227247727e-01  4.218357073337175e-01  1.109682916417232e-17

 7.037057913431900e-18 -1.054548822541595e-19 -1.032199313881129e+00
-1.054548822541595e-19  4.682052928536274e-18  4.378965219977811e-01
-1.032199313881129e+00  4.378965219977811e-01  1.682730022206226e-17

 7.038948245579714e-18 -8.693741193393150e-21 -1.032252403372828e+00
-8.693741193393150e-21  4.572630068311028e-18  4.345279455548258e-01
-1.032252403372828e+00  4.345279455548258e-01  1.675586051867182e-17

 4.739341893553979e-18 -6.746521065263166e-20 -9.269023291532907e-01
-6.746521065263166e-20  3.976934333221736e-18  4.313353438808485e-01
-9.269023291532907e-01  4.313353438808485e-01  1.091215424725868e-17

 4.696364985710701e-18  6.412987288096613e-20 -9.278187149006821e-01
 6.412987288096613e-20  3.814373304530874e-18  4.307149135464685e-01
-9.278187149006821e-01  4.307149135464685e-01  1.063629923359557e-17

 6.722786944598401e-18 -1.827682929910559e-19 -1.019223995750462e+00
-1.827682929910559e-19  4.384477850273370e-18  4.478590114300294e-01
-1.019223995750462e+00  4.478590114300294e-01  1.582526350885424e-17

 6.939341662691672e-18 -1.508384662177835e-19 -1.033870321258448e+00
-1.508384662177835e-19  4.697207388744224e-18  4.490959088403876e-01
-1.033870321258448e+00  4.490959088403876e-01  1.621039076331622e-17

 5.323608399043090e-18 -3.721305748965696e-20 -9.654029235206055e-01
-3.721305748965696e-20  4.822163199424798e-18  4.362655588095227e-01
-9.654029235206055e-01  4.362655588095227e-01  1.203456202644907e-17

 5.870303661664557e-18  1.261590415135055e-19 -9.956065825449144e-01
 1.261590415135055e-19  5.547895057569314e-18  4.244099921693009e-01
-9.956065825449144e-01  4.244099921693009e-01  1.314085116614789e-17

 8.763631006779841e-18 -2.254880015506656e-19 -1.127853060099287e+00
-2.254880015506656e-19  6.954553785710204e-18  4.383045966295404e-01
-1.127853060099287e+00  4.383045966295404e-01  2.058195357170317e-17

 9.102788648533624e-18 -5.055692208048582e-20 -1.153369338832118e+00
-5.055692208048582e-20  7.250745745750261e-18  4.350258166190452e-01
-1.153369338832118e+00  4.350258166190452e-01  2.114037543021528e-17

 6.705049750005544e-18 -6.784097485631408e-20 -1.043366618627856e+00
-6.784097485631408e-20  6.727967365323339e-18  4.283114537242076e-01
-1.043366618627856e+00  4.283114537242076e-01  1.507307943534891e-17

 6.391148952385515e-18  9.830928558673222e-21 -1.023411613664562e+00
 9.830928558673222e-21  6.390902800005684e-18  4.293900829512994e-01
-1.023411613664562e+00  4.293900829512994e-01  1.429229987200241e-17

 7.988239388391359e-18 -1.209911396149162e-19 -1.085251150353636e+00
-1.209911396149162e-19  6.638984702443168e-18  4.395828431106300e-01
-1.085251150353636e+00  4.395828431106300e-01  1.853204859244380e-17

 8.020752712173321e-18  1.281238333637953e-20 -1.082535155807942e+00
 1.281238333637953e-20  6.674560438904853e-18  4.285006599484346e-01
-1.082535155807942e+00  4.285006599484346e-01  1.854197069053688e-17

 6.355437187400769e-18  4.697310481253184e-20 -1.006838708526664e+00
 4.697310481253184e-20  6.396115022178776e-18  4.157280048749691e-01
-1.006838708526664e+00  4.157280048749691e-01  1.426503335184826e-17

 6.623303772003548e-18  1.353382565229480e-19 -1.019673672502926e+00
 1.353382565229480e-19  6.719443009032625e-18  4.058581024497269e-01
-1.019673672502926e+00  4.058581024497269e-01  1.483109900792347e-17

 8.818462473812308e-18 -2.462305716790686e-20 -1.113232341028699e+00
-2.462305716790686e-20  7.267705022473012e-18  4.173562334586559e-01
-1.113232341028699e+00  4.173562334586559e-01  2.050325641681244e-17

 8.678044641116932e-18  1.827842681695184e-19 -1.105490823447163e+00
 1.827842681695184e-19  7.004314070657908e-18  4.085456092021317e-01
-1.105490823447163e+00  4.085456092021317e-01  2.008980743233262e-17

 6.094272756622226e-18  2.143382820499388e-20 -9.820085214686850e-01
 2.143382820499388e-20  6.074467623141383e-18  4.062192848873482e-01
-9.820085214686850e-01  4.062192848873482e-01  1.351457065668671e-17

 5.782815068295232e-18  1.345477852466060e-19 -9.657109533058857e-01
 1.345477852466060e-19  5.552492189760842e-18  4.057782009940299e-01
-9.657109533058857e-01  4.057782009940299e-01  1.271418917741791e-17

 7.543634074006937e-18  7.002684377414110e-20 -1.038909060464964e+00
 7.002684377414110e-20  5.583762472897061e-18  4.176951683315673e-01
-1.038909060464964e+00  4.176951683315673e-01  1.729315088937828e-17

 7.347746728052594e-18  1.786227217201481e-19 -1.028048657685338e+00
 1.786227217201481e-19  5.253377389678361e-18  4.148225358322609e-01
-1.028048657685338e+00  4.148225358322609e-01  1.672960650441216e-17

 5.067048866240504e-18  6.613148943175390e-20 -9.249952782530325e-01
 6.613148943175390e-20  4.856354994226064e-18  4.074770940645109e-01
-9.249952782530325e-01  4.074770940645109e-01  1.085022681539833e-17

 5.577225768802222e-18  2.631332915515145e-19 -9.552304901482020e-01
 2.631332915515145e-19  5.459011357509497e-18  3.906538269832073e-01
-9.552304901482020e-01  3.906538269832073e-01  1.197083616459966e-17

 8.991508471096794e-18 -1.082927193837890e-19 -1.104406792993833e+00
-1.082927193837890e-19  6.512263501681140e-18  4.108839385115849e-01
-1.104406792993833e+00  4.108839385115849e-01  2.080396431500894e-17

 8.867709662800900e-18  2.096830784717973e-19 -1.102102006309267e+00
 2.096830784717973e-19  6.391638732783517e-18  3.975716437470565e-01
-1.102102006309267e+00  3.975716437470565e-01  2.051518659772231e-17

 5.181042038501607e-18 -1.486317970124796e-19 -9.217607938044894e-01
-1.486317970124796e-19  5.226792643851255e-18  4.007342899657418e-01
-9.217607938044894e-01  4.007342899657418e-01  1.120248695144763e-17

 4.725435197357453e-18  1.005663958489920e-19 -8.969401791727510e-01
 1.005663958489920e-19  4.726480459971841e-18  3.927444332023534e-01
-8.969401791727510e-01  3.927444332023534e-01  1.023299718117503e-17

 7.288412454473017e-18 -5.968151426387622e-20 -9.972624842992179e-01
-5.968151426387622e-20  5.056624718286055e-18  4.038083091684639e-01
-9.972624842992179e-01  4.038083091684639e-01  1.706368130439775e-17

 7.253930244096016e-18  1.672917175839755e-19 -9.899644283800072e-01
 1.672917175839755e-19  5.062861380637914e-18  3.871567561914810e-01
-9.899644283800072e-01  3.871567561914810e-01  1.706815462864521e-17

 4.661557338113053e-18  2.628225650146865e-20 -8.669291470759728e-01
 2.628225650146865e-20  4.451076376443468e-18  3.814830226153552e-01
-8.669291470759728e-01  3.814830226153552e-01  1.044617642712953e-17

 4.660346785459275e-18  2.278024033192019e-19 -8.682811670386440e-01
 2.278024033192019e-19  4.345096704874219e-18  3.716596903532546e-01
-8.682811670386440e-01  3.716596903532546e-01  1.033569834737587e-17

 7.146088969540834e-18  8.523760828036631e-20 -9.760930593760087e-01
 8.523760828036631e-20  4.690825319556573e-18  3.844238683733356e-01
-9.760930593760087e-01  3.844238683733356e-01  1.665477222254365e-17

 7.058762740654934e-18  2.422111811303426e-19 -9.771419243752011e-01
 2.422111811303426e-19  4.458397336460435e-18  3.836252709961901e-01
-9.771419243752011e-01  3.836252709961901e-01  1.628764746066192e-17

 4.247673545370770e-18  2.794825267438051e-20 -8.507080101517517e-01
 2.794825267438051e-20  3.847956946756953e-18  3.881419440980552e-01
-8.507080101517517e-01  3.881419440980552e-01  9.018642809978955e-18

 4.435167626158511e-18  2.831327217899035e-19 -8.661512757124072e-01
 2.831327217899035e-19  4.016662566707516e-18  3.787987001023840e-01
-8.661512757124072e-01  3.787987001023840e-01  9.322150080803096e-18

 7.612223846416406e-18 -5.023454161626497e-20 -1.003900207040366e+00
-5.023454161626497e-20  4.925819785646158e-18  3.978148392304061e-01
-1.003900207040366e+00  3.978148392304061e-01  1.749320526117433e-17

 7.793362065870314e-18  1.798703278750237e-19 -1.018937713405298e+00
 1.798703278750237e-19  5.106621679526760e-18  3.913597496679250e-01
-1.018937713405298e+00  3.913597496679250e-01  1.776705018249156e-17

 4.936326538689875e-18  3.534662562093419e-20 -8.904919742339366e-01
 3.534662562093419e-20  4.614089226222759e-18  3.911324199601569e-01
-8.904919742339366e-01  3.911324199601569e-01  1.038748666226429e-17

 5.033451175488618e-18  2.699867906109101e-19 -9.016525083581879e-01
 2.699867906109101e-19  4.621681234442793e-18  3.867463245760632e-01
-9.016525083581879e-01  3.867463245760632e-01  1.040253295724407e-17

 7.994886862088002e-18 -2.106974182096587e-20 -1.033750766765515e+00
-2.106974182096587e-20  5.366940647896296e-18  4.095814234620185e-01
-1.033750766765515e+00  4.095814234620185e-01  1.792425984370516e-17

 8.089440984680894e-18  1.696160543680003e-19 -1.047671482148389e+00
 1.696160543680003e-19  5.367345690901835e-18  4.113584876034813e-01
-1.047671482148389e+00  4.113584876034813e-01  1.789156913130218e-17

 5.149782134211365e-18  4.666746360251334e-20 -9.182730725398573e-01
 4.666746360251334e-20  4.937695937324349e-18  4.109311943701996e-01
-9.182730725398573e-01  4.109311943701996e-01  1.024791207574326e-17

 5.461898635417540e-18  3.499600584453415e-19 -9.447231883593840e-01
 3.499600584453415e-19  5.272745991124805e-18  4.043886786104057e-01
-9.447231883593840e-01  4.043886786104057e-01  1.065020051175534e-17

 9.013655064708718e-18 -5.768789861850629e-20 -1.109671646424053e+00
-5.768789861850629e-20  7.205591411699950e-18  4.208670897218612e-01
-1.109671646424053e+00  4.208670897218612e-01  1.969174972963638e-17

 1.042757660678575e-17  7.376360549901185e-20 -1.187804388753359e+00
 7.376360549901185e-20  9.069696781635421e-18  4.007763679229590e-01
-1.187804388753359e+00  4.007763679229590e-01  2.298022699541606e-17

 9.996265914391338e-18  1.486819392198996e-19 -1.170019328722778e+00
 1.486819392198996e-19  9.155948941907100e-18  3.963744830987191e-01
-1.170019328722778e+00  3.963744830987191e-01  2.185878275568300e-17

 8.975352458585484e-18  1.971603008652243e-19 -1.114769543054611e+00
 1.971603008652243e-19  7.756996833206350e-18  4.105250432347010e-01
-1.114769543054611e+00  4.105250432347010e-01  1.927408230473452e-17

 6.989095418348962e-18  8.133872957093342e-20 -1.013346102955337e+00
 8.133872957093342e-20  6.523878527065335e-18  4.145965116390083e-01
-1.013346102955337e+00  4.145965116390083e-01  1.431871252899084e-17

 6.731867819242643e-18  1.755613132450240e-19 -9.954744169238667e-01
 1.755613132450240e-19  6.054088072177928e-18  4.118130858337579e-01
-9.954744169238667e-01  4.118130858337579e-01  1.372432791734555e-17

 8.054412831658532e-18  2.326650432941567e-19 -1.050738585212382e+00
 2.326650432941567e-19  6.004612524828904e-18  4.173802410527463e-01
-1.050738585212382e+00  4.173802410527463e-01  1.716181432657857e-17

 7.923354219179223e-18  3.202662602829671e-19 -1.043502474418961e+00
 3.202662602829671e-19  5.696396028270577e-18  4.158175384424239e-01
-1.043502474418961e+00  4.158175384424239e-01  1.673620535236181e-17

 6.196164162618485e-18  1.973968414755913e-19 -9.658211355984148e-01
 1.973968414755913e-19  5.276316684646060e-18  4.137848223323766e-01
-9.658211355984148e-01  4.137848223323766e-01  1.221342417128146e-17

 6.593755298360604e-18  3.173375637189538e-19 -9.900259908994548e-01
 3.173375637189538e-19  5.693589867398484e-18  4.053887699133841e-01
-9.900259908994548e-01  4.053887699133841e-01  1.305055890095449e-17

 9.221987340902833e-18  2.227158488345599e-19 -1.111754786651185e+00
 2.227158488345599e-19  6.341138401722095e-18  4.226823001728718e-01
-1.111754786651185e+00  4.226823001728718e-01  1.964534950154628e-17

 9.228425274075919e-18  4.097967372317213e-19 -1.120293295981124e+00
 4.097967372317213e-19  6.161445144051208e-18  4.208281251510824e-01
-1.120293295981124e+00  4.208281251510824e-01  1.950246123328488e-17

 6.433718258079093e-18  8.015094628244179e-20 -9.929992633957049e-01
 8.015094628244179e-20  4.939269104439388e-18  4.337798506990788e-01
-9.929992633957049e-01  4.337798506990788e-01  1.217272115501778e-17

 5.831810034210398e-18  1.488844479965236e-19 -9.738982012171625e-01
 1.488844479965236e-19  4.064835612782909e-18  4.494069355525558e-01
-9.738982012171625e-01  4.494069355525558e-01  1.051167862091257e-17

 7.044579677625659e-18  7.447575043592950e-20 -1.036505377190121e+00
 7.447575043592950e-20  4.794100347782451e-18  4.559241487130473e-01
-1.036505377190121e+00  4.559241487130473e-01  1.357721971026293e-17

 8.503290010812869e-18  1.668797879028141e-20 -1.106687037969774e+00
 1.668797879028141e-20  6.987083923821954e-18  4.302690052977587e-01
-1.106687037969774e+00  4.302690052977587e-01  1.732242352735936e-17

 1.085935759852283e-17 -1.137268057142496e-19 -1.207471823575305e+00
-1.137268057142496e-19  7.902580257680971e-18  4.397229703987922e-01
-1.207471823575305e+00  4.397229703987922e-01  2.351763298210113e-17

 9.767987999508907e-18  2.842451654603774e-19 -1.152819423812355e+00
 2.842451654603774e-19  6.658669189967978e-18  4.306533554439524e-01
-1.152819423812355e+00  4.306533554439524e-01  2.095236999823297e-17

 4.954777079720683e-18 -3.105082812079304e-19 -9.124338538391926e-01
-3.105082812079304e-19  4.644496206712240e-18  4.419431791317228e-01
-9.124338538391926e-01  4.419431791317228e-01  8.551000412348954e-18

 4.880809732378949e-18  2.560498383885901e-19 -9.150884350250776e-01
 2.560498383885901e-19  4.573211464884955e-18  4.145814407479484e-01
-9.150884350250776e-01  4.145814407479484e-01  8.499245867693781e-18

 9.437052242048392e-18 -2.629302315753126e-19 -1.104470689548317e+00
-2.629302315753126e-19  5.666613552042361e-18  4.450387415495031e-01
-1.104470689548317e+00  4.450387415495031e-01  2.048742597940880e-17

 9.377992800337840e-18  2.957000175239195e-19 -1.106779648292109e+00
 2.957000175239195e-19  5.583042527072893e-18  4.187449764141468e-01
-1.106779648292109e+00  4.187449764141468e-01  2.039536538492856e-17

 4.715317921546280e-18 -2.579031105041390e-19 -8.812258440361862e-01
-2.579031105041390e-19  3.990177157890143e-18  4.307012463784048e-01
-8.812258440361862e-01  4.307012463784048e-01  8.308463483161273e-18

 4.270811920087787e-18  2.128535561877414e-19 -8.695361082296894e-01
 2.128535561877414e-19  3.333778857813291e-18  4.227646515386719e-01
-8.695361082296894e-01  4.227646515386719e-01  7.136258913256152e-18

 7.762592869834836e-18 -1.413793363122544e-19 -1.021672866375891e+00
-1.413793363122544e-19  4.161727323203701e-18  4.484131496100796e-01
-1.021672866375891e+00  4.484131496100796e-01  1.610623601472394e-17

 8.294397682720334e-18  3.773048754630134e-20 -1.056832302511746e+00
 3.773048754630134e-20  4.704858614483017e-18  4.409932118717534e-01
-1.056832302511746e+00  4.409932118717534e-01  1.712848532938937e-17

 5.897277506747378e-18  7.171450554955830e-21 -9.596963002594223e-01
 7.171450554955830e-21  4.757333676579007e-18  4.304275811064434e-01
-9.596963002594223e-01  4.304275811064434e-01  1.079584780794295e-17

 6.482754582910413e-18  2.078521801031001e-19 -1.003699000644740e+00
 2.078521801031001e-19  5.339242558812178e-18  4.277930572004089e-01
-1.003699000644740e+00  4.277930572004089e-01  1.185135931354401e-17

 1.019407624611487e-17 -3.140978317555733e-19 -1.176431066906039e+00
-3.140978317555733e-19  7.019922396050979e-18  4.607513896188420e-01
-1.176431066906039e+00  4.607513896188420e-01  2.147344726620644e-17

 1.039720532491993e-17 -3.522861805339511e-20 -1.194019508378381e+00
-3.522861805339511e-20  7.233869812392729e-18  4.569109943897697e-01
-1.194019508378381e+00  4.569109943897697e-01  2.177836708727070e-17

 7.150462414124170e-18 -1.384698757848776e-19 -1.038941512669135e+00
-1.384698757848776e-19  6.480886957279557e-18  4.461489083255526e-01
-1.038941512669135e+00  4.461489083255526e-01  1.352483084399313e-17

 7.012566568250117e-18  8.160680264981369e-20 -1.034528892951792e+00
 8.160680264981369e-20  6.191352636009209e-18  4.424378913504570e-01
-1.034528892951792e+00  4.424378913504570e-01  1.303951422459693e-17

 9.810852125223034e-18 -1.687979350334767e-19 -1.161124649201348e+00
-1.687979350334767e-19  6.820556106140328e-18  4.677136814580017e-01
-1.161124649201348e+00  4.677136814580017e-01  2.022374320146583e-17

 9.844660185200815e-18  8.528775245805780e-21 -1.169502823549469e+00
 8.528775245805780e-21  6.689628083608282e-18  4.668294171850713e-01
-1.169502823549469e+00  4.668294171850713e-01  2.014204711637956e-17

 6.957296532645389e-18 -1.294542376548120e-19 -1.035295789583675e+00
-1.294542376548120e-19  5.885808186463130e-18  4.618060644145565e-01
-1.035295789583675e+00  4.618060644145565e-01  1.272812884350200e-17

 6.913977024698592e-18  6.464196149777905e-20 -1.040314479380815e+00
 6.464196149777905e-20  5.714118432556290e-18  4.605952153265985e-01
-1.040314479380815e+00  4.605952153265985e-01  1.241618577104254e-17

 9.579202139965404e-18 -2.067292449633473e-19 -1.167716060328126e+00
-2.067292449633473e-19  6.869921037517119e-18  4.798543401479349e-01
-1.167716060328126e+00  4.798543401479349e-01  1.925750548843416e-17

 1.044303611811686e-17 -1.780973443406571e-19 -1.215193079768521e+00
-1.780973443406571e-19  8.024161898537737e-18  4.686561620208997e-01
-1.215193079768521e+00  4.686561620208997e-01  2.140036145765896e-17

 9.710948528326724e-18 -1.668692568012064e-19 -1.176401223105437e+00
-1.668692568012064e-19  7.726880434757513e-18  4.647133828252124e-01
-1.176401223105437e+00  4.647133828252124e-01  1.967039358921254e-17

 8.585934601647513e-18 -1.489563498338851e-19 -1.110258923900625e+00
-1.489563498338851e-19  6.295407528737445e-18  4.746506573346599e-01
-1.110258923900625e+00  4.746506573346599e-01  1.690418538078221e-17

 6.779651110665499e-18 -1.400185219122107e-19 -1.018618303162936e+00
-1.400185219122107e-19  5.505248712749847e-18  4.638538626944232e-01
-1.018618303162936e+00  4.638538626944232e-01  1.243169740322997e-17

 7.232435126474461e-18  2.092148526664889e-20 -1.041289024408850e+00
 2.092148526664889e-20  5.932792368793840e-18  4.459858189837886e-01
-1.041289024408850e+00  4.459858189837886e-01  1.348204858174518e-17

 9.994209979481757e-18 -2.237240597826769e-19 -1.168514761345062e+00
-2.237240597826769e-19  6.692873506737471e-18  4.648470492596248e-01
-1.168514761345062e+00  4.648470492596248e-01  2.058280113051259e-17

 9.814186340316909e-18 -5.562899647325068e-20 -1.165107628296886e+00
-5.562899647325068e-20  6.332345126170170e-18  4.628245090546198e-01
-1.165107628296886e+00  4.628245090546198e-01  2.007893016509376e-17

 6.568406334809836e-18 -2.970545872527464e-19 -1.006729648710290e+00
-2.970545872527464e-19  5.098031640237208e-18  4.619736790647547e-01
-1.006729648710290e+00  4.619736790647547e-01  1.190089703587446e-17

 6.048681846166605e-18 -1.259004968728226e-19 -9.814763122535598e-01
-1.259004968728226e-19  4.344174727648820e-18  4.625334517466783e-01
-9.814763122535598e-01  4.625334517466783e-01  1.060386820743678e-17

 7.978636093557948e-18 -2.989810772545486e-19 -1.067271879470812e+00
-2.989810772545486e-19  4.713292955604910e-18  4.768360874460625e-01
-1.067271879470812e+00  4.768360874460625e-01  1.561926828680509e-17

 8.326828508641713e-18 -2.977990124466196e-19 -1.087464417852288e+00
-2.977990124466196e-19  5.186362833646276e-18  4.713251416927902e-01
-1.087464417852288e+00  4.713251416927902e-01  1.644158385236898e-17

 7.113211040008624e-18 -2.644386597024374e-19 -1.035930010208360e+00
-2.644386597024374e-19  5.336173677401593e-18  4.586436781639744e-01
-1.035930010208360e+00  4.586436781639744e-01  1.340619451966252e-17

 7.498896219983579e-18 -2.105699426939669e-19 -1.053602298980070e+00
-2.105699426939669e-19  5.973306835933290e-18  4.467653183986185e-01
-1.053602298980070e+00  4.467653183986185e-01  1.439843440575187e-17

 9.661342216433003e-18 -4.431498117188436e-19 -1.143905552789453e+00
-4.431498117188436e-19  6.561913338266317e-18  4.606232187091179e-01
-1.143905552789453e+00  4.606232187091179e-01  2.015728595003726e-17

 9.120578569776757e-18 -2.189170842135749e-19 -1.116561915827726e+00
-2.189170842135749e-19  5.795274681310635e-18  4.574410079862283e-01
-1.116561915827726e+00  4.574410079862283e-01  1.878379327806459e-17

 5.637056827798935e-18 -3.665147396544229e-19 -9.512325268920956e-01
-3.665147396544229e-19  4.752047235136503e-18  4.494238921618036e-01
-9.512325268920956e-01  4.494238921618036e-01  1.001142389958219e-17

 5.682832327834001e-18 -4.208518926366781e-20 -9.578292223555609e-01
-4.208518926366781e-20  4.668936444830228e-18  4.365322961890806e-01
-9.578292223555609e-01  4.365322961890806e-01  1.001020379106009e-17

 9.160400522063720e-18 -5.075772387165758e-19 -1.106231574712328e+00
-5.075772387165758e-19  5.919913203473423e-18  4.558456303244081e-01
-1.106231574712328e+00  4.558456303244081e-01  1.920598753809582e-17

 9.599813135658264e-18 -2.254651299116053e-19 -1.131206824874973e+00
-2.254651299116053e-19  6.300267427488353e-18  4.378368566971295e-01
-1.131206824874973e+00  4.378368566971295e-01  2.016147127619835e-17

 7.027802187606797e-18 -2.894597485290627e-19 -1.012955792795865e+00
-2.894597485290627e-19  5.329053448547601e-18  4.349646539645045e-01
-1.012955792795865e+00  4.349646539645045e-01  1.364750938418350e-17

 5.976377939958971e-18 -2.882821314617198e-19 -9.645979018430819e-01
-2.882821314617198e-19  3.810568166158739e-18  4.588822381148916e-01
-9.645979018430819e-01  4.588822381148916e-01  1.088970075076340e-17

 5.910728831632060e-18 -2.181871858466952e-19 -9.676622817099494e-01
-2.181871858466952e-19  3.905781622838831e-18  4.565083166436180e-01
-9.676622817099494e-01  4.565083166436180e-01  1.067574222080478e-17

 7.324618718287793e-18 -1.085698963487537e-19 -1.043169801146287e+00
-1.085698963487537e-19  5.764978402560134e-18  4.281133446710301e-01
-1.043169801146287e+00  4.281133446710301e-01  1.407351821030110e-17

 1.075257686896502e-17 -5.517235033471100e-19 -1.201302778363445e+00
-5.517235033471100e-19  7.458899062884177e-18  4.467624449602441e-01
-1.201302778363445e+00  4.467624449602441e-01  2.304503685638228e-17

 1.048520467720589e-17 -1.753043847632911e-19 -1.196962917682026e+00
-1.753043847632911e-19  6.966887763152205e-18  4.409204633345215e-01
-1.196962917682026e+00  4.409204633345215e-01  2.225072173114913e-17

 6.325968123540277e-18 -4.759938655328974e-19 -9.938695917977018e-01
-4.759938655328974e-19  5.458142249689531e-18  4.388242379904370e-01
-9.938695917977018e-01  4.388242379904370e-01  1.180725505796238e-17

 5.701992918801118e-18 -2.183450353624212e-19 -9.636800881208460e-01
-2.183450353624212e-19  4.513964491231067e-18  4.358359908810778e-01
-9.636800881208460e-01  4.358359908810778e-01  1.032586862828263e-17

 8.272318757675470e-18 -4.983175879661329e-19 -1.071489259600080e+00
-4.983175879661329e-19  4.722467224058821e-18  4.564306175065078e-01
-1.071489259600080e+00  4.564306175065078e-01  1.715652071681994e-17

 8.164576364092175e-18 -3.724632252413557e-19 -1.067548407517137e+00
-3.724632252413557e-19  4.480345954106552e-18  4.504226060224019e-01
-1.067548407517137e+00  4.504226060224019e-01  1.693043086283334e-17

 5.301002787066630e-18 -4.498398221933993e-19 -9.347884521707746e-01
-4.498398221933993e-19  3.877390755335135e-18  4.389972246464612e-01
-9.347884521707746e-01  4.389972246464612e-01  9.830027234744769e-18

 5.457940156757209e-18 -2.163812955154484e-19 -9.437318417165703e-01
-2.163812955154484e-19  3.997738596802194e-18  4.243788809346221e-01
-9.437318417165703e-01  4.243788809346221e-01  1.023168276349998e-17

 8.670150565856334e-18 -6.538091262081696e-19 -1.077810925162469e+00
-6.538091262081696e-19  4.728451624532604e-18  4.461390506242667e-01
-1.077810925162469e+00  4.461390506242667e-01  1.880923099309259e-17

 8.250846331983458e-18 -3.200838828480233e-19 -1.064636130266792e+00
-3.200838828480233e-19  3.939359092554160e-18  4.427126155490850e-01
-1.064636130266792e+00  4.427126155490850e-01  1.766580054699531e-17

 3.905398680227438e-18 -6.039489256135404e-19 -8.659152603857746e-01
-6.039489256135404e-19  2.683092831846861e-18  4.461665559244517e-01
-8.659152603857746e-01  4.461665559244517e-01  6.656612744845165e-18

 3.761096515653453e-18 -1.391226092879617e-19 -8.731128536107675e-01
-1.391226092879617e-19  2.199149304685639e-18  4.415540974282438e-01
-8.731128536107675e-01  4.415540974282438e-01  6.003054287037805e-18

 7.504036133999108e-18 -7.324133982069240e-19 -1.038910930490366e+00
-7.324133982069240e-19  4.267935625420241e-18  4.540553824461053e-01
-1.038910930490366e+00  4.540553824461053e-01  1.605924195558138e-17

 9.053709321113357e-18 -5.517702291825181e-19 -1.119929067949560e+00
-5.517702291825181e-19  6.388379497098099e-18  4.182216663930631e-01
-1.119929067949560e+00  4.182216663930631e-01  1.986405017563537e-17

 8.973105103938288e-18 -4.123415365499352e-19 -1.120184657732340e+00
-4.123415365499352e-19  6.501399135779363e-18  4.092796915230431e-01
-1.120184657732340e+00  4.092796915230431e-01  1.970396298393323e-17

 7.776933735901699e-18 -3.742877629102585e-19 -1.062265045841963e+00
-3.742877629102585e-19  4.795506766867257e-18  4.299283797302207e-01
-1.062265045841963e+00  4.299283797302207e-01  1.672668131122120e-17

 4.950797403186366e-18 -4.896742000865581e-19 -9.305208116178750e-01
-4.896742000865581e-19  3.447113525870333e-18  4.350705973970715e-01
-9.305208116178750e-01  4.350705973970715e-01  9.741337893913747e-18

 4.830468606892333e-18 -2.893633390154828e-19 -9.286615955098453e-01
-2.893633390154828e-19  3.064722547376006e-18  4.315389439518367e-01
-9.286615955098453e-01  4.315389439518367e-01  9.444202752772599e-18

 7.261924767995006e-18 -5.735903141199406e-19 -1.035625102237251e+00
-5.735903141199406e-19  3.708817764191489e-18  4.470279948256453e-01
-1.035625102237251e+00  4.470279948256453e-01  1.588636415762150e-17

 7.545792241666003e-18 -4.389970367763582e-19 -1.058079528199603e+00
-4.389970367763582e-19  3.944606533505508e-18  4.410386620031342e-01
-1.058079528199603e+00  4.410386620031342e-01  1.644970701426461e-17

 5.652098047703964e-18 -3.331865091166520e-19 -9.872551223117222e-01
-3.331865091166520e-19  3.911371413739658e-18  4.267851830155256e-01
-9.872551223117222e-01  4.267851830155256e-01  1.154474281001584e-17

 6.322293497697856e-18 -1.822424942019420e-19 -1.034618618937870e+00
-1.822424942019420e-19  4.587451981463282e-18  4.184032533751390e-01
-1.034618618937870e+00  4.184032533751390e-01  1.301446541537156e-17

 9.719904648900766e-18 -6.517636201201447e-19 -1.193506956956159e+00
-6.517636201201447e-19  5.756448332357225e-18  4.499651346063173e-01
-1.193506956956159e+00  4.499651346063173e-01  2.197522438765559e-17

 9.436922269281913e-18 -3.018971778333318e-19 -1.194384508421438e+00
-3.018971778333318e-19  5.086325633796105e-18  4.496817288157997e-01
-1.194384508421438e+00  4.496817288157997e-01  2.116707460647721e-17

 5.196235594695840e-18 -6.309223656671838e-19 -9.989574663348127e-01
-6.309223656671838e-19  3.580002923297434e-18  4.509379573838335e-01
-9.989574663348127e-01  4.509379573838335e-01  1.052723942918688e-17

 4.760558429667221e-18 -3.338003102135084e-19 -9.907056861783260e-01
-3.338003102135084e-19  2.796809128423714e-18  4.514527001895185e-01
-9.907056861783260e-01  4.514527001895185e-01  9.467351641355931e-18

 7.847810010578642e-18 -7.582786869394705e-19 -1.130828293179275e+00
-7.582786869394705e-19  3.813734367094757e-18  4.742074085995853e-01
-1.130828293179275e+00  4.742074085995853e-01  1.780536953204756e-17

 8.594201990974843e-18 -6.386010253287122e-19 -1.173183819346079e+00
-6.386010253287122e-19  4.690258937111092e-18  4.531779191519090e-01
-1.173183819346079e+00  4.531779191519090e-01  1.985630521554065e-17

 7.265012697012340e-18 -6.327664959002500e-19 -1.114755669465609e+00
-6.327664959002500e-19  3.923635125734291e-18  4.476156897658240e-01
-1.114755669465609e+00  4.476156897658240e-01  1.685584995695898e-17

 5.804997144613797e-18 -7.303258011177277e-19 -1.043146027601160e+00
-7.303258011177277e-19  1.874290477940829e-18  4.716161664451811e-01
-1.043146027601160e+00  4.716161664451811e-01  1.350865212416368e-17

 3.692294341893209e-18 -8.014238138034551e-19 -9.451738436651006e-01
-8.014238138034551e-19  5.907524854576092e-19  4.735392716847094e-01
-9.451738436651006e-01  4.735392716847094e-01  8.644046949818918e-18

 3.586061272186325e-18 -6.773645490387128e-19 -9.458636298344566e-01
-6.773645490387128e-19  3.517987377436321e-19  4.658278951433795e-01
-9.458636298344566e-01  4.658278951433795e-01  8.631886133453468e-18

 5.408689570904696e-18 -8.806425573655829e-19 -1.035312325592780e+00
-8.806425573655829e-19  1.241226660038611e-18  4.662489275027966e-01
-1.035312325592780e+00  4.662489275027966e-01  1.370563173843162e-17

 6.298958770559715e-18 -8.540647121011071e-19 -1.090359357075053e+00
-8.540647121011071e-19  2.502664531976329e-18  4.437294303965517e-01
-1.090359357075053e+00  4.437294303965517e-01  1.625363119589587e-17

 6.560722252065533e-18 -9.052605260136913e-19 -1.109845423299487e+00
-9.052605260136913e-19  2.518370927420137e-18  4.447128406774948e-01
-1.109845423299487e+00  4.447128406774948e-01  1.744187161782716e-17

 5.453403401844150e-18 -9.116554130691103e-19 -1.057202455747103e+00
-9.116554130691103e-19  1.169818600192351e-18  4.554003986915351e-01
-1.057202455747103e+00  4.554003986915351e-01  1.520940390048268e-17

 2.735308112539834e-18 -9.016407729249535e-19 -9.320418483131514e-01
-9.016407729249535e-19  5.035129638903930e-20  4.433288860127686e-01
-9.320418483131514e-01  4.433288860127686e-01  9.023535480570392e-18

 2.715146925100720e-18 -6.685772699754674e-19 -9.354507947674237e-01
-6.685772699754674e-19 -7.951635220115271e-20  4.219487364304367e-01
-9.354507947674237e-01  4.219487364304367e-01  9.439660744393788e-18

 5.336704240336277e-18 -1.023441354148461e-18 -1.050821230621758e+00
-1.023441354148461e-18  3.027546990158224e-19  4.340870790343306e-01
-1.050821230621758e+00  4.340870790343306e-01  1.693113060196073e-17

 4.916663650481542e-18 -7.642805772801430e-19 -1.047092738111287e+00
-7.642805772801430e-19 -5.308685399558893e-19  4.277383713767655e-01
-1.047092738111287e+00  4.277383713767655e-01  1.619623481791205e-17

 1.174035879686481e-18 -8.867270544732028e-19 -8.915645736035949e-01
-8.867270544732028e-19 -1.680768625066315e-18  4.192804319983234e-01
-8.915645736035949e-01  4.192804319983234e-01  7.242294571335079e-18

 1.113606957845420e-18 -5.353382181389513e-19 -9.113219505691215e-01
-5.353382181389513e-19 -2.177197573243427e-18  4.081716740635429e-01
-9.113219505691215e-01  4.081716740635429e-01  7.373240930266919e-18

 4.663483983832869e-18 -1.096228764194420e-18 -1.079274561985119e+00
-1.096228764194420e-18 -1.338268997369061e-18  4.337164177737070e-01
-1.079274561985119e+00  4.337164177737070e-01  1.744291824733353e-17

 4.450778874401014e-18 -7.893817367760131e-19 -1.098128056748768e+00
-7.893817367760131e-19 -2.033684772793633e-18  4.307325609588444e-01
-1.098128056748768e+00  4.307325609588444e-01  1.729872248410200e-17

 2.575605189732391e-19 -9.695302869628011e-19 -9.274376704909448e-01
-9.695302869628011e-19 -3.309531443247424e-18  4.234291195566760e-01
-9.274376704909448e-01  4.234291195566760e-01  7.469244217532969e-18

-1.043609655899317e-19 -5.972503322685140e-19 -9.387826328786600e-01
-5.972503322685140e-19 -4.107046503951314e-18  4.168703040064624e-01
-9.387826328786600e-01  4.168703040064624e-01  7.131651754406087e-18

 3.230512576082459e-18 -1.078331882728397e-18 -1.102800357761659e+00
-1.078331882728397e-18 -3.011552727045151e-18  4.335977549562481e-01
-1.102800357761659e+00  4.335977549562481e-01  1.703173095279273e-17

 3.704932946295056e-18 -8.034386369753029e-19 -1.154065918824588e+00
-8.034386369753029e-19 -2.671782978855847e-18  4.090889239800011e-01
-1.154065918824588e+00  4.090889239800011e-01  1.909587100392175e-17

 1.523012266521584e-18 -7.778411256531720e-19 -1.076923902336632e+00
-7.778411256531720e-19 -4.033291231199910e-18  3.983445165032823e-01
-1.076923902336632e+00  3.983445165032823e-01  1.485538510479374e-17

-2.534834107777476e-19 -8.773327109492032e-19 -1.014253521633018e+00
-8.773327109492032e-19 -6.639041507959872e-18  4.180449309094916e-01
-1.014253521633018e+00  4.180449309094916e-01  1.170959624870019e-17

-2.124554623127981e-18 -9.723528660186921e-19 -9.556239519302145e-01
-9.723528660186921e-19 -8.481385422696812e-18  4.187749459363523e-01
-9.556239519302145e-01  4.187749459363523e-01  8.546208377695854e-18

-2.625242668172882e-18 -9.301412269028237e-19 -9.648407608268774e-01
-9.301412269028237e-19 -9.462797278742144e-18  4.090580836327495e-01
-9.648407608268774e-01  4.090580836327495e-01  8.889781796383813e-18

-1.726970603910250e-18 -9.994614378074168e-19 -1.036867478587561e+00
-9.994614378074168e-19 -1.035585234249136e-17  4.157949975043919e-01
-1.036867478587561e+00  4.157949975043919e-01  1.305857576819022e-17

-2.654964069451574e-18 -9.363900662728167e-19 -1.036096644772074e+00
-9.363900662728167e-19 -1.190966411202680e-17  4.113438361166440e-01
-1.036096644772074e+00  4.113438361166440e-01  1.257532295207940e-17

-5.451696165217797e-18 -1.094679598912211e-18 -9.602025848857592e-01
-1.094679598912211e-18 -1.377315840020185e-17  4.018632725407707e-01
-9.602025848857592e-01  4.018632725407707e-01  7.531332514815641e-18

-6.110434084591406e-18 -9.691325261292986e-19 -9.937655986744256e-01
-9.691325261292986e-19 -1.526830980504637e-17  3.946369295790885e-01
-9.937655986744256e-01  3.946369295790885e-01  7.922751213224846e-18

-4.615623871674382e-18 -1.056835810837812e-18 -1.130977219945890e+00
-1.056835810837812e-18 -1.622844372887252e-17  4.102720717976033e-01
-1.130977219945890e+00  4.102720717976033e-01  1.420448999760325e-17

-5.127873182714165e-18 -1.093319261907591e-18 -1.190043129852109e+00
-1.093319261907591e-18 -1.767289211349854e-17  4.057888343692711e-01
-1.190043129852109e+00  4.057888343692711e-01  1.571446166714221e-17

-7.581666226581915e-18 -1.437102975338610e-18 -1.156769481083559e+00
-1.437102975338610e-18 -2.083070116561874e-17  4.117626818521155e-01
-1.156769481083559e+00  4.117626818521155e-01  1.295939847487706e-17

-1.055356037833587e-17 -1.971552513692430e-18 -1.102775925493735e+00
-1.971552513692430e-18 -2.554158101244795e-17  4.339801013494576e-01
-1.102775925493735e+00  4.339801013494576e-01  9.434126095086168e-18

-1.451938068114206e-17 -2.821422675309678e-18 -1.015608876082269e+00
-2.821422675309678e-18 -3.004115952021768e-17  4.402036878860562e-01
-1.015608876082269e+00  4.402036878860562e-01  4.046502943763762e-18

-1.687371323222343e-17 -3.216767626294232e-18 -1.021246294744702e+00
-3.216767626294232e-18 -3.413510119680023e-17  4.360629822932229e-01
-1.021246294744702e+00  4.360629822932229e-01  3.319065095137520e-18

-1.767429119187109e-17 -3.572343633488711e-18 -1.107317771583990e+00
-3.572343633488711e-18 -3.826127195422511e-17  4.460398528723403e-01
-1.107317771583990e+00  4.460398528723403e-01  7.291774104071076e-18

-2.053338221616828e-17 -4.196184485171983e-18 -1.118611974271325e+00
-4.196184485171983e-18 -4.313069960092358e-17  4.332265007055716e-01
-1.118611974271325e+00  4.332265007055716e-01  7.108773216349351e-18

-2.521707084400133e-17 -5.256913192180972e-18 -1.063131903110250e+00
-5.256913192180972e-18 -4.970149398991014e-17  4.264202819414261e-01
-1.063131903110250e+00  4.264202819414261e-01  3.510676363704425e-18

-3.048859105998437e-17 -6.652773306210946e-18 -1.010375304394077e+00
-6.652773306210946e-18 -5.802014418586799e-17  4.336278501494015e-01
-1.010375304394077e+00  4.336278501494015e-01 -2.010710990382938e-19

-3.669700153306504e-17 -8.432164270335740e-18 -9.523412603806937e-01
-8.432164270335740e-18 -6.674459878838892e-17  4.284553012377942e-01
-9.523412603806937e-01  4.284553012377942e-01 -4.740296708576202e-18

-4.098996430689148e-17 -9.193153112589280e-18 -9.622956222195045e-01
-9.193153112589280e-18 -7.356962659456409e-17  4.158820811757433e-01
-9.622956222195045e-01  4.158820811757433e-01 -6.593448672492373e-18

-4.605737846693606e-17 -1.035220391484107e-17 -1.036839178115146e+00
-1.035220391484107e-17 -8.535263810732405e-17  4.202185912421390e-01
-1.036839178115146e+00  4.202185912421390e-01 -4.610959915912758e-18

-5.372298291914110e-17 -1.272802654415388e-17 -1.035478908713829e+00
-1.272802654415388e-17 -9.834789641554446e-17  4.150149888134388e-01
-1.035478908713829e+00  4.150149888134388e-01 -7.743449001117413e-18

-6.571501286754023e-17 -1.699866545995602e-17 -9.547395964554141e-01
-1.699866545995602e-17 -1.148807615156236e-16  4.070474752754965e-01
-9.547395964554141e-01  4.070474752754965e-01 -1.589994288328391e-17

-7.960785560388233e-17 -2.128383688581781e-17 -9.708926512781477e-01
-2.128383688581781e-17 -1.397862438972428e-16  3.982740777153417e-01
-9.708926512781477e-01  3.982740777153417e-01 -1.894657613666725e-17

-9.196797558720224e-17 -2.421690638359267e-17 -1.076796644598891e+00
-2.421690638359267e-17 -1.669156347541769e-16  4.135855304156349e-01
-1.076796644598891e+00  4.135855304156349e-01 -1.827751194754221e-17

-1.111254639838036e-16 -3.096094247077266e-17 -1.073570456773111e+00
-3.096094247077266e-17 -1.994959322891195e-16  4.144579876093532e-01
-1.073570456773111e+00  4.144579876093532e-01 -2.535749276456553e-17

-1.392176354050819e-16 -4.504171597220370e-17 -9.414643934602885e-01
-4.504171597220370e-17 -2.367202396949583e-16  4.158605646319125e-01
-9.414643934602885e-01  4.158605646319125e-01 -4.087854399735606e-17

-1.704365250976640e-16 -5.805870199001858e-17 -9.474011750284710e-01
-5.805870199001858e-17 -2.872131159125779e-16  4.079602927649327e-01
-9.474011750284710e-01  4.079602927649327e-01 -5.129461035122713e-17

-2.060850838045427e-16 -6.805684488424719e-17 -1.073661815534643e+00
-6.805684488424719e-17 -3.601213630024649e-16  4.287435154370735e-01
-1.073661815534643e+00  4.287435154370735e-01 -5.722112135171267e-17

-2.601713307388356e-16 -9.094812885529478e-17 -1.074886039667708e+00
-9.094812885529478e-17 -4.484885778785719e-16  4.250489752894233e-01
-1.074886039667708e+00  4.250489752894233e-01 -7.538130456560596e-17

-3.425126888609328e-16 -1.391975430672275e-16 -9.293552093613036e-01
-1.391975430672275e-16 -5.483328318402030e-16  4.245203783873072e-01
-9.293552093613036e-01  4.245203783873072e-01 -1.080625439539839e-16

-4.478916118550971e-16 -1.893389863328044e-16 -9.467221789897361e-01
-1.893389863328044e-16 -7.031638694813912e-16  4.170866190509223e-01
-9.467221789897361e-01  4.170866190509223e-01 -1.414490451257719e-16

-5.854264392645373e-16 -2.310763073040174e-16 -1.104054279671597e+00
-2.310763073040174e-16 -9.643041718954728e-16  4.309027682599866e-01
-1.104054279671597e+00  4.309027682599866e-01 -1.794819079218438e-16

-8.025275056071582e-16 -3.082029044675601e-16 -1.188513615110399e+00
-3.082029044675601e-16 -1.324322418925965e-15  4.077014419017232e-01
-1.188513615110399e+00  4.077014419017232e-01 -2.450517696653293e-16

-1.161597158317662e-15 -4.623189149691387e-16 -1.199106147751528e+00
-4.623189149691387e-16 -1.819140018257103e-15  4.059193767172167e-01
-1.199106147751528e+00  4.059193767172167e-01 -3.531093639995185e-16

-1.797142269740933e-15 -7.746311948645077e-16 -1.136239483987864e+00
-7.746311948645077e-16 -2.440209522857100e-15  4.200307868403554e-01
-1.136239483987864e+00  4.200307868403554e-01 -5.381631172131713e-16

-2.995160233776804e-15 -1.349605321580342e-15 -9.827199738163968e-01
-1.349605321580342e-15 -2.974200520230535e-15  4.323513375929331e-01
-9.827199738163968e-01  4.323513375929331e-01 -8.804706747012560e-16

-5.197691420686626e-15 -2.057739830956164e-15 -9.592898291551416e-01
-2.057739830956164e-15 -3.737110728056907e-15  4.312955338938126e-01
-9.592898291551416e-01  4.312955338938126e-01 -1.538614053764665e-15

-9.579828654830755e-15 -2.645190832109542e-15 -1.040261631602051e+00
-2.645190832109542e-15 -5.601026895119109e-15  4.400243703246349e-01
-1.040261631602051e+00  4.400243703246349e-01 -3.005403248299711e-15

-1.929180028000532e-14 -1.956547222071312e-15 -1.065410205876310e+00
-1.956547222071312e-15 -8.503703660735662e-15  4.283593720708453e-01
-1.065410205876310e+00  4.283593720708453e-01 -7.079348209972662e-15

-3.136763392834829e-14  7.654102949797300e-15 -1.038726288783183e+00
 7.654102949797300e-15 -3.085680300438315e-15  4.224958993111318e-01
-1.038726288783183e+00  4.224958993111318e-01 -1.595877885242025e-14

 3.126302477909348e-13  9.929303041019844e-14 -1.039436898812599e+00
 9.929303041019844e-14  1.369459322495097e-13  4.257379796412232e-01
-1.039436898812599e+00  4.257379796412232e-01  8.575216611096818e-14

-2.744099239328351e-13 -3.216719392100569e-14 -1.064403627476295e+00
-3.216719392100569e-14 -1.488663843301187e-13  4.244475678357436e-01
-1.064403627476295e+00  4.244475678357436e-01 -4.946638251900066e-14

-2.586637322090504e-13 -5.605386931624933e-14 -1.092955890970705e+00
-5.605386931624933e-14 -1.537167273651504e-13  4.086802264470379e-01
-1.092955890970705e+00  4.086802264470379e-01 -4.975217110695586e-14

 3.421439816670984e-13  5.080146092746106e-14 -1.140193040991270e+00
 5.080146092746106e-14  1.441298266596047e-13  4.091013097027357e-01
-1.140193040991270e+00  4.091013097027357e-01  8.345954445880223e-14

-1.151345157784311e-14 -2.800631411506285e-14 -1.119374695206242e+00
-2.800631411506285e-14  9.219457762574850e-16  4.104198824578784e-01
-1.119374695206242e+00  4.104198824578784e-01 -1.831522451954826e-14

-8.278003340324304e-15 -1.552769021720531e-14 -1.012208289097304e+00
-1.552769021720531e-14 -1.745200263800594e-15  4.144514574371599e-01
-1.012208289097304e+00  4.144514574371599e-01 -8.207657745243141e-15

-5.219822185931377e-15 -7.358051686464720e-15 -1.018958037169929e+00
-7.358051686464720e-15  1.518679922226718e-15  4.107940990523519e-01
-1.018958037169929e+00  4.107940990523519e-01 -3.810383638881093e-15

-3.949211570621606e-15 -3.433706185298037e-15 -1.126930432022211e+00
-3.433706185298037e-15  1.792814864138307e-15  4.247608387548023e-01
-1.126930432022211e+00  4.247608387548023e-01 -2.093673443927908e-15

-2.737133209621263e-15 -1.577372679225271e-15 -1.140668887275687e+00
-1.577372679225271e-15  1.079513184423721e-15  4.183290578746704e-01
-1.140668887275687e+00  4.183290578746704e-01 -1.236732519307431e-15

-1.859999794389505e-15 -7.598294141807055e-16 -1.051127871264310e+00
-7.598294141807055e-16  5.663337262499809e-16  4.175143596777196e-01
-1.051127871264310e+00  4.175143596777196e-01 -7.798535678059492e-16

-1.328978662929514e-15 -3.696697109168510e-16 -1.054769760060499e+00
-3.696697109168510e-16  3.016389459712571e-16  4.149978104078706e-01
-1.054769760060499e+00  4.149978104078706e-01 -5.203347165070238e-16

-9.793348365904002e-16 -1.733693460828398e-16 -1.145422965800358e+00
-1.733693460828398e-16  1.442597486176470e-16  4.264833872995743e-01
-1.145422965800358e+00  4.264833872995743e-01 -3.573130096039643e-16

-7.269521571998181e-16 -7.988993038333751e-17 -1.139092949325204e+00
-7.988993038333751e-17  5.591048857012325e-17  4.222264681758277e-01
-1.139092949325204e+00  4.222264681758277e-01 -2.544743578718169e-16

-5.504605337020391e-16 -3.419888665208565e-17 -1.021649716833312e+00
-3.419888665208565e-17  1.397482476009091e-17  4.213683384786999e-01
-1.021649716833312e+00  4.213683384786999e-01 -1.913441559827667e-16

-4.278450901042022e-16 -7.527830948949348e-18 -1.042911146612293e+00
-7.527830948949348e-18 -1.320691282582794e-17  4.041840645401695e-01
-1.042911146612293e+00  4.041840645401695e-01 -1.425786753683200e-16

-3.362359727584081e-16  6.762383458659400e-18 -1.195824082273589e+00
 6.762383458659400e-18 -3.332643870341152e-17  4.206534884615239e-01
-1.195824082273589e+00  4.206534884615239e-01 -9.968322587505150e-17

-2.685697475762976e-16  1.337095410602333e-17 -1.189296930501430e+00
 1.337095410602333e-17 -3.735987269050457e-17  3.950611077300236e-01
-1.189296930501430e+00  3.950611077300236e-01 -7.469748494674255e-17

-2.206301601067817e-16  1.555969292378077e-17 -1.000167872163764e+00
 1.555969292378077e-17 -3.362015226917404e-17  4.087735580419639e-01
-1.000167872163764e+00  4.087735580419639e-01 -6.570553699115843e-17

-1.822541471817764e-16  1.694199411198194e-17 -9.673599736428872e-01
 1.694199411198194e-17 -3.263104808816067e-17  4.020235620616613e-01
-9.673599736428872e-01  4.020235620616613e-01 -5.275699472288683e-17

-1.497559229682257e-16  1.718761976949465e-17 -1.061451557079847e+00
 1.718761976949465e-17 -3.364606028155580e-17  4.096536161836113e-01
-1.061451557079847e+00  4.096536161836113e-01 -3.588772270851875e-17

-1.261910451292449e-16  1.684381351370423e-17 -1.031315648435157e+00
 1.684381351370423e-17 -3.154302828421656e-17  4.055314282211307e-01
-1.031315648435157e+00  4.055314282211307e-01 -2.841935635938702e-17

-1.104610869914086e-16  1.557074706061779e-17 -8.590443521032487e-01
 1.557074706061779e-17 -2.808865209467762e-17  4.236145564780389e-01
-8.590443521032487e-01  4.236145564780389e-01 -3.079289855621626e-17

-9.203072844301102e-17  1.344950180598438e-17 -8.776003707290935e-01
 1.344950180598438e-17 -2.655198348739810e-17  4.013827316305685e-01
-8.776003707290935e-01  4.013827316305685e-01 -2.503949493863298e-17

-7.516451278628902e-17  1.181234242791083e-17 -1.056492517532148e+00
 1.181234242791083e-17 -2.570595417775359e-17  4.162426143841533e-01
-1.056492517532148e+00  4.162426143841533e-01 -1.030904746989881e-17

-6.448288693321827e-17  1.282862676551344e-17 -1.129402089592413e+00
 1.282862676551344e-17 -1.936435453123863e-17  3.887293554580410e-01
-1.129402089592413e+00  3.887293554580410e-01 -3.334349345778178e-18

-5.635820508067612e-17  1.179943102203511e-17 -1.096647700057038e+00
 1.179943102203511e-17 -1.720348632944763e-17  3.822312327081543e-01
-1.096647700057038e+00  3.822312327081543e-01 -1.912354079229866e-18

-5.115587265982384e-17  1.034828226915307e-17 -1.043159382275483e+00
 1.034828226915307e-17 -1.925147938614991e-17  3.965741686534064e-01
-1.043159382275483e+00  3.965741686534064e-01 -1.336066978716106e-18

-4.651365616593976e-17  9.495320138981738e-18 -9.583375115418520e-01
 9.495320138981738e-18 -1.766514253590430e-17  3.969430351910476e-01
-9.583375115418520e-01  3.969430351910476e-01 -3.242968268457050e-18

-4.058888962812878e-17  8.853395995895521e-18 -9.747837397269064e-01
 8.853395995895521e-18 -1.545679880226205e-17  3.791210140998814e-01
-9.747837397269064e-01  3.791210140998814e-01 -2.634093060964360e-19

-3.329496637424255e-17  8.104431211098035e-18 -1.092975141280025e+00
 8.104431211098035e-18 -1.378431394091167e-17  3.824299104840484e-01
-1.092975141280025e+00  3.824299104840484e-01  7.947642299644934e-18

-2.909658958720070e-17  7.680363850793302e-18 -1.102470181114338e+00
 7.680363850793302e-18 -1.226475278444365e-17  3.683544094115672e-01
-1.102470181114338e+00  3.683544094115672e-01  9.773713957285374e-18

-2.799281609210753e-17  7.030230100749357e-18 -9.913151422738838e-01
 7.030230100749357e-18 -1.227309534434198e-17  3.849026440041797e-01
-9.913151422738838e-01  3.849026440041797e-01  5.115178747860472e-18

-2.682194889136102e-17  6.667622119739265e-18 -9.050899685209282e-01
 6.667622119739265e-18 -1.356746497205314e-17  4.212019347777515e-01
-9.050899685209282e-01  4.212019347777515e-01  1.464221591270188e-18

-2.657341331451552e-17  6.010875200904291e-18 -7.989871575241569e-01
 6.010875200904291e-18 -1.349203109327744e-17  4.373088539897039e-01
-7.989871575241569e-01  4.373088539897039e-01 -3.631530659276476e-18

-2.333561974270721e-17  5.865886959561917e-18 -8.528126255690660e-01
 5.865886959561917e-18 -1.165385413872733e-17  4.115592690298386e-01
-8.528126255690660e-01  4.115592690298386e-01 -8.002383780623144e-19

-1.677657739704291e-17  4.670871429829882e-18 -1.050002592846204e+00
 4.670871429829882e-18 -9.435696040244879e-18  4.353345125547998e-01
-1.050002592846204e+00  4.353345125547998e-01  1.126665825282548e-17

-1.401173109918838e-17  4.413283503583900e-18 -1.100859046935409e+00
 4.413283503583900e-18 -7.654753686586392e-18  4.169426874482411e-01
-1.100859046935409e+00  4.169426874482411e-01  1.398280706794952e-17

-1.481871982131388e-17  3.962330813881165e-18 -9.894091637286255e-01
 3.962330813881165e-18 -7.146983990662223e-18  4.125366312791022e-01
-9.894091637286255e-01  4.125366312791022e-01  8.508918233737022e-18

-1.411088864385947e-17  3.676541782619899e-18 -9.501057680208603e-01
 3.676541782619899e-18 -7.277142070131120e-18  4.258776261358186e-01
-9.501057680208603e-01  4.258776261358186e-01  7.125543763422152e-18

-1.224336709389282e-17  3.370173523303007e-18 -9.709356730375019e-01
 3.370173523303007e-18 -6.332106251764380e-18  4.215141817558664e-01
-9.709356730375019e-01  4.215141817558664e-01  9.120368029565408e-18

-9.962336296211089e-18  3.118770389390156e-18 -1.018064316852443e+00
 3.118770389390156e-18 -4.224696445977483e-18  3.921072549463167e-01
-1.018064316852443e+00  3.921072549463167e-01  1.227517425967077e-17

-6.850720757120590e-18  2.761791847378296e-18 -1.108321744162142e+00
 2.761791847378296e-18 -2.912827984944799e-18  3.921881465501219e-01
-1.108321744162142e+00  3.921881465501219e-01  1.787807445911013e-17

-6.202511490984509e-18  2.795645414283230e-18 -1.094722827897479e+00
 2.795645414283230e-18 -2.825383302919202e-18  3.871670456322562e-01
-1.094722827897479e+00  3.871670456322562e-01  1.741421402710813e-17

-8.224500145025594e-18  2.436187956614445e-18 -9.547531492681451e-01
 2.436187956614445e-18 -3.666231317800752e-18  3.979555883846393e-01
-9.547531492681451e-01  3.979555883846393e-01  1.047193011569895e-17

-8.415805101394087e-18  2.421293431758895e-18 -9.068012558849885e-01
 2.421293431758895e-18 -4.561695511092905e-18  4.129214279269744e-01
-9.068012558849885e-01  4.129214279269744e-01  8.233225789775251e-18

-7.298577311961616e-18  2.357456896012200e-18 -9.289860007538805e-01
 2.357456896012200e-18 -3.989454522783264e-18  4.086793531639830e-01
-9.289860007538805e-01  4.086793531639830e-01  9.431272386700289e-18

-5.224906135188378e-18  2.242312075939349e-18 -1.002796284470832e+00
 2.242312075939349e-18 -1.875981206605687e-18  3.835863204953707e-01
-1.002796284470832e+00  3.835863204953707e-01  1.296559623523703e-17

-1.797658836443638e-18  1.900719181463484e-18 -1.139736216160142e+00
 1.900719181463484e-18 -4.581051335199453e-19  3.992894351317549e-01
-1.139736216160142e+00  3.992894351317549e-01  2.022245816554320e-17

-1.589989398193076e-18  2.053787529141193e-18 -1.133668812282880e+00
 2.053787529141193e-18 -5.453598910186464e-19  4.014674573135751e-01
-1.133668812282880e+00  4.014674573135751e-01  1.945650488070540e-17

-4.786179233720892e-18  1.567283783803686e-18 -9.561853758672776e-01
 1.567283783803686e-18 -1.566971438733708e-18  4.147511112504469e-01
-9.561853758672776e-01  4.147511112504469e-01  1.012217772221165e-17

-4.617569255470680e-18  1.777038829438646e-18 -9.482728601498216e-01
 1.777038829438646e-18 -1.664175488013121e-18  4.097678324121223e-01
-9.482728601498216e-01  4.097678324121223e-01  9.497694558300770e-18

-1.307747228272549e-18  1.502204138164356e-18 -1.081584137246075e+00
 1.502204138164356e-18 -6.618359006852485e-19  4.267841263063311e-01
-1.081584137246075e+00  4.267841263063311e-01  1.694423283862572e-17

-1.806683494958251e-19  1.477279175640204e-18 -1.122746830578452e+00
 1.477279175640204e-18  4.616168120691675e-19  4.155049890344950e-01
-1.122746830578452e+00  4.155049890344950e-01  1.880459039247339e-17

-1.133841993871371e-18  1.334562094956955e-18 -1.062777328397174e+00
 1.334562094956955e-18  2.370471569557844e-19  4.168344605701592e-01
-1.062777328397174e+00  4.168344605701592e-01  1.563627503619639e-17

-1.730086949492239e-18  1.255580719917682e-18 -1.016391241035833e+00
 1.255580719917682e-18 -8.162580949839176e-19  4.358997148170036e-01
-1.016391241035833e+00  4.358997148170036e-01  1.331156778471626e-17

-2.442201031178704e-18  1.161516654114717e-18 -9.718847873901719e-01
 1.161516654114717e-18 -8.949377905509118e-19  4.345108408363977e-01
-9.718847873901719e-01  4.345108408363977e-01  1.088648227155067e-17

-1.384196540081700e-18  1.153146726540789e-18 -1.011623123735753e+00
 1.153146726540789e-18  3.777463979998764e-19  4.175499860730349e-01
-1.011623123735753e+00  4.175499860730349e-01  1.288680710620476e-17

 1.652883711401829e-18  7.836673797826666e-19 -1.132723200527691e+00
 7.836673797826666e-19  1.653312316025810e-18  4.323549158265543e-01
-1.132723200527691e+00  4.323549158265543e-01  2.024683561923085e-17

 1.720888336434255e-18  9.631789831895157e-19 -1.119128625195742e+00
 9.631789831895157e-19  1.851222338412979e-18  4.184869559587253e-01
-1.119128625195742e+00  4.184869559587253e-01  2.002829697102994e-17

-1.074434508597074e-18  7.490220151260056e-19 -9.651947486077748e-01
 7.490220151260056e-19  1.120357123745467e-18  4.111299042176660e-01
-9.651947486077748e-01  4.111299042176660e-01  1.262698343970398e-17

-1.281177448176226e-18  9.189429395191349e-19 -9.376323532027904e-01
 9.189429395191349e-19  7.846703207373804e-19  4.028682392402404e-01
-9.376323532027904e-01  4.028682392402404e-01  1.171985524444756e-17

 8.486241988922987e-19  8.804665035036406e-19 -1.017752216816111e+00
 8.804665035036406e-19  1.080329640072732e-18  4.079892570502174e-01
-1.017752216816111e+00  4.079892570502174e-01  1.675978617308384e-17

 1.099716161558762e-18  9.776994096884459e-19 -1.022852741985582e+00
 9.776994096884459e-19  1.169883405784145e-18  4.020783618196104e-01
-1.022852741985582e+00  4.020783618196104e-01  1.679083308342775e-17

-7.229049203386544e-19  8.139386185882532e-19 -9.368078442981612e-01
 8.139386185882532e-19  1.025753253986480e-18  3.993195578716959e-01
-9.368078442981612e-01  3.993195578716959e-01  1.161360659857666e-17

-1.592153561399924e-19  9.166632740953106e-19 -9.629500148806164e-01
 9.166632740953106e-19  1.646727810408333e-18  3.912908217380677e-01
-9.629500148806164e-01  3.912908217380677e-01  1.247775999741029e-17

 2.836764569415076e-18  6.474652586173454e-19 -1.090500977585390e+00
 6.474652586173454e-19  2.680565389143471e-18  4.100393996989889e-01
-1.090500977585390e+00  4.100393996989889e-01  1.980411272339059e-17

 3.035983682116661e-18  8.396147419329898e-19 -1.093992541432665e+00
 8.396147419329898e-19  3.005800721756774e-18  4.016269716025841e-01
-1.093992541432665e+00  4.016269716025841e-01  1.995382264838889e-17

 4.920155052545708e-19  6.502336061119634e-19 -9.650101153012366e-01
 6.502336061119634e-19  2.575894835228444e-18  3.974716910850333e-01
-9.650101153012366e-01  3.974716910850333e-01  1.314796835663873e-17

 6.931011518737338e-19  8.557292297588276e-19 -9.701674641678369e-01
 8.557292297588276e-19  2.786790865488401e-18  3.875720684251245e-01
-9.701674641678369e-01  3.875720684251245e-01  1.320612570613079e-17

 3.564788539422432e-18  7.562353049989205e-19 -1.097643027326082e+00
 7.562353049989205e-19  3.833550564975782e-18  3.960020801626420e-01
-1.097643027326082e+00  3.960020801626420e-01  2.008674355357731e-17

 4.546893294418372e-18  8.444793344179608e-19 -1.146590464676515e+00
 8.444793344179608e-19  4.874644633892923e-18  3.814919720836009e-01
-1.146590464676515e+00  3.814919720836009e-01  2.209002114206549e-17

 3.682127499593711e-18  7.904260843246157e-19 -1.103909270815013e+00
 7.904260843246157e-19  4.269337509721675e-18  3.863732261380718e-01
-1.103909270815013e+00  3.863732261380718e-01  1.966249823807494e-17

 2.386878740427633e-18  8.167192581496693e-19 -1.032895717453611e+00
 8.167192581496693e-19  2.289324568231645e-18  4.103105485596971e-01
-1.032895717453611e+00  4.103105485596971e-01  1.614541838487728e-17

 1.017047357277482e-19  5.826337951873455e-19 -9.142941346918476e-01
 5.826337951873455e-19  8.995731987607210e-19  4.227698359183226e-01
-9.142941346918476e-01  4.227698359183226e-01  1.017676332632259e-17

 2.423819553001023e-19  7.644143536348610e-19 -9.170262251486642e-01
 7.644143536348610e-19  9.915723688538597e-19  4.117637064678999e-01
-9.170262251486642e-01  4.117637064678999e-01  1.037517560806520e-17

 2.781283697589859e-18  6.694640225479299e-19 -1.028011585856742e+00
 6.694640225479299e-19  1.547765024936338e-18  4.253193322301225e-01
-1.028011585856742e+00  4.253193322301225e-01  1.662492002869047e-17

 2.937896336076246e-18  7.233598745815815e-19 -1.036234130927397e+00
 7.233598745815815e-19  1.719688172231825e-18  4.257719955112063e-01
-1.036234130927397e+00  4.257719955112063e-01  1.666846228850880e-17

 6.124847350331012e-19  5.285035537887612e-19 -9.299396543135038e-01
 5.285035537887612e-19  1.690888242757666e-18  4.213151664446649e-01
-9.299396543135038e-01  4.213151664446649e-01  1.044440198246068e-17

 1.485462442182097e-18  7.871944916239186e-19 -9.782627004483317e-01
 7.871944916239186e-19  2.822134358145259e-18  4.023198749205447e-01
-9.782627004483317e-01  4.023198749205447e-01  1.220987904876738e-17

 5.792126239287747e-18  2.991949642617907e-19 -1.170602969210192e+00
 2.991949642617907e-19  4.585234238776108e-18  4.322994466209025e-01
-1.170602969210192e+00  4.322994466209025e-01  2.309668818780266e-17

 6.033654623653932e-18  7.141206977484330e-19 -1.190209577354882e+00
 7.141206977484330e-19  4.934967016531664e-18  4.181109554053918e-01
-1.190209577354882e+00  4.181109554053918e-01  2.341952267500713e-17

 2.159790780001730e-18  2.848227856005287e-19 -9.988005112973624e-01
 2.848227856005287e-19  3.836404882698702e-18  4.212574780134516e-01
-9.988005112973624e-01  4.212574780134516e-01  1.326257564043958e-17

 1.939940563662033e-18  5.779530326910799e-19 -9.889596105546904e-01
 5.779530326910799e-19  3.571973484296607e-18  4.138540323856549e-01
-9.889596105546904e-01  4.138540323856549e-01  1.255209305252352e-17

 5.148672845289512e-18  3.871572090010953e-19 -1.129149847820373e+00
 3.871572090010953e-19  4.305828337993396e-18  4.364337320468181e-01
-1.129149847820373e+00  4.364337320468181e-01  2.066016345637085e-17

 5.367412657419247e-18  5.916661392229320e-19 -1.139240828068194e+00
 5.916661392229320e-19  4.618476441492101e-18  4.247781706388020e-01
-1.139240828068194e+00  4.247781706388020e-01  2.105755499064596e-17

 2.603434676537949e-18  3.404359059552355e-19 -1.002060981414255e+00
 3.404359059552355e-19  3.995967923997805e-18  4.204648291229762e-01
-1.002060981414255e+00  4.204648291229762e-01  1.387363755790309e-17

 2.633805004842893e-18  5.335742587743123e-19 -1.000971903809059e+00
 5.335742587743123e-19  4.056800038057674e-18  4.109582970380051e-01
-1.000971903809059e+00  4.109582970380051e-01  1.379484092626598e-17

 5.367260606089836e-18  4.482217786494671e-19 -1.121153518287471e+00
 4.482217786494671e-19  4.674524009341185e-18  4.267904606276405e-01
-1.121153518287471e+00  4.267904606276405e-01  2.066276804654585e-17

 5.389512427868129e-18  6.419077372042279e-19 -1.122797336087736e+00
 6.419077372042279e-19  4.712646846704112e-18  4.197442040807833e-01
-1.122797336087736e+00  4.197442040807833e-01  2.054987773404532e-17

 2.602746193491663e-18  3.568708152701737e-19 -9.867901235059273e-01
 3.568708152701737e-19  4.049010449721814e-18  4.190702933392255e-01
-9.867901235059273e-01  4.190702933392255e-01  1.324092125866572e-17

 2.835414556461420e-18  5.920612344769291e-19 -9.990312386381185e-01
 5.920612344769291e-19  4.392505982023700e-18  4.062788129742429e-01
-9.990312386381185e-01  4.062788129742429e-01  1.364736224086889e-17

 6.094768775799997e-18  4.628685248165588e-19 -1.145080012945945e+00
 4.628685248165588e-19  5.380021871792157e-18  4.248612972786341e-01
-1.145080012945945e+00  4.248612972786341e-01  2.182512656438647e-17

 6.365735222966495e-18  7.176047184671204e-19 -1.161396757579134e+00
 7.176047184671204e-19  5.773762196907585e-18  4.121804155331474e-01
-1.161396757579134e+00  4.121804155331474e-01  2.232968875963520e-17

 3.652348295258622e-18  4.048710833916114e-19 -1.029068110728703e+00
 4.048710833916114e-19  5.054999769450270e-18  4.117898363894943e-01
-1.029068110728703e+00  4.117898363894943e-01  1.512893605110837e-17

 3.751499846602216e-18  5.715334030215445e-19 -1.035791308430747e+00
 5.715334030215445e-19  5.104658772277051e-18  4.042169932477022e-01
-1.035791308430747e+00  4.042169932477022e-01  1.519788750011417e-17

 6.540558703529209e-18  5.775564382463839e-19 -1.165769770341573e+00
 5.775564382463839e-19  5.577032456823347e-18  4.226922274641929e-01
-1.165769770341573e+00  4.226922274641929e-01  2.221568215134383e-17

 6.297740378458465e-18  7.732409635793200e-19 -1.155087813529108e+00
 7.732409635793200e-19  5.299607620312576e-18  4.156354253807120e-01
-1.155087813529108e+00  4.156354253807120e-01  2.159595535341667e-17

 2.963480027372847e-18  3.007399770122337e-19 -9.848357035571804e-01
 3.007399770122337e-19  3.849946032786649e-18  4.247110143440472e-01
-9.848357035571804e-01  4.247110143440472e-01  1.286334188378689e-17

 2.666208997597310e-18  5.394680808618316e-19 -9.688790770997702e-01
 5.394680808618316e-19  3.565929977147560e-18  4.139378546949269e-01
-9.688790770997702e-01  4.139378546949269e-01  1.215230126994016e-17

 5.249201293005464e-18  5.406624699842442e-19 -1.084304760399797e+00
 5.406624699842442e-19  4.170750883250354e-18  4.228544279187625e-01
-1.084304760399797e+00  4.228544279187625e-01  1.868798410441011e-17

 5.686305797630662e-18  6.096252796656399e-19 -1.104381762409095e+00
 6.096252796656399e-19  4.778021787477575e-18  4.094979773762106e-01
-1.104381762409095e+00  4.094979773762106e-01  1.966807733540541e-17

 4.052886170126765e-18  4.088228631127490e-19 -1.024209448813575e+00
 4.088228631127490e-19  4.561979896803936e-18  4.026387814088538e-01
-1.024209448813575e+00  4.026387814088538e-01  1.541731532539405e-17

 4.164745956487874e-18  4.329218700607341e-19 -1.025394989923082e+00
 4.329218700607341e-19  4.699490329993140e-18  3.940631372556111e-01
-1.025394989923082e+00  3.940631372556111e-01  1.563597846346166e-17

 5.975040118406577e-18  4.859708849344158e-19 -1.104071379972378e+00
 4.859708849344158e-19  4.770880710115704e-18  4.003257461053297e-01
-1.104071379972378e+00  4.003257461053297e-01  2.036815348149346e-17

 5.318645283805124e-18  6.303570398240956e-19 -1.065218153730314e+00
 6.303570398240956e-19  3.960824428670999e-18  3.950078269584458e-01
-1.065218153730314e+00  3.950078269584458e-01  1.894312958128706e-17

 2.104919690439322e-18  2.239991914861035e-19 -8.976576824275416e-01
 2.239991914861035e-19  1.953506130949748e-18  4.141855273157862e-01
-8.976576824275416e-01  4.141855273157862e-01  1.077696702179013e-17

 8.464445112148625e-19  3.633389594753250e-19 -8.318509570292044e-01
 3.633389594753250e-19  3.722522073664825e-19  4.274059437924795e-01
-8.318509570292044e-01  4.274059437924795e-01  7.723896372310340e-18

 9.616647105153550e-19  4.738093458197549e-19 -8.364769001793622e-01
 4.738093458197549e-19  7.190549129559327e-19  4.161487960587456e-01
-8.364769001793622e-01  4.161487960587456e-01  8.050460118941341e-18

 2.697888516552240e-18  5.698230684107132e-19 -9.184487453574410e-01
 5.698230684107132e-19  3.172514109469996e-18  3.744355497809047e-01
-9.184487453574410e-01  3.744355497809047e-01  1.223997535001408e-17

 6.725933320733116e-18  1.645191270610258e-19 -1.093634692154071e+00
 1.645191270610258e-19  5.182533419666024e-18  3.838573564935671e-01
-1.093634692154071e+00  3.838573564935671e-01  2.252838522244515e-17

 6.751497596179349e-18  6.922968574312103e-19 -1.104344407446533e+00
 6.922968574312103e-19  5.376504315999485e-18  3.628457397119869e-01
-1.104344407446533e+00  3.628457397119869e-01  2.246412299851566e-17

 2.695425378247165e-18  1.481099204605951e-19 -9.087759730537979e-01
 1.481099204605951e-19  3.957839714263361e-18  3.803391467566838e-01
-9.087759730537979e-01  3.803391467566838e-01  1.178905694409630e-17

 2.193190490744611e-18  4.440238802677053e-19 -8.882982416670603e-01
 4.440238802677053e-19  3.338973360231748e-18  3.782072174530463e-01
-8.882982416670603e-01  3.782072174530463e-01  1.051812675521379e-17

 4.942248651285428e-18  3.937731092811800e-19 -1.006575364874213e+00
 3.937731092811800e-19  3.706387108881572e-18  3.935949720599233e-01
-1.006575364874213e+00  3.935949720599233e-01  1.752593135889718e-17

 5.196014572458779e-18  5.630225952320476e-19 -1.019421048239835e+00
 5.630225952320476e-19  4.021267085245883e-18  3.831193965396149e-01
-1.019421048239835e+00  3.831193965396149e-01  1.803803041716806e-17

 2.935764685418128e-18  3.447708866117286e-19 -9.155826745175513e-01
 3.447708866117286e-19  3.666116151670613e-18  3.835421479080371e-01
-9.155826745175513e-01  3.835421479080371e-01  1.209084456291102e-17

 3.158740639549111e-18  5.093566462119960e-19 -9.294434295092213e-01
 5.093566462119960e-19  3.965222165659576e-18  3.760155800742930e-01
-9.294434295092213e-01  3.760155800742930e-01  1.247059354998634e-17

 5.883071529258607e-18  4.361541569315063e-19 -1.051157787163892e+00
 4.361541569315063e-19  4.704055954652147e-18  3.893911166494611e-01
-1.051157787163892e+00  3.893911166494611e-01  1.929954665560992e-17

 6.126167274846134e-18  6.449807757908694e-19 -1.067663367634546e+00
 6.449807757908694e-19  4.950837522614165e-18  3.812600713274978e-01
-1.067663367634546e+00  3.812600713274978e-01  1.971129357602408e-17

 3.815848845212480e-18  3.902164798254905e-19 -9.623924359295309e-01
 3.902164798254905e-19  4.216616000370594e-18  3.889936327895260e-01
-9.623924359295309e-01  3.889936327895260e-01  1.355931294823888e-17

 3.608567827897198e-18  4.922879569213359e-19 -9.575670979538327e-01
 4.922879569213359e-19  3.824065361089715e-18  3.952252642942946e-01
-9.575670979538327e-01  3.952252642942946e-01  1.281427263286732e-17

 5.308758270570204e-18  4.909100627219227e-19 -1.038371499941343e+00
 4.909100627219227e-19  4.242590727857571e-18  4.052166897017883e-01
-1.038371499941343e+00  4.052166897017883e-01  1.700729180515317e-17

 5.933316481842981e-18  4.980764009928803e-19 -1.070631686251094e+00
 4.980764009928803e-19  4.905736335445485e-18  3.989247597916560e-01
-1.070631686251094e+00  3.989247597916560e-01  1.838143778738215e-17

 5.564139100768717e-18  4.673064195436115e-19 -1.057574646613328e+00
 4.673064195436115e-19  4.539880021981241e-18  4.059358916701091e-01
-1.057574646613328e+00  4.059358916701091e-01  1.735640104057775e-17

 4.712056041855312e-18  4.370573344304579e-19 -1.017787853533707e+00
 4.370573344304579e-19  3.203480830692308e-18  4.292586444606070e-01
-1.017787853533707e+00  4.292586444606070e-01  1.501835526521597e-17

 2.914978463040023e-18  2.787279506730656e-19 -9.345494743939148e-01
 2.787279506730656e-19  2.434705388304165e-18  4.380503685519441e-01
-9.345494743939148e-01  4.380503685519441e-01  1.040308919990091e-17

 3.251191232581966e-18  4.063370948718706e-19 -9.555038848673496e-01
 4.063370948718706e-19  2.868008424831530e-18  4.316214944802450e-01
-9.555038848673496e-01  4.316214944802450e-01  1.109813371952927e-17

 5.759152650384329e-18  1.753923970639614e-19 -1.072267761149909e+00
 1.753923970639614e-19  4.006213821928603e-18  4.469610851099643e-01
-1.072267761149909e+00  4.469610851099643e-01  1.743479722259454e-17

 6.336784366365900e-18  2.016548034150174e-19 -1.104099201800743e+00
 2.016548034150174e-19  4.960904929580409e-18  4.404775564015888e-01
-1.104099201800743e+00  4.404775564015888e-01  1.873025087153327e-17

 5.119128145367177e-18  2.052674337273954e-19 -1.049731998155174e+00
 2.052674337273954e-19  5.386502114709540e-18  4.267181309344768e-01
-1.049731998155174e+00  4.267181309344768e-01  1.560073736934184e-17

 5.637720200314869e-18  2.759086916717062e-19 -1.072299948767216e+00
 2.759086916717062e-19  6.240078512381654e-18  4.133517817018051e-01
-1.072299948767216e+00  4.133517817018051e-01  1.680378517387532e-17

 8.071165921322151e-18  1.656766808579947e-19 -1.179408301206622e+00
 1.656766808579947e-19  6.961712780254429e-18  4.261087063831367e-01
-1.179408301206622e+00  4.261087063831367e-01  2.301931987297254e-17

 7.691697830936813e-18  4.330860475020476e-19 -1.163174332816562e+00
 4.330860475020476e-19  6.450150347412360e-18  4.192230748366338e-01
-1.163174332816562e+00  4.192230748366338e-01  2.202039135945194e-17

 4.238518373502985e-18  5.270949914133745e-20 -9.925037033819106e-01
 5.270949914133745e-20  5.095318240376062e-18  4.238239093664515e-01
-9.925037033819106e-01  4.238239093664515e-01  1.315286905544074e-17

 3.908396896216119e-18  2.862902512455463e-19 -9.745841274317506e-01
 2.862902512455463e-19  4.741442590790177e-18  4.152503628425969e-01
-9.745841274317506e-01  4.152503628425969e-01  1.240988001562849e-17

 6.549211886002356e-18  1.888858112010568e-19 -1.084177948298604e+00
 1.888858112010568e-19  5.271520800062807e-18  4.269953367146545e-01
-1.084177948298604e+00  4.269953367146545e-01  1.928018580193383e-17

 6.728039606518420e-18  3.859639035040805e-19 -1.089076943403561e+00
 3.859639035040805e-19  5.554964409878106e-18  4.090844174739817e-01
-1.089076943403561e+00  4.090844174739817e-01  1.971767002774494e-17

 4.477344782308026e-18  2.063969641841829e-19 -9.811757666334830e-01
 2.063969641841829e-19  5.061573341027563e-18  4.016141974875939e-01
-9.811757666334830e-01  4.016141974875939e-01  1.392367187068214e-17

 4.476654167166779e-18  3.171117135901380e-19 -9.801380893276735e-01
 3.171117135901380e-19  5.066702661231832e-18  3.937259830048177e-01
-9.801380893276735e-01  3.937259830048177e-01  1.386321273341217e-17

 6.661341993265969e-18  2.801876476551997e-19 -1.073988065921345e+00
 2.801876476551997e-19  5.485347783042383e-18  4.014675864657596e-01
-1.073988065921345e+00  4.014675864657596e-01  1.948389748652660e-17

 6.695404304875649e-18  4.339350707954941e-19 -1.072024898462401e+00
 4.339350707954941e-19  5.486313866724853e-18  3.890990421138308e-01
-1.072024898462401e+00  3.890990421138308e-01  1.961541152109383e-17

 4.585123008833117e-18  2.590261713329560e-19 -9.671409722548697e-01
 2.590261713329560e-19  4.236610328944056e-18  3.968849148122681e-01
-9.671409722548697e-01  3.968849148122681e-01  1.428172065695827e-17

 3.384475049267288e-18  2.941691966172459e-19 -9.060696987495968e-01
 2.941691966172459e-19  2.493406855690861e-18  4.195098652641821e-01
-9.060696987495968e-01  4.195098652641821e-01  1.120627881141096e-17

 2.500083910565243e-18  3.141756838827511e-19 -8.649772534557896e-01
 3.141756838827511e-19  2.130226554526347e-18  4.198168972775576e-01
-8.649772534557896e-01  4.198168972775576e-01  8.985506072575450e-18

 3.357127173387466e-18  4.545393346252686e-19 -9.086970798793593e-01
 4.545393346252686e-19  3.320933523262831e-18  3.987355309315690e-01
-9.086970798793593e-01  3.987355309315690e-01  1.093968673877068e-17

 6.234583017574199e-18  2.155235744000871e-19 -1.041437915458934e+00
 2.155235744000871e-19  5.085873890672963e-18  4.007364182254347e-01
-1.041437915458934e+00  4.007364182254347e-01  1.814044188146489e-17

 7.380704727545714e-18  2.903563227179710e-19 -1.102180522669852e+00
 2.903563227179710e-19  6.717694267027611e-18  3.812007034792140e-01
-1.102180522669852e+00  3.812007034792140e-01  2.078449333642131e-17

 7.075156422107205e-18  3.286545797350574e-19 -1.090488880317216e+00
 3.286545797350574e-19  6.898847536671041e-18  3.775386521762741e-01
-1.090488880317216e+00  3.775386521762741e-01  1.994723859002714e-17

 6.343236000187599e-18  3.664722206736062e-19 -1.052707904402161e+00
 3.664722206736062e-19  5.883613310478039e-18  3.904456010479744e-01
-1.052707904402161e+00  3.904456010479744e-01  1.798179202548803e-17

 4.805043105632202e-18  2.547693036555025e-19 -9.777322321723547e-01
 2.547693036555025e-19  5.145934415494864e-18  3.934465121221806e-01
-9.777322321723547e-01  3.934465121221806e-01  1.407666198435311e-17

 4.927467640225945e-18  3.141059924097235e-19 -9.798211838709843e-01
 3.141059924097235e-19  5.255304983412156e-18  3.861794362510897e-01
-9.798211838709843e-01  3.861794362510897e-01  1.439197432394661e-17

 6.692901149078482e-18  3.534268110691723e-19 -1.054443424302664e+00
 3.534268110691723e-19  5.382419848745262e-18  3.935664140292113e-01
-1.054443424302664e+00  3.935664140292113e-01  1.899257892778388e-17

 6.183071408318597e-18  5.233296360317217e-19 -1.027504581317117e+00
 5.233296360317217e-19  4.751067586833828e-18  3.921057332891519e-01
-1.027504581317117e+00  3.921057332891519e-01  1.774598619719956e-17

 3.240485079864228e-18  1.763641384314962e-19 -8.851476206585600e-01
 1.763641384314962e-19  3.939742666392637e-18  3.960226435881688e-01
-8.851476206585600e-01  3.960226435881688e-01  1.011411387700467e-17

 3.623857379598673e-18  5.032569356611798e-19 -9.066661462845294e-01
 5.032569356611798e-19  4.541659036571432e-18  3.729774299704504e-01
-9.066661462845294e-01  3.729774299704504e-01  1.105703285940456e-17

 7.579477751803989e-18  2.925695894636737e-19 -1.077551679195125e+00
 2.925695894636737e-19  5.835255741263609e-18  3.859402096246887e-01
-1.077551679195125e+00  3.859402096246887e-01  2.114806445663228e-17

 8.001818806535239e-18  6.973818632161057e-19 -1.103871895714157e+00
 6.973818632161057e-19  6.379107510381429e-18  3.605612882643167e-01
-1.103871895714157e+00  3.605612882643167e-01  2.219150943735476e-17

 5.044813140262671e-18  3.344072444111331e-19 -9.621584834576723e-01
 3.344072444111331e-19  4.836980088906251e-18  3.769441034526070e-01
-9.621584834576723e-01  3.769441034526070e-01  1.440940336993854e-17

 3.608720983915130e-18  4.149268677555583e-19 -8.958711966077755e-01
 4.149268677555583e-19  2.682736136106958e-18  4.066368233958170e-01
-8.958711966077755e-01  4.066368233958170e-01  1.065603802138089e-17

 2.972150797184899e-18  4.534029586908839e-19 -8.700711432145612e-01
 4.534029586908839e-19  2.301359137802511e-18  4.097481243170124e-01
-8.700711432145612e-01  4.097481243170124e-01  9.008311768304044e-18

 4.139720542339859e-18  5.635684119341835e-19 -9.306384613492815e-01
 5.635684119341835e-19  3.816109860849491e-18  3.856826083187835e-01
-9.306384613492815e-01  3.856826083187835e-01  1.174405597979983e-17

 7.521008683194573e-18  3.043367095479244e-19 -1.087135975430987e+00
 3.043367095479244e-19  5.301939160666330e-18  4.000138804642002e-01
-1.087135975430987e+00  4.000138804642002e-01  2.021741326256154e-17

 7.805978824546483e-18  5.262130673466947e-19 -1.110190141058116e+00
 5.262130673466947e-19  5.745498776435928e-18  3.913215882014300e-01
-1.110190141058116e+00  3.913215882014300e-01  2.078241139652240e-17

 5.001334346390194e-18  2.161323769404929e-19 -9.766649096735093e-01
 2.161323769404929e-19  4.906894251609990e-18  3.979834937044169e-01
-9.766649096735093e-01  3.979834937044169e-01  1.352919006204749e-17

 4.551505546101464e-18  3.355965066203063e-19 -9.554633741144846e-01
 3.355965066203063e-19  4.322731608853051e-18  4.025852645819742e-01
-9.554633741144846e-01  4.025852645819742e-01  1.236312860399167e-17

 6.194134037177165e-18  3.369364324380498e-19 -1.028316344167498e+00
 3.369364324380498e-19  4.517478885060870e-18  4.130718634265551e-01
-1.028316344167498e+00  4.130718634265551e-01  1.656992587544751e-17

 6.380409009550924e-18  3.791438349636628e-19 -1.035957106172539e+00
 3.791438349636628e-19  4.773459601869502e-18  4.086862499957365e-01
-1.035957106172539e+00  4.086862499957365e-01  1.695952423937034e-17

 5.128832356646640e-18  3.111904287454211e-19 -9.781553941344179e-01
 3.111904287454211e-19  4.724135717619469e-18  4.027567953888371e-01
-9.781553941344179e-01  4.027567953888371e-01  1.371803070065046e-17

 5.497885710120743e-18  3.786774385433113e-19 -9.968758494381427e-01
 3.786774385433113e-19  5.149893085314610e-18  3.947427742668349e-01
-9.968758494381427e-01  3.947427742668349e-01  1.449809451817845e-17

 7.529442627996364e-18  3.562331513146384e-19 -1.091748672489974e+00
 3.562331513146384e-19  5.481094560005049e-18  4.082491401257445e-01
-1.091748672489974e+00  4.082491401257445e-01  1.959450194863244e-17

 7.119419559140307e-18  4.977662766857510e-19 -1.076297870078756e+00
 4.977662766857510e-19  4.854261912551433e-18  4.133377674562802e-01
-1.076297870078756e+00  4.133377674562802e-01  1.847961086459531e-17

 4.034474545450359e-18  1.452644463932602e-19 -9.286652371339320e-01
 1.452644463932602e-19  3.655446127229398e-18  4.252361509848281e-01
-9.286652371339320e-01  4.252361509848281e-01  1.048105510943487e-17

 3.860940427622280e-18  3.908069407883851e-19 -9.268066816708062e-01
 3.908069407883851e-19  3.450957421706653e-18  4.213878322185802e-01
-9.268066816708062e-01  4.213878322185802e-01  9.937505414804669e-18

 6.459950303705645e-18  2.279921651170769e-19 -1.048113324188580e+00
 2.279921651170769e-19  4.631028005688393e-18  4.307081765047562e-01
-1.048113324188580e+00  4.307081765047562e-01  1.646960510944321e-17

 7.812864726661326e-18  2.154019691804476e-19 -1.116506149697086e+00
 2.154019691804476e-19  6.488935482582691e-18  4.095857827846239e-01
-1.116506149697086e+00  4.095857827846239e-01  1.977308885485440e-17

 8.334470901844671e-18  2.640976232643747e-19 -1.140641829682468e+00
 2.640976232643747e-19  6.675451074316214e-18  4.109791095032139e-01
-1.140641829682468e+00  4.109791095032139e-01  2.113403877193267e-17

 7.138271078780068e-18  3.944495120917436e-19 -1.079484510400483e+00
 3.944495120917436e-19  5.057675883580984e-18  4.250516909836985e-01
-1.079484510400483e+00  4.250516909836985e-01  1.813324680878353e-17

 3.792970364317543e-18  4.636402152152065e-20 -9.152667946579682e-01
 4.636402152152065e-20  3.365112453524087e-18  4.396964848238026e-01
-9.152667946579682e-01  4.396964848238026e-01  9.531354268117042e-18

 3.569662143558071e-18  3.469576589980426e-19 -9.106637359409090e-01
 3.469576589980426e-19  3.023156505796454e-18  4.340727745996993e-01
-9.106637359409090e-01  4.340727745996993e-01  8.904624880680377e-18

 6.272055369570733e-18  1.523727563594062e-19 -1.034291048139362e+00
 1.523727563594062e-19  4.119336635825346e-18  4.466655211221416e-01
-1.034291048139362e+00  4.466655211221416e-01  1.573780260072186e-17

 7.459508583630781e-18  1.863740696731874e-19 -1.095561276601973e+00
 1.863740696731874e-19  5.778155351208391e-18  4.281343907735014e-01
-1.095561276601973e+00  4.281343907735014e-01  1.856395994039932e-17

 7.512616278300833e-18  2.320210597064518e-19 -1.103239175301037e+00
 2.320210597064518e-19  6.213852777237658e-18  4.242219002870530e-01
-1.103239175301037e+00  4.242219002870530e-01  1.856565229735063e-17

 7.172389849818492e-18  2.470575672077438e-19 -1.090699857343303e+00
 2.470575672077438e-19  5.677186398125278e-18  4.361359867420272e-01
-1.090699857343303e+00  4.361359867420272e-01  1.744604307938236e-17

 6.115431671937995e-18  1.947731554582103e-19 -1.049569185022208e+00
 1.947731554582103e-19  5.464996441351364e-18  4.362501830075752e-01
-1.049569185022208e+00  4.362501830075752e-01  1.461796376775429e-17

 6.665406546014928e-18  1.913875271455995e-19 -1.082437073975485e+00
 1.913875271455995e-19  6.121218517773265e-18  4.317907365772697e-01
-1.082437073975485e+00  4.317907365772697e-01  1.588426407637742e-17

 8.883004645815921e-18 -2.335805583571917e-20 -1.181822718412427e+00
-2.335805583571917e-20  6.697229627947854e-18  4.527674086717451e-01
-1.181822718412427e+00  4.527674086717451e-01  2.168263013681757e-17

 8.271607378270264e-18  1.466729668529234e-19 -1.145369719185883e+00
 1.466729668529234e-19  6.084116216235569e-18  4.473658797479351e-01
-1.145369719185883e+00  4.473658797479351e-01  2.031374916803837e-17

 4.855363048078207e-18 -1.085169361617773e-19 -9.688454460199639e-01
-1.085169361617773e-19  4.871591278956809e-18  4.403143682542717e-01
-9.688454460199639e-01  4.403143682542717e-01  1.181164776816080e-17

 4.618291784647468e-18  1.713320873701385e-19 -9.509390557370851e-01
 1.713320873701385e-19  4.623819506848867e-18  4.230195926933223e-01
-9.509390557370851e-01  4.230195926933223e-01  1.135629465338896e-17

 7.448100041283098e-18  5.840210960604545e-21 -1.066967248740292e+00
 5.840210960604545e-21  5.143493883712956e-18  4.338336866833488e-01
-1.066967248740292e+00  4.338336866833488e-01  1.875086261750335e-17

 7.301158982669003e-18  2.507723218672109e-19 -1.059726039693483e+00
 2.507723218672109e-19  4.919515362770415e-18  4.227321299949047e-01
-1.059726039693483e+00  4.227321299949047e-01  1.835157044434898e-17

 4.146322146449889e-18  1.718634771306237e-20 -9.099543146716231e-01
 1.718634771306237e-20  4.250497136356377e-18  4.170803415519571e-01
-9.099543146716231e-01  4.170803415519571e-01  1.026912130368429e-17

 4.346465358760764e-18  3.435683847289808e-19 -9.236570225801143e-01
 3.435683847289808e-19  4.484663459879327e-18  3.997381480973283e-01
-9.236570225801143e-01  3.997381480973283e-01  1.065451298296179e-17

 7.900445496386171e-18  3.107874182528467e-21 -1.076733908971409e+00
 3.107874182528467e-21  5.460398498255842e-18  4.214506487789004e-01
-1.076733908971409e+00  4.214506487789004e-01  1.978892612982057e-17

 8.166079516824206e-18  3.423150726687717e-19 -1.095412803172762e+00
 3.423150726687717e-19  5.733322432840730e-18  4.049785085224500e-01
-1.095412803172762e+00  4.049785085224500e-01  2.030687524158060e-17

 5.030260352118887e-18  9.712420259637423e-20 -9.492610489146334e-01
 9.712420259637423e-20  4.680255277783147e-18  4.098669549111125e-01
-9.492610489146334e-01  4.098669549111125e-01  1.214166152540933e-17

 4.661994964776423e-18  2.692626059912795e-19 -9.383089481541407e-01
 2.692626059912795e-19  3.983220614717337e-18  4.155293156575016e-01
-9.383089481541407e-01  4.155293156575016e-01  1.101347158616430e-17

 6.685307869114808e-18  1.424040212931617e-19 -1.034987819178130e+00
 1.424040212931617e-19  4.168509225366974e-18  4.370468865439207e-01
-1.034987819178130e+00  4.370468865439207e-01  1.603103484648618e-17

 6.898622877618163e-18  1.275135954793139e-19 -1.052438074716708e+00
 1.275135954793139e-19  4.323365419227283e-18  4.431698524126434e-01
-1.052438074716708e+00  4.431698524126434e-01  1.637058187930764e-17

 5.199532063583739e-18  6.523467175833088e-20 -9.794922956603833e-01
 6.523467175833088e-20  4.161563043729656e-18  4.418137583120614e-01
-9.794922956603833e-01  4.418137583120614e-01  1.197388549291392e-17

 5.537533958319386e-18  1.675335285895412e-19 -9.986799661183401e-01
 1.675335285895412e-19  4.667635597014198e-18  4.380827464228756e-01
-9.986799661183401e-01  4.380827464228756e-01  1.249922943296899e-17

 7.772431709475181e-18 -7.150068875042504e-20 -1.108224130692404e+00
-7.150068875042504e-20  5.684151210464663e-18  4.496780540369590e-01
-1.108224130692404e+00  4.496780540369590e-01  1.843630186320046e-17

 1.018733873396332e-17 -3.440543847243529e-19 -1.016119471011781e+00
-3.440543847243529e-19  7.818541051515235e-18  4.045762533011882e-01
-1.016119471011781e+00  4.045762533011882e-01  1.415722760908475e-17

 1.168709898357728e-17 -3.478269675002510e-19 -1.081801527209329e+00
-3.478269675002510e-19  8.459196670677029e-18  4.057085952930646e-01
-1.081801527209329e+00  4.057085952930646e-01  1.781441474462486e-17

 1.033146427792575e-17 -2.517175727727733e-19 -1.025599923581973e+00
-2.517175727727733e-19  7.863712995302537e-18  4.018557702343128e-01
-1.025599923581973e+00  4.018557702343128e-01  1.442069122625029e-17

 1.215663296932379e-17 -2.941252690634571e-19 -1.106652324672544e+00
-2.941252690634571e-19  8.410653834026296e-18  4.134969794821213e-01
-1.106652324672544e+00  4.134969794821213e-01  1.866788514605085e-17

 1.202450022346527e-17 -4.198652337327390e-19 -1.098663867696165e+00
-4.198652337327390e-19  8.929540835689167e-18  3.966478546078675e-01
-1.098663867696165e+00  3.966478546078675e-01  1.887480932211555e-17

 1.154775829143601e-17 -4.682081071986964e-19 -1.074182466099720e+00
-4.682081071986964e-19  8.540642519998896e-18  3.970210899575186e-01
-1.074182466099720e+00  3.970210899575186e-01  1.778307078919795e-17

 1.070361889056770e-17 -5.431475959318418e-19 -1.029202720430042e+00
-5.431475959318418e-19  7.314092305110197e-18  4.123205983291794e-01
-1.029202720430042e+00  4.123205983291794e-01  1.577478986999282e-17

 9.189050693218139e-18 -4.378823062549183e-19 -9.571390147172698e-01
-4.378823062549183e-19  6.276175122711401e-18  4.103205949904243e-01
-9.571390147172698e-01  4.103205949904243e-01  1.201344872943052e-17

 8.956107363984888e-18 -5.112014690754933e-19 -9.398232468685460e-01
-5.112014690754933e-19  5.920151055551789e-18  4.124338007292884e-01
-9.398232468685460e-01  4.124338007292884e-01  1.161290035173278e-17

 9.987573426310114e-18 -6.357815148048649e-19 -9.807733640316071e-01
-6.357815148048649e-19  5.793108961987740e-18  4.229596363452994e-01
-9.807733640316071e-01  4.229596363452994e-01  1.438901884760539e-17

 9.724896786306662e-18 -7.206568835687675e-19 -9.679339576895922e-01
-7.206568835687675e-19  5.374760726930038e-18  4.317516396601983e-01
-9.679339576895922e-01  4.317516396601983e-01  1.376925110631233e-17

 8.064204356066352e-18 -5.425087053864101e-19 -9.000872846831944e-01
-5.425087053864101e-19  4.831178559756338e-18  4.238021884049172e-01
-9.000872846831944e-01  4.238021884049172e-01  9.393220623774983e-18

 8.238475581500826e-18 -6.495263799877954e-19 -9.085333708170820e-01
-6.495263799877954e-19  5.060520267590595e-18  4.241988990130067e-01
-9.085333708170820e-01  4.241988990130067e-01  9.796312210893310e-18

 1.034268868555054e-17 -6.336947503914313e-19 -1.006916709920347e+00
-6.336947503914313e-19  5.642375702102165e-18  4.278495775889818e-01
-1.006916709920347e+00  4.278495775889818e-01  1.505342458310181e-17

 1.060473840673257e-17 -7.023676376239955e-19 -1.021599403091843e+00
-7.023676376239955e-19  5.997140517121137e-18  4.269778563213839e-01
-1.021599403091843e+00  4.269778563213839e-01  1.562688300768406e-17

 9.071930965081730e-18 -5.206767106485233e-19 -9.584184987196915e-01
-5.206767106485233e-19  5.801320826628181e-18  4.124640593992039e-01
-9.584184987196915e-01  4.124640593992039e-01  1.157462506929286e-17

 9.199516530320571e-18 -5.539590950088663e-19 -9.619011785157819e-01
-5.539590950088663e-19  6.001071525156801e-18  4.091959291506561e-01
-9.619011785157819e-01  4.091959291506561e-01  1.190702885599424e-17

 1.105713482744618e-17 -5.705076654994889e-19 -1.041952468345407e+00
-5.705076654994889e-19  6.228001894639884e-18  4.178830469052700e-01
-1.041952468345407e+00  4.178830469052700e-01  1.669768539336881e-17

 1.065871146026181e-17 -7.374955807371447e-19 -1.018692675709912e+00
-7.374955807371447e-19  5.759187562983900e-18  4.317041407354999e-01
-1.018692675709912e+00  4.317041407354999e-01  1.581179338580136e-17

 7.953580625870554e-18 -4.204549346108338e-19 -9.059311499880646e-01
-4.204549346108338e-19  4.784128122030635e-18  4.206766690949250e-01
-9.059311499880646e-01  4.206766690949250e-01  8.722976192648996e-18

 8.012438710021306e-18 -6.405143382867764e-19 -9.076124507077499e-01
-6.405143382867764e-19  4.813658931119031e-18  4.281975740265669e-01
-9.076124507077499e-01  4.281975740265669e-01  8.852841603743409e-18

 1.084099894815405e-17 -5.256309043968702e-19 -1.039881306280377e+00
-5.256309043968702e-19  5.382080845138136e-18  4.309273705323345e-01
-1.039881306280377e+00  4.309273705323345e-01  1.594374609507349e-17

 1.093059164748517e-17 -6.245132442571290e-19 -1.038865732500152e+00
-6.245132442571290e-19  5.520426445080889e-18  4.286427724010241e-01
-1.038865732500152e+00  4.286427724010241e-01  1.615947536359426e-17

 8.293950184607293e-18 -3.223659918896398e-19 -9.211409361878374e-01
-3.223659918896398e-19  4.917964240695764e-18  4.060582440733843e-01
-9.211409361878374e-01  4.060582440733843e-01  9.384013228746206e-18

 8.313053272493100e-18 -4.819231887898845e-19 -9.141348257446250e-01
-4.819231887898845e-19  5.059339616013690e-18  4.063222918651899e-01
-9.141348257446250e-01  4.063222918651899e-01  9.533349465031640e-18

 1.100845460497043e-17 -3.081038673536072e-19 -1.034336623616203e+00
-3.081038673536072e-19  5.568205108359325e-18  4.055747660745175e-01
-1.034336623616203e+00  4.055747660745175e-01  1.649819059338735e-17

 1.080443569596800e-17 -4.886319150815885e-19 -1.015109512775976e+00
-4.886319150815885e-19  5.433822546889623e-18  4.098292315654257e-01
-1.015109512775976e+00  4.098292315654257e-01  1.612656422510522e-17

 7.706725671515676e-18 -1.992060422259344e-19 -8.786530719813035e-01
-1.992060422259344e-19  4.713522990640174e-18  3.888697061934072e-01
-8.786530719813035e-01  3.888697061934072e-01  8.242668330870726e-18

 7.788215716615611e-18 -4.757984793322340e-19 -8.744009258248826e-01
-4.757984793322340e-19  4.918346186716830e-18  3.938226310233697e-01
-8.744009258248826e-01  3.938226310233697e-01  8.540003161601210e-18

 1.111396432668539e-17 -1.922304535197372e-19 -1.027298148016943e+00
-1.922304535197372e-19  5.750040727570598e-18  3.862320842269713e-01
-1.027298148016943e+00  3.862320842269713e-01  1.715272828687604e-17

 1.123565600879401e-17 -4.657434565516122e-19 -1.022492091538673e+00
-4.657434565516122e-19  5.909935785993069e-18  3.889987498370731e-01
-1.022492091538673e+00  3.889987498370731e-01  1.759613218795272e-17

 8.255329556467412e-18 -1.947614115630638e-19 -8.892597008896129e-01
-1.947614115630638e-19  4.516608570340779e-18  3.835024414540278e-01
-8.892597008896129e-01  3.835024414540278e-01  1.004733908627171e-17

 6.921185311075501e-18 -2.693653376913482e-19 -8.249321231944867e-01
-2.693653376913482e-19  2.650171632979966e-18  4.182623689925299e-01
-8.249321231944867e-01  4.182623689925299e-01  6.740035690641092e-18

 6.672205743337708e-18 -3.626394202929591e-19 -8.164959137330473e-01
-3.626394202929591e-19  2.407804720983367e-18  4.270712466351748e-01
-8.164959137330473e-01  4.270712466351748e-01  6.023544293887256e-18

 7.805215846976041e-18 -4.670249774516978e-19 -8.752053409815931e-01
-4.670249774516978e-19  3.766130986852232e-18  4.144629364516604e-01
-8.752053409815931e-01  4.144629364516604e-01  8.609420541343641e-18

 1.069917062824239e-17 -1.140474083691098e-19 -1.022975369394057e+00
-1.140474083691098e-19  5.245295107944526e-18  3.988889266271230e-01
-1.022975369394057e+00  3.988889266271230e-01  1.580736229088982e-17

 1.105076259005961e-17 -1.823786493007598e-19 -1.041021483568626e+00
-1.823786493007598e-19  5.647990934432358e-18  4.019538301274881e-01
-1.041021483568626e+00  4.019538301274881e-01  1.638711131655006e-17

 8.780760901547280e-18 -1.426591606688306e-19 -9.380719986943574e-01
-1.426591606688306e-19  5.459450541081135e-18  3.893006989280642e-01
-9.380719986943574e-01  3.893006989280642e-01  1.052661511568445e-17

 8.832332439466978e-18 -2.375898703505134e-19 -9.354570107668148e-01
-2.375898703505134e-19  5.591158366194564e-18  3.955514599206644e-01
-9.354570107668148e-01  3.955514599206644e-01  1.058187487774898e-17

 1.119473400441675e-17  1.091281271216437e-19 -1.046696260732943e+00
 1.091281271216437e-19  6.466195086294799e-18  3.887225931787156e-01
-1.046696260732943e+00  3.887225931787156e-01  1.680373063514803e-17

 1.116743243985699e-17 -1.255230893630757e-20 -1.040577961806536e+00
-1.255230893630757e-20  6.603051252450255e-18  3.960681496397072e-01
-1.040577961806536e+00  3.960681496397072e-01  1.673304366001828e-17

 8.779952391677288e-18 -1.550000727691516e-19 -9.328200423823469e-01
-1.550000727691516e-19  6.622554861224214e-18  3.876321742087183e-01
-9.328200423823469e-01  3.876321742087183e-01  1.067970258695726e-17

 9.465158330390264e-18 -4.454176403330797e-19 -9.643231914326453e-01
-4.454176403330797e-19  7.599359273928257e-18  3.933837829805333e-01
-9.643231914326453e-01  3.933837829805333e-01  1.224050485339930e-17

 1.353896952714077e-17  8.029202511969980e-20 -1.170729022247923e+00
 8.029202511969980e-20  9.512582934916158e-18  3.795138897032047e-01
-1.170729022247923e+00  3.795138897032047e-01  2.291045322483543e-17

 1.392048558337505e-17 -4.377584358639077e-19 -1.184209482165640e+00
-4.377584358639077e-19  9.753229308953307e-18  4.011103260275364e-01
-1.184209482165640e+00  4.011103260275364e-01  2.366739967167706e-17

 1.055931467489992e-17 -2.236139512907931e-19 -1.036905729523898e+00
-2.236139512907931e-19  8.193091850295241e-18  3.924188012386824e-01
-1.036905729523898e+00  3.924188012386824e-01  1.504657027115672e-17

 9.087467471393210e-18 -2.861907064494473e-19 -9.676545641464610e-01
-2.861907064494473e-19  5.965396577512999e-18  4.282963117245218e-01
-9.676545641464610e-01  4.282963117245218e-01  1.131000256731948e-17

 8.839940058157990e-18 -3.384921446787241e-19 -9.570276964687839e-01
-3.384921446787241e-19  5.360177281815872e-18  4.378554636657647e-01
-9.570276964687839e-01  4.378554636657647e-01  1.064728040736393e-17

 9.593171821583941e-18 -3.644505284743759e-19 -9.939284277765124e-01
-3.644505284743759e-19  6.202583372655514e-18  4.256403132432503e-01
-9.939284277765124e-01  4.256403132432503e-01  1.249424548055893e-17

 1.163444951068630e-17 -2.099347563029187e-19 -1.092074606142881e+00
-2.099347563029187e-19  6.844526242654961e-18  4.249229747259834e-01
-1.092074606142881e+00  4.249229747259834e-01  1.763894143375555e-17

 1.139474260710495e-17 -3.081415878501910e-19 -1.079199380809327e+00
-3.081415878501910e-19  6.456481605912984e-18  4.350005554103802e-01
-1.079199380809327e+00  4.350005554103802e-01  1.696418570110591e-17

 8.750102477303227e-18 -1.353900913063482e-19 -9.611308315503295e-01
-1.353900913063482e-19  5.716235719018675e-18  4.179765272241148e-01
-9.611308315503295e-01  4.179765272241148e-01  1.019370334014934e-17

 8.768488146166706e-18 -2.935678902937940e-19 -9.546477685423120e-01
-2.935678902937940e-19  5.713060446614011e-18  4.223990596995074e-01
-9.546477685423120e-01  4.223990596995074e-01  1.021943591460214e-17

 1.141748742500718e-17  3.306333897653355e-20 -1.077516879628569e+00
 3.306333897653355e-20  6.538284037485161e-18  4.157386283640459e-01
-1.077516879628569e+00  4.157386283640459e-01  1.713495034126158e-17

 1.154250410896176e-17 -9.701261561526259e-20 -1.077495169968252e+00
-9.701261561526259e-20  6.792475744407977e-18  4.167895466157198e-01
-1.077495169968252e+00  4.167895466157198e-01  1.747853930564483e-17

 9.215877023204760e-18 -7.992069816376209e-20 -9.709065878774822e-01
-7.992069816376209e-20  6.429409501826192e-18  4.023397516690828e-01
-9.709065878774822e-01  4.023397516690828e-01  1.161963537698192e-17

 9.228732271764473e-18 -2.086452657203404e-19 -9.659809903136444e-01
-2.086452657203404e-19  6.519511044469987e-18  4.057324661952710e-01
-9.659809903136444e-01  4.057324661952710e-01  1.169435164456206e-17

 1.156866124035275e-17  4.357702374435751e-20 -1.074890014866118e+00
 4.357702374435751e-20  7.141689738955254e-18  4.049770640220209e-01
-1.074890014866118e+00  4.049770640220209e-01  1.785021677025818e-17

 1.137465979855892e-17 -1.521760890008422e-19 -1.063211546773537e+00
-1.521760890008422e-19  6.917416561359821e-18  4.187205713542237e-01
-1.063211546773537e+00  4.187205713542237e-01  1.734412661129416e-17

 8.591106149363433e-18 -1.344503431275586e-19 -9.430675392651848e-01
-1.344503431275586e-19  6.508241799887691e-18  4.050971450428650e-01
-9.430675392651848e-01  4.050971450428650e-01  1.021019196524058e-17

 9.063610155948322e-18 -4.173591568113622e-19 -9.625142865149462e-01
-4.173591568113622e-19  7.054920998318723e-18  4.119913134134850e-01
-9.625142865149462e-01  4.119913134134850e-01  1.123159249832150e-17

 1.292463749413681e-17  9.333949120097972e-20 -1.151865161841645e+00
 9.333949120097972e-20  8.547501501504316e-18  4.007787871858831e-01
-1.151865161841645e+00  4.007787871858831e-01  2.132811100364853e-17

 1.299015422237702e-17 -3.415365683260832e-19 -1.147169203845779e+00
-3.415365683260832e-19  8.564762270821022e-18  4.213273103154317e-01
-1.147169203845779e+00  4.213273103154317e-01  2.140791153906696e-17

 9.272675617445902e-18 -1.027913433266297e-19 -9.863089283842531e-01
-1.027913433266297e-19  7.429505306904247e-18  4.043809657033740e-01
-9.863089283842531e-01  4.043809657033740e-01  1.187894856659828e-17

 8.771913415716649e-18 -3.620327125199591e-19 -9.617060018601056e-01
-3.620327125199591e-19  6.715179093052442e-18  4.288073989764406e-01
-9.617060018601056e-01  4.288073989764406e-01  1.057224922048601e-17

 1.123755167005503e-17 -2.044233352025010e-19 -1.082938380711236e+00
-2.044233352025010e-19  7.473358342465845e-18  4.325060601387268e-01
-1.082938380711236e+00  4.325060601387268e-01  1.682629346454833e-17

 1.214649676395304e-17 -2.733894263460770e-19 -1.129426842742419e+00
-2.733894263460770e-19  8.640823679272002e-18  4.224985682096628e-01
-1.129426842742419e+00  4.224985682096628e-01  1.907429510743292e-17

 1.180584392261044e-17 -3.216600330546915e-19 -1.115972491966421e+00
-3.216600330546915e-19  8.509146275883766e-18  4.257962011308869e-01
-1.115972491966421e+00  4.257962011308869e-01  1.816762497065094e-17

 1.091543394077020e-17 -3.438034503639253e-19 -1.075493710623948e+00
-3.438034503639253e-19  7.217880823638824e-18  4.469643892369924e-01
-1.075493710623948e+00  4.469643892369924e-01  1.586877605328091e-17

 9.093146900460708e-18 -2.500374903666537e-19 -9.953298959863431e-01
-2.500374903666537e-19  6.543914590410781e-18  4.393006306212627e-01
-9.953298959863431e-01  4.393006306212627e-01  1.119087900749204e-17

 9.605214706041286e-18 -3.902200712578522e-19 -1.016179546165464e+00
-3.902200712578522e-19  7.191197733223164e-18  4.344213107598487e-01
-1.016179546165464e+00  4.344213107598487e-01  1.248302019502180e-17

 1.269285622058632e-17 -1.371212910268773e-19 -1.162344725922211e+00
-1.371212910268773e-19  8.214621742944139e-18  4.328238998779344e-01
-1.162344725922211e+00  4.328238998779344e-01  2.044843998858299e-17

 1.261981996397768e-17 -4.215443733714400e-19 -1.151622170294058e+00
-4.215443733714400e-19  8.157236453685115e-18  4.432065366619311e-01
-1.151622170294058e+00  4.432065366619311e-01  2.035646085892326e-17

 9.469295660056429e-18 -1.401075238858582e-19 -1.011000616958176e+00
-1.401075238858582e-19  6.956176168917727e-18  4.249741483437776e-01
-1.011000616958176e+00  4.249741483437776e-01  1.231668672275337e-17

 8.842262109631935e-18 -3.008918931110561e-19 -9.763196278762151e-01
-3.008918931110561e-19  6.102322888823074e-18  4.423252549378492e-01
-9.763196278762151e-01  4.423252549378492e-01  1.084891603836363e-17

 1.051985724095294e-17 -2.879364229045747e-19 -1.054017621169946e+00
-2.879364229045747e-19  6.209582036264175e-18  4.551086815845062e-01
-1.054017621169946e+00  4.551086815845062e-01  1.515108204042788e-17

 1.076091862835348e-17 -3.461413104302582e-19 -1.071115316395944e+00
-3.461413104302582e-19  6.445691171626090e-18  4.585104326688717e-01
-1.071115316395944e+00  4.585104326688717e-01  1.568755314726992e-17

 9.607972938831634e-18 -3.088594094486530e-19 -1.028058644492599e+00
-3.088594094486530e-19  6.476134071171931e-18  4.482227449692729e-01
-1.028058644492599e+00  4.482227449692729e-01  1.257268465236051e-17

 1.015425260384162e-17 -3.266992941758928e-19 -1.056830905298927e+00
-3.266992941758928e-19  7.080708269396217e-18  4.406907002045564e-01
-1.056830905298927e+00  4.406907002045564e-01  1.383089513333662e-17

 1.251274478826146e-17 -9.599974043189225e-20 -1.165359189421182e+00
-9.599974043189225e-20  7.597971563629368e-18  4.400619526767216e-01
-1.165359189421182e+00  4.400619526767216e-01  1.989289486800995e-17

 1.183875196146311e-17 -2.328514274912094e-19 -1.117695380578401e+00
-2.328514274912094e-19  6.789991252000248e-18  4.488180041534506e-01
-1.117695380578401e+00  4.488180041534506e-01  1.838208831630786e-17

 8.125750670808299e-18  8.782274239332631e-20 -9.450169332863889e-01
 8.782274239332631e-20  5.308405505736838e-18  4.299435367158797e-01
-9.450169332863889e-01  4.299435367158797e-01  9.071266009859470e-18

 7.457931042915312e-18 -2.064237787163854e-19 -9.070493571212392e-01
-2.064237787163854e-19  4.521589785140953e-18  4.555338121940910e-01
-9.070493571212392e-01  4.555338121940910e-01  7.468848089337103e-18

 9.573231654695633e-18 -1.223500447351223e-19 -1.013288188122933e+00
-1.223500447351223e-19  5.723824233804826e-18  4.532764409580213e-01
-1.013288188122933e+00  4.532764409580213e-01  1.279346006246920e-17

 1.140810455524263e-17 -1.729185214824475e-19 -1.110762041977606e+00
-1.729185214824475e-19  8.349729650130193e-18  4.280086406183036e-01
-1.110762041977606e+00  4.280086406183036e-01  1.729900254736186e-17

 1.360922449206462e-17 -2.496665010414539e-20 -1.224038423105263e+00
-2.496665010414539e-20  9.784655902106636e-18  4.251108475722947e-01
-1.224038423105263e+00  4.251108475722947e-01  2.282457550007476e-17

 1.313789873899608e-17 -2.218527599170482e-19 -1.196193649472145e+00
-2.218527599170482e-19  9.294613723654323e-18  4.413402607549875e-01
-1.196193649472145e+00  4.413402607549875e-01  2.161168624133572e-17

 9.763484986398332e-18 -3.994765345413539e-20 -1.042197796888645e+00
-3.994765345413539e-20  8.043710591969024e-18  4.272197368295565e-01
-1.042197796888645e+00  4.272197368295565e-01  1.305207283116855e-17

 9.603137409075882e-18 -2.761843325296555e-19 -1.030516872573361e+00
-2.761843325296555e-19  7.915175066323934e-18  4.386627589741131e-01
-1.030516872573361e+00  4.386627589741131e-01  1.273725381696307e-17

 1.235549718885386e-17 -4.887993689375264e-20 -1.164636402772603e+00
-4.887993689375264e-20  8.572031175324250e-18  4.460692829060609e-01
-1.164636402772603e+00  4.460692829060609e-01  1.985200907400347e-17

 1.257260126616951e-17 -2.299540189978779e-19 -1.171634450828921e+00
-2.299540189978779e-19  8.959266663370066e-18  4.476558481896811e-01
-1.171634450828921e+00  4.476558481896811e-01  2.046038579999313e-17

 1.024913066893602e-17 -1.389399951593888e-19 -1.067362593359883e+00
-1.389399951593888e-19  8.581939330917771e-18  4.303886593431687e-01
-1.067362593359883e+00  4.303886593431687e-01  1.459112942642140e-17

 1.025365629987929e-17 -2.821748313195377e-19 -1.067760444144455e+00
-2.821748313195377e-19  8.709438939776102e-18  4.370356011709062e-01
-1.067760444144455e+00  4.370356011709062e-01  1.468898562851381e-17

 1.265103169627480e-17 -2.306638710459522e-19 -1.184444409428719e+00
-2.306638710459522e-19  9.351832983379826e-18  4.489388973120388e-01
-1.184444409428719e+00  4.489388973120388e-01  2.085050099745728e-17

 1.270422887098746e-17 -4.474399544443432e-19 -1.187463517005651e+00
-4.474399544443432e-19  9.455002711787159e-18  4.579790340431668e-01
-1.187463517005651e+00  4.579790340431668e-01  2.107079783756640e-17

 1.047869027747910e-17 -2.713611929538933e-19 -1.092907355846477e+00
-2.713611929538933e-19  8.632467445463995e-18  4.472410502444620e-01
-1.092907355846477e+00  4.472410502444620e-01  1.533147637275485e-17

 1.022296722798772e-17 -3.723361972618303e-19 -1.083318820010281e+00
-3.723361972618303e-19  8.138866971449527e-18  4.585209681079641e-01
-1.083318820010281e+00  4.585209681079641e-01  1.473261667265799e-17

 1.178582697548668e-17 -4.748715660336821e-19 -1.155088324315792e+00
-4.748715660336821e-19  7.978151792570855e-18  4.767342399271314e-01
-1.155088324315792e+00  4.767342399271314e-01  1.874791760203002e-17

 1.125707246667830e-17 -5.651681506536586e-19 -1.125236672101795e+00
-5.651681506536586e-19  7.191247266545092e-18  4.858138561620217e-01
-1.125236672101795e+00  4.858138561620217e-01  1.752673121351485e-17

 8.465709294716807e-18 -2.206120614779787e-19 -1.000753312208695e+00
-2.206120614779787e-19  5.981259111927773e-18  4.687003176421481e-01
-1.000753312208695e+00  4.687003176421481e-01  1.030918061829053e-17

 8.372343390620836e-18 -4.305711094157658e-19 -9.937710081817097e-01
-4.305711094157658e-19  6.041497760547393e-18  4.748242353182435e-01
-9.937710081817097e-01  4.748242353182435e-01  1.018057745011645e-17

 1.097983605301516e-17 -3.043590815582871e-19 -1.121124315023266e+00
-3.043590815582871e-19  7.366078723926117e-18  4.689708027163897e-01
-1.121124315023266e+00  4.689708027163897e-01  1.678759738652291e-17

 1.240521021030261e-17 -2.626621540904156e-19 -1.191528218061829e+00
-2.626621540904156e-19  9.462877858911280e-18  4.380149411013209e-01
-1.191528218061829e+00  4.380149411013209e-01  2.048726693055779e-17

 1.321785404476634e-17 -3.955924114612703e-19 -1.224748496047629e+00
-3.955924114612703e-19  9.755864573716625e-18  4.438586573100157e-01
-1.224748496047629e+00  4.438586573100157e-01  2.272009551845089e-17

 1.177240771238486e-17 -6.547271032910043e-19 -1.147563885584670e+00
-6.547271032910043e-19  8.015456155607661e-18  4.717495380391428e-01
-1.147563885584670e+00  4.717495380391428e-01  1.942836962356200e-17

 7.722392529312871e-18 -4.999565233228572e-20 -9.689569774863050e-01
-4.999565233228572e-20  5.644799098570230e-18  4.548500990887989e-01
-9.689569774863050e-01  4.548500990887989e-01  8.780043760926205e-18

 7.475727159899758e-18 -4.503715388219067e-19 -9.478577448070965e-01
-4.503715388219067e-19  5.545445851461311e-18  4.639020081476180e-01
-9.478577448070965e-01  4.639020081476180e-01  8.553459516767575e-18

 1.110159393149610e-17 -3.707221354697525e-19 -1.117023042734329e+00
-3.707221354697525e-19  6.382335614936521e-18  4.713635055320408e-01
-1.117023042734329e+00  4.713635055320408e-01  1.783916437831260e-17

 1.151077004592440e-17 -5.644959358853015e-19 -1.134358554816282e+00
-5.644959358853015e-19  7.023036239329149e-18  4.650084136041809e-01
-1.134358554816282e+00  4.650084136041809e-01  1.902372123675578e-17

 8.841876949483421e-18 -1.641246017421648e-19 -1.016261107847719e+00
-1.641246017421648e-19  6.276765069779555e-18  4.338916150934906e-01
-1.016261107847719e+00  4.338916150934906e-01  1.214517038487727e-17

 8.460452742019476e-18 -2.340463134924617e-19 -9.877693607982283e-01
-2.340463134924617e-19  5.968723408865084e-18  4.316058712549746e-01
-9.877693607982283e-01  4.316058712549746e-01  1.147843598189635e-17

 1.033369242164510e-17 -2.722174788077447e-19 -1.061876298491408e+00
-2.722174788077447e-19  6.110489094859925e-18  4.390146248579704e-01
-1.061876298491408e+00  4.390146248579704e-01  1.656285113567736e-17

 9.955981241125700e-18 -4.311229411665095e-19 -1.037408727516808e+00
-4.311229411665095e-19  5.857854140019280e-18  4.464087938323540e-01
-1.037408727516808e+00  4.464087938323540e-01  1.597131994556521e-17

 7.427158923065584e-18 -1.721873125615707e-19 -9.329026329762041e-01
-1.721873125615707e-19  5.125439995045722e-18  4.346626467707183e-01
-9.329026329762041e-01  4.346626467707183e-01  9.503298602267129e-18

 7.602876796892120e-18 -3.962050624531983e-19 -9.444039618368897e-01
-3.962050624531983e-19  5.412585538344681e-18  4.410203156992057e-01
-9.444039618368897e-01  4.410203156992057e-01  1.004896082564127e-17

 1.056422365439490e-17 -3.629501104268217e-19 -1.087581338498681e+00
-3.629501104268217e-19  6.044588698253296e-18  4.522944769390982e-01
-1.087581338498681e+00  4.522944769390982e-01  1.753123217758245e-17

 1.047859446863883e-17 -5.610150916466900e-19 -1.084380090721516e+00
-5.610150916466900e-19  6.010229941889149e-18  4.619364795762677e-01
-1.084380090721516e+00  4.619364795762677e-01  1.738002286646662e-17

 7.302016155762566e-18 -1.091614957910956e-19 -9.533327044226702e-01
-1.091614957910956e-19  5.240679691798701e-18  4.376593816060412e-01
-9.533327044226702e-01  4.376593816060412e-01  9.058088870641036e-18

 7.634214274239394e-18 -4.152308235347121e-19 -9.682187447741932e-01
-4.152308235347121e-19  5.843759752126575e-18  4.426243668031201e-01
-9.682187447741932e-01  4.426243668031201e-01  9.998594053633752e-18

 1.170403486452629e-17 -1.722742643163567e-19 -1.166306541207825e+00
-1.722742643163567e-19  7.099604564766957e-18  4.457680064902979e-01
-1.166306541207825e+00  4.457680064902979e-01  2.039058818963613e-17

 1.190306542104691e-17 -5.267574485968911e-19 -1.171091239517122e+00
-5.267574485968911e-19  7.590634770279216e-18  4.503648819270035e-01
-1.171091239517122e+00  4.503648819270035e-01  2.112288934650216e-17

 8.414365028137085e-18  4.275347163307735e-21 -1.020348400444550e+00
 4.275347163307735e-21  6.346873085338289e-18  4.216668732939410e-01
-1.020348400444550e+00  4.216668732939410e-01  1.206956162652498e-17

 7.974914398890786e-18 -1.630707304167228e-19 -9.943896672828979e-01
-1.630707304167228e-19  5.894380381901554e-18  4.282093552658323e-01
-9.943896672828979e-01  4.282093552658323e-01  1.129841443608035e-17

 1.047392894668171e-17 -2.557478410461365e-19 -1.102331244610919e+00
-2.557478410461365e-19  5.992579679829747e-18  4.406712880228631e-01
-1.102331244610919e+00  4.406712880228631e-01  1.791663788948785e-17

 1.009945916557950e-17 -4.344298837715570e-19 -1.072944506545586e+00
-4.344298837715570e-19  5.633940991412157e-18  4.395974970185174e-01
-1.072944506545586e+00  4.395974970185174e-01  1.749082798280636e-17

 6.991038335373130e-18 -1.710555592952712e-20 -9.306788855760237e-01
-1.710555592952712e-20  3.694381725761495e-18  4.319332938148905e-01
-9.306788855760237e-01  4.319332938148905e-01  9.653350595853515e-18

 5.618036466661534e-18 -1.372454212975167e-19 -8.624079712873332e-01
-1.372454212975167e-19  1.887077300973846e-18  4.620041783780598e-01
-8.624079712873332e-01  4.620041783780598e-01  6.533432945667139e-18

 5.490479302478372e-18 -2.186856477147985e-19 -8.606742116623424e-01
-2.186856477147985e-19  1.772060866495931e-18  4.651492491848542e-01
-8.606742116623424e-01  4.651492491848542e-01  6.340653632340745e-18

 6.708586197064084e-18 -2.620427319959295e-19 -9.267139320223462e-01
-2.620427319959295e-19  3.376267355621636e-18  4.418414609292364e-01
-9.267139320223462e-01  4.418414609292364e-01  9.406253389986302e-18

 9.782768043539141e-18 -1.615045726609257e-20 -1.081504706932203e+00
-1.615045726609257e-20  4.719437583578955e-18  4.296074415186449e-01
-1.081504706932203e+00  4.296074415186449e-01  1.717036153006141e-17

 9.926005421606814e-18 -1.462689000546727e-19 -1.087015453751160e+00
-1.462689000546727e-19  4.962338019838280e-18  4.280928786447273e-01
-1.087015453751160e+00  4.280928786447273e-01  1.764295672378204e-17

 7.207703786973743e-18  1.858627882709236e-19 -9.654309813781753e-01
 1.858627882709236e-19  3.774866034167499e-18  4.134227443672274e-01
-9.654309813781753e-01  4.134227443672274e-01  1.085139616448208e-17

 6.019221540540307e-18  1.880354026009752e-19 -9.069815735290476e-01
 1.880354026009752e-19  2.226132502002108e-18  4.342862548551502e-01
-9.069815735290476e-01  4.342862548551502e-01  8.122894785079020e-18

 5.919652826018685e-18  1.925647317829128e-19 -9.020139274241452e-01
 1.925647317829128e-19  2.123079773427769e-18  4.319966828843128e-01
-9.020139274241452e-01  4.319966828843128e-01  8.108682934422267e-18

 6.781148710416458e-18  2.008810904722244e-19 -9.434593627183819e-01
 2.008810904722244e-19  3.441258632674490e-18  4.084120122869991e-01
-9.434593627183819e-01  4.084120122869991e-01  1.054485425655516e-17

 9.036351273216862e-18  4.249428188508055e-19 -1.051901277913044e+00
 4.249428188508055e-19  4.324633660199921e-18  3.998781234084286e-01
-1.051901277913044e+00  3.998781234084286e-01  1.657193582381709e-17

 8.643541733152334e-18  2.587151065803947e-19 -1.033491665423173e+00
 2.587151065803947e-19  3.957311991170257e-18  4.125075522932250e-01
-1.033491665423173e+00  4.125075522932250e-01  1.582871102869322e-17

 5.561892339232269e-18  4.845667471632106e-19 -9.041954316603864e-01
 4.845667471632106e-19  3.190663065600511e-18  3.958909128098119e-01
-9.041954316603864e-01  3.958909128098119e-01  8.197625703552017e-18

 5.462309443703100e-18  2.745807026107396e-19 -8.993833903716286e-01
 2.745807026107396e-19  3.067703826101153e-18  4.056761342770701e-01
-8.993833903716286e-01  4.056761342770701e-01  8.173960889322940e-18

 8.345969902953332e-18  6.182295770488760e-19 -1.040632921554542e+00
 6.182295770488760e-19  3.730267701882398e-18  4.009210098889266e-01
-1.040632921554542e+00  4.009210098889266e-01  1.590001307153875e-17

 8.191577958888960e-18  4.469511989695152e-19 -1.035366733647900e+00
 4.469511989695152e-19  3.587333167206743e-18  4.104536830410806e-01
-1.035366733647900e+00  4.104536830410806e-01  1.575116994187355e-17

 4.961347127522944e-18  6.166400195966483e-19 -8.999169889563383e-01
 6.166400195966483e-19  3.053131246095848e-18  3.908042507566444e-01
-8.999169889563383e-01  3.908042507566444e-01  7.806039819267630e-18

 5.100682185730345e-18  3.431909778308424e-19 -9.053082629655167e-01
 3.431909778308424e-19  3.328723351505412e-18  3.982186362844842e-01
-9.053082629655167e-01  3.982186362844842e-01  8.398009227474142e-18

 8.697081589178065e-18  8.714554378340557e-19 -1.083738841838494e+00
 8.714554378340557e-19  4.683833664937846e-18  3.810931394194670e-01
-1.083738841838494e+00  3.810931394194670e-01  1.824970763019768e-17

 8.752068555829640e-18  5.081092379588757e-19 -1.087368403631789e+00
 5.081092379588757e-19  4.878744313825850e-18  3.959797690469214e-01
-1.087368403631789e+00  3.959797690469214e-01  1.871665531371239e-17

 5.400493234924345e-18  6.707789371380230e-19 -9.530881339501108e-01
 6.707789371380230e-19  4.122140527245386e-18  3.825750700548550e-01
-9.530881339501108e-01  3.825750700548550e-01  1.053644367702465e-17

 5.039015171978921e-18  4.865082442322584e-19 -9.463821568862014e-01
 4.865082442322584e-19  3.685269626113043e-18  3.989784286668878e-01
-9.463821568862014e-01  3.989784286668878e-01  9.990592458977827e-18

 7.552291649665558e-18  7.014264970122540e-19 -1.077384705669560e+00
 7.014264970122540e-19  4.084208966556412e-18  4.029146265676218e-01
-1.077384705669560e+00  4.029146265676218e-01  1.683386887871824e-17

 7.469985940960884e-18  5.663340745787777e-19 -1.082073618381306e+00
 5.663340745787777e-19  4.044221885438714e-18  4.085045943800882e-01
-1.082073618381306e+00  4.085045943800882e-01  1.710570801973206e-17

 4.838691123923595e-18  7.820600363811785e-19 -9.783246025953718e-01
 7.820600363811785e-19  3.267484047705713e-18  3.959201259177598e-01
-9.783246025953718e-01  3.959201259177598e-01  1.091177465993069e-17

 4.348181383020000e-18  7.247524302739461e-19 -9.672694957035525e-01
 7.247524302739461e-19  2.781946804599707e-18  4.049907177254051e-01
-9.672694957035525e-01  4.049907177254051e-01  1.026313625998184e-17

 5.928925549828110e-18  8.459363153833963e-19 -1.054202726141368e+00
 8.459363153833963e-19  3.151763837772568e-18  4.023906293531020e-01
-1.054202726141368e+00  4.023906293531020e-01  1.490132321828067e-17

 6.267602868716909e-18  8.976022597496490e-19 -1.081280157639276e+00
 8.976022597496490e-19  3.808825702256781e-18  3.837699121176399e-01
-1.081280157639276e+00  3.837699121176399e-01  1.656082053831095e-17

 5.701383983214442e-18  9.176352379023800e-19 -1.062157151515411e+00
 9.176352379023800e-19  3.209671594550358e-18  3.845218293911873e-01
-1.062157151515411e+00  3.845218293911873e-01  1.607430262703018e-17

 4.189930837724284e-18  9.083074508784810e-19 -1.000171901182474e+00
 9.083074508784810e-19  1.348307736536302e-18  4.083896778997859e-01
-1.000171901182474e+00  4.083896778997859e-01  1.334155922845934e-17

 1.463262866283981e-18  1.212628406085158e-18 -8.951413014877052e-01
 1.212628406085158e-18 -7.800238405953056e-19  4.193369869221145e-01
-8.951413014877052e-01  4.193369869221145e-01  7.327120771655938e-18

 7.792607945323421e-21  1.249031691171156e-18 -8.475838447275058e-01
 1.249031691171156e-18 -2.666295555536257e-18  4.472494153732838e-01
-8.475838447275058e-01  4.472494153732838e-01  4.646528250838172e-18

-6.310869830042907e-19  1.307194090095013e-18 -8.439498880551283e-01
 1.307194090095013e-18 -3.097143081833129e-18  4.492828416228412e-01
-8.439498880551283e-01  4.492828416228412e-01  3.917722240907928e-18

 4.543756182187104e-20  1.326427626511733e-18 -9.043402393842700e-01
 1.326427626511733e-18 -2.040247645368691e-18  4.316304249991368e-01
-9.043402393842700e-01  4.316304249991368e-01  6.503143531170184e-18

 2.522408090647773e-18  1.705199434988506e-18 -1.056110857135843e+00
 1.705199434988506e-18 -1.056199737936736e-18  4.193561521145147e-01
-1.056110857135843e+00  4.193561521145147e-01  1.381804417980125e-17

 2.230267450758624e-18  1.701086884746368e-18 -1.074550680728336e+00
 1.701086884746368e-18 -1.149037627305975e-18  4.256923088892965e-01
-1.074550680728336e+00  4.256923088892965e-01  1.415510516435003e-17

-8.822825874271264e-19  2.039994509271520e-18 -9.683138216762557e-01
 2.039994509271520e-18 -1.941557907516745e-18  4.074302577261987e-01
-9.683138216762557e-01  4.074302577261987e-01  7.594773509129024e-18

-1.655887945631992e-18  2.107729620987136e-18 -9.600177295169503e-01
 2.107729620987136e-18 -2.509135627871436e-18  4.100798938243990e-01
-9.600177295169503e-01  4.100798938243990e-01  7.239527721049531e-18

-1.202691168339854e-19  2.503727309034646e-18 -1.063493454623990e+00
 2.503727309034646e-18 -2.583489759083100e-18  4.058713395646794e-01
-1.063493454623990e+00  4.058713395646794e-01  1.309992944871604e-17

-1.256687691321199e-18  2.539032841423750e-18 -1.044473497235700e+00
 2.539032841423750e-18 -3.373499111445339e-18  4.140866991699020e-01
-1.044473497235700e+00  4.140866991699020e-01  1.233508015178847e-17

-4.967405224381089e-18  2.805789217935905e-18 -9.246527977223457e-01
 2.805789217935905e-18 -4.476501141808478e-18  4.042491447608996e-01
-9.246527977223457e-01  4.042491447608996e-01  5.181768483740126e-18

-5.929761708687221e-18  2.732729234264779e-18 -9.309338429501137e-01
 2.732729234264779e-18 -5.116152292508521e-18  4.165881468503227e-01
-9.309338429501137e-01  4.165881468503227e-01  5.064765928451514e-18

-4.136062724620601e-18  3.172609967348591e-18 -1.080458294697478e+00
 3.172609967348591e-18 -4.964878062234653e-18  4.111826801632246e-01
-1.080458294697478e+00  4.111826801632246e-01  1.234433174734489e-17

-5.139605716399076e-18  3.207000955080060e-18 -1.099928014384161e+00
 3.207000955080060e-18 -5.483224597529103e-18  4.185522628574158e-01
-1.099928014384161e+00  4.185522628574158e-01  1.264983565514074e-17

-8.872762270781744e-18  3.509210052345313e-18 -1.005459932749762e+00
 3.509210052345313e-18 -6.555480574123631e-18  4.080084831039593e-01
-1.005459932749762e+00  4.080084831039593e-01  6.484720460820713e-18

-1.055957642848686e-17  3.634664422290389e-18 -1.011578903496694e+00
 3.634664422290389e-18 -7.640345111537628e-18  4.183838478705708e-01
-1.011578903496694e+00  4.183838478705708e-01  5.947191813571730e-18

-1.010335439936331e-17  4.024857594167887e-18 -1.132000101688769e+00
 4.024857594167887e-18 -8.155124837613604e-18  4.190342903961722e-01
-1.132000101688769e+00  4.190342903961722e-01  1.141903973109349e-17

-1.204049633448742e-17  4.236076339438766e-18 -1.148481911912995e+00
 4.236076339438766e-18 -9.139594959154619e-18  4.215219134105637e-01
-1.148481911912995e+00  4.215219134105637e-01  1.144871529949989e-17

-1.623803821860485e-17  4.743358076342533e-18 -1.075827701576750e+00
 4.743358076342533e-18 -1.097419449910938e-17  4.157505224713903e-01
-1.075827701576750e+00  4.157505224713903e-01  6.471521295948635e-18

-1.971544324489106e-17  5.218367440309889e-18 -1.053937640383040e+00
 5.218367440309889e-18 -1.327137617591484e-17  4.277099035986917e-01
-1.053937640383040e+00  4.277099035986917e-01  4.237470833124322e-18

-2.263378597418107e-17  5.717200552342379e-18 -1.076686130575295e+00
 5.717200552342379e-18 -1.526481506644511e-17  4.345753881058498e-01
-1.076686130575295e+00  4.345753881058498e-01  4.255542249200709e-18

-2.655062280265606e-17  6.339299232407835e-18 -1.081249947397501e+00
 6.339299232407835e-18 -1.720204554367038e-17  4.329283045997706e-01
-1.081249947397501e+00  4.329283045997706e-01  3.077149148914881e-18

-3.140874148386522e-17  7.073145793117151e-18 -1.068916859215204e+00
 7.073145793117151e-18 -1.943008665383647e-17  4.306696671487418e-01
-1.068916859215204e+00  4.306696671487418e-01  7.833487645920972e-19

-3.690596535150205e-17  7.906422579404919e-18 -1.066914704177060e+00
 7.906422579404919e-18 -2.190446960018086e-17  4.299270582860705e-01
-1.066914704177060e+00  4.299270582860705e-01 -1.193831797288875e-18

-4.303143143295870e-17  8.827863046361003e-18 -1.072616335592830e+00
 8.827863046361003e-18 -2.480900868744239e-17  4.333006674506316e-01
-1.072616335592830e+00  4.333006674506316e-01 -2.884744503022093e-18

-4.989612821186296e-17  1.039694304835074e-17 -1.040511273216696e+00
 1.039694304835074e-17 -2.486556229285663e-17  4.405788317184212e-01
-1.040511273216696e+00  4.405788317184212e-01 -7.376674304638163e-18

-6.032298208212064e-17  1.183987753966823e-17 -9.701405517518502e-01
 1.183987753966823e-17 -2.764989199700600e-17  4.344703911644373e-01
-9.701405517518502e-01  4.344703911644373e-01 -1.434591582375833e-17

-6.964228885961431e-17  1.102848422663004e-17 -9.795904628925366e-01
 1.102848422663004e-17 -3.145625399508516e-17  4.354629143202477e-01
-9.795904628925366e-01  4.354629143202477e-01 -1.750381078900044e-17

-8.030609822010039e-17  1.206320378646713e-17 -1.080827865789813e+00
 1.206320378646713e-17 -3.519890811416584e-17  4.380410371246207e-01
-1.080827865789813e+00  4.380410371246207e-01 -1.692456873754464e-17

-9.833707510971589e-17  1.495900047249546e-17 -1.089866120798315e+00
 1.495900047249546e-17 -4.192826965722653e-17  4.391431661207340e-01
-1.089866120798315e+00  4.391431661207340e-01 -2.172365775182968e-17

-1.204746607208531e-16  1.684247916385989e-17 -1.004952055884325e+00
 1.684247916385989e-17 -4.505200004931448e-17  4.253239558215799e-01
-1.004952055884325e+00  4.253239558215799e-01 -3.381090181955683e-17

-1.450327550365448e-16  1.803863771903800e-17 -1.006282372521335e+00
 1.803863771903800e-17 -4.861517865834460e-17  4.216489856693962e-01
-1.006282372521335e+00  4.216489856693962e-01 -4.223676168382292e-17

-1.733482313373986e-16  1.875039595456373e-17 -1.103511991190691e+00
 1.875039595456373e-17 -5.381787313912932e-17  4.243485471322688e-01
-1.103511991190691e+00  4.243485471322688e-01 -4.760472955113180e-17

-2.130003071658881e-16  1.885941279399130e-17 -1.089788705973961e+00
 1.885941279399130e-17 -5.634945201829309e-17  4.297657744294808e-01
-1.089788705973961e+00  4.297657744294808e-01 -6.213350959491199e-17

-2.671638596101770e-16  1.781417157314626e-17 -9.721649384495483e-01
 1.781417157314626e-17 -5.317138959390009e-17  4.148343841590472e-01
-9.721649384495483e-01  4.148343841590472e-01 -8.744723234492994e-17

-3.359570218543930e-16  1.295119370775987e-17 -9.471248023200418e-01
 1.295119370775987e-17 -4.856591429747595e-17  4.233551325115285e-01
-9.471248023200418e-01  4.233551325115285e-01 -1.134369330141594e-16

-4.281694615832119e-16  3.058671951459559e-18 -1.018640836369604e+00
 3.058671951459559e-18 -4.126102182161472e-17  4.214341021842739e-01
-1.018640836369604e+00  4.214341021842739e-01 -1.435224865183730e-16

-5.577777744282335e-16 -1.757360965354912e-17 -1.026923120556655e+00
-1.757360965354912e-17 -1.896142766647240e-17  4.165136523197111e-01
-1.026923120556655e+00  4.165136523197111e-01 -1.910652443545472e-16

-7.413034770218504e-16 -6.034218582074484e-17 -9.789728234122452e-01
-6.034218582074484e-17  3.036727512282995e-17  4.066758131262748e-01
-9.789728234122452e-01  4.066758131262748e-01 -2.632394714175253e-16

-1.012567036963526e-15 -1.396006951771184e-16 -1.008432088462107e+00
-1.396006951771184e-16  1.211961927084209e-16  3.983362137498033e-01
-1.008432088462107e+00  3.983362137498033e-01 -3.655252469408908e-16

-1.442276784219172e-15 -2.812152251989552e-16 -1.134870375526056e+00
-2.812152251989552e-16  3.091407622041593e-16  3.922085618822448e-01
-1.134870375526056e+00  3.922085618822448e-01 -5.221461803550624e-16

-2.108948828011246e-15 -6.157312923870729e-16 -1.132048349189318e+00
-6.157312923870729e-16  7.037162451086098e-16  4.051703636645814e-01
-1.132048349189318e+00  4.051703636645814e-01 -7.942795411288568e-16

-3.070914754391897e-15 -1.476902730815614e-15 -1.014837111350202e+00
-1.476902730815614e-15  1.382698556453700e-15  3.959154224297234e-01
-1.014837111350202e+00  3.959154224297234e-01 -1.277201174233725e-15

-4.621954645937872e-15 -3.429808815916567e-15 -1.009206501959257e+00
-3.429808815916567e-15  2.677513436927780e-15  4.053538825924577e-01
-1.009206501959257e+00  4.053538825924577e-01 -2.187057536484555e-15

-7.445192609673680e-15 -8.033285334519919e-15 -1.121469032164752e+00
-8.033285334519919e-15  5.917643712144160e-15  4.113500455164148e-01
-1.121469032164752e+00  4.113500455164148e-01 -4.164403320529231e-15

-1.118030141787092e-14 -1.860783169046172e-14 -1.140856926598878e+00
-1.860783169046172e-14  1.079809267825803e-14  4.155067932481553e-01
-1.140856926598878e+00  4.155067932481553e-01 -8.941624421839454e-15

-8.028473966738261e-15 -2.699613658042746e-14 -1.081199961316333e+00
-2.699613658042746e-14  1.657593098117948e-14  4.137279073612785e-01
-1.081199961316333e+00  4.137279073612785e-01 -1.798938543183731e-14

 3.427779355205196e-13  4.882539469362463e-14 -1.053835210445714e+00
 4.882539469362463e-14  1.319680867345569e-13  4.298481912453334e-01
-1.053835210445714e+00  4.298481912453334e-01  8.022874064990216e-14

-2.580239399966106e-13 -5.462107595776542e-14 -1.047064483549158e+00
-5.462107595776542e-14 -1.319109765498838e-13  4.374623525078798e-01
-1.047064483549158e+00  4.374623525078798e-01 -4.889336091726529e-14

-2.745009393683634e-13 -3.230460141449656e-14 -1.032765349155817e+00
-3.230460141449656e-14 -1.372864587504043e-13  4.407123318060144e-01
-1.032765349155817e+00  4.407123318060144e-01 -4.785801979992133e-14

 3.106949232367042e-13  9.701980442516692e-14 -1.006275429407399e+00
 9.701980442516692e-14  1.233947436833793e-13  4.278807819307104e-01
-1.006275429407399e+00  4.278807819307104e-01  8.318270078084359e-14

-3.081500814988211e-14  7.396076281809407e-15 -1.027949927775061e+00
 7.396076281809407e-15 -6.412112249376471e-15  4.080586705026066e-01
-1.027949927775061e+00  4.080586705026066e-01 -1.557824524962707e-14

-1.881960859723845e-14 -1.662391922565486e-15 -1.113790308052653e+00
-1.662391922565486e-15 -9.959374717192995e-15  4.070456408637999e-01
-1.113790308052653e+00  4.070456408637999e-01 -6.814424566592951e-15

-9.346077664253179e-15 -2.502625167790627e-15 -1.085146088942183e+00
-2.502625167790627e-15 -5.462484527062348e-15  4.123734425150621e-01
-1.085146088942183e+00  4.123734425150621e-01 -2.884368942593528e-15

-5.172934414053330e-15 -2.014322793486663e-15 -9.592725281725337e-01
-2.014322793486663e-15 -2.856676958773866e-15  4.055101110908264e-01
-9.592725281725337e-01  4.055101110908264e-01 -1.492270664027075e-15

-3.102155805124455e-15 -1.424280335377031e-15 -8.990448818800126e-01
-1.424280335377031e-15 -1.950453478947995e-15  4.301875349628250e-01
-8.990448818800126e-01  4.301875349628250e-01 -8.708151495243070e-16

-1.961677845897687e-15 -9.845946590782551e-16 -9.008730304297207e-01
-9.845946590782551e-16 -1.524948467741158e-15  4.345158776360764e-01
-9.008730304297207e-01  4.345158776360764e-01 -5.483252442148700e-16

-1.291301893391688e-15 -6.740704082572207e-16 -9.592782148449527e-01
-6.740704082572207e-16 -1.246209900503452e-15  4.163625987501726e-01
-9.592782148449527e-01  4.163625987501726e-01 -3.627524405225747e-16

-8.764705203913610e-16 -4.543583236092789e-16 -1.092584972899386e+00
-4.543583236092789e-16 -1.036538977562267e-15  4.224624661538988e-01
-1.092584972899386e+00  4.224624661538988e-01 -2.450139628991696e-16

-6.332133281705670e-16 -3.286851524143130e-16 -1.089955461495235e+00
-3.286851524143130e-16 -7.858173458925292e-16  4.364886726398143e-01
-1.089955461495235e+00  4.364886726398143e-01 -1.759460709697595e-16

-4.845451476486541e-16 -2.558690296881413e-16 -9.598305621048772e-01
-2.558690296881413e-16 -5.666728906342724e-16  4.195229361272393e-01
-9.598305621048772e-01  4.195229361272393e-01 -1.381569294785463e-16

-3.719646601242039e-16 -1.951719523170170e-16 -9.266850999544343e-01
-1.951719523170170e-16 -4.440670090162121e-16  4.306936048572300e-01
-9.266850999544343e-01  4.306936048572300e-01 -1.063715566206664e-16

-2.850085112124412e-16 -1.457137707011488e-16 -1.003014583517115e+00
-1.457137707011488e-16 -3.702745722258760e-16  4.418992502526145e-01
-1.003014583517115e+00  4.418992502526145e-01 -7.737200978903370e-17

-2.254512208865244e-16 -1.133380753310595e-16 -1.001024943536123e+00
-1.133380753310595e-16 -3.022301922366849e-16  4.416561856549675e-01
-1.001024943536123e+00  4.416561856549675e-01 -5.949816404019786e-17

-1.842323262562336e-16 -9.162702671746480e-17 -9.248868052395983e-01
-9.162702671746480e-17 -2.443549022930824e-16  4.344941386673806e-01
-9.248868052395983e-01  4.344941386673806e-01 -5.073720979325897e-17

-1.504591427829714e-16 -7.325470114316571e-17 -9.018794159119491e-01
-7.325470114316571e-17 -2.048270782528064e-16  4.470428177730277e-01
-9.018794159119491e-01  4.470428177730277e-01 -4.163182476443474e-17

-1.224716606850734e-16 -5.763877415031847e-17 -9.318443331105157e-01
-5.763877415031847e-17 -1.753380374583101e-16  4.407934125370490e-01
-9.318443331105157e-01  4.407934125370490e-01 -3.205989467752987e-17

-9.885409241294990e-17 -4.454415310955357e-17 -1.014925009853096e+00
-4.454415310955357e-17 -1.507350055893465e-16  4.113028930203925e-01
-1.014925009853096e+00  4.113028930203925e-01 -2.144157599138157e-17

-7.778521188750719e-17 -3.323905111294247e-17 -1.182717309215998e+00
-3.323905111294247e-17 -1.311228717376712e-16  4.070699147011034e-01
-1.182717309215998e+00  4.070699147011034e-01 -7.497040456586572e-18

-6.509273944304296e-17 -2.810380184229286e-17 -1.165018574439720e+00
-2.810380184229286e-17 -1.115977964537599e-16  4.306492956825309e-01
-1.165018574439720e+00  4.306492956825309e-01 -3.727440276209155e-18

-5.920289658556035e-17 -2.536373533255948e-17 -1.005665376034478e+00
-2.536373533255948e-17 -9.420200887156338e-17  4.196531552836978e-01
-1.005665376034478e+00  4.196531552836978e-01 -1.036442645009068e-17

-5.156369616624333e-17 -2.264207448697959e-17 -9.845952551409108e-01
-2.264207448697959e-17 -8.180661813951787e-17  4.468886051061824e-01
-9.845952551409108e-01  4.468886051061824e-01 -8.786820190768913e-18

-4.125408644608096e-17 -1.893483033434676e-17 -1.110150779249384e+00
-1.893483033434676e-17 -7.157941475511294e-17  4.705866811691212e-01
-1.110150779249384e+00  4.705866811691212e-01  1.882417360646836e-19

-3.453147138338064e-17 -1.642608225575212e-17 -1.129990754195004e+00
-1.642608225575212e-17 -6.191385931433886e-17  4.701643171835939e-01
-1.129990754195004e+00  4.701643171835939e-01  3.102925748647048e-18

-3.140457716133253e-17 -1.471863659545964e-17 -1.049733450859178e+00
-1.471863659545964e-17 -5.378862810611468e-17  4.507672253453293e-01
-1.049733450859178e+00  4.507672253453293e-01 -1.133597343518475e-19

-2.698061096645172e-17 -1.322924445895677e-17 -1.041811837326091e+00
-1.322924445895677e-17 -4.683296290566319e-17  4.504056781188245e-01
-1.041811837326091e+00  4.504056781188245e-01  1.311936636317826e-18

-2.125681147386606e-17 -1.174570623466940e-17 -1.114856052960292e+00
-1.174570623466940e-17 -4.153043462696101e-17  4.707601260422099e-01
-1.114856052960292e+00  4.707601260422099e-01  7.294224859048303e-18

-1.875701054105352e-17 -1.086007922763020e-17 -1.066979380968185e+00
-1.086007922763020e-17 -3.737984179168880e-17  4.888113002106234e-01
-1.066979380968185e+00  4.888113002106234e-01  6.573011471296916e-18

-1.973147054725016e-17 -9.727858428691106e-18 -9.093542545924750e-01
-9.727858428691106e-18 -3.424501830543146e-17  4.708727194386224e-01
-9.093542545924750e-01  4.708727194386224e-01 -2.159369396021813e-18

-1.733673710348367e-17 -9.207879353339389e-18 -8.938369509413340e-01
-9.207879353339389e-18 -3.044785215201569e-17  4.816039472481742e-01
-8.938369509413340e-01  4.816039472481742e-01 -1.507550485992323e-18

-1.148583564659547e-17 -7.802228236708666e-18 -1.056738468453968e+00
-7.802228236708666e-18 -2.687054856474060e-17  4.844532000586689e-01
-1.056738468453968e+00  4.844532000586689e-01  7.872515948250361e-18

-8.526544754173141e-18 -6.947159686945089e-18 -1.102013979765799e+00
-6.947159686945089e-18 -2.312502682146109e-17  4.725088756403224e-01
-1.102013979765799e+00  4.725088756403224e-01  1.063409550829915e-17

-8.277250802657993e-18 -6.183177244194187e-18 -1.040956098996441e+00
-6.183177244194187e-18 -2.055515112322065e-17  4.515211009641475e-01
-1.040956098996441e+00  4.515211009641475e-01  7.337997627454740e-18

-6.797588459803837e-18 -5.582610560881677e-18 -1.032594210657291e+00
-5.582610560881677e-18 -1.844682698919156e-17  4.499762972545481e-01
-1.032594210657291e+00  4.499762972545481e-01  7.591680346457061e-18

-4.145764541674296e-18 -4.972534297369193e-18 -1.083392401342257e+00
-4.972534297369193e-18 -1.658487821863153e-17  4.570112576467450e-01
-1.083392401342257e+00  4.570112576467450e-01  1.128360777795354e-17

-3.226615197800050e-18 -4.580680680274242e-18 -1.062237159956574e+00
-4.580680680274242e-18 -1.527071595144133e-17  4.637866645776759e-01
-1.062237159956574e+00  4.637866645776759e-01  1.092821219261757e-17

-4.158775703060286e-18 -4.102424906382873e-18 -9.732523792777171e-01
-4.102424906382873e-18 -1.435099675585871e-17  4.542547712500002e-01
-9.732523792777171e-01  4.542547712500002e-01  6.180498976179951e-18

-3.279360124108370e-18 -3.849862696019067e-18 -9.653674146908027e-01
-3.849862696019067e-18 -1.306200942560889e-17  4.614897555774392e-01
-9.653674146908027e-01  4.614897555774392e-01  6.156720692050276e-18

-6.836269539461101e-19 -3.369853210506019e-18 -1.046327342201115e+00
-3.369853210506019e-18 -1.107650107223840e-17  4.603470212963020e-01
-1.046327342201115e+00  4.603470212963020e-01  1.062201712783577e-17

 1.204567048768847e-18 -3.005219483860438e-18 -1.100808359289714e+00
-3.005219483860438e-18 -8.517487063281822e-18  4.436428912748804e-01
-1.100808359289714e+00  4.436428912748804e-01  1.346723021429977e-17

 2.732812305105968e-18 -2.727846883607940e-18 -1.140379619035466e+00
-2.727846883607940e-18 -7.079637657858882e-18  4.462875486602593e-01
-1.140379619035466e+00  4.462875486602593e-01  1.565734804411553e-17

 2.825858254176991e-18 -2.591566530605395e-18 -1.111036472163325e+00
-2.591566530605395e-18 -6.855828788964437e-18  4.613197403404946e-01
-1.111036472163325e+00  4.613197403404946e-01  1.438476226447574e-17

 1.242335189450460e-18 -2.300572598425273e-18 -1.015305704767071e+00
-2.300572598425273e-18 -6.700057977266238e-18  4.521438385295232e-01
-1.015305704767071e+00  4.521438385295232e-01  9.027492759633065e-18

 1.992529876759900e-18 -2.283006951548132e-18 -1.023516124543024e+00
-2.283006951548132e-18 -5.667459552676202e-18  4.570051683804953e-01
-1.023516124543024e+00  4.570051683804953e-01  9.671494967343939e-18

 5.098678131885488e-18 -1.943125777301105e-18 -1.148312884030252e+00
-1.943125777301105e-18 -4.299677154615382e-18  4.645418389393345e-01
-1.148312884030252e+00  4.645418389393345e-01  1.639263359162869e-17

 5.613038491995394e-18 -1.934819508762198e-18 -1.147293463942043e+00
-1.934819508762198e-18 -3.533254647432745e-18  4.684881365529585e-01
-1.147293463942043e+00  4.684881365529585e-01  1.663096812059924e-17

 3.517349681704914e-18 -1.641191529383231e-18 -1.035936073833187e+00
-1.641191529383231e-18 -3.413278592139949e-18  4.463447174719993e-01
-1.035936073833187e+00  4.463447174719993e-01  1.033340197867644e-17

 4.115942783513777e-18 -1.696106698668415e-18 -1.041623389455690e+00
-1.696106698668415e-18 -2.516436776853622e-18  4.470434160167130e-01
-1.041623389455690e+00  4.470434160167130e-01  1.100692894205446e-17

 7.467167481605731e-18 -1.393009388520633e-18 -1.180586273465680e+00
-1.393009388520633e-18 -1.366015847059619e-18  4.536036590198068e-01
-1.180586273465680e+00  4.536036590198068e-01  1.880563660575394e-17

 7.455513283208031e-18 -1.574909879200105e-18 -1.151392131547944e+00
-1.574909879200105e-18 -1.180102554555070e-18  4.607967014979544e-01
-1.151392131547944e+00  4.607967014979544e-01  1.821865887801059e-17

 4.078413960584849e-18 -1.132605467898997e-18 -9.855007724811917e-01
-1.132605467898997e-18 -2.003859739755923e-18  4.339878327051448e-01
-9.855007724811917e-01  4.339878327051448e-01  8.925981654606598e-18

 4.167323117137368e-18 -1.394930503816041e-18 -9.671054210675767e-01
-1.394930503816041e-18 -1.676965411080261e-18  4.452717112444172e-01
-9.671054210675767e-01  4.452717112444172e-01  8.707381084632209e-18

 7.653969920490727e-18 -1.146833593002324e-18 -1.117313303210097e+00
-1.146833593002324e-18 -6.009162616149114e-19  4.529972670188048e-01
-1.117313303210097e+00  4.529972670188048e-01  1.707249792556427e-17

 8.000321555097266e-18 -1.335975090761582e-18 -1.116913440296202e+00
-1.335975090761582e-18  1.026513332538276e-20  4.587447052471965e-01
-1.116913440296202e+00  4.587447052471965e-01  1.745933105418956e-17

 5.254557725753445e-18 -1.025981624059707e-18 -9.907447377720275e-01
-1.025981624059707e-18 -2.518100338069092e-19  4.366823990344154e-01
-9.907447377720275e-01  4.366823990344154e-01  9.859072339138508e-18

 5.723047412119217e-18 -1.250173381186003e-18 -1.001991918113777e+00
-1.250173381186003e-18  4.616596373745726e-19  4.440985342765563e-01
-1.001991918113777e+00  4.440985342765563e-01  1.055821930226465e-17

 9.498171407688591e-18 -1.027311387645127e-18 -1.174990395247710e+00
-1.027311387645127e-18  1.624009733349806e-18  4.548353978270376e-01
-1.174990395247710e+00  4.548353978270376e-01  1.968037942267656e-17

 9.653089712880984e-18 -1.333403340649672e-18 -1.166419705044575e+00
-1.333403340649672e-18  1.920085253988324e-18  4.644379482332158e-01
-1.166419705044575e+00  4.644379482332158e-01  1.974497017052373e-17

 6.177266521376058e-18 -8.197411373255069e-19 -1.005350504531657e+00
-8.197411373255069e-19  6.430900112029063e-19  4.389813211436241e-01
-1.005350504531657e+00  4.389813211436241e-01  1.027928601458137e-17

 5.789045381724898e-18 -1.028017248701724e-18 -9.707085204154989e-01
-1.028017248701724e-18  1.995645997550395e-19  4.527854864883263e-01
-9.707085204154989e-01  4.527854864883263e-01  9.102081552084371e-18

 8.264659497775438e-18 -9.799025210119579e-19 -1.073283716165769e+00
-9.799025210119579e-19  5.659292955323682e-19  4.638637054526945e-01
-1.073283716165769e+00  4.638637054526945e-01  1.512900406903059e-17

 8.418816619263202e-18 -1.027312763326731e-18 -1.067643158094324e+00
-1.027312763326731e-18  8.369825093901545e-19  4.619782022649468e-01
-1.067643158094324e+00  4.619782022649468e-01  1.527320837924072e-17

 6.273039894369102e-18 -7.924638609241880e-19 -9.665959897775562e-01
-7.924638609241880e-19  5.278757416031499e-19  4.452312289232681e-01
-9.665959897775562e-01  4.452312289232681e-01  9.502044808343090e-18

 6.341198198732858e-18 -9.182386908289666e-19 -9.621372938642069e-01
-9.182386908289666e-19  8.011866299571658e-19  4.520202515555555e-01
-9.621372938642069e-01  4.520202515555555e-01  9.368775784523400e-18

 8.596921328859413e-18 -7.811443555121648e-19 -1.066511520767339e+00
-7.811443555121648e-19  2.079466263877836e-18  4.472412204337013e-01
-1.066511520767339e+00  4.472412204337013e-01  1.477157668703220e-17

 9.900788852415176e-18 -7.422365802978959e-19 -1.125747703179914e+00
-7.422365802978959e-19  3.941791204271870e-18  4.238824414200308e-01
-1.125747703179914e+00  4.238824414200308e-01  1.778954763296386e-17

 1.067293381582293e-17 -7.839574668462271e-19 -1.154570811720949e+00
-7.839574668462271e-19  4.349172535318031e-18  4.264107480338573e-01
-1.154570811720949e+00  4.264107480338573e-01  1.956765611814729e-17

 9.761370290436898e-18 -9.297662585082697e-19 -1.099925258040917e+00
-9.297662585082697e-19  3.195194836617111e-18  4.473854323074357e-01
-1.099925258040917e+00  4.473854323074357e-01  1.715848269263958e-17

 6.854444180686408e-18 -5.939426513071668e-19 -9.665338360497632e-01
-5.939426513071668e-19  1.899706819639708e-18  4.337413634326158e-01
-9.665338360497632e-01  4.337413634326158e-01  9.479925202524340e-18

 6.949039940303414e-18 -8.381036442215232e-19 -9.593889636663809e-01
-8.381036442215232e-19  2.075758295037455e-18  4.381216438303338e-01
-9.593889636663809e-01  4.381216438303338e-01  9.680598175781788e-18

 1.009101853594999e-17 -7.534128542854290e-19 -1.099653559464464e+00
-7.534128542854290e-19  2.783555230554809e-18  4.462038091118437e-01
-1.099653559464464e+00  4.462038091118437e-01  1.754269277280601e-17

 1.020082019382613e-17 -9.902214073680183e-19 -1.095433311550903e+00
-9.902214073680183e-19  2.992895745375692e-18  4.507546151255424e-01
-1.095433311550903e+00  4.507546151255424e-01  1.774589347772755e-17

 7.317916473013715e-18 -6.000228673191762e-19 -9.662164849355566e-01
-6.000228673191762e-19  1.983313641868304e-18  4.305774566984443e-01
-9.662164849355566e-01  4.305774566984443e-01  1.008401306575190e-17

 6.934135744945015e-18 -7.431002802310647e-19 -9.375905794221933e-01
-7.431002802310647e-19  1.514799382880819e-18  4.408535184834450e-01
-9.375905794221933e-01  4.408535184834450e-01  9.058537041122266e-18

 8.882770145501238e-18 -7.337457067093415e-19 -1.019249230239086e+00
-7.337457067093415e-19  1.691997176448394e-18  4.507974715579063e-01
-1.019249230239086e+00  4.507974715579063e-01  1.391871999581122e-17

 8.934827002601981e-18 -7.784202577704412e-19 -1.016317138199287e+00
-7.784202577704412e-19  1.729057094403621e-18  4.522377351593241e-01
-1.016317138199287e+00  4.522377351593241e-01  1.391059952008818e-17

 7.072323930297339e-18 -5.944058754726478e-19 -9.339127048587277e-01
-5.944058754726478e-19  1.354458621199337e-18  4.384876372007045e-01
-9.339127048587277e-01  4.384876372007045e-01  8.952569736344411e-18

 7.259815693653365e-18 -6.927633836142487e-19 -9.382213245525864e-01
-6.927633836142487e-19  1.518241552906645e-18  4.405928112563397e-01
-9.382213245525864e-01  4.405928112563397e-01  9.224946575219238e-18

 9.526734243678629e-18 -5.342622817758179e-19 -1.042766128037762e+00
-5.342622817758179e-19  1.985402355434180e-18  4.436691347763083e-01
-1.042766128037762e+00  4.436691347763083e-01  1.480762076679672e-17

 9.550493888694549e-18 -5.737583376552585e-19 -1.040778724165486e+00
-5.737583376552585e-19  2.034807780570005e-18  4.485621297516589e-01
-1.040778724165486e+00  4.485621297516589e-01  1.464016026982020e-17

 7.229824045196231e-18 -4.009430933874103e-19 -9.363943305078727e-01
-4.009430933874103e-19  1.952913449051847e-18  4.304272372707742e-01
-9.363943305078727e-01  4.304272372707742e-01  8.539781202441474e-18

 7.632913036021329e-18 -5.796526203153027e-19 -9.472602152223658e-01
-5.796526203153027e-19  2.466159720320007e-18  4.326701543122926e-01
-9.472602152223658e-01  4.326701543122926e-01  9.333705427833554e-18

 1.087962844826574e-17 -1.888163508366884e-19 -1.101390192435894e+00
-1.888163508366884e-19  3.524154524832722e-18  4.245147385433224e-01
-1.101390192435894e+00  4.245147385433224e-01  1.765448373395263e-17

 1.117257137732791e-17 -4.157625331410974e-19 -1.110221623559672e+00
-4.157625331410974e-19  3.817504539428243e-18  4.336337682120486e-01
-1.110221623559672e+00  4.336337682120486e-01  1.818374882961402e-17

 8.559057540030959e-18 -3.191640625004065e-19 -9.933091942319423e-01
-3.191640625004065e-19  3.441063029988174e-18  4.176388764088981e-01
-9.933091942319423e-01  4.176388764088981e-01  1.139506815577579e-17

 8.454867519786566e-18 -4.241441022769004e-19 -9.827402752537356e-01
-4.241441022769004e-19  3.394632649496514e-18  4.274150479716617e-01
-9.827402752537356e-01  4.274150479716617e-01  1.097382193622575e-17

 1.077118522895377e-17 -1.539764234561401e-19 -1.089534634518669e+00
-1.539764234561401e-19  4.180379104424432e-18  4.294353869513850e-01
-1.089534634518669e+00  4.294353869513850e-01  1.688563486688170e-17

 1.072311328517034e-17 -2.707414563537596e-19 -1.083246846000845e+00
-2.707414563537596e-19  4.099761742730765e-18  4.392656494667231e-01
-1.083246846000845e+00  4.392656494667231e-01  1.663223105962468e-17

 8.315659176185718e-18 -2.614094347602224e-19 -9.757940528447870e-01
-2.614094347602224e-19  3.506315999844752e-18  4.272294248277563e-01
-9.757940528447870e-01  4.272294248277563e-01  1.039196325553772e-17

 8.514724248511434e-18 -4.523136235632211e-19 -9.827534629696100e-01
-4.523136235632211e-19  3.694770223169943e-18  4.372891967368488e-01
-9.827534629696100e-01  4.372891967368488e-01  1.063432379499278e-17

 1.133199513243329e-17 -1.264247883063023e-19 -1.122654645873445e+00
-1.264247883063023e-19  5.328666881670373e-18  4.290282987837952e-01
-1.122654645873445e+00  4.290282987837952e-01  1.778774115331907e-17

 1.244448814855581e-17 -2.172483176394620e-19 -1.176988868590934e+00
-2.172483176394620e-19  6.881034281472905e-18  4.186626936186537e-01
-1.176988868590934e+00  4.186626936186537e-01  2.042469463892108e-17

 1.216306551671402e-17 -2.528199437428231e-19 -1.161045997163555e+00
-2.528199437428231e-19  6.815329517839746e-18  4.165843684151005e-01
-1.161045997163555e+00  4.165843684151005e-01  1.964555434557006e-17

 1.102414712918463e-17 -2.302946469307934e-19 -1.096389061543638e+00
-2.302946469307934e-19  5.300331759945820e-18  4.288846261488697e-01
-1.096389061543638e+00  4.288846261488697e-01  1.679766471922284e-17

 8.615903024840227e-18 -1.155282997089134e-19 -9.757328876687666e-01
-1.155282997089134e-19  4.087715292044635e-18  4.194702036880480e-01
-9.757328876687666e-01  4.194702036880480e-01  1.082773607225817e-17

 8.390392117066937e-18 -2.777761399341394e-19 -9.543966328913233e-01
-2.777761399341394e-19  3.929890205774898e-18  4.243694510154964e-01
-9.543966328913233e-01  4.243694510154964e-01  1.036182334849700e-17

 1.028718648474704e-17 -1.660041079026923e-19 -1.042441139989842e+00
-1.660041079026923e-19  4.877053872337846e-18  4.183380439933832e-01
-1.042441139989842e+00  4.183380439933832e-01  1.526504199094238e-17

 1.139732320451864e-17 -2.392796226463853e-19 -1.096302728717596e+00
-2.392796226463853e-19  6.426034905960187e-18  3.990930638678196e-01
-1.096302728717596e+00  3.990930638678196e-01  1.804970212353660e-17

 1.213605589462464e-17 -2.988841333187401e-19 -1.129348984995105e+00
-2.988841333187401e-19  6.461039692878388e-18  4.039457218272504e-01
-1.129348984995105e+00  4.039457218272504e-01  1.988041676720385e-17

 1.088828407609928e-17 -4.342789045918352e-19 -1.061787635040631e+00
-4.342789045918352e-19  4.690455182016694e-18  4.281236732449754e-01
-1.061787635040631e+00  4.281236732449754e-01  1.675086205991566e-17

 7.212555975509552e-18 -7.304567862309491e-20 -8.957311109092690e-01
-7.304567862309491e-20  2.955865148484669e-18  4.127498061314633e-01
-8.957311109092690e-01  4.127498061314633e-01  7.339452628736824e-18

 7.066729328666794e-18 -4.390777471937404e-19 -8.767752579155729e-01
-4.390777471937404e-19  2.642031350906915e-18  4.278244342819582e-01
-8.767752579155729e-01  4.278244342819582e-01  6.967544158450949e-18

 1.036985164923423e-17 -4.866996251252348e-20 -1.031890610610564e+00
-4.866996251252348e-20  3.618723057376101e-18  4.172913306945565e-01
-1.031890610610564e+00  4.172913306945565e-01  1.550026237968748e-17

 1.080173062830611e-17 -1.917418453463613e-19 -1.046931549283892e+00
-1.917418453463613e-19  4.162935174994486e-18  4.150160629727748e-01
-1.046931549283892e+00  4.150160629727748e-01  1.648062059342231e-17

 8.517711340343032e-18 -1.643842121226152e-19 -9.436729363317502e-01
-1.643842121226152e-19  3.852567767584888e-18  4.020426778695483e-01
-9.436729363317502e-01  4.020426778695483e-01  1.062334425441512e-17

 8.328941140926524e-18 -2.771194088591304e-19 -9.329893294920915e-01
-2.771194088591304e-19  3.620098940449863e-18  4.133392858583343e-01
-9.329893294920915e-01  4.133392858583343e-01  1.001129359941764e-17

 1.013730774562671e-17 -1.094151785301524e-19 -1.020894424188584e+00
-1.094151785301524e-19  4.406105487187661e-18  4.096130595485661e-01
-1.020894424188584e+00  4.096130595485661e-01  1.455872347399175e-17

 1.093136649898606e-17 -1.328489527155467e-19 -1.059332465563452e+00
-1.328489527155467e-19  5.486431293674917e-18  3.976278507594283e-01
-1.059332465563452e+00  3.976278507594283e-01  1.646954291835971e-17

 1.096035923516608e-17 -1.345565790735543e-19 -1.059705569804061e+00
-1.345565790735543e-19  5.513019626613623e-18  3.979998496965212e-01
-1.059705569804061e+00  3.979998496965212e-01  1.647421222788454e-17

 1.022598208618131e-17 -1.152607084308738e-19 -1.023075938782913e+00
-1.152607084308738e-19  4.508973008299455e-18  4.114979401791076e-01
-1.023075938782913e+00  4.114979401791076e-01  1.456318061025514e-17

 8.414967748420061e-18 -1.082632202757905e-19 -9.383439188336629e-01
-1.082632202757905e-19  3.943143239867716e-18  4.047276356521676e-01
-9.383439188336629e-01  4.047276356521676e-01  9.948227238781691e-18

 8.855592395263978e-18 -2.352074828644908e-19 -9.519011569521292e-01
-2.352074828644908e-19  4.489819077507688e-18  3.997013419295329e-01
-9.519011569521292e-01  3.997013419295329e-01  1.100090952002842e-17

 1.168763139519595e-17  1.738456379385275e-19 -1.083960652777633e+00
 1.738456379385275e-19  5.530744372299097e-18  3.859047111641150e-01
-1.083960652777633e+00  3.859047111641150e-01  1.846122305331622e-17

 1.162333121955789e-17 -3.947842112007799e-20 -1.070322657356656e+00
-3.947842112007799e-20  5.342495563819705e-18  3.935987981113950e-01
-1.070322657356656e+00  3.935987981113950e-01  1.828626398328735e-17

 8.669507567006268e-18  7.594724254551289e-20 -9.326963743877948e-01
 7.594724254551289e-20  4.119029157862928e-18  3.833920008443941e-01
-9.326963743877948e-01  3.833920008443941e-01  1.090476995106208e-17

 7.487464859306961e-18  5.294925627567793e-20 -8.711935236041894e-01
 5.294925627567793e-20  2.530427275964750e-18  4.063009070145194e-01
-8.711935236041894e-01  4.063009070145194e-01  7.981369980228547e-18

 7.569830295485868e-18  8.700255715945875e-21 -8.704283479086421e-01
 8.700255715945875e-21  2.559476083834172e-18  4.085722758570597e-01
-8.704283479086421e-01  4.085722758570597e-01  8.200448915574663e-18

 8.616748704178480e-18 -1.208662922385049e-19 -9.180614729926124e-01
-1.208662922385049e-19  4.157134094023486e-18  3.953898181518997e-01
-9.180614729926124e-01  3.953898181518997e-01  1.072704247821468e-17

 1.109299131920300e-17  1.047583463232557e-19 -1.043112652619628e+00
 1.047583463232557e-19  6.291498815438529e-18  3.760191525258401e-01
-1.043112652619628e+00  3.760191525258401e-01  1.709399269553895e-17

 1.227286683034638e-17 -5.124646520516555e-20 -1.103899184452837e+00
-5.124646520516555e-20  7.972672027343337e-18  3.679134454840398e-01
-1.103899184452837e+00  3.679134454840398e-01  1.983438962128097e-17

 1.249112146333469e-17 -1.266372024549548e-19 -1.116758372792894e+00
-1.266372024549548e-19  8.157436152101157e-18  3.725296770928611e-01
-1.116758372792894e+00  3.725296770928611e-01  2.025147501530424e-17

 1.154930445260468e-17 -1.687193739840408e-19 -1.069900208348070e+00
-1.687193739840408e-19  6.840716125044437e-18  3.924995999819383e-01
-1.069900208348070e+00  3.924995999819383e-01  1.785552074463542e-17

 9.088441398380666e-18 -1.074180552400121e-19 -9.565927516815554e-01
-1.074180552400121e-19  5.683694619939330e-18  3.898212756158509e-01
-9.565927516815554e-01  3.898212756158509e-01  1.168682199297520e-17

 8.887513749646729e-18 -2.467965431570350e-19 -9.431129698631913e-01
-2.467965431570350e-19  5.291061727822731e-18  4.005817447052398e-01
-9.431129698631913e-01  4.005817447052398e-01  1.119180024795198e-17

 1.083419230659300e-17 -5.960666549007763e-20 -1.035270265567446e+00
-5.960666549007763e-20  5.643053470500235e-18  4.023120269803127e-01
-1.035270265567446e+00  4.023120269803127e-01  1.622433665400603e-17

 1.087401665343425e-17 -1.590147369719902e-19 -1.036605090362297e+00
-1.590147369719902e-19  5.646307254587433e-18  4.081049978573577e-01
-1.036605090362297e+00  4.081049978573577e-01  1.625045024691746e-17

 9.008003902572467e-18 -2.164183008600475e-19 -9.553514308752842e-01
-2.164183008600475e-19  5.417021837311308e-18  4.023201593497507e-01
-9.553514308752842e-01  4.023201593497507e-01  1.142138535060966e-17

 9.356712418763612e-18 -3.706415034177206e-19 -9.738404231081319e-01
-3.706415034177206e-19  5.795191585605468e-18  4.083002221629864e-01
-9.738404231081319e-01  4.083002221629864e-01  1.212649873556623e-17

 1.203545709343766e-17 -8.645223078893392e-20 -1.108001802092381e+00
-8.645223078893392e-20  6.649335285087957e-18  4.086730181105192e-01
-1.108001802092381e+00  4.086730181105192e-01  1.893104233502810e-17

 1.202353380467562e-17 -2.770260175153715e-19 -1.106577264305494e+00
-2.770260175153715e-19  6.486390728127413e-18  4.227180915867619e-01
-1.106577264305494e+00  4.227180915867619e-01  1.870266436351351e-17

 9.192363972675477e-18 -1.951757948362804e-19 -9.816937534530459e-01
-1.951757948362804e-19  5.857334829552975e-18  4.084958005862169e-01
-9.816937534530459e-01  4.084958005862169e-01  1.140259250885326e-17

 9.354590130186182e-18 -4.155648754696704e-19 -9.873467205096919e-01
-4.155648754696704e-19  5.941104833002716e-18  4.195396419961747e-01
-9.873467205096919e-01  4.195396419961747e-01  1.164794676469644e-17

 1.256762477631642e-17 -4.940384235225569e-20 -1.146007446840677e+00
-4.940384235225569e-20  6.915440362288514e-18  4.175186718655829e-01
-1.146007446840677e+00  4.175186718655829e-01  1.989339603375536e-17

 1.273435776620471e-17 -2.689505547879538e-19 -1.147995122642571e+00
-2.689505547879538e-19  6.907039512217724e-18  4.241613958014699e-01
-1.147995122642571e+00  4.241613958014699e-01  2.020794384429679e-17

 9.770883334032494e-18 -6.133837455323452e-20 -1.008468709841576e+00
-6.133837455323452e-20  5.620241876461129e-18  4.066158152845195e-01
-1.008468709841576e+00  4.066158152845195e-01  1.270867745891425e-17

 8.636999571363554e-18 -8.459280282858834e-20 -9.455723228841697e-01
-8.459280282858834e-20  4.097007266489636e-18  4.243255073925540e-01
-9.455723228841697e-01  4.243255073925540e-01  9.937852126416922e-18

 8.903688419872609e-18 -8.549876389738353e-20 -9.516668472247352e-01
-8.549876389738353e-20  4.018661144749158e-18  4.250382774986354e-01
-9.516668472247352e-01  4.250382774986354e-01  1.069814223553034e-17

 9.683342911127199e-18 -1.269170977174313e-19 -9.867635266787493e-01
-1.269170977174313e-19  5.204304677166970e-18  4.088124382544037e-01
-9.867635266787493e-01  4.088124382544037e-01  1.267494645693678e-17

 1.132906233252174e-17  1.839682527016027e-20 -1.066148959972294e+00
 1.839682527016027e-20  6.465796336939575e-18  3.930927984383835e-01
-1.066148959972294e+00  3.930927984383835e-01  1.688566958282661e-17

 1.192831564444439e-17  2.572017083155362e-21 -1.089152468865601e+00
 2.572017083155362e-21  7.419305672390801e-18  3.761517175973331e-01
-1.089152468865601e+00  3.761517175973331e-01  1.846577663135769e-17

 1.171530521097074e-17 -4.662525403787322e-21 -1.067905726616098e+00
-4.662525403787322e-21  7.069987431933161e-18  3.744556986825684e-01
-1.067905726616098e+00  3.744556986825684e-01  1.812794452426601e-17

 1.036394650446705e-17 -5.079064185381429e-20 -9.939538684537008e-01
-5.079064185381429e-20  5.339691784958507e-18  3.950971796640733e-01
-9.939538684537008e-01  3.950971796640733e-01  1.493848006893432e-17

 7.541150107031286e-18 -1.487635297840029e-21 -8.646638946731490e-01
-1.487635297840029e-21  4.143673983092642e-18  3.913561116738316e-01
-8.646638946731490e-01  3.913561116738316e-01  7.925771792721199e-18

 7.619099474566492e-18 -2.937509898088934e-19 -8.621475669896441e-01
-2.937509898088934e-19  4.101495143615111e-18  4.022918844107123e-01
-8.621475669896441e-01  4.022918844107123e-01  8.050626386833923e-18

 1.053089272966190e-17  8.743878598303794e-20 -1.003283440722510e+00
 8.743878598303794e-20  5.287326742751371e-18  3.863913582807449e-01
-1.003283440722510e+00  3.863913582807449e-01  1.563889097875390e-17

 1.109484870161909e-17 -5.040405022013746e-20 -1.028587426570445e+00
-5.040405022013746e-20  6.052016043868602e-18  3.827975914081532e-01
-1.028587426570445e+00  3.827975914081532e-01  1.690809498422351e-17

 9.455973607769785e-18 -1.678165519491058e-19 -9.548619392675159e-01
-1.678165519491058e-19  6.123086741933571e-18  3.752734330829784e-01
-9.548619392675159e-01  3.752734330829784e-01  1.266576767137504e-17

 9.575867289600074e-18 -2.560065569668016e-19 -9.606728705251922e-01
-2.560065569668016e-19  6.350356857672903e-18  3.788619001515329e-01
-9.606728705251922e-01  3.788619001515329e-01  1.290631214462695e-17

 1.153297358406228e-17 -6.357020583012498e-20 -1.055338931093452e+00
-6.357020583012498e-20  6.894595401618531e-18  3.790136995715205e-01
-1.055338931093452e+00  3.790136995715205e-01  1.794731366450156e-17

 1.143971639804186e-17 -2.129021796952320e-19 -1.049688766991945e+00
-2.129021796952320e-19  6.679614111964001e-18  3.896922470040881e-01
-1.049688766991945e+00  3.896922470040881e-01  1.762883333939015e-17

 9.204166887733827e-18 -1.893261308498494e-19 -9.514209687664734e-01
-1.893261308498494e-19  6.053566663804879e-18  3.831115608470009e-01
-9.514209687664734e-01  3.831115608470009e-01  1.191198837635382e-17

 9.099050629003858e-18 -2.979230323774700e-19 -9.455780283114821e-01
-2.979230323774700e-19  5.794546785991207e-18  3.916901717061513e-01
-9.455780283114821e-01  3.916901717061513e-01  1.157777802464069e-17

 1.104067910242678e-17 -1.062073274096175e-19 -1.036975286208377e+00
-1.062073274096175e-19  6.108554708775517e-18  3.918563356553803e-01
-1.036975286208377e+00  3.918563356553803e-01  1.654677428890806e-17

 1.096177295320186e-17 -1.752854709630981e-19 -1.028925429522346e+00
-1.752854709630981e-19  5.952210829449745e-18  3.947676374205449e-01
-1.028925429522346e+00  3.947676374205449e-01  1.632887025520010e-17

 8.821604607206763e-18 -1.398881795269547e-19 -9.302027578013702e-01
-1.398881795269547e-19  5.479526069620475e-18  3.839871125842282e-01
-9.302027578013702e-01  3.839871125842282e-01  1.093553333931960e-17

 8.823765760122358e-18 -2.633380283761616e-19 -9.252252277040144e-01
-2.633380283761616e-19  5.495054602414919e-18  3.879397534980399e-01
-9.252252277040144e-01  3.879397534980399e-01  1.095473546071388e-17

 1.098019686628142e-17 -2.795360301978474e-20 -1.025040585347986e+00
-2.795360301978474e-20  6.041056002096515e-18  3.840228728712310e-01
-1.025040585347986e+00  3.840228728712310e-01  1.658225339283178e-17

 1.090054756829993e-17 -1.523919837896788e-19 -1.016726393519876e+00
-1.523919837896788e-19  5.954361141321139e-18  3.900300950079116e-01
-1.016726393519876e+00  3.900300950079116e-01  1.637828492021643e-17

 8.562064453177421e-18 -1.546368738218639e-19 -9.122088793567257e-01
-1.546368738218639e-19  5.531891268320340e-18  3.816704523579498e-01
-9.122088793567257e-01  3.816704523579498e-01  1.045278468882094e-17

 8.629219007101782e-18 -3.321928576594524e-19 -9.133009831242315e-01
-3.321928576594524e-19  5.621211784819712e-18  3.901843598244738e-01
-9.133009831242315e-01  3.901843598244738e-01  1.054315362739362e-17

 1.109189915324649e-17 -5.605616081633871e-20 -1.032539855500086e+00
-5.605616081633871e-20  6.488863362297371e-18  3.841517817721435e-01
-1.032539855500086e+00  3.841517817721435e-01  1.689007658621144e-17

 1.130034681085059e-17 -1.824705744511455e-19 -1.040865881314882e+00
-1.824705744511455e-19  6.836718664819625e-18  3.868520675296962e-01
-1.040865881314882e+00  3.868520675296962e-01  1.731271421965136e-17

 9.255754037204696e-18 -2.378030885218585e-19 -9.490962605571872e-01
-2.378030885218585e-19  6.937782458450353e-18  3.741699236433644e-01
-9.490962605571872e-01  3.741699236433644e-01  1.211220095656370e-17

 9.756678178287939e-18 -4.218410241201914e-19 -9.695621581730949e-01
-4.218410241201914e-19  7.810197785766537e-18  3.729431443654104e-01
-9.695621581730949e-01  3.729431443654104e-01  1.338515859479868e-17

 1.311603014783721e-17 -1.164338603768644e-19 -1.132124701060735e+00
-1.164338603768644e-19  9.094049497867586e-18  3.693455521647674e-01
-1.132124701060735e+00  3.693455521647674e-01  2.215810315748172e-17

 1.325739084800723e-17 -6.157692181082925e-19 -1.136357747927286e+00
-6.157692181082925e-19  9.197176724803217e-18  3.908329764873454e-01
-1.136357747927286e+00  3.908329764873454e-01  2.250139383981398e-17

 1.019874420234897e-17 -3.675077140265532e-19 -1.008143334466903e+00
-3.675077140265532e-19  7.611934720325250e-18  3.869779291525696e-01
-1.008143334466903e+00  3.869779291525696e-01  1.452933163743068e-17

 8.958218965122770e-18 -4.606459090387503e-19 -9.494056992735252e-01
-4.606459090387503e-19  5.625448995456563e-18  4.199080296843081e-01
-9.494056992735252e-01  4.199080296843081e-01  1.134441515790460e-17

 8.939638040935089e-18 -5.301156477622981e-19 -9.475787112088817e-01
-5.301156477622981e-19  4.967426370354455e-18  4.320075354785539e-01
-9.475787112088817e-01  4.320075354785539e-01  1.127637940816607e-17

 9.415062339406378e-18 -5.336791032101484e-19 -9.718777911381113e-01
-5.336791032101484e-19  5.350371641362974e-18  4.243709034023665e-01
-9.718777911381113e-01  4.243709034023665e-01  1.241953623865991e-17

 1.055360650881657e-17 -5.198314568101629e-19 -1.025008823354323e+00
-5.198314568101629e-19  5.374887159210687e-18  4.294554022663387e-01
-1.025008823354323e+00  4.294554022663387e-01  1.521495918941622e-17

 1.003963970882986e-17 -5.319045206784129e-19 -9.995150448412649e-01
-5.319045206784129e-19  4.551422089814099e-18  4.413991684030831e-01
-9.995150448412649e-01  4.413991684030831e-01  1.382622102771758e-17

 7.654345846196151e-18 -3.249135775029873e-19 -8.953925967156310e-01
-3.249135775029873e-19  3.885303188085512e-18  4.278486449894245e-01
-8.953925967156310e-01  4.278486449894245e-01  7.642408258048875e-18

 8.051410035930228e-18 -5.537620621633979e-19 -9.093079958624083e-01
-5.537620621633979e-19  4.354107405900638e-18  4.308519798220132e-01
-9.093079958624083e-01  4.308519798220132e-01  8.513538252825637e-18

 1.137655093635226e-17 -1.584988967421460e-19 -1.069867625199917e+00
-1.584988967421460e-19  5.623044549721033e-18  4.201178037180019e-01
-1.069867625199917e+00  4.201178037180019e-01  1.702026811041851e-17

 1.169807346968915e-17 -3.305828621645048e-19 -1.081549945086223e+00
-3.305828621645048e-19  6.110969020864074e-18  4.238820941968419e-01
-1.081549945086223e+00  4.238820941968419e-01  1.770515851939593e-17

 9.117199973853795e-18 -2.638540467427895e-19 -9.682448669466200e-01
-2.638540467427895e-19  5.926031188097054e-18  4.067178021829395e-01
-9.682448669466200e-01  4.067178021829395e-01  1.106553355795563e-17

 9.437950765274335e-18 -4.620277604644744e-19 -9.820302206993831e-01
-4.620277604644744e-19  6.322757376681179e-18  4.123175158658990e-01
-9.820302206993831e-01  4.123175158658990e-01  1.174469803300978e-17

 1.274936238056505e-17 -8.930863429339710e-20 -1.142608846275982e+00
-8.930863429339710e-20  7.254882766615324e-18  4.090820290404087e-01
-1.142608846275982e+00  4.090820290404087e-01  2.026482164859042e-17

 1.250614743348670e-17 -3.641054596712655e-19 -1.118359128372005e+00
-3.641054596712655e-19  6.899060385139888e-18  4.192904595659394e-01
-1.118359128372005e+00  4.192904595659394e-01  1.967840916243283e-17

 8.595543690671956e-18 -2.264037279130225e-20 -9.375543413215335e-01
-2.264037279130225e-20  5.574091417782050e-18  3.937195519753707e-01
-9.375543413215335e-01  3.937195519753707e-01  9.797766416199476e-18

 8.081822317155693e-18 -3.201049042668334e-19 -9.005095465588218e-01
-3.201049042668334e-19  4.971297930691049e-18  4.112821480189817e-01
-9.005095465588218e-01  4.112821480189817e-01  8.656437992146669e-18

 1.077987265999276e-17 -6.221527457396502e-20 -1.024893917648543e+00
-6.221527457396502e-20  5.581791752916220e-18  4.095617394690796e-01
-1.024893917648543e+00  4.095617394690796e-01  1.572956114144849e-17

 1.106761184929189e-17 -2.077932461635510e-19 -1.036622868381426e+00
-2.077932461635510e-19  5.966611016600621e-18  4.097907410835227e-01
-1.036622868381426e+00  4.097907410835227e-01  1.641887817381139e-17

 9.002292680522991e-18 -2.044145218710486e-19 -9.454555731026781e-01
-2.044145218710486e-19  5.812202181549462e-18  3.958092333376785e-01
-9.454555731026781e-01  3.958092333376785e-01  1.112315421175002e-17

 9.159170421230374e-18 -3.252396167964057e-19 -9.490471357137014e-01
-3.252396167964057e-19  6.073942055415936e-18  3.973938322597082e-01
-9.490471357137014e-01  3.973938322597082e-01  1.147819834874084e-17

 1.159806700512331e-17 -5.995734866119643e-20 -1.062797116038554e+00
-5.995734866119643e-20  6.845007237923866e-18  3.935324336229112e-01
-1.062797116038554e+00  3.935324336229112e-01  1.784083803062695e-17

 1.155033937121237e-17 -2.579847531626901e-19 -1.056632996087213e+00
-2.579847531626901e-19  6.811537698305177e-18  4.044816064894305e-01
-1.056632996087213e+00  4.044816064894305e-01  1.770909006552831e-17

 9.031481932968490e-18 -2.157730853577573e-19 -9.470749341855577e-01
-2.157730853577573e-19  6.278379871992805e-18  3.958000969301043e-01
-9.470749341855577e-01  3.958000969301043e-01  1.128978249226671e-17

 8.986116770577607e-18 -3.951969667597923e-19 -9.444425985976234e-01
-3.951969667597923e-19  6.178340910456356e-18  4.091573033007616e-01
-9.444425985976234e-01  4.091573033007616e-01  1.110616414408812e-17

 1.139273353438558e-17 -2.132572435740082e-19 -1.062693996062941e+00
-2.132572435740082e-19  6.829453658180783e-18  4.156354597411223e-01
-1.062693996062941e+00  4.156354597411223e-01  1.723567708450882e-17

 1.158676315588320e-17 -3.923665593778662e-19 -1.078329290885032e+00
-3.923665593778662e-19  6.957372765140982e-18  4.305895150798454e-01
-1.078329290885032e+00  4.305895150798454e-01  1.751202279760435e-17

 9.520424773246701e-18 -3.616876158200916e-19 -9.968362678441930e-01
-3.616876158200916e-19  6.681108292532218e-18  4.232597503099874e-01
-9.968362678441930e-01  4.232597503099874e-01  1.199010982292564e-17

 9.864237731692873e-18 -4.838087714671758e-19 -1.017536871865360e+00
-4.838087714671758e-19  6.977107642049237e-18  4.299407853844668e-01
-1.017536871865360e+00  4.299407853844668e-01  1.257955487377147e-17

 1.261796530040186e-17 -1.648915034189263e-19 -1.152914550809095e+00
-1.648915034189263e-19  8.014651761474664e-18  4.263478958333554e-01
-1.152914550809095e+00  4.263478958333554e-01  1.955841533981317e-17

 1.282382572295122e-17 -2.685709774098316e-19 -1.156133472335013e+00
-2.685709774098316e-19  8.367595852258534e-18  4.260632737778793e-01
-1.156133472335013e+00  4.260632737778793e-01  2.004684595212821e-17

 1.059770592226012e-17 -2.035192166561919e-19 -1.050181522206467e+00
-2.035192166561919e-19  7.944744256117041e-18  4.096655956071246e-01
-1.050181522206467e+00  4.096655956071246e-01  1.446117619449856e-17

 1.038352107114964e-17 -2.937230520369369e-19 -1.034963720661177e+00
-2.937230520369369e-19  7.799735580777342e-18  4.137998530831926e-01
-1.034963720661177e+00  4.137998530831926e-01  1.402051586053309e-17

 1.213068113525992e-17 -1.959729106753370e-19 -1.113931620464145e+00
-1.959729106753370e-19  8.217566380838624e-18  4.154401740586647e-01
-1.113931620464145e+00  4.154401740586647e-01  1.859967179724798e-17

-3.000620948992322e-17  4.922077736333156e-19  1.021739323357985e+00
 4.922077736333156e-19 -2.187108498335285e-17  4.172804628877715e-01
 1.021739323357985e+00  4.172804628877715e-01 -2.842347870577285e-17

-2.730192312555604e-17  3.391890557871123e-19  8.603259115107829e-01
 3.391890557871123e-19 -2.010535876426149e-17  4.268873163628564e-01
 8.603259115107829e-01  4.268873163628564e-01 -2.258037694542557e-17

-3.165695377045786e-17  4.492961474028151e-19  1.103140876690300e+00
 4.492961474028151e-19 -2.369034746410372e-17  4.010926681469862e-01
 1.103140876690300e+00  4.010926681469862e-01 -3.160089625600105e-17

-3.201765996889158e-17  4.732715335121471e-19  1.122212183340864e+00
 4.732715335121471e-19 -2.399085981533667e-17  4.014621033032176e-01
 1.122212183340864e+00  4.014621033032176e-01 -3.248922942729502e-17

-2.742902315793426e-17  5.440077316495228e-19  8.772137264836949e-01
 5.440077316495228e-19 -2.035356154353738e-17  3.992338793371829e-01
 8.772137264836949e-01  3.992338793371829e-01 -2.298028977028682e-17

-3.033619421363323e-17  4.158589520889607e-19  1.048117921687676e+00
 4.158589520889607e-19 -2.162257754405960e-17  4.170771740179446e-01
 1.048117921687676e+00  4.170771740179446e-01 -2.964470454246725e-17

-3.048408635262525e-17  5.380600407636602e-19  1.063659318317097e+00
 5.380600407636602e-19 -2.197128715635835e-17  3.983078566575291e-01
 1.063659318317097e+00  3.983078566575291e-01 -2.992234862719729e-17

-2.769357819604643e-17  2.932559713005773e-19  8.978975053331556e-01
 2.932559713005773e-19 -2.053236643978883e-17  4.021852484985006e-01
 8.978975053331556e-01  4.021852484985006e-01 -2.395187013134201e-17

-2.742638063589805e-17  4.471446506103463e-19  8.885942319341569e-01
 4.471446506103463e-19 -2.042372589839694e-17  3.917481778748423e-01
 8.885942319341569e-01  3.917481778748423e-01 -2.350184269411268e-17

-2.954583441224821e-17  4.304402841460905e-19  1.012582218303118e+00
 4.304402841460905e-19 -2.133983308220848e-17  4.050020581150375e-01
 1.012582218303118e+00  4.050020581150375e-01 -2.828356690793557e-17

-2.947986493724624e-17  5.609719361290372e-19  1.014548331799848e+00
 5.609719361290372e-19 -2.138949512618481e-17  3.940715991991255e-01
 1.014548331799848e+00  3.940715991991255e-01 -2.828225972650589e-17

-2.735749392194243e-17  4.526278460585197e-19  8.795462018326008e-01
 4.526278460585197e-19 -2.059558991094279e-17  3.908075987936528e-01
 8.795462018326008e-01  3.908075987936528e-01 -2.351162157815769e-17

-2.776194417506743e-17  6.519577353690470e-19  9.076538468020827e-01
 6.519577353690470e-19 -2.112117477351783e-17  3.675083277369791e-01
 9.076538468020827e-01  3.675083277369791e-01 -2.445768201936370e-17

-3.094179417615603e-17  6.364588657553145e-19  1.086712265335955e+00
 6.364588657553145e-19 -2.257677492067902e-17  3.901048581689824e-01
 1.086712265335955e+00  3.901048581689824e-01 -3.147367080933150e-17

-3.060727061107204e-17  9.836285435759498e-19  1.076700714123772e+00
 9.836285435759498e-19 -2.230595372968379e-17  3.701524584139096e-01
 1.076700714123772e+00  3.701524584139096e-01 -3.082384548838358e-17

-2.666589332321814e-17  5.118325642021953e-19  8.268605519942616e-01
 5.118325642021953e-19 -1.976455808620305e-17  4.081114219195815e-01
 8.268605519942616e-01  4.081114219195815e-01 -2.182401394788432e-17

-2.663018967312708e-17  8.569220979352125e-19  8.346679093899436e-01
 8.569220979352125e-19 -1.977148666708310e-17  3.828287597917966e-01
 8.346679093899436e-01  3.828287597917966e-01 -2.172011085720177e-17

-3.044938880028185e-17  6.887183457592847e-19  1.047111144915950e+00
 6.887183457592847e-19 -2.172749478455647e-17  4.078231598277401e-01
 1.047111144915950e+00  4.078231598277401e-01 -3.000150842854566e-17

-3.152920459619859e-17  7.539329080679630e-19  1.117146172252289e+00
 7.539329080679630e-19 -2.290010344427410e-17  3.796644888696208e-01
 1.117146172252289e+00  3.796644888696208e-01 -3.234888077817991e-17

-2.996950249597213e-17  6.367510382578030e-19  1.028178301531639e+00
 6.367510382578030e-19 -2.190806839062859e-17  3.815392871330754e-01
 1.028178301531639e+00  3.815392871330754e-01 -2.888679888508549e-17

-2.838666078225841e-17  6.215918356209823e-19  9.441065513156338e-01
 6.215918356209823e-19 -2.003648042681647e-17  4.111811619416333e-01
 9.441065513156338e-01  4.111811619416333e-01 -2.561058758714186e-17

-2.652011335990045e-17  4.830651341085948e-19  8.351017294262921e-01
 4.830651341085948e-19 -1.877348125592428e-17  4.208898503347143e-01
 8.351017294262921e-01  4.208898503347143e-01 -2.157568431516434e-17

-2.689628900749162e-17  5.743928810084779e-19  8.682533058965071e-01
 5.743928810084779e-19 -1.924950060676577e-17  3.966192940157478e-01
 8.682533058965071e-01  3.966192940157478e-01 -2.253939731950451e-17

-2.978017451937918e-17  4.077010695626071e-19  1.033078987613175e+00
 4.077010695626071e-19 -2.070038711598940e-17  4.156586554172111e-01
 1.033078987613175e+00  4.156586554172111e-01 -2.891784306910849e-17

-2.978266338966825e-17  5.280886656626968e-19  1.042713955183827e+00
 5.280886656626968e-19 -2.075419018764656e-17  4.021805155639356e-01
 1.042713955183827e+00  4.021805155639356e-01 -2.900152071904195e-17

-2.693788800429718e-17  2.369082317170268e-19  8.671437699853495e-01
 2.369082317170268e-19 -1.940071864541070e-17  4.101494093766708e-01
 8.671437699853495e-01  4.101494093766708e-01 -2.260135125840868e-17

-2.686037182099903e-17  3.473795174547323e-19  8.755945308045587e-01
 3.473795174547323e-19 -1.943105865061172e-17  3.963189615709440e-01
 8.755945308045587e-01  3.963189615709440e-01 -2.258240641878319e-17

-2.962135168100633e-17  1.371627106878658e-19  1.035099154484159e+00
 1.371627106878658e-19 -2.076062228529389e-17  4.211790780161135e-01
 1.035099154484159e+00  4.211790780161135e-01 -2.883524592057799e-17

-2.951962821884388e-17  2.977094520057014e-19  1.040450483493383e+00
 2.977094520057014e-19 -2.080098521962237e-17  4.049710348603298e-01
 1.040450483493383e+00  4.049710348603298e-01 -2.879727763915339e-17

-2.671556204828370e-17  1.201226093445091e-19  8.670639291448500e-01
 1.201226093445091e-19 -1.950594878141690e-17  4.077228162804206e-01
 8.670639291448500e-01  4.077228162804206e-01 -2.258688004955312e-17

-2.652829665047801e-17  2.818270954097835e-19  8.646811616215998e-01
 2.818270954097835e-19 -1.939786032873184e-17  3.974044572602269e-01
 8.646811616215998e-01  3.974044572602269e-01 -2.228615205641247e-17

-2.897409682924783e-17  1.664121236363052e-19  1.002398059086055e+00
 1.664121236363052e-19 -2.072288582450562e-17  4.101138214155953e-01
 1.002398059086055e+00  4.101138214155953e-01 -2.769818853033927e-17

-2.963524654471422e-17  2.559876965878114e-19  1.044101082684036e+00
 2.559876965878114e-19 -2.149409667221239e-17  3.877638160014455e-01
 1.044101082684036e+00  3.877638160014455e-01 -2.914200650163917e-17

-2.859394360559712e-17  2.009988134090472e-19  9.817810164654357e-01
 2.009988134090472e-19 -2.112533697561998e-17  3.784872757690310e-01
 9.817810164654357e-01  3.784872757690310e-01 -2.679865738667161e-17

-2.818983852719570e-17  1.461460607100566e-19  9.651318583782602e-01
 1.461460607100566e-19 -2.073666519569838e-17  3.810517398069510e-01
 9.651318583782602e-01  3.810517398069510e-01 -2.612784866320441e-17

-2.844215165863685e-17  1.426390907817534e-19  9.893082910722616e-01
 1.426390907817534e-19 -2.050428016560851e-17  3.863546161242912e-01
 9.893082910722616e-01  3.863546161242912e-01 -2.699771708839694e-17

-2.755779973305146e-17  1.934668872316545e-19  9.486704633597841e-01
 1.934668872316545e-19 -1.960606226666429e-17  3.872131015154268e-01
 9.486704633597841e-01  3.872131015154268e-01 -2.549643880318006e-17

-2.560319386194739e-17  1.056061584129857e-19  8.349569577599043e-01
 1.056061584129857e-19 -1.822579627898053e-17  3.975253791354970e-01
 8.349569577599043e-01  3.975253791354970e-01 -2.146758282497066e-17

-2.474308585633862e-17  1.407363074429631e-19  7.912400758908728e-01
 1.407363074429631e-19 -1.732369886207724e-17  4.088333384748336e-01
 7.912400758908728e-01  4.088333384748336e-01 -1.989112389153199e-17

-2.481735195973324e-17  1.768168304936554e-19  7.979252436358990e-01
 1.768168304936554e-19 -1.742864969912763e-17  4.032014312119367e-01
 7.979252436358990e-01  4.032014312119367e-01 -2.013884715740803e-17

-2.562072116739185e-17  2.166855054519758e-19  8.476256744066776e-01
 2.166855054519758e-19 -1.846650797495526e-17  3.755773515225340e-01
 8.476256744066776e-01  3.755773515225340e-01 -2.191928270505074e-17

-2.749453720212630e-17  1.412236884037297e-19  9.524366943613968e-01
 1.412236884037297e-19 -1.968413339676342e-17  3.756953224551632e-01
 9.524366943613968e-01  3.756953224551632e-01 -2.594624940912719e-17

-2.767707470179092e-17  2.353947483977055e-19  9.651402305363003e-01
 2.353947483977055e-19 -1.995012826260532e-17  3.687833127039100e-01
 9.651402305363003e-01  3.687833127039100e-01 -2.630668720630088e-17

-2.622942976608026e-17  2.202952868941766e-19  8.725615021856779e-01
 2.202952868941766e-19 -1.945586203671978e-17  3.668874525952013e-01
 8.725615021856779e-01  3.668874525952013e-01 -2.302405040624702e-17

-2.625479563038965e-17  3.056640530257191e-19  8.746588312106299e-01
 3.056640530257191e-19 -1.945567713425481e-17  3.649588082883447e-01
 8.746588312106299e-01  3.649588082883447e-01 -2.308251816027829e-17

-2.779609792842876e-17  2.976580681994567e-19  9.627543847356954e-01
 2.976580681994567e-19 -1.998541966067567e-17  3.788336521592565e-01
 9.627543847356954e-01  3.788336521592565e-01 -2.641433022819613e-17

-2.759222697916634e-17  3.748161451780753e-19  9.535474100506856e-01
 3.748161451780753e-19 -1.970237578869142e-17  3.833252296238697e-01
 9.535474100506856e-01  3.833252296238697e-01 -2.597340315400242e-17

-2.563113677299593e-17  2.766464853062465e-19  8.279588722471558e-01
 2.766464853062465e-19 -1.888302983737581e-17  3.886899056519849e-01
 8.279588722471558e-01  3.886899056519849e-01 -2.150512194233987e-17

-2.598908185231630e-17  4.434680383350911e-19  8.527525119267393e-01
 4.434680383350911e-19 -1.923412096797701e-17  3.749985116641272e-01
 8.527525119267393e-01  3.749985116641272e-01 -2.220198193817988e-17

-2.885870615464746e-17  3.115603645424827e-19  1.011042481630458e+00
 3.115603645424827e-19 -2.067949438656748e-17  3.964464583276498e-01
 1.011042481630458e+00  3.964464583276498e-01 -2.839560996990887e-17

-2.916283945657000e-17  4.756371032222425e-19  1.032149740911557e+00
 4.756371032222425e-19 -2.094774002145162e-17  3.887063713644052e-01
 1.032149740911557e+00  3.887063713644052e-01 -2.893450829165766e-17

-2.690786449315637e-17  3.481326117307096e-19  8.860506336539011e-01
 3.481326117307096e-19 -1.998042270948331e-17  3.945043322315476e-01
 8.860506336539011e-01  3.945043322315476e-01 -2.367457007583779e-17

-2.715191273886182e-17  5.048389708179653e-19  9.011717326324113e-01
 5.048389708179653e-19 -2.007547764750447e-17  3.900359075597181e-01
 9.011717326324113e-01  3.900359075597181e-01 -2.402305623795451e-17

-3.000674659091529e-17  3.704166242630240e-19  1.057064948681310e+00
 3.704166242630240e-19 -2.143053718601683e-17  4.159158180157683e-01
 1.057064948681310e+00  4.159158180157683e-01 -3.008368365520988e-17

-3.047589628799771e-17  3.588295713574365e-19  1.089142768700541e+00
 3.588295713574365e-19 -2.173035436731574e-17  4.139756266350369e-01
 1.089142768700541e+00  4.139756266350369e-01 -3.097292488979661e-17

-2.837904289098656e-17  9.575658127274955e-20  9.660790536541868e-01
 9.575658127274955e-20 -2.063628809489201e-17  4.216583577177686e-01
 9.660790536541868e-01  4.216583577177686e-01 -2.622412107828668e-17

-2.783556791978045e-17  2.711467588708375e-20  9.449157159035785e-01
 2.711467588708375e-20 -2.014229347696918e-17  4.307464305350648e-01
 9.449157159035785e-01  4.307464305350648e-01 -2.523705393009719e-17

-2.886825521323653e-17 -8.296341843939196e-20  1.010257537403414e+00
-8.296341843939196e-20 -2.048884680311196e-17  4.481821158436596e-01
 1.010257537403414e+00  4.481821158436596e-01 -2.773610688126002e-17

-2.855087251839889e-17 -7.805736817060250e-20  9.977037850445263e-01
-7.805736817060250e-20 -2.030187858319640e-17  4.486397918475187e-01
 9.977037850445263e-01  4.486397918475187e-01 -2.726038463144276e-17

-2.700673096207777e-17 -9.166233432528375e-20  9.054853698606624e-01
-9.166233432528375e-20 -1.973846840350013e-17  4.407216312644573e-01
 9.054853698606624e-01  4.407216312644573e-01 -2.389364903514971e-17

-2.728070355571658e-17 -8.341543394546097e-21  9.257256193999625e-01
-8.341543394546097e-21 -2.013451388643394e-17  4.303294745727022e-01
 9.257256193999625e-01  4.303294745727022e-01 -2.451848883124337e-17

-2.951886555665175e-17 -1.454915524764060e-19  1.047950594660279e+00
-1.454915524764060e-19 -2.150258289014328e-17  4.473050013584671e-01
 1.047950594660279e+00  4.473050013584671e-01 -2.945444779592670e-17

-2.982308970277188e-17 -3.612095906834132e-20  1.065524378400880e+00
-3.612095906834132e-20 -2.185484469187110e-17  4.431217003114477e-01
 1.065524378400880e+00  4.431217003114477e-01 -3.002061921423010e-17

-2.817468944843015e-17 -2.945485998028551e-20  9.621137619031727e-01
-2.945485998028551e-20 -2.138013599890927e-17  4.327788281967944e-01
 9.621137619031727e-01  4.327788281967944e-01 -2.616606526299960e-17

-2.862906588258472e-17  5.979556367036311e-20  9.896588911827712e-01
 5.979556367036311e-20 -2.194877867904659e-17  4.267340236508044e-01
 9.896588911827712e-01  4.267340236508044e-01 -2.703241457035724e-17

-3.135989991582650e-17 -9.895693916912853e-20  1.135586057509294e+00
-9.895693916912853e-20 -2.399108363681589e-17  4.418993664851510e-01
 1.135586057509294e+00  4.418993664851510e-01 -3.308060855827935e-17

-3.241017270892724e-17  6.378063843559862e-20  1.195540379609305e+00
 6.378063843559862e-20 -2.527910934299851e-17  4.165786523151165e-01
 1.195540379609305e+00  4.165786523151165e-01 -3.538273896407319e-17

-3.206106957919742e-17  2.034415929957938e-19  1.173695959495854e+00
 2.034415929957938e-19 -2.491949255614428e-17  4.099042450098777e-01
 1.173695959495854e+00  4.099042450098777e-01 -3.457095075679269e-17

-3.064879626132169e-17  2.483433532614315e-19  1.097501736592611e+00
 2.483433532614315e-19 -2.307950918939713e-17  4.303141106354613e-01
 1.097501736592611e+00  4.303141106354613e-01 -3.155544276812627e-17

-2.781129376719757e-17  8.619298816764108e-21  9.323045988262586e-01
 8.619298816764108e-21 -2.103257831492227e-17  4.428778422923919e-01
 9.323045988262586e-01  4.428778422923919e-01 -2.532102233103705e-17

-2.750729156082985e-17  1.010767406261575e-19  9.313329365810328e-01
 1.010767406261575e-19 -2.083759699117159e-17  4.256347995056000e-01
 9.313329365810328e-01  4.256347995056000e-01 -2.499609862793505e-17

-2.983661558306590e-17 -2.997852999137725e-20  1.069079476946769e+00
-2.997852999137725e-20 -2.192434840276550e-17  4.433986168134206e-01
 1.069079476946769e+00  4.433986168134206e-01 -3.044856001968239e-17

-2.961321425851697e-17  1.575378072678200e-19  1.066872249314007e+00
 1.575378072678200e-19 -2.183617112127464e-17  4.220504383131967e-01
 1.066872249314007e+00  4.220504383131967e-01 -3.022803536619304e-17

-2.702106069037054e-17  2.914415725986297e-20  9.092814391759236e-01
 2.914415725986297e-20 -2.046849131303755e-17  4.205669387320506e-01
 9.092814391759236e-01  4.205669387320506e-01 -2.454326828099255e-17

-2.658619672999527e-17  1.388153619030184e-19  8.923201505840181e-01
 1.388153619030184e-19 -2.009294071814592e-17  4.158970382765527e-01
 8.923201505840181e-01  4.158970382765527e-01 -2.380511368576798e-17

-2.824943947904175e-17  1.175184785525714e-19  9.891542072539682e-01
 1.175184785525714e-19 -2.084407453706593e-17  4.283547773599369e-01
 9.891542072539682e-01  4.283547773599369e-01 -2.760654477720135e-17

-2.839946838049930e-17  2.589313225535121e-19  9.980776018069798e-01
 2.589313225535121e-19 -2.110820877444839e-17  4.178498189660233e-01
 9.980776018069798e-01  4.178498189660233e-01 -2.798829694445396e-17

-2.717208788493629e-17  3.028702504775756e-19  9.156962549754394e-01
 3.028702504775756e-19 -2.077421311321370e-17  4.095892498528526e-01
 9.156962549754394e-01  4.095892498528526e-01 -2.506638754206777e-17

-2.766113855532157e-17  4.299697607526994e-19  9.402643306735758e-01
 4.299697607526994e-19 -2.127552392418185e-17  4.025238144028587e-01
 9.402643306735758e-01  4.025238144028587e-01 -2.593273594561963e-17

-3.003503616374826e-17  4.134691916447483e-19  1.065177746760165e+00
 4.134691916447483e-19 -2.284144806383787e-17  4.128111772260981e-01
 1.065177746760165e+00  4.128111772260981e-01 -3.090025322256188e-17

-3.117331116854101e-17  5.045038149297772e-19  1.125186584712107e+00
 5.045038149297772e-19 -2.398117457829828e-17  3.989955339711382e-01
 1.125186584712107e+00  3.989955339711382e-01 -3.321677551720168e-17

-3.109249968010412e-17  5.136270429806832e-19  1.117098164273147e+00
 5.136270429806832e-19 -2.380161291310076e-17  4.051032283685100e-01
 1.117098164273147e+00  4.051032283685100e-01 -3.286674231880745e-17

-2.998072207885641e-17  4.811663490771041e-19  1.056837357218709e+00
 4.811663490771041e-19 -2.238117411415683e-17  4.328337906417432e-01
 1.056837357218709e+00  4.328337906417432e-01 -3.039417411709717e-17

-2.770008960377874e-17  3.112697461070498e-19  9.200821836317997e-01
 3.112697461070498e-19 -2.093919090130329e-17  4.441497801940643e-01
 9.200821836317997e-01  4.441497801940643e-01 -2.526106927403806e-17

-2.803086441428635e-17  4.603277979003066e-19  9.468047784279655e-01
 4.603277979003066e-19 -2.133531963415358e-17  4.262926048346458e-01
 9.468047784279655e-01  4.262926048346458e-01 -2.603479119276688e-17

-3.119113674085473e-17  3.008821121538250e-19  1.120716387328145e+00
 3.008821121538250e-19 -2.312461776622114e-17  4.536478132104814e-01
 1.120716387328145e+00  4.536478132104814e-01 -3.303502803561047e-17

-3.146472516553593e-17  4.219071855548794e-19  1.141787984944763e+00
 4.219071855548794e-19 -2.350600473816151e-17  4.435291910239888e-01
 1.141787984944763e+00  4.435291910239888e-01 -3.362188089780785e-17

-2.891957099518518e-17  2.729705377553677e-19  9.834520625241920e-01
 2.729705377553677e-19 -2.241954094712544e-17  4.381001362632427e-01
 9.834520625241920e-01  4.381001362632427e-01 -2.772761947614862e-17

-2.930781720704759e-17  4.561842215017759e-19  1.009289161028156e+00
 4.561842215017759e-19 -2.288446439124950e-17  4.214576503287883e-01
 1.009289161028156e+00  4.214576503287883e-01 -2.854282545218891e-17

-3.284723547475744e-17  3.064730916107830e-19  1.201653436419719e+00
 3.064730916107830e-19 -2.490736967211654e-17  4.529841676510818e-01
 1.201653436419719e+00  4.529841676510818e-01 -3.647318621942148e-17

-3.305592606757104e-17  4.527511052270530e-19  1.225622425542286e+00
 4.527511052270530e-19 -2.511117396475595e-17  4.334865197271349e-01
 1.225622425542286e+00  4.334865197271349e-01 -3.704906303181656e-17

-2.991855360545635e-17  1.847143785615591e-19  1.044708930070890e+00
 1.847143785615591e-19 -2.288104026471160e-17  4.421062440706888e-01
 1.044708930070890e+00  4.421062440706888e-01 -2.996366926338484e-17

-2.820495251608838e-17  1.995471175881930e-19  9.555172628460114e-01
 1.995471175881930e-19 -2.103770161958964e-17  4.648242449701098e-01
 9.555172628460114e-01  4.648242449701098e-01 -2.646341594611391e-17

-2.763278167932723e-17  2.548544979682503e-19  9.256998434759101e-01
 2.548544979682503e-19 -2.072700100753105e-17  4.582781718671217e-01
 9.256998434759101e-01  4.582781718671217e-01 -2.532229656683086e-17

-2.878398032287456e-17  3.355826722061560e-19  9.955014140203707e-01
 3.355826722061560e-19 -2.213978498883976e-17  4.243604580724357e-01
 9.955014140203707e-01  4.243604580724357e-01 -2.787881581675103e-17

-3.208487111055714e-17  1.510886571453435e-19  1.175979615100445e+00
 1.510886571453435e-19 -2.427430605213779e-17  4.446006801470382e-01
 1.175979615100445e+00  4.446006801470382e-01 -3.525510149908407e-17

-3.191886062070302e-17  3.513949931329235e-19  1.178452766700337e+00
 3.513949931329235e-19 -2.427610589704377e-17  4.268952944744276e-01
 1.178452766700337e+00  4.268952944744276e-01 -3.500294685149612e-17

-2.842848828996461e-17  1.136413196524425e-19  9.658664300791993e-01
 1.136413196524425e-19 -2.232053446310531e-17  4.318176654852066e-01
 9.658664300791993e-01  4.318176654852066e-01 -2.713666108941105e-17

-2.795607057083178e-17  3.368350798321418e-19  9.462562719523203e-01
 3.368350798321418e-19 -2.197439540671246e-17  4.188175366083602e-01
 9.462562719523203e-01  4.188175366083602e-01 -2.630935868726058e-17

-3.044071182407499e-17  3.447661731334723e-19  1.085480468707883e+00
 3.447661731334723e-19 -2.326409415252197e-17  4.314353929171260e-01
 1.085480468707883e+00  4.314353929171260e-01 -3.185395850137515e-17

-3.105134377780718e-17  4.638820545618833e-19  1.123473904516297e+00
 4.638820545618833e-19 -2.398183004596992e-17  4.076923491715487e-01
 1.123473904516297e+00  4.076923491715487e-01 -3.326773867986539e-17

-2.990516801666277e-17  4.554324703109935e-19  1.055108343709090e+00
 4.554324703109935e-19 -2.323373854061802e-17  4.025958723331869e-01
 1.055108343709090e+00  4.025958723331869e-01 -3.069117997532763e-17

-2.891764507227021e-17  4.753195401114523e-19  1.002025899133582e+00
 4.753195401114523e-19 -2.200379538216508e-17  4.169145543888086e-01
 1.002025899133582e+00  4.169145543888086e-01 -2.862181043398522e-17

-2.786331737351707e-17  4.129683581031090e-19  9.427707157969112e-01
 4.129683581031090e-19 -2.117688683302443e-17  4.193823828188969e-01
 9.427707157969112e-01  4.193823828188969e-01 -2.635805632040505e-17

-2.788544162497280e-17  4.127399586480968e-19  9.505988190050461e-01
 4.127399586480968e-19 -2.130074734526248e-17  4.085744134926514e-01
 9.505988190050461e-01  4.085744134926514e-01 -2.659280033424197e-17

-2.916785620008912e-17  4.437206189378433e-19  1.027634567818842e+00
 4.437206189378433e-19 -2.187184001985631e-17  4.129199803444311e-01
 1.027634567818842e+00  4.129199803444311e-01 -2.952219116253740e-17

-2.888557950837816e-17  5.342302216063837e-19  1.014265013807308e+00
 5.342302216063837e-19 -2.159917100508556e-17  4.084635788310513e-01
 1.014265013807308e+00  4.084635788310513e-01 -2.901221904823205e-17

-2.704778298663840e-17  3.894418997406922e-19  8.989788932355905e-01
 3.894418997406922e-19 -2.064959557762825e-17  4.117375234034982e-01
 8.989788932355905e-01  4.117375234034982e-01 -2.481902189316692e-17

-2.714677704436868e-17  4.504498011229317e-19  9.097702172806682e-01
 4.504498011229317e-19 -2.083529846924470e-17  4.018919173209882e-01
 9.097702172806682e-01  4.018919173209882e-01 -2.507598139418356e-17

-2.928519078898052e-17  3.962841259386779e-19  1.031412371615960e+00
 3.962841259386779e-19 -2.200558015479492e-17  4.152468095035776e-01
 1.031412371615960e+00  4.152468095035776e-01 -2.977427242120567e-17

-2.952172931105018e-17  5.180458179575209e-19  1.045670962761425e+00
 5.180458179575209e-19 -2.241856920562120e-17  4.032598024473831e-01
 1.045670962761425e+00  4.032598024473831e-01 -3.031461638628116e-17

-2.806345451104120e-17  4.772026614728671e-19  9.484733891162779e-01
 4.772026614728671e-19 -2.189267573353169e-17  3.980721768051426e-01
 9.484733891162779e-01  3.980721768051426e-01 -2.686063104373401e-17

-2.844579518947769e-17  5.503717256915972e-19  9.689248494612724e-01
 5.503717256915972e-19 -2.220317880602075e-17  3.897006988744212e-01
 9.689248494612724e-01  3.897006988744212e-01 -2.757444193154821e-17

-3.067076318206795e-17  4.837465635216831e-19  1.095749180267318e+00
 4.837465635216831e-19 -2.319769052904215e-17  4.078187770813803e-01
 1.095749180267318e+00  4.078187770813803e-01 -3.239215475227057e-17

-3.029457891720381e-17  4.956392486197101e-19  1.084065038343792e+00
 4.956392486197101e-19 -2.287296287412987e-17  4.044758766327270e-01
 1.084065038343792e+00  4.044758766327270e-01 -3.166776752464539e-17

-2.746380354451979e-17  2.293314592327320e-19  9.132053621833074e-01
 2.293314592327320e-19 -2.132210720619146e-17  4.137900941827621e-01
 9.132053621833074e-01  4.137900941827621e-01 -2.536419312513906e-17

-2.716871094383166e-17  3.655147335174497e-19  9.051702304945082e-01
 3.655147335174497e-19 -2.123472147924799e-17  3.981175597255612e-01
 9.051702304945082e-01  3.981175597255612e-01 -2.496707928585346e-17

-2.944218156351095e-17  3.357412145154427e-19  1.037080514241675e+00
 3.357412145154427e-19 -2.235625418263639e-17  4.079360548650537e-01
 1.037080514241675e+00  4.079360548650537e-01 -3.007553826870044e-17

-2.960382503477557e-17  4.368169070661025e-19  1.053089750629910e+00
 4.368169070661025e-19 -2.272064107622218e-17  3.867621310663001e-01
 1.053089750629910e+00  3.867621310663001e-01 -3.060899434319073e-17

-2.785146312793035e-17  3.727190413677618e-19  9.464460018795225e-01
 3.727190413677618e-19 -2.173184256342386e-17  3.875769317421900e-01
 9.464460018795225e-01  3.875769317421900e-01 -2.677577555894564e-17

-2.700283671194507e-17  4.374037453382028e-19  8.983874219067319e-01
 4.374037453382028e-19 -2.080799216607030e-17  3.998456348648811e-01
 8.983874219067319e-01  3.998456348648811e-01 -2.503702600774961e-17

-2.683507078439920e-17  4.683566782111472e-19  8.869413539784227e-01
 4.683566782111472e-19 -2.076312461455924e-17  3.961719087943092e-01
 8.869413539784227e-01  3.961719087943092e-01 -2.464898306998787e-17

-2.751867610094411e-17  4.938179546722437e-19  9.265789151199892e-01
 4.938179546722437e-19 -2.169718949167829e-17  3.748970136480665e-01
 9.265789151199892e-01  3.748970136480665e-01 -2.617832401668766e-17

-2.939272754880205e-17  5.562020346721460e-19  1.030932806211545e+00
 5.562020346721460e-19 -2.282885291217498e-17  3.765743108694570e-01
 1.030932806211545e+00  3.765743108694570e-01 -3.025164093838700e-17

-2.936162022500876e-17  7.686632155626385e-19  1.028474948516267e+00
 7.686632155626385e-19 -2.281262368340737e-17  3.643366069754595e-01
 1.028474948516267e+00  3.643366069754595e-01 -3.018603455969500e-17

-2.743676845383559e-17  6.188645852077921e-19  9.028551120716197e-01
 6.188645852077921e-19 -2.150639696903227e-17  3.787032335970263e-01
 9.028551120716197e-01  3.787032335970263e-01 -2.561042723599257e-17

-2.696417962542952e-17  6.327128489609886e-19  8.773885268858789e-01
 6.327128489609886e-19 -2.082230217296368e-17  3.887213634930838e-01
 8.773885268858789e-01  3.887213634930838e-01 -2.449889791717517e-17

-2.774744394825334e-17  5.973681886786787e-19  9.251109708996449e-01
 5.973681886786787e-19 -2.110503708286200e-17  3.942145802550844e-01
 9.251109708996449e-01  3.942145802550844e-01 -2.612566156060220e-17

-2.811513115393957e-17  5.250358225821777e-19  9.479817436471040e-01
 5.250358225821777e-19 -2.165259027721337e-17  3.860684772376148e-01
 9.479817436471040e-01  3.860684772376148e-01 -2.696822345270823e-17

-2.834602060323324e-17  5.450381708887210e-19  9.599719985294738e-01
 5.450381708887210e-19 -2.184907994301470e-17  3.873209291446302e-01
 9.599719985294738e-01  3.873209291446302e-01 -2.746038433328770e-17

-2.793010054815297e-17  6.058430314851873e-19  9.324896265607496e-01
 6.058430314851873e-19 -2.143718906132111e-17  3.974365724356001e-01
 9.324896265607496e-01  3.974365724356001e-01 -2.651843122660197e-17

-2.680984500327850e-17  5.649940966298014e-19  8.545919325858566e-01
 5.649940966298014e-19 -2.101377067449861e-17  4.014501986921042e-01
 8.545919325858566e-01  4.014501986921042e-01 -2.376603007771345e-17

-2.748374988954340e-17  6.611263833526341e-19  8.898033897127132e-01
 6.611263833526341e-19 -2.178140372159906e-17  3.882395274352454e-01
 8.898033897127132e-01  3.882395274352454e-01 -2.498544868834146e-17

-3.019696160674993e-17  5.987195066739708e-19  1.033243513917442e+00
 5.987195066739708e-19 -2.344338240933985e-17  4.037269477413389e-01
 1.033243513917442e+00  4.037269477413389e-01 -3.058262493791609e-17

-3.093783512384999e-17  6.759163482047607e-19  1.069171502858339e+00
 6.759163482047607e-19 -2.421662625670463e-17  3.978937430569537e-01
 1.069171502858339e+00  3.978937430569537e-01 -3.187555106658536e-17

-2.959871643387270e-17  5.152837069471475e-19  9.771757085343344e-01
 5.152837069471475e-19 -2.383816992853548e-17  4.012206284673256e-01
 9.771757085343344e-01  4.012206284673256e-01 -2.845908384847337e-17

-2.984672907900447e-17  4.958050498297640e-19  9.896569156191696e-01
 4.958050498297640e-19 -2.421691543332444e-17  4.020673808315937e-01
 9.896569156191696e-01  4.020673808315937e-01 -2.882376791701631e-17

-3.183876973720883e-17  4.513455332981972e-19  1.098567642929862e+00
 4.513455332981972e-19 -2.539871752240777e-17  4.189564116863886e-01
 1.098567642929862e+00  4.189564116863886e-01 -3.308578899421348e-17

-3.189452940530331e-17  5.706800956536146e-19  1.099665978747222e+00
 5.706800956536146e-19 -2.560278644021527e-17  4.103246675780832e-01
 1.099665978747222e+00  4.103246675780832e-01 -3.313741811812241e-17

-3.010438885244660e-17  4.518010236042399e-19  9.830877736528304e-01
 4.518010236042399e-19 -2.473962569464983e-17  4.098845185380082e-01
 9.830877736528304e-01  4.098845185380082e-01 -2.886312016716172e-17

-3.012261533394685e-17  4.742843089480679e-19  9.846671788670371e-01
 4.742843089480679e-19 -2.486336930347638e-17  4.029507651770169e-01
 9.846671788670371e-01  4.029507651770169e-01 -2.883540853892296e-17

-3.194087368750246e-17  4.386591841235749e-19  1.088942586693564e+00
 4.386591841235749e-19 -2.579574840565733e-17  4.151061240694283e-01
 1.088942586693564e+00  4.151061240694283e-01 -3.282163391419089e-17

-3.154925830796791e-17  5.604885067732264e-19  1.069679100722539e+00
 5.604885067732264e-19 -2.570485456053668e-17  4.027190568910339e-01
 1.069679100722539e+00  4.027190568910339e-01 -3.207541462182166e-17

-2.927543338085769e-17  4.942259904759408e-19  9.224879304205381e-01
 4.942259904759408e-19 -2.456784261672413e-17  4.041460250757104e-01
 9.224879304205381e-01  4.041460250757104e-01 -2.687158681243856e-17

-2.916279102799296e-17  6.892646547300954e-19  9.109337952189945e-01
 6.892646547300954e-19 -2.461503866404352e-17  3.912138006820589e-01
 9.109337952189945e-01  3.912138006820589e-01 -2.654343665305486e-17

-3.119270638623015e-17  7.661864970961180e-19  1.017508996199920e+00
 7.661864970961180e-19 -2.584605254931685e-17  3.889332490600530e-01
 1.017508996199920e+00  3.889332490600530e-01 -3.069268220420807e-17

-3.213164275251616e-17  7.901252419760058e-19  1.064780352043270e+00
 7.901252419760058e-19 -2.692496547650173e-17  3.650102705294844e-01
 1.064780352043270e+00  3.650102705294844e-01 -3.251352873749382e-17

-3.206353270901078e-17  8.620162026199548e-19  1.060155260574023e+00
 8.620162026199548e-19 -2.672530586392671e-17  3.609529319509593e-01
 1.060155260574023e+00  3.609529319509593e-01 -3.223373456130189e-17

-3.034283033707398e-17  1.013484945991668e-18  9.649025813361991e-01
 1.013484945991668e-18 -2.494647944886957e-17  3.755546644196772e-01
 9.649025813361991e-01  3.755546644196772e-01 -2.859044309405646e-17

-2.702057291126880e-17  7.808229860749705e-19  7.489099866097052e-01
 7.808229860749705e-19 -2.269773742573228e-17  4.132785727285307e-01
 7.489099866097052e-01  4.132785727285307e-01 -2.088464038238745e-17

-2.703362688093529e-17  1.116349440711935e-18  7.536307397066453e-01
 1.116349440711935e-18 -2.307986480522158e-17  3.772609083791716e-01
 7.536307397066453e-01  3.772609083791716e-01 -2.093042281801052e-17

-3.047256694544194e-17  1.024262216346600e-18  9.404459067667456e-01
 1.024262216346600e-18 -2.484989092088174e-17  3.926591568462160e-01
 9.404459067667456e-01  3.926591568462160e-01 -2.809551621500754e-17

-3.110407456829590e-17  1.219099579288530e-18  9.691034405173452e-01
 1.219099579288530e-18 -2.580090441925658e-17  3.696207402891356e-01
 9.691034405173452e-01  3.696207402891356e-01 -2.906180967085935e-17

-2.909441500464298e-17  1.105594304132957e-18  8.179853465326622e-01
 1.105594304132957e-18 -2.540676725125848e-17  3.762109606882288e-01
 8.179853465326622e-01  3.762109606882288e-01 -2.384750708119023e-17

-2.966696865522754e-17  1.339852616826726e-18  8.365303611168849e-01
 1.339852616826726e-18 -2.622014735756268e-17  3.604145730261634e-01
 8.365303611168849e-01  3.604145730261634e-01 -2.448282595414566e-17

-3.301716892836864e-17  1.271248714748481e-18  1.006327718372186e+00
 1.271248714748481e-18 -2.827309513854663e-17  3.765966913246364e-01
 1.006327718372186e+00  3.765966913246364e-01 -3.109987584850140e-17

-3.375835997208990e-17  1.490767044990706e-18  1.033393570679869e+00
 1.490767044990706e-18 -2.928412321146220e-17  3.604895801088809e-01
 1.033393570679869e+00  3.604895801088809e-01 -3.203321870014398e-17

-3.200702685719651e-17  1.470387387831997e-18  8.957957449588914e-01
 1.470387387831997e-18 -2.875537011138011e-17  3.711093099850123e-01
 8.957957449588914e-01  3.711093099850123e-01 -2.721180891803320e-17

-3.219104376931992e-17  1.684510855450997e-18  8.840130257347835e-01
 1.684510855450997e-18 -2.903004716437979e-17  3.715758029499904e-01
 8.840130257347835e-01  3.715758029499904e-01 -2.685030204282281e-17

-3.423776941917749e-17  1.797683523349379e-18  9.789907583038071e-01
 1.797683523349379e-18 -3.015326529267821e-17  3.830079259187215e-01
 9.789907583038071e-01  3.830079259187215e-01 -3.043208413060916e-17

-3.453285245610966e-17  1.934368437501130e-18  9.729817709564150e-01
 1.934368437501130e-18 -3.057027723136974e-17  3.851178710334832e-01
 9.729817709564150e-01  3.851178710334832e-01 -3.017390737228050e-17

-3.305637968166759e-17  1.942134771073962e-18  8.491615737561574e-01
 1.942134771073962e-18 -3.026687325069007e-17  3.967512403807352e-01
 8.491615737561574e-01  3.967512403807352e-01 -2.581320362571627e-17

-3.351447556767919e-17  2.166186497976575e-18  8.488959351832271e-01
 2.166186497976575e-18 -3.118872527718401e-17  3.877435682535824e-01
 8.488959351832271e-01  3.877435682535824e-01 -2.589097433037989e-17

-3.605088038041036e-17  2.226411827974891e-18  9.600693450411860e-01
 2.226411827974891e-18 -3.307974654087035e-17  3.985997756095347e-01
 9.600693450411860e-01  3.985997756095347e-01 -3.033978379279657e-17

-3.681941709430687e-17  2.559360820409810e-18  9.654152680248087e-01
 2.559360820409810e-18 -3.425426036710856e-17  3.892670000587548e-01
 9.654152680248087e-01  3.892670000587548e-01 -3.074430839475362e-17

-3.589914948322017e-17  2.839602766954439e-18  8.534328038277165e-01
 2.839602766954439e-18 -3.432146553212770e-17  4.045804661451118e-01
 8.534328038277165e-01  4.045804661451118e-01 -2.703797836848785e-17

-3.609517920945883e-17  3.205398067074957e-18  8.077349434367513e-01
 3.205398067074957e-18 -3.478125829225613e-17  4.313071931874357e-01
 8.077349434367513e-01  4.313071931874357e-01 -2.568761539864869e-17

-3.720607356121083e-17  3.567807150579698e-18  8.066955713326741e-01
 3.567807150579698e-18 -3.663577609938229e-17  4.292895308877085e-01
 8.066955713326741e-01  4.292895308877085e-01 -2.592390333653125e-17

-4.002385509317132e-17  3.755916116210651e-18  9.016905350312445e-01
 3.755916116210651e-18 -4.037136543018838e-17  4.011825593019580e-01
 9.016905350312445e-01  4.011825593019580e-01 -2.958935646737615e-17

-4.513044323640045e-17  3.365730441359621e-18  1.105450831898690e+00
 3.365730441359621e-18 -4.546926391963628e-17  4.231500621592976e-01
 1.105450831898690e+00  4.231500621592976e-01 -3.829816729822407e-17

-4.749787701077644e-17  3.748641347633566e-18  1.160049791320499e+00
 3.748641347633566e-18 -4.876621228239860e-17  4.211486868812230e-01
 1.160049791320499e+00  4.211486868812230e-01 -4.052656867356232e-17

-4.685600417575652e-17  4.268523967441650e-18  1.019188349679608e+00
 4.268523967441650e-18 -5.026902056579240e-17  4.226711847947268e-01
 1.019188349679608e+00  4.226711847947268e-01 -3.573097265453269e-17

-4.828182167145046e-17  4.770042663398188e-18  9.978221929650897e-01
 4.770042663398188e-18 -5.298390136768032e-17  4.325385671594504e-01
 9.978221929650897e-01  4.325385671594504e-01 -3.549642208951024e-17

-5.181106329336322e-17  5.004567954959875e-18  1.080528146440659e+00
 5.004567954959875e-18 -5.753807876110378e-17  4.428880421444562e-01
 1.080528146440659e+00  4.428880421444562e-01 -3.959261275598693e-17

-5.485555373087460e-17  5.611903143317910e-18  1.118903645250403e+00
 5.611903143317910e-18 -6.245373767893102e-17  4.211447969518890e-01
 1.118903645250403e+00  4.211447969518890e-01 -4.200168359721153e-17

-5.764542612527077e-17  6.479959114148959e-18  1.122730701890096e+00
 6.479959114148959e-18 -6.684533596691331e-17  4.165878995733150e-01
 1.122730701890096e+00  4.165878995733150e-01 -4.314613084325892e-17

-5.979676566085767e-17  7.987547785943941e-18  1.063079003084786e+00
 7.987547785943941e-18 -7.041486207714236e-17  4.259864391018108e-01
 1.063079003084786e+00  4.259864391018108e-01 -4.196375303342290e-17

-6.123242695582671e-17  1.000274085392803e-17  9.206214127918596e-01
 1.000274085392803e-17 -7.402734801170642e-17  4.316560159462970e-01
 9.206214127918596e-01  4.316560159462970e-01 -3.807665909604741e-17

-6.511583478118740e-17  1.189310592999290e-17  8.983929589336340e-01
 1.189310592999290e-17 -8.044905269350339e-17  4.226792329906155e-01
 8.983929589336340e-01  4.226792329906155e-01 -3.877870074204746e-17

-7.144180943012441e-17  1.333998189940581e-17  9.785507072070079e-01
 1.333998189940581e-17 -8.950114768633680e-17  4.257591199677107e-01
 9.785507072070079e-01  4.257591199677107e-01 -4.371065788740161e-17

-7.623586741247302e-17  1.483573764953275e-17  9.928561099682440e-01
 1.483573764953275e-17 -9.688494780080425e-17  4.093886604208304e-01
 9.928561099682440e-01  4.093886604208304e-01 -4.679245537030942e-17

-8.266018541315347e-17  1.835667252496221e-17  9.422038350641735e-01
 1.835667252496221e-17 -1.069773328698777e-16  4.057394025756655e-01
 9.422038350641735e-01  4.057394025756655e-01 -4.754512018518414e-17

-9.033461039890148e-17  2.327225297745813e-17  9.128370989926000e-01
 2.327225297745813e-17 -1.172478085904013e-16  4.175461382136632e-01
 9.128370989926000e-01  4.175461382136632e-01 -4.967118698763534e-17

-1.005138876516514e-16  2.834627956596417e-17  8.949249355048920e-01
 2.834627956596417e-17 -1.325094238208321e-16  4.150013323738575e-01
 8.949249355048920e-01  4.150013323738575e-01 -5.273111070208174e-17

-1.155390421376159e-16  3.390642496477773e-17  9.310024821712386e-01
 3.390642496477773e-17 -1.574521637395489e-16  3.996749914622335e-01
 9.310024821712386e-01  3.996749914622335e-01 -5.774945096385912e-17

-1.322971792910914e-16  3.906879302385752e-17  1.026829101223980e+00
 3.906879302385752e-17 -1.849014501731340e-16  4.066481259585588e-01
 1.026829101223980e+00  4.066481259585588e-01 -6.680857398736619e-17

-1.519355924345306e-16  4.837164253343134e-17  1.034269774858708e+00
 4.837164253343134e-17 -2.153653887901988e-16  4.031206028234349e-01
 1.034269774858708e+00  4.031206028234349e-01 -7.376476026864319e-17

-1.765989456195125e-16  6.416574371239324e-17  9.427928147471313e-01
 6.416574371239324e-17 -2.482585803961953e-16  4.028648826177475e-01
 9.427928147471313e-01  4.028648826177475e-01 -7.915636891314075e-17

-2.093237109431441e-16  8.289607564695991e-17  9.296566131816573e-01
 8.289607564695991e-17 -2.924661527042230e-16  4.055056692295849e-01
 9.296566131816573e-01  4.055056692295849e-01 -8.968365275610809e-17

-2.520393895328100e-16  1.045824471737570e-16  9.846444724134277e-01
 1.045824471737570e-16 -3.542030812256468e-16  4.160433109368572e-01
 9.846444724134277e-01  4.160433109368572e-01 -1.058169075095241e-16

-3.096268108230064e-16  1.384197163002890e-16  9.798379267124496e-01
 1.384197163002890e-16 -4.280270783494866e-16  4.198651515778561e-01
 9.798379267124496e-01  4.198651515778561e-01 -1.244348747682351e-16

-3.911073794699182e-16  1.917619359907978e-16  9.088238034828904e-01
 1.917619359907978e-16 -5.125970835945904e-16  4.162051612485665e-01
 9.088238034828904e-01  4.162051612485665e-01 -1.477926756292161e-16

-5.035678417296009e-16  2.581070486655143e-16  9.382486982788252e-01
 2.581070486655143e-16 -6.426913086105538e-16  4.061912342008670e-01
 9.382486982788252e-01  4.061912342008670e-01 -1.842202862058067e-16

-6.595790229441379e-16  3.385259447701464e-16  1.067225949360426e+00
 3.385259447701464e-16 -8.579026226800415e-16  4.237942336393248e-01
 1.067225949360426e+00  4.237942336393248e-01 -2.386155206643942e-16

-9.060565133158885e-16  4.822676416963553e-16  1.088237058762342e+00
 4.822676416963553e-16 -1.107248602818947e-15  4.260111020557650e-01
 1.088237058762342e+00  4.260111020557650e-01 -3.144564243182985e-16

-1.323174383338067e-15  7.365965186439019e-16  9.723730463687196e-01
 7.365965186439019e-16 -1.324647236775122e-15  4.307057454120479e-01
 9.723730463687196e-01  4.307057454120479e-01 -4.320991380140579e-16

-2.000121618074666e-15  1.092399853076109e-15  9.629925383292850e-01
 1.092399853076109e-15 -1.679524553081752e-15  4.333766265499424e-01
 9.629925383292850e-01  4.333766265499424e-01 -6.310653806271098e-16

-3.155278807002482e-15  1.594046825403458e-15  1.047999797176842e+00
 1.594046825403458e-15 -2.412968013671918e-15  4.483428419189451e-01
 1.047999797176842e+00  4.483428419189451e-01 -9.819762135885329e-16

-5.389183488628594e-15  2.340700835768967e-15  1.043891619798432e+00
 2.340700835768967e-15 -3.074661320232922e-15  4.390938492555833e-01
 1.043891619798432e+00  4.390938492555833e-01 -1.680523918405636e-15

-9.828988842069518e-15  3.087489270498020e-15  9.501245981474143e-01
 3.087489270498020e-15 -2.535313008890242e-15  4.295626641331415e-01
 9.501245981474143e-01  4.295626641331415e-01 -3.280057763049456e-15

-1.923590950198535e-14  2.535862208264709e-15  9.517101714669252e-01
 2.535862208264709e-15 -8.085253736294121e-16  4.251082780898683e-01
 9.517101714669252e-01  4.251082780898683e-01 -7.514589458665945e-15

-3.060778982218285e-14 -8.709612997045689e-15  1.038290111890135e+00
-8.709612997045689e-15  8.718496718072103e-15  4.345918674649671e-01
 1.038290111890135e+00  4.345918674649671e-01 -1.604902983131417e-14

 3.147316720313211e-13 -1.008326418791543e-13  1.057682333293848e+00
-1.008326418791543e-13  1.618863294623172e-13  4.265335551389327e-01
 1.057682333293848e+00  4.265335551389327e-01  9.063308215881816e-14

-2.742594248339882e-13  3.577605753460932e-14  1.006572050956177e+00
 3.577605753460932e-14 -1.422912394441665e-13  4.316144194970368e-01
 1.006572050956177e+00  4.316144194970368e-01 -5.719057773138231e-14

-2.607107186237208e-13  6.009449843780591e-14  9.543396260094897e-01
 6.009449843780591e-14 -1.346611993717947e-13  4.572380381789095e-01
 9.543396260094897e-01  4.572380381789095e-01 -5.889558303408291e-14

 3.377107959246050e-13 -5.465289433239784e-14  8.827889263575700e-01
-5.465289433239784e-14  1.649593150579460e-13  4.612218109980880e-01
 8.827889263575700e-01  4.612218109980880e-01  8.968643629300861e-14

-9.835033872711621e-15  2.327325537697766e-14  9.237374529964180e-01
 2.327325537697766e-14  2.604431202972974e-14  4.484841239927979e-01
 9.237374529964180e-01  4.484841239927979e-01 -1.743333553294644e-14

-1.310455212772461e-14  1.692343212478934e-14  1.069487838654043e+00
 1.692343212478934e-14  1.770108192885264e-14  4.692850419725859e-01
 1.069487838654043e+00  4.692850419725859e-01 -9.299139924005515e-15

-9.033480305574987e-15  6.919059559198672e-15  1.094581074945796e+00
 6.919059559198672e-15  8.948372374511084e-15  4.623381999311906e-01
 1.094581074945796e+00  4.623381999311906e-01 -4.411756614317125e-15

-5.501696664242462e-15  2.832809793315382e-15  9.843931486918172e-01
 2.832809793315382e-15  3.800360900962322e-15  4.509081778055426e-01
 9.843931486918172e-01  4.509081778055426e-01 -2.314586572926023e-15

-3.554699742069471e-15  1.102050140192300e-15  9.954367360533681e-01
 1.102050140192300e-15  1.793809550751430e-15  4.516586700228262e-01
 9.954367360533681e-01  4.516586700228262e-01 -1.362226148913028e-15

-2.384901267780434e-15  3.790181882798690e-16  1.112178742482073e+00
 3.790181882798690e-16  8.314856424896408e-16  4.782370463802478e-01
 1.112178742482073e+00  4.782370463802478e-01 -8.733049167080148e-16

-1.616387253467157e-15  1.540767193789069e-16  1.112315890491437e+00
 1.540767193789069e-16  3.180628089815236e-16  4.784649463426998e-01
 1.112315890491437e+00  4.784649463426998e-01 -5.889010941634750e-16

-1.130541017481993e-15  7.875388446594356e-17  9.800149269363487e-01
 7.875388446594356e-17  7.277652635054357e-17  4.663471348994213e-01
 9.800149269363487e-01  4.663471348994213e-01 -4.122956531032721e-16

-8.283672642177930e-16  3.300127792224166e-17  9.985476665569938e-01
 3.300127792224166e-17 -3.987866293028313e-17  4.585027317678816e-01
 9.985476665569938e-01  4.585027317678816e-01 -3.052640632465246e-16

-6.294695256446586e-16  1.121262498248536e-17  1.147646941690792e+00
 1.121262498248536e-17 -9.322987761277200e-17  4.897157733018037e-01
 1.147646941690792e+00  4.897157733018037e-01 -2.404942002903444e-16

-4.880049297300301e-16  6.346950882158696e-18  1.141045443952758e+00
 6.346950882158696e-18 -1.138354736964643e-16  4.851458935898066e-01
 1.141045443952758e+00  4.851458935898066e-01 -1.906546488994874e-16

-3.843803498860824e-16  3.730782293875592e-18  9.468638410595891e-01
 3.730782293875592e-18 -1.177437986769885e-16  4.753786225428597e-01
 9.468638410595891e-01  4.753786225428597e-01 -1.482718103457063e-16

-3.117420073618944e-16  2.885789435595734e-18  9.535573329247676e-01
 2.885789435595734e-18 -1.156751199643744e-16  4.680159899907771e-01
 9.535573329247676e-01  4.680159899907771e-01 -1.226533158147909e-16

-2.608233357100278e-16  3.909896399766028e-18  1.117034294751178e+00
 3.909896399766028e-18 -1.114509253678118e-16  4.976548039458104e-01
 1.117034294751178e+00  4.976548039458104e-01 -1.107213237316528e-16

-2.198446832921119e-16  4.511593844021792e-18  1.127204878765385e+00
 4.511593844021792e-18 -1.044344168853962e-16  4.789094531117942e-01
 1.127204878765385e+00  4.789094531117942e-01 -9.636763801052595e-17

-1.855301003642543e-16  3.718251621695464e-18  9.701635852245502e-01
 3.718251621695464e-18 -9.654231239053038e-17  4.555042717297684e-01
 9.701635852245502e-01  4.555042717297684e-01 -7.932496583349220e-17

-1.602374801408372e-16  3.944180336253585e-18  9.504741228468981e-01
 3.944180336253585e-18 -8.912970508116215e-17  4.506562581226609e-01
 9.504741228468981e-01  4.506562581226609e-01 -6.971912908430246e-17

-1.422591305209376e-16  4.646225922468930e-18  1.047142918850625e+00
 4.646225922468930e-18 -8.308924286178069e-17  4.594550138157713e-01
 1.047142918850625e+00  4.594550138157713e-01 -6.675703978574399e-17

-1.226684877936613e-16  4.707950027601753e-18  1.069189353944894e+00
 4.707950027601753e-18 -7.106188532831009e-17  4.403513371392119e-01
 1.069189353944894e+00  4.403513371392119e-01 -6.318261613970614e-17

-1.091304023655112e-16  4.309399178666239e-18  1.013659622880056e+00
 4.309399178666239e-18 -6.596857832056563e-17  4.254447950555659e-01
 1.013659622880056e+00  4.254447950555659e-01 -5.635734180911365e-17

-9.952401449500302e-17  4.429160252700383e-18  1.015928799426637e+00
 4.429160252700383e-18 -6.255165400728406e-17  4.285386931074747e-01
 1.015928799426637e+00  4.285386931074747e-01 -5.226128515171513e-17

-9.169281863490110e-17  4.156176013679403e-18  1.065164820520245e+00
 4.156176013679403e-18 -5.853778937366866e-17  4.490137333776203e-01
 1.065164820520245e+00  4.490137333776203e-01 -5.091167952169669e-17

-8.644226369734054e-17  3.480376588744404e-18  1.020057045589333e+00
 3.480376588744404e-18 -5.835406247289402e-17  4.648253562036055e-01
 1.020057045589333e+00  4.648253562036055e-01 -4.576793317774045e-17

-7.759322406686227e-17  2.765995585879309e-18  8.693941353027208e-01
 2.765995585879309e-18 -5.400626788657460e-17  4.638990590996228e-01
 8.693941353027208e-01  4.638990590996228e-01 -3.801723091376551e-17

-7.221889377754051e-17  2.734330441546374e-18  8.806606346529979e-01
 2.734330441546374e-18 -5.099951387887395e-17  4.545374355434699e-01
 8.806606346529979e-01  4.545374355434699e-01 -3.617481405798104e-17

-7.036767055924701e-17  2.716561259579168e-18  1.025182386431076e+00
 2.716561259579168e-18 -4.971554852308106e-17  4.715676827769837e-01
 1.025182386431076e+00  4.715676827769837e-01 -4.046595146193038e-17

-6.702971657592967e-17  2.756325081757241e-18  1.065710210649464e+00
 2.756325081757241e-18 -4.805445671370258e-17  4.594385289941216e-01
 1.065710210649464e+00  4.594385289941216e-01 -4.039635870313935e-17

-6.232437405767792e-17  2.619185706177227e-18  9.900163605599284e-01
 2.619185706177227e-18 -4.599660878696359e-17  4.350441486427869e-01
 9.900163605599284e-01  4.350441486427869e-01 -3.623499227937191e-17

-5.965384125699260e-17  2.665675472787779e-18  1.010167630451199e+00
 2.665675472787779e-18 -4.474529241021760e-17  4.168837355704091e-01
 1.010167630451199e+00  4.168837355704091e-01 -3.595970551735886e-17

-5.944648663462453e-17  2.676996207037574e-18  1.132226898496825e+00
 2.676996207037574e-18 -4.450650219144784e-17  4.227058845333787e-01
 1.132226898496825e+00  4.227058845333787e-01 -4.032928508847376e-17

-5.747524115213100e-17  2.887434161084390e-18  1.149457023208695e+00
 2.887434161084390e-18 -4.322711204521665e-17  3.988754226167390e-01
 1.149457023208695e+00  3.988754226167390e-01 -4.009641256475155e-17

-5.372344366578204e-17  2.600144542970221e-18  1.038665609670045e+00
 2.600144542970221e-18 -4.108959005312901e-17  3.848610858507787e-01
 1.038665609670045e+00  3.848610858507787e-01 -3.533036726076297e-17

-5.158658507723185e-17  2.384935745913352e-18  1.021006082264827e+00
 2.384935745913352e-18 -3.935339158100734e-17  3.873502149097263e-01
 1.021006082264827e+00  3.873502149097263e-01 -3.399248106441457e-17

-5.099351952252933e-17  2.256436669216392e-18  1.084176455605235e+00
 2.256436669216392e-18 -3.810455269235746e-17  4.016528602505524e-01
 1.084176455605235e+00  4.016528602505524e-01 -3.575106279969301e-17

-4.836941852702019e-17  2.147121211786250e-18  1.025674343972968e+00
 2.147121211786250e-18 -3.575150936905221e-17  4.056307110311913e-01
 1.025674343972968e+00  4.056307110311913e-01 -3.292008224632526e-17

-4.382548230777394e-17  1.531618138637440e-18  8.231700593018249e-01
 1.531618138637440e-18 -3.286580324266604e-17  4.256365070204018e-01
 8.231700593018249e-01  4.256365070204018e-01 -2.518351761434573e-17

-4.251451372545227e-17  1.590875618845188e-18  8.273366458629549e-01
 1.590875618845188e-18 -3.178896680666450e-17  4.056319540637530e-01
 8.273366458629549e-01  4.056319540637530e-01 -2.453491121777360e-17

-4.446329023203596e-17  1.354384859755964e-18  9.957852866488214e-01
 1.354384859755964e-18 -3.222858124481569e-17  4.285946535761404e-01
 9.957852866488214e-01  4.285946535761404e-01 -3.067608286173560e-17

-4.380721808889128e-17  1.313698159034281e-18  1.022269663819164e+00
 1.313698159034281e-18 -3.184201942727789e-17  4.140822871100953e-01
 1.022269663819164e+00  4.140822871100953e-01 -3.103180513453367e-17

-4.072864255341907e-17  1.017418130425878e-18  8.867180176649762e-01
 1.017418130425878e-18 -3.020116425921221e-17  4.185866677802269e-01
 8.867180176649762e-01  4.185866677802269e-01 -2.583770602360063e-17

-3.924905055676478e-17  9.894834205529144e-19  8.460854840813772e-01
 9.894834205529144e-19 -2.889688949988285e-17  4.343807282924945e-01
 8.460854840813772e-01  4.343807282924945e-01 -2.408986704359558e-17

-3.929086955938972e-17  1.021593631405758e-18  8.836263314148209e-01
 1.021593631405758e-18 -2.892674703304294e-17  4.292077412084754e-01
 8.836263314148209e-01  4.292077412084754e-01 -2.521702317061654e-17

-4.027249217108724e-17  1.068869735169053e-18  9.749061875424851e-01
 1.068869735169053e-18 -3.015034713461036e-17  3.961817404106852e-01
 9.749061875424851e-01  3.961817404106852e-01 -2.827705958355494e-17

-4.265689062537966e-17  8.795375450857656e-19  1.133383606827049e+00
 8.795375450857656e-19 -3.147929255942744e-17  4.170063766728899e-01
 1.133383606827049e+00  4.170063766728899e-01 -3.438245057666324e-17

-4.171000637389930e-17  9.817193856331751e-19  1.118673889492664e+00
 9.817193856331751e-19 -3.055224354539174e-17  4.220390616154882e-01
 1.118673889492664e+00  4.220390616154882e-01 -3.322657127172321e-17

-3.743576121990289e-17  6.001717506679738e-19  8.841549590364747e-01
 6.001717506679738e-19 -2.830044520869213e-17  4.331641512703134e-01
 8.841549590364747e-01  4.331641512703134e-01 -2.453481775886027e-17

-3.703917167644691e-17  8.806345401374636e-19  8.998580269525155e-01
 8.806345401374636e-19 -2.796091701765723e-17  4.142530025886947e-01
 8.998580269525155e-01  4.142530025886947e-01 -2.446575583906273e-17

-4.064052066705210e-17  5.723147675566061e-19  1.114982572475764e+00
 5.723147675566061e-19 -2.989618787183426e-17  4.479332853739570e-01
 1.114982572475764e+00  4.479332853739570e-01 -3.327821124509299e-17

-4.085509975089010e-17  7.735131702247004e-19  1.158979510940131e+00
 7.735131702247004e-19 -3.014607712501939e-17  4.272069047021530e-01
 1.158979510940131e+00  4.272069047021530e-01 -3.436569626868561e-17

-3.762343841536093e-17  5.598221290501762e-19  9.842117571232379e-01
 5.598221290501762e-19 -2.857360247878115e-17  4.191322747725831e-01
 9.842117571232379e-01  4.191322747725831e-01 -2.772757173256770e-17

-3.692510002636439e-17  6.541509962867377e-19  9.689800754706691e-01
 6.541509962867377e-19 -2.798669819292521e-17  4.148823295881180e-01
 9.689800754706691e-01  4.148823295881180e-01 -2.691041732022753e-17

-3.882197526863190e-17  5.872246797764978e-19  1.090788223965844e+00
 5.872246797764978e-19 -2.885591814286136e-17  4.279076880857522e-01
 1.090788223965844e+00  4.279076880857522e-01 -3.171690334563419e-17

-3.905670197221124e-17  6.741475204057607e-19  1.126049365735019e+00
 6.741475204057607e-19 -2.913564679043998e-17  4.030125667293690e-01
 1.126049365735019e+00  4.030125667293690e-01 -3.287879487173755e-17

-3.772627978170680e-17  6.120459096331631e-19  1.069251175931290e+00
 6.120459096331631e-19 -2.794114072728383e-17  3.998490185068524e-01
 1.069251175931290e+00  3.998490185068524e-01 -3.054047894036383e-17

-3.578185956267355e-17  5.322687110560313e-19  9.825771891559876e-01
 5.322687110560313e-19 -2.573398378542512e-17  4.237044514317250e-01
 9.825771891559876e-01  4.237044514317250e-01 -2.707121694346044e-17

-3.310199899984011e-17  3.330165471679053e-19  8.418920987799248e-01
 3.330165471679053e-19 -2.367280664536264e-17  4.409020742616153e-01
 8.418920987799248e-01  4.409020742616153e-01 -2.188473164901842e-17

-3.219785075116856e-17  3.908351843196407e-19  8.107562687281916e-01
 3.908351843196407e-19 -2.278514940659495e-17  4.419292750878986e-01
 8.107562687281916e-01  4.419292750878986e-01 -2.061095530819634e-17

-3.298437655662131e-17  3.798081287223351e-19  8.680654855237729e-01
 3.798081287223351e-19 -2.319897555863529e-17  4.386797603272622e-01
 8.680654855237729e-01  4.386797603272622e-01 -2.266751096262683e-17

-3.390638218805910e-17  3.862726413132704e-19  9.329870392027265e-01
 3.862726413132704e-19 -2.439213055523695e-17  4.104978469586738e-01
 9.329870392027265e-01  4.104978469586738e-01 -2.496789891161810e-17

-3.537529143256965e-17  3.413443472792420e-19  1.021088691079959e+00
 3.413443472792420e-19 -2.558884260676372e-17  4.046499725137157e-01
 1.021088691079959e+00  4.046499725137157e-01 -2.829970433738069e-17

-3.580727014544037e-17  3.836633574457538e-19  1.055311716639992e+00
 3.836633574457538e-19 -2.606327637795945e-17  3.936338603446563e-01
 1.055311716639992e+00  3.936338603446563e-01 -2.947912628854054e-17

-3.530747290598614e-17  3.617492996687238e-19  1.035197351246866e+00
 3.617492996687238e-19 -2.544299044304323e-17  4.019391439854453e-01
 1.035197351246866e+00  4.019391439854453e-01 -2.860905148165217e-17

-3.385213727320139e-17  2.983302826498542e-19  9.630941245875568e-01
 2.983302826498542e-19 -2.369211199457681e-17  4.360335730510124e-01
 9.630941245875568e-01  4.360335730510124e-01 -2.581293361062107e-17

-3.127158174892154e-17  1.217471781422879e-19  8.145051693023210e-01
 1.217471781422879e-19 -2.209826187173840e-17  4.517673677276604e-01
 8.145051693023210e-01  4.517673677276604e-01 -2.039410651181991e-17

-3.132402708244551e-17  2.777621489059307e-19  8.337935188337184e-01
 2.777621489059307e-19 -2.208231739732397e-17  4.423792853659403e-01
 8.337935188337184e-01  4.423792853659403e-01 -2.066971124983039e-17

-3.413816936065201e-17  2.361375314512179e-20  9.934496693139074e-01
 2.361375314512179e-20 -2.396002741262335e-17  4.536823508127495e-01
 9.934496693139074e-01  4.536823508127495e-01 -2.693013084863456e-17

-3.560678264011657e-17 -2.226512079397610e-20  1.087749771910945e+00
-2.226512079397610e-20 -2.571178340645638e-17  4.286440841361557e-01
 1.087749771910945e+00  4.286440841361557e-01 -3.025843080240869e-17

-3.590039280930162e-17 -9.527746939305544e-20  1.112346189845902e+00
-9.527746939305544e-20 -2.618563668561474e-17  4.295412707696216e-01
 1.112346189845902e+00  4.295412707696216e-01 -3.105751774123650e-17

-3.488385931257911e-17 -1.062132795308775e-19  1.064940130029611e+00
-1.062132795308775e-19 -2.531632447439333e-17  4.454345309750328e-01
 1.064940130029611e+00  4.454345309750328e-01 -2.924418610387397e-17

-3.273944544199826e-17 -8.122078515670230e-20  9.444450962475197e-01
-8.122078515670230e-20 -2.418671877079061e-17  4.399662096307205e-01
 9.444450962475197e-01  4.399662096307205e-01 -2.485449149632343e-17

-3.259642011847866e-17  9.000810559269326e-20  9.460853273015754e-01
 9.000810559269326e-20 -2.414030007007787e-17  4.275466156424501e-01
 9.460853273015754e-01  4.275466156424501e-01 -2.486891416845520e-17

-3.455111750338282e-17  4.759549643218566e-20  1.056892507156270e+00
 4.759549643218566e-20 -2.515143306176477e-17  4.389314255955544e-01
 1.056892507156270e+00  4.389314255955544e-01 -2.936886904924533e-17

-3.471606384906740e-17  2.046238694046676e-19  1.072485858864306e+00
 2.046238694046676e-19 -2.529567372413355e-17  4.288457703385402e-01
 1.072485858864306e+00  4.288457703385402e-01 -2.984894806664640e-17

-3.314547333147140e-17  2.446884590641991e-19  9.776200195519829e-01
 2.446884590641991e-19 -2.459029350699833e-17  4.186894498548134e-01
 9.776200195519829e-01  4.186894498548134e-01 -2.633008552830693e-17

-3.327972031005635e-17  3.390677494742917e-19  9.885306645175569e-01
 3.390677494742917e-19 -2.456668890347758e-17  4.158060988603280e-01
 9.885306645175569e-01  4.158060988603280e-01 -2.666302804622418e-17

-3.517417285640903e-17  2.452349745081835e-19  1.096306114176191e+00
 2.452349745081835e-19 -2.532222910264872e-17  4.371465469089353e-01
 1.096306114176191e+00  4.371465469089353e-01 -3.087485716433926e-17

-3.494235133418188e-17  2.476125939196421e-19  1.093018563941129e+00
 2.476125939196421e-19 -2.496423541379663e-17  4.418194264094605e-01
 1.093018563941129e+00  4.418194264094605e-01 -3.050652595137553e-17

-3.258891481842763e-17  1.058432912355173e-19  9.570670862202725e-01
 1.058432912355173e-19 -2.373114773631036e-17  4.400782285787448e-01
 9.570670862202725e-01  4.400782285787448e-01 -2.535908060270216e-17

-3.250661570983031e-17  2.041142216417300e-19  9.636965677355248e-01
 2.041142216417300e-19 -2.365862161721916e-17  4.306802337677311e-01
 9.636965677355248e-01  4.306802337677311e-01 -2.539680508463779e-17

-3.483502104207827e-17  5.061535634219961e-20  1.097733563360136e+00
 5.061535634219961e-20 -2.471187750413181e-17  4.540878264065953e-01
 1.097733563360136e+00  4.540878264065953e-01 -3.074567718755846e-17

-3.456929146842435e-17  1.364072704121661e-19  1.095242581220526e+00
 1.364072704121661e-19 -2.439832295249139e-17  4.490285503706242e-01
 1.095242581220526e+00  4.490285503706242e-01 -3.037553125219768e-17

-3.177061737602169e-17 -1.230388275149955e-20  9.308473610107881e-01
-1.230388275149955e-20 -2.292726655222615e-17  4.466838064992797e-01
 9.308473610107881e-01  4.466838064992797e-01 -2.426296007969177e-17

-3.153661182481423e-17  1.190249444601165e-19  9.290982618957583e-01
 1.190249444601165e-19 -2.266257651094165e-17  4.394410207870722e-01
 9.290982618957583e-01  4.394410207870722e-01 -2.394323976491337e-17

-3.390330184973942e-17 -6.310085926475746e-20  1.063905372676312e+00
-6.310085926475746e-20 -2.379545600013235e-17  4.626597831035773e-01
 1.063905372676312e+00  4.626597831035773e-01 -2.933183572609003e-17

-3.400350260926983e-17 -7.727078983258001e-21  1.079274373507583e+00
-7.727078983258001e-21 -2.390254316918642e-17  4.560603785146753e-01
 1.079274373507583e+00  4.560603785146753e-01 -2.969610542690823e-17

-3.192183017541936e-17 -6.343712244825217e-20  9.575565102379477e-01
-6.343712244825217e-20 -2.293844476294882e-17  4.485078782276346e-01
 9.575565102379477e-01  4.485078782276346e-01 -2.511673543676311e-17

-3.179836379228982e-17  8.006520640511980e-21  9.570991338059699e-01
 8.006520640511980e-21 -2.275810491984041e-17  4.480536482204435e-01
 9.570991338059699e-01  4.480536482204435e-01 -2.495096694127719e-17

-3.367947827206873e-17 -1.478208891315921e-19  1.063017516472108e+00
-1.478208891315921e-19 -2.362239083640292e-17  4.709593964502115e-01
 1.063017516472108e+00  4.709593964502115e-01 -2.917232675375663e-17

-3.366552275819178e-17 -1.645048860029984e-19  1.068334740827591e+00
-1.645048860029984e-19 -2.357657167677324e-17  4.761704168518414e-01
 1.068334740827591e+00  4.761704168518414e-01 -2.921870275574486e-17

-3.175238880117337e-17 -1.959135612177035e-19  9.577434022309208e-01
-1.959135612177035e-19 -2.289451799513905e-17  4.632307122574599e-01
 9.577434022309208e-01  4.632307122574599e-01 -2.493569312319592e-17

-3.228326488609016e-17 -9.628012837697679e-20  9.978684910439407e-01
-9.628012837697679e-20 -2.350423030646979e-17  4.487718624314054e-01
 9.978684910439407e-01  4.487718624314054e-01 -2.611706028755273e-17

-3.555681519018305e-17 -4.461560625573152e-19  1.177177118006606e+00
-4.461560625573152e-19 -2.558921116123741e-17  4.798475217016906e-01
 1.177177118006606e+00  4.798475217016906e-01 -3.369389806193722e-17

-3.538968912924839e-17 -2.803366623712673e-19  1.183459178393857e+00
-2.803366623712673e-19 -2.541988087362366e-17  4.709887770160633e-01
 1.183459178393857e+00  4.709887770160633e-01 -3.346905116036107e-17

-3.186155794692842e-17 -3.793369573633841e-19  9.777039365344884e-01
-3.793369573633841e-19 -2.355938902913846e-17  4.598867805454639e-01
 9.777039365344884e-01  4.598867805454639e-01 -2.573202655363428e-17

-3.129353688109805e-17 -1.888273062648813e-19  9.567802527252839e-01
-1.888273062648813e-19 -2.297402316096613e-17  4.538843095244788e-01
 9.567802527252839e-01  4.538843095244788e-01 -2.470710477361374e-17

-3.360545609851615e-17 -3.603648824913465e-19  1.086383729688165e+00
-3.603648824913465e-19 -2.411352772592588e-17  4.745658723400672e-01
 1.086383729688165e+00  4.745658723400672e-01 -3.004715541571085e-17

-3.379597754786815e-17 -2.774416053861472e-19  1.105868442699163e+00
-2.774416053861472e-19 -2.432171938887755e-17  4.617006419248759e-01
 1.105868442699163e+00  4.617006419248759e-01 -3.058685200034386e-17

-3.189637617604424e-17 -2.760200395639444e-19  9.975811397476751e-01
-2.760200395639444e-19 -2.355806321823320e-17  4.419508213926078e-01
 9.975811397476751e-01  4.419508213926078e-01 -2.641587831422318e-17

-3.189227949340796e-17 -2.234905094875647e-19  1.007408683956547e+00
-2.234905094875647e-19 -2.365309101234055e-17  4.290054083006278e-01
 1.007408683956547e+00  4.290054083006278e-01 -2.662569473842722e-17

-3.390627136729223e-17 -4.275882553968466e-19  1.125768634806081e+00
-4.275882553968466e-19 -2.460907650560552e-17  4.476953130779870e-01
 1.125768634806081e+00  4.476953130779870e-01 -3.145037424790083e-17

-3.314117547741488e-17 -2.789839461937290e-19  1.099937249817766e+00
-2.789839461937290e-19 -2.395316098400408e-17  4.346309368148594e-01
 1.099937249817766e+00  4.346309368148594e-01 -3.021760465504854e-17

-2.987209004880653e-17 -3.363089721125101e-19  9.087682266175307e-01
-3.363089721125101e-19 -2.215501874922020e-17  4.276383805513709e-01
 9.087682266175307e-01  4.276383805513709e-01 -2.336654428130287e-17

-2.912578642977862e-17 -9.509706630113319e-20  8.767913378449079e-01
-9.509706630113319e-20 -2.146059167066502e-17  4.153764216425515e-01
 8.767913378449079e-01  4.153764216425515e-01 -2.216673361409820e-17

-3.083523231042305e-17 -6.706672156563810e-20  9.757176466232129e-01
-6.706672156563810e-20 -2.196583041625102e-17  4.232958575123271e-01
 9.757176466232129e-01  4.232958575123271e-01 -2.614521196615121e-17

-3.087859238187691e-17  1.008673696748239e-19  9.822763065928072e-01
 1.008673696748239e-19 -2.181119035422309e-17  4.101483194211363e-01
 9.822763065928072e-01  4.101483194211363e-01 -2.626398990303052e-17

-2.914965459334004e-17  3.216430558538328e-20  8.758001516803853e-01
 3.216430558538328e-20 -2.093989921292171e-17  4.062398785832100e-01
 8.758001516803853e-01  4.062398785832100e-01 -2.230931331613702e-17

-2.912142632024418e-17  5.101302252385641e-20  8.819490011055336e-01
 5.101302252385641e-20 -2.081560261991513e-17  4.044189550730469e-01
 8.819490011055336e-01  4.044189550730469e-01 -2.229291241729728e-17

-3.085055180058470e-17 -1.180326355918923e-19  9.833976320576314e-01
-1.180326355918923e-19 -2.157193954903857e-17  4.220279947938171e-01
 9.833976320576314e-01  4.220279947938171e-01 -2.620993176427006e-17

-3.076213321720331e-17 -5.158661540926080e-20  9.850095070210814e-01
-5.158661540926080e-20 -2.153242865553755e-17  4.176524810401307e-01
 9.850095070210814e-01  4.176524810401307e-01 -2.615958560183127e-17

-2.902212799588309e-17 -6.402151962728945e-20  8.795681578001694e-01
-6.402151962728945e-20 -2.080560338718752e-17  4.119872787072197e-01
 8.795681578001694e-01  4.119872787072197e-01 -2.231983440019394e-17

-2.903792390690501e-17  9.031858972651164e-21  8.860729255617924e-01
 9.031858972651164e-21 -2.079795985778782e-17  4.085843333655163e-01
 8.860729255617924e-01  4.085843333655163e-01 -2.241363348699005e-17

-3.087314121886816e-17 -1.228915332997333e-19  9.896164897028986e-01
-1.228915332997333e-19 -2.164847232938848e-17  4.265129814964818e-01
 9.896164897028986e-01  4.265129814964818e-01 -2.648816140237737e-17

-3.090084466417514e-17 -4.322144141699281e-20  9.943309727598426e-01
-4.322144141699281e-20 -2.162301346766934e-17  4.270390208976698e-01
 9.943309727598426e-01  4.270390208976698e-01 -2.654079107321627e-17

-2.914025856565595e-17 -6.148226068466589e-20  8.855818587647428e-01
-6.148226068466589e-20 -2.095624884125977e-17  4.223886273183873e-01
 8.855818587647428e-01  4.223886273183873e-01 -2.251634027677364e-17

-2.943306982670492e-17  1.563951113011348e-20  9.076989027373217e-01
 1.563951113011348e-20 -2.122297954404883e-17  4.191494452817449e-01
 9.076989027373217e-01  4.191494452817449e-01 -2.307283323184996e-17

-3.189979438956559e-17 -2.114283234950114e-19  1.042960499797045e+00
-2.114283234950114e-19 -2.273461005095522e-17  4.409629852634548e-01
 1.042960499797045e+00  4.409629852634548e-01 -2.852488925234099e-17

-3.231498898023348e-17 -1.048958490097302e-19  1.069691031461657e+00
-1.048958490097302e-19 -2.322517071356531e-17  4.349601859557360e-01
 1.069691031461657e+00  4.349601859557360e-01 -2.936973577794222e-17

-3.077940736246802e-17 -5.566363456052918e-20  9.751400921562714e-01
-5.566363456052918e-20 -2.277214588312140e-17  4.230019296815880e-01
 9.751400921562714e-01  4.230019296815880e-01 -2.581522696502081e-17

-3.103283812579842e-17  9.696602299169854e-21  9.918139859333512e-01
 9.696602299169854e-21 -2.305911287860109e-17  4.213692983937032e-01
 9.918139859333512e-01  4.213692983937032e-01 -2.633155024276372e-17

-3.315857904651053e-17 -1.412640196518713e-19  1.108377023121232e+00
-1.412640196518713e-19 -2.437904195552246e-17  4.411972032284077e-01
 1.108377023121232e+00  4.411972032284077e-01 -3.109001530929880e-17

-3.332726447627247e-17 -1.414972764556271e-20  1.122461618447125e+00
-1.414972764556271e-20 -2.469837543622034e-17  4.325502093315681e-01
 1.122461618447125e+00  4.325502093315681e-01 -3.154946163500402e-17

-3.175368252320548e-17  7.640237745669383e-20  1.026488451841343e+00
 7.640237745669383e-20 -2.406142839203901e-17  4.183409670391130e-01
 1.026488451841343e+00  4.183409670391130e-01 -2.804116070204340e-17

-3.178332850775990e-17  2.217631794981512e-19  1.027705665230022e+00
 2.217631794981512e-19 -2.404297965133846e-17  4.116992799642695e-01
 1.027705665230022e+00  4.116992799642695e-01 -2.815993632896192e-17

-3.349112629393078e-17  2.576622939796833e-19  1.121901336288423e+00
 2.576622939796833e-19 -2.467320550869574e-17  4.257931335088846e-01
 1.121901336288423e+00  4.257931335088846e-01 -3.192218820627520e-17

-3.322728361809344e-17  3.718204518646111e-19  1.112305856226749e+00
 3.718204518646111e-19 -2.416202660573011e-17  4.238681019716837e-01
 1.112305856226749e+00  4.238681019716837e-01 -3.139444960758410e-17

-3.091746666114167e-17  2.178502188933301e-19  9.743268714273414e-01
 2.178502188933301e-19 -2.253105067221535e-17  4.320368870363043e-01
 9.743268714273414e-01  4.320368870363043e-01 -2.619661970113377e-17

-3.028535240022159e-17  2.345050699719998e-19  9.443069919888385e-01
 2.345050699719998e-19 -2.167615444234010e-17  4.417298392409906e-01
 9.443069919888385e-01  4.417298392409906e-01 -2.490451710896871e-17

-3.116187923874071e-17  1.538376254419146e-19  9.983301293140900e-01
 1.538376254419146e-19 -2.206290968099530e-17  4.468343393704968e-01
 9.983301293140900e-01  4.468343393704968e-01 -2.684719322478324e-17

-3.187703832354141e-17  5.412439513722348e-20  1.047107804254397e+00
 5.412439513722348e-20 -2.298421584846803e-17  4.288415283980535e-01
 1.047107804254397e+00  4.288415283980535e-01 -2.860564186173493e-17

-3.275401333665825e-17 -1.024616379054129e-20  1.103275671255542e+00
-1.024616379054129e-20 -2.341010757080101e-17  4.346973774446687e-01
 1.103275671255542e+00  4.346973774446687e-01 -3.072015809561786e-17

-3.169700142425905e-17  7.539347547619640e-20  1.052298307761955e+00
 7.539347547619640e-20 -2.231791941586822e-17  4.394310112547183e-01
 1.052298307761955e+00  4.394310112547183e-01 -2.868066683366084e-17

-2.878317809863161e-17 -8.362974290864243e-20  8.783058469724382e-01
-8.362974290864243e-20 -2.062290019062494e-17  4.428827452866580e-01
 8.783058469724382e-01  4.428827452866580e-01 -2.234667916878977e-17

-2.866404208594481e-17  7.717366143719135e-20  8.855653018509041e-01
 7.717366143719135e-20 -2.051492031804570e-17  4.263107683911752e-01
 8.855653018509041e-01  4.263107683911752e-01 -2.227212142763274e-17

-3.135866190837754e-17 -1.651484230512376e-19  1.038990068956637e+00
-1.651484230512376e-19 -2.190516562347189e-17  4.469980122314723e-01
 1.038990068956637e+00  4.469980122314723e-01 -2.840444877905422e-17

-3.152650341742099e-17 -5.028479215828046e-20  1.058623630230785e+00
-5.028479215828046e-20 -2.215655506731536e-17  4.300534725018922e-01
 1.058623630230785e+00  4.300534725018922e-01 -2.888821613001211e-17

-2.929114344932935e-17 -1.265841965908288e-19  9.259441676158678e-01
-1.265841965908288e-19 -2.120573965165883e-17  4.200303043608555e-01
 9.259441676158678e-01  4.200303043608555e-01 -2.399963850677289e-17

-2.901640585681285e-17 -7.280919862385603e-20  9.194100850239350e-01
-7.280919862385603e-20 -2.101058328907077e-17  4.156122695737480e-01
 9.194100850239350e-01  4.156122695737480e-01 -2.361299420786670e-17

-3.070245565615587e-17 -2.014775227548288e-19  1.019144698251508e+00
-2.014775227548288e-19 -2.177891966141518e-17  4.316585587778364e-01
 1.019144698251508e+00  4.316585587778364e-01 -2.759537763157898e-17

-3.043465316710851e-17 -4.882996017321602e-20  1.011103128450525e+00
-4.882996017321602e-20 -2.164814768953768e-17  4.214557399623833e-01
 1.011103128450525e+00  4.214557399623833e-01 -2.725591181172733e-17

-2.845956830150129e-17  8.264051710109818e-21  8.886842416333649e-01
 8.264051710109818e-21 -2.077328724576865e-17  4.111250893058025e-01
 8.886842416333649e-01  4.111250893058025e-01 -2.290537464232946e-17

-2.857397578984234e-17  1.848031361125375e-19  8.971670951558095e-01
 1.848031361125375e-19 -2.076773083300983e-17  4.009287486933703e-01
 8.971670951558095e-01  4.009287486933703e-01 -2.310678009216048e-17

-3.083249777696130e-17  9.631393679267190e-20  1.021162578329342e+00
 9.631393679267190e-20 -2.174680433594470e-17  4.171408669425012e-01
 1.021162578329342e+00  4.171408669425012e-01 -2.792529331985569e-17

-3.106450269166449e-17  1.288681779765034e-19  1.038739177961010e+00
 1.288681779765034e-19 -2.178239642501632e-17  4.158052938110232e-01
 1.038739177961010e+00  4.158052938110232e-01 -2.831570566352483e-17

-2.913024248805336e-17 -2.704492464510954e-20  9.232198433842231e-01
-2.704492464510954e-20 -2.088209432716481e-17  4.166914455907555e-01
 9.232198433842231e-01  4.166914455907555e-01 -2.395073267800610e-17

-2.898904448067268e-17 -2.845125874160067e-20  9.239055269050193e-01
-2.845125874160067e-20 -2.076199628315728e-17  4.166082506621065e-01
 9.239055269050193e-01  4.166082506621065e-01 -2.376030776292751e-17

-3.073773793871249e-17 -1.993574133914956e-19  1.026360092153010e+00
-1.993574133914956e-19 -2.158026389417895e-17  4.346998443074035e-01
 1.026360092153010e+00  4.346998443074035e-01 -2.777788155073784e-17

-3.061649249320192e-17 -1.496300443712512e-19  1.027768021051638e+00
-1.496300443712512e-19 -2.153046467451892e-17  4.277234471310768e-01
 1.027768021051638e+00  4.277234471310768e-01 -2.770444800071088e-17

-2.875000803539800e-17 -1.963058767898690e-19  9.186415093976327e-01
-1.963058767898690e-19 -2.064528080578970e-17  4.218783872501941e-01
 9.186415093976327e-01  4.218783872501941e-01 -2.370127067602160e-17

-2.842211660262182e-17 -1.604178003841726e-19  9.071857956069893e-01
-1.604178003841726e-19 -2.035353690946525e-17  4.212021819285230e-01
 9.071857956069893e-01  4.212021819285230e-01 -2.320858443225407e-17

-2.965035055518137e-17 -2.408423472829561e-19  9.797821947614455e-01
-2.408423472829561e-19 -2.076796725839799e-17  4.357578970518639e-01
 9.797821947614455e-01  4.357578970518639e-01 -2.608352470365979e-17

-2.938478496685204e-17 -1.789148839405653e-19  9.679811600064168e-01
-1.789148839405653e-19 -2.046062913952755e-17  4.375580989975946e-01
 9.679811600064168e-01  4.375580989975946e-01 -2.560616459763476e-17

-2.762872186672077e-17 -1.977883569813167e-19  8.613044325032106e-01
-1.977883569813167e-19 -1.976033939511307e-17  4.308665322919896e-01
 8.613044325032106e-01  4.308665322919896e-01 -2.166557833673758e-17

-2.795448779799651e-17 -1.313831593067304e-19  8.882257578555454e-01
-1.313831593067304e-19 -2.011296194229749e-17  4.217879756045361e-01
 8.882257578555454e-01  4.217879756045361e-01 -2.234743995473901e-17

-3.046176568317857e-17 -4.205732153458310e-19  1.028377766580032e+00
-4.205732153458310e-19 -2.173111843828635e-17  4.409251157809470e-01
 1.028377766580032e+00  4.409251157809470e-01 -2.804538770031220e-17

-3.070185043030452e-17 -2.676865422847917e-19  1.047957684851282e+00
-2.676865422847917e-19 -2.217413289958010e-17  4.289069105874153e-01
 1.047957684851282e+00  4.289069105874153e-01 -2.861713489366251e-17

-2.895026399210299e-17 -1.308231552480507e-19  9.392290719657838e-01
-1.308231552480507e-19 -2.162957310700816e-17  4.112235494095380e-01
 9.392290719657838e-01  4.112235494095380e-01 -2.465145342850347e-17

-2.918458104554085e-17  2.455385734925648e-20  9.518401463741358e-01
 2.455385734925648e-20 -2.179231037774085e-17  4.046587522423701e-01
 9.518401463741358e-01  4.046587522423701e-01 -2.504560243959297e-17

-3.145906716490845e-17 -9.900484376304466e-20  1.074648012987319e+00
-9.900484376304466e-20 -2.295042520619833e-17  4.234183631772593e-01
 1.074648012987319e+00  4.234183631772593e-01 -2.995842726258514e-17

-3.164706283741677e-17 -3.678378620764978e-20  1.090406020004488e+00
-3.678378620764978e-20 -2.304605316904320e-17  4.209071890863661e-01
 1.090406020004488e+00  4.209071890863661e-01 -3.032945061091320e-17

-2.970295790625726e-17 -9.421391255696419e-20  9.750875709794276e-01
-9.421391255696419e-20 -2.209244816110075e-17  4.177989410061002e-01
 9.750875709794276e-01  4.177989410061002e-01 -2.602143160164680e-17

-2.936030959613525e-17 -3.647127611042207e-20  9.601455319416936e-01
-3.647127611042207e-20 -2.172883294757074e-17  4.201507678376025e-01
 9.601455319416936e-01  4.201507678376025e-01 -2.541682548625191e-17

-3.065026538860241e-17 -8.331778265317961e-20  1.034605941725032e+00
-8.331778265317961e-20 -2.213104317633980e-17  4.364292035725056e-01
 1.034605941725032e+00  4.364292035725056e-01 -2.835849105197513e-17

-3.037044035012909e-17 -2.461229396412605e-20  1.022265818344248e+00
-2.461229396412605e-20 -2.178960998248365e-17  4.392511169652850e-01
 1.022265818344248e+00  4.392511169652850e-01 -2.783630970483094e-17

-2.852645585889425e-17 -4.225631050017758e-20  9.102055496613930e-01
-4.225631050017758e-20 -2.100432006328128e-17  4.322299895304851e-01
 9.102055496613930e-01  4.322299895304851e-01 -2.371048346525521e-17

-2.890188779954256e-17  8.156960914771008e-20  9.375391251420584e-01
 8.156960914771008e-20 -2.139412624048937e-17  4.190761191729013e-01
 9.375391251420584e-01  4.190761191729013e-01 -2.449221587441390e-17

-3.166745799771960e-17 -1.415827396936559e-19  1.089481041141678e+00
-1.415827396936559e-19 -2.300922330563353e-17  4.415072599803375e-01
 1.089481041141678e+00  4.415072599803375e-01 -3.065280944326103e-17

-3.183066778290535e-17 -8.617242818847388e-21  1.105990359361265e+00
-8.617242818847388e-21 -2.324251242682495e-17  4.328250563445675e-01
 1.105990359361265e+00  4.328250563445675e-01 -3.103299995302430e-17

-2.949137661577791e-17 -1.851561638568571e-20  9.636893605846559e-01
-1.851561638568571e-20 -2.226304782692640e-17  4.227429754114249e-01
 9.636893605846559e-01  4.227429754114249e-01 -2.581482865156564e-17

-2.949707037913595e-17  1.557962003904424e-19  9.668704212260579e-01
 1.557962003904424e-19 -2.226247081695687e-17  4.147586009033375e-01
 9.668704212260579e-01  4.147586009033375e-01 -2.584268945045726e-17

-3.194273868469551e-17  7.340554057730360e-20  1.100237211412172e+00
 7.340554057730360e-20 -2.345940716323642e-17  4.347787396431562e-01
 1.100237211412172e+00  4.347787396431562e-01 -3.122148434739665e-17

-3.215087950116213e-17  1.669713059288096e-19  1.117997388330625e+00
 1.669713059288096e-19 -2.354405639142799e-17  4.270711993560757e-01
 1.117997388330625e+00  4.270711993560757e-01 -3.167403995496019e-17

-2.997335153676885e-17  2.408998951081491e-20  9.898475139165824e-01
 2.408998951081491e-20 -2.232521932555869e-17  4.290052736272298e-01
 9.898475139165824e-01  4.290052736272298e-01 -2.684110098641732e-17

-2.929560101103591e-17  4.648264213417582e-20  9.576617100047102e-01
 4.648264213417582e-20 -2.169441852418906e-17  4.376765067418074e-01
 9.576617100047102e-01  4.376765067418074e-01 -2.557005810100218e-17

-3.011757005426973e-17  6.964088644056808e-20  1.006295733859604e+00
 6.964088644056808e-20 -2.216384217795880e-17  4.414123443892221e-01
 1.006295733859604e+00  4.414123443892221e-01 -2.752125496456099e-17

-3.067284863391620e-17  1.765176317609831e-19  1.038095224639109e+00
 1.765176317609831e-19 -2.288814826832400e-17  4.222730298421462e-01
 1.038095224639109e+00  4.222730298421462e-01 -2.883949875068760e-17

-3.123646365898534e-17  2.735787290599791e-19  1.066061915829421e+00
 2.735787290599791e-19 -2.314002296644995e-17  4.222115893028434e-01
 1.066061915829421e+00  4.222115893028434e-01 -2.997505859812833e-17

-3.083089207926738e-17  3.188496088792612e-19  1.040700854067816e+00
 3.188496088792612e-19 -2.248910951872411e-17  4.370326162800395e-01
 1.040700854067816e+00  4.370326162800395e-01 -2.898997950359438e-17

-2.923169252250809e-17  2.445121232626578e-19  9.414095267452098e-01
 2.445121232626578e-19 -2.172062156052214e-17  4.368859259243492e-01
 9.414095267452098e-01  4.368859259243492e-01 -2.525518126486749e-17

-2.987826665676668e-17  3.480701428037070e-19  9.827999714554028e-01
 3.480701428037070e-19 -2.242306886685354e-17  4.222964547057220e-01
 9.827999714554028e-01  4.222964547057220e-01 -2.655650362361707e-17

-3.310123499250449e-17  1.445290944489499e-19  1.156623361530741e+00
 1.445290944489499e-19 -2.463748691046939e-17  4.407798926942332e-01
 1.156623361530741e+00  4.407798926942332e-01 -3.368213699994358e-17

-3.404349236796842e-17  2.430656892903770e-19  1.215790020999089e+00
 2.430656892903770e-19 -2.568817177274454e-17  4.177633203093968e-01
 1.215790020999089e+00  4.177633203093968e-01 -3.580666545539374e-17

-3.276949323397043e-17  2.114973016836941e-19  1.148653782770388e+00
 2.114973016836941e-19 -2.472917049723031e-17  4.117111370892007e-01
 1.148653782770388e+00  4.117111370892007e-01 -3.308478225959494e-17

-3.084615163380749e-17  1.896895825816004e-19  1.051199813444953e+00
 1.896895825816004e-19 -2.257573171905426e-17  4.332061315699576e-01
 1.051199813444953e+00  4.332061315699576e-01 -2.919248201026536e-17

-2.819679844114659e-17  7.162478525028064e-20  9.019985265461288e-01
 7.162478525028064e-20 -2.059746060479577e-17  4.419149987560095e-01
 9.019985265461288e-01  4.419149987560095e-01 -2.367823306514458e-17

-2.769788003767096e-17  2.042939463578582e-19  8.859770471154773e-01
 2.042939463578582e-19 -2.017423803168079e-17  4.266439583075586e-01
 8.859770471154773e-01  4.266439583075586e-01 -2.299643513798519e-17

-2.930717991563236e-17  1.708795913434587e-19  9.828096540185105e-01
 1.708795913434587e-19 -2.083470201574837e-17  4.321067027796784e-01
 9.828096540185105e-01  4.321067027796784e-01 -2.672041495943151e-17

-2.943430848207464e-17  2.082432431192696e-19  9.960399680579651e-01
 2.082432431192696e-19 -2.107993829884552e-17  4.185098061522795e-01
 9.960399680579651e-01  4.185098061522795e-01 -2.717047863979354e-17

-2.823296531966368e-17  1.955348503818401e-19  9.236383713273180e-01
 1.955348503818401e-19 -2.062191230652312e-17  4.109224514170249e-01
 9.236383713273180e-01  4.109224514170249e-01 -2.455493997233697e-17

-2.813602323330875e-17  2.492055310870295e-19  9.197500949374056e-01
 2.492055310870295e-19 -2.052179881115167e-17  4.094493826516388e-01
 9.197500949374056e-01  4.094493826516388e-01 -2.441528316808912e-17

-2.915544114530776e-17  2.302090342431997e-19  9.780358052288416e-01
 2.302090342431997e-19 -2.088872741773647e-17  4.198464318847981e-01
 9.780358052288416e-01  4.198464318847981e-01 -2.662202165602472e-17

-2.902612343404030e-17  2.199749904884718e-19  9.713606671191357e-01
 2.199749904884718e-19 -2.076630295053641e-17  4.277986531813603e-01
 9.713606671191357e-01  4.277986531813603e-01 -2.634104021963024e-17

-2.774027884440507e-17  2.142127998264255e-19  8.909198375060459e-01
 2.142127998264255e-19 -2.055931240360102e-17  4.184784753073695e-01
 8.909198375060459e-01  4.184784753073695e-01 -2.338731598451295e-17

-2.860723950246175e-17  3.819418623708059e-19  9.464843501582145e-01
 3.819418623708059e-19 -2.160274900258464e-17  3.941422373540660e-01
 9.464843501582145e-01  3.941422373540660e-01 -2.527576097775435e-17

-3.224708519191251e-17  1.689852899855286e-19  1.136515221729175e+00
 1.689852899855286e-19 -2.405872323340497e-17  4.174578133882579e-01
 1.136515221729175e+00  4.174578133882579e-01 -3.309637996872644e-17

-3.248990371932491e-17  4.878165076632119e-19  1.162443948439171e+00
 4.878165076632119e-19 -2.426721012748130e-17  3.992531290054120e-01
 1.162443948439171e+00  3.992531290054120e-01 -3.377920187980347e-17

-2.968231389753037e-17  3.463960534158700e-19  9.797015766077957e-01
 3.463960534158700e-19 -2.288060125982726e-17  4.040995259669253e-01
 9.797015766077957e-01  4.040995259669253e-01 -2.711193687600213e-17

-2.926656544025509e-17  5.067759556115158e-19  9.603294347510472e-01
 5.067759556115158e-19 -2.229504053506458e-17  4.057860395700205e-01
 9.603294347510472e-01  4.057860395700205e-01 -2.630938608865723e-17

-3.131596503892478e-17  4.924130532151551e-19  1.074966597761035e+00
 4.924130532151551e-19 -2.328893212260324e-17  4.182968906454151e-01
 1.074966597761035e+00  4.182968906454151e-01 -3.076211381976715e-17

-2.313492516541654e-17 -2.055742117998314e-19  8.526791709418886e-01
-2.055742117998314e-19 -1.766925600324633e-17  4.251157652353697e-01
 8.526791709418886e-01  4.251157652353697e-01 -2.309621182876605e-17

-2.461758764268376e-17 -6.174052082108685e-20  9.447161546499325e-01
-6.174052082108685e-20 -1.820842125697073e-17  4.198579534172489e-01
 9.447161546499325e-01  4.198579534172489e-01 -2.651064488344765e-17

-2.370802475335404e-17 -1.694058510458802e-19  8.862860509369106e-01
-1.694058510458802e-19 -1.834655105495608e-17  4.150682811552358e-01
 8.862860509369106e-01  4.150682811552358e-01 -2.406275249696961e-17

-2.623651716652583e-17 -3.855358972104021e-19  1.030098506999729e+00
-3.855358972104021e-19 -1.966691824436928e-17  4.415272506648567e-01
 1.030098506999729e+00  4.415272506648567e-01 -2.974176354543360e-17

-2.463429931429527e-17  2.317147167528115e-20  9.439899779885244e-01
 2.317147167528115e-20 -1.828035088118841e-17  4.097676352338447e-01
 9.439899779885244e-01  4.097676352338447e-01 -2.664348107153768e-17

-2.322378709231717e-17  1.189201904351655e-19  8.599868153069963e-01
 1.189201904351655e-19 -1.786504215105633e-17  3.905207630798470e-01
 8.599868153069963e-01  3.905207630798470e-01 -2.366638383841372e-17

-2.333450906316964e-17  1.435674367489335e-19  8.629293035857317e-01
 1.435674367489335e-19 -1.822404057786580e-17  3.818603220288347e-01
 8.629293035857317e-01  3.818603220288347e-01 -2.399276403459951e-17

-2.491489733614017e-17  3.207050312570729e-19  9.712951726102614e-01
 3.207050312570729e-19 -1.888715014355681e-17  3.716433946374451e-01
 9.712951726102614e-01  3.716433946374451e-01 -2.799970657629996e-17

-2.439192993632510e-17  2.096604269217419e-19  9.380632289364760e-01
 2.096604269217419e-19 -1.846889085550189e-17  3.869259913186221e-01
 9.380632289364760e-01  3.869259913186221e-01 -2.695425719362088e-17

-2.166360123263559e-17  2.343891826492627e-19  7.815526393221646e-01
 2.343891826492627e-19 -1.732107353196651e-17  3.727298296234508e-01
 7.815526393221646e-01  3.727298296234508e-01 -2.106051337430575e-17

-2.176114887434107e-17  3.098587780139883e-20  7.779553162146384e-01
 3.098587780139883e-20 -1.744152517065838e-17  3.900475072075207e-01
 7.779553162146384e-01  3.900475072075207e-01 -2.113937589681468e-17

-2.450075304303497e-17  2.871266632616404e-19  9.587423796557741e-01
 2.871266632616404e-19 -1.894642034598192e-17  3.655431018785687e-01
 9.587423796557741e-01  3.655431018785687e-01 -2.755989359051099e-17

-2.502090473865998e-17  1.064953492918796e-19  9.794477800459312e-01
 1.064953492918796e-19 -1.949047607997815e-17  3.759940213426540e-01
 9.794477800459312e-01  3.759940213426540e-01 -2.839048481855603e-17

-2.313474290283583e-17  3.538976967957378e-20  8.624704772396931e-01
 3.538976967957378e-20 -1.892869573822872e-17  3.668967049168381e-01
 8.624704772396931e-01  3.668967049168381e-01 -2.402285903334753e-17

-2.342367428202841e-17 -7.119926257602129e-20  8.717565013898761e-01
-7.119926257602129e-20 -1.915332893501919e-17  3.767448098057705e-01
 8.717565013898761e-01  3.767448098057705e-01 -2.444978223108722e-17

-2.590694469745762e-17  1.578592110258009e-19  1.025840728989426e+00
 1.578592110258009e-19 -2.049983564359869e-17  3.654522441155144e-01
 1.025840728989426e+00  3.654522441155144e-01 -2.996909953230498e-17

-2.607485019599753e-17  1.953122794211332e-20  1.029612986908633e+00
 1.953122794211332e-20 -2.058683522870431e-17  3.771369394119178e-01
 1.029612986908633e+00  3.771369394119178e-01 -3.026882410080032e-17

-2.390020226531719e-17  7.036194487978693e-20  9.048902140719297e-01
 7.036194487978693e-20 -1.939250947364751e-17  3.711082961382539e-01
 9.048902140719297e-01  3.711082961382539e-01 -2.552836397284077e-17

-2.297904710930215e-17  5.309793055932467e-20  8.500639210217982e-01
 5.309793055932467e-20 -1.834304655222820e-17  3.978263849237582e-01
 8.500639210217982e-01  3.978263849237582e-01 -2.357671423527309e-17

-2.305055582823786e-17 -9.346032686335688e-21  8.525999653478199e-01
-9.346032686335688e-21 -1.851560136128551e-17  4.011370031047359e-01
 8.525999653478199e-01  4.011370031047359e-01 -2.371451950340391e-17

-2.424713052765875e-17 -1.106603234497135e-19  9.191568369197727e-01
-1.106603234497135e-19 -1.994390794121492e-17  3.819255481242848e-01
 9.191568369197727e-01  3.819255481242848e-01 -2.618209904175137e-17

-2.698019649868886e-17  5.144101775679999e-20  1.085048968681132e+00
 5.144101775679999e-20 -2.179547345082598e-17  3.656589683829575e-01
 1.085048968681132e+00  3.656589683829575e-01 -3.216180662219600e-17

-2.709723637486498e-17 -1.519872450450794e-19  1.082160282819710e+00
-1.519872450450794e-19 -2.185208592884609e-17  3.845133676188803e-01
 1.082160282819710e+00  3.845133676188803e-01 -3.227207010180944e-17

-2.449434431418166e-17 -8.601233978364402e-20  9.350820523329257e-01
-8.601233978364402e-20 -2.058738210069423e-17  3.674014735165538e-01
 9.350820523329257e-01  3.674014735165538e-01 -2.651088471080846e-17

-2.414596221803280e-17 -2.098280699203322e-19  9.143273821409450e-01
-2.098280699203322e-19 -2.016080540050535e-17  3.808065006671013e-01
 9.143273821409450e-01  3.808065006671013e-01 -2.582998592030258e-17

-2.593393414911543e-17 -1.508981668267165e-19  1.028382706233933e+00
-1.508981668267165e-19 -2.067863947904210e-17  3.876426338546698e-01
 1.028382706233933e+00  3.876426338546698e-01 -2.993124904716560e-17

-2.548597233167048e-17 -2.754444817637613e-19  1.000842802625352e+00
-2.754444817637613e-19 -2.017858836388353e-17  3.997381598272112e-01
 1.000842802625352e+00  3.997381598272112e-01 -2.910544766618954e-17

-2.282802688183094e-17 -1.504011761614946e-19  8.531175225842343e-01
-1.504011761614946e-19 -1.884449316105697e-17  3.813618360242023e-01
 8.531175225842343e-01  3.813618360242023e-01 -2.332004065499689e-17

-2.272553763299010e-17 -3.338908406294708e-19  8.436411475044624e-01
-3.338908406294708e-19 -1.875055456544318e-17  3.913166091124413e-01
 8.436411475044624e-01  3.913166091124413e-01 -2.319357314424116e-17

-2.514876105532811e-17 -1.958887574158700e-19  9.974539961908838e-01
-1.958887574158700e-19 -1.981398026499015e-17  3.841946139590131e-01
 9.974539961908838e-01  3.841946139590131e-01 -2.866805318263772e-17

-2.518707808803906e-17 -3.240738944045532e-19  9.964645345254323e-01
-3.240738944045532e-19 -1.991999407355426e-17  3.872837875783031e-01
 9.964645345254323e-01  3.872837875783031e-01 -2.888414576135000e-17

-2.291615602019293e-17 -2.492024736652222e-19  8.699835062281664e-01
-2.492024736652222e-19 -1.873957035060436e-17  3.816142497952331e-01
 8.699835062281664e-01  3.816142497952331e-01 -2.403091116780126e-17

-2.203013927426238e-17 -3.770441036829655e-19  8.180304569272414e-01
-3.770441036829655e-19 -1.781849208213166e-17  4.143307011573263e-01
 8.180304569272414e-01  4.143307011573263e-01 -2.218999831463254e-17

-2.230556239350309e-17 -5.493444640534623e-19  8.325040365921565e-01
-5.493444640534623e-19 -1.820657935271886e-17  4.212125002309463e-01
 8.325040365921565e-01  4.212125002309463e-01 -2.265068704011888e-17

-2.395593417357585e-17 -7.253015403669481e-19  9.245865550116591e-01
-7.253015403669481e-19 -2.002653857867490e-17  4.010788074030251e-01
 9.245865550116591e-01  4.010788074030251e-01 -2.588010847464841e-17

-2.747260297821204e-17 -6.252844922043286e-19  1.133519314549461e+00
-6.252844922043286e-19 -2.236106206264843e-17  3.908107463846920e-01
 1.133519314549461e+00  3.908107463846920e-01 -3.329311114465963e-17

-2.803965709535375e-17 -8.999203383791605e-19  1.149434814058897e+00
-8.999203383791605e-19 -2.285925873297166e-17  4.137748729216403e-01
 1.149434814058897e+00  4.137748729216403e-01 -3.422879082810441e-17

-2.548143491729486e-17 -7.017795041249537e-19  1.006013618175713e+00
-7.017795041249537e-19 -2.144564172567510e-17  3.953482568050418e-01
 1.006013618175713e+00  3.953482568050418e-01 -2.829032185813930e-17

-2.508862115550528e-17 -8.008127319762852e-19  9.810496457721625e-01
-8.008127319762852e-19 -2.083034876921221e-17  4.130653755185751e-01
 9.810496457721625e-01  4.130653755185751e-01 -2.744381233416737e-17

-2.669426832837405e-17 -9.145907015082063e-19  1.076010963495852e+00
-9.145907015082063e-19 -2.099931658185588e-17  4.416325040486468e-01
 1.076010963495852e+00  4.416325040486468e-01 -3.108823056041068e-17

-2.588511158317771e-17 -1.030044451018737e-18  1.025284058196299e+00
-1.030044451018737e-18 -1.997172322001299e-17  4.615078933662818e-01
 1.025284058196299e+00  4.615078933662818e-01 -2.948873963658189e-17

-2.264837925697141e-17 -6.590517795674975e-19  8.472158117239699e-01
-6.590517795674975e-19 -1.772395444449134e-17  4.457610663231383e-01
 8.472158117239699e-01  4.457610663231383e-01 -2.212519369289298e-17

-2.244964304861270e-17 -8.338793383821122e-19  8.236045291815919e-01
-8.338793383821122e-19 -1.739521363039654e-17  4.623570294492649e-01
 8.236045291815919e-01  4.623570294492649e-01 -2.172748768642254e-17

-2.524110685173893e-17 -6.595334334913447e-19  9.890569584696784e-01
-6.595334334913447e-19 -1.859604539140103e-17  4.596663899273697e-01
 9.890569584696784e-01  4.596663899273697e-01 -2.776276345707527e-17

-2.567708459315211e-17 -5.674879082910454e-19  1.004683862047019e+00
-5.674879082910454e-19 -1.906310953074250e-17  4.516025006947756e-01
 1.004683862047019e+00  4.516025006947756e-01 -2.859983949745507e-17

-2.384831304449773e-17 -3.781715578228672e-19  8.963480124557991e-01
-3.781715578228672e-19 -1.864257025399548e-17  4.239330419532051e-01
 8.963480124557991e-01  4.239330419532051e-01 -2.452564210278469e-17

-2.405652671841614e-17 -4.537990748410603e-19  9.016259981642815e-01
-4.537990748410603e-19 -1.907562012255008e-17  4.290579419563316e-01
 9.016259981642815e-01  4.290579419563316e-01 -2.496509466338911e-17

-2.651912009268992e-17 -3.402101364121813e-19  1.051565440805718e+00
-3.402101364121813e-19 -2.060582922702087e-17  4.268170747338677e-01
 1.051565440805718e+00  4.268170747338677e-01 -3.041630876100461e-17

-2.701473381832277e-17 -4.859200850239723e-19  1.073439017647275e+00
-4.859200850239723e-19 -2.119271559751729e-17  4.337434477639748e-01
 1.073439017647275e+00  4.337434477639748e-01 -3.136146840126719e-17

-2.546415995097148e-17 -4.483192741994045e-19  9.810365983814598e-01
-4.483192741994045e-19 -2.074016242793500e-17  4.176383530751002e-01
 9.810365983814598e-01  4.176383530751002e-01 -2.775465490433887e-17

-2.574818344136952e-17 -5.150578057112351e-19  9.928256273891455e-01
-5.150578057112351e-19 -2.110308691402325e-17  4.204718721742200e-01
 9.928256273891455e-01  4.204718721742200e-01 -2.830151272921783e-17

-2.794834020445798e-17 -4.810744625178986e-19  1.125472392906267e+00
-4.810744625178986e-19 -2.225774158567831e-17  4.298720229443867e-01
 1.125472392906267e+00  4.298720229443867e-01 -3.320274248132276e-17

-2.786221193268655e-17 -6.731237208281063e-19  1.116772345373280e+00
-6.731237208281063e-19 -2.217624976383398e-17  4.426474082119477e-01
 1.116772345373280e+00  4.426474082119477e-01 -3.305158003163762e-17

-2.547539150504132e-17 -5.285393849684258e-19  9.857898723119164e-01
-5.285393849684258e-19 -2.076426226893195e-17  4.233600177957961e-01
 9.857898723119164e-01  4.233600177957961e-01 -2.767734264898630e-17

-2.516912890699578e-17 -6.125518968633532e-19  9.665040348368047e-01
-6.125518968633532e-19 -2.038496496358553e-17  4.311853426601736e-01
 9.665040348368047e-01  4.311853426601736e-01 -2.709731820758419e-17

-2.685657019282430e-17 -6.533155282128291e-19  1.069263999165436e+00
-6.533155282128291e-19 -2.089040714602709e-17  4.467958763006348e-01
 1.069263999165436e+00  4.467958763006348e-01 -3.095169588135314e-17

-2.646176242860930e-17 -7.697817679306618e-19  1.044870817109692e+00
-7.697817679306618e-19 -2.041312403940744e-17  4.568946562905877e-01
 1.044870817109692e+00  4.568946562905877e-01 -3.020959354368727e-17

-2.396813798840440e-17 -5.562626647115364e-19  9.071943992727993e-01
-5.562626647115364e-19 -1.890189603636768e-17  4.380899453324967e-01
 9.071943992727993e-01  4.380899453324967e-01 -2.462682410335995e-17

-2.376432212685696e-17 -6.669384612416718e-19  8.898283929861852e-01
-6.669384612416718e-19 -1.867959241777795e-17  4.478901762888202e-01
 8.898283929861852e-01  4.478901762888202e-01 -2.423767741090984e-17

-2.583686628472279e-17 -6.418127360077852e-19  1.014226339339441e+00
-6.418127360077852e-19 -1.965605601633013e-17  4.526312160098711e-01
 1.014226339339441e+00  4.526312160098711e-01 -2.877819374085441e-17

-2.641052473537016e-17 -6.888698816578289e-19  1.044049765092943e+00
-6.888698816578289e-19 -2.019708552963938e-17  4.458022831157876e-01
 1.044049765092943e+00  4.458022831157876e-01 -2.994081820207214e-17

-2.546486275551554e-17 -5.909550577454637e-19  9.868497371413544e-01
-5.909550577454637e-19 -1.963460339128354e-17  4.372872209428416e-01
 9.868497371413544e-01  4.372872209428416e-01 -2.773947118061605e-17

-2.486097900620246e-17 -5.097140105380743e-19  9.479590257613023e-01
-5.097140105380743e-19 -1.887249984690936e-17  4.502152554758949e-01
 9.479590257613023e-01  4.502152554758949e-01 -2.637532590163461e-17

-2.445458545717100e-17 -4.642631469106455e-19  9.227436171849267e-01
-4.642631469106455e-19 -1.865894829928123e-17  4.492454238594263e-01
 9.227436171849267e-01  4.492454238594263e-01 -2.548932011086700e-17

-2.493446811519003e-17 -4.729582820847796e-19  9.484043953451640e-01
-4.729582820847796e-19 -1.921180205093254e-17  4.418081618233539e-01
 9.484043953451640e-01  4.418081618233539e-01 -2.647907767557371e-17

-2.648107136102207e-17 -4.209915410205722e-19  1.037364730315407e+00
-4.209915410205722e-19 -2.009624263056533e-17  4.434494774861184e-01
 1.037364730315407e+00  4.434494774861184e-01 -2.977730943799839e-17

-2.658941605839518e-17 -4.025762119595858e-19  1.036410542233101e+00
-4.025762119595858e-19 -2.014273748990742e-17  4.489978329242789e-01
 1.036410542233101e+00  4.489978329242789e-01 -2.986760275681155e-17

-2.512249398625488e-17 -2.935644667513112e-19  9.476905762985055e-01
-2.935644667513112e-19 -1.962168515826884e-17  4.334226867592222e-01
 9.476905762985055e-01  4.334226867592222e-01 -2.651229794559582e-17

-2.546063599566634e-17 -3.283243996697166e-19  9.611424433660151e-01
-3.283243996697166e-19 -2.008047389644695e-17  4.332005294800687e-01
 9.611424433660151e-01  4.332005294800687e-01 -2.720049922006235e-17

-2.777685990477871e-17 -2.103047580676303e-19  1.100417684985842e+00
-2.103047580676303e-19 -2.141466726023670e-17  4.347169803129590e-01
 1.100417684985842e+00  4.347169803129590e-01 -3.236427443624336e-17

-2.786521161076929e-17 -3.401228537066621e-19  1.099395920249141e+00
-3.401228537066621e-19 -2.147955680804180e-17  4.455720665194424e-01
 1.099395920249141e+00  4.455720665194424e-01 -3.250805072717470e-17

-2.565028041891407e-17 -2.062283093084985e-19  9.734905737292071e-01
-2.062283093084985e-19 -2.033251179248670e-17  4.245346335624514e-01
 9.734905737292071e-01  4.245346335624514e-01 -2.753565141362879e-17

-2.538808910397404e-17 -2.280773754565934e-19  9.539513156135113e-01
-2.280773754565934e-19 -2.004831392429899e-17  4.321680494924987e-01
 9.539513156135113e-01  4.321680494924987e-01 -2.701548603601156e-17

-2.700449505918597e-17 -1.357560487306177e-19  1.053619810119961e+00
-1.357560487306177e-19 -2.071996741508812e-17  4.389477500383837e-01
 1.053619810119961e+00  4.389477500383837e-01 -3.075673447767962e-17

-2.668327317570667e-17 -2.347544929476135e-19  1.034041469673351e+00
-2.347544929476135e-19 -2.044559730798067e-17  4.505790396948037e-01
 1.034041469673351e+00  4.505790396948037e-01 -3.012502418425347e-17

-2.449913516537529e-17 -1.946181768112737e-19  9.095041960146225e-01
-1.946181768112737e-19 -1.947272036985891e-17  4.363008052291095e-01
 9.095041960146225e-01  4.363008052291095e-01 -2.523160110893702e-17

-2.479991345613275e-17 -3.665254972214762e-19  9.173269126132922e-01
-3.665254972214762e-19 -1.980185552952548e-17  4.501084788250677e-01
 9.173269126132922e-01  4.501084788250677e-01 -2.569674267503188e-17

-2.763529706865133e-17 -2.418290518037803e-19  1.083790921221131e+00
-2.418290518037803e-19 -2.186361567059035e-17  4.396454647897444e-01
 1.083790921221131e+00  4.396454647897444e-01 -3.181548693187910e-17

-2.930869118552515e-17 -2.995839971271757e-19  1.173714182462100e+00
-2.995839971271757e-19 -2.377837380353745e-17  4.193860313497049e-01
 1.173714182462100e+00  4.193860313497049e-01 -3.533071059107498e-17

-2.992754192813001e-17 -3.507848151533866e-19  1.205871171847133e+00
-3.507848151533866e-19 -2.418522678270618e-17  4.255335793397870e-01
 1.205871171847133e+00  4.255335793397870e-01 -3.671851727698388e-17

-2.844097675425084e-17 -4.557459392068574e-19  1.120127587461725e+00
-4.557459392068574e-19 -2.257194032082485e-17  4.519492838525618e-01
 1.120127587461725e+00  4.519492838525618e-01 -3.360460138985245e-17

-2.493149627906070e-17 -2.752383402780489e-19  9.343930276324272e-01
-2.752383402780489e-19 -2.003929401481268e-17  4.427313209085169e-01
 9.343930276324272e-01  4.427313209085169e-01 -2.589185353648582e-17

-2.428071676061385e-17 -5.399024563491396e-19  8.941200376004901e-01
-5.399024563491396e-19 -1.930559045775907e-17  4.699627253526120e-01
 8.941200376004901e-01  4.699627253526120e-01 -2.460400327305933e-17

-2.628147042011138e-17 -6.300112518924711e-19  1.012174806624412e+00
-6.300112518924711e-19 -2.032461031590854e-17  4.791154106121761e-01
 1.012174806624412e+00  4.791154106121761e-01 -2.885155598107054e-17

-2.782351775908067e-17 -6.454909387262138e-19  1.095729409718404e+00
-6.454909387262138e-19 -2.179574392272812e-17  4.579085836279793e-01
 1.095729409718404e+00  4.579085836279793e-01 -3.195187148820166e-17

-2.889706481603164e-17 -5.894288942522445e-19  1.149189499373791e+00
-5.894288942522445e-19 -2.238926008640105e-17  4.597669412055262e-01
 1.149189499373791e+00  4.597669412055262e-01 -3.413350739112164e-17

-2.812159287967157e-17 -5.317489784322571e-19  1.097286852196487e+00
-5.317489784322571e-19 -2.140400324154124e-17  4.747069482002176e-01
 1.097286852196487e+00  4.747069482002176e-01 -3.232565566739269e-17

-2.547148813979770e-17 -3.009757630749419e-19  9.503322034160122e-01
-3.009757630749419e-19 -1.974650266819658e-17  4.539323777835371e-01
 9.503322034160122e-01  4.539323777835371e-01 -2.638407743020136e-17

-2.545278832806168e-17 -4.124477038040831e-19  9.435549857044705e-01
-4.124477038040831e-19 -1.972175609014420e-17  4.593274668141142e-01
 9.435549857044705e-01  4.593274668141142e-01 -2.639749034518839e-17

-2.808590092850711e-17 -2.635656185515366e-19  1.101137059967142e+00
-2.635656185515366e-19 -2.094012729308108e-17  4.628115049437255e-01
 1.101137059967142e+00  4.628115049437255e-01 -3.229155269197051e-17

-2.807755268817549e-17 -3.118977266742688e-19  1.093526308866912e+00
-3.118977266742688e-19 -2.087499833846329e-17  4.653732461204179e-01
 1.093526308866912e+00  4.653732461204179e-01 -3.227325793149262e-17

-2.539546891876209e-17 -9.340360468536958e-20  9.430464043424789e-01
-9.340360468536958e-20 -1.934337634151687e-17  4.402521161698597e-01
 9.430464043424789e-01  4.402521161698597e-01 -2.627182457598930e-17

-2.497531241348669e-17 -1.289615571488581e-19  9.128251681924544e-01
-1.289615571488581e-19 -1.882563849679807e-17  4.525636093885843e-01
 9.128251681924544e-01  4.525636093885843e-01 -2.537795610125278e-17

-2.664391780246647e-17  3.440948383802677e-20  1.011181247016159e+00
 3.440948383802677e-20 -1.949278908875332e-17  4.548916554536109e-01
 1.011181247016159e+00  4.548916554536109e-01 -2.910306383865929e-17

-2.674020559893540e-17  1.266518771302188e-19  1.011060350013137e+00
 1.266518771302188e-19 -1.962429310932140e-17  4.509719588875278e-01
 1.011060350013137e+00  4.509719588875278e-01 -2.927759111814416e-17

-2.524292185104760e-17  1.875455803192496e-19  9.185627594615756e-01
 1.875455803192496e-19 -1.924185083723020e-17  4.336069462494014e-01
 9.185627594615756e-01  4.336069462494014e-01 -2.590829159536437e-17

-2.578462079221572e-17  1.422487586231049e-19  9.412200197262111e-01
 1.422487586231049e-19 -1.994934007245562e-17  4.322923229544952e-01
 9.412200197262111e-01  4.322923229544952e-01 -2.698222724623654e-17

-2.853069521105632e-17  4.243255997591470e-19  1.106257041220332e+00
 4.243255997591470e-19 -2.180758758477458e-17  4.193972290283001e-01
 1.106257041220332e+00  4.193972290283001e-01 -3.321339183010601e-17

-2.870288847604418e-17  3.021341122153520e-19  1.108356376265799e+00
 3.021341122153520e-19 -2.209403629867451e-17  4.293124863039318e-01
 1.108356376265799e+00  4.293124863039318e-01 -3.351807574076906e-17

-2.631460475340389e-17  2.616731584780500e-19  9.710229862196724e-01
 2.616731584780500e-19 -2.106697134094891e-17  4.128555961860653e-01
 9.710229862196724e-01  4.128555961860653e-01 -2.815599860936370e-17

-2.640796632663204e-17  1.073205992358026e-19  9.729098291221931e-01
 1.073205992358026e-19 -2.111087334863186e-17  4.234305419529322e-01
 9.729098291221931e-01  4.234305419529322e-01 -2.825956706775952e-17

-2.899530639211164e-17  2.672507503551490e-19  1.130179902162243e+00
 2.672507503551490e-19 -2.230645541838862e-17  4.267535445763637e-01
 1.130179902162243e+00  4.267535445763637e-01 -3.404111547626907e-17

-2.873593898700747e-17  1.778418592171603e-19  1.104879713733568e+00
 1.778418592171603e-19 -2.176559225423120e-17  4.437935298082162e-01
 1.104879713733568e+00  4.437935298082162e-01 -3.337430232709222e-17

-2.532848694435650e-17  4.294459446055643e-19  9.115363578677917e-01
 4.294459446055643e-19 -1.988700002557639e-17  4.110540791143362e-01
 9.115363578677917e-01  4.110540791143362e-01 -2.580453487790611e-17

-2.496391199409005e-17  3.230280136996031e-19  8.810063407124021e-01
 3.230280136996031e-19 -1.955326658072083e-17  4.271902347655755e-01
 8.810063407124021e-01  4.271902347655755e-01 -2.509344890212156e-17

-2.752868025592706e-17  6.298422988485172e-19  1.044009303264263e+00
 6.298422988485172e-19 -2.105568561172683e-17  4.119301607616982e-01
 1.044009303264263e+00  4.119301607616982e-01 -3.112501248184178e-17

-2.768970405285241e-17  4.590528823319688e-19  1.050147346051858e+00
 4.590528823319688e-19 -2.134096562087058e-17  4.180556933273564e-01
 1.050147346051858e+00  4.180556933273564e-01 -3.142614136988678e-17

-2.558619586615204e-17  3.612621104179748e-19  9.247786863793902e-01
 3.612621104179748e-19 -2.064096423715726e-17  3.986713252400642e-01
 9.247786863793902e-01  3.986713252400642e-01 -2.664731634973679e-17

-2.610723681015161e-17  2.376118892340335e-19  9.468196947112046e-01
 2.376118892340335e-19 -2.116584897210784e-17  3.993676264944139e-01
 9.468196947112046e-01  3.993676264944139e-01 -2.761880425165888e-17

-2.933085426943131e-17  5.785651375695315e-19  1.148175234005010e+00
 5.785651375695315e-19 -2.303726629989210e-17  3.794245821948893e-01
 1.148175234005010e+00  3.794245821948893e-01 -3.503164644624881e-17

-2.894597266686117e-17  2.809804651969353e-19  1.118561584149180e+00
 2.809804651969353e-19 -2.254951593987079e-17  4.007252982199501e-01
 1.118561584149180e+00  4.007252982199501e-01 -3.424489585453668e-17

-2.507419295333389e-17  4.703321301809194e-19  9.089864501914430e-01
 4.703321301809194e-19 -1.998564968365827e-17  3.803360862914998e-01
 9.089864501914430e-01  3.803360862914998e-01 -2.583300643490912e-17

-2.343235381111219e-17  3.913290912638918e-19  8.133176866243754e-01
 3.913290912638918e-19 -1.811051057230380e-17  4.180897147753623e-01
 8.133176866243754e-01  4.180897147753623e-01 -2.246753277611630e-17

-2.344980676440563e-17  3.222476616973637e-19  8.145729119999897e-01
 3.222476616973637e-19 -1.794957015921897e-17  4.255255253676072e-01
 8.145729119999897e-01  4.255255253676072e-01 -2.257227346869402e-17

-2.458226980374319e-17  2.464053917112055e-19  8.762490949966246e-01
 2.464053917112055e-19 -1.922842831455881e-17  4.052553668264726e-01
 8.762490949966246e-01  4.052553668264726e-01 -2.485486283287762e-17

-2.718682172106516e-17  4.426969210767246e-19  1.030792517385874e+00
 4.426969210767246e-19 -2.106997628097601e-17  3.848469792849308e-01
 1.030792517385874e+00  3.848469792849308e-01 -3.045664734351251e-17

-2.764904211799382e-17  3.440794439904371e-19  1.045015267825546e+00
 3.440794439904371e-19 -2.147583196787437e-17  3.963380750675030e-01
 1.045015267825546e+00  3.963380750675030e-01 -3.113988065230626e-17

-2.585051751970061e-17  3.148242192131781e-19  9.338841635479198e-01
 3.148242192131781e-19 -2.078674938810586e-17  3.886065492170308e-01
 9.338841635479198e-01  3.886065492170308e-01 -2.695801617741638e-17

-2.590430901615415e-17  2.545959919280939e-19  9.294830307651795e-01
 2.545959919280939e-19 -2.070922345466714e-17  4.018225611494756e-01
 9.294830307651795e-01  4.018225611494756e-01 -2.683790110261755e-17

-2.774823817782859e-17  4.243125572384537e-19  1.036993095688767e+00
 4.243125572384537e-19 -2.160094005872928e-17  4.012655343506114e-01
 1.036993095688767e+00  4.012655343506114e-01 -3.080127541930861e-17

-2.790362140656161e-17  4.670551711380383e-19  1.037176775547356e+00
 4.670551711380383e-19 -2.169970223930992e-17  4.030841324475161e-01
 1.037176775547356e+00  4.030841324475161e-01 -3.099882730293570e-17

-2.626008376432010e-17  5.088525308127031e-19  9.370170665019297e-01
 5.088525308127031e-19 -2.106712664736100e-17  3.895712605413297e-01
 9.370170665019297e-01  3.895712605413297e-01 -2.733032260065488e-17

-2.626190560350148e-17  4.908467083677154e-19  9.332037437966529e-01
 4.908467083677154e-19 -2.117976793196141e-17  3.893421006119495e-01
 9.332037437966529e-01  3.893421006119495e-01 -2.733565013245335e-17

-2.795461559926405e-17  6.792232016986413e-19  1.038855103942085e+00
 6.792232016986413e-19 -2.208395153948007e-17  3.802112920436031e-01
 1.038855103942085e+00  3.802112920436031e-01 -3.126217097952648e-17

-2.767077723581637e-17  6.194964126505174e-19  1.020686809750475e+00
 6.194964126505174e-19 -2.189166733620909e-17  3.835249512463118e-01
 1.020686809750475e+00  3.835249512463118e-01 -3.076685264757896e-17

-2.548111079994698e-17  5.944100020282706e-19  8.983273281916850e-01
 5.944100020282706e-19 -2.073238509480637e-17  3.774885305848376e-01
 8.983273281916850e-01  3.774885305848376e-01 -2.615042132359007e-17

-2.461290072563770e-17  4.775017702285897e-19  8.490201321272910e-01
 4.775017702285897e-19 -1.988304307017052e-17  4.012576246515774e-01
 8.490201321272910e-01  4.012576246515774e-01 -2.432321619879904e-17

-2.488168261901029e-17  3.183826408570198e-19  8.629851565315387e-01
 3.183826408570198e-19 -2.022777168235795e-17  4.054676039311706e-01
 8.629851565315387e-01  4.054676039311706e-01 -2.475359668598489e-17

-2.632034014815932e-17  1.668520674251982e-19  9.394404304827926e-01
 1.668520674251982e-19 -2.181282406559095e-17  3.878073924535989e-01
 9.394404304827926e-01  3.878073924535989e-01 -2.748448870468831e-17

-2.926958940050369e-17  3.281067516367647e-19  1.111035092291135e+00
 3.281067516367647e-19 -2.380263951538351e-17  3.737171063949321e-01
 1.111035092291135e+00  3.737171063949321e-01 -3.368175005383892e-17

-2.955526463758343e-17  1.657956272027239e-19  1.110918020126334e+00
 1.657956272027239e-19 -2.397819815504829e-17  3.929501877630976e-01
 1.110918020126334e+00  3.929501877630976e-01 -3.394319818112346e-17

-2.698464910524435e-17  2.425918890515224e-19  9.616190253546046e-01
 2.425918890515224e-19 -2.277993364628948e-17  3.750132527508511e-01
 9.616190253546046e-01  3.750132527508511e-01 -2.810980139027364e-17

-2.668691880040074e-17  1.017297339020940e-19  9.402424803916979e-01
 1.017297339020940e-19 -2.247844475104339e-17  3.901100649349705e-01
 9.402424803916979e-01  3.901100649349705e-01 -2.740361800554106e-17

-2.861834845231144e-17  9.051690541529756e-20  1.058846584071438e+00
 9.051690541529756e-20 -2.319341108419577e-17  4.018978719798049e-01
 1.058846584071438e+00  4.018978719798049e-01 -3.163701585362010e-17

-2.854409334462029e-17 -9.756763988182732e-20  1.047373832850110e+00
-9.756763988182732e-20 -2.296467133057570e-17  4.156504887556131e-01
 1.047373832850110e+00  4.156504887556131e-01 -3.131530679297185e-17

-2.633134322562988e-17  2.110951653438195e-20  9.185075519844413e-01
 2.110951653438195e-20 -2.172916223508089e-17  3.997975156365708e-01
 9.185075519844413e-01  3.997975156365708e-01 -2.618455936185767e-17

-2.616624581427092e-17 -7.079591858894250e-20  8.995088974542224e-01
-7.079591858894250e-20 -2.148158516894760e-17  4.112878435313530e-01
 8.995088974542224e-01  4.112878435313530e-01 -2.566754368603240e-17

-2.797775052376681e-17 -4.196420822708690e-20  1.005021251919792e+00
-4.196420822708690e-20 -2.227332426442231e-17  4.174513182501010e-01
 1.005021251919792e+00  4.174513182501010e-01 -2.951817128906937e-17

-2.828517716242325e-17 -1.339376551805358e-19  1.014745179201770e+00
-1.339376551805358e-19 -2.257661172152440e-17  4.189387799576836e-01
 1.014745179201770e+00  4.189387799576836e-01 -2.994135638476894e-17

-2.710557762966680e-17 -9.829731095281758e-20  9.397708415771465e-01
-9.829731095281758e-20 -2.218501999081233e-17  4.049916213488846e-01
 9.397708415771465e-01  4.049916213488846e-01 -2.701470305336298e-17

-2.741871193780166e-17 -1.411955062013805e-19  9.485129353868701e-01
-1.411955062013805e-19 -2.247144364374173e-17  4.037722771910237e-01
 9.485129353868701e-01  4.037722771910237e-01 -2.741182574325230e-17

-2.928739262198435e-17 -1.405212691980790e-19  1.054158851697955e+00
-1.405212691980790e-19 -2.326459533907649e-17  4.129538181822022e-01
 1.054158851697955e+00  4.129538181822022e-01 -3.130662220068692e-17

-2.917759328923021e-17 -2.710179995619808e-19  1.036019686351265e+00
-2.710179995619808e-19 -2.299091453194660e-17  4.248266881490372e-01
 1.036019686351265e+00  4.248266881490372e-01 -3.083767872112145e-17

-2.700144534818361e-17 -7.995402039246447e-20  9.058794425385844e-01
-7.995402039246447e-20 -2.146824319055744e-17  4.159622172006633e-01
 9.058794425385844e-01  4.159622172006633e-01 -2.569664797557125e-17

-2.627041966717811e-17 -7.294198880436461e-20  8.489430123919216e-01
-7.294198880436461e-20 -2.050525295145653e-17  4.384077795319672e-01
 8.489430123919216e-01  4.384077795319672e-01 -2.384160587217537e-17

-2.669840572669383e-17 -5.100195053039383e-20  8.616415573850525e-01
-5.100195053039383e-20 -2.074473925024624e-17  4.389959609786566e-01
 8.616415573850525e-01  4.389959609786566e-01 -2.445609914925387e-17

-2.781999185892073e-17 -4.510411563517886e-21  9.134985675094357e-01
-4.510411563517886e-21 -2.197345143226226e-17  4.156844214834953e-01
 9.134985675094357e-01  4.156844214834953e-01 -2.644370329320561e-17

-2.990157208779156e-17  1.439970476732658e-19  1.023430058965858e+00
 1.439970476732658e-19 -2.325680833566188e-17  4.090861336661017e-01
 1.023430058965858e+00  4.090861336661017e-01 -3.054258304680550e-17

-2.998641480911243e-17  1.370820071878708e-19  1.007171016774705e+00
 1.370820071878708e-19 -2.330491639112092e-17  4.191309670221145e-01
 1.007171016774705e+00  4.191309670221145e-01 -3.022762536557656e-17

-2.799489160884167e-17  2.738947516629827e-19  8.777761234806681e-01
 2.738947516629827e-19 -2.258964306500307e-17  4.000109753959779e-01
 8.777761234806681e-01  4.000109753959779e-01 -2.535157266622019e-17

-2.844745848815139e-17  1.996163531073379e-19  8.816480627308568e-01
 1.996163531073379e-19 -2.305364902034271e-17  4.046412091769954e-01
 8.816480627308568e-01  4.046412091769954e-01 -2.582351621085089e-17

-3.140023608956950e-17  4.853757185934068e-19  1.046399681159037e+00
 4.853757185934068e-19 -2.461749370832130e-17  3.950781722492501e-01
 1.046399681159037e+00  3.950781722492501e-01 -3.191054777077046e-17

-3.166267104264718e-17  4.299432724029304e-19  1.036863745986106e+00
 4.299432724029304e-19 -2.485834899999572e-17  3.998784236029681e-01
 1.036863745986106e+00  3.998784236029681e-01 -3.201504014679530e-17

-2.920524848520023e-17  6.149067891283469e-19  8.821672193080817e-01
 6.149067891283469e-19 -2.364756601771262e-17  3.824841445850146e-01
 8.821672193080817e-01  3.824841445850146e-01 -2.623048882292441e-17

-2.838614366467046e-17  6.007804186619086e-19  8.133944375975847e-01
 6.007804186619086e-19 -2.286421672787813e-17  4.086904214109517e-01
 8.133944375975847e-01  4.086904214109517e-01 -2.409059845894642e-17

-2.891716110088236e-17  5.813656697355687e-19  8.252205454789020e-01
 5.813656697355687e-19 -2.342163754085239e-17  4.124190372530790e-01
 8.252205454789020e-01  4.124190372530790e-01 -2.477526470612611e-17

-3.023625188437855e-17  5.259968814347301e-19  8.785638241296670e-01
 5.259968814347301e-19 -2.507927233210375e-17  3.955423853458925e-01
 8.785638241296670e-01  3.955423853458925e-01 -2.688236506094773e-17

-3.272790858999069e-17  5.912680340640013e-19  1.002468835672325e+00
 5.912680340640013e-19 -2.704148448478963e-17  3.891332139403811e-01
 1.002468835672325e+00  3.891332139403811e-01 -3.138521426070334e-17

-3.388750090326166e-17  4.377235924125894e-19  1.032094795068845e+00
 4.377235924125894e-19 -2.810281781426199e-17  4.046734603996915e-01
 1.032094795068845e+00  4.046734603996915e-01 -3.258721310004912e-17

-3.353522608037215e-17  3.861588388417501e-19  9.717097672652534e-01
 3.861588388417501e-19 -2.856888939232075e-17  3.981044564135398e-01
 9.717097672652534e-01  3.981044564135398e-01 -3.039172624894788e-17

-3.493282354149935e-17  3.904284735834726e-19  1.009671317125026e+00
 3.904284735834726e-19 -2.985126518588123e-17  3.991595435772952e-01
 1.009671317125026e+00  3.991595435772952e-01 -3.202167290735461e-17

-3.822813918638776e-17  5.892415679573555e-19  1.166222768812436e+00
 5.892415679573555e-19 -3.184226268795199e-17  4.061774712958274e-01
 1.166222768812436e+00  4.061774712958274e-01 -3.799847585247997e-17

-3.888022536254843e-17  3.846677934806357e-19  1.155408251081277e+00
 3.846677934806357e-19 -3.234638303750880e-17  4.223469606830468e-01
 1.155408251081277e+00  4.223469606830468e-01 -3.812129606144492e-17

-3.688951433662640e-17  4.663834008315553e-19  1.004967162680075e+00
 4.663834008315553e-19 -3.102051620666055e-17  4.132482880557737e-01
 1.004967162680075e+00  4.132482880557737e-01 -3.225107521797551e-17

-3.638263649717121e-17  3.554953834314472e-19  9.241737244958617e-01
 3.554953834314472e-19 -3.010061819354947e-17  4.470628344208409e-01
 9.241737244958617e-01  4.470628344208409e-01 -2.966493110741312e-17

-3.696078781537446e-17  2.606842162080213e-19  9.028259277053149e-01
 2.606842162080213e-19 -3.045617480771445e-17  4.564357390197746e-01
 9.028259277053149e-01  4.564357390197746e-01 -2.924368522664777e-17

-3.872342732689325e-17  2.373854512088496e-19  9.411588072814050e-01
 2.373854512088496e-19 -3.201651581733001e-17  4.454616668322692e-01
 9.411588072814050e-01  4.454616668322692e-01 -3.100037813008042e-17

-4.183466652714116e-17  3.522491926023630e-19  1.051328100145678e+00
 3.522491926023630e-19 -3.400454669171552e-17  4.481675068426568e-01
 1.051328100145678e+00  4.481675068426568e-01 -3.544905865828031e-17

-4.339129848598490e-17  3.138809426706827e-19  1.054152191872797e+00
 3.138809426706827e-19 -3.518826519233563e-17  4.547752710659186e-01
 1.054152191872797e+00  4.547752710659186e-01 -3.615377837987789e-17

-4.330620823592002e-17  3.338405995962340e-19  9.601090014106485e-01
 3.338405995962340e-19 -3.562483097569833e-17  4.410493385484612e-01
 9.601090014106485e-01  4.410493385484612e-01 -3.295056080265924e-17

-4.519060423509893e-17  3.084146618200276e-19  9.618517671162622e-01
 3.084146618200276e-19 -3.700576824382502e-17  4.475497954895556e-01
 9.618517671162622e-01  4.475497954895556e-01 -3.374871895269263e-17

-4.902516933720465e-17  5.161756750807587e-19  1.069916392093464e+00
 5.161756750807587e-19 -3.928491254991378e-17  4.558353206808651e-01
 1.069916392093464e+00  4.558353206808651e-01 -3.852253411298803e-17

-5.128480790526805e-17  5.206305960323726e-19  1.064096124972579e+00
 5.206305960323726e-19 -4.087351126358132e-17  4.583877265550023e-01
 1.064096124972579e+00  4.583877265550023e-01 -3.928235205006935e-17

-5.189303797054044e-17  5.076687543994927e-19  9.542891059613071e-01
 5.076687543994927e-19 -4.175362471945099e-17  4.393784224605513e-01
 9.542891059613071e-01  4.393784224605513e-01 -3.589640112119463e-17

-5.473105116856850e-17  5.061235645370051e-19  9.439736553359814e-01
 5.061235645370051e-19 -4.374779034417194e-17  4.440918494804208e-01
 9.439736553359814e-01  4.440918494804208e-01 -3.674521562148886e-17

-5.978864457722033e-17  8.263045167713552e-19  1.046569086249449e+00
 8.263045167713552e-19 -4.688691368616866e-17  4.465615380844911e-01
 1.046569086249449e+00  4.465615380844911e-01 -4.178666137149206e-17

-6.383894784688434e-17  8.465303527124603e-19  1.051781679923774e+00
 8.465303527124603e-19 -4.966062069925551e-17  4.455446019158585e-01
 1.051781679923774e+00  4.455446019158585e-01 -4.348305802370288e-17

-6.688498868849135e-17  7.349291434787486e-19  9.702573484518627e-01
 7.349291434787486e-19 -5.202927836556423e-17  4.280161337073606e-01
 9.702573484518627e-01  4.280161337073606e-01 -4.193802575338000e-17

-7.243063971395531e-17  8.372176470575367e-19  9.784802164279938e-01
 8.372176470575367e-19 -5.554961526850876e-17  4.258036279319304e-01
 9.784802164279938e-01  4.258036279319304e-01 -4.426769678840219e-17

-8.054145697642371e-17  1.353901391625357e-18  1.092465821241735e+00
 1.353901391625357e-18 -6.013845070747941e-17  4.278257251576227e-01
 1.092465821241735e+00  4.278257251576227e-01 -5.075547027066584e-17

-8.629963606783534e-17  6.322962720937382e-19  1.069517811163139e+00
 6.322962720937382e-19 -6.072293152210614e-17  4.404385290006336e-01
 1.069517811163139e+00  4.404385290006336e-01 -5.308341891726485e-17

-9.240704118402455e-17  7.744389220005077e-20  9.338820543355251e-01
 7.744389220005077e-20 -6.370564271887742e-17  4.243387833831425e-01
 9.338820543355251e-01  4.243387833831425e-01 -5.071484451176734e-17

-1.034690499447067e-16  3.831998526638701e-19  9.141667745445421e-01
 3.831998526638701e-19 -7.169415287006293e-17  4.431990739514391e-01
 9.141667745445421e-01  4.431990739514391e-01 -5.318565030018985e-17

-1.182672123657663e-16  1.009463248322939e-18  1.023533120175488e+00
 1.009463248322939e-18 -7.872032354432403e-17  4.422535195556387e-01
 1.023533120175488e+00  4.422535195556387e-01 -6.175043071530855e-17

-1.351738888025777e-16  1.484519619578814e-18  1.084615070512397e+00
 1.484519619578814e-18 -8.648338945541200e-17  4.239252157671121e-01
 1.084615070512397e+00  4.239252157671121e-01 -6.961819426511384e-17

-1.551257646668333e-16  1.753659549026045e-18  1.113634731983920e+00
 1.753659549026045e-18 -9.399402152227637e-17  4.266976642500248e-01
 1.113634731983920e+00  4.266976642500248e-01 -7.753984042642739e-17

-1.790449495717147e-16  1.457571989208544e-18  1.076633154968992e+00
 1.457571989208544e-18 -1.009772454084545e-16  4.439670732803360e-01
 1.076633154968992e+00  4.439670732803360e-01 -8.472448267858385e-17

-2.085341482790759e-16  7.066962385522341e-19  9.703928615041763e-01
 7.066962385522341e-19 -1.076930552738880e-16  4.322343912268816e-01
 9.703928615041763e-01  4.322343912268816e-01 -9.138775923682951e-17

-2.491723215408751e-16  1.078391762444400e-18  9.707708706502889e-01
 1.078391762444400e-18 -1.157295598756519e-16  4.320147748428535e-01
 9.707708706502889e-01  4.320147748428535e-01 -1.056511304060864e-16

-3.047275972178248e-16  3.231625748629849e-18  1.094807163900743e+00
 3.231625748629849e-18 -1.242435628710629e-16  4.375539798869870e-01
 1.094807163900743e+00  4.375539798869870e-01 -1.288477477452665e-16

-3.761961584770350e-16  5.555619775012950e-18  1.091658477974369e+00
 5.555619775012950e-18 -1.283073210994182e-16  4.433547672228375e-01
 1.091658477974369e+00  4.433547672228375e-01 -1.536313680592548e-16

-4.706915756726327e-16  1.148711256363129e-17  9.827345918652610e-01
 1.148711256363129e-17 -1.232891582547074e-16  4.268847172174606e-01
 9.827345918652610e-01  4.268847172174606e-01 -1.827896975535611e-16

-6.034273198831450e-16  2.595205643732800e-17  9.710598142448741e-01
 2.595205643732800e-17 -1.067663435439199e-16  4.333866924196211e-01
 9.710598142448741e-01  4.333866924196211e-01 -2.291314927108847e-16

-7.941602928806105e-16  5.411454103182614e-17  1.058819507840147e+00
 5.411454103182614e-17 -6.773857114811178e-17  4.538855813598190e-01
 1.058819507840147e+00  4.538855813598190e-01 -2.993394708559248e-16

-1.070074067613584e-15  1.232801902718033e-16  1.035047114192837e+00
 1.232801902718033e-16  2.101620004122497e-17  4.616700282906363e-01
 1.035047114192837e+00  4.616700282906363e-01 -3.999431604458956e-16

-1.459481846447093e-15  3.034605170011388e-16  8.959187450109810e-01
 3.034605170011388e-16  1.859799631870704e-16  4.442278880045969e-01
 8.959187450109810e-01  4.442278880045969e-01 -5.533359897208602e-16

-2.050214904978279e-15  6.718970793345987e-16  8.764772041638470e-01
 6.718970793345987e-16  4.782852975787785e-16  4.459474839888484e-01
 8.764772041638470e-01  4.459474839888484e-01 -8.132979507777102e-16

-3.043186503566814e-15  1.429354033064295e-15  9.935974459217047e-01
 1.429354033064295e-15  1.094916409544452e-15  4.484713890061708e-01
 9.935974459217047e-01  4.484713890061708e-01 -1.281145122957369e-15

-4.413800025418099e-15  3.225776518086280e-15  9.884938914419122e-01
 3.225776518086280e-15  1.986907914398489e-15  4.475639482657627e-01
 9.884938914419122e-01  4.475639482657627e-01 -2.136589925286703e-15

-5.807333627175456e-15  7.051822307148960e-15  8.733827412510686e-01
 7.051822307148960e-15  1.814772393819602e-15  4.275813595200254e-01
 8.733827412510686e-01  4.275813595200254e-01 -3.812773819368935e-15

-9.195920925789646e-15  1.457588749020012e-14  8.535547726218651e-01
 1.457588749020012e-14 -1.122872262206452e-15  4.357900976666308e-01
 8.535547726218651e-01  4.357900976666308e-01 -8.111021964161475e-15

-1.443197114849302e-14  2.527303548578215e-14  9.389769188865723e-01
 2.527303548578215e-14  3.143442380759102e-15  4.265761222353488e-01
 9.389769188865723e-01  4.265761222353488e-01 -1.768552863152841e-14

 3.351206770728672e-13 -5.618609137069254e-14  9.774307879768722e-01
-5.618609137069254e-14  1.700600460343500e-13  4.075756617602621e-01
 9.774307879768722e-01  4.075756617602621e-01  9.158074339320556e-14

-2.603059879715208e-13  6.090107184480517e-14  9.868693890561336e-01
 6.090107184480517e-14 -1.558196730676661e-13  3.965708822053953e-01
 9.868693890561336e-01  3.965708822053953e-01 -5.840828198716976e-14

-2.710999415501218e-13  3.776229219981874e-14  1.007297171232664e+00
 3.776229219981874e-14 -1.490114443597981e-13  3.880699108935328e-01
 1.007297171232664e+00  3.880699108935328e-01 -5.832719931716436e-14

 3.146687851888031e-13 -1.003536972757749e-13  1.046346473186844e+00
-1.003536972757749e-13  1.686635786100802e-13  3.906531079413103e-01
 1.046346473186844e+00  3.906531079413103e-01  9.215579243555521e-14

-3.032279331956468e-14 -8.390523930961736e-15  1.002477390542678e+00
-8.390523930961736e-15  1.047623405390029e-14  4.037857393690155e-01
 1.002477390542678e+00  4.037857393690155e-01 -1.605532831342878e-14

-1.904368685655437e-14  2.583028255031427e-15  8.732960879896308e-01
 2.583028255031427e-15  3.292721339115537e-16  3.872746679461651e-01
 8.732960879896308e-01  3.872746679461651e-01 -7.588361384633411e-15

-9.802829309526822e-15  3.155573634426645e-15  8.574561018394745e-01
 3.155573634426645e-15 -2.387330112821912e-15  3.866396139155935e-01
 8.574561018394745e-01  3.866396139155935e-01 -3.302928420947385e-15

-5.356400165897567e-15  2.376420966500551e-15  9.727417593947946e-01
 2.376420966500551e-15 -3.424214052472724e-15  3.800944443519788e-01
 9.727417593947946e-01  3.800944443519788e-01 -1.667651899503506e-15

-3.117792249447507e-15  1.614220743707530e-15  9.337769278674936e-01
 1.614220743707530e-15 -2.662939896872811e-15  3.964785831971622e-01
 9.337769278674936e-01  3.964785831971622e-01 -9.680127920662099e-16

-1.985815452864696e-15  1.127580618482029e-15  7.670087177074010e-01
 1.127580618482029e-15 -1.763008843715741e-15  3.850187421918536e-01
 7.670087177074010e-01  3.850187421918536e-01 -6.210641621104995e-16

-1.307567938302644e-15  7.550928861058389e-16  7.380559001071851e-01
 7.550928861058389e-16 -1.416623471938598e-15  4.129293890159753e-01
 7.380559001071851e-01  4.129293890159753e-01 -4.210291349137435e-16

-8.826953157036875e-16  4.677091838825834e-16  8.563915143989534e-01
 4.677091838825834e-16 -1.233228406721544e-15  3.977723146194375e-01
 8.563915143989534e-01  3.977723146194375e-01 -3.021530102926137e-16

-6.242982177541804e-16  2.795164856677245e-16  9.509030770133811e-01
 2.795164856677245e-16 -1.017342104321402e-15  3.626667127484797e-01
 9.509030770133811e-01  3.626667127484797e-01 -2.282595398573335e-16

-4.619468640591159e-16  1.612083689033123e-16  1.061012915345161e+00
 1.612083689033123e-16 -8.201547494789474e-16  3.497382201470299e-01
 1.061012915345161e+00  3.497382201470299e-01 -1.812246577487229e-16

-3.592420749176243e-16  1.104870552202389e-16  1.029827785433911e+00
 1.104870552202389e-16 -6.445255884008832e-16  3.769101076848276e-01
 1.029827785433911e+00  3.769101076848276e-01 -1.464778517325379e-16

-2.881387160996896e-16  9.306277337314167e-17  8.730092756375425e-01
 9.306277337314167e-17 -5.038024647128299e-16  3.668547690187927e-01
 8.730092756375425e-01  3.668547690187927e-01 -1.169618696699835e-16

-2.350874203723813e-16  6.810192460482180e-17  8.559749995754371e-01
 6.810192460482180e-17 -4.099263101496147e-16  3.857582032556218e-01
 8.559749995754371e-01  3.857582032556218e-01 -9.854134505559633e-17

-1.965623306541306e-16  4.275864646728200e-17  9.946168355032001e-01
 4.275864646728200e-17 -3.440570839141017e-16  3.818141838427974e-01
 9.946168355032001e-01  3.818141838427974e-01 -8.961877929143535e-17

-1.670777840564152e-16  3.134864285463332e-17  1.005493017084889e+00
 3.134864285463332e-17 -2.876719132431484e-16  3.921213741242368e-01
 1.005493017084889e+00  3.921213741242368e-01 -7.964841029762571e-17

-1.429151449439940e-16  2.782269474500491e-17  9.083927469529302e-01
 2.782269474500491e-17 -2.405828770586726e-16  3.856030090061692e-01
 9.083927469529302e-01  3.856030090061692e-01 -6.782741199356398e-17

-1.246654117252533e-16  2.216083295935537e-17  9.053973114535147e-01
 2.216083295935537e-17 -2.051498674382732e-16  3.965223040039000e-01
 9.053973114535147e-01  3.965223040039000e-01 -6.122402647789034e-17

-1.113328166040503e-16  1.604282820275334e-17  9.965213372490823e-01
 1.604282820275334e-17 -1.781319082903104e-16  4.037752290108546e-01
 9.965213372490823e-01  4.037752290108546e-01 -5.927437016320497e-17

-9.890644040384121e-17  1.355045053763159e-17  9.552516618805232e-01
 1.355045053763159e-17 -1.542663485829237e-16  4.198229939122456e-01
 9.552516618805232e-01  4.198229939122456e-01 -5.373898606687309e-17

-8.654947212803380e-17  1.328335140112699e-17  7.894529238808372e-01
 1.328335140112699e-17 -1.336046197958841e-16  4.035480133639853e-01
 7.894529238808372e-01  4.035480133639853e-01 -4.411496678988713e-17

-7.581229017495818e-17  7.593667830616481e-18  7.903697050078120e-01
 7.593667830616481e-18 -1.137946383547655e-16  4.269863764139450e-01
 7.903697050078120e-01  4.269863764139450e-01 -4.245081776916620e-17

-7.238892956807399e-17  3.474718018582368e-18  9.965183139056466e-01
 3.474718018582368e-18 -1.044679881812876e-16  3.910468297132876e-01
 9.965183139056466e-01  3.910468297132876e-01 -4.746736739169933e-17

-7.096016027165373e-17  3.225583748754322e-18  1.068761802053630e+00
 3.225583748754322e-18 -1.009042774625285e-16  3.802811525261965e-01
 1.068761802053630e+00  3.802811525261965e-01 -4.755967822927900e-17

-6.568112005425913e-17  2.310704441718675e-18  1.034948064142703e+00
 2.310704441718675e-18 -9.179682867056565e-17  3.800122952295239e-01
 1.034948064142703e+00  3.800122952295239e-01 -4.469668411683252e-17

-6.076891418835607e-17  1.775692928036137e-18  9.952634603547086e-01
 1.775692928036137e-18 -8.314063763258663e-17  3.948409748485492e-01
 9.952634603547086e-01  3.948409748485492e-01 -4.170130090341490e-17

-5.616655059483670e-17  1.496622631157549e-18  9.352515953719419e-01
 1.496622631157549e-18 -7.589701793408526e-17  3.964145577779034e-01
 9.352515953719419e-01  3.964145577779034e-01 -3.820916165938401e-17

-5.307013779447624e-17  9.804765383186435e-19  9.384926744876997e-01
 9.804765383186435e-19 -7.022347868886692e-17  3.966150425844514e-01
 9.384926744876997e-01  3.966150425844514e-01 -3.728095664013562e-17

-5.158620651299754e-17  3.437421871848643e-19  1.014853151677913e+00
 3.437421871848643e-19 -6.602088917696415e-17  3.950219038986599e-01
 1.014853151677913e+00  3.950219038986599e-01 -3.905836609910064e-17

-4.928700636501254e-17 -1.381373816280821e-19  1.020891935958548e+00
-1.381373816280821e-19 -6.177534373521801e-17  4.048366120657986e-01
 1.020891935958548e+00  4.048366120657986e-01 -3.831681359821623e-17

-4.628941999231244e-17 -2.461950319444674e-19  9.626708817168002e-01
-2.461950319444674e-19 -5.778372848610068e-17  4.039232136695220e-01
 9.626708817168002e-01  4.039232136695220e-01 -3.527872014175114e-17

-4.507403068661540e-17 -4.728355024591468e-19  9.944103248984658e-01
-4.728355024591468e-19 -5.498329978804654e-17  4.047601011257068e-01
 9.944103248984658e-01  4.047601011257068e-01 -3.577588098447840e-17

-4.574505793994532e-17 -6.394892531050675e-19  1.129946939133845e+00
-6.394892531050675e-19 -5.330453614668124e-17  4.034031174867748e-01
 1.129946939133845e+00  4.034031174867748e-01 -4.016268709863299e-17

-4.415709305579011e-17 -7.715986401735856e-19  1.117378677663808e+00
-7.715986401735856e-19 -5.045417119122633e-17  4.201154808452153e-01
 1.117378677663808e+00  4.201154808452153e-01 -3.929667685135294e-17

-4.030834920083906e-17 -3.635094660280710e-19  9.749180247386259e-01
-3.635094660280710e-19 -4.678474194434933e-17  4.052764263201222e-01
 9.749180247386259e-01  4.052764263201222e-01 -3.320055662854006e-17

-3.860651639363072e-17 -3.304100357697910e-19  9.439633661744700e-01
-3.304100357697910e-19 -4.413855312621653e-17  4.215582831218812e-01
 9.439633661744700e-01  4.215582831218812e-01 -3.171020118119175e-17

-3.894355717306108e-17 -3.903623852766178e-19  1.029798369513525e+00
-3.903623852766178e-19 -4.287710246687754e-17  4.284484440444067e-01
 1.029798369513525e+00  4.284484440444067e-01 -3.442649666277112e-17

-3.823318043750881e-17 -4.915271772984616e-19  1.043795582817459e+00
-4.915271772984616e-19 -4.145586393251432e-17  4.310967384460541e-01
 1.043795582817459e+00  4.310967384460541e-01 -3.456155823229805e-17

-3.657652316538698e-17 -4.389895670807970e-19  9.943337331493766e-01
-4.389895670807970e-19 -3.969247913757502e-17  4.266044961162942e-01
 9.943337331493766e-01  4.266044961162942e-01 -3.228931732471454e-17

-3.600735875232609e-17 -4.188838876670270e-19  1.002546026015322e+00
-4.188838876670270e-19 -3.841128392690921e-17  4.304568108288521e-01
 1.002546026015322e+00  4.304568108288521e-01 -3.231914028258688e-17

-3.648402446408510e-17 -3.593244725474251e-19  1.068864480567325e+00
-3.593244725474251e-19 -3.769857625693976e-17  4.356278139379648e-01
 1.068864480567325e+00  4.356278139379648e-01 -3.457702604387890e-17

-3.565048455598336e-17 -3.138256075169142e-19  1.054721372915254e+00
-3.138256075169142e-19 -3.636687955639693e-17  4.426592214628267e-01
 1.054721372915254e+00  4.426592214628267e-01 -3.390562794193657e-17

-3.356133364809487e-17 -2.006994766333433e-19  9.665336890568137e-01
-2.006994766333433e-19 -3.474964976572994e-17  4.329772724867320e-01
 9.665336890568137e-01  4.329772724867320e-01 -3.030278922493539e-17

-3.332222866166413e-17 -2.777509283807714e-19  9.800350562479033e-01
-2.777509283807714e-19 -3.415698418110353e-17  4.364516061319523e-01
 9.800350562479033e-01  4.364516061319523e-01 -3.069971193861522e-17

-3.505376406200827e-17 -2.177726563787801e-19  1.110945622828855e+00
-2.177726563787801e-19 -3.455852800508074e-17  4.376781645081270e-01
 1.110945622828855e+00  4.376781645081270e-01 -3.540525442207549e-17

-3.467874787139772e-17 -2.765812935774340e-19  1.109128910112378e+00
-2.765812935774340e-19 -3.383805185662040e-17  4.454175485869515e-01
 1.109128910112378e+00  4.454175485869515e-01 -3.535140035933143e-17

-3.218205850340753e-17 -1.300180851647793e-19  9.891687367183279e-01
-1.300180851647793e-19 -3.219338758803046e-17  4.262417292877608e-01
 9.891687367183279e-01  4.262417292877608e-01 -3.049135924451812e-17

-3.188643030000489e-17 -1.960656991257604e-19  9.909060280863610e-01
-1.960656991257604e-19 -3.161476386529062e-17  4.307122733433342e-01
 9.909060280863610e-01  4.307122733433342e-01 -3.054902264509962e-17

-3.386718468946165e-17 -7.520318898188079e-20  1.132313582435802e+00
-7.520318898188079e-20 -3.214449259261392e-17  4.307290214958761e-01
 1.132313582435802e+00  4.307290214958761e-01 -3.574271849272874e-17

-3.304534847862097e-17 -1.557341431364713e-19  1.099414087183951e+00
-1.557341431364713e-19 -3.105750576351424e-17  4.429581257373474e-01
 1.099414087183951e+00  4.429581257373474e-01 -3.465732602386527e-17

-2.957484327100936e-17  9.043893888022505e-20  9.260133213709739e-01
 9.043893888022505e-20 -2.886332458023551e-17  4.144620091332987e-01
 9.260133213709739e-01  4.144620091332987e-01 -2.760574823307012e-17

-2.892580811965309e-17 -7.361783558097613e-20  9.017204136217237e-01
-7.361783558097613e-20 -2.799749794066745e-17  4.302958977122265e-01
 9.017204136217237e-01  4.302958977122265e-01 -2.683062321141235e-17

-3.104642536519705e-17  3.903447052158123e-20  1.050091609383315e+00
 3.903447052158123e-20 -2.858061026513334e-17  4.300152220884520e-01
 1.050091609383315e+00  4.300152220884520e-01 -3.212408491246696e-17

-3.073127415979940e-17 -5.607367550540893e-20  1.041121957798124e+00
-5.607367550540893e-20 -2.804687639126356e-17  4.385101607302933e-01
 1.041121957798124e+00  4.385101607302933e-01 -3.188868719983331e-17

-2.797474170264350e-17  7.324000809965753e-20  8.948662933270518e-01
 7.324000809965753e-20 -2.656539847482247e-17  4.177652306549732e-01
 8.948662933270518e-01  4.177652306549732e-01 -2.615025933169389e-17

-2.790546344368155e-17 -8.370460145295839e-20  8.944022381311606e-01
-8.370460145295839e-20 -2.630521954616716e-17  4.322989714799534e-01
 8.944022381311606e-01  4.322989714799534e-01 -2.627055140696250e-17

-3.056391362820255e-17  1.396003591957960e-19  1.066007429706696e+00
 1.396003591957960e-19 -2.767690613965030e-17  4.197881490062275e-01
 1.066007429706696e+00  4.197881490062275e-01 -3.253294593977527e-17

-3.087764419705893e-17  8.309651811821109e-20  1.086335994289885e+00
 8.309651811821109e-20 -2.796182930264902e-17  4.198453624555921e-01
 1.086335994289885e+00  4.198453624555921e-01 -3.350137687142812e-17

-2.885586022918171e-17  1.077861552410453e-19  9.771627355317484e-01
 1.077861552410453e-19 -2.706711505014805e-17  4.035950236374555e-01
 9.771627355317484e-01  4.035950236374555e-01 -2.932475363439243e-17

-2.858604133120543e-17  1.984951072220507e-20  9.711603272689473e-01
 1.984951072220507e-20 -2.680534981519247e-17  4.091903883412148e-01
 9.711603272689473e-01  4.091903883412148e-01 -2.910219109765419e-17

-3.015509467845686e-17  7.263926029403892e-20  1.079185122203456e+00
 7.263926029403892e-20 -2.738168332387857e-17  4.120843127107049e-01
 1.079185122203456e+00  4.120843127107049e-01 -3.297616916022546e-17

-2.976427952592440e-17 -6.072236336126313e-20  1.063919267781882e+00
-6.072236336126313e-20 -2.685546244315217e-17  4.236554542520167e-01
 1.063919267781882e+00  4.236554542520167e-01 -3.243336262654278e-17

-2.741478049824943e-17 -2.997328720788674e-20  9.392599945418044e-01
-2.997328720788674e-20 -2.550981147944303e-17  4.106029497869474e-01
 9.392599945418044e-01  4.106029497869474e-01 -2.747561175629896e-17

-2.723820890397548e-17 -1.748490117312555e-19  9.340967834687741e-01
-1.748490117312555e-19 -2.514725360581341e-17  4.224689785618315e-01
 9.340967834687741e-01  4.224689785618315e-01 -2.728354687652344e-17

-2.923996865941791e-17 -9.649851327689706e-20  1.062218338294582e+00
-9.649851327689706e-20 -2.591152671361580e-17  4.246794243676327e-01
 1.062218338294582e+00  4.246794243676327e-01 -3.186827411716468e-17

-2.932899740855558e-17 -1.293208516696467e-19  1.067774859605317e+00
-1.293208516696467e-19 -2.576793104204728e-17  4.278054559534236e-01
 1.067774859605317e+00  4.278054559534236e-01 -3.218429983949816e-17

-2.734789176863645e-17  2.121347770831195e-20  9.577086954810047e-01
 2.121347770831195e-20 -2.464225168064243e-17  4.103348263615781e-01
 9.577086954810047e-01  4.103348263615781e-01 -2.798117811072191e-17

-2.684500716047959e-17  4.694041572643569e-20  9.324923498805527e-01
 4.694041572643569e-20 -2.410861773910308e-17  4.157356974198856e-01
 9.324923498805527e-01  4.157356974198856e-01 -2.719825080566358e-17

-2.781086658222800e-17  1.355865743949154e-19  9.999458326822595e-01
 1.355865743949154e-19 -2.444210814369168e-17  4.159272713637500e-01
 9.999458326822595e-01  4.159272713637500e-01 -2.969097605262635e-17

-2.765593296600638e-17  8.684149358563240e-20  9.980113407062822e-01
 8.684149358563240e-20 -2.433357410004403e-17  4.156626675540214e-01
 9.980113407062822e-01  4.156626675540214e-01 -2.962159086254361e-17

-2.645831008280341e-17  6.311084565061939e-20  9.318956286374613e-01
 6.311084565061939e-20 -2.383156852130714e-17  4.067718775573124e-01
 9.318956286374613e-01  4.067718775573124e-01 -2.713490712946765e-17

-2.655128770411963e-17  2.841137616236958e-20  9.400740539640324e-01
 2.841137616236958e-20 -2.398240140435096e-17  4.043084369260251e-01
 9.400740539640324e-01  4.043084369260251e-01 -2.752223926721076e-17

-2.798020648483829e-17  1.211638509800207e-19  1.033231269885152e+00
 1.211638509800207e-19 -2.479133116954802e-17  3.998198831484827e-01
 1.033231269885152e+00  3.998198831484827e-01 -3.093162722514462e-17

-2.788467668021111e-17  6.115186617228917e-21  1.032197395047249e+00
 6.115186617228917e-21 -2.476873912080824e-17  4.056230004935680e-01
 1.032197395047249e+00  4.056230004935680e-01 -3.091768216322227e-17

-2.637939411372068e-17 -5.465606042440799e-20  9.498958704039634e-01
-5.465606042440799e-20 -2.408406287122233e-17  3.998308791840693e-01
 9.498958704039634e-01  3.998308791840693e-01 -2.773131465211062e-17

-2.623201748518211e-17 -1.530767321913920e-19  9.451170116906501e-01
-1.530767321913920e-19 -2.392187153372034e-17  4.086470731562464e-01
 9.451170116906501e-01  4.086470731562464e-01 -2.753573127188314e-17

-2.742015888626947e-17 -1.727585427475425e-19  1.021877063079417e+00
-1.727585427475425e-19 -2.452665434784045e-17  4.139494779323421e-01
 1.021877063079417e+00  4.139494779323421e-01 -3.025597675757767e-17

-2.767708209990874e-17 -2.937335481443835e-19  1.039309472532167e+00
-2.937335481443835e-19 -2.479826782737229e-17  4.183536344331156e-01
 1.039309472532167e+00  4.183536344331156e-01 -3.084143846093712e-17

-2.703688498004311e-17 -3.716496085854527e-19  1.002645615862158e+00
-3.716496085854527e-19 -2.470110150390975e-17  4.142214898653118e-01
 1.002645615862158e+00  4.142214898653118e-01 -2.936218732214531e-17

-2.747980978481969e-17 -4.533405696725391e-19  1.030359704447894e+00
-4.533405696725391e-19 -2.515364534427655e-17  4.127479460006365e-01
 1.030359704447894e+00  4.127479460006365e-01 -3.034031457832306e-17

-2.914761339930978e-17 -5.023457463422275e-19  1.133221753275435e+00
-5.023457463422275e-19 -2.588822676041098e-17  4.277233082190139e-01
 1.133221753275435e+00  4.277233082190139e-01 -3.408429841641744e-17

-2.871024400395056e-17 -6.997205041921571e-19  1.106178401192389e+00
-6.997205041921571e-19 -2.524088745033208e-17  4.525873343744761e-01
 1.106178401192389e+00  4.525873343744761e-01 -3.318457202968046e-17

-2.602817370997667e-17 -5.026388909947842e-19  9.592462330975237e-01
-5.026388909947842e-19 -2.358082881210786e-17  4.340633048555853e-01
 9.592462330975237e-01  4.340633048555853e-01 -2.712885066290209e-17

-2.602233597150494e-17 -6.523783017773091e-19  9.538806690141247e-01
-6.523783017773091e-19 -2.348408548353096e-17  4.455748814483856e-01
 9.538806690141247e-01  4.455748814483856e-01 -2.718281104336596e-17

-2.873057180612898e-17 -5.717070324302162e-19  1.119382931810192e+00
-5.717070324302162e-19 -2.477407497227834e-17  4.535565343459054e-01
 1.119382931810192e+00  4.535565343459054e-01 -3.327100502823656e-17

-2.887304562771028e-17 -7.434554743440642e-19  1.124370529795908e+00
-7.434554743440642e-19 -2.491694970441700e-17  4.622728383750803e-01
 1.124370529795908e+00  4.622728383750803e-01 -3.367251914454414e-17

-2.650103706324718e-17 -5.818580294762465e-19  9.945572372597686e-01
-5.818580294762465e-19 -2.360783820265403e-17  4.415111938953033e-01
 9.945572372597686e-01  4.415111938953033e-01 -2.835068163217851e-17

-2.624409615513177e-17 -6.849132262145616e-19  9.777118704957294e-01
-6.849132262145616e-19 -2.327485822674325e-17  4.548096175871496e-01
 9.777118704957294e-01  4.548096175871496e-01 -2.786754963168224e-17

-2.807390836289780e-17 -7.213685045556983e-19  1.088032288078322e+00
-7.213685045556983e-19 -2.405050346394642e-17  4.707501934915356e-01
 1.088032288078322e+00  4.707501934915356e-01 -3.196260380949401e-17

-2.827575684967823e-17 -8.286163154773074e-19  1.097488540626520e+00
-8.286163154773074e-19 -2.413713997293452e-17  4.786768220874286e-01
 1.097488540626520e+00  4.786768220874286e-01 -3.237062086669400e-17

-2.678159636486089e-17 -7.029811074298054e-19  1.011521440035944e+00
-7.029811074298054e-19 -2.340539765986358e-17  4.595705063063584e-01
 1.011521440035944e+00  4.595705063063584e-01 -2.885819775204553e-17

-2.716609612261490e-17 -7.024127423742846e-19  1.027735840741128e+00
-7.024127423742846e-19 -2.370726733120897e-17  4.556512346518352e-01
 1.027735840741128e+00  4.556512346518352e-01 -2.964659764068170e-17

-2.946795170303255e-17 -5.503829424924955e-19  1.163407027707013e+00
-5.503829424924955e-19 -2.490660211107074e-17  4.560589087732886e-01
 1.163407027707013e+00  4.560589087732886e-01 -3.487427768398947e-17

-2.922134407899887e-17 -5.970252932945604e-19  1.149919821230312e+00
-5.970252932945604e-19 -2.478945412822362e-17  4.511384952295369e-01
 1.149919821230312e+00  4.511384952295369e-01 -3.458642213425301e-17

-2.673747854172898e-17 -4.798492933259630e-19  1.020057856314691e+00
-4.798492933259630e-19 -2.304390940139246e-17  4.381963348160936e-01
 1.020057856314691e+00  4.381963348160936e-01 -2.931945644607511e-17

-2.535761850764947e-17 -5.429021421468593e-19  9.454882293729634e-01
-5.429021421468593e-19 -2.143791979781983e-17  4.637080788731121e-01
 9.454882293729634e-01  4.637080788731121e-01 -2.656773662934691e-17

-2.469549925934211e-17 -5.566305257475420e-19  9.102967278519128e-01
-5.566305257475420e-19 -2.084326260780543e-17  4.638369740949698e-01
 9.102967278519128e-01  4.638369740949698e-01 -2.525030613901122e-17

-2.521240310735570e-17 -5.498220078221368e-19  9.400818208284214e-01
-5.498220078221368e-19 -2.139359048712740e-17  4.473416146256399e-01
 9.400818208284214e-01  4.473416146256399e-01 -2.642876918461479e-17

-2.699842970879422e-17 -4.115153942267876e-19  1.046851230360343e+00
-4.115153942267876e-19 -2.248223243107021e-17  4.374591659742663e-01
 1.046851230360343e+00  4.374591659742663e-01 -3.043820360891551e-17

-2.701480357611216e-17 -4.174408634144176e-19  1.047367571588748e+00
-4.174408634144176e-19 -2.273838872160385e-17  4.319971313071174e-01
 1.047367571588748e+00  4.319971313071174e-01 -3.063454585574591e-17

-2.548194444578753e-17 -4.000658009843813e-19  9.640912585858725e-01
-4.000658009843813e-19 -2.221424564334170e-17  4.181963499635932e-01
 9.640912585858725e-01  4.181963499635932e-01 -2.739999386172184e-17

-2.544078520146042e-17 -5.227398475956919e-19  9.652791350918862e-01
-5.227398475956919e-19 -2.228240273916384e-17  4.218239822823788e-01
 9.652791350918862e-01  4.218239822823788e-01 -2.744219038519264e-17

-2.691261970881997e-17 -5.884522587271742e-19  1.056505231624003e+00
-5.884522587271742e-19 -2.292870976801709e-17  4.317531156787510e-01
 1.056505231624003e+00  4.317531156787510e-01 -3.075529482550220e-17

-2.680483665643607e-17 -6.995583611493915e-19  1.049402968993551e+00
-6.995583611493915e-19 -2.277608482337154e-17  4.403408226368961e-01
 1.049402968993551e+00  4.403408226368961e-01 -3.056526370600128e-17

-2.507235239068266e-17 -6.270614711865496e-19  9.534811875285605e-01
-6.270614711865496e-19 -2.187012314480927e-17  4.299240014423468e-01
 9.534811875285605e-01  4.299240014423468e-01 -2.670259125679878e-17

-2.504040639985974e-17 -7.392542755279270e-19  9.502805534853733e-01
-7.392542755279270e-19 -2.178203229936375e-17  4.395123988632472e-01
 9.502805534853733e-01  4.395123988632472e-01 -2.663621271022685e-17

-2.670011067180598e-17 -7.757183394744413e-19  1.048483324057433e+00
-7.757183394744413e-19 -2.254004461904139e-17  4.494953669425292e-01
 1.048483324057433e+00  4.494953669425292e-01 -3.023612027122309e-17

-2.698519683438438e-17 -8.097196779065051e-19  1.061798468698854e+00
-8.097196779065051e-19 -2.277942090705617e-17  4.491119431232791e-01
 1.061798468698854e+00  4.491119431232791e-01 -3.079513638486867e-17

-2.582844152723933e-17 -7.084177191270294e-19  9.953704954728536e-01
-7.084177191270294e-19 -2.232591849354401e-17  4.344379658878637e-01
 9.953704954728536e-01  4.344379658878637e-01 -2.816656508785230e-17

-2.590395371015022e-17 -7.351707649292197e-19  9.997843960590757e-01
-7.351707649292197e-19 -2.248130095566933e-17  4.328344794212055e-01
 9.997843960590757e-01  4.328344794212055e-01 -2.839206765266817e-17

-2.732029655139858e-17 -7.883211700693570e-19  1.085660156186425e+00
-7.883211700693570e-19 -2.314477425317414e-17  4.432576297886069e-01
 1.085660156186425e+00  4.432576297886069e-01 -3.161135857900618e-17

-2.715964729915325e-17 -8.892363636548230e-19  1.076223226047946e+00
-8.892363636548230e-19 -2.296109589905467e-17  4.490799785928015e-01
 1.076223226047946e+00  4.490799785928015e-01 -3.135701745211806e-17

-2.535521522547909e-17 -7.374372968115896e-19  9.777523216177196e-01
-7.374372968115896e-19 -2.192728203367781e-17  4.313712142372819e-01
 9.777523216177196e-01  4.313712142372819e-01 -2.736702322913696e-17

-2.512671402356121e-17 -7.744216567933680e-19  9.657259901899717e-01
-7.744216567933680e-19 -2.177262250541082e-17  4.305013405732853e-01
 9.657259901899717e-01  4.305013405732853e-01 -2.705954834132923e-17

-2.649367311293858e-17 -8.521663112131088e-19  1.051957512516836e+00
-8.521663112131088e-19 -2.236357113749578e-17  4.401735417382927e-01
 1.051957512516836e+00  4.401735417382927e-01 -3.033117984374124e-17

-2.630138233237658e-17 -1.026017484620935e-18  1.045580319942294e+00
-1.026017484620935e-18 -2.228151282944347e-17  4.446150962448837e-01
 1.045580319942294e+00  4.446150962448837e-01 -3.017243512914236e-17

-2.474407445141802e-17 -1.031853261517366e-18  9.628841574020843e-01
-1.031853261517366e-18 -2.115195793594115e-17  4.460880158534890e-01
 9.628841574020843e-01  4.460880158534890e-01 -2.674889700663099e-17

-2.417309733867489e-17 -1.140357304711463e-18  9.277037824393001e-01
-1.140357304711463e-18 -2.019354193360082e-17  4.713694222838751e-01
 9.277037824393001e-01  4.713694222838751e-01 -2.542428660870164e-17

-2.424786246927115e-17 -1.150378823241360e-18  9.288118051599714e-01
-1.150378823241360e-18 -1.999434619345084e-17  4.742928030727148e-01
 9.288118051599714e-01  4.742928030727148e-01 -2.539718188029652e-17

-2.492706379615382e-17 -1.074882793380739e-18  9.645778085557788e-01
-1.074882793380739e-18 -2.051524527266472e-17  4.576711203599509e-01
 9.645778085557788e-01  4.576711203599509e-01 -2.669171637855888e-17

-2.627004530347490e-17 -9.802282260992919e-19  1.039294382385928e+00
-9.802282260992919e-19 -2.113778563909459e-17  4.564572044537126e-01
 1.039294382385928e+00  4.564572044537126e-01 -2.956756787314731e-17

-2.594435462684953e-17 -9.187501557968942e-19  1.017180519325173e+00
-9.187501557968942e-19 -2.084466634893891e-17  4.573446789731990e-01
 1.017180519325173e+00  4.573446789731990e-01 -2.893194957051462e-17

-2.406153214059122e-17 -7.340832237957619e-19  9.128285762158133e-01
-7.340832237957619e-19 -1.987866623516242e-17  4.414894051745864e-01
 9.128285762158133e-01  4.414894051745864e-01 -2.483617114687860e-17

-2.399990388353006e-17 -8.007635010643469e-19  9.080534326268807e-01
-8.007635010643469e-19 -1.989718702692191e-17  4.433817561386511e-01
 9.080534326268807e-01  4.433817561386511e-01 -2.483200973944013e-17

-2.577087693359141e-17 -8.037809933256145e-19  1.014690002413038e+00
-8.037809933256145e-19 -2.065132063765618e-17  4.523655154771906e-01
 1.014690002413038e+00  4.523655154771906e-01 -2.878527580476106e-17

-2.570339270983767e-17 -8.679619570279469e-19  1.007127949606233e+00
-8.679619570279469e-19 -2.058803181789508e-17  4.595616208813279e-01
 1.007127949606233e+00  4.595616208813279e-01 -2.865394618776204e-17

-2.378987001730666e-17 -7.162019573786372e-19  8.978469074088287e-01
-7.162019573786372e-19 -1.976229698738140e-17  4.426730354297667e-01
 8.978469074088287e-01  4.426730354297667e-01 -2.429053407694542e-17

-2.413845195564404e-17 -8.376362029285760e-19  9.103841907943155e-01
-8.376362029285760e-19 -2.011788853924930e-17  4.490055193754737e-01
 9.103841907943155e-01  4.490055193754737e-01 -2.494927676709354e-17

-2.683975400806362e-17 -7.324844032115641e-19  1.069603649035101e+00
-7.324844032115641e-19 -2.154965203004180e-17  4.525206159024606e-01
 1.069603649035101e+00  4.525206159024606e-01 -3.079409912482754e-17

-2.720464597475008e-17 -8.003618559195877e-19  1.081922947633859e+00
-8.003618559195877e-19 -2.195946327882175e-17  4.572560709681766e-01
 1.081922947633859e+00  4.572560709681766e-01 -3.150360057182363e-17

-2.523240555476832e-17 -6.491297197962458e-19  9.687444892627800e-01
-6.491297197962458e-19 -2.109892979179717e-17  4.401323156993695e-01
 9.687444892627800e-01  4.401323156993695e-01 -2.699173217724986e-17

-2.518378942535683e-17 -7.207373049086611e-19  9.595997146793963e-01
-7.207373049086611e-19 -2.104267278800547e-17  4.528997354666877e-01
 9.595997146793963e-01  4.528997354666877e-01 -2.680884537825298e-17

-2.699384026708717e-17 -6.607328418293602e-19  1.063325295776380e+00
-6.607328418293602e-19 -2.218781741683668e-17  4.529777519924877e-01
 1.063325295776380e+00  4.529777519924877e-01 -3.072834341937692e-17

-2.788119140192404e-17 -6.133400992354907e-19  1.112944953966057e+00
-6.133400992354907e-19 -2.330364528848328e-17  4.316088850205384e-01
 1.112944953966057e+00  4.316088850205384e-01 -3.269471838189239e-17

-2.800500370620484e-17 -6.363828188014916e-19  1.121805569013640e+00
-6.363828188014916e-19 -2.347425195151944e-17  4.322651761518285e-01
 1.121805569013640e+00  4.322651761518285e-01 -3.309342813981731e-17

-2.700611515623494e-17 -7.551659092453585e-19  1.067511238589445e+00
-7.551659092453585e-19 -2.247923782478382e-17  4.529810113264001e-01
 1.067511238589445e+00  4.529810113264001e-01 -3.108607720398178e-17

-2.491007440183269e-17 -6.969678581942330e-19  9.556820168095230e-01
-6.969678581942330e-19 -2.120035341948620e-17  4.420787472291924e-01
 9.556820168095230e-01  4.420787472291924e-01 -2.647531889022959e-17

-2.515703088321807e-17 -8.576908692132570e-19  9.689086440455738e-01
-8.576908692132570e-19 -2.143454828205877e-17  4.409104080182708e-01
 9.689086440455738e-01  4.409104080182708e-01 -2.706953111910017e-17

-2.776261923256279e-17 -8.472398191883977e-19  1.124900823808230e+00
-8.472398191883977e-19 -2.261271689157315e-17  4.474954575679341e-01
 1.124900823808230e+00  4.474954575679341e-01 -3.283648847672507e-17

-2.770727869571310e-17 -9.280968368931184e-19  1.118386520891756e+00
-9.280968368931184e-19 -2.257321105226695e-17  4.410602483380951e-01
 1.118386520891756e+00  4.410602483380951e-01 -3.289115391015209e-17

-2.500994410670343e-17 -6.768063150524351e-19  9.729899266426013e-01
-6.768063150524351e-19 -2.064434667097869e-17  4.245343556130403e-01
 9.729899266426013e-01  4.245343556130403e-01 -2.707881998336284e-17

-2.349965178675188e-17 -7.124849426973313e-19  8.880845178350871e-01
-7.124849426973313e-19 -1.904919643332532e-17  4.504843689614560e-01
 8.880845178350871e-01  4.504843689614560e-01 -2.415967485921419e-17

-2.289427984709806e-17 -7.778357640460433e-19  8.578529947363236e-01
-7.778357640460433e-19 -1.863408357496565e-17  4.522028507501238e-01
 8.578529947363236e-01  4.522028507501238e-01 -2.310329963832681e-17

-2.354378000490264e-17 -8.705586431968606e-19  8.997856002946616e-01
-8.705586431968606e-19 -1.942806285454108e-17  4.331846380916667e-01
 8.997856002946616e-01  4.331846380916667e-01 -2.459661007158031e-17

-2.567415433490955e-17 -8.954365011496528e-19  1.028802145104395e+00
-8.954365011496528e-19 -2.051778656125993e-17  4.337045180973779e-01
 1.028802145104395e+00  4.337045180973779e-01 -2.921674329775940e-17

-2.567757602627549e-17 -1.008230134747717e-18  1.022983099021401e+00
-1.008230134747717e-18 -2.047861571861891e-17  4.404302656004081e-01
 1.022983099021401e+00  4.404302656004081e-01 -2.919243641446312e-17

-2.347995082160738e-17 -7.813550380807359e-19  8.989778955795490e-01
-7.813550380807359e-19 -1.921227809218993e-17  4.249911136932618e-01
 8.989778955795490e-01  4.249911136932618e-01 -2.418236917270890e-17

-2.322559385906423e-17 -8.428844781781852e-19  8.789672983224249e-01
-8.428844781781852e-19 -1.886360172760460e-17  4.360259352326796e-01
 8.789672983224249e-01  4.360259352326796e-01 -2.364772205874478e-17

-2.480454204826717e-17 -8.207649982593661e-19  9.717928028956481e-01
-8.207649982593661e-19 -1.942758386837649e-17  4.441367314055748e-01
 9.717928028956481e-01  4.441367314055748e-01 -2.710571868415027e-17

-2.490627744509234e-17 -8.004934701139737e-19  9.744448093370304e-01
-8.004934701139737e-19 -1.955148852655097e-17  4.416465764205856e-01
 9.744448093370304e-01  4.416465764205856e-01 -2.731034706006620e-17

-2.356340428260057e-17 -6.827353886009337e-19  8.960791799939721e-01
-6.827353886009337e-19 -1.917159991861689e-17  4.235707174764020e-01
 8.960791799939721e-01  4.235707174764020e-01 -2.427960762518381e-17

-2.398124109086854e-17 -7.442760200002002e-19  9.167340958005507e-01
-7.442760200002002e-19 -1.970851817075537e-17  4.182567974380478e-01
 9.167340958005507e-01  4.182567974380478e-01 -2.516405800787595e-17

-2.631320643488166e-17 -6.761205537629458e-19  1.057320698042216e+00
-6.761205537629458e-19 -2.090239827174231e-17  4.194588426465846e-01
 1.057320698042216e+00  4.194588426465846e-01 -3.030047376401415e-17

-2.623845049656138e-17 -7.999103873787968e-19  1.047433405403401e+00
-7.999103873787968e-19 -2.089900232214347e-17  4.267694861972265e-01
 1.047433405403401e+00  4.267694861972265e-01 -3.020911888465937e-17

-2.380986562273458e-17 -6.078281410834507e-19  9.133533437517284e-01
-6.078281410834507e-19 -1.964066105107047e-17  4.070271835975499e-01
 9.133533437517284e-01  4.070271835975499e-01 -2.481903113583883e-17

-2.357737083392368e-17 -7.211307125188046e-19  8.978425217513942e-01
-7.211307125188046e-19 -1.940386192546983e-17  4.154554223720359e-01
 8.978425217513942e-01  4.154554223720359e-01 -2.443908993002436e-17

-2.546196255977666e-17 -7.414067037096703e-19  1.012987252838820e+00
-7.414067037096703e-19 -2.000786868745766e-17  4.278920351503730e-01
 1.012987252838820e+00  4.278920351503730e-01 -2.868750038936336e-17

-2.516794692763987e-17 -8.448018329384178e-19  9.926452104390915e-01
-8.448018329384178e-19 -1.969285336827178e-17  4.369946411132395e-01
 9.926452104390915e-01  4.369946411132395e-01 -2.816370279829522e-17

-2.273741295720159e-17 -6.281640975845119e-19  8.577717961775587e-01
-6.281640975845119e-19 -1.844782506693858e-17  4.165052294939369e-01
 8.577717961775587e-01  4.165052294939369e-01 -2.272536439983721e-17

-2.277502289006775e-17 -7.869131050608216e-19  8.535905375016217e-01
-7.869131050608216e-19 -1.846977448057555e-17  4.252098551318025e-01
 8.535905375016217e-01  4.252098551318025e-01 -2.281924541816583e-17

-2.536348449164880e-17 -7.172979186162461e-19  1.011248516049227e+00
-7.172979186162461e-19 -1.969004620811284e-17  4.219621108105310e-01
 1.011248516049227e+00  4.219621108105310e-01 -2.846408566014828e-17

-2.584492909312258e-17 -7.781914322321533e-19  1.035175108030372e+00
-7.781914322321533e-19 -2.012523957821564e-17  4.134815778747383e-01
 1.035175108030372e+00  4.134815778747383e-01 -2.950360519538974e-17

-2.429505167275410e-17 -6.581973788085673e-19  9.469021867830368e-01
-6.581973788085673e-19 -1.892984810662068e-17  4.111876111085535e-01
 9.469021867830368e-01  4.111876111085535e-01 -2.613184462168773e-17

-2.282743469708970e-17 -5.837219617328120e-19  8.584810052434934e-01
-5.837219617328120e-19 -1.702469168992931e-17  4.471768997872571e-01
 8.584810052434934e-01  4.471768997872571e-01 -2.300232373747965e-17

-2.098913698024627e-17 -3.840454877527542e-19  7.496894494715018e-01
-3.840454877527542e-19 -1.586938250358862e-17  4.408722626514159e-01
 7.496894494715018e-01  4.408722626514159e-01 -1.900573545807568e-17

-2.144226370010542e-17 -4.349228191560268e-19  7.649321591591920e-01
-4.349228191560268e-19 -1.637242458790153e-17  4.379946965612341e-01
 7.649321591591920e-01  4.379946965612341e-01 -1.995066719912630e-17

-2.432422490301223e-17 -5.064400457305115e-20  9.423151387729860e-01
-5.064400457305115e-20 -1.826918885096396e-17  4.062741519900060e-01
 9.423151387729860e-01  4.062741519900060e-01 -2.639288140215230e-17

-2.504209035833004e-17 -8.895396479474265e-20  9.771211620567986e-01
-8.895396479474265e-20 -1.934732825351533e-17  3.980471652883469e-01
 9.771211620567986e-01  3.980471652883469e-01 -2.790138938334894e-17

-2.383367572113848e-17 -1.586935679159682e-19  9.008419392485538e-01
-1.586935679159682e-19 -1.939373258708545e-17  3.883008798812193e-01
 9.008419392485538e-01  3.883008798812193e-01 -2.515059740307311e-17

-2.413969985117527e-17 -2.437924111422259e-19  9.142497408522929e-01
-2.437924111422259e-19 -1.985942906624895e-17  3.941017479444660e-01
 9.142497408522929e-01  3.941017479444660e-01 -2.570466118193714e-17

-2.600062365949338e-17 -1.702346682452103e-19  1.026458204796310e+00
-1.702346682452103e-19 -2.106553794270826e-17  3.932754560933273e-01
 1.026458204796310e+00  3.932754560933273e-01 -2.976623104949588e-17

-2.634820176056655e-17 -2.932919017178006e-19  1.042758365326440e+00
-2.932919017178006e-19 -2.153353936710415e-17  4.004224736068466e-01
 1.042758365326440e+00  4.004224736068466e-01 -3.044141351276044e-17

-2.523069575934784e-17 -3.776471382323024e-19  9.773907329779918e-01
-3.776471382323024e-19 -2.125211309853359e-17  3.967279820909067e-01
 9.773907329779918e-01  3.967279820909067e-01 -2.787983889238308e-17

-2.546787228274639e-17 -4.969258251718556e-19  9.909549386676538e-01
-4.969258251718556e-19 -2.143429111451760e-17  4.042469260903214e-01
 9.909549386676538e-01  4.042469260903214e-01 -2.829946857596717e-17

-2.706772417983291e-17 -5.389981232793134e-19  1.086207425128956e+00
-5.389981232793134e-19 -2.199706173858439e-17  4.212420797560316e-01
 1.086207425128956e+00  4.212420797560316e-01 -3.176158072813840e-17

-2.661188640170941e-17 -6.529536777225615e-19  1.053673882324635e+00
-6.529536777225615e-19 -2.133683346624929e-17  4.443237424311018e-01
 1.053673882324635e+00  4.443237424311018e-01 -3.069646861858658e-17

-2.396807929508715e-17 -4.683123522403624e-19  9.045139521853761e-01
-4.683123522403624e-19 -1.998967644635488e-17  4.226774860169427e-01
 9.045139521853761e-01  4.226774860169427e-01 -2.467764611877904e-17

-2.447057290916748e-17 -6.925653243059613e-19  9.229228618543307e-01
-6.925653243059613e-19 -2.047909836904674e-17  4.310086746386912e-01
 9.229228618543307e-01  4.310086746386912e-01 -2.567478423118892e-17

-2.831301000414234e-17 -4.249754527121288e-19  1.157096091133950e+00
-4.249754527121288e-19 -2.258680914397031e-17  4.210047843725822e-01
 1.157096091133950e+00  4.210047843725822e-01 -3.425611670796237e-17

-2.846263731685460e-17 -6.514905175223551e-19  1.155210330327293e+00
-6.514905175223551e-19 -2.285103936512378e-17  4.281126806697681e-01
 1.155210330327293e+00  4.281126806697681e-01 -3.470300008247794e-17

-2.507220570841359e-17 -4.157578568052340e-19  9.730748858702090e-01
-4.157578568052340e-19 -2.073237480625915e-17  4.056629434786901e-01
 9.730748858702090e-01  4.056629434786901e-01 -2.724840171981061e-17

-2.373997329274068e-17 -5.366792313123981e-19  8.969250071225978e-01
-5.366792313123981e-19 -1.926279046899080e-17  4.369010719914053e-01
 8.969250071225978e-01  4.369010719914053e-01 -2.458583219463901e-17

-2.404574498170916e-17 -6.275504031865297e-19  9.175072815826992e-01
-6.275504031865297e-19 -1.921347844454813e-17  4.445204684333027e-01
 9.175072815826992e-01  4.445204684333027e-01 -2.537992489267281e-17

-2.480139164146360e-17 -6.463177362830175e-19  9.643992561525672e-01
-6.463177362830175e-19 -2.006382962271950e-17  4.221181821028003e-01
 9.643992561525672e-01  4.221181821028003e-01 -2.704724154942720e-17

-2.621328810245923e-17 -6.660616331908140e-19  1.049174494858803e+00
-6.660616331908140e-19 -2.081307153585640e-17  4.231283935669072e-01
 1.049174494858803e+00  4.231283935669072e-01 -3.014795267625443e-17

-2.589110145277982e-17 -7.641988666797931e-19  1.027285462614085e+00
-7.641988666797931e-19 -2.039092813904894e-17  4.355603356345386e-01
 1.027285462614085e+00  4.355603356345386e-01 -2.946444047454699e-17

-2.376730841927650e-17 -5.868587096003670e-19  9.085800658241625e-01
-5.868587096003670e-19 -1.909830609878858e-17  4.217002126467838e-01
 9.085800658241625e-01  4.217002126467838e-01 -2.472488150491240e-17

-2.348620191811280e-17 -6.429692845685154e-19  8.890481763370019e-01
-6.429692845685154e-19 -1.874013417880610e-17  4.308266973221259e-01
 8.890481763370019e-01  4.308266973221259e-01 -2.419563816562579e-17

-2.499338836176166e-17 -6.371830551863201e-19  9.805754305118508e-01
-6.371830551863201e-19 -1.920788795629236e-17  4.427515405064502e-01
 9.805754305118508e-01  4.427515405064502e-01 -2.758113837376077e-17

-2.486988382790732e-17 -6.973215419091936e-19  9.703185762595692e-01
-6.973215419091936e-19 -1.900679057290121e-17  4.533395438208549e-01
 9.703185762595692e-01  4.533395438208549e-01 -2.728369975928595e-17

-2.306271419789101e-17 -5.767570793555739e-19  8.636135977511423e-01
-5.767570793555739e-19 -1.824473864949441e-17  4.400346388525156e-01
 8.636135977511423e-01  4.400346388525156e-01 -2.309901461664745e-17

-2.352327076857247e-17 -7.026338184393854e-19  8.784143443178122e-01
-7.026338184393854e-19 -1.869873560130368e-17  4.505713797181628e-01
 8.784143443178122e-01  4.505713797181628e-01 -2.384466330737900e-17

-2.638943380228529e-17 -5.653671103262909e-19  1.045409165697450e+00
-5.653671103262909e-19 -2.068343416286310e-17  4.412561645187555e-01
 1.045409165697450e+00  4.412561645187555e-01 -2.991523237602890e-17

-2.802745290039515e-17 -6.157272394973369e-19  1.131391202862895e+00
-6.157272394973369e-19 -2.247507881612790e-17  4.253686841385332e-01
 1.131391202862895e+00  4.253686841385332e-01 -3.323779815391511e-17

-2.854425811066790e-17 -6.299154505511659e-19  1.153940369737418e+00
-6.299154505511659e-19 -2.287749218125049e-17  4.290500173902884e-01
 1.153940369737418e+00  4.290500173902884e-01 -3.422026562676407e-17

-2.758225045616269e-17 -6.054244013167352e-19  1.096816986159217e+00
-6.054244013167352e-19 -2.162888685073800e-17  4.487373402161657e-01
 1.096816986159217e+00  4.487373402161657e-01 -3.217252454894480e-17

-2.518589582912689e-17 -4.112434228946157e-19  9.602012450216464e-01
-4.112434228946157e-19 -2.007264892498073e-17  4.329440188825451e-01
 9.602012450216464e-01  4.329440188825451e-01 -2.666012262041395e-17

-2.484852576621972e-17 -4.598960928635968e-19  9.422252838233347e-01
-4.598960928635968e-19 -1.964045797895664e-17  4.353087234685583e-01
 9.422252838233347e-01  4.353087234685583e-01 -2.620524868571656e-17

-2.671233173179218e-17 -3.712464934032704e-19  1.056588042038484e+00
-3.712464934032704e-19 -2.024357090850915e-17  4.397708407884298e-01
 1.056588042038484e+00  4.397708407884298e-01 -3.049903589323118e-17


CELL_DATA 808
SCALARS dislocation_index int
LOOKUP_TABLE default
0
1
2
3
4
5
6
7
8
9
10
11
12
13
14
15
16
17
18
19
20
21
22
23
24
25
26
27
28
29
30
31
32
33
34
35
36
37
38
39
40
41
42
43
44
45
46
47
48
49
50
51
52
53
54
55
56
57
58
59
60
61
62
63
64
65
66
67
68
69
70
71
72
73
74
75
76
77
78
79
80
81
82
83
84
85
86
87
88
89
90
91
92
93
94
95
96
97
98
99
100
101
102
103
104
105
106
107
108
109
110
111
112
113
114
115
116
117
118
119
120
121
122
123
124
125
126
127
128
129
130
131
132
133
134
135
136
137
138
139
140
141
142
143
144
145
146
147
148
149
150
151
152
153
154
155
156
157
158
159
160
161
162
163
164
165
166
167
168
169
170
171
172
173
174
175
176
177
178
179
180
181
182
183
184
185
186
187
188
189
190
191
192
193
194
195
196
197
198
199
200
201
202
203
204
205
206
207
208
209
210
211
212
213
214
215
216
217
218
219
220
221
222
223
224
225
226
227
228
229
230
231
232
233
234
235
236
237
238
239
240
241
242
243
244
245
246
247
248
249
250
251
252
253
254
255
256
257
258
259
260
261
262
263
264
265
266
267
268
269
270
271
272
273
274
275
276
277
278
279
280
281
282
283
284
285
286
287
288
289
290
291
292
293
294
295
296
297
298
299
300
301
302
303
304
305
306
307
308
309
310
311
312
313
314
315
316
317
318
319
320
321
322
323
324
325
326
327
328
329
330
331
332
333
334
335
336
337
338
339
340
341
342
343
344
345
346
347
348
349
350
351
352
353
354
355
356
357
358
359
360
361
362
363
364
365
366
367
368
369
370
371
372
373
374
375
376
377
378
379
380
381
382
383
384
385
386
387
388
389
390
391
392
393
394
395
396
397
398
399
400
401
402
403
404
405
406
407
408
409
410
411
412
413
414
415
416
417
418
419
420
421
422
423
424
425
426
427
428
429
430
431
432
433
434
435
436
437
438
439
440
441
442
443
444
445
446
447
448
449
450
451
452
453
454
455
456
457
458
459
460
461
462
463
464
465
466
467
468
469
470
471
472
473
474
475
476
477
478
479
480
481
482
483
484
485
486
487
488
489
490
491
492
493
494
495
496
497
498
499
500
501
502
503
504
505
506
507
508
509
510
511
512
513
514
515
516
517
518
519
520
521
522
523
524
525
526
527
528
529
530
531
532
533
534
535
536
537
538
539
540
541
542
543
544
545
546
547
548
549
550
551
552
553
554
555
556
557
558
559
560
561
562
563
564
565
566
567
568
569
570
571
572
573
574
575
576
577
578
579
580
581
582
583
584
585
586
587
588
589
590
591
592
593
594
595
596
597
598
599
600
601
602
603
604
605
606
607
608
609
610
611
612
613
614
615
616
617
618
619
620
621
622
623
624
625
626
627
628
629
630
631
632
633
634
635
636
637
638
639
640
641
642
643
644
645
646
647
648
649
650
651
652
653
654
655
656
657
658
659
660
661
662
663
664
665
666
667
668
669
670
671
672
673
674
675
676
677
678
679
680
681
682
683
684
685
686
687
688
689
690
691
692
693
694
695
696
697
698
699
700
701
702
703
704
705
706
707
708
709
710
711
712
713
714
715
716
717
718
719
720
721
722
723
724
725
726
727
728
729
730
731
732
733
734
735
736
737
738
739
740
741
742
743
744
745
746
747
748
749
750
751
752
753
754
755
756
757
758
759
760
761
762
763
764
765
766
767
768
769
770
771
772
773
774
775
776
777
778
779
780
781
782
783
784
785
786
787
788
789
790
791
792
793
794
795
796
797
798
799
800
801
802
803
804
805
806
807

VECTORS burgers_vector_global double
-1.429999999999999e+00 -8.256108849411650e-01  3.393140768766017e-17
 1.429999999999999e+00  8.256108849411650e-01 -3.393140768766017e-17
-1.429999999999999e+00 -8.256108849411650e-01  3.393140768766017e-17
-1.429999999999999e+00 -8.256108849411650e-01  3.393140768766017e-17
-1.429999999999999e+00 -8.256108849411650e-01  3.393140768766017e-17
-1.429999999999999e+00 -8.256108849411650e-01  3.393140768766017e-17
-1.429999999999999e+00 -8.256108849411650e-01  3.393140768766017e-17
-1.429999999999999e+00 -8.256108849411650e-01  3.393140768766017e-17
-1.429999999999999e+00 -8.256108849411650e-01  3.393140768766017e-17
-1.429999999999999e+00 -8.256108849411650e-01  3.393140768766017e-17
-1.429999999999999e+00 -8.256108849411650e-01  3.393140768766017e-17
-1.429999999999999e+00 -8.256108849411650e-01  3.393140768766017e-17
-1.429999999999999e+00 -8.256108849411650e-01  3.393140768766017e-17
-1.429999999999999e+00 -8.256108849411650e-01  3.393140768766017e-17
-1.429999999999999e+00 -8.256108849411650e-01  3.393140768766017e-17
-1.429999999999999e+00 -8.256108849411650e-01  3.393140768766017e-17
-1.429999999999999e+00 -8.256108849411650e-01  3.393140768766017e-17
-1.429999999999999e+00 -8.256108849411650e-01  3.393140768766017e-17
-1.429999999999999e+00 -8.256108849411650e-01  3.393140768766017e-17
-1.429999999999999e+00 -8.256108849411650e-01  3.393140768766017e-17
-1.429999999999999e+00 -8.256108849411650e-01  3.393140768766017e-17
-1.429999999999999e+00 -8.256108849411650e-01  3.393140768766017e-17
-1.429999999999999e+00 -8.256108849411650e-01  3.393140768766017e-17
-1.429999999999999e+00 -8.256108849411650e-01  3.393140768766017e-17
-1.429999999999999e+00 -8.256108849411650e-01  3.393140768766017e-17
-1.429999999999999e+00 -8.256108849411650e-01  3.393140768766017e-17
-1.429999999999999e+00 -8.256108849411650e-01  3.393140768766017e-17
-1.429999999999999e+00 -8.256108849411650e-01  3.393140768766017e-17
-1.429999999999999e+00 -8.256108849411650e-01  3.393140768766017e-17
-1.429999999999999e+00 -8.256108849411650e-01  3.393140768766017e-17
-1.429999999999999e+00 -8.256108849411650e-01  3.393140768766017e-17
-1.429999999999999e+00 -8.256108849411650e-01  3.393140768766017e-17
-1.429999999999999e+00 -8.256108849411650e-01  3.393140768766017e-17
-1.429999999999999e+00 -8.256108849411650e-01  3.393140768766017e-17
-1.429999999999999e+00 -8.256108849411650e-01  3.393140768766017e-17
-1.429999999999999e+00 -8.256108849411650e-01  3.393140768766017e-17
-1.429999999999999e+00 -8.256108849411650e-01  3.393140768766017e-17
-1.429999999999999e+00 -8.256108849411650e-01  3.393140768766017e-17
-1.429999999999999e+00 -8.256108849411650e-01  3.393140768766017e-17
-1.429999999999999e+00 -8.256108849411650e-01  3.393140768766017e-17
-1.429999999999999e+00 -8.256108849411650e-01  3.393140768766017e-17
-1.429999999999999e+00 -8.256108849411650e-01  3.393140768766017e-17
-1.429999999999999e+00 -8.256108849411650e-01  3.393140768766017e-17
-1.429999999999999e+00 -8.256108849411650e-01  3.393140768766017e-17
-1.429999999999999e+00 -8.256108849411650e-01  3.393140768766017e-17
-1.429999999999999e+00 -8.256108849411650e-01  3.393140768766017e-17
-1.429999999999999e+00 -8.256108849411650e-01  3.393140768766017e-17
-1.429999999999999e+00 -8.256108849411650e-01  3.393140768766017e-17
-1.429999999999999e+00 -8.256108849411650e-01  3.393140768766017e-17
-1.429999999999999e+00 -8.256108849411650e-01  3.393140768766017e-17
-1.429999999999999e+00 -8.256108849411650e-01  3.393140768766017e-17
-1.429999999999999e+00 -8.256108849411650e-01  3.393140768766017e-17
-1.429999999999999e+00 -8.256108849411650e-01  3.393140768766017e-17
-1.429999999999999e+00 -8.256108849411650e-01  3.393140768766017e-17
-1.429999999999999e+00 -8.256108849411650e-01  3.393140768766017e-17
-1.429999999999999e+00 -8.256108849411650e-01  3.393140768766017e-17
-1.429999999999999e+00 -8.256108849411650e-01  3.393140768766017e-17
-1.429999999999999e+00 -8.256108849411650e-01  3.393140768766017e-17
-1.429999999999999e+00 -8.256108849411650e-01  3.393140768766017e-17
-1.429999999999999e+00 -8.256108849411650e-01  3.393140768766017e-17
-1.429999999999999e+00 -8.256108849411650e-01  3.393140768766017e-17
-1.429999999999999e+00 -8.256108849411650e-01  3.393140768766017e-17
-1.429999999999999e+00 -8.256108849411650e-01  3.393140768766017e-17
-1.429999999999999e+00 -8.256108849411650e-01  3.393140768766017e-17
-1.429999999999999e+00 -8.256108849411650e-01  3.393140768766017e-17
-1.429999999999999e+00 -8.256108849411650e-01  3.393140768766017e-17
-1.429999999999999e+00 -8.256108849411650e-01  3.393140768766017e-17
-1.429999999999999e+00 -8.256108849411650e-01  3.393140768766017e-17
-1.429999999999999e+00 -8.256108849411650e-01  3.393140768766017e-17
-1.429999999999999e+00 -8.256108849411650e-01  3.393140768766017e-17
-1.429999999999999e+00 -8.256108849411650e-01  3.393140768766017e-17
-1.429999999999999e+00 -8.256108849411650e-01  3.393140768766017e-17
-1.429999999999999e+00 -8.256108849411650e-01  3.393140768766017e-17
-1.429999999999999e+00 -8.256108849411650e-01  3.393140768766017e-17
-1.429999999999999e+00 -8.256108849411650e-01  3.393140768766017e-17
-1.429999999999999e+00 -8.256108849411650e-01  3.393140768766017e-17
-1.429999999999999e+00 -8.256108849411650e-01  3.393140768766017e-17
-1.429999999999999e+00 -8.256108849411650e-01  3.393140768766017e-17
-1.429999999999999e+00 -8.256108849411650e-01  3.393140768766017e-17
-1.429999999999999e+00 -8.256108849411650e-01  3.393140768766017e-17
-1.429999999999999e+00 -8.256108849411650e-01  3.393140768766017e-17
-1.429999999999999e+00 -8.256108849411650e-01  3.393140768766017e-17
-1.429999999999999e+00 -8.256108849411650e-01  3.393140768766017e-17
-1.429999999999999e+00 -8.256108849411650e-01  3.393140768766017e-17
-1.429999999999999e+00 -8.256108849411650e-01  3.393140768766017e-17
-1.429999999999999e+00 -8.256108849411650e-01  3.393140768766017e-17
-1.429999999999999e+00 -8.256108849411650e-01  3.393140768766017e-17
-1.429999999999999e+00 -8.256108849411650e-01  3.393140768766017e-17
-1.429999999999999e+00 -8.256108849411650e-01  3.393140768766017e-17
-1.429999999999999e+00 -8.256108849411650e-01  3.393140768766017e-17
-1.429999999999999e+00 -8.256108849411650e-01  3.393140768766017e-17
-1.429999999999999e+00 -8.256108849411650e-01  3.393140768766017e-17
-1.429999999999999e+00 -8.256108849411650e-01  3.393140768766017e-17
-1.429999999999999e+00 -8.256108849411650e-01  3.393140768766017e-17
-1.429999999999999e+00 -8.256108849411650e-01  3.393140768766017e-17
-1.429999999999999e+00 -8.256108849411650e-01  3.393140768766017e-17
-1.429999999999999e+00 -8.256108849411650e-01  3.393140768766017e-17
-1.429999999999999e+00 -8.256108849411650e-01  3.393140768766017e-17
-1.429999999999999e+00 -8.256108849411650e-01  3.393140768766017e-17
-1.429999999999999e+00 -8.256108849411650e-01  3.393140768766017e-17
-1.429999999999999e+00 -8.256108849411650e-01  3.393140768766017e-17
-1.429999999999999e+00 -8.256108849411650e-01  3.393140768766017e-17
-1.429999999999999e+00 -8.256108849411650e-01  3.393140768766017e-17
-1.429999999999999e+00 -8.256108849411650e-01  3.393140768766017e-17
-1.429999999999999e+00 -8.256108849411650e-01  3.393140768766017e-17
-1.429999999999999e+00 -8.256108849411650e-01  3.393140768766017e-17
-1.429999999999999e+00 -8.256108849411650e-01  3.393140768766017e-17
-1.429999999999999e+00 -8.256108849411650e-01  3.393140768766017e-17
-1.429999999999999e+00 -8.256108849411650e-01  3.393140768766017e-17
-1.429999999999999e+00 -8.256108849411650e-01  3.393140768766017e-17
-1.429999999999999e+00 -8.256108849411650e-01  3.393140768766017e-17
-1.429999999999999e+00 -8.256108849411650e-01  3.393140768766017e-17
-1.429999999999999e+00 -8.256108849411650e-01  3.393140768766017e-17
-1.429999999999999e+00 -8.256108849411650e-01  3.393140768766017e-17
-1.429999999999999e+00 -8.256108849411650e-01  3.393140768766017e-17
-1.429999999999999e+00 -8.256108849411650e-01  3.393140768766017e-17
-1.429999999999999e+00 -8.256108849411650e-01  3.393140768766017e-17
-1.429999999999999e+00 -8.256108849411650e-01  3.393140768766017e-17
-1.429999999999999e+00 -8.256108849411650e-01  3.393140768766017e-17
-1.429999999999999e+00 -8.256108849411650e-01  3.393140768766017e-17
-1.429999999999999e+00 -8.256108849411650e-01  3.393140768766017e-17
-1.429999999999999e+00 -8.256108849411650e-01  3.393140768766017e-17
-1.429999999999999e+00 -8.256108849411650e-01  3.393140768766017e-17
-1.429999999999999e+00 -8.256108849411650e-01  3.393140768766017e-17
-1.429999999999999e+00 -8.256108849411650e-01  3.393140768766017e-17
-1.429999999999999e+00 -8.256108849411650e-01  3.393140768766017e-17
-1.429999999999999e+00 -8.256108849411650e-01  3.393140768766017e-17
-1.429999999999999e+00 -8.256108849411650e-01  3.393140768766017e-17
-1.429999999999999e+00 -8.256108849411650e-01  3.393140768766017e-17
-1.429999999999999e+00 -8.256108849411650e-01  3.393140768766017e-17
-1.429999999999999e+00 -8.256108849411650e-01  3.393140768766017e-17
-1.429999999999999e+00 -8.256108849411650e-01  3.393140768766017e-17
-1.429999999999999e+00 -8.256108849411650e-01  3.393140768766017e-17
-1.429999999999999e+00 -8.256108849411650e-01  3.393140768766017e-17
-1.429999999999999e+00 -8.256108849411650e-01  3.393140768766017e-17
-1.429999999999999e+00 -8.256108849411650e-01  3.393140768766017e-17
-1.429999999999999e+00 -8.256108849411650e-01  3.393140768766017e-17
-1.429999999999999e+00 -8.256108849411650e-01  3.393140768766017e-17
-1.429999999999999e+00 -8.256108849411650e-01  3.393140768766017e-17
-1.429999999999999e+00 -8.256108849411650e-01  3.393140768766017e-17
-1.429999999999999e+00 -8.256108849411650e-01  3.393140768766017e-17
-1.429999999999999e+00 -8.256108849411650e-01  3.393140768766017e-17
-1.429999999999999e+00 -8.256108849411650e-01  3.393140768766017e-17
-1.429999999999999e+00 -8.256108849411650e-01  3.393140768766017e-17
-1.429999999999999e+00 -8.256108849411650e-01  3.393140768766017e-17
-1.429999999999999e+00 -8.256108849411650e-01  3.393140768766017e-17
-1.429999999999999e+00 -8.256108849411650e-01  3.393140768766017e-17
-1.429999999999999e+00 -8.256108849411650e-01  3.393140768766017e-17
-1.429999999999999e+00 -8.256108849411650e-01  3.393140768766017e-17
-1.429999999999999e+00 -8.256108849411650e-01  3.393140768766017e-17
-1.429999999999999e+00 -8.256108849411650e-01  3.393140768766017e-17
-1.429999999999999e+00 -8.256108849411650e-01  3.393140768766017e-17
-1.429999999999999e+00 -8.256108849411650e-01  3.393140768766017e-17
-1.429999999999999e+00 -8.256108849411650e-01  3.393140768766017e-17
-1.429999999999999e+00 -8.256108849411650e-01  3.393140768766017e-17
-1.429999999999999e+00 -8.256108849411650e-01  3.393140768766017e-17
-1.429999999999999e+00 -8.256108849411650e-01  3.393140768766017e-17
-1.429999999999999e+00 -8.256108849411650e-01  3.393140768766017e-17
-1.429999999999999e+00 -8.256108849411650e-01  3.393140768766017e-17
-1.429999999999999e+00 -8.256108849411650e-01  3.393140768766017e-17
-1.429999999999999e+00 -8.256108849411650e-01  3.393140768766017e-17
-1.429999999999999e+00 -8.256108849411650e-01  3.393140768766017e-17
-1.429999999999999e+00 -8.256108849411650e-01  3.393140768766017e-17
-1.429999999999999e+00 -8.256108849411650e-01  3.393140768766017e-17
-1.429999999999999e+00 -8.256108849411650e-01  3.393140768766017e-17
-1.429999999999999e+00 -8.256108849411650e-01  3.393140768766017e-17
-1.429999999999999e+00 -8.256108849411650e-01  3.393140768766017e-17
-1.429999999999999e+00 -8.256108849411650e-01  3.393140768766017e-17
-1.429999999999999e+00 -8.256108849411650e-01  3.393140768766017e-17
-1.429999999999999e+00 -8.256108849411650e-01  3.393140768766017e-17
-1.429999999999999e+00 -8.256108849411650e-01  3.393140768766017e-17
-1.429999999999999e+00 -8.256108849411650e-01  3.393140768766017e-17
-1.429999999999999e+00 -8.256108849411650e-01  3.393140768766017e-17
-1.429999999999999e+00 -8.256108849411650e-01  3.393140768766017e-17
-1.429999999999999e+00 -8.256108849411650e-01  3.393140768766017e-17
-1.429999999999999e+00 -8.256108849411650e-01  3.393140768766017e-17
-1.429999999999999e+00 -8.256108849411650e-01  3.393140768766017e-17
-1.429999999999999e+00 -8.256108849411650e-01  3.393140768766017e-17
-1.429999999999999e+00 -8.256108849411650e-01  3.393140768766017e-17
-1.429999999999999e+00 -8.256108849411650e-01  3.393140768766017e-17
-1.429999999999999e+00 -8.256108849411650e-01  3.393140768766017e-17
-1.429999999999999e+00 -8.256108849411650e-01  3.393140768766017e-17
-1.429999999999999e+00 -8.256108849411650e-01  3.393140768766017e-17
-1.429999999999999e+00 -8.256108849411650e-01  3.393140768766017e-17
-1.429999999999999e+00 -8.256108849411650e-01  3.393140768766017e-17
-1.429999999999999e+00 -8.256108849411650e-01  3.393140768766017e-17
-1.429999999999999e+00 -8.256108849411650e-01  3.393140768766017e-17
-1.429999999999999e+00 -8.256108849411650e-01  3.393140768766017e-17
-1.429999999999999e+00 -8.256108849411650e-01  3.393140768766017e-17
-1.429999999999999e+00 -8.256108849411650e-01  3.393140768766017e-17
-1.429999999999999e+00 -8.256108849411650e-01  3.393140768766017e-17
-1.429999999999999e+00 -8.256108849411650e-01  3.393140768766017e-17
-1.429999999999999e+00 -8.256108849411650e-01  3.393140768766017e-17
-1.429999999999999e+00 -8.256108849411650e-01  3.393140768766017e-17
-1.429999999999999e+00 -8.256108849411650e-01  3.393140768766017e-17
-1.429999999999999e+00 -8.256108849411650e-01  3.393140768766017e-17
-1.429999999999999e+00 -8.256108849411650e-01  3.393140768766017e-17
-1.429999999999999e+00 -8.256108849411650e-01  3.393140768766017e-17
-1.429999999999999e+00 -8.256108849411650e-01  3.393140768766017e-17
-1.429999999999999e+00 -8.256108849411650e-01  3.393140768766017e-17
-1.429999999999999e+00 -8.256108849411650e-01  3.393140768766017e-17
-1.429999999999999e+00 -8.256108849411650e-01  3.393140768766017e-17
 1.429999999999999e+00  8.256108849411650e-01 -3.393140768766017e-17
-1.429999999999999e+00 -8.256108849411650e-01  3.393140768766017e-17
 1.429999999999999e+00  8.256108849411650e-01 -3.393140768766017e-17
 1.429999999999999e+00  8.256108849411650e-01 -3.393140768766017e-17
 1.429999999999999e+00  8.256108849411650e-01 -3.393140768766017e-17
 1.429999999999999e+00  8.256108849411650e-01 -3.393140768766017e-17
 1.429999999999999e+00  8.256108849411650e-01 -3.393140768766017e-17
 1.429999999999999e+00  8.256108849411650e-01 -3.393140768766017e-17
 1.429999999999999e+00  8.256108849411650e-01 -3.393140768766017e-17
 1.429999999999999e+00  8.256108849411650e-01 -3.393140768766017e-17
 1.429999999999999e+00  8.256108849411650e-01 -3.393140768766017e-17
 1.429999999999999e+00  8.256108849411650e-01 -3.393140768766017e-17
 1.429999999999999e+00  8.256108849411650e-01 -3.393140768766017e-17
 1.429999999999999e+00  8.256108849411650e-01 -3.393140768766017e-17
 1.429999999999999e+00  8.256108849411650e-01 -3.393140768766017e-17
 1.429999999999999e+00  8.256108849411650e-01 -3.393140768766017e-17
 1.429999999999999e+00  8.256108849411650e-01 -3.393140768766017e-17
 1.429999999999999e+00  8.256108849411650e-01 -3.393140768766017e-17
 1.429999999999999e+00  8.256108849411650e-01 -3.393140768766017e-17
 1.429999999999999e+00  8.256108849411650e-01 -3.393140768766017e-17
 1.429999999999999e+00  8.256108849411650e-01 -3.393140768766017e-17
 1.429999999999999e+00  8.256108849411650e-01 -3.393140768766017e-17
 1.429999999999999e+00  8.256108849411650e-01 -3.393140768766017e-17
 1.429999999999999e+00  8.256108849411650e-01 -3.393140768766017e-17
 1.429999999999999e+00  8.256108849411650e-01 -3.393140768766017e-17
 1.429999999999999e+00  8.256108849411650e-01 -3.393140768766017e-17
 1.429999999999999e+00  8.256108849411650e-01 -3.393140768766017e-17
 1.429999999999999e+00  8.256108849411650e-01 -3.393140768766017e-17
 1.429999999999999e+00  8.256108849411650e-01 -3.393140768766017e-17
 1.429999999999999e+00  8.256108849411650e-01 -3.393140768766017e-17
 1.429999999999999e+00  8.256108849411650e-01 -3.393140768766017e-17
 1.429999999999999e+00  8.256108849411650e-01 -3.393140768766017e-17
 1.429999999999999e+00  8.256108849411650e-01 -3.393140768766017e-17
 1.429999999999999e+00  8.256108849411650e-01 -3.393140768766017e-17
 1.429999999999999e+00  8.256108849411650e-01 -3.393140768766017e-17
 1.429999999999999e+00  8.256108849411650e-01 -3.393140768766017e-17
 1.429999999999999e+00  8.256108849411650e-01 -3.393140768766017e-17
 1.429999999999999e+00  8.256108849411650e-01 -3.393140768766017e-17
 1.429999999999999e+00  8.256108849411650e-01 -3.393140768766017e-17
 1.429999999999999e+00  8.256108849411650e-01 -3.393140768766017e-17
 1.429999999999999e+00  8.256108849411650e-01 -3.393140768766017e-17
 1.429999999999999e+00  8.256108849411650e-01 -3.393140768766017e-17
 1.429999999999999e+00  8.256108849411650e-01 -3.393140768766017e-17
 1.429999999999999e+00  8.256108849411650e-01 -3.393140768766017e-17
 1.429999999999999e+00  8.256108849411650e-01 -3.393140768766017e-17
 1.429999999999999e+00  8.256108849411650e-01 -3.393140768766017e-17
 1.429999999999999e+00  8.256108849411650e-01 -3.393140768766017e-17
 1.429999999999999e+00  8.256108849411650e-01 -3.393140768766017e-17
 1.429999999999999e+00  8.256108849411650e-01 -3.393140768766017e-17
 1.429999999999999e+00  8.256108849411650e-01 -3.393140768766017e-17
 1.429999999999999e+00  8.256108849411650e-01 -3.393140768766017e-17
 1.429999999999999e+00  8.256108849411650e-01 -3.393140768766017e-17
 1.429999999999999e+00  8.256108849411650e-01 -3.393140768766017e-17
 1.429999999999999e+00  8.256108849411650e-01 -3.393140768766017e-17
 1.429999999999999e+00  8.256108849411650e-01 -3.393140768766017e-17
 1.429999999999999e+00  8.256108849411650e-01 -3.393140768766017e-17
 1.429999999999999e+00  8.256108849411650e-01 -3.393140768766017e-17
 1.429999999999999e+00  8.256108849411650e-01 -3.393140768766017e-17
 1.429999999999999e+00  8.256108849411650e-01 -3.393140768766017e-17
 1.429999999999999e+00  8.256108849411650e-01 -3.393140768766017e-17
 1.429999999999999e+00  8.256108849411650e-01 -3.393140768766017e-17
 1.429999999999999e+00  8.256108849411650e-01 -3.393140768766017e-17
 1.429999999999999e+00  8.256108849411650e-01 -3.393140768766017e-17
 1.429999999999999e+00  8.256108849411650e-01 -3.393140768766017e-17
 1.429999999999999e+00  8.256108849411650e-01 -3.393140768766017e-17
 1.429999999999999e+00  8.256108849411650e-01 -3.393140768766017e-17
 1.429999999999999e+00  8.256108849411650e-01 -3.393140768766017e-17
 1.429999999999999e+00  8.256108849411650e-01 -3.393140768766017e-17
 1.429999999999999e+00  8.256108849411650e-01 -3.393140768766017e-17
 1.429999999999999e+00  8.256108849411650e-01 -3.393140768766017e-17
 1.429999999999999e+00  8.256108849411650e-01 -3.393140768766017e-17
 1.429999999999999e+00  8.256108849411650e-01 -3.393140768766017e-17
 1.429999999999999e+00  8.256108849411650e-01 -3.393140768766017e-17
 1.429999999999999e+00  8.256108849411650e-01 -3.393140768766017e-17
 1.429999999999999e+00  8.256108849411650e-01 -3.393140768766017e-17
 1.429999999999999e+00  8.256108849411650e-01 -3.393140768766017e-17
 1.429999999999999e+00  8.256108849411650e-01 -3.393140768766017e-17
 1.429999999999999e+00  8.256108849411650e-01 -3.393140768766017e-17
 1.429999999999999e+00  8.256108849411650e-01 -3.393140768766017e-17
 1.429999999999999e+00  8.256108849411650e-01 -3.393140768766017e-17
 1.429999999999999e+00  8.256108849411650e-01 -3.393140768766017e-17
 1.429999999999999e+00  8.256108849411650e-01 -3.393140768766017e-17
 1.429999999999999e+00  8.256108849411650e-01 -3.393140768766017e-17
 1.429999999999999e+00  8.256108849411650e-01 -3.393140768766017e-17
 1.429999999999999e+00  8.256108849411650e-01 -3.393140768766017e-17
 1.429999999999999e+00  8.256108849411650e-01 -3.393140768766017e-17
 1.429999999999999e+00  8.256108849411650e-01 -3.393140768766017e-17
 1.429999999999999e+00  8.256108849411650e-01 -3.393140768766017e-17
 1.429999999999999e+00  8.256108849411650e-01 -3.393140768766017e-17
 1.429999999999999e+00  8.256108849411650e-01 -3.393140768766017e-17
 1.429999999999999e+00  8.256108849411650e-01 -3.393140768766017e-17
 1.429999999999999e+00  8.256108849411650e-01 -3.393140768766017e-17
 1.429999999999999e+00  8.256108849411650e-01 -3.393140768766017e-17
 1.429999999999999e+00  8.256108849411650e-01 -3.393140768766017e-17
 1.429999999999999e+00  8.256108849411650e-01 -3.393140768766017e-17
 1.429999999999999e+00  8.256108849411650e-01 -3.393140768766017e-17
 1.429999999999999e+00  8.256108849411650e-01 -3.393140768766017e-17
 1.429999999999999e+00  8.256108849411650e-01 -3.393140768766017e-17
 1.429999999999999e+00  8.256108849411650e-01 -3.393140768766017e-17
 1.429999999999999e+00  8.256108849411650e-01 -3.393140768766017e-17
 1.429999999999999e+00  8.256108849411650e-01 -3.393140768766017e-17
 1.429999999999999e+00  8.256108849411650e-01 -3.393140768766017e-17
 1.429999999999999e+00  8.256108849411650e-01 -3.393140768766017e-17
 1.429999999999999e+00  8.256108849411650e-01 -3.393140768766017e-17
 1.429999999999999e+00  8.256108849411650e-01 -3.393140768766017e-17
 1.429999999999999e+00  8.256108849411650e-01 -3.393140768766017e-17
 1.429999999999999e+00  8.256108849411650e-01 -3.393140768766017e-17
 1.429999999999999e+00  8.256108849411650e-01 -3.393140768766017e-17
 1.429999999999999e+00  8.256108849411650e-01 -3.393140768766017e-17
 1.429999999999999e+00  8.256108849411650e-01 -3.393140768766017e-17
 1.429999999999999e+00  8.256108849411650e-01 -3.393140768766017e-17
 1.429999999999999e+00  8.256108849411650e-01 -3.393140768766017e-17
 1.429999999999999e+00  8.256108849411650e-01 -3.393140768766017e-17
 1.429999999999999e+00  8.256108849411650e-01 -3.393140768766017e-17
 1.429999999999999e+00  8.256108849411650e-01 -3.393140768766017e-17
 1.429999999999999e+00  8.256108849411650e-01 -3.393140768766017e-17
 1.429999999999999e+00  8.256108849411650e-01 -3.393140768766017e-17
 1.429999999999999e+00  8.256108849411650e-01 -3.393140768766017e-17
 1.429999999999999e+00  8.256108849411650e-01 -3.393140768766017e-17
 1.429999999999999e+00  8.256108849411650e-01 -3.393140768766017e-17
 1.429999999999999e+00  8.256108849411650e-01 -3.393140768766017e-17
 1.429999999999999e+00  8.256108849411650e-01 -3.393140768766017e-17
 1.429999999999999e+00  8.256108849411650e-01 -3.393140768766017e-17
 1.429999999999999e+00  8.256108849411650e-01 -3.393140768766017e-17
 1.429999999999999e+00  8.256108849411650e-01 -3.393140768766017e-17
 1.429999999999999e+00  8.256108849411650e-01 -3.393140768766017e-17
 1.429999999999999e+00  8.256108849411650e-01 -3.393140768766017e-17
 1.429999999999999e+00  8.256108849411650e-01 -3.393140768766017e-17
 1.429999999999999e+00  8.256108849411650e-01 -3.393140768766017e-17
 1.429999999999999e+00  8.256108849411650e-01 -3.393140768766017e-17
 1.429999999999999e+00  8.256108849411650e-01 -3.393140768766017e-17
 1.429999999999999e+00  8.256108849411650e-01 -3.393140768766017e-17
 1.429999999999999e+00  8.256108849411650e-01 -3.393140768766017e-17
 1.429999999999999e+00  8.256108849411650e-01 -3.393140768766017e-17
 1.429999999999999e+00  8.256108849411650e-01 -3.393140768766017e-17
 1.429999999999999e+00  8.256108849411650e-01 -3.393140768766017e-17
 1.429999999999999e+00  8.256108849411650e-01 -3.393140768766017e-17
 1.429999999999999e+00  8.256108849411650e-01 -3.393140768766017e-17
 1.429999999999999e+00  8.256108849411650e-01 -3.393140768766017e-17
 1.429999999999999e+00  8.256108849411650e-01 -3.393140768766017e-17
 1.429999999999999e+00  8.256108849411650e-01 -3.393140768766017e-17
 1.429999999999999e+00  8.256108849411650e-01 -3.393140768766017e-17
 1.429999999999999e+00  8.256108849411650e-01 -3.393140768766017e-17
 1.429999999999999e+00  8.256108849411650e-01 -3.393140768766017e-17
 1.429999999999999e+00  8.256108849411650e-01 -3.393140768766017e-17
 1.429999999999999e+00  8.256108849411650e-01 -3.393140768766017e-17
 1.429999999999999e+00  8.256108849411650e-01 -3.393140768766017e-17
 1.429999999999999e+00  8.256108849411650e-01 -3.393140768766017e-17
 1.429999999999999e+00  8.256108849411650e-01 -3.393140768766017e-17
 1.429999999999999e+00  8.256108849411650e-01 -3.393140768766017e-17
 1.429999999999999e+00  8.256108849411650e-01 -3.393140768766017e-17
 1.429999999999999e+00  8.256108849411650e-01 -3.393140768766017e-17
 1.429999999999999e+00  8.256108849411650e-01 -3.393140768766017e-17
 1.429999999999999e+00  8.256108849411650e-01 -3.393140768766017e-17
 1.429999999999999e+00  8.256108849411650e-01 -3.393140768766017e-17
 1.429999999999999e+00  8.256108849411650e-01 -3.393140768766017e-17
 1.429999999999999e+00  8.256108849411650e-01 -3.393140768766017e-17
 1.429999999999999e+00  8.256108849411650e-01 -3.393140768766017e-17
 1.429999999999999e+00  8.256108849411650e-01 -3.393140768766017e-17
 1.429999999999999e+00  8.256108849411650e-01 -3.393140768766017e-17
 1.429999999999999e+00  8.256108849411650e-01 -3.393140768766017e-17
 1.429999999999999e+00  8.256108849411650e-01 -3.393140768766017e-17
 1.429999999999999e+00  8.256108849411650e-01 -3.393140768766017e-17
 1.429999999999999e+00  8.256108849411650e-01 -3.393140768766017e-17
 1.429999999999999e+00  8.256108849411650e-01 -3.393140768766017e-17
 1.429999999999999e+00  8.256108849411650e-01 -3.393140768766017e-17
 1.429999999999999e+00  8.256108849411650e-01 -3.393140768766017e-17
 1.429999999999999e+00  8.256108849411650e-01 -3.393140768766017e-17
 1.429999999999999e+00  8.256108849411650e-01 -3.393140768766017e-17
 1.429999999999999e+00  8.256108849411650e-01 -3.393140768766017e-17
 1.429999999999999e+00  8.256108849411650e-01 -3.393140768766017e-17
 1.429999999999999e+00  8.256108849411650e-01 -3.393140768766017e-17
 1.429999999999999e+00  8.256108849411650e-01 -3.393140768766017e-17
 1.429999999999999e+00  8.256108849411650e-01 -3.393140768766017e-17
 1.429999999999999e+00  8.256108849411650e-01 -3.393140768766017e-17
 1.429999999999999e+00  8.256108849411650e-01 -3.393140768766017e-17
 1.429999999999999e+00  8.256108849411650e-01 -3.393140768766017e-17
 1.429999999999999e+00  8.256108849411650e-01 -3.393140768766017e-17
 1.429999999999999e+00  8.256108849411650e-01 -3.393140768766017e-17
 1.429999999999999e+00  8.256108849411650e-01 -3.393140768766017e-17
 1.429999999999999e+00  8.256108849411650e-01 -3.393140768766017e-17
 1.429999999999999e+00  8.256108849411650e-01 -3.393140768766017e-17
 1.429999999999999e+00  8.256108849411650e-01 -3.393140768766017e-17
 1.429999999999999e+00  8.256108849411650e-01 -3.393140768766017e-17
 1.429999999999999e+00  8.256108849411650e-01 -3.393140768766017e-17
 1.429999999999999e+00  8.256108849411650e-01 -3.393140768766017e-17
 1.429999999999999e+00  8.256108849411650e-01 -3.393140768766017e-17
 1.429999999999999e+00  8.256108849411650e-01 -3.393140768766017e-17
 1.429999999999999e+00  8.256108849411650e-01 -3.393140768766017e-17
 1.429999999999999e+00  8.256108849411650e-01 -3.393140768766017e-17
 1.429999999999999e+00  8.256108849411650e-01 -3.393140768766017e-17
 1.429999999999999e+00  8.256108849411650e-01 -3.393140768766017e-17
 1.429999999999999e+00  8.256108849411650e-01 -3.393140768766017e-17
 1.429999999999999e+00  8.256108849411650e-01 -3.393140768766017e-17
 1.429999999999999e+00  8.256108849411650e-01 -3.393140768766017e-17
 1.429999999999999e+00  8.256108849411650e-01 -3.393140768766017e-17
 1.429999999999999e+00  8.256108849411650e-01 -3.393140768766017e-17
 1.429999999999999e+00  8.256108849411650e-01 -3.393140768766017e-17
 1.429999999999999e+00  8.256108849411650e-01 -3.393140768766017e-17
 1.429999999999999e+00  8.256108849411650e-01 -3.393140768766017e-17
 1.429999999999999e+00  8.256108849411650e-01 -3.393140768766017e-17
 1.429999999999999e+00  8.256108849411650e-01 -3.393140768766017e-17
-1.429999999999999e+00  8.256108849411650e-01  1.696570384383008e-17
 1.429999999999999e+00 -8.256108849411650e-01 -1.696570384383008e-17
-1.429999999999999e+00  8.256108849411650e-01  1.696570384383008e-17
-1.429999999999999e+00  8.256108849411650e-01  1.696570384383008e-17
-1.429999999999999e+00  8.256108849411650e-01  1.696570384383008e-17
-1.429999999999999e+00  8.256108849411650e-01  1.696570384383008e-17
-1.429999999999999e+00  8.256108849411650e-01  1.696570384383008e-17
-1.429999999999999e+00  8.256108849411650e-01  1.696570384383008e-17
-1.429999999999999e+00  8.256108849411650e-01  1.696570384383008e-17
-1.429999999999999e+00  8.256108849411650e-01  1.696570384383008e-17
-1.429999999999999e+00  8.256108849411650e-01  1.696570384383008e-17
-1.429999999999999e+00  8.256108849411650e-01  1.696570384383008e-17
-1.429999999999999e+00  8.256108849411650e-01  1.696570384383008e-17
-1.429999999999999e+00  8.256108849411650e-01  1.696570384383008e-17
-1.429999999999999e+00  8.256108849411650e-01  1.696570384383008e-17
-1.429999999999999e+00  8.256108849411650e-01  1.696570384383008e-17
-1.429999999999999e+00  8.256108849411650e-01  1.696570384383008e-17
-1.429999999999999e+00  8.256108849411650e-01  1.696570384383008e-17
-1.429999999999999e+00  8.256108849411650e-01  1.696570384383008e-17
-1.429999999999999e+00  8.256108849411650e-01  1.696570384383008e-17
-1.429999999999999e+00  8.256108849411650e-01  1.696570384383008e-17
-1.429999999999999e+00  8.256108849411650e-01  1.696570384383008e-17
-1.429999999999999e+00  8.256108849411650e-01  1.696570384383008e-17
-1.429999999999999e+00  8.256108849411650e-01  1.696570384383008e-17
-1.429999999999999e+00  8.256108849411650e-01  1.696570384383008e-17
-1.429999999999999e+00  8.256108849411650e-01  1.696570384383008e-17
-1.429999999999999e+00  8.256108849411650e-01  1.696570384383008e-17
-1.429999999999999e+00  8.256108849411650e-01  1.696570384383008e-17
-1.429999999999999e+00  8.256108849411650e-01  1.696570384383008e-17
-1.429999999999999e+00  8.256108849411650e-01  1.696570384383008e-17
-1.429999999999999e+00  8.256108849411650e-01  1.696570384383008e-17
-1.429999999999999e+00  8.256108849411650e-01  1.696570384383008e-17
-1.429999999999999e+00  8.256108849411650e-01  1.696570384383008e-17
-1.429999999999999e+00  8.256108849411650e-01  1.696570384383008e-17
-1.429999999999999e+00  8.256108849411650e-01  1.696570384383008e-17
-1.429999999999999e+00  8.256108849411650e-01  1.696570384383008e-17
-1.429999999999999e+00  8.256108849411650e-01  1.696570384383008e-17
-1.429999999999999e+00  8.256108849411650e-01  1.696570384383008e-17
-1.429999999999999e+00  8.256108849411650e-01  1.696570384383008e-17
-1.429999999999999e+00  8.256108849411650e-01  1.696570384383008e-17
-1.429999999999999e+00  8.256108849411650e-01  1.696570384383008e-17
-1.429999999999999e+00  8.256108849411650e-01  1.696570384383008e-17
-1.429999999999999e+00  8.256108849411650e-01  1.696570384383008e-17
-1.429999999999999e+00  8.256108849411650e-01  1.696570384383008e-17
-1.429999999999999e+00  8.256108849411650e-01  1.696570384383008e-17
-1.429999999999999e+00  8.256108849411650e-01  1.696570384383008e-17
-1.429999999999999e+00  8.256108849411650e-01  1.696570384383008e-17
-1.429999999999999e+00  8.256108849411650e-01  1.696570384383008e-17
-1.429999999999999e+00  8.256108849411650e-01  1.696570384383008e-17
-1.429999999999999e+00  8.256108849411650e-01  1.696570384383008e-17
-1.429999999999999e+00  8.256108849411650e-01  1.696570384383008e-17
-1.429999999999999e+00  8.256108849411650e-01  1.696570384383008e-17
-1.429999999999999e+00  8.256108849411650e-01  1.696570384383008e-17
-1.429999999999999e+00  8.256108849411650e-01  1.696570384383008e-17
-1.429999999999999e+00  8.256108849411650e-01  1.696570384383008e-17
-1.429999999999999e+00  8.256108849411650e-01  1.696570384383008e-17
-1.429999999999999e+00  8.256108849411650e-01  1.696570384383008e-17
-1.429999999999999e+00  8.256108849411650e-01  1.696570384383008e-17
-1.429999999999999e+00  8.256108849411650e-01  1.696570384383008e-17
-1.429999999999999e+00  8.256108849411650e-01  1.696570384383008e-17
-1.429999999999999e+00  8.256108849411650e-01  1.696570384383008e-17
-1.429999999999999e+00  8.256108849411650e-01  1.696570384383008e-17
-1.429999999999999e+00  8.256108849411650e-01  1.696570384383008e-17
-1.429999999999999e+00  8.256108849411650e-01  1.696570384383008e-17
-1.429999999999999e+00  8.256108849411650e-01  1.696570384383008e-17
-1.429999999999999e+00  8.256108849411650e-01  1.696570384383008e-17
-1.429999999999999e+00  8.256108849411650e-01  1.696570384383008e-17
-1.429999999999999e+00  8.256108849411650e-01  1.696570384383008e-17
-1.429999999999999e+00  8.256108849411650e-01  1.696570384383008e-17
-1.429999999999999e+00  8.256108849411650e-01  1.696570384383008e-17
-1.429999999999999e+00  8.256108849411650e-01  1.696570384383008e-17
-1.429999999999999e+00  8.256108849411650e-01  1.696570384383008e-17
-1.429999999999999e+00  8.256108849411650e-01  1.696570384383008e-17
-1.429999999999999e+00  8.256108849411650e-01  1.696570384383008e-17
-1.429999999999999e+00  8.256108849411650e-01  1.696570384383008e-17
-1.429999999999999e+00  8.256108849411650e-01  1.696570384383008e-17
-1.429999999999999e+00  8.256108849411650e-01  1.696570384383008e-17
-1.429999999999999e+00  8.256108849411650e-01  1.696570384383008e-17
-1.429999999999999e+00  8.256108849411650e-01  1.696570384383008e-17
-1.429999999999999e+00  8.256108849411650e-01  1.696570384383008e-17
-1.429999999999999e+00  8.256108849411650e-01  1.696570384383008e-17
-1.429999999999999e+00  8.256108849411650e-01  1.696570384383008e-17
-1.429999999999999e+00  8.256108849411650e-01  1.696570384383008e-17
-1.429999999999999e+00  8.256108849411650e-01  1.696570384383008e-17
-1.429999999999999e+00  8.256108849411650e-01  1.696570384383008e-17
-1.429999999999999e+00  8.256108849411650e-01  1.696570384383008e-17
-1.429999999999999e+00  8.256108849411650e-01  1.696570384383008e-17
-1.429999999999999e+00  8.256108849411650e-01  1.696570384383008e-17
-1.429999999999999e+00  8.256108849411650e-01  1.696570384383008e-17
-1.429999999999999e+00  8.256108849411650e-01  1.696570384383008e-17
-1.429999999999999e+00  8.256108849411650e-01  1.696570384383008e-17
-1.429999999999999e+00  8.256108849411650e-01  1.696570384383008e-17
-1.429999999999999e+00  8.256108849411650e-01  1.696570384383008e-17
-1.429999999999999e+00  8.256108849411650e-01  1.696570384383008e-17
-1.429999999999999e+00  8.256108849411650e-01  1.696570384383008e-17
-1.429999999999999e+00  8.256108849411650e-01  1.696570384383008e-17
-1.429999999999999e+00  8.256108849411650e-01  1.696570384383008e-17
-1.429999999999999e+00  8.256108849411650e-01  1.696570384383008e-17
-1.429999999999999e+00  8.256108849411650e-01  1.696570384383008e-17
-1.429999999999999e+00  8.256108849411650e-01  1.696570384383008e-17
-1.429999999999999e+00  8.256108849411650e-01  1.696570384383008e-17
-1.429999999999999e+00  8.256108849411650e-01  1.696570384383008e-17
-1.429999999999999e+00  8.256108849411650e-01  1.696570384383008e-17
-1.429999999999999e+00  8.256108849411650e-01  1.696570384383008e-17
-1.429999999999999e+00  8.256108849411650e-01  1.696570384383008e-17
-1.429999999999999e+00  8.256108849411650e-01  1.696570384383008e-17
-1.429999999999999e+00  8.256108849411650e-01  1.696570384383008e-17
-1.429999999999999e+00  8.256108849411650e-01  1.696570384383008e-17
-1.429999999999999e+00  8.256108849411650e-01  1.696570384383008e-17
-1.429999999999999e+00  8.256108849411650e-01  1.696570384383008e-17
-1.429999999999999e+00  8.256108849411650e-01  1.696570384383008e-17
-1.429999999999999e+00  8.256108849411650e-01  1.696570384383008e-17
-1.429999999999999e+00  8.256108849411650e-01  1.696570384383008e-17
-1.429999999999999e+00  8.256108849411650e-01  1.696570384383008e-17
-1.429999999999999e+00  8.256108849411650e-01  1.696570384383008e-17
-1.429999999999999e+00  8.256108849411650e-01  1.696570384383008e-17
-1.429999999999999e+00  8.256108849411650e-01  1.696570384383008e-17
-1.429999999999999e+00  8.256108849411650e-01  1.696570384383008e-17
-1.429999999999999e+00  8.256108849411650e-01  1.696570384383008e-17
-1.429999999999999e+00  8.256108849411650e-01  1.696570384383008e-17
-1.429999999999999e+00  8.256108849411650e-01  1.696570384383008e-17
-1.429999999999999e+00  8.256108849411650e-01  1.696570384383008e-17
-1.429999999999999e+00  8.256108849411650e-01  1.696570384383008e-17
-1.429999999999999e+00  8.256108849411650e-01  1.696570384383008e-17
-1.429999999999999e+00  8.256108849411650e-01  1.696570384383008e-17
-1.429999999999999e+00  8.256108849411650e-01  1.696570384383008e-17
-1.429999999999999e+00  8.256108849411650e-01  1.696570384383008e-17
-1.429999999999999e+00  8.256108849411650e-01  1.696570384383008e-17
-1.429999999999999e+00  8.256108849411650e-01  1.696570384383008e-17
-1.429999999999999e+00  8.256108849411650e-01  1.696570384383008e-17
-1.429999999999999e+00  8.256108849411650e-01  1.696570384383008e-17
-1.429999999999999e+00  8.256108849411650e-01  1.696570384383008e-17
-1.429999999999999e+00  8.256108849411650e-01  1.696570384383008e-17
-1.429999999999999e+00  8.256108849411650e-01  1.696570384383008e-17
-1.429999999999999e+00  8.256108849411650e-01  1.696570384383008e-17
-1.429999999999999e+00  8.256108849411650e-01  1.696570384383008e-17
-1.429999999999999e+00  8.256108849411650e-01  1.696570384383008e-17
-1.429999999999999e+00  8.256108849411650e-01  1.696570384383008e-17
-1.429999999999999e+00  8.256108849411650e-01  1.696570384383008e-17
-1.429999999999999e+00  8.256108849411650e-01  1.696570384383008e-17
-1.429999999999999e+00  8.256108849411650e-01  1.696570384383008e-17
-1.429999999999999e+00  8.256108849411650e-01  1.696570384383008e-17
-1.429999999999999e+00  8.256108849411650e-01  1.696570384383008e-17
-1.429999999999999e+00  8.256108849411650e-01  1.696570384383008e-17
-1.429999999999999e+00  8.256108849411650e-01  1.696570384383008e-17
-1.429999999999999e+00  8.256108849411650e-01  1.696570384383008e-17
-1.429999999999999e+00  8.256108849411650e-01  1.696570384383008e-17
-1.429999999999999e+00  8.256108849411650e-01  1.696570384383008e-17
-1.429999999999999e+00  8.256108849411650e-01  1.696570384383008e-17
-1.429999999999999e+00  8.256108849411650e-01  1.696570384383008e-17
-1.429999999999999e+00  8.256108849411650e-01  1.696570384383008e-17
-1.429999999999999e+00  8.256108849411650e-01  1.696570384383008e-17
-1.429999999999999e+00  8.256108849411650e-01  1.696570384383008e-17
-1.429999999999999e+00  8.256108849411650e-01  1.696570384383008e-17
-1.429999999999999e+00  8.256108849411650e-01  1.696570384383008e-17
-1.429999999999999e+00  8.256108849411650e-01  1.696570384383008e-17
-1.429999999999999e+00  8.256108849411650e-01  1.696570384383008e-17
-1.429999999999999e+00  8.256108849411650e-01  1.696570384383008e-17
-1.429999999999999e+00  8.256108849411650e-01  1.696570384383008e-17
-1.429999999999999e+00  8.256108849411650e-01  1.696570384383008e-17
-1.429999999999999e+00  8.256108849411650e-01  1.696570384383008e-17
-1.429999999999999e+00  8.256108849411650e-01  1.696570384383008e-17
-1.429999999999999e+00  8.256108849411650e-01  1.696570384383008e-17
-1.429999999999999e+00  8.256108849411650e-01  1.696570384383008e-17
-1.429999999999999e+00  8.256108849411650e-01  1.696570384383008e-17
-1.429999999999999e+00  8.256108849411650e-01  1.696570384383008e-17
-1.429999999999999e+00  8.256108849411650e-01  1.696570384383008e-17
-1.429999999999999e+00  8.256108849411650e-01  1.696570384383008e-17
-1.429999999999999e+00  8.256108849411650e-01  1.696570384383008e-17
-1.429999999999999e+00  8.256108849411650e-01  1.696570384383008e-17
-1.429999999999999e+00  8.256108849411650e-01  1.696570384383008e-17
-1.429999999999999e+00  8.256108849411650e-01  1.696570384383008e-17
-1.429999999999999e+00  8.256108849411650e-01  1.696570384383008e-17
-1.429999999999999e+00  8.256108849411650e-01  1.696570384383008e-17
-1.429999999999999e+00  8.256108849411650e-01  1.696570384383008e-17
-1.429999999999999e+00  8.256108849411650e-01  1.696570384383008e-17
-1.429999999999999e+00  8.256108849411650e-01  1.696570384383008e-17
-1.429999999999999e+00  8.256108849411650e-01  1.696570384383008e-17
-1.429999999999999e+00  8.256108849411650e-01  1.696570384383008e-17
-1.429999999999999e+00  8.256108849411650e-01  1.696570384383008e-17
-1.429999999999999e+00  8.256108849411650e-01  1.696570384383008e-17
-1.429999999999999e+00  8.256108849411650e-01  1.696570384383008e-17
-1.429999999999999e+00  8.256108849411650e-01  1.696570384383008e-17
-1.429999999999999e+00  8.256108849411650e-01  1.696570384383008e-17
-1.429999999999999e+00  8.256108849411650e-01  1.696570384383008e-17
-1.429999999999999e+00  8.256108849411650e-01  1.696570384383008e-17
-1.429999999999999e+00  8.256108849411650e-01  1.696570384383008e-17
-1.429999999999999e+00  8.256108849411650e-01  1.696570384383008e-17
-1.429999999999999e+00  8.256108849411650e-01  1.696570384383008e-17
-1.429999999999999e+00  8.256108849411650e-01  1.696570384383008e-17
-1.429999999999999e+00  8.256108849411650e-01  1.696570384383008e-17
-1.429999999999999e+00  8.256108849411650e-01  1.696570384383008e-17
-1.429999999999999e+00  8.256108849411650e-01  1.696570384383008e-17
-1.429999999999999e+00  8.256108849411650e-01  1.696570384383008e-17
-1.429999999999999e+00  8.256108849411650e-01  1.696570384383008e-17
-1.429999999999999e+00  8.256108849411650e-01  1.696570384383008e-17
-1.429999999999999e+00  8.256108849411650e-01  1.696570384383008e-17
-1.429999999999999e+00  8.256108849411650e-01  1.696570384383008e-17
-1.429999999999999e+00  8.256108849411650e-01  1.696570384383008e-17
-1.429999999999999e+00  8.256108849411650e-01  1.696570384383008e-17
-1.429999999999999e+00  8.256108849411650e-01  1.696570384383008e-17
-1.429999999999999e+00  8.256108849411650e-01  1.696570384383008e-17
 1.429999999999999e+00 -8.256108849411650e-01 -1.696570384383008e-17
-1.429999999999999e+00  8.256108849411650e-01  1.696570384383008e-17
 1.429999999999999e+00 -8.256108849411650e-01 -1.696570384383008e-17
 1.429999999999999e+00 -8.256108849411650e-01 -1.696570384383008e-17
 1.429999999999999e+00 -8.256108849411650e-01 -1.696570384383008e-17
 1.429999999999999e+00 -8.256108849411650e-01 -1.696570384383008e-17
 1.429999999999999e+00 -8.256108849411650e-01 -1.696570384383008e-17
 1.429999999999999e+00 -8.256108849411650e-01 -1.696570384383008e-17
 1.429999999999999e+00 -8.256108849411650e-01 -1.696570384383008e-17
 1.429999999999999e+00 -8.256108849411650e-01 -1.696570384383008e-17
 1.429999999999999e+00 -8.256108849411650e-01 -1.696570384383008e-17
 1.429999999999999e+00 -8.256108849411650e-01 -1.696570384383008e-17
 1.429999999999999e+00 -8.256108849411650e-01 -1.696570384383008e-17
 1.429999999999999e+00 -8.256108849411650e-01 -1.696570384383008e-17
 1.429999999999999e+00 -8.256108849411650e-01 -1.696570384383008e-17
 1.429999999999999e+00 -8.256108849411650e-01 -1.696570384383008e-17
 1.429999999999999e+00 -8.256108849411650e-01 -1.696570384383008e-17
 1.429999999999999e+00 -8.256108849411650e-01 -1.696570384383008e-17
 1.429999999999999e+00 -8.256108849411650e-01 -1.696570384383008e-17
 1.429999999999999e+00 -8.256108849411650e-01 -1.696570384383008e-17
 1.429999999999999e+00 -8.256108849411650e-01 -1.696570384383008e-17
 1.429999999999999e+00 -8.256108849411650e-01 -1.696570384383008e-17
 1.429999999999999e+00 -8.256108849411650e-01 -1.696570384383008e-17
 1.429999999999999e+00 -8.256108849411650e-01 -1.696570384383008e-17
 1.429999999999999e+00 -8.256108849411650e-01 -1.696570384383008e-17
 1.429999999999999e+00 -8.256108849411650e-01 -1.696570384383008e-17
 1.429999999999999e+00 -8.256108849411650e-01 -1.696570384383008e-17
 1.429999999999999e+00 -8.256108849411650e-01 -1.696570384383008e-17
 1.429999999999999e+00 -8.256108849411650e-01 -1.696570384383008e-17
 1.429999999999999e+00 -8.256108849411650e-01 -1.696570384383008e-17
 1.429999999999999e+00 -8.256108849411650e-01 -1.696570384383008e-17
 1.429999999999999e+00 -8.256108849411650e-01 -1.696570384383008e-17
 1.429999999999999e+00 -8.256108849411650e-01 -1.696570384383008e-17
 1.429999999999999e+00 -8.256108849411650e-01 -1.696570384383008e-17
 1.429999999999999e+00 -8.256108849411650e-01 -1.696570384383008e-17
 1.429999999999999e+00 -8.256108849411650e-01 -1.696570384383008e-17
 1.429999999999999e+00 -8.256108849411650e-01 -1.696570384383008e-17
 1.429999999999999e+00 -8.256108849411650e-01 -1.696570384383008e-17
 1.429999999999999e+00 -8.256108849411650e-01 -1.696570384383008e-17
 1.429999999999999e+00 -8.256108849411650e-01 -1.696570384383008e-17
 1.429999999999999e+00 -8.256108849411650e-01 -1.696570384383008e-17
 1.429999999999999e+00 -8.256108849411650e-01 -1.696570384383008e-17
 1.429999999999999e+00 -8.256108849411650e-01 -1.696570384383008e-17
 1.429999999999999e+00 -8.256108849411650e-01 -1.696570384383008e-17
 1.429999999999999e+00 -8.256108849411650e-01 -1.696570384383008e-17
 1.429999999999999e+00 -8.256108849411650e-01 -1.696570384383008e-17
 1.429999999999999e+00 -8.256108849411650e-01 -1.696570384383008e-17
 1.429999999999999e+00 -8.256108849411650e-01 -1.696570384383008e-17
 1.429999999999999e+00 -8.256108849411650e-01 -1.696570384383008e-17
 1.429999999999999e+00 -8.256108849411650e-01 -1.696570384383008e-17
 1.429999999999999e+00 -8.256108849411650e-01 -1.696570384383008e-17
 1.429999999999999e+00 -8.256108849411650e-01 -1.696570384383008e-17
 1.429999999999999e+00 -8.256108849411650e-01 -1.696570384383008e-17
 1.429999999999999e+00 -8.256108849411650e-01 -1.696570384383008e-17
 1.429999999999999e+00 -8.256108849411650e-01 -1.696570384383008e-17
 1.429999999999999e+00 -8.256108849411650e-01 -1.696570384383008e-17
 1.429999999999999e+00 -8.256108849411650e-01 -1.696570384383008e-17
 1.429999999999999e+00 -8.256108849411650e-01 -1.696570384383008e-17
 1.429999999999999e+00 -8.256108849411650e-01 -1.696570384383008e-17
 1.429999999999999e+00 -8.256108849411650e-01 -1.696570384383008e-17
 1.429999999999999e+00 -8.256108849411650e-01 -1.696570384383008e-17
 1.429999999999999e+00 -8.256108849411650e-01 -1.696570384383008e-17
 1.429999999999999e+00 -8.256108849411650e-01 -1.696570384383008e-17
 1.429999999999999e+00 -8.256108849411650e-01 -1.696570384383008e-17
 1.429999999999999e+00 -8.256108849411650e-01 -1.696570384383008e-17
 1.429999999999999e+00 -8.256108849411650e-01 -1.696570384383008e-17
 1.429999999999999e+00 -8.256108849411650e-01 -1.696570384383008e-17
 1.429999999999999e+00 -8.256108849411650e-01 -1.696570384383008e-17
 1.429999999999999e+00 -8.256108849411650e-01 -1.696570384383008e-17
 1.429999999999999e+00 -8.256108849411650e-01 -1.696570384383008e-17
 1.429999999999999e+00 -8.256108849411650e-01 -1.696570384383008e-17
 1.429999999999999e+00 -8.256108849411650e-01 -1.696570384383008e-17
 1.429999999999999e+00 -8.256108849411650e-01 -1.696570384383008e-17
 1.429999999999999e+00 -8.256108849411650e-01 -1.696570384383008e-17
 1.429999999999999e+00 -8.256108849411650e-01 -1.696570384383008e-17
 1.429999999999999e+00 -8.256108849411650e-01 -1.696570384383008e-17
 1.429999999999999e+00 -8.256108849411650e-01 -1.696570384383008e-17
 1.429999999999999e+00 -8.256108849411650e-01 -1.696570384383008e-17
 1.429999999999999e+00 -8.256108849411650e-01 -1.696570384383008e-17
 1.429999999999999e+00 -8.256108849411650e-01 -1.696570384383008e-17
 1.429999999999999e+00 -8.256108849411650e-01 -1.696570384383008e-17
 1.429999999999999e+00 -8.256108849411650e-01 -1.696570384383008e-17
 1.429999999999999e+00 -8.256108849411650e-01 -1.696570384383008e-17
 1.429999999999999e+00 -8.256108849411650e-01 -1.696570384383008e-17
 1.429999999999999e+00 -8.256108849411650e-01 -1.696570384383008e-17
 1.429999999999999e+00 -8.256108849411650e-01 -1.696570384383008e-17
 1.429999999999999e+00 -8.256108849411650e-01 -1.696570384383008e-17
 1.429999999999999e+00 -8.256108849411650e-01 -1.696570384383008e-17
 1.429999999999999e+00 -8.256108849411650e-01 -1.696570384383008e-17
 1.429999999999999e+00 -8.256108849411650e-01 -1.696570384383008e-17
 1.429999999999999e+00 -8.256108849411650e-01 -1.696570384383008e-17
 1.429999999999999e+00 -8.256108849411650e-01 -1.696570384383008e-17
 1.429999999999999e+00 -8.256108849411650e-01 -1.696570384383008e-17
 1.429999999999999e+00 -8.256108849411650e-01 -1.696570384383008e-17
 1.429999999999999e+00 -8.256108849411650e-01 -1.696570384383008e-17
 1.429999999999999e+00 -8.256108849411650e-01 -1.696570384383008e-17
 1.429999999999999e+00 -8.256108849411650e-01 -1.696570384383008e-17
 1.429999999999999e+00 -8.256108849411650e-01 -1.696570384383008e-17
 1.429999999999999e+00 -8.256108849411650e-01 -1.696570384383008e-17
 1.429999999999999e+00 -8.256108849411650e-01 -1.696570384383008e-17
 1.429999999999999e+00 -8.256108849411650e-01 -1.696570384383008e-17
 1.429999999999999e+00 -8.256108849411650e-01 -1.696570384383008e-17
 1.429999999999999e+00 -8.256108849411650e-01 -1.696570384383008e-17
 1.429999999999999e+00 -8.256108849411650e-01 -1.696570384383008e-17
 1.429999999999999e+00 -8.256108849411650e-01 -1.696570384383008e-17
 1.429999999999999e+00 -8.256108849411650e-01 -1.696570384383008e-17
 1.429999999999999e+00 -8.256108849411650e-01 -1.696570384383008e-17
 1.429999999999999e+00 -8.256108849411650e-01 -1.696570384383008e-17
 1.429999999999999e+00 -8.256108849411650e-01 -1.696570384383008e-17
 1.429999999999999e+00 -8.256108849411650e-01 -1.696570384383008e-17
 1.429999999999999e+00 -8.256108849411650e-01 -1.696570384383008e-17
 1.429999999999999e+00 -8.256108849411650e-01 -1.696570384383008e-17
 1.429999999999999e+00 -8.256108849411650e-01 -1.696570384383008e-17
 1.429999999999999e+00 -8.256108849411650e-01 -1.696570384383008e-17
 1.429999999999999e+00 -8.256108849411650e-01 -1.696570384383008e-17
 1.429999999999999e+00 -8.256108849411650e-01 -1.696570384383008e-17
 1.429999999999999e+00 -8.256108849411650e-01 -1.696570384383008e-17
 1.429999999999999e+00 -8.256108849411650e-01 -1.696570384383008e-17
 1.429999999999999e+00 -8.256108849411650e-01 -1.696570384383008e-17
 1.429999999999999e+00 -8.256108849411650e-01 -1.696570384383008e-17
 1.429999999999999e+00 -8.256108849411650e-01 -1.696570384383008e-17
 1.429999999999999e+00 -8.256108849411650e-01 -1.696570384383008e-17
 1.429999999999999e+00 -8.256108849411650e-01 -1.696570384383008e-17
 1.429999999999999e+00 -8.256108849411650e-01 -1.696570384383008e-17
 1.429999999999999e+00 -8.256108849411650e-01 -1.696570384383008e-17
 1.429999999999999e+00 -8.256108849411650e-01 -1.696570384383008e-17
 1.429999999999999e+00 -8.256108849411650e-01 -1.696570384383008e-17
 1.429999999999999e+00 -8.256108849411650e-01 -1.696570384383008e-17
 1.429999999999999e+00 -8.256108849411650e-01 -1.696570384383008e-17
 1.429999999999999e+00 -8.256108849411650e-01 -1.696570384383008e-17
 1.429999999999999e+00 -8.256108849411650e-01 -1.696570384383008e-17
 1.429999999999999e+00 -8.256108849411650e-01 -1.696570384383008e-17
 1.429999999999999e+00 -8.256108849411650e-01 -1.696570384383008e-17
 1.429999999999999e+00 -8.256108849411650e-01 -1.696570384383008e-17
 1.429999999999999e+00 -8.256108849411650e-01 -1.696570384383008e-17
 1.429999999999999e+00 -8.256108849411650e-01 -1.696570384383008e-17
 1.429999999999999e+00 -8.256108849411650e-01 -1.696570384383008e-17
 1.429999999999999e+00 -8.256108849411650e-01 -1.696570384383008e-17
 1.429999999999999e+00 -8.256108849411650e-01 -1.696570384383008e-17
 1.429999999999999e+00 -8.256108849411650e-01 -1.696570384383008e-17
 1.429999999999999e+00 -8.256108849411650e-01 -1.696570384383008e-17
 1.429999999999999e+00 -8.256108849411650e-01 -1.696570384383008e-17
 1.429999999999999e+00 -8.256108849411650e-01 -1.696570384383008e-17
 1.429999999999999e+00 -8.256108849411650e-01 -1.696570384383008e-17
 1.429999999999999e+00 -8.256108849411650e-01 -1.696570384383008e-17
 1.429999999999999e+00 -8.256108849411650e-01 -1.696570384383008e-17
 1.429999999999999e+00 -8.256108849411650e-01 -1.696570384383008e-17
 1.429999999999999e+00 -8.256108849411650e-01 -1.696570384383008e-17
 1.429999999999999e+00 -8.256108849411650e-01 -1.696570384383008e-17
 1.429999999999999e+00 -8.256108849411650e-01 -1.696570384383008e-17
 1.429999999999999e+00 -8.256108849411650e-01 -1.696570384383008e-17
 1.429999999999999e+00 -8.256108849411650e-01 -1.696570384383008e-17
 1.429999999999999e+00 -8.256108849411650e-01 -1.696570384383008e-17
 1.429999999999999e+00 -8.256108849411650e-01 -1.696570384383008e-17
 1.429999999999999e+00 -8.256108849411650e-01 -1.696570384383008e-17
 1.429999999999999e+00 -8.256108849411650e-01 -1.696570384383008e-17
 1.429999999999999e+00 -8.256108849411650e-01 -1.696570384383008e-17
 1.429999999999999e+00 -8.256108849411650e-01 -1.696570384383008e-17
 1.429999999999999e+00 -8.256108849411650e-01 -1.696570384383008e-17
 1.429999999999999e+00 -8.256108849411650e-01 -1.696570384383008e-17
 1.429999999999999e+00 -8.256108849411650e-01 -1.696570384383008e-17
 1.429999999999999e+00 -8.256108849411650e-01 -1.696570384383008e-17
 1.429999999999999e+00 -8.256108849411650e-01 -1.696570384383008e-17
 1.429999999999999e+00 -8.256108849411650e-01 -1.696570384383008e-17
 1.429999999999999e+00 -8.256108849411650e-01 -1.696570384383008e-17
 1.429999999999999e+00 -8.256108849411650e-01 -1.696570384383008e-17
 1.429999999999999e+00 -8.256108849411650e-01 -1.696570384383008e-17
 1.429999999999999e+00 -8.256108849411650e-01 -1.696570384383008e-17
 1.429999999999999e+00 -8.256108849411650e-01 -1.696570384383008e-17
 1.429999999999999e+00 -8.256108849411650e-01 -1.696570384383008e-17
 1.429999999999999e+00 -8.256108849411650e-01 -1.696570384383008e-17
 1.429999999999999e+00 -8.256108849411650e-01 -1.696570384383008e-17
 1.429999999999999e+00 -8.256108849411650e-01 -1.696570384383008e-17
 1.429999999999999e+00 -8.256108849411650e-01 -1.696570384383008e-17
 1.429999999999999e+00 -8.256108849411650e-01 -1.696570384383008e-17
 1.429999999999999e+00 -8.256108849411650e-01 -1.696570384383008e-17
 1.429999999999999e+00 -8.256108849411650e-01 -1.696570384383008e-17
 1.429999999999999e+00 -8.256108849411650e-01 -1.696570384383008e-17
 1.429999999999999e+00 -8.256108849411650e-01 -1.696570384383008e-17
 1.429999999999999e+00 -8.256108849411650e-01 -1.696570384383008e-17
 1.429999999999999e+00 -8.256108849411650e-01 -1.696570384383008e-17
 1.429999999999999e+00 -8.256108849411650e-01 -1.696570384383008e-17
 1.429999999999999e+00 -8.256108849411650e-01 -1.696570384383008e-17
 1.429999999999999e+00 -8.256108849411650e-01 -1.696570384383008e-17
 1.429999999999999e+00 -8.256108849411650e-01 -1.696570384383008e-17
 1.429999999999999e+00 -8.256108849411650e-01 -1.696570384383008e-17
 1.429999999999999e+00 -8.256108849411650e-01 -1.696570384383008e-17
 1.429999999999999e+00 -8.256108849411650e-01 -1.696570384383008e-17
 1.429999999999999e+00 -8.256108849411650e-01 -1.696570384383008e-17
 1.429999999999999e+00 -8.256108849411650e-01 -1.696570384383008e-17
 1.429999999999999e+00 -8.256108849411650e-01 -1.696570384383008e-17
 1.429999999999999e+00 -8.256108849411650e-01 -1.696570384383008e-17
 1.429999999999999e+00 -8.256108849411650e-01 -1.696570384383008e-17
 1.429999999999999e+00 -8.256108849411650e-01 -1.696570384383008e-17
 1.429999999999999e+00 -8.256108849411650e-01 -1.696570384383008e-17
 1.429999999999999e+00 -8.256108849411650e-01 -1.696570384383008e-17
 1.429999999999999e+00 -8.256108849411650e-01 -1.696570384383008e-17
 1.429999999999999e+00 -8.256108849411650e-01 -1.696570384383008e-17
 1.429999999999999e+00 -8.256108849411650e-01 -1.696570384383008e-17
 1.429999999999999e+00 -8.256108849411650e-01 -1.696570384383008e-17
 1.429999999999999e+00 -8.256108849411650e-01 -1.696570384383008e-17
 1.429999999999999e+00 -8.256108849411650e-01 -1.696570384383008e-17

VECTORS burgers_vector_local double
-1.666666666666667e-01 -3.333333333333333e-01 -1.666666666666665e-01
1.666666666666667e-01 3.333333333333333e-01 1.666666666666665e-01
-1.666666666666667e-01 -3.333333333333333e-01 -1.666666666666665e-01
-1.666666666666667e-01 -3.333333333333333e-01 -1.666666666666665e-01
-1.666666666666667e-01 -3.333333333333333e-01 -1.666666666666665e-01
-1.666666666666667e-01 -3.333333333333333e-01 -1.666666666666665e-01
-1.666666666666667e-01 -3.333333333333333e-01 -1.666666666666665e-01
-1.666666666666667e-01 -3.333333333333333e-01 -1.666666666666665e-01
-1.666666666666667e-01 -3.333333333333333e-01 -1.666666666666665e-01
-1.666666666666667e-01 -3.333333333333333e-01 -1.666666666666665e-01
-1.666666666666667e-01 -3.333333333333333e-01 -1.666666666666665e-01
-1.666666666666667e-01 -3.333333333333333e-01 -1.666666666666665e-01
-1.666666666666667e-01 -3.333333333333333e-01 -1.666666666666665e-01
-1.666666666666667e-01 -3.333333333333333e-01 -1.666666666666665e-01
-1.666666666666667e-01 -3.333333333333333e-01 -1.666666666666665e-01
-1.666666666666667e-01 -3.333333333333333e-01 -1.666666666666665e-01
-1.666666666666667e-01 -3.333333333333333e-01 -1.666666666666665e-01
-1.666666666666667e-01 -3.333333333333333e-01 -1.666666666666665e-01
-1.666666666666667e-01 -3.333333333333333e-01 -1.666666666666665e-01
-1.666666666666667e-01 -3.333333333333333e-01 -1.666666666666665e-01
-1.666666666666667e-01 -3.333333333333333e-01 -1.666666666666665e-01
-1.666666666666667e-01 -3.333333333333333e-01 -1.666666666666665e-01
-1.666666666666667e-01 -3.333333333333333e-01 -1.666666666666665e-01
-1.666666666666667e-01 -3.333333333333333e-01 -1.666666666666665e-01
-1.666666666666667e-01 -3.333333333333333e-01 -1.666666666666665e-01
-1.666666666666667e-01 -3.333333333333333e-01 -1.666666666666665e-01
-1.666666666666667e-01 -3.333333333333333e-01 -1.666666666666665e-01
-1.666666666666667e-01 -3.333333333333333e-01 -1.666666666666665e-01
-1.666666666666667e-01 -3.333333333333333e-01 -1.666666666666665e-01
-1.666666666666667e-01 -3.333333333333333e-01 -1.666666666666665e-01
-1.666666666666667e-01 -3.333333333333333e-01 -1.666666666666665e-01
-1.666666666666667e-01 -3.333333333333333e-01 -1.666666666666665e-01
-1.666666666666667e-01 -3.333333333333333e-01 -1.666666666666665e-01
-1.666666666666667e-01 -3.333333333333333e-01 -1.666666666666665e-01
-1.666666666666667e-01 -3.333333333333333e-01 -1.666666666666665e-01
-1.666666666666667e-01 -3.333333333333333e-01 -1.666666666666665e-01
-1.666666666666667e-01 -3.333333333333333e-01 -1.666666666666665e-01
-1.666666666666667e-01 -3.333333333333333e-01 -1.666666666666665e-01
-1.666666666666667e-01 -3.333333333333333e-01 -1.666666666666665e-01
-1.666666666666667e-01 -3.333333333333333e-01 -1.666666666666665e-01
-1.666666666666667e-01 -3.333333333333333e-01 -1.666666666666665e-01
-1.666666666666667e-01 -3.333333333333333e-01 -1.666666666666665e-01
-1.666666666666667e-01 -3.333333333333333e-01 -1.666666666666665e-01
-1.666666666666667e-01 -3.333333333333333e-01 -1.666666666666665e-01
-1.666666666666667e-01 -3.333333333333333e-01 -1.666666666666665e-01
-1.666666666666667e-01 -3.333333333333333e-01 -1.666666666666665e-01
-1.666666666666667e-01 -3.333333333333333e-01 -1.666666666666665e-01
-1.666666666666667e-01 -3.333333333333333e-01 -1.666666666666665e-01
-1.666666666666667e-01 -3.333333333333333e-01 -1.666666666666665e-01
-1.666666666666667e-01 -3.333333333333333e-01 -1.666666666666665e-01
-1.666666666666667e-01 -3.333333333333333e-01 -1.666666666666665e-01
-1.666666666666667e-01 -3.333333333333333e-01 -1.666666666666665e-01
-1.666666666666667e-01 -3.333333333333333e-01 -1.666666666666665e-01
-1.666666666666667e-01 -3.333333333333333e-01 -1.666666666666665e-01
-1.666666666666667e-01 -3.333333333333333e-01 -1.666666666666665e-01
-1.666666666666667e-01 -3.333333333333333e-01 -1.666666666666665e-01
-1.666666666666667e-01 -3.333333333333333e-01 -1.666666666666665e-01
-1.666666666666667e-01 -3.333333333333333e-01 -1.666666666666665e-01
-1.666666666666667e-01 -3.333333333333333e-01 -1.666666666666665e-01
-1.666666666666667e-01 -3.333333333333333e-01 -1.666666666666665e-01
-1.666666666666667e-01 -3.333333333333333e-01 -1.666666666666665e-01
-1.666666666666667e-01 -3.333333333333333e-01 -1.666666666666665e-01
-1.666666666666667e-01 -3.333333333333333e-01 -1.666666666666665e-01
-1.666666666666667e-01 -3.333333333333333e-01 -1.666666666666665e-01
-1.666666666666667e-01 -3.333333333333333e-01 -1.666666666666665e-01
-1.666666666666667e-01 -3.333333333333333e-01 -1.666666666666665e-01
-1.666666666666667e-01 -3.333333333333333e-01 -1.666666666666665e-01
-1.666666666666667e-01 -3.333333333333333e-01 -1.666666666666665e-01
-1.666666666666667e-01 -3.333333333333333e-01 -1.666666666666665e-01
-1.666666666666667e-01 -3.333333333333333e-01 -1.666666666666665e-01
-1.666666666666667e-01 -3.333333333333333e-01 -1.666666666666665e-01
-1.666666666666667e-01 -3.333333333333333e-01 -1.666666666666665e-01
-1.666666666666667e-01 -3.333333333333333e-01 -1.666666666666665e-01
-1.666666666666667e-01 -3.333333333333333e-01 -1.666666666666665e-01
-1.666666666666667e-01 -3.333333333333333e-01 -1.666666666666665e-01
-1.666666666666667e-01 -3.333333333333333e-01 -1.666666666666665e-01
-1.666666666666667e-01 -3.333333333333333e-01 -1.666666666666665e-01
-1.666666666666667e-01 -3.333333333333333e-01 -1.666666666666665e-01
-1.666666666666667e-01 -3.333333333333333e-01 -1.666666666666665e-01
-1.666666666666667e-01 -3.333333333333333e-01 -1.666666666666665e-01
-1.666666666666667e-01 -3.333333333333333e-01 -1.666666666666665e-01
-1.666666666666667e-01 -3.333333333333333e-01 -1.666666666666665e-01
-1.666666666666667e-01 -3.333333333333333e-01 -1.666666666666665e-01
-1.666666666666667e-01 -3.333333333333333e-01 -1.666666666666665e-01
-1.666666666666667e-01 -3.333333333333333e-01 -1.666666666666665e-01
-1.666666666666667e-01 -3.333333333333333e-01 -1.666666666666665e-01
-1.666666666666667e-01 -3.333333333333333e-01 -1.666666666666665e-01
-1.666666666666667e-01 -3.333333333333333e-01 -1.666666666666665e-01
-1.666666666666667e-01 -3.333333333333333e-01 -1.666666666666665e-01
-1.666666666666667e-01 -3.333333333333333e-01 -1.666666666666665e-01
-1.666666666666667e-01 -3.333333333333333e-01 -1.666666666666665e-01
-1.666666666666667e-01 -3.333333333333333e-01 -1.666666666666665e-01
-1.666666666666667e-01 -3.333333333333333e-01 -1.666666666666665e-01
-1.666666666666667e-01 -3.333333333333333e-01 -1.666666666666665e-01
-1.666666666666667e-01 -3.333333333333333e-01 -1.666666666666665e-01
-1.666666666666667e-01 -3.333333333333333e-01 -1.666666666666665e-01
-1.666666666666667e-01 -3.333333333333333e-01 -1.666666666666665e-01
-1.666666666666667e-01 -3.333333333333333e-01 -1.666666666666665e-01
-1.666666666666667e-01 -3.333333333333333e-01 -1.666666666666665e-01
-1.666666666666667e-01 -3.333333333333333e-01 -1.666666666666665e-01
-1.666666666666667e-01 -3.333333333333333e-01 -1.666666666666665e-01
-1.666666666666667e-01 -3.333333333333333e-01 -1.666666666666665e-01
-1.666666666666667e-01 -3.333333333333333e-01 -1.666666666666665e-01
-1.666666666666667e-01 -3.333333333333333e-01 -1.666666666666665e-01
-1.666666666666667e-01 -3.333333333333333e-01 -1.666666666666665e-01
-1.666666666666667e-01 -3.333333333333333e-01 -1.666666666666665e-01
-1.666666666666667e-01 -3.333333333333333e-01 -1.666666666666665e-01
-1.666666666666667e-01 -3.333333333333333e-01 -1.666666666666665e-01
-1.666666666666667e-01 -3.333333333333333e-01 -1.666666666666665e-01
-1.666666666666667e-01 -3.333333333333333e-01 -1.666666666666665e-01
-1.666666666666667e-01 -3.333333333333333e-01 -1.666666666666665e-01
-1.666666666666667e-01 -3.333333333333333e-01 -1.666666666666665e-01
-1.666666666666667e-01 -3.333333333333333e-01 -1.666666666666665e-01
-1.666666666666667e-01 -3.333333333333333e-01 -1.666666666666665e-01
-1.666666666666667e-01 -3.333333333333333e-01 -1.666666666666665e-01
-1.666666666666667e-01 -3.333333333333333e-01 -1.666666666666665e-01
-1.666666666666667e-01 -3.333333333333333e-01 -1.666666666666665e-01
-1.666666666666667e-01 -3.333333333333333e-01 -1.666666666666665e-01
-1.666666666666667e-01 -3.333333333333333e-01 -1.666666666666665e-01
-1.666666666666667e-01 -3.333333333333333e-01 -1.666666666666665e-01
-1.666666666666667e-01 -3.333333333333333e-01 -1.666666666666665e-01
-1.666666666666667e-01 -3.333333333333333e-01 -1.666666666666665e-01
-1.666666666666667e-01 -3.333333333333333e-01 -1.666666666666665e-01
-1.666666666666667e-01 -3.333333333333333e-01 -1.666666666666665e-01
-1.666666666666667e-01 -3.333333333333333e-01 -1.666666666666665e-01
-1.666666666666667e-01 -3.333333333333333e-01 -1.666666666666665e-01
-1.666666666666667e-01 -3.333333333333333e-01 -1.666666666666665e-01
-1.666666666666667e-01 -3.333333333333333e-01 -1.666666666666665e-01
-1.666666666666667e-01 -3.333333333333333e-01 -1.666666666666665e-01
-1.666666666666667e-01 -3.333333333333333e-01 -1.666666666666665e-01
-1.666666666666667e-01 -3.333333333333333e-01 -1.666666666666665e-01
-1.666666666666667e-01 -3.333333333333333e-01 -1.666666666666665e-01
-1.666666666666667e-01 -3.333333333333333e-01 -1.666666666666665e-01
-1.666666666666667e-01 -3.333333333333333e-01 -1.666666666666665e-01
-1.666666666666667e-01 -3.333333333333333e-01 -1.666666666666665e-01
-1.666666666666667e-01 -3.333333333333333e-01 -1.666666666666665e-01
-1.666666666666667e-01 -3.333333333333333e-01 -1.666666666666665e-01
-1.666666666666667e-01 -3.333333333333333e-01 -1.666666666666665e-01
-1.666666666666667e-01 -3.333333333333333e-01 -1.666666666666665e-01
-1.666666666666667e-01 -3.333333333333333e-01 -1.666666666666665e-01
-1.666666666666667e-01 -3.333333333333333e-01 -1.666666666666665e-01
-1.666666666666667e-01 -3.333333333333333e-01 -1.666666666666665e-01
-1.666666666666667e-01 -3.333333333333333e-01 -1.666666666666665e-01
-1.666666666666667e-01 -3.333333333333333e-01 -1.666666666666665e-01
-1.666666666666667e-01 -3.333333333333333e-01 -1.666666666666665e-01
-1.666666666666667e-01 -3.333333333333333e-01 -1.666666666666665e-01
-1.666666666666667e-01 -3.333333333333333e-01 -1.666666666666665e-01
-1.666666666666667e-01 -3.333333333333333e-01 -1.666666666666665e-01
-1.666666666666667e-01 -3.333333333333333e-01 -1.666666666666665e-01
-1.666666666666667e-01 -3.333333333333333e-01 -1.666666666666665e-01
-1.666666666666667e-01 -3.333333333333333e-01 -1.666666666666665e-01
-1.666666666666667e-01 -3.333333333333333e-01 -1.666666666666665e-01
-1.666666666666667e-01 -3.333333333333333e-01 -1.666666666666665e-01
-1.666666666666667e-01 -3.333333333333333e-01 -1.666666666666665e-01
-1.666666666666667e-01 -3.333333333333333e-01 -1.666666666666665e-01
-1.666666666666667e-01 -3.333333333333333e-01 -1.666666666666665e-01
-1.666666666666667e-01 -3.333333333333333e-01 -1.666666666666665e-01
-1.666666666666667e-01 -3.333333333333333e-01 -1.666666666666665e-01
-1.666666666666667e-01 -3.333333333333333e-01 -1.666666666666665e-01
-1.666666666666667e-01 -3.333333333333333e-01 -1.666666666666665e-01
-1.666666666666667e-01 -3.333333333333333e-01 -1.666666666666665e-01
-1.666666666666667e-01 -3.333333333333333e-01 -1.666666666666665e-01
-1.666666666666667e-01 -3.333333333333333e-01 -1.666666666666665e-01
-1.666666666666667e-01 -3.333333333333333e-01 -1.666666666666665e-01
-1.666666666666667e-01 -3.333333333333333e-01 -1.666666666666665e-01
-1.666666666666667e-01 -3.333333333333333e-01 -1.666666666666665e-01
-1.666666666666667e-01 -3.333333333333333e-01 -1.666666666666665e-01
-1.666666666666667e-01 -3.333333333333333e-01 -1.666666666666665e-01
-1.666666666666667e-01 -3.333333333333333e-01 -1.666666666666665e-01
-1.666666666666667e-01 -3.333333333333333e-01 -1.666666666666665e-01
-1.666666666666667e-01 -3.333333333333333e-01 -1.666666666666665e-01
-1.666666666666667e-01 -3.333333333333333e-01 -1.666666666666665e-01
-1.666666666666667e-01 -3.333333333333333e-01 -1.666666666666665e-01
-1.666666666666667e-01 -3.333333333333333e-01 -1.666666666666665e-01
-1.666666666666667e-01 -3.333333333333333e-01 -1.666666666666665e-01
-1.666666666666667e-01 -3.333333333333333e-01 -1.666666666666665e-01
-1.666666666666667e-01 -3.333333333333333e-01 -1.666666666666665e-01
-1.666666666666667e-01 -3.333333333333333e-01 -1.666666666666665e-01
-1.666666666666667e-01 -3.333333333333333e-01 -1.666666666666665e-01
-1.666666666666667e-01 -3.333333333333333e-01 -1.666666666666665e-01
-1.666666666666667e-01 -3.333333333333333e-01 -1.666666666666665e-01
-1.666666666666667e-01 -3.333333333333333e-01 -1.666666666666665e-01
-1.666666666666667e-01 -3.333333333333333e-01 -1.666666666666665e-01
-1.666666666666667e-01 -3.333333333333333e-01 -1.666666666666665e-01
-1.666666666666667e-01 -3.333333333333333e-01 -1.666666666666665e-01
-1.666666666666667e-01 -3.333333333333333e-01 -1.666666666666665e-01
-1.666666666666667e-01 -3.333333333333333e-01 -1.666666666666665e-01
-1.666666666666667e-01 -3.333333333333333e-01 -1.666666666666665e-01
-1.666666666666667e-01 -3.333333333333333e-01 -1.666666666666665e-01
-1.666666666666667e-01 -3.333333333333333e-01 -1.666666666666665e-01
-1.666666666666667e-01 -3.333333333333333e-01 -1.666666666666665e-01
-1.666666666666667e-01 -3.333333333333333e-01 -1.666666666666665e-01
-1.666666666666667e-01 -3.333333333333333e-01 -1.666666666666665e-01
-1.666666666666667e-01 -3.333333333333333e-01 -1.666666666666665e-01
-1.666666666666667e-01 -3.333333333333333e-01 -1.666666666666665e-01
-1.666666666666667e-01 -3.333333333333333e-01 -1.666666666666665e-01
-1.666666666666667e-01 -3.333333333333333e-01 -1.666666666666665e-01
-1.666666666666667e-01 -3.333333333333333e-01 -1.666666666666665e-01
-1.666666666666667e-01 -3.333333333333333e-01 -1.666666666666665e-01
-1.666666666666667e-01 -3.333333333333333e-01 -1.666666666666665e-01
-1.666666666666667e-01 -3.333333333333333e-01 -1.666666666666665e-01
-1.666666666666667e-01 -3.333333333333333e-01 -1.666666666666665e-01
1.666666666666667e-01 3.333333333333333e-01 1.666666666666665e-01
-1.666666666666667e-01 -3.333333333333333e-01 -1.666666666666665e-01
1.666666666666667e-01 3.333333333333333e-01 1.666666666666665e-01
1.666666666666667e-01 3.333333333333333e-01 1.666666666666665e-01
1.666666666666667e-01 3.333333333333333e-01 1.666666666666665e-01
1.666666666666667e-01 3.333333333333333e-01 1.666666666666665e-01
1.666666666666667e-01 3.333333333333333e-01 1.666666666666665e-01
1.666666666666667e-01 3.333333333333333e-01 1.666666666666665e-01
1.666666666666667e-01 3.333333333333333e-01 1.666666666666665e-01
1.666666666666667e-01 3.333333333333333e-01 1.666666666666665e-01
1.666666666666667e-01 3.333333333333333e-01 1.666666666666665e-01
1.666666666666667e-01 3.333333333333333e-01 1.666666666666665e-01
1.666666666666667e-01 3.333333333333333e-01 1.666666666666665e-01
1.666666666666667e-01 3.333333333333333e-01 1.666666666666665e-01
1.666666666666667e-01 3.333333333333333e-01 1.666666666666665e-01
1.666666666666667e-01 3.333333333333333e-01 1.666666666666665e-01
1.666666666666667e-01 3.333333333333333e-01 1.666666666666665e-01
1.666666666666667e-01 3.333333333333333e-01 1.666666666666665e-01
1.666666666666667e-01 3.333333333333333e-01 1.666666666666665e-01
1.666666666666667e-01 3.333333333333333e-01 1.666666666666665e-01
1.666666666666667e-01 3.333333333333333e-01 1.666666666666665e-01
1.666666666666667e-01 3.333333333333333e-01 1.666666666666665e-01
1.666666666666667e-01 3.333333333333333e-01 1.666666666666665e-01
1.666666666666667e-01 3.333333333333333e-01 1.666666666666665e-01
1.666666666666667e-01 3.333333333333333e-01 1.666666666666665e-01
1.666666666666667e-01 3.333333333333333e-01 1.666666666666665e-01
1.666666666666667e-01 3.333333333333333e-01 1.666666666666665e-01
1.666666666666667e-01 3.333333333333333e-01 1.666666666666665e-01
1.666666666666667e-01 3.333333333333333e-01 1.666666666666665e-01
1.666666666666667e-01 3.333333333333333e-01 1.666666666666665e-01
1.666666666666667e-01 3.333333333333333e-01 1.666666666666665e-01
1.666666666666667e-01 3.333333333333333e-01 1.666666666666665e-01
1.666666666666667e-01 3.333333333333333e-01 1.666666666666665e-01
1.666666666666667e-01 3.333333333333333e-01 1.666666666666665e-01
1.666666666666667e-01 3.333333333333333e-01 1.666666666666665e-01
1.666666666666667e-01 3.333333333333333e-01 1.666666666666665e-01
1.666666666666667e-01 3.333333333333333e-01 1.666666666666665e-01
1.666666666666667e-01 3.333333333333333e-01 1.666666666666665e-01
1.666666666666667e-01 3.333333333333333e-01 1.666666666666665e-01
1.666666666666667e-01 3.333333333333333e-01 1.666666666666665e-01
1.666666666666667e-01 3.333333333333333e-01 1.666666666666665e-01
1.666666666666667e-01 3.333333333333333e-01 1.666666666666665e-01
1.666666666666667e-01 3.333333333333333e-01 1.666666666666665e-01
1.666666666666667e-01 3.333333333333333e-01 1.666666666666665e-01
1.666666666666667e-01 3.333333333333333e-01 1.666666666666665e-01
1.666666666666667e-01 3.333333333333333e-01 1.666666666666665e-01
1.666666666666667e-01 3.333333333333333e-01 1.666666666666665e-01
1.666666666666667e-01 3.333333333333333e-01 1.666666666666665e-01
1.666666666666667e-01 3.333333333333333e-01 1.666666666666665e-01
1.666666666666667e-01 3.333333333333333e-01 1.666666666666665e-01
1.666666666666667e-01 3.333333333333333e-01 1.666666666666665e-01
1.666666666666667e-01 3.333333333333333e-01 1.666666666666665e-01
1.666666666666667e-01 3.333333333333333e-01 1.666666666666665e-01
1.666666666666667e-01 3.333333333333333e-01 1.666666666666665e-01
1.666666666666667e-01 3.333333333333333e-01 1.666666666666665e-01
1.666666666666667e-01 3.333333333333333e-01 1.666666666666665e-01
1.666666666666667e-01 3.333333333333333e-01 1.666666666666665e-01
1.666666666666667e-01 3.333333333333333e-01 1.666666666666665e-01
1.666666666666667e-01 3.333333333333333e-01 1.666666666666665e-01
1.666666666666667e-01 3.333333333333333e-01 1.666666666666665e-01
1.666666666666667e-01 3.333333333333333e-01 1.666666666666665e-01
1.666666666666667e-01 3.333333333333333e-01 1.666666666666665e-01
1.666666666666667e-01 3.333333333333333e-01 1.666666666666665e-01
1.666666666666667e-01 3.333333333333333e-01 1.666666666666665e-01
1.666666666666667e-01 3.333333333333333e-01 1.666666666666665e-01
1.666666666666667e-01 3.333333333333333e-01 1.666666666666665e-01
1.666666666666667e-01 3.333333333333333e-01 1.666666666666665e-01
1.666666666666667e-01 3.333333333333333e-01 1.666666666666665e-01
1.666666666666667e-01 3.333333333333333e-01 1.666666666666665e-01
1.666666666666667e-01 3.333333333333333e-01 1.666666666666665e-01
1.666666666666667e-01 3.333333333333333e-01 1.666666666666665e-01
1.666666666666667e-01 3.333333333333333e-01 1.666666666666665e-01
1.666666666666667e-01 3.333333333333333e-01 1.666666666666665e-01
1.666666666666667e-01 3.333333333333333e-01 1.666666666666665e-01
1.666666666666667e-01 3.333333333333333e-01 1.666666666666665e-01
1.666666666666667e-01 3.333333333333333e-01 1.666666666666665e-01
1.666666666666667e-01 3.333333333333333e-01 1.666666666666665e-01
1.666666666666667e-01 3.333333333333333e-01 1.666666666666665e-01
1.666666666666667e-01 3.333333333333333e-01 1.666666666666665e-01
1.666666666666667e-01 3.333333333333333e-01 1.666666666666665e-01
1.666666666666667e-01 3.333333333333333e-01 1.666666666666665e-01
1.666666666666667e-01 3.333333333333333e-01 1.666666666666665e-01
1.666666666666667e-01 3.333333333333333e-01 1.666666666666665e-01
1.666666666666667e-01 3.333333333333333e-01 1.666666666666665e-01
1.666666666666667e-01 3.333333333333333e-01 1.666666666666665e-01
1.666666666666667e-01 3.333333333333333e-01 1.666666666666665e-01
1.666666666666667e-01 3.333333333333333e-01 1.666666666666665e-01
1.666666666666667e-01 3.333333333333333e-01 1.666666666666665e-01
1.666666666666667e-01 3.333333333333333e-01 1.666666666666665e-01
1.666666666666667e-01 3.333333333333333e-01 1.666666666666665e-01
1.666666666666667e-01 3.333333333333333e-01 1.666666666666665e-01
1.666666666666667e-01 3.333333333333333e-01 1.666666666666665e-01
1.666666666666667e-01 3.333333333333333e-01 1.666666666666665e-01
1.666666666666667e-01 3.333333333333333e-01 1.666666666666665e-01
1.666666666666667e-01 3.333333333333333e-01 1.666666666666665e-01
1.666666666666667e-01 3.333333333333333e-01 1.666666666666665e-01
1.666666666666667e-01 3.333333333333333e-01 1.666666666666665e-01
1.666666666666667e-01 3.333333333333333e-01 1.666666666666665e-01
1.666666666666667e-01 3.333333333333333e-01 1.666666666666665e-01
1.666666666666667e-01 3.333333333333333e-01 1.666666666666665e-01
1.666666666666667e-01 3.333333333333333e-01 1.666666666666665e-01
1.666666666666667e-01 3.333333333333333e-01 1.666666666666665e-01
1.666666666666667e-01 3.333333333333333e-01 1.666666666666665e-01
1.666666666666667e-01 3.333333333333333e-01 1.666666666666665e-01
1.666666666666667e-01 3.333333333333333e-01 1.666666666666665e-01
1.666666666666667e-01 3.333333333333333e-01 1.666666666666665e-01
1.666666666666667e-01 3.333333333333333e-01 1.666666666666665e-01
1.666666666666667e-01 3.333333333333333e-01 1.666666666666665e-01
1.666666666666667e-01 3.333333333333333e-01 1.666666666666665e-01
1.666666666666667e-01 3.333333333333333e-01 1.666666666666665e-01
1.666666666666667e-01 3.333333333333333e-01 1.666666666666665e-01
1.666666666666667e-01 3.333333333333333e-01 1.666666666666665e-01
1.666666666666667e-01 3.333333333333333e-01 1.666666666666665e-01
1.666666666666667e-01 3.333333333333333e-01 1.666666666666665e-01
1.666666666666667e-01 3.333333333333333e-01 1.666666666666665e-01
1.666666666666667e-01 3.333333333333333e-01 1.666666666666665e-01
1.666666666666667e-01 3.333333333333333e-01 1.666666666666665e-01
1.666666666666667e-01 3.333333333333333e-01 1.666666666666665e-01
1.666666666666667e-01 3.333333333333333e-01 1.666666666666665e-01
1.666666666666667e-01 3.333333333333333e-01 1.666666666666665e-01
1.666666666666667e-01 3.333333333333333e-01 1.666666666666665e-01
1.666666666666667e-01 3.333333333333333e-01 1.666666666666665e-01
1.666666666666667e-01 3.333333333333333e-01 1.666666666666665e-01
1.666666666666667e-01 3.333333333333333e-01 1.666666666666665e-01
1.666666666666667e-01 3.333333333333333e-01 1.666666666666665e-01
1.666666666666667e-01 3.333333333333333e-01 1.666666666666665e-01
1.666666666666667e-01 3.333333333333333e-01 1.666666666666665e-01
1.666666666666667e-01 3.333333333333333e-01 1.666666666666665e-01
1.666666666666667e-01 3.333333333333333e-01 1.666666666666665e-01
1.666666666666667e-01 3.333333333333333e-01 1.666666666666665e-01
1.666666666666667e-01 3.333333333333333e-01 1.666666666666665e-01
1.666666666666667e-01 3.333333333333333e-01 1.666666666666665e-01
1.666666666666667e-01 3.333333333333333e-01 1.666666666666665e-01
1.666666666666667e-01 3.333333333333333e-01 1.666666666666665e-01
1.666666666666667e-01 3.333333333333333e-01 1.666666666666665e-01
1.666666666666667e-01 3.333333333333333e-01 1.666666666666665e-01
1.666666666666667e-01 3.333333333333333e-01 1.666666666666665e-01
1.666666666666667e-01 3.333333333333333e-01 1.666666666666665e-01
1.666666666666667e-01 3.333333333333333e-01 1.666666666666665e-01
1.666666666666667e-01 3.333333333333333e-01 1.666666666666665e-01
1.666666666666667e-01 3.333333333333333e-01 1.666666666666665e-01
1.666666666666667e-01 3.333333333333333e-01 1.666666666666665e-01
1.666666666666667e-01 3.333333333333333e-01 1.666666666666665e-01
1.666666666666667e-01 3.333333333333333e-01 1.666666666666665e-01
1.666666666666667e-01 3.333333333333333e-01 1.666666666666665e-01
1.666666666666667e-01 3.333333333333333e-01 1.666666666666665e-01
1.666666666666667e-01 3.333333333333333e-01 1.666666666666665e-01
1.666666666666667e-01 3.333333333333333e-01 1.666666666666665e-01
1.666666666666667e-01 3.333333333333333e-01 1.666666666666665e-01
1.666666666666667e-01 3.333333333333333e-01 1.666666666666665e-01
1.666666666666667e-01 3.333333333333333e-01 1.666666666666665e-01
1.666666666666667e-01 3.333333333333333e-01 1.666666666666665e-01
1.666666666666667e-01 3.333333333333333e-01 1.666666666666665e-01
1.666666666666667e-01 3.333333333333333e-01 1.666666666666665e-01
1.666666666666667e-01 3.333333333333333e-01 1.666666666666665e-01
1.666666666666667e-01 3.333333333333333e-01 1.666666666666665e-01
1.666666666666667e-01 3.333333333333333e-01 1.666666666666665e-01
1.666666666666667e-01 3.333333333333333e-01 1.666666666666665e-01
1.666666666666667e-01 3.333333333333333e-01 1.666666666666665e-01
1.666666666666667e-01 3.333333333333333e-01 1.666666666666665e-01
1.666666666666667e-01 3.333333333333333e-01 1.666666666666665e-01
1.666666666666667e-01 3.333333333333333e-01 1.666666666666665e-01
1.666666666666667e-01 3.333333333333333e-01 1.666666666666665e-01
1.666666666666667e-01 3.333333333333333e-01 1.666666666666665e-01
1.666666666666667e-01 3.333333333333333e-01 1.666666666666665e-01
1.666666666666667e-01 3.333333333333333e-01 1.666666666666665e-01
1.666666666666667e-01 3.333333333333333e-01 1.666666666666665e-01
1.666666666666667e-01 3.333333333333333e-01 1.666666666666665e-01
1.666666666666667e-01 3.333333333333333e-01 1.666666666666665e-01
1.666666666666667e-01 3.333333333333333e-01 1.666666666666665e-01
1.666666666666667e-01 3.333333333333333e-01 1.666666666666665e-01
1.666666666666667e-01 3.333333333333333e-01 1.666666666666665e-01
1.666666666666667e-01 3.333333333333333e-01 1.666666666666665e-01
1.666666666666667e-01 3.333333333333333e-01 1.666666666666665e-01
1.666666666666667e-01 3.333333333333333e-01 1.666666666666665e-01
1.666666666666667e-01 3.333333333333333e-01 1.666666666666665e-01
1.666666666666667e-01 3.333333333333333e-01 1.666666666666665e-01
1.666666666666667e-01 3.333333333333333e-01 1.666666666666665e-01
1.666666666666667e-01 3.333333333333333e-01 1.666666666666665e-01
1.666666666666667e-01 3.333333333333333e-01 1.666666666666665e-01
1.666666666666667e-01 3.333333333333333e-01 1.666666666666665e-01
1.666666666666667e-01 3.333333333333333e-01 1.666666666666665e-01
1.666666666666667e-01 3.333333333333333e-01 1.666666666666665e-01
1.666666666666667e-01 3.333333333333333e-01 1.666666666666665e-01
1.666666666666667e-01 3.333333333333333e-01 1.666666666666665e-01
1.666666666666667e-01 3.333333333333333e-01 1.666666666666665e-01
1.666666666666667e-01 3.333333333333333e-01 1.666666666666665e-01
1.666666666666667e-01 3.333333333333333e-01 1.666666666666665e-01
1.666666666666667e-01 3.333333333333333e-01 1.666666666666665e-01
1.666666666666667e-01 3.333333333333333e-01 1.666666666666665e-01
1.666666666666667e-01 3.333333333333333e-01 1.666666666666665e-01
1.666666666666667e-01 3.333333333333333e-01 1.666666666666665e-01
1.666666666666667e-01 3.333333333333333e-01 1.666666666666665e-01
1.666666666666667e-01 3.333333333333333e-01 1.666666666666665e-01
1.666666666666667e-01 3.333333333333333e-01 1.666666666666665e-01
1.666666666666667e-01 3.333333333333333e-01 1.666666666666665e-01
1.666666666666667e-01 3.333333333333333e-01 1.666666666666665e-01
1.666666666666667e-01 3.333333333333333e-01 1.666666666666665e-01
1.666666666666667e-01 3.333333333333333e-01 1.666666666666665e-01
1.666666666666667e-01 3.333333333333333e-01 1.666666666666665e-01
1.666666666666667e-01 3.333333333333333e-01 1.666666666666665e-01
1.666666666666667e-01 3.333333333333333e-01 1.666666666666665e-01
 1.666666666666667e-01 -1.666666666666665e-01 -3.333333333333333e-01
-1.666666666666667e-01  1.666666666666665e-01  3.333333333333333e-01
 1.666666666666667e-01 -1.666666666666665e-01 -3.333333333333333e-01
 1.666666666666667e-01 -1.666666666666665e-01 -3.333333333333333e-01
 1.666666666666667e-01 -1.666666666666665e-01 -3.333333333333333e-01
 1.666666666666667e-01 -1.666666666666665e-01 -3.333333333333333e-01
 1.666666666666667e-01 -1.666666666666665e-01 -3.333333333333333e-01
 1.666666666666667e-01 -1.666666666666665e-01 -3.333333333333333e-01
 1.666666666666667e-01 -1.666666666666665e-01 -3.333333333333333e-01
 1.666666666666667e-01 -1.666666666666665e-01 -3.333333333333333e-01
 1.666666666666667e-01 -1.666666666666665e-01 -3.333333333333333e-01
 1.666666666666667e-01 -1.666666666666665e-01 -3.333333333333333e-01
 1.666666666666667e-01 -1.666666666666665e-01 -3.333333333333333e-01
 1.666666666666667e-01 -1.666666666666665e-01 -3.333333333333333e-01
 1.666666666666667e-01 -1.666666666666665e-01 -3.333333333333333e-01
 1.666666666666667e-01 -1.666666666666665e-01 -3.333333333333333e-01
 1.666666666666667e-01 -1.666666666666665e-01 -3.333333333333333e-01
 1.666666666666667e-01 -1.666666666666665e-01 -3.333333333333333e-01
 1.666666666666667e-01 -1.666666666666665e-01 -3.333333333333333e-01
 1.666666666666667e-01 -1.666666666666665e-01 -3.333333333333333e-01
 1.666666666666667e-01 -1.666666666666665e-01 -3.333333333333333e-01
 1.666666666666667e-01 -1.666666666666665e-01 -3.333333333333333e-01
 1.666666666666667e-01 -1.666666666666665e-01 -3.333333333333333e-01
 1.666666666666667e-01 -1.666666666666665e-01 -3.333333333333333e-01
 1.666666666666667e-01 -1.666666666666665e-01 -3.333333333333333e-01
 1.666666666666667e-01 -1.666666666666665e-01 -3.333333333333333e-01
 1.666666666666667e-01 -1.666666666666665e-01 -3.333333333333333e-01
 1.666666666666667e-01 -1.666666666666665e-01 -3.333333333333333e-01
 1.666666666666667e-01 -1.666666666666665e-01 -3.333333333333333e-01
 1.666666666666667e-01 -1.666666666666665e-01 -3.333333333333333e-01
 1.666666666666667e-01 -1.666666666666665e-01 -3.333333333333333e-01
 1.666666666666667e-01 -1.666666666666665e-01 -3.333333333333333e-01
 1.666666666666667e-01 -1.666666666666665e-01 -3.333333333333333e-01
 1.666666666666667e-01 -1.666666666666665e-01 -3.333333333333333e-01
 1.666666666666667e-01 -1.666666666666665e-01 -3.333333333333333e-01
 1.666666666666667e-01 -1.666666666666665e-01 -3.333333333333333e-01
 1.666666666666667e-01 -1.666666666666665e-01 -3.333333333333333e-01
 1.666666666666667e-01 -1.666666666666665e-01 -3.333333333333333e-01
 1.666666666666667e-01 -1.666666666666665e-01 -3.333333333333333e-01
 1.666666666666667e-01 -1.666666666666665e-01 -3.333333333333333e-01
 1.666666666666667e-01 -1.666666666666665e-01 -3.333333333333333e-01
 1.666666666666667e-01 -1.666666666666665e-01 -3.333333333333333e-01
 1.666666666666667e-01 -1.666666666666665e-01 -3.333333333333333e-01
 1.666666666666667e-01 -1.666666666666665e-01 -3.333333333333333e-01
 1.666666666666667e-01 -1.666666666666665e-01 -3.333333333333333e-01
 1.666666666666667e-01 -1.666666666666665e-01 -3.333333333333333e-01
 1.666666666666667e-01 -1.666666666666665e-01 -3.333333333333333e-01
 1.666666666666667e-01 -1.666666666666665e-01 -3.333333333333333e-01
 1.666666666666667e-01 -1.666666666666665e-01 -3.333333333333333e-01
 1.666666666666667e-01 -1.666666666666665e-01 -3.333333333333333e-01
 1.666666666666667e-01 -1.666666666666665e-01 -3.333333333333333e-01
 1.666666666666667e-01 -1.666666666666665e-01 -3.333333333333333e-01
 1.666666666666667e-01 -1.666666666666665e-01 -3.333333333333333e-01
 1.666666666666667e-01 -1.666666666666665e-01 -3.333333333333333e-01
 1.666666666666667e-01 -1.666666666666665e-01 -3.333333333333333e-01
 1.666666666666667e-01 -1.666666666666665e-01 -3.333333333333333e-01
 1.666666666666667e-01 -1.666666666666665e-01 -3.333333333333333e-01
 1.666666666666667e-01 -1.666666666666665e-01 -3.333333333333333e-01
 1.666666666666667e-01 -1.666666666666665e-01 -3.333333333333333e-01
 1.666666666666667e-01 -1.666666666666665e-01 -3.333333333333333e-01
 1.666666666666667e-01 -1.666666666666665e-01 -3.333333333333333e-01
 1.666666666666667e-01 -1.666666666666665e-01 -3.333333333333333e-01
 1.666666666666667e-01 -1.666666666666665e-01 -3.333333333333333e-01
 1.666666666666667e-01 -1.666666666666665e-01 -3.333333333333333e-01
 1.666666666666667e-01 -1.666666666666665e-01 -3.333333333333333e-01
 1.666666666666667e-01 -1.666666666666665e-01 -3.333333333333333e-01
 1.666666666666667e-01 -1.666666666666665e-01 -3.333333333333333e-01
 1.666666666666667e-01 -1.666666666666665e-01 -3.333333333333333e-01
 1.666666666666667e-01 -1.666666666666665e-01 -3.333333333333333e-01
 1.666666666666667e-01 -1.666666666666665e-01 -3.333333333333333e-01
 1.666666666666667e-01 -1.666666666666665e-01 -3.333333333333333e-01
 1.666666666666667e-01 -1.666666666666665e-01 -3.333333333333333e-01
 1.666666666666667e-01 -1.666666666666665e-01 -3.333333333333333e-01
 1.666666666666667e-01 -1.666666666666665e-01 -3.333333333333333e-01
 1.666666666666667e-01 -1.666666666666665e-01 -3.333333333333333e-01
 1.666666666666667e-01 -1.666666666666665e-01 -3.333333333333333e-01
 1.666666666666667e-01 -1.666666666666665e-01 -3.333333333333333e-01
 1.666666666666667e-01 -1.666666666666665e-01 -3.333333333333333e-01
 1.666666666666667e-01 -1.666666666666665e-01 -3.333333333333333e-01
 1.666666666666667e-01 -1.666666666666665e-01 -3.333333333333333e-01
 1.666666666666667e-01 -1.666666666666665e-01 -3.333333333333333e-01
 1.666666666666667e-01 -1.666666666666665e-01 -3.333333333333333e-01
 1.666666666666667e-01 -1.666666666666665e-01 -3.333333333333333e-01
 1.666666666666667e-01 -1.666666666666665e-01 -3.333333333333333e-01
 1.666666666666667e-01 -1.666666666666665e-01 -3.333333333333333e-01
 1.666666666666667e-01 -1.666666666666665e-01 -3.333333333333333e-01
 1.666666666666667e-01 -1.666666666666665e-01 -3.333333333333333e-01
 1.666666666666667e-01 -1.666666666666665e-01 -3.333333333333333e-01
 1.666666666666667e-01 -1.666666666666665e-01 -3.333333333333333e-01
 1.666666666666667e-01 -1.666666666666665e-01 -3.333333333333333e-01
 1.666666666666667e-01 -1.666666666666665e-01 -3.333333333333333e-01
 1.666666666666667e-01 -1.666666666666665e-01 -3.333333333333333e-01
 1.666666666666667e-01 -1.666666666666665e-01 -3.333333333333333e-01
 1.666666666666667e-01 -1.666666666666665e-01 -3.333333333333333e-01
 1.666666666666667e-01 -1.666666666666665e-01 -3.333333333333333e-01
 1.666666666666667e-01 -1.666666666666665e-01 -3.333333333333333e-01
 1.666666666666667e-01 -1.666666666666665e-01 -3.333333333333333e-01
 1.666666666666667e-01 -1.666666666666665e-01 -3.333333333333333e-01
 1.666666666666667e-01 -1.666666666666665e-01 -3.333333333333333e-01
 1.666666666666667e-01 -1.666666666666665e-01 -3.333333333333333e-01
 1.666666666666667e-01 -1.666666666666665e-01 -3.333333333333333e-01
 1.666666666666667e-01 -1.666666666666665e-01 -3.333333333333333e-01
 1.666666666666667e-01 -1.666666666666665e-01 -3.333333333333333e-01
 1.666666666666667e-01 -1.666666666666665e-01 -3.333333333333333e-01
 1.666666666666667e-01 -1.666666666666665e-01 -3.333333333333333e-01
 1.666666666666667e-01 -1.666666666666665e-01 -3.333333333333333e-01
 1.666666666666667e-01 -1.666666666666665e-01 -3.333333333333333e-01
 1.666666666666667e-01 -1.666666666666665e-01 -3.333333333333333e-01
 1.666666666666667e-01 -1.666666666666665e-01 -3.333333333333333e-01
 1.666666666666667e-01 -1.666666666666665e-01 -3.333333333333333e-01
 1.666666666666667e-01 -1.666666666666665e-01 -3.333333333333333e-01
 1.666666666666667e-01 -1.666666666666665e-01 -3.333333333333333e-01
 1.666666666666667e-01 -1.666666666666665e-01 -3.333333333333333e-01
 1.666666666666667e-01 -1.666666666666665e-01 -3.333333333333333e-01
 1.666666666666667e-01 -1.666666666666665e-01 -3.333333333333333e-01
 1.666666666666667e-01 -1.666666666666665e-01 -3.333333333333333e-01
 1.666666666666667e-01 -1.666666666666665e-01 -3.333333333333333e-01
 1.666666666666667e-01 -1.666666666666665e-01 -3.333333333333333e-01
 1.666666666666667e-01 -1.666666666666665e-01 -3.333333333333333e-01
 1.666666666666667e-01 -1.666666666666665e-01 -3.333333333333333e-01
 1.666666666666667e-01 -1.666666666666665e-01 -3.333333333333333e-01
 1.666666666666667e-01 -1.666666666666665e-01 -3.333333333333333e-01
 1.666666666666667e-01 -1.666666666666665e-01 -3.333333333333333e-01
 1.666666666666667e-01 -1.666666666666665e-01 -3.333333333333333e-01
 1.666666666666667e-01 -1.666666666666665e-01 -3.333333333333333e-01
 1.666666666666667e-01 -1.666666666666665e-01 -3.333333333333333e-01
 1.666666666666667e-01 -1.666666666666665e-01 -3.333333333333333e-01
 1.666666666666667e-01 -1.666666666666665e-01 -3.333333333333333e-01
 1.666666666666667e-01 -1.666666666666665e-01 -3.333333333333333e-01
 1.666666666666667e-01 -1.666666666666665e-01 -3.333333333333333e-01
 1.666666666666667e-01 -1.666666666666665e-01 -3.333333333333333e-01
 1.666666666666667e-01 -1.666666666666665e-01 -3.333333333333333e-01
 1.666666666666667e-01 -1.666666666666665e-01 -3.333333333333333e-01
 1.666666666666667e-01 -1.666666666666665e-01 -3.333333333333333e-01
 1.666666666666667e-01 -1.666666666666665e-01 -3.333333333333333e-01
 1.666666666666667e-01 -1.666666666666665e-01 -3.333333333333333e-01
 1.666666666666667e-01 -1.666666666666665e-01 -3.333333333333333e-01
 1.666666666666667e-01 -1.666666666666665e-01 -3.333333333333333e-01
 1.666666666666667e-01 -1.666666666666665e-01 -3.333333333333333e-01
 1.666666666666667e-01 -1.666666666666665e-01 -3.333333333333333e-01
 1.666666666666667e-01 -1.666666666666665e-01 -3.333333333333333e-01
 1.666666666666667e-01 -1.666666666666665e-01 -3.333333333333333e-01
 1.666666666666667e-01 -1.666666666666665e-01 -3.333333333333333e-01
 1.666666666666667e-01 -1.666666666666665e-01 -3.333333333333333e-01
 1.666666666666667e-01 -1.666666666666665e-01 -3.333333333333333e-01
 1.666666666666667e-01 -1.666666666666665e-01 -3.333333333333333e-01
 1.666666666666667e-01 -1.666666666666665e-01 -3.333333333333333e-01
 1.666666666666667e-01 -1.666666666666665e-01 -3.333333333333333e-01
 1.666666666666667e-01 -1.666666666666665e-01 -3.333333333333333e-01
 1.666666666666667e-01 -1.666666666666665e-01 -3.333333333333333e-01
 1.666666666666667e-01 -1.666666666666665e-01 -3.333333333333333e-01
 1.666666666666667e-01 -1.666666666666665e-01 -3.333333333333333e-01
 1.666666666666667e-01 -1.666666666666665e-01 -3.333333333333333e-01
 1.666666666666667e-01 -1.666666666666665e-01 -3.333333333333333e-01
 1.666666666666667e-01 -1.666666666666665e-01 -3.333333333333333e-01
 1.666666666666667e-01 -1.666666666666665e-01 -3.333333333333333e-01
 1.666666666666667e-01 -1.666666666666665e-01 -3.333333333333333e-01
 1.666666666666667e-01 -1.666666666666665e-01 -3.333333333333333e-01
 1.666666666666667e-01 -1.666666666666665e-01 -3.333333333333333e-01
 1.666666666666667e-01 -1.666666666666665e-01 -3.333333333333333e-01
 1.666666666666667e-01 -1.666666666666665e-01 -3.333333333333333e-01
 1.666666666666667e-01 -1.666666666666665e-01 -3.333333333333333e-01
 1.666666666666667e-01 -1.666666666666665e-01 -3.333333333333333e-01
 1.666666666666667e-01 -1.666666666666665e-01 -3.333333333333333e-01
 1.666666666666667e-01 -1.666666666666665e-01 -3.333333333333333e-01
 1.666666666666667e-01 -1.666666666666665e-01 -3.333333333333333e-01
 1.666666666666667e-01 -1.666666666666665e-01 -3.333333333333333e-01
 1.666666666666667e-01 -1.666666666666665e-01 -3.333333333333333e-01
 1.666666666666667e-01 -1.666666666666665e-01 -3.333333333333333e-01
 1.666666666666667e-01 -1.666666666666665e-01 -3.333333333333333e-01
 1.666666666666667e-01 -1.666666666666665e-01 -3.333333333333333e-01
 1.666666666666667e-01 -1.666666666666665e-01 -3.333333333333333e-01
 1.666666666666667e-01 -1.666666666666665e-01 -3.333333333333333e-01
 1.666666666666667e-01 -1.666666666666665e-01 -3.333333333333333e-01
 1.666666666666667e-01 -1.666666666666665e-01 -3.333333333333333e-01
 1.666666666666667e-01 -1.666666666666665e-01 -3.333333333333333e-01
 1.666666666666667e-01 -1.666666666666665e-01 -3.333333333333333e-01
 1.666666666666667e-01 -1.666666666666665e-01 -3.333333333333333e-01
 1.666666666666667e-01 -1.666666666666665e-01 -3.333333333333333e-01
 1.666666666666667e-01 -1.666666666666665e-01 -3.333333333333333e-01
 1.666666666666667e-01 -1.666666666666665e-01 -3.333333333333333e-01
 1.666666666666667e-01 -1.666666666666665e-01 -3.333333333333333e-01
 1.666666666666667e-01 -1.666666666666665e-01 -3.333333333333333e-01
 1.666666666666667e-01 -1.666666666666665e-01 -3.333333333333333e-01
 1.666666666666667e-01 -1.666666666666665e-01 -3.333333333333333e-01
 1.666666666666667e-01 -1.666666666666665e-01 -3.333333333333333e-01
 1.666666666666667e-01 -1.666666666666665e-01 -3.333333333333333e-01
 1.666666666666667e-01 -1.666666666666665e-01 -3.333333333333333e-01
 1.666666666666667e-01 -1.666666666666665e-01 -3.333333333333333e-01
 1.666666666666667e-01 -1.666666666666665e-01 -3.333333333333333e-01
 1.666666666666667e-01 -1.666666666666665e-01 -3.333333333333333e-01
 1.666666666666667e-01 -1.666666666666665e-01 -3.333333333333333e-01
 1.666666666666667e-01 -1.666666666666665e-01 -3.333333333333333e-01
 1.666666666666667e-01 -1.666666666666665e-01 -3.333333333333333e-01
 1.666666666666667e-01 -1.666666666666665e-01 -3.333333333333333e-01
 1.666666666666667e-01 -1.666666666666665e-01 -3.333333333333333e-01
 1.666666666666667e-01 -1.666666666666665e-01 -3.333333333333333e-01
 1.666666666666667e-01 -1.666666666666665e-01 -3.333333333333333e-01
 1.666666666666667e-01 -1.666666666666665e-01 -3.333333333333333e-01
 1.666666666666667e-01 -1.666666666666665e-01 -3.333333333333333e-01
 1.666666666666667e-01 -1.666666666666665e-01 -3.333333333333333e-01
 1.666666666666667e-01 -1.666666666666665e-01 -3.333333333333333e-01
-1.666666666666667e-01  1.666666666666665e-01  3.333333333333333e-01
 1.666666666666667e-01 -1.666666666666665e-01 -3.333333333333333e-01
-1.666666666666667e-01  1.666666666666665e-01  3.333333333333333e-01
-1.666666666666667e-01  1.666666666666665e-01  3.333333333333333e-01
-1.666666666666667e-01  1.666666666666665e-01  3.333333333333333e-01
-1.666666666666667e-01  1.666666666666665e-01  3.333333333333333e-01
-1.666666666666667e-01  1.666666666666665e-01  3.333333333333333e-01
-1.666666666666667e-01  1.666666666666665e-01  3.333333333333333e-01
-1.666666666666667e-01  1.666666666666665e-01  3.333333333333333e-01
-1.666666666666667e-01  1.666666666666665e-01  3.333333333333333e-01
-1.666666666666667e-01  1.666666666666665e-01  3.333333333333333e-01
-1.666666666666667e-01  1.666666666666665e-01  3.333333333333333e-01
-1.666666666666667e-01  1.666666666666665e-01  3.333333333333333e-01
-1.666666666666667e-01  1.666666666666665e-01  3.333333333333333e-01
-1.666666666666667e-01  1.666666666666665e-01  3.333333333333333e-01
-1.666666666666667e-01  1.666666666666665e-01  3.333333333333333e-01
-1.666666666666667e-01  1.666666666666665e-01  3.333333333333333e-01
-1.666666666666667e-01  1.666666666666665e-01  3.333333333333333e-01
-1.666666666666667e-01  1.666666666666665e-01  3.333333333333333e-01
-1.666666666666667e-01  1.666666666666665e-01  3.333333333333333e-01
-1.666666666666667e-01  1.666666666666665e-01  3.333333333333333e-01
-1.666666666666667e-01  1.666666666666665e-01  3.333333333333333e-01
-1.666666666666667e-01  1.666666666666665e-01  3.333333333333333e-01
-1.666666666666667e-01  1.666666666666665e-01  3.333333333333333e-01
-1.666666666666667e-01  1.666666666666665e-01  3.333333333333333e-01
-1.666666666666667e-01  1.666666666666665e-01  3.333333333333333e-01
-1.666666666666667e-01  1.666666666666665e-01  3.333333333333333e-01
-1.666666666666667e-01  1.666666666666665e-01  3.333333333333333e-01
-1.666666666666667e-01  1.666666666666665e-01  3.333333333333333e-01
-1.666666666666667e-01  1.666666666666665e-01  3.333333333333333e-01
-1.666666666666667e-01  1.666666666666665e-01  3.333333333333333e-01
-1.666666666666667e-01  1.666666666666665e-01  3.333333333333333e-01
-1.666666666666667e-01  1.666666666666665e-01  3.333333333333333e-01
-1.666666666666667e-01  1.666666666666665e-01  3.333333333333333e-01
-1.666666666666667e-01  1.666666666666665e-01  3.333333333333333e-01
-1.666666666666667e-01  1.666666666666665e-01  3.333333333333333e-01
-1.666666666666667e-01  1.666666666666665e-01  3.333333333333333e-01
-1.666666666666667e-01  1.666666666666665e-01  3.333333333333333e-01
-1.666666666666667e-01  1.666666666666665e-01  3.333333333333333e-01
-1.666666666666667e-01  1.666666666666665e-01  3.333333333333333e-01
-1.666666666666667e-01  1.666666666666665e-01  3.333333333333333e-01
-1.666666666666667e-01  1.666666666666665e-01  3.333333333333333e-01
-1.666666666666667e-01  1.666666666666665e-01  3.333333333333333e-01
-1.666666666666667e-01  1.666666666666665e-01  3.333333333333333e-01
-1.666666666666667e-01  1.666666666666665e-01  3.333333333333333e-01
-1.666666666666667e-01  1.666666666666665e-01  3.333333333333333e-01
-1.666666666666667e-01  1.666666666666665e-01  3.333333333333333e-01
-1.666666666666667e-01  1.666666666666665e-01  3.333333333333333e-01
-1.666666666666667e-01  1.666666666666665e-01  3.333333333333333e-01
-1.666666666666667e-01  1.666666666666665e-01  3.333333333333333e-01
-1.666666666666667e-01  1.666666666666665e-01  3.333333333333333e-01
-1.666666666666667e-01  1.666666666666665e-01  3.333333333333333e-01
-1.666666666666667e-01  1.666666666666665e-01  3.333333333333333e-01
-1.666666666666667e-01  1.666666666666665e-01  3.333333333333333e-01
-1.666666666666667e-01  1.666666666666665e-01  3.333333333333333e-01
-1.666666666666667e-01  1.666666666666665e-01  3.333333333333333e-01
-1.666666666666667e-01  1.666666666666665e-01  3.333333333333333e-01
-1.666666666666667e-01  1.666666666666665e-01  3.333333333333333e-01
-1.666666666666667e-01  1.666666666666665e-01  3.333333333333333e-01
-1.666666666666667e-01  1.666666666666665e-01  3.333333333333333e-01
-1.666666666666667e-01  1.666666666666665e-01  3.333333333333333e-01
-1.666666666666667e-01  1.666666666666665e-01  3.333333333333333e-01
-1.666666666666667e-01  1.666666666666665e-01  3.333333333333333e-01
-1.666666666666667e-01  1.666666666666665e-01  3.333333333333333e-01
-1.666666666666667e-01  1.666666666666665e-01  3.333333333333333e-01
-1.666666666666667e-01  1.666666666666665e-01  3.333333333333333e-01
-1.666666666666667e-01  1.666666666666665e-01  3.333333333333333e-01
-1.666666666666667e-01  1.666666666666665e-01  3.333333333333333e-01
-1.666666666666667e-01  1.666666666666665e-01  3.333333333333333e-01
-1.666666666666667e-01  1.666666666666665e-01  3.333333333333333e-01
-1.666666666666667e-01  1.666666666666665e-01  3.333333333333333e-01
-1.666666666666667e-01  1.666666666666665e-01  3.333333333333333e-01
-1.666666666666667e-01  1.666666666666665e-01  3.333333333333333e-01
-1.666666666666667e-01  1.666666666666665e-01  3.333333333333333e-01
-1.666666666666667e-01  1.666666666666665e-01  3.333333333333333e-01
-1.666666666666667e-01  1.666666666666665e-01  3.333333333333333e-01
-1.666666666666667e-01  1.666666666666665e-01  3.333333333333333e-01
-1.666666666666667e-01  1.666666666666665e-01  3.333333333333333e-01
-1.666666666666667e-01  1.666666666666665e-01  3.333333333333333e-01
-1.666666666666667e-01  1.666666666666665e-01  3.333333333333333e-01
-1.666666666666667e-01  1.666666666666665e-01  3.333333333333333e-01
-1.666666666666667e-01  1.666666666666665e-01  3.333333333333333e-01
-1.666666666666667e-01  1.666666666666665e-01  3.333333333333333e-01
-1.666666666666667e-01  1.666666666666665e-01  3.333333333333333e-01
-1.666666666666667e-01  1.666666666666665e-01  3.333333333333333e-01
-1.666666666666667e-01  1.666666666666665e-01  3.333333333333333e-01
-1.666666666666667e-01  1.666666666666665e-01  3.333333333333333e-01
-1.666666666666667e-01  1.666666666666665e-01  3.333333333333333e-01
-1.666666666666667e-01  1.666666666666665e-01  3.333333333333333e-01
-1.666666666666667e-01  1.666666666666665e-01  3.333333333333333e-01
-1.666666666666667e-01  1.666666666666665e-01  3.333333333333333e-01
-1.666666666666667e-01  1.666666666666665e-01  3.333333333333333e-01
-1.666666666666667e-01  1.666666666666665e-01  3.333333333333333e-01
-1.666666666666667e-01  1.666666666666665e-01  3.333333333333333e-01
-1.666666666666667e-01  1.666666666666665e-01  3.333333333333333e-01
-1.666666666666667e-01  1.666666666666665e-01  3.333333333333333e-01
-1.666666666666667e-01  1.666666666666665e-01  3.333333333333333e-01
-1.666666666666667e-01  1.666666666666665e-01  3.333333333333333e-01
-1.666666666666667e-01  1.666666666666665e-01  3.333333333333333e-01
-1.666666666666667e-01  1.666666666666665e-01  3.333333333333333e-01
-1.666666666666667e-01  1.666666666666665e-01  3.333333333333333e-01
-1.666666666666667e-01  1.666666666666665e-01  3.333333333333333e-01
-1.666666666666667e-01  1.666666666666665e-01  3.333333333333333e-01
-1.666666666666667e-01  1.666666666666665e-01  3.333333333333333e-01
-1.666666666666667e-01  1.666666666666665e-01  3.333333333333333e-01
-1.666666666666667e-01  1.666666666666665e-01  3.333333333333333e-01
-1.666666666666667e-01  1.666666666666665e-01  3.333333333333333e-01
-1.666666666666667e-01  1.666666666666665e-01  3.333333333333333e-01
-1.666666666666667e-01  1.666666666666665e-01  3.333333333333333e-01
-1.666666666666667e-01  1.666666666666665e-01  3.333333333333333e-01
-1.666666666666667e-01  1.666666666666665e-01  3.333333333333333e-01
-1.666666666666667e-01  1.666666666666665e-01  3.333333333333333e-01
-1.666666666666667e-01  1.666666666666665e-01  3.333333333333333e-01
-1.666666666666667e-01  1.666666666666665e-01  3.333333333333333e-01
-1.666666666666667e-01  1.666666666666665e-01  3.333333333333333e-01
-1.666666666666667e-01  1.666666666666665e-01  3.333333333333333e-01
-1.666666666666667e-01  1.666666666666665e-01  3.333333333333333e-01
-1.666666666666667e-01  1.666666666666665e-01  3.333333333333333e-01
-1.666666666666667e-01  1.666666666666665e-01  3.333333333333333e-01
-1.666666666666667e-01  1.666666666666665e-01  3.333333333333333e-01
-1.666666666666667e-01  1.666666666666665e-01  3.333333333333333e-01
-1.666666666666667e-01  1.666666666666665e-01  3.333333333333333e-01
-1.666666666666667e-01  1.666666666666665e-01  3.333333333333333e-01
-1.666666666666667e-01  1.666666666666665e-01  3.333333333333333e-01
-1.666666666666667e-01  1.666666666666665e-01  3.333333333333333e-01
-1.666666666666667e-01  1.666666666666665e-01  3.333333333333333e-01
-1.666666666666667e-01  1.666666666666665e-01  3.333333333333333e-01
-1.666666666666667e-01  1.666666666666665e-01  3.333333333333333e-01
-1.666666666666667e-01  1.666666666666665e-01  3.333333333333333e-01
-1.666666666666667e-01  1.666666666666665e-01  3.333333333333333e-01
-1.666666666666667e-01  1.666666666666665e-01  3.333333333333333e-01
-1.666666666666667e-01  1.666666666666665e-01  3.333333333333333e-01
-1.666666666666667e-01  1.666666666666665e-01  3.333333333333333e-01
-1.666666666666667e-01  1.666666666666665e-01  3.333333333333333e-01
-1.666666666666667e-01  1.666666666666665e-01  3.333333333333333e-01
-1.666666666666667e-01  1.666666666666665e-01  3.333333333333333e-01
-1.666666666666667e-01  1.666666666666665e-01  3.333333333333333e-01
-1.666666666666667e-01  1.666666666666665e-01  3.333333333333333e-01
-1.666666666666667e-01  1.666666666666665e-01  3.333333333333333e-01
-1.666666666666667e-01  1.666666666666665e-01  3.333333333333333e-01
-1.666666666666667e-01  1.666666666666665e-01  3.333333333333333e-01
-1.666666666666667e-01  1.666666666666665e-01  3.333333333333333e-01
-1.666666666666667e-01  1.666666666666665e-01  3.333333333333333e-01
-1.666666666666667e-01  1.666666666666665e-01  3.333333333333333e-01
-1.666666666666667e-01  1.666666666666665e-01  3.333333333333333e-01
-1.666666666666667e-01  1.666666666666665e-01  3.333333333333333e-01
-1.666666666666667e-01  1.666666666666665e-01  3.333333333333333e-01
-1.666666666666667e-01  1.666666666666665e-01  3.333333333333333e-01
-1.666666666666667e-01  1.666666666666665e-01  3.333333333333333e-01
-1.666666666666667e-01  1.666666666666665e-01  3.333333333333333e-01
-1.666666666666667e-01  1.666666666666665e-01  3.333333333333333e-01
-1.666666666666667e-01  1.666666666666665e-01  3.333333333333333e-01
-1.666666666666667e-01  1.666666666666665e-01  3.333333333333333e-01
-1.666666666666667e-01  1.666666666666665e-01  3.333333333333333e-01
-1.666666666666667e-01  1.666666666666665e-01  3.333333333333333e-01
-1.666666666666667e-01  1.666666666666665e-01  3.333333333333333e-01
-1.666666666666667e-01  1.666666666666665e-01  3.333333333333333e-01
-1.666666666666667e-01  1.666666666666665e-01  3.333333333333333e-01
-1.666666666666667e-01  1.666666666666665e-01  3.333333333333333e-01
-1.666666666666667e-01  1.666666666666665e-01  3.333333333333333e-01
-1.666666666666667e-01  1.666666666666665e-01  3.333333333333333e-01
-1.666666666666667e-01  1.666666666666665e-01  3.333333333333333e-01
-1.666666666666667e-01  1.666666666666665e-01  3.333333333333333e-01
-1.666666666666667e-01  1.666666666666665e-01  3.333333333333333e-01
-1.666666666666667e-01  1.666666666666665e-01  3.333333333333333e-01
-1.666666666666667e-01  1.666666666666665e-01  3.333333333333333e-01
-1.666666666666667e-01  1.666666666666665e-01  3.333333333333333e-01
-1.666666666666667e-01  1.666666666666665e-01  3.333333333333333e-01
-1.666666666666667e-01  1.666666666666665e-01  3.333333333333333e-01
-1.666666666666667e-01  1.666666666666665e-01  3.333333333333333e-01
-1.666666666666667e-01  1.666666666666665e-01  3.333333333333333e-01
-1.666666666666667e-01  1.666666666666665e-01  3.333333333333333e-01
-1.666666666666667e-01  1.666666666666665e-01  3.333333333333333e-01
-1.666666666666667e-01  1.666666666666665e-01  3.333333333333333e-01
-1.666666666666667e-01  1.666666666666665e-01  3.333333333333333e-01
-1.666666666666667e-01  1.666666666666665e-01  3.333333333333333e-01
-1.666666666666667e-01  1.666666666666665e-01  3.333333333333333e-01
-1.666666666666667e-01  1.666666666666665e-01  3.333333333333333e-01
-1.666666666666667e-01  1.666666666666665e-01  3.333333333333333e-01
-1.666666666666667e-01  1.666666666666665e-01  3.333333333333333e-01
-1.666666666666667e-01  1.666666666666665e-01  3.333333333333333e-01
-1.666666666666667e-01  1.666666666666665e-01  3.333333333333333e-01
-1.666666666666667e-01  1.666666666666665e-01  3.333333333333333e-01
-1.666666666666667e-01  1.666666666666665e-01  3.333333333333333e-01
-1.666666666666667e-01  1.666666666666665e-01  3.333333333333333e-01
-1.666666666666667e-01  1.666666666666665e-01  3.333333333333333e-01
-1.666666666666667e-01  1.666666666666665e-01  3.333333333333333e-01
-1.666666666666667e-01  1.666666666666665e-01  3.333333333333333e-01
-1.666666666666667e-01  1.666666666666665e-01  3.333333333333333e-01
-1.666666666666667e-01  1.666666666666665e-01  3.333333333333333e-01
-1.666666666666667e-01  1.666666666666665e-01  3.333333333333333e-01
-1.666666666666667e-01  1.666666666666665e-01  3.333333333333333e-01
-1.666666666666667e-01  1.666666666666665e-01  3.333333333333333e-01
-1.666666666666667e-01  1.666666666666665e-01  3.333333333333333e-01
-1.666666666666667e-01  1.666666666666665e-01  3.333333333333333e-01
-1.666666666666667e-01  1.666666666666665e-01  3.333333333333333e-01
-1.666666666666667e-01  1.666666666666665e-01  3.333333333333333e-01
-1.666666666666667e-01  1.666666666666665e-01  3.333333333333333e-01
-1.666666666666667e-01  1.666666666666665e-01  3.333333333333333e-01
-1.666666666666667e-01  1.666666666666665e-01  3.333333333333333e-01
-1.666666666666667e-01  1.666666666666665e-01  3.333333333333333e-01
-1.666666666666667e-01  1.666666666666665e-01  3.333333333333333e-01
