# vtk DataFile Version 3.0
# Dislocation lines converted from MoDELib file
ASCII
DATASET UNSTRUCTURED_GRID
POINTS 2827 double
-1.429999999999877e+00  3.863858941524650e+02 -2.918975276816622e+03
-1.429999999999897e+00 -3.863858941524674e+02 -2.918975276816622e+03
-1.429999999999897e+00  0.000000000000000e+00 -2.918975276816622e+03
-1.430000000000221e+00  0.000000000000000e+00  2.918975276816619e+03
-1.430000000000221e+00 -3.863858941524674e+02  2.918975276816619e+03
-1.430000000000201e+00  3.863858941524653e+02  2.918975276816619e+03
-1.148329949701029e+03  1.086905784060864e+00 -2.918975276816622e+03
-1.148347461123286e+03 -1.017559077663791e+00 -2.918975276816622e+03
-1.148311685658771e+03 -1.687137475842419e+00 -2.918975276816622e+03
-1.148268762451145e+03 -4.137968888385867e+00 -2.918975276816622e+03
-1.148335291802587e+03 -5.288642387449499e+00 -2.918975276816622e+03
-1.148532290974767e+03 -7.435241868795730e+00 -2.918975276816622e+03
-1.148283681203899e+03 -8.853016200241852e+00 -2.918975276816622e+03
-1.148273162014326e+03 -1.292567963206243e+01 -2.918975276816622e+03
-1.148261823938609e+03 -1.365283534332533e+01 -2.918975276816622e+03
-1.148298765567536e+03 -1.660228191274087e+01 -2.918975276816622e+03
-1.148216913677810e+03 -2.009377654334875e+01 -2.918975276816622e+03
-1.148232079343559e+03 -2.290211204362394e+01 -2.918975276816622e+03
-1.148181699186544e+03 -2.691372314428861e+01 -2.918975276816622e+03
-1.148182707808842e+03 -2.804088462923908e+01 -2.918975276816622e+03
-1.148141230701671e+03 -3.455349001810134e+01 -2.918975276816622e+03
-1.148133891645407e+03 -3.540559327108421e+01 -2.918975276816622e+03
-1.148118555256213e+03 -3.851444771842623e+01 -2.918975276816622e+03
-1.148084402034498e+03 -4.346565157851611e+01 -2.918975276816622e+03
-1.148073999118375e+03 -4.491802389625814e+01 -2.918975276816622e+03
-1.148037499013505e+03 -5.005708836275951e+01 -2.918975276816622e+03
-1.147989416098223e+03 -5.593851752113940e+01 -2.918975276816622e+03
-1.147989065418640e+03 -5.839524405290790e+01 -2.918975276816622e+03
-1.147919707760910e+03 -6.006234344395768e+01 -2.918975276816622e+03
-1.147977699606809e+03 -6.117441772544245e+01 -2.918975276816622e+03
-1.147901024436979e+03 -6.328858697099693e+01 -2.918975276816622e+03
-1.147952029815234e+03 -6.427683311738801e+01 -2.918975276816622e+03
-1.147850175661895e+03 -6.641820121135628e+01 -2.918975276816622e+03
-1.147941663930962e+03 -6.743294221870018e+01 -2.918975276816622e+03
-1.147831796461506e+03 -6.996965745350921e+01 -2.918975276816622e+03
-1.147898100668254e+03 -7.067996599892153e+01 -2.918975276816622e+03
-1.147765506852537e+03 -7.212802141938393e+01 -2.918975276816622e+03
-1.147889217634645e+03 -7.418990991194744e+01 -2.918975276816622e+03
-1.147770105038727e+03 -7.531009717802483e+01 -2.918975276816622e+03
-1.147857165174336e+03 -7.637414220969990e+01 -2.918975276816622e+03
-1.147710624613552e+03 -7.836690464854351e+01 -2.918975276816622e+03
-1.147850980364803e+03 -8.039173141698733e+01 -2.918975276816622e+03
-1.147720616452840e+03 -8.148934421560774e+01 -2.918975276816622e+03
-1.147838250621386e+03 -8.372095246044604e+01 -2.918975276816622e+03
-1.147672544600945e+03 -8.553707311099873e+01 -2.918975276816622e+03
-1.147823656059476e+03 -8.727407897826474e+01 -2.918975276816622e+03
-1.147679281020922e+03 -8.936504468269837e+01 -2.918975276816622e+03
-1.147772331178057e+03 -9.036320958484174e+01 -2.918975276816622e+03
-1.147633007252437e+03 -9.205019773661604e+01 -2.918975276816622e+03
-1.147756597112344e+03 -9.483973694677391e+01 -2.918975276816622e+03
-1.147674004258374e+03 -9.555846399140032e+01 -2.918975276816622e+03
-1.147767540841621e+03 -9.843209047416181e+01 -2.918975276816622e+03
-1.147632264149773e+03 -1.003558698338199e+02 -2.918975276816622e+03
-1.147745147191916e+03 -1.013894410364323e+02 -2.918975276816622e+03
-1.147639615790064e+03 -1.032413444966322e+02 -2.918975276816622e+03
-1.147701521005997e+03 -1.042453980342591e+02 -2.918975276816622e+03
-1.147612493289795e+03 -1.062131726663143e+02 -2.918975276816622e+03
-1.147722968093578e+03 -1.072733568432293e+02 -2.918975276816622e+03
-1.147616006715513e+03 -1.096992420257248e+02 -2.918975276816622e+03
-1.147661606687163e+03 -1.105480712721220e+02 -2.918975276816622e+03
-1.147598816963458e+03 -1.122976656232933e+02 -2.918975276816622e+03
-1.147635056066695e+03 -1.141155729285364e+02 -2.918975276816622e+03
-1.147635957959810e+03 -1.156863799138901e+02 -2.918975276816622e+03
-1.147603139715423e+03 -1.183232194026039e+02 -2.918975276816622e+03
-1.147636336234332e+03 -1.201136969670976e+02 -2.918975276816622e+03
-1.147622064297138e+03 -1.213433456531440e+02 -2.918975276816622e+03
-1.147644694714252e+03 -1.236045385784665e+02 -2.918975276816622e+03
-1.147620500697095e+03 -1.248511163666628e+02 -2.918975276816622e+03
-1.147581454812708e+03 -1.294333413148645e+02 -2.918975276816622e+03
-1.147659409884480e+03 -1.295797272615227e+02 -2.918975276816622e+03
-1.147642352223489e+03 -1.319587166113361e+02 -2.918975276816622e+03
-1.147596369961958e+03 -1.340187053226218e+02 -2.918975276816622e+03
-1.147689502494005e+03 -1.341888448000617e+02 -2.918975276816622e+03
-1.147671840315544e+03 -1.357387122084504e+02 -2.918975276816622e+03
-1.147657594647079e+03 -1.384096450836781e+02 -2.918975276816622e+03
-1.147662036823403e+03 -1.400528671667933e+02 -2.918975276816622e+03
-1.147696702184102e+03 -1.412536034971591e+02 -2.918975276816622e+03
-1.147720436789215e+03 -1.431647833606123e+02 -2.918975276816622e+03
-1.147702037202357e+03 -1.441652188514533e+02 -2.918975276816622e+03
-1.147703445108345e+03 -1.461335354767230e+02 -2.918975276816622e+03
-1.147720567772961e+03 -1.471536974970008e+02 -2.918975276816622e+03
-1.147747714267443e+03 -1.496619259260663e+02 -2.918975276816622e+03
-1.147743552499203e+03 -1.503640533919091e+02 -2.918975276816622e+03
-1.147746295063693e+03 -1.520544284336407e+02 -2.918975276816622e+03
-1.147759513809202e+03 -1.540308299774320e+02 -2.918975276816622e+03
-1.147790344486739e+03 -1.601504122235577e+02 -2.918975276816622e+03
-1.147790797628636e+03 -1.612038272269079e+02 -2.918975276816622e+03
-1.147800337214418e+03 -1.632607758909837e+02 -2.918975276816622e+03
-1.147810984612292e+03 -1.647769708548200e+02 -2.918975276816622e+03
-1.147836942173498e+03 -1.723256815531833e+02 -2.918975276816622e+03
-1.147883982770823e+03 -1.756667394517690e+02 -2.918975276816622e+03
-1.147857026108937e+03 -1.783115139320847e+02 -2.918975276816622e+03
-1.147793279528680e+03 -1.802125982124350e+02 -2.918975276816622e+03
-1.147865186516056e+03 -1.812720454609929e+02 -2.918975276816622e+03
-1.147885052377848e+03 -1.831504484125577e+02 -2.918975276816622e+03
-1.147873123904092e+03 -1.847131509776692e+02 -2.918975276816622e+03
-1.147900341393199e+03 -1.894713503715369e+02 -2.918975276816622e+03
-1.147849743860084e+03 -1.900107181257910e+02 -2.918975276816622e+03
-1.147887427234416e+03 -1.919547000840107e+02 -2.918975276816622e+03
-1.147903744247666e+03 -1.939151431612105e+02 -2.918975276816622e+03
-1.147838720417972e+03 -1.942666618252676e+02 -2.918975276816622e+03
-1.147830325134837e+03 -1.960436826789745e+02 -2.918975276816622e+03
-1.147859154807653e+03 -2.000951675338096e+02 -2.918975276816622e+03
-1.147821306366886e+03 -2.010873415765463e+02 -2.918975276816622e+03
-1.147815524576699e+03 -2.031429517408710e+02 -2.918975276816622e+03
-1.147780880904457e+03 -2.041319305740412e+02 -2.918975276816622e+03
-1.147856165712960e+03 -2.060106339853022e+02 -2.918975276816622e+03
-1.147785639696207e+03 -2.071020897330524e+02 -2.918975276816622e+03
-1.147803668219964e+03 -2.096391601984719e+02 -2.918975276816622e+03
-1.147728510335904e+03 -2.104356030721966e+02 -2.918975276816622e+03
-1.147777042542259e+03 -2.123788006115571e+02 -2.918975276816622e+03
-1.147684885434890e+03 -2.155905476384905e+02 -2.918975276816622e+03
-1.147702445878796e+03 -2.182308889740963e+02 -2.918975276816622e+03
-1.147577287154940e+03 -2.200599758095221e+02 -2.918975276816622e+03
-1.147639960729586e+03 -2.211993097206688e+02 -2.918975276816622e+03
-1.147552017884266e+03 -2.231595641358618e+02 -2.918975276816622e+03
-1.147582616205174e+03 -2.246352505514839e+02 -2.918975276816622e+03
-1.147494061408372e+03 -2.294591354389475e+02 -2.918975276816622e+03
-1.147533784072177e+03 -2.301933023362842e+02 -2.918975276816622e+03
-1.147409447141536e+03 -2.320419925727529e+02 -2.918975276816622e+03
-1.147515234630430e+03 -2.354973472698996e+02 -2.918975276816622e+03
-1.147512391351033e+03 -2.381368067938060e+02 -2.918975276816622e+03
-1.147624599868733e+03 -2.400724663428186e+02 -2.918975276816622e+03
-1.147580429537903e+03 -2.411863973558391e+02 -2.918975276816622e+03
-1.147713175156561e+03 -2.431732300735693e+02 -2.918975276816622e+03
-1.147758406442966e+03 -2.445056969504596e+02 -2.918975276816622e+03
-1.147923373680423e+03 -2.470764101302164e+02 -2.918975276816622e+03
-1.147783723563301e+03 -2.470333130246054e+02 -2.918975276816622e+03
-1.147782651440399e+03 -2.497344060278665e+02 -2.918975276816622e+03
-1.147825967753037e+03 -2.508162658299920e+02 -2.918975276816622e+03
-1.147810617787080e+03 -2.516836520759193e+02 -2.918975276816622e+03
-1.147787192251087e+03 -2.538499906165055e+02 -2.918975276816622e+03
-1.147835960678080e+03 -2.552404054138276e+02 -2.918975276816622e+03
-1.147863336538277e+03 -2.575097654083704e+02 -2.918975276816622e+03
-1.147767392827334e+03 -2.577171531880817e+02 -2.918975276816622e+03
-1.147790401335213e+03 -2.601474334006220e+02 -2.918975276816622e+03
-1.147853084746855e+03 -2.609467994420737e+02 -2.918975276816622e+03
-1.147838764447109e+03 -2.634016280191206e+02 -2.918975276816622e+03
-1.147833843473124e+03 -2.661363155757163e+02 -2.918975276816622e+03
-1.147844596815562e+03 -2.710888992632693e+02 -2.918975276816622e+03
-1.147845731493819e+03 -2.738733855544899e+02 -2.918975276816622e+03
-1.147850161237425e+03 -2.755635275495887e+02 -2.918975276816622e+03
-1.147851521988666e+03 -2.773807967471129e+02 -2.918975276816622e+03
-1.147847245483097e+03 -2.802892143119672e+02 -2.918975276816622e+03
-1.147843877871013e+03 -2.843310274667029e+02 -2.918975276816622e+03
-1.147835147457451e+03 -2.859577576675456e+02 -2.918975276816622e+03
-1.147831189921576e+03 -2.878058488944238e+02 -2.918975276816622e+03
-1.147800539295683e+03 -2.950799842557687e+02 -2.918975276816622e+03
-1.147792574117411e+03 -2.986127259802221e+02 -2.918975276816622e+03
-1.147793208680948e+03 -3.003118508534985e+02 -2.918975276816622e+03
-1.147768518149356e+03 -3.036499855831885e+02 -2.918975276816622e+03
-1.147758936283893e+03 -3.042757161342158e+02 -2.918975276816622e+03
-1.147742194719866e+03 -3.073837416156859e+02 -2.918975276816622e+03
-1.147719582651360e+03 -3.106699680330489e+02 -2.918975276816622e+03
-1.147690113199557e+03 -3.139482425766836e+02 -2.918975276816622e+03
-1.147653883487822e+03 -3.181069127454418e+02 -2.918975276816622e+03
-1.147563850134696e+03 -3.231608346909202e+02 -2.918975276816622e+03
-1.147622059161569e+03 -3.304486530197204e+02 -2.918975276816622e+03
-1.147582203129235e+03 -3.338542593688771e+02 -2.918975276816622e+03
-1.147620302969287e+03 -3.347085816929020e+02 -2.918975276816622e+03
-1.147633724526319e+03 -3.386942304101707e+02 -2.918975276816622e+03
-1.147670437404772e+03 -3.432353564176929e+02 -2.918975276816622e+03
-1.147692941065318e+03 -3.472917482790590e+02 -2.918975276816622e+03
-1.147694996716546e+03 -3.479689955332937e+02 -2.918975276816622e+03
-1.147727878436083e+03 -3.528711171639977e+02 -2.918975276816622e+03
-1.147739405837590e+03 -3.543912513653117e+02 -2.918975276816622e+03
-1.147764127687139e+03 -3.583824296710100e+02 -2.918975276816622e+03
-1.147792000125143e+03 -3.621408105030196e+02 -2.918975276816622e+03
-1.147850918148950e+03 -3.696665961339677e+02 -2.918975276816622e+03
-1.147836473426125e+03 -3.717731951276938e+02 -2.918975276816622e+03
-1.147825712759589e+03 -3.740595867847310e+02 -2.918975276816622e+03
-1.147918110741798e+03 -3.743334366318426e+02 -2.918975276816622e+03
-1.147915255646495e+03 -3.763700164901160e+02 -2.918975276816622e+03
-1.147843060511621e+03 -3.775399383509491e+02 -2.918975276816622e+03
-1.147853190535358e+03 -3.796791636118523e+02 -2.918975276816622e+03
-1.147937255129580e+03 -3.799988285688575e+02 -2.918975276816622e+03
-1.147913895767270e+03 -3.823228932307098e+02 -2.918975276816622e+03
-1.147898922745071e+03 -3.860584645853427e+02 -2.918975276816622e+03
-1.147908386776921e+03  3.832668596561619e+02 -2.918975276816622e+03
-1.147907548735127e+03  3.784865293368434e+02 -2.918975276816622e+03
-1.147908602349749e+03  3.771067564175217e+02 -2.918975276816622e+03
-1.147930676612489e+03  3.764099194594616e+02 -2.918975276816622e+03
-1.147912149314946e+03  3.737406599774202e+02 -2.918975276816622e+03
-1.147908710389807e+03  3.685185912050309e+02 -2.918975276816622e+03
-1.147887048333666e+03  3.602110718284080e+02 -2.918975276816622e+03
-1.147884035126460e+03  3.590952424445504e+02 -2.918975276816622e+03
-1.147875572260251e+03  3.548444704950299e+02 -2.918975276816622e+03
-1.147863683466289e+03  3.527603259300540e+02 -2.918975276816622e+03
-1.147864439001108e+03  3.509970942254608e+02 -2.918975276816622e+03
-1.147847921643887e+03  3.485404726181229e+02 -2.918975276816622e+03
-1.147844938588258e+03  3.459055690269362e+02 -2.918975276816622e+03
-1.147831490402546e+03  3.443505393949535e+02 -2.918975276816622e+03
-1.147828537838726e+03  3.413967713727411e+02 -2.918975276816622e+03
-1.147815679966277e+03  3.404574407098636e+02 -2.918975276816622e+03
-1.147814243828636e+03  3.383543590931827e+02 -2.918975276816622e+03
-1.147760089599166e+03  3.296874542530789e+02 -2.918975276816622e+03
-1.147731093952887e+03  3.276923718502694e+02 -2.918975276816622e+03
-1.147754902692244e+03  3.260129187908930e+02 -2.918975276816622e+03
-1.147743084141814e+03  3.234095212749252e+02 -2.918975276816622e+03
-1.147647654114600e+03  3.234737695354167e+02 -2.918975276816622e+03
-1.147703858699883e+03  3.209308990651198e+02 -2.918975276816622e+03
-1.147745403995918e+03  3.200496202631476e+02 -2.918975276816622e+03
-1.147771899687222e+03  3.172143416181689e+02 -2.918975276816622e+03
-1.147768721571096e+03  3.132550871939532e+02 -2.918975276816622e+03
-1.147799829802699e+03  3.098346728415876e+02 -2.918975276816622e+03
-1.147799676629067e+03  3.073267829323191e+02 -2.918975276816622e+03
-1.147816795948742e+03  3.053456680752899e+02 -2.918975276816622e+03
-1.147817861854536e+03  3.033547456715424e+02 -2.918975276816622e+03
-1.147829878189923e+03  3.012133205424457e+02 -2.918975276816622e+03
-1.147861094432860e+03  2.936923112181472e+02 -2.918975276816622e+03
-1.147865421032158e+03  2.890636448814978e+02 -2.918975276816622e+03
-1.147877755156153e+03  2.885997379705809e+02 -2.918975276816622e+03
-1.147896670983986e+03  2.862415397095740e+02 -2.918975276816622e+03
-1.147896697381620e+03  2.831812578482448e+02 -2.918975276816622e+03
-1.147913625796464e+03  2.820388489643658e+02 -2.918975276816622e+03
-1.147926334927330e+03  2.800998044261856e+02 -2.918975276816622e+03
-1.147905203364100e+03  2.779625397232401e+02 -2.918975276816622e+03
-1.147868005327269e+03  2.763165187658349e+02 -2.918975276816622e+03
-1.147961792756553e+03  2.759124280652174e+02 -2.918975276816622e+03
-1.147960087133888e+03  2.741967070956033e+02 -2.918975276816622e+03
-1.147937537550049e+03  2.715671440140578e+02 -2.918975276816622e+03
-1.147902771142436e+03  2.709553054835846e+02 -2.918975276816622e+03
-1.147933371460476e+03  2.693724609051557e+02 -2.918975276816622e+03
-1.147952801656348e+03  2.667054805803751e+02 -2.918975276816622e+03
-1.147949162622539e+03  2.655219021842725e+02 -2.918975276816622e+03
-1.147945243668983e+03  2.630876662040102e+02 -2.918975276816622e+03
-1.147941167119257e+03  2.611260926571387e+02 -2.918975276816622e+03
-1.147947334155393e+03  2.599422382080119e+02 -2.918975276816622e+03
-1.147939206116423e+03  2.578492843833117e+02 -2.918975276816622e+03
-1.147936177294188e+03  2.565973176007350e+02 -2.918975276816622e+03
-1.147932360541322e+03  2.514111469470975e+02 -2.918975276816622e+03
-1.147944383942116e+03  2.501254144372779e+02 -2.918975276816622e+03
-1.147888275192440e+03  2.493667011319081e+02 -2.918975276816622e+03
-1.147862502126569e+03  2.471111702879525e+02 -2.918975276816622e+03
-1.147940798085545e+03  2.457267735309578e+02 -2.918975276816622e+03
-1.147900361417007e+03  2.434091878374744e+02 -2.918975276816622e+03
-1.147863440285610e+03  2.431574873385125e+02 -2.918975276816622e+03
-1.147745853563368e+03  2.406471790537872e+02 -2.918975276816622e+03
-1.147884407967950e+03  2.400865892643610e+02 -2.918975276816622e+03
-1.147771253352100e+03  2.383077006785063e+02 -2.918975276816622e+03
-1.147777533844260e+03  2.363069799382861e+02 -2.918975276816622e+03
-1.147716004373578e+03  2.353505545886751e+02 -2.918975276816622e+03
-1.147740710249629e+03  2.328961150467583e+02 -2.918975276816622e+03
-1.147668303515039e+03  2.298388403869478e+02 -2.918975276816622e+03
-1.147582314835560e+03  2.245712457430650e+02 -2.918975276816622e+03
-1.147569850542586e+03  2.230645901837908e+02 -2.918975276816622e+03
-1.147489943386436e+03  2.200873461082316e+02 -2.918975276816622e+03
-1.147497118949476e+03  2.170783392318791e+02 -2.918975276816622e+03
-1.147405830959494e+03  2.164923497085087e+02 -2.918975276816622e+03
-1.147405423545312e+03  2.144307169529160e+02 -2.918975276816622e+03
-1.147424966138762e+03  2.138264087902461e+02 -2.918975276816622e+03
-1.147423963350179e+03  2.121479624760997e+02 -2.918975276816622e+03
-1.147307792728600e+03  2.100888335853657e+02 -2.918975276816622e+03
-1.147428998974595e+03  2.092716717089208e+02 -2.918975276816622e+03
-1.147450967773101e+03  2.071505029948110e+02 -2.918975276816622e+03
-1.147230201138438e+03  2.046403237674977e+02 -2.918975276816622e+03
-1.147235681065366e+03  1.986535079525887e+02 -2.918975276816622e+03
-1.147234227280415e+03  1.962701186234197e+02 -2.918975276816622e+03
-1.147252502083274e+03  1.923400070509394e+02 -2.918975276816622e+03
-1.147193906140580e+03  1.900849697670646e+02 -2.918975276816622e+03
-1.147154561278920e+03  1.888728432395998e+02 -2.918975276816622e+03
-1.147142080334691e+03  1.871734593829120e+02 -2.918975276816622e+03
-1.147213128444396e+03  1.860719237299762e+02 -2.918975276816622e+03
-1.147252192540452e+03  1.845196439187856e+02 -2.918975276816622e+03
-1.147168708776646e+03  1.832103262938413e+02 -2.918975276816622e+03
-1.147151672216174e+03  1.806253614586256e+02 -2.918975276816622e+03
-1.147167272023674e+03  1.789504929263545e+02 -2.918975276816622e+03
-1.147193003976799e+03  1.782379626214469e+02 -2.918975276816622e+03
-1.147177278889137e+03  1.760056808761264e+02 -2.918975276816622e+03
-1.147160426846073e+03  1.735404517365810e+02 -2.918975276816622e+03
-1.147169893862837e+03  1.718393595924478e+02 -2.918975276816622e+03
-1.147179692634370e+03  1.701318793367161e+02 -2.918975276816622e+03
-1.147200141632390e+03  1.689467480894633e+02 -2.918975276816622e+03
-1.147189704149722e+03  1.675000819629905e+02 -2.918975276816622e+03
-1.147153093005564e+03  1.662523743033820e+02 -2.918975276816622e+03
-1.147168665007152e+03  1.639643523931506e+02 -2.918975276816622e+03
-1.147221124780567e+03  1.634907956320997e+02 -2.918975276816622e+03
-1.147212117496289e+03  1.610061931904623e+02 -2.918975276816622e+03
-1.147178506972092e+03  1.602914688287112e+02 -2.918975276816622e+03
-1.147197262475498e+03  1.582525573200951e+02 -2.918975276816622e+03
-1.147212446434048e+03  1.532289587055749e+02 -2.918975276816622e+03
-1.147243226347648e+03  1.516596144659691e+02 -2.918975276816622e+03
-1.147242198652306e+03  1.500469536633854e+02 -2.918975276816622e+03
-1.147192110545164e+03  1.492030271108980e+02 -2.918975276816622e+03
-1.147218590707933e+03  1.474607836107668e+02 -2.918975276816622e+03
-1.147287627106218e+03  1.463071515056813e+02 -2.918975276816622e+03
-1.147272127684010e+03  1.443997698330391e+02 -2.918975276816622e+03
-1.147222820523982e+03  1.433229734622723e+02 -2.918975276816622e+03
-1.147213309395488e+03  1.410259747568395e+02 -2.918975276816622e+03
-1.147322624731597e+03  1.408617562013215e+02 -2.918975276816622e+03
-1.147321367756789e+03  1.386304361755807e+02 -2.918975276816622e+03
-1.147308516125255e+03  1.371083903573767e+02 -2.918975276816622e+03
-1.147294439121301e+03  1.365838712901778e+02 -2.918975276816622e+03
-1.147350131852402e+03  1.340607129825386e+02 -2.918975276816622e+03
-1.147345099233326e+03  1.330563707271160e+02 -2.918975276816622e+03
-1.147365565588482e+03  1.304506746092985e+02 -2.918975276816622e+03
-1.147373293534187e+03  1.291592452247054e+02 -2.918975276816622e+03
-1.147437035578092e+03  1.273601302153124e+02 -2.918975276816622e+03
-1.147428583109101e+03  1.256920411794807e+02 -2.918975276816622e+03
-1.147453337157903e+03  1.211351764743399e+02 -2.918975276816622e+03
-1.147418291462182e+03  1.201296591266403e+02 -2.918975276816622e+03
-1.147514131327584e+03  1.178139839084544e+02 -2.918975276816622e+03
-1.147520679004325e+03  1.148541488607922e+02 -2.918975276816622e+03
-1.147567206527046e+03  1.127342447562477e+02 -2.918975276816622e+03
-1.147467559779042e+03  1.117415842784658e+02 -2.918975276816622e+03
-1.147584875700743e+03  1.103624019373301e+02 -2.918975276816622e+03
-1.147573162821424e+03  1.093939241556836e+02 -2.918975276816622e+03
-1.147634834618147e+03  1.070053724677185e+02 -2.918975276816622e+03
-1.147525517915017e+03  1.060507836263441e+02 -2.918975276816622e+03
-1.147655359026206e+03  1.047937840231731e+02 -2.918975276816622e+03
-1.147609903955836e+03  1.034436174490948e+02 -2.918975276816622e+03
-1.147692183718131e+03  1.010859809297837e+02 -2.918975276816622e+03
-1.147605044893680e+03  1.000708534766394e+02 -2.918975276816622e+03
-1.147704197485738e+03  9.868532827948829e+01 -2.918975276816622e+03
-1.147660247070500e+03  9.710758920952146e+01 -2.918975276816622e+03
-1.147737000638005e+03  9.519820950433412e+01 -2.918975276816622e+03
-1.147705089596746e+03  9.150731455704863e+01 -2.918975276816622e+03
-1.147778915628765e+03  8.882985593603138e+01 -2.918975276816622e+03
-1.147764388583924e+03  8.565577220671813e+01 -2.918975276816622e+03
-1.147815834756565e+03  8.226720313470841e+01 -2.918975276816622e+03
-1.147854446582405e+03  7.632662370302182e+01 -2.918975276816622e+03
-1.147894760902623e+03  7.381355004297102e+01 -2.918975276816622e+03
-1.147900658459081e+03  7.200918256533984e+01 -2.918975276816622e+03
-1.147909035311004e+03  7.045352989603019e+01 -2.918975276816622e+03
-1.147892226905708e+03  6.819888611306945e+01 -2.918975276816622e+03
-1.147947390716231e+03  6.756366844551181e+01 -2.918975276816622e+03
-1.147950501779764e+03  6.562700988547606e+01 -2.918975276816622e+03
-1.147975567281469e+03  6.198181624452134e+01 -2.918975276816622e+03
-1.148025178040310e+03  5.511563541307289e+01 -2.918975276816622e+03
-1.148038487241249e+03  5.277114894407459e+01 -2.918975276816622e+03
-1.148073497995265e+03  5.124685716153855e+01 -2.918975276816622e+03
-1.148076564016168e+03  4.994448797142710e+01 -2.918975276816622e+03
-1.148087190457742e+03  4.745062263570981e+01 -2.918975276816622e+03
-1.148120455258803e+03  4.450459459916178e+01 -2.918975276816622e+03
-1.148156808479262e+03  4.130499295683394e+01 -2.918975276816622e+03
-1.148107940187276e+03  3.965153711730328e+01 -2.918975276816622e+03
-1.148169439221905e+03  3.840932767529520e+01 -2.918975276816622e+03
-1.148239049503380e+03  3.544914117894753e+01 -2.918975276816622e+03
-1.148271362869972e+03  3.163632077876327e+01 -2.918975276816622e+03
-1.148177755929026e+03  2.907693516245799e+01 -2.918975276816622e+03
-1.148231967290545e+03  2.332924314585916e+01 -2.918975276816622e+03
-1.148306544272941e+03  2.299500912578053e+01 -2.918975276816622e+03
-1.148321324258467e+03  2.115856263378991e+01 -2.918975276816622e+03
-1.148234950651030e+03  2.016613668900371e+01 -2.918975276816622e+03
-1.148289383117940e+03  1.789942141823876e+01 -2.918975276816622e+03
-1.148329918301110e+03  1.598976167205630e+01 -2.918975276816622e+03
-1.148298292353271e+03  1.388847288941668e+01 -2.918975276816622e+03
-1.148336912257660e+03  7.643119623245252e+00 -2.918975276816622e+03
-1.148588198591061e+03  5.755809704129804e+00 -2.918975276816622e+03
-1.148231449113651e+03  5.098393152451376e+00 -2.918975276816622e+03
1.145762025595707e+03 5.235608233268954e-01 2.918975276816622e+03
1.145699244995644e+03 1.398740930745271e-01 2.918975276816622e+03
 1.145717604337743e+03 -8.737061078664693e-01  2.918975276816622e+03
 1.145654995646190e+03 -3.506988059955159e+00  2.918975276816622e+03
 1.145656622737224e+03 -4.462424798279428e+00  2.918975276816622e+03
 1.145581151868644e+03 -8.720300233874932e+00  2.918975276816622e+03
 1.145584362524321e+03 -9.660308555224296e+00  2.918975276816622e+03
 1.145541391617746e+03 -1.176416936545957e+01  2.918975276816622e+03
 1.145522987577958e+03 -1.342970561378992e+01  2.918975276816622e+03
 1.145463180466932e+03 -1.701810365285298e+01  2.918975276816622e+03
 1.145397508036275e+03 -2.154196912132826e+01  2.918975276816622e+03
 1.145354915742595e+03 -2.386185845281553e+01  2.918975276816622e+03
 1.145311938043870e+03 -2.615393621913280e+01  2.918975276816622e+03
 1.145322008894344e+03 -2.781901533118715e+01  2.918975276816622e+03
 1.145328281964481e+03 -2.974092343392828e+01  2.918975276816622e+03
 1.145234081837521e+03 -3.011645972991568e+01  2.918975276816622e+03
 1.145230114087933e+03 -3.191827294873652e+01  2.918975276816622e+03
 1.145250421472432e+03 -3.332810927329287e+01  2.918975276816622e+03
 1.145183016718876e+03 -3.799857493732357e+01  2.918975276816622e+03
 1.145169143417992e+03 -3.936875896626795e+01  2.918975276816622e+03
 1.145128056468334e+03 -4.207498798895352e+01  2.918975276816622e+03
 1.145121491784309e+03 -4.470879527430725e+01  2.918975276816622e+03
 1.145101592541127e+03 -4.555696152043605e+01  2.918975276816622e+03
 1.145102727630641e+03 -4.768561423143821e+01  2.918975276816622e+03
 1.145045692826950e+03 -5.063776220697950e+01  2.918975276816622e+03
 1.145043021675580e+03 -5.434266057624389e+01  2.918975276816622e+03
 1.145000405886532e+03 -5.634289037438281e+01  2.918975276816622e+03
 1.145036417347823e+03 -5.865267508379214e+01  2.918975276816622e+03
 1.144955430642103e+03 -6.037668485266426e+01  2.918975276816622e+03
 1.144965960643548e+03 -6.238391020043260e+01  2.918975276816622e+03
 1.144971016269150e+03 -6.370406397724727e+01  2.918975276816622e+03
 1.144982068707754e+03 -6.480715904621313e+01  2.918975276816622e+03
 1.144890949091816e+03 -6.541954586064421e+01  2.918975276816622e+03
 1.144951435629268e+03 -6.691738100899443e+01  2.918975276816622e+03
 1.144965410708266e+03 -6.868875263998532e+01  2.918975276816622e+03
 1.144943532490918e+03 -7.027651340960631e+01  2.918975276816622e+03
 1.144932764601981e+03 -7.501878802081586e+01  2.918975276816622e+03
 1.144929370577385e+03 -7.872418973503000e+01  2.918975276816622e+03
 1.144938201575291e+03 -8.070490324346893e+01  2.918975276816622e+03
 1.144919442581964e+03 -8.229767070714701e+01  2.918975276816622e+03
 1.144878360409643e+03 -8.400969608718361e+01  2.918975276816622e+03
 1.144911370851550e+03 -8.513330675663683e+01  2.918975276816622e+03
 1.144969700090432e+03 -8.613508116634461e+01  2.918975276816622e+03
 1.144910392076655e+03 -8.725935763406736e+01  2.918975276816622e+03
 1.144888918519719e+03 -8.891358054985071e+01  2.918975276816622e+03
 1.144919398728674e+03 -9.020881715727630e+01  2.918975276816622e+03
 1.144906978701360e+03 -9.472686075685355e+01  2.918975276816622e+03
 1.144899650906577e+03 -9.800478945542565e+01  2.918975276816622e+03
 1.144909111902112e+03 -9.938863709634651e+01  2.918975276816622e+03
 1.144939209400958e+03 -1.017100362167272e+02  2.918975276816622e+03
 1.144894312119401e+03 -1.028677140578719e+02  2.918975276816622e+03
 1.144945568660508e+03 -1.054411701863186e+02  2.918975276816622e+03
 1.144857611649096e+03 -1.063453648059894e+02  2.918975276816622e+03
 1.144825696726786e+03 -1.075419640087921e+02  2.918975276816622e+03
 1.144820501671551e+03 -1.102000911559865e+02  2.918975276816622e+03
 1.144912364697017e+03 -1.102856977650950e+02  2.918975276816622e+03
 1.144852494456687e+03 -1.146000058109726e+02  2.918975276816622e+03
 1.144841797537611e+03 -1.194500303976597e+02  2.918975276816622e+03
 1.144839129157995e+03 -1.217883199946592e+02  2.918975276816622e+03
 1.144831166525203e+03 -1.264692739519873e+02  2.918975276816622e+03
 1.144828853155247e+03 -1.287231356569949e+02  2.918975276816622e+03
 1.144825878005104e+03 -1.301968854219988e+02  2.918975276816622e+03
 1.144823561888666e+03 -1.347658916058814e+02  2.918975276816622e+03
 1.144822567530673e+03 -1.379728977717812e+02  2.918975276816622e+03
 1.144821106341850e+03 -1.392926461019136e+02  2.918975276816622e+03
 1.144818777339980e+03 -1.430047410678184e+02  2.918975276816622e+03
 1.144818432110555e+03 -1.447992461497901e+02  2.918975276816622e+03
 1.144819188918760e+03 -1.468240822323942e+02  2.918975276816622e+03
 1.144817092127082e+03 -1.488067749440066e+02  2.918975276816622e+03
 1.144817226166740e+03 -1.502554989682147e+02  2.918975276816622e+03
 1.144818861975315e+03 -1.549909924192651e+02  2.918975276816622e+03
 1.144822894205343e+03 -1.586804399789496e+02  2.918975276816622e+03
 1.144809326870724e+03 -1.604412284859984e+02  2.918975276816622e+03
 1.144798527861639e+03 -1.621521291229777e+02  2.918975276816622e+03
 1.144833456966216e+03 -1.639457252396874e+02  2.918975276816622e+03
 1.144856043994048e+03 -1.653314186811727e+02  2.918975276816622e+03
 1.144762319642809e+03 -1.656821340846747e+02  2.918975276816622e+03
 1.144813490737530e+03 -1.671373627259164e+02  2.918975276816622e+03
 1.144878023751484e+03 -1.686767000408209e+02  2.918975276816622e+03
 1.144855018775195e+03 -1.701547949525025e+02  2.918975276816622e+03
 1.145044114408747e+03 -1.750558901067156e+02  2.918975276816622e+03
 1.144998231145715e+03 -1.785694413233698e+02  2.918975276816622e+03
 1.145343388541233e+03 -1.803743947230508e+02  2.918975276816622e+03
 1.145298997639052e+03 -1.815648872133987e+02  2.918975276816622e+03
 1.145456377030778e+03 -1.860001168808153e+02  2.918975276816622e+03
 1.145882982072482e+03 -1.871813825358859e+02  2.918975276816622e+03
 1.144001947653489e+03 -1.951559016201720e+02  2.918975276816622e+03
 1.144227556024998e+03 -1.987029324558812e+02  2.918975276816622e+03
 1.144771565468745e+03 -2.028591127968502e+02  2.918975276816622e+03
 1.144863361966031e+03 -2.067700996672348e+02  2.918975276816622e+03
 1.144884327438362e+03 -2.085026831738791e+02  2.918975276816622e+03
 1.144843466062924e+03 -2.101858506590899e+02  2.918975276816622e+03
 1.144892955543468e+03 -2.148098828555903e+02  2.918975276816622e+03
 1.144901282844129e+03 -2.169551625710616e+02  2.918975276816622e+03
 1.144895517701197e+03 -2.186538689180334e+02  2.918975276816622e+03
 1.144907292640431e+03 -2.236524414397818e+02  2.918975276816622e+03
 1.144910880692811e+03 -2.251165694331978e+02  2.918975276816622e+03
 1.144921466849179e+03 -2.287672331717124e+02  2.918975276816622e+03
 1.144925176310969e+03 -2.300144907412678e+02  2.918975276816622e+03
 1.144933723925484e+03 -2.328788222865481e+02  2.918975276816622e+03
 1.144940003636444e+03 -2.341760796898043e+02  2.918975276816622e+03
 1.144946803618050e+03 -2.368087756324728e+02  2.918975276816622e+03
 1.144954901332359e+03 -2.389162520199219e+02  2.918975276816622e+03
 1.144961043190275e+03 -2.414179853968278e+02  2.918975276816622e+03
 1.144972735094104e+03 -2.449565225278376e+02  2.918975276816622e+03
 1.144975163382877e+03 -2.480156289494944e+02  2.918975276816622e+03
 1.144977839058997e+03 -2.489290523225575e+02  2.918975276816622e+03
 1.144993687593720e+03 -2.536468237670629e+02  2.918975276816622e+03
 1.145016668688113e+03 -2.606665794794293e+02  2.918975276816622e+03
 1.145013651176186e+03 -2.657815075607779e+02  2.918975276816622e+03
 1.145044248271223e+03 -2.689870533303660e+02  2.918975276816622e+03
 1.145070590576120e+03 -2.700464499993856e+02  2.918975276816622e+03
 1.145077607759579e+03 -2.728025528129425e+02  2.918975276816622e+03
 1.145030470732862e+03 -2.734543429729238e+02  2.918975276816622e+03
 1.145047078969309e+03 -2.758406402006392e+02  2.918975276816622e+03
 1.145066029413820e+03 -2.785834839482434e+02  2.918975276816622e+03
 1.145067675808907e+03 -2.834693257297513e+02  2.918975276816622e+03
 1.145071953399621e+03 -2.866999940387606e+02  2.918975276816622e+03
 1.145061935997465e+03 -2.880626058632536e+02  2.918975276816622e+03
 1.145075733276287e+03 -2.907700242722100e+02  2.918975276816622e+03
 1.145065099594302e+03 -2.931325545057281e+02  2.918975276816622e+03
 1.145079958198047e+03 -2.950541093556190e+02  2.918975276816622e+03
 1.145072179488528e+03 -2.987533555710423e+02  2.918975276816622e+03
 1.145054805001483e+03 -2.990004128470339e+02  2.918975276816622e+03
 1.145049701827853e+03 -3.026535181090830e+02  2.918975276816622e+03
 1.145062076979659e+03 -3.036824001317601e+02  2.918975276816622e+03
 1.145045824356308e+03 -3.082454320064325e+02  2.918975276816622e+03
 1.145051862960943e+03 -3.100764723625163e+02  2.918975276816622e+03
 1.145024465400251e+03 -3.123677820301324e+02  2.918975276816622e+03
 1.145050273194040e+03 -3.137209817202715e+02  2.918975276816622e+03
 1.145011866297692e+03 -3.149391695748217e+02  2.918975276816622e+03
 1.145046308360639e+03 -3.179897674355248e+02  2.918975276816622e+03
 1.144992388784585e+03 -3.190963552053257e+02  2.918975276816622e+03
 1.145046969801838e+03 -3.215749632006643e+02  2.918975276816622e+03
 1.144988992449802e+03 -3.234420601781097e+02  2.918975276816622e+03
 1.145038385804578e+03 -3.261324154372987e+02  2.918975276816622e+03
 1.144957576134663e+03 -3.264894058284144e+02  2.918975276816622e+03
 1.145060154508869e+03 -3.290449044299572e+02  2.918975276816622e+03
 1.144988657834699e+03 -3.316883684474168e+02  2.918975276816622e+03
 1.145052725452533e+03 -3.344814045705049e+02  2.918975276816622e+03
 1.144938314961862e+03 -3.376132676695339e+02  2.918975276816622e+03
 1.145029249919365e+03 -3.382538864822640e+02  2.918975276816622e+03
 1.144940478959554e+03 -3.406129455304142e+02  2.918975276816622e+03
 1.145025312929895e+03 -3.431354430351316e+02  2.918975276816622e+03
 1.144908140657313e+03 -3.450358027260616e+02  2.918975276816622e+03
 1.145006844705626e+03 -3.487720700822658e+02  2.918975276816622e+03
 1.144905844964738e+03 -3.521560476082906e+02  2.918975276816622e+03
 1.144966966785464e+03 -3.530955380504944e+02  2.918975276816622e+03
 1.144906248034618e+03 -3.570158251083129e+02  2.918975276816622e+03
 1.144989874033892e+03 -3.594725820390070e+02  2.918975276816622e+03
 1.144885907014463e+03 -3.597143971950844e+02  2.918975276816622e+03
 1.144932423877015e+03 -3.617656598033915e+02  2.918975276816622e+03
 1.144965494334162e+03 -3.668977383144121e+02  2.918975276816622e+03
 1.144954756953259e+03 -3.685879062830307e+02  2.918975276816622e+03
 1.144946908260630e+03 -3.714679788529361e+02  2.918975276816622e+03
 1.144992360847785e+03 -3.717850744201729e+02  2.918975276816622e+03
 1.144999968621344e+03 -3.752542121157121e+02  2.918975276816622e+03
 1.145007603724069e+03 -3.778681800005965e+02  2.918975276816622e+03
 1.145033124763063e+03 -3.828939510065489e+02  2.918975276816622e+03
 1.145048801814239e+03 -3.834796706945358e+02  2.918975276816622e+03
1.145082826828363e+03 3.848350253591017e+02 2.918975276816622e+03
1.145115908232101e+03 3.813435371679265e+02 2.918975276816622e+03
1.145115997381660e+03 3.788108078279068e+02 2.918975276816622e+03
1.145136555841727e+03 3.778685572710377e+02 2.918975276816622e+03
1.145137006673089e+03 3.763968581618131e+02 2.918975276816622e+03
1.145181197606919e+03 3.736798269381031e+02 2.918975276816622e+03
1.145158870697723e+03 3.728418307851420e+02 2.918975276816622e+03
1.145200566771675e+03 3.712392372695092e+02 2.918975276816622e+03
1.145214972893548e+03 3.671949714658431e+02 2.918975276816622e+03
1.145262887708432e+03 3.653201588091893e+02 2.918975276816622e+03
1.145254415371250e+03 3.627848412948774e+02 2.918975276816622e+03
1.145318229671115e+03 3.599531484909566e+02 2.918975276816622e+03
1.145300834327149e+03 3.581747858030831e+02 2.918975276816622e+03
1.145340690739282e+03 3.571239403725542e+02 2.918975276816622e+03
1.145325847738192e+03 3.554375655505941e+02 2.918975276816622e+03
1.145377372930323e+03 3.537425212195774e+02 2.918975276816622e+03
1.145365272509388e+03 3.517012172894812e+02 2.918975276816622e+03
1.145387747525842e+03 3.504212212298041e+02 2.918975276816622e+03
1.145284098208863e+03 3.480856390407839e+02 2.918975276816622e+03
1.145450062846387e+03 3.467848982669188e+02 2.918975276816622e+03
1.145536637166361e+03 3.446398642066497e+02 2.918975276816622e+03
1.145443220963160e+03 3.435598623566463e+02 2.918975276816622e+03
1.145361691105477e+03 3.415430175446094e+02 2.918975276816622e+03
1.145490820732306e+03 3.399210157237849e+02 2.918975276816622e+03
1.145614702515508e+03 3.381813237645586e+02 2.918975276816622e+03
1.145536126393474e+03 3.346320558412746e+02 2.918975276816622e+03
1.145499959104267e+03 3.315316757438609e+02 2.918975276816622e+03
1.145601435000458e+03 3.260963465801890e+02 2.918975276816622e+03
1.145456481567675e+03 3.235154460777694e+02 2.918975276816622e+03
1.145596356291763e+03 3.214514484304486e+02 2.918975276816622e+03
1.145699639469187e+03 3.193529254432214e+02 2.918975276816622e+03
1.145608646852899e+03 3.186361655448563e+02 2.918975276816622e+03
1.145666425691408e+03 3.161445844200218e+02 2.918975276816622e+03
1.145678308287891e+03 3.134725421044520e+02 2.918975276816622e+03
1.145813085745838e+03 3.116762854245280e+02 2.918975276816622e+03
1.145630514115626e+03 3.117065882099910e+02 2.918975276816622e+03
1.145636141578784e+03 3.097863008114526e+02 2.918975276816622e+03
1.145618073428963e+03 3.078313019000680e+02 2.918975276816622e+03
1.145615603894540e+03 3.065205780843252e+02 2.918975276816622e+03
1.145603717073296e+03 3.021423604989015e+02 2.918975276816622e+03
1.145468624536189e+03 3.019328540504885e+02 2.918975276816622e+03
1.145481072670471e+03 2.989134879233291e+02 2.918975276816622e+03
1.145514124777200e+03 2.975053946958908e+02 2.918975276816622e+03
1.145487165396972e+03 2.952852258733600e+02 2.918975276816622e+03
1.145451563277668e+03 2.937550630441075e+02 2.918975276816622e+03
1.145436277155221e+03 2.919796148386039e+02 2.918975276816622e+03
1.145388290823563e+03 2.871029325676592e+02 2.918975276816622e+03
1.145366155147122e+03 2.849347968130922e+02 2.918975276816622e+03
1.145343393286910e+03 2.827449442583487e+02 2.918975276816622e+03
1.145327241971652e+03 2.812104975248635e+02 2.918975276816622e+03
1.145289788531706e+03 2.773781638667221e+02 2.918975276816622e+03
1.145272030873778e+03 2.752965892907149e+02 2.918975276816622e+03
1.145235141251500e+03 2.711880536880143e+02 2.918975276816622e+03
1.145187542331304e+03 2.665712650635411e+02 2.918975276816622e+03
1.145169765290265e+03 2.652753117232329e+02 2.918975276816622e+03
1.145159990246590e+03 2.623938581738822e+02 2.918975276816622e+03
1.145139278873394e+03 2.584048578150069e+02 2.918975276816622e+03
1.145084423632236e+03 2.579552372663239e+02 2.918975276816622e+03
1.145076403420202e+03 2.533052896718153e+02 2.918975276816622e+03
1.145076753464150e+03 2.512804805673819e+02 2.918975276816622e+03
1.145081967606361e+03 2.502996358649726e+02 2.918975276816622e+03
1.145034001246486e+03 2.485627164781468e+02 2.918975276816622e+03
1.145042646397186e+03 2.470870306656013e+02 2.918975276816622e+03
1.145073036763232e+03 2.458352847646418e+02 2.918975276816622e+03
1.145041183796315e+03 2.445522020412611e+02 2.918975276816622e+03
1.145016950055900e+03 2.428330849960603e+02 2.918975276816622e+03
1.145020955132825e+03 2.355125407578932e+02 2.918975276816622e+03
1.145020757226994e+03 2.338981296202389e+02 2.918975276816622e+03
1.145010013264170e+03 2.313443883957012e+02 2.918975276816622e+03
1.145016178402821e+03 2.285340335629599e+02 2.918975276816622e+03
1.145030878729469e+03 2.273147318124296e+02 2.918975276816622e+03
1.145005988445889e+03 2.263978147818078e+02 2.918975276816622e+03
1.145013260984988e+03 2.236086408224679e+02 2.918975276816622e+03
1.145010102878490e+03 2.216955945628190e+02 2.918975276816622e+03
1.145013883142963e+03 2.202616856503602e+02 2.918975276816622e+03
1.145011841029431e+03 2.157457106789630e+02 2.918975276816622e+03
1.145020897206618e+03 2.128724733427966e+02 2.918975276816622e+03
1.145000349681796e+03 2.112739732847021e+02 2.918975276816622e+03
1.144994101267499e+03 2.087061096918675e+02 2.918975276816622e+03
1.145027113158386e+03 2.075926970019862e+02 2.918975276816622e+03
1.145086116433821e+03 2.060693642951825e+02 2.918975276816622e+03
1.144901727553242e+03 2.061452359933359e+02 2.918975276816622e+03
1.144951408511484e+03 2.046001696434584e+02 2.918975276816622e+03
1.145020621980457e+03 2.039206844172176e+02 2.918975276816622e+03
1.144983283875086e+03 2.024909523918368e+02 2.918975276816622e+03
1.144953847025289e+03 2.009924783535438e+02 2.918975276816622e+03
1.144997745856266e+03 2.002539325203036e+02 2.918975276816622e+03
1.144974558530638e+03 1.953911522247260e+02 2.918975276816622e+03
1.144961880090497e+03 1.922380719919585e+02 2.918975276816622e+03
1.144974086142829e+03 1.879281459074565e+02 2.918975276816622e+03
1.144976883950001e+03 1.862664519864744e+02 2.918975276816622e+03
1.144970228648338e+03 1.836409485025275e+02 2.918975276816622e+03
1.144983908003210e+03 1.814906077167642e+02 2.918975276816622e+03
1.144990818728706e+03 1.803470383197404e+02 2.918975276816622e+03
1.145000078564801e+03 1.755872169896483e+02 2.918975276816622e+03
1.145009227757486e+03 1.726166248584010e+02 2.918975276816622e+03
1.145019854390068e+03 1.709895906027491e+02 2.918975276816622e+03
1.145024053386963e+03 1.689332693927467e+02 2.918975276816622e+03
1.145041514791696e+03 1.678490409102913e+02 2.918975276816622e+03
1.145045734779647e+03 1.662537661266013e+02 2.918975276816622e+03
1.145099957292268e+03 1.570096298116992e+02 2.918975276816622e+03
1.145043011568173e+03 1.545494479127034e+02 2.918975276816622e+03
1.145122874285778e+03 1.511149578629582e+02 2.918975276816622e+03
1.145171523109061e+03 1.475283666001989e+02 2.918975276816622e+03
1.145162147077976e+03 1.460267853590628e+02 2.918975276816622e+03
1.145099814175598e+03 1.439166653761238e+02 2.918975276816622e+03
1.145149649307942e+03 1.418355192873984e+02 2.918975276816622e+03
1.145152670272979e+03 1.404014794388812e+02 2.918975276816622e+03
1.145165669126807e+03 1.360028094336116e+02 2.918975276816622e+03
1.145166211163999e+03 1.328959089017952e+02 2.918975276816622e+03
1.145171219970611e+03 1.312572656181153e+02 2.918975276816622e+03
1.145130998370262e+03 1.289293599311780e+02 2.918975276816622e+03
1.145186844199488e+03 1.277138201044020e+02 2.918975276816622e+03
1.145207021115409e+03 1.263568114233558e+02 2.918975276816622e+03
1.145073051693950e+03 1.264116733604910e+02 2.918975276816622e+03
1.145144627741988e+03 1.250523821704469e+02 2.918975276816622e+03
1.145188207430783e+03 1.237038773668338e+02 2.918975276816622e+03
1.145158264614150e+03 1.218766231451971e+02 2.918975276816622e+03
1.145095134097545e+03 1.205312904874293e+02 2.918975276816622e+03
1.145252982022218e+03 1.159694008829989e+02 2.918975276816622e+03
1.145175687998453e+03 1.124074686378611e+02 2.918975276816622e+03
1.144992474483923e+03 1.105045413069101e+02 2.918975276816622e+03
1.145205460394625e+03 1.093396919264155e+02 2.918975276816622e+03
1.145316955046379e+03 1.068530344004216e+02 2.918975276816622e+03
1.145236014483044e+03 1.051178243772020e+02 2.918975276816622e+03
1.145246183603863e+03 1.019689789161603e+02 2.918975276816622e+03
1.145320644177015e+03 1.005568969050436e+02 2.918975276816622e+03
1.145353237766759e+03 9.560423160474861e+01 2.918975276816622e+03
1.145364138217227e+03 9.376276210661922e+01 2.918975276816622e+03
1.145518120376057e+03 8.353658853641224e+01 2.918975276816622e+03
1.145566849412006e+03 8.038722997348538e+01 2.918975276816622e+03
1.145635602642184e+03 7.595967736034576e+01 2.918975276816622e+03
1.145702659734447e+03 7.042713584098856e+01 2.918975276816622e+03
1.145688449658626e+03 6.462508886935947e+01 2.918975276816622e+03
1.145813011660988e+03 6.286580433010504e+01 2.918975276816622e+03
1.145876407478758e+03 5.510101659439169e+01 2.918975276816622e+03
1.145932859697025e+03 5.310977593256564e+01 2.918975276816622e+03
1.145959071590485e+03 5.066607184501063e+01 2.918975276816622e+03
1.145971457791245e+03 4.937028168652695e+01 2.918975276816622e+03
1.145919775861705e+03 4.775052355165300e+01 2.918975276816622e+03
1.145986594689356e+03 4.704045986523790e+01 2.918975276816622e+03
1.146003019183000e+03 4.414222011709715e+01 2.918975276816622e+03
1.146044618595823e+03 4.244269848203822e+01 2.918975276816622e+03
1.145920723999635e+03 4.203639651850859e+01 2.918975276816622e+03
1.146001652887042e+03 4.030205250687816e+01 2.918975276816622e+03
1.145988427718485e+03 3.823489077270380e+01 2.918975276816622e+03
1.146005233112450e+03 3.612711987799311e+01 2.918975276816622e+03
1.145977483005279e+03 3.385887752564039e+01 2.918975276816622e+03
1.145967500652721e+03 2.916299174860729e+01 2.918975276816622e+03
1.145953714867932e+03 2.711960499132837e+01 2.918975276816622e+03
1.145941858636113e+03 2.365668843302640e+01 2.918975276816622e+03
1.145918666232338e+03 2.092669886257286e+01 2.918975276816622e+03
1.145903524026559e+03 1.752000180151792e+01 2.918975276816622e+03
1.145865375097113e+03 1.293960459315703e+01 2.918975276816622e+03
1.145852935209967e+03 1.074420400141053e+01 2.918975276816622e+03
1.145808586569061e+03 9.672391907696603e+00 2.918975276816622e+03
1.145823886645043e+03 7.907529413633746e+00 2.918975276816622e+03
1.145754810184510e+03 4.497259950537737e+00 2.918975276816622e+03
1.145760559358429e+03 2.834800614324967e+00 2.918975276816622e+03
-1.157088305532941e+03  1.140382101988223e+00 -2.918975276816622e+03
-1.157014026565598e+03 -5.785251951285123e+00 -2.918975276816622e+03
-1.156846774484149e+03 -1.018373998183024e+01 -2.918975276816622e+03
-1.156963617128208e+03 -1.024671243825533e+01 -2.918975276816622e+03
-1.156994554019532e+03 -1.377865570961894e+01 -2.918975276816622e+03
-1.156908713168014e+03 -1.655865006621931e+01 -2.918975276816622e+03
-1.156972002256670e+03 -2.133068926594438e+01 -2.918975276816622e+03
-1.157057451208002e+03 -2.197365703830452e+01 -2.918975276816622e+03
-1.157020961382726e+03 -2.572961602712029e+01 -2.918975276816622e+03
-1.156982426510179e+03 -2.845244544436143e+01 -2.918975276816622e+03
-1.156982985130526e+03 -3.288641857191193e+01 -2.918975276816622e+03
-1.156987235676309e+03 -3.444391198431449e+01 -2.918975276816622e+03
-1.156996153704545e+03 -3.603901961056611e+01 -2.918975276816622e+03
-1.156989046785612e+03 -3.720288632640700e+01 -2.918975276816622e+03
-1.156917724419907e+03 -4.057076132891447e+01 -2.918975276816622e+03
-1.156947124487664e+03 -4.144217188464999e+01 -2.918975276816622e+03
-1.156917196579848e+03 -4.358556477346826e+01 -2.918975276816622e+03
-1.157005529095015e+03 -4.529483690568931e+01 -2.918975276816622e+03
-1.156846062341576e+03 -4.562834117796506e+01 -2.918975276816622e+03
-1.156927693378886e+03 -4.739846125149852e+01 -2.918975276816622e+03
-1.156868216864095e+03 -4.974450839535174e+01 -2.918975276816622e+03
-1.156928983977268e+03 -5.039921800199520e+01 -2.918975276816622e+03
-1.156812346455727e+03 -5.206479307373056e+01 -2.918975276816622e+03
-1.156859594770166e+03 -5.509399641866138e+01 -2.918975276816622e+03
-1.156773188320606e+03 -5.617109078627266e+01 -2.918975276816622e+03
-1.156846446139681e+03 -5.864277643894395e+01 -2.918975276816622e+03
-1.156762502524083e+03 -6.048263740283458e+01 -2.918975276816622e+03
-1.156801788676398e+03 -6.136232157432445e+01 -2.918975276816622e+03
-1.156671392326006e+03 -6.347340292415740e+01 -2.918975276816622e+03
-1.156750539836383e+03 -6.491855101676707e+01 -2.918975276816622e+03
-1.156706094998910e+03 -6.580704923145665e+01 -2.918975276816622e+03
-1.156772029411570e+03 -6.743443453473915e+01 -2.918975276816622e+03
-1.156667092395070e+03 -6.979717209356569e+01 -2.918975276816622e+03
-1.156688760124897e+03 -7.049083355412861e+01 -2.918975276816622e+03
-1.156577343458095e+03 -7.201902714034540e+01 -2.918975276816622e+03
-1.156690476754787e+03 -7.314382461332400e+01 -2.918975276816622e+03
-1.156640580412978e+03 -7.528890663624372e+01 -2.918975276816622e+03
-1.156672053043091e+03 -7.620591169428918e+01 -2.918975276816622e+03
-1.156577863929582e+03 -7.687081540128783e+01 -2.918975276816622e+03
-1.156642517171756e+03 -7.863115374186840e+01 -2.918975276816622e+03
-1.156642876058453e+03 -8.040484542097713e+01 -2.918975276816622e+03
-1.156639097633002e+03 -8.127800570139850e+01 -2.918975276816622e+03
-1.156596158107071e+03 -8.344516565379116e+01 -2.918975276816622e+03
-1.156602827332096e+03 -8.482515676275406e+01 -2.918975276816622e+03
-1.156566129868235e+03 -8.595758155237419e+01 -2.918975276816622e+03
-1.156602684747096e+03 -8.737903269133557e+01 -2.918975276816622e+03
-1.156597949475468e+03 -8.975717514343937e+01 -2.918975276816622e+03
-1.156567906057212e+03 -9.037985680529354e+01 -2.918975276816622e+03
-1.156544422289696e+03 -9.198900385689255e+01 -2.918975276816622e+03
-1.156557588840067e+03 -9.525113104904104e+01 -2.918975276816622e+03
-1.156549399389289e+03 -9.640543069254913e+01 -2.918975276816622e+03
-1.156510311039723e+03 -9.897947783606516e+01 -2.918975276816622e+03
-1.156459480865288e+03 -1.011613896072967e+02 -2.918975276816622e+03
-1.156567073213585e+03 -1.012914090783150e+02 -2.918975276816622e+03
-1.156537328866097e+03 -1.035419512322382e+02 -2.918975276816622e+03
-1.156470979337531e+03 -1.052566442270141e+02 -2.918975276816622e+03
-1.156467631834805e+03 -1.066233439403535e+02 -2.918975276816622e+03
-1.156537917134878e+03 -1.071382496837351e+02 -2.918975276816622e+03
-1.156500841511827e+03 -1.095285121799417e+02 -2.918975276816622e+03
-1.156451616869496e+03 -1.108323423093333e+02 -2.918975276816622e+03
-1.156463881652717e+03 -1.129001702972151e+02 -2.918975276816622e+03
-1.156499293211390e+03 -1.134910432736619e+02 -2.918975276816622e+03
-1.156484403925643e+03 -1.182545491202599e+02 -2.918975276816622e+03
-1.156460635010826e+03 -1.204221679830875e+02 -2.918975276816622e+03
-1.156454810769981e+03 -1.212279817140166e+02 -2.918975276816622e+03
-1.156453485610630e+03 -1.234328843493635e+02 -2.918975276816622e+03
-1.156523225670243e+03 -1.250161475280640e+02 -2.918975276816622e+03
-1.156432473664896e+03 -1.259382508240511e+02 -2.918975276816622e+03
-1.156483293157617e+03 -1.272949643931869e+02 -2.918975276816622e+03
-1.156456198842823e+03 -1.298535813998005e+02 -2.918975276816622e+03
-1.156536551367899e+03 -1.316267926550425e+02 -2.918975276816622e+03
-1.156411494088605e+03 -1.324327174071995e+02 -2.918975276816622e+03
-1.156520631236848e+03 -1.332747213723196e+02 -2.918975276816622e+03
-1.156471738542169e+03 -1.351890397279427e+02 -2.918975276816622e+03
-1.156535714807271e+03 -1.361900482439267e+02 -2.918975276816622e+03
-1.156434195756766e+03 -1.385148220901390e+02 -2.918975276816622e+03
-1.156559985627657e+03 -1.404214406226081e+02 -2.918975276816622e+03
-1.156486974943284e+03 -1.413327488985348e+02 -2.918975276816622e+03
-1.156608757700219e+03 -1.435068258219382e+02 -2.918975276816622e+03
-1.156495203808527e+03 -1.449984975897342e+02 -2.918975276816622e+03
-1.156600927666904e+03 -1.458269706310780e+02 -2.918975276816622e+03
-1.156507121974748e+03 -1.476740612764551e+02 -2.918975276816622e+03
-1.156660562937966e+03 -1.516182148807918e+02 -2.918975276816622e+03
-1.156596266965760e+03 -1.550010330261006e+02 -2.918975276816622e+03
-1.156663034719206e+03 -1.562140056464248e+02 -2.918975276816622e+03
-1.156507011848634e+03 -1.585969780998582e+02 -2.918975276816622e+03
-1.156641115603419e+03 -1.604408766315175e+02 -2.918975276816622e+03
-1.156627159171938e+03 -1.610201096526577e+02 -2.918975276816622e+03
-1.156701600217835e+03 -1.633651026950239e+02 -2.918975276816622e+03
-1.156587708465582e+03 -1.643814120483502e+02 -2.918975276816622e+03
-1.156695228068951e+03 -1.659329431438943e+02 -2.918975276816622e+03
-1.156636765025720e+03 -1.674218400371359e+02 -2.918975276816622e+03
-1.156695795906654e+03 -1.701054828634608e+02 -2.918975276816622e+03
-1.156646136728310e+03 -1.725057013055244e+02 -2.918975276816622e+03
-1.156671174411018e+03 -1.732282324896781e+02 -2.918975276816622e+03
-1.156685474986941e+03 -1.770134831849596e+02 -2.918975276816622e+03
-1.156802520952828e+03 -1.820200200956342e+02 -2.918975276816622e+03
-1.156738963324121e+03 -1.839604713715221e+02 -2.918975276816622e+03
-1.156711078813078e+03 -1.865901232854186e+02 -2.918975276816622e+03
-1.156796131902533e+03 -1.869292278016877e+02 -2.918975276816622e+03
-1.156740174811954e+03 -1.893481691732889e+02 -2.918975276816622e+03
-1.156740481646447e+03 -1.914998512421086e+02 -2.918975276816622e+03
-1.156691277721291e+03 -1.948637370933869e+02 -2.918975276816622e+03
-1.156691836271253e+03 -1.973341701799003e+02 -2.918975276816622e+03
-1.156701566364501e+03 -1.985450647008147e+02 -2.918975276816622e+03
-1.156734845819089e+03 -2.003201683601787e+02 -2.918975276816622e+03
-1.156659420327528e+03 -2.009376529679064e+02 -2.918975276816622e+03
-1.156601020503478e+03 -2.032364621890707e+02 -2.918975276816622e+03
-1.156666965886905e+03 -2.044936090901688e+02 -2.918975276816622e+03
-1.156764816206868e+03 -2.055606825604036e+02 -2.918975276816622e+03
-1.156639182171592e+03 -2.073768188176764e+02 -2.918975276816622e+03
-1.156593704622543e+03 -2.097371049627970e+02 -2.918975276816622e+03
-1.156480298868040e+03 -2.182393027758410e+02 -2.918975276816622e+03
-1.156383019517858e+03 -2.208271852525264e+02 -2.918975276816622e+03
-1.156477369617377e+03 -2.208132184516847e+02 -2.918975276816622e+03
-1.156458930669521e+03 -2.233864004054607e+02 -2.918975276816622e+03
-1.156437512083667e+03 -2.269459265040243e+02 -2.918975276816622e+03
-1.156464492931847e+03 -2.300817363200703e+02 -2.918975276816622e+03
-1.156522631836754e+03 -2.410249162107401e+02 -2.918975276816622e+03
-1.156552646845879e+03 -2.441559066519667e+02 -2.918975276816622e+03
-1.156607184716418e+03 -2.468258938924242e+02 -2.918975276816622e+03
-1.156587306215027e+03 -2.492683790464377e+02 -2.918975276816622e+03
-1.156592021386412e+03 -2.504047135289395e+02 -2.918975276816622e+03
-1.156622471155711e+03 -2.517205747766013e+02 -2.918975276816622e+03
-1.156714995946967e+03 -2.546954849959373e+02 -2.918975276816622e+03
-1.156625199314368e+03 -2.563910816061555e+02 -2.918975276816622e+03
-1.156671333891009e+03 -2.604195488708565e+02 -2.918975276816622e+03
-1.156695993760474e+03 -2.649166599892504e+02 -2.918975276816622e+03
-1.156734104862352e+03 -2.668886873112813e+02 -2.918975276816622e+03
-1.156728453375111e+03 -2.684477850336397e+02 -2.918975276816622e+03
-1.156780062044208e+03 -2.695881503398020e+02 -2.918975276816622e+03
-1.156622241169722e+03 -2.703831455279439e+02 -2.918975276816622e+03
-1.156765593061321e+03 -2.717332564359972e+02 -2.918975276816622e+03
-1.156681165161874e+03 -2.733177601514656e+02 -2.918975276816622e+03
-1.156823863693678e+03 -2.771211197353987e+02 -2.918975276816622e+03
-1.156671094231569e+03 -2.794598009499779e+02 -2.918975276816622e+03
-1.156747929551968e+03 -2.819281138741004e+02 -2.918975276816622e+03
-1.156643941922326e+03 -2.860190813342094e+02 -2.918975276816622e+03
-1.156828448384228e+03 -2.864768655856690e+02 -2.918975276816622e+03
-1.156668035039281e+03 -2.892392495671859e+02 -2.918975276816622e+03
-1.156679018613619e+03 -2.932638291729372e+02 -2.918975276816622e+03
-1.156658296363662e+03 -2.948764821531855e+02 -2.918975276816622e+03
-1.156636084710067e+03 -3.010630440187039e+02 -2.918975276816622e+03
-1.156624974417286e+03 -3.018140324111853e+02 -2.918975276816622e+03
-1.156622508157375e+03 -3.039401945072458e+02 -2.918975276816622e+03
-1.156596138335549e+03 -3.054736448017468e+02 -2.918975276816622e+03
-1.156599263031972e+03 -3.078539302870266e+02 -2.918975276816622e+03
-1.156569028210870e+03 -3.095307876191582e+02 -2.918975276816622e+03
-1.156569898844166e+03 -3.151909757134304e+02 -2.918975276816622e+03
-1.156544903650442e+03 -3.177554015063783e+02 -2.918975276816622e+03
-1.156498948205827e+03 -3.189387036956609e+02 -2.918975276816622e+03
-1.156517444744859e+03 -3.201175099476415e+02 -2.918975276816622e+03
-1.156563850344963e+03 -3.219287672855237e+02 -2.918975276816622e+03
-1.156543601629265e+03 -3.236194094455371e+02 -2.918975276816622e+03
-1.156515117575385e+03 -3.243943681023002e+02 -2.918975276816622e+03
-1.156446069818903e+03 -3.261874005347069e+02 -2.918975276816622e+03
-1.156496620878944e+03 -3.269727135734216e+02 -2.918975276816622e+03
-1.156491717600314e+03 -3.288492061934027e+02 -2.918975276816622e+03
-1.156533223875065e+03 -3.299074188200436e+02 -2.918975276816622e+03
-1.156444672471526e+03 -3.312527932940646e+02 -2.918975276816622e+03
-1.156480557929945e+03 -3.345977806964547e+02 -2.918975276816622e+03
-1.156466701606269e+03 -3.351813191323200e+02 -2.918975276816622e+03
-1.156520112054823e+03 -3.365156922111064e+02 -2.918975276816622e+03
-1.156453319286409e+03 -3.384474388520539e+02 -2.918975276816622e+03
-1.156497012936258e+03 -3.413473892784398e+02 -2.918975276816622e+03
-1.156476330240154e+03 -3.427599952677460e+02 -2.918975276816622e+03
-1.156470176152007e+03 -3.440943695592492e+02 -2.918975276816622e+03
-1.156402951642902e+03 -3.485526446085241e+02 -2.918975276816622e+03
-1.156525209933287e+03 -3.486517592888156e+02 -2.918975276816622e+03
-1.156538581105105e+03 -3.533322712408678e+02 -2.918975276816622e+03
-1.156568687529911e+03 -3.575666672555666e+02 -2.918975276816622e+03
-1.156577685169524e+03 -3.587056757787797e+02 -2.918975276816622e+03
-1.156609582717446e+03 -3.622827121661934e+02 -2.918975276816622e+03
-1.156598073478676e+03 -3.629054751722288e+02 -2.918975276816622e+03
-1.156634750626059e+03 -3.647495645095162e+02 -2.918975276816622e+03
-1.156638112209604e+03 -3.672247463806679e+02 -2.918975276816622e+03
-1.156671583372773e+03 -3.710792906462945e+02 -2.918975276816622e+03
-1.156654588041764e+03 -3.725455423850743e+02 -2.918975276816622e+03
-1.156704658193272e+03 -3.742475035472759e+02 -2.918975276816622e+03
-1.156774223475778e+03 -3.766758539152738e+02 -2.918975276816622e+03
-1.156711390129450e+03 -3.775509968128222e+02 -2.918975276816622e+03
-1.156667723961100e+03 -3.799599810660025e+02 -2.918975276816622e+03
-1.156778377877262e+03 -3.802248951594919e+02 -2.918975276816622e+03
-1.156747584495859e+03 -3.823780879801755e+02 -2.918975276816622e+03
-1.156736675127561e+03 -3.861364175045182e+02 -2.918975276816622e+03
-1.156750444941573e+03  3.833440300081280e+02 -2.918975276816622e+03
-1.156755240218180e+03  3.823240542341929e+02 -2.918975276816622e+03
-1.156762357925158e+03  3.786842465422488e+02 -2.918975276816622e+03
-1.156725848248596e+03  3.775916095350313e+02 -2.918975276816622e+03
-1.156760662355076e+03  3.765369073312203e+02 -2.918975276816622e+03
-1.156759435264582e+03  3.735986394492609e+02 -2.918975276816622e+03
-1.156753999077275e+03  3.694953286478325e+02 -2.918975276816622e+03
-1.156740568096286e+03  3.642141452168639e+02 -2.918975276816622e+03
-1.156726945260744e+03  3.602380779500575e+02 -2.918975276816622e+03
-1.156734188249453e+03  3.564605968045534e+02 -2.918975276816622e+03
-1.156731935753447e+03  3.552554624880630e+02 -2.918975276816622e+03
-1.156720958718202e+03  3.531716936138679e+02 -2.918975276816622e+03
-1.156702715186027e+03  3.470539849557263e+02 -2.918975276816622e+03
-1.156696451555477e+03  3.433728457818968e+02 -2.918975276816622e+03
-1.156682081131338e+03  3.380514721895883e+02 -2.918975276816622e+03
-1.156673495379246e+03  3.354031260262468e+02 -2.918975276816622e+03
-1.156656156692643e+03  3.277309343603524e+02 -2.918975276816622e+03
-1.156657934670328e+03  3.265204242321790e+02 -2.918975276816622e+03
-1.156653320873070e+03  3.231761583181134e+02 -2.918975276816622e+03
-1.156654121588839e+03  3.220615031074018e+02 -2.918975276816622e+03
-1.156651479901685e+03  3.199692235182497e+02 -2.918975276816622e+03
-1.156652303621279e+03  3.173179909258694e+02 -2.918975276816622e+03
-1.156653627090772e+03  3.124389385205874e+02 -2.918975276816622e+03
-1.156662794770081e+03  3.105276413826621e+02 -2.918975276816622e+03
-1.156658851960347e+03  3.077263085729149e+02 -2.918975276816622e+03
-1.156618791317961e+03  3.028061689328144e+02 -2.918975276816622e+03
-1.156702189850291e+03  3.026796758333929e+02 -2.918975276816622e+03
-1.156706100754709e+03  2.977322531043798e+02 -2.918975276816622e+03
-1.156689491309198e+03  2.954026018639796e+02 -2.918975276816622e+03
-1.156716375697779e+03  2.942770916099566e+02 -2.918975276816622e+03
-1.156621105238195e+03  2.917330948764112e+02 -2.918975276816622e+03
-1.156758051591499e+03  2.901734465161031e+02 -2.918975276816622e+03
-1.156785021852196e+03  2.879376951913325e+02 -2.918975276816622e+03
-1.156783641163537e+03  2.864820645640273e+02 -2.918975276816622e+03
-1.156634076516990e+03  2.844357533026345e+02 -2.918975276816622e+03
-1.156855801109414e+03  2.819496593532521e+02 -2.918975276816622e+03
-1.156788548579280e+03  2.780733384462751e+02 -2.918975276816622e+03
-1.156863010765873e+03  2.777780202414826e+02 -2.918975276816622e+03
-1.156723130982584e+03  2.753304785757572e+02 -2.918975276816622e+03
-1.156934709558229e+03  2.739100588099466e+02 -2.918975276816622e+03
-1.156817619460320e+03  2.716380824170395e+02 -2.918975276816622e+03
-1.156883926552679e+03  2.713291770413575e+02 -2.918975276816622e+03
-1.156717610995157e+03  2.695800029157689e+02 -2.918975276816622e+03
-1.156923397231215e+03  2.661249453916602e+02 -2.918975276816622e+03
-1.156769449757195e+03  2.648922083539023e+02 -2.918975276816622e+03
-1.156785722529658e+03  2.625993942775734e+02 -2.918975276816622e+03
-1.156768703271352e+03  2.608317057139818e+02 -2.918975276816622e+03
-1.157090823924209e+03  2.600613777434062e+02 -2.918975276816622e+03
-1.156880138361522e+03  2.577015802210536e+02 -2.918975276816622e+03
-1.156993573142997e+03  2.568840765637770e+02 -2.918975276816622e+03
-1.156838518911673e+03  2.552834730690490e+02 -2.918975276816622e+03
-1.156984921171402e+03  2.541333169778316e+02 -2.918975276816622e+03
-1.156862920314665e+03  2.516667594092993e+02 -2.918975276816622e+03
-1.156911288876644e+03  2.507817082727186e+02 -2.918975276816622e+03
-1.156898777309530e+03  2.503032888210080e+02 -2.918975276816622e+03
-1.156896073904917e+03  2.473966499590415e+02 -2.918975276816622e+03
-1.156773452635725e+03  2.459937182211544e+02 -2.918975276816622e+03
-1.156788728943981e+03  2.443172894969397e+02 -2.918975276816622e+03
-1.156891623990107e+03  2.431181854713952e+02 -2.918975276816622e+03
-1.156820012113860e+03  2.408900358732116e+02 -2.918975276816622e+03
-1.156656288249858e+03  2.400412983060959e+02 -2.918975276816622e+03
-1.156681767384590e+03  2.385133191014353e+02 -2.918975276816622e+03
-1.156671905248005e+03  2.354445576354905e+02 -2.918975276816622e+03
-1.156602898778774e+03  2.342576440100143e+02 -2.918975276816622e+03
-1.156581590487517e+03  2.316967456810459e+02 -2.918975276816622e+03
-1.156547664939678e+03  2.298069376289828e+02 -2.918975276816622e+03
-1.156574031781072e+03  2.291811190802241e+02 -2.918975276816622e+03
-1.156458822473796e+03  2.269993591729990e+02 -2.918975276816622e+03
-1.156482335767587e+03  2.256851170892351e+02 -2.918975276816622e+03
-1.156474068601811e+03  2.248959080274387e+02 -2.918975276816622e+03
-1.156485171084918e+03  2.232893004846671e+02 -2.918975276816622e+03
-1.156370684178496e+03  2.207155917357101e+02 -2.918975276816622e+03
-1.156444921301504e+03  2.196825442220801e+02 -2.918975276816622e+03
-1.156308262071146e+03  2.183563852051198e+02 -2.918975276816622e+03
-1.156178709235387e+03  2.154339313510831e+02 -2.918975276816622e+03
-1.156272307766269e+03  2.144064992910423e+02 -2.918975276816622e+03
-1.156335036078276e+03  2.119882711529974e+02 -2.918975276816622e+03
-1.156227409486199e+03  2.099847168020859e+02 -2.918975276816622e+03
-1.156226390408401e+03  2.091599946923805e+02 -2.918975276816622e+03
-1.156139431263349e+03  2.070569414994868e+02 -2.918975276816622e+03
-1.156237758157280e+03  2.053463350786104e+02 -2.918975276816622e+03
-1.156123614279171e+03  2.044614472559114e+02 -2.918975276816622e+03
-1.156132834868436e+03  2.034389725579293e+02 -2.918975276816622e+03
-1.156102125762487e+03  2.008091913766293e+02 -2.918975276816622e+03
-1.156143896958006e+03  1.998763305575903e+02 -2.918975276816622e+03
-1.156111334805683e+03  1.980761777310346e+02 -2.918975276816622e+03
-1.156088997787476e+03  1.950310656435516e+02 -2.918975276816622e+03
-1.156070089558133e+03  1.902874018602057e+02 -2.918975276816622e+03
-1.156059702826310e+03  1.872683452315326e+02 -2.918975276816622e+03
-1.156061092649677e+03  1.859117155855798e+02 -2.918975276816622e+03
-1.156033206164186e+03  1.845709530511751e+02 -2.918975276816622e+03
-1.156062881544564e+03  1.831909745738185e+02 -2.918975276816622e+03
-1.156054285600271e+03  1.808640029806565e+02 -2.918975276816622e+03
-1.156060449850140e+03  1.802039414861632e+02 -2.918975276816622e+03
-1.156018023771609e+03  1.788052597036216e+02 -2.918975276816622e+03
-1.156047924189807e+03  1.753883462680546e+02 -2.918975276816622e+03
-1.156031979369720e+03  1.743702224119993e+02 -2.918975276816622e+03
-1.156090206680311e+03  1.719400484410360e+02 -2.918975276816622e+03
-1.156030148887605e+03  1.701115203488347e+02 -2.918975276816622e+03
-1.155990467505231e+03  1.691481356415452e+02 -2.918975276816622e+03
-1.156039465962021e+03  1.671124991440739e+02 -2.918975276816622e+03
-1.156083161069814e+03  1.657505465745053e+02 -2.918975276816622e+03
-1.156038719255259e+03  1.646241555346692e+02 -2.918975276816622e+03
-1.156041685979860e+03  1.632571760917775e+02 -2.918975276816622e+03
-1.156053956489469e+03  1.608849597895081e+02 -2.918975276816622e+03
-1.156076869560856e+03  1.600772058691460e+02 -2.918975276816622e+03
-1.156074121242656e+03  1.585812310685124e+02 -2.918975276816622e+03
-1.156067552091620e+03  1.556739265240518e+02 -2.918975276816622e+03
-1.156077840563681e+03  1.544719867480246e+02 -2.918975276816622e+03
-1.156076122563869e+03  1.519143024939528e+02 -2.918975276816622e+03
-1.156131643005444e+03  1.501595912018790e+02 -2.918975276816622e+03
-1.156077159534197e+03  1.493417561094624e+02 -2.918975276816622e+03
-1.156103066543207e+03  1.470999827721014e+02 -2.918975276816622e+03
-1.156093740232050e+03  1.456013227667056e+02 -2.918975276816622e+03
-1.156178159695048e+03  1.447777327134241e+02 -2.918975276816622e+03
-1.156090508443834e+03  1.433463240245788e+02 -2.918975276816622e+03
-1.156146542065334e+03  1.408416251021988e+02 -2.918975276816622e+03
-1.156118117078063e+03  1.400566842397882e+02 -2.918975276816622e+03
-1.156208010923247e+03  1.385139768462468e+02 -2.918975276816622e+03
-1.156129998500233e+03  1.354908220974130e+02 -2.918975276816622e+03
-1.156220764412076e+03  1.343291842661629e+02 -2.918975276816622e+03
-1.156153609956742e+03  1.318511058724989e+02 -2.918975276816622e+03
-1.156304422791919e+03  1.296485616480874e+02 -2.918975276816622e+03
-1.156167004378382e+03  1.292148441255709e+02 -2.918975276816622e+03
-1.156298526319838e+03  1.270670074425770e+02 -2.918975276816622e+03
-1.156231062268744e+03  1.258543200556156e+02 -2.918975276816622e+03
-1.156376410694016e+03  1.243924679403768e+02 -2.918975276816622e+03
-1.156222579913569e+03  1.231270382730105e+02 -2.918975276816622e+03
-1.156364661025121e+03  1.209622033319847e+02 -2.918975276816622e+03
-1.156282331600097e+03  1.200761366036906e+02 -2.918975276816622e+03
-1.156429348841955e+03  1.187815752782957e+02 -2.918975276816622e+03
-1.156341301339936e+03  1.153608372235967e+02 -2.918975276816622e+03
-1.156448384751992e+03  1.143948431805185e+02 -2.918975276816622e+03
-1.156308835495349e+03  1.118702982511610e+02 -2.918975276816622e+03
-1.156446047903916e+03  1.105273389634963e+02 -2.918975276816622e+03
-1.156423124618156e+03  1.096215559266962e+02 -2.918975276816622e+03
-1.156568665077051e+03  1.075036723270976e+02 -2.918975276816622e+03
-1.156423227172684e+03  1.061904191941255e+02 -2.918975276816622e+03
-1.156472017802947e+03  1.047294163425132e+02 -2.918975276816622e+03
-1.156462132639090e+03  1.033299822055336e+02 -2.918975276816622e+03
-1.156598668714847e+03  1.011076019117393e+02 -2.918975276816622e+03
-1.156475812217511e+03  1.003658673186924e+02 -2.918975276816622e+03
-1.156567589679360e+03  9.824327838731826e+01 -2.918975276816622e+03
-1.156524339889122e+03  9.698112224988282e+01 -2.918975276816622e+03
-1.156611854011169e+03  9.517535579090321e+01 -2.918975276816622e+03
-1.156552918759212e+03  9.118400659302831e+01 -2.918975276816622e+03
-1.156599421497138e+03  8.995587712735660e+01 -2.918975276816622e+03
-1.156581705473812e+03  8.804201593355516e+01 -2.918975276816622e+03
-1.156689777474692e+03  8.665377116789411e+01 -2.918975276816622e+03
-1.156522447891396e+03  8.655352220426944e+01 -2.918975276816622e+03
-1.156608105237230e+03  8.516652168679300e+01 -2.918975276816622e+03
-1.156638974650817e+03  8.267633562096151e+01 -2.918975276816622e+03
-1.156674539076610e+03  7.914037066369974e+01 -2.918975276816622e+03
-1.156716170482695e+03  7.355729991162956e+01 -2.918975276816622e+03
-1.156731689498090e+03  7.166477328200510e+01 -2.918975276816622e+03
-1.156752390520619e+03  6.912789815786547e+01 -2.918975276816622e+03
-1.156772257659304e+03  6.724303129648239e+01 -2.918975276816622e+03
-1.156809322538257e+03  6.339980335020798e+01 -2.918975276816622e+03
-1.156794148489731e+03  6.276516293450471e+01 -2.918975276816622e+03
-1.156834352336572e+03  5.825510545824787e+01 -2.918975276816622e+03
-1.156858300841951e+03  5.635186944127609e+01 -2.918975276816622e+03
-1.156907001170559e+03  5.354751331164627e+01 -2.918975276816622e+03
-1.156895449804943e+03  5.095468386559917e+01 -2.918975276816622e+03
-1.156933056726826e+03  4.968596355038876e+01 -2.918975276816622e+03
-1.156922843149790e+03  4.793426241125375e+01 -2.918975276816622e+03
-1.156970578200098e+03  4.659651076749292e+01 -2.918975276816622e+03
-1.156946115471907e+03  4.421877111519763e+01 -2.918975276816622e+03
-1.156988451117328e+03  4.213192768477319e+01 -2.918975276816622e+03
-1.156993702233804e+03  4.162019482275181e+01 -2.918975276816622e+03
-1.157036922308077e+03  3.894190862250048e+01 -2.918975276816622e+03
-1.157035381750593e+03  3.612031764495800e+01 -2.918975276816622e+03
-1.157087505623381e+03  2.988197101022979e+01 -2.918975276816622e+03
-1.157096447970309e+03  2.878198280629314e+01 -2.918975276816622e+03
-1.157123937879280e+03  2.362586808611616e+01 -2.918975276816622e+03
-1.157168252405904e+03  1.901837112415419e+01 -2.918975276816622e+03
-1.157135009250335e+03  1.737766805451922e+01 -2.918975276816622e+03
-1.157039289184587e+03  1.570302219410820e+01 -2.918975276816622e+03
-1.157130482210253e+03  1.440490214409878e+01 -2.918975276816622e+03
-1.157229133473026e+03  1.388032146698728e+01 -2.918975276816622e+03
-1.157163768264764e+03  1.199374556506561e+01 -2.918975276816622e+03
-1.157125282645536e+03  7.573512496297431e+00 -2.918975276816622e+03
1.154291405676900e+03 5.926847561672343e-01 2.918975276816622e+03
 1.154494399750524e+03 -1.565721888425485e+00  2.918975276816622e+03
 1.154469716810116e+03 -2.051781575097768e+00  2.918975276816622e+03
 1.154428788579422e+03 -4.568813644022448e+00  2.918975276816622e+03
 1.154374183398159e+03 -9.306219000221535e+00  2.918975276816622e+03
 1.154260630769416e+03 -1.649899422349523e+01  2.918975276816622e+03
 1.154183891242271e+03 -2.116853810801045e+01  2.918975276816622e+03
 1.154054249360869e+03 -2.653278010760748e+01  2.918975276816622e+03
 1.154128175911656e+03 -2.664807883775002e+01  2.918975276816622e+03
 1.154072518528390e+03 -3.023159128415417e+01  2.918975276816622e+03
 1.154007719455584e+03 -3.482462719980295e+01  2.918975276816622e+03
 1.153977234509595e+03 -3.782921710674417e+01  2.918975276816622e+03
 1.153923834510591e+03 -4.290127481207731e+01  2.918975276816622e+03
 1.153913248248431e+03 -4.586824400287833e+01  2.918975276816622e+03
 1.153856402391254e+03 -4.901893852755811e+01  2.918975276816622e+03
 1.153875059901867e+03 -5.103444007294353e+01  2.918975276816622e+03
 1.153821635298931e+03 -5.269936435731954e+01  2.918975276816622e+03
 1.153855701322188e+03 -5.419245799574904e+01  2.918975276816622e+03
 1.153778830737439e+03 -5.661426652373478e+01  2.918975276816622e+03
 1.153827037821378e+03 -5.877085478391891e+01  2.918975276816622e+03
 1.153765757760975e+03 -6.057312920435285e+01  2.918975276816622e+03
 1.153809843825478e+03 -6.176486351896349e+01  2.918975276816622e+03
 1.153737498187603e+03 -6.337551919825849e+01  2.918975276816622e+03
 1.153789078533178e+03 -6.529014325439852e+01  2.918975276816622e+03
 1.153751699817317e+03 -6.634913668386496e+01  2.918975276816622e+03
 1.153773737887892e+03 -6.928323694842247e+01  2.918975276816622e+03
 1.153732493399621e+03 -7.088838183356192e+01  2.918975276816622e+03
 1.153760173373014e+03 -7.197157085731168e+01  2.918975276816622e+03
 1.153711412925092e+03 -7.450189315343317e+01  2.918975276816622e+03
 1.153737403977668e+03 -7.810517119508746e+01  2.918975276816622e+03
 1.153716475432130e+03 -8.073604695711656e+01  2.918975276816622e+03
 1.153726362884568e+03 -8.184832820287961e+01  2.918975276816622e+03
 1.153700249532393e+03 -8.477235710755592e+01  2.918975276816622e+03
 1.153714924038514e+03 -8.601384806452097e+01  2.918975276816622e+03
 1.153687712210045e+03 -8.892531575701479e+01  2.918975276816622e+03
 1.153706178286288e+03 -9.067992441511554e+01  2.918975276816622e+03
 1.153684354049464e+03 -9.233761633166667e+01  2.918975276816622e+03
 1.153697312969922e+03 -9.467558700322343e+01  2.918975276816622e+03
 1.153675640125135e+03 -9.736870650459529e+01  2.918975276816622e+03
 1.153688417789299e+03 -9.787393777187924e+01  2.918975276816622e+03
 1.153668488208372e+03 -1.004408269489123e+02  2.918975276816622e+03
 1.153670426076608e+03 -1.036988168398556e+02  2.918975276816622e+03
 1.153656813989272e+03 -1.051232267082892e+02  2.918975276816622e+03
 1.153667921589661e+03 -1.060742452388945e+02  2.918975276816622e+03
 1.153649757635896e+03 -1.089592519081735e+02  2.918975276816622e+03
 1.153651184475364e+03 -1.105161872756234e+02  2.918975276816622e+03
 1.153639093106316e+03 -1.122036920853883e+02  2.918975276816622e+03
 1.153640812579615e+03 -1.146487554142775e+02  2.918975276816622e+03
 1.153633378998255e+03 -1.172327295704326e+02  2.918975276816622e+03
 1.153619524974589e+03 -1.204126207107389e+02  2.918975276816622e+03
 1.153561474165137e+03 -1.248950874270861e+02  2.918975276816622e+03
 1.153635991237119e+03 -1.249972352570128e+02  2.918975276816622e+03
 1.153620555426693e+03 -1.289904896041604e+02  2.918975276816622e+03
 1.153610677613260e+03 -1.331056029751228e+02  2.918975276816622e+03
 1.153610871649293e+03 -1.428711936271054e+02  2.918975276816622e+03
 1.153623487855970e+03 -1.447120633866832e+02  2.918975276816622e+03
 1.153605485893273e+03 -1.488646660109955e+02  2.918975276816622e+03
 1.153628691465785e+03 -1.506781941459538e+02  2.918975276816622e+03
 1.153602009070062e+03 -1.523089460981182e+02  2.918975276816622e+03
 1.153630946124332e+03 -1.544228467505724e+02  2.918975276816622e+03
 1.153576421379614e+03 -1.578041772951920e+02  2.918975276816622e+03
 1.153631384098451e+03 -1.603508733462900e+02  2.918975276816622e+03
 1.153621758846713e+03 -1.616675757116721e+02  2.918975276816622e+03
 1.153613444289618e+03 -1.624614895175947e+02  2.918975276816622e+03
 1.153572827718752e+03 -1.636026889482214e+02  2.918975276816622e+03
 1.153656488306294e+03 -1.655851864166418e+02  2.918975276816622e+03
 1.153578632149482e+03 -1.663872067176015e+02  2.918975276816622e+03
 1.153622598767284e+03 -1.686834473999427e+02  2.918975276816622e+03
 1.153581819928447e+03 -1.705078443210697e+02  2.918975276816622e+03
 1.153662247446754e+03 -1.721109810437932e+02  2.918975276816622e+03
 1.153574729707940e+03 -1.743387980681745e+02  2.918975276816622e+03
 1.153665415349109e+03 -1.781689718318229e+02  2.918975276816622e+03
 1.153578588820420e+03 -1.805351785098919e+02  2.918975276816622e+03
 1.153647977149542e+03 -1.841683359015560e+02  2.918975276816622e+03
 1.153565968285600e+03 -1.862992592746571e+02  2.918975276816622e+03
 1.153612524256204e+03 -1.878051152380828e+02  2.918975276816622e+03
 1.153562492759969e+03 -1.913420844042099e+02  2.918975276816622e+03
 1.153592252175109e+03 -1.942626471939713e+02  2.918975276816622e+03
 1.153588907084533e+03 -1.978414646534315e+02  2.918975276816622e+03
 1.153624900700920e+03 -2.009829470305937e+02  2.918975276816622e+03
 1.153660656556090e+03 -2.087259958996568e+02  2.918975276816622e+03
 1.153663393967516e+03 -2.110708297612577e+02  2.918975276816622e+03
 1.153689807960746e+03 -2.178581645228544e+02  2.918975276816622e+03
 1.153695685500058e+03 -2.204340930086917e+02  2.918975276816622e+03
 1.153701010678259e+03 -2.233829701079115e+02  2.918975276816622e+03
 1.153710426419157e+03 -2.241150087213987e+02  2.918975276816622e+03
 1.153711946055594e+03 -2.257157415643238e+02  2.918975276816622e+03
 1.153719490559714e+03 -2.288086053637541e+02  2.918975276816622e+03
 1.153724987531269e+03 -2.304131980656306e+02  2.918975276816622e+03
 1.153732369373266e+03 -2.318603638881830e+02  2.918975276816622e+03
 1.153739179158053e+03 -2.345681527050319e+02  2.918975276816622e+03
 1.153754864849155e+03 -2.396254705105678e+02  2.918975276816622e+03
 1.153758707586151e+03 -2.407139509354647e+02  2.918975276816622e+03
 1.153770964536442e+03 -2.445989046132953e+02  2.918975276816622e+03
 1.153780849495476e+03 -2.476500662720285e+02  2.918975276816622e+03
 1.153797511665158e+03 -2.527740541400658e+02  2.918975276816622e+03
 1.153805465473626e+03 -2.554478450708409e+02  2.918975276816622e+03
 1.153809665879442e+03 -2.572499285498034e+02  2.918975276816622e+03
 1.153821646778280e+03 -2.608163011018494e+02  2.918975276816622e+03
 1.153829168989836e+03 -2.614402996611101e+02  2.918975276816622e+03
 1.153836790769411e+03 -2.657840804364761e+02  2.918975276816622e+03
 1.153841408112168e+03 -2.685534867596231e+02  2.918975276816622e+03
 1.153851963493257e+03 -2.715211182559738e+02  2.918975276816622e+03
 1.153854127444974e+03 -2.723161003137322e+02  2.918975276816622e+03
 1.153855034604215e+03 -2.743175260221635e+02  2.918975276816622e+03
 1.153855243833712e+03 -2.774863030074613e+02  2.918975276816622e+03
 1.153866160755148e+03 -2.794593960912702e+02  2.918975276816622e+03
 1.153870068325327e+03 -2.801684388015664e+02  2.918975276816622e+03
 1.153871667845387e+03 -2.834665696008963e+02  2.918975276816622e+03
 1.153871401228471e+03 -2.861095081805841e+02  2.918975276816622e+03
 1.153874680659570e+03 -2.914044574360946e+02  2.918975276816622e+03
 1.153874834972292e+03 -2.951192705067758e+02  2.918975276816622e+03
 1.153896422956595e+03 -2.966050097752585e+02  2.918975276816622e+03
 1.153978617214413e+03 -2.976826543239054e+02  2.918975276816622e+03
 1.153775581727845e+03 -2.976571413110881e+02  2.918975276816622e+03
 1.153849577585760e+03 -2.987411385618652e+02  2.918975276816622e+03
 1.153872673202462e+03 -3.032293236254062e+02  2.918975276816622e+03
 1.153860582841094e+03 -3.037900715503162e+02  2.918975276816622e+03
 1.153846555273161e+03 -3.074074652837743e+02  2.918975276816622e+03
 1.153813197213729e+03 -3.093779213439549e+02  2.918975276816622e+03
 1.153883872389436e+03 -3.100037230361580e+02  2.918975276816622e+03
 1.153906604489492e+03 -3.113340970121396e+02  2.918975276816622e+03
 1.153803381084367e+03 -3.116877627630169e+02  2.918975276816622e+03
 1.153831730513461e+03 -3.133906218335641e+02  2.918975276816622e+03
 1.153868793226510e+03 -3.145419751999665e+02  2.918975276816622e+03
 1.153836354442478e+03 -3.176870266571373e+02  2.918975276816622e+03
 1.153821362373365e+03 -3.214118440980968e+02  2.918975276816622e+03
 1.153807110566518e+03 -3.260613547976244e+02  2.918975276816622e+03
 1.153815998117628e+03 -3.285499825225384e+02  2.918975276816622e+03
 1.153784094248300e+03 -3.314406445589004e+02  2.918975276816622e+03
 1.153797414988155e+03 -3.322956995806588e+02  2.918975276816622e+03
 1.153768808038924e+03 -3.348234494604116e+02  2.918975276816622e+03
 1.153794324589850e+03 -3.385266709520585e+02  2.918975276816622e+03
 1.153756093837138e+03 -3.396224392717628e+02  2.918975276816622e+03
 1.153786408011261e+03 -3.438172235703737e+02  2.918975276816622e+03
 1.153749734877687e+03 -3.467896685914352e+02  2.918975276816622e+03
 1.153806835137419e+03 -3.507927018844483e+02  2.918975276816622e+03
 1.153709370223200e+03 -3.507348560289571e+02  2.918975276816622e+03
 1.153739249518867e+03 -3.547332634725368e+02  2.918975276816622e+03
 1.153731906496008e+03 -3.572201199651819e+02  2.918975276816622e+03
 1.153740073525662e+03 -3.601402773080261e+02  2.918975276816622e+03
 1.153740422334755e+03 -3.631413330909613e+02  2.918975276816622e+03
 1.153784302429954e+03 -3.646712950287427e+02  2.918975276816622e+03
 1.153764928193058e+03 -3.659513565344554e+02  2.918975276816622e+03
 1.153713199726693e+03 -3.667951213016107e+02  2.918975276816622e+03
 1.153766220566644e+03 -3.688143680958516e+02  2.918975276816622e+03
 1.153787320797670e+03 -3.709771974407842e+02  2.918975276816622e+03
 1.153792373094514e+03 -3.743274201876853e+02  2.918975276816622e+03
 1.153801831115104e+03 -3.760367086873205e+02  2.918975276816622e+03
 1.153838810146696e+03 -3.817553673752098e+02  2.918975276816622e+03
 1.153889493310831e+03 -3.840455203673466e+02  2.918975276816622e+03
 1.153781132770956e+03 -3.839475736403112e+02  2.918975276816622e+03
1.153815242632224e+03 3.852598005020210e+02 2.918975276816622e+03
1.153880387089294e+03 3.839879048262280e+02 2.918975276816622e+03
1.153910659886676e+03 3.814862902503052e+02 2.918975276816622e+03
1.153848588034709e+03 3.810704620004922e+02 2.918975276816622e+03
1.153920458150525e+03 3.765626449942566e+02 2.918975276816622e+03
1.153957467236953e+03 3.733443775273332e+02 2.918975276816622e+03
1.153962309558010e+03 3.723181527502743e+02 2.918975276816622e+03
1.153967118413988e+03 3.708629739976236e+02 2.918975276816622e+03
1.154001243039723e+03 3.675545562966697e+02 2.918975276816622e+03
1.154011864013871e+03 3.665275454793644e+02 2.918975276816622e+03
1.154029729315771e+03 3.648220865643254e+02 2.918975276816622e+03
1.154045519753327e+03 3.625679731705886e+02 2.918975276816622e+03
1.154082354137532e+03 3.593093835428520e+02 2.918975276816622e+03
1.154092410519531e+03 3.578325826208202e+02 2.918975276816622e+03
1.154114407222764e+03 3.558544029234366e+02 2.918975276816622e+03
1.154138703646831e+03 3.532147053254280e+02 2.918975276816622e+03
1.154150481158790e+03 3.522062911121357e+02 2.918975276816622e+03
1.154160985137748e+03 3.504864332064278e+02 2.918975276816622e+03
1.154211427623286e+03 3.452111690423284e+02 2.918975276816622e+03
1.154238238614436e+03 3.430721644211018e+02 2.918975276816622e+03
1.154250142691450e+03 3.419056666764979e+02 2.918975276816622e+03
1.154250978258962e+03 3.397681931751887e+02 2.918975276816622e+03
1.154285612997361e+03 3.326760870875019e+02 2.918975276816622e+03
1.154381260303896e+03 3.326235011360118e+02 2.918975276816622e+03
1.154352774653609e+03 3.278798940336137e+02 2.918975276816622e+03
1.154336857075728e+03 3.266045940964260e+02 2.918975276816622e+03
1.154344147201727e+03 3.216840381222145e+02 2.918975276816622e+03
1.154360184384362e+03 3.193009104245051e+02 2.918975276816622e+03
1.154373538086538e+03 3.162794003333242e+02 2.918975276816622e+03
1.154346180733646e+03 3.137702129055211e+02 2.918975276816622e+03
1.154329994666994e+03 3.112910813763073e+02 2.918975276816622e+03
1.154322170694964e+03 3.084079840734118e+02 2.918975276816622e+03
1.154279837085552e+03 3.017642621350383e+02 2.918975276816622e+03
1.154283030943974e+03 2.997598070040288e+02 2.918975276816622e+03
1.154237332963157e+03 2.948337384920991e+02 2.918975276816622e+03
1.154209344691594e+03 2.937544756495334e+02 2.918975276816622e+03
1.154132973190134e+03 2.880171747400448e+02 2.918975276816622e+03
1.154204723617941e+03 2.877874026297553e+02 2.918975276816622e+03
1.154116454358471e+03 2.817380884432031e+02 2.918975276816622e+03
1.154078659598310e+03 2.798201492132147e+02 2.918975276816622e+03
1.154067621653390e+03 2.769122438821013e+02 2.918975276816622e+03
1.154027865034126e+03 2.748697769891193e+02 2.918975276816622e+03
1.154016873925666e+03 2.709932027525448e+02 2.918975276816622e+03
1.153942205146630e+03 2.682994113576716e+02 2.918975276816622e+03
1.153949503347663e+03 2.644013454595216e+02 2.918975276816622e+03
1.153918832193100e+03 2.638185750579032e+02 2.918975276816622e+03
1.153937196270001e+03 2.606710780138182e+02 2.918975276816622e+03
1.153835990888060e+03 2.579031128522380e+02 2.918975276816622e+03
1.153877198256332e+03 2.562425024270305e+02 2.918975276816622e+03
1.153812229617031e+03 2.546267140746151e+02 2.918975276816622e+03
1.153852363675469e+03 2.529643122153043e+02 2.918975276816622e+03
1.153695367639649e+03 2.523525844989564e+02 2.918975276816622e+03
1.153846224871679e+03 2.505484049505516e+02 2.918975276816622e+03
1.153739259962998e+03 2.488930375677208e+02 2.918975276816622e+03
1.153776076424942e+03 2.484591724736958e+02 2.918975276816622e+03
1.153686735347108e+03 2.464713987626093e+02 2.918975276816622e+03
1.153853521937651e+03 2.456879189295152e+02 2.918975276816622e+03
1.153731524121314e+03 2.432376407129319e+02 2.918975276816622e+03
1.153809583404222e+03 2.418963367408233e+02 2.918975276816622e+03
1.153708471120049e+03 2.400872310347709e+02 2.918975276816622e+03
1.153822303082026e+03 2.382907860347592e+02 2.918975276816622e+03
1.153677146217326e+03 2.359497459031649e+02 2.918975276816622e+03
1.153766060339419e+03 2.330588416156319e+02 2.918975276816622e+03
1.153749249864864e+03 2.328434059462310e+02 2.918975276816622e+03
1.153836307823386e+03 2.299094137651494e+02 2.918975276816622e+03
1.153673358267138e+03 2.286232624565565e+02 2.918975276816622e+03
1.153823793690984e+03 2.262575044246053e+02 2.918975276816622e+03
1.153756702548597e+03 2.231580006539501e+02 2.918975276816622e+03
1.153755955272006e+03 2.217351383542741e+02 2.918975276816622e+03
1.153761237967607e+03 2.181706455025571e+02 2.918975276816622e+03
1.153768314418982e+03 2.106682816745410e+02 2.918975276816622e+03
1.153768705513739e+03 2.095861947358584e+02 2.918975276816622e+03
1.153755464247039e+03 2.036179525009484e+02 2.918975276816622e+03
1.153748475540350e+03 2.009187577294308e+02 2.918975276816622e+03
1.153746982783507e+03 1.956656738848926e+02 2.918975276816622e+03
1.153748416495766e+03 1.924402470675861e+02 2.918975276816622e+03
1.153717516357165e+03 1.899499544541660e+02 2.918975276816622e+03
1.153748271967099e+03 1.875356300674497e+02 2.918975276816622e+03
1.153755577755700e+03 1.841725253794619e+02 2.918975276816622e+03
1.153727205851205e+03 1.819527288303161e+02 2.918975276816622e+03
1.153790581259507e+03 1.760076287353361e+02 2.918975276816622e+03
1.153808887709797e+03 1.679894763095645e+02 2.918975276816622e+03
1.153849040069741e+03 1.662705837920300e+02 2.918975276816622e+03
1.153862902749676e+03 1.590900663306952e+02 2.918975276816622e+03
1.153812934788764e+03 1.576606429411724e+02 2.918975276816622e+03
1.153904193590719e+03 1.497853202881008e+02 2.918975276816622e+03
1.153706998970982e+03 1.484776925893925e+02 2.918975276816622e+03
1.153865409238546e+03 1.450088757073955e+02 2.918975276816622e+03
1.153939521733153e+03 1.416603960426170e+02 2.918975276816622e+03
1.153932655623033e+03 1.392616402371294e+02 2.918975276816622e+03
1.153858550802117e+03 1.388498034083303e+02 2.918975276816622e+03
1.153869735770969e+03 1.363275410778494e+02 2.918975276816622e+03
1.153888923382474e+03 1.303446799550134e+02 2.918975276816622e+03
1.153876162364731e+03 1.282061017951705e+02 2.918975276816622e+03
1.153824771225373e+03 1.268953230783898e+02 2.918975276816622e+03
1.153894338199778e+03 1.258489158424442e+02 2.918975276816622e+03
1.153882242991247e+03 1.245744817644762e+02 2.918975276816622e+03
1.153892404910310e+03 1.188819257236763e+02 2.918975276816622e+03
1.153857516362479e+03 1.161977162157350e+02 2.918975276816622e+03
1.153908456907939e+03 1.131562221862106e+02 2.918975276816622e+03
1.153855896938879e+03 1.112019730823457e+02 2.918975276816622e+03
1.153927089971939e+03 1.095965563301244e+02 2.918975276816622e+03
1.153986714162198e+03 1.046272833061559e+02 2.918975276816622e+03
1.154137515509677e+03 1.011279104870225e+02 2.918975276816622e+03
1.154101861332202e+03 9.938312448272636e+01 2.918975276816622e+03
1.154135442895304e+03 9.359225547971316e+01 2.918975276816622e+03
1.154154741286099e+03 9.136805576527613e+01 2.918975276816622e+03
1.154230481426138e+03 8.764147560595246e+01 2.918975276816622e+03
1.154250483011489e+03 8.587957513330026e+01 2.918975276816622e+03
1.154312636089725e+03 8.272579492833701e+01 2.918975276816622e+03
1.154348632499131e+03 7.989315208544832e+01 2.918975276816622e+03
1.154374023014855e+03 7.827216825369736e+01 2.918975276816622e+03
1.154526958896529e+03 6.764752752836421e+01 2.918975276816622e+03
1.154548715033754e+03 6.605240025147306e+01 2.918975276816622e+03
1.154589072493649e+03 6.238402000231495e+01 2.918975276816622e+03
1.154627155564681e+03 5.916706607803183e+01 2.918975276816622e+03
1.154665875327407e+03 5.519639775681732e+01 2.918975276816622e+03
1.154700277470800e+03 5.428257424349260e+01 2.918975276816622e+03
1.154690694884915e+03 5.152096500144766e+01 2.918975276816622e+03
1.154714019877703e+03 4.999264878338307e+01 2.918975276816622e+03
1.154734631039320e+03 4.462258074543346e+01 2.918975276816622e+03
1.154806901070706e+03 4.289181980633859e+01 2.918975276816622e+03
1.154709641108917e+03 4.204715879483437e+01 2.918975276816622e+03
1.154695055648551e+03 4.067784655762599e+01 2.918975276816622e+03
1.154738620751701e+03 3.908033257460352e+01 2.918975276816622e+03
1.154767407649685e+03 3.558793791962566e+01 2.918975276816622e+03
1.154752441399055e+03 3.415362524625051e+01 2.918975276816622e+03
1.154773103571811e+03 3.198714861614206e+01 2.918975276816622e+03
1.154686004970230e+03 3.021035167921674e+01 2.918975276816622e+03
1.154775110377198e+03 2.849385875472962e+01 2.918975276816622e+03
1.154762867623116e+03 2.546402367194627e+01 2.918975276816622e+03
1.154747523385520e+03 1.600645674054832e+01 2.918975276816622e+03
1.154525085110811e+03 1.434685669482953e+01 2.918975276816622e+03
1.154764318361803e+03 1.386547247673493e+01 2.918975276816622e+03
1.154685321447326e+03 1.164957116915837e+01 2.918975276816622e+03
1.154571300555268e+03 1.022476329718298e+01 2.918975276816622e+03
1.154551581962154e+03 5.445132614981354e+00 2.918975276816622e+03
1.154543342928833e+03 4.351051604680996e+00 2.918975276816622e+03
1.154526137248159e+03 2.467654466740139e+00 2.918975276816622e+03
1.154516368612673e+03 8.743473898597813e-01 2.918975276816622e+03
-1.147899821870608e+03 -3.863858941524650e+02 -2.918975276816622e+03
-1.147899821870608e+03  3.863858941524653e+02 -2.918975276816622e+03
 1.145070987644962e+03 -3.863858941524653e+02  2.918975276816622e+03
1.145070987644961e+03 3.863858941524650e+02 2.918975276816622e+03
-1.156737718850244e+03 -3.863858941524650e+02 -2.918975276816622e+03
-1.156737718850244e+03  3.863858941524653e+02 -2.918975276816622e+03
 1.153804466415869e+03 -3.863858941524653e+02  2.918975276816622e+03
1.153804466415869e+03 3.863858941524650e+02 2.918975276816622e+03
-1.148338705412158e+03  3.467335319853645e-02 -2.918975276816622e+03
-1.148280699407340e+03  3.092649468256119e+00 -2.918975276816622e+03
-1.148329573391029e+03 -1.352348276753105e+00 -2.918975276816622e+03
-1.148290224054958e+03 -2.912553182114144e+00 -2.918975276816622e+03
-1.148302027126866e+03 -4.713305637917683e+00 -2.918975276816622e+03
-1.148433791388677e+03 -6.361942128122616e+00 -2.918975276816622e+03
-1.148407986089333e+03 -8.144129034518789e+00 -2.918975276816622e+03
-1.148278421609112e+03 -1.088934791615214e+01 -2.918975276816622e+03
-1.148267492976468e+03 -1.328925748769388e+01 -2.918975276816622e+03
-1.148280294753072e+03 -1.512755862803310e+01 -2.918975276816622e+03
-1.148257839622673e+03 -1.834802922804481e+01 -2.918975276816622e+03
-1.148224496510685e+03 -2.149794429348634e+01 -2.918975276816622e+03
-1.148206889265052e+03 -2.490791759395628e+01 -2.918975276816622e+03
-1.148182203497693e+03 -2.747730388676384e+01 -2.918975276816622e+03
-1.148172338532050e+03 -2.966903597645465e+01 -2.918975276816622e+03
-1.148151599978464e+03 -3.292533867088577e+01 -2.918975276816622e+03
-1.148137561173539e+03 -3.497954164459277e+01 -2.918975276816622e+03
-1.148126223450810e+03 -3.696002049475521e+01 -2.918975276816622e+03
-1.148110016950784e+03 -3.975224868344870e+01 -2.918975276816622e+03
-1.148092940339927e+03 -4.222785061349363e+01 -2.918975276816622e+03
-1.148079200576437e+03 -4.419183773738714e+01 -2.918975276816622e+03
-1.148064874092158e+03 -4.620279001288348e+01 -2.918975276816622e+03
-1.148046624039722e+03 -4.877232224613417e+01 -2.918975276816622e+03
-1.148025478284684e+03 -5.152744565235447e+01 -2.918975276816622e+03
-1.148001436827043e+03 -5.446816023154443e+01 -2.918975276816622e+03
-1.147989240758431e+03 -5.716688078702364e+01 -2.918975276816622e+03
-1.147954386589775e+03 -5.922879374843279e+01 -2.918975276816622e+03
-1.147948703683860e+03 -6.061838058470007e+01 -2.918975276816622e+03
-1.147939362021894e+03 -6.223150234821969e+01 -2.918975276816622e+03
-1.147926527126107e+03 -6.378271004419248e+01 -2.918975276816622e+03
-1.147901102738565e+03 -6.534751716437212e+01 -2.918975276816622e+03
-1.147895919796429e+03 -6.692557171502823e+01 -2.918975276816622e+03
-1.147886730196234e+03 -6.870129983610471e+01 -2.918975276816622e+03
-1.147864948564880e+03 -7.032481172621536e+01 -2.918975276816622e+03
-1.147831803760395e+03 -7.140399370915273e+01 -2.918975276816622e+03
-1.147827362243591e+03 -7.315896566566568e+01 -2.918975276816622e+03
-1.147829661336686e+03 -7.475000354498613e+01 -2.918975276816622e+03
-1.147813635106532e+03 -7.584211969386237e+01 -2.918975276816622e+03
-1.147783894893944e+03 -7.737052342912172e+01 -2.918975276816622e+03
-1.147780802489178e+03 -7.937931803276544e+01 -2.918975276816622e+03
-1.147785798408821e+03 -8.094053781629756e+01 -2.918975276816622e+03
-1.147779433537113e+03 -8.260514833802691e+01 -2.918975276816622e+03
-1.147755397611165e+03 -8.462901278572240e+01 -2.918975276816622e+03
-1.147748100330210e+03 -8.640557604463176e+01 -2.918975276816622e+03
-1.147751468540198e+03 -8.831956183048156e+01 -2.918975276816622e+03
-1.147725806099490e+03 -8.986412713377005e+01 -2.918975276816622e+03
-1.147702669215247e+03 -9.120670366072888e+01 -2.918975276816622e+03
-1.147694802182391e+03 -9.344496734169498e+01 -2.918975276816622e+03
-1.147715300685359e+03 -9.519910046908711e+01 -2.918975276816622e+03
-1.147720772549998e+03 -9.699527723278106e+01 -2.918975276816622e+03
-1.147699902495697e+03 -9.939398015399082e+01 -2.918975276816622e+03
-1.147688705670845e+03 -1.008726554351260e+02 -2.918975276816622e+03
-1.147692381490991e+03 -1.023153927665323e+02 -2.918975276816622e+03
-1.147670568398031e+03 -1.037433712654456e+02 -2.918975276816622e+03
-1.147657007147896e+03 -1.052292853502866e+02 -2.918975276816622e+03
-1.147667730691687e+03 -1.067432647547718e+02 -2.918975276816622e+03
-1.147669487404546e+03 -1.084862994344771e+02 -2.918975276816622e+03
-1.147638806701338e+03 -1.101236566489234e+02 -2.918975276816622e+03
-1.147630211825310e+03 -1.114228684477077e+02 -2.918975276816622e+03
-1.147616936515077e+03 -1.132066192759148e+02 -2.918975276816622e+03
-1.147635507013252e+03 -1.149009764212132e+02 -2.918975276816622e+03
-1.147619548837616e+03 -1.170047996582470e+02 -2.918975276816622e+03
-1.147619737974878e+03 -1.192184581848507e+02 -2.918975276816622e+03
-1.147629200265735e+03 -1.207285213101208e+02 -2.918975276816622e+03
-1.147633379505695e+03 -1.224739421158052e+02 -2.918975276816622e+03
-1.147632597705673e+03 -1.242278274725647e+02 -2.918975276816622e+03
-1.147610739225998e+03 -1.259966726037133e+02 -2.918975276816622e+03
-1.147591216283804e+03 -1.282877850778141e+02 -2.918975276816622e+03
-1.147620432348594e+03 -1.295065342881936e+02 -2.918975276816622e+03
-1.147650881053984e+03 -1.307692219364294e+02 -2.918975276816622e+03
-1.147619361092723e+03 -1.329887109669790e+02 -2.918975276816622e+03
-1.147642936227981e+03 -1.341037750613418e+02 -2.918975276816622e+03
-1.147680671404774e+03 -1.349637785042560e+02 -2.918975276816622e+03
-1.147664717481312e+03 -1.370741786460642e+02 -2.918975276816622e+03
-1.147659815735241e+03 -1.392312561252357e+02 -2.918975276816622e+03
-1.147679369503753e+03 -1.406532353319762e+02 -2.918975276816622e+03
-1.147708569486659e+03 -1.422091934288857e+02 -2.918975276816622e+03
-1.147711236995786e+03 -1.436650011060329e+02 -2.918975276816622e+03
-1.147702741155351e+03 -1.451493771640882e+02 -2.918975276816622e+03
-1.147712006440653e+03 -1.466436164868619e+02 -2.918975276816622e+03
-1.147734141020202e+03 -1.484078117115335e+02 -2.918975276816622e+03
-1.147745633383323e+03 -1.500129896589877e+02 -2.918975276816622e+03
-1.147744923781448e+03 -1.512092409127749e+02 -2.918975276816622e+03
-1.147752904436448e+03 -1.530426292055364e+02 -2.918975276816622e+03
-1.147767221478586e+03 -1.555607255389635e+02 -2.918975276816622e+03
-1.147782636817355e+03 -1.586205166620263e+02 -2.918975276816622e+03
-1.147790571057688e+03 -1.606771197252328e+02 -2.918975276816622e+03
-1.147795567421527e+03 -1.622323015589458e+02 -2.918975276816622e+03
-1.147805660913355e+03 -1.640188733729019e+02 -2.918975276816622e+03
-1.147815310872493e+03 -1.660350893045472e+02 -2.918975276816622e+03
-1.147823963392894e+03 -1.685513262040016e+02 -2.918975276816622e+03
-1.147832615913296e+03 -1.710675631034561e+02 -2.918975276816622e+03
-1.147860462472160e+03 -1.739962105024761e+02 -2.918975276816622e+03
-1.147870504439880e+03 -1.769891266919268e+02 -2.918975276816622e+03
-1.147825152818808e+03 -1.792620560722598e+02 -2.918975276816622e+03
-1.147829233022368e+03 -1.807423218367139e+02 -2.918975276816622e+03
-1.147875119446952e+03 -1.822112469367753e+02 -2.918975276816622e+03
-1.147879088140970e+03 -1.839317996951134e+02 -2.918975276816622e+03
-1.147879928276369e+03 -1.859027008261361e+02 -2.918975276816622e+03
-1.147893537020923e+03 -1.882818005230699e+02 -2.918975276816622e+03
-1.147875042626642e+03 -1.897410342486639e+02 -2.918975276816622e+03
-1.147868585547250e+03 -1.909827091049008e+02 -2.918975276816622e+03
-1.147895585741041e+03 -1.929349216226106e+02 -2.918975276816622e+03
-1.147871232332819e+03 -1.940909024932391e+02 -2.918975276816622e+03
-1.147834522776405e+03 -1.951551722521211e+02 -2.918975276816622e+03
-1.147844739971245e+03 -1.980694251063921e+02 -2.918975276816622e+03
-1.147840230587269e+03 -2.005912545551780e+02 -2.918975276816622e+03
-1.147818415471793e+03 -2.021151466587086e+02 -2.918975276816622e+03
-1.147798202740578e+03 -2.036374411574561e+02 -2.918975276816622e+03
-1.147818523308709e+03 -2.050712822796717e+02 -2.918975276816622e+03
-1.147820902704583e+03 -2.065563618591773e+02 -2.918975276816622e+03
-1.147794653958086e+03 -2.083706249657621e+02 -2.918975276816622e+03
-1.147766089277934e+03 -2.100373816353343e+02 -2.918975276816622e+03
-1.147752776439082e+03 -2.114072018418769e+02 -2.918975276816622e+03
-1.147730963988575e+03 -2.139846741250238e+02 -2.918975276816622e+03
-1.147693665656843e+03 -2.169107183062934e+02 -2.918975276816622e+03
-1.147639866516868e+03 -2.191454323918092e+02 -2.918975276816622e+03
-1.147608623942263e+03 -2.206296427650955e+02 -2.918975276816622e+03
-1.147595989306926e+03 -2.221794369282653e+02 -2.918975276816622e+03
-1.147567317044720e+03 -2.238974073436729e+02 -2.918975276816622e+03
-1.147560477505973e+03 -2.258412217733498e+02 -2.918975276816622e+03
-1.147516200107573e+03 -2.282531642170816e+02 -2.918975276816622e+03
-1.147513922740274e+03 -2.298262188876159e+02 -2.918975276816622e+03
-1.147471615606857e+03 -2.311176474545186e+02 -2.918975276816622e+03
-1.147462340885983e+03 -2.337696699213262e+02 -2.918975276816622e+03
-1.147513812990731e+03 -2.368170770318528e+02 -2.918975276816622e+03
-1.147568495609883e+03 -2.391046365683123e+02 -2.918975276816622e+03
-1.147602514703318e+03 -2.406294318493289e+02 -2.918975276816622e+03
-1.147646802347231e+03 -2.421798137147042e+02 -2.918975276816622e+03
-1.147735790799763e+03 -2.438394635120144e+02 -2.918975276816622e+03
-1.147840890061695e+03 -2.457910535403380e+02 -2.918975276816622e+03
-1.147853548621862e+03 -2.470548615774109e+02 -2.918975276816622e+03
-1.147783187501850e+03 -2.483838595262360e+02 -2.918975276816622e+03
-1.147804309596718e+03 -2.502753359289293e+02 -2.918975276816622e+03
-1.147818292770058e+03 -2.512499589529557e+02 -2.918975276816622e+03
-1.147798905019083e+03 -2.527668213462124e+02 -2.918975276816622e+03
-1.147811576464583e+03 -2.545451980151665e+02 -2.918975276816622e+03
-1.147849648608178e+03 -2.563750854110990e+02 -2.918975276816622e+03
-1.147815364682806e+03 -2.576134592982261e+02 -2.918975276816622e+03
-1.147778897081273e+03 -2.589322932943519e+02 -2.918975276816622e+03
-1.147821743041034e+03 -2.605471164213479e+02 -2.918975276816622e+03
-1.147845924596982e+03 -2.621742137305972e+02 -2.918975276816622e+03
-1.147836303960117e+03 -2.647689717974185e+02 -2.918975276816622e+03
-1.147836531808734e+03 -2.673744614976046e+02 -2.918975276816622e+03
-1.147841908479953e+03 -2.698507533413811e+02 -2.918975276816622e+03
-1.147845164154691e+03 -2.724811424088796e+02 -2.918975276816622e+03
-1.147847946365622e+03 -2.747184565520392e+02 -2.918975276816622e+03
-1.147850841613045e+03 -2.764721621483508e+02 -2.918975276816622e+03
-1.147849383735881e+03 -2.788350055295400e+02 -2.918975276816622e+03
-1.147845561677055e+03 -2.823101208893351e+02 -2.918975276816622e+03
-1.147839512664232e+03 -2.851443925671243e+02 -2.918975276816622e+03
-1.147833168689513e+03 -2.868818032809849e+02 -2.918975276816622e+03
-1.147826081483927e+03 -2.890182047879815e+02 -2.918975276816622e+03
-1.147815864608629e+03 -2.914429165750963e+02 -2.918975276816622e+03
-1.147805647733332e+03 -2.938676283622111e+02 -2.918975276816622e+03
-1.147796556706547e+03 -2.968463551179952e+02 -2.918975276816622e+03
-1.147792891399180e+03 -2.994622884168601e+02 -2.918975276816622e+03
-1.147780863415152e+03 -3.019809182183433e+02 -2.918975276816622e+03
-1.147763727216624e+03 -3.039628508587022e+02 -2.918975276816622e+03
-1.147750565501879e+03 -3.058297288749508e+02 -2.918975276816622e+03
-1.147730888685613e+03 -3.090268548243674e+02 -2.918975276816622e+03
-1.147704847925458e+03 -3.123091053048664e+02 -2.918975276816622e+03
-1.147671998343690e+03 -3.160275776610627e+02 -2.918975276816622e+03
-1.147631375149541e+03 -3.193703932318113e+02 -2.918975276816622e+03
-1.147586358472978e+03 -3.218973542045507e+02 -2.918975276816622e+03
-1.147573551639175e+03 -3.243754710790537e+02 -2.918975276816622e+03
-1.147592954648133e+03 -3.268047438553203e+02 -2.918975276816622e+03
-1.147612357657091e+03 -3.292340166315872e+02 -2.918975276816622e+03
-1.147602131145402e+03 -3.321514561942986e+02 -2.918975276816622e+03
-1.147601253049261e+03 -3.342814205308895e+02 -2.918975276816622e+03
-1.147627013747803e+03 -3.367014060515365e+02 -2.918975276816622e+03
-1.147642902745932e+03 -3.398295119120513e+02 -2.918975276816622e+03
-1.147661259185159e+03 -3.421000749158123e+02 -2.918975276816622e+03
-1.147681689235045e+03 -3.452635523483760e+02 -2.918975276816622e+03
-1.147693968890933e+03 -3.476303719061765e+02 -2.918975276816622e+03
-1.147703217146431e+03 -3.491945259409699e+02 -2.918975276816622e+03
-1.147719658006199e+03 -3.516455867563218e+02 -2.918975276816622e+03
-1.147733642136837e+03 -3.536311842646548e+02 -2.918975276816622e+03
-1.147751766762364e+03 -3.563868405181610e+02 -2.918975276816622e+03
-1.147778063906141e+03 -3.602616200870149e+02 -2.918975276816622e+03
-1.147801819795778e+03 -3.633951081081776e+02 -2.918975276816622e+03
-1.147821459137047e+03 -3.659037033184936e+02 -2.918975276816622e+03
-1.147841098478316e+03 -3.684122985288097e+02 -2.918975276816622e+03
-1.147843695787538e+03 -3.707198956308308e+02 -2.918975276816622e+03
-1.147831093092857e+03 -3.729163909562122e+02 -2.918975276816622e+03
-1.147871911750693e+03 -3.741965117082867e+02 -2.918975276816622e+03
-1.147916683194146e+03 -3.753517265609794e+02 -2.918975276816622e+03
-1.147879158079058e+03 -3.769549774205327e+02 -2.918975276816622e+03
-1.147848125523489e+03 -3.786095509814006e+02 -2.918975276816622e+03
-1.147895222832469e+03 -3.798389960903549e+02 -2.918975276816622e+03
-1.147925575448425e+03 -3.811608608997835e+02 -2.918975276816622e+03
-1.147906409256171e+03 -3.841906789080263e+02 -2.918975276816622e+03
-1.147899372307839e+03 -3.862221793689039e+02 -2.918975276816622e+03
-1.147908177266472e+03  3.820717770763322e+02 -2.918975276816622e+03
-1.147907758245575e+03  3.796816119166730e+02 -2.918975276816622e+03
-1.147904104323765e+03  3.848263769043136e+02 -2.918975276816622e+03
-1.147908075542438e+03  3.777966428771827e+02 -2.918975276816622e+03
-1.147919639481119e+03  3.767583379384916e+02 -2.918975276816622e+03
-1.147921412963717e+03  3.750752897184407e+02 -2.918975276816622e+03
-1.147911289583661e+03  3.724351427843229e+02 -2.918975276816622e+03
-1.147909570121092e+03  3.698241083981284e+02 -2.918975276816622e+03
-1.147905100047117e+03  3.671340046422602e+02 -2.918975276816622e+03
-1.147897879361737e+03  3.643648315167194e+02 -2.918975276816622e+03
-1.147890658676356e+03  3.615956583911786e+02 -2.918975276816622e+03
-1.147885541730063e+03  3.596531571364792e+02 -2.918975276816622e+03
-1.147879803693356e+03  3.569698564697899e+02 -2.918975276816622e+03
-1.147869627863270e+03  3.538023982125421e+02 -2.918975276816622e+03
-1.147864061233699e+03  3.518787100777574e+02 -2.918975276816622e+03
-1.147856180322497e+03  3.497687834217917e+02 -2.918975276816622e+03
-1.147846430116072e+03  3.472230208225296e+02 -2.918975276816622e+03
-1.147838214495402e+03  3.451280542109449e+02 -2.918975276816622e+03
-1.147830014120636e+03  3.428736553838472e+02 -2.918975276816622e+03
-1.147822108902502e+03  3.409271060413024e+02 -2.918975276816622e+03
-1.147814961897457e+03  3.394058999015233e+02 -2.918975276816622e+03
-1.147805218123725e+03  3.369098749531655e+02 -2.918975276816622e+03
-1.147787166713901e+03  3.340209066731308e+02 -2.918975276816622e+03
-1.147769115304078e+03  3.311319383930964e+02 -2.918975276816622e+03
-1.147745591776027e+03  3.286899130516742e+02 -2.918975276816622e+03
-1.147742998322566e+03  3.268526453205814e+02 -2.918975276816622e+03
-1.147748993417029e+03  3.247112200329091e+02 -2.918975276816622e+03
-1.147695369128207e+03  3.234416454051709e+02 -2.918975276816622e+03
-1.147675756407242e+03  3.222023343002684e+02 -2.918975276816622e+03
-1.147724631347900e+03  3.204902596641337e+02 -2.918975276816622e+03
-1.147758651841570e+03  3.186319809406583e+02 -2.918975276816622e+03
-1.147770310629159e+03  3.152347144060612e+02 -2.918975276816622e+03
-1.147784275686897e+03  3.115448800177705e+02 -2.918975276816622e+03
-1.147799753215883e+03  3.085807278869535e+02 -2.918975276816622e+03
-1.147808236288904e+03  3.063362255038045e+02 -2.918975276816622e+03
-1.147817328901639e+03  3.043502068734161e+02 -2.918975276816622e+03
-1.147823870022229e+03  3.022840331069939e+02 -2.918975276816622e+03
-1.147835080897079e+03  2.999598189883961e+02 -2.918975276816622e+03
-1.147845486311392e+03  2.974528158802966e+02 -2.918975276816622e+03
-1.147855891725704e+03  2.949458127721969e+02 -2.918975276816622e+03
-1.147862176082685e+03  2.925351446339848e+02 -2.918975276816622e+03
-1.147864339382333e+03  2.902208114656602e+02 -2.918975276816622e+03
-1.147871588094155e+03  2.888316914260395e+02 -2.918975276816622e+03
-1.147887213070069e+03  2.874206388400776e+02 -2.918975276816622e+03
-1.147896684182803e+03  2.847113987789094e+02 -2.918975276816622e+03
-1.147905161589042e+03  2.826100534063053e+02 -2.918975276816622e+03
-1.147919980361897e+03  2.810693266952757e+02 -2.918975276816622e+03
-1.147915769145715e+03  2.790311720747129e+02 -2.918975276816622e+03
-1.147886604345685e+03  2.771395292445375e+02 -2.918975276816622e+03
-1.147914899041911e+03  2.761144734155262e+02 -2.918975276816622e+03
-1.147960939945220e+03  2.750545675804104e+02 -2.918975276816622e+03
-1.147948812341968e+03  2.728819255548306e+02 -2.918975276816622e+03
-1.147920154346242e+03  2.712612247488212e+02 -2.918975276816622e+03
-1.147918071301456e+03  2.701638831943701e+02 -2.918975276816622e+03
-1.147943086558412e+03  2.680389707427655e+02 -2.918975276816622e+03
-1.147950982139444e+03  2.661136913823239e+02 -2.918975276816622e+03
-1.147947203145761e+03  2.643047841941413e+02 -2.918975276816622e+03
-1.147943205394120e+03  2.621068794305744e+02 -2.918975276816622e+03
-1.147944250637324e+03  2.605341654325752e+02 -2.918975276816622e+03
-1.147943270135908e+03  2.588957612956618e+02 -2.918975276816622e+03
-1.147937691705305e+03  2.572233009920234e+02 -2.918975276816622e+03
-1.147935223105971e+03  2.553007749373256e+02 -2.918975276816622e+03
-1.147933314729538e+03  2.527076896105069e+02 -2.918975276816622e+03
-1.147938372241719e+03  2.507682806921877e+02 -2.918975276816622e+03
-1.147916329567278e+03  2.497460577845930e+02 -2.918975276816622e+03
-1.147875388659505e+03  2.482389357099303e+02 -2.918975276816622e+03
-1.147901650106057e+03  2.464189719094552e+02 -2.918975276816622e+03
-1.147920579751276e+03  2.445679806842161e+02 -2.918975276816622e+03
-1.147881900851308e+03  2.432833375879935e+02 -2.918975276816622e+03
-1.147804646924489e+03  2.419023331961499e+02 -2.918975276816622e+03
-1.147815130765659e+03  2.403668841590741e+02 -2.918975276816622e+03
-1.147827830660025e+03  2.391971449714337e+02 -2.918975276816622e+03
-1.147774393598180e+03  2.373073403083962e+02 -2.918975276816622e+03
-1.147746769108919e+03  2.358287672634806e+02 -2.918975276816622e+03
-1.147728357311603e+03  2.341233348177167e+02 -2.918975276816622e+03
-1.147704506882334e+03  2.313674777168530e+02 -2.918975276816622e+03
-1.147646806345170e+03  2.285219417259771e+02 -2.918975276816622e+03
-1.147603812005430e+03  2.258881444040357e+02 -2.918975276816622e+03
-1.147576082689073e+03  2.238179179634278e+02 -2.918975276816622e+03
-1.147529896964511e+03  2.215759681460112e+02 -2.918975276816622e+03
-1.147493531167956e+03  2.185828426700554e+02 -2.918975276816622e+03
-1.147451474954485e+03  2.167853444701939e+02 -2.918975276816622e+03
-1.147405627252403e+03  2.154615333307123e+02 -2.918975276816622e+03
-1.147415194842037e+03  2.141285628715811e+02 -2.918975276816622e+03
-1.147424464744470e+03  2.129871856331729e+02 -2.918975276816622e+03
-1.147365878039390e+03  2.111183980307327e+02 -2.918975276816622e+03
-1.147368395851598e+03  2.096802526471432e+02 -2.918975276816622e+03
-1.147439983373848e+03  2.082110873518659e+02 -2.918975276816622e+03
-1.147340584455770e+03  2.058954133811544e+02 -2.918975276816622e+03
-1.147231571120170e+03  2.031436198137705e+02 -2.918975276816622e+03
-1.147234311083634e+03  2.001502119063160e+02 -2.918975276816622e+03
-1.147234954172890e+03  1.974618132880042e+02 -2.918975276816622e+03
-1.147243364681844e+03  1.943050628371796e+02 -2.918975276816622e+03
-1.147223204111927e+03  1.912124884090020e+02 -2.918975276816622e+03
-1.147174233709750e+03  1.894789065033322e+02 -2.918975276816622e+03
-1.147148320806806e+03  1.880231513112559e+02 -2.918975276816622e+03
-1.147177604389543e+03  1.866226915564441e+02 -2.918975276816622e+03
-1.147232660492424e+03  1.852957838243809e+02 -2.918975276816622e+03
-1.147210450658549e+03  1.838649851063134e+02 -2.918975276816622e+03
-1.147160190496410e+03  1.819178438762334e+02 -2.918975276816622e+03
-1.147159472119924e+03  1.797879271924901e+02 -2.918975276816622e+03
-1.147180138000237e+03  1.785942277739007e+02 -2.918975276816622e+03
-1.147185141432968e+03  1.771218217487866e+02 -2.918975276816622e+03
-1.147168852867605e+03  1.747730663063537e+02 -2.918975276816622e+03
-1.147165160354455e+03  1.726899056645144e+02 -2.918975276816622e+03
-1.147174793248603e+03  1.709856194645820e+02 -2.918975276816622e+03
-1.147189917133380e+03  1.695393137130897e+02 -2.918975276816622e+03
-1.147194922891056e+03  1.682234150262269e+02 -2.918975276816622e+03
-1.147171398577643e+03  1.668762281331863e+02 -2.918975276816622e+03
-1.147160879006359e+03  1.651083633482663e+02 -2.918975276816622e+03
-1.147194894893860e+03  1.637275740126251e+02 -2.918975276816622e+03
-1.147216621138429e+03  1.622484944112810e+02 -2.918975276816622e+03
-1.147195312234191e+03  1.606488310095868e+02 -2.918975276816622e+03
-1.147187884723796e+03  1.592720130744031e+02 -2.918975276816622e+03
-1.147201058465136e+03  1.569966576664650e+02 -2.918975276816622e+03
-1.147208650444411e+03  1.544848583592050e+02 -2.918975276816622e+03
-1.147227836390849e+03  1.524442865857720e+02 -2.918975276816622e+03
-1.147242712499977e+03  1.508532840646772e+02 -2.918975276816622e+03
-1.147217154598735e+03  1.496249903871417e+02 -2.918975276816622e+03
-1.147205350626549e+03  1.483319053608324e+02 -2.918975276816622e+03
-1.147253108907076e+03  1.468839675582241e+02 -2.918975276816622e+03
-1.147279877395114e+03  1.453534606693602e+02 -2.918975276816622e+03
-1.147247474103996e+03  1.438613716476557e+02 -2.918975276816622e+03
-1.147218064959735e+03  1.421744741095559e+02 -2.918975276816622e+03
-1.147267967063543e+03  1.409438654790805e+02 -2.918975276816622e+03
-1.147321996244193e+03  1.397460961884511e+02 -2.918975276816622e+03
-1.147314941941022e+03  1.378694132664787e+02 -2.918975276816622e+03
-1.147301477623278e+03  1.368461308237773e+02 -2.918975276816622e+03
-1.147322285486851e+03  1.353222921363582e+02 -2.918975276816622e+03
-1.147347615542864e+03  1.335585418548273e+02 -2.918975276816622e+03
-1.147355332410904e+03  1.317535226682073e+02 -2.918975276816622e+03
-1.147369429561335e+03  1.298049599170020e+02 -2.918975276816622e+03
-1.147405164556140e+03  1.282596877200089e+02 -2.918975276816622e+03
-1.147432809343596e+03  1.265260856973966e+02 -2.918975276816622e+03
-1.147434771621301e+03  1.245528250031955e+02 -2.918975276816622e+03
-1.147447148645702e+03  1.222743926506251e+02 -2.918975276816622e+03
-1.147435814310043e+03  1.206324178004901e+02 -2.918975276816622e+03
-1.147466211394883e+03  1.189718215175474e+02 -2.918975276816622e+03
-1.147517405165954e+03  1.163340663846233e+02 -2.918975276816622e+03
-1.147543942765686e+03  1.137941968085200e+02 -2.918975276816622e+03
-1.147517383153044e+03  1.122379145173567e+02 -2.918975276816622e+03
-1.147526217739893e+03  1.110519931078979e+02 -2.918975276816622e+03
-1.147579019261084e+03  1.098781630465069e+02 -2.918975276816622e+03
-1.147603998719785e+03  1.081996483117011e+02 -2.918975276816622e+03
-1.147580176266582e+03  1.065280780470313e+02 -2.918975276816622e+03
-1.147590438470611e+03  1.054222838247586e+02 -2.918975276816622e+03
-1.147632631491021e+03  1.041187007361340e+02 -2.918975276816622e+03
-1.147651043836983e+03  1.022647991894392e+02 -2.918975276816622e+03
-1.147648614305906e+03  1.005784172032115e+02 -2.918975276816622e+03
-1.147654621189709e+03  9.937809087806382e+01 -2.918975276816622e+03
-1.147682222278119e+03  9.789645874450488e+01 -2.918975276816622e+03
-1.147698623854253e+03  9.615289935692779e+01 -2.918975276816622e+03
-1.147721045117376e+03  9.335276203069137e+01 -2.918975276816622e+03
-1.147742002612755e+03  9.016858524654000e+01 -2.918975276816622e+03
-1.147771652106344e+03  8.724281407137477e+01 -2.918975276816622e+03
-1.147790111670244e+03  8.396148767071325e+01 -2.918975276816622e+03
-1.147825487713025e+03  8.078205827678678e+01 -2.918975276816622e+03
-1.147844793625945e+03  7.781176856094348e+01 -2.918975276816622e+03
-1.147874603742514e+03  7.507008687299644e+01 -2.918975276816622e+03
-1.147897709680852e+03  7.291136630415544e+01 -2.918975276816622e+03
-1.147904846885043e+03  7.123135623068502e+01 -2.918975276816622e+03
-1.147900631108356e+03  6.932620800454981e+01 -2.918975276816622e+03
-1.147919808810970e+03  6.788127727929063e+01 -2.918975276816622e+03
-1.147948946247997e+03  6.659533916549394e+01 -2.918975276816622e+03
-1.147963034530616e+03  6.380441306499868e+01 -2.918975276816622e+03
-1.147987969971179e+03  6.026527103665923e+01 -2.918975276816622e+03
-1.148012775350600e+03  5.683218062093500e+01 -2.918975276816622e+03
-1.148031832640780e+03  5.394339217857372e+01 -2.918975276816622e+03
-1.148055992618257e+03  5.200900305280658e+01 -2.918975276816622e+03
-1.148075031005716e+03  5.059567256648282e+01 -2.918975276816622e+03
-1.148081877236955e+03  4.869755530356846e+01 -2.918975276816622e+03
-1.148103822858272e+03  4.597760861743581e+01 -2.918975276816622e+03
-1.148138631869032e+03  4.290479377799787e+01 -2.918975276816622e+03
-1.148132374333269e+03  4.047826503706863e+01 -2.918975276816622e+03
-1.148138689704591e+03  3.903043239629926e+01 -2.918975276816622e+03
-1.148204244362643e+03  3.692923442712135e+01 -2.918975276816622e+03
-1.148255206186676e+03  3.354273097885542e+01 -2.918975276816622e+03
-1.148224559399499e+03  3.035662797061062e+01 -2.918975276816622e+03
-1.148191308769405e+03  2.764001215830828e+01 -2.918975276816622e+03
-1.148218414450165e+03  2.476616615000887e+01 -2.918975276816622e+03
-1.148269255781743e+03  2.316212613581985e+01 -2.918975276816622e+03
-1.148313934265704e+03  2.207678587978522e+01 -2.918975276816622e+03
-1.148278137454749e+03  2.066234966139681e+01 -2.918975276816622e+03
-1.148262166884485e+03  1.903277905362123e+01 -2.918975276816622e+03
-1.148309650709525e+03  1.694459154514753e+01 -2.918975276816622e+03
-1.148314105327190e+03  1.493911728073649e+01 -2.918975276816622e+03
-1.148307947329368e+03  1.232713457287383e+01 -2.918975276816622e+03
-1.148327257281563e+03  9.204457939788112e+00 -2.918975276816622e+03
-1.148462555424360e+03  6.699464663687531e+00 -2.918975276816622e+03
-1.148409823852356e+03  5.427101428290590e+00 -2.918975276816622e+03
 1.145708424666693e+03 -3.669160073959711e-01  2.918975276816622e+03
1.145729902177036e+03 1.487337353699747e+00 2.918975276816622e+03
 1.145686299991966e+03 -2.190347083910814e+00  2.918975276816622e+03
 1.145655809191707e+03 -3.984706429117294e+00  2.918975276816622e+03
 1.145618887302934e+03 -6.591362516077178e+00  2.918975276816622e+03
 1.145582757196483e+03 -9.190304394549615e+00  2.918975276816622e+03
 1.145562877071034e+03 -1.071223896034193e+01  2.918975276816622e+03
 1.145532189597852e+03 -1.259693748962475e+01  2.918975276816622e+03
 1.145493084022445e+03 -1.522390463332145e+01  2.918975276816622e+03
 1.145446762359268e+03 -1.814907001997180e+01  2.918975276816622e+03
 1.145413926143940e+03 -2.041100275420944e+01  2.918975276816622e+03
 1.145376211889435e+03 -2.270191378707190e+01  2.918975276816622e+03
 1.145333426893232e+03 -2.500789733597417e+01  2.918975276816622e+03
 1.145316973469107e+03 -2.698647577515997e+01  2.918975276816622e+03
 1.145325145429412e+03 -2.877996938255771e+01  2.918975276816622e+03
 1.145281181901001e+03 -2.992869158192198e+01  2.918975276816622e+03
 1.145232097962727e+03 -3.101736633932608e+01  2.918975276816622e+03
 1.145240267780182e+03 -3.262319111101468e+01  2.918975276816622e+03
 1.145233570284043e+03 -3.449572568930054e+01  2.918975276816622e+03
 1.145199867907265e+03 -3.683095852131588e+01  2.918975276816622e+03
 1.145176080068434e+03 -3.868366695179575e+01  2.918975276816622e+03
 1.145148599943163e+03 -4.072187347761076e+01  2.918975276816622e+03
 1.145124774126321e+03 -4.339189163163037e+01  2.918975276816622e+03
 1.145111542162718e+03 -4.513287839737165e+01  2.918975276816622e+03
 1.145102160085884e+03 -4.662128787593711e+01  2.918975276816622e+03
 1.145074210228795e+03 -4.916168821920884e+01  2.918975276816622e+03
 1.145044357251265e+03 -5.249021139161170e+01  2.918975276816622e+03
 1.145021713781056e+03 -5.534277547531336e+01  2.918975276816622e+03
 1.145018411617177e+03 -5.749778272908747e+01  2.918975276816622e+03
 1.144995923994963e+03 -5.951467996822819e+01  2.918975276816622e+03
 1.144960695642825e+03 -6.138029752654842e+01  2.918975276816622e+03
 1.144968488456349e+03 -6.304398708883993e+01  2.918975276816622e+03
 1.144976542488452e+03 -6.425561151173018e+01  2.918975276816622e+03
 1.144936508899785e+03 -6.511335245342865e+01  2.918975276816622e+03
 1.144921192360542e+03 -6.616846343481932e+01  2.918975276816622e+03
 1.144958423168767e+03 -6.780306682448987e+01  2.918975276816622e+03
 1.144954471599592e+03 -6.948263302479582e+01  2.918975276816622e+03
 1.144940840518684e+03 -7.146208206240870e+01  2.918975276816622e+03
 1.144935456574215e+03 -7.383321936801347e+01  2.918975276816622e+03
 1.144931067589683e+03 -7.687148887792294e+01  2.918975276816622e+03
 1.144933786076338e+03 -7.971454648924947e+01  2.918975276816622e+03
 1.144928822078627e+03 -8.150128697530796e+01  2.918975276816622e+03
 1.144898901495804e+03 -8.315368339716530e+01  2.918975276816622e+03
 1.144894865630596e+03 -8.457150142191021e+01  2.918975276816622e+03
 1.144940535470991e+03 -8.563419396149072e+01  2.918975276816622e+03
 1.144940046083544e+03 -8.669721940020598e+01  2.918975276816622e+03
 1.144899655298187e+03 -8.808646909195906e+01  2.918975276816622e+03
 1.144904158624196e+03 -8.956119885356354e+01  2.918975276816622e+03
 1.144916293721846e+03 -9.133832805717063e+01  2.918975276816622e+03
 1.144910083708189e+03 -9.359734985695924e+01  2.918975276816622e+03
 1.144903314803968e+03 -9.636582510613958e+01  2.918975276816622e+03
 1.144904381404344e+03 -9.869671327588610e+01  2.918975276816622e+03
 1.144924160651534e+03 -1.005493366565369e+02  2.918975276816622e+03
 1.144916760760179e+03 -1.022888751372996e+02  2.918975276816622e+03
 1.144919940389954e+03 -1.041544421220952e+02  2.918975276816622e+03
 1.144901590154802e+03 -1.058932674961540e+02  2.918975276816622e+03
 1.144841654187941e+03 -1.069436644073908e+02  2.918975276816622e+03
 1.144823099199168e+03 -1.088710275823893e+02  2.918975276816622e+03
 1.144866433184284e+03 -1.102428944605408e+02  2.918975276816622e+03
 1.144897397136935e+03 -1.113642747765644e+02  2.918975276816622e+03
 1.144867462016770e+03 -1.135214287995032e+02  2.918975276816622e+03
 1.144849820226918e+03 -1.158125119576444e+02  2.918975276816622e+03
 1.144844471767380e+03 -1.182375242509880e+02  2.918975276816622e+03
 1.144840463347804e+03 -1.206191751961595e+02  2.918975276816622e+03
 1.144837138499797e+03 -1.229585584839912e+02  2.918975276816622e+03
 1.144833157183401e+03 -1.252990354626552e+02  2.918975276816622e+03
 1.144830009840225e+03 -1.275962048044911e+02  2.918975276816622e+03
 1.144827365580175e+03 -1.294600105394968e+02  2.918975276816622e+03
 1.144825298975995e+03 -1.313391369679695e+02  2.918975276816622e+03
 1.144824140917775e+03 -1.336236400599108e+02  2.918975276816622e+03
 1.144823064709669e+03 -1.363693946888313e+02  2.918975276816622e+03
 1.144821836936261e+03 -1.386327719368474e+02  2.918975276816622e+03
 1.144819941840915e+03 -1.411486935848660e+02  2.918975276816622e+03
 1.144818604725268e+03 -1.439019936088042e+02  2.918975276816622e+03
 1.144818810514658e+03 -1.458116641910921e+02  2.918975276816622e+03
 1.144818140522921e+03 -1.478154285882004e+02  2.918975276816622e+03
 1.144817159146911e+03 -1.495311369561107e+02  2.918975276816622e+03
 1.144817635118883e+03 -1.514393723309773e+02  2.918975276816622e+03
 1.144818453023171e+03 -1.538071190565025e+02  2.918975276816622e+03
 1.144820878090329e+03 -1.568357161991073e+02  2.918975276816622e+03
 1.144816110538034e+03 -1.595608342324740e+02  2.918975276816622e+03
 1.144803927366182e+03 -1.612966788044881e+02  2.918975276816622e+03
 1.144815992413927e+03 -1.630489271813325e+02  2.918975276816622e+03
 1.144844750480132e+03 -1.646385719604301e+02  2.918975276816622e+03
 1.144809181818429e+03 -1.655067763829237e+02  2.918975276816622e+03
 1.144787905190169e+03 -1.664097484052955e+02  2.918975276816622e+03
 1.144845757244507e+03 -1.679070313833686e+02  2.918975276816622e+03
 1.144866521263339e+03 -1.694157474966617e+02  2.918975276816622e+03
 1.144902292683583e+03 -1.713800687410558e+02  2.918975276816622e+03
 1.144996840500359e+03 -1.738306163181623e+02  2.918975276816622e+03
 1.145021172777231e+03 -1.768126657150427e+02  2.918975276816622e+03
 1.145170809843474e+03 -1.794719180232103e+02  2.918975276816622e+03
 1.145321193090143e+03 -1.809696409682248e+02  2.918975276816622e+03
 1.145338342486984e+03 -1.826736946302529e+02  2.918975276816622e+03
 1.145417032182846e+03 -1.848913094639612e+02  2.918975276816622e+03
 1.145669679551630e+03 -1.865907497083506e+02  2.918975276816622e+03
 1.145569476335984e+03 -1.885104690499336e+02  2.918975276816622e+03
 1.144942464862986e+03 -1.911686420780290e+02  2.918975276816622e+03
 1.144315453389988e+03 -1.938268151061243e+02  2.918975276816622e+03
 1.144114751839244e+03 -1.969294170380266e+02  2.918975276816622e+03
 1.144499560746872e+03 -2.007810226263657e+02  2.918975276816622e+03
 1.144817463717388e+03 -2.048146062320425e+02  2.918975276816622e+03
 1.144873844702197e+03 -2.076363914205569e+02  2.918975276816622e+03
 1.144863896750643e+03 -2.093442669164845e+02  2.918975276816622e+03
 1.144855838433060e+03 -2.113418587082150e+02  2.918975276816622e+03
 1.144880583173332e+03 -2.136538748064652e+02  2.918975276816622e+03
 1.144897119193799e+03 -2.158825227133260e+02  2.918975276816622e+03
 1.144898400272663e+03 -2.178045157445475e+02  2.918975276816622e+03
 1.144898461436005e+03 -2.199035120484705e+02  2.918975276816622e+03
 1.144904348905622e+03 -2.224027983093447e+02  2.918975276816622e+03
 1.144909086666621e+03 -2.243845054364898e+02  2.918975276816622e+03
 1.144916173770995e+03 -2.269419013024551e+02  2.918975276816622e+03
 1.144923321580075e+03 -2.293908619564901e+02  2.918975276816622e+03
 1.144929450118227e+03 -2.314466565139080e+02  2.918975276816622e+03
 1.144936863780964e+03 -2.335274509881762e+02  2.918975276816622e+03
 1.144943403627247e+03 -2.354924276611385e+02  2.918975276816622e+03
 1.144950852475205e+03 -2.378625138261973e+02  2.918975276816622e+03
 1.144957972261317e+03 -2.401671187083749e+02  2.918975276816622e+03
 1.144966889142190e+03 -2.431872539623327e+02  2.918975276816622e+03
 1.144973949238491e+03 -2.464860757386660e+02  2.918975276816622e+03
 1.144976501220938e+03 -2.484723406360259e+02  2.918975276816622e+03
 1.144981801192678e+03 -2.501084951836838e+02  2.918975276816622e+03
 1.144989725460040e+03 -2.524673809059365e+02  2.918975276816622e+03
 1.144999432867318e+03 -2.554017626951545e+02  2.918975276816622e+03
 1.145010923414515e+03 -2.589116405513377e+02  2.918975276816622e+03
 1.145015914310131e+03 -2.619453114997664e+02  2.918975276816622e+03
 1.145014405554168e+03 -2.645027755404407e+02  2.918975276816622e+03
 1.145028949723704e+03 -2.673842804455719e+02  2.918975276816622e+03
 1.145057419423671e+03 -2.695167516648758e+02  2.918975276816622e+03
 1.145074099167849e+03 -2.714245014061640e+02  2.918975276816622e+03
 1.145054039246220e+03 -2.731284478929331e+02  2.918975276816622e+03
 1.145038774851085e+03 -2.746474915867815e+02  2.918975276816622e+03
 1.145056554191564e+03 -2.772120620744413e+02  2.918975276816622e+03
 1.145066441012592e+03 -2.798049443936204e+02  2.918975276816622e+03
 1.145067264210136e+03 -2.822478652843743e+02  2.918975276816622e+03
 1.145069814604264e+03 -2.850846598842560e+02  2.918975276816622e+03
 1.145066944698543e+03 -2.873812999510070e+02  2.918975276816622e+03
 1.145068834636876e+03 -2.894163150677318e+02  2.918975276816622e+03
 1.145070416435294e+03 -2.919512893889689e+02  2.918975276816622e+03
 1.145072528896174e+03 -2.940933319306737e+02  2.918975276816622e+03
 1.145076068843288e+03 -2.969037324633308e+02  2.918975276816622e+03
 1.145063492245006e+03 -2.988768842090381e+02  2.918975276816622e+03
 1.145052253414668e+03 -3.008269654780585e+02  2.918975276816622e+03
 1.145055889403756e+03 -3.031679591204215e+02  2.918975276816622e+03
 1.145058013823821e+03 -3.048231581004281e+02  2.918975276816622e+03
 1.145049887512146e+03 -3.071046740377644e+02  2.918975276816622e+03
 1.145048843658626e+03 -3.091609521844744e+02  2.918975276816622e+03
 1.145038164180597e+03 -3.112221271963244e+02  2.918975276816622e+03
 1.145037369297145e+03 -3.130443818752021e+02  2.918975276816622e+03
 1.145031069745866e+03 -3.143300756475468e+02  2.918975276816622e+03
 1.145029087329166e+03 -3.164644685051732e+02  2.918975276816622e+03
 1.145019348572612e+03 -3.185430613204251e+02  2.918975276816622e+03
 1.145019679293212e+03 -3.203356592029949e+02  2.918975276816622e+03
 1.145017981125820e+03 -3.225085116893869e+02  2.918975276816622e+03
 1.145013689127190e+03 -3.247872378077043e+02  2.918975276816622e+03
 1.144997980969620e+03 -3.263109106328566e+02  2.918975276816622e+03
 1.145008865321766e+03 -3.277671551291858e+02  2.918975276816622e+03
 1.145024406171784e+03 -3.303666364386871e+02  2.918975276816622e+03
 1.145020691643616e+03 -3.330848865089609e+02  2.918975276816622e+03
 1.144995520207198e+03 -3.360473361200192e+02  2.918975276816622e+03
 1.144983782440614e+03 -3.379335770758988e+02  2.918975276816622e+03
 1.144984864439459e+03 -3.394334160063392e+02  2.918975276816622e+03
 1.144982895944724e+03 -3.418741942827729e+02  2.918975276816622e+03
 1.144966726793604e+03 -3.440856228805965e+02  2.918975276816622e+03
 1.144957492681469e+03 -3.469039364041637e+02  2.918975276816622e+03
 1.144956344835182e+03 -3.504640588452784e+02  2.918975276816622e+03
 1.144936405875100e+03 -3.526257928293927e+02  2.918975276816622e+03
 1.144936607410041e+03 -3.550556815794037e+02  2.918975276816622e+03
 1.144948061034255e+03 -3.582442035736601e+02  2.918975276816622e+03
 1.144937890524177e+03 -3.595934896170457e+02  2.918975276816622e+03
 1.144909165445739e+03 -3.607400284992381e+02  2.918975276816622e+03
 1.144940691491302e+03 -3.630486794311469e+02  2.918975276816622e+03
 1.144957226719876e+03 -3.656147186866571e+02  2.918975276816622e+03
 1.144960125643711e+03 -3.677428222987212e+02  2.918975276816622e+03
 1.144950832606944e+03 -3.700279425679834e+02  2.918975276816622e+03
 1.144969634554207e+03 -3.716265266365543e+02  2.918975276816622e+03
 1.144996164734564e+03 -3.735196432679426e+02  2.918975276816622e+03
 1.145003786172706e+03 -3.765611960581543e+02  2.918975276816622e+03
 1.145013983983818e+03 -3.791246227520847e+02  2.918975276816622e+03
 1.145026744503314e+03 -3.816375082550611e+02  2.918975276816622e+03
 1.145040963288651e+03 -3.831868108505425e+02  2.918975276816622e+03
 1.145059894729600e+03 -3.849327824235004e+02  2.918975276816622e+03
1.145099367530232e+03 3.830892812635140e+02 2.918975276816622e+03
1.145076907236662e+03 3.856104597557833e+02 2.918975276816622e+03
1.145115952806880e+03 3.800771724979165e+02 2.918975276816622e+03
1.145126276611694e+03 3.783396825494723e+02 2.918975276816622e+03
1.145136781257408e+03 3.771327077164252e+02 2.918975276816622e+03
1.145159102140004e+03 3.750383425499579e+02 2.918975276816622e+03
1.145170034152321e+03 3.732608288616224e+02 2.918975276816622e+03
1.145179718734699e+03 3.720405340273256e+02 2.918975276816622e+03
1.145207769832611e+03 3.692171043676761e+02 2.918975276816622e+03
1.145238930300990e+03 3.662575651375163e+02 2.918975276816622e+03
1.145258651539841e+03 3.640525000520334e+02 2.918975276816622e+03
1.145286322521182e+03 3.613689948929169e+02 2.918975276816622e+03
1.145309531999132e+03 3.590639671470200e+02 2.918975276816622e+03
1.145320762533216e+03 3.576493630878185e+02 2.918975276816622e+03
1.145333269238737e+03 3.562807529615740e+02 2.918975276816622e+03
1.145351610334258e+03 3.545900433850858e+02 2.918975276816622e+03
1.145371322719855e+03 3.527218692545293e+02 2.918975276816622e+03
1.145376510017615e+03 3.510612192596426e+02 2.918975276816622e+03
1.145335922867353e+03 3.492534301352940e+02 2.918975276816622e+03
1.145367080527625e+03 3.474352686538514e+02 2.918975276816622e+03
1.145493350006374e+03 3.457123812367843e+02 2.918975276816622e+03
1.145489929064760e+03 3.440998632816482e+02 2.918975276816622e+03
1.145402456034318e+03 3.425514399506279e+02 2.918975276816622e+03
1.145426255918892e+03 3.407320166341972e+02 2.918975276816622e+03
1.145552761623908e+03 3.390511697441718e+02 2.918975276816622e+03
1.145575414454491e+03 3.364066898029166e+02 2.918975276816622e+03
1.145518042748871e+03 3.330818657925676e+02 2.918975276816622e+03
1.145525328078315e+03 3.301728434529428e+02 2.918975276816622e+03
1.145576066026410e+03 3.274551788711069e+02 2.918975276816622e+03
1.145528958284066e+03 3.248058963289792e+02 2.918975276816622e+03
1.145526418929719e+03 3.224834472541090e+02 2.918975276816622e+03
1.145647997880475e+03 3.204021869368351e+02 2.918975276816622e+03
1.145654143161043e+03 3.189945454940390e+02 2.918975276816622e+03
1.145637536272154e+03 3.173903749824390e+02 2.918975276816622e+03
1.145672366989650e+03 3.148085632622368e+02 2.918975276816622e+03
1.145745697016865e+03 3.125744137644900e+02 2.918975276816622e+03
1.145721799930732e+03 3.116914368172593e+02 2.918975276816622e+03
1.145633327847205e+03 3.107464445107217e+02 2.918975276816622e+03
1.145627107503874e+03 3.088088013557601e+02 2.918975276816622e+03
1.145616838661752e+03 3.071759399921967e+02 2.918975276816622e+03
1.145612632189230e+03 3.054260236879692e+02 2.918975276816622e+03
1.145606688778607e+03 3.032369148952571e+02 2.918975276816622e+03
1.145536170804743e+03 3.020376072746950e+02 2.918975276816622e+03
1.145474848603330e+03 3.004231709869090e+02 2.918975276816622e+03
1.145497598723836e+03 2.982094413096098e+02 2.918975276816622e+03
1.145500645087086e+03 2.963953102846253e+02 2.918975276816622e+03
1.145469364337320e+03 2.945201444587336e+02 2.918975276816622e+03
1.145443920216445e+03 2.928673389413557e+02 2.918975276816622e+03
1.145424280572307e+03 2.907604442708680e+02 2.918975276816622e+03
1.145400287406478e+03 2.883221031353955e+02 2.918975276816622e+03
1.145377222985343e+03 2.860188646903757e+02 2.918975276816622e+03
1.145354774217016e+03 2.838398705357204e+02 2.918975276816622e+03
1.145335317629281e+03 2.819777208916061e+02 2.918975276816622e+03
1.145308515251679e+03 2.792943306957928e+02 2.918975276816622e+03
1.145280909702742e+03 2.763373765787185e+02 2.918975276816622e+03
1.145253586062639e+03 2.732423214893646e+02 2.918975276816622e+03
1.145223241521451e+03 2.700338565318960e+02 2.918975276816622e+03
1.145199442061353e+03 2.677254622196594e+02 2.918975276816622e+03
1.145178653810784e+03 2.659232883933871e+02 2.918975276816622e+03
1.145164877768427e+03 2.638345849485576e+02 2.918975276816622e+03
1.145149634559992e+03 2.603993579944445e+02 2.918975276816622e+03
1.145111851252815e+03 2.581800475406654e+02 2.918975276816622e+03
1.145082418579227e+03 2.567927503676967e+02 2.918975276816622e+03
1.145078408473211e+03 2.544677765704424e+02 2.918975276816622e+03
1.145076578442176e+03 2.522928851195986e+02 2.918975276816622e+03
1.145079360535255e+03 2.507900582161773e+02 2.918975276816622e+03
1.145057984426423e+03 2.494311761715597e+02 2.918975276816622e+03
1.145038323821836e+03 2.478248735718740e+02 2.918975276816622e+03
1.145057841580209e+03 2.464611577151216e+02 2.918975276816622e+03
1.145057110279773e+03 2.451937434029514e+02 2.918975276816622e+03
1.145029066926108e+03 2.436926435186606e+02 2.918975276816622e+03
1.145017617568721e+03 2.416129942896991e+02 2.918975276816622e+03
1.145018952594363e+03 2.391728128769767e+02 2.918975276816622e+03
1.145020287620004e+03 2.367326314642544e+02 2.918975276816622e+03
1.145020856179910e+03 2.347053351890660e+02 2.918975276816622e+03
1.145015385245582e+03 2.326212590079701e+02 2.918975276816622e+03
1.145013095833496e+03 2.299392109793306e+02 2.918975276816622e+03
1.145023528566145e+03 2.279243826876948e+02 2.918975276816622e+03
1.145018433587679e+03 2.268562732971187e+02 2.918975276816622e+03
1.145009624715438e+03 2.250032278021379e+02 2.918975276816622e+03
1.145011681931739e+03 2.226521176926434e+02 2.918975276816622e+03
1.145011993010727e+03 2.209786401065896e+02 2.918975276816622e+03
1.145013372614580e+03 2.191326919075109e+02 2.918975276816622e+03
1.145012351557814e+03 2.168747044218123e+02 2.918975276816622e+03
1.145016369118024e+03 2.143090920108798e+02 2.918975276816622e+03
1.145010623444207e+03 2.120732233137494e+02 2.918975276816622e+03
1.144997225474648e+03 2.099900414882848e+02 2.918975276816622e+03
1.145010607212942e+03 2.081494033469269e+02 2.918975276816622e+03
1.145056614796103e+03 2.068310306485843e+02 2.918975276816622e+03
1.144993921993532e+03 2.061073001442592e+02 2.918975276816622e+03
1.144926568032363e+03 2.053727028183971e+02 2.918975276816622e+03
1.144986015245970e+03 2.042604270303380e+02 2.918975276816622e+03
1.145001952927772e+03 2.032058184045272e+02 2.918975276816622e+03
1.144968565450188e+03 2.017417153726903e+02 2.918975276816622e+03
1.144975796440778e+03 2.006232054369237e+02 2.918975276816622e+03
1.144991949024859e+03 1.990382374464092e+02 2.918975276816622e+03
1.144980355362045e+03 1.966068472986204e+02 2.918975276816622e+03
1.144968219310568e+03 1.938146121083422e+02 2.918975276816622e+03
1.144964931603580e+03 1.911605904708330e+02 2.918975276816622e+03
1.144971034629746e+03 1.890056274285820e+02 2.918975276816622e+03
1.144975485046415e+03 1.870972989469654e+02 2.918975276816622e+03
1.144973556299170e+03 1.849537002445009e+02 2.918975276816622e+03
1.144977068325774e+03 1.825657781096459e+02 2.918975276816622e+03
1.144987363365958e+03 1.809188230182523e+02 2.918975276816622e+03
1.144993133687730e+03 1.791570829872174e+02 2.918975276816622e+03
1.144997763605777e+03 1.767771723221713e+02 2.918975276816622e+03
1.145004653161144e+03 1.741019209240246e+02 2.918975276816622e+03
1.145014541073777e+03 1.718031077305750e+02 2.918975276816622e+03
1.145021953888515e+03 1.699614299977479e+02 2.918975276816622e+03
1.145032784089329e+03 1.683911551515190e+02 2.918975276816622e+03
1.145043624785671e+03 1.670514035184463e+02 2.918975276816622e+03
1.145054771865084e+03 1.647130767407843e+02 2.918975276816622e+03
1.145072846035958e+03 1.616316979691503e+02 2.918975276816622e+03
1.145090920206831e+03 1.585503191975162e+02 2.918975276816622e+03
1.145071484430220e+03 1.557795388622013e+02 2.918975276816622e+03
1.145082942926976e+03 1.528322028878308e+02 2.918975276816622e+03
1.145147198697419e+03 1.493216622315786e+02 2.918975276816622e+03
1.145166835093518e+03 1.467775759796309e+02 2.918975276816622e+03
1.145130980626787e+03 1.449717253675934e+02 2.918975276816622e+03
1.145124731741769e+03 1.428760923317611e+02 2.918975276816622e+03
1.145151159790460e+03 1.411184993631398e+02 2.918975276816622e+03
1.145155919986436e+03 1.393018119375638e+02 2.918975276816622e+03
1.145162419413350e+03 1.371024769349289e+02 2.918975276816622e+03
1.145165940145403e+03 1.344493591677034e+02 2.918975276816622e+03
1.145168715567305e+03 1.320765872599552e+02 2.918975276816622e+03
1.145151109170437e+03 1.300933127746466e+02 2.918975276816622e+03
1.145158921284875e+03 1.283215900177900e+02 2.918975276816622e+03
1.145196932657448e+03 1.270353157638789e+02 2.918975276816622e+03
1.145140036404679e+03 1.263842423919234e+02 2.918975276816622e+03
1.145108839717969e+03 1.257320277654690e+02 2.918975276816622e+03
1.145166417586386e+03 1.243781297686403e+02 2.918975276816622e+03
1.145173236022467e+03 1.227902502560154e+02 2.918975276816622e+03
1.145126699355848e+03 1.212039568163132e+02 2.918975276816622e+03
1.145134596078713e+03 1.193908180863217e+02 2.918975276816622e+03
1.145213520041050e+03 1.171098732841065e+02 2.918975276816622e+03
1.145214335010336e+03 1.141884347604300e+02 2.918975276816622e+03
1.145084081241188e+03 1.114560049723856e+02 2.918975276816622e+03
1.145098967439274e+03 1.099221166166628e+02 2.918975276816622e+03
1.145261207720502e+03 1.080963631634185e+02 2.918975276816622e+03
1.145276484764711e+03 1.059854293888118e+02 2.918975276816622e+03
1.145241099043453e+03 1.035434016466811e+02 2.918975276816622e+03
1.145283413890439e+03 1.012629379106020e+02 2.918975276816622e+03
1.145328792574451e+03 9.931873057996988e+01 2.918975276816622e+03
1.145345089369323e+03 9.684239792982237e+01 2.918975276816622e+03
1.145358687991993e+03 9.468349685568393e+01 2.918975276816622e+03
1.145383385987081e+03 9.248449041034333e+01 2.918975276816622e+03
1.145421881526789e+03 8.992794701779160e+01 2.918975276816622e+03
1.145460377066496e+03 8.737140362523985e+01 2.918975276816622e+03
1.145498872606203e+03 8.481486023268810e+01 2.918975276816622e+03
1.145542484894031e+03 8.196190925494881e+01 2.918975276816622e+03
1.145584037719550e+03 7.928034182020049e+01 2.918975276816622e+03
1.145618414334640e+03 7.706656551363069e+01 2.918975276816622e+03
1.145652366915250e+03 7.457654198050648e+01 2.918975276816622e+03
1.145685895461382e+03 7.181027122082789e+01 2.918975276816622e+03
1.145699107215492e+03 6.897662409808129e+01 2.918975276816622e+03
1.145692002177582e+03 6.607560061226675e+01 2.918975276816622e+03
1.145750730659808e+03 6.374544659973225e+01 2.918975276816622e+03
1.145823577630617e+03 6.157167304081946e+01 2.918975276816622e+03
1.145844709569873e+03 5.898341046224835e+01 2.918975276816622e+03
1.145865841509129e+03 5.639514788367723e+01 2.918975276816622e+03
1.145904633587892e+03 5.410539626347864e+01 2.918975276816622e+03
1.145945965643755e+03 5.188792388878812e+01 2.918975276816622e+03
1.145965264690866e+03 5.001817676576879e+01 2.918975276816622e+03
1.145945616826475e+03 4.856040261908999e+01 2.918975276816622e+03
1.145953185275531e+03 4.739549170844545e+01 2.918975276816622e+03
1.145994806936178e+03 4.559133999116751e+01 2.918975276816622e+03
1.146023818889412e+03 4.329245929956767e+01 2.918975276816622e+03
1.145982671297729e+03 4.223954750027341e+01 2.918975276816622e+03
1.145961188443338e+03 4.116922451269339e+01 2.918975276816622e+03
1.145995040302763e+03 3.926847163979100e+01 2.918975276816622e+03
1.145996830415468e+03 3.718100532534846e+01 2.918975276816622e+03
1.145991358058865e+03 3.499299870181676e+01 2.918975276816622e+03
1.145974987417140e+03 3.268490608138212e+01 2.918975276816622e+03
1.145969996240861e+03 3.033696319286556e+01 2.918975276816622e+03
1.145960607760327e+03 2.814129836996782e+01 2.918975276816622e+03
1.145947786752023e+03 2.538814671217738e+01 2.918975276816622e+03
1.145930262434225e+03 2.229169364779963e+01 2.918975276816622e+03
1.145911095129449e+03 1.922335033204539e+01 2.918975276816622e+03
1.145893986794197e+03 1.637490249942770e+01 2.918975276816622e+03
1.145874912329474e+03 1.408470389524726e+01 2.918975276816622e+03
1.145859155153540e+03 1.184190429728378e+01 2.918975276816622e+03
1.145830760889514e+03 1.020829795455357e+01 2.918975276816622e+03
1.145816236607052e+03 8.789960660665175e+00 2.918975276816622e+03
1.145789348414777e+03 6.202394682085742e+00 2.918975276816622e+03
1.145757684771470e+03 3.666030282431351e+00 2.918975276816622e+03
-1.157069735791106e+03 -5.910264113301139e-01 -2.918975276816622e+03
-1.157032596307434e+03 -4.053843437966788e+00 -2.918975276816622e+03
-1.157097549811090e+03  2.748664700565525e+00 -2.918975276816622e+03
-1.157116038367388e+03  5.965229897720127e+00 -2.918975276816622e+03
-1.156972213545236e+03 -6.884873958921405e+00 -2.918975276816622e+03
-1.156888587504511e+03 -9.084117974193960e+00 -2.918975276816622e+03
-1.156905195806179e+03 -1.021522621004279e+01 -2.918975276816622e+03
-1.156979085573870e+03 -1.201268407393713e+01 -2.918975276816622e+03
-1.156951633593773e+03 -1.516865288791912e+01 -2.918975276816622e+03
-1.156924535440178e+03 -1.775165986615058e+01 -2.918975276816622e+03
-1.156956179984506e+03 -2.013767946601312e+01 -2.918975276816622e+03
-1.157014726732336e+03 -2.165217315212445e+01 -2.918975276816622e+03
-1.157039206295364e+03 -2.385163653271240e+01 -2.918975276816622e+03
-1.157001693946452e+03 -2.709103073574087e+01 -2.918975276816622e+03
-1.156982566165266e+03 -2.956093872624907e+01 -2.918975276816622e+03
-1.156982845475439e+03 -3.177792529002431e+01 -2.918975276816622e+03
-1.156985110403418e+03 -3.366516527811323e+01 -2.918975276816622e+03
-1.156991694690428e+03 -3.524146579744030e+01 -2.918975276816622e+03
-1.156992600245079e+03 -3.662095296848654e+01 -2.918975276816622e+03
-1.156953385602760e+03 -3.888682382766075e+01 -2.918975276816622e+03
-1.156932424453786e+03 -4.100646660678225e+01 -2.918975276816622e+03
-1.156932160533756e+03 -4.251386832905913e+01 -2.918975276816622e+03
-1.156961362837432e+03 -4.444020083957880e+01 -2.918975276816622e+03
-1.156925795718295e+03 -4.546158904182719e+01 -2.918975276816622e+03
-1.156886877860230e+03 -4.651340121473180e+01 -2.918975276816622e+03
-1.156897955121490e+03 -4.857148482342513e+01 -2.918975276816622e+03
-1.156898600420682e+03 -5.007186319867348e+01 -2.918975276816622e+03
-1.156870665216498e+03 -5.123200553786290e+01 -2.918975276816622e+03
-1.156835970612947e+03 -5.357939474619594e+01 -2.918975276816622e+03
-1.156816391545386e+03 -5.563254360246700e+01 -2.918975276816622e+03
-1.156809817230144e+03 -5.740693361260830e+01 -2.918975276816622e+03
-1.156804474331882e+03 -5.956270692088926e+01 -2.918975276816622e+03
-1.156782145600241e+03 -6.092247948857951e+01 -2.918975276816622e+03
-1.156736590501202e+03 -6.241786224924092e+01 -2.918975276816622e+03
-1.156710966081195e+03 -6.419597697046223e+01 -2.918975276816622e+03
-1.156728317417647e+03 -6.536280012411186e+01 -2.918975276816622e+03
-1.156739062205240e+03 -6.662074188309789e+01 -2.918975276816622e+03
-1.156719560903320e+03 -6.861580331415242e+01 -2.918975276816622e+03
-1.156677926259984e+03 -7.014400282384715e+01 -2.918975276816622e+03
-1.156633051791496e+03 -7.125493034723701e+01 -2.918975276816622e+03
-1.156633910106441e+03 -7.258142587683470e+01 -2.918975276816622e+03
-1.156665528583883e+03 -7.421636562478386e+01 -2.918975276816622e+03
-1.156656316728035e+03 -7.574740916526643e+01 -2.918975276816622e+03
-1.156624958486336e+03 -7.653836354778848e+01 -2.918975276816622e+03
-1.156610190550669e+03 -7.775098457157812e+01 -2.918975276816622e+03
-1.156642696615105e+03 -7.951799958142277e+01 -2.918975276816622e+03
-1.156640986845728e+03 -8.084142556118782e+01 -2.918975276816622e+03
-1.156617627870037e+03 -8.236158567759485e+01 -2.918975276816622e+03
-1.156599492719584e+03 -8.413516120827261e+01 -2.918975276816622e+03
-1.156584478600165e+03 -8.539136915756413e+01 -2.918975276816622e+03
-1.156584407307666e+03 -8.666830712185488e+01 -2.918975276816622e+03
-1.156600317111282e+03 -8.856810391738748e+01 -2.918975276816622e+03
-1.156582927766340e+03 -9.006851597436646e+01 -2.918975276816622e+03
-1.156556164173454e+03 -9.118443033109307e+01 -2.918975276816622e+03
-1.156551005564881e+03 -9.362006745296678e+01 -2.918975276816622e+03
-1.156553494114678e+03 -9.582828087079507e+01 -2.918975276816622e+03
-1.156529855214506e+03 -9.769245426430717e+01 -2.918975276816622e+03
-1.156484895952506e+03 -1.000704337216809e+02 -2.918975276816622e+03
-1.156513277039436e+03 -1.012263993428058e+02 -2.918975276816622e+03
-1.156552201039841e+03 -1.024166801552766e+02 -2.918975276816622e+03
-1.156504154101814e+03 -1.043992977296261e+02 -2.918975276816622e+03
-1.156469305586168e+03 -1.059399940836838e+02 -2.918975276816622e+03
-1.156502774484841e+03 -1.068807968120443e+02 -2.918975276816622e+03
-1.156519379323352e+03 -1.083333809318384e+02 -2.918975276816622e+03
-1.156476229190662e+03 -1.101804272446375e+02 -2.918975276816622e+03
-1.156457749261107e+03 -1.118662563032742e+02 -2.918975276816622e+03
-1.156481587432053e+03 -1.131956067854385e+02 -2.918975276816622e+03
-1.156495570889953e+03 -1.146819197353114e+02 -2.918975276816622e+03
-1.156488126247080e+03 -1.170636726586104e+02 -2.918975276816622e+03
-1.156472519468234e+03 -1.193383585516737e+02 -2.918975276816622e+03
-1.156457722890403e+03 -1.208250748485520e+02 -2.918975276816622e+03
-1.156454148190305e+03 -1.223304330316900e+02 -2.918975276816622e+03
-1.156488355640436e+03 -1.242245159387138e+02 -2.918975276816622e+03
-1.156477849667569e+03 -1.254771991760575e+02 -2.918975276816622e+03
-1.156457883411256e+03 -1.266166076086190e+02 -2.918975276816622e+03
-1.156469746000220e+03 -1.285742728964937e+02 -2.918975276816622e+03
-1.156496375105361e+03 -1.307401870274215e+02 -2.918975276816622e+03
-1.156474022728252e+03 -1.320297550311210e+02 -2.918975276816622e+03
-1.156466062662727e+03 -1.328537193897595e+02 -2.918975276816622e+03
-1.156496184889508e+03 -1.342318805501311e+02 -2.918975276816622e+03
-1.156503726674720e+03 -1.356895439859347e+02 -2.918975276816622e+03
-1.156484955282019e+03 -1.373524351670329e+02 -2.918975276816622e+03
-1.156497090692211e+03 -1.394681313563736e+02 -2.918975276816622e+03
-1.156523480285470e+03 -1.408770947605715e+02 -2.918975276816622e+03
-1.156547866321752e+03 -1.424197873602365e+02 -2.918975276816622e+03
-1.156551980754373e+03 -1.442526617058361e+02 -2.918975276816622e+03
-1.156548065737715e+03 -1.454127341104061e+02 -2.918975276816622e+03
-1.156554024820826e+03 -1.467505159537666e+02 -2.918975276816622e+03
-1.156583842456357e+03 -1.496461380786235e+02 -2.918975276816622e+03
-1.156628414951863e+03 -1.533096239534462e+02 -2.918975276816622e+03
-1.156629650842483e+03 -1.556075193362627e+02 -2.918975276816622e+03
-1.156585023283920e+03 -1.574054918731415e+02 -2.918975276816622e+03
-1.156574063726026e+03 -1.595189273656879e+02 -2.918975276816622e+03
-1.156634137387678e+03 -1.607304931420876e+02 -2.918975276816622e+03
-1.156664379694887e+03 -1.621926061738408e+02 -2.918975276816622e+03
-1.156644654341708e+03 -1.638732573716871e+02 -2.918975276816622e+03
-1.156641468267266e+03 -1.651571775961223e+02 -2.918975276816622e+03
-1.156665996547336e+03 -1.666773915905151e+02 -2.918975276816622e+03
-1.156666280466188e+03 -1.687636614502983e+02 -2.918975276816622e+03
-1.156670966317482e+03 -1.713055920844926e+02 -2.918975276816622e+03
-1.156658655569664e+03 -1.728669668976013e+02 -2.918975276816622e+03
-1.156678324698980e+03 -1.751208578373188e+02 -2.918975276816622e+03
-1.156714736478413e+03 -1.782651174126282e+02 -2.918975276816622e+03
-1.156773259461356e+03 -1.807683858679655e+02 -2.918975276816622e+03
-1.156770742138474e+03 -1.829902457335781e+02 -2.918975276816622e+03
-1.156725021068599e+03 -1.852752973284703e+02 -2.918975276816622e+03
-1.156753605357805e+03 -1.867596755435532e+02 -2.918975276816622e+03
-1.156768153357243e+03 -1.881386984874883e+02 -2.918975276816622e+03
-1.156740328229201e+03 -1.904240102076988e+02 -2.918975276816622e+03
-1.156715879683869e+03 -1.931817941677477e+02 -2.918975276816622e+03
-1.156691556996272e+03 -1.960989536366436e+02 -2.918975276816622e+03
-1.156696701317877e+03 -1.979396174403575e+02 -2.918975276816622e+03
-1.156718206091795e+03 -1.994326165304967e+02 -2.918975276816622e+03
-1.156697133073309e+03 -2.006289106640426e+02 -2.918975276816622e+03
-1.156630220415503e+03 -2.020870575784886e+02 -2.918975276816622e+03
-1.156633993195191e+03 -2.038650356396197e+02 -2.918975276816622e+03
-1.156715891046886e+03 -2.050271458252862e+02 -2.918975276816622e+03
-1.156701999189230e+03 -2.064687506890400e+02 -2.918975276816622e+03
-1.156616443397068e+03 -2.085569618902367e+02 -2.918975276816622e+03
-1.156574803663459e+03 -2.111541379316376e+02 -2.918975276816622e+03
-1.156537001745292e+03 -2.139882038693190e+02 -2.918975276816622e+03
-1.156499199827124e+03 -2.168222698070003e+02 -2.918975276816622e+03
-1.156431659192949e+03 -2.195332440141837e+02 -2.918975276816622e+03
-1.156430194567618e+03 -2.208202018521055e+02 -2.918975276816622e+03
-1.156468150143449e+03 -2.220998094285727e+02 -2.918975276816622e+03
-1.156448221376594e+03 -2.251661634547425e+02 -2.918975276816622e+03
-1.156451002507757e+03 -2.285138314120473e+02 -2.918975276816622e+03
-1.156471760294960e+03 -2.314496338064040e+02 -2.918975276816622e+03
-1.156486295021188e+03 -2.341854287790715e+02 -2.918975276816622e+03
-1.156500829747414e+03 -2.369212237517389e+02 -2.918975276816622e+03
-1.156515364473641e+03 -2.396570187244063e+02 -2.918975276816622e+03
-1.156537639341317e+03 -2.425904114313534e+02 -2.918975276816622e+03
-1.156579915781149e+03 -2.454909002721955e+02 -2.918975276816622e+03
-1.156597245465723e+03 -2.480471364694310e+02 -2.918975276816622e+03
-1.156589663800719e+03 -2.498365462876886e+02 -2.918975276816622e+03
-1.156607246271061e+03 -2.510626441527704e+02 -2.918975276816622e+03
-1.156668733551339e+03 -2.532080298862693e+02 -2.918975276816622e+03
-1.156670097630668e+03 -2.555432833010464e+02 -2.918975276816622e+03
-1.156648266602689e+03 -2.584053152385060e+02 -2.918975276816622e+03
-1.156677498858375e+03 -2.615438266504549e+02 -2.918975276816622e+03
-1.156689828793108e+03 -2.637923822096519e+02 -2.918975276816622e+03
-1.156715049311413e+03 -2.659026736502659e+02 -2.918975276816622e+03
-1.156731279118731e+03 -2.676682361724605e+02 -2.918975276816622e+03
-1.156754257709659e+03 -2.690179676867209e+02 -2.918975276816622e+03
-1.156701151606965e+03 -2.699856479338729e+02 -2.918975276816622e+03
-1.156693917115522e+03 -2.710582009819706e+02 -2.918975276816622e+03
-1.156723379111598e+03 -2.725255082937314e+02 -2.918975276816622e+03
-1.156752514427776e+03 -2.752194399434321e+02 -2.918975276816622e+03
-1.156747478962624e+03 -2.782904603426883e+02 -2.918975276816622e+03
-1.156709511891769e+03 -2.806939574120391e+02 -2.918975276816622e+03
-1.156695935737147e+03 -2.839735976041549e+02 -2.918975276816622e+03
-1.156736195153277e+03 -2.862479734599394e+02 -2.918975276816622e+03
-1.156748241711754e+03 -2.878580575764273e+02 -2.918975276816622e+03
-1.156673526826450e+03 -2.912515393700616e+02 -2.918975276816622e+03
-1.156668657488640e+03 -2.940701556630615e+02 -2.918975276816622e+03
-1.156652743450263e+03 -2.964231226195650e+02 -2.918975276816622e+03
-1.156641637623466e+03 -2.995164035523242e+02 -2.918975276816622e+03
-1.156630529563677e+03 -3.014385382149446e+02 -2.918975276816622e+03
-1.156623741287331e+03 -3.028771134592158e+02 -2.918975276816622e+03
-1.156609323246462e+03 -3.047069196544962e+02 -2.918975276816622e+03
-1.156597700683761e+03 -3.066637875443865e+02 -2.918975276816622e+03
-1.156584145621421e+03 -3.086923589530924e+02 -2.918975276816622e+03
-1.156569245869194e+03 -3.109458346427264e+02 -2.918975276816622e+03
-1.156569681185842e+03 -3.137759286898622e+02 -2.918975276816622e+03
-1.156557401247304e+03 -3.164731886099043e+02 -2.918975276816622e+03
-1.156521925928135e+03 -3.183470526010194e+02 -2.918975276816622e+03
-1.156508196475343e+03 -3.195281068216512e+02 -2.918975276816622e+03
-1.156540647544911e+03 -3.210231386165824e+02 -2.918975276816622e+03
-1.156553725987114e+03 -3.227740883655302e+02 -2.918975276816622e+03
-1.156529359602325e+03 -3.240068887739187e+02 -2.918975276816622e+03
-1.156480593697144e+03 -3.252908843185035e+02 -2.918975276816622e+03
-1.156471345348923e+03 -3.265800570540642e+02 -2.918975276816622e+03
-1.156494169239629e+03 -3.279109598834123e+02 -2.918975276816622e+03
-1.156512470737690e+03 -3.293783125067232e+02 -2.918975276816622e+03
-1.156488948173296e+03 -3.305801060570543e+02 -2.918975276816622e+03
-1.156462615200736e+03 -3.329252869952598e+02 -2.918975276816622e+03
-1.156473629768107e+03 -3.348895499143874e+02 -2.918975276816622e+03
-1.156493406830546e+03 -3.358485056717130e+02 -2.918975276816622e+03
-1.156486715670616e+03 -3.374815655315802e+02 -2.918975276816622e+03
-1.156475166111333e+03 -3.398974140652467e+02 -2.918975276816622e+03
-1.156486671588206e+03 -3.420536922730931e+02 -2.918975276816622e+03
-1.156473253196080e+03 -3.434271824134977e+02 -2.918975276816622e+03
-1.156453370024730e+03 -3.452089383215679e+02 -2.918975276816622e+03
-1.156419757770178e+03 -3.474380758462053e+02 -2.918975276816622e+03
-1.156464080788095e+03 -3.486022019486699e+02 -2.918975276816622e+03
-1.156528552726242e+03 -3.498218872768288e+02 -2.918975276816622e+03
-1.156535238312151e+03 -3.521621432528548e+02 -2.918975276816622e+03
-1.156553634317508e+03 -3.554494692482170e+02 -2.918975276816622e+03
-1.156573186349717e+03 -3.581361715171732e+02 -2.918975276816622e+03
-1.156593633943485e+03 -3.604941939724866e+02 -2.918975276816622e+03
-1.156603828098062e+03 -3.625940936692111e+02 -2.918975276816622e+03
-1.156616412052368e+03 -3.638275198408725e+02 -2.918975276816622e+03
-1.156636431417832e+03 -3.659871554450920e+02 -2.918975276816622e+03
-1.156654847791189e+03 -3.691520185134813e+02 -2.918975276816622e+03
-1.156663085707268e+03 -3.718124165156844e+02 -2.918975276816622e+03
-1.156679623117518e+03 -3.733965229661753e+02 -2.918975276816622e+03
-1.156739440834525e+03 -3.754616787312748e+02 -2.918975276816622e+03
-1.156742806802614e+03 -3.771134253640479e+02 -2.918975276816622e+03
-1.156689557045275e+03 -3.787554889394124e+02 -2.918975276816622e+03
-1.156723050919181e+03 -3.800924381127474e+02 -2.918975276816622e+03
-1.156762981186560e+03 -3.813014915698337e+02 -2.918975276816622e+03
-1.156742129811710e+03 -3.842572527423470e+02 -2.918975276816622e+03
-1.156737196988903e+03 -3.862611558284917e+02 -2.918975276816622e+03
-1.156752842579877e+03  3.828340421211606e+02 -2.918975276816622e+03
-1.156744081895908e+03  3.848649620802967e+02 -2.918975276816622e+03
-1.156758799071669e+03  3.805041503882210e+02 -2.918975276816622e+03
-1.156744103086877e+03  3.781379280386402e+02 -2.918975276816622e+03
-1.156743255301836e+03  3.770642584331259e+02 -2.918975276816622e+03
-1.156760048809829e+03  3.750677733902405e+02 -2.918975276816622e+03
-1.156756717170928e+03  3.715469840485468e+02 -2.918975276816622e+03
-1.156750641332028e+03  3.681750327900905e+02 -2.918975276816622e+03
-1.156743925841533e+03  3.655344410746062e+02 -2.918975276816622e+03
-1.156733756678515e+03  3.622261115834607e+02 -2.918975276816622e+03
-1.156730566755099e+03  3.583493373773053e+02 -2.918975276816622e+03
-1.156733062001450e+03  3.558580296463081e+02 -2.918975276816622e+03
-1.156726447235825e+03  3.542135780509655e+02 -2.918975276816622e+03
-1.156716397835159e+03  3.516422664493325e+02 -2.918975276816622e+03
-1.156707276069072e+03  3.485834121202616e+02 -2.918975276816622e+03
-1.156699583370752e+03  3.452134153688118e+02 -2.918975276816622e+03
-1.156692858949443e+03  3.420425023838196e+02 -2.918975276816622e+03
-1.156685673737373e+03  3.393818155876654e+02 -2.918975276816622e+03
-1.156677788255292e+03  3.367272991079174e+02 -2.918975276816622e+03
-1.156670605598145e+03  3.341244274152644e+02 -2.918975276816622e+03
-1.156664826035944e+03  3.315670301932994e+02 -2.918975276816622e+03
-1.156659046473744e+03  3.290096329713348e+02 -2.918975276816622e+03
-1.156657045681485e+03  3.271256792962658e+02 -2.918975276816622e+03
-1.156655627771699e+03  3.248482912751462e+02 -2.918975276816622e+03
-1.156653721230955e+03  3.226188307127577e+02 -2.918975276816622e+03
-1.156652800745262e+03  3.210153633128259e+02 -2.918975276816622e+03
-1.156651891761482e+03  3.186436072220595e+02 -2.918975276816622e+03
-1.156652634488652e+03  3.160982278245489e+02 -2.918975276816622e+03
-1.156653296223399e+03  3.136587016219079e+02 -2.918975276816622e+03
-1.156658210930427e+03  3.114832899516246e+02 -2.918975276816622e+03
-1.156660823365214e+03  3.091269749777883e+02 -2.918975276816622e+03
-1.156648836799751e+03  3.064962736628899e+02 -2.918975276816622e+03
-1.156628806478558e+03  3.040362038428398e+02 -2.918975276816622e+03
-1.156660490584126e+03  3.027429223831035e+02 -2.918975276816622e+03
-1.156703167576395e+03  3.014428201511395e+02 -2.918975276816622e+03
-1.156705123028604e+03  2.989691087866331e+02 -2.918975276816622e+03
-1.156697796031954e+03  2.965674274841799e+02 -2.918975276816622e+03
-1.156702933503489e+03  2.948398467369681e+02 -2.918975276816622e+03
-1.156668740467987e+03  2.930050932431838e+02 -2.918975276816622e+03
-1.156689578414847e+03  2.909532706962573e+02 -2.918975276816622e+03
-1.156771536721847e+03  2.890555708537180e+02 -2.918975276816622e+03
-1.156784331507866e+03  2.872098798776799e+02 -2.918975276816622e+03
-1.156708858840264e+03  2.854589089333309e+02 -2.918975276816622e+03
-1.156744938813203e+03  2.831927063279433e+02 -2.918975276816622e+03
-1.156822174844347e+03  2.800114988997636e+02 -2.918975276816622e+03
-1.156825779672577e+03  2.779256793438789e+02 -2.918975276816622e+03
-1.156793070874229e+03  2.765542494086199e+02 -2.918975276816622e+03
-1.156828920270406e+03  2.746202686928519e+02 -2.918975276816622e+03
-1.156876164509274e+03  2.727740706134931e+02 -2.918975276816622e+03
-1.156850773006499e+03  2.714836297291985e+02 -2.918975276816622e+03
-1.156800768773918e+03  2.704545899785633e+02 -2.918975276816622e+03
-1.156820504113186e+03  2.678524741537145e+02 -2.918975276816622e+03
-1.156846423494205e+03  2.655085768727812e+02 -2.918975276816622e+03
-1.156777586143426e+03  2.637458013157379e+02 -2.918975276816622e+03
-1.156777212900505e+03  2.617155499957776e+02 -2.918975276816622e+03
-1.156929763597780e+03  2.604465417286940e+02 -2.918975276816622e+03
-1.156985481142865e+03  2.588814789822300e+02 -2.918975276816622e+03
-1.156936855752259e+03  2.572928283924153e+02 -2.918975276816622e+03
-1.156916046027335e+03  2.560837748164130e+02 -2.918975276816622e+03
-1.156911720041537e+03  2.547083950234403e+02 -2.918975276816622e+03
-1.156923920743033e+03  2.529000381935655e+02 -2.918975276816622e+03
-1.156887104595655e+03  2.512242338410089e+02 -2.918975276816622e+03
-1.156905033093087e+03  2.505424985468633e+02 -2.918975276816622e+03
-1.156897425607223e+03  2.488499693900247e+02 -2.918975276816622e+03
-1.156834763270321e+03  2.466951840900980e+02 -2.918975276816622e+03
-1.156781090789853e+03  2.451555038590470e+02 -2.918975276816622e+03
-1.156840176467044e+03  2.437177374841675e+02 -2.918975276816622e+03
-1.156855818051984e+03  2.420041106723035e+02 -2.918975276816622e+03
-1.156738150181859e+03  2.404656670896538e+02 -2.918975276816622e+03
-1.156669027817224e+03  2.392773087037656e+02 -2.918975276816622e+03
-1.156676836316298e+03  2.369789383684629e+02 -2.918975276816622e+03
-1.156637402013390e+03  2.348511008227524e+02 -2.918975276816622e+03
-1.156592244633145e+03  2.329771948455301e+02 -2.918975276816622e+03
-1.156564627713597e+03  2.307518416550144e+02 -2.918975276816622e+03
-1.156560848360375e+03  2.294940283546035e+02 -2.918975276816622e+03
-1.156516427127434e+03  2.280902391266115e+02 -2.918975276816622e+03
-1.156470579120691e+03  2.263422381311170e+02 -2.918975276816622e+03
-1.156478202184699e+03  2.252905125583369e+02 -2.918975276816622e+03
-1.156479619843364e+03  2.240926042560529e+02 -2.918975276816622e+03
-1.156427927631707e+03  2.220024461101886e+02 -2.918975276816622e+03
-1.156407802740000e+03  2.201990679788951e+02 -2.918975276816622e+03
-1.156376591686325e+03  2.190194647135999e+02 -2.918975276816622e+03
-1.156243485653267e+03  2.168951582781015e+02 -2.918975276816622e+03
-1.156225508500828e+03  2.149202153210627e+02 -2.918975276816622e+03
-1.156303671922273e+03  2.131973852220198e+02 -2.918975276816622e+03
-1.156281222782237e+03  2.109864939775416e+02 -2.918975276816622e+03
-1.156226899947300e+03  2.095723557472332e+02 -2.918975276816622e+03
-1.156182910835875e+03  2.081084680959337e+02 -2.918975276816622e+03
-1.156188594710315e+03  2.062016382890486e+02 -2.918975276816622e+03
-1.156180686218226e+03  2.049038911672609e+02 -2.918975276816622e+03
-1.156128224573804e+03  2.039502099069203e+02 -2.918975276816622e+03
-1.156117480315462e+03  2.021240819672793e+02 -2.918975276816622e+03
-1.156123011360247e+03  2.003427609671098e+02 -2.918975276816622e+03
-1.156127615881845e+03  1.989762541443125e+02 -2.918975276816622e+03
-1.156100166296580e+03  1.965536216872931e+02 -2.918975276816622e+03
-1.156084270730141e+03  1.938451496977151e+02 -2.918975276816622e+03
-1.156074816615469e+03  1.914733178060422e+02 -2.918975276816622e+03
-1.156064896192222e+03  1.887778735458691e+02 -2.918975276816622e+03
-1.156060397737994e+03  1.865900304085562e+02 -2.918975276816622e+03
-1.156047149406931e+03  1.852413343183775e+02 -2.918975276816622e+03
-1.156048043854375e+03  1.838809638124968e+02 -2.918975276816622e+03
-1.156058583572418e+03  1.820274887772375e+02 -2.918975276816622e+03
-1.156057367725206e+03  1.805339722334098e+02 -2.918975276816622e+03
-1.156039236810875e+03  1.795046005948924e+02 -2.918975276816622e+03
-1.156032973980708e+03  1.770968029858381e+02 -2.918975276816622e+03
-1.156039951779763e+03  1.748792843400270e+02 -2.918975276816622e+03
-1.156061093025016e+03  1.731551354265177e+02 -2.918975276816622e+03
-1.156060177783958e+03  1.710257843949354e+02 -2.918975276816622e+03
-1.156010308196418e+03  1.696298279951900e+02 -2.918975276816622e+03
-1.156014966733626e+03  1.681303173928096e+02 -2.918975276816622e+03
-1.156061313515918e+03  1.664315228592896e+02 -2.918975276816622e+03
-1.156060940162536e+03  1.651873510545873e+02 -2.918975276816622e+03
-1.156040202617560e+03  1.639406658132233e+02 -2.918975276816622e+03
-1.156047821234664e+03  1.620710679406428e+02 -2.918975276816622e+03
-1.156065413025162e+03  1.604810828293271e+02 -2.918975276816622e+03
-1.156075495401755e+03  1.593292184688292e+02 -2.918975276816622e+03
-1.156070836667138e+03  1.571275787962821e+02 -2.918975276816622e+03
-1.156072696327651e+03  1.550729566360382e+02 -2.918975276816622e+03
-1.156076981563775e+03  1.531931446209887e+02 -2.918975276816622e+03
-1.156103882784656e+03  1.510369468479159e+02 -2.918975276816622e+03
-1.156104401269820e+03  1.497506736556707e+02 -2.918975276816622e+03
-1.156090113038701e+03  1.482208694407819e+02 -2.918975276816622e+03
-1.156098403387628e+03  1.463506527694035e+02 -2.918975276816622e+03
-1.156135949963549e+03  1.451895277400648e+02 -2.918975276816622e+03
-1.156134334069441e+03  1.440620283690015e+02 -2.918975276816622e+03
-1.156118525254584e+03  1.420939745633889e+02 -2.918975276816622e+03
-1.156132329571698e+03  1.404491546709935e+02 -2.918975276816622e+03
-1.156163064000655e+03  1.392853305430175e+02 -2.918975276816622e+03
-1.156169004711740e+03  1.370023994718299e+02 -2.918975276816622e+03
-1.156175381456155e+03  1.349100031817879e+02 -2.918975276816622e+03
-1.156187187184409e+03  1.330901450693309e+02 -2.918975276816622e+03
-1.156229016374330e+03  1.307498337602932e+02 -2.918975276816622e+03
-1.156235713585150e+03  1.294317028868292e+02 -2.918975276816622e+03
-1.156232765349110e+03  1.281409257840739e+02 -2.918975276816622e+03
-1.156264794294291e+03  1.264606637490963e+02 -2.918975276816622e+03
-1.156303736481380e+03  1.251233939979962e+02 -2.918975276816622e+03
-1.156299495303793e+03  1.237597531066937e+02 -2.918975276816622e+03
-1.156293620469345e+03  1.220446208024976e+02 -2.918975276816622e+03
-1.156323496312609e+03  1.205191699678376e+02 -2.918975276816622e+03
-1.156355840221026e+03  1.194288559409931e+02 -2.918975276816622e+03
-1.156385325090945e+03  1.170712062509462e+02 -2.918975276816622e+03
-1.156394843045964e+03  1.148778402020576e+02 -2.918975276816622e+03
-1.156378610123671e+03  1.131325707158398e+02 -2.918975276816622e+03
-1.156377441699632e+03  1.111988186073287e+02 -2.918975276816622e+03
-1.156434586261036e+03  1.100744474450963e+02 -2.918975276816622e+03
-1.156495894847603e+03  1.085626141268969e+02 -2.918975276816622e+03
-1.156495946124867e+03  1.068470457606115e+02 -2.918975276816622e+03
-1.156447622487816e+03  1.054599177683194e+02 -2.918975276816622e+03
-1.156467075221019e+03  1.040296992740234e+02 -2.918975276816622e+03
-1.156530400676969e+03  1.022187920586365e+02 -2.918975276816622e+03
-1.156537240466179e+03  1.007367346152158e+02 -2.918975276816622e+03
-1.156521700948435e+03  9.930457285300535e+01 -2.918975276816622e+03
-1.156545964784241e+03  9.761220031860051e+01 -2.918975276816622e+03
-1.156568096950146e+03  9.607823902039303e+01 -2.918975276816622e+03
-1.156582386385191e+03  9.317968119196577e+01 -2.918975276816622e+03
-1.156576170128175e+03  9.056994186019247e+01 -2.918975276816622e+03
-1.156590563485475e+03  8.899894653045587e+01 -2.918975276816622e+03
-1.156635741474252e+03  8.734789355072463e+01 -2.918975276816622e+03
-1.156606112683044e+03  8.660364668608175e+01 -2.918975276816622e+03
-1.156565276564313e+03  8.586002194553122e+01 -2.918975276816622e+03
-1.156623539944024e+03  8.392142865387727e+01 -2.918975276816622e+03
-1.156656756863714e+03  8.090835314233061e+01 -2.918975276816622e+03
-1.156684946928131e+03  7.774460297568221e+01 -2.918975276816622e+03
-1.156705762631173e+03  7.495306759964711e+01 -2.918975276816622e+03
-1.156723929990392e+03  7.261103659681736e+01 -2.918975276816622e+03
-1.156742040009354e+03  7.039633571993531e+01 -2.918975276816622e+03
-1.156762324089962e+03  6.818546472717392e+01 -2.918975276816622e+03
-1.156790790098780e+03  6.532141732334519e+01 -2.918975276816622e+03
-1.156801735513994e+03  6.308248314235634e+01 -2.918975276816622e+03
-1.156804199451441e+03  6.163764856544051e+01 -2.918975276816622e+03
-1.156824301374862e+03  5.938261982731207e+01 -2.918975276816622e+03
-1.156846326589261e+03  5.730348744976198e+01 -2.918975276816622e+03
-1.156882651006255e+03  5.494969137646116e+01 -2.918975276816622e+03
-1.156901225487751e+03  5.225109858862271e+01 -2.918975276816622e+03
-1.156914253265885e+03  5.032032370799396e+01 -2.918975276816622e+03
-1.156927949938309e+03  4.881011298082128e+01 -2.918975276816622e+03
-1.156946710674944e+03  4.726538658937335e+01 -2.918975276816622e+03
-1.156958346836002e+03  4.540764094134529e+01 -2.918975276816622e+03
-1.156967283294617e+03  4.317534939998540e+01 -2.918975276816622e+03
-1.156991076675566e+03  4.187606125376248e+01 -2.918975276816622e+03
-1.157015312270941e+03  4.028105172262615e+01 -2.918975276816622e+03
-1.157036152029335e+03  3.753111313372924e+01 -2.918975276816622e+03
-1.157048412718790e+03  3.456073098627596e+01 -2.918975276816622e+03
-1.157074474655184e+03  3.144155766891185e+01 -2.918975276816622e+03
-1.157091976796845e+03  2.933197690826145e+01 -2.918975276816622e+03
-1.157103320447552e+03  2.749295412624889e+01 -2.918975276816622e+03
-1.157117065402038e+03  2.491489676616041e+01 -2.918975276816622e+03
-1.157135016510937e+03  2.247399384562567e+01 -2.918975276816622e+03
-1.157157173774248e+03  2.017024536464468e+01 -2.918975276816622e+03
-1.157151630828120e+03  1.819801958933670e+01 -2.918975276816622e+03
-1.157087149217461e+03  1.654034512431371e+01 -2.918975276816622e+03
-1.157084885697420e+03  1.505396216910349e+01 -2.918975276816622e+03
-1.157179807841640e+03  1.414261180554303e+01 -2.918975276816622e+03
-1.157196450868895e+03  1.293703351602645e+01 -2.918975276816622e+03
-1.157154146859957e+03  1.088868729787357e+01 -2.918975276816622e+03
-1.157134904050343e+03  8.678570763489475e+00 -2.918975276816622e+03
 1.154482058280320e+03 -1.808751731761627e+00  2.918975276816622e+03
 1.154505384181598e+03 -3.456872492828518e-01  2.918975276816622e+03
 1.154449252694769e+03 -3.310297609560107e+00  2.918975276816622e+03
 1.154415137284106e+03 -5.753164983072217e+00  2.918975276816622e+03
 1.154387834693475e+03 -8.121867661171763e+00  2.918975276816622e+03
 1.154355257960035e+03 -1.050501487076715e+01  2.918975276816622e+03
 1.154317407083788e+03 -1.290260661185838e+01  2.918975276816622e+03
 1.154279556207540e+03 -1.530019835294961e+01  2.918975276816622e+03
 1.154241445887630e+03 -1.766638019462403e+01  2.918975276816622e+03
 1.154203076124058e+03 -2.000115213688165e+01  2.918975276816622e+03
 1.154151480771921e+03 -2.250959860790971e+01  2.918975276816622e+03
 1.154086659831220e+03 -2.519171960770823e+01  2.918975276816622e+03
 1.154091212636263e+03 -2.659042947267875e+01  2.918975276816622e+03
 1.154100347220023e+03 -2.843983506095210e+01  2.918975276816622e+03
 1.154056318760189e+03 -3.137985026306636e+01  2.918975276816622e+03
 1.154023919223786e+03 -3.367636822089077e+01  2.918975276816622e+03
 1.153992476982590e+03 -3.632692215327358e+01  2.918975276816622e+03
 1.153963884509844e+03 -3.909723153307745e+01  2.918975276816622e+03
 1.153937184510342e+03 -4.163326038574402e+01  2.918975276816622e+03
 1.153918541379511e+03 -4.438475940747780e+01  2.918975276816622e+03
 1.153884825319842e+03 -4.744359126521820e+01  2.918975276816622e+03
 1.153865731146561e+03 -5.002668930025080e+01  2.918975276816622e+03
 1.153848347600399e+03 -5.186690221513155e+01  2.918975276816622e+03
 1.153838668310560e+03 -5.344591117653427e+01  2.918975276816622e+03
 1.153817266029814e+03 -5.540336225974193e+01  2.918975276816622e+03
 1.153802934279408e+03 -5.769256065382684e+01  2.918975276816622e+03
 1.153796397791176e+03 -5.967199199413587e+01  2.918975276816622e+03
 1.153787800793226e+03 -6.116899636165818e+01  2.918975276816622e+03
 1.153773671006541e+03 -6.257019135861100e+01  2.918975276816622e+03
 1.153763288360391e+03 -6.433283122632851e+01  2.918975276816622e+03
 1.153770389175247e+03 -6.581963996913174e+01  2.918975276816622e+03
 1.153762718852604e+03 -6.781618681614371e+01  2.918975276816622e+03
 1.153753115643757e+03 -7.008580939099220e+01  2.918975276816622e+03
 1.153746333386317e+03 -7.142997634543680e+01  2.918975276816622e+03
 1.153735793149053e+03 -7.323673200537242e+01  2.918975276816622e+03
 1.153724408451380e+03 -7.630353217426030e+01  2.918975276816622e+03
 1.153726939704899e+03 -7.942060907610201e+01  2.918975276816622e+03
 1.153721419158349e+03 -8.129218757999809e+01  2.918975276816622e+03
 1.153713306208481e+03 -8.331034265521777e+01  2.918975276816622e+03
 1.153707586785453e+03 -8.539310258603845e+01  2.918975276816622e+03
 1.153701318124279e+03 -8.746958191076789e+01  2.918975276816622e+03
 1.153696945248166e+03 -8.980262008606518e+01  2.918975276816622e+03
 1.153695266167876e+03 -9.150877037339110e+01  2.918975276816622e+03
 1.153690833509693e+03 -9.350660166744505e+01  2.918975276816622e+03
 1.153686476547528e+03 -9.602214675390938e+01  2.918975276816622e+03
 1.153682028957217e+03 -9.762132213823728e+01  2.918975276816622e+03
 1.153678452998836e+03 -9.915738236039576e+01  2.918975276816622e+03
 1.153669457142490e+03 -1.020698218943839e+02  2.918975276816622e+03
 1.153663620032940e+03 -1.044110217740724e+02  2.918975276816622e+03
 1.153662367789466e+03 -1.055987359735919e+02  2.918975276816622e+03
 1.153658839612778e+03 -1.075167485735340e+02  2.918975276816622e+03
 1.153650471055630e+03 -1.097377195918985e+02  2.918975276816622e+03
 1.153645138790840e+03 -1.113599396805058e+02  2.918975276816622e+03
 1.153639952842966e+03 -1.134262237498329e+02  2.918975276816622e+03
 1.153637095788935e+03 -1.159407424923550e+02  2.918975276816622e+03
 1.153626451986422e+03 -1.188226751405858e+02  2.918975276816622e+03
 1.153605012272227e+03 -1.215332373898257e+02  2.918975276816622e+03
 1.153575986867500e+03 -1.237744707479993e+02  2.918975276816622e+03
 1.153598732701128e+03 -1.249461613420495e+02  2.918975276816622e+03
 1.153628273331906e+03 -1.269938624305866e+02  2.918975276816622e+03
 1.153615616519977e+03 -1.310480462896416e+02  2.918975276816622e+03
 1.153610709952599e+03 -1.347332014171199e+02  2.918975276816622e+03
 1.153610774631277e+03 -1.379883983011141e+02  2.918975276816622e+03
 1.153610839309954e+03 -1.412435951851083e+02  2.918975276816622e+03
 1.153617179752632e+03 -1.437916285068943e+02  2.918975276816622e+03
 1.153614486874621e+03 -1.467883646988394e+02  2.918975276816622e+03
 1.153617088679528e+03 -1.497714300784747e+02  2.918975276816622e+03
 1.153615350267923e+03 -1.514935701220360e+02  2.918975276816622e+03
 1.153616477597197e+03 -1.533658964243453e+02  2.918975276816622e+03
 1.153603683751973e+03 -1.561135120228822e+02  2.918975276816622e+03
 1.153603902739033e+03 -1.590775253207410e+02  2.918975276816622e+03
 1.153626571472582e+03 -1.610092245289811e+02  2.918975276816622e+03
 1.153617601568166e+03 -1.620645326146334e+02  2.918975276816622e+03
 1.153593136004185e+03 -1.630320892329081e+02  2.918975276816622e+03
 1.153614658012523e+03 -1.645939376824316e+02  2.918975276816622e+03
 1.153617560227888e+03 -1.659861965671217e+02  2.918975276816622e+03
 1.153600615458383e+03 -1.675353270587721e+02  2.918975276816622e+03
 1.153602209347865e+03 -1.695956458605062e+02  2.918975276816622e+03
 1.153622033687601e+03 -1.713094126824315e+02  2.918975276816622e+03
 1.153618488577347e+03 -1.732248895559839e+02  2.918975276816622e+03
 1.153620072528524e+03 -1.762538849499987e+02  2.918975276816622e+03
 1.153622002084765e+03 -1.793520751708574e+02  2.918975276816622e+03
 1.153613282984981e+03 -1.823517572057240e+02  2.918975276816622e+03
 1.153606972717571e+03 -1.852337975881066e+02  2.918975276816622e+03
 1.153589246270902e+03 -1.870521872563700e+02  2.918975276816622e+03
 1.153587508508087e+03 -1.895735998211463e+02  2.918975276816622e+03
 1.153577372467539e+03 -1.928023657990906e+02  2.918975276816622e+03
 1.153590579629821e+03 -1.960520559237014e+02  2.918975276816622e+03
 1.153606903892726e+03 -1.994122058420126e+02  2.918975276816622e+03
 1.153630860010115e+03 -2.022734551754375e+02  2.918975276816622e+03
 1.153642778628505e+03 -2.048544714651252e+02  2.918975276816622e+03
 1.153654697246895e+03 -2.074354877548129e+02  2.918975276816622e+03
 1.153662025261803e+03 -2.098984128304572e+02  2.918975276816622e+03
 1.153669997465824e+03 -2.127676634516569e+02  2.918975276816622e+03
 1.153683204462439e+03 -2.161613308324552e+02  2.918975276816622e+03
 1.153692746730402e+03 -2.191461287657730e+02  2.918975276816622e+03
 1.153698348089159e+03 -2.219085315583016e+02  2.918975276816622e+03
 1.153705718548709e+03 -2.237489894146551e+02  2.918975276816622e+03
 1.153711186237376e+03 -2.249153751428613e+02  2.918975276816622e+03
 1.153715718307654e+03 -2.272621734640390e+02  2.918975276816622e+03
 1.153722239045491e+03 -2.296109017146923e+02  2.918975276816622e+03
 1.153728678452267e+03 -2.311367809769068e+02  2.918975276816622e+03
 1.153735774265659e+03 -2.332142582966074e+02  2.918975276816622e+03
 1.153743100580829e+03 -2.358324821564159e+02  2.918975276816622e+03
 1.153750943426380e+03 -2.383611410591839e+02  2.918975276816622e+03
 1.153756786217653e+03 -2.401697107230163e+02  2.918975276816622e+03
 1.153764836061297e+03 -2.426564277743800e+02  2.918975276816622e+03
 1.153775907015959e+03 -2.461244854426619e+02  2.918975276816622e+03
 1.153785015037897e+03 -2.489310632390379e+02  2.918975276816622e+03
 1.153793346122738e+03 -2.514930571730565e+02  2.918975276816622e+03
 1.153801488569392e+03 -2.541109496054533e+02  2.918975276816622e+03
 1.153807565676534e+03 -2.563488868103221e+02  2.918975276816622e+03
 1.153815656328861e+03 -2.590331148258264e+02  2.918975276816622e+03
 1.153825407884058e+03 -2.611283003814797e+02  2.918975276816622e+03
 1.153831074434730e+03 -2.625262448549516e+02  2.918975276816622e+03
 1.153834885324517e+03 -2.646981352426346e+02  2.918975276816622e+03
 1.153839099440789e+03 -2.671687835980496e+02  2.918975276816622e+03
 1.153846685802712e+03 -2.700373025077985e+02  2.918975276816622e+03
 1.153853045469115e+03 -2.719186092848530e+02  2.918975276816622e+03
 1.153854581024594e+03 -2.733168131679479e+02  2.918975276816622e+03
 1.153855139218964e+03 -2.759019145148124e+02  2.918975276816622e+03
 1.153860702294430e+03 -2.784728495493657e+02  2.918975276816622e+03
 1.153868114540237e+03 -2.798139174464183e+02  2.918975276816622e+03
 1.153870868085357e+03 -2.818175042012313e+02  2.918975276816622e+03
 1.153871534536929e+03 -2.847880388907402e+02  2.918975276816622e+03
 1.153872221086246e+03 -2.874332454944616e+02  2.918975276816622e+03
 1.153873860801795e+03 -2.900807201222170e+02  2.918975276816622e+03
 1.153874757815931e+03 -2.932618639714352e+02  2.918975276816622e+03
 1.153885628964443e+03 -2.958621401410172e+02  2.918975276816622e+03
 1.153937520085505e+03 -2.971438320495820e+02  2.918975276816622e+03
 1.153877099471129e+03 -2.976698978174967e+02  2.918975276816622e+03
 1.153812579656802e+03 -2.981991399364766e+02  2.918975276816622e+03
 1.153855351489935e+03 -2.998631848277506e+02  2.918975276816622e+03
 1.153866899298286e+03 -3.021072773595210e+02  2.918975276816622e+03
 1.153866628021778e+03 -3.035096975878610e+02  2.918975276816622e+03
 1.153853569057128e+03 -3.055987684170452e+02  2.918975276816622e+03
 1.153829876243445e+03 -3.083926933138646e+02  2.918975276816622e+03
 1.153848534801583e+03 -3.096908221900564e+02  2.918975276816622e+03
 1.153895238439464e+03 -3.106689100241489e+02  2.918975276816622e+03
 1.153854992786929e+03 -3.115109298875782e+02  2.918975276816622e+03
 1.153817555798914e+03 -3.125391922982903e+02  2.918975276816622e+03
 1.153850261869986e+03 -3.139662985167654e+02  2.918975276816622e+03
 1.153852573834494e+03 -3.161145009285518e+02  2.918975276816622e+03
 1.153828858407921e+03 -3.195494353776170e+02  2.918975276816622e+03
 1.153817799421653e+03 -3.225742217729787e+02  2.918975276816622e+03
 1.153810673518230e+03 -3.248989771227426e+02  2.918975276816622e+03
 1.153811554342073e+03 -3.273056686600813e+02  2.918975276816622e+03
 1.153800046182964e+03 -3.299953135407194e+02  2.918975276816622e+03
 1.153790754618227e+03 -3.318681720697797e+02  2.918975276816622e+03
 1.153783111513539e+03 -3.335595745205352e+02  2.918975276816622e+03
 1.153781566314387e+03 -3.366750602062350e+02  2.918975276816622e+03
 1.153775209213494e+03 -3.390745551119106e+02  2.918975276816622e+03
 1.153771250924200e+03 -3.417198314210681e+02  2.918975276816622e+03
 1.153768071444473e+03 -3.453034460809044e+02  2.918975276816622e+03
 1.153778285007553e+03 -3.487911852379417e+02  2.918975276816622e+03
 1.153758102680309e+03 -3.507637789567025e+02  2.918975276816622e+03
 1.153724309871034e+03 -3.527340597507470e+02  2.918975276816622e+03
 1.153735578007438e+03 -3.559766917188593e+02  2.918975276816622e+03
 1.153735990010834e+03 -3.586801986366041e+02  2.918975276816622e+03
 1.153740247930208e+03 -3.616408051994938e+02  2.918975276816622e+03
 1.153762362382354e+03 -3.639063140598520e+02  2.918975276816622e+03
 1.153774615311506e+03 -3.653113257815991e+02  2.918975276816622e+03
 1.153739063959876e+03 -3.663732389180332e+02  2.918975276816622e+03
 1.153739710146668e+03 -3.678047446987310e+02  2.918975276816622e+03
 1.153776770682157e+03 -3.698957827683178e+02  2.918975276816622e+03
 1.153789846946092e+03 -3.726523088142349e+02  2.918975276816622e+03
 1.153797102104809e+03 -3.751820644375029e+02  2.918975276816622e+03
 1.153811075873002e+03 -3.774663733592926e+02  2.918975276816622e+03
 1.153829565388798e+03 -3.803257027032374e+02  2.918975276816622e+03
 1.153864151728764e+03 -3.829004438712781e+02  2.918975276816622e+03
 1.153835313040894e+03 -3.839965470038289e+02  2.918975276816622e+03
 1.153792799593413e+03 -3.851667338963881e+02  2.918975276816622e+03
1.153847814860759e+03 3.846238526641245e+02 2.918975276816622e+03
1.153809854524046e+03 3.858228473272431e+02 2.918975276816622e+03
1.153895523487985e+03 3.827370975382667e+02 2.918975276816622e+03
1.153879623960693e+03 3.812783761253987e+02 2.918975276816622e+03
1.153866555563663e+03 3.799435077489334e+02 2.918975276816622e+03
1.153902490621571e+03 3.776895992458158e+02 2.918975276816622e+03
1.153938962693739e+03 3.749535112607950e+02 2.918975276816622e+03
1.153959888397481e+03 3.728312651388035e+02 2.918975276816622e+03
1.153964713985999e+03 3.715905633739487e+02 2.918975276816622e+03
1.153984180726856e+03 3.692087651471468e+02 2.918975276816622e+03
1.154006553526797e+03 3.670410508880170e+02 2.918975276816622e+03
1.154020796664821e+03 3.656748160218451e+02 2.918975276816622e+03
1.154037624534549e+03 3.636950298674570e+02 2.918975276816622e+03
1.154063936945429e+03 3.609386783567205e+02 2.918975276816622e+03
1.154087382328531e+03 3.585709830818361e+02 2.918975276816622e+03
1.154103408871147e+03 3.568434927721284e+02 2.918975276816622e+03
1.154126555434797e+03 3.545345541244321e+02 2.918975276816622e+03
1.154144592402811e+03 3.527104982187818e+02 2.918975276816622e+03
1.154155733148269e+03 3.513463621592819e+02 2.918975276816622e+03
1.154173595759132e+03 3.491676171654030e+02 2.918975276816622e+03
1.154198817001901e+03 3.465299850833532e+02 2.918975276816622e+03
1.154224833118861e+03 3.441416667317151e+02 2.918975276816622e+03
1.154244190652943e+03 3.424889155488000e+02 2.918975276816622e+03
1.154250560475206e+03 3.408369299258435e+02 2.918975276816622e+03
1.154259636943562e+03 3.379951666532672e+02 2.918975276816622e+03
1.154276954312761e+03 3.344491136094236e+02 2.918975276816622e+03
1.154333436650628e+03 3.326497941117568e+02 2.918975276816622e+03
1.154374138891324e+03 3.314375993604124e+02 2.918975276816622e+03
1.154359896066181e+03 3.290657958092130e+02 2.918975276816622e+03
1.154344815864669e+03 3.272422440650200e+02 2.918975276816622e+03
1.154338679607228e+03 3.253744551028732e+02 2.918975276816622e+03
1.154342324670227e+03 3.229141771157674e+02 2.918975276816622e+03
1.154352165793044e+03 3.204924742733600e+02 2.918975276816622e+03
1.154366861235450e+03 3.177901553789147e+02 2.918975276816622e+03
1.154359859410092e+03 3.150248066194226e+02 2.918975276816622e+03
1.154338087700320e+03 3.125306471409142e+02 2.918975276816622e+03
1.154326082680979e+03 3.098495327248596e+02 2.918975276816622e+03
1.154311587292611e+03 3.067470535888184e+02 2.918975276816622e+03
1.154290420487905e+03 3.034251926196317e+02 2.918975276816622e+03
1.154281434014763e+03 3.007620345695333e+02 2.918975276816622e+03
1.154271606448769e+03 2.985282898760465e+02 2.918975276816622e+03
1.154248757458361e+03 2.960652556200816e+02 2.918975276816622e+03
1.154223338827376e+03 2.942941070708164e+02 2.918975276816622e+03
1.154190251816229e+03 2.923201504221613e+02 2.918975276816622e+03
1.154152066065499e+03 2.894514999674169e+02 2.918975276816622e+03
1.154168848404038e+03 2.879022886849000e+02 2.918975276816622e+03
1.154182656303073e+03 2.862750740831173e+02 2.918975276816622e+03
1.154138521673339e+03 2.832504169898411e+02 2.918975276816622e+03
1.154097556978390e+03 2.807791188282089e+02 2.918975276816622e+03
1.154073140625850e+03 2.783661965476580e+02 2.918975276816622e+03
1.154047743343758e+03 2.758910104356103e+02 2.918975276816622e+03
1.154022369479896e+03 2.729314898708321e+02 2.918975276816622e+03
1.153979539536148e+03 2.696463070551083e+02 2.918975276816622e+03
1.153945854247146e+03 2.663503784085966e+02 2.918975276816622e+03
1.153934167770382e+03 2.641099602587124e+02 2.918975276816622e+03
1.153928014231550e+03 2.622448265358607e+02 2.918975276816622e+03
1.153886593579030e+03 2.592870954330281e+02 2.918975276816622e+03
1.153856594572196e+03 2.570728076396342e+02 2.918975276816622e+03
1.153844713936682e+03 2.554346082508228e+02 2.918975276816622e+03
1.153832296646250e+03 2.537955131449597e+02 2.918975276816622e+03
1.153773865657559e+03 2.526584483571303e+02 2.918975276816622e+03
1.153770796255664e+03 2.514504947247540e+02 2.918975276816622e+03
1.153792742417339e+03 2.497207212591362e+02 2.918975276816622e+03
1.153757668193970e+03 2.486761050207083e+02 2.918975276816622e+03
1.153731405886025e+03 2.474652856181525e+02 2.918975276816622e+03
1.153770128642379e+03 2.460796588460622e+02 2.918975276816622e+03
1.153792523029482e+03 2.444627798212236e+02 2.918975276816622e+03
1.153770553762768e+03 2.425669887268776e+02 2.918975276816622e+03
1.153759027262135e+03 2.409917838877971e+02 2.918975276816622e+03
1.153765387101037e+03 2.391890085347650e+02 2.918975276816622e+03
1.153749724649676e+03 2.371202659689621e+02 2.918975276816622e+03
1.153721603278372e+03 2.345042937593984e+02 2.918975276816622e+03
1.153757655102141e+03 2.329511237809315e+02 2.918975276816622e+03
1.153792778844125e+03 2.313764098556902e+02 2.918975276816622e+03
1.153754833045262e+03 2.292663381108529e+02 2.918975276816622e+03
1.153748575979061e+03 2.274403834405809e+02 2.918975276816622e+03
1.153790248119790e+03 2.247077525392777e+02 2.918975276816622e+03
1.153756328910301e+03 2.224465695041121e+02 2.918975276816622e+03
1.153758596619806e+03 2.199528919284157e+02 2.918975276816622e+03
1.153762417376170e+03 2.169202515312211e+02 2.918975276816622e+03
1.153764776193294e+03 2.144194635885491e+02 2.918975276816622e+03
1.153767135010419e+03 2.119186756458770e+02 2.918975276816622e+03
1.153768509966361e+03 2.101272382051997e+02 2.918975276816622e+03
1.153765395197064e+03 2.080941341771309e+02 2.918975276816622e+03
1.153758774563714e+03 2.051100130596759e+02 2.918975276816622e+03
1.153751969893695e+03 2.022683551151896e+02 2.918975276816622e+03
1.153748102351139e+03 1.996054867682963e+02 2.918975276816622e+03
1.153747355972718e+03 1.969789448460271e+02 2.918975276816622e+03
1.153747699639636e+03 1.940529604762393e+02 2.918975276816622e+03
1.153732966426466e+03 1.911951007608760e+02 2.918975276816622e+03
1.153732894162132e+03 1.887427922608078e+02 2.918975276816622e+03
1.153751924861400e+03 1.858540777234558e+02 2.918975276816622e+03
1.153741391803453e+03 1.830626271048890e+02 2.918975276816622e+03
1.153743049703281e+03 1.804664538065711e+02 2.918975276816622e+03
1.153774737407432e+03 1.774939037590811e+02 2.918975276816622e+03
1.153793632334556e+03 1.746712699977075e+02 2.918975276816622e+03
1.153799734484652e+03 1.719985525224503e+02 2.918975276816622e+03
1.153805836634748e+03 1.693258350471932e+02 2.918975276816622e+03
1.153828963889769e+03 1.671300300507972e+02 2.918975276816622e+03
1.153851350516396e+03 1.650738308818076e+02 2.918975276816622e+03
1.153855971409708e+03 1.626803250613626e+02 2.918975276816622e+03
1.153860592303020e+03 1.602868192409177e+02 2.918975276816622e+03
1.153837918769220e+03 1.583753546359338e+02 2.918975276816622e+03
1.153828144589090e+03 1.563480891656605e+02 2.918975276816622e+03
1.153858564189741e+03 1.537229816146367e+02 2.918975276816622e+03
1.153888983790393e+03 1.510978740636127e+02 2.918975276816622e+03
1.153805596280850e+03 1.491315064387466e+02 2.918975276816622e+03
1.153786204104764e+03 1.467432841483939e+02 2.918975276816622e+03
1.153902465485850e+03 1.433346358750063e+02 2.918975276816622e+03
1.153936088678093e+03 1.404610181398732e+02 2.918975276816622e+03
1.153895603212575e+03 1.390557218227299e+02 2.918975276816622e+03
1.153864143286543e+03 1.375886722430898e+02 2.918975276816622e+03
1.153874532673846e+03 1.348318257971404e+02 2.918975276816622e+03
1.153884126479598e+03 1.318403952357224e+02 2.918975276816622e+03
1.153882542873602e+03 1.292753908750920e+02 2.918975276816622e+03
1.153850466795052e+03 1.275507124367802e+02 2.918975276816622e+03
1.153859554712575e+03 1.263721194604170e+02 2.918975276816622e+03
1.153888290595512e+03 1.252116988034602e+02 2.918975276816622e+03
1.153884783471012e+03 1.231513427542762e+02 2.918975276816622e+03
1.153889864430545e+03 1.203050647338763e+02 2.918975276816622e+03
1.153874960636394e+03 1.175398209697056e+02 2.918975276816622e+03
1.153882986635209e+03 1.146769692009728e+02 2.918975276816622e+03
1.153882176923409e+03 1.121790976342782e+02 2.918975276816622e+03
1.153891493455409e+03 1.103992647062350e+02 2.918975276816622e+03
1.153941996019504e+03 1.083542380741322e+02 2.918975276816622e+03
1.153971808114633e+03 1.058696015621480e+02 2.918975276816622e+03
1.154062114835938e+03 1.028775968965892e+02 2.918975276816622e+03
1.154119688420940e+03 1.002555174848744e+02 2.918975276816622e+03
1.154110256722978e+03 9.793540723197306e+01 2.918975276816622e+03
1.154127047504529e+03 9.503997273046645e+01 2.918975276816622e+03
1.154145092090702e+03 9.248015562249464e+01 2.918975276816622e+03
1.154192611356119e+03 8.950476568561427e+01 2.918975276816622e+03
1.154240482218813e+03 8.676052536962636e+01 2.918975276816622e+03
1.154281559550607e+03 8.430268503081862e+01 2.918975276816622e+03
1.154330634294428e+03 8.130947350689269e+01 2.918975276816622e+03
1.154361327756993e+03 7.908266016957286e+01 2.918975276816622e+03
1.154393140000065e+03 7.694408816303071e+01 2.918975276816622e+03
1.154431373970483e+03 7.428792798169742e+01 2.918975276816622e+03
1.154469607940901e+03 7.163176780036414e+01 2.918975276816622e+03
1.154507841911320e+03 6.897560761903085e+01 2.918975276816622e+03
1.154537836965141e+03 6.684996388991864e+01 2.918975276816622e+03
1.154568893763701e+03 6.421821012689399e+01 2.918975276816622e+03
1.154608114029165e+03 6.077554304017339e+01 2.918975276816622e+03
1.154646515446044e+03 5.718173191742457e+01 2.918975276816622e+03
1.154683076399104e+03 5.473948600015495e+01 2.918975276816622e+03
1.154695486177858e+03 5.290176962247013e+01 2.918975276816622e+03
1.154702357381309e+03 5.075680689241536e+01 2.918975276816622e+03
1.154719172668107e+03 4.865013177389567e+01 2.918975276816622e+03
1.154729478248915e+03 4.596509775492085e+01 2.918975276816622e+03
1.154770766055013e+03 4.375720027588604e+01 2.918975276816622e+03
1.154758271089812e+03 4.246948930058650e+01 2.918975276816622e+03
1.154702348378734e+03 4.136250267623019e+01 2.918975276816622e+03
1.154716838200126e+03 3.987908956611476e+01 2.918975276816622e+03
1.154753014200693e+03 3.733413524711460e+01 2.918975276816622e+03
1.154759924524370e+03 3.487078158293807e+01 2.918975276816622e+03
1.154762772485433e+03 3.307038693119627e+01 2.918975276816622e+03
1.154729554271020e+03 3.109875014767939e+01 2.918975276816622e+03
1.154730557673714e+03 2.935210521697316e+01 2.918975276816622e+03
1.154768989000157e+03 2.697894121333794e+01 2.918975276816622e+03
1.154760310250183e+03 2.388776251671328e+01 2.918975276816622e+03
1.154755195504318e+03 2.073524020624730e+01 2.918975276816622e+03
1.154750080758453e+03 1.758271789578131e+01 2.918975276816622e+03
1.154636304248166e+03 1.517665671768892e+01 2.918975276816622e+03
1.154644701736307e+03 1.410616458578223e+01 2.918975276816622e+03
1.154724819904564e+03 1.275752182294665e+01 2.918975276816622e+03
1.154628311001297e+03 1.093716723317068e+01 2.918975276816622e+03
1.154566370906990e+03 9.029855626632575e+00 2.918975276816622e+03
1.154556511610433e+03 6.640040285531758e+00 2.918975276816622e+03
1.154547462445493e+03 4.898092109831174e+00 2.918975276816622e+03
1.154534740088496e+03 3.409353035710568e+00 2.918975276816622e+03
1.154521252930416e+03 1.671000928299960e+00 2.918975276816622e+03

CELLS 1323 5461
3 6 1335 7
3 6 1336 349
3 7 1337 8
3 8 1338 9
3 9 1339 10
3 10 1340 11
3 11 1341 12
3 12 1342 13
3 13 1343 14
3 14 1344 15
3 15 1345 16
3 16 1346 17
3 17 1347 18
3 18 1348 19
4 19 1349 1350 20
3 20 1351 21
3 21 1352 22
4 22 1353 1354 23
3 23 1355 24
4 24 1356 1357 25
4 25 1358 1359 26
3 26 1360 27
3 27 1361 28
3 28 1362 29
3 29 1363 30
3 30 1364 31
3 31 1365 32
3 32 1366 33
3 33 1367 34
3 34 1368 35
3 35 1369 36
3 36 1370 37
3 37 1371 38
3 38 1372 39
3 39 1373 40
3 40 1374 41
3 41 1375 42
3 42 1376 43
3 43 1377 44
3 44 1378 45
3 45 1379 46
3 46 1380 47
3 47 1381 48
3 48 1382 49
3 49 1383 50
3 50 1384 51
3 51 1385 52
3 52 1386 53
3 53 1387 54
3 54 1388 55
3 55 1389 56
3 56 1390 57
3 57 1391 58
3 58 1392 59
3 59 1393 60
3 60 1394 61
3 61 1395 62
3 62 1396 63
3 63 1397 64
3 64 1398 65
3 65 1399 66
3 66 1400 67
4 67 1401 1402 68
3 68 1403 69
3 69 1404 70
3 70 1405 71
3 71 1406 72
3 72 1407 73
3 73 1408 74
3 74 1409 75
3 75 1410 76
3 76 1411 77
3 77 1412 78
3 78 1413 79
3 79 1414 80
3 80 1415 81
3 81 1416 82
3 82 1417 83
3 83 1418 84
4 84 1419 1420 85
3 85 1421 86
3 86 1422 87
3 87 1423 88
5 88 1424 1425 1426 89
3 89 1427 90
3 90 1428 91
3 91 1429 92
3 92 1430 93
3 93 1431 94
3 94 1432 95
4 95 1433 1434 96
3 96 1435 97
3 97 1436 98
3 98 1437 99
3 99 1438 100
3 100 1439 101
3 101 1440 102
3 102 1441 103
3 103 1442 104
3 104 1443 105
3 105 1444 106
3 106 1445 107
3 107 1446 108
3 108 1447 109
3 109 1448 110
3 110 1449 111
3 111 1450 112
3 112 1451 113
3 113 1452 114
3 114 1453 115
3 115 1454 116
4 116 1455 1456 117
3 117 1457 118
3 118 1458 119
3 119 1459 120
3 120 1460 121
3 121 1461 122
3 122 1462 123
3 123 1463 124
3 124 1464 125
3 125 1465 126
3 126 1466 127
3 127 1467 128
3 128 1468 129
3 129 1469 130
3 130 1470 131
3 131 1471 132
3 132 1472 133
3 133 1473 134
3 134 1474 135
3 135 1475 136
3 136 1476 137
3 137 1477 138
4 138 1478 1479 139
3 139 1480 140
3 140 1481 141
3 141 1482 142
3 142 1483 143
3 143 1484 144
3 144 1485 145
3 145 1486 146
5 146 1487 1488 1489 147
3 147 1490 148
3 148 1491 149
3 149 1492 150
3 150 1493 151
3 151 1494 152
3 152 1495 153
3 153 1496 154
3 154 1497 155
4 155 1498 1499 156
5 156 1500 1501 1502 157
3 157 1503 158
3 158 1504 159
3 159 1505 160
4 160 1506 1507 161
3 161 1508 162
3 162 1509 163
4 163 1510 1511 164
3 164 1512 165
3 165 1513 166
3 166 1514 167
5 167 1515 1516 1517 168
3 168 1518 169
3 169 1519 170
3 170 1520 171
3 171 1521 172
3 172 1522 173
3 173 1523 174
3 174 1524 175
3 175 1525 176
3 176 1526 177
3 177 1527 1327
4 178 1528 1529 179
3 178 1530 1328
3 179 1531 180
3 180 1532 181
3 181 1533 182
4 182 1534 1535 183
5 183 1536 1537 1538 184
3 184 1539 185
3 185 1540 186
3 186 1541 187
3 187 1542 188
3 188 1543 189
3 189 1544 190
3 190 1545 191
3 191 1546 192
3 192 1547 193
3 193 1548 194
5 194 1549 1550 1551 195
3 195 1552 196
3 196 1553 197
3 197 1554 198
3 198 1555 199
3 199 1556 200
3 200 1557 201
3 201 1558 202
3 202 1559 203
3 203 1560 204
3 204 1561 205
3 205 1562 206
3 206 1563 207
3 207 1564 208
5 208 1565 1566 1567 209
4 209 1568 1569 210
3 210 1570 211
3 211 1571 212
3 212 1572 213
3 213 1573 214
3 214 1574 215
3 215 1575 216
3 216 1576 217
3 217 1577 218
3 218 1578 219
3 219 1579 220
3 220 1580 221
3 221 1581 222
3 222 1582 223
3 223 1583 224
3 224 1584 225
3 225 1585 226
3 226 1586 227
3 227 1587 228
3 228 1588 229
4 229 1589 1590 230
3 230 1591 231
3 231 1592 232
3 232 1593 233
3 233 1594 234
3 234 1595 235
3 235 1596 236
3 236 1597 237
3 237 1598 238
3 238 1599 239
3 239 1600 240
3 240 1601 241
3 241 1602 242
3 242 1603 243
4 243 1604 1605 244
3 244 1606 245
3 245 1607 246
3 246 1608 247
3 247 1609 248
3 248 1610 249
3 249 1611 250
3 250 1612 251
3 251 1613 252
3 252 1614 253
3 253 1615 254
3 254 1616 255
4 255 1617 1618 256
3 256 1619 257
3 257 1620 258
3 258 1621 259
3 259 1622 260
3 260 1623 261
3 261 1624 262
3 262 1625 263
3 263 1626 264
3 264 1627 265
3 265 1628 266
3 266 1629 267
3 267 1630 268
3 268 1631 269
3 269 1632 270
3 270 1633 271
3 271 1634 272
3 272 1635 273
3 273 1636 274
3 274 1637 275
3 275 1638 276
3 276 1639 277
3 277 1640 278
3 278 1641 279
4 279 1642 1643 280
3 280 1644 281
3 281 1645 282
3 282 1646 283
3 283 1647 284
3 284 1648 285
3 285 1649 286
3 286 1650 287
3 287 1651 288
3 288 1652 289
3 289 1653 290
3 290 1654 291
3 291 1655 292
3 292 1656 293
3 293 1657 294
3 294 1658 295
3 295 1659 296
3 296 1660 297
3 297 1661 298
4 298 1662 1663 299
3 299 1664 300
3 300 1665 301
3 301 1666 302
3 302 1667 303
3 303 1668 304
3 304 1669 305
3 305 1670 306
3 306 1671 307
3 307 1672 308
3 308 1673 309
3 309 1674 310
3 310 1675 311
3 311 1676 312
3 312 1677 313
3 313 1678 314
3 314 1679 315
3 315 1680 316
3 316 1681 317
3 317 1682 318
3 318 1683 319
4 319 1684 1685 320
3 320 1686 321
3 321 1687 322
3 322 1688 323
3 323 1689 324
3 324 1690 325
3 325 1691 326
3 326 1692 327
4 327 1693 1694 328
3 328 1695 329
3 329 1696 330
3 330 1697 331
3 331 1698 332
3 332 1699 333
3 333 1700 334
3 334 1701 335
3 335 1702 336
3 336 1703 337
3 337 1704 338
3 338 1705 339
4 339 1706 1707 340
3 340 1708 341
3 341 1709 342
3 342 1710 343
3 343 1711 344
3 344 1712 345
3 345 1713 346
4 346 1714 1715 347
3 347 1716 348
3 348 1717 349
3 351 1718 352
3 351 1719 668
3 352 1720 353
3 353 1721 354
3 354 1722 355
3 355 1723 356
3 356 1724 357
3 357 1725 358
3 358 1726 359
4 359 1727 1728 360
3 360 1729 361
3 361 1730 362
3 362 1731 363
3 363 1732 364
3 364 1733 365
3 365 1734 366
3 366 1735 367
4 367 1736 1737 368
3 368 1738 369
3 369 1739 370
3 370 1740 371
3 371 1741 372
3 372 1742 373
3 373 1743 374
3 374 1744 375
3 375 1745 376
3 376 1746 377
3 377 1747 378
3 378 1748 379
3 379 1749 380
3 380 1750 381
3 381 1751 382
3 382 1752 383
3 383 1753 384
3 384 1754 385
4 385 1755 1756 386
3 386 1757 387
3 387 1758 388
3 388 1759 389
3 389 1760 390
3 390 1761 391
3 391 1762 392
3 392 1763 393
3 393 1764 394
3 394 1765 395
4 395 1766 1767 396
3 396 1768 397
3 397 1769 398
3 398 1770 399
3 399 1771 400
3 400 1772 401
3 401 1773 402
3 402 1774 403
3 403 1775 404
3 404 1776 405
4 405 1777 1778 406
4 406 1779 1780 407
3 407 1781 408
4 408 1782 1783 409
3 409 1784 410
3 410 1785 411
4 411 1786 1787 412
3 412 1788 413
3 413 1789 414
3 414 1790 415
3 415 1791 416
3 416 1792 417
3 417 1793 418
3 418 1794 419
4 419 1795 1796 420
3 420 1797 421
3 421 1798 422
3 422 1799 423
3 423 1800 424
3 424 1801 425
3 425 1802 426
3 426 1803 427
3 427 1804 428
3 428 1805 429
4 429 1806 1807 430
3 430 1808 431
3 431 1809 432
3 432 1810 433
4 433 1811 1812 434
3 434 1813 435
5 435 1814 1815 1816 436
3 436 1817 437
3 437 1818 438
3 438 1819 439
3 439 1820 440
3 440 1821 441
4 441 1822 1823 442
3 442 1824 443
3 443 1825 444
4 444 1826 1827 445
3 445 1828 446
3 446 1829 447
3 447 1830 448
3 448 1831 449
3 449 1832 450
3 450 1833 451
3 451 1834 452
3 452 1835 453
3 453 1836 454
3 454 1837 455
3 455 1838 456
4 456 1839 1840 457
4 457 1841 1842 458
4 458 1843 1844 459
3 459 1845 460
3 460 1846 461
3 461 1847 462
3 462 1848 463
3 463 1849 464
3 464 1850 465
4 465 1851 1852 466
3 466 1853 467
3 467 1854 468
3 468 1855 469
3 469 1856 470
3 470 1857 471
3 471 1858 472
3 472 1859 473
3 473 1860 474
3 474 1861 475
4 475 1862 1863 476
3 476 1864 477
3 477 1865 478
3 478 1866 479
3 479 1867 480
3 480 1868 481
3 481 1869 482
3 482 1870 483
3 483 1871 484
3 484 1872 485
3 485 1873 486
3 486 1874 487
3 487 1875 488
3 488 1876 489
3 489 1877 490
3 490 1878 491
3 491 1879 492
3 492 1880 493
3 493 1881 494
3 494 1882 495
3 495 1883 496
3 496 1884 497
3 497 1885 498
3 498 1886 499
3 499 1887 500
3 500 1888 501
4 501 1889 1890 502
3 502 1891 503
3 503 1892 504
3 504 1893 505
3 505 1894 506
3 506 1895 507
4 507 1896 1897 508
3 508 1898 509
3 509 1899 1329
3 510 1900 511
3 510 1901 1330
3 511 1902 512
3 512 1903 513
3 513 1904 514
3 514 1905 515
3 515 1906 516
3 516 1907 517
3 517 1908 518
3 518 1909 519
3 519 1910 520
3 520 1911 521
3 521 1912 522
3 522 1913 523
3 523 1914 524
3 524 1915 525
3 525 1916 526
3 526 1917 527
3 527 1918 528
3 528 1919 529
3 529 1920 530
3 530 1921 531
3 531 1922 532
3 532 1923 533
3 533 1924 534
3 534 1925 535
3 535 1926 536
4 536 1927 1928 537
3 537 1929 538
3 538 1930 539
3 539 1931 540
3 540 1932 541
3 541 1933 542
3 542 1934 543
3 543 1935 544
3 544 1936 545
3 545 1937 546
3 546 1938 547
3 547 1939 548
4 548 1940 1941 549
3 549 1942 550
3 550 1943 551
3 551 1944 552
3 552 1945 553
3 553 1946 554
3 554 1947 555
4 555 1948 1949 556
3 556 1950 557
3 557 1951 558
3 558 1952 559
3 559 1953 560
3 560 1954 561
3 561 1955 562
4 562 1956 1957 563
3 563 1958 564
3 564 1959 565
3 565 1960 566
3 566 1961 567
4 567 1962 1963 568
3 568 1964 569
3 569 1965 570
3 570 1966 571
3 571 1967 572
3 572 1968 573
3 573 1969 574
3 574 1970 575
5 575 1971 1972 1973 576
3 576 1974 577
3 577 1975 578
3 578 1976 579
3 579 1977 580
3 580 1978 581
3 581 1979 582
3 582 1980 583
3 583 1981 584
4 584 1982 1983 585
3 585 1984 586
3 586 1985 587
3 587 1986 588
3 588 1987 589
3 589 1988 590
3 590 1989 591
3 591 1990 592
3 592 1991 593
3 593 1992 594
3 594 1993 595
3 595 1994 596
4 596 1995 1996 597
3 597 1997 598
4 598 1998 1999 599
3 599 2000 600
3 600 2001 601
3 601 2002 602
3 602 2003 603
4 603 2004 2005 604
3 604 2006 605
3 605 2007 606
3 606 2008 607
3 607 2009 608
3 608 2010 609
5 609 2011 2012 2013 610
3 610 2014 611
3 611 2015 612
3 612 2016 613
3 613 2017 614
3 614 2018 615
3 615 2019 616
3 616 2020 617
4 617 2021 2022 618
3 618 2023 619
3 619 2024 620
3 620 2025 621
3 621 2026 622
3 622 2027 623
3 623 2028 624
3 624 2029 625
3 625 2030 626
3 626 2031 627
3 627 2032 628
4 628 2033 2034 629
3 629 2035 630
3 630 2036 631
3 631 2037 632
3 632 2038 633
3 633 2039 634
3 634 2040 635
3 635 2041 636
4 636 2042 2043 637
3 637 2044 638
6 638 2045 2046 2047 2048 639
3 639 2049 640
4 640 2050 2051 641
4 641 2052 2053 642
4 642 2054 2055 643
3 643 2056 644
5 644 2057 2058 2059 645
3 645 2060 646
3 646 2061 647
3 647 2062 648
3 648 2063 649
3 649 2064 650
3 650 2065 651
3 651 2066 652
3 652 2067 653
3 653 2068 654
3 654 2069 655
3 655 2070 656
3 656 2071 657
4 657 2072 2073 658
3 658 2074 659
3 659 2075 660
3 660 2076 661
3 661 2077 662
4 662 2078 2079 663
3 663 2080 664
3 664 2081 665
3 665 2082 666
3 666 2083 667
3 667 2084 668
4 669 2085 2086 670
4 669 2087 2088 1034
4 670 2089 2090 671
3 671 2091 672
3 672 2092 673
3 673 2093 674
4 674 2094 2095 675
3 675 2096 676
3 676 2097 677
3 677 2098 678
4 678 2099 2100 679
3 679 2101 680
3 680 2102 681
3 681 2103 682
3 682 2104 683
3 683 2105 684
3 684 2106 685
3 685 2107 686
3 686 2108 687
3 687 2109 688
3 688 2110 689
3 689 2111 690
3 690 2112 691
3 691 2113 692
3 692 2114 693
3 693 2115 694
3 694 2116 695
3 695 2117 696
3 696 2118 697
3 697 2119 698
3 698 2120 699
3 699 2121 700
3 700 2122 701
3 701 2123 702
3 702 2124 703
3 703 2125 704
3 704 2126 705
3 705 2127 706
3 706 2128 707
3 707 2129 708
3 708 2130 709
3 709 2131 710
3 710 2132 711
3 711 2133 712
3 712 2134 713
3 713 2135 714
3 714 2136 715
3 715 2137 716
3 716 2138 717
3 717 2139 718
3 718 2140 719
3 719 2141 720
3 720 2142 721
3 721 2143 722
3 722 2144 723
3 723 2145 724
3 724 2146 725
3 725 2147 726
3 726 2148 727
3 727 2149 728
3 728 2150 729
3 729 2151 730
4 730 2152 2153 731
3 731 2154 732
3 732 2155 733
3 733 2156 734
3 734 2157 735
3 735 2158 736
3 736 2159 737
3 737 2160 738
3 738 2161 739
3 739 2162 740
3 740 2163 741
3 741 2164 742
3 742 2165 743
3 743 2166 744
3 744 2167 745
3 745 2168 746
3 746 2169 747
3 747 2170 748
3 748 2171 749
3 749 2172 750
3 750 2173 751
3 751 2174 752
3 752 2175 753
3 753 2176 754
3 754 2177 755
3 755 2178 756
3 756 2179 757
3 757 2180 758
3 758 2181 759
3 759 2182 760
3 760 2183 761
3 761 2184 762
3 762 2185 763
3 763 2186 764
4 764 2187 2188 765
3 765 2189 766
3 766 2190 767
3 767 2191 768
3 768 2192 769
3 769 2193 770
3 770 2194 771
3 771 2195 772
3 772 2196 773
3 773 2197 774
3 774 2198 775
3 775 2199 776
3 776 2200 777
3 777 2201 778
3 778 2202 779
3 779 2203 780
5 780 2204 2205 2206 781
3 781 2207 782
3 782 2208 783
3 783 2209 784
3 784 2210 785
3 785 2211 786
6 786 2212 2213 2214 2215 787
3 787 2216 788
3 788 2217 789
3 789 2218 790
3 790 2219 791
3 791 2220 792
3 792 2221 793
3 793 2222 794
3 794 2223 795
4 795 2224 2225 796
3 796 2226 797
3 797 2227 798
3 798 2228 799
3 799 2229 800
3 800 2230 801
3 801 2231 802
3 802 2232 803
3 803 2233 804
3 804 2234 805
3 805 2235 806
3 806 2236 807
3 807 2237 808
3 808 2238 809
3 809 2239 810
4 810 2240 2241 811
3 811 2242 812
3 812 2243 813
3 813 2244 814
3 814 2245 815
3 815 2246 816
4 816 2247 2248 817
3 817 2249 818
3 818 2250 819
3 819 2251 820
3 820 2252 821
3 821 2253 822
3 822 2254 823
3 823 2255 824
3 824 2256 825
3 825 2257 826
3 826 2258 827
3 827 2259 828
3 828 2260 829
3 829 2261 830
3 830 2262 831
3 831 2263 832
3 832 2264 833
3 833 2265 834
3 834 2266 835
4 835 2267 2268 836
3 836 2269 837
4 837 2270 2271 838
3 838 2272 839
3 839 2273 840
3 840 2274 841
3 841 2275 842
3 842 2276 843
3 843 2277 844
3 844 2278 845
3 845 2279 846
3 846 2280 847
3 847 2281 848
3 848 2282 849
3 849 2283 850
3 850 2284 851
3 851 2285 852
3 852 2286 853
3 853 2287 1331
3 854 2288 855
3 854 2289 1332
3 855 2290 856
3 856 2291 857
3 857 2292 858
3 858 2293 859
3 859 2294 860
4 860 2295 2296 861
3 861 2297 862
3 862 2298 863
3 863 2299 864
3 864 2300 865
4 865 2301 2302 866
3 866 2303 867
4 867 2304 2305 868
3 868 2306 869
5 869 2307 2308 2309 870
3 870 2310 871
3 871 2311 872
3 872 2312 873
3 873 2313 874
3 874 2314 875
4 875 2315 2316 876
3 876 2317 877
3 877 2318 878
4 878 2319 2320 879
3 879 2321 880
4 880 2322 2323 881
3 881 2324 882
3 882 2325 883
3 883 2326 884
3 884 2327 885
3 885 2328 886
3 886 2329 887
3 887 2330 888
3 888 2331 889
3 889 2332 890
3 890 2333 891
3 891 2334 892
3 892 2335 893
3 893 2336 894
3 894 2337 895
3 895 2338 896
3 896 2339 897
3 897 2340 898
3 898 2341 899
3 899 2342 900
3 900 2343 901
3 901 2344 902
3 902 2345 903
3 903 2346 904
3 904 2347 905
3 905 2348 906
3 906 2349 907
3 907 2350 908
3 908 2351 909
3 909 2352 910
3 910 2353 911
3 911 2354 912
3 912 2355 913
3 913 2356 914
3 914 2357 915
3 915 2358 916
3 916 2359 917
3 917 2360 918
3 918 2361 919
3 919 2362 920
3 920 2363 921
3 921 2364 922
3 922 2365 923
3 923 2366 924
3 924 2367 925
3 925 2368 926
3 926 2369 927
3 927 2370 928
3 928 2371 929
3 929 2372 930
3 930 2373 931
3 931 2374 932
3 932 2375 933
3 933 2376 934
3 934 2377 935
3 935 2378 936
3 936 2379 937
3 937 2380 938
3 938 2381 939
3 939 2382 940
4 940 2383 2384 941
3 941 2385 942
3 942 2386 943
3 943 2387 944
3 944 2388 945
3 945 2389 946
3 946 2390 947
3 947 2391 948
3 948 2392 949
3 949 2393 950
3 950 2394 951
3 951 2395 952
3 952 2396 953
3 953 2397 954
3 954 2398 955
3 955 2399 956
3 956 2400 957
3 957 2401 958
3 958 2402 959
3 959 2403 960
3 960 2404 961
3 961 2405 962
3 962 2406 963
3 963 2407 964
3 964 2408 965
3 965 2409 966
3 966 2410 967
3 967 2411 968
3 968 2412 969
3 969 2413 970
3 970 2414 971
3 971 2415 972
3 972 2416 973
3 973 2417 974
3 974 2418 975
3 975 2419 976
3 976 2420 977
3 977 2421 978
3 978 2422 979
3 979 2423 980
3 980 2424 981
3 981 2425 982
3 982 2426 983
3 983 2427 984
3 984 2428 985
3 985 2429 986
3 986 2430 987
3 987 2431 988
3 988 2432 989
3 989 2433 990
3 990 2434 991
3 991 2435 992
3 992 2436 993
3 993 2437 994
3 994 2438 995
3 995 2439 996
3 996 2440 997
3 997 2441 998
3 998 2442 999
3 999 2443 1000
3 1000 2444 1001
3 1001 2445 1002
3 1002 2446 1003
3 1003 2447 1004
3 1004 2448 1005
3 1005 2449 1006
4 1006 2450 2451 1007
3 1007 2452 1008
3 1008 2453 1009
3 1009 2454 1010
3 1010 2455 1011
3 1011 2456 1012
4 1012 2457 2458 1013
3 1013 2459 1014
3 1014 2460 1015
3 1015 2461 1016
3 1016 2462 1017
3 1017 2463 1018
3 1018 2464 1019
3 1019 2465 1020
3 1020 2466 1021
3 1021 2467 1022
3 1022 2468 1023
3 1023 2469 1024
4 1024 2470 2471 1025
3 1025 2472 1026
4 1026 2473 2474 1027
4 1027 2475 2476 1028
3 1028 2477 1029
3 1029 2478 1030
3 1030 2479 1031
3 1031 2480 1032
3 1032 2481 1033
4 1033 2482 2483 1034
3 1036 2484 1037
3 1036 2485 1326
3 1037 2486 1038
4 1038 2487 2488 1039
5 1039 2489 2490 2491 1040
4 1040 2492 2493 1041
4 1041 2494 2495 1042
3 1042 2496 1043
3 1043 2497 1044
4 1044 2498 2499 1045
3 1045 2500 1046
4 1046 2501 2502 1047
3 1047 2503 1048
3 1048 2504 1049
3 1049 2505 1050
3 1050 2506 1051
3 1051 2507 1052
3 1052 2508 1053
3 1053 2509 1054
3 1054 2510 1055
3 1055 2511 1056
3 1056 2512 1057
3 1057 2513 1058
3 1058 2514 1059
3 1059 2515 1060
3 1060 2516 1061
3 1061 2517 1062
3 1062 2518 1063
3 1063 2519 1064
3 1064 2520 1065
3 1065 2521 1066
3 1066 2522 1067
3 1067 2523 1068
3 1068 2524 1069
3 1069 2525 1070
3 1070 2526 1071
3 1071 2527 1072
3 1072 2528 1073
3 1073 2529 1074
3 1074 2530 1075
3 1075 2531 1076
3 1076 2532 1077
3 1077 2533 1078
3 1078 2534 1079
3 1079 2535 1080
3 1080 2536 1081
3 1081 2537 1082
3 1082 2538 1083
3 1083 2539 1084
4 1084 2540 2541 1085
3 1085 2542 1086
3 1086 2543 1087
3 1087 2544 1088
5 1088 2545 2546 2547 1089
3 1089 2548 1090
3 1090 2549 1091
3 1091 2550 1092
3 1092 2551 1093
3 1093 2552 1094
3 1094 2553 1095
3 1095 2554 1096
3 1096 2555 1097
3 1097 2556 1098
3 1098 2557 1099
3 1099 2558 1100
3 1100 2559 1101
3 1101 2560 1102
3 1102 2561 1103
3 1103 2562 1104
3 1104 2563 1105
3 1105 2564 1106
3 1106 2565 1107
3 1107 2566 1108
3 1108 2567 1109
3 1109 2568 1110
3 1110 2569 1111
3 1111 2570 1112
3 1112 2571 1113
3 1113 2572 1114
5 1114 2573 2574 2575 1115
3 1115 2576 1116
4 1116 2577 2578 1117
3 1117 2579 1118
3 1118 2580 1119
3 1119 2581 1120
3 1120 2582 1121
3 1121 2583 1122
3 1122 2584 1123
3 1123 2585 1124
3 1124 2586 1125
4 1125 2587 2588 1126
3 1126 2589 1127
3 1127 2590 1128
3 1128 2591 1129
4 1129 2592 2593 1130
3 1130 2594 1131
3 1131 2595 1132
3 1132 2596 1133
3 1133 2597 1134
4 1134 2598 2599 1135
3 1135 2600 1136
3 1136 2601 1137
3 1137 2602 1138
3 1138 2603 1139
3 1139 2604 1140
3 1140 2605 1141
3 1141 2606 1142
3 1142 2607 1143
3 1143 2608 1144
4 1144 2609 2610 1145
3 1145 2611 1146
3 1146 2612 1147
3 1147 2613 1148
3 1148 2614 1149
3 1149 2615 1150
4 1150 2616 2617 1151
3 1151 2618 1152
3 1152 2619 1153
3 1153 2620 1154
3 1154 2621 1155
3 1155 2622 1156
3 1156 2623 1157
3 1157 2624 1158
3 1158 2625 1159
3 1159 2626 1160
3 1160 2627 1161
4 1161 2628 2629 1162
3 1162 2630 1163
3 1163 2631 1164
3 1164 2632 1165
3 1165 2633 1166
3 1166 2634 1167
3 1167 2635 1168
3 1168 2636 1169
3 1169 2637 1170
3 1170 2638 1171
3 1171 2639 1172
3 1172 2640 1173
3 1173 2641 1174
3 1174 2642 1175
3 1175 2643 1176
3 1176 2644 1177
3 1177 2645 1178
3 1178 2646 1179
3 1179 2647 1180
3 1180 2648 1181
3 1181 2649 1182
3 1182 2650 1183
4 1183 2651 2652 1184
3 1184 2653 1185
3 1185 2654 1186
3 1186 2655 1333
3 1187 2656 1188
3 1187 2657 1334
3 1188 2658 1189
3 1189 2659 1190
4 1190 2660 2661 1191
3 1191 2662 1192
3 1192 2663 1193
3 1193 2664 1194
3 1194 2665 1195
3 1195 2666 1196
3 1196 2667 1197
3 1197 2668 1198
3 1198 2669 1199
3 1199 2670 1200
3 1200 2671 1201
3 1201 2672 1202
3 1202 2673 1203
3 1203 2674 1204
4 1204 2675 2676 1205
3 1205 2677 1206
3 1206 2678 1207
3 1207 2679 1208
4 1208 2680 2681 1209
3 1209 2682 1210
4 1210 2683 2684 1211
3 1211 2685 1212
4 1212 2686 2687 1213
3 1213 2688 1214
3 1214 2689 1215
3 1215 2690 1216
3 1216 2691 1217
3 1217 2692 1218
4 1218 2693 2694 1219
3 1219 2695 1220
4 1220 2696 2697 1221
3 1221 2698 1222
4 1222 2699 2700 1223
3 1223 2701 1224
4 1224 2702 2703 1225
3 1225 2704 1226
3 1226 2705 1227
3 1227 2706 1228
3 1228 2707 1229
3 1229 2708 1230
3 1230 2709 1231
3 1231 2710 1232
3 1232 2711 1233
3 1233 2712 1234
3 1234 2713 1235
3 1235 2714 1236
3 1236 2715 1237
3 1237 2716 1238
3 1238 2717 1239
3 1239 2718 1240
3 1240 2719 1241
3 1241 2720 1242
3 1242 2721 1243
3 1243 2722 1244
3 1244 2723 1245
3 1245 2724 1246
3 1246 2725 1247
3 1247 2726 1248
3 1248 2727 1249
3 1249 2728 1250
3 1250 2729 1251
3 1251 2730 1252
3 1252 2731 1253
3 1253 2732 1254
3 1254 2733 1255
3 1255 2734 1256
5 1256 2735 2736 2737 1257
3 1257 2738 1258
4 1258 2739 2740 1259
3 1259 2741 1260
4 1260 2742 2743 1261
3 1261 2744 1262
3 1262 2745 1263
3 1263 2746 1264
3 1264 2747 1265
3 1265 2748 1266
4 1266 2749 2750 1267
5 1267 2751 2752 2753 1268
3 1268 2754 1269
5 1269 2755 2756 2757 1270
3 1270 2758 1271
5 1271 2759 2760 2761 1272
3 1272 2762 1273
3 1273 2763 1274
3 1274 2764 1275
3 1275 2765 1276
3 1276 2766 1277
3 1277 2767 1278
4 1278 2768 2769 1279
3 1279 2770 1280
3 1280 2771 1281
3 1281 2772 1282
3 1282 2773 1283
4 1283 2774 2775 1284
3 1284 2776 1285
3 1285 2777 1286
3 1286 2778 1287
3 1287 2779 1288
4 1288 2780 2781 1289
3 1289 2782 1290
3 1290 2783 1291
4 1291 2784 2785 1292
3 1292 2786 1293
3 1293 2787 1294
3 1294 2788 1295
3 1295 2789 1296
3 1296 2790 1297
3 1297 2791 1298
6 1298 2792 2793 2794 2795 1299
3 1299 2796 1300
3 1300 2797 1301
3 1301 2798 1302
3 1302 2799 1303
3 1303 2800 1304
3 1304 2801 1305
3 1305 2802 1306
4 1306 2803 2804 1307
3 1307 2805 1308
3 1308 2806 1309
3 1309 2807 1310
3 1310 2808 1311
3 1311 2809 1312
3 1312 2810 1313
3 1313 2811 1314
3 1314 2812 1315
3 1315 2813 1316
3 1316 2814 1317
5 1317 2815 2816 2817 1318
3 1318 2818 1319
3 1319 2819 1320
3 1320 2820 1321
3 1321 2821 1322
4 1322 2822 2823 1323
3 1323 2824 1324
3 1324 2825 1325
3 1325 2826 1326

CELL_TYPES 1323
4
4
4
4
4
4
4
4
4
4
4
4
4
4
4
4
4
4
4
4
4
4
4
4
4
4
4
4
4
4
4
4
4
4
4
4
4
4
4
4
4
4
4
4
4
4
4
4
4
4
4
4
4
4
4
4
4
4
4
4
4
4
4
4
4
4
4
4
4
4
4
4
4
4
4
4
4
4
4
4
4
4
4
4
4
4
4
4
4
4
4
4
4
4
4
4
4
4
4
4
4
4
4
4
4
4
4
4
4
4
4
4
4
4
4
4
4
4
4
4
4
4
4
4
4
4
4
4
4
4
4
4
4
4
4
4
4
4
4
4
4
4
4
4
4
4
4
4
4
4
4
4
4
4
4
4
4
4
4
4
4
4
4
4
4
4
4
4
4
4
4
4
4
4
4
4
4
4
4
4
4
4
4
4
4
4
4
4
4
4
4
4
4
4
4
4
4
4
4
4
4
4
4
4
4
4
4
4
4
4
4
4
4
4
4
4
4
4
4
4
4
4
4
4
4
4
4
4
4
4
4
4
4
4
4
4
4
4
4
4
4
4
4
4
4
4
4
4
4
4
4
4
4
4
4
4
4
4
4
4
4
4
4
4
4
4
4
4
4
4
4
4
4
4
4
4
4
4
4
4
4
4
4
4
4
4
4
4
4
4
4
4
4
4
4
4
4
4
4
4
4
4
4
4
4
4
4
4
4
4
4
4
4
4
4
4
4
4
4
4
4
4
4
4
4
4
4
4
4
4
4
4
4
4
4
4
4
4
4
4
4
4
4
4
4
4
4
4
4
4
4
4
4
4
4
4
4
4
4
4
4
4
4
4
4
4
4
4
4
4
4
4
4
4
4
4
4
4
4
4
4
4
4
4
4
4
4
4
4
4
4
4
4
4
4
4
4
4
4
4
4
4
4
4
4
4
4
4
4
4
4
4
4
4
4
4
4
4
4
4
4
4
4
4
4
4
4
4
4
4
4
4
4
4
4
4
4
4
4
4
4
4
4
4
4
4
4
4
4
4
4
4
4
4
4
4
4
4
4
4
4
4
4
4
4
4
4
4
4
4
4
4
4
4
4
4
4
4
4
4
4
4
4
4
4
4
4
4
4
4
4
4
4
4
4
4
4
4
4
4
4
4
4
4
4
4
4
4
4
4
4
4
4
4
4
4
4
4
4
4
4
4
4
4
4
4
4
4
4
4
4
4
4
4
4
4
4
4
4
4
4
4
4
4
4
4
4
4
4
4
4
4
4
4
4
4
4
4
4
4
4
4
4
4
4
4
4
4
4
4
4
4
4
4
4
4
4
4
4
4
4
4
4
4
4
4
4
4
4
4
4
4
4
4
4
4
4
4
4
4
4
4
4
4
4
4
4
4
4
4
4
4
4
4
4
4
4
4
4
4
4
4
4
4
4
4
4
4
4
4
4
4
4
4
4
4
4
4
4
4
4
4
4
4
4
4
4
4
4
4
4
4
4
4
4
4
4
4
4
4
4
4
4
4
4
4
4
4
4
4
4
4
4
4
4
4
4
4
4
4
4
4
4
4
4
4
4
4
4
4
4
4
4
4
4
4
4
4
4
4
4
4
4
4
4
4
4
4
4
4
4
4
4
4
4
4
4
4
4
4
4
4
4
4
4
4
4
4
4
4
4
4
4
4
4
4
4
4
4
4
4
4
4
4
4
4
4
4
4
4
4
4
4
4
4
4
4
4
4
4
4
4
4
4
4
4
4
4
4
4
4
4
4
4
4
4
4
4
4
4
4
4
4
4
4
4
4
4
4
4
4
4
4
4
4
4
4
4
4
4
4
4
4
4
4
4
4
4
4
4
4
4
4
4
4
4
4
4
4
4
4
4
4
4
4
4
4
4
4
4
4
4
4
4
4
4
4
4
4
4
4
4
4
4
4
4
4
4
4
4
4
4
4
4
4
4
4
4
4
4
4
4
4
4
4
4
4
4
4
4
4
4
4
4
4
4
4
4
4
4
4
4
4
4
4
4
4
4
4
4
4
4
4
4
4
4
4
4
4
4
4
4
4
4
4
4
4
4
4
4
4
4
4
4
4
4
4
4
4
4
4
4
4
4
4
4
4
4
4
4
4
4
4
4
4
4
4
4
4
4
4
4
4
4
4
4
4
4
4
4
4
4
4
4
4
4
4
4
4
4
4
4
4
4
4
4
4
4
4
4
4
4
4
4
4
4
4
4
4
4
4
4
4
4
4
4
4
4
4
4
4
4
4
4
4
4
4
4
4
4
4
4
4
4
4
4
4
4
4
4
4
4
4
4
4
4
4
4
4
4
4
4
4
4
4
4
4
4
4
4
4
4
4
4
4
4
4
4
4
4
4
4
4
4
4
4
4
4
4
4
4
4
4
4
4
4
4
4
4
4
4
4
4
4
4
4
4
4
4
4
4
4
4
4
4
4
4
4
4
4
4
4
4
4
4
4
4
4
4
4
4
4
4
4
4
4
4
4
4
4
4
4
4
4
4
4
4
4
4
4
4
4
4
4
4
4
4
4
4
4
4
4
4
4
4
4
4
4
4
4
4
4
4
4
4
4
4
4
4
4
4
4
4
4
4
4
4
4
4
4
4
4
4
4
4
4
4
4
4
4
4
4
4
4
4
4
4
4
4
4
4
4
4
4
4
4
4
4
4
4
4
4
4
4
4
4
4
4
4
4
4
4
4
4
4
4
4
4
4
4
4
4
4
4
4
4
4
4
4
4
4
4
4
4
4
4
4
4
4
4
4
4
4
4
4
4
4
4
4
4
4
4
4
4
4
4
4
4
4
4
4
4
4
4
4
4
4
4
4
4
4
4
4
4
4
4
4
4
4
4
4
4
4
4
4
4
4
4
4
4
4
4
4
4
4
4
4
4
4
4
4
4
4
4
4
4
4
4
4
4
4
4
4
4
4
4
4
4
4
4
4
4
4
4
4
4
4
4
4
4
4
4
4
4
4
4
4
4
4
4
4
4
4

POINT_DATA 2827
VECTORS PK_force double
0.000000000000000e+00 0.000000000000000e+00 0.000000000000000e+00
0.000000000000000e+00 0.000000000000000e+00 0.000000000000000e+00
0.000000000000000e+00 0.000000000000000e+00 0.000000000000000e+00
0.000000000000000e+00 0.000000000000000e+00 0.000000000000000e+00
0.000000000000000e+00 0.000000000000000e+00 0.000000000000000e+00
0.000000000000000e+00 0.000000000000000e+00 0.000000000000000e+00
0.000000000000000e+00 0.000000000000000e+00 0.000000000000000e+00
0.000000000000000e+00 0.000000000000000e+00 0.000000000000000e+00
0.000000000000000e+00 0.000000000000000e+00 0.000000000000000e+00
0.000000000000000e+00 0.000000000000000e+00 0.000000000000000e+00
0.000000000000000e+00 0.000000000000000e+00 0.000000000000000e+00
0.000000000000000e+00 0.000000000000000e+00 0.000000000000000e+00
0.000000000000000e+00 0.000000000000000e+00 0.000000000000000e+00
0.000000000000000e+00 0.000000000000000e+00 0.000000000000000e+00
0.000000000000000e+00 0.000000000000000e+00 0.000000000000000e+00
0.000000000000000e+00 0.000000000000000e+00 0.000000000000000e+00
0.000000000000000e+00 0.000000000000000e+00 0.000000000000000e+00
0.000000000000000e+00 0.000000000000000e+00 0.000000000000000e+00
0.000000000000000e+00 0.000000000000000e+00 0.000000000000000e+00
0.000000000000000e+00 0.000000000000000e+00 0.000000000000000e+00
0.000000000000000e+00 0.000000000000000e+00 0.000000000000000e+00
0.000000000000000e+00 0.000000000000000e+00 0.000000000000000e+00
0.000000000000000e+00 0.000000000000000e+00 0.000000000000000e+00
0.000000000000000e+00 0.000000000000000e+00 0.000000000000000e+00
0.000000000000000e+00 0.000000000000000e+00 0.000000000000000e+00
0.000000000000000e+00 0.000000000000000e+00 0.000000000000000e+00
0.000000000000000e+00 0.000000000000000e+00 0.000000000000000e+00
0.000000000000000e+00 0.000000000000000e+00 0.000000000000000e+00
0.000000000000000e+00 0.000000000000000e+00 0.000000000000000e+00
0.000000000000000e+00 0.000000000000000e+00 0.000000000000000e+00
0.000000000000000e+00 0.000000000000000e+00 0.000000000000000e+00
0.000000000000000e+00 0.000000000000000e+00 0.000000000000000e+00
0.000000000000000e+00 0.000000000000000e+00 0.000000000000000e+00
0.000000000000000e+00 0.000000000000000e+00 0.000000000000000e+00
0.000000000000000e+00 0.000000000000000e+00 0.000000000000000e+00
0.000000000000000e+00 0.000000000000000e+00 0.000000000000000e+00
0.000000000000000e+00 0.000000000000000e+00 0.000000000000000e+00
0.000000000000000e+00 0.000000000000000e+00 0.000000000000000e+00
0.000000000000000e+00 0.000000000000000e+00 0.000000000000000e+00
0.000000000000000e+00 0.000000000000000e+00 0.000000000000000e+00
0.000000000000000e+00 0.000000000000000e+00 0.000000000000000e+00
0.000000000000000e+00 0.000000000000000e+00 0.000000000000000e+00
0.000000000000000e+00 0.000000000000000e+00 0.000000000000000e+00
0.000000000000000e+00 0.000000000000000e+00 0.000000000000000e+00
0.000000000000000e+00 0.000000000000000e+00 0.000000000000000e+00
0.000000000000000e+00 0.000000000000000e+00 0.000000000000000e+00
0.000000000000000e+00 0.000000000000000e+00 0.000000000000000e+00
0.000000000000000e+00 0.000000000000000e+00 0.000000000000000e+00
0.000000000000000e+00 0.000000000000000e+00 0.000000000000000e+00
0.000000000000000e+00 0.000000000000000e+00 0.000000000000000e+00
0.000000000000000e+00 0.000000000000000e+00 0.000000000000000e+00
0.000000000000000e+00 0.000000000000000e+00 0.000000000000000e+00
0.000000000000000e+00 0.000000000000000e+00 0.000000000000000e+00
0.000000000000000e+00 0.000000000000000e+00 0.000000000000000e+00
0.000000000000000e+00 0.000000000000000e+00 0.000000000000000e+00
0.000000000000000e+00 0.000000000000000e+00 0.000000000000000e+00
0.000000000000000e+00 0.000000000000000e+00 0.000000000000000e+00
0.000000000000000e+00 0.000000000000000e+00 0.000000000000000e+00
0.000000000000000e+00 0.000000000000000e+00 0.000000000000000e+00
0.000000000000000e+00 0.000000000000000e+00 0.000000000000000e+00
0.000000000000000e+00 0.000000000000000e+00 0.000000000000000e+00
0.000000000000000e+00 0.000000000000000e+00 0.000000000000000e+00
0.000000000000000e+00 0.000000000000000e+00 0.000000000000000e+00
0.000000000000000e+00 0.000000000000000e+00 0.000000000000000e+00
0.000000000000000e+00 0.000000000000000e+00 0.000000000000000e+00
0.000000000000000e+00 0.000000000000000e+00 0.000000000000000e+00
0.000000000000000e+00 0.000000000000000e+00 0.000000000000000e+00
0.000000000000000e+00 0.000000000000000e+00 0.000000000000000e+00
0.000000000000000e+00 0.000000000000000e+00 0.000000000000000e+00
0.000000000000000e+00 0.000000000000000e+00 0.000000000000000e+00
0.000000000000000e+00 0.000000000000000e+00 0.000000000000000e+00
0.000000000000000e+00 0.000000000000000e+00 0.000000000000000e+00
0.000000000000000e+00 0.000000000000000e+00 0.000000000000000e+00
0.000000000000000e+00 0.000000000000000e+00 0.000000000000000e+00
0.000000000000000e+00 0.000000000000000e+00 0.000000000000000e+00
0.000000000000000e+00 0.000000000000000e+00 0.000000000000000e+00
0.000000000000000e+00 0.000000000000000e+00 0.000000000000000e+00
0.000000000000000e+00 0.000000000000000e+00 0.000000000000000e+00
0.000000000000000e+00 0.000000000000000e+00 0.000000000000000e+00
0.000000000000000e+00 0.000000000000000e+00 0.000000000000000e+00
0.000000000000000e+00 0.000000000000000e+00 0.000000000000000e+00
0.000000000000000e+00 0.000000000000000e+00 0.000000000000000e+00
0.000000000000000e+00 0.000000000000000e+00 0.000000000000000e+00
0.000000000000000e+00 0.000000000000000e+00 0.000000000000000e+00
0.000000000000000e+00 0.000000000000000e+00 0.000000000000000e+00
0.000000000000000e+00 0.000000000000000e+00 0.000000000000000e+00
0.000000000000000e+00 0.000000000000000e+00 0.000000000000000e+00
0.000000000000000e+00 0.000000000000000e+00 0.000000000000000e+00
0.000000000000000e+00 0.000000000000000e+00 0.000000000000000e+00
0.000000000000000e+00 0.000000000000000e+00 0.000000000000000e+00
0.000000000000000e+00 0.000000000000000e+00 0.000000000000000e+00
0.000000000000000e+00 0.000000000000000e+00 0.000000000000000e+00
0.000000000000000e+00 0.000000000000000e+00 0.000000000000000e+00
0.000000000000000e+00 0.000000000000000e+00 0.000000000000000e+00
0.000000000000000e+00 0.000000000000000e+00 0.000000000000000e+00
0.000000000000000e+00 0.000000000000000e+00 0.000000000000000e+00
0.000000000000000e+00 0.000000000000000e+00 0.000000000000000e+00
0.000000000000000e+00 0.000000000000000e+00 0.000000000000000e+00
0.000000000000000e+00 0.000000000000000e+00 0.000000000000000e+00
0.000000000000000e+00 0.000000000000000e+00 0.000000000000000e+00
0.000000000000000e+00 0.000000000000000e+00 0.000000000000000e+00
0.000000000000000e+00 0.000000000000000e+00 0.000000000000000e+00
0.000000000000000e+00 0.000000000000000e+00 0.000000000000000e+00
0.000000000000000e+00 0.000000000000000e+00 0.000000000000000e+00
0.000000000000000e+00 0.000000000000000e+00 0.000000000000000e+00
0.000000000000000e+00 0.000000000000000e+00 0.000000000000000e+00
0.000000000000000e+00 0.000000000000000e+00 0.000000000000000e+00
0.000000000000000e+00 0.000000000000000e+00 0.000000000000000e+00
0.000000000000000e+00 0.000000000000000e+00 0.000000000000000e+00
0.000000000000000e+00 0.000000000000000e+00 0.000000000000000e+00
0.000000000000000e+00 0.000000000000000e+00 0.000000000000000e+00
0.000000000000000e+00 0.000000000000000e+00 0.000000000000000e+00
0.000000000000000e+00 0.000000000000000e+00 0.000000000000000e+00
0.000000000000000e+00 0.000000000000000e+00 0.000000000000000e+00
0.000000000000000e+00 0.000000000000000e+00 0.000000000000000e+00
0.000000000000000e+00 0.000000000000000e+00 0.000000000000000e+00
0.000000000000000e+00 0.000000000000000e+00 0.000000000000000e+00
0.000000000000000e+00 0.000000000000000e+00 0.000000000000000e+00
0.000000000000000e+00 0.000000000000000e+00 0.000000000000000e+00
0.000000000000000e+00 0.000000000000000e+00 0.000000000000000e+00
0.000000000000000e+00 0.000000000000000e+00 0.000000000000000e+00
0.000000000000000e+00 0.000000000000000e+00 0.000000000000000e+00
0.000000000000000e+00 0.000000000000000e+00 0.000000000000000e+00
0.000000000000000e+00 0.000000000000000e+00 0.000000000000000e+00
0.000000000000000e+00 0.000000000000000e+00 0.000000000000000e+00
0.000000000000000e+00 0.000000000000000e+00 0.000000000000000e+00
0.000000000000000e+00 0.000000000000000e+00 0.000000000000000e+00
0.000000000000000e+00 0.000000000000000e+00 0.000000000000000e+00
0.000000000000000e+00 0.000000000000000e+00 0.000000000000000e+00
0.000000000000000e+00 0.000000000000000e+00 0.000000000000000e+00
0.000000000000000e+00 0.000000000000000e+00 0.000000000000000e+00
0.000000000000000e+00 0.000000000000000e+00 0.000000000000000e+00
0.000000000000000e+00 0.000000000000000e+00 0.000000000000000e+00
0.000000000000000e+00 0.000000000000000e+00 0.000000000000000e+00
0.000000000000000e+00 0.000000000000000e+00 0.000000000000000e+00
0.000000000000000e+00 0.000000000000000e+00 0.000000000000000e+00
0.000000000000000e+00 0.000000000000000e+00 0.000000000000000e+00
0.000000000000000e+00 0.000000000000000e+00 0.000000000000000e+00
0.000000000000000e+00 0.000000000000000e+00 0.000000000000000e+00
0.000000000000000e+00 0.000000000000000e+00 0.000000000000000e+00
0.000000000000000e+00 0.000000000000000e+00 0.000000000000000e+00
0.000000000000000e+00 0.000000000000000e+00 0.000000000000000e+00
0.000000000000000e+00 0.000000000000000e+00 0.000000000000000e+00
0.000000000000000e+00 0.000000000000000e+00 0.000000000000000e+00
0.000000000000000e+00 0.000000000000000e+00 0.000000000000000e+00
0.000000000000000e+00 0.000000000000000e+00 0.000000000000000e+00
0.000000000000000e+00 0.000000000000000e+00 0.000000000000000e+00
0.000000000000000e+00 0.000000000000000e+00 0.000000000000000e+00
0.000000000000000e+00 0.000000000000000e+00 0.000000000000000e+00
0.000000000000000e+00 0.000000000000000e+00 0.000000000000000e+00
0.000000000000000e+00 0.000000000000000e+00 0.000000000000000e+00
0.000000000000000e+00 0.000000000000000e+00 0.000000000000000e+00
0.000000000000000e+00 0.000000000000000e+00 0.000000000000000e+00
0.000000000000000e+00 0.000000000000000e+00 0.000000000000000e+00
0.000000000000000e+00 0.000000000000000e+00 0.000000000000000e+00
0.000000000000000e+00 0.000000000000000e+00 0.000000000000000e+00
0.000000000000000e+00 0.000000000000000e+00 0.000000000000000e+00
0.000000000000000e+00 0.000000000000000e+00 0.000000000000000e+00
0.000000000000000e+00 0.000000000000000e+00 0.000000000000000e+00
0.000000000000000e+00 0.000000000000000e+00 0.000000000000000e+00
0.000000000000000e+00 0.000000000000000e+00 0.000000000000000e+00
0.000000000000000e+00 0.000000000000000e+00 0.000000000000000e+00
0.000000000000000e+00 0.000000000000000e+00 0.000000000000000e+00
0.000000000000000e+00 0.000000000000000e+00 0.000000000000000e+00
0.000000000000000e+00 0.000000000000000e+00 0.000000000000000e+00
0.000000000000000e+00 0.000000000000000e+00 0.000000000000000e+00
0.000000000000000e+00 0.000000000000000e+00 0.000000000000000e+00
0.000000000000000e+00 0.000000000000000e+00 0.000000000000000e+00
0.000000000000000e+00 0.000000000000000e+00 0.000000000000000e+00
0.000000000000000e+00 0.000000000000000e+00 0.000000000000000e+00
0.000000000000000e+00 0.000000000000000e+00 0.000000000000000e+00
0.000000000000000e+00 0.000000000000000e+00 0.000000000000000e+00
0.000000000000000e+00 0.000000000000000e+00 0.000000000000000e+00
0.000000000000000e+00 0.000000000000000e+00 0.000000000000000e+00
0.000000000000000e+00 0.000000000000000e+00 0.000000000000000e+00
0.000000000000000e+00 0.000000000000000e+00 0.000000000000000e+00
0.000000000000000e+00 0.000000000000000e+00 0.000000000000000e+00
0.000000000000000e+00 0.000000000000000e+00 0.000000000000000e+00
0.000000000000000e+00 0.000000000000000e+00 0.000000000000000e+00
0.000000000000000e+00 0.000000000000000e+00 0.000000000000000e+00
0.000000000000000e+00 0.000000000000000e+00 0.000000000000000e+00
0.000000000000000e+00 0.000000000000000e+00 0.000000000000000e+00
0.000000000000000e+00 0.000000000000000e+00 0.000000000000000e+00
0.000000000000000e+00 0.000000000000000e+00 0.000000000000000e+00
0.000000000000000e+00 0.000000000000000e+00 0.000000000000000e+00
0.000000000000000e+00 0.000000000000000e+00 0.000000000000000e+00
0.000000000000000e+00 0.000000000000000e+00 0.000000000000000e+00
0.000000000000000e+00 0.000000000000000e+00 0.000000000000000e+00
0.000000000000000e+00 0.000000000000000e+00 0.000000000000000e+00
0.000000000000000e+00 0.000000000000000e+00 0.000000000000000e+00
0.000000000000000e+00 0.000000000000000e+00 0.000000000000000e+00
0.000000000000000e+00 0.000000000000000e+00 0.000000000000000e+00
0.000000000000000e+00 0.000000000000000e+00 0.000000000000000e+00
0.000000000000000e+00 0.000000000000000e+00 0.000000000000000e+00
0.000000000000000e+00 0.000000000000000e+00 0.000000000000000e+00
0.000000000000000e+00 0.000000000000000e+00 0.000000000000000e+00
0.000000000000000e+00 0.000000000000000e+00 0.000000000000000e+00
0.000000000000000e+00 0.000000000000000e+00 0.000000000000000e+00
0.000000000000000e+00 0.000000000000000e+00 0.000000000000000e+00
0.000000000000000e+00 0.000000000000000e+00 0.000000000000000e+00
0.000000000000000e+00 0.000000000000000e+00 0.000000000000000e+00
0.000000000000000e+00 0.000000000000000e+00 0.000000000000000e+00
0.000000000000000e+00 0.000000000000000e+00 0.000000000000000e+00
0.000000000000000e+00 0.000000000000000e+00 0.000000000000000e+00
0.000000000000000e+00 0.000000000000000e+00 0.000000000000000e+00
0.000000000000000e+00 0.000000000000000e+00 0.000000000000000e+00
0.000000000000000e+00 0.000000000000000e+00 0.000000000000000e+00
0.000000000000000e+00 0.000000000000000e+00 0.000000000000000e+00
0.000000000000000e+00 0.000000000000000e+00 0.000000000000000e+00
0.000000000000000e+00 0.000000000000000e+00 0.000000000000000e+00
0.000000000000000e+00 0.000000000000000e+00 0.000000000000000e+00
0.000000000000000e+00 0.000000000000000e+00 0.000000000000000e+00
0.000000000000000e+00 0.000000000000000e+00 0.000000000000000e+00
0.000000000000000e+00 0.000000000000000e+00 0.000000000000000e+00
0.000000000000000e+00 0.000000000000000e+00 0.000000000000000e+00
0.000000000000000e+00 0.000000000000000e+00 0.000000000000000e+00
0.000000000000000e+00 0.000000000000000e+00 0.000000000000000e+00
0.000000000000000e+00 0.000000000000000e+00 0.000000000000000e+00
0.000000000000000e+00 0.000000000000000e+00 0.000000000000000e+00
0.000000000000000e+00 0.000000000000000e+00 0.000000000000000e+00
0.000000000000000e+00 0.000000000000000e+00 0.000000000000000e+00
0.000000000000000e+00 0.000000000000000e+00 0.000000000000000e+00
0.000000000000000e+00 0.000000000000000e+00 0.000000000000000e+00
0.000000000000000e+00 0.000000000000000e+00 0.000000000000000e+00
0.000000000000000e+00 0.000000000000000e+00 0.000000000000000e+00
0.000000000000000e+00 0.000000000000000e+00 0.000000000000000e+00
0.000000000000000e+00 0.000000000000000e+00 0.000000000000000e+00
0.000000000000000e+00 0.000000000000000e+00 0.000000000000000e+00
0.000000000000000e+00 0.000000000000000e+00 0.000000000000000e+00
0.000000000000000e+00 0.000000000000000e+00 0.000000000000000e+00
0.000000000000000e+00 0.000000000000000e+00 0.000000000000000e+00
0.000000000000000e+00 0.000000000000000e+00 0.000000000000000e+00
0.000000000000000e+00 0.000000000000000e+00 0.000000000000000e+00
0.000000000000000e+00 0.000000000000000e+00 0.000000000000000e+00
0.000000000000000e+00 0.000000000000000e+00 0.000000000000000e+00
0.000000000000000e+00 0.000000000000000e+00 0.000000000000000e+00
0.000000000000000e+00 0.000000000000000e+00 0.000000000000000e+00
0.000000000000000e+00 0.000000000000000e+00 0.000000000000000e+00
0.000000000000000e+00 0.000000000000000e+00 0.000000000000000e+00
0.000000000000000e+00 0.000000000000000e+00 0.000000000000000e+00
0.000000000000000e+00 0.000000000000000e+00 0.000000000000000e+00
0.000000000000000e+00 0.000000000000000e+00 0.000000000000000e+00
0.000000000000000e+00 0.000000000000000e+00 0.000000000000000e+00
0.000000000000000e+00 0.000000000000000e+00 0.000000000000000e+00
0.000000000000000e+00 0.000000000000000e+00 0.000000000000000e+00
0.000000000000000e+00 0.000000000000000e+00 0.000000000000000e+00
0.000000000000000e+00 0.000000000000000e+00 0.000000000000000e+00
0.000000000000000e+00 0.000000000000000e+00 0.000000000000000e+00
0.000000000000000e+00 0.000000000000000e+00 0.000000000000000e+00
0.000000000000000e+00 0.000000000000000e+00 0.000000000000000e+00
0.000000000000000e+00 0.000000000000000e+00 0.000000000000000e+00
0.000000000000000e+00 0.000000000000000e+00 0.000000000000000e+00
0.000000000000000e+00 0.000000000000000e+00 0.000000000000000e+00
0.000000000000000e+00 0.000000000000000e+00 0.000000000000000e+00
0.000000000000000e+00 0.000000000000000e+00 0.000000000000000e+00
0.000000000000000e+00 0.000000000000000e+00 0.000000000000000e+00
0.000000000000000e+00 0.000000000000000e+00 0.000000000000000e+00
0.000000000000000e+00 0.000000000000000e+00 0.000000000000000e+00
0.000000000000000e+00 0.000000000000000e+00 0.000000000000000e+00
0.000000000000000e+00 0.000000000000000e+00 0.000000000000000e+00
0.000000000000000e+00 0.000000000000000e+00 0.000000000000000e+00
0.000000000000000e+00 0.000000000000000e+00 0.000000000000000e+00
0.000000000000000e+00 0.000000000000000e+00 0.000000000000000e+00
0.000000000000000e+00 0.000000000000000e+00 0.000000000000000e+00
0.000000000000000e+00 0.000000000000000e+00 0.000000000000000e+00
0.000000000000000e+00 0.000000000000000e+00 0.000000000000000e+00
0.000000000000000e+00 0.000000000000000e+00 0.000000000000000e+00
0.000000000000000e+00 0.000000000000000e+00 0.000000000000000e+00
0.000000000000000e+00 0.000000000000000e+00 0.000000000000000e+00
0.000000000000000e+00 0.000000000000000e+00 0.000000000000000e+00
0.000000000000000e+00 0.000000000000000e+00 0.000000000000000e+00
0.000000000000000e+00 0.000000000000000e+00 0.000000000000000e+00
0.000000000000000e+00 0.000000000000000e+00 0.000000000000000e+00
0.000000000000000e+00 0.000000000000000e+00 0.000000000000000e+00
0.000000000000000e+00 0.000000000000000e+00 0.000000000000000e+00
0.000000000000000e+00 0.000000000000000e+00 0.000000000000000e+00
0.000000000000000e+00 0.000000000000000e+00 0.000000000000000e+00
0.000000000000000e+00 0.000000000000000e+00 0.000000000000000e+00
0.000000000000000e+00 0.000000000000000e+00 0.000000000000000e+00
0.000000000000000e+00 0.000000000000000e+00 0.000000000000000e+00
0.000000000000000e+00 0.000000000000000e+00 0.000000000000000e+00
0.000000000000000e+00 0.000000000000000e+00 0.000000000000000e+00
0.000000000000000e+00 0.000000000000000e+00 0.000000000000000e+00
0.000000000000000e+00 0.000000000000000e+00 0.000000000000000e+00
0.000000000000000e+00 0.000000000000000e+00 0.000000000000000e+00
0.000000000000000e+00 0.000000000000000e+00 0.000000000000000e+00
0.000000000000000e+00 0.000000000000000e+00 0.000000000000000e+00
0.000000000000000e+00 0.000000000000000e+00 0.000000000000000e+00
0.000000000000000e+00 0.000000000000000e+00 0.000000000000000e+00
0.000000000000000e+00 0.000000000000000e+00 0.000000000000000e+00
0.000000000000000e+00 0.000000000000000e+00 0.000000000000000e+00
0.000000000000000e+00 0.000000000000000e+00 0.000000000000000e+00
0.000000000000000e+00 0.000000000000000e+00 0.000000000000000e+00
0.000000000000000e+00 0.000000000000000e+00 0.000000000000000e+00
0.000000000000000e+00 0.000000000000000e+00 0.000000000000000e+00
0.000000000000000e+00 0.000000000000000e+00 0.000000000000000e+00
0.000000000000000e+00 0.000000000000000e+00 0.000000000000000e+00
0.000000000000000e+00 0.000000000000000e+00 0.000000000000000e+00
0.000000000000000e+00 0.000000000000000e+00 0.000000000000000e+00
0.000000000000000e+00 0.000000000000000e+00 0.000000000000000e+00
0.000000000000000e+00 0.000000000000000e+00 0.000000000000000e+00
0.000000000000000e+00 0.000000000000000e+00 0.000000000000000e+00
0.000000000000000e+00 0.000000000000000e+00 0.000000000000000e+00
0.000000000000000e+00 0.000000000000000e+00 0.000000000000000e+00
0.000000000000000e+00 0.000000000000000e+00 0.000000000000000e+00
0.000000000000000e+00 0.000000000000000e+00 0.000000000000000e+00
0.000000000000000e+00 0.000000000000000e+00 0.000000000000000e+00
0.000000000000000e+00 0.000000000000000e+00 0.000000000000000e+00
0.000000000000000e+00 0.000000000000000e+00 0.000000000000000e+00
0.000000000000000e+00 0.000000000000000e+00 0.000000000000000e+00
0.000000000000000e+00 0.000000000000000e+00 0.000000000000000e+00
0.000000000000000e+00 0.000000000000000e+00 0.000000000000000e+00
0.000000000000000e+00 0.000000000000000e+00 0.000000000000000e+00
0.000000000000000e+00 0.000000000000000e+00 0.000000000000000e+00
0.000000000000000e+00 0.000000000000000e+00 0.000000000000000e+00
0.000000000000000e+00 0.000000000000000e+00 0.000000000000000e+00
0.000000000000000e+00 0.000000000000000e+00 0.000000000000000e+00
0.000000000000000e+00 0.000000000000000e+00 0.000000000000000e+00
0.000000000000000e+00 0.000000000000000e+00 0.000000000000000e+00
0.000000000000000e+00 0.000000000000000e+00 0.000000000000000e+00
0.000000000000000e+00 0.000000000000000e+00 0.000000000000000e+00
0.000000000000000e+00 0.000000000000000e+00 0.000000000000000e+00
0.000000000000000e+00 0.000000000000000e+00 0.000000000000000e+00
0.000000000000000e+00 0.000000000000000e+00 0.000000000000000e+00
0.000000000000000e+00 0.000000000000000e+00 0.000000000000000e+00
0.000000000000000e+00 0.000000000000000e+00 0.000000000000000e+00
0.000000000000000e+00 0.000000000000000e+00 0.000000000000000e+00
0.000000000000000e+00 0.000000000000000e+00 0.000000000000000e+00
0.000000000000000e+00 0.000000000000000e+00 0.000000000000000e+00
0.000000000000000e+00 0.000000000000000e+00 0.000000000000000e+00
0.000000000000000e+00 0.000000000000000e+00 0.000000000000000e+00
0.000000000000000e+00 0.000000000000000e+00 0.000000000000000e+00
0.000000000000000e+00 0.000000000000000e+00 0.000000000000000e+00
0.000000000000000e+00 0.000000000000000e+00 0.000000000000000e+00
0.000000000000000e+00 0.000000000000000e+00 0.000000000000000e+00
0.000000000000000e+00 0.000000000000000e+00 0.000000000000000e+00
0.000000000000000e+00 0.000000000000000e+00 0.000000000000000e+00
0.000000000000000e+00 0.000000000000000e+00 0.000000000000000e+00
0.000000000000000e+00 0.000000000000000e+00 0.000000000000000e+00
0.000000000000000e+00 0.000000000000000e+00 0.000000000000000e+00
0.000000000000000e+00 0.000000000000000e+00 0.000000000000000e+00
0.000000000000000e+00 0.000000000000000e+00 0.000000000000000e+00
0.000000000000000e+00 0.000000000000000e+00 0.000000000000000e+00
0.000000000000000e+00 0.000000000000000e+00 0.000000000000000e+00
0.000000000000000e+00 0.000000000000000e+00 0.000000000000000e+00
0.000000000000000e+00 0.000000000000000e+00 0.000000000000000e+00
0.000000000000000e+00 0.000000000000000e+00 0.000000000000000e+00
0.000000000000000e+00 0.000000000000000e+00 0.000000000000000e+00
0.000000000000000e+00 0.000000000000000e+00 0.000000000000000e+00
0.000000000000000e+00 0.000000000000000e+00 0.000000000000000e+00
0.000000000000000e+00 0.000000000000000e+00 0.000000000000000e+00
0.000000000000000e+00 0.000000000000000e+00 0.000000000000000e+00
0.000000000000000e+00 0.000000000000000e+00 0.000000000000000e+00
0.000000000000000e+00 0.000000000000000e+00 0.000000000000000e+00
0.000000000000000e+00 0.000000000000000e+00 0.000000000000000e+00
0.000000000000000e+00 0.000000000000000e+00 0.000000000000000e+00
0.000000000000000e+00 0.000000000000000e+00 0.000000000000000e+00
0.000000000000000e+00 0.000000000000000e+00 0.000000000000000e+00
0.000000000000000e+00 0.000000000000000e+00 0.000000000000000e+00
0.000000000000000e+00 0.000000000000000e+00 0.000000000000000e+00
0.000000000000000e+00 0.000000000000000e+00 0.000000000000000e+00
0.000000000000000e+00 0.000000000000000e+00 0.000000000000000e+00
0.000000000000000e+00 0.000000000000000e+00 0.000000000000000e+00
0.000000000000000e+00 0.000000000000000e+00 0.000000000000000e+00
0.000000000000000e+00 0.000000000000000e+00 0.000000000000000e+00
0.000000000000000e+00 0.000000000000000e+00 0.000000000000000e+00
0.000000000000000e+00 0.000000000000000e+00 0.000000000000000e+00
0.000000000000000e+00 0.000000000000000e+00 0.000000000000000e+00
0.000000000000000e+00 0.000000000000000e+00 0.000000000000000e+00
0.000000000000000e+00 0.000000000000000e+00 0.000000000000000e+00
0.000000000000000e+00 0.000000000000000e+00 0.000000000000000e+00
0.000000000000000e+00 0.000000000000000e+00 0.000000000000000e+00
0.000000000000000e+00 0.000000000000000e+00 0.000000000000000e+00
0.000000000000000e+00 0.000000000000000e+00 0.000000000000000e+00
0.000000000000000e+00 0.000000000000000e+00 0.000000000000000e+00
0.000000000000000e+00 0.000000000000000e+00 0.000000000000000e+00
0.000000000000000e+00 0.000000000000000e+00 0.000000000000000e+00
0.000000000000000e+00 0.000000000000000e+00 0.000000000000000e+00
0.000000000000000e+00 0.000000000000000e+00 0.000000000000000e+00
0.000000000000000e+00 0.000000000000000e+00 0.000000000000000e+00
0.000000000000000e+00 0.000000000000000e+00 0.000000000000000e+00
0.000000000000000e+00 0.000000000000000e+00 0.000000000000000e+00
0.000000000000000e+00 0.000000000000000e+00 0.000000000000000e+00
0.000000000000000e+00 0.000000000000000e+00 0.000000000000000e+00
0.000000000000000e+00 0.000000000000000e+00 0.000000000000000e+00
0.000000000000000e+00 0.000000000000000e+00 0.000000000000000e+00
0.000000000000000e+00 0.000000000000000e+00 0.000000000000000e+00
0.000000000000000e+00 0.000000000000000e+00 0.000000000000000e+00
0.000000000000000e+00 0.000000000000000e+00 0.000000000000000e+00
0.000000000000000e+00 0.000000000000000e+00 0.000000000000000e+00
0.000000000000000e+00 0.000000000000000e+00 0.000000000000000e+00
0.000000000000000e+00 0.000000000000000e+00 0.000000000000000e+00
0.000000000000000e+00 0.000000000000000e+00 0.000000000000000e+00
0.000000000000000e+00 0.000000000000000e+00 0.000000000000000e+00
0.000000000000000e+00 0.000000000000000e+00 0.000000000000000e+00
0.000000000000000e+00 0.000000000000000e+00 0.000000000000000e+00
0.000000000000000e+00 0.000000000000000e+00 0.000000000000000e+00
0.000000000000000e+00 0.000000000000000e+00 0.000000000000000e+00
0.000000000000000e+00 0.000000000000000e+00 0.000000000000000e+00
0.000000000000000e+00 0.000000000000000e+00 0.000000000000000e+00
0.000000000000000e+00 0.000000000000000e+00 0.000000000000000e+00
0.000000000000000e+00 0.000000000000000e+00 0.000000000000000e+00
0.000000000000000e+00 0.000000000000000e+00 0.000000000000000e+00
0.000000000000000e+00 0.000000000000000e+00 0.000000000000000e+00
0.000000000000000e+00 0.000000000000000e+00 0.000000000000000e+00
0.000000000000000e+00 0.000000000000000e+00 0.000000000000000e+00
0.000000000000000e+00 0.000000000000000e+00 0.000000000000000e+00
0.000000000000000e+00 0.000000000000000e+00 0.000000000000000e+00
0.000000000000000e+00 0.000000000000000e+00 0.000000000000000e+00
0.000000000000000e+00 0.000000000000000e+00 0.000000000000000e+00
0.000000000000000e+00 0.000000000000000e+00 0.000000000000000e+00
0.000000000000000e+00 0.000000000000000e+00 0.000000000000000e+00
0.000000000000000e+00 0.000000000000000e+00 0.000000000000000e+00
0.000000000000000e+00 0.000000000000000e+00 0.000000000000000e+00
0.000000000000000e+00 0.000000000000000e+00 0.000000000000000e+00
0.000000000000000e+00 0.000000000000000e+00 0.000000000000000e+00
0.000000000000000e+00 0.000000000000000e+00 0.000000000000000e+00
0.000000000000000e+00 0.000000000000000e+00 0.000000000000000e+00
0.000000000000000e+00 0.000000000000000e+00 0.000000000000000e+00
0.000000000000000e+00 0.000000000000000e+00 0.000000000000000e+00
0.000000000000000e+00 0.000000000000000e+00 0.000000000000000e+00
0.000000000000000e+00 0.000000000000000e+00 0.000000000000000e+00
0.000000000000000e+00 0.000000000000000e+00 0.000000000000000e+00
0.000000000000000e+00 0.000000000000000e+00 0.000000000000000e+00
0.000000000000000e+00 0.000000000000000e+00 0.000000000000000e+00
0.000000000000000e+00 0.000000000000000e+00 0.000000000000000e+00
0.000000000000000e+00 0.000000000000000e+00 0.000000000000000e+00
0.000000000000000e+00 0.000000000000000e+00 0.000000000000000e+00
0.000000000000000e+00 0.000000000000000e+00 0.000000000000000e+00
0.000000000000000e+00 0.000000000000000e+00 0.000000000000000e+00
0.000000000000000e+00 0.000000000000000e+00 0.000000000000000e+00
0.000000000000000e+00 0.000000000000000e+00 0.000000000000000e+00
0.000000000000000e+00 0.000000000000000e+00 0.000000000000000e+00
0.000000000000000e+00 0.000000000000000e+00 0.000000000000000e+00
0.000000000000000e+00 0.000000000000000e+00 0.000000000000000e+00
0.000000000000000e+00 0.000000000000000e+00 0.000000000000000e+00
0.000000000000000e+00 0.000000000000000e+00 0.000000000000000e+00
0.000000000000000e+00 0.000000000000000e+00 0.000000000000000e+00
0.000000000000000e+00 0.000000000000000e+00 0.000000000000000e+00
0.000000000000000e+00 0.000000000000000e+00 0.000000000000000e+00
0.000000000000000e+00 0.000000000000000e+00 0.000000000000000e+00
0.000000000000000e+00 0.000000000000000e+00 0.000000000000000e+00
0.000000000000000e+00 0.000000000000000e+00 0.000000000000000e+00
0.000000000000000e+00 0.000000000000000e+00 0.000000000000000e+00
0.000000000000000e+00 0.000000000000000e+00 0.000000000000000e+00
0.000000000000000e+00 0.000000000000000e+00 0.000000000000000e+00
0.000000000000000e+00 0.000000000000000e+00 0.000000000000000e+00
0.000000000000000e+00 0.000000000000000e+00 0.000000000000000e+00
0.000000000000000e+00 0.000000000000000e+00 0.000000000000000e+00
0.000000000000000e+00 0.000000000000000e+00 0.000000000000000e+00
0.000000000000000e+00 0.000000000000000e+00 0.000000000000000e+00
0.000000000000000e+00 0.000000000000000e+00 0.000000000000000e+00
0.000000000000000e+00 0.000000000000000e+00 0.000000000000000e+00
0.000000000000000e+00 0.000000000000000e+00 0.000000000000000e+00
0.000000000000000e+00 0.000000000000000e+00 0.000000000000000e+00
0.000000000000000e+00 0.000000000000000e+00 0.000000000000000e+00
0.000000000000000e+00 0.000000000000000e+00 0.000000000000000e+00
0.000000000000000e+00 0.000000000000000e+00 0.000000000000000e+00
0.000000000000000e+00 0.000000000000000e+00 0.000000000000000e+00
0.000000000000000e+00 0.000000000000000e+00 0.000000000000000e+00
0.000000000000000e+00 0.000000000000000e+00 0.000000000000000e+00
0.000000000000000e+00 0.000000000000000e+00 0.000000000000000e+00
0.000000000000000e+00 0.000000000000000e+00 0.000000000000000e+00
0.000000000000000e+00 0.000000000000000e+00 0.000000000000000e+00
0.000000000000000e+00 0.000000000000000e+00 0.000000000000000e+00
0.000000000000000e+00 0.000000000000000e+00 0.000000000000000e+00
0.000000000000000e+00 0.000000000000000e+00 0.000000000000000e+00
0.000000000000000e+00 0.000000000000000e+00 0.000000000000000e+00
0.000000000000000e+00 0.000000000000000e+00 0.000000000000000e+00
0.000000000000000e+00 0.000000000000000e+00 0.000000000000000e+00
0.000000000000000e+00 0.000000000000000e+00 0.000000000000000e+00
0.000000000000000e+00 0.000000000000000e+00 0.000000000000000e+00
0.000000000000000e+00 0.000000000000000e+00 0.000000000000000e+00
0.000000000000000e+00 0.000000000000000e+00 0.000000000000000e+00
0.000000000000000e+00 0.000000000000000e+00 0.000000000000000e+00
0.000000000000000e+00 0.000000000000000e+00 0.000000000000000e+00
0.000000000000000e+00 0.000000000000000e+00 0.000000000000000e+00
0.000000000000000e+00 0.000000000000000e+00 0.000000000000000e+00
0.000000000000000e+00 0.000000000000000e+00 0.000000000000000e+00
0.000000000000000e+00 0.000000000000000e+00 0.000000000000000e+00
0.000000000000000e+00 0.000000000000000e+00 0.000000000000000e+00
0.000000000000000e+00 0.000000000000000e+00 0.000000000000000e+00
0.000000000000000e+00 0.000000000000000e+00 0.000000000000000e+00
0.000000000000000e+00 0.000000000000000e+00 0.000000000000000e+00
0.000000000000000e+00 0.000000000000000e+00 0.000000000000000e+00
0.000000000000000e+00 0.000000000000000e+00 0.000000000000000e+00
0.000000000000000e+00 0.000000000000000e+00 0.000000000000000e+00
0.000000000000000e+00 0.000000000000000e+00 0.000000000000000e+00
0.000000000000000e+00 0.000000000000000e+00 0.000000000000000e+00
0.000000000000000e+00 0.000000000000000e+00 0.000000000000000e+00
0.000000000000000e+00 0.000000000000000e+00 0.000000000000000e+00
0.000000000000000e+00 0.000000000000000e+00 0.000000000000000e+00
0.000000000000000e+00 0.000000000000000e+00 0.000000000000000e+00
0.000000000000000e+00 0.000000000000000e+00 0.000000000000000e+00
0.000000000000000e+00 0.000000000000000e+00 0.000000000000000e+00
0.000000000000000e+00 0.000000000000000e+00 0.000000000000000e+00
0.000000000000000e+00 0.000000000000000e+00 0.000000000000000e+00
0.000000000000000e+00 0.000000000000000e+00 0.000000000000000e+00
0.000000000000000e+00 0.000000000000000e+00 0.000000000000000e+00
0.000000000000000e+00 0.000000000000000e+00 0.000000000000000e+00
0.000000000000000e+00 0.000000000000000e+00 0.000000000000000e+00
0.000000000000000e+00 0.000000000000000e+00 0.000000000000000e+00
0.000000000000000e+00 0.000000000000000e+00 0.000000000000000e+00
0.000000000000000e+00 0.000000000000000e+00 0.000000000000000e+00
0.000000000000000e+00 0.000000000000000e+00 0.000000000000000e+00
0.000000000000000e+00 0.000000000000000e+00 0.000000000000000e+00
0.000000000000000e+00 0.000000000000000e+00 0.000000000000000e+00
0.000000000000000e+00 0.000000000000000e+00 0.000000000000000e+00
0.000000000000000e+00 0.000000000000000e+00 0.000000000000000e+00
0.000000000000000e+00 0.000000000000000e+00 0.000000000000000e+00
0.000000000000000e+00 0.000000000000000e+00 0.000000000000000e+00
0.000000000000000e+00 0.000000000000000e+00 0.000000000000000e+00
0.000000000000000e+00 0.000000000000000e+00 0.000000000000000e+00
0.000000000000000e+00 0.000000000000000e+00 0.000000000000000e+00
0.000000000000000e+00 0.000000000000000e+00 0.000000000000000e+00
0.000000000000000e+00 0.000000000000000e+00 0.000000000000000e+00
0.000000000000000e+00 0.000000000000000e+00 0.000000000000000e+00
0.000000000000000e+00 0.000000000000000e+00 0.000000000000000e+00
0.000000000000000e+00 0.000000000000000e+00 0.000000000000000e+00
0.000000000000000e+00 0.000000000000000e+00 0.000000000000000e+00
0.000000000000000e+00 0.000000000000000e+00 0.000000000000000e+00
0.000000000000000e+00 0.000000000000000e+00 0.000000000000000e+00
0.000000000000000e+00 0.000000000000000e+00 0.000000000000000e+00
0.000000000000000e+00 0.000000000000000e+00 0.000000000000000e+00
0.000000000000000e+00 0.000000000000000e+00 0.000000000000000e+00
0.000000000000000e+00 0.000000000000000e+00 0.000000000000000e+00
0.000000000000000e+00 0.000000000000000e+00 0.000000000000000e+00
0.000000000000000e+00 0.000000000000000e+00 0.000000000000000e+00
0.000000000000000e+00 0.000000000000000e+00 0.000000000000000e+00
0.000000000000000e+00 0.000000000000000e+00 0.000000000000000e+00
0.000000000000000e+00 0.000000000000000e+00 0.000000000000000e+00
0.000000000000000e+00 0.000000000000000e+00 0.000000000000000e+00
0.000000000000000e+00 0.000000000000000e+00 0.000000000000000e+00
0.000000000000000e+00 0.000000000000000e+00 0.000000000000000e+00
0.000000000000000e+00 0.000000000000000e+00 0.000000000000000e+00
0.000000000000000e+00 0.000000000000000e+00 0.000000000000000e+00
0.000000000000000e+00 0.000000000000000e+00 0.000000000000000e+00
0.000000000000000e+00 0.000000000000000e+00 0.000000000000000e+00
0.000000000000000e+00 0.000000000000000e+00 0.000000000000000e+00
0.000000000000000e+00 0.000000000000000e+00 0.000000000000000e+00
0.000000000000000e+00 0.000000000000000e+00 0.000000000000000e+00
0.000000000000000e+00 0.000000000000000e+00 0.000000000000000e+00
0.000000000000000e+00 0.000000000000000e+00 0.000000000000000e+00
0.000000000000000e+00 0.000000000000000e+00 0.000000000000000e+00
0.000000000000000e+00 0.000000000000000e+00 0.000000000000000e+00
0.000000000000000e+00 0.000000000000000e+00 0.000000000000000e+00
0.000000000000000e+00 0.000000000000000e+00 0.000000000000000e+00
0.000000000000000e+00 0.000000000000000e+00 0.000000000000000e+00
0.000000000000000e+00 0.000000000000000e+00 0.000000000000000e+00
0.000000000000000e+00 0.000000000000000e+00 0.000000000000000e+00
0.000000000000000e+00 0.000000000000000e+00 0.000000000000000e+00
0.000000000000000e+00 0.000000000000000e+00 0.000000000000000e+00
0.000000000000000e+00 0.000000000000000e+00 0.000000000000000e+00
0.000000000000000e+00 0.000000000000000e+00 0.000000000000000e+00
0.000000000000000e+00 0.000000000000000e+00 0.000000000000000e+00
0.000000000000000e+00 0.000000000000000e+00 0.000000000000000e+00
0.000000000000000e+00 0.000000000000000e+00 0.000000000000000e+00
0.000000000000000e+00 0.000000000000000e+00 0.000000000000000e+00
0.000000000000000e+00 0.000000000000000e+00 0.000000000000000e+00
0.000000000000000e+00 0.000000000000000e+00 0.000000000000000e+00
0.000000000000000e+00 0.000000000000000e+00 0.000000000000000e+00
0.000000000000000e+00 0.000000000000000e+00 0.000000000000000e+00
0.000000000000000e+00 0.000000000000000e+00 0.000000000000000e+00
0.000000000000000e+00 0.000000000000000e+00 0.000000000000000e+00
0.000000000000000e+00 0.000000000000000e+00 0.000000000000000e+00
0.000000000000000e+00 0.000000000000000e+00 0.000000000000000e+00
0.000000000000000e+00 0.000000000000000e+00 0.000000000000000e+00
0.000000000000000e+00 0.000000000000000e+00 0.000000000000000e+00
0.000000000000000e+00 0.000000000000000e+00 0.000000000000000e+00
0.000000000000000e+00 0.000000000000000e+00 0.000000000000000e+00
0.000000000000000e+00 0.000000000000000e+00 0.000000000000000e+00
0.000000000000000e+00 0.000000000000000e+00 0.000000000000000e+00
0.000000000000000e+00 0.000000000000000e+00 0.000000000000000e+00
0.000000000000000e+00 0.000000000000000e+00 0.000000000000000e+00
0.000000000000000e+00 0.000000000000000e+00 0.000000000000000e+00
0.000000000000000e+00 0.000000000000000e+00 0.000000000000000e+00
0.000000000000000e+00 0.000000000000000e+00 0.000000000000000e+00
0.000000000000000e+00 0.000000000000000e+00 0.000000000000000e+00
0.000000000000000e+00 0.000000000000000e+00 0.000000000000000e+00
0.000000000000000e+00 0.000000000000000e+00 0.000000000000000e+00
0.000000000000000e+00 0.000000000000000e+00 0.000000000000000e+00
0.000000000000000e+00 0.000000000000000e+00 0.000000000000000e+00
0.000000000000000e+00 0.000000000000000e+00 0.000000000000000e+00
0.000000000000000e+00 0.000000000000000e+00 0.000000000000000e+00
0.000000000000000e+00 0.000000000000000e+00 0.000000000000000e+00
0.000000000000000e+00 0.000000000000000e+00 0.000000000000000e+00
0.000000000000000e+00 0.000000000000000e+00 0.000000000000000e+00
0.000000000000000e+00 0.000000000000000e+00 0.000000000000000e+00
0.000000000000000e+00 0.000000000000000e+00 0.000000000000000e+00
0.000000000000000e+00 0.000000000000000e+00 0.000000000000000e+00
0.000000000000000e+00 0.000000000000000e+00 0.000000000000000e+00
0.000000000000000e+00 0.000000000000000e+00 0.000000000000000e+00
0.000000000000000e+00 0.000000000000000e+00 0.000000000000000e+00
0.000000000000000e+00 0.000000000000000e+00 0.000000000000000e+00
0.000000000000000e+00 0.000000000000000e+00 0.000000000000000e+00
0.000000000000000e+00 0.000000000000000e+00 0.000000000000000e+00
0.000000000000000e+00 0.000000000000000e+00 0.000000000000000e+00
0.000000000000000e+00 0.000000000000000e+00 0.000000000000000e+00
0.000000000000000e+00 0.000000000000000e+00 0.000000000000000e+00
0.000000000000000e+00 0.000000000000000e+00 0.000000000000000e+00
0.000000000000000e+00 0.000000000000000e+00 0.000000000000000e+00
0.000000000000000e+00 0.000000000000000e+00 0.000000000000000e+00
0.000000000000000e+00 0.000000000000000e+00 0.000000000000000e+00
0.000000000000000e+00 0.000000000000000e+00 0.000000000000000e+00
0.000000000000000e+00 0.000000000000000e+00 0.000000000000000e+00
0.000000000000000e+00 0.000000000000000e+00 0.000000000000000e+00
0.000000000000000e+00 0.000000000000000e+00 0.000000000000000e+00
0.000000000000000e+00 0.000000000000000e+00 0.000000000000000e+00
0.000000000000000e+00 0.000000000000000e+00 0.000000000000000e+00
0.000000000000000e+00 0.000000000000000e+00 0.000000000000000e+00
0.000000000000000e+00 0.000000000000000e+00 0.000000000000000e+00
0.000000000000000e+00 0.000000000000000e+00 0.000000000000000e+00
0.000000000000000e+00 0.000000000000000e+00 0.000000000000000e+00
0.000000000000000e+00 0.000000000000000e+00 0.000000000000000e+00
0.000000000000000e+00 0.000000000000000e+00 0.000000000000000e+00
0.000000000000000e+00 0.000000000000000e+00 0.000000000000000e+00
0.000000000000000e+00 0.000000000000000e+00 0.000000000000000e+00
0.000000000000000e+00 0.000000000000000e+00 0.000000000000000e+00
0.000000000000000e+00 0.000000000000000e+00 0.000000000000000e+00
0.000000000000000e+00 0.000000000000000e+00 0.000000000000000e+00
0.000000000000000e+00 0.000000000000000e+00 0.000000000000000e+00
0.000000000000000e+00 0.000000000000000e+00 0.000000000000000e+00
0.000000000000000e+00 0.000000000000000e+00 0.000000000000000e+00
0.000000000000000e+00 0.000000000000000e+00 0.000000000000000e+00
0.000000000000000e+00 0.000000000000000e+00 0.000000000000000e+00
0.000000000000000e+00 0.000000000000000e+00 0.000000000000000e+00
0.000000000000000e+00 0.000000000000000e+00 0.000000000000000e+00
0.000000000000000e+00 0.000000000000000e+00 0.000000000000000e+00
0.000000000000000e+00 0.000000000000000e+00 0.000000000000000e+00
0.000000000000000e+00 0.000000000000000e+00 0.000000000000000e+00
0.000000000000000e+00 0.000000000000000e+00 0.000000000000000e+00
0.000000000000000e+00 0.000000000000000e+00 0.000000000000000e+00
0.000000000000000e+00 0.000000000000000e+00 0.000000000000000e+00
0.000000000000000e+00 0.000000000000000e+00 0.000000000000000e+00
0.000000000000000e+00 0.000000000000000e+00 0.000000000000000e+00
0.000000000000000e+00 0.000000000000000e+00 0.000000000000000e+00
0.000000000000000e+00 0.000000000000000e+00 0.000000000000000e+00
0.000000000000000e+00 0.000000000000000e+00 0.000000000000000e+00
0.000000000000000e+00 0.000000000000000e+00 0.000000000000000e+00
0.000000000000000e+00 0.000000000000000e+00 0.000000000000000e+00
0.000000000000000e+00 0.000000000000000e+00 0.000000000000000e+00
0.000000000000000e+00 0.000000000000000e+00 0.000000000000000e+00
0.000000000000000e+00 0.000000000000000e+00 0.000000000000000e+00
0.000000000000000e+00 0.000000000000000e+00 0.000000000000000e+00
0.000000000000000e+00 0.000000000000000e+00 0.000000000000000e+00
0.000000000000000e+00 0.000000000000000e+00 0.000000000000000e+00
0.000000000000000e+00 0.000000000000000e+00 0.000000000000000e+00
0.000000000000000e+00 0.000000000000000e+00 0.000000000000000e+00
0.000000000000000e+00 0.000000000000000e+00 0.000000000000000e+00
0.000000000000000e+00 0.000000000000000e+00 0.000000000000000e+00
0.000000000000000e+00 0.000000000000000e+00 0.000000000000000e+00
0.000000000000000e+00 0.000000000000000e+00 0.000000000000000e+00
0.000000000000000e+00 0.000000000000000e+00 0.000000000000000e+00
0.000000000000000e+00 0.000000000000000e+00 0.000000000000000e+00
0.000000000000000e+00 0.000000000000000e+00 0.000000000000000e+00
0.000000000000000e+00 0.000000000000000e+00 0.000000000000000e+00
0.000000000000000e+00 0.000000000000000e+00 0.000000000000000e+00
0.000000000000000e+00 0.000000000000000e+00 0.000000000000000e+00
0.000000000000000e+00 0.000000000000000e+00 0.000000000000000e+00
0.000000000000000e+00 0.000000000000000e+00 0.000000000000000e+00
0.000000000000000e+00 0.000000000000000e+00 0.000000000000000e+00
0.000000000000000e+00 0.000000000000000e+00 0.000000000000000e+00
0.000000000000000e+00 0.000000000000000e+00 0.000000000000000e+00
0.000000000000000e+00 0.000000000000000e+00 0.000000000000000e+00
0.000000000000000e+00 0.000000000000000e+00 0.000000000000000e+00
0.000000000000000e+00 0.000000000000000e+00 0.000000000000000e+00
0.000000000000000e+00 0.000000000000000e+00 0.000000000000000e+00
0.000000000000000e+00 0.000000000000000e+00 0.000000000000000e+00
0.000000000000000e+00 0.000000000000000e+00 0.000000000000000e+00
0.000000000000000e+00 0.000000000000000e+00 0.000000000000000e+00
0.000000000000000e+00 0.000000000000000e+00 0.000000000000000e+00
0.000000000000000e+00 0.000000000000000e+00 0.000000000000000e+00
0.000000000000000e+00 0.000000000000000e+00 0.000000000000000e+00
0.000000000000000e+00 0.000000000000000e+00 0.000000000000000e+00
0.000000000000000e+00 0.000000000000000e+00 0.000000000000000e+00
0.000000000000000e+00 0.000000000000000e+00 0.000000000000000e+00
0.000000000000000e+00 0.000000000000000e+00 0.000000000000000e+00
0.000000000000000e+00 0.000000000000000e+00 0.000000000000000e+00
0.000000000000000e+00 0.000000000000000e+00 0.000000000000000e+00
0.000000000000000e+00 0.000000000000000e+00 0.000000000000000e+00
0.000000000000000e+00 0.000000000000000e+00 0.000000000000000e+00
0.000000000000000e+00 0.000000000000000e+00 0.000000000000000e+00
0.000000000000000e+00 0.000000000000000e+00 0.000000000000000e+00
0.000000000000000e+00 0.000000000000000e+00 0.000000000000000e+00
0.000000000000000e+00 0.000000000000000e+00 0.000000000000000e+00
0.000000000000000e+00 0.000000000000000e+00 0.000000000000000e+00
0.000000000000000e+00 0.000000000000000e+00 0.000000000000000e+00
0.000000000000000e+00 0.000000000000000e+00 0.000000000000000e+00
0.000000000000000e+00 0.000000000000000e+00 0.000000000000000e+00
0.000000000000000e+00 0.000000000000000e+00 0.000000000000000e+00
0.000000000000000e+00 0.000000000000000e+00 0.000000000000000e+00
0.000000000000000e+00 0.000000000000000e+00 0.000000000000000e+00
0.000000000000000e+00 0.000000000000000e+00 0.000000000000000e+00
0.000000000000000e+00 0.000000000000000e+00 0.000000000000000e+00
0.000000000000000e+00 0.000000000000000e+00 0.000000000000000e+00
0.000000000000000e+00 0.000000000000000e+00 0.000000000000000e+00
0.000000000000000e+00 0.000000000000000e+00 0.000000000000000e+00
0.000000000000000e+00 0.000000000000000e+00 0.000000000000000e+00
0.000000000000000e+00 0.000000000000000e+00 0.000000000000000e+00
0.000000000000000e+00 0.000000000000000e+00 0.000000000000000e+00
0.000000000000000e+00 0.000000000000000e+00 0.000000000000000e+00
0.000000000000000e+00 0.000000000000000e+00 0.000000000000000e+00
0.000000000000000e+00 0.000000000000000e+00 0.000000000000000e+00
0.000000000000000e+00 0.000000000000000e+00 0.000000000000000e+00
0.000000000000000e+00 0.000000000000000e+00 0.000000000000000e+00
0.000000000000000e+00 0.000000000000000e+00 0.000000000000000e+00
0.000000000000000e+00 0.000000000000000e+00 0.000000000000000e+00
0.000000000000000e+00 0.000000000000000e+00 0.000000000000000e+00
0.000000000000000e+00 0.000000000000000e+00 0.000000000000000e+00
0.000000000000000e+00 0.000000000000000e+00 0.000000000000000e+00
0.000000000000000e+00 0.000000000000000e+00 0.000000000000000e+00
0.000000000000000e+00 0.000000000000000e+00 0.000000000000000e+00
0.000000000000000e+00 0.000000000000000e+00 0.000000000000000e+00
0.000000000000000e+00 0.000000000000000e+00 0.000000000000000e+00
0.000000000000000e+00 0.000000000000000e+00 0.000000000000000e+00
0.000000000000000e+00 0.000000000000000e+00 0.000000000000000e+00
0.000000000000000e+00 0.000000000000000e+00 0.000000000000000e+00
0.000000000000000e+00 0.000000000000000e+00 0.000000000000000e+00
0.000000000000000e+00 0.000000000000000e+00 0.000000000000000e+00
0.000000000000000e+00 0.000000000000000e+00 0.000000000000000e+00
0.000000000000000e+00 0.000000000000000e+00 0.000000000000000e+00
0.000000000000000e+00 0.000000000000000e+00 0.000000000000000e+00
0.000000000000000e+00 0.000000000000000e+00 0.000000000000000e+00
0.000000000000000e+00 0.000000000000000e+00 0.000000000000000e+00
0.000000000000000e+00 0.000000000000000e+00 0.000000000000000e+00
0.000000000000000e+00 0.000000000000000e+00 0.000000000000000e+00
0.000000000000000e+00 0.000000000000000e+00 0.000000000000000e+00
0.000000000000000e+00 0.000000000000000e+00 0.000000000000000e+00
0.000000000000000e+00 0.000000000000000e+00 0.000000000000000e+00
0.000000000000000e+00 0.000000000000000e+00 0.000000000000000e+00
0.000000000000000e+00 0.000000000000000e+00 0.000000000000000e+00
0.000000000000000e+00 0.000000000000000e+00 0.000000000000000e+00
0.000000000000000e+00 0.000000000000000e+00 0.000000000000000e+00
0.000000000000000e+00 0.000000000000000e+00 0.000000000000000e+00
0.000000000000000e+00 0.000000000000000e+00 0.000000000000000e+00
0.000000000000000e+00 0.000000000000000e+00 0.000000000000000e+00
0.000000000000000e+00 0.000000000000000e+00 0.000000000000000e+00
0.000000000000000e+00 0.000000000000000e+00 0.000000000000000e+00
0.000000000000000e+00 0.000000000000000e+00 0.000000000000000e+00
0.000000000000000e+00 0.000000000000000e+00 0.000000000000000e+00
0.000000000000000e+00 0.000000000000000e+00 0.000000000000000e+00
0.000000000000000e+00 0.000000000000000e+00 0.000000000000000e+00
0.000000000000000e+00 0.000000000000000e+00 0.000000000000000e+00
0.000000000000000e+00 0.000000000000000e+00 0.000000000000000e+00
0.000000000000000e+00 0.000000000000000e+00 0.000000000000000e+00
0.000000000000000e+00 0.000000000000000e+00 0.000000000000000e+00
0.000000000000000e+00 0.000000000000000e+00 0.000000000000000e+00
0.000000000000000e+00 0.000000000000000e+00 0.000000000000000e+00
0.000000000000000e+00 0.000000000000000e+00 0.000000000000000e+00
0.000000000000000e+00 0.000000000000000e+00 0.000000000000000e+00
0.000000000000000e+00 0.000000000000000e+00 0.000000000000000e+00
0.000000000000000e+00 0.000000000000000e+00 0.000000000000000e+00
0.000000000000000e+00 0.000000000000000e+00 0.000000000000000e+00
0.000000000000000e+00 0.000000000000000e+00 0.000000000000000e+00
0.000000000000000e+00 0.000000000000000e+00 0.000000000000000e+00
0.000000000000000e+00 0.000000000000000e+00 0.000000000000000e+00
0.000000000000000e+00 0.000000000000000e+00 0.000000000000000e+00
0.000000000000000e+00 0.000000000000000e+00 0.000000000000000e+00
0.000000000000000e+00 0.000000000000000e+00 0.000000000000000e+00
0.000000000000000e+00 0.000000000000000e+00 0.000000000000000e+00
0.000000000000000e+00 0.000000000000000e+00 0.000000000000000e+00
0.000000000000000e+00 0.000000000000000e+00 0.000000000000000e+00
0.000000000000000e+00 0.000000000000000e+00 0.000000000000000e+00
0.000000000000000e+00 0.000000000000000e+00 0.000000000000000e+00
0.000000000000000e+00 0.000000000000000e+00 0.000000000000000e+00
0.000000000000000e+00 0.000000000000000e+00 0.000000000000000e+00
0.000000000000000e+00 0.000000000000000e+00 0.000000000000000e+00
0.000000000000000e+00 0.000000000000000e+00 0.000000000000000e+00
0.000000000000000e+00 0.000000000000000e+00 0.000000000000000e+00
0.000000000000000e+00 0.000000000000000e+00 0.000000000000000e+00
0.000000000000000e+00 0.000000000000000e+00 0.000000000000000e+00
0.000000000000000e+00 0.000000000000000e+00 0.000000000000000e+00
0.000000000000000e+00 0.000000000000000e+00 0.000000000000000e+00
0.000000000000000e+00 0.000000000000000e+00 0.000000000000000e+00
0.000000000000000e+00 0.000000000000000e+00 0.000000000000000e+00
0.000000000000000e+00 0.000000000000000e+00 0.000000000000000e+00
0.000000000000000e+00 0.000000000000000e+00 0.000000000000000e+00
0.000000000000000e+00 0.000000000000000e+00 0.000000000000000e+00
0.000000000000000e+00 0.000000000000000e+00 0.000000000000000e+00
0.000000000000000e+00 0.000000000000000e+00 0.000000000000000e+00
0.000000000000000e+00 0.000000000000000e+00 0.000000000000000e+00
0.000000000000000e+00 0.000000000000000e+00 0.000000000000000e+00
0.000000000000000e+00 0.000000000000000e+00 0.000000000000000e+00
0.000000000000000e+00 0.000000000000000e+00 0.000000000000000e+00
0.000000000000000e+00 0.000000000000000e+00 0.000000000000000e+00
0.000000000000000e+00 0.000000000000000e+00 0.000000000000000e+00
0.000000000000000e+00 0.000000000000000e+00 0.000000000000000e+00
0.000000000000000e+00 0.000000000000000e+00 0.000000000000000e+00
0.000000000000000e+00 0.000000000000000e+00 0.000000000000000e+00
0.000000000000000e+00 0.000000000000000e+00 0.000000000000000e+00
0.000000000000000e+00 0.000000000000000e+00 0.000000000000000e+00
0.000000000000000e+00 0.000000000000000e+00 0.000000000000000e+00
0.000000000000000e+00 0.000000000000000e+00 0.000000000000000e+00
0.000000000000000e+00 0.000000000000000e+00 0.000000000000000e+00
0.000000000000000e+00 0.000000000000000e+00 0.000000000000000e+00
0.000000000000000e+00 0.000000000000000e+00 0.000000000000000e+00
0.000000000000000e+00 0.000000000000000e+00 0.000000000000000e+00
0.000000000000000e+00 0.000000000000000e+00 0.000000000000000e+00
0.000000000000000e+00 0.000000000000000e+00 0.000000000000000e+00
0.000000000000000e+00 0.000000000000000e+00 0.000000000000000e+00
0.000000000000000e+00 0.000000000000000e+00 0.000000000000000e+00
0.000000000000000e+00 0.000000000000000e+00 0.000000000000000e+00
0.000000000000000e+00 0.000000000000000e+00 0.000000000000000e+00
0.000000000000000e+00 0.000000000000000e+00 0.000000000000000e+00
0.000000000000000e+00 0.000000000000000e+00 0.000000000000000e+00
0.000000000000000e+00 0.000000000000000e+00 0.000000000000000e+00
0.000000000000000e+00 0.000000000000000e+00 0.000000000000000e+00
0.000000000000000e+00 0.000000000000000e+00 0.000000000000000e+00
0.000000000000000e+00 0.000000000000000e+00 0.000000000000000e+00
0.000000000000000e+00 0.000000000000000e+00 0.000000000000000e+00
0.000000000000000e+00 0.000000000000000e+00 0.000000000000000e+00
0.000000000000000e+00 0.000000000000000e+00 0.000000000000000e+00
0.000000000000000e+00 0.000000000000000e+00 0.000000000000000e+00
0.000000000000000e+00 0.000000000000000e+00 0.000000000000000e+00
0.000000000000000e+00 0.000000000000000e+00 0.000000000000000e+00
0.000000000000000e+00 0.000000000000000e+00 0.000000000000000e+00
0.000000000000000e+00 0.000000000000000e+00 0.000000000000000e+00
0.000000000000000e+00 0.000000000000000e+00 0.000000000000000e+00
0.000000000000000e+00 0.000000000000000e+00 0.000000000000000e+00
0.000000000000000e+00 0.000000000000000e+00 0.000000000000000e+00
0.000000000000000e+00 0.000000000000000e+00 0.000000000000000e+00
0.000000000000000e+00 0.000000000000000e+00 0.000000000000000e+00
0.000000000000000e+00 0.000000000000000e+00 0.000000000000000e+00
0.000000000000000e+00 0.000000000000000e+00 0.000000000000000e+00
0.000000000000000e+00 0.000000000000000e+00 0.000000000000000e+00
0.000000000000000e+00 0.000000000000000e+00 0.000000000000000e+00
0.000000000000000e+00 0.000000000000000e+00 0.000000000000000e+00
0.000000000000000e+00 0.000000000000000e+00 0.000000000000000e+00
0.000000000000000e+00 0.000000000000000e+00 0.000000000000000e+00
0.000000000000000e+00 0.000000000000000e+00 0.000000000000000e+00
0.000000000000000e+00 0.000000000000000e+00 0.000000000000000e+00
0.000000000000000e+00 0.000000000000000e+00 0.000000000000000e+00
0.000000000000000e+00 0.000000000000000e+00 0.000000000000000e+00
0.000000000000000e+00 0.000000000000000e+00 0.000000000000000e+00
0.000000000000000e+00 0.000000000000000e+00 0.000000000000000e+00
0.000000000000000e+00 0.000000000000000e+00 0.000000000000000e+00
0.000000000000000e+00 0.000000000000000e+00 0.000000000000000e+00
0.000000000000000e+00 0.000000000000000e+00 0.000000000000000e+00
0.000000000000000e+00 0.000000000000000e+00 0.000000000000000e+00
0.000000000000000e+00 0.000000000000000e+00 0.000000000000000e+00
0.000000000000000e+00 0.000000000000000e+00 0.000000000000000e+00
0.000000000000000e+00 0.000000000000000e+00 0.000000000000000e+00
0.000000000000000e+00 0.000000000000000e+00 0.000000000000000e+00
0.000000000000000e+00 0.000000000000000e+00 0.000000000000000e+00
0.000000000000000e+00 0.000000000000000e+00 0.000000000000000e+00
0.000000000000000e+00 0.000000000000000e+00 0.000000000000000e+00
0.000000000000000e+00 0.000000000000000e+00 0.000000000000000e+00
0.000000000000000e+00 0.000000000000000e+00 0.000000000000000e+00
0.000000000000000e+00 0.000000000000000e+00 0.000000000000000e+00
0.000000000000000e+00 0.000000000000000e+00 0.000000000000000e+00
0.000000000000000e+00 0.000000000000000e+00 0.000000000000000e+00
0.000000000000000e+00 0.000000000000000e+00 0.000000000000000e+00
0.000000000000000e+00 0.000000000000000e+00 0.000000000000000e+00
0.000000000000000e+00 0.000000000000000e+00 0.000000000000000e+00
0.000000000000000e+00 0.000000000000000e+00 0.000000000000000e+00
0.000000000000000e+00 0.000000000000000e+00 0.000000000000000e+00
0.000000000000000e+00 0.000000000000000e+00 0.000000000000000e+00
0.000000000000000e+00 0.000000000000000e+00 0.000000000000000e+00
0.000000000000000e+00 0.000000000000000e+00 0.000000000000000e+00
0.000000000000000e+00 0.000000000000000e+00 0.000000000000000e+00
0.000000000000000e+00 0.000000000000000e+00 0.000000000000000e+00
0.000000000000000e+00 0.000000000000000e+00 0.000000000000000e+00
0.000000000000000e+00 0.000000000000000e+00 0.000000000000000e+00
0.000000000000000e+00 0.000000000000000e+00 0.000000000000000e+00
0.000000000000000e+00 0.000000000000000e+00 0.000000000000000e+00
0.000000000000000e+00 0.000000000000000e+00 0.000000000000000e+00
0.000000000000000e+00 0.000000000000000e+00 0.000000000000000e+00
0.000000000000000e+00 0.000000000000000e+00 0.000000000000000e+00
0.000000000000000e+00 0.000000000000000e+00 0.000000000000000e+00
0.000000000000000e+00 0.000000000000000e+00 0.000000000000000e+00
0.000000000000000e+00 0.000000000000000e+00 0.000000000000000e+00
0.000000000000000e+00 0.000000000000000e+00 0.000000000000000e+00
0.000000000000000e+00 0.000000000000000e+00 0.000000000000000e+00
0.000000000000000e+00 0.000000000000000e+00 0.000000000000000e+00
0.000000000000000e+00 0.000000000000000e+00 0.000000000000000e+00
0.000000000000000e+00 0.000000000000000e+00 0.000000000000000e+00
0.000000000000000e+00 0.000000000000000e+00 0.000000000000000e+00
0.000000000000000e+00 0.000000000000000e+00 0.000000000000000e+00
0.000000000000000e+00 0.000000000000000e+00 0.000000000000000e+00
0.000000000000000e+00 0.000000000000000e+00 0.000000000000000e+00
0.000000000000000e+00 0.000000000000000e+00 0.000000000000000e+00
0.000000000000000e+00 0.000000000000000e+00 0.000000000000000e+00
0.000000000000000e+00 0.000000000000000e+00 0.000000000000000e+00
0.000000000000000e+00 0.000000000000000e+00 0.000000000000000e+00
0.000000000000000e+00 0.000000000000000e+00 0.000000000000000e+00
0.000000000000000e+00 0.000000000000000e+00 0.000000000000000e+00
0.000000000000000e+00 0.000000000000000e+00 0.000000000000000e+00
0.000000000000000e+00 0.000000000000000e+00 0.000000000000000e+00
0.000000000000000e+00 0.000000000000000e+00 0.000000000000000e+00
0.000000000000000e+00 0.000000000000000e+00 0.000000000000000e+00
0.000000000000000e+00 0.000000000000000e+00 0.000000000000000e+00
0.000000000000000e+00 0.000000000000000e+00 0.000000000000000e+00
0.000000000000000e+00 0.000000000000000e+00 0.000000000000000e+00
0.000000000000000e+00 0.000000000000000e+00 0.000000000000000e+00
0.000000000000000e+00 0.000000000000000e+00 0.000000000000000e+00
0.000000000000000e+00 0.000000000000000e+00 0.000000000000000e+00
0.000000000000000e+00 0.000000000000000e+00 0.000000000000000e+00
0.000000000000000e+00 0.000000000000000e+00 0.000000000000000e+00
0.000000000000000e+00 0.000000000000000e+00 0.000000000000000e+00
0.000000000000000e+00 0.000000000000000e+00 0.000000000000000e+00
0.000000000000000e+00 0.000000000000000e+00 0.000000000000000e+00
0.000000000000000e+00 0.000000000000000e+00 0.000000000000000e+00
0.000000000000000e+00 0.000000000000000e+00 0.000000000000000e+00
0.000000000000000e+00 0.000000000000000e+00 0.000000000000000e+00
0.000000000000000e+00 0.000000000000000e+00 0.000000000000000e+00
0.000000000000000e+00 0.000000000000000e+00 0.000000000000000e+00
0.000000000000000e+00 0.000000000000000e+00 0.000000000000000e+00
0.000000000000000e+00 0.000000000000000e+00 0.000000000000000e+00
0.000000000000000e+00 0.000000000000000e+00 0.000000000000000e+00
0.000000000000000e+00 0.000000000000000e+00 0.000000000000000e+00
0.000000000000000e+00 0.000000000000000e+00 0.000000000000000e+00
0.000000000000000e+00 0.000000000000000e+00 0.000000000000000e+00
0.000000000000000e+00 0.000000000000000e+00 0.000000000000000e+00
0.000000000000000e+00 0.000000000000000e+00 0.000000000000000e+00
0.000000000000000e+00 0.000000000000000e+00 0.000000000000000e+00
0.000000000000000e+00 0.000000000000000e+00 0.000000000000000e+00
0.000000000000000e+00 0.000000000000000e+00 0.000000000000000e+00
0.000000000000000e+00 0.000000000000000e+00 0.000000000000000e+00
0.000000000000000e+00 0.000000000000000e+00 0.000000000000000e+00
0.000000000000000e+00 0.000000000000000e+00 0.000000000000000e+00
0.000000000000000e+00 0.000000000000000e+00 0.000000000000000e+00
0.000000000000000e+00 0.000000000000000e+00 0.000000000000000e+00
0.000000000000000e+00 0.000000000000000e+00 0.000000000000000e+00
0.000000000000000e+00 0.000000000000000e+00 0.000000000000000e+00
0.000000000000000e+00 0.000000000000000e+00 0.000000000000000e+00
0.000000000000000e+00 0.000000000000000e+00 0.000000000000000e+00
0.000000000000000e+00 0.000000000000000e+00 0.000000000000000e+00
0.000000000000000e+00 0.000000000000000e+00 0.000000000000000e+00
0.000000000000000e+00 0.000000000000000e+00 0.000000000000000e+00
0.000000000000000e+00 0.000000000000000e+00 0.000000000000000e+00
0.000000000000000e+00 0.000000000000000e+00 0.000000000000000e+00
0.000000000000000e+00 0.000000000000000e+00 0.000000000000000e+00
0.000000000000000e+00 0.000000000000000e+00 0.000000000000000e+00
0.000000000000000e+00 0.000000000000000e+00 0.000000000000000e+00
0.000000000000000e+00 0.000000000000000e+00 0.000000000000000e+00
0.000000000000000e+00 0.000000000000000e+00 0.000000000000000e+00
0.000000000000000e+00 0.000000000000000e+00 0.000000000000000e+00
0.000000000000000e+00 0.000000000000000e+00 0.000000000000000e+00
0.000000000000000e+00 0.000000000000000e+00 0.000000000000000e+00
0.000000000000000e+00 0.000000000000000e+00 0.000000000000000e+00
0.000000000000000e+00 0.000000000000000e+00 0.000000000000000e+00
0.000000000000000e+00 0.000000000000000e+00 0.000000000000000e+00
0.000000000000000e+00 0.000000000000000e+00 0.000000000000000e+00
0.000000000000000e+00 0.000000000000000e+00 0.000000000000000e+00
0.000000000000000e+00 0.000000000000000e+00 0.000000000000000e+00
0.000000000000000e+00 0.000000000000000e+00 0.000000000000000e+00
0.000000000000000e+00 0.000000000000000e+00 0.000000000000000e+00
0.000000000000000e+00 0.000000000000000e+00 0.000000000000000e+00
0.000000000000000e+00 0.000000000000000e+00 0.000000000000000e+00
0.000000000000000e+00 0.000000000000000e+00 0.000000000000000e+00
0.000000000000000e+00 0.000000000000000e+00 0.000000000000000e+00
0.000000000000000e+00 0.000000000000000e+00 0.000000000000000e+00
0.000000000000000e+00 0.000000000000000e+00 0.000000000000000e+00
0.000000000000000e+00 0.000000000000000e+00 0.000000000000000e+00
0.000000000000000e+00 0.000000000000000e+00 0.000000000000000e+00
0.000000000000000e+00 0.000000000000000e+00 0.000000000000000e+00
0.000000000000000e+00 0.000000000000000e+00 0.000000000000000e+00
0.000000000000000e+00 0.000000000000000e+00 0.000000000000000e+00
0.000000000000000e+00 0.000000000000000e+00 0.000000000000000e+00
0.000000000000000e+00 0.000000000000000e+00 0.000000000000000e+00
0.000000000000000e+00 0.000000000000000e+00 0.000000000000000e+00
0.000000000000000e+00 0.000000000000000e+00 0.000000000000000e+00
0.000000000000000e+00 0.000000000000000e+00 0.000000000000000e+00
0.000000000000000e+00 0.000000000000000e+00 0.000000000000000e+00
0.000000000000000e+00 0.000000000000000e+00 0.000000000000000e+00
0.000000000000000e+00 0.000000000000000e+00 0.000000000000000e+00
0.000000000000000e+00 0.000000000000000e+00 0.000000000000000e+00
0.000000000000000e+00 0.000000000000000e+00 0.000000000000000e+00
0.000000000000000e+00 0.000000000000000e+00 0.000000000000000e+00
0.000000000000000e+00 0.000000000000000e+00 0.000000000000000e+00
0.000000000000000e+00 0.000000000000000e+00 0.000000000000000e+00
0.000000000000000e+00 0.000000000000000e+00 0.000000000000000e+00
0.000000000000000e+00 0.000000000000000e+00 0.000000000000000e+00
0.000000000000000e+00 0.000000000000000e+00 0.000000000000000e+00
0.000000000000000e+00 0.000000000000000e+00 0.000000000000000e+00
0.000000000000000e+00 0.000000000000000e+00 0.000000000000000e+00
0.000000000000000e+00 0.000000000000000e+00 0.000000000000000e+00
0.000000000000000e+00 0.000000000000000e+00 0.000000000000000e+00
0.000000000000000e+00 0.000000000000000e+00 0.000000000000000e+00
0.000000000000000e+00 0.000000000000000e+00 0.000000000000000e+00
0.000000000000000e+00 0.000000000000000e+00 0.000000000000000e+00
0.000000000000000e+00 0.000000000000000e+00 0.000000000000000e+00
0.000000000000000e+00 0.000000000000000e+00 0.000000000000000e+00
0.000000000000000e+00 0.000000000000000e+00 0.000000000000000e+00
0.000000000000000e+00 0.000000000000000e+00 0.000000000000000e+00
0.000000000000000e+00 0.000000000000000e+00 0.000000000000000e+00
0.000000000000000e+00 0.000000000000000e+00 0.000000000000000e+00
0.000000000000000e+00 0.000000000000000e+00 0.000000000000000e+00
0.000000000000000e+00 0.000000000000000e+00 0.000000000000000e+00
0.000000000000000e+00 0.000000000000000e+00 0.000000000000000e+00
0.000000000000000e+00 0.000000000000000e+00 0.000000000000000e+00
0.000000000000000e+00 0.000000000000000e+00 0.000000000000000e+00
0.000000000000000e+00 0.000000000000000e+00 0.000000000000000e+00
0.000000000000000e+00 0.000000000000000e+00 0.000000000000000e+00
0.000000000000000e+00 0.000000000000000e+00 0.000000000000000e+00
0.000000000000000e+00 0.000000000000000e+00 0.000000000000000e+00
0.000000000000000e+00 0.000000000000000e+00 0.000000000000000e+00
0.000000000000000e+00 0.000000000000000e+00 0.000000000000000e+00
0.000000000000000e+00 0.000000000000000e+00 0.000000000000000e+00
0.000000000000000e+00 0.000000000000000e+00 0.000000000000000e+00
0.000000000000000e+00 0.000000000000000e+00 0.000000000000000e+00
0.000000000000000e+00 0.000000000000000e+00 0.000000000000000e+00
0.000000000000000e+00 0.000000000000000e+00 0.000000000000000e+00
0.000000000000000e+00 0.000000000000000e+00 0.000000000000000e+00
0.000000000000000e+00 0.000000000000000e+00 0.000000000000000e+00
0.000000000000000e+00 0.000000000000000e+00 0.000000000000000e+00
0.000000000000000e+00 0.000000000000000e+00 0.000000000000000e+00
0.000000000000000e+00 0.000000000000000e+00 0.000000000000000e+00
0.000000000000000e+00 0.000000000000000e+00 0.000000000000000e+00
0.000000000000000e+00 0.000000000000000e+00 0.000000000000000e+00
0.000000000000000e+00 0.000000000000000e+00 0.000000000000000e+00
0.000000000000000e+00 0.000000000000000e+00 0.000000000000000e+00
0.000000000000000e+00 0.000000000000000e+00 0.000000000000000e+00
0.000000000000000e+00 0.000000000000000e+00 0.000000000000000e+00
0.000000000000000e+00 0.000000000000000e+00 0.000000000000000e+00
0.000000000000000e+00 0.000000000000000e+00 0.000000000000000e+00
0.000000000000000e+00 0.000000000000000e+00 0.000000000000000e+00
0.000000000000000e+00 0.000000000000000e+00 0.000000000000000e+00
0.000000000000000e+00 0.000000000000000e+00 0.000000000000000e+00
0.000000000000000e+00 0.000000000000000e+00 0.000000000000000e+00
0.000000000000000e+00 0.000000000000000e+00 0.000000000000000e+00
0.000000000000000e+00 0.000000000000000e+00 0.000000000000000e+00
0.000000000000000e+00 0.000000000000000e+00 0.000000000000000e+00
0.000000000000000e+00 0.000000000000000e+00 0.000000000000000e+00
0.000000000000000e+00 0.000000000000000e+00 0.000000000000000e+00
0.000000000000000e+00 0.000000000000000e+00 0.000000000000000e+00
0.000000000000000e+00 0.000000000000000e+00 0.000000000000000e+00
0.000000000000000e+00 0.000000000000000e+00 0.000000000000000e+00
0.000000000000000e+00 0.000000000000000e+00 0.000000000000000e+00
0.000000000000000e+00 0.000000000000000e+00 0.000000000000000e+00
0.000000000000000e+00 0.000000000000000e+00 0.000000000000000e+00
0.000000000000000e+00 0.000000000000000e+00 0.000000000000000e+00
0.000000000000000e+00 0.000000000000000e+00 0.000000000000000e+00
0.000000000000000e+00 0.000000000000000e+00 0.000000000000000e+00
0.000000000000000e+00 0.000000000000000e+00 0.000000000000000e+00
0.000000000000000e+00 0.000000000000000e+00 0.000000000000000e+00
0.000000000000000e+00 0.000000000000000e+00 0.000000000000000e+00
0.000000000000000e+00 0.000000000000000e+00 0.000000000000000e+00
0.000000000000000e+00 0.000000000000000e+00 0.000000000000000e+00
0.000000000000000e+00 0.000000000000000e+00 0.000000000000000e+00
0.000000000000000e+00 0.000000000000000e+00 0.000000000000000e+00
0.000000000000000e+00 0.000000000000000e+00 0.000000000000000e+00
0.000000000000000e+00 0.000000000000000e+00 0.000000000000000e+00
0.000000000000000e+00 0.000000000000000e+00 0.000000000000000e+00
0.000000000000000e+00 0.000000000000000e+00 0.000000000000000e+00
0.000000000000000e+00 0.000000000000000e+00 0.000000000000000e+00
0.000000000000000e+00 0.000000000000000e+00 0.000000000000000e+00
0.000000000000000e+00 0.000000000000000e+00 0.000000000000000e+00
0.000000000000000e+00 0.000000000000000e+00 0.000000000000000e+00
0.000000000000000e+00 0.000000000000000e+00 0.000000000000000e+00
0.000000000000000e+00 0.000000000000000e+00 0.000000000000000e+00
0.000000000000000e+00 0.000000000000000e+00 0.000000000000000e+00
0.000000000000000e+00 0.000000000000000e+00 0.000000000000000e+00
0.000000000000000e+00 0.000000000000000e+00 0.000000000000000e+00
0.000000000000000e+00 0.000000000000000e+00 0.000000000000000e+00
0.000000000000000e+00 0.000000000000000e+00 0.000000000000000e+00
0.000000000000000e+00 0.000000000000000e+00 0.000000000000000e+00
0.000000000000000e+00 0.000000000000000e+00 0.000000000000000e+00
0.000000000000000e+00 0.000000000000000e+00 0.000000000000000e+00
0.000000000000000e+00 0.000000000000000e+00 0.000000000000000e+00
0.000000000000000e+00 0.000000000000000e+00 0.000000000000000e+00
0.000000000000000e+00 0.000000000000000e+00 0.000000000000000e+00
0.000000000000000e+00 0.000000000000000e+00 0.000000000000000e+00
0.000000000000000e+00 0.000000000000000e+00 0.000000000000000e+00
0.000000000000000e+00 0.000000000000000e+00 0.000000000000000e+00
0.000000000000000e+00 0.000000000000000e+00 0.000000000000000e+00
0.000000000000000e+00 0.000000000000000e+00 0.000000000000000e+00
0.000000000000000e+00 0.000000000000000e+00 0.000000000000000e+00
0.000000000000000e+00 0.000000000000000e+00 0.000000000000000e+00
0.000000000000000e+00 0.000000000000000e+00 0.000000000000000e+00
0.000000000000000e+00 0.000000000000000e+00 0.000000000000000e+00
0.000000000000000e+00 0.000000000000000e+00 0.000000000000000e+00
0.000000000000000e+00 0.000000000000000e+00 0.000000000000000e+00
0.000000000000000e+00 0.000000000000000e+00 0.000000000000000e+00
0.000000000000000e+00 0.000000000000000e+00 0.000000000000000e+00
0.000000000000000e+00 0.000000000000000e+00 0.000000000000000e+00
0.000000000000000e+00 0.000000000000000e+00 0.000000000000000e+00
0.000000000000000e+00 0.000000000000000e+00 0.000000000000000e+00
0.000000000000000e+00 0.000000000000000e+00 0.000000000000000e+00
0.000000000000000e+00 0.000000000000000e+00 0.000000000000000e+00
0.000000000000000e+00 0.000000000000000e+00 0.000000000000000e+00
0.000000000000000e+00 0.000000000000000e+00 0.000000000000000e+00
0.000000000000000e+00 0.000000000000000e+00 0.000000000000000e+00
0.000000000000000e+00 0.000000000000000e+00 0.000000000000000e+00
0.000000000000000e+00 0.000000000000000e+00 0.000000000000000e+00
0.000000000000000e+00 0.000000000000000e+00 0.000000000000000e+00
0.000000000000000e+00 0.000000000000000e+00 0.000000000000000e+00
0.000000000000000e+00 0.000000000000000e+00 0.000000000000000e+00
0.000000000000000e+00 0.000000000000000e+00 0.000000000000000e+00
0.000000000000000e+00 0.000000000000000e+00 0.000000000000000e+00
0.000000000000000e+00 0.000000000000000e+00 0.000000000000000e+00
0.000000000000000e+00 0.000000000000000e+00 0.000000000000000e+00
0.000000000000000e+00 0.000000000000000e+00 0.000000000000000e+00
0.000000000000000e+00 0.000000000000000e+00 0.000000000000000e+00
0.000000000000000e+00 0.000000000000000e+00 0.000000000000000e+00
0.000000000000000e+00 0.000000000000000e+00 0.000000000000000e+00
0.000000000000000e+00 0.000000000000000e+00 0.000000000000000e+00
0.000000000000000e+00 0.000000000000000e+00 0.000000000000000e+00
0.000000000000000e+00 0.000000000000000e+00 0.000000000000000e+00
0.000000000000000e+00 0.000000000000000e+00 0.000000000000000e+00
0.000000000000000e+00 0.000000000000000e+00 0.000000000000000e+00
0.000000000000000e+00 0.000000000000000e+00 0.000000000000000e+00
0.000000000000000e+00 0.000000000000000e+00 0.000000000000000e+00
0.000000000000000e+00 0.000000000000000e+00 0.000000000000000e+00
0.000000000000000e+00 0.000000000000000e+00 0.000000000000000e+00
0.000000000000000e+00 0.000000000000000e+00 0.000000000000000e+00
0.000000000000000e+00 0.000000000000000e+00 0.000000000000000e+00
0.000000000000000e+00 0.000000000000000e+00 0.000000000000000e+00
0.000000000000000e+00 0.000000000000000e+00 0.000000000000000e+00
0.000000000000000e+00 0.000000000000000e+00 0.000000000000000e+00
0.000000000000000e+00 0.000000000000000e+00 0.000000000000000e+00
0.000000000000000e+00 0.000000000000000e+00 0.000000000000000e+00
0.000000000000000e+00 0.000000000000000e+00 0.000000000000000e+00
0.000000000000000e+00 0.000000000000000e+00 0.000000000000000e+00
0.000000000000000e+00 0.000000000000000e+00 0.000000000000000e+00
0.000000000000000e+00 0.000000000000000e+00 0.000000000000000e+00
0.000000000000000e+00 0.000000000000000e+00 0.000000000000000e+00
0.000000000000000e+00 0.000000000000000e+00 0.000000000000000e+00
0.000000000000000e+00 0.000000000000000e+00 0.000000000000000e+00
0.000000000000000e+00 0.000000000000000e+00 0.000000000000000e+00
0.000000000000000e+00 0.000000000000000e+00 0.000000000000000e+00
0.000000000000000e+00 0.000000000000000e+00 0.000000000000000e+00
0.000000000000000e+00 0.000000000000000e+00 0.000000000000000e+00
0.000000000000000e+00 0.000000000000000e+00 0.000000000000000e+00
0.000000000000000e+00 0.000000000000000e+00 0.000000000000000e+00
0.000000000000000e+00 0.000000000000000e+00 0.000000000000000e+00
0.000000000000000e+00 0.000000000000000e+00 0.000000000000000e+00
0.000000000000000e+00 0.000000000000000e+00 0.000000000000000e+00
0.000000000000000e+00 0.000000000000000e+00 0.000000000000000e+00
0.000000000000000e+00 0.000000000000000e+00 0.000000000000000e+00
0.000000000000000e+00 0.000000000000000e+00 0.000000000000000e+00
0.000000000000000e+00 0.000000000000000e+00 0.000000000000000e+00
0.000000000000000e+00 0.000000000000000e+00 0.000000000000000e+00
0.000000000000000e+00 0.000000000000000e+00 0.000000000000000e+00
0.000000000000000e+00 0.000000000000000e+00 0.000000000000000e+00
0.000000000000000e+00 0.000000000000000e+00 0.000000000000000e+00
0.000000000000000e+00 0.000000000000000e+00 0.000000000000000e+00
0.000000000000000e+00 0.000000000000000e+00 0.000000000000000e+00
0.000000000000000e+00 0.000000000000000e+00 0.000000000000000e+00
0.000000000000000e+00 0.000000000000000e+00 0.000000000000000e+00
0.000000000000000e+00 0.000000000000000e+00 0.000000000000000e+00
0.000000000000000e+00 0.000000000000000e+00 0.000000000000000e+00
0.000000000000000e+00 0.000000000000000e+00 0.000000000000000e+00
0.000000000000000e+00 0.000000000000000e+00 0.000000000000000e+00
0.000000000000000e+00 0.000000000000000e+00 0.000000000000000e+00
0.000000000000000e+00 0.000000000000000e+00 0.000000000000000e+00
0.000000000000000e+00 0.000000000000000e+00 0.000000000000000e+00
0.000000000000000e+00 0.000000000000000e+00 0.000000000000000e+00
0.000000000000000e+00 0.000000000000000e+00 0.000000000000000e+00
0.000000000000000e+00 0.000000000000000e+00 0.000000000000000e+00
0.000000000000000e+00 0.000000000000000e+00 0.000000000000000e+00
0.000000000000000e+00 0.000000000000000e+00 0.000000000000000e+00
0.000000000000000e+00 0.000000000000000e+00 0.000000000000000e+00
0.000000000000000e+00 0.000000000000000e+00 0.000000000000000e+00
0.000000000000000e+00 0.000000000000000e+00 0.000000000000000e+00
0.000000000000000e+00 0.000000000000000e+00 0.000000000000000e+00
0.000000000000000e+00 0.000000000000000e+00 0.000000000000000e+00
0.000000000000000e+00 0.000000000000000e+00 0.000000000000000e+00
0.000000000000000e+00 0.000000000000000e+00 0.000000000000000e+00
0.000000000000000e+00 0.000000000000000e+00 0.000000000000000e+00
0.000000000000000e+00 0.000000000000000e+00 0.000000000000000e+00
0.000000000000000e+00 0.000000000000000e+00 0.000000000000000e+00
0.000000000000000e+00 0.000000000000000e+00 0.000000000000000e+00
0.000000000000000e+00 0.000000000000000e+00 0.000000000000000e+00
0.000000000000000e+00 0.000000000000000e+00 0.000000000000000e+00
0.000000000000000e+00 0.000000000000000e+00 0.000000000000000e+00
0.000000000000000e+00 0.000000000000000e+00 0.000000000000000e+00
0.000000000000000e+00 0.000000000000000e+00 0.000000000000000e+00
0.000000000000000e+00 0.000000000000000e+00 0.000000000000000e+00
0.000000000000000e+00 0.000000000000000e+00 0.000000000000000e+00
0.000000000000000e+00 0.000000000000000e+00 0.000000000000000e+00
0.000000000000000e+00 0.000000000000000e+00 0.000000000000000e+00
0.000000000000000e+00 0.000000000000000e+00 0.000000000000000e+00
0.000000000000000e+00 0.000000000000000e+00 0.000000000000000e+00
0.000000000000000e+00 0.000000000000000e+00 0.000000000000000e+00
0.000000000000000e+00 0.000000000000000e+00 0.000000000000000e+00
0.000000000000000e+00 0.000000000000000e+00 0.000000000000000e+00
0.000000000000000e+00 0.000000000000000e+00 0.000000000000000e+00
0.000000000000000e+00 0.000000000000000e+00 0.000000000000000e+00
0.000000000000000e+00 0.000000000000000e+00 0.000000000000000e+00
0.000000000000000e+00 0.000000000000000e+00 0.000000000000000e+00
0.000000000000000e+00 0.000000000000000e+00 0.000000000000000e+00
0.000000000000000e+00 0.000000000000000e+00 0.000000000000000e+00
0.000000000000000e+00 0.000000000000000e+00 0.000000000000000e+00
0.000000000000000e+00 0.000000000000000e+00 0.000000000000000e+00
0.000000000000000e+00 0.000000000000000e+00 0.000000000000000e+00
0.000000000000000e+00 0.000000000000000e+00 0.000000000000000e+00
0.000000000000000e+00 0.000000000000000e+00 0.000000000000000e+00
0.000000000000000e+00 0.000000000000000e+00 0.000000000000000e+00
0.000000000000000e+00 0.000000000000000e+00 0.000000000000000e+00
0.000000000000000e+00 0.000000000000000e+00 0.000000000000000e+00
0.000000000000000e+00 0.000000000000000e+00 0.000000000000000e+00
0.000000000000000e+00 0.000000000000000e+00 0.000000000000000e+00
0.000000000000000e+00 0.000000000000000e+00 0.000000000000000e+00
0.000000000000000e+00 0.000000000000000e+00 0.000000000000000e+00
0.000000000000000e+00 0.000000000000000e+00 0.000000000000000e+00
0.000000000000000e+00 0.000000000000000e+00 0.000000000000000e+00
0.000000000000000e+00 0.000000000000000e+00 0.000000000000000e+00
0.000000000000000e+00 0.000000000000000e+00 0.000000000000000e+00
0.000000000000000e+00 0.000000000000000e+00 0.000000000000000e+00
0.000000000000000e+00 0.000000000000000e+00 0.000000000000000e+00
0.000000000000000e+00 0.000000000000000e+00 0.000000000000000e+00
0.000000000000000e+00 0.000000000000000e+00 0.000000000000000e+00
0.000000000000000e+00 0.000000000000000e+00 0.000000000000000e+00
0.000000000000000e+00 0.000000000000000e+00 0.000000000000000e+00
0.000000000000000e+00 0.000000000000000e+00 0.000000000000000e+00
0.000000000000000e+00 0.000000000000000e+00 0.000000000000000e+00
0.000000000000000e+00 0.000000000000000e+00 0.000000000000000e+00
0.000000000000000e+00 0.000000000000000e+00 0.000000000000000e+00
0.000000000000000e+00 0.000000000000000e+00 0.000000000000000e+00
0.000000000000000e+00 0.000000000000000e+00 0.000000000000000e+00
0.000000000000000e+00 0.000000000000000e+00 0.000000000000000e+00
0.000000000000000e+00 0.000000000000000e+00 0.000000000000000e+00
0.000000000000000e+00 0.000000000000000e+00 0.000000000000000e+00
0.000000000000000e+00 0.000000000000000e+00 0.000000000000000e+00
0.000000000000000e+00 0.000000000000000e+00 0.000000000000000e+00
0.000000000000000e+00 0.000000000000000e+00 0.000000000000000e+00
0.000000000000000e+00 0.000000000000000e+00 0.000000000000000e+00
0.000000000000000e+00 0.000000000000000e+00 0.000000000000000e+00
0.000000000000000e+00 0.000000000000000e+00 0.000000000000000e+00
0.000000000000000e+00 0.000000000000000e+00 0.000000000000000e+00
0.000000000000000e+00 0.000000000000000e+00 0.000000000000000e+00
0.000000000000000e+00 0.000000000000000e+00 0.000000000000000e+00
0.000000000000000e+00 0.000000000000000e+00 0.000000000000000e+00
0.000000000000000e+00 0.000000000000000e+00 0.000000000000000e+00
0.000000000000000e+00 0.000000000000000e+00 0.000000000000000e+00
0.000000000000000e+00 0.000000000000000e+00 0.000000000000000e+00
0.000000000000000e+00 0.000000000000000e+00 0.000000000000000e+00
0.000000000000000e+00 0.000000000000000e+00 0.000000000000000e+00
0.000000000000000e+00 0.000000000000000e+00 0.000000000000000e+00
0.000000000000000e+00 0.000000000000000e+00 0.000000000000000e+00
0.000000000000000e+00 0.000000000000000e+00 0.000000000000000e+00
0.000000000000000e+00 0.000000000000000e+00 0.000000000000000e+00
0.000000000000000e+00 0.000000000000000e+00 0.000000000000000e+00
0.000000000000000e+00 0.000000000000000e+00 0.000000000000000e+00
0.000000000000000e+00 0.000000000000000e+00 0.000000000000000e+00
0.000000000000000e+00 0.000000000000000e+00 0.000000000000000e+00
0.000000000000000e+00 0.000000000000000e+00 0.000000000000000e+00
0.000000000000000e+00 0.000000000000000e+00 0.000000000000000e+00
0.000000000000000e+00 0.000000000000000e+00 0.000000000000000e+00
0.000000000000000e+00 0.000000000000000e+00 0.000000000000000e+00
0.000000000000000e+00 0.000000000000000e+00 0.000000000000000e+00
0.000000000000000e+00 0.000000000000000e+00 0.000000000000000e+00
0.000000000000000e+00 0.000000000000000e+00 0.000000000000000e+00
0.000000000000000e+00 0.000000000000000e+00 0.000000000000000e+00
0.000000000000000e+00 0.000000000000000e+00 0.000000000000000e+00
0.000000000000000e+00 0.000000000000000e+00 0.000000000000000e+00
0.000000000000000e+00 0.000000000000000e+00 0.000000000000000e+00
0.000000000000000e+00 0.000000000000000e+00 0.000000000000000e+00
0.000000000000000e+00 0.000000000000000e+00 0.000000000000000e+00
0.000000000000000e+00 0.000000000000000e+00 0.000000000000000e+00
0.000000000000000e+00 0.000000000000000e+00 0.000000000000000e+00
0.000000000000000e+00 0.000000000000000e+00 0.000000000000000e+00
0.000000000000000e+00 0.000000000000000e+00 0.000000000000000e+00
0.000000000000000e+00 0.000000000000000e+00 0.000000000000000e+00
0.000000000000000e+00 0.000000000000000e+00 0.000000000000000e+00
0.000000000000000e+00 0.000000000000000e+00 0.000000000000000e+00
0.000000000000000e+00 0.000000000000000e+00 0.000000000000000e+00
0.000000000000000e+00 0.000000000000000e+00 0.000000000000000e+00
0.000000000000000e+00 0.000000000000000e+00 0.000000000000000e+00
0.000000000000000e+00 0.000000000000000e+00 0.000000000000000e+00
0.000000000000000e+00 0.000000000000000e+00 0.000000000000000e+00
0.000000000000000e+00 0.000000000000000e+00 0.000000000000000e+00
0.000000000000000e+00 0.000000000000000e+00 0.000000000000000e+00
0.000000000000000e+00 0.000000000000000e+00 0.000000000000000e+00
0.000000000000000e+00 0.000000000000000e+00 0.000000000000000e+00
0.000000000000000e+00 0.000000000000000e+00 0.000000000000000e+00
0.000000000000000e+00 0.000000000000000e+00 0.000000000000000e+00
0.000000000000000e+00 0.000000000000000e+00 0.000000000000000e+00
0.000000000000000e+00 0.000000000000000e+00 0.000000000000000e+00
0.000000000000000e+00 0.000000000000000e+00 0.000000000000000e+00
0.000000000000000e+00 0.000000000000000e+00 0.000000000000000e+00
0.000000000000000e+00 0.000000000000000e+00 0.000000000000000e+00
0.000000000000000e+00 0.000000000000000e+00 0.000000000000000e+00
0.000000000000000e+00 0.000000000000000e+00 0.000000000000000e+00
0.000000000000000e+00 0.000000000000000e+00 0.000000000000000e+00
0.000000000000000e+00 0.000000000000000e+00 0.000000000000000e+00
0.000000000000000e+00 0.000000000000000e+00 0.000000000000000e+00
0.000000000000000e+00 0.000000000000000e+00 0.000000000000000e+00
0.000000000000000e+00 0.000000000000000e+00 0.000000000000000e+00
0.000000000000000e+00 0.000000000000000e+00 0.000000000000000e+00
0.000000000000000e+00 0.000000000000000e+00 0.000000000000000e+00
0.000000000000000e+00 0.000000000000000e+00 0.000000000000000e+00
0.000000000000000e+00 0.000000000000000e+00 0.000000000000000e+00
0.000000000000000e+00 0.000000000000000e+00 0.000000000000000e+00
0.000000000000000e+00 0.000000000000000e+00 0.000000000000000e+00
0.000000000000000e+00 0.000000000000000e+00 0.000000000000000e+00
0.000000000000000e+00 0.000000000000000e+00 0.000000000000000e+00
0.000000000000000e+00 0.000000000000000e+00 0.000000000000000e+00
0.000000000000000e+00 0.000000000000000e+00 0.000000000000000e+00
0.000000000000000e+00 0.000000000000000e+00 0.000000000000000e+00
0.000000000000000e+00 0.000000000000000e+00 0.000000000000000e+00
0.000000000000000e+00 0.000000000000000e+00 0.000000000000000e+00
0.000000000000000e+00 0.000000000000000e+00 0.000000000000000e+00
0.000000000000000e+00 0.000000000000000e+00 0.000000000000000e+00
0.000000000000000e+00 0.000000000000000e+00 0.000000000000000e+00
0.000000000000000e+00 0.000000000000000e+00 0.000000000000000e+00
0.000000000000000e+00 0.000000000000000e+00 0.000000000000000e+00
0.000000000000000e+00 0.000000000000000e+00 0.000000000000000e+00
0.000000000000000e+00 0.000000000000000e+00 0.000000000000000e+00
0.000000000000000e+00 0.000000000000000e+00 0.000000000000000e+00
0.000000000000000e+00 0.000000000000000e+00 0.000000000000000e+00
0.000000000000000e+00 0.000000000000000e+00 0.000000000000000e+00
0.000000000000000e+00 0.000000000000000e+00 0.000000000000000e+00
0.000000000000000e+00 0.000000000000000e+00 0.000000000000000e+00
0.000000000000000e+00 0.000000000000000e+00 0.000000000000000e+00
0.000000000000000e+00 0.000000000000000e+00 0.000000000000000e+00
0.000000000000000e+00 0.000000000000000e+00 0.000000000000000e+00
0.000000000000000e+00 0.000000000000000e+00 0.000000000000000e+00
0.000000000000000e+00 0.000000000000000e+00 0.000000000000000e+00
0.000000000000000e+00 0.000000000000000e+00 0.000000000000000e+00
0.000000000000000e+00 0.000000000000000e+00 0.000000000000000e+00
0.000000000000000e+00 0.000000000000000e+00 0.000000000000000e+00
0.000000000000000e+00 0.000000000000000e+00 0.000000000000000e+00
0.000000000000000e+00 0.000000000000000e+00 0.000000000000000e+00
0.000000000000000e+00 0.000000000000000e+00 0.000000000000000e+00
0.000000000000000e+00 0.000000000000000e+00 0.000000000000000e+00
0.000000000000000e+00 0.000000000000000e+00 0.000000000000000e+00
0.000000000000000e+00 0.000000000000000e+00 0.000000000000000e+00
0.000000000000000e+00 0.000000000000000e+00 0.000000000000000e+00
0.000000000000000e+00 0.000000000000000e+00 0.000000000000000e+00
0.000000000000000e+00 0.000000000000000e+00 0.000000000000000e+00
0.000000000000000e+00 0.000000000000000e+00 0.000000000000000e+00
0.000000000000000e+00 0.000000000000000e+00 0.000000000000000e+00
0.000000000000000e+00 0.000000000000000e+00 0.000000000000000e+00
0.000000000000000e+00 0.000000000000000e+00 0.000000000000000e+00
0.000000000000000e+00 0.000000000000000e+00 0.000000000000000e+00
0.000000000000000e+00 0.000000000000000e+00 0.000000000000000e+00
0.000000000000000e+00 0.000000000000000e+00 0.000000000000000e+00
0.000000000000000e+00 0.000000000000000e+00 0.000000000000000e+00
0.000000000000000e+00 0.000000000000000e+00 0.000000000000000e+00
0.000000000000000e+00 0.000000000000000e+00 0.000000000000000e+00
0.000000000000000e+00 0.000000000000000e+00 0.000000000000000e+00
0.000000000000000e+00 0.000000000000000e+00 0.000000000000000e+00
0.000000000000000e+00 0.000000000000000e+00 0.000000000000000e+00
 6.854184616485647e-03 -5.703422434302572e-05  3.145187966807895e-19
 6.872170333349002e-03 -1.687435986288520e-04  3.062294471133280e-19
6.806476748586933e-03 3.636689416127710e-04 3.150006965899329e-19
6.956630695945573e-03 1.218365744020396e-04 3.105721417426684e-19
 7.286380515914848e-03 -4.212821191095551e-04  3.315700870369475e-19
 6.926875350586932e-03 -6.356978661926007e-04  3.097455576286963e-19
6.890295647651905e-03 1.208228125018459e-03 2.874808668084105e-19
6.924701625260879e-03 1.788565403189794e-05 3.130416799179473e-19
6.974248476519785e-03 1.087450130322518e-04 3.167961576007856e-19
 6.976704358268433e-03 -8.738277418114517e-05  3.148883294107539e-19
6.960151168804309e-03 1.631683809406059e-04 3.185287837924854e-19
 6.915002888263220e-03 -3.734262606619001e-05  3.165873370826783e-19
6.904397582185070e-03 8.670946050251190e-05 3.071939671734990e-19
 6.899722751765744e-03 -6.174105762174986e-06  3.145242885978675e-19
6.875692960708960e-03 4.378951844636462e-05 3.126566386349112e-19
6.872578135159474e-03 4.376968092429436e-05 3.101569341525501e-19
6.873394579740500e-03 5.919966784321411e-05 3.111093550699401e-19
6.871089572956850e-03 3.389599148711582e-05 3.124456912215333e-19
6.871310898665628e-03 4.739804928674542e-05 3.119152446833481e-19
6.870361915488440e-03 4.739150323577088e-05 3.124103378203516e-19
6.872583444399540e-03 4.922629565837406e-05 3.116908446131288e-19
6.869525019247329e-03 4.879066710422194e-05 3.097428635093628e-19
6.870550205098819e-03 4.879794846668294e-05 3.120263095147061e-19
6.871052371041419e-03 5.617346059270135e-05 3.134115497175362e-19
6.877212966689993e-03 5.622382579998044e-05 3.142514782676839e-19
6.863700401349503e-03 9.797425793329539e-07 3.128437346286439e-19
6.950764523986785e-03 2.891781674259382e-04 2.950633643772021e-19
 6.884094942142455e-03 -3.589880457520729e-04  3.140890154821474e-19
6.874109437517574e-03 2.493052576860715e-04 3.128832902950243e-19
 6.841655978756830e-03 -3.531116740173317e-04  3.042389575030811e-19
6.905628447463344e-03 3.284661524457147e-04 3.091245166130318e-19
 6.878386825921044e-03 -6.201500679737447e-04  3.082427706089213e-19
6.870367811570426e-03 2.975619475678315e-04 3.170796226888387e-19
 6.671145751361461e-03 -6.227223788937107e-04  3.072291021892738e-19
6.799395543996376e-03 6.225989606536436e-04 2.897159083470563e-19
 6.823730454228827e-03 -4.094154627802049e-04  3.526885750445044e-19
6.849478646792427e-03 7.283239213740119e-04 3.057515340131303e-19
 6.886985113589672e-03 -5.634929350565511e-04  3.028586678303961e-19
6.799817058513981e-03 5.000340158769491e-04 3.073810653869884e-19
 6.759570235918466e-03 -4.685559146982768e-04  2.763709357703658e-19
6.770828582308387e-03 8.041740241472292e-04 2.911625353311766e-19
 6.890917940667519e-03 -3.632391143673454e-04  2.903517814245896e-19
6.885916917227015e-03 6.282830874116446e-04 3.709330829507458e-19
 6.878475836883522e-03 -5.983955125117818e-04  3.148204362725976e-19
6.853908216642864e-03 4.732422253133605e-04 3.283705849680229e-19
 6.773157302578173e-03 -6.314020358276140e-04  3.400672539992249e-19
6.705491614407731e-03 5.537889604918477e-04 2.940754713972299e-19
 6.777888302768101e-03 -3.002927016611161e-04  2.819297030993782e-19
6.772510803266625e-03 7.782662416351669e-04 3.368458907238044e-19
 6.924893755526461e-03 -2.254053911066628e-04  3.209470947425197e-19
6.972272509425612e-03 4.902776168198459e-04 3.215181423666353e-19
 6.879275318423647e-03 -7.513304586299438e-04  2.795875904469258e-19
6.791057039840044e-03 3.869908906554826e-04 2.957436683831899e-19
 6.869111178828946e-03 -4.235170684162151e-04  3.068607191535052e-19
6.891779572481558e-03 3.118036923069183e-04 3.168201377470822e-19
 6.839040954740287e-03 -7.126513713296639e-04  3.068457529675068e-19
6.827665525001459e-03 3.010433135058575e-04 2.997540737709058e-19
 6.854338327786761e-03 -3.682220361169414e-04  2.878717517207491e-19
6.773755146589107e-03 2.430976150636962e-04 3.195548553746783e-19
 6.859996646352607e-03 -1.367507165828503e-04  3.141526844962127e-19
 6.772854472576931e-03 -3.888695984253747e-06  3.078775875006877e-19
6.835359317952653e-03 8.507324527283492e-05 3.087970599599269e-19
 6.830274978868320e-03 -1.266373603264092e-04  3.132323783572033e-19
6.834604071213708e-03 7.932594175720753e-05 3.131533850593075e-19
 6.862447126869658e-03 -6.868057968845147e-05  3.068119064037765e-19
6.811242225541192e-03 1.321949683526045e-04 2.974384284228996e-19
6.807118405730328e-03 5.800456356571593e-05 3.039778653484326e-19
6.910062084674840e-03 5.888176340463727e-05 3.062454300766307e-19
 6.011030109102977e-03 -3.201060581792915e-03  5.280052153227796e-22
6.698966106193954e-03 4.803245245223666e-05 3.064269008735799e-19
7.022006179468160e-03 1.567424728332360e-04 3.139507359437407e-19
 6.062029804276239e-03 -3.318290343371384e-03  6.372187962345295e-19
6.612579391286691e-03 7.535648318027451e-05 3.024296205516211e-19
6.862461218525362e-03 3.660157403486290e-05 3.052559582528288e-19
 6.888055693584413e-03 -1.862070759467726e-05  3.103533367198225e-19
 6.876352457463469e-03 -1.985208843983397e-04  2.835170700068272e-19
 6.820066407848570e-03 -8.469719994755033e-05  3.132780760743040e-19
6.843311234793428e-03 1.258592888923672e-04 2.953688779482451e-19
 6.895318400649103e-03 -4.932113026089012e-06  3.080658526444507e-19
 6.882906776894062e-03 -1.155244970700798e-04  2.938781029286119e-19
 6.851689025874574e-03 -7.415566149400899e-05  3.058129135094086e-19
6.837388243798212e-03 4.052771986169072e-05 3.018197116121536e-19
 6.884524816492816e-03 -1.116986043130934e-05  3.078956145707934e-19
 6.866618647631390e-03 -4.592593276500086e-05  3.066894819997439e-19
 6.864344609002559e-03 -3.458281736058589e-05  3.016741452563018e-19
 6.869256049059590e-03 -3.460756137391051e-05  3.056815641139596e-19
 6.873750487370792e-03 -2.956844475206843e-06  3.070560868228185e-19
 6.876065313904368e-03 -3.188937869672534e-05  3.032452445429928e-19
 6.868260375686868e-03 -4.823199038601199e-05  3.110640695769827e-19
 6.867378366821837e-03 -2.361468089069251e-05  3.092183534506431e-19
 6.864011948041791e-03 -2.360310487128760e-05  3.097050052404845e-19
 6.871011400054024e-03 -2.362717371049371e-05  3.103859442143999e-19
 6.910624621450219e-03 -9.729849645053810e-05  3.055640120185230e-19
6.868240026486797e-03 7.000401188315496e-05 3.056756437832976e-19
6.897445031769292e-03 2.312830303352541e-04 3.092897315336505e-19
 6.913211007878377e-03 -4.692146563677325e-04  2.795187623917773e-19
 6.756809937826973e-03 -7.145956210397194e-05  3.088494042108601e-19
6.882251220426466e-03 5.253383138465179e-05 3.045978667591654e-19
 6.907567840780472e-03 -3.951214249360723e-05  2.975083203577998e-19
 6.846324039109254e-03 -3.916182037238285e-05  2.960269505688840e-19
6.922653374759604e-03 6.494069781046455e-04 3.170372066549848e-19
 6.997077701449689e-03 -1.356357743657155e-04  3.239234609016466e-19
 6.762352950434501e-03 -5.628391049824312e-05  3.015883366690892e-19
6.709887511228453e-03 1.241193220747848e-03 4.626371192554433e-19
6.999512516884757e-03 3.306820472576961e-05 3.027508164414533e-19
 6.868496965023702e-03 -4.887504886079571e-05  3.006626581856432e-19
6.861809640198349e-03 2.617572971394655e-04 3.021692156164045e-19
6.874104414493444e-03 1.933471148257019e-05 2.990307185494386e-19
6.993976406284506e-03 2.449971810959373e-04 2.706030955654886e-19
 6.858270022588023e-03 -2.748297268326677e-04  3.409511918653997e-19
6.828936231298355e-03 4.412617479456609e-04 2.438181994274425e-19
 6.904352784762209e-03 -4.906260583054864e-05  2.964961683931697e-19
6.929326778252714e-03 6.538994268079936e-04 3.419683718402966e-19
 6.971207156413239e-03 -1.741089402429174e-04  3.353803591756903e-19
6.895744823143824e-03 1.978648662953776e-04 3.207324340788764e-19
 6.865533379858889e-03 -4.566144997276185e-05  3.028373545573925e-19
6.891413528886087e-03 4.715579961198849e-04 2.402910769841650e-19
 6.856951237375725e-03 -3.771937629627786e-04  2.764748248796516e-19
6.742139484170095e-03 3.024724368336462e-04 3.457574109529569e-19
 6.834451294923391e-03 -1.417121766104084e-04  2.964258892068189e-19
6.744572839374763e-03 1.238139572654102e-04 2.978888724696642e-19
6.768363481389229e-03 1.242506956036041e-04 2.972864123666240e-19
 6.483436988540545e-03 -3.507913374076350e-04  2.912577475557902e-19
6.566383853393202e-03 4.416337565016356e-04 2.420944171536769e-19
 6.570583424695133e-03 -2.011618435695774e-04  2.920168272187314e-19
6.654624450156372e-03 7.168496588913236e-06 2.831960881325917e-19
 6.624265428876521e-03 -3.840029642606253e-04  2.899411722352491e-19
6.749202859029478e-03 2.676238650634372e-04 3.202346632412469e-19
 6.887287425883030e-03 -4.601581311116646e-04  2.678116362156111e-19
 6.963279764488872e-03 -2.363721806613059e-04  3.035302499393084e-19
 6.846466175747200e-03 -4.393499127993356e-04  2.548678513734950e-19
-1.971590271728547e-03  6.388661337267291e-03  5.240721506277540e-19
7.164565627998100e-03 2.843772827412692e-06 2.958288428882904e-19
 6.871220525106891e-03 -2.751150711785503e-04  3.074751968431275e-19
6.752559313687608e-03 1.194987308987826e-04 2.714427292306114e-19
6.940579430647161e-03 7.505142442922204e-05 2.969640859874493e-19
 6.958316642372544e-03 -2.440610944448029e-04  2.835292421060672e-19
 6.729261968048929e-03 -8.117677905285976e-05  2.688753504966389e-19
 6.217529009385627e-03  2.876412519979183e-03 -3.020712801047940e-19
 7.002158154192802e-03 -6.629244242024296e-05  2.824250019496034e-19
 6.767862126119509e-03 -5.307114207890669e-04  2.839370731270593e-19
6.832889635347183e-03 3.985982101743971e-05 2.713236540428750e-19
6.877481233088099e-03 1.237578535899800e-05 2.776562087565982e-19
 6.851753361487101e-03 -1.487693188887755e-05  2.752527555865953e-19
 6.848051853637929e-03 -1.486889495624832e-05  2.733849681008183e-19
 6.851915990367530e-03 -2.792155995378302e-06  2.704459647147068e-19
 6.856168616357507e-03 -1.796953698375312e-05  2.645629098435667e-19
 6.854133002800942e-03 -5.132299607618966e-06  2.662906996784956e-19
6.858701741077674e-03 1.008496047682303e-05 2.624946439186127e-19
6.860839783168736e-03 5.716406492008937e-06 2.594071954765096e-19
6.862952995664509e-03 3.683242487458196e-05 2.567426759398706e-19
6.862848031761872e-03 1.469622651287479e-05 2.534281387471794e-19
6.853014720933612e-03 2.887617290809697e-05 2.421493388836594e-19
6.850819351241154e-03 2.886692239902641e-05 2.430593397010158e-19
6.849495602745216e-03 2.886134459246799e-05 2.439939180477231e-19
6.859163351369618e-03 1.546517213885013e-05 2.332420594302371e-19
 6.873582026540171e-03 -2.567041772048411e-06  2.271338453747123e-19
6.876837232192264e-03 5.086456380258229e-05 2.275142259690293e-19
6.872149181699877e-03 1.052338083717888e-04 2.130427964951027e-19
6.861957123459156e-03 3.696233998645739e-05 2.059022477376432e-19
6.859318628956793e-03 4.719802078136176e-05 1.847540532802557e-19
6.851018733439047e-03 6.158598484798417e-05 1.702701256410694e-19
6.838227787144311e-03 5.957361643175095e-05 1.507774110674690e-19
6.779584563259000e-03 1.207752588226121e-04 1.236361186889340e-19
6.724082786177252e-03 1.197865195525850e-04 9.847506949590421e-20
 6.719803014933984e-03 -5.367219332762916e-05  7.403822579028750e-20
 6.766981025501307e-03 -5.404901200793197e-05  4.630918516240896e-20
 6.806033380762112e-03 -5.436092971694801e-05  1.286985340719228e-20
 6.802172120110573e-03  7.960626219607489e-05 -5.422121761239899e-20
 6.827366605502056e-03 -3.044770906007118e-04 -5.756881887711999e-20
 6.816545609921581e-03 -2.295452061835829e-05 -1.398537837380789e-19
 6.843292887577531e-03 -5.532482022792885e-05 -2.265319512228279e-19
 6.857074337416142e-03 -5.543623679993992e-05 -3.159759993013199e-19
 6.874452335447507e-03 -3.813742534988288e-05 -4.787505781699272e-19
 6.876074428003384e-03 -2.087097548887470e-05 -6.574129264336443e-19
 6.873138196287475e-03 -4.610261016249686e-05 -7.796780365889039e-19
 6.871639429959875e-03 -4.609255696150590e-05 -1.041424250657628e-18
 6.876433435139708e-03 -5.214500737493191e-05 -1.301680172731390e-18
 6.871469715476705e-03 -4.256272896727274e-05 -1.856516601306512e-18
 6.870970442487040e-03 -5.095563920962624e-05 -3.007072100227695e-18
 6.877921865379980e-03 -5.384601476556851e-05 -4.640800903884768e-18
 6.889448283196426e-03 -5.393625302010038e-05 -6.697692843357346e-18
 6.884557501339324e-03 -5.389796396749889e-05 -9.933860854779166e-18
 6.844332199096131e-03  4.693085007322253e-05 -1.478144471473846e-17
 7.001603789952627e-03  3.295232615528288e-05 -2.183414372521216e-17
 6.542581462982076e-03 -2.207491923012012e-03 -2.128197689158430e-17
 6.682222599849870e-03  9.367853798690392e-06 -3.420358665901512e-17
 6.886406269188870e-03  4.249557564855178e-04 -4.710902767227046e-17
 7.039797659725359e-03 -3.333604866284170e-05 -6.496179292087530e-17
 6.579424732694798e-03 -1.730238670979854e-03 -7.939216296716890e-17
 6.788380355586496e-03  6.823056123284763e-05 -1.202245125709389e-16
6.891834493038439e-03 2.762404490803632e-05 2.438255130137234e-16
 6.894169516051823e-03 -1.893147256298769e-05 -6.531444161441209e-15
6.877735640912299e-03 1.205738836298818e-06 1.704723565326063e-16
 6.876532488683786e-03  1.205527911156643e-06 -1.302185942986107e-16
 6.878051733979798e-03 -1.888721294532089e-05 -6.529058629256838e-15
 6.938973816557054e-03 -5.298701094296221e-06 -8.231856078721614e-17
 6.865135076502359e-03 -2.174723852792228e-04 -6.264609923955675e-17
 6.887750919784800e-03  4.780779521512683e-05 -4.674651361662115e-17
 6.890932731730985e-03  4.537933687221001e-06 -2.810148238841905e-17
 6.884100669019380e-03  4.533434521616114e-06 -1.747784387779800e-17
 6.883956169641858e-03  1.795008091539236e-05 -1.101785785015579e-17
 6.879629395219131e-03  1.793879874725000e-05 -7.076088403742893e-18
 6.875303591347010e-03  1.792751910984162e-05 -4.693606064593849e-18
 6.880566435852206e-03  1.858041441526006e-05 -3.592755887455134e-18
 6.876664186176855e-03  1.369075773954810e-05 -2.510912198031571e-18
 6.877602425328416e-03  3.923259430652022e-05 -1.708614213917884e-18
 6.874243415694259e-03 -2.945574450593719e-06 -1.348223022550304e-18
 6.868614222089930e-03  4.618185982958741e-05 -1.059258666376829e-18
 6.865016059072021e-03  7.772096428907303e-06 -7.817278855197934e-19
 6.866338867485984e-03  5.938137663146064e-05 -6.092394485621012e-19
 6.860770727601280e-03  6.857973707231114e-06 -4.619164104365315e-19
 6.867509700051302e-03  9.400477090005339e-05 -3.564468616054623e-19
 6.870362324459219e-03  4.691584892048811e-06 -2.888118863884020e-19
 6.855046099934069e-03  4.283302359687095e-05 -1.971931310369028e-19
 6.843918606394319e-03  4.276349464164382e-05 -1.142394274234533e-19
 6.819369942996287e-03  4.261010493962422e-05 -4.944069879779711e-20
 6.826272314987886e-03  9.921002619581789e-05 -3.549949381456915e-21
 6.827987098833972e-03 -9.679684958041104e-05  2.798510886537380e-20
6.639368550445029e-03 3.014050353729807e-05 4.885539039355314e-20
-3.840844243664734e-03  5.704930653222555e-03 -1.978129097859561e-19
 6.871863054243857e-03 -1.518874899837795e-04  8.412814280387085e-20
 6.689100080915040e-03 -3.153379412351955e-04  9.413291254712762e-20
 6.807508234210141e-03 -6.361619414124106e-05  1.217642844077941e-19
6.846613664181418e-03 5.495815870231428e-06 1.446355479422437e-19
 6.845710392274538e-03 -6.226086153110106e-05  1.666036133983576e-19
6.862476157625300e-03 4.191373773654807e-07 1.838568489914419e-19
 6.865231534137190e-03 -5.932421982563528e-05  1.952237585239755e-19
 6.862672739495399e-03 -3.674157578436313e-06  2.021068258953492e-19
 6.869052576454053e-03 -3.854481691864273e-05  2.090738104124099e-19
 6.865124712962006e-03 -2.849396824260462e-05  2.172628394003782e-19
 6.870429393357878e-03 -2.851598552576509e-05  2.240479043218190e-19
 6.870337712285547e-03 -2.851560499989372e-05  2.307407520911157e-19
 6.859830090786490e-03 -6.412157172010713e-06  2.363263137650667e-19
 6.866620962849503e-03 -6.418504871359941e-06  2.408116262494909e-19
 6.882389098930404e-03 -1.829855053458652e-04  2.454823098344381e-19
 6.853879234682135e-03 -5.497705673921966e-05  2.468553533808154e-19
 6.873466563912805e-03 -5.928971813140484e-08  2.513923877072644e-19
 6.897314950839988e-03 -1.022056204635573e-04  2.573019354628452e-19
 6.849556318804033e-03 -4.489422801727479e-05  2.567869223986660e-19
6.812911586775587e-03 6.736061835359438e-05 2.589468675088457e-19
7.061045999343736e-03 1.595709021643546e-04 2.712259608122107e-19
 6.766658419176119e-03 -1.570507554382937e-03  3.006522643504581e-19
6.691555369697158e-03 6.652170546080239e-06 2.596334741199083e-19
6.870479070040737e-03 5.891718091583694e-05 2.672417154857128e-19
6.939811730242951e-03 3.943398647684139e-04 2.632929139785840e-19
 6.923214195747767e-03 -1.338429300842773e-04  2.668038254926500e-19
 6.843894101099098e-03 -4.986096135826731e-05  2.716325402037351e-19
6.861030908544295e-03 2.109494692167624e-05 2.734837001490159e-19
6.869876151008866e-03 1.106003106787736e-05 2.746278289848483e-19
6.861283232892633e-03 1.425914533503824e-05 2.756670857192080e-19
 6.846492047784841e-03 -3.566533360210322e-05  2.768269237820973e-19
6.832422403370266e-03 2.653388473976757e-05 2.773826866991872e-19
6.844140601928446e-03 1.655769587932869e-05 2.779673525627528e-19
6.834193853436089e-03 5.029612544718157e-06 2.788915360636761e-19
6.864383612555877e-03 5.051830643069956e-06 2.814920100958018e-19
 6.721083287042282e-03 -6.285154767184612e-05  2.787397973237054e-19
6.737846934109726e-03 4.982806605688861e-04 2.831593377883882e-19
6.924144295638902e-03 7.911947979351899e-05 2.816992298924170e-19
 6.867154313696442e-03 -3.883788586696100e-04  2.929289800808336e-19
6.811556714462493e-03 1.188463761532249e-04 2.889505707103075e-19
6.672555186377902e-03 9.787755201280388e-04 2.564811394330181e-19
6.990073918438658e-03 3.274258724721555e-04 2.902563114821255e-19
 6.559417161877256e-03 -1.621214221906312e-03  3.267152414122507e-19
6.604021690845784e-03 4.200800114384018e-04 2.838158475538286e-19
 6.855448500315111e-03 -2.152004009999931e-05  2.884185124172282e-19
6.846729775210668e-03 4.404689389922509e-04 2.876995473675205e-19
 6.882444565174467e-03 -6.927725024268719e-05  2.901535235402134e-19
6.875387542291216e-03 1.628327240326376e-04 2.855792410483322e-19
6.855002457162809e-03 1.119016646058695e-04 2.894966700907896e-19
6.851267872179302e-03 1.118407009112716e-04 2.901666020374556e-19
6.836628707859471e-03 5.655821109616532e-05 2.912694989643683e-19
6.837491826583822e-03 1.835135155849274e-04 2.890499391666820e-19
 6.798206423047618e-03 -1.621164748094740e-05  2.934963563405033e-19
6.717573132555667e-03 1.046492683516903e-03 2.570146266790145e-19
6.948085210128048e-03 1.373061446836426e-06 2.967841088017835e-19
 6.792453487240755e-03 -2.196597120925100e-04  3.011820513594989e-19
6.684824279600927e-03 3.993851582270851e-06 2.915347448886012e-19
6.970271604004648e-03 3.932443415520570e-04 2.986609505495271e-19
 7.056449983780027e-03 -1.046654080712633e-03  3.306370780540303e-19
 6.782838385327720e-03 -7.024939072344136e-05  3.004753567901514e-19
6.857735399937554e-03 6.031279158010215e-04 3.060684399559477e-19
 6.705855466834147e-03 -6.138087270881992e-06  2.912855815447846e-19
 6.745410268517431e-03 -6.174293065342554e-06  2.950046615082894e-19
6.815617661953798e-03 4.157290739231079e-06 2.981548787607205e-19
 6.883088562938090e-03 -3.200598360251722e-05  3.023111927784343e-19
6.813870170041198e-03 1.770547870139918e-04 3.087362039898157e-19
6.806120343061591e-03 2.209223684736339e-04 3.026189332000500e-19
6.897502418217598e-03 5.065797386679145e-05 2.979883947395246e-19
 6.884437566787687e-03 -4.440403487583128e-04  2.963909133605437e-19
 6.658046913838928e-03 -1.675539308768184e-04  2.965970424318533e-19
6.795717482651340e-03 4.333036250361285e-04 2.926440229616169e-19
6.844052974795381e-03 4.510665707526769e-05 3.000026626347385e-19
 6.849838544032784e-03 -6.379973151925163e-05  3.006613617236417e-19
 6.758245652318291e-03 -2.440638091275756e-04  3.012187925742538e-19
6.808917584646993e-03 4.796474554765277e-05 3.008307075681435e-19
6.830537439100480e-03 4.669282429962380e-05 3.016650598855949e-19
 6.832095659343946e-03 -3.802237542386995e-05  3.021992151260030e-19
 6.854736439777758e-03 -3.933749516028766e-05  3.038250338403061e-19
 6.825864179410862e-03 -1.177777426878437e-04  3.032446327416532e-19
6.762514858113949e-03 4.879054698926679e-05 3.023925036521113e-19
6.845188798761441e-03 2.008565002942196e-04 3.062121929835086e-19
 6.896768977654404e-03 -4.693857912454465e-05  3.040483102759635e-19
 6.753774723321762e-03 -7.481711186938803e-04  2.780565317150750e-19
6.786487070005257e-03 2.460265564663476e-05 3.034282619431847e-19
6.889944436803167e-03 3.240055280039605e-04 3.143064074885214e-19
 6.874884925379624e-03 -6.324057080694416e-05  3.045745139034870e-19
 6.810889745898391e-03 -2.058609286500576e-05  3.043084112534583e-19
 6.841253861825292e-03 -2.067786920166008e-05  3.052538539970746e-19
 6.847255248407421e-03 -1.342968098532208e-04  3.057056313266399e-19
6.726374585959305e-03 4.286495847913072e-06 3.030384892765221e-19
6.850033391051401e-03 4.065581363704481e-04 3.031421143899427e-19
 6.974126021590003e-03 -1.059989560636504e-04  3.096815617427352e-19
 6.778137331436215e-03 -4.056216764248659e-04  3.090292518800598e-19
6.724775635573861e-03 5.464566338410743e-05 3.040507770248807e-19
6.807333258177553e-03 3.117119257104344e-04 3.041126742508490e-19
6.982058926560211e-03 2.891044711591339e-05 3.074637654168179e-19
 5.677825104347882e-03 -3.779556808844612e-03  2.590001691222619e-19
6.660431311863759e-03 3.752036585935194e-06 3.027046800142150e-19
6.855987420561743e-03 5.788960034710735e-05 3.065985419038146e-19
6.969137069546181e-03 1.870371855304945e-04 3.096170701340066e-19
 6.845236514231725e-03 -1.510923493598690e-04  3.078001674349661e-19
6.802539931593685e-03 3.408657959012622e-05 3.057109432070994e-19
 6.839170327976967e-03 -5.371804023894140e-05  3.066149516454970e-19
 6.910826582217484e-03 -4.135455894315098e-05  3.094947092242200e-19
 6.857162554781892e-03 -2.429469791237816e-04  3.027440515390148e-19
6.849946182907764e-03 3.470975257278979e-05 3.093356633558423e-19
 6.884760959984165e-03 -3.739977370973690e-05  3.102170155872364e-19
 6.789443059280383e-03 -3.688198261466059e-05  3.072605963272312e-19
6.903079796700130e-03 2.405957834999939e-04 3.048947444198304e-19
 6.844866543008670e-03 -2.832914922701469e-04  3.111680582690026e-19
 6.875096702509049e-03 -1.520892551386183e-05  3.101720052035454e-19
 6.760449936834757e-03 -1.483779324572446e-04  3.064519122474886e-19
6.961739177561755e-03 6.988438494518367e-04 3.134661701279075e-19
 6.968027199104772e-03 -5.927138920785510e-04  3.083124334153131e-19
6.702947923054711e-03 8.106620678266278e-05 3.044563629042649e-19
 6.795263193665853e-03 -1.754519663407088e-04  3.080703722046204e-19
7.014982498090628e-03 8.033351386119783e-04 3.155133986491239e-19
 6.961468473000360e-03 -7.190812151080662e-04  3.192465479760897e-19
6.727535786758411e-03 2.264910259752065e-04 3.063550597567477e-19
 6.827327061014104e-03 -2.382686402631620e-04  3.123240588609668e-19
6.927870008018173e-03 5.946902988187960e-04 3.102188514773801e-19
 6.930042843980675e-03 -4.959359183567551e-04  3.109457564916590e-19
6.802729192235782e-03 1.895007726192412e-04 3.116402372249457e-19
 6.899139641749354e-03 -2.773327792163541e-04  3.142378585044030e-19
6.862092825108894e-03 5.932884311116001e-05 3.098307115267459e-19
 6.859173460764124e-03 -1.891291822644555e-04  3.132927714878394e-19
6.872034700657137e-03 3.145170851233622e-05 3.116428998778376e-19
 6.857909146156100e-03 -1.041186324941269e-04  3.112968410832387e-19
 6.874325407826278e-03 -4.468086968124447e-05  3.122629792588048e-19
 6.868455620703311e-03 -4.464271798228658e-05  3.115192628894681e-19
 6.881905483859482e-03 -1.103984120306142e-04  3.144247801358783e-19
 6.881175513539919e-03 -2.249105106835819e-05  3.130531883848389e-19
 6.856336229632490e-03 -3.691988222356395e-05  3.117506080967197e-19
6.907981808613018e-03 5.149911435666384e-05 3.116472291990331e-19
 6.864731332768700e-03 -5.961495686698532e-04  3.075714167374415e-19
 6.803928583389658e-03 -1.092988435501179e-05  3.106270346470961e-19
 6.882186942436073e-03 -4.732408906929416e-05  3.125931881399292e-19
 6.868115764463700e-03 -4.962473946634853e-05  3.119414157527622e-19
 6.857572335064070e-03 -4.954855919289628e-05  3.122793667217334e-19
 6.867378474434799e-03 -3.898479314948940e-05  3.131613165082422e-19
 6.861862570116594e-03 -1.576069524806568e-04  3.166118981746319e-19
 6.837326344280643e-03 -1.609634629442878e-05  3.120465253584386e-19
 6.873957200818697e-03 -2.929015594211453e-05  3.130091418283118e-19
 6.865357895615039e-03 -7.751954895631179e-05  3.121427761035969e-19
 6.858990865901940e-03 -7.793045352258736e-05  3.113359473656812e-19
6.883766554708691e-03 2.034514051816135e-04 3.096472947615586e-19
 6.946822999480288e-03 -3.439218007521235e-04  3.170348573628201e-19
 6.889736663638979e-03 -1.620156395672824e-04  3.154015247060156e-19
 7.001173775627093e-03 -5.933442203968393e-05  3.188956323927728e-19
6.866799784591717e-03 2.511462586314628e-04 3.175137095015656e-19
 6.760966310181630e-03 -6.376841135579944e-05  3.097844633102943e-19
 6.866653444192441e-03 -6.476523641414468e-05  3.128649394263268e-19
 6.709236007367498e-03 -1.497018692159179e-03  3.412554102254168e-19
 6.650855130715161e-03 -5.352703876688440e-05  3.099134098808435e-19
6.918357857614113e-03 6.021240464762614e-04 3.177237814083713e-19
 6.957525601012985e-03 -1.670766888701053e-04  3.162838382032827e-19
 6.846143141658660e-03 -1.453189065799696e-04  3.145305529721248e-19
6.891611665753554e-03 1.037238445599136e-04 3.197183095192170e-19
 6.871482851639368e-03 -4.249175337696920e-05  3.127886064987374e-19
 6.996455531720258e-03 -4.326455721211069e-05  3.169131375234727e-19
 6.493561357038707e-03 -8.645867896931639e-04  3.938428348178197e-19
5.829593012102614e-03 3.163449802515556e-03 5.104866350064955e-19
-6.896253893863793e-03 -1.249143228363898e-04 -3.160192305578117e-19
-6.899937270740942e-03  1.569858226852072e-04 -3.167933724369248e-19
-6.883730524955329e-03  1.636670014884489e-04 -3.163671900711052e-19
-6.913361448156250e-03 -1.177332624415730e-05 -3.170315062271835e-19
-6.876217335369597e-03  1.218809950393379e-04 -3.160187292254651e-19
-6.873666525999764e-03 -2.347742669475014e-05 -3.156501670811094e-19
-6.866286595991097e-03  1.402424335296976e-04 -3.156007349599710e-19
-6.888286425989361e-03  7.611500354846104e-05 -3.161146047095352e-19
-6.872636566326066e-03  1.145448564213251e-04 -3.157281238918827e-19
-6.869665063844258e-03  9.972613148783841e-05 -3.156483404502373e-19
-6.863855831715147e-03  9.964179953835221e-05 -3.155158356750105e-19
-6.849054055235149e-03  1.257460508114744e-04 -3.150124033842056e-19
-6.858680723560669e-03  1.286039758832650e-04 -3.143439243336461e-19
-6.906214015330268e-03 -4.177065713078611e-05 -3.160641595248723e-19
-6.690664063922489e-03 -2.183819552861488e-05 -3.107255076796187e-19
-6.619913328809284e-03  1.660549679751931e-03 -3.114520239839171e-19
-7.042165395780966e-03  1.550746134744094e-05 -3.188242977601838e-19
-6.807351598028822e-03 -9.805358530818071e-05 -3.121776903876312e-19
-6.837011378783354e-03  9.867261643573978e-05 -3.146678148909711e-19
-6.864142652532948e-03  9.906417842383510e-05 -3.149495546140472e-19
-6.847985145217390e-03  6.933678715208189e-05 -3.143977585049741e-19
-6.833544497312656e-03  1.037493487780307e-04 -3.133967716047185e-19
-6.831514941957985e-03  1.702734184462797e-05 -3.131887788596971e-19
-6.857361689828509e-03  1.608839168947681e-04 -3.146422575015212e-19
-6.863269054321558e-03 -3.659791330285926e-06 -3.144106888332542e-19
-6.840813076360606e-03  1.321628977046181e-04 -3.136589292212145e-19
-6.834058918818514e-03  4.927208259188996e-06 -3.129862479484019e-19
-6.869295141351912e-03  1.463534004566265e-04 -3.142274934786490e-19
-6.840116294979768e-03 -1.066430919653911e-04 -3.132358749277361e-19
-6.818841661198662e-03  3.203204140368819e-04 -3.133892652419798e-19
-6.873380395477448e-03 -3.605808664049982e-05 -3.128111921645202e-19
-6.795992368683788e-03 -2.602575064541381e-05 -3.117331775983137e-19
-6.565055450984974e-03 -6.577843954538341e-05 -3.042018183424452e-19
-6.837975448522620e-03  1.017451195848024e-03 -3.128888568203876e-19
-7.010311187292609e-03 -2.830948723864590e-04 -3.161582790799102e-19
-6.759051657534582e-03 -5.332493713747399e-05 -3.102888758003904e-19
-6.841819370597314e-03  9.427541863261012e-05 -3.134032421596614e-19
-6.857591371720720e-03  1.557096295002193e-05 -3.129292163887555e-19
-6.843814711365259e-03  1.553968143201626e-05 -3.125019000466082e-19
-6.854730391867027e-03  6.278704804177172e-06 -3.126983542611925e-19
-6.862030989017246e-03 -3.059431918618922e-05 -3.131996516097845e-19
-6.804994214941171e-03  8.014656500706860e-05 -3.116002438985782e-19
-6.897077592234774e-03  1.655039308769266e-04 -3.131245523935255e-19
-7.021726727625946e-03 -2.062905849233631e-04 -3.166838562343068e-19
-6.650575082543857e-03 -3.872358676080984e-04 -3.053685019799152e-19
-6.696172917225280e-03  3.532375950421963e-04 -3.102272992817959e-19
-6.979147042673974e-03  9.059668437819548e-05 -3.158685711076920e-19
-6.882360375834158e-03 -1.619594297766810e-04 -3.124410479647724e-19
-6.845478853159957e-03  1.881810842707516e-05 -3.122804868026761e-19
-6.873407243800612e-03  1.889488311216924e-05 -3.128334522047590e-19
-6.863094003980563e-03  1.534241561224056e-05 -3.120128469614316e-19
-6.922581203324921e-03 -4.732783286000269e-05 -3.136876121927800e-19
-6.887699255951348e-03 -8.930068017493419e-05 -3.132236936694722e-19
-6.968313111567328e-03  2.702464404390584e-04 -3.165725732960842e-19
-6.908458437597507e-03 -1.375984925411213e-04 -3.142133706084756e-19
-6.705620032072362e-03  6.523001628821511e-04 -3.109459394547955e-19
-7.003402868717173e-03  1.867902451689448e-04 -3.151713152536506e-19
-6.898666926171071e-03  1.348278458580543e-05 -3.102290179090048e-19
-4.618186368797558e-03 -4.955698823067068e-03 -1.891506147873804e-19
-6.706098819470689e-03  9.306144664048825e-05 -3.084472494983759e-19
-6.916685021227748e-03  9.598378004260542e-05 -3.134721065187993e-19
-6.870284867099516e-03  1.515268220494164e-05 -3.109041343910851e-19
-6.857879556893991e-03  1.512532180768967e-05 -3.106108043604669e-19
-6.865408567489840e-03  7.834579730157459e-06 -3.106655028406084e-19
-6.865094125870241e-03  1.167800924925728e-05 -3.104953427511124e-19
-6.865179528972965e-03  1.167815452595783e-05 -3.103266473730957e-19
-6.864212984140532e-03  7.045447400262536e-06 -3.100241071708756e-19
-6.865116634146802e-03  1.385903714412777e-05 -3.099451210433056e-19
-6.860028598276888e-03  3.477479426225202e-06 -3.094794977453590e-19
-6.860269211685776e-03  3.477601397754487e-06 -3.093853844898635e-19
-6.862391552203836e-03  2.127739561083057e-06 -3.091777731715467e-19
-6.864521220099807e-03  7.600207895425294e-06 -3.091234398833515e-19
-6.858502975362303e-03  4.303086641369421e-06 -3.085724487076374e-19
-6.860407330241044e-03  1.319814859403706e-06 -3.083524271377743e-19
-6.857679298044487e-03 -2.563144741487169e-06 -3.081017601327827e-19
-6.857318735519913e-03  7.251940137079066e-06 -3.079159382765495e-19
-6.859155431074137e-03 -6.346266296034900e-07 -3.077566059533101e-19
-6.852378498333648e-03 -2.367056278481599e-06 -3.072688419243186e-19
-6.854840754779452e-03 -2.367906829801945e-06 -3.072177721763384e-19
-6.855838900912539e-03 -7.492807267786866e-06 -3.070609704255393e-19
-6.819550518453020e-03  5.254641512443771e-05 -3.057014906584805e-19
-6.853193132582858e-03  4.325657101414624e-05 -3.058614554377654e-19
-6.831894459991927e-03 -1.330466507097999e-04 -3.050649855461332e-19
-6.518440947871415e-03 -1.062516446302460e-04 -2.953686523037442e-19
-6.624928150762047e-03  1.770430060207017e-03 -3.041900741249808e-19
-7.074439734050226e-03 -2.487628510539136e-04 -3.102510584514379e-19
-6.678580190287785e-03 -2.799834087294272e-04 -2.984999861198461e-19
-6.784077793928430e-03  1.055869603240159e-04 -3.037604948771759e-19
-6.882589524788384e-03 -2.655462882730484e-04 -3.050123272828086e-19
-6.918001055142252e-03 -2.669125473552834e-04 -3.084193633285405e-19
-6.917931637072688e-03  9.034087092199497e-05 -3.060483124771232e-19
-6.983276726370593e-03 -1.335397139603040e-03 -3.039383336065526e-19
-7.017062574445782e-03  2.616511577017717e-04 -3.170250759102126e-19
-7.591261514942347e-03 -2.693678138986752e-04 -3.293133799887254e-19
-8.194621699291381e-03 -2.907774061689048e-04 -3.485256075823500e-19
-7.330044496088662e-03 -2.647189414615952e-03 -3.098212982045030e-19
-7.756730316017380e-03  1.829662271676207e-03 -3.523975502354086e-19
-6.892431181685363e-03  1.625790865413157e-03 -3.078014522482650e-19
-5.755744620686867e-03  1.357668547032987e-03 -2.617637133198674e-19
-5.367560811947859e-03 -3.414029112938846e-04 -2.377891500550030e-19
-6.381125251338135e-03 -8.352362298233757e-04 -2.778147319205149e-19
-7.087446092487409e-03 -1.663525722689925e-04 -3.074147082902190e-19
-6.979543200069177e-03 -8.445735474114009e-05 -3.029195166398278e-19
-6.966957037975347e-03  1.691331668940659e-04 -3.018627817698230e-19
-6.926089769474373e-03 -7.412763802824741e-05 -2.977942212900681e-19
-6.893849622462346e-03 -7.378258244461670e-05 -2.972113890205152e-19
-6.900909758585619e-03 -2.678715972551349e-05 -2.973799693385554e-19
-6.899539498248102e-03  2.341595499752633e-05 -2.967453064539450e-19
-6.881857293219457e-03 -1.621131854929648e-05 -2.949668452385957e-19
-6.868875477406891e-03 -1.618073780015871e-05 -2.939866086169877e-19
-6.871744315461293e-03 -1.684017972485340e-05 -2.934249906411097e-19
-6.865312075512835e-03 -1.990795985460791e-05 -2.922371083949576e-19
-6.869881809376939e-03 -2.043167722218091e-05 -2.915758648163695e-19
-6.865919678100895e-03 -2.048898102999861e-05 -2.905039932679052e-19
-6.869870218666255e-03 -3.325538879021083e-05 -2.898249267879063e-19
-6.868315961347055e-03 -1.774015048481180e-05 -2.889553104218540e-19
-6.869401201635645e-03 -2.639481454418387e-05 -2.878852844118450e-19
-6.869714427289894e-03 -1.686543031646781e-05 -2.868297269338038e-19
-6.869977431964399e-03 -2.269952595380559e-05 -2.852800330198429e-19
-6.864250125301699e-03 -5.448774646264514e-06 -2.833289118859943e-19
-6.871598270759140e-03 -2.012886022706531e-05 -2.825620765144794e-19
-6.857200534100228e-03 -2.303557559760588e-05 -2.806319664373891e-19
-6.860453045397950e-03 -2.304650184506038e-05 -2.794121422358444e-19
-6.864323996549134e-03 -2.247224606853328e-05 -2.771964245428245e-19
-6.869084924256641e-03 -2.248783227032263e-05 -2.751154364603305e-19
-6.855014385370620e-03  4.044062270014038e-06 -2.720063731694737e-19
-6.840178628833976e-03  4.035310031158786e-06 -2.689436538701961e-19
-6.861821996987425e-03 -6.549643488514272e-05 -2.661405888241131e-19
-6.897346422385949e-03 -1.715051668064100e-04 -2.653394179660098e-19
-6.883851801625866e-03 -1.752665058793365e-05 -2.643751066354665e-19
-6.883570171081128e-03  4.978151727093394e-04 -2.653912292537297e-19
-6.902663009338688e-03 -4.804139988900732e-05 -2.585327723123831e-19
-6.858368557474922e-03 -4.738481107388875e-05 -2.544750582169616e-19
-6.878166399904017e-03 -2.317754008559143e-06 -2.515799730502889e-19
-6.880932402562429e-03 -2.318686075824819e-06 -2.475975319590131e-19
-6.874633441689751e-03 -9.102410200154052e-06 -2.421255578591860e-19
-6.882956248659667e-03  5.060086778053546e-05 -2.382154896044627e-19
-6.872958677105028e-03 -3.502529453377601e-05 -2.324662490591052e-19
-6.878897418577020e-03  3.096172337560829e-05 -2.271777662885556e-19
-6.890923389318185e-03 -5.328471372493950e-05 -2.210196775142003e-19
-6.888686966275337e-03  1.448540912315335e-05 -2.134682704668548e-19
-6.857457745973143e-03  4.822558262769250e-04 -2.114844296348725e-19
-6.860766506625976e-03  9.584088112629813e-06 -1.979118526709519e-19
-6.866005328604394e-03 -8.258270274537482e-05 -1.884198272345336e-19
-6.863000768786741e-03  2.444466083333686e-05 -1.817915545015484e-19
-6.882198159713188e-03  2.451303816941645e-05 -1.710564071786951e-19
-6.864179917690102e-03 -2.263744134535509e-05 -1.590136675933905e-19
-6.879955045648310e-03  8.226473644608334e-05 -1.480707786044414e-19
-6.821639738609968e-03 -1.301001418796340e-04 -1.307285328468016e-19
-6.839139597144960e-03  2.156236615161246e-04 -1.274919867562946e-19
-6.851715404766577e-03 -7.735769316088451e-05 -1.047685092028078e-19
-6.886152204925240e-03  3.355345302630867e-04 -9.490214123051825e-20
-6.873995618051930e-03 -1.513711220710987e-04 -6.586747102658792e-20
-6.854600153358349e-03  2.128499863490472e-04 -4.713967718948303e-20
-6.790194240139386e-03 -1.246640093187807e-04 -5.409177240321151e-21
-6.776508361005932e-03  1.533955583848555e-03 -2.480931335972223e-20
-6.940716908705813e-03 -2.786021701958788e-04  4.300234010829350e-20
-6.895820322390317e-03  1.865083903038888e-04  8.515004741913980e-20
-6.913547111990784e-03 -1.585853081466749e-04  1.621062470401807e-19
-6.918892225962350e-03  2.527549351420520e-04  2.435441007023088e-19
-6.775037976058326e-03 -9.617073026746387e-04  3.524785057008262e-19
-6.782633345290830e-03  2.552292502323125e-04  3.835154081154804e-19
-6.855225702873217e-03 -2.305477063411667e-04  5.310867166231119e-19
-6.825056190944739e-03  4.208189366534660e-04  6.485392172216049e-19
-6.854023585684178e-03 -1.810683793857049e-04  7.847345652106192e-19
-6.885709711384743e-03  2.055140411935507e-04  1.180506339014630e-18
-6.873834793774152e-03 -4.472012477106145e-04  1.749618893891753e-18
-6.826125923970516e-03  1.057253800823453e-04  2.277171026270645e-18
-6.711783530112804e-03 -2.284636292690316e-04  3.291177431454449e-18
-6.214727525398335e-03  2.671985941081274e-03  3.348585944242421e-18
-6.992175825697876e-03 -1.585628678188837e-04  4.767165383803671e-18
-6.816003694851241e-03 -4.392145553240578e-05  6.500657098670800e-18
-6.853174117339884e-03 -4.416097697804246e-05  9.567813539045023e-18
-6.831436814806732e-03  4.339908255418850e-05  1.317698520494235e-17
-6.856622244676621e-03  1.868547377378570e-05  1.994652359868981e-17
-6.788796325097731e-03 -9.731083891630615e-04  2.816349499142517e-17
-6.851321890199070e-03 -1.502485922794816e-05  3.866090008293850e-17
-6.861614108552326e-03 -2.004199396803263e-05  7.305999157688482e-17
-6.844807683158659e-03 -3.475817015545776e-05  1.388209615424998e-16
-6.855560820053557e-03 -3.481277495652722e-05  1.365193483657355e-16
-6.862089135877818e-03 -1.836669054514086e-04 -1.249604253612459e-15
-6.865328034772572e-03 -5.240925477451936e-05  6.258640501092584e-15
-6.871548273556139e-03 -6.510704040629273e-05  1.065132074306934e-17
-6.870535903981137e-03 -5.244901114845767e-05  6.547994820645516e-15
-6.867355506757238e-03 -2.417240985118262e-07  1.394326860898729e-16
-6.854488111517671e-03 -1.495544036520466e-04  8.934798318198313e-17
-6.846096653694843e-03 -2.097191644634091e-06  6.801661530639623e-17
-6.843743632991808e-03 -1.113095128966441e-04  4.431805562184939e-17
-6.886122812512223e-03  1.834684302614080e-04  3.073195323847668e-17
-6.904244196020879e-03 -1.796337460352690e-04  2.443165505088836e-17
-6.855105595216478e-03 -2.441864393771945e-05  1.495236770551953e-17
-6.854356333080638e-03 -1.751776177145371e-04  9.158472982126033e-18
-6.862949765250474e-03  2.293409963424418e-05  6.557864083706687e-18
-6.867184930966132e-03 -1.547571112960979e-04  4.598956912511032e-18
-6.904091489612559e-03  6.753349417863354e-05  3.305431267706287e-18
-6.883944062758967e-03 -2.610938808799545e-04  2.918040714749264e-18
-6.877164560225539e-03  6.053088538550436e-05  2.317830530801902e-18
-6.898379471324171e-03 -2.096938240221060e-04  1.998034082246498e-18
-6.880747438213156e-03  4.078762556031081e-05  1.522095422210215e-18
-6.744654528695430e-03 -1.184271001213349e-04  1.316533307191663e-18
-6.833592757467616e-03  3.032636681136164e-04  9.187644678796207e-19
-6.958143549425007e-03 -8.878062372002184e-04  9.737928114174048e-19
-6.759169184059591e-03 -2.728024167701215e-04  7.984756115171883e-19
-6.690430487951271e-03  5.786977253445103e-04  5.507491510554029e-19
-6.973033822209805e-03  2.818811104104883e-04  4.962377529506228e-19
-6.959164960979079e-03 -5.540279689707595e-04  4.321676706275528e-19
-6.827382239525140e-03 -4.861712913865134e-04  4.190938338563527e-19
-7.046421110803774e-03  1.559984923859670e-04  1.816811839862053e-19
-6.853700293097778e-03  7.995141010066412e-05  1.071867185264414e-19
-6.846012215707498e-03 -1.278129077372996e-04  4.142629346870664e-20
-6.876243652312269e-03 -1.283773192071866e-04 -1.135414826660414e-20
-6.799522840703170e-03  3.818877078457533e-04 -3.609496784806036e-20
-6.871052739229917e-03 -4.656432662812560e-04 -3.527078073294860e-20
-6.771338875298318e-03 -3.332655390085626e-04 -2.842496499930777e-20
-6.855626377275183e-03  8.703212634905718e-04 -9.068489516792859e-20
-7.069518739635398e-03 -1.639395071366653e-04 -1.022413686117603e-19
-7.089426916165912e-03 -3.152674598352712e-05 -1.327876862480534e-19
-6.580569560302780e-03 -4.937559576479728e-04 -1.762682801624041e-19
1.090247096078227e-03 6.568643331786641e-03 2.346425567022926e-19
-7.394668305423854e-03 -2.167031012423432e-05 -1.763848277248602e-19
-6.958080195867236e-03  6.430675470400585e-05 -1.877788499058540e-19
-6.987349890680076e-03  1.316486423285208e-05 -1.891270675524173e-19
-7.005725731061213e-03  1.902048215398656e-05 -1.934493394257061e-19
-6.732270396052190e-03  1.827805338655837e-05 -1.950783173194149e-19
-5.816000389566543e-03  3.750234202321296e-03  2.762111552951839e-19
-6.920503030777073e-03 -2.853160146833485e-05 -2.014847897155962e-19
-6.824259280238998e-03 -1.601855201647052e-04 -2.130202370695560e-19
-6.875374818876335e-03  8.348727451292500e-05 -2.253482560016501e-19
-6.918440618746341e-03  1.609705474463418e-04 -2.411214092335211e-19
-6.906384990958680e-03  5.946208191922074e-05 -2.321268875186271e-19
-6.872321397210486e-03  6.762332985828581e-05 -2.342197443445172e-19
-6.873677683927488e-03  6.763667565787016e-05 -2.393613494164932e-19
-6.873100844184415e-03  7.017122249873056e-05 -2.424085862455997e-19
-6.868847777902090e-03  7.139647489065472e-05 -2.610634291433551e-19
-6.868946109034537e-03  7.230131334616738e-05 -2.629402433681979e-19
-6.863124889201008e-03  6.707339673782590e-05 -2.567696589869017e-19
-6.868930475445463e-03  5.859800514344148e-05 -2.599204132032949e-19
-6.872421942901951e-03  6.170593956693103e-05 -2.609258217795213e-19
-6.869525993617833e-03  7.082455926642840e-05 -2.626609379325572e-19
-6.857811043031445e-03  7.070377855857758e-05 -2.643864128987455e-19
-6.874846458122864e-03  9.430465111963040e-05 -2.793049225651140e-19
-6.870329277686546e-03  2.330690660024779e-05 -2.768265775858587e-19
-6.889665234114839e-03  3.577197669210502e-05 -2.764834429832491e-19
-6.821882649214881e-03  8.322929611876562e-04 -2.881829596916674e-19
-6.894401321811023e-03  1.189143733830917e-05 -2.789829925826619e-19
-6.838493968020126e-03  1.179500854582622e-05 -2.794334070887836e-19
-6.886811766096589e-03 -1.190574840580143e-06 -2.832261134220383e-19
-6.812604268269934e-03 -3.621560823731774e-05 -2.829276337263714e-19
-6.877119366186665e-03  1.899169212586794e-04 -2.921537331442763e-19
-6.973507946157925e-03 -4.085356556890294e-05 -2.881761027128067e-19
-6.823648493891567e-03 -1.656671496472513e-04 -2.833338606745691e-19
-6.809383400486068e-03  1.690452690390485e-04 -2.859506707033196e-19
-6.911681343130543e-03  9.743134824481849e-05 -2.883236887741282e-19
-6.857576714443779e-03 -3.751786939235421e-06 -2.900612843904253e-19
-6.862413795114121e-03 -3.754433310809332e-06 -2.906096786335021e-19
-6.880675270845738e-03 -3.764424182073922e-06 -2.913172584241672e-19
-6.881158079774998e-03  8.435405817249881e-07 -2.922676301739198e-19
-6.879653951802860e-03  2.894371034507179e-05 -2.922701951417809e-19
-6.885846236381964e-03 -1.510563587255311e-05 -2.955213648516172e-19
-6.831397013675694e-03 -8.236170211515766e-05 -2.930583148932962e-19
-6.859381592949418e-03  1.862021833319450e-04 -2.951257386527815e-19
-6.886810373851903e-03 -1.795678521374744e-05 -2.954708173755523e-19
-6.877576425133257e-03  1.135368195504710e-05 -2.967231109275113e-19
-6.885811289488467e-03 -1.815330636567432e-05 -2.975390994475874e-19
-6.880430061372254e-03  3.111314705280097e-06 -2.986258775388969e-19
-6.891288057479107e-03  3.116224666235414e-06 -2.993567334631050e-19
-6.894405912423941e-03 -2.173052701063968e-05 -2.988780941587894e-19
-6.879664485912825e-03  8.843295067374507e-05 -3.001702677412374e-19
-6.912882114735672e-03  1.682120170159451e-05 -2.978678614160829e-19
-6.959873659880566e-03 -2.063552822160128e-04 -3.037084501994374e-19
-6.267623139246226e-03 -2.427639692608628e-04 -2.806059767796882e-19
2.609214167101541e-03 6.341100715712032e-03 1.606562675198915e-19
-7.539245554920670e-03 -2.424212679389740e-04 -3.196585618718330e-19
-6.677327880797424e-03 -6.801634653012428e-04 -2.837932373853157e-19
-6.638067907783362e-03  1.733561776582518e-04 -2.942485506047274e-19
-6.988194046155094e-03  1.372799349436457e-04 -3.083437948039213e-19
-6.907129217585954e-03 -4.105566430843710e-04 -2.980770311483804e-19
-6.840508386531209e-03  3.261777949624584e-05 -3.004305280417892e-19
-6.876224375109651e-03  3.278808500193541e-05 -3.014081136371710e-19
-6.848319778386540e-03  2.753688646243025e-05 -3.020825391684829e-19
-6.846998827906075e-03 -1.939124346213863e-05 -3.017209323186632e-19
-6.852886045735611e-03 -1.940791652972876e-05 -3.024188275240595e-19
-6.853344189238587e-03 -1.153902971349550e-05 -3.032749605293114e-19
-6.853140336491447e-03  1.737179804289487e-05 -3.035060425299005e-19
-6.859126874168236e-03 -4.363421428324681e-05 -3.036810981703130e-19
-6.851501482586668e-03 -4.140443605984217e-05 -3.036970787056718e-19
-6.860072817584772e-03 -1.334570049770395e-05 -3.053357855732311e-19
-6.856890899612190e-03 -1.333951034121443e-05 -3.052747142859743e-19
-6.849056749701833e-03 -2.109456200757822e-05 -3.047691036546131e-19
-6.845715115558457e-03 -4.471135075356759e-05 -3.048164888800508e-19
-6.861565764144526e-03 -1.401128053245185e-05 -3.057328646500230e-19
-6.863180862454954e-03 -1.105309265847308e-04 -3.063378062136670e-19
-6.850677058459925e-03 -1.812212851274901e-05 -3.058489908869650e-19
-6.871641274481837e-03 -4.030637833962768e-05 -3.076161263781948e-19
-6.888605070124431e-03 -4.040588137506488e-05 -3.084351600265586e-19
-6.895705084789761e-03 -4.044752730300065e-05 -3.094516673300722e-19
-6.843044557273487e-03  1.583956566322728e-04 -3.071800739362974e-19
-6.835243874924004e-03 -1.589409616681057e-04 -3.067816145251663e-19
-6.976861439176011e-03 -9.463473096186130e-05 -3.132977649543206e-19
-6.896757120647595e-03  4.306407630748363e-05 -3.126019803156851e-19
-6.931640353184967e-03  2.047605183348863e-04 -3.115631794133560e-19
-6.893997074529340e-03 -1.650836807915320e-04 -3.095186132793889e-19
-6.852262049228754e-03 -1.443505499094948e-05 -3.100717603336241e-19
-6.916572688793522e-03 -2.043970501786017e-05 -3.117982841765461e-19
-6.921214659638662e-03 -2.045342286903376e-05 -3.120159136696082e-19
-6.929224443059313e-03 -1.208888832796777e-06 -3.128131753067135e-19
-6.890434338619505e-03 -2.106184635831845e-05 -3.124158530372560e-19
-6.934748602930977e-03  1.198187230682362e-04 -3.129606932896595e-19
-6.927211114321825e-03 -3.182584728065439e-04 -3.122266090300646e-19
-6.416128483981762e-03 -9.539930493003996e-05 -2.973171683905609e-19
2.686880587738066e-03 6.561194457666579e-03 1.114873836172052e-19
-7.421491758533040e-03 -3.907926826244407e-04 -3.274674546928532e-19
-6.790919449973459e-03 -2.194624412699787e-04 -3.082334586302854e-19
-6.761634938952768e-03  1.108014378733767e-04 -3.103843651446136e-19
-6.924159548279667e-03  3.249202097474625e-04 -3.129241099881612e-19
-6.892116247359043e-03 -2.384771093966000e-04 -3.097119449794321e-19
-6.934317225181060e-03 -2.399373237695889e-04 -3.145827141576782e-19
-6.929160792519078e-03  1.503629721468054e-04 -3.163830154138621e-19
-6.884596906236207e-03  6.628478002302025e-04 -3.067288278358576e-19
-6.921590100145219e-03 -1.265572352678943e-03 -3.078691326476497e-19
-6.754493324528317e-03 -3.028522718215343e-04 -3.099286990087695e-19
-6.893709813426478e-03  3.215638155038300e-04 -3.162183232291129e-19
-6.847403173981720e-03 -2.211352415867839e-05 -3.099643812901529e-19
-6.836103790788346e-03 -3.604749599409410e-04 -3.101274534820190e-19
-6.855749010430684e-03 -4.511782183570295e-05 -3.131675513243657e-19
-6.874762384593358e-03 -4.524294923267471e-05 -3.128501245275718e-19
-6.857564031163342e-03 -4.059287277425026e-05 -3.120574009431407e-19
-6.841569304054336e-03 -1.030179669835007e-04 -3.116753089964806e-19
-6.851197676885128e-03 -1.031629476670699e-04 -3.122022870788773e-19
-6.862972102210024e-03 -1.033402428614123e-04 -3.125914469996305e-19
-6.869463743280639e-03 -1.034379917309715e-04 -3.127621614782425e-19
-6.878009589717891e-03 -1.064212822564420e-04 -3.132899992628098e-19
-6.888019663709370e-03 -1.069605813397563e-04 -3.136945037275449e-19
-6.896638892163896e-03 -1.070944249887594e-04 -3.141227574751666e-19
-6.906570549865057e-03 -8.371099194882956e-05 -3.148422088583104e-19
-6.902879006991412e-03 -8.366624865495549e-05 -3.149494683967532e-19
-6.843555261936253e-03  1.676088450028428e-05 -3.133102098862788e-19
-6.779754184619924e-03  1.660462617446342e-05 -3.091820398011663e-19
-6.823899440142389e-03 -4.831501438311913e-04 -3.109555123879102e-19
-6.889111981179316e-03 -5.624633958033826e-05 -3.160520708539547e-19
-6.913388061676672e-03 -5.644454229079853e-05 -3.157004212460159e-19
-6.894770034095453e-03 -5.629253490515721e-05 -3.145221733376005e-19
-6.920649628353519e-03 -1.962023128901014e-04 -3.159698383873963e-19
-6.953726293918786e-03 -7.458772676111456e-05 -3.180039545266172e-19
-6.865694321286880e-03 -6.562780837738883e-05 -3.152056867497086e-19
-7.041357742796304e-03  2.246699349079678e-04 -3.206261961002285e-19
-7.033150543577537e-03 -6.618376393623409e-04 -3.174329790335006e-19
-6.955295379223618e-03 -3.941606446598600e-05 -3.185813320375173e-19
-6.731100906533330e-03 -1.647580351948983e-04 -3.114541572274393e-19
-6.735154251125855e-03  2.053766142207748e-03 -3.106492097008249e-19
-7.155544761103865e-03 -3.338958548155733e-04 -3.228132932778170e-19
-6.884519455884738e-03  4.404538296898836e-05 -3.159765495773983e-19
-6.943794127858587e-03 -5.536332066763189e-05 -3.177654991658899e-19
-6.926417260799649e-03  8.473910254939030e-05 -3.175002303360772e-19
-6.915197261562769e-03  1.470008862005988e-05 -3.174563455526134e-19
-6.897741264565170e-03  1.466298126171415e-05 -3.171779528732742e-19
-6.897152974498891e-03  4.653189917354238e-05 -3.451131410921649e-19
-6.890471181624379e-03  2.359139248699828e-05 -6.325456832724711e-19
-6.882637180596792e-03  5.847088291156558e-05 -2.128336085796666e-18
-6.882274346710500e-03  3.059057278110419e-05 -3.529264649900699e-19
-6.889607991794586e-03  5.738174163431396e-05 -3.149466932490936e-19
-6.904429570593267e-03  5.750518668463491e-05 -3.154552470433465e-19
-6.876703251864521e-03  3.896574169843422e-05 -3.164249287026326e-19
-6.937913468546731e-03  2.870718056488472e-04 -3.194383598024593e-19
-6.932092388235338e-03 -6.009620614348818e-05 -3.173089735347095e-19
-6.894956262653212e-03  1.396602759122075e-04 -3.170014001187364e-19
-6.887475160677031e-03 -2.381850292288175e-05 -3.160354860523701e-19
-6.887562935881296e-03 -7.387064613144095e-05 -3.298481692870383e-19
-6.926153434784896e-03 -7.428453782507505e-05 -3.328286231930956e-19
-6.874881927104099e-03 -3.951626463548580e-05 -3.286351793050423e-19
-6.870974749225780e-03 -3.949380649341811e-05 -3.278586200845948e-19
-7.085749907246566e-03 -2.694349540994996e-04 -3.397616202479866e-19
-6.880217410061238e-03 -2.616196007960406e-04 -3.330442532532908e-19
-3.247734480760119e-03  6.026029560807481e-03 -1.877526554907902e-19
-7.029892320795446e-03  6.157602148045632e-05 -3.334623467628820e-19
-6.988161452079959e-03 -2.157809163040986e-04 -3.417541235722756e-19
-7.033710863669898e-03  9.328447059962933e-05 -3.362702000607793e-19
-6.888965054060389e-03  9.136478176358681e-05 -3.312541162717438e-19
-6.867446356221982e-03  9.126679667231998e-04 -2.885971045230472e-19
-6.778989674027416e-03 -6.585911866704125e-05 -3.274588289748473e-19
-6.844603773637157e-03 -9.686832835847041e-05 -3.321670509956834e-19
-6.873832329942459e-03  8.660094439125329e-07 -3.295176150104435e-19
-6.865259404388655e-03  8.649293718166201e-07 -3.288345322112437e-19
-6.824645725378293e-03  1.862509907315709e-05 -3.277332360548680e-19
-6.823404787224058e-03  3.814872147626429e-05 -3.269591158083303e-19
-6.874266402930479e-03 -4.197633061558147e-05 -3.252214062671639e-19
-6.839267188208731e-03 -1.448369417452754e-04 -3.265784108145779e-19
-6.846017209757710e-03  2.309742158931105e-04 -3.330780845127420e-19
-6.823152092145492e-03 -9.527075875630652e-05 -3.322377694059546e-19
-7.117177487515510e-03  3.678046207581966e-04 -3.098741829671628e-19
-6.175358763463232e-03 -2.952779005247666e-03 -2.349943523361271e-19
-6.550684404042054e-03  3.020920280994876e-04 -3.466005345959091e-19
-6.813168873673374e-03 -1.727260853854784e-04 -3.205442153535691e-19
-6.965699764483165e-03  6.465239880811696e-04 -3.346951204639216e-19
-6.925805037518429e-03 -4.850028965740526e-04 -3.492047985880226e-19
-6.889365386716033e-03  1.074575936343874e-04 -3.282053555237266e-19
-6.818618614756214e-03 -5.470018627152266e-04 -2.966236421495583e-19
-6.818807171495891e-03  2.021013236602686e-04 -3.370116186697845e-19
-6.816323243631918e-03 -3.109945965413070e-04 -3.248024220367209e-19
-6.910333968435447e-03  3.086112512099303e-04 -3.287391658332807e-19
-6.896291287155757e-03 -4.259671069333102e-04 -3.255370547322911e-19
-6.879627825019672e-03  3.767817412342055e-04 -3.340428844293089e-19
-6.918830998582084e-03 -3.460967215834342e-04 -3.279701013031774e-19
-6.844552280638680e-03  2.773108087155808e-04 -3.310640096411417e-19
-6.858077992426527e-03 -3.045900044042617e-04 -3.248403437438850e-19
-6.991527056363457e-03  2.183925847819764e-04 -3.188629172785345e-19
-6.792729733606236e-03 -4.952404670673157e-04 -3.297181208630010e-19
-6.791583322751914e-03  6.831044961631660e-04 -3.092674171314154e-19
-6.974696436988291e-03 -1.622370770523596e-04 -3.195750239837601e-19
-7.094371829523017e-03  2.434867054605007e-04 -3.317750913996492e-19
-6.783488128832271e-03 -9.609372404340953e-04 -3.599644570336785e-19
-6.744077979450257e-03  2.476947168608167e-04 -3.325487499727071e-19
-6.918569422935081e-03  1.399895234703133e-06 -3.299827310928040e-19
-6.899349590636300e-03 -2.985554734324399e-05 -3.307538571457820e-19
-6.845394618518322e-03 -1.356328126131167e-04 -3.295461598594613e-19
-6.909647825062563e-03  3.339296600037111e-05 -3.305099466478278e-19
-6.837791764922009e-03 -2.215861207575873e-04 -3.363147325768902e-19
-6.815110770946874e-03  1.752614225220644e-04 -3.180871404847812e-19
-6.894516448372348e-03 -1.372811292369862e-05 -3.292249333010572e-19
-6.891384375049412e-03 -3.324985395045453e-04 -3.274065649867555e-19
-6.810777573727579e-03 -9.939596072578790e-05 -3.309790830448338e-19
-6.877559596132015e-03  2.775910610307281e-05 -3.299835462694457e-19
-6.917294112023849e-03 -4.907637281166044e-05 -3.339931559277034e-19
-6.912953892730372e-03 -1.049770820922398e-04 -3.311844422691492e-19
-6.720628160770064e-03 -1.565648557501741e-04 -3.349480351983459e-19
-5.260891100881667e-03  4.353437398580000e-03 -3.855924707354360e-19
-7.055145043930946e-03 -9.324450350519226e-05 -3.283928149593952e-19
-6.847125734973750e-03 -2.649474663610941e-04 -3.315684314375607e-19
-6.642632923825675e-03 -1.627002010672758e-05 -3.291858878819627e-19
-6.855720076981034e-03  9.358146593168055e-04 -3.469592036813314e-19
-6.967748782523895e-03 -1.080775135722249e-04 -3.238856580399022e-19
-6.848424334078753e-03 -2.585545699326882e-04 -3.262296884989785e-19
-6.833435662153543e-03  4.053074411267316e-05 -3.306331727861149e-19
-6.913795134211252e-03  4.143500748999817e-04 -3.043252942855519e-19
-6.889081182762608e-03 -2.153319457664642e-05 -3.313818840766617e-19
-6.845848663385408e-03 -2.139806273147129e-05 -3.309924204363173e-19
-6.888076741179572e-03 -7.553085651838432e-05 -3.364410526491447e-19
-6.874041624119543e-03 -4.968403051699970e-05 -3.315815240239268e-19
-6.858091691708013e-03 -4.121753127382313e-06 -3.326301327280322e-19
-7.015465952502281e-03  3.090193849766108e-04 -3.356787005930598e-19
-6.869020078473085e-03 -6.760385193306096e-04 -3.460289890576205e-19
-6.736988854639837e-03  2.523527175129964e-04 -3.416573955024749e-19
-6.886761475297968e-03 -7.292692999159858e-05 -3.332160621026161e-19
-7.019102466587639e-03  3.180684790306112e-04 -3.319127230377538e-19
-6.618070875569802e-03 -1.026941951663853e-03 -4.420872215934574e-19
-6.538209636836719e-03  8.474562875428057e-04 -4.013611213532588e-19
-6.916188196538935e-03 -1.766430734163076e-04 -3.369956428764443e-19
-6.934359374010607e-03  4.431874519956657e-04 -3.215281392420072e-19
-6.916996870874737e-03 -3.020538775500082e-04 -3.264088213945238e-19
-6.947957210984608e-03  4.583940760233912e-04 -3.249239045974235e-19
-6.894762781739648e-03 -5.523831644846765e-04 -3.316525844093013e-19
-6.832061271235211e-03  3.827036882629135e-04 -3.127123701163372e-19
-6.739477054673524e-03 -5.130444002813321e-04 -3.628645497186548e-19
-6.742486913607483e-03  8.604283977759695e-04 -3.316329014127080e-19
-6.989675516870486e-03 -3.549751883836479e-04 -3.374326548625446e-19
-6.839919487201303e-03  2.660960854298180e-04 -3.460326774874773e-19
-6.752125530049060e-03 -1.283351503883135e-04 -3.338881859673957e-19
-6.954360384694969e-03  3.828009072601416e-04 -3.410797495909981e-19
-6.917908606050549e-03 -4.529435317295720e-04 -3.227647345436201e-19
-6.869953297871846e-03  4.996405803398008e-04 -4.128718339427894e-19
-7.039651591124000e-03 -1.696181182663006e-04 -3.268452389407762e-19
-6.898921032566609e-03  2.190040174729776e-04 -3.125623318936065e-19
-6.681080021343423e-03 -7.487089517409568e-04 -4.133335648769742e-19
-6.720755131646149e-03  4.657418263628732e-04 -3.201285669465971e-19
-6.938418236969682e-03 -2.724440135381588e-04 -3.325851798054570e-19
-6.833641293408177e-03  1.503165255741186e-04 -3.224127125788429e-19
-6.862734434661997e-03 -1.419861406136992e-04 -3.427631623088100e-19
-6.806382387446162e-03  2.358597751102754e-04 -3.565974342194923e-19
-6.910772874538158e-03  2.610871515145310e-05 -3.386095361857907e-19
-6.815164627169144e-03  1.593292011416472e-04 -3.334646274649657e-19
-6.752065797334115e-03  1.578540370479570e-04 -3.307969852702436e-19
-6.788396247077278e-03 -2.223474371924113e-04 -3.364153098605066e-19
-6.720537518065614e-03 -7.126376751428727e-05 -3.314475803629981e-19
-6.655481043580424e-03  1.669306061722157e-03 -1.992543205490566e-19
-6.878863761377130e-03 -1.591279586578070e-04 -3.378632880197236e-19
-6.780634663557444e-03  9.669330945825414e-07 -3.367153650543224e-19
-6.842531061930086e-03 -1.000864479749697e-04 -3.399706577303864e-19
-6.845737477507836e-03  1.547779790828052e-06 -3.394007281705628e-19
-6.776083336701860e-03  5.444893967512837e-05 -3.380126316467203e-19
-6.962123237251466e-03  1.305251458910223e-04 -3.354901911157817e-19
-6.964022226359421e-03 -8.506524585208627e-04 -4.605229764938875e-19
-6.769380171201477e-03 -1.719719093214608e-04 -3.466957985559411e-19
-6.602382034806389e-03  3.463371022412783e-04 -3.671481152326129e-19
-7.042237193197433e-03  6.457710568463671e-04 -3.537302754769910e-19
-6.858139936052955e-03 -4.744224400555088e-04 -3.827356690810835e-19
-6.762703685941595e-03 -1.303025013377819e-04 -3.503477842099430e-19
-6.882580111746347e-03 -9.180263828974522e-05 -3.435485863981787e-19
-6.893891680618146e-03 -9.195351657212872e-05 -3.433093585185543e-19
-6.937133328432841e-03 -9.253029116667506e-05 -3.435585915256186e-19
-6.838950637639465e-03 -2.570783951548610e-04 -3.642334269004925e-19
 9.935417807414254e-04  6.711684869808178e-03 -2.847706609879832e-20
-7.040377467946111e-03 -5.045004797438906e-05 -3.462126488787938e-19
-6.890514648940011e-03 -4.146200238588309e-05 -3.443120157825843e-19
-6.873346161827283e-03  5.913901676555005e-05 -3.431250902731991e-19
-6.830758600304112e-03  3.629044104873940e-05 -3.464866420383748e-19
-6.817625376804708e-03  3.622066688439345e-05 -3.472813712713062e-19
-6.827778276728623e-03  3.627460719142558e-05 -3.487248110615534e-19
-6.851593093040721e-03  3.640113050135813e-05 -3.506718052494242e-19
-6.868240663830562e-03  6.584188296476571e-05 -3.504433451953437e-19
-6.851926267520926e-03  1.399592709889958e-04 -3.594132717437877e-19
-6.878485146839050e-03 -5.598149750760473e-05 -3.578149754936166e-19
-6.819811434219283e-03  2.829851616546525e-05 -3.565749581704550e-19
-6.814125675868413e-03  1.576827003413388e-04 -3.625033775593160e-19
-6.803609020184029e-03  2.116038663250448e-04 -3.265074258050339e-19
-6.827578691165425e-03 -3.615798542981252e-04 -3.778406337630262e-19
-6.887382821764335e-03  7.887528178051259e-05 -3.607217654137415e-19
-6.860860069134656e-03  3.762146615240620e-05 -3.636895954389979e-19
-6.822105530577046e-03  3.740895597935130e-05 -3.644950267078609e-19
-6.804358889888716e-03  1.315000111655685e-04 -3.665795807154824e-19
-6.758886130430526e-03 -2.449991311416070e-05 -3.616974892911585e-19
-7.131821169787565e-03  3.227595550496458e-04 -3.544167937629460e-19
-6.502327501372342e-03 -1.290829212256518e-03 -3.991006848856239e-19
-6.602248010772793e-03  7.010125875607787e-04 -3.246891219295353e-19
-6.956189845072889e-03 -3.706501228388756e-04 -3.397107568667443e-19
-6.738863947634101e-03  2.528359388939363e-04 -3.522093498247900e-19
-6.750787554722058e-03 -4.409810867395968e-04 -3.533907527581640e-19
-6.814595704504185e-03  2.121293614061988e-04 -3.818561184753947e-19
-6.824617267623578e-03 -1.734738249074541e-04 -4.105303464543122e-19
-6.418086127046932e-03  2.586760815190325e-03 -2.108212161156825e-19
-6.888617358102572e-03 -4.000262671210305e-04 -3.980651349388167e-19
-6.855156575898659e-03  1.870856815640044e-05 -3.952536806946655e-19
-6.855996317385139e-03 -8.809810364307554e-05 -3.938086764252472e-19
-6.843298677676928e-03 -2.456954007361218e-05 -4.076762164120104e-19
-6.842648210125529e-03 -2.456720469570113e-05 -4.150134056577641e-19
-6.827906881182180e-03 -1.010136045943131e-04 -4.225178461202281e-19
-6.846491536786592e-03 -7.941646424019999e-06 -4.230306093104079e-19
-6.846888708366096e-03 -1.177418244018907e-04 -4.290894208270584e-19
-6.856751440274427e-03  9.001133198384675e-06 -4.367242450282548e-19
-6.865212911960842e-03 -1.237842243641731e-04 -4.464089654586265e-19
-6.853203224775670e-03  1.054139335203668e-06 -4.556981500406796e-19
-6.825755468119059e-03  1.049917402918014e-06 -4.689054806233194e-19
-6.856659130659658e-03 -6.683114939172895e-05 -4.868349254824537e-19
-6.798615413161319e-03 -2.640351694649221e-04 -4.656802298034502e-19
-6.706230027269756e-03  1.052268303179914e-04 -5.043063758116373e-19
-6.840345470368107e-03  1.752541341501269e-04 -5.176570291347308e-19
-6.879354751393001e-03 -8.239360276355712e-05 -5.304158827511942e-19
-6.895759055094933e-03 -2.534576144878833e-04 -5.459656831255153e-19
-6.736941987041641e-03 -2.594324125697480e-04 -5.079071941914104e-19
-6.744111922942271e-03  4.341224326259690e-04 -5.835125594280536e-19
-6.882950071767775e-03 -1.798516105733438e-05 -5.956572769867539e-19
-7.006984323916646e-03  2.748349520685751e-04 -6.422873385690981e-19
-6.906426276235302e-03 -4.545751030724729e-04 -6.023943958232241e-19
-6.890444588661577e-03  7.392158266439847e-05 -6.855576493460257e-19
-6.766729493782013e-03 -1.606783518150637e-04 -6.906059391241872e-19
-6.895088992080470e-03  2.759871296425104e-04 -7.419787549368400e-19
-6.884089342373293e-03 -2.380267553930443e-04 -7.337566451422813e-19
-6.866128194093182e-03  1.034521826306203e-04 -8.809500448799851e-19
-6.918045163927692e-03 -1.012906832094711e-04 -9.410315984785694e-19
-6.917067482026969e-03 -3.190127633274794e-05 -1.005285314361547e-18
-7.003890085933328e-03 -1.056087988382840e-04 -1.121466855121047e-18
-6.793323402975931e-03 -1.024337498027267e-04 -1.263126774536589e-18
-4.329457187745117e-03  5.340399953996686e-03 -2.472376922376387e-18
-7.081694897519276e-03  2.023081239847006e-05 -1.465987653580686e-18
-6.844870080653181e-03  1.955425706663864e-05 -1.727474604998743e-18
-6.878869728699565e-03  4.890855118914927e-05 -2.266617809105878e-18
-6.877993126678401e-03  5.433295901810575e-05 -2.934045732918889e-18
-6.877369761157026e-03  6.132764886293104e-05 -3.734763961437155e-18
-6.827392483284858e-03 -1.261765543291810e-04 -4.679452109015207e-18
-6.849181003331178e-03  1.362235635931998e-04 -5.685125325561866e-18
-6.871017526366086e-03  9.331637292736288e-06 -7.421500178912541e-18
-6.873089840296117e-03  5.968288224609299e-05 -1.196512707854122e-17
-6.846856361679092e-03 -7.936194526477504e-05 -1.830366998284213e-17
-6.785330834126947e-03  1.996182700537992e-04 -2.463505649442255e-17
-6.849089032740001e-03  1.962067829046459e-04 -3.557618607704358e-17
-6.935463489384394e-03 -4.979511124335137e-04 -4.524732347447796e-17
-6.663326281509333e-03 -1.207819963119652e-04 -6.500187115239752e-17
-6.296327837110399e-03  2.629959484000889e-03 -8.336125494857545e-17
-6.992553626956693e-03 -1.000023633491699e-04 -1.159406367349204e-16
-6.825394026959290e-03 -1.981218962759181e-05  2.808021815954051e-16
-6.815204640521328e-03  2.851242282994315e-05 -6.299955526778193e-15
-6.862974850461645e-03  3.226533766855641e-05  9.082946860190745e-16
-6.866245862555256e-03  2.872596137962881e-05 -6.638079653937945e-15
-6.851430830631145e-03  1.339809164493401e-05 -1.360703490448170e-16
-6.793417136296481e-03 -2.269971278266282e-04 -8.277277141849128e-17
-6.786893202435838e-03  2.240249634124174e-04 -6.944763200076593e-17
-6.866744375972724e-03 -2.867715636669230e-06 -4.586224162144245e-17
-6.847463552131785e-03 -9.071721896906307e-06 -2.428229299057730e-17
-6.855010762292737e-03 -1.743350149243500e-05 -1.372088844957154e-17
-6.861615557055955e-03 -1.745029865050733e-05 -9.121549081986726e-18
-6.874127496133022e-03 -2.355219418907566e-05 -5.771354889416157e-18
-6.861377514947818e-03  1.315608945610476e-05 -3.637677955467769e-18
-6.867051976878398e-03 -1.283508977878271e-05 -2.818282163307764e-18
-6.850634652771250e-03 -3.608829125215395e-05 -2.423647154822295e-18
-6.858014628500937e-03 -2.045118810335149e-05 -1.933757232486899e-18
-6.862053398843359e-03 -2.046323206307648e-05 -1.539256327284443e-18
-6.859126086484360e-03 -1.167112398573470e-05 -1.179461280545691e-18
-6.853271288339534e-03 -1.850732962889766e-05 -1.043001818709101e-18
-6.851821690594609e-03 -1.850341497527227e-05 -9.199157251367770e-19
-6.853741000501919e-03 -2.221934653028565e-05 -8.266565927768969e-19
-6.850828531392904e-03 -1.548245586810236e-05 -7.491048807127351e-19
-6.849139733576082e-03 -1.547863928773558e-05 -6.903508308344521e-19
-6.844457879748623e-03 -1.546805858279859e-05 -6.424472774906526e-19
-6.846788586266086e-03  1.005645226902852e-05 -6.129779812867942e-19
-6.839464520467783e-03 -9.435823424816554e-06 -5.819710427622314e-19
-6.842261234710562e-03  4.915157989150925e-06 -5.553291779582321e-19
-6.843240416087960e-03 -8.640193399425615e-06 -5.387811338529045e-19
-6.846949684610788e-03  2.127299817489733e-06 -5.177768818062212e-19
-6.852750377440519e-03  1.858845799893689e-06 -4.986447060607393e-19
-6.852831312705522e-03  1.858867754024386e-06 -4.827624529367051e-19
-6.856392908312736e-03  3.288720008529211e-05 -4.699629667523231e-19
-6.865668705621692e-03 -9.663266466767997e-06 -4.572451551605078e-19
-6.922068528670090e-03 -5.636069952886604e-05 -4.462438794924887e-19
-6.815259809121386e-03 -5.549104414700811e-05 -4.363369784638831e-19
-5.717090283946714e-03  3.769351380058980e-03 -3.874974883444318e-19
-6.951563260873178e-03  5.495164040867551e-06 -4.276560969698307e-19
-6.817618951020009e-03  5.389281964079621e-06 -4.185525679098050e-19
-6.836582860508140e-03 -4.874199559806321e-05 -4.119839503025368e-19
-6.990386927461771e-03  1.669751810941066e-04 -4.118263930268115e-19
-6.925376408537370e-03 -2.593493083276665e-04 -4.014701620881185e-19
-6.808737924726449e-03  5.978474719827001e-04 -3.996961302304987e-19
-6.863426893356996e-03  8.279472342790156e-05 -3.946969337020088e-19
-6.980298376166021e-03 -6.620923344964505e-06 -3.926846159712127e-19
-6.824155998294732e-03 -4.987767497156829e-04 -3.807722909001948e-19
-6.840978170074893e-03  6.101189767660404e-04 -3.983401689564699e-19
-6.728980660757111e-03 -1.167449717205171e-04 -3.766023564715489e-19
-6.805002046002667e-03  1.715828296051387e-03 -3.915838373481571e-19
-6.824781185069606e-03 -3.900439884381221e-04 -3.776054962377251e-19
-6.699602533602468e-03  9.979390568672084e-04 -3.777278115256282e-19
-6.800253047550545e-03 -3.504623981267860e-04 -3.678251711401901e-19
-6.837024353461688e-03  1.467579527438629e-03 -3.758057400725909e-19
-6.867638966457749e-03 -6.529911384218231e-04 -3.591370767828354e-19
-6.857934100616442e-03  4.084645294185688e-04 -3.682325317187323e-19
-6.934290382642798e-03 -8.659725925560963e-04 -3.536359535181031e-19
-6.889910003338734e-03  4.889970753747386e-05 -3.667420678364143e-19
-6.452740875406358e-03 -6.212681690603424e-05 -3.578701328078937e-19
-6.442381357809732e-03  2.693948770133381e-03 -3.552228981084779e-19
-6.749280160814198e-03 -6.025838551582175e-04 -3.504293726290341e-19
-6.548721448912175e-03  9.086843586370673e-04 -3.515235079071359e-19
-6.613887846066603e-03 -6.407028970078643e-04 -3.511014055649286e-19
-6.534753989526592e-03  8.318025337102849e-04 -3.580110535094236e-19
-6.739274215726485e-03 -3.333379437772293e-04 -3.518791017975964e-19
-6.573553872641808e-03  3.592485617772053e-04 -3.524907016698202e-19
-6.827750702352695e-03 -1.785585031016682e-04 -3.525345585439400e-19
-6.731149407446232e-03 -6.260502672902616e-06 -3.500320899122273e-19
-6.727563888616672e-03 -5.880132299439367e-04 -3.482705611191297e-19
-6.509280717561027e-03  5.931524396260541e-05 -3.480188846679008e-19
-6.761272639624332e-03  5.801844087803619e-04 -3.548726925433328e-19
-6.893342839004115e-03 -2.215494034685610e-04 -3.443375893569251e-19
-6.473026186378867e-03 -1.248664958498167e-03 -3.302300572810175e-19
-6.531569706246142e-03  1.089142732099885e-04 -3.473788096211315e-19
-6.878581087114152e-03 -2.210582573577913e-05 -3.494227518780623e-19
-6.840634100816187e-03 -3.977104959168380e-04 -3.456396841485742e-19
-6.827490147419527e-03 -5.680902946176243e-05 -3.473915358679734e-19
-6.803349854399417e-03 -1.221327058566167e-04 -3.459270227092638e-19
-6.967209864688678e-03  2.935408639198036e-04 -3.492947814590710e-19
-6.864284992956415e-03 -3.624732108996432e-04 -3.433370367882051e-19
-6.762698076698255e-03  1.209924021332360e-04 -3.456160353303956e-19
-6.860467548569110e-03 -7.186514356167762e-05 -3.453310332956964e-19
-6.873109370569360e-03  4.749671506551618e-05 -3.451799964940886e-19
-6.738975094262376e-03 -2.997714528930060e-04 -3.408672905246765e-19
-6.971754620200627e-03  5.010060026223291e-04 -3.431064085325434e-19
-7.103203213605067e-03 -7.319772906797343e-04 -3.382782079947983e-19
-6.967838573042444e-03 -3.088853721348056e-04 -3.466193366963722e-19
-6.793505679479236e-03  6.188848643817022e-04 -3.573179876013423e-19
-6.936836288085854e-03  1.799400247528032e-04 -3.436805228936209e-19
-6.810390417031363e-03 -3.658393948576836e-04 -3.315990279413077e-19
-6.814862975042629e-03 -8.420867426960395e-06 -3.421223335864429e-19
-6.841418746162025e-03 -2.828858191148438e-04 -3.427392006220329e-19
-7.015252523322602e-03  4.032417874440972e-04 -3.469545747370010e-19
-7.014719398746166e-03 -9.048460782115308e-04 -3.398403143498785e-19
-6.688434835820858e-03  6.031573257852370e-05 -3.409276312365320e-19
-6.914342629090323e-03 -8.074180539264749e-05 -3.425164505590907e-19
-6.920980799587471e-03  3.099043675768956e-04 -3.472512690792632e-19
-6.944748897877985e-03 -1.256204296213911e-04 -3.426876081559321e-19
-6.875632563305192e-03 -5.043529608698725e-05 -3.404449441911260e-19
-6.887991264961329e-03 -2.745551213150656e-05 -3.403594512569781e-19
-6.885326526269023e-03 -2.744489049122283e-05 -3.400013977080965e-19
-6.880573833801623e-03 -2.367185647383805e-05 -3.396765460109122e-19
-6.925113522989908e-03  7.094555701502008e-06 -3.397247063144105e-19
-6.848111758689828e-03 -1.424337004491585e-04 -3.406960437591840e-19
-6.845553852157449e-03  1.472083933155241e-04 -3.413538341772811e-19
-6.876219739094046e-03 -2.540108439391101e-05 -3.373345434995506e-19
-6.959987535878282e-03  6.499864424352718e-05 -3.379349097075947e-19
-6.884869691342057e-03 -2.088380830105055e-04 -3.353012014347916e-19
-6.902407550726942e-03  6.040096602898715e-05 -3.390298181150049e-19
-6.826183842367733e-03 -1.069047470051517e-04 -3.381318401769688e-19
-6.836465721389881e-03  1.638026814786817e-04 -3.353056544146358e-19
-6.940017497689932e-03 -2.279440682506511e-04 -3.337019559833553e-19
-6.744345437173466e-03 -2.777965522362212e-04 -3.333568206601626e-19
-6.843170721307818e-03  1.647174263763509e-04 -3.353642659161203e-19
-7.010322704515568e-03  2.249100395091539e-04 -3.391553188916369e-19
-6.942579977410542e-03 -2.739198386472478e-04 -3.303378969204808e-19
-6.799126316661615e-03  1.475599023130228e-05 -3.353165946919396e-19
-6.868571965651964e-03  3.552832775999969e-05 -3.365984932444891e-19
-6.884549168592637e-03  1.952898804845318e-04 -3.354564849333200e-19
-6.908298243006765e-03 -1.269152514329027e-05 -3.356176782063175e-19
-6.860256134501914e-03 -1.550097624670057e-05 -3.345449275513683e-19
-6.884515982176417e-03  5.893069831417621e-05 -3.358913344332499e-19
-6.863971435113038e-03 -4.610538465476606e-06 -3.347940476866263e-19
-6.942416638134929e-03  2.196635076590612e-04 -3.346670916193216e-19
-6.917417850041355e-03 -4.608324343510246e-04 -3.334362462486574e-19
-6.841784344126046e-03  7.906694476833819e-05 -3.347016110083281e-19
-6.766320566618651e-03 -4.210748986578316e-05 -3.324040474527210e-19
-7.004857300172260e-03  7.180104826409928e-04 -3.321096682588641e-19
-6.991823552654420e-03 -4.281391383411185e-04 -3.376529350368979e-19
-6.876500654210036e-03  1.538369468112691e-04 -3.345407481417515e-19
-6.762455217265361e-03 -2.448881344777350e-04 -3.329143141575685e-19
-6.845606408890348e-03  3.988947517130437e-04 -3.361167011859690e-19
-6.858346271167970e-03 -1.769794320616465e-04 -3.302883652785890e-19
-6.896087026451157e-03  5.388337141451970e-04 -3.370977889509539e-19
-6.919320532347047e-03 -1.875094842915546e-04 -3.298828784295092e-19
-7.028407239740842e-03  4.812498250217206e-04 -3.429582543310038e-19
-6.593979777735652e-03 -2.089226726862505e-03 -2.910217816083730e-19
-6.740146612692293e-03  4.127302486363553e-04 -3.256902845330276e-19
-6.770851942266845e-03 -3.766750658887197e-04 -3.271197762077870e-19
-6.943229737477304e-03  6.903485640766220e-04 -3.380867420082778e-19
-6.895597955590155e-03 -8.382569513821086e-04 -3.192164468278990e-19
-6.834681949015564e-03  4.485696299582619e-04 -3.300991107489882e-19
-6.702797202499807e-03 -6.227944488959897e-04 -3.215058952129984e-19
-6.666169775107611e-03  7.570455527044142e-04 -3.352874555099753e-19
-6.786896391177404e-03 -1.746901587183545e-04 -3.276497076942189e-19
-6.913526502586172e-03  7.663856858590020e-04 -3.336633803214628e-19
-6.924659672983551e-03 -3.827743759413879e-04 -3.321649370686223e-19
-6.805971419709524e-03  6.953775439887212e-04 -3.383068610649538e-19
-6.935298869294705e-03 -1.755164662517149e-04 -3.329127745912481e-19
-6.845692968758267e-03  4.704343979597509e-04 -3.271814610723840e-19
-6.831371434880666e-03 -7.565490007159514e-04 -3.274204955391379e-19
-6.668286577081558e-03  2.226894386353782e-04 -3.294332237892798e-19
-6.824808792298657e-03 -4.820830893184846e-05 -3.310607023330508e-19
-6.941859665891024e-03  4.264860878602015e-04 -3.350900916079016e-19
-6.792266050678395e-03 -1.125030467482925e-03 -3.256575800312352e-19
-6.733949045075263e-03  2.911655396109559e-04 -3.295710456458772e-19
-6.829142394478884e-03 -2.340114406670032e-04 -3.310153720855548e-19
-6.776144243675099e-03  3.283970146902155e-04 -3.303928872996679e-19
-6.830350830044397e-03 -1.008552314439596e-04 -3.297122353394590e-19
-6.874304233485929e-03  2.602933787729569e-04 -3.276700498285669e-19
-6.847788357809791e-03 -6.338786671967041e-05 -3.305245751641325e-19
-7.311800413946426e-03  5.692086297104501e-04 -3.423214422540443e-19
-3.582700321107695e-03 -5.980029420044298e-03 -1.558304812305766e-19
-6.441737679672094e-03  3.978240420594597e-04 -3.198186348347908e-19
-6.935621485538107e-03  8.597693604210752e-05 -3.336644832886920e-19
-6.866371751386203e-03  6.906136558906318e-05 -3.296008168943837e-19
-6.862439917887215e-03  5.117130619265522e-05 -3.298517910413193e-19
-6.867681965430340e-03  5.121039468350037e-05 -3.303150289461217e-19
-6.873882953757265e-03  5.636691907838716e-05 -3.302296322801546e-19
-6.871420769601732e-03  5.607112262045806e-05 -3.306103060103000e-19
-6.863924837818938e-03  7.234810557197031e-05 -3.295894193336492e-19
-6.854985379047078e-03  6.611088565462860e-05 -3.299574260626112e-19
-6.869741797650574e-03 -1.642533201812085e-04 -3.279361851287182e-19
-6.864137494120478e-03  6.118873960283652e-05 -3.310424500933741e-19
-6.891026903883045e-03  6.142843892317283e-05 -3.312413555939468e-19
-6.867680615820240e-03  8.641633759525262e-05 -3.306449207431339e-19
-6.847513414712683e-03  1.189136251012674e-04 -3.302049091420172e-19
-6.838911865493756e-03 -3.046817116823988e-05 -3.282149605151067e-19
-6.866369306763855e-03  2.035302903595746e-04 -3.334467604681669e-19
-6.850373283315517e-03 -3.994221028489804e-05 -3.285314367929158e-19
-6.859291419014081e-03  2.447603951674487e-04 -3.268158718521732e-19
-6.877749257724786e-03 -7.075985400627510e-05 -3.274124546920185e-19
-6.852313556476974e-03  1.390124016080515e-04 -3.314235282556404e-19
-6.870803249908877e-03  7.050434089453419e-05 -3.298838028924321e-19
-6.831085346259842e-03  1.102346776843676e-04 -3.276976200967635e-19
-6.831216478639298e-03 -3.729768684981277e-06 -3.275799841160971e-19
-6.851289809983447e-03  5.724525734042071e-05 -3.279414594827380e-19
-6.837445594203443e-03  5.712958339916544e-05 -3.276747861217160e-19
-6.838363069749990e-03  5.559242796922630e-05 -3.279899813613942e-19
-6.821017518209883e-03  3.636636514927934e-05 -3.274809385544877e-19
-6.812978572781247e-03  3.632350538178975e-05 -3.278149727080826e-19
-6.785632118513157e-03  6.526365131833354e-05 -3.281256215267076e-19
-6.789083769292634e-03  6.529684901149013e-05 -3.274676559226867e-19
-6.952838074577483e-03 -1.408751419066636e-04 -3.252611373480452e-19
-6.759772244688898e-03 -3.863777166253859e-04 -3.241598172989969e-19
-6.516686217112481e-03  4.577976693671122e-04 -3.513297031663555e-19
-7.086603034293134e-03  1.332687932682942e-03 -2.643653605840721e-19
-6.970066948541469e-03 -2.414956521132762e-04 -3.139316054048435e-19
-6.748746547500488e-03 -5.875927487280345e-05 -3.290336177609966e-19
-6.840194391426521e-03 -5.955548331832062e-05 -3.276864167527963e-19
 6.851778707935849e-03 -3.479450161546180e-04  3.320811820114837e-19
 6.844507854880178e-03 -6.162368047683364e-05  3.305231366374665e-19
 6.835547730458285e-03 -1.111495073468817e-04  3.311228252002371e-19
 6.860417159392105e-03 -7.907584307320075e-05  3.315501741243972e-19
 6.853247410299531e-03 -7.899320174965643e-05  3.312027755387084e-19
 6.846764295276233e-03 -1.080901404504410e-04  3.312501412195644e-19
 6.850236651526712e-03 -1.081449586767771e-04  3.313885732647357e-19
 6.856159657914323e-03 -1.082384654143710e-04  3.315127622251242e-19
 6.859504600159842e-03 -1.127294554854714e-04  3.316501199827997e-19
 6.875605492453279e-03 -1.129940583871193e-04  3.318748808835007e-19
 6.920912781665953e-03 -1.672631760650105e-04  3.332203540321980e-19
 6.859148271846338e-03 -1.657704642788000e-04  3.333335178891821e-19
5.783206477390812e-03 3.708041769699320e-03 2.655546570820251e-19
 6.888863427458999e-03 -1.069944970979351e-04  3.316245188319619e-19
 6.858131015596058e-03 -9.675529195882648e-05  3.316990098048954e-19
 6.877713995496341e-03 -9.703157086533424e-05  3.322296202496952e-19
 6.887783572703956e-03 -6.988431589659474e-05  3.323114962317410e-19
 6.886356377946854e-03 -7.250142744592101e-05  3.323078022500263e-19
 6.881831763401501e-03 -7.245379107696532e-05  3.323248551732270e-19
 6.872628251128286e-03 -2.452180650313318e-05  3.317551689054593e-19
 6.876724998109646e-03 -1.240721129971484e-04  3.324367039385283e-19
6.903608911336332e-03 6.390675156209922e-05 3.321466954820197e-19
 6.853628044518740e-03 -2.199213263852893e-04  3.324904740248502e-19
6.879772239301691e-03 1.569670348010662e-04 3.313757388549480e-19
 6.894016634042132e-03 -2.188228688621914e-04  3.334142407086610e-19
6.894721454758975e-03 1.541204791115055e-04 3.319478288780994e-19
 6.855935646664970e-03 -2.331121974456392e-04  3.324927704770885e-19
6.906801292927161e-03 2.555046737993555e-04 3.317266474731187e-19
 6.901283636900814e-03 -3.099841718382175e-04  3.337736533755966e-19
6.877374485014470e-03 1.852778102540828e-04 3.317263861314890e-19
 6.930957808079170e-03 -2.446382530286873e-04  3.343728023848712e-19
6.852686668165561e-03 5.147063113319447e-05 3.314899727085212e-19
 6.829889307539508e-03 -1.754952416114730e-04  3.321792242495381e-19
6.853875570265085e-03 1.751449555563844e-04 3.319405050845592e-19
 6.901646457105989e-03 -1.329978292360028e-04  3.335811227224300e-19
6.887343561581160e-03 4.967957136675772e-05 3.328533615849998e-19
 6.856618370532095e-03 -5.454421371020475e-05  3.325212702195007e-19
6.869808891031949e-03 6.106810568749855e-05 3.327809112973914e-19
 6.869188294292610e-03 -6.134601911714903e-05  3.331565594092717e-19
6.880493861792719e-03 8.132789749552872e-05 3.331837915578200e-19
 6.880715751333998e-03 -6.431012690094795e-05  3.336853181557098e-19
6.888601044462707e-03 7.249789376727656e-05 3.333389918604222e-19
 6.887113097575577e-03 -9.067184666414016e-05  3.341120967759960e-19
6.868966451663411e-03 3.807335607504799e-05 3.333967925667376e-19
 6.865102220592000e-03 -5.524682242802863e-05  3.338248782110443e-19
6.872045914887541e-03 1.737990114741705e-04 3.332886758694220e-19
 6.893467587225940e-03 -5.352156274383929e-05  3.345459641577647e-19
6.886417153859386e-03 4.096074421988855e-06 3.344834576577911e-19
 6.862442054390527e-03 -6.557955168330565e-05  3.345892269275131e-19
6.871553744987739e-03 8.025760865473653e-05 3.347316174524223e-19
 6.877645156656487e-03 -4.330153894106745e-05  3.345804138467222e-19
6.882439269195378e-03 6.307349804023877e-06 3.348616634724800e-19
 6.883756907641059e-03 -4.932373805847232e-05  3.352313946325063e-19
6.875446417196987e-03 4.835108521327324e-06 3.348704884687480e-19
 6.871637303786790e-03 -1.976833818433333e-05  3.350120970565170e-19
 6.878514063884400e-03 -2.996803740031960e-05  3.352847357976007e-19
 6.937191785737180e-03 -8.984106831657952e-05  3.372186127029091e-19
 6.803177315933610e-03 -8.810549526210709e-05  3.361590231167439e-19
5.544397405576575e-03 4.044650394105256e-03 2.547299589342783e-19
 6.872029896067786e-03 -2.656363494558053e-05  3.352465071818590e-19
 6.869007709947008e-03 -1.648819133455635e-05  3.360633031033776e-19
6.878694048822112e-03 1.366752456894949e-07 3.367041285128271e-19
6.876701954353097e-03 1.366356640481171e-07 3.366930032862860e-19
6.872002356847700e-03 1.365422860552695e-07 3.367301293078593e-19
6.868954486935057e-03 4.707565487142631e-05 3.366655007615430e-19
 6.864250884521052e-03 -2.975723890563083e-05  3.373570072293724e-19
6.884142172004478e-03 8.808821725818043e-05 3.372435317812798e-19
 6.858371282957160e-03 -1.122168066975546e-04  3.379837183480441e-19
6.853908269682239e-03 9.382272309480872e-05 3.371407684506423e-19
 6.889097864104842e-03 -1.110883119583009e-04  3.395545420181624e-19
6.880344635438422e-03 1.484913943819556e-04 3.383763725898037e-19
 6.948285129185115e-03 -5.079279514719589e-05  3.401293934331526e-19
 6.941405972653119e-03 -7.269645123387979e-05  3.408806857277541e-19
 6.748787322868060e-03 -2.401969289548100e-04  3.396845585875317e-19
6.943381683408798e-03 2.930078854653950e-04 3.393720056794812e-19
 6.941843081593168e-03 -6.738797295759288e-04  3.430328056973801e-19
6.868959552729492e-03 1.315214566457177e-04 3.406353225925045e-19
 6.890620961314638e-03 -1.540188532525432e-04  3.427410485550270e-19
6.954632195517045e-03 3.489058670424723e-04 3.409691694050880e-19
 6.991987994140742e-03 -2.746738050613248e-04  3.460710396618850e-19
6.997270812799584e-03 1.656718544003268e-04 3.460780959962874e-19
 7.052221173653782e-03 -2.587770078325676e-04  3.505938711309498e-19
7.114844059777353e-03 1.358837749253439e-04 3.514918188735185e-19
 7.103359186907792e-03 -2.733737047730625e-04  3.543292579679084e-19
7.074216029325708e-03 2.187108206276998e-04 3.511329003879623e-19
 7.059778934186173e-03 -9.986270350993272e-05  3.511669870519997e-19
6.913653427018106e-03 7.044747785808902e-05 3.451129398500915e-19
 6.782892538504523e-03 -6.339912601657328e-06  3.406282068125392e-19
6.740997508310574e-03 7.723515501580732e-05 3.389960659180531e-19
6.747856741816860e-03 3.116025643775837e-05 3.400857742010683e-19
6.780334520775208e-03 3.131023234264079e-05 3.417245575979429e-19
6.814131714811144e-03 3.146630104316761e-05 3.432752739243218e-19
6.840659883944767e-03 7.985939146883190e-06 3.450260755219286e-19
6.855867624537528e-03 2.668069977117153e-05 3.467097419741760e-19
6.858910430826546e-03 2.669254133601863e-05 3.475192370176609e-19
6.864313222044560e-03 1.566241882583623e-05 3.487578135976478e-19
6.864816776848898e-03 1.239670946852229e-05 3.498771273651090e-19
6.867921699775249e-03 8.833765055659571e-05 3.498036717450235e-19
6.882493792718091e-03 6.533812553465181e-06 3.510825255875993e-19
6.866946580024008e-03 1.675072364133480e-05 3.514197982219885e-19
6.867804253229869e-03 2.352754351790190e-05 3.524075388406793e-19
6.872026657608208e-03 3.505349158768706e-05 3.528285531333779e-19
6.865820644326146e-03 1.726676788289839e-05 3.534989433895539e-19
6.864476790846735e-03 2.129074474984270e-05 3.546311559679614e-19
6.865259602620215e-03 2.129317270555792e-05 3.555020412989742e-19
6.871973311992691e-03 2.426059805886431e-05 3.569018954303050e-19
6.864541103039907e-03 2.165748836261520e-05 3.573700999361292e-19
6.863606114116650e-03 2.223627354290264e-05 3.591844684498158e-19
6.860714145079860e-03 2.230965142127001e-05 3.608099800262065e-19
6.859633541612420e-03 2.230613751788133e-05 3.620412195408316e-19
6.861047131637566e-03 2.040976882301180e-05 3.638564939543182e-19
6.864324618102225e-03 1.599978546059281e-05 3.651613819121362e-19
6.858330189019426e-03 2.303992614260188e-05 3.667616958709851e-19
6.856912581532362e-03 8.265908036114781e-05 3.680468593282918e-19
6.856403589466415e-03 1.203053274025209e-05 3.697163551443747e-19
6.851359482037938e-03 1.202168213821680e-05 3.713922797301917e-19
6.858760170008717e-03 1.143539188604641e-05 3.741327751279299e-19
6.857212413451125e-03 2.438998585943102e-05 3.765626532603383e-19
6.863377095742696e-03 1.868220358085778e-05 3.786846529625464e-19
6.861383748330533e-03 3.109966884814306e-06 3.805699104624761e-19
6.864620629293679e-03 4.532604004309318e-07 3.839224877739050e-19
6.856578841229967e-03 3.793674669514548e-05 3.867057790363865e-19
6.869396778276834e-03 3.785759250822980e-05 3.889297327834988e-19
6.848884996097196e-03 3.321556849075720e-06 3.916415352303221e-19
 6.854060360782774e-03 -6.914305355714073e-07  3.969130303057808e-19
6.856156167773929e-03 4.246365861109662e-06 4.022552710782258e-19
6.856618992598139e-03 4.246652512038419e-06 4.074924367393346e-19
6.846199298630365e-03 2.843899886477849e-07 4.141886351212254e-19
6.776652280946325e-03 9.846563672065862e-05 4.186950494045241e-19
7.577001316434068e-03 5.779141187799169e-04 4.285110372273507e-19
-8.597006751597746e-04 -6.841596722967785e-03  3.107729550675785e-20
6.145160263398786e-03 4.194811429504865e-04 4.141214476130879e-19
6.907639078414023e-03 3.554581244088226e-05 4.352055634023840e-19
6.875419439042181e-03 3.538001436645719e-05 4.416742152773265e-19
 6.881218555502343e-03 -1.483668780385746e-04  4.495525999276491e-19
 6.869095932129413e-03 -2.663705333797178e-05  4.570467746312700e-19
 6.763722012406875e-03 -1.145037666311901e-04  4.694575803932307e-19
6.739762350592608e-03 7.611578784204948e-04 4.612947898976999e-19
7.306423286123885e-03 1.248448542968221e-04 4.866721311487889e-19
 6.606547817208121e-03 -1.928234102743347e-03  4.890193661719903e-19
6.594158425132788e-03 1.097804451011031e-04 4.893541499242210e-19
6.911575374963980e-03 2.224875023752840e-04 5.013955037908834e-19
 6.840163465864729e-03 -7.055101909802336e-05  5.211425801460098e-19
 6.863575251148291e-03 -2.762529873105675e-05  5.519615558823046e-19
 6.875069906119176e-03 -2.107365154993199e-05  5.861177554807378e-19
 6.870573369923948e-03 -2.105986864470280e-05  6.164575316715718e-19
6.869997504659170e-03 2.453458720782237e-05 6.518892695295201e-19
 6.867134485065960e-03 -7.579169010849073e-05  7.043540955843828e-19
6.889256190625001e-03 1.073264142904794e-04 7.421895315877805e-19
 6.907565533460848e-03 -7.817402271756200e-05  7.907684357857421e-19
6.889145170338745e-03 4.746873066414019e-05 8.883297608290914e-19
 6.884835931844159e-03 -2.402081308921645e-04  9.841665784198661e-19
6.876141714083931e-03 4.969136488787555e-05 1.012986114634598e-18
 6.865008120614348e-03 -8.469840754308718e-05  1.363433991374365e-18
6.868399175563394e-03 9.797254935476566e-05 1.704509715340668e-18
-3.528748501244515e-03 -5.945614721281268e-03 -9.571656297704882e-19
6.896778068034642e-03 5.153823714998112e-05 2.322701403552516e-18
 6.911888138246321e-03 -2.040895916354964e-05  3.160224338049443e-18
6.902505606031738e-03 1.930477072058868e-05 4.152798098291644e-18
6.882818236049521e-03 7.999816598062583e-07 5.897825507939861e-18
6.901954232219681e-03 1.979515968944743e-04 7.988687062484899e-18
 7.054325651551513e-03 -1.067700073066154e-04  9.751086016194719e-18
 6.768701221144391e-03 -4.149669991880848e-04  1.142243114194247e-17
6.844582975319708e-03 1.797232212996462e-04 1.412911739702788e-17
6.914617117332521e-03 6.745794298446509e-05 1.984543786520803e-17
6.869096682436376e-03 1.035892778161633e-05 3.177188545247312e-17
6.876964605468413e-03 3.805236672981716e-05 4.889266694716954e-17
6.873960329060551e-03 4.444965332669623e-05 7.166060111620780e-17
6.836807336203284e-03 4.420940788251275e-05 1.232670097511604e-16
 7.075028385820577e-03  1.565767990937219e-04 -4.053419577629768e-16
-4.689017237868708e-03 -5.187559143242684e-03  8.922442819656861e-16
6.797160616364557e-03 6.504580979181692e-05 6.485860245249386e-15
 6.897034188446583e-03  3.532550319604627e-04 -1.774691732933951e-15
6.863708500020659e-03 6.568264349684229e-05 6.722662481272070e-15
6.948271509105066e-03 8.408314277417469e-05 8.896399675382721e-17
 6.779975555490547e-03 -1.012066013335103e-03  1.197994699679780e-16
6.813833508452190e-03 1.086359545481429e-04 9.843529820446741e-17
6.908519212419123e-03 1.101455705109854e-04 6.465674941193096e-17
6.864141728171052e-03 7.893551952579951e-05 4.031654362792651e-17
6.889104256880365e-03 3.250677175941040e-05 2.812067515706707e-17
6.862922065154231e-03 2.267955310784729e-05 2.270822960402754e-17
6.875284732055276e-03 7.091502328666732e-05 1.525007306982227e-17
6.876366668932135e-03 7.111289520165765e-05 1.095014446816673e-17
6.875947219550608e-03 7.202804584693894e-05 9.026618943198105e-18
6.869910884580462e-03 4.812486325640367e-05 6.570441842008686e-18
6.867825761091898e-03 7.763239979201834e-05 4.842145855131876e-18
6.868231882827697e-03 4.676971854498491e-05 3.749932991120973e-18
6.860038270246887e-03 7.628135411570564e-05 3.138679085313680e-18
6.856406774692705e-03 6.310804945887220e-05 2.542827432022294e-18
6.869092493882527e-03 8.022578215343619e-05 2.153187266335784e-18
6.861554028764161e-03 4.190672897893889e-05 1.945847180599576e-18
6.855228244730662e-03 6.555022475389152e-05 1.647615751423226e-18
6.851487987085138e-03 6.551446011987074e-05 1.386393881724894e-18
6.840452640858590e-03 8.574049508741631e-05 1.206895254032674e-18
6.870150468687201e-03 7.010969430268865e-05 1.105992779148611e-18
6.855582428108416e-03 2.679940568998784e-06 1.028919966487175e-18
6.889140678196403e-03 3.364354427739855e-05 9.023726630041281e-19
6.837499164119839e-03 3.339134975176118e-05 7.886439676112784e-19
 3.305443758457002e-03  6.012191154501439e-03 -6.608630377520158e-20
 6.913464048936033e-03 -4.151577373838875e-05  7.226235286911861e-19
 6.759147906405953e-03 -4.058909588021060e-05  6.731022287662207e-19
 6.805801571435355e-03 -8.494619453548364e-05  6.425166579749876e-19
6.847159638940181e-03 1.014451553053977e-05 6.120030788944676e-19
6.865269486073670e-03 1.017134645535954e-05 5.808902992287246e-19
6.853900038508997e-03 4.612310401637913e-05 5.513706879422155e-19
6.834860143507878e-03 3.020697731002061e-05 5.267329015987181e-19
 6.855783974016046e-03 -7.474774480732669e-05  5.087761175359784e-19
 6.885029620157409e-03 -4.495184987952539e-05  4.919123982053333e-19
 6.896398608820764e-03 -1.871502212823761e-05  4.756858485234235e-19
 6.887217413087424e-03 -4.388515573148756e-05  4.609237253723085e-19
 6.880466814316192e-03 -4.384214110590115e-05  4.468407646613787e-19
6.858832735660100e-03 1.092872589583708e-05 4.342914057810561e-19
 6.836538443418663e-03 -6.342096174377710e-05  4.278292395837635e-19
 6.847472203865717e-03 -6.352239167191500e-05  4.209178171492570e-19
 6.880248530769012e-03 -1.784238803588107e-04  4.189292730058444e-19
 6.902155517783536e-03 -9.187734590164712e-05  4.131401160627435e-19
 6.849379548820163e-03 -9.117482392235400e-05  4.067342235391857e-19
6.553622129783596e-03 2.046485062536046e-03 3.534762334887618e-19
 6.860035638349417e-03 -1.000989942096012e-04  3.982138772618972e-19
 6.824977014684687e-03 -9.958743229473387e-05  3.933907932224186e-19
 6.859396964803483e-03 -1.351707390335952e-04  3.906526924168302e-19
 6.878710449253069e-03 -2.611048793197596e-05  3.862511528408588e-19
 6.875803297871269e-03 -1.338375152073688e-04  3.842767119191649e-19
 6.862818963734761e-03 -1.945789838366055e-05  3.792066802644421e-19
 6.889359422062219e-03 -1.909650678088759e-04  3.782818834664708e-19
6.911103925422604e-03 1.293939792874210e-05 3.735990128500172e-19
 6.842797617024420e-03 -3.601358318359777e-04  3.735901678156523e-19
6.836734509882565e-03 3.988893922068345e-05 3.680891914889423e-19
 6.859223189801296e-03 -2.507944508744309e-04  3.693026021986631e-19
6.909255151324497e-03 1.714503396969943e-04 3.652226338213605e-19
 6.907328401975213e-03 -2.777342260286080e-04  3.672808942158809e-19
7.136241693043038e-03 1.722846612168942e-04 3.665330609967764e-19
 6.520562971401120e-03 -1.673461101182316e-03  3.646848087757902e-19
6.774388621115022e-03 5.664433548082516e-04 3.568387205991930e-19
 7.048025400812072e-03 -4.554224042314461e-04  3.671357391683172e-19
6.883470672947784e-03 5.841102212592473e-04 3.569114014640524e-19
 6.802809363574880e-03 -3.057542805061803e-04  3.637280863898450e-19
6.810647493764558e-03 1.449845454717630e-03 3.432263387460503e-19
 6.978191991232416e-03 -3.474398046486959e-04  3.617549553561228e-19
6.900187685064076e-03 4.015672165481207e-04 3.554521100908582e-19
 6.888652583894408e-03 -3.850119953219573e-04  3.605992218552092e-19
6.894524661509407e-03 4.368724169791314e-04 3.531467336375543e-19
 6.966413608936758e-03 -4.319544735825732e-04  3.597211206838550e-19
6.969597425742068e-03 2.143604819852981e-04 3.560400418760479e-19
 6.888309873159621e-03 -5.374957553204898e-04  3.565096218529709e-19
6.883698610076774e-03 2.042543780241523e-04 3.507782615140317e-19
 6.758155300619799e-03 -8.562277237027812e-04  3.545800508089541e-19
6.798137752350763e-03 4.322845871519984e-04 3.481726410737283e-19
 6.857149346537150e-03 -1.484282702083874e-04  3.507147753542817e-19
 6.852843100424584e-03 -3.599061716647904e-06  3.505892992975608e-19
6.909773080084000e-03 1.024051088803471e-05 3.502851305906852e-19
6.891738755602764e-03 6.500491752561536e-06 3.488342092139005e-19
6.882087118178382e-03 6.491388042786566e-06 3.481909192863313e-19
6.872654042558296e-03 6.482490486967316e-06 3.475221918539648e-19
6.882649037293886e-03 2.487570880348707e-06 3.472605156012213e-19
 6.869239949261752e-03 -1.524023902151376e-05  3.462639824536223e-19
 6.877073722749381e-03 -1.525761919476053e-05  3.460414040734833e-19
 6.885932114159518e-03 -1.782893192123822e-05  3.455124562486687e-19
 6.885940116190181e-03 -1.956761882472797e-06  3.448486701322388e-19
 6.880680731026250e-03 -1.955267334997743e-06  3.443363740086612e-19
6.880132378796914e-03 3.058240256028435e-06 3.434946201846901e-19
 6.903572084983768e-03 -8.566115207340430e-05  3.443274565845720e-19
6.901276893456893e-03 8.791402735665850e-05 3.430582085745653e-19
6.880249177274900e-03 1.494620318834241e-05 3.419033237774831e-19
 6.907506445392090e-03 -8.828697082258629e-05  3.431782539122287e-19
6.920916165300758e-03 7.377771287189304e-05 3.421850099878179e-19
6.878709091502727e-03 7.332778091238655e-05 3.404922332863791e-19
6.859525413890189e-03 1.566115912085115e-05 3.396132151405039e-19
6.873685205639862e-03 1.569348770604170e-05 3.398958795419178e-19
6.873381527877352e-03 1.569279437152173e-05 3.400490328119253e-19
6.856415519392545e-03 1.601620002719101e-04 3.382434879180737e-19
6.836013750803446e-03 1.319758237062049e-05 3.376490314978398e-19
6.814559557526702e-03 1.315616298597813e-05 3.374397723869420e-19
6.867533367752058e-03 1.325843402424990e-05 3.380748853979917e-19
 6.876780502465099e-03 -2.403897276786623e-04  3.399149067502092e-19
6.893362900037073e-03 7.987990681911486e-05 3.390311354734678e-19
6.844450517874227e-03 7.931311284843207e-05 3.372391018154153e-19
6.923963735906954e-03 8.023450760733971e-05 3.370224921065816e-19
 6.861655450613323e-03 -1.034760535196217e-03  3.411059180129828e-19
7.047357996549636e-03 3.218313055532246e-04 3.416058939100962e-19
6.813933141620052e-03 1.508139913525356e-04 3.349885160257696e-19
 6.873020433142272e-03 -1.967308012134190e-05  3.356550363323825e-19
 6.705009122223978e-03 -1.206481464251260e-03  3.356353805733746e-19
6.841337650486744e-03 3.033790244813924e-05 3.375807932144588e-19
6.932798563352506e-03 2.223415231307450e-05 3.382160602845357e-19
6.899170673456343e-03 2.212630443330615e-05 3.372502068919602e-19
 6.964580788980646e-03 -4.155805043313971e-05  3.383321567213002e-19
 6.807073260863044e-03 -2.668820038732105e-04  3.377000067159398e-19
6.860980550778468e-03 4.561299291267604e-04 3.357336986163984e-19
 7.059994838087755e-03 -6.700394416020231e-05  3.398637915954871e-19
6.899133033599670e-03 1.231580875013979e-05 3.366934314095891e-19
6.917847237938193e-03 1.234921592759555e-05 3.368574406861611e-19
 6.958803032667676e-03 -9.044842876061878e-05  3.384526578758319e-19
6.992575343262811e-03 1.171153382844527e-04 3.376057751264697e-19
 6.977301050241426e-03 -1.876560805883038e-04  3.393454558393674e-19
6.946182321125076e-03 3.080320340145648e-04 3.365355455580833e-19
7.002775368851635e-03 8.402331868728209e-05 3.369884381468704e-19
6.931854248479069e-03 8.317236637411363e-05 3.362050369086164e-19
6.824248094445109e-03 2.940829289602602e-04 3.313678007168880e-19
 6.828804998818979e-03 -1.395445772544242e-04  3.323348687669834e-19
6.837423714630972e-03 3.965059057768679e-05 3.330381908659133e-19
6.908870837677601e-03 4.006491631529077e-05 3.343462095556786e-19
6.924956515254182e-03 6.008476496146779e-05 3.346716782486456e-19
6.913080045270427e-03 1.405035255759747e-04 3.336613001741492e-19
6.889489021809428e-03 7.821140003740312e-05 3.331193549463905e-19
6.868914122977669e-03 1.353690267365254e-04 3.322982423019840e-19
6.860925333764690e-03 8.718666309678480e-05 3.321029846330492e-19
6.861702532252567e-03 1.074792743929670e-04 3.321250375910880e-19
6.859118541792488e-03 9.873325308710903e-05 3.316902929254071e-19
6.853072313069323e-03 9.864622093755368e-05 3.314887066761937e-19
6.844107831513260e-03 9.851718213746939e-05 3.311945351932395e-19
6.831563324614625e-03 9.833661083418461e-05 3.308043984307866e-19
6.832898529124290e-03 9.319474389060129e-05 3.305308186715750e-19
6.827538262118902e-03 7.511274265000875e-05 3.304175536100324e-19
6.835207008045618e-03 8.091681762679261e-05 3.305621207313023e-19
6.831508444344044e-03 6.661709430985123e-05 3.306170532813454e-19
6.857364662023299e-03 2.581549270318577e-04 3.304256082289093e-19
 6.831123418064794e-03 -2.370350803155791e-05  3.306157113816297e-19
6.826065780314365e-03 1.041786596333144e-04 3.306404373003779e-19
6.846682156250058e-03 2.627863771298354e-05 3.309785640954473e-19
6.800336600417404e-03 2.610075621599870e-05 3.305162732479254e-19
6.962096275245353e-03 2.907108110444651e-04 3.301672648243543e-19
 6.957551434750246e-03 -8.011393653444881e-04  3.342215467271336e-19
 6.651263101320804e-03 -7.084705132462906e-05  3.298391250659960e-19
6.873878814092440e-03 1.874545342036590e-04 3.321529580763105e-19
6.850151763471894e-03 5.646401380007800e-05 3.305453778351684e-19
 6.812479174354841e-03 -7.108441041102731e-05  3.305012977330832e-19
6.872794927919434e-03 6.554738423749558e-05 3.306775639246810e-19
 6.815930933942630e-03 -3.341169947371923e-04  3.324040177000982e-19
6.796411243332572e-03 3.528106531188553e-04 3.278838773663480e-19
 6.818352780240200e-03 -2.755114191094503e-05  3.341649307971456e-19
 6.782293145165944e-03 -1.100379391646682e-05  1.298064251898495e-18
 6.756279773923898e-03 -1.096158905004579e-05  1.297371519035987e-18
 6.786922538699606e-03 -1.101130478208592e-05  1.296980499876218e-18
 6.269957015541448e-03 -8.403701992137096e-04  3.245799537065727e-19
5.727880500692201e-03 2.846581632643670e-03 2.816316981400208e-19
 7.120354999146946e-03 -2.538407613145750e-04  3.338238480114796e-19
 6.746279427426533e-03 -5.398740514549422e-04  3.304370049487491e-19
 6.872493976193735e-03 -2.835279991317200e-05  3.324604719485683e-19
 6.915092903558785e-03 -2.852854380880592e-05  3.321852989141976e-19
 6.893052641638802e-03 -5.190848746212342e-05  3.323133184989823e-19
 6.851585062463421e-03 -6.259231381166958e-05  3.309821901085203e-19
 6.832638361726259e-03 -4.189120511166267e-05  3.305069619886084e-19

VECTORS velocity double
0.000000000000000e+00 0.000000000000000e+00 0.000000000000000e+00
0.000000000000000e+00 0.000000000000000e+00 0.000000000000000e+00
0.000000000000000e+00 0.000000000000000e+00 0.000000000000000e+00
0.000000000000000e+00 0.000000000000000e+00 0.000000000000000e+00
0.000000000000000e+00 0.000000000000000e+00 0.000000000000000e+00
0.000000000000000e+00 0.000000000000000e+00 0.000000000000000e+00
0.000000000000000e+00 0.000000000000000e+00 0.000000000000000e+00
0.000000000000000e+00 0.000000000000000e+00 0.000000000000000e+00
0.000000000000000e+00 0.000000000000000e+00 0.000000000000000e+00
0.000000000000000e+00 0.000000000000000e+00 0.000000000000000e+00
0.000000000000000e+00 0.000000000000000e+00 0.000000000000000e+00
0.000000000000000e+00 0.000000000000000e+00 0.000000000000000e+00
0.000000000000000e+00 0.000000000000000e+00 0.000000000000000e+00
0.000000000000000e+00 0.000000000000000e+00 0.000000000000000e+00
0.000000000000000e+00 0.000000000000000e+00 0.000000000000000e+00
0.000000000000000e+00 0.000000000000000e+00 0.000000000000000e+00
0.000000000000000e+00 0.000000000000000e+00 0.000000000000000e+00
0.000000000000000e+00 0.000000000000000e+00 0.000000000000000e+00
0.000000000000000e+00 0.000000000000000e+00 0.000000000000000e+00
0.000000000000000e+00 0.000000000000000e+00 0.000000000000000e+00
0.000000000000000e+00 0.000000000000000e+00 0.000000000000000e+00
0.000000000000000e+00 0.000000000000000e+00 0.000000000000000e+00
0.000000000000000e+00 0.000000000000000e+00 0.000000000000000e+00
0.000000000000000e+00 0.000000000000000e+00 0.000000000000000e+00
0.000000000000000e+00 0.000000000000000e+00 0.000000000000000e+00
0.000000000000000e+00 0.000000000000000e+00 0.000000000000000e+00
0.000000000000000e+00 0.000000000000000e+00 0.000000000000000e+00
0.000000000000000e+00 0.000000000000000e+00 0.000000000000000e+00
0.000000000000000e+00 0.000000000000000e+00 0.000000000000000e+00
0.000000000000000e+00 0.000000000000000e+00 0.000000000000000e+00
0.000000000000000e+00 0.000000000000000e+00 0.000000000000000e+00
0.000000000000000e+00 0.000000000000000e+00 0.000000000000000e+00
0.000000000000000e+00 0.000000000000000e+00 0.000000000000000e+00
0.000000000000000e+00 0.000000000000000e+00 0.000000000000000e+00
0.000000000000000e+00 0.000000000000000e+00 0.000000000000000e+00
0.000000000000000e+00 0.000000000000000e+00 0.000000000000000e+00
0.000000000000000e+00 0.000000000000000e+00 0.000000000000000e+00
0.000000000000000e+00 0.000000000000000e+00 0.000000000000000e+00
0.000000000000000e+00 0.000000000000000e+00 0.000000000000000e+00
0.000000000000000e+00 0.000000000000000e+00 0.000000000000000e+00
0.000000000000000e+00 0.000000000000000e+00 0.000000000000000e+00
0.000000000000000e+00 0.000000000000000e+00 0.000000000000000e+00
0.000000000000000e+00 0.000000000000000e+00 0.000000000000000e+00
0.000000000000000e+00 0.000000000000000e+00 0.000000000000000e+00
0.000000000000000e+00 0.000000000000000e+00 0.000000000000000e+00
0.000000000000000e+00 0.000000000000000e+00 0.000000000000000e+00
0.000000000000000e+00 0.000000000000000e+00 0.000000000000000e+00
0.000000000000000e+00 0.000000000000000e+00 0.000000000000000e+00
0.000000000000000e+00 0.000000000000000e+00 0.000000000000000e+00
0.000000000000000e+00 0.000000000000000e+00 0.000000000000000e+00
0.000000000000000e+00 0.000000000000000e+00 0.000000000000000e+00
0.000000000000000e+00 0.000000000000000e+00 0.000000000000000e+00
0.000000000000000e+00 0.000000000000000e+00 0.000000000000000e+00
0.000000000000000e+00 0.000000000000000e+00 0.000000000000000e+00
0.000000000000000e+00 0.000000000000000e+00 0.000000000000000e+00
0.000000000000000e+00 0.000000000000000e+00 0.000000000000000e+00
0.000000000000000e+00 0.000000000000000e+00 0.000000000000000e+00
0.000000000000000e+00 0.000000000000000e+00 0.000000000000000e+00
0.000000000000000e+00 0.000000000000000e+00 0.000000000000000e+00
0.000000000000000e+00 0.000000000000000e+00 0.000000000000000e+00
0.000000000000000e+00 0.000000000000000e+00 0.000000000000000e+00
0.000000000000000e+00 0.000000000000000e+00 0.000000000000000e+00
0.000000000000000e+00 0.000000000000000e+00 0.000000000000000e+00
0.000000000000000e+00 0.000000000000000e+00 0.000000000000000e+00
0.000000000000000e+00 0.000000000000000e+00 0.000000000000000e+00
0.000000000000000e+00 0.000000000000000e+00 0.000000000000000e+00
0.000000000000000e+00 0.000000000000000e+00 0.000000000000000e+00
0.000000000000000e+00 0.000000000000000e+00 0.000000000000000e+00
0.000000000000000e+00 0.000000000000000e+00 0.000000000000000e+00
0.000000000000000e+00 0.000000000000000e+00 0.000000000000000e+00
0.000000000000000e+00 0.000000000000000e+00 0.000000000000000e+00
0.000000000000000e+00 0.000000000000000e+00 0.000000000000000e+00
0.000000000000000e+00 0.000000000000000e+00 0.000000000000000e+00
0.000000000000000e+00 0.000000000000000e+00 0.000000000000000e+00
0.000000000000000e+00 0.000000000000000e+00 0.000000000000000e+00
0.000000000000000e+00 0.000000000000000e+00 0.000000000000000e+00
0.000000000000000e+00 0.000000000000000e+00 0.000000000000000e+00
0.000000000000000e+00 0.000000000000000e+00 0.000000000000000e+00
0.000000000000000e+00 0.000000000000000e+00 0.000000000000000e+00
0.000000000000000e+00 0.000000000000000e+00 0.000000000000000e+00
0.000000000000000e+00 0.000000000000000e+00 0.000000000000000e+00
0.000000000000000e+00 0.000000000000000e+00 0.000000000000000e+00
0.000000000000000e+00 0.000000000000000e+00 0.000000000000000e+00
0.000000000000000e+00 0.000000000000000e+00 0.000000000000000e+00
0.000000000000000e+00 0.000000000000000e+00 0.000000000000000e+00
0.000000000000000e+00 0.000000000000000e+00 0.000000000000000e+00
0.000000000000000e+00 0.000000000000000e+00 0.000000000000000e+00
0.000000000000000e+00 0.000000000000000e+00 0.000000000000000e+00
0.000000000000000e+00 0.000000000000000e+00 0.000000000000000e+00
0.000000000000000e+00 0.000000000000000e+00 0.000000000000000e+00
0.000000000000000e+00 0.000000000000000e+00 0.000000000000000e+00
0.000000000000000e+00 0.000000000000000e+00 0.000000000000000e+00
0.000000000000000e+00 0.000000000000000e+00 0.000000000000000e+00
0.000000000000000e+00 0.000000000000000e+00 0.000000000000000e+00
0.000000000000000e+00 0.000000000000000e+00 0.000000000000000e+00
0.000000000000000e+00 0.000000000000000e+00 0.000000000000000e+00
0.000000000000000e+00 0.000000000000000e+00 0.000000000000000e+00
0.000000000000000e+00 0.000000000000000e+00 0.000000000000000e+00
0.000000000000000e+00 0.000000000000000e+00 0.000000000000000e+00
0.000000000000000e+00 0.000000000000000e+00 0.000000000000000e+00
0.000000000000000e+00 0.000000000000000e+00 0.000000000000000e+00
0.000000000000000e+00 0.000000000000000e+00 0.000000000000000e+00
0.000000000000000e+00 0.000000000000000e+00 0.000000000000000e+00
0.000000000000000e+00 0.000000000000000e+00 0.000000000000000e+00
0.000000000000000e+00 0.000000000000000e+00 0.000000000000000e+00
0.000000000000000e+00 0.000000000000000e+00 0.000000000000000e+00
0.000000000000000e+00 0.000000000000000e+00 0.000000000000000e+00
0.000000000000000e+00 0.000000000000000e+00 0.000000000000000e+00
0.000000000000000e+00 0.000000000000000e+00 0.000000000000000e+00
0.000000000000000e+00 0.000000000000000e+00 0.000000000000000e+00
0.000000000000000e+00 0.000000000000000e+00 0.000000000000000e+00
0.000000000000000e+00 0.000000000000000e+00 0.000000000000000e+00
0.000000000000000e+00 0.000000000000000e+00 0.000000000000000e+00
0.000000000000000e+00 0.000000000000000e+00 0.000000000000000e+00
0.000000000000000e+00 0.000000000000000e+00 0.000000000000000e+00
0.000000000000000e+00 0.000000000000000e+00 0.000000000000000e+00
0.000000000000000e+00 0.000000000000000e+00 0.000000000000000e+00
0.000000000000000e+00 0.000000000000000e+00 0.000000000000000e+00
0.000000000000000e+00 0.000000000000000e+00 0.000000000000000e+00
0.000000000000000e+00 0.000000000000000e+00 0.000000000000000e+00
0.000000000000000e+00 0.000000000000000e+00 0.000000000000000e+00
0.000000000000000e+00 0.000000000000000e+00 0.000000000000000e+00
0.000000000000000e+00 0.000000000000000e+00 0.000000000000000e+00
0.000000000000000e+00 0.000000000000000e+00 0.000000000000000e+00
0.000000000000000e+00 0.000000000000000e+00 0.000000000000000e+00
0.000000000000000e+00 0.000000000000000e+00 0.000000000000000e+00
0.000000000000000e+00 0.000000000000000e+00 0.000000000000000e+00
0.000000000000000e+00 0.000000000000000e+00 0.000000000000000e+00
0.000000000000000e+00 0.000000000000000e+00 0.000000000000000e+00
0.000000000000000e+00 0.000000000000000e+00 0.000000000000000e+00
0.000000000000000e+00 0.000000000000000e+00 0.000000000000000e+00
0.000000000000000e+00 0.000000000000000e+00 0.000000000000000e+00
0.000000000000000e+00 0.000000000000000e+00 0.000000000000000e+00
0.000000000000000e+00 0.000000000000000e+00 0.000000000000000e+00
0.000000000000000e+00 0.000000000000000e+00 0.000000000000000e+00
0.000000000000000e+00 0.000000000000000e+00 0.000000000000000e+00
0.000000000000000e+00 0.000000000000000e+00 0.000000000000000e+00
0.000000000000000e+00 0.000000000000000e+00 0.000000000000000e+00
0.000000000000000e+00 0.000000000000000e+00 0.000000000000000e+00
0.000000000000000e+00 0.000000000000000e+00 0.000000000000000e+00
0.000000000000000e+00 0.000000000000000e+00 0.000000000000000e+00
0.000000000000000e+00 0.000000000000000e+00 0.000000000000000e+00
0.000000000000000e+00 0.000000000000000e+00 0.000000000000000e+00
0.000000000000000e+00 0.000000000000000e+00 0.000000000000000e+00
0.000000000000000e+00 0.000000000000000e+00 0.000000000000000e+00
0.000000000000000e+00 0.000000000000000e+00 0.000000000000000e+00
0.000000000000000e+00 0.000000000000000e+00 0.000000000000000e+00
0.000000000000000e+00 0.000000000000000e+00 0.000000000000000e+00
0.000000000000000e+00 0.000000000000000e+00 0.000000000000000e+00
0.000000000000000e+00 0.000000000000000e+00 0.000000000000000e+00
0.000000000000000e+00 0.000000000000000e+00 0.000000000000000e+00
0.000000000000000e+00 0.000000000000000e+00 0.000000000000000e+00
0.000000000000000e+00 0.000000000000000e+00 0.000000000000000e+00
0.000000000000000e+00 0.000000000000000e+00 0.000000000000000e+00
0.000000000000000e+00 0.000000000000000e+00 0.000000000000000e+00
0.000000000000000e+00 0.000000000000000e+00 0.000000000000000e+00
0.000000000000000e+00 0.000000000000000e+00 0.000000000000000e+00
0.000000000000000e+00 0.000000000000000e+00 0.000000000000000e+00
0.000000000000000e+00 0.000000000000000e+00 0.000000000000000e+00
0.000000000000000e+00 0.000000000000000e+00 0.000000000000000e+00
0.000000000000000e+00 0.000000000000000e+00 0.000000000000000e+00
0.000000000000000e+00 0.000000000000000e+00 0.000000000000000e+00
0.000000000000000e+00 0.000000000000000e+00 0.000000000000000e+00
0.000000000000000e+00 0.000000000000000e+00 0.000000000000000e+00
0.000000000000000e+00 0.000000000000000e+00 0.000000000000000e+00
0.000000000000000e+00 0.000000000000000e+00 0.000000000000000e+00
0.000000000000000e+00 0.000000000000000e+00 0.000000000000000e+00
0.000000000000000e+00 0.000000000000000e+00 0.000000000000000e+00
0.000000000000000e+00 0.000000000000000e+00 0.000000000000000e+00
0.000000000000000e+00 0.000000000000000e+00 0.000000000000000e+00
0.000000000000000e+00 0.000000000000000e+00 0.000000000000000e+00
0.000000000000000e+00 0.000000000000000e+00 0.000000000000000e+00
0.000000000000000e+00 0.000000000000000e+00 0.000000000000000e+00
0.000000000000000e+00 0.000000000000000e+00 0.000000000000000e+00
0.000000000000000e+00 0.000000000000000e+00 0.000000000000000e+00
0.000000000000000e+00 0.000000000000000e+00 0.000000000000000e+00
0.000000000000000e+00 0.000000000000000e+00 0.000000000000000e+00
0.000000000000000e+00 0.000000000000000e+00 0.000000000000000e+00
0.000000000000000e+00 0.000000000000000e+00 0.000000000000000e+00
0.000000000000000e+00 0.000000000000000e+00 0.000000000000000e+00
0.000000000000000e+00 0.000000000000000e+00 0.000000000000000e+00
0.000000000000000e+00 0.000000000000000e+00 0.000000000000000e+00
0.000000000000000e+00 0.000000000000000e+00 0.000000000000000e+00
0.000000000000000e+00 0.000000000000000e+00 0.000000000000000e+00
0.000000000000000e+00 0.000000000000000e+00 0.000000000000000e+00
0.000000000000000e+00 0.000000000000000e+00 0.000000000000000e+00
0.000000000000000e+00 0.000000000000000e+00 0.000000000000000e+00
0.000000000000000e+00 0.000000000000000e+00 0.000000000000000e+00
0.000000000000000e+00 0.000000000000000e+00 0.000000000000000e+00
0.000000000000000e+00 0.000000000000000e+00 0.000000000000000e+00
0.000000000000000e+00 0.000000000000000e+00 0.000000000000000e+00
0.000000000000000e+00 0.000000000000000e+00 0.000000000000000e+00
0.000000000000000e+00 0.000000000000000e+00 0.000000000000000e+00
0.000000000000000e+00 0.000000000000000e+00 0.000000000000000e+00
0.000000000000000e+00 0.000000000000000e+00 0.000000000000000e+00
0.000000000000000e+00 0.000000000000000e+00 0.000000000000000e+00
0.000000000000000e+00 0.000000000000000e+00 0.000000000000000e+00
0.000000000000000e+00 0.000000000000000e+00 0.000000000000000e+00
0.000000000000000e+00 0.000000000000000e+00 0.000000000000000e+00
0.000000000000000e+00 0.000000000000000e+00 0.000000000000000e+00
0.000000000000000e+00 0.000000000000000e+00 0.000000000000000e+00
0.000000000000000e+00 0.000000000000000e+00 0.000000000000000e+00
0.000000000000000e+00 0.000000000000000e+00 0.000000000000000e+00
0.000000000000000e+00 0.000000000000000e+00 0.000000000000000e+00
0.000000000000000e+00 0.000000000000000e+00 0.000000000000000e+00
0.000000000000000e+00 0.000000000000000e+00 0.000000000000000e+00
0.000000000000000e+00 0.000000000000000e+00 0.000000000000000e+00
0.000000000000000e+00 0.000000000000000e+00 0.000000000000000e+00
0.000000000000000e+00 0.000000000000000e+00 0.000000000000000e+00
0.000000000000000e+00 0.000000000000000e+00 0.000000000000000e+00
0.000000000000000e+00 0.000000000000000e+00 0.000000000000000e+00
0.000000000000000e+00 0.000000000000000e+00 0.000000000000000e+00
0.000000000000000e+00 0.000000000000000e+00 0.000000000000000e+00
0.000000000000000e+00 0.000000000000000e+00 0.000000000000000e+00
0.000000000000000e+00 0.000000000000000e+00 0.000000000000000e+00
0.000000000000000e+00 0.000000000000000e+00 0.000000000000000e+00
0.000000000000000e+00 0.000000000000000e+00 0.000000000000000e+00
0.000000000000000e+00 0.000000000000000e+00 0.000000000000000e+00
0.000000000000000e+00 0.000000000000000e+00 0.000000000000000e+00
0.000000000000000e+00 0.000000000000000e+00 0.000000000000000e+00
0.000000000000000e+00 0.000000000000000e+00 0.000000000000000e+00
0.000000000000000e+00 0.000000000000000e+00 0.000000000000000e+00
0.000000000000000e+00 0.000000000000000e+00 0.000000000000000e+00
0.000000000000000e+00 0.000000000000000e+00 0.000000000000000e+00
0.000000000000000e+00 0.000000000000000e+00 0.000000000000000e+00
0.000000000000000e+00 0.000000000000000e+00 0.000000000000000e+00
0.000000000000000e+00 0.000000000000000e+00 0.000000000000000e+00
0.000000000000000e+00 0.000000000000000e+00 0.000000000000000e+00
0.000000000000000e+00 0.000000000000000e+00 0.000000000000000e+00
0.000000000000000e+00 0.000000000000000e+00 0.000000000000000e+00
0.000000000000000e+00 0.000000000000000e+00 0.000000000000000e+00
0.000000000000000e+00 0.000000000000000e+00 0.000000000000000e+00
0.000000000000000e+00 0.000000000000000e+00 0.000000000000000e+00
0.000000000000000e+00 0.000000000000000e+00 0.000000000000000e+00
0.000000000000000e+00 0.000000000000000e+00 0.000000000000000e+00
0.000000000000000e+00 0.000000000000000e+00 0.000000000000000e+00
0.000000000000000e+00 0.000000000000000e+00 0.000000000000000e+00
0.000000000000000e+00 0.000000000000000e+00 0.000000000000000e+00
0.000000000000000e+00 0.000000000000000e+00 0.000000000000000e+00
0.000000000000000e+00 0.000000000000000e+00 0.000000000000000e+00
0.000000000000000e+00 0.000000000000000e+00 0.000000000000000e+00
0.000000000000000e+00 0.000000000000000e+00 0.000000000000000e+00
0.000000000000000e+00 0.000000000000000e+00 0.000000000000000e+00
0.000000000000000e+00 0.000000000000000e+00 0.000000000000000e+00
0.000000000000000e+00 0.000000000000000e+00 0.000000000000000e+00
0.000000000000000e+00 0.000000000000000e+00 0.000000000000000e+00
0.000000000000000e+00 0.000000000000000e+00 0.000000000000000e+00
0.000000000000000e+00 0.000000000000000e+00 0.000000000000000e+00
0.000000000000000e+00 0.000000000000000e+00 0.000000000000000e+00
0.000000000000000e+00 0.000000000000000e+00 0.000000000000000e+00
0.000000000000000e+00 0.000000000000000e+00 0.000000000000000e+00
0.000000000000000e+00 0.000000000000000e+00 0.000000000000000e+00
0.000000000000000e+00 0.000000000000000e+00 0.000000000000000e+00
0.000000000000000e+00 0.000000000000000e+00 0.000000000000000e+00
0.000000000000000e+00 0.000000000000000e+00 0.000000000000000e+00
0.000000000000000e+00 0.000000000000000e+00 0.000000000000000e+00
0.000000000000000e+00 0.000000000000000e+00 0.000000000000000e+00
0.000000000000000e+00 0.000000000000000e+00 0.000000000000000e+00
0.000000000000000e+00 0.000000000000000e+00 0.000000000000000e+00
0.000000000000000e+00 0.000000000000000e+00 0.000000000000000e+00
0.000000000000000e+00 0.000000000000000e+00 0.000000000000000e+00
0.000000000000000e+00 0.000000000000000e+00 0.000000000000000e+00
0.000000000000000e+00 0.000000000000000e+00 0.000000000000000e+00
0.000000000000000e+00 0.000000000000000e+00 0.000000000000000e+00
0.000000000000000e+00 0.000000000000000e+00 0.000000000000000e+00
0.000000000000000e+00 0.000000000000000e+00 0.000000000000000e+00
0.000000000000000e+00 0.000000000000000e+00 0.000000000000000e+00
0.000000000000000e+00 0.000000000000000e+00 0.000000000000000e+00
0.000000000000000e+00 0.000000000000000e+00 0.000000000000000e+00
0.000000000000000e+00 0.000000000000000e+00 0.000000000000000e+00
0.000000000000000e+00 0.000000000000000e+00 0.000000000000000e+00
0.000000000000000e+00 0.000000000000000e+00 0.000000000000000e+00
0.000000000000000e+00 0.000000000000000e+00 0.000000000000000e+00
0.000000000000000e+00 0.000000000000000e+00 0.000000000000000e+00
0.000000000000000e+00 0.000000000000000e+00 0.000000000000000e+00
0.000000000000000e+00 0.000000000000000e+00 0.000000000000000e+00
0.000000000000000e+00 0.000000000000000e+00 0.000000000000000e+00
0.000000000000000e+00 0.000000000000000e+00 0.000000000000000e+00
0.000000000000000e+00 0.000000000000000e+00 0.000000000000000e+00
0.000000000000000e+00 0.000000000000000e+00 0.000000000000000e+00
0.000000000000000e+00 0.000000000000000e+00 0.000000000000000e+00
0.000000000000000e+00 0.000000000000000e+00 0.000000000000000e+00
0.000000000000000e+00 0.000000000000000e+00 0.000000000000000e+00
0.000000000000000e+00 0.000000000000000e+00 0.000000000000000e+00
0.000000000000000e+00 0.000000000000000e+00 0.000000000000000e+00
0.000000000000000e+00 0.000000000000000e+00 0.000000000000000e+00
0.000000000000000e+00 0.000000000000000e+00 0.000000000000000e+00
0.000000000000000e+00 0.000000000000000e+00 0.000000000000000e+00
0.000000000000000e+00 0.000000000000000e+00 0.000000000000000e+00
0.000000000000000e+00 0.000000000000000e+00 0.000000000000000e+00
0.000000000000000e+00 0.000000000000000e+00 0.000000000000000e+00
0.000000000000000e+00 0.000000000000000e+00 0.000000000000000e+00
0.000000000000000e+00 0.000000000000000e+00 0.000000000000000e+00
0.000000000000000e+00 0.000000000000000e+00 0.000000000000000e+00
0.000000000000000e+00 0.000000000000000e+00 0.000000000000000e+00
0.000000000000000e+00 0.000000000000000e+00 0.000000000000000e+00
0.000000000000000e+00 0.000000000000000e+00 0.000000000000000e+00
0.000000000000000e+00 0.000000000000000e+00 0.000000000000000e+00
0.000000000000000e+00 0.000000000000000e+00 0.000000000000000e+00
0.000000000000000e+00 0.000000000000000e+00 0.000000000000000e+00
0.000000000000000e+00 0.000000000000000e+00 0.000000000000000e+00
0.000000000000000e+00 0.000000000000000e+00 0.000000000000000e+00
0.000000000000000e+00 0.000000000000000e+00 0.000000000000000e+00
0.000000000000000e+00 0.000000000000000e+00 0.000000000000000e+00
0.000000000000000e+00 0.000000000000000e+00 0.000000000000000e+00
0.000000000000000e+00 0.000000000000000e+00 0.000000000000000e+00
0.000000000000000e+00 0.000000000000000e+00 0.000000000000000e+00
0.000000000000000e+00 0.000000000000000e+00 0.000000000000000e+00
0.000000000000000e+00 0.000000000000000e+00 0.000000000000000e+00
0.000000000000000e+00 0.000000000000000e+00 0.000000000000000e+00
0.000000000000000e+00 0.000000000000000e+00 0.000000000000000e+00
0.000000000000000e+00 0.000000000000000e+00 0.000000000000000e+00
0.000000000000000e+00 0.000000000000000e+00 0.000000000000000e+00
0.000000000000000e+00 0.000000000000000e+00 0.000000000000000e+00
0.000000000000000e+00 0.000000000000000e+00 0.000000000000000e+00
0.000000000000000e+00 0.000000000000000e+00 0.000000000000000e+00
0.000000000000000e+00 0.000000000000000e+00 0.000000000000000e+00
0.000000000000000e+00 0.000000000000000e+00 0.000000000000000e+00
0.000000000000000e+00 0.000000000000000e+00 0.000000000000000e+00
0.000000000000000e+00 0.000000000000000e+00 0.000000000000000e+00
0.000000000000000e+00 0.000000000000000e+00 0.000000000000000e+00
0.000000000000000e+00 0.000000000000000e+00 0.000000000000000e+00
0.000000000000000e+00 0.000000000000000e+00 0.000000000000000e+00
0.000000000000000e+00 0.000000000000000e+00 0.000000000000000e+00
0.000000000000000e+00 0.000000000000000e+00 0.000000000000000e+00
0.000000000000000e+00 0.000000000000000e+00 0.000000000000000e+00
0.000000000000000e+00 0.000000000000000e+00 0.000000000000000e+00
0.000000000000000e+00 0.000000000000000e+00 0.000000000000000e+00
0.000000000000000e+00 0.000000000000000e+00 0.000000000000000e+00
0.000000000000000e+00 0.000000000000000e+00 0.000000000000000e+00
0.000000000000000e+00 0.000000000000000e+00 0.000000000000000e+00
0.000000000000000e+00 0.000000000000000e+00 0.000000000000000e+00
0.000000000000000e+00 0.000000000000000e+00 0.000000000000000e+00
0.000000000000000e+00 0.000000000000000e+00 0.000000000000000e+00
0.000000000000000e+00 0.000000000000000e+00 0.000000000000000e+00
0.000000000000000e+00 0.000000000000000e+00 0.000000000000000e+00
0.000000000000000e+00 0.000000000000000e+00 0.000000000000000e+00
0.000000000000000e+00 0.000000000000000e+00 0.000000000000000e+00
0.000000000000000e+00 0.000000000000000e+00 0.000000000000000e+00
0.000000000000000e+00 0.000000000000000e+00 0.000000000000000e+00
0.000000000000000e+00 0.000000000000000e+00 0.000000000000000e+00
0.000000000000000e+00 0.000000000000000e+00 0.000000000000000e+00
0.000000000000000e+00 0.000000000000000e+00 0.000000000000000e+00
0.000000000000000e+00 0.000000000000000e+00 0.000000000000000e+00
0.000000000000000e+00 0.000000000000000e+00 0.000000000000000e+00
0.000000000000000e+00 0.000000000000000e+00 0.000000000000000e+00
0.000000000000000e+00 0.000000000000000e+00 0.000000000000000e+00
0.000000000000000e+00 0.000000000000000e+00 0.000000000000000e+00
0.000000000000000e+00 0.000000000000000e+00 0.000000000000000e+00
0.000000000000000e+00 0.000000000000000e+00 0.000000000000000e+00
0.000000000000000e+00 0.000000000000000e+00 0.000000000000000e+00
0.000000000000000e+00 0.000000000000000e+00 0.000000000000000e+00
0.000000000000000e+00 0.000000000000000e+00 0.000000000000000e+00
0.000000000000000e+00 0.000000000000000e+00 0.000000000000000e+00
0.000000000000000e+00 0.000000000000000e+00 0.000000000000000e+00
0.000000000000000e+00 0.000000000000000e+00 0.000000000000000e+00
0.000000000000000e+00 0.000000000000000e+00 0.000000000000000e+00
0.000000000000000e+00 0.000000000000000e+00 0.000000000000000e+00
0.000000000000000e+00 0.000000000000000e+00 0.000000000000000e+00
0.000000000000000e+00 0.000000000000000e+00 0.000000000000000e+00
0.000000000000000e+00 0.000000000000000e+00 0.000000000000000e+00
0.000000000000000e+00 0.000000000000000e+00 0.000000000000000e+00
0.000000000000000e+00 0.000000000000000e+00 0.000000000000000e+00
0.000000000000000e+00 0.000000000000000e+00 0.000000000000000e+00
0.000000000000000e+00 0.000000000000000e+00 0.000000000000000e+00
0.000000000000000e+00 0.000000000000000e+00 0.000000000000000e+00
0.000000000000000e+00 0.000000000000000e+00 0.000000000000000e+00
0.000000000000000e+00 0.000000000000000e+00 0.000000000000000e+00
0.000000000000000e+00 0.000000000000000e+00 0.000000000000000e+00
0.000000000000000e+00 0.000000000000000e+00 0.000000000000000e+00
0.000000000000000e+00 0.000000000000000e+00 0.000000000000000e+00
0.000000000000000e+00 0.000000000000000e+00 0.000000000000000e+00
0.000000000000000e+00 0.000000000000000e+00 0.000000000000000e+00
0.000000000000000e+00 0.000000000000000e+00 0.000000000000000e+00
0.000000000000000e+00 0.000000000000000e+00 0.000000000000000e+00
0.000000000000000e+00 0.000000000000000e+00 0.000000000000000e+00
0.000000000000000e+00 0.000000000000000e+00 0.000000000000000e+00
0.000000000000000e+00 0.000000000000000e+00 0.000000000000000e+00
0.000000000000000e+00 0.000000000000000e+00 0.000000000000000e+00
0.000000000000000e+00 0.000000000000000e+00 0.000000000000000e+00
0.000000000000000e+00 0.000000000000000e+00 0.000000000000000e+00
0.000000000000000e+00 0.000000000000000e+00 0.000000000000000e+00
0.000000000000000e+00 0.000000000000000e+00 0.000000000000000e+00
0.000000000000000e+00 0.000000000000000e+00 0.000000000000000e+00
0.000000000000000e+00 0.000000000000000e+00 0.000000000000000e+00
0.000000000000000e+00 0.000000000000000e+00 0.000000000000000e+00
0.000000000000000e+00 0.000000000000000e+00 0.000000000000000e+00
0.000000000000000e+00 0.000000000000000e+00 0.000000000000000e+00
0.000000000000000e+00 0.000000000000000e+00 0.000000000000000e+00
0.000000000000000e+00 0.000000000000000e+00 0.000000000000000e+00
0.000000000000000e+00 0.000000000000000e+00 0.000000000000000e+00
0.000000000000000e+00 0.000000000000000e+00 0.000000000000000e+00
0.000000000000000e+00 0.000000000000000e+00 0.000000000000000e+00
0.000000000000000e+00 0.000000000000000e+00 0.000000000000000e+00
0.000000000000000e+00 0.000000000000000e+00 0.000000000000000e+00
0.000000000000000e+00 0.000000000000000e+00 0.000000000000000e+00
0.000000000000000e+00 0.000000000000000e+00 0.000000000000000e+00
0.000000000000000e+00 0.000000000000000e+00 0.000000000000000e+00
0.000000000000000e+00 0.000000000000000e+00 0.000000000000000e+00
0.000000000000000e+00 0.000000000000000e+00 0.000000000000000e+00
0.000000000000000e+00 0.000000000000000e+00 0.000000000000000e+00
0.000000000000000e+00 0.000000000000000e+00 0.000000000000000e+00
0.000000000000000e+00 0.000000000000000e+00 0.000000000000000e+00
0.000000000000000e+00 0.000000000000000e+00 0.000000000000000e+00
0.000000000000000e+00 0.000000000000000e+00 0.000000000000000e+00
0.000000000000000e+00 0.000000000000000e+00 0.000000000000000e+00
0.000000000000000e+00 0.000000000000000e+00 0.000000000000000e+00
0.000000000000000e+00 0.000000000000000e+00 0.000000000000000e+00
0.000000000000000e+00 0.000000000000000e+00 0.000000000000000e+00
0.000000000000000e+00 0.000000000000000e+00 0.000000000000000e+00
0.000000000000000e+00 0.000000000000000e+00 0.000000000000000e+00
0.000000000000000e+00 0.000000000000000e+00 0.000000000000000e+00
0.000000000000000e+00 0.000000000000000e+00 0.000000000000000e+00
0.000000000000000e+00 0.000000000000000e+00 0.000000000000000e+00
0.000000000000000e+00 0.000000000000000e+00 0.000000000000000e+00
0.000000000000000e+00 0.000000000000000e+00 0.000000000000000e+00
0.000000000000000e+00 0.000000000000000e+00 0.000000000000000e+00
0.000000000000000e+00 0.000000000000000e+00 0.000000000000000e+00
0.000000000000000e+00 0.000000000000000e+00 0.000000000000000e+00
0.000000000000000e+00 0.000000000000000e+00 0.000000000000000e+00
0.000000000000000e+00 0.000000000000000e+00 0.000000000000000e+00
0.000000000000000e+00 0.000000000000000e+00 0.000000000000000e+00
0.000000000000000e+00 0.000000000000000e+00 0.000000000000000e+00
0.000000000000000e+00 0.000000000000000e+00 0.000000000000000e+00
0.000000000000000e+00 0.000000000000000e+00 0.000000000000000e+00
0.000000000000000e+00 0.000000000000000e+00 0.000000000000000e+00
0.000000000000000e+00 0.000000000000000e+00 0.000000000000000e+00
0.000000000000000e+00 0.000000000000000e+00 0.000000000000000e+00
0.000000000000000e+00 0.000000000000000e+00 0.000000000000000e+00
0.000000000000000e+00 0.000000000000000e+00 0.000000000000000e+00
0.000000000000000e+00 0.000000000000000e+00 0.000000000000000e+00
0.000000000000000e+00 0.000000000000000e+00 0.000000000000000e+00
0.000000000000000e+00 0.000000000000000e+00 0.000000000000000e+00
0.000000000000000e+00 0.000000000000000e+00 0.000000000000000e+00
0.000000000000000e+00 0.000000000000000e+00 0.000000000000000e+00
0.000000000000000e+00 0.000000000000000e+00 0.000000000000000e+00
0.000000000000000e+00 0.000000000000000e+00 0.000000000000000e+00
0.000000000000000e+00 0.000000000000000e+00 0.000000000000000e+00
0.000000000000000e+00 0.000000000000000e+00 0.000000000000000e+00
0.000000000000000e+00 0.000000000000000e+00 0.000000000000000e+00
0.000000000000000e+00 0.000000000000000e+00 0.000000000000000e+00
0.000000000000000e+00 0.000000000000000e+00 0.000000000000000e+00
0.000000000000000e+00 0.000000000000000e+00 0.000000000000000e+00
0.000000000000000e+00 0.000000000000000e+00 0.000000000000000e+00
0.000000000000000e+00 0.000000000000000e+00 0.000000000000000e+00
0.000000000000000e+00 0.000000000000000e+00 0.000000000000000e+00
0.000000000000000e+00 0.000000000000000e+00 0.000000000000000e+00
0.000000000000000e+00 0.000000000000000e+00 0.000000000000000e+00
0.000000000000000e+00 0.000000000000000e+00 0.000000000000000e+00
0.000000000000000e+00 0.000000000000000e+00 0.000000000000000e+00
0.000000000000000e+00 0.000000000000000e+00 0.000000000000000e+00
0.000000000000000e+00 0.000000000000000e+00 0.000000000000000e+00
0.000000000000000e+00 0.000000000000000e+00 0.000000000000000e+00
0.000000000000000e+00 0.000000000000000e+00 0.000000000000000e+00
0.000000000000000e+00 0.000000000000000e+00 0.000000000000000e+00
0.000000000000000e+00 0.000000000000000e+00 0.000000000000000e+00
0.000000000000000e+00 0.000000000000000e+00 0.000000000000000e+00
0.000000000000000e+00 0.000000000000000e+00 0.000000000000000e+00
0.000000000000000e+00 0.000000000000000e+00 0.000000000000000e+00
0.000000000000000e+00 0.000000000000000e+00 0.000000000000000e+00
0.000000000000000e+00 0.000000000000000e+00 0.000000000000000e+00
0.000000000000000e+00 0.000000000000000e+00 0.000000000000000e+00
0.000000000000000e+00 0.000000000000000e+00 0.000000000000000e+00
0.000000000000000e+00 0.000000000000000e+00 0.000000000000000e+00
0.000000000000000e+00 0.000000000000000e+00 0.000000000000000e+00
0.000000000000000e+00 0.000000000000000e+00 0.000000000000000e+00
0.000000000000000e+00 0.000000000000000e+00 0.000000000000000e+00
0.000000000000000e+00 0.000000000000000e+00 0.000000000000000e+00
0.000000000000000e+00 0.000000000000000e+00 0.000000000000000e+00
0.000000000000000e+00 0.000000000000000e+00 0.000000000000000e+00
0.000000000000000e+00 0.000000000000000e+00 0.000000000000000e+00
0.000000000000000e+00 0.000000000000000e+00 0.000000000000000e+00
0.000000000000000e+00 0.000000000000000e+00 0.000000000000000e+00
0.000000000000000e+00 0.000000000000000e+00 0.000000000000000e+00
0.000000000000000e+00 0.000000000000000e+00 0.000000000000000e+00
0.000000000000000e+00 0.000000000000000e+00 0.000000000000000e+00
0.000000000000000e+00 0.000000000000000e+00 0.000000000000000e+00
0.000000000000000e+00 0.000000000000000e+00 0.000000000000000e+00
0.000000000000000e+00 0.000000000000000e+00 0.000000000000000e+00
0.000000000000000e+00 0.000000000000000e+00 0.000000000000000e+00
0.000000000000000e+00 0.000000000000000e+00 0.000000000000000e+00
0.000000000000000e+00 0.000000000000000e+00 0.000000000000000e+00
0.000000000000000e+00 0.000000000000000e+00 0.000000000000000e+00
0.000000000000000e+00 0.000000000000000e+00 0.000000000000000e+00
0.000000000000000e+00 0.000000000000000e+00 0.000000000000000e+00
0.000000000000000e+00 0.000000000000000e+00 0.000000000000000e+00
0.000000000000000e+00 0.000000000000000e+00 0.000000000000000e+00
0.000000000000000e+00 0.000000000000000e+00 0.000000000000000e+00
0.000000000000000e+00 0.000000000000000e+00 0.000000000000000e+00
0.000000000000000e+00 0.000000000000000e+00 0.000000000000000e+00
0.000000000000000e+00 0.000000000000000e+00 0.000000000000000e+00
0.000000000000000e+00 0.000000000000000e+00 0.000000000000000e+00
0.000000000000000e+00 0.000000000000000e+00 0.000000000000000e+00
0.000000000000000e+00 0.000000000000000e+00 0.000000000000000e+00
0.000000000000000e+00 0.000000000000000e+00 0.000000000000000e+00
0.000000000000000e+00 0.000000000000000e+00 0.000000000000000e+00
0.000000000000000e+00 0.000000000000000e+00 0.000000000000000e+00
0.000000000000000e+00 0.000000000000000e+00 0.000000000000000e+00
0.000000000000000e+00 0.000000000000000e+00 0.000000000000000e+00
0.000000000000000e+00 0.000000000000000e+00 0.000000000000000e+00
0.000000000000000e+00 0.000000000000000e+00 0.000000000000000e+00
0.000000000000000e+00 0.000000000000000e+00 0.000000000000000e+00
0.000000000000000e+00 0.000000000000000e+00 0.000000000000000e+00
0.000000000000000e+00 0.000000000000000e+00 0.000000000000000e+00
0.000000000000000e+00 0.000000000000000e+00 0.000000000000000e+00
0.000000000000000e+00 0.000000000000000e+00 0.000000000000000e+00
0.000000000000000e+00 0.000000000000000e+00 0.000000000000000e+00
0.000000000000000e+00 0.000000000000000e+00 0.000000000000000e+00
0.000000000000000e+00 0.000000000000000e+00 0.000000000000000e+00
0.000000000000000e+00 0.000000000000000e+00 0.000000000000000e+00
0.000000000000000e+00 0.000000000000000e+00 0.000000000000000e+00
0.000000000000000e+00 0.000000000000000e+00 0.000000000000000e+00
0.000000000000000e+00 0.000000000000000e+00 0.000000000000000e+00
0.000000000000000e+00 0.000000000000000e+00 0.000000000000000e+00
0.000000000000000e+00 0.000000000000000e+00 0.000000000000000e+00
0.000000000000000e+00 0.000000000000000e+00 0.000000000000000e+00
0.000000000000000e+00 0.000000000000000e+00 0.000000000000000e+00
0.000000000000000e+00 0.000000000000000e+00 0.000000000000000e+00
0.000000000000000e+00 0.000000000000000e+00 0.000000000000000e+00
0.000000000000000e+00 0.000000000000000e+00 0.000000000000000e+00
0.000000000000000e+00 0.000000000000000e+00 0.000000000000000e+00
0.000000000000000e+00 0.000000000000000e+00 0.000000000000000e+00
0.000000000000000e+00 0.000000000000000e+00 0.000000000000000e+00
0.000000000000000e+00 0.000000000000000e+00 0.000000000000000e+00
0.000000000000000e+00 0.000000000000000e+00 0.000000000000000e+00
0.000000000000000e+00 0.000000000000000e+00 0.000000000000000e+00
0.000000000000000e+00 0.000000000000000e+00 0.000000000000000e+00
0.000000000000000e+00 0.000000000000000e+00 0.000000000000000e+00
0.000000000000000e+00 0.000000000000000e+00 0.000000000000000e+00
0.000000000000000e+00 0.000000000000000e+00 0.000000000000000e+00
0.000000000000000e+00 0.000000000000000e+00 0.000000000000000e+00
0.000000000000000e+00 0.000000000000000e+00 0.000000000000000e+00
0.000000000000000e+00 0.000000000000000e+00 0.000000000000000e+00
0.000000000000000e+00 0.000000000000000e+00 0.000000000000000e+00
0.000000000000000e+00 0.000000000000000e+00 0.000000000000000e+00
0.000000000000000e+00 0.000000000000000e+00 0.000000000000000e+00
0.000000000000000e+00 0.000000000000000e+00 0.000000000000000e+00
0.000000000000000e+00 0.000000000000000e+00 0.000000000000000e+00
0.000000000000000e+00 0.000000000000000e+00 0.000000000000000e+00
0.000000000000000e+00 0.000000000000000e+00 0.000000000000000e+00
0.000000000000000e+00 0.000000000000000e+00 0.000000000000000e+00
0.000000000000000e+00 0.000000000000000e+00 0.000000000000000e+00
0.000000000000000e+00 0.000000000000000e+00 0.000000000000000e+00
0.000000000000000e+00 0.000000000000000e+00 0.000000000000000e+00
0.000000000000000e+00 0.000000000000000e+00 0.000000000000000e+00
0.000000000000000e+00 0.000000000000000e+00 0.000000000000000e+00
0.000000000000000e+00 0.000000000000000e+00 0.000000000000000e+00
0.000000000000000e+00 0.000000000000000e+00 0.000000000000000e+00
0.000000000000000e+00 0.000000000000000e+00 0.000000000000000e+00
0.000000000000000e+00 0.000000000000000e+00 0.000000000000000e+00
0.000000000000000e+00 0.000000000000000e+00 0.000000000000000e+00
0.000000000000000e+00 0.000000000000000e+00 0.000000000000000e+00
0.000000000000000e+00 0.000000000000000e+00 0.000000000000000e+00
0.000000000000000e+00 0.000000000000000e+00 0.000000000000000e+00
0.000000000000000e+00 0.000000000000000e+00 0.000000000000000e+00
0.000000000000000e+00 0.000000000000000e+00 0.000000000000000e+00
0.000000000000000e+00 0.000000000000000e+00 0.000000000000000e+00
0.000000000000000e+00 0.000000000000000e+00 0.000000000000000e+00
0.000000000000000e+00 0.000000000000000e+00 0.000000000000000e+00
0.000000000000000e+00 0.000000000000000e+00 0.000000000000000e+00
0.000000000000000e+00 0.000000000000000e+00 0.000000000000000e+00
0.000000000000000e+00 0.000000000000000e+00 0.000000000000000e+00
0.000000000000000e+00 0.000000000000000e+00 0.000000000000000e+00
0.000000000000000e+00 0.000000000000000e+00 0.000000000000000e+00
0.000000000000000e+00 0.000000000000000e+00 0.000000000000000e+00
0.000000000000000e+00 0.000000000000000e+00 0.000000000000000e+00
0.000000000000000e+00 0.000000000000000e+00 0.000000000000000e+00
0.000000000000000e+00 0.000000000000000e+00 0.000000000000000e+00
0.000000000000000e+00 0.000000000000000e+00 0.000000000000000e+00
0.000000000000000e+00 0.000000000000000e+00 0.000000000000000e+00
0.000000000000000e+00 0.000000000000000e+00 0.000000000000000e+00
0.000000000000000e+00 0.000000000000000e+00 0.000000000000000e+00
0.000000000000000e+00 0.000000000000000e+00 0.000000000000000e+00
0.000000000000000e+00 0.000000000000000e+00 0.000000000000000e+00
0.000000000000000e+00 0.000000000000000e+00 0.000000000000000e+00
0.000000000000000e+00 0.000000000000000e+00 0.000000000000000e+00
0.000000000000000e+00 0.000000000000000e+00 0.000000000000000e+00
0.000000000000000e+00 0.000000000000000e+00 0.000000000000000e+00
0.000000000000000e+00 0.000000000000000e+00 0.000000000000000e+00
0.000000000000000e+00 0.000000000000000e+00 0.000000000000000e+00
0.000000000000000e+00 0.000000000000000e+00 0.000000000000000e+00
0.000000000000000e+00 0.000000000000000e+00 0.000000000000000e+00
0.000000000000000e+00 0.000000000000000e+00 0.000000000000000e+00
0.000000000000000e+00 0.000000000000000e+00 0.000000000000000e+00
0.000000000000000e+00 0.000000000000000e+00 0.000000000000000e+00
0.000000000000000e+00 0.000000000000000e+00 0.000000000000000e+00
0.000000000000000e+00 0.000000000000000e+00 0.000000000000000e+00
0.000000000000000e+00 0.000000000000000e+00 0.000000000000000e+00
0.000000000000000e+00 0.000000000000000e+00 0.000000000000000e+00
0.000000000000000e+00 0.000000000000000e+00 0.000000000000000e+00
0.000000000000000e+00 0.000000000000000e+00 0.000000000000000e+00
0.000000000000000e+00 0.000000000000000e+00 0.000000000000000e+00
0.000000000000000e+00 0.000000000000000e+00 0.000000000000000e+00
0.000000000000000e+00 0.000000000000000e+00 0.000000000000000e+00
0.000000000000000e+00 0.000000000000000e+00 0.000000000000000e+00
0.000000000000000e+00 0.000000000000000e+00 0.000000000000000e+00
0.000000000000000e+00 0.000000000000000e+00 0.000000000000000e+00
0.000000000000000e+00 0.000000000000000e+00 0.000000000000000e+00
0.000000000000000e+00 0.000000000000000e+00 0.000000000000000e+00
0.000000000000000e+00 0.000000000000000e+00 0.000000000000000e+00
0.000000000000000e+00 0.000000000000000e+00 0.000000000000000e+00
0.000000000000000e+00 0.000000000000000e+00 0.000000000000000e+00
0.000000000000000e+00 0.000000000000000e+00 0.000000000000000e+00
0.000000000000000e+00 0.000000000000000e+00 0.000000000000000e+00
0.000000000000000e+00 0.000000000000000e+00 0.000000000000000e+00
0.000000000000000e+00 0.000000000000000e+00 0.000000000000000e+00
0.000000000000000e+00 0.000000000000000e+00 0.000000000000000e+00
0.000000000000000e+00 0.000000000000000e+00 0.000000000000000e+00
0.000000000000000e+00 0.000000000000000e+00 0.000000000000000e+00
0.000000000000000e+00 0.000000000000000e+00 0.000000000000000e+00
0.000000000000000e+00 0.000000000000000e+00 0.000000000000000e+00
0.000000000000000e+00 0.000000000000000e+00 0.000000000000000e+00
0.000000000000000e+00 0.000000000000000e+00 0.000000000000000e+00
0.000000000000000e+00 0.000000000000000e+00 0.000000000000000e+00
0.000000000000000e+00 0.000000000000000e+00 0.000000000000000e+00
0.000000000000000e+00 0.000000000000000e+00 0.000000000000000e+00
0.000000000000000e+00 0.000000000000000e+00 0.000000000000000e+00
0.000000000000000e+00 0.000000000000000e+00 0.000000000000000e+00
0.000000000000000e+00 0.000000000000000e+00 0.000000000000000e+00
0.000000000000000e+00 0.000000000000000e+00 0.000000000000000e+00
0.000000000000000e+00 0.000000000000000e+00 0.000000000000000e+00
0.000000000000000e+00 0.000000000000000e+00 0.000000000000000e+00
0.000000000000000e+00 0.000000000000000e+00 0.000000000000000e+00
0.000000000000000e+00 0.000000000000000e+00 0.000000000000000e+00
0.000000000000000e+00 0.000000000000000e+00 0.000000000000000e+00
0.000000000000000e+00 0.000000000000000e+00 0.000000000000000e+00
0.000000000000000e+00 0.000000000000000e+00 0.000000000000000e+00
0.000000000000000e+00 0.000000000000000e+00 0.000000000000000e+00
0.000000000000000e+00 0.000000000000000e+00 0.000000000000000e+00
0.000000000000000e+00 0.000000000000000e+00 0.000000000000000e+00
0.000000000000000e+00 0.000000000000000e+00 0.000000000000000e+00
0.000000000000000e+00 0.000000000000000e+00 0.000000000000000e+00
0.000000000000000e+00 0.000000000000000e+00 0.000000000000000e+00
0.000000000000000e+00 0.000000000000000e+00 0.000000000000000e+00
0.000000000000000e+00 0.000000000000000e+00 0.000000000000000e+00
0.000000000000000e+00 0.000000000000000e+00 0.000000000000000e+00
0.000000000000000e+00 0.000000000000000e+00 0.000000000000000e+00
0.000000000000000e+00 0.000000000000000e+00 0.000000000000000e+00
0.000000000000000e+00 0.000000000000000e+00 0.000000000000000e+00
0.000000000000000e+00 0.000000000000000e+00 0.000000000000000e+00
0.000000000000000e+00 0.000000000000000e+00 0.000000000000000e+00
0.000000000000000e+00 0.000000000000000e+00 0.000000000000000e+00
0.000000000000000e+00 0.000000000000000e+00 0.000000000000000e+00
0.000000000000000e+00 0.000000000000000e+00 0.000000000000000e+00
0.000000000000000e+00 0.000000000000000e+00 0.000000000000000e+00
0.000000000000000e+00 0.000000000000000e+00 0.000000000000000e+00
0.000000000000000e+00 0.000000000000000e+00 0.000000000000000e+00
0.000000000000000e+00 0.000000000000000e+00 0.000000000000000e+00
0.000000000000000e+00 0.000000000000000e+00 0.000000000000000e+00
0.000000000000000e+00 0.000000000000000e+00 0.000000000000000e+00
0.000000000000000e+00 0.000000000000000e+00 0.000000000000000e+00
0.000000000000000e+00 0.000000000000000e+00 0.000000000000000e+00
0.000000000000000e+00 0.000000000000000e+00 0.000000000000000e+00
0.000000000000000e+00 0.000000000000000e+00 0.000000000000000e+00
0.000000000000000e+00 0.000000000000000e+00 0.000000000000000e+00
0.000000000000000e+00 0.000000000000000e+00 0.000000000000000e+00
0.000000000000000e+00 0.000000000000000e+00 0.000000000000000e+00
0.000000000000000e+00 0.000000000000000e+00 0.000000000000000e+00
0.000000000000000e+00 0.000000000000000e+00 0.000000000000000e+00
0.000000000000000e+00 0.000000000000000e+00 0.000000000000000e+00
0.000000000000000e+00 0.000000000000000e+00 0.000000000000000e+00
0.000000000000000e+00 0.000000000000000e+00 0.000000000000000e+00
0.000000000000000e+00 0.000000000000000e+00 0.000000000000000e+00
0.000000000000000e+00 0.000000000000000e+00 0.000000000000000e+00
0.000000000000000e+00 0.000000000000000e+00 0.000000000000000e+00
0.000000000000000e+00 0.000000000000000e+00 0.000000000000000e+00
0.000000000000000e+00 0.000000000000000e+00 0.000000000000000e+00
0.000000000000000e+00 0.000000000000000e+00 0.000000000000000e+00
0.000000000000000e+00 0.000000000000000e+00 0.000000000000000e+00
0.000000000000000e+00 0.000000000000000e+00 0.000000000000000e+00
0.000000000000000e+00 0.000000000000000e+00 0.000000000000000e+00
0.000000000000000e+00 0.000000000000000e+00 0.000000000000000e+00
0.000000000000000e+00 0.000000000000000e+00 0.000000000000000e+00
0.000000000000000e+00 0.000000000000000e+00 0.000000000000000e+00
0.000000000000000e+00 0.000000000000000e+00 0.000000000000000e+00
0.000000000000000e+00 0.000000000000000e+00 0.000000000000000e+00
0.000000000000000e+00 0.000000000000000e+00 0.000000000000000e+00
0.000000000000000e+00 0.000000000000000e+00 0.000000000000000e+00
0.000000000000000e+00 0.000000000000000e+00 0.000000000000000e+00
0.000000000000000e+00 0.000000000000000e+00 0.000000000000000e+00
0.000000000000000e+00 0.000000000000000e+00 0.000000000000000e+00
0.000000000000000e+00 0.000000000000000e+00 0.000000000000000e+00
0.000000000000000e+00 0.000000000000000e+00 0.000000000000000e+00
0.000000000000000e+00 0.000000000000000e+00 0.000000000000000e+00
0.000000000000000e+00 0.000000000000000e+00 0.000000000000000e+00
0.000000000000000e+00 0.000000000000000e+00 0.000000000000000e+00
0.000000000000000e+00 0.000000000000000e+00 0.000000000000000e+00
0.000000000000000e+00 0.000000000000000e+00 0.000000000000000e+00
0.000000000000000e+00 0.000000000000000e+00 0.000000000000000e+00
0.000000000000000e+00 0.000000000000000e+00 0.000000000000000e+00
0.000000000000000e+00 0.000000000000000e+00 0.000000000000000e+00
0.000000000000000e+00 0.000000000000000e+00 0.000000000000000e+00
0.000000000000000e+00 0.000000000000000e+00 0.000000000000000e+00
0.000000000000000e+00 0.000000000000000e+00 0.000000000000000e+00
0.000000000000000e+00 0.000000000000000e+00 0.000000000000000e+00
0.000000000000000e+00 0.000000000000000e+00 0.000000000000000e+00
0.000000000000000e+00 0.000000000000000e+00 0.000000000000000e+00
0.000000000000000e+00 0.000000000000000e+00 0.000000000000000e+00
0.000000000000000e+00 0.000000000000000e+00 0.000000000000000e+00
0.000000000000000e+00 0.000000000000000e+00 0.000000000000000e+00
0.000000000000000e+00 0.000000000000000e+00 0.000000000000000e+00
0.000000000000000e+00 0.000000000000000e+00 0.000000000000000e+00
0.000000000000000e+00 0.000000000000000e+00 0.000000000000000e+00
0.000000000000000e+00 0.000000000000000e+00 0.000000000000000e+00
0.000000000000000e+00 0.000000000000000e+00 0.000000000000000e+00
0.000000000000000e+00 0.000000000000000e+00 0.000000000000000e+00
0.000000000000000e+00 0.000000000000000e+00 0.000000000000000e+00
0.000000000000000e+00 0.000000000000000e+00 0.000000000000000e+00
0.000000000000000e+00 0.000000000000000e+00 0.000000000000000e+00
0.000000000000000e+00 0.000000000000000e+00 0.000000000000000e+00
0.000000000000000e+00 0.000000000000000e+00 0.000000000000000e+00
0.000000000000000e+00 0.000000000000000e+00 0.000000000000000e+00
0.000000000000000e+00 0.000000000000000e+00 0.000000000000000e+00
0.000000000000000e+00 0.000000000000000e+00 0.000000000000000e+00
0.000000000000000e+00 0.000000000000000e+00 0.000000000000000e+00
0.000000000000000e+00 0.000000000000000e+00 0.000000000000000e+00
0.000000000000000e+00 0.000000000000000e+00 0.000000000000000e+00
0.000000000000000e+00 0.000000000000000e+00 0.000000000000000e+00
0.000000000000000e+00 0.000000000000000e+00 0.000000000000000e+00
0.000000000000000e+00 0.000000000000000e+00 0.000000000000000e+00
0.000000000000000e+00 0.000000000000000e+00 0.000000000000000e+00
0.000000000000000e+00 0.000000000000000e+00 0.000000000000000e+00
0.000000000000000e+00 0.000000000000000e+00 0.000000000000000e+00
0.000000000000000e+00 0.000000000000000e+00 0.000000000000000e+00
0.000000000000000e+00 0.000000000000000e+00 0.000000000000000e+00
0.000000000000000e+00 0.000000000000000e+00 0.000000000000000e+00
0.000000000000000e+00 0.000000000000000e+00 0.000000000000000e+00
0.000000000000000e+00 0.000000000000000e+00 0.000000000000000e+00
0.000000000000000e+00 0.000000000000000e+00 0.000000000000000e+00
0.000000000000000e+00 0.000000000000000e+00 0.000000000000000e+00
0.000000000000000e+00 0.000000000000000e+00 0.000000000000000e+00
0.000000000000000e+00 0.000000000000000e+00 0.000000000000000e+00
0.000000000000000e+00 0.000000000000000e+00 0.000000000000000e+00
0.000000000000000e+00 0.000000000000000e+00 0.000000000000000e+00
0.000000000000000e+00 0.000000000000000e+00 0.000000000000000e+00
0.000000000000000e+00 0.000000000000000e+00 0.000000000000000e+00
0.000000000000000e+00 0.000000000000000e+00 0.000000000000000e+00
0.000000000000000e+00 0.000000000000000e+00 0.000000000000000e+00
0.000000000000000e+00 0.000000000000000e+00 0.000000000000000e+00
0.000000000000000e+00 0.000000000000000e+00 0.000000000000000e+00
0.000000000000000e+00 0.000000000000000e+00 0.000000000000000e+00
0.000000000000000e+00 0.000000000000000e+00 0.000000000000000e+00
0.000000000000000e+00 0.000000000000000e+00 0.000000000000000e+00
0.000000000000000e+00 0.000000000000000e+00 0.000000000000000e+00
0.000000000000000e+00 0.000000000000000e+00 0.000000000000000e+00
0.000000000000000e+00 0.000000000000000e+00 0.000000000000000e+00
0.000000000000000e+00 0.000000000000000e+00 0.000000000000000e+00
0.000000000000000e+00 0.000000000000000e+00 0.000000000000000e+00
0.000000000000000e+00 0.000000000000000e+00 0.000000000000000e+00
0.000000000000000e+00 0.000000000000000e+00 0.000000000000000e+00
0.000000000000000e+00 0.000000000000000e+00 0.000000000000000e+00
0.000000000000000e+00 0.000000000000000e+00 0.000000000000000e+00
0.000000000000000e+00 0.000000000000000e+00 0.000000000000000e+00
0.000000000000000e+00 0.000000000000000e+00 0.000000000000000e+00
0.000000000000000e+00 0.000000000000000e+00 0.000000000000000e+00
0.000000000000000e+00 0.000000000000000e+00 0.000000000000000e+00
0.000000000000000e+00 0.000000000000000e+00 0.000000000000000e+00
0.000000000000000e+00 0.000000000000000e+00 0.000000000000000e+00
0.000000000000000e+00 0.000000000000000e+00 0.000000000000000e+00
0.000000000000000e+00 0.000000000000000e+00 0.000000000000000e+00
0.000000000000000e+00 0.000000000000000e+00 0.000000000000000e+00
0.000000000000000e+00 0.000000000000000e+00 0.000000000000000e+00
0.000000000000000e+00 0.000000000000000e+00 0.000000000000000e+00
0.000000000000000e+00 0.000000000000000e+00 0.000000000000000e+00
0.000000000000000e+00 0.000000000000000e+00 0.000000000000000e+00
0.000000000000000e+00 0.000000000000000e+00 0.000000000000000e+00
0.000000000000000e+00 0.000000000000000e+00 0.000000000000000e+00
0.000000000000000e+00 0.000000000000000e+00 0.000000000000000e+00
0.000000000000000e+00 0.000000000000000e+00 0.000000000000000e+00
0.000000000000000e+00 0.000000000000000e+00 0.000000000000000e+00
0.000000000000000e+00 0.000000000000000e+00 0.000000000000000e+00
0.000000000000000e+00 0.000000000000000e+00 0.000000000000000e+00
0.000000000000000e+00 0.000000000000000e+00 0.000000000000000e+00
0.000000000000000e+00 0.000000000000000e+00 0.000000000000000e+00
0.000000000000000e+00 0.000000000000000e+00 0.000000000000000e+00
0.000000000000000e+00 0.000000000000000e+00 0.000000000000000e+00
0.000000000000000e+00 0.000000000000000e+00 0.000000000000000e+00
0.000000000000000e+00 0.000000000000000e+00 0.000000000000000e+00
0.000000000000000e+00 0.000000000000000e+00 0.000000000000000e+00
0.000000000000000e+00 0.000000000000000e+00 0.000000000000000e+00
0.000000000000000e+00 0.000000000000000e+00 0.000000000000000e+00
0.000000000000000e+00 0.000000000000000e+00 0.000000000000000e+00
0.000000000000000e+00 0.000000000000000e+00 0.000000000000000e+00
0.000000000000000e+00 0.000000000000000e+00 0.000000000000000e+00
0.000000000000000e+00 0.000000000000000e+00 0.000000000000000e+00
0.000000000000000e+00 0.000000000000000e+00 0.000000000000000e+00
0.000000000000000e+00 0.000000000000000e+00 0.000000000000000e+00
0.000000000000000e+00 0.000000000000000e+00 0.000000000000000e+00
0.000000000000000e+00 0.000000000000000e+00 0.000000000000000e+00
0.000000000000000e+00 0.000000000000000e+00 0.000000000000000e+00
0.000000000000000e+00 0.000000000000000e+00 0.000000000000000e+00
0.000000000000000e+00 0.000000000000000e+00 0.000000000000000e+00
0.000000000000000e+00 0.000000000000000e+00 0.000000000000000e+00
0.000000000000000e+00 0.000000000000000e+00 0.000000000000000e+00
0.000000000000000e+00 0.000000000000000e+00 0.000000000000000e+00
0.000000000000000e+00 0.000000000000000e+00 0.000000000000000e+00
0.000000000000000e+00 0.000000000000000e+00 0.000000000000000e+00
0.000000000000000e+00 0.000000000000000e+00 0.000000000000000e+00
0.000000000000000e+00 0.000000000000000e+00 0.000000000000000e+00
0.000000000000000e+00 0.000000000000000e+00 0.000000000000000e+00
0.000000000000000e+00 0.000000000000000e+00 0.000000000000000e+00
0.000000000000000e+00 0.000000000000000e+00 0.000000000000000e+00
0.000000000000000e+00 0.000000000000000e+00 0.000000000000000e+00
0.000000000000000e+00 0.000000000000000e+00 0.000000000000000e+00
0.000000000000000e+00 0.000000000000000e+00 0.000000000000000e+00
0.000000000000000e+00 0.000000000000000e+00 0.000000000000000e+00
0.000000000000000e+00 0.000000000000000e+00 0.000000000000000e+00
0.000000000000000e+00 0.000000000000000e+00 0.000000000000000e+00
0.000000000000000e+00 0.000000000000000e+00 0.000000000000000e+00
0.000000000000000e+00 0.000000000000000e+00 0.000000000000000e+00
0.000000000000000e+00 0.000000000000000e+00 0.000000000000000e+00
0.000000000000000e+00 0.000000000000000e+00 0.000000000000000e+00
0.000000000000000e+00 0.000000000000000e+00 0.000000000000000e+00
0.000000000000000e+00 0.000000000000000e+00 0.000000000000000e+00
0.000000000000000e+00 0.000000000000000e+00 0.000000000000000e+00
0.000000000000000e+00 0.000000000000000e+00 0.000000000000000e+00
0.000000000000000e+00 0.000000000000000e+00 0.000000000000000e+00
0.000000000000000e+00 0.000000000000000e+00 0.000000000000000e+00
0.000000000000000e+00 0.000000000000000e+00 0.000000000000000e+00
0.000000000000000e+00 0.000000000000000e+00 0.000000000000000e+00
0.000000000000000e+00 0.000000000000000e+00 0.000000000000000e+00
0.000000000000000e+00 0.000000000000000e+00 0.000000000000000e+00
0.000000000000000e+00 0.000000000000000e+00 0.000000000000000e+00
0.000000000000000e+00 0.000000000000000e+00 0.000000000000000e+00
0.000000000000000e+00 0.000000000000000e+00 0.000000000000000e+00
0.000000000000000e+00 0.000000000000000e+00 0.000000000000000e+00
0.000000000000000e+00 0.000000000000000e+00 0.000000000000000e+00
0.000000000000000e+00 0.000000000000000e+00 0.000000000000000e+00
0.000000000000000e+00 0.000000000000000e+00 0.000000000000000e+00
0.000000000000000e+00 0.000000000000000e+00 0.000000000000000e+00
0.000000000000000e+00 0.000000000000000e+00 0.000000000000000e+00
0.000000000000000e+00 0.000000000000000e+00 0.000000000000000e+00
0.000000000000000e+00 0.000000000000000e+00 0.000000000000000e+00
0.000000000000000e+00 0.000000000000000e+00 0.000000000000000e+00
0.000000000000000e+00 0.000000000000000e+00 0.000000000000000e+00
0.000000000000000e+00 0.000000000000000e+00 0.000000000000000e+00
0.000000000000000e+00 0.000000000000000e+00 0.000000000000000e+00
0.000000000000000e+00 0.000000000000000e+00 0.000000000000000e+00
0.000000000000000e+00 0.000000000000000e+00 0.000000000000000e+00
0.000000000000000e+00 0.000000000000000e+00 0.000000000000000e+00
0.000000000000000e+00 0.000000000000000e+00 0.000000000000000e+00
0.000000000000000e+00 0.000000000000000e+00 0.000000000000000e+00
0.000000000000000e+00 0.000000000000000e+00 0.000000000000000e+00
0.000000000000000e+00 0.000000000000000e+00 0.000000000000000e+00
0.000000000000000e+00 0.000000000000000e+00 0.000000000000000e+00
0.000000000000000e+00 0.000000000000000e+00 0.000000000000000e+00
0.000000000000000e+00 0.000000000000000e+00 0.000000000000000e+00
0.000000000000000e+00 0.000000000000000e+00 0.000000000000000e+00
0.000000000000000e+00 0.000000000000000e+00 0.000000000000000e+00
0.000000000000000e+00 0.000000000000000e+00 0.000000000000000e+00
0.000000000000000e+00 0.000000000000000e+00 0.000000000000000e+00
0.000000000000000e+00 0.000000000000000e+00 0.000000000000000e+00
0.000000000000000e+00 0.000000000000000e+00 0.000000000000000e+00
0.000000000000000e+00 0.000000000000000e+00 0.000000000000000e+00
0.000000000000000e+00 0.000000000000000e+00 0.000000000000000e+00
0.000000000000000e+00 0.000000000000000e+00 0.000000000000000e+00
0.000000000000000e+00 0.000000000000000e+00 0.000000000000000e+00
0.000000000000000e+00 0.000000000000000e+00 0.000000000000000e+00
0.000000000000000e+00 0.000000000000000e+00 0.000000000000000e+00
0.000000000000000e+00 0.000000000000000e+00 0.000000000000000e+00
0.000000000000000e+00 0.000000000000000e+00 0.000000000000000e+00
0.000000000000000e+00 0.000000000000000e+00 0.000000000000000e+00
0.000000000000000e+00 0.000000000000000e+00 0.000000000000000e+00
0.000000000000000e+00 0.000000000000000e+00 0.000000000000000e+00
0.000000000000000e+00 0.000000000000000e+00 0.000000000000000e+00
0.000000000000000e+00 0.000000000000000e+00 0.000000000000000e+00
0.000000000000000e+00 0.000000000000000e+00 0.000000000000000e+00
0.000000000000000e+00 0.000000000000000e+00 0.000000000000000e+00
0.000000000000000e+00 0.000000000000000e+00 0.000000000000000e+00
0.000000000000000e+00 0.000000000000000e+00 0.000000000000000e+00
0.000000000000000e+00 0.000000000000000e+00 0.000000000000000e+00
0.000000000000000e+00 0.000000000000000e+00 0.000000000000000e+00
0.000000000000000e+00 0.000000000000000e+00 0.000000000000000e+00
0.000000000000000e+00 0.000000000000000e+00 0.000000000000000e+00
0.000000000000000e+00 0.000000000000000e+00 0.000000000000000e+00
0.000000000000000e+00 0.000000000000000e+00 0.000000000000000e+00
0.000000000000000e+00 0.000000000000000e+00 0.000000000000000e+00
0.000000000000000e+00 0.000000000000000e+00 0.000000000000000e+00
0.000000000000000e+00 0.000000000000000e+00 0.000000000000000e+00
0.000000000000000e+00 0.000000000000000e+00 0.000000000000000e+00
0.000000000000000e+00 0.000000000000000e+00 0.000000000000000e+00
0.000000000000000e+00 0.000000000000000e+00 0.000000000000000e+00
0.000000000000000e+00 0.000000000000000e+00 0.000000000000000e+00
0.000000000000000e+00 0.000000000000000e+00 0.000000000000000e+00
0.000000000000000e+00 0.000000000000000e+00 0.000000000000000e+00
0.000000000000000e+00 0.000000000000000e+00 0.000000000000000e+00
0.000000000000000e+00 0.000000000000000e+00 0.000000000000000e+00
0.000000000000000e+00 0.000000000000000e+00 0.000000000000000e+00
0.000000000000000e+00 0.000000000000000e+00 0.000000000000000e+00
0.000000000000000e+00 0.000000000000000e+00 0.000000000000000e+00
0.000000000000000e+00 0.000000000000000e+00 0.000000000000000e+00
0.000000000000000e+00 0.000000000000000e+00 0.000000000000000e+00
0.000000000000000e+00 0.000000000000000e+00 0.000000000000000e+00
0.000000000000000e+00 0.000000000000000e+00 0.000000000000000e+00
0.000000000000000e+00 0.000000000000000e+00 0.000000000000000e+00
0.000000000000000e+00 0.000000000000000e+00 0.000000000000000e+00
0.000000000000000e+00 0.000000000000000e+00 0.000000000000000e+00
0.000000000000000e+00 0.000000000000000e+00 0.000000000000000e+00
0.000000000000000e+00 0.000000000000000e+00 0.000000000000000e+00
0.000000000000000e+00 0.000000000000000e+00 0.000000000000000e+00
0.000000000000000e+00 0.000000000000000e+00 0.000000000000000e+00
0.000000000000000e+00 0.000000000000000e+00 0.000000000000000e+00
0.000000000000000e+00 0.000000000000000e+00 0.000000000000000e+00
0.000000000000000e+00 0.000000000000000e+00 0.000000000000000e+00
0.000000000000000e+00 0.000000000000000e+00 0.000000000000000e+00
0.000000000000000e+00 0.000000000000000e+00 0.000000000000000e+00
0.000000000000000e+00 0.000000000000000e+00 0.000000000000000e+00
0.000000000000000e+00 0.000000000000000e+00 0.000000000000000e+00
0.000000000000000e+00 0.000000000000000e+00 0.000000000000000e+00
0.000000000000000e+00 0.000000000000000e+00 0.000000000000000e+00
0.000000000000000e+00 0.000000000000000e+00 0.000000000000000e+00
0.000000000000000e+00 0.000000000000000e+00 0.000000000000000e+00
0.000000000000000e+00 0.000000000000000e+00 0.000000000000000e+00
0.000000000000000e+00 0.000000000000000e+00 0.000000000000000e+00
0.000000000000000e+00 0.000000000000000e+00 0.000000000000000e+00
0.000000000000000e+00 0.000000000000000e+00 0.000000000000000e+00
0.000000000000000e+00 0.000000000000000e+00 0.000000000000000e+00
0.000000000000000e+00 0.000000000000000e+00 0.000000000000000e+00
0.000000000000000e+00 0.000000000000000e+00 0.000000000000000e+00
0.000000000000000e+00 0.000000000000000e+00 0.000000000000000e+00
0.000000000000000e+00 0.000000000000000e+00 0.000000000000000e+00
0.000000000000000e+00 0.000000000000000e+00 0.000000000000000e+00
0.000000000000000e+00 0.000000000000000e+00 0.000000000000000e+00
0.000000000000000e+00 0.000000000000000e+00 0.000000000000000e+00
0.000000000000000e+00 0.000000000000000e+00 0.000000000000000e+00
0.000000000000000e+00 0.000000000000000e+00 0.000000000000000e+00
0.000000000000000e+00 0.000000000000000e+00 0.000000000000000e+00
0.000000000000000e+00 0.000000000000000e+00 0.000000000000000e+00
0.000000000000000e+00 0.000000000000000e+00 0.000000000000000e+00
0.000000000000000e+00 0.000000000000000e+00 0.000000000000000e+00
0.000000000000000e+00 0.000000000000000e+00 0.000000000000000e+00
0.000000000000000e+00 0.000000000000000e+00 0.000000000000000e+00
0.000000000000000e+00 0.000000000000000e+00 0.000000000000000e+00
0.000000000000000e+00 0.000000000000000e+00 0.000000000000000e+00
0.000000000000000e+00 0.000000000000000e+00 0.000000000000000e+00
0.000000000000000e+00 0.000000000000000e+00 0.000000000000000e+00
0.000000000000000e+00 0.000000000000000e+00 0.000000000000000e+00
0.000000000000000e+00 0.000000000000000e+00 0.000000000000000e+00
0.000000000000000e+00 0.000000000000000e+00 0.000000000000000e+00
0.000000000000000e+00 0.000000000000000e+00 0.000000000000000e+00
0.000000000000000e+00 0.000000000000000e+00 0.000000000000000e+00
0.000000000000000e+00 0.000000000000000e+00 0.000000000000000e+00
0.000000000000000e+00 0.000000000000000e+00 0.000000000000000e+00
0.000000000000000e+00 0.000000000000000e+00 0.000000000000000e+00
0.000000000000000e+00 0.000000000000000e+00 0.000000000000000e+00
0.000000000000000e+00 0.000000000000000e+00 0.000000000000000e+00
0.000000000000000e+00 0.000000000000000e+00 0.000000000000000e+00
0.000000000000000e+00 0.000000000000000e+00 0.000000000000000e+00
0.000000000000000e+00 0.000000000000000e+00 0.000000000000000e+00
0.000000000000000e+00 0.000000000000000e+00 0.000000000000000e+00
0.000000000000000e+00 0.000000000000000e+00 0.000000000000000e+00
0.000000000000000e+00 0.000000000000000e+00 0.000000000000000e+00
0.000000000000000e+00 0.000000000000000e+00 0.000000000000000e+00
0.000000000000000e+00 0.000000000000000e+00 0.000000000000000e+00
0.000000000000000e+00 0.000000000000000e+00 0.000000000000000e+00
0.000000000000000e+00 0.000000000000000e+00 0.000000000000000e+00
0.000000000000000e+00 0.000000000000000e+00 0.000000000000000e+00
0.000000000000000e+00 0.000000000000000e+00 0.000000000000000e+00
0.000000000000000e+00 0.000000000000000e+00 0.000000000000000e+00
0.000000000000000e+00 0.000000000000000e+00 0.000000000000000e+00
0.000000000000000e+00 0.000000000000000e+00 0.000000000000000e+00
0.000000000000000e+00 0.000000000000000e+00 0.000000000000000e+00
0.000000000000000e+00 0.000000000000000e+00 0.000000000000000e+00
0.000000000000000e+00 0.000000000000000e+00 0.000000000000000e+00
0.000000000000000e+00 0.000000000000000e+00 0.000000000000000e+00
0.000000000000000e+00 0.000000000000000e+00 0.000000000000000e+00
0.000000000000000e+00 0.000000000000000e+00 0.000000000000000e+00
0.000000000000000e+00 0.000000000000000e+00 0.000000000000000e+00
0.000000000000000e+00 0.000000000000000e+00 0.000000000000000e+00
0.000000000000000e+00 0.000000000000000e+00 0.000000000000000e+00
0.000000000000000e+00 0.000000000000000e+00 0.000000000000000e+00
0.000000000000000e+00 0.000000000000000e+00 0.000000000000000e+00
0.000000000000000e+00 0.000000000000000e+00 0.000000000000000e+00
0.000000000000000e+00 0.000000000000000e+00 0.000000000000000e+00
0.000000000000000e+00 0.000000000000000e+00 0.000000000000000e+00
0.000000000000000e+00 0.000000000000000e+00 0.000000000000000e+00
0.000000000000000e+00 0.000000000000000e+00 0.000000000000000e+00
0.000000000000000e+00 0.000000000000000e+00 0.000000000000000e+00
0.000000000000000e+00 0.000000000000000e+00 0.000000000000000e+00
0.000000000000000e+00 0.000000000000000e+00 0.000000000000000e+00
0.000000000000000e+00 0.000000000000000e+00 0.000000000000000e+00
0.000000000000000e+00 0.000000000000000e+00 0.000000000000000e+00
0.000000000000000e+00 0.000000000000000e+00 0.000000000000000e+00
0.000000000000000e+00 0.000000000000000e+00 0.000000000000000e+00
0.000000000000000e+00 0.000000000000000e+00 0.000000000000000e+00
0.000000000000000e+00 0.000000000000000e+00 0.000000000000000e+00
0.000000000000000e+00 0.000000000000000e+00 0.000000000000000e+00
0.000000000000000e+00 0.000000000000000e+00 0.000000000000000e+00
0.000000000000000e+00 0.000000000000000e+00 0.000000000000000e+00
0.000000000000000e+00 0.000000000000000e+00 0.000000000000000e+00
0.000000000000000e+00 0.000000000000000e+00 0.000000000000000e+00
0.000000000000000e+00 0.000000000000000e+00 0.000000000000000e+00
0.000000000000000e+00 0.000000000000000e+00 0.000000000000000e+00
0.000000000000000e+00 0.000000000000000e+00 0.000000000000000e+00
0.000000000000000e+00 0.000000000000000e+00 0.000000000000000e+00
0.000000000000000e+00 0.000000000000000e+00 0.000000000000000e+00
0.000000000000000e+00 0.000000000000000e+00 0.000000000000000e+00
0.000000000000000e+00 0.000000000000000e+00 0.000000000000000e+00
0.000000000000000e+00 0.000000000000000e+00 0.000000000000000e+00
0.000000000000000e+00 0.000000000000000e+00 0.000000000000000e+00
0.000000000000000e+00 0.000000000000000e+00 0.000000000000000e+00
0.000000000000000e+00 0.000000000000000e+00 0.000000000000000e+00
0.000000000000000e+00 0.000000000000000e+00 0.000000000000000e+00
0.000000000000000e+00 0.000000000000000e+00 0.000000000000000e+00
0.000000000000000e+00 0.000000000000000e+00 0.000000000000000e+00
0.000000000000000e+00 0.000000000000000e+00 0.000000000000000e+00
0.000000000000000e+00 0.000000000000000e+00 0.000000000000000e+00
0.000000000000000e+00 0.000000000000000e+00 0.000000000000000e+00
0.000000000000000e+00 0.000000000000000e+00 0.000000000000000e+00
0.000000000000000e+00 0.000000000000000e+00 0.000000000000000e+00
0.000000000000000e+00 0.000000000000000e+00 0.000000000000000e+00
0.000000000000000e+00 0.000000000000000e+00 0.000000000000000e+00
0.000000000000000e+00 0.000000000000000e+00 0.000000000000000e+00
0.000000000000000e+00 0.000000000000000e+00 0.000000000000000e+00
0.000000000000000e+00 0.000000000000000e+00 0.000000000000000e+00
0.000000000000000e+00 0.000000000000000e+00 0.000000000000000e+00
0.000000000000000e+00 0.000000000000000e+00 0.000000000000000e+00
0.000000000000000e+00 0.000000000000000e+00 0.000000000000000e+00
0.000000000000000e+00 0.000000000000000e+00 0.000000000000000e+00
0.000000000000000e+00 0.000000000000000e+00 0.000000000000000e+00
0.000000000000000e+00 0.000000000000000e+00 0.000000000000000e+00
0.000000000000000e+00 0.000000000000000e+00 0.000000000000000e+00
0.000000000000000e+00 0.000000000000000e+00 0.000000000000000e+00
0.000000000000000e+00 0.000000000000000e+00 0.000000000000000e+00
0.000000000000000e+00 0.000000000000000e+00 0.000000000000000e+00
0.000000000000000e+00 0.000000000000000e+00 0.000000000000000e+00
0.000000000000000e+00 0.000000000000000e+00 0.000000000000000e+00
0.000000000000000e+00 0.000000000000000e+00 0.000000000000000e+00
0.000000000000000e+00 0.000000000000000e+00 0.000000000000000e+00
0.000000000000000e+00 0.000000000000000e+00 0.000000000000000e+00
0.000000000000000e+00 0.000000000000000e+00 0.000000000000000e+00
0.000000000000000e+00 0.000000000000000e+00 0.000000000000000e+00
0.000000000000000e+00 0.000000000000000e+00 0.000000000000000e+00
0.000000000000000e+00 0.000000000000000e+00 0.000000000000000e+00
0.000000000000000e+00 0.000000000000000e+00 0.000000000000000e+00
0.000000000000000e+00 0.000000000000000e+00 0.000000000000000e+00
0.000000000000000e+00 0.000000000000000e+00 0.000000000000000e+00
0.000000000000000e+00 0.000000000000000e+00 0.000000000000000e+00
0.000000000000000e+00 0.000000000000000e+00 0.000000000000000e+00
0.000000000000000e+00 0.000000000000000e+00 0.000000000000000e+00
0.000000000000000e+00 0.000000000000000e+00 0.000000000000000e+00
0.000000000000000e+00 0.000000000000000e+00 0.000000000000000e+00
0.000000000000000e+00 0.000000000000000e+00 0.000000000000000e+00
0.000000000000000e+00 0.000000000000000e+00 0.000000000000000e+00
0.000000000000000e+00 0.000000000000000e+00 0.000000000000000e+00
0.000000000000000e+00 0.000000000000000e+00 0.000000000000000e+00
0.000000000000000e+00 0.000000000000000e+00 0.000000000000000e+00
0.000000000000000e+00 0.000000000000000e+00 0.000000000000000e+00
0.000000000000000e+00 0.000000000000000e+00 0.000000000000000e+00
0.000000000000000e+00 0.000000000000000e+00 0.000000000000000e+00
0.000000000000000e+00 0.000000000000000e+00 0.000000000000000e+00
0.000000000000000e+00 0.000000000000000e+00 0.000000000000000e+00
0.000000000000000e+00 0.000000000000000e+00 0.000000000000000e+00
0.000000000000000e+00 0.000000000000000e+00 0.000000000000000e+00
0.000000000000000e+00 0.000000000000000e+00 0.000000000000000e+00
0.000000000000000e+00 0.000000000000000e+00 0.000000000000000e+00
0.000000000000000e+00 0.000000000000000e+00 0.000000000000000e+00
0.000000000000000e+00 0.000000000000000e+00 0.000000000000000e+00
0.000000000000000e+00 0.000000000000000e+00 0.000000000000000e+00
0.000000000000000e+00 0.000000000000000e+00 0.000000000000000e+00
0.000000000000000e+00 0.000000000000000e+00 0.000000000000000e+00
0.000000000000000e+00 0.000000000000000e+00 0.000000000000000e+00
0.000000000000000e+00 0.000000000000000e+00 0.000000000000000e+00
0.000000000000000e+00 0.000000000000000e+00 0.000000000000000e+00
0.000000000000000e+00 0.000000000000000e+00 0.000000000000000e+00
0.000000000000000e+00 0.000000000000000e+00 0.000000000000000e+00
0.000000000000000e+00 0.000000000000000e+00 0.000000000000000e+00
0.000000000000000e+00 0.000000000000000e+00 0.000000000000000e+00
0.000000000000000e+00 0.000000000000000e+00 0.000000000000000e+00
0.000000000000000e+00 0.000000000000000e+00 0.000000000000000e+00
0.000000000000000e+00 0.000000000000000e+00 0.000000000000000e+00
0.000000000000000e+00 0.000000000000000e+00 0.000000000000000e+00
0.000000000000000e+00 0.000000000000000e+00 0.000000000000000e+00
0.000000000000000e+00 0.000000000000000e+00 0.000000000000000e+00
0.000000000000000e+00 0.000000000000000e+00 0.000000000000000e+00
0.000000000000000e+00 0.000000000000000e+00 0.000000000000000e+00
0.000000000000000e+00 0.000000000000000e+00 0.000000000000000e+00
0.000000000000000e+00 0.000000000000000e+00 0.000000000000000e+00
0.000000000000000e+00 0.000000000000000e+00 0.000000000000000e+00
0.000000000000000e+00 0.000000000000000e+00 0.000000000000000e+00
0.000000000000000e+00 0.000000000000000e+00 0.000000000000000e+00
0.000000000000000e+00 0.000000000000000e+00 0.000000000000000e+00
0.000000000000000e+00 0.000000000000000e+00 0.000000000000000e+00
0.000000000000000e+00 0.000000000000000e+00 0.000000000000000e+00
0.000000000000000e+00 0.000000000000000e+00 0.000000000000000e+00
0.000000000000000e+00 0.000000000000000e+00 0.000000000000000e+00
0.000000000000000e+00 0.000000000000000e+00 0.000000000000000e+00
0.000000000000000e+00 0.000000000000000e+00 0.000000000000000e+00
0.000000000000000e+00 0.000000000000000e+00 0.000000000000000e+00
0.000000000000000e+00 0.000000000000000e+00 0.000000000000000e+00
0.000000000000000e+00 0.000000000000000e+00 0.000000000000000e+00
0.000000000000000e+00 0.000000000000000e+00 0.000000000000000e+00
0.000000000000000e+00 0.000000000000000e+00 0.000000000000000e+00
0.000000000000000e+00 0.000000000000000e+00 0.000000000000000e+00
0.000000000000000e+00 0.000000000000000e+00 0.000000000000000e+00
0.000000000000000e+00 0.000000000000000e+00 0.000000000000000e+00
0.000000000000000e+00 0.000000000000000e+00 0.000000000000000e+00
0.000000000000000e+00 0.000000000000000e+00 0.000000000000000e+00
0.000000000000000e+00 0.000000000000000e+00 0.000000000000000e+00
0.000000000000000e+00 0.000000000000000e+00 0.000000000000000e+00
0.000000000000000e+00 0.000000000000000e+00 0.000000000000000e+00
0.000000000000000e+00 0.000000000000000e+00 0.000000000000000e+00
0.000000000000000e+00 0.000000000000000e+00 0.000000000000000e+00
0.000000000000000e+00 0.000000000000000e+00 0.000000000000000e+00
0.000000000000000e+00 0.000000000000000e+00 0.000000000000000e+00
0.000000000000000e+00 0.000000000000000e+00 0.000000000000000e+00
0.000000000000000e+00 0.000000000000000e+00 0.000000000000000e+00
0.000000000000000e+00 0.000000000000000e+00 0.000000000000000e+00
0.000000000000000e+00 0.000000000000000e+00 0.000000000000000e+00
0.000000000000000e+00 0.000000000000000e+00 0.000000000000000e+00
0.000000000000000e+00 0.000000000000000e+00 0.000000000000000e+00
0.000000000000000e+00 0.000000000000000e+00 0.000000000000000e+00
0.000000000000000e+00 0.000000000000000e+00 0.000000000000000e+00
0.000000000000000e+00 0.000000000000000e+00 0.000000000000000e+00
0.000000000000000e+00 0.000000000000000e+00 0.000000000000000e+00
0.000000000000000e+00 0.000000000000000e+00 0.000000000000000e+00
0.000000000000000e+00 0.000000000000000e+00 0.000000000000000e+00
0.000000000000000e+00 0.000000000000000e+00 0.000000000000000e+00
0.000000000000000e+00 0.000000000000000e+00 0.000000000000000e+00
0.000000000000000e+00 0.000000000000000e+00 0.000000000000000e+00
0.000000000000000e+00 0.000000000000000e+00 0.000000000000000e+00
0.000000000000000e+00 0.000000000000000e+00 0.000000000000000e+00
0.000000000000000e+00 0.000000000000000e+00 0.000000000000000e+00
0.000000000000000e+00 0.000000000000000e+00 0.000000000000000e+00
0.000000000000000e+00 0.000000000000000e+00 0.000000000000000e+00
0.000000000000000e+00 0.000000000000000e+00 0.000000000000000e+00
0.000000000000000e+00 0.000000000000000e+00 0.000000000000000e+00
0.000000000000000e+00 0.000000000000000e+00 0.000000000000000e+00
0.000000000000000e+00 0.000000000000000e+00 0.000000000000000e+00
0.000000000000000e+00 0.000000000000000e+00 0.000000000000000e+00
0.000000000000000e+00 0.000000000000000e+00 0.000000000000000e+00
0.000000000000000e+00 0.000000000000000e+00 0.000000000000000e+00
0.000000000000000e+00 0.000000000000000e+00 0.000000000000000e+00
0.000000000000000e+00 0.000000000000000e+00 0.000000000000000e+00
0.000000000000000e+00 0.000000000000000e+00 0.000000000000000e+00
0.000000000000000e+00 0.000000000000000e+00 0.000000000000000e+00
0.000000000000000e+00 0.000000000000000e+00 0.000000000000000e+00
0.000000000000000e+00 0.000000000000000e+00 0.000000000000000e+00
0.000000000000000e+00 0.000000000000000e+00 0.000000000000000e+00
0.000000000000000e+00 0.000000000000000e+00 0.000000000000000e+00
0.000000000000000e+00 0.000000000000000e+00 0.000000000000000e+00
0.000000000000000e+00 0.000000000000000e+00 0.000000000000000e+00
0.000000000000000e+00 0.000000000000000e+00 0.000000000000000e+00
0.000000000000000e+00 0.000000000000000e+00 0.000000000000000e+00
0.000000000000000e+00 0.000000000000000e+00 0.000000000000000e+00
0.000000000000000e+00 0.000000000000000e+00 0.000000000000000e+00
0.000000000000000e+00 0.000000000000000e+00 0.000000000000000e+00
0.000000000000000e+00 0.000000000000000e+00 0.000000000000000e+00
0.000000000000000e+00 0.000000000000000e+00 0.000000000000000e+00
0.000000000000000e+00 0.000000000000000e+00 0.000000000000000e+00
0.000000000000000e+00 0.000000000000000e+00 0.000000000000000e+00
0.000000000000000e+00 0.000000000000000e+00 0.000000000000000e+00
0.000000000000000e+00 0.000000000000000e+00 0.000000000000000e+00
0.000000000000000e+00 0.000000000000000e+00 0.000000000000000e+00
0.000000000000000e+00 0.000000000000000e+00 0.000000000000000e+00
0.000000000000000e+00 0.000000000000000e+00 0.000000000000000e+00
0.000000000000000e+00 0.000000000000000e+00 0.000000000000000e+00
0.000000000000000e+00 0.000000000000000e+00 0.000000000000000e+00
0.000000000000000e+00 0.000000000000000e+00 0.000000000000000e+00
0.000000000000000e+00 0.000000000000000e+00 0.000000000000000e+00
0.000000000000000e+00 0.000000000000000e+00 0.000000000000000e+00
0.000000000000000e+00 0.000000000000000e+00 0.000000000000000e+00
0.000000000000000e+00 0.000000000000000e+00 0.000000000000000e+00
0.000000000000000e+00 0.000000000000000e+00 0.000000000000000e+00
0.000000000000000e+00 0.000000000000000e+00 0.000000000000000e+00
0.000000000000000e+00 0.000000000000000e+00 0.000000000000000e+00
0.000000000000000e+00 0.000000000000000e+00 0.000000000000000e+00
0.000000000000000e+00 0.000000000000000e+00 0.000000000000000e+00
0.000000000000000e+00 0.000000000000000e+00 0.000000000000000e+00
0.000000000000000e+00 0.000000000000000e+00 0.000000000000000e+00
0.000000000000000e+00 0.000000000000000e+00 0.000000000000000e+00
0.000000000000000e+00 0.000000000000000e+00 0.000000000000000e+00
0.000000000000000e+00 0.000000000000000e+00 0.000000000000000e+00
0.000000000000000e+00 0.000000000000000e+00 0.000000000000000e+00
0.000000000000000e+00 0.000000000000000e+00 0.000000000000000e+00
0.000000000000000e+00 0.000000000000000e+00 0.000000000000000e+00
0.000000000000000e+00 0.000000000000000e+00 0.000000000000000e+00
0.000000000000000e+00 0.000000000000000e+00 0.000000000000000e+00
0.000000000000000e+00 0.000000000000000e+00 0.000000000000000e+00
0.000000000000000e+00 0.000000000000000e+00 0.000000000000000e+00
0.000000000000000e+00 0.000000000000000e+00 0.000000000000000e+00
0.000000000000000e+00 0.000000000000000e+00 0.000000000000000e+00
0.000000000000000e+00 0.000000000000000e+00 0.000000000000000e+00
0.000000000000000e+00 0.000000000000000e+00 0.000000000000000e+00
0.000000000000000e+00 0.000000000000000e+00 0.000000000000000e+00
0.000000000000000e+00 0.000000000000000e+00 0.000000000000000e+00
0.000000000000000e+00 0.000000000000000e+00 0.000000000000000e+00
0.000000000000000e+00 0.000000000000000e+00 0.000000000000000e+00
0.000000000000000e+00 0.000000000000000e+00 0.000000000000000e+00
0.000000000000000e+00 0.000000000000000e+00 0.000000000000000e+00
0.000000000000000e+00 0.000000000000000e+00 0.000000000000000e+00
0.000000000000000e+00 0.000000000000000e+00 0.000000000000000e+00
0.000000000000000e+00 0.000000000000000e+00 0.000000000000000e+00
0.000000000000000e+00 0.000000000000000e+00 0.000000000000000e+00
0.000000000000000e+00 0.000000000000000e+00 0.000000000000000e+00
0.000000000000000e+00 0.000000000000000e+00 0.000000000000000e+00
0.000000000000000e+00 0.000000000000000e+00 0.000000000000000e+00
0.000000000000000e+00 0.000000000000000e+00 0.000000000000000e+00
0.000000000000000e+00 0.000000000000000e+00 0.000000000000000e+00
0.000000000000000e+00 0.000000000000000e+00 0.000000000000000e+00
0.000000000000000e+00 0.000000000000000e+00 0.000000000000000e+00
0.000000000000000e+00 0.000000000000000e+00 0.000000000000000e+00
0.000000000000000e+00 0.000000000000000e+00 0.000000000000000e+00
0.000000000000000e+00 0.000000000000000e+00 0.000000000000000e+00
0.000000000000000e+00 0.000000000000000e+00 0.000000000000000e+00
0.000000000000000e+00 0.000000000000000e+00 0.000000000000000e+00
0.000000000000000e+00 0.000000000000000e+00 0.000000000000000e+00
0.000000000000000e+00 0.000000000000000e+00 0.000000000000000e+00
0.000000000000000e+00 0.000000000000000e+00 0.000000000000000e+00
0.000000000000000e+00 0.000000000000000e+00 0.000000000000000e+00
0.000000000000000e+00 0.000000000000000e+00 0.000000000000000e+00
0.000000000000000e+00 0.000000000000000e+00 0.000000000000000e+00
0.000000000000000e+00 0.000000000000000e+00 0.000000000000000e+00
0.000000000000000e+00 0.000000000000000e+00 0.000000000000000e+00
0.000000000000000e+00 0.000000000000000e+00 0.000000000000000e+00
0.000000000000000e+00 0.000000000000000e+00 0.000000000000000e+00
0.000000000000000e+00 0.000000000000000e+00 0.000000000000000e+00
0.000000000000000e+00 0.000000000000000e+00 0.000000000000000e+00
0.000000000000000e+00 0.000000000000000e+00 0.000000000000000e+00
0.000000000000000e+00 0.000000000000000e+00 0.000000000000000e+00
0.000000000000000e+00 0.000000000000000e+00 0.000000000000000e+00
0.000000000000000e+00 0.000000000000000e+00 0.000000000000000e+00
0.000000000000000e+00 0.000000000000000e+00 0.000000000000000e+00
0.000000000000000e+00 0.000000000000000e+00 0.000000000000000e+00
0.000000000000000e+00 0.000000000000000e+00 0.000000000000000e+00
0.000000000000000e+00 0.000000000000000e+00 0.000000000000000e+00
0.000000000000000e+00 0.000000000000000e+00 0.000000000000000e+00
0.000000000000000e+00 0.000000000000000e+00 0.000000000000000e+00
0.000000000000000e+00 0.000000000000000e+00 0.000000000000000e+00
0.000000000000000e+00 0.000000000000000e+00 0.000000000000000e+00
0.000000000000000e+00 0.000000000000000e+00 0.000000000000000e+00
0.000000000000000e+00 0.000000000000000e+00 0.000000000000000e+00
0.000000000000000e+00 0.000000000000000e+00 0.000000000000000e+00
0.000000000000000e+00 0.000000000000000e+00 0.000000000000000e+00
0.000000000000000e+00 0.000000000000000e+00 0.000000000000000e+00
0.000000000000000e+00 0.000000000000000e+00 0.000000000000000e+00
0.000000000000000e+00 0.000000000000000e+00 0.000000000000000e+00
0.000000000000000e+00 0.000000000000000e+00 0.000000000000000e+00
0.000000000000000e+00 0.000000000000000e+00 0.000000000000000e+00
0.000000000000000e+00 0.000000000000000e+00 0.000000000000000e+00
0.000000000000000e+00 0.000000000000000e+00 0.000000000000000e+00
0.000000000000000e+00 0.000000000000000e+00 0.000000000000000e+00
0.000000000000000e+00 0.000000000000000e+00 0.000000000000000e+00
0.000000000000000e+00 0.000000000000000e+00 0.000000000000000e+00
0.000000000000000e+00 0.000000000000000e+00 0.000000000000000e+00
0.000000000000000e+00 0.000000000000000e+00 0.000000000000000e+00
0.000000000000000e+00 0.000000000000000e+00 0.000000000000000e+00
0.000000000000000e+00 0.000000000000000e+00 0.000000000000000e+00
0.000000000000000e+00 0.000000000000000e+00 0.000000000000000e+00
0.000000000000000e+00 0.000000000000000e+00 0.000000000000000e+00
0.000000000000000e+00 0.000000000000000e+00 0.000000000000000e+00
0.000000000000000e+00 0.000000000000000e+00 0.000000000000000e+00
0.000000000000000e+00 0.000000000000000e+00 0.000000000000000e+00
0.000000000000000e+00 0.000000000000000e+00 0.000000000000000e+00
0.000000000000000e+00 0.000000000000000e+00 0.000000000000000e+00
0.000000000000000e+00 0.000000000000000e+00 0.000000000000000e+00
0.000000000000000e+00 0.000000000000000e+00 0.000000000000000e+00
0.000000000000000e+00 0.000000000000000e+00 0.000000000000000e+00
0.000000000000000e+00 0.000000000000000e+00 0.000000000000000e+00
0.000000000000000e+00 0.000000000000000e+00 0.000000000000000e+00
0.000000000000000e+00 0.000000000000000e+00 0.000000000000000e+00
0.000000000000000e+00 0.000000000000000e+00 0.000000000000000e+00
0.000000000000000e+00 0.000000000000000e+00 0.000000000000000e+00
0.000000000000000e+00 0.000000000000000e+00 0.000000000000000e+00
0.000000000000000e+00 0.000000000000000e+00 0.000000000000000e+00
0.000000000000000e+00 0.000000000000000e+00 0.000000000000000e+00
0.000000000000000e+00 0.000000000000000e+00 0.000000000000000e+00
0.000000000000000e+00 0.000000000000000e+00 0.000000000000000e+00
0.000000000000000e+00 0.000000000000000e+00 0.000000000000000e+00
0.000000000000000e+00 0.000000000000000e+00 0.000000000000000e+00
0.000000000000000e+00 0.000000000000000e+00 0.000000000000000e+00
0.000000000000000e+00 0.000000000000000e+00 0.000000000000000e+00
0.000000000000000e+00 0.000000000000000e+00 0.000000000000000e+00
0.000000000000000e+00 0.000000000000000e+00 0.000000000000000e+00
0.000000000000000e+00 0.000000000000000e+00 0.000000000000000e+00
0.000000000000000e+00 0.000000000000000e+00 0.000000000000000e+00
0.000000000000000e+00 0.000000000000000e+00 0.000000000000000e+00
0.000000000000000e+00 0.000000000000000e+00 0.000000000000000e+00
0.000000000000000e+00 0.000000000000000e+00 0.000000000000000e+00
0.000000000000000e+00 0.000000000000000e+00 0.000000000000000e+00
0.000000000000000e+00 0.000000000000000e+00 0.000000000000000e+00
0.000000000000000e+00 0.000000000000000e+00 0.000000000000000e+00
0.000000000000000e+00 0.000000000000000e+00 0.000000000000000e+00
0.000000000000000e+00 0.000000000000000e+00 0.000000000000000e+00
0.000000000000000e+00 0.000000000000000e+00 0.000000000000000e+00
0.000000000000000e+00 0.000000000000000e+00 0.000000000000000e+00
0.000000000000000e+00 0.000000000000000e+00 0.000000000000000e+00
0.000000000000000e+00 0.000000000000000e+00 0.000000000000000e+00
0.000000000000000e+00 0.000000000000000e+00 0.000000000000000e+00
0.000000000000000e+00 0.000000000000000e+00 0.000000000000000e+00
0.000000000000000e+00 0.000000000000000e+00 0.000000000000000e+00
0.000000000000000e+00 0.000000000000000e+00 0.000000000000000e+00
0.000000000000000e+00 0.000000000000000e+00 0.000000000000000e+00
0.000000000000000e+00 0.000000000000000e+00 0.000000000000000e+00
0.000000000000000e+00 0.000000000000000e+00 0.000000000000000e+00
0.000000000000000e+00 0.000000000000000e+00 0.000000000000000e+00
0.000000000000000e+00 0.000000000000000e+00 0.000000000000000e+00
0.000000000000000e+00 0.000000000000000e+00 0.000000000000000e+00
0.000000000000000e+00 0.000000000000000e+00 0.000000000000000e+00
0.000000000000000e+00 0.000000000000000e+00 0.000000000000000e+00
0.000000000000000e+00 0.000000000000000e+00 0.000000000000000e+00
0.000000000000000e+00 0.000000000000000e+00 0.000000000000000e+00
0.000000000000000e+00 0.000000000000000e+00 0.000000000000000e+00
0.000000000000000e+00 0.000000000000000e+00 0.000000000000000e+00
0.000000000000000e+00 0.000000000000000e+00 0.000000000000000e+00
0.000000000000000e+00 0.000000000000000e+00 0.000000000000000e+00
0.000000000000000e+00 0.000000000000000e+00 0.000000000000000e+00
0.000000000000000e+00 0.000000000000000e+00 0.000000000000000e+00
0.000000000000000e+00 0.000000000000000e+00 0.000000000000000e+00
0.000000000000000e+00 0.000000000000000e+00 0.000000000000000e+00
0.000000000000000e+00 0.000000000000000e+00 0.000000000000000e+00
0.000000000000000e+00 0.000000000000000e+00 0.000000000000000e+00
0.000000000000000e+00 0.000000000000000e+00 0.000000000000000e+00
0.000000000000000e+00 0.000000000000000e+00 0.000000000000000e+00
0.000000000000000e+00 0.000000000000000e+00 0.000000000000000e+00
0.000000000000000e+00 0.000000000000000e+00 0.000000000000000e+00
0.000000000000000e+00 0.000000000000000e+00 0.000000000000000e+00
0.000000000000000e+00 0.000000000000000e+00 0.000000000000000e+00
0.000000000000000e+00 0.000000000000000e+00 0.000000000000000e+00
0.000000000000000e+00 0.000000000000000e+00 0.000000000000000e+00
0.000000000000000e+00 0.000000000000000e+00 0.000000000000000e+00
0.000000000000000e+00 0.000000000000000e+00 0.000000000000000e+00
0.000000000000000e+00 0.000000000000000e+00 0.000000000000000e+00
0.000000000000000e+00 0.000000000000000e+00 0.000000000000000e+00
0.000000000000000e+00 0.000000000000000e+00 0.000000000000000e+00
0.000000000000000e+00 0.000000000000000e+00 0.000000000000000e+00
0.000000000000000e+00 0.000000000000000e+00 0.000000000000000e+00
0.000000000000000e+00 0.000000000000000e+00 0.000000000000000e+00
0.000000000000000e+00 0.000000000000000e+00 0.000000000000000e+00
0.000000000000000e+00 0.000000000000000e+00 0.000000000000000e+00
0.000000000000000e+00 0.000000000000000e+00 0.000000000000000e+00
0.000000000000000e+00 0.000000000000000e+00 0.000000000000000e+00
0.000000000000000e+00 0.000000000000000e+00 0.000000000000000e+00
0.000000000000000e+00 0.000000000000000e+00 0.000000000000000e+00
0.000000000000000e+00 0.000000000000000e+00 0.000000000000000e+00
 7.519940293277179e+00 -8.637645707416768e-02 -1.329388208996102e-16
-1.248683458471101e+01  7.367462175729841e-01  2.146483165255844e-16
 1.484211883215283e+01  1.076278505392773e+00 -2.751915795986345e-16
-7.048866620103578e+00 -1.560448253237210e-01  1.270462935891837e-16
-2.196001517631221e+01  1.442210028276337e+00  3.759864808359301e-16
 1.832332371866036e+01 -2.231758382749973e+00 -3.031548957837878e-16
 1.241256539969896e+01  2.975486448132799e+00 -2.514684498910427e-16
-5.822244106306727e+00  7.820233926382006e-02  1.028102782689641e-16
-9.204289664081259e+00 -2.319919150125755e-01  1.661849465145791e-16
 3.376074123377212e+00 -5.609200156090569e-02 -5.950494122091312e-17
 1.753996121655711e+00  4.588940289372139e-02 -3.168595017017757e-17
-6.761903826237113e-01  1.182000462288065e-02  1.191216819635270e-17
 1.007425779576353e+00  1.424426081257963e-02 -1.807469805347902e-17
-2.232489506133898e+00  1.314027707434896e-02  3.959480221628863e-17
 6.112351836610127e-01  3.623626078396050e-03 -1.091489063784735e-17
 2.162964134205904e-01  1.476418320116569e-03 -3.864422362653937e-18
-5.655840421019088e-01 -5.704896132695067e-03  1.012385840757748e-17
 7.950052056595658e-02  3.845010834280260e-04 -1.418757204710040e-18
 3.176288199760294e-01  2.146475163017501e-03 -5.674637981974225e-18
 6.275127234365868e-02  4.342220484067180e-04 -1.121195214852687e-18
 1.655296792895808e-01  1.190664483697804e-03 -2.958031707871692e-18
 2.035365940898924e-02  1.496335193196262e-04 -3.637550759560086e-19
 2.046391271094435e-01  1.466205310802089e-03 -3.656862096498645e-18
 3.294902282945023e-01  2.913609612553175e-03 -5.893607924798380e-18
-8.240092504444779e-01 -6.310460868291467e-03  1.472906522382833e-17
 3.124936886842006e+00 -1.868267140361808e-02 -5.542002179964335e-17
-4.805945543664450e+00 -2.941155104617350e-01  8.854946373549564e-17
 1.112573710828928e+00 -7.966119649679385e-02 -1.898108647271331e-17
 6.578674324985109e-01  3.230927413467186e-02 -1.203950176021935e-17
 4.715829739080327e+00 -3.933926586468441e-01 -7.988184879300786e-17
-3.316826907771162e+00 -2.425247950821601e-01  6.151874544528291e-17
 1.914643979015773e+00 -2.385868553753858e-01 -3.162198019208448e-17
 1.344364976031783e+00  8.467497507187555e-02 -2.479458296982468e-17
 8.862237754314473e+00 -1.422336643427452e+00 -1.431000998068652e-16
-6.763767391252445e+00 -8.664850361558150e-01  1.292721278660328e-16
-5.301365729454760e-01  3.769310581344357e-02  9.047129751178513e-18
 6.342503962506629e+00  9.733918379254339e-01 -1.228736710884891e-16
 1.474416752728321e+00 -1.668912041501388e-01 -2.452425833913749e-17
-3.781215123906332e+00 -3.854972725202507e-01  7.125207796802014e-17
-2.423289873756849e-01 -1.283207159173242e-02  4.444378229841393e-18
 3.423991348934369e+00  6.328955702234639e-01 -6.743678243110072e-17
 8.488027643557360e-01 -5.910996992415108e-02 -1.449812421272339e-17
-2.796213190663735e+00 -3.939745873243002e-01  5.380989493673242e-17
-1.872863981042544e+00  2.640736043028540e-01  3.061658820529669e-17
 3.372492917186789e+00  3.432058515330808e-01 -6.354384977532417e-17
-3.813569081071087e-01  1.618946557368310e-02  6.620360165273170e-18
-3.223249775367327e+00 -3.278708202785562e-01  6.073032818817464e-17
-2.142324306158129e+00  1.243821184582002e-01  3.684723541933275e-17
 7.189943071425370e+00  1.299215998114255e+00 -1.413025858643148e-16
 1.135309966821757e+00 -4.547357396147092e-02 -1.973697064543934e-17
-1.983590048020550e+00 -2.509372394719109e-01  3.787864002204853e-17
-4.756198875798050e+00  8.080081089725439e-01  7.634024260078707e-17
 5.089941479390557e+00  4.532075651180020e-01 -9.523812325229934e-17
-3.479739767558448e+00  3.447395447765571e-01  5.838404639249856e-17
-4.583044186362176e+00 -3.305999187241280e-01  8.495753221670705e-17
 3.590814268290846e+00 -5.422533420875041e-01 -5.833136707774412e-17
 4.380949674493454e+00  2.940625841791223e-01 -8.098561146915999e-17
-8.721495526205389e+00  7.478429555684618e-01  1.475256015964725e-16
 8.685350289592514e-01  6.077077777247437e-02 -1.608101452578027e-17
-5.798385341635732e+00  1.681319963598448e-01  1.014616885059896e-16
 5.969824859069035e+00  1.453771979466969e-03 -1.062550914118797e-16
-2.141764081822017e+00 -3.502519507633491e-02  3.847511780900129e-17
-2.043907388277379e+00  5.053233925357199e-02  3.585456861464607e-17
 1.731934378267121e+00  3.618373932593053e-02 -3.119361297320591e-17
 7.820806105014552e-01 -1.194742715000457e-02 -1.379530190137848e-17
 4.691597706279851e+00  1.269341356651945e-01 -8.479677964083329e-17
-1.929199388215990e-01  8.964097686032643e-03  3.341137587675504e-18
-2.046945306262563e+01  1.585862516649962e-01  3.626489179708230e-16
-2.384480127232738e+01  2.211434485758370e+01  1.971298219096262e-16
 1.340292824784365e+01  3.929448925760070e-01 -2.425584617946934e-16
-1.548339301560429e+01 -8.127141582859109e-01  2.838957907217244e-16
-2.341749066479453e+01  2.100821404141312e+01  2.008904120861757e-16
 2.100899937753542e+01  9.275970939332118e-01 -3.834109275264534e-16
-1.319817949622216e+00 -7.314310042071099e-03  2.356288662971855e-17
-5.638471183218225e+00  4.017634933280568e-03  1.003020407803750e-16
-2.479294190738239e+00  8.770390957488754e-02  4.322087171525186e-17
 4.939750179411242e+00 -6.854259022372258e-02 -8.720449658346648e-17
 4.514732905838456e+00  1.205918248917079e-01 -8.158409462094097e-17
-3.524566634132388e+00  3.613722070388071e-03  6.268673783082323e-17
-3.750020187460693e+00  7.714297015776253e-02  6.594346645263420e-17
 1.408114807387751e+00 -1.644205299782211e-02 -2.489014653378546e-17
 7.010994963814477e+00  7.424883477056175e-02 -1.255318982738556e-16
-1.670122600175854e+00  2.857656104973357e-03  2.969246247589209e-17
-3.837493924796242e-01  2.934326528420699e-03  6.799129053378903e-18
 9.913509267833145e-02 -5.558772667264699e-04 -1.758515789759634e-18
 4.114188535756657e-01 -1.912252732336304e-03 -7.302041556180869e-18
 1.093706227364676e+00  1.196170616932388e-03 -1.947609726700061e-17
-6.562098782689939e-01  3.163530244000621e-03  1.164553341419372e-17
 8.381482675235330e-01 -6.740198340458291e-03 -1.484659513339880e-17
 7.266106250261188e-01 -2.023076987490679e-03 -1.291011642406710e-17
-2.356021874293585e-01  5.569671101406119e-04  4.187099327124171e-18
-1.185098382330343e+00  5.918894751744253e-03  2.102942485787786e-17
 1.307251066070178e+00 -2.197414787902889e-02 -2.303831567946441e-17
 5.247593254493641e+00  5.625810720869291e-02 -9.396521314629937e-17
-7.615841490719219e+00 -3.653492228671327e-01  1.392868143751647e-16
-1.280847943669832e+01  1.197685279764574e+00  2.156363889234871e-16
 7.807038941465101e+00 -4.873458561093525e-02 -1.384348403573561e-16
 1.670320256125321e-01  1.112532470173382e-03 -2.983965001187106e-18
-1.540405956734589e+00  2.150197856332589e-02  2.719243644472137e-17
 8.073850563380319e+00 -1.975731395250825e-02 -1.434808023907415e-16
 1.382301624297817e+01  1.905886962504638e+00 -2.655793588727748e-16
-6.223961971427712e+00  1.996748493654688e-01  1.087112409441604e-16
 1.151557897656616e+01 -2.416355578216503e-01 -2.024507466021486e-16
 2.070498412099222e+01  5.568103266109411e+00 -4.256801290462283e-16
-1.302210421147165e+01  1.014882193145111e-01  2.307011231977189e-16
 1.198792957330455e+00 -1.357616548349697e-02 -2.119446048406925e-17
 8.731064625319323e+00  4.611917331336505e-01 -1.601182873537528e-16
-2.374779413098776e-01  1.478713750127970e-03  4.211009971048859e-18
-1.342497327715031e+01 -7.207012002912537e-01  2.463183563692691e-16
 3.805324645805090e+00 -2.209453242584114e-01 -6.545015828401767e-17
 8.391079720405099e+00  7.847756297792653e-01 -1.573925573504287e-16
 1.787084144315573e+00 -3.193743363595212e-02 -3.147514852894647e-17
-4.140503599766188e+00 -5.960195208151554e-01  7.980908461367583e-17
-1.702685284507180e+00  9.783521645143464e-02  2.929609435601261e-17
 1.460031231986864e+00  5.227662936369484e-02 -2.652012073913567e-17
 3.079383173723869e+00 -6.052136339280873e-02 -5.417946177237056e-17
-2.370930568290192e+00 -2.299086117393381e-01  4.455576507746814e-17
-6.404561916856800e+00  5.676182699309712e-01  1.081447473844731e-16
 2.008856267706015e+00  1.489713679223912e-01 -3.728062021933625e-17
-3.437653430400990e+00  1.226112382017245e-01  5.991735738018797e-17
 3.165049882072369e+00  7.373488815548490e-02 -5.708343725408716e-17
-7.616510361841831e+00 -1.433654254496645e-01  1.370179148590844e-16
 1.036206087053449e+01 -1.094025581007537e+00 -1.731645179628577e-16
-8.580360956714070e+00 -7.210321351897983e-01  1.601061015194440e-16
-6.808010973246205e+00  2.575437252892555e-01  1.185105079390218e-16
-4.323062071443270e+00 -2.634006547730665e-02  7.720468089675141e-17
-7.611075715711282e-01  8.535859216918072e-03  1.345711426546282e-17
-4.684888139609980e+00 -2.937881246537056e-01  8.639173903564040e-17
-7.002219354736761e+00  5.731823171721988e-01  1.187236058720018e-16
 1.134292950156239e+00 -3.906458453772781e-02 -1.978472163844372e-17
 1.544626204318445e+01 -1.586606619517840e+00 -2.585828513797416e-16
 1.589927586023446e+01 -2.362436883889699e+01 -4.021477155371605e-17
-1.589137459829507e+01  5.918106136760668e-01  2.767253278380910e-16
-6.831829215303817e-01  3.841972966681372e-02  1.176330631332161e-17
 1.489250652615214e+01  4.116456223459720e-01 -2.692594272752581e-16
-4.691729454897253e+00 -7.333790796470276e-02  8.424844251257067e-17
-4.811121454423518e+00  2.286983728003507e-01  8.326985249393785e-17
 1.497510964068996e+01 -5.059002203695492e-01 -2.613019980351005e-16
-1.054896168755040e+01 -7.844589768441859e+00  2.683316662358230e-16
-1.504180837302624e+01  3.968223225039778e-01  2.636097173043406e-16
 7.970157887638024e+00 -8.731081278175937e-01 -1.328675979168146e-16
 5.235013795166035e+00  7.349634884273613e-02 -9.391846332436042e-17
-9.086800588100615e-01 -1.720352545124128e-03  1.618872155539671e-17
-7.395966681447059e-01  1.559914309380356e-03  1.314597738055356e-17
 1.103312966178989e-01 -3.612624198664034e-04 -1.959765182958469e-18
-1.241813939405179e-01  7.038514785893245e-05  2.209232876225599e-18
-2.556728793042909e-01  7.514991794952880e-04  4.542282502879410e-18
 6.614882941643525e-01 -5.608345957649763e-04 -1.176621087091417e-17
 4.058018794325647e-02  1.002528870904999e-04 -7.232029070451404e-19
 1.341430526340597e-01  2.043334264484565e-05 -2.387445578678684e-18
 5.675681061446233e-01  3.755397540945787e-03 -1.013913681409205e-17
 8.608760755449535e-03 -1.493776364682316e-05 -1.530496903879029e-19
 1.715162525878332e-01  6.914358901683245e-04 -3.059440557905238e-18
-1.873335833155355e-01 -7.930572620480883e-04  3.341972949769536e-18
-4.716398227626264e-01 -1.942353601668868e-03  8.413350215450592e-18
-4.805963989105530e-01 -1.075701766330716e-03  8.563838639974560e-18
 1.405170720318230e+00 -2.712348582653464e-03 -2.497882073255236e-17
 9.617294155505036e-01  7.266481763150421e-03 -1.718978259516816e-17
-1.873814229128859e+00 -3.621383821384659e-02  3.371884342250747e-17
-3.830517818569041e-01 -1.764776733378056e-03  6.834995814948923e-18
 2.733341961411261e-01  1.853396748746375e-03 -4.883351041919314e-18
 8.504418794417955e-03  1.314236171899911e-04 -1.526966103329048e-19
 4.077463059712198e-01  2.659091677868272e-03 -7.283653096733647e-18
 1.380957848133980e+00  3.345731855094958e-02 -2.491955396744182e-17
-5.584522291112101e+00 -9.443329342294199e-02  1.003535034113384e-16
-5.133214565881580e+00  3.089464678352342e-02  9.103424504731373e-17
-1.463311784421822e+00  1.312872375616221e-02  2.590648583827357e-17
 2.715961515623144e+00 -2.025280109953176e-02 -4.812568471330207e-17
-1.301293005154978e+00 -1.936822591913599e-02  2.335706275884267e-17
-8.346826341329043e+00  5.320722323927571e-01  1.430748822967662e-16
 6.658817371107919e-01  2.208081597382133e-03 -1.187284704289899e-17
-1.132010185441902e+00  9.114719710997744e-03  2.005182112542806e-17
 4.803961448240027e-01 -4.161740462743926e-03 -8.506462069929107e-18
 3.784732683643193e-01 -2.063928223833328e-03 -6.714177158745436e-18
-1.322957391743792e+00  1.950574400628843e-03  2.352356342340269e-17
-2.581260873206208e-01  1.632445453831359e-03  4.576888843207519e-18
 6.806886055046294e-03 -2.309074059124330e-05 -1.208994081665774e-19
 2.842913082861096e-01 -2.218618350160296e-03 -5.036507481169978e-18
 5.240996621631216e-02 -3.295776896330374e-04 -9.293115740958260e-19
-9.291261005169123e-02  7.047795916102882e-04  1.646249367343806e-18
-2.382452542291930e-01  2.326550179093576e-03  4.215954031359579e-18
 6.035830127955704e-01 -5.099714196824483e-03 -1.068908198166426e-17
 1.988187951186157e+00 -1.155787779547008e-02 -3.526342319839621e-17
 2.992506353150686e+00  2.994481216312702e-02 -5.356289220956301e-17
-1.237752631787193e+01 -3.127793663685566e-01  2.234865396369119e-16
-1.575674535630561e+01  8.141772102303914e+00  1.967563279672977e-16
 1.695087185709882e+01  2.723798280336663e-01 -3.044595882066662e-16
-2.184396312366882e+00 -1.851661932477747e-01  4.077645342590965e-17
-1.482449886400275e+01 -8.050015176677175e-02  2.646467504042034e-16
 2.021854307541047e+01 -7.991409909564910e+00 -2.777042578087616e-16
 1.069679808077779e+01  3.071490838630552e-01 -1.935181267182866e-16
-6.434169770875298e-01 -2.727549919151584e-03  1.147839718516953e-17
-1.421468840541015e+01  6.463548404181266e-02  2.523032299896401e-16
 5.515146711394662e-01  4.029184448820589e-05 -9.815275425524797e-18
-4.147287336892186e-02 -7.052960286025416e-05  7.387839197919952e-19
 4.578866595636034e-01 -1.371276977103358e-03 -8.134549920443652e-18
-4.706147583437136e+00 -1.384776738653006e-02  8.389379075391049e-17
 9.416653264556350e+00 -4.151378878518974e-01 -1.633151864386981e-16
 1.868970109705616e+00  1.944912940222687e-02 -3.346038522330796e-17
-7.012982717701588e-01 -6.241408839505339e-04  1.248685210589860e-17
 6.561837029736824e-01  1.814238504942943e-04 -1.167943578285057e-17
 4.090661576640888e-01  1.001156190100236e-03 -7.290106743404268e-18
 2.226663145175369e-01  5.908316019671115e-04 -3.968683254947328e-18
 7.338407250052861e-02  1.799817313624585e-04 -1.307806359369903e-18
-1.580939519116386e-01 -4.831054651935202e-04  2.818434191550965e-18
 2.913650363768219e-01  5.170515471150357e-04 -5.190500891375426e-18
-9.736525203833332e-03 -2.593700059111031e-04  1.759380147947277e-19
 3.918641494467883e-01 -6.963989468228441e-04 -6.966534721027731e-18
 1.092065499991775e-01  8.428826082504088e-04 -1.952121145398900e-18
 7.250257035147913e-02 -3.405657212678279e-05 -1.289919786777121e-18
-1.077922290471545e-01 -1.210646716455362e-03  1.930730211460698e-18
 1.441648234186387e-01 -2.113171760567063e-04 -2.563413793423387e-18
 6.259261756501219e-01  1.126187126838734e-02 -1.125481459731435e-17
-2.016562488255814e-02  1.631649735243092e-04  3.571948857838203e-19
 2.802550022586028e-01  1.136127922528420e-03 -4.999145364608660e-18
-1.430802193304424e-02 -1.335712480602158e-04  2.560007136813878e-19
 1.703497295427863e-01  2.276614490555190e-03 -3.054968024448824e-18
-2.655478161336073e+00 -5.018234690879890e-02  4.777300683348810e-17
-2.077852100617087e+00  4.032799435502257e-02  3.656350121597208e-17
 1.353983684552928e+01 -3.615285662256581e-01 -2.372429728645657e-16
-1.692845280215759e+01  1.505589524802075e+01  1.465681562767555e-16
-1.486960456461615e+01  7.152381013994884e-01  2.572735386688915e-16
 5.771921903920157e+00 -3.602643256047851e-01 -9.901665016088231e-17
 2.921290497899367e+00 -2.045941008343045e-02 -5.177763603669249e-17
-2.608570792893673e-01 -2.872793083151321e-04  4.645214578220546e-18
-4.465143887144678e-01  4.554025399528914e-03  7.899465220699274e-18
 2.575155054515793e-01  6.855582016367458e-04 -4.589839455424714e-18
-2.264275914513421e-01  2.450122106971640e-03  4.004374943055085e-18
 4.273670654764931e-01  5.418517036333816e-04 -7.611074039416755e-18
-3.864348570481465e-01  2.565384918874859e-03  6.850710833056098e-18
 7.335398794251564e-02 -3.539069178777028e-04 -1.301785449849298e-18
 1.937233414355471e-01 -8.319189704947258e-04 -3.438990277313572e-18
 3.946567775160857e-01 -1.401801653824382e-03 -7.008985120298508e-18
 6.790453223365546e-01  3.685820470775652e-04 -1.208820855249449e-17
-3.021920260144838e+00  4.904706591819426e-03  5.372828162565823e-17
-1.385108102770291e+01  5.149007196318640e-01  2.412060911879889e-16
 2.079454875349064e+00 -1.594420068882965e-02 -3.684255911578562e-17
-1.756743020894111e-01 -5.827331078016143e-04  3.132321115313422e-18
-2.836041339829975e+00  5.428600057918272e-02  4.991296966456942e-17
 3.435083088875815e+00 -2.676851912508689e-02 -6.085636428146081e-17
 3.234105981731074e+00  3.392418745365099e-02 -5.790333241407030e-17
-1.546045328247502e+01 -7.102546109954996e-01  2.824348161722304e-16
-1.485659273888824e+01  5.027174091362772e+00  2.127384018183360e-16
 1.589207512557876e+01  3.056738876735994e-01 -2.859591217517848e-16
 3.488313116086967e+00  2.044564381382993e-02 -6.228876448040295e-17
-1.265164457284275e+01 -1.032427298073634e+00  2.357589220133212e-16
-5.982753943772386e+00  1.736858428654104e-01  1.046856839598290e-16
 1.627714493974834e+00 -1.138150575824855e-02 -2.885018020067640e-17
 3.340845192929441e+00  1.690594653837228e-02 -5.962802777187716e-17
-3.342504608210093e-02 -3.748922538139973e-05  5.952237541893072e-19
-9.208720892841943e-01 -2.646821387367544e-03  1.641521237586883e-17
 4.694559915101209e-01 -4.177529235823665e-03 -8.311606761612201e-18
 4.766597404093879e-01  2.777206619061148e-03 -8.511263447121689e-18
-1.520261314074386e+00 -3.786825692316378e-03  2.709377173597788e-17
-4.687948723902137e-01 -4.504789046399079e-04  8.347392459668287e-18
-1.008928858008669e+00  2.119334301250003e-05  1.795487476484273e-17
 9.721764406109717e+00 -2.170479566577019e-01 -1.707803052176456e-16
 3.071194850411125e+00  3.311468987275312e-01 -5.805798990240853e-17
-9.952619604945850e+00 -1.303528322719806e-01  1.784580658029435e-16
 1.998289410215434e+00 -1.525517990273029e-01 -3.399452940891306e-17
 1.049502174374652e+01  1.840736839523357e-01 -1.886627210194389e-16
 3.016487133487600e+01  6.228377692981477e+00 -6.008141858023392e-16
-1.441423580558935e+01 -8.949197083554721e-01  2.657134949761897e-16
-1.058035153063139e+01  3.783798856805548e+00  1.494128174801181e-16
 1.372005819927359e+01  1.414328412085476e+00 -2.586965121807232e-16
-2.061053086682797e+00  3.409527124926754e-02  3.632858162969615e-17
-5.522538995850887e+00 -4.862730767066092e-01  1.032764481235129e-16
-1.561064429411467e+00  3.525445809834223e-02  2.741877687518986e-17
 2.424734518147536e+00  6.918996625656476e-02 -4.386194484462512e-17
-8.789228666669204e-01 -1.540028306753637e-02  1.579971314390688e-17
-9.903524399336980e-01 -1.488341150861220e-02  1.777742464241405e-17
 2.305861479967262e+00  7.046171905745630e-03 -4.110795238187710e-17
-1.829091229475368e+00 -5.731198525097309e-02  3.313972007459135e-17
 3.868769292284594e+00 -7.518954466030202e-02 -6.807681912965283e-17
 1.514858057787494e+01  3.377841687420481e+00 -3.042931574438761e-16
-1.154708955748062e+01  1.110023471483065e-01  2.043537237520452e-16
-2.286732247919372e+00  9.188068987716867e-02  3.975108741211291e-17
 1.051749072927823e+01 -4.339994467804036e-02 -1.867253745762952e-16
-9.875928049644310e+00 -8.282730375140770e-01  1.842641246521936e-16
-1.994041079305273e+01  4.278358278559768e+00  3.109048187385357e-16
 1.852087299624162e+01 -1.855464059957394e-01 -3.276946055457480e-16
-3.437096889713469e+00 -3.988461821444398e-01  6.526523870044347e-17
-9.446739307251393e+00 -3.957258520604143e-02  1.685225883894629e-16
-2.338014330107647e-01 -1.236995786349915e-02  4.287872209598682e-18
-1.195638338718992e+00 -1.378178248225397e-03  2.129197071813922e-17
 1.719274367034288e+00 -1.350700726477986e-02 -3.045775859391103e-17
 5.024394331274825e+00  1.509364473263412e-01 -9.096590763886062e-17
-5.851310335967256e+00 -2.141315064994422e-01  1.063311705569298e-16
-1.176017794725134e+01 -1.453828389868950e-01  2.107801504600832e-16
-9.519566090411816e+00  7.725742565787020e-01  1.614741140490393e-16
 1.539169335082148e+01 -4.896737130704452e-01 -2.688823235333125e-16
 4.657813064683992e+00  4.082787426533245e-01 -8.708625530461210e-17
-6.227676793177579e+00 -1.770782043463268e-02  1.110108785954350e-16
-6.445625981170480e+00  5.733645383304913e-02  1.141184917224484e-16
 1.055012843260049e+01 -5.253757468164625e-01 -1.823540752484934e-16
 2.854689580474873e+00  3.301677057374890e-02 -5.114184160084296e-17
-1.758778193890384e+00 -1.383742330666569e-02  3.144173040108223e-17
-3.021854850398962e+00  2.133767687974452e-02  5.355827478707172e-17
-1.938060628626161e+00  8.842151597615517e-03  3.439925079776370e-17
 3.055405616959979e+00 -7.005272153315147e-02 -5.365482132314304e-17
 7.298548087964808e+00  5.465353014180450e-02 -1.304479144054384e-16
-5.554563888912005e+00 -2.083959385468095e-01  1.009912827016155e-16
-8.535088498824368e+00  2.475745848903309e-02  1.516377069803378e-16
 1.267552106871041e+01 -2.031666561033428e+00 -2.047013813096774e-16
 7.361914852231856e+00  6.071478509054028e-02 -1.316378787547466e-16
-6.512422857257619e+00 -4.329678947042379e-01  1.203449208138909e-16
-3.992015257236009e+00  6.177957595217147e-02  7.040791066124002e-17
 2.826665378236571e-01  4.022075222502850e-04 -5.034520753653364e-18
-2.234926388027201e+00  7.455041405739037e-03  3.969658314869934e-17
-1.126635422645584e+00  2.729784234184816e-02  1.976934583240039e-17
 9.224339385622981e+00 -3.129457976667863e-02 -1.638365821318231e-16
-8.247024588780457e+00 -6.647764377894940e-01  1.535959763555030e-16
-1.188736318748913e+01  2.125528176336074e-01  2.093659046911887e-16
 6.738618900330803e+00 -5.291036061238880e-01 -1.144854141154871e-16
 9.997398851116147e+00  1.174524052413396e-01 -1.791224186512765e-16
-3.162699786747174e+00 -1.773649456891881e-01  5.810637574056600e-17
-1.751664637772490e+01 -4.965399735091309e-01  3.168313847709526e-16
-8.285042990348053e+00  9.298228961567069e+00  5.190629805249999e-17
 1.626405443236788e+01  4.856786195058190e-01 -2.944284204707607e-16
 3.890223226340909e+00  3.046200345880856e-02 -6.954414875272070e-17
-2.295594131674471e+01 -9.341014245729024e-01  4.181259112952680e-16
-9.731771355266494e-01  2.569936504328449e-02  1.705479631859479e-17
 5.731657619807456e+00  7.320586751645811e-02 -1.027538480013848e-16
-1.119729204819894e+00  9.843767346736294e-03  1.982577571144257e-17
-6.811833502267697e+00  7.579576779177242e-03  1.211468252330081e-16
 2.169369165223989e+00 -9.491364469421815e-02 -3.763130877381542e-17
 4.908914006135388e+00  6.182646066219163e-02 -8.799522472416504e-17
-1.452284631666929e+00  1.304525971000809e-02  2.571110206142826e-17
 3.742269269185765e+00 -1.496820460487026e-02 -6.644435272154549e-17
-1.059691618250582e+01 -6.045674922957209e-01  1.947964753052176e-16
-1.696023300756760e+00  8.896245491891064e-02  2.926870081316686e-17
 1.968869749733506e+00  7.945081048625213e-03 -3.512001857091892e-17
 7.589942674257927e+00 -2.938898725940043e-01 -1.320524718232690e-16
-1.212433595260742e+01 -1.838479445976245e+00  2.346567291487933e-16
-1.188604838309958e+01  1.417833728534275e+00  1.969586826611002e-16
 1.444080276431627e+01  5.016475495270483e-01 -2.621455571837795e-16
 6.766670410871214e+00 -2.907337001254627e-01 -1.174337884167754e-16
-1.152817253517751e+01 -2.054120226332216e+00  2.262629206878017e-16
-9.296721243728312e+00  1.410074141230060e+00  1.509582445015073e-16
 8.971322335358272e+00  5.846535523319780e-01 -1.656624852177531e-16
 3.241709018137086e+00 -1.776538255611880e-01 -5.586475029993498e-17
-3.361665290036971e+00 -4.735870707203557e-01  6.469077891600535e-17
-5.985353470574753e+00  6.388570394437015e-01  9.995248058724949e-17
 3.504876644007120e+00  1.854933036602259e-01 -6.427933693205278e-17
 2.286822949429465e-01 -5.493171402754734e-03 -4.013233909279237e-18
 4.299484231588324e-01  7.817478753666457e-03 -7.731766800990714e-18
-8.289871340091618e-01  3.019620694811723e-02  1.444255984352884e-17
 1.056536978541919e+00  1.102916012184249e-02 -1.891565642211736e-17
-9.085212934486566e-01  1.691989309522624e-02  1.599437438020714e-17
 1.181940625413852e+00 -7.190057658249378e-03 -2.096016807009395e-17
-1.122171303288629e+00  6.760964594675590e-03  1.990091046123596e-17
-1.432053017488470e-02  8.879674051656587e-04  2.457273753746748e-19
 2.331968099760352e+00 -3.303544199373302e-03 -4.146621128163190e-17
 2.446715629501083e+00 -1.852483836397478e-02 -4.335188719391981e-17
-4.964525162565509e+00 -8.448184578719396e-02  8.921766746084361e-17
-9.183788384742007e+00  1.118137140882104e+00  1.519480163249857e-16
 6.227919777995616e+00  4.695418329869112e-02 -1.113156985508139e-16
-1.980927733852006e-01  1.562645950966813e-03  3.509241575131949e-18
-1.720847999366336e-02  1.313203070398721e-04  3.048961601118960e-19
 4.976216795308289e-02 -3.507340472773622e-04 -8.819734721243100e-19
-1.681992915955357e+00  5.696534365822058e-03  2.987454047005955e-17
-1.944180283801415e-01  5.311276354288747e-03  3.405329309019991e-18
 4.380583016087386e+00  4.291152374799838e-03 -7.800179015164104e-17
-1.000730304547416e+00  3.500649650644883e-03  1.777322157750846e-17
-7.110147911856551e-01  8.619057499303341e-03  1.256479865136109e-17
 2.805587120916267e+00 -4.366223660674837e-02 -4.948015582261397e-17
-3.357779393906577e+00 -1.549248356421284e-01  6.134748602526706e-17
-1.077985340084351e+01  7.162919741400445e-01  1.844807101166737e-16
 3.692552971712176e+00 -8.501820392510254e-02 -6.483985360778025e-17
 5.344722758849533e+00 -5.756410334644161e-02 -9.452426665932908e-17
-1.169892623246108e+00 -6.029805500248134e-02  2.143917534769872e-17
-4.070311473120126e+00 -2.449972212129533e-03  7.246122048130090e-17
-1.158403678903691e+01  2.735481509814480e-01  2.033411447242699e-16
-3.011490925545579e+01  1.008015077985504e+01  4.323608451759046e-16
 1.742521282201490e+01 -4.268766198223725e-02 -3.096638474426673e-16
-8.505428103887935e+00 -1.052258886244400e+00  1.621758164953476e-16
-7.903843499565026e+00  2.848572465476675e-01  1.377315183992524e-16
 6.019926310911721e+00 -1.548300908021022e-01 -1.055409465985790e-16
 9.543008238901912e-01  1.966192247082856e-02 -1.718494058881912e-17
-7.870709167562183e-01 -7.855748937252017e-03  1.408758078238085e-17
-8.428625974027920e+00  1.551285627171881e-01  1.484035636086250e-16
 1.792085433002598e+01 -3.996055770392946e+00 -2.778649581780886e-16
-1.497263379168531e+01 -1.196579786072533e+01  3.894001045650727e-16
-7.330922829911374e-01 -1.847658719239209e-02  1.323609180854842e-17
 2.152240137691314e-01 -8.899901668352268e-03 -3.738724808332927e-18
-1.461284682935237e+00  4.175900648764464e-02  2.557624539449237e-17
 1.079750444572847e+00  1.589164919889726e-02 -1.937872804654179e-17
-8.483890741904017e-02  1.354647822371739e-03  1.495891051825563e-18
 1.218125209014348e+00  1.509624581785572e-02 -2.183309958724461e-17
-1.249776759233594e+00  2.954771459234384e-02  2.193767622487477e-17
 3.039605831252933e-01 -2.079547475538611e-03 -5.387974559637686e-18
-2.496759070061227e-01  4.289536131140913e-03  4.399207154458880e-18
 3.672544856398471e-01 -5.204784041762127e-03 -6.482254385303830e-18
-6.344454732157306e-01  9.199787205603934e-03  1.119618951068927e-17
-5.644183992989970e-01  1.076075483541675e-02  9.933935835262570e-18
 2.873281998196648e+00 -6.186944321211087e-02 -5.049779447928510e-17
 4.187892299183628e+00  4.305068019752561e-02 -7.497086905064237e-17
-1.358828006701802e+01 -3.020501985968778e-01  2.449231085426558e-16
-1.031759205075184e+01  3.774634524756498e+00  1.448308590916029e-16
 1.544946509639028e+01  2.288450315983299e-01 -2.772929597201276e-16
-5.197076573062209e+00 -1.186796018400205e-01  9.370756671076848e-17
-3.013839095481096e+00  3.886132660545281e-02  5.323557572471542e-17
 8.151372995987011e-01 -1.403036016999778e-02 -1.436218372532429e-17
 2.353223400804471e-01 -2.335586122242903e-03 -4.163844412470149e-18
 1.326568220432372e+00 -2.207240819236155e-02 -2.338107789078466e-17
 3.468232371751195e-01 -1.057616618968861e-03 -6.161266584706127e-18
 9.732733621397581e-01 -3.004530037508735e-02 -1.701185589501309e-17
-7.887068370397089e-01 -4.366326778236492e-03  1.408084140812705e-17
 5.667424765009687e-01 -1.230241048749282e-02 -9.959455605335391e-18
 4.457283577101924e-01 -2.847577923861732e-05 -7.931975231167440e-18
 2.070512162436384e+00 -6.143336216419933e-02 -3.621602825044777e-17
-2.464825122569703e+00 -6.971104364418113e-02  4.458075885406877e-17
-2.142658953355300e+00  1.411940264911731e-01  3.668045460535740e-17
 6.582037892907680e+00  7.593458876700261e-02 -1.179154159556307e-16
 1.800537893679687e+00  5.954812959642979e-03 -3.210390316592490e-17
-1.969467114101034e+01 -5.759531222651912e-01  3.564078747088727e-16
 1.974577292678290e+01 -4.091936140944496e+00 -3.093564256205639e-16
 1.400156753055384e+01  8.972417758964188e-01 -2.583934291802683e-16
-7.000859272018703e+00 -4.520449005964298e-02  1.250531013838350e-16
-9.489840542504838e-01  1.915214513625051e-02  1.669152190064425e-17
 1.629950067634571e+00 -5.269316840052139e-03 -2.895276541142619e-17
 2.442020946691090e-01 -5.756772013632913e-04 -4.339952699148391e-18
 6.058452732383649e-01 -7.354126297641547e-04 -1.077418321089743e-17
-1.296152770974305e+00 -9.477857755020073e-03  2.316396619962194e-17
-5.013952869188803e+00  6.243713251236854e-02  8.858775331615836e-17
 5.161837588231481e+00 -1.639390328136220e-01 -9.017664312467887e-17
 1.719400393485662e+01  5.783059584960644e-01 -3.119296934522671e-16
-1.778538010050329e+01 -1.390833481785592e+00  3.308023628317275e-16
-1.201676022734119e+01  8.947088627303404e-01  2.046597738143603e-16
 9.469747385152447e+00 -1.208438058272930e-01 -1.672838244222820e-16
-3.237461155646921e-01 -8.646906574114111e-03  5.850292186715159e-18
-3.277697778787422e+00  3.056099940373190e-03  5.829914143838522e-17
 4.223839238909193e-01 -2.505274694414297e-03 -7.491084984854627e-18
 6.866708531642306e-01 -2.058660087503333e-03 -1.219897494193141e-17
 4.048722823362080e+00  3.029493965983779e-02 -7.236312162870328e-17
-4.393499396585861e+00 -8.015021156659394e-02  7.901107679566823e-17
 2.089648465827411e+00 -1.412319101111553e-01 -3.573668050144389e-17
-4.109453955762377e+00 -1.362729940847988e-01  7.453279057201076e-17
-1.990520447370191e+01  2.572066509305610e+00  3.278098083365235e-16
 1.726052481105104e+01 -3.750144900287213e-01 -3.033184904586778e-16
 1.498853551429417e+01 -4.067329741024870e-01 -2.625598349008811e-16
-1.205988593357321e+01 -3.022424119610493e+01  5.251631544117370e-16
-2.783236243875882e+01 -2.340495229387437e-01  4.977148630734153e-16
 4.787747288695510e+00 -2.072740656673319e-01 -8.307400830737376e-17
 1.596781048467707e+00 -5.404466720875251e-03 -2.836109453667269e-17
-2.657568098150337e-02 -1.680380545831985e-04  4.746724772988907e-19
 1.026535185488209e-01 -9.100819714960902e-05 -1.825906746520430e-18
-8.424248386343447e-02  1.471083685660275e-04  1.497684000006045e-18
 1.104140802195552e-01 -1.899425989822202e-04 -1.962998678168199e-18
 2.200809314180953e-02 -2.156909123610740e-05 -3.914386549249061e-19
 2.641630114486281e-01 -6.410900927990525e-04 -4.694508849896177e-18
 2.760722529445681e-01 -1.679466146480993e-04 -4.911309461920910e-18
 6.604144472566607e-02 -3.318564329373407e-05 -1.174945315209960e-18
 6.515276567958119e-03 -5.320052597599686e-06 -1.158924649137574e-19
-9.716877383690001e-02  1.322487765149832e-04  1.727875429582734e-18
 1.356575733169749e-01 -8.510380849835837e-05 -2.413313927512808e-18
 2.796205708663885e-01 -5.579882171527655e-05 -4.975608287864109e-18
-4.280958970812423e-02 -4.977314517258681e-05  7.623591530498210e-19
 3.250936284203060e-02 -1.378803598133311e-05 -5.784012233544023e-19
 4.806552959272562e-01  9.523240119292044e-05 -8.554812804215572e-18
 1.798649248605612e-01  5.931607037352506e-05 -3.201520344109956e-18
 2.285788262341792e-01  8.763573959637653e-05 -4.068733296907131e-18
-3.665433724329509e-01 -8.687443927674862e-04  6.532002573497354e-18
-1.334590449965309e+00  1.316928691315032e-02  2.361531938089107e-17
 4.929998370645993e+00 -4.597986477827064e-02 -8.726277531549049e-17
 4.079476296041525e+00  9.241619872407970e-02 -7.354868973139949e-17
-2.002856079280746e+01 -8.103867431219963e-01  3.647585596341441e-16
 1.824963415885043e+01 -7.098696642479045e+00 -2.518374794605453e-16
 2.066892909966536e+01  1.209783330944264e+00 -3.802583323734593e-16
-7.341833088572084e+00 -3.809017368411354e-01  1.345703044080424e-16
 5.782392216646662e+00 -1.748034906248659e-01 -1.011085246104699e-16
 6.863361348693210e+00  2.925879544801368e-01 -1.251479370532014e-16
-7.481030538310811e+00 -2.986059796678447e-01  1.362019300885247e-16
 6.994638265322128e+00 -2.987918983861813e-01 -1.214079532275289e-16
 7.394268994657694e+00  1.979572551437163e+00 -1.519292258063629e-16
-2.413199076122546e+01  2.011453924029431e+00  4.087906028919128e-16
-2.773541504198046e+00 -3.003528281415753e-01  5.244449566755956e-17
 1.600211000069710e+01  1.303616750847598e+00 -2.981708240181759e-16
-2.825548265781049e+01 -1.569035964999820e+01  6.640527637997156e-16
-2.896160428006119e+01  5.794575306750605e+00  4.558691385432955e-16
-3.442281067278877e+00  8.774694898153041e-01  5.224381744571717e-17
 2.408786173101578e+01 -5.501365512274634e+00 -3.721477003946326e-16
 2.766967822050601e+01  2.501323148405735e+00 -5.181151162103976e-16
 1.846400836729304e+00  1.760507433192793e-01 -3.466776279123813e-17
-9.957931375635656e+00 -1.422325840778413e-01  1.786746552125523e-16
-9.578789821462520e+00 -1.407585967165324e-01  1.719122343104810e-16
 1.342636939721732e+00 -5.994922374250961e-02 -2.327786942579130e-17
 3.835755520094329e+00  3.389648533084277e-02 -6.861011900963554e-17
-1.761017015653617e+00 -2.377673287158212e-02  3.158369569799216e-17
-2.713479432797719e+00 -1.015593825531899e-02  4.839395184126762e-17
-3.148745219972735e-01  8.881816020239983e-04  5.594441907046885e-18
 4.630132926672675e-01  8.347878023660879e-04 -8.248450982715355e-18
-8.803744569045130e-02 -2.395405682914881e-04  1.569192556184269e-18
 1.197021635232115e-01  2.815331321069548e-04 -2.133135449564877e-18
 3.218780606940203e-02  9.426586818811278e-05 -5.737889428781892e-19
-1.540238007783069e-02 -4.539867933301898e-05  2.745701153683359e-19
 1.358070793440567e-01  3.817591147034012e-04 -2.420771390666636e-18
-1.732683260341479e-01 -9.207179662046563e-04  3.092976570075920e-18
-9.592272265607023e-02 -2.246956913971572e-04  1.709367941062419e-18
-6.264101119868599e-02 -2.468621815097834e-04  1.117307934420729e-18
-9.216543302305814e-02 -2.138952952616719e-04  1.642391520488814e-18
-1.953722188669319e-01 -7.011243716920226e-04  3.484085483116932e-18
-1.137783634800805e-01 -2.726608636184092e-05  2.025101845726540e-18
 1.575906738172834e+00  5.153048227016653e-03 -2.809808591396565e-17
 1.617667862236658e-01  5.427466436110101e-04 -2.884409443919337e-18
 4.239404021051921e-02  1.418677888481953e-04 -7.559101539314398e-19
 7.271026844648260e-02  2.700555854677526e-04 -1.296740683163719e-18
-4.387482496773143e-01 -1.301097197705814e-03  7.821416763795054e-18
-7.260678592098104e-01  1.245732179069639e-03  1.290844419507784e-17
 1.941363209348250e+00 -8.203461649348018e-04 -3.454044529128217e-17
 2.070929066552877e+00  1.979918616387954e-02 -3.705808247410716e-17
-3.279141613972321e+00 -1.010148000657985e-01  5.939412694469559e-17
-5.499330374348903e+00 -3.241567567560448e-02  9.820020314466312e-17
 5.159284567322883e-01 -6.621066708288990e-02 -8.501271758885759e-18
 5.010512314673472e+00  6.931192710208302e-02 -8.988019825283309e-17
-8.829841743433616e-01 -7.028158615626822e-03  1.578596840909449e-17
-1.095830165742951e+00 -7.368429952518847e-04  1.950917574705718e-17
 9.955573358811121e-02 -1.854437502583218e-04 -1.769807667043766e-18
-5.860181344605874e-01 -1.238128388044397e-03  1.044161304856524e-17
 8.559319923610886e-01 -9.975094405601655e-03 -1.512984033349094e-17
-4.227360749983231e-02 -1.081866339003080e-04  7.534208590745676e-19
 4.794438184581680e-03 -4.588716152836838e-04 -8.060800335378778e-20
-1.687940588162099e-01 -8.722599559257678e-04  3.012853794974157e-18
-2.308741097411680e+00  6.109143499100287e-04  4.108052486158632e-17
 1.863689177513905e+00 -2.071070469351861e-01 -3.103862185909249e-17
 2.136490857838630e+00  1.074572571645616e-03 -3.803244415518893e-17
-1.837330328018891e+00 -3.269080849377825e-02  3.303337096073985e-17
-1.866804957184574e+00  6.441664873394999e-03  3.315583525309579e-17
 8.264782769773171e-01 -3.966408877518451e-03 -1.466741339139441e-17
-1.297723126952140e+00 -8.610620809934135e-03  2.318300202458238e-17
 1.299977145925866e+00 -2.282159497228763e-02 -2.290016039075469e-17
-2.128866799664617e+00 -6.900406232170965e-02  3.859471574505648e-17
 2.010632594619256e+00 -8.767460276536637e-02 -3.488078063072941e-17
-8.045874726004196e-01 -1.751317989472461e-02  1.449853537369016e-17
 2.302392415214523e+00 -1.714206946889165e-01 -3.921253405863454e-17
 3.534347381688694e-01  1.364292334359114e-02 -6.429968820535231e-18
-3.314111660056884e-01  1.640342976322757e-02  5.729317775271833e-18
-5.099241096563013e+00 -2.062218143950873e-01  9.286593213569648e-17
 1.832291373970523e+01 -6.515739247550579e+00 -2.591312526840864e-16
 4.181835695917424e+00  2.881158290703083e-01 -7.738103996066950e-17
-2.144012806527556e+00  8.391657787347490e-02  3.729305299417810e-17
-2.049652871181518e+00 -6.744680271224557e-02  3.716900915557755e-17
 2.454685879708091e+00 -1.492295119840630e-01 -4.215078425979647e-17
 1.119116247677301e+01  2.396171516656788e+00 -2.237798775427380e-16
-2.909601940493173e+00  1.955833199949912e-01  4.977028966754535e-17
-1.874536724640983e+00 -1.008658400868540e-01  3.439597691116920e-17
 1.411869844629304e+00 -1.167509092662480e-01 -2.392633482718607e-17
 1.195108318341813e+00  4.817576491436311e-02 -2.176336658727876e-17
-4.238111439198406e-01  1.479426024754539e-02  7.390219184870577e-18
 5.938312613711538e+00  6.014652540209823e-01 -1.118591935064265e-16
 1.873656483628833e-01  6.757617602642696e-05 -3.335089535603624e-18
-9.220579037124160e+00 -6.373661085436847e-01  1.706399078985238e-16
-2.183436377386654e+01  1.513000591627598e+01  2.331132338371446e-16
 1.524377625451558e+01  8.047582136821191e-01 -2.795497802087747e-16
-1.137876543544286e+00 -1.168216461371219e-02  2.036990039834594e-17
-1.124623966093427e+00 -3.711332116847499e-03  2.005215756769249e-17
-2.520357314572192e+00  2.425692022085990e-02  4.460353373600922e-17
 5.393961868312743e+00 -5.421661207958395e-02 -9.543492960268512e-17
-4.125962656507845e+00 -9.051914203147938e-01  8.272693987455695e-17
-3.636482687646348e+00  1.914865966922607e-02  6.451880166228181e-17
 5.054070331463441e-01  1.371301860729517e-03 -9.008410655738850e-18
 3.074145669939355e-01  1.459329611714200e-03 -5.485803000396156e-18
 2.155549527122784e+00  1.374890461136612e-02 -3.850184006698425e-17
 4.225546580165933e+00  1.549675853902468e-01 -7.679087743839354e-17
-9.542158561975466e-01 -6.035684501339377e-03  1.704342386322543e-17
-6.486935346980743e-01 -6.907662107725503e-03  1.161524895696386e-17
 4.947861558816745e-01  3.608901094772994e-03 -8.842389994038266e-18
 4.723074540487913e-01 -1.562697797970965e-03 -8.389218381888902e-18
 2.107281091377363e+00  5.993436586869364e-02 -3.811738438518801e-17
 6.183818363875672e-01 -1.642207770656451e-03 -1.098796931756097e-17
-1.247767439403026e+00 -2.772925566085086e-02  2.249041801225118e-17
 5.978691054098038e-01 -3.015204685957417e-02 -1.032999247720790e-17
 1.472278569850528e+00  5.609781151346734e-02 -2.677733798232728e-17
 1.751770863989021e-01  4.256365113467448e-04 -3.121858469927737e-18
-5.114248381656544e-01 -1.781533673337579e-02  9.284461166302651e-18
 1.826968842184682e-01 -1.603693296836284e-03 -3.234831620106026e-18
-2.795734039985950e-01 -7.861403639367874e-03  5.056115276497447e-18
-3.481331558644852e-01  2.316502631477800e-03  6.171643547636106e-18
 4.532746729285746e-01  2.751269569673404e-02 -8.349246444074048e-18
-7.755416597920137e-02  6.697255348335349e-05  1.379480765304605e-18
-3.867328894610877e-01 -1.136710899429394e-02  6.999165982863972e-18
-2.241262105853983e+00  2.702786255059761e-02  3.960823119417731e-17
-9.924896472461288e+00 -3.192813953193525e-01  1.799058719603004e-16
 9.412128967701644e+00 -6.297361894028013e-01 -1.610297515891250e-16
 1.813812477219430e+01  3.084200056963983e+00 -3.544786013882734e-16
-1.623264689524895e+01 -7.130937553990299e-01  2.962060937960766e-16
-1.954254247577405e+01  2.259976587475428e+00  3.245624160754213e-16
 1.510304989980358e+01 -7.529499838535262e-01 -2.610405009918111e-16
 1.667409961300912e+01  1.631658039009754e+00 -3.135001858123264e-16
-1.730886620547930e+01 -1.464185263445403e+00  3.230758925493658e-16
-6.551903344614411e+00  1.924922059282732e-01  1.146211479217247e-16
 4.909100641942231e+00 -7.209817254782476e-02 -8.662251917867395e-17
 4.837635992601366e+00  1.221399621487173e-01 -8.734644677061409e-17
-8.533531022301164e+00 -1.456511983644553e-01  1.533608768582871e-16
 2.528103696686261e+00 -1.922621288596992e-01 -4.301519738602646e-17
 1.396980075985283e+01  1.215559833287526e+00 -2.610987040150347e-16
-1.390923160446778e+01 -8.755305672602910e-01  2.565271264537368e-16
-1.014488105738518e+01  1.882340311373140e+00  1.611998968793257e-16
 5.604687302510473e+00  2.428901967106097e-01 -1.022377046192803e-16
 2.166384157537716e+00 -3.762104462674139e-02 -3.816684767613850e-17
-2.119894552581949e+01 -2.950391238434184e+00  4.075747208314941e-16
-1.280652318104386e+01 -2.610731380445826e+01  4.961505213164660e-16
 2.228501806955254e+01  1.365712893350990e+00 -4.106206829299668e-16
-1.967928307283076e+00  2.022743155734746e-02  3.481380216126115e-17
 5.064024739490918e-01  1.522933230420339e-03 -9.027683686919916e-18
 7.090062793199340e-01  6.499643380578976e-02 -1.328542721863698e-17
-2.411905044341129e+01  5.698567919670883e-01  4.233722013637528e-16
-1.830245312215280e+01  2.051111808892570e+01  1.149696979899153e-16
 1.345833094170428e+01  3.883995620203795e-01 -2.434977171902880e-16
-3.467252589361532e+00 -1.145459736593578e-01  6.288081392632884e-17
-5.086663348888047e+00  7.447055314951341e-02  8.975808400595762e-17
-6.427143272652125e-02 -5.834139251484259e-04  1.149781187854521e-18
 1.753536635256767e+00 -1.049430898274603e-02 -3.109845090529633e-17
-2.325181840400028e-01  2.268438300631818e-03  4.114631062712469e-18
-1.289038529398157e-01  1.273259987882455e-03  2.280915538334075e-18
-1.977948478389288e-01  2.022960627113121e-03  3.499210067064927e-18
-8.511762963653904e-02  8.850684618092053e-04  1.505675994457327e-18
 1.566996644042240e-01 -1.678355703836960e-03 -2.771412957990945e-18
 1.409059414389542e-01 -1.383235132526643e-03 -2.493377068132558e-18
 1.208930558258363e-01 -9.880879682081761e-04 -2.141283883912023e-18
-2.137428424783547e-01  1.903501823189868e-03  3.784251059314846e-18
-1.815036676239425e-01  1.812420470334102e-03  3.211452306655074e-18
-3.640350270661798e-01  3.954678096587762e-03  6.437804661297845e-18
 2.185819631196022e+00 -3.551464716473412e-02 -3.853436759421887e-17
 5.337709795334105e-01 -1.077725683396154e-03 -9.488018044416445e-18
-3.465936997223672e+00 -1.809961801987940e-03  6.169907988777434e-17
 1.113936695889361e+01 -2.039821488450468e+00 -1.772798977196319e-16
 9.550166750356253e+00 -7.315361071651520e-02 -1.692049824007536e-16
-3.400970316276897e-01 -4.722900899920054e-03  6.100958436736150e-18
 7.538278930692122e-01 -1.139960395278839e-04 -1.341409528671936e-17
-9.645250620312272e+00 -1.116725052909780e-01  1.727961344212861e-16
 7.102236027481226e-01 -2.594196867352835e-02 -1.237273189213838e-17
 8.781271323531358e+00  7.266381340964442e-02 -1.570197921072105e-16
-6.593451169876954e+00 -2.209969516131109e-01  1.196089919472526e-16
-7.535855409046319e+00  2.492263837967315e-01  1.315488255303816e-16
 5.506587353521101e+00 -8.552460963853499e-02 -9.711755614373352e-17
 1.756974221980805e+00 -2.447144480459428e-03 -3.124230855363716e-17
 3.274049365620251e-01  4.854385660762454e-04 -5.831549094474322e-18
-5.486558970540866e-01 -7.378212034404281e-04  9.771566978587158e-18
-1.484626533372779e+00 -4.909561501750582e-04  2.642574447975196e-17
 2.248925970629598e-01 -1.434054767740898e-03 -3.987497632927315e-18
 1.170015989343113e+00  2.303015787374831e-03 -2.084549283007329e-17
-5.115304548043009e+00 -9.594807146272541e-02  9.201877781286390e-17
 1.269793752000009e-01 -4.344340369706517e-03 -2.215112884520589e-18
 1.344059432693633e+00  8.161234156475679e-03 -2.400299457147557e-17
-3.174282105206410e-01  7.145826397561040e-04  5.641671561154435e-18
-1.976680017921362e-01 -4.709682572155050e-04  3.522576925955555e-18
-6.642678104588238e-01  4.453240016874375e-04  1.181686251197516e-17
 2.600397107116506e-01 -1.430381017987611e-04 -4.626247170226152e-18
-1.259093002390115e+00 -5.989428916096926e-03  2.246860110907882e-17
-1.708778926103127e+00  2.814158360634475e-02  3.012061476350882e-17
 2.960912124248762e+00 -1.379184184588863e-02 -5.255125698669973e-17
 1.234150691455985e+01  4.175251098245491e-01 -2.239217558554261e-16
-2.528142451890605e+01 -2.427166311748098e+00  4.748513582189852e-16
-4.371747706998603e+00 -5.844468274143493e+00  1.378502536437723e-16
 2.666978641202788e+01  2.150876401694106e+00 -4.967201357610419e-16
-2.199567138643473e+01 -2.995711709143853e+00  4.222190592932611e-16
-1.267323473615914e+01  5.271493154951208e-01  2.201190615880017e-16
 9.987859817684607e+00 -2.750060518283649e-01 -1.749202921181418e-16
-8.038161974668496e+00 -6.829045446634110e-01  1.500652767102149e-16
-6.186753226599401e+00  7.319024779743563e-03  1.100254531753180e-16
 6.461289994161138e-01 -6.922625584330162e-03 -1.142750881055063e-17
 1.100789358882406e+00 -5.198109957122723e-03 -1.953645102031823e-17
 1.295025736038604e+00  3.204876298830019e-03 -2.307945667335461e-17
-1.736870806435221e-01 -7.924309275027033e-04  3.099110726010111e-18
-1.223175383726398e+00 -2.673909760376226e-03  2.179533845846674e-17
 6.945899211944787e-01 -2.561112866482473e-03 -1.233474167751773e-17
 1.402416929603622e+00  1.047460597370796e-02 -2.506530491360105e-17
-2.022121664241913e+00 -1.382084887914712e-02  3.612807132917068e-17
-4.598802000858626e-01 -9.467234416624139e-04  8.193843965043172e-18
 3.080646488771104e-01  5.378075253014501e-04 -5.487903679041742e-18
 6.279337794343622e-01  1.844679061518288e-03 -1.119378403558327e-17
 1.097457449058663e-01  5.712702896050368e-04 -1.958926012191182e-18
 1.046544495837591e+00  2.359867807683343e-04 -1.862693232875218e-17
 7.101671357369483e-01  1.430349954640531e-02 -1.278523448542564e-17
-1.062519044796461e+00 -8.891600784190995e-07  1.890880296118464e-17
 6.928280677369844e-01  5.811757807214549e-03 -1.238941560047142e-17
-7.225369293214337e-01 -5.266366993177712e-03  1.291251653833303e-17
-2.886880173286000e+00 -6.773118014823538e-03  5.144506760611323e-17
 1.205696282610126e+00 -3.974696383468437e-02 -2.104841794530122e-17
 3.055220510776636e+00  8.858560766327010e-02 -5.528147832610742e-17
-3.174918919235584e+00 -4.441264745390976e-02  5.695779316842505e-17
-1.048787977749544e+01  6.381964884816754e-02  1.859886073283213e-16
 3.741948325382279e+00 -1.517783338818909e-01 -6.503296675485766e-17
 4.578045292416062e+00  1.537771906004232e-01 -8.305178162572998e-17
-5.214553106135090e+00  7.413059582379160e-03  9.272302621729059e-17
-4.291390936047579e-01 -1.207069271779876e-03  7.649444261451036e-18
-1.078041354320951e+00 -3.129533932769452e-03  1.921718666668360e-17
-8.411936795282557e-01 -8.586023182410876e-05  1.497092712295244e-17
-4.094053504356100e+00 -2.545245488925297e-02  7.312008041167351e-17
 3.032573004829690e+00 -8.466156702994072e-02 -5.309838715941007e-17
 1.036386563323041e+01  6.289209896988915e-01 -1.908992860033643e-16
-2.747043271190218e+01 -1.704251754379968e+00  5.063796857124774e-16
 1.462292324333523e+01  1.974794902864572e+01 -4.631353643749614e-16
 2.526079645117956e+01  2.711681489607417e+00 -4.774075472545286e-16
-1.352631384865580e+01 -4.950723672308156e-01  2.458035784586604e-16
-9.064504395086894e+00  1.690177885734356e-01  1.595770718486664e-16
 1.601565164833653e+01 -1.068520746593869e+00 -2.740389627366810e-16
 1.022211055316411e+01  3.851331736859812e-01 -1.858717541179609e-16
-8.979872632465728e+00 -3.412682678726569e-01  1.633139525574490e-16
-9.495821473025787e+00  2.027930662424556e-01  1.669058450523155e-16
 1.508656521919779e+01 -2.097487335990644e+00 -2.469325035602457e-16
 2.306683745923347e+01  5.800771889001775e+00 -4.701027115929142e-16
-1.536709438835989e+01 -6.363632458424641e-01  2.800141763662842e-16
-7.495067161100320e+00  4.982167971810240e-01  1.282646639671470e-16
 6.559379485637717e+00  2.323168810581925e-02 -1.169706794150006e-16
-1.097233809957218e+00 -8.064474748511949e-02  2.035517997535784e-17
-4.832380377274002e+00 -4.677468576329185e-02  8.647856598998385e-17
 3.285688233759968e-01  4.661686241929427e-05 -5.847753117739611e-18
 3.086202016984946e+00  1.217121137182821e-02 -5.504770102353296e-17
 1.304389713611262e+00  1.776967727617600e-02 -2.339574786350432e-17
 3.957388705238279e-01  5.992889295011503e-03 -7.104220015875652e-18
 8.163416469907230e-02  1.274134251596860e-03 -1.465868604081896e-18
-1.969863710631718e-01 -3.063680187926135e-03  3.537085647380343e-18
-8.013347778154667e-02 -1.234848820620096e-03  1.438758451599264e-18
-1.432696398866947e-01 -2.147870380567880e-03  2.571722720123503e-18
-9.724814607714075e-01 -1.491130165596598e-02  1.745967582182486e-17
-5.727298185365612e-01 -7.158271724096023e-03  1.026595893926465e-17
-2.336956558184576e+00 -2.480806854430801e-02  4.184382346781289e-17
-2.426098276060815e+00  2.260164666577565e-02  4.294308907145499e-17
 8.383030963461678e+00  1.518210665155756e-04 -1.491875955394086e-16
 1.845249514221453e+00  1.724425030298685e-01 -3.461020025441706e-17
-6.815109148604411e+00 -1.027745256804780e-01  1.223389675726263e-16
-1.343688156763726e+00 -6.468786152359723e-03  2.397899798600971e-17
 2.927800234916475e+00  1.631495502478312e-02 -5.227132782717624e-17
 1.599611793210373e+00  5.957923080121688e-02 -2.907915492071811e-17
-3.058950390917261e+00 -2.897565412708114e-02  5.473538537239967e-17
-1.018557604809232e+01 -1.543744547719554e-01  1.828506169970605e-16
 6.669650074369279e+00 -3.531501929734677e-01 -1.150658889833078e-16
 9.649336473053916e+00  1.364059117858646e+00 -1.857366646388547e-16
-4.200723372350744e+00  2.914769268972157e-03  7.472693502615941e-17
-1.804520753047215e+01 -9.667773137138461e-01  3.310692788170423e-16
 1.505646778281728e+01 -6.987401986116368e+00 -1.961547868063298e-16
 1.456315644139134e+01  1.236328179801407e+00 -2.718715633777195e-16
-5.147131080017020e+00  7.274681683222789e-02  9.085189015951583e-17
-1.878062326338300e+00 -1.921081540371168e-02  3.361974348461358e-17
-1.647682618206869e+00  2.402201483040551e-02  2.907566014111302e-17
 8.622842956731219e-01 -2.118326133480327e-03 -1.532361257788738e-17
-1.167637628390897e+00  1.743359722305381e-03  2.076159201339100e-17
-7.431588227880447e-01  5.483533852021736e-03  1.316905638943093e-17
-4.638937011304498e-01  1.433966130250157e-03  8.240808283546576e-18
-3.418973798203798e-01  3.074693240270645e-03  6.052880347763404e-18
-2.558374362337401e-01  1.079746571502707e-03  4.541838347367707e-18
-9.237845645587289e-01  7.695887702768064e-03  1.636077580427859e-17
 2.600331835735725e-02 -3.946521775921079e-04 -4.587051613442734e-19
-3.359937260537976e+00  5.885377357106638e-03  5.973362133041643e-17
 3.268718191242068e+00 -1.905071174019386e-01 -5.621334778426537e-17
 5.137654496775374e-02  8.640566979809323e-03 -1.003085572327660e-18
-7.427398134356546e-01  1.695680876761551e-02  1.304371590245609e-17
-3.813711119254198e-01 -2.259372400933218e-03  6.810168009198599e-18
-2.242761189003752e-01 -2.575543363483340e-03  4.017723834498975e-18
 2.054465453930086e+00  3.053310328624857e-02 -3.687537994956298e-17
 5.386609561515037e-01  3.131490053475231e-03 -9.618289174627844e-18
-5.302737293962482e-01 -2.790101928168540e-03  9.465520833898214e-18
 5.673965041418342e+00  4.641549602876385e-01 -1.057439996688077e-16
-3.016479740889992e+01 -4.045870886838099e-01  5.409755371257310e-16
-2.923589693907491e+00  3.168563086053123e+01 -2.735295807073625e-16
 1.252723686749787e+01  2.515228109066707e-01 -2.255214285913171e-16
-2.628088909143343e+00 -9.550077423263470e-02  4.775121279864553e-17
-5.619252238261469e+00  2.870214698087271e-02  9.970639233688206e-17
-1.072644655805579e+01  2.736267359298217e-01  1.880784961565203e-16
 1.269022076478914e+01 -2.495336101184598e+00 -2.001989438995296e-16
 5.885866629441949e+00  1.006320816424979e-01 -1.057799756682126e-16
-1.220838362344280e+00 -2.127583442391152e-02  2.194487637903469e-17
-2.075957009782935e+00 -2.510186304955166e-03  3.696992253191519e-17
-1.133490828744934e-01  2.698655006258184e-04  2.014409357839287e-18
-9.545925178213593e-01  2.680162730655085e-03  1.696057484620570e-17
 1.932516220402944e+00 -1.321176788605332e-02 -3.425568520539959e-17
 8.890968479868105e+00  4.648918835139568e-02 -1.587030491694040e-16
-1.476446379815523e+00 -4.055022641777861e-02  2.669176333575992e-17
-7.909088888425290e+00  4.201126604916137e-01  1.364351662298621e-16
-3.050739387537618e+00 -8.341057839670510e-02  5.514855987045637e-17
 1.890239394766209e+01 -1.878774712335940e+00 -3.170869202105328e-16
 4.562424443053376e-02 -1.089656157033024e-02 -6.999797745773176e-19
-1.711636979276319e+01  1.638245341226448e+00  2.877738418358850e-16
-1.841680740870085e-01 -1.787441495131399e-02  3.461143683207353e-18
 1.630202947395545e+01 -2.407932048440243e+00 -2.653734331892931e-16
 1.415047580863107e-01  3.848297313917400e-02 -2.913644529402463e-18
-7.077475703352548e-01  1.787933032072834e-02  1.241150862193792e-17
-2.722274266031521e+00 -3.258991628803588e-01  5.179461331308390e-17
-9.187997980329332e-01  5.354504981729617e-02  1.580098246073844e-17
 3.030818377853267e+00  1.862815164562521e-01 -5.585100326429511e-17
 9.044776193641491e+00 -7.174039845143620e-01 -1.535915160369267e-16
-3.720967591194689e+00 -3.006858209776875e-01  6.930849441041648e-17
-9.141585581606048e+00  7.432481232215490e-01  1.550488154373953e-16
 3.648951268141927e+00  3.116331663126807e-01 -6.813935800655392e-17
 4.839467265963545e+00 -2.937236315212930e-01 -8.310618914169909e-17
 3.134282152730507e+00  1.855558593776490e-01 -5.768480867195287e-17
 8.895567922727325e+00 -6.015346873192133e-01 -1.521266918932061e-16
-1.120750811088119e+01 -1.152313001652950e+00  2.112905731209060e-16
-9.290439929916412e+00  1.361260063134913e+00  1.513480079413263e-16
 5.522146197081939e+00  2.433561100481943e-01 -1.007735742719268e-16
 1.747490247003359e+01 -1.177261485564786e+00 -2.988908001893469e-16
-1.688391647108936e+01 -3.349788977208909e+00  3.348872982852990e-16
-1.081208858998549e+01  6.392061046537227e-01  1.858464030573692e-16
 5.689938484133181e+00  2.337319869182222e-02 -1.014993936556938e-16
 9.106522026936169e+00  2.153604104923681e-02 -1.622826971941558e-16
-1.095343410302223e+00 -2.685548437702329e-02  1.976887290011643e-17
 7.645235024710481e-01 -1.394393013412232e-02 -1.346233887353147e-17
-5.747000914021313e+00 -2.638280105563280e-01  1.049854735275355e-16
-3.791333323936791e+00  1.449800361699840e-01  6.598168175558953e-17
 5.200162559448652e+00  5.933001600055407e-03 -9.260405516809759e-17
 1.185671080915076e+01  7.538862457343207e-01 -2.187502193739039e-16
-7.462933475410299e+00 -1.050487799195900e-01  1.338911413581803e-16
-7.373750003739535e-01  4.569284896214579e-03  1.307551995892872e-17
 6.893202262288334e+00  5.338267477252552e-02 -1.232212443566542e-16
 9.912679148029788e-01  1.481703964122850e-02 -1.779303467526763e-17
-1.699417765420350e+01 -9.804801710265615e-01  3.125057403459900e-16
-2.655240596720208e+00  4.314489448555896e+00  2.923361140501992e-18
 1.769439864233777e+01  7.574598750432812e-01 -3.226755555374211e-16
-7.672876269334121e-01 -3.681834238278800e-02  1.403309370106929e-17
-1.834130685287373e+01 -2.056775184259392e-01  3.285186954879883e-16
 2.337846918294049e+01 -4.532104346164892e+00 -3.694820200900210e-16
 8.871776436275821e+00  2.221036027191051e-01 -1.601658781709616e-16
-5.528654214168314e+00 -2.650863367714543e-01  1.011126623789146e-16
-8.122127412968192e+00  4.920312153043310e-02  1.440374015384604e-16
 1.805893298919494e+01 -1.555054426063588e+00 -3.054026346921412e-16
 5.594527709048358e+00 -6.994216973069445e-03 -9.948943093813037e-17
 6.017611670880701e-01  3.768582390708308e-03 -1.074777859008198e-17
 8.463260409469369e-01  1.096094546435186e-02 -1.517400116903297e-17
-6.106171832083206e+00 -4.723114772164412e-02  1.091518943424813e-16
-5.295910114369357e+00 -2.550828833756600e-02  9.450912607619975e-17
 9.474728219160394e+00 -6.511294401282001e-01 -1.619239720735780e-16
 4.844607043403785e+00  6.936979636326954e-01 -9.334305581605018e-17
-1.014446151782435e+01  6.371547196847758e-01  1.739862602203145e-16
-1.511860359641256e+00 -2.954690853568888e-02  2.720894226621136e-17
 1.046349795110316e+01 -7.990443579331746e-01 -1.780005368339093e-16
-5.264856331731054e+00 -1.311990044055530e+00  1.071746196602815e-16
-1.691422822279950e+01  3.373009057834383e+00  2.663524245007560e-16
 5.255715046179954e+00  2.665806832742014e-01 -9.627073815261999e-17
 8.926941720247942e+00 -8.854100896522675e-01 -1.497683093263687e-16
-3.551264928290351e+00 -2.195031951086771e-01  6.545431107738637e-17
-2.500187210935413e+00  2.042104061436534e-01  4.239562601053743e-17
 1.147837069978242e+00  1.739388068087699e-01 -2.221428799862216e-17
 2.615046548557403e+00 -2.083340872942310e-01 -4.439731560704787e-17
-6.273788324083287e-01 -1.214651807752930e-01  1.241296531357107e-17
-4.762868031062920e+00  9.467904770946480e-01  7.503298975719841e-17
 3.791654101496942e-01  7.943517172694196e-02 -7.563868303044506e-18
-6.763565631342078e-01  4.029947438751662e-02  1.162250936854596e-17
 2.321932426114675e+00  5.822401031256157e-02 -4.191978777880786e-17
 1.068022830977056e+01 -9.675920068378391e-01 -1.801257462269157e-16
-4.423068637782879e+00 -3.894646963707358e-01  8.271539071068218e-17
-1.221283521244423e+01  1.196623710171598e+00  2.050470966672392e-16
 2.062577593238546e+01  1.140721439155375e+00 -3.787807844287210e-16
 7.280211682321379e+00 -3.583787433885545e-01 -1.258778396414388e-16
-3.577102450538254e+00 -6.642383653893680e-01  7.048361289357347e-17
-7.022145722081697e+00  7.609668201440412e-01  1.171488018175318e-16
 5.919381753057534e+00  3.906404646760327e-01 -1.093561480674053e-16
-5.331353101812739e-01  2.175925633315783e-02  9.264210341702737e-18
 1.260500873762759e+00  3.819351555713780e-02 -2.282454112471666e-17
-1.244916303614954e+01  6.553226912995170e-01  2.148145035294522e-16
-9.924314967443482e-01  1.631727755416461e-03  1.764473688220896e-17
-2.978196710993959e+00  8.636004232733427e-02  5.211324492689452e-17
 8.100033283319558e+00 -1.809396896969506e-01 -1.422906647653869e-16
 8.815143031373921e+00  3.903241127423113e-01 -1.608864237885848e-16
-9.983947855668257e+00 -2.504170902387828e-01  1.802492060262392e-16
 1.064964155454064e+01 -4.074542189158898e+00 -1.476586337886544e-16
 9.323287883868753e+00  3.941533663935780e-01 -1.699688117840501e-16
-5.626781532544578e-02  5.587476539768320e-03  9.439435980127255e-19
 1.977634803673202e-01  2.671044398993233e-03 -3.546881047133710e-18
-2.510339819598495e+00  3.762992196004512e-03  4.463582815927782e-17
-4.905219944236418e+00  3.740487297920563e-02  8.690991855123138e-17
 1.050906682199642e+01 -3.468753985698130e-01 -1.834573610831518e-16
 1.809852220046272e+01  3.076205688744972e+00 -3.536916872303686e-16
-1.105211559443435e+01 -2.813280172506972e-01  1.995761236137708e-16
-2.049333937581952e+01  1.224870153165514e+00  3.521183236554237e-16
 2.455660745987228e+01 -3.006766625961991e+00 -4.061206870462036e-16
 1.030244703273923e+01  9.588706555445249e-01 -1.931963818066539e-16
-5.918219507486210e+00 -7.777304304607736e-02  1.061208654082057e-16
-1.289280367812542e+00 -1.570033437243682e-02  2.310559728548880e-17
 3.215649747315454e-02 -4.447071031190672e-04 -5.676940264927619e-19
 1.691107467784790e+00  3.069942286255763e-02 -3.041070003301499e-17
-1.372240324617398e+01 -1.045974909126801e+00  2.549535466625977e-16
-1.048139556797418e+01 -1.996313443084627e+01  3.916428909136006e-16
 1.481500011668605e+01  6.548683855355075e-01 -2.703791338157432e-16
-1.568258223283184e+00 -1.147058459695818e-02  2.802688185949281e-17
-1.217587133569726e+00  1.344748048994736e-02  2.153024745577511e-17
 8.505473105498251e-01 -4.678357480417191e-03 -1.508843553716103e-17
 6.323005074304345e-01 -3.325959160971837e-03 -1.121836874290555e-17
 3.510461429631321e-01 -1.908177169267652e-03 -6.227679029791647e-18
-3.557356966388062e-01  2.228639107477021e-03  6.307842601420274e-18
-1.812818538310740e+00  1.622661891738206e-02  3.209454567951818e-17
 2.041159006807549e+00 -5.103950164775229e-02 -3.580044695761093e-17
 2.316831295297195e+00  3.045051098602453e-02 -4.154364445136287e-17
-8.818905622383630e+00  3.035164001354055e-02  1.566310930122936e-16
-6.059500842133261e+00  1.477338998241431e-01  1.063181333660657e-16
 6.220473652775612e+00 -2.440794680710608e-01 -1.081929208180184e-16
 3.266113552373658e+00  2.432208921614138e-01 -6.062339293962648e-17
-3.123331453735621e+00  5.524128998917816e-02  5.501582467632923e-17
 1.284446198707265e+00 -5.673743754098594e-03 -2.279995658959407e-17
-1.756419521118999e+00  9.927183750038203e-03  3.115558231319986e-17
 1.112798172657847e+00 -2.352810234533523e-02 -1.956182816241907e-17
-2.366555415069960e+00 -3.958512096367327e-02  4.252239913502362e-17
 2.310254436335815e+01 -1.890142103999304e+00 -3.917168112236142e-16
-1.822172195499281e+01 -5.262177820014336e+00  3.783442433479034e-16
-1.181903697696882e+01  1.986023932185830e+00  1.899281868362758e-16
 3.757056323071524e+00  3.681039213074868e-01 -7.064343291437970e-17
 2.957797708773640e+00 -1.401511921290494e-01 -5.119753582925943e-17
 4.189784115257896e+00  3.584129966144816e-01 -7.824476942741050e-17
-2.867728336399402e+00  1.589143186777061e-01  4.940185960749814e-17
-6.499718600570928e+00 -3.552411116189044e-01  1.193202190146485e-16
-1.324122761799963e+01  8.292398531603061e+00  1.504420576496791e-16
 1.112796621322423e+01  1.070885820161589e+00 -2.090383954645803e-16
-2.832637394582195e+00  3.066743626401549e-02  5.009506456487182e-17
 1.639736440055405e+00  2.803449387175460e-02 -2.946911011232708e-17
-5.113457083614593e-01 -1.609644877587806e-03  9.116545352206291e-18
 1.089857880411464e+00  3.559878803509546e-03 -1.943189747124580e-17
 1.601402771764038e+00  2.973903921950062e-02 -2.880443034367974e-17
 9.302552212450752e-01 -9.428537358000888e-04 -1.654531383058591e-17
-5.775861956549226e-01 -1.385112978717079e-02  1.042115064070570e-17
 2.711423356232607e-01 -1.027470911094697e-03 -4.814744398229348e-18
-1.165280252305830e+00 -2.814412366771792e-02  2.102672271942941e-17
-1.815630342612403e+00  3.632743106599663e-04  3.230757520012774e-17
 1.695397889931176e+00 -1.725097028098259e-03 -3.015390304701141e-17
 4.104854362455911e+00  3.414845403379485e-02 -7.340164277046542e-17
-3.542782507250696e+00 -1.872265174768245e-01  6.497172516801837e-17
-1.308080299533412e+01  2.867468706027139e-01  2.298422726841820e-16
 4.776698344533411e+00 -1.475043468014938e-01 -8.349149131370762e-17
 8.676891709831743e+00  1.231923746232376e-01 -1.556813950298160e-16
 1.230893651284258e+01  5.006009488201643e-01 -2.241957006957163e-16
-8.714737509634160e+00 -4.298353464898455e-01  1.595055513510031e-16
-1.507168561098188e+01  1.429846181005211e+00  2.535274735183058e-16
 1.918880880831147e+00  2.652045031372931e-02 -3.442126218956445e-17
 1.418865450949596e+01 -8.815051818631772e-01 -2.434468863427951e-16
-2.830599092774824e+00 -2.414634519157965e-01  5.285483657843360e-17
-3.171442915949861e+00  5.881096445041759e-02  5.583534842915565e-17
-1.154249828121111e+01 -5.052102135173383e-01  2.106033767032904e-16
 7.746466315740472e+00 -4.405627714107369e-01 -1.333309859700717e-16
 8.764720282687449e-01  4.782008072110456e-02 -1.608919919266311e-17
-2.033915407502856e+00  4.693273137987981e-02  3.571373404704661e-17
 5.541997729545459e+00  1.169500160487325e-01 -9.982807928888031e-17
 8.260372832006385e-01 -7.909555184607479e-04 -1.469219200687300e-17
 1.911049446379194e+00  1.430041450137539e-01 -3.547872012215580e-17
-2.677952091235559e+01  2.289191848890487e-01  4.742214569318377e-16
-1.630977471524478e-01  3.982700431713662e-01 -1.189561137744005e-18
 2.760826934609903e+01 -8.039853011120672e-01 -4.830614284392751e-16
-4.141377344108143e+00 -1.203435608611718e-01  7.493723622661764e-17
-4.997648171067540e-01  3.705073631178812e-03  8.855842772806347e-18
-1.045218538170800e+00  8.222280450083524e-03  1.851642965443547e-17
 8.238502656823101e-01 -9.082271626787781e-03 -1.456808116153110e-17
-3.765515069888459e+00 -1.244587593864659e-01  6.829060083696785e-17
-5.219377500862717e-01  1.440476036258785e-02  9.140501167125811e-18
 9.599188209960197e-01  1.961960457789413e-03 -1.710305888003812e-17
 4.924570313757902e-01 -5.752250275713423e-03 -8.704758013884701e-18
-3.086445309648680e+00 -6.567153888221969e-02  5.560172714945831e-17
-5.787778459697814e+00  2.041216898869380e-01  1.009031453666962e-16
 7.452610768546919e+00 -2.762742001732777e-01 -1.297894814034482e-16
 1.770436598018908e+01  1.778716120756030e+00 -3.333459730513638e-16
-1.477583123027973e+01 -5.574706456630579e-01  2.686813503147583e-16
-1.856369829198811e+01  1.222208771837913e+01  2.047856433353255e-16
 1.456115250948095e+01  6.170534946235646e-01 -2.654730785893773e-16
-8.116809107672657e-01 -1.898117272495749e-03  1.446433248082033e-17
-1.889850592356476e+01  1.171579332086353e-01  3.351177006399282e-16
 1.289105593002912e+00 -6.846517248481556e-03 -2.287082631758164e-17
-3.698591268330541e-02  1.535835870737866e-04  6.566304126524993e-19
 1.916037819264255e+00 -8.149282018511884e-03 -3.401444761264685e-17
-2.751759305524343e+00 -1.449945158587776e-01  5.046060528228021e-17
-5.047784467378144e+00  2.520664813933274e-01  8.724145424411481e-17
 2.323439490772662e+00  7.711869876064132e-03 -4.142761391361970e-17
 3.812790545333273e-01  4.956154211960899e-04 -6.790407848217817e-18
 2.767187352402269e-01  6.687760096629063e-04 -4.931411405940458e-18
 1.429372077129565e-01  3.876003271877807e-04 -2.547720567651646e-18
-4.472774904089589e-01 -1.805677368400129e-03  7.978389152108397e-18
-1.904524474775084e-01  5.956380224177295e-04  3.383208516882196e-18
 2.755891327965094e+00  5.529132268823661e-03 -4.910118333676132e-17
 8.811095657139033e-02  3.963797912010919e-04 -1.572112234281193e-18
-1.299720215026562e-01 -4.618028332708489e-04  2.317752015514011e-18
-6.326035839291669e-02 -1.517897797359629e-04  1.127353123717685e-18
 4.142726607300802e-02  8.272334189007924e-05 -7.380975694030555e-19
 2.667198331607544e-01  7.024095878756028e-04 -4.753814586811285e-18
 2.156140053834248e-01  5.916735921088924e-04 -3.843187650534349e-18
 4.337416559099893e-02  1.147427882679369e-04 -7.730739596265351e-19
 1.320892752936909e-01  2.799019429624616e-04 -2.353562107416291e-18
 1.120915849959342e-01  2.407154201924842e-04 -1.997276729458709e-18
-1.470358155620956e-01 -9.179573543010421e-05  2.617620895598878e-18
-6.431555970622435e-01  2.105332575407280e-03  1.142408950159410e-17
 3.578093472742460e-01  5.125209241801375e-04 -6.372910122067457e-18
 9.034089049647627e-02  6.593993841446504e-05 -1.608401417812569e-18
 2.422213961261051e-01  2.957331327053760e-04 -4.313657231291500e-18
 5.193787959067355e-02  1.735901406205614e-05 -9.244748749681466e-19
 2.329394465797247e-01 -2.213889459586243e-05 -4.145207842992960e-18
-4.406849525512442e-01  3.093501819403158e-04  7.839335933414883e-18
 2.634439010692771e-01 -1.522719205541622e-03 -4.672653094682604e-18
 1.534525249033035e+00  1.759435552397494e-03 -2.732678481718905e-17
 2.259527351742029e+00  8.014439979821221e-02 -4.103443907977465e-17
-2.226772388632449e+01  1.849531000593953e-01  3.943803825441858e-16
-1.226979650355210e+01  1.549028645402464e+01  5.919859869857935e-17
 2.156334366472408e+01 -4.108244342722652e-01 -3.795243503760718e-16
-7.468291899749859e-01 -2.828128116356943e-02  1.358129618365960e-17
-1.393154456438357e+00 -1.748090924527436e-02  2.497245535955089e-17
 9.854821270264734e+00 -4.048636647572267e-01 -1.712184726236612e-16
-6.680579794776839e+00 -3.602026690115787e-01  1.225898379158090e-16
-1.103333444956974e+01  1.303442450150248e+00  1.829589498961173e-16
 9.012660765361243e+00 -4.750562927945462e-02 -1.599029459270130e-16
 1.552562854431550e+01 -1.235456485518814e-01 -2.750276929289613e-16
-1.261423495968662e+01 -1.297394532719469e+00  2.378156154337148e-16
-3.179540474319446e+00  3.929317891471361e-01  5.254648404596141e-17
 1.609383815950205e+00  2.854646996260359e-02 -2.893420935603411e-17
 1.163908555077879e+01 -4.957313843245811e+00 -1.561968122246022e-16
-3.687157939436534e+00 -3.558198445928464e-01  6.927329336723781e-17
-1.929072292503734e+00  4.710725557409585e-01  2.949004312270993e-17
 6.025584400258674e+00  4.981504839386054e-01 -1.123507772367878e-16
 2.365152151266208e+01 -8.371542519569855e+00 -3.348924801797521e-16
-6.925669777476980e+00 -9.394834618310718e-01  1.329034062231750e-16
 2.543111542275075e-01 -2.436809737555022e-02 -4.275396993653462e-18
 1.689049100705901e+01  3.070737996625049e+00 -3.321371525440020e-16
-1.005504094904348e+01  2.186312924061251e-01  1.766950906663861e-16
-2.337308959162597e+01 -1.294081584157834e+00  4.292482278876041e-16
 2.361714692591184e+01 -1.420169611990662e+01 -2.743780325581413e-16
 1.394539160406300e+01  1.994633632398785e+00 -2.686690142403210e-16
-8.487421545929545e+00  2.051501880164837e+00  1.299653540329785e-16
-1.575477627021009e-01 -1.260923195077461e-01  4.099303119423045e-18
-2.556571884980510e+00  6.725973652313472e-01  3.858655267991400e-17
 7.339584548092322e+00  5.145374543911099e-01 -1.359033474338147e-16
-1.890164393699063e+01  1.571697952290548e+00  3.202286750516450e-16
 2.374587369582168e+01  1.063547468549570e+00 -4.335137112829798e-16
 6.038606306380146e+00 -3.684061746290013e-02 -1.070856783802431e-16
 3.235278643419174e+00  3.357331878915282e-01 -6.102517918195422e-17
-1.745356633336286e+01  2.131102987094708e-01  3.084174013483598e-16
 1.402767784998785e+01 -1.592463153620850e+00 -2.332772797753570e-16
 1.774801251462214e+01  5.261300988831097e-01 -3.212528489343069e-16
-7.233768928714402e+00 -2.015931545426932e+00  1.494465111206490e-16
-1.765277847574946e+01  8.077292247869247e-01  3.058531256104984e-16
 4.517101538226898e+00  9.662198627388460e-04 -8.039713761701161e-17
 3.249136188270148e+00  2.439704666895038e-01 -6.032896210153497e-17
-2.739478877462559e+00 -4.489528901888770e-03  4.879842267613622e-17
-3.512874980169961e+00 -9.024845561272286e-02  6.344307068912166e-17
 2.088171589355689e+01 -1.512095726318116e+00 -3.560788086514761e-16
-1.788806524382672e-01 -1.062290403954538e-02  3.292541057998554e-18
-1.129893196448471e+01  3.623423379570828e-01  1.973550362818592e-16
 4.788136075291662e+00  8.371226178333484e-02 -8.607070594273993e-17
 8.099474357465402e+00 -1.282138735041785e-01 -1.428224566235099e-16
-2.711789854358213e+00 -1.843844085134843e-01  5.015401800684195e-17
 7.718596003602884e+00 -9.527473199244925e-01 -1.275724903578076e-16
 1.225256962741320e+01  1.713612759377581e+00 -2.356558405024224e-16
-1.141662744605345e+01 -5.683242861379418e-01  2.090118292315424e-16
-2.218639098060779e+01  2.816294711011460e+00  3.658968873192649e-16
 1.153386622863363e+01 -3.345011540236091e-01 -2.018220297744559e-16
 6.875144478670117e+00  4.647505412502509e-01 -1.271265399493493e-16
-5.833981877072402e+00  9.448347045637739e-02  1.028518831731296e-16
-7.565925633958192e+00 -4.257331381664321e-01  1.390189249512457e-16
 4.491205501900534e+00 -4.560160320374511e-01 -7.524096013857736e-17
 1.876254082005947e+01  3.392465713640078e+00 -3.687581474552606e-16
-2.009080719573116e+01  6.255694837691055e-01  3.511123799930486e-16
-2.948519076902882e+00 -4.987407227578544e-02  5.298485207236160e-17
-1.284413428134797e+00  6.867566919157726e-02  2.215205149297345e-17
 4.848274337672410e+00  1.337385038389556e-01 -8.765493960737068e-17
-1.415820681886291e+00 -9.477693892572227e-03  2.529359774526693e-17
-7.477009338852584e-01 -3.149403568215592e-03  1.333858898658976e-17
-2.388648864608501e-01 -9.501301195587259e-04  4.260647825122973e-18
-5.775757977897308e-01 -2.132961215363838e-03  1.030056568066270e-17
 3.060007652652954e+00 -1.644111708990176e-02 -5.428755975203020e-17
-4.425308545672827e+00 -1.292557068389530e-01  8.008169970220978e-17
-2.435938332877096e+00  7.645744636742365e-02  4.256485585655426e-17
 1.419178050760311e+00  1.063250866279668e-02 -2.536521143812169e-17
 1.297217288993211e+01 -2.475616606585049e-01 -2.283116841985259e-16
-5.208588320375298e+00 -2.080563227918801e-01  9.483074530873964e-17
-1.449530672171478e+00  1.806133321189280e-02  2.561055373723453e-17
-5.108226307504633e+00 -1.431249484199691e-01  9.237753727047420e-17
 3.012759489909767e+00 -9.864427602096389e-02 -5.260211477216885e-17
 9.188858522258835e+00  3.675390849464812e-01 -1.673030288464476e-16
-1.755432209093919e+01 -9.434251918761887e-01  3.220934523288921e-16
-7.086940289235401e+00  2.097600000129473e-01  1.239653482522194e-16
 1.005232678878173e+01 -4.349191423965192e-01 -1.744245099188002e-16
 7.205372266626093e+00  4.069600518882435e-01 -1.324095610751411e-16
-8.141981855699930e+00  5.851639172691110e-02  1.442950445715680e-16
-2.121697858496845e+00  7.536384434055485e-03  3.768071062834090e-17
 1.483818690904104e+00 -5.763019553628528e-02 -2.581419424633374e-17
 4.359425099213730e+00  2.321351165317449e-02 -7.781968013369645e-17
-6.652279473279334e-01 -2.236831690921998e-03  1.186150746836700e-17
-1.016069894147167e+00  1.135140856592091e-02  1.796554415477015e-17
-2.358907849586233e+00 -1.180098209869944e-02  4.210082980850570e-17
 5.017718003344667e+00 -2.416162414408896e-01 -8.681375804272883e-17
 5.979292489244434e+00  6.001818535371348e-01 -1.125752927177958e-16
-4.316411546231596e+00  8.925188979546764e-02  7.589866152194550e-17
-1.035636170767155e+01 -2.210125610757593e-01  1.865746338734448e-16
 1.747871420959873e+01 -2.587481563336023e+00 -2.844691355725450e-16
 4.273218625893504e+00  4.336650130519508e-01 -8.050277321344035e-17
-3.498265176494618e+00  1.215078249240700e-01  6.100735293871121e-17
-1.102306268707800e+01 -7.120837360211943e-01  2.034849509978595e-16
 6.544675647890076e+00 -5.240984178299225e-01 -1.110853890742309e-16
-5.459186097884559e-01 -2.436320125835222e-02  9.965595899953049e-18
-2.845688323894493e+00  3.025530776007725e-01  4.753379524318571e-17
-2.182042090158003e+00 -9.148550758017512e-02  3.977202217344631e-17
 8.756105187393525e+00 -9.983765205011164e-01 -1.455673803843339e-16
 7.234758267308584e+00  3.622775816945327e+00 -1.659738587666723e-16
-9.732075468313038e+00  9.893123370597343e-01  1.630290669115419e-16
-4.475747748192981e+00 -4.585257240826723e-01  8.436245530401628e-17
 1.030738936941892e+01 -1.529066209633152e+00 -1.677216891018452e-16
 2.461342324123843e-01  9.747559791401089e-02 -5.381778623814981e-18
-4.912063711960361e+00  4.890761531466841e-01  8.239095324720774e-17
-4.777826883736609e+00 -7.993083364661486e-01  9.323973146890798e-17
 5.871940844521933e+00 -8.627646227276227e-01 -9.563359856241606e-17
 1.870997813470943e+00  6.979460694991403e-02 -3.401375212878149e-17
 6.495278845774441e+00 -1.135680066958058e+00 -1.039225347846946e-16
-1.841577821635534e+00 -1.323067215070036e-01  3.413247756999865e-17
-1.545554357989778e+01  2.171681624791459e+00  2.527365942721368e-16
 5.921168052204603e+00  3.791686054794203e-01 -1.092700681865009e-16
 9.722231672680833e+00 -9.278088476483912e-01 -1.634858108554752e-16
 1.163556369522608e+01  1.820481076019523e+00 -2.257735170932593e-16
-1.452195980628249e+01  8.470091413352583e-01  2.497328859387576e-16
-7.756726646226893e+00 -1.784870854895098e-01  1.398740932080842e-16
 9.076558710191080e+00 -8.146194765828281e-01 -1.531582699606595e-16
 1.026714417798354e+01  2.538883017520751e+00 -2.088021784987991e-16
-7.594891000147560e+00  5.531344431591019e-01  1.294768893963527e-16
 1.928927908379397e-01  2.047592952829865e-03 -3.453795577569046e-18
 2.986053079734797e+00 -1.846298982795518e-01 -5.124337134843240e-17
 1.341001823423317e+00  2.902958767734040e-02 -2.416299551652181e-17
-6.368050451395732e+00  3.448335653834391e-01  1.097840142091164e-16
-5.216921330179347e+00 -1.269271050792389e-01  9.414546792880792e-17
 2.553859595554349e+01 -3.827222454037595e+00 -4.151664581676830e-16
 3.146326569805741e-01  3.026636870554461e+00 -3.669685851326822e-17
-2.704268007736398e+01  3.458421800246421e+00  4.457227219871459e-16
 4.188075404670189e+00 -2.764670896999383e-02 -7.424773766042900e-17
 4.521973660898063e-01 -4.592780311190654e-03 -8.000202375130292e-18
 3.487091057303490e-01 -2.638721206165177e-03 -6.178582590348324e-18
-1.489451948734974e-01  1.072247646091996e-03  2.639640460857937e-18
-2.921054726947800e-01  2.420999376071275e-03  5.173490406666008e-18
-3.256992286258368e-01  2.588976047705122e-03  5.769605507386824e-18
-2.560354550487233e-01  2.829746053930067e-03  4.527381720000213e-18
 1.310535487635913e+00 -1.505062277300847e-02 -2.316790257585164e-17
-8.856541348774929e-01 -3.362365269678863e-02  1.610674256064759e-17
-3.404535197601017e+00  2.292703276748566e-02  6.035219798631495e-17
-4.500738164447960e-01  4.417548371569538e-03  7.964211737355126e-18
-1.896373003943174e+00  2.366075095554037e-02  3.350511409195554e-17
 2.046968091894561e+00 -4.132320949404256e-02 -3.600365792719146e-17
-7.349218269763030e-02 -2.698941084615075e-03  1.335611694184871e-18
-1.139269545164660e+00  4.525634674055046e-02  1.980966802701285e-17
-8.786558754829994e-01 -1.421372297608249e-02  1.578277025297547e-17
 2.655847981677261e+00 -1.284271993501606e-01 -4.594444003391722e-17
 8.247284208725367e-01  1.650952821045647e-02 -1.484665541775069e-17
-3.436751899887281e+00  8.557538266581918e-02  6.028184361633809e-17
 4.220205605031707e+00 -2.917731822522807e-02 -7.480380642889023e-17
 1.877573616830538e+00 -3.377488507555481e-02 -3.306663748563325e-17
 9.393688321358081e-01  2.407290979755556e-03 -1.674192293066626e-17
-6.394743839630451e-01  4.862201190337267e-03  1.133025210434677e-17
 4.064290869200958e-01 -3.479049820891516e-03 -7.197144434836677e-18
 2.102097800334426e+00 -1.806297368532889e-02 -3.722374731763284e-17
 9.108376762366791e-01 -4.657018685429103e-03 -1.616159375557274e-17
 5.357434672310445e-02 -2.264546029250011e-04 -9.510926671640349e-19
-3.465084255508761e-01  7.005162768015101e-03  6.094555256744992e-18
 5.151526124431878e+00 -4.312564483655416e-02 -9.123445201123967e-17
 1.231610132806258e+01  2.502189219885337e-01 -2.217506228371967e-16
-1.083805715769782e+01 -8.450738677619749e-01  2.015589822367127e-16
-2.529701693351194e+01  1.924875421447678e+00  4.304131959999344e-16
 3.084930071456025e+01 -7.838791141083678e+00 -4.684593732243443e-16
 1.141413653335795e+01  6.742761287630974e-01 -2.100561171573469e-16
-2.822162330407472e+00 -3.539866402375791e-02  5.058745348570175e-17
 4.827659424042263e-01  3.608966647092786e-03 -8.628476633649876e-18
-8.553329826153581e+00  5.737912272026228e-01  1.463212104937419e-16
-2.926537636941200e+00  1.940304403895411e-02  5.188186892022251e-17
 2.367106935550466e+00 -3.351328368438061e-02 -4.178115467391414e-17
 8.640247188320359e-01 -9.605128330152342e-03 -1.527766131272338e-17
-9.520392502682907e-01  1.083485310480165e-02  1.683134991844105e-17
-7.455199099389319e-01  1.130005695866451e-02  1.315131210543994e-17
-3.502498459131257e-01  5.597498822383314e-03  6.175601534175171e-18
-3.038633208202278e-02  4.352993264825888e-04  5.362884830806871e-19
 1.376479813946356e-01 -2.001053597907389e-03 -2.429049922259056e-18
-1.261365454464246e+00  2.195997211853870e-02  2.222187213787433e-17
-2.369738272769694e+00  1.150949205864820e-01  4.098976079356170e-17
 2.155518038438382e+01 -1.911425030317052e-01 -3.816362271006469e-16
 2.053784938176512e+01  2.515838082188895e+01 -6.239887518057131e-16
-8.432634776136494e+00  3.016482857319445e-01  1.469694680965293e-16
 4.214736216858139e-02 -6.769933532264802e-04 -7.431067274814843e-19
 7.417249423549152e-01 -1.014448408348681e-02 -1.309564921844340e-17
 7.345820598334899e-01 -7.153427362336968e-03 -1.299926512570606e-17
 5.883268861512678e-02 -4.465198605590498e-04 -1.042410042718109e-18
 1.141059815175977e+00 -1.153465405204477e-02 -2.018800613629856e-17
-6.235056193512408e-01  1.539946286119735e-04  1.109444400299657e-17
 1.007695582204645e+00 -2.221591951155167e-02 -1.770488440636171e-17
-5.529116415421962e-01 -1.402482052034418e-02  9.983822149881214e-18
 1.489223087254938e+00 -6.709827989902405e-02 -2.581309079229048e-17
-1.500412342902125e+00 -5.994405341760766e-02  2.731753077094108e-17
 1.197827361261181e+00 -4.800940972839290e-02 -2.082348745664154e-17
 9.153979316110976e-01  2.799407122931669e-02 -1.657822699887370e-17
-1.497583605207506e-02 -3.027726998636436e-04  2.696237409138199e-19
-1.843130978423400e+00 -1.198793749299909e-01  3.403243136552864e-17
 1.211354982006256e+00 -6.772886678822919e-02 -2.086161735279517e-17
 2.840714108063386e+00  1.154558173119415e-01 -5.174016266064431e-17
-4.274032605800862e+00  2.383819026498773e-01  7.361222101307822e-17
 7.394731244213823e-02  2.109274372667602e-03 -1.337652650914907e-18
 1.674076908707322e-01 -1.035968188258310e-02 -2.872777561845769e-18
-5.363760347679628e-01 -2.003663990283283e-02  9.751320583161787e-18
 2.043976981959122e-01 -2.069503900247622e-03 -3.616237453054791e-18
 1.068129016288384e+00  1.141508633600021e-02 -1.912591582311851e-17
-6.907851032543779e-01  7.597078187315467e-03  1.221528769167450e-17
-6.437726426097699e-01 -9.884291339072369e-03  1.155825959787394e-17
 3.072688548227130e-01 -3.626810356734652e-03 -5.430951633434467e-18
 3.316060162920911e-02 -6.694773888909272e-04 -5.832538990391467e-19
 3.052287295668484e-01 -3.334352820584512e-03 -5.397650066060451e-18
 4.050790415521748e-01  5.015692090156659e-03 -7.260399176992561e-18
-3.288097725321040e-01  7.689007168776372e-03  5.772560345288952e-18
 3.197484429899285e-01  2.846538445234751e-03 -5.719552087443618e-18
 4.159708004683492e-01 -4.923586879848006e-03 -7.352108523750868e-18
 1.073149172102873e+00  4.108693326986645e-02 -1.952012296643982e-17
-5.676499725427874e-01  7.440520796189537e-03  1.002555972792757e-17
 2.748115858816575e-01  2.151774266660113e-04 -4.892810846087295e-18
 1.005715085904102e+00 -1.379005395045865e-02 -1.775621180759284e-17
-5.828828300685361e-01 -1.099946029315358e-02  1.048611076576980e-17
-4.445506609920094e-01  4.077441542282199e-03  7.869415059874038e-18
 3.443729338109763e-01  6.288486631793147e-04 -6.134988347413584e-18
 4.431371290491973e-01 -3.650630860773638e-03 -7.848644916929546e-18
 5.207633504289795e-01  9.005312219565420e-04 -9.276857650684029e-18
-5.642793066267531e-01  1.781619695824522e-03  1.002371786085805e-17
-9.629925203542566e-01  3.081284651830244e-03  1.710594151918061e-17
-2.943946653254577e+00  1.193822365131011e-01  5.116443324237372e-17
 2.425882888626645e+01  1.009022293361111e-01 -4.327515307616617e-16
 1.512844570580756e+01  2.182942084954097e+01 -4.935181071542217e-16
-7.565276589513566e+00  1.751868576743153e-01  1.328331397844949e-16
 4.258724815325263e-01 -1.097555561051020e-03 -7.567631823768476e-18
 2.659568823895774e-01 -9.495598069770419e-05 -4.732044328506049e-18
 2.784583780795432e-01 -3.007579751031160e-05 -4.955189977550469e-18
 6.503838773194562e-01  7.250269500602846e-04 -1.158180629124087e-17
-5.763524218621254e-01 -6.031588839375513e-03  1.031885122853486e-17
 2.811833027146027e-01 -1.980546968995695e-03 -4.983642884364232e-18
-6.879866497748727e-01 -1.465863415287663e-02  1.239415522656440e-17
 4.749190544216167e-01 -1.213210229771226e-02 -8.327098134101011e-18
-1.345331493679981e+00 -2.786677725411456e-02  2.422809970965920e-17
 1.090544384440166e+00 -2.348023570705045e-02 -1.916628727834956e-17
 2.466142081635195e+00  7.119669847092192e-02 -4.461946027259840e-17
-7.590575506182672e+00  8.841489537588336e-02  1.341749145771328e-16
-1.072220020617171e+01  7.618556377125761e-02  1.900315637469068e-16
 1.472691503520382e+01 -7.456799074651040e-01 -2.544214297959292e-16
-3.723912759508865e+00 -2.508829528591547e-01  6.884920081426467e-17
-8.277328708217414e+00  1.227509106104270e+00  1.346927277673539e-16
 4.578638858121066e+00  1.533526745803491e-01 -8.305798310340967e-17
 4.266354403932012e+00 -1.522771157550302e-01 -7.436027368913273e-17
-3.563882583910956e+00 -2.819089081414924e-01  6.632005338902842e-17
 1.224421938974023e+00 -4.188700170674119e-02 -2.135967523449920e-17
 1.625228492331605e+00  3.935030587374423e-02 -2.932718976177207e-17
 1.288413886924860e+00 -3.095847592207657e-02 -2.261077491069635e-17
 2.895860464529449e+00  5.574024947165790e-02 -5.210800208669787e-17
 1.468001998397036e+00 -3.423177683169980e-02 -2.577312759537079e-17
 5.934141177327867e+00  2.473381585078872e-01 -1.081464304750910e-16
 1.475621957513198e+00 -1.535212285128479e-02 -2.610271543395762e-17
 2.092403452537676e+00  2.862747353949315e-02 -3.753095224643628e-17
-8.465135264363725e-01  4.319413750510782e-04  1.506027992207646e-17
-1.075884677370078e+00 -1.124103476981792e-02  1.926214874408191e-17
-2.042209077827605e+00 -1.041115138877496e-02  3.645051737495046e-17
-1.249168477093331e+00 -5.688960214672473e-03  2.228889510898936e-17
-8.308751611578289e-01 -3.555619601946113e-03  1.482294729685266e-17
-4.955759984135979e-01 -3.512270473575153e-04  8.822974766479392e-18
 1.372201277643786e-01  5.346810762724673e-04 -2.447489509684850e-18
-2.461713111040001e-01 -9.901312261665813e-04  4.391085363588496e-18
-3.816626417186842e-01 -7.972304831682936e-04  6.800333226665912e-18
 5.651921825517332e-01  5.064209184760985e-04 -1.006347236523969e-17
 1.018151085348129e+00  1.720542828318460e-02 -1.829599260633186e-17
-1.137641704629408e+00  7.996475704660148e-04  2.023747507476511e-17
 1.989253732667676e-01  4.941615056464283e-04 -3.545191634012225e-18
 6.108849100639617e-01  2.056028970750612e-03 -1.089255064171779e-17
-2.690150084851468e-01 -1.585345823768727e-03  4.803731814903930e-18
-1.497176560504280e-01 -3.221932641868764e-04  2.667714703307790e-18
 5.068093576545119e-02  1.519117709952706e-04 -9.034885456136257e-19
 3.789640042482516e-02  1.219821486371442e-04 -6.756649685040295e-19
 1.242630376438751e-01  4.465303833704121e-04 -2.215996914864760e-18
-2.411011277361591e-02 -7.563381616631429e-05  4.298453337019046e-19
-1.229421703442168e-02 -3.971167904355996e-05  2.191982802761741e-19
-5.183841161362127e-02 -1.683333348521853e-04  9.242559342337871e-19
-1.085683355572257e-01 -3.523029040576457e-04  1.935722820643880e-18
-1.640302541816931e-01 -4.915412611457547e-04  2.924164442392224e-18
 9.280983731000271e-02  1.885655900016497e-04 -1.653599223887438e-18
 3.067134149749503e-01  8.467432823888145e-04 -5.467031059704545e-18
-2.509248963462983e+00 -4.070875944183179e-02  4.507334616026831e-17
-1.346473077305085e+00 -3.069763872712318e-03  2.399363525422908e-17
-6.279237308986982e-02 -1.961272689527657e-04  1.119480315570152e-18
 1.371488586278158e-01  1.714424291614933e-04 -2.442489045634906e-18
 3.346243637077800e-02  1.564906755693912e-04 -5.971118613051426e-19
-2.037122749533563e+00 -6.034868298165050e-03  3.631503537539330e-17
-3.642214661093356e-01 -1.146893526725769e-04  6.482933833563277e-18
 3.904658672031522e-01 -2.200299103231425e-04 -6.946545144036568e-18
 8.909739959637547e-01  5.668718776176890e-03 -1.591418905795310e-17
-4.167064043236838e+00 -2.722110773138705e-02  7.443756218374885e-17
-4.800948722200314e-01 -1.492355815101997e-04  8.545394271864631e-18
-1.014981324489873e-01  3.072561320812284e-06  1.806248766466713e-18
-7.772316110927228e-03 -2.007298560547333e-06  1.383382579067370e-19
-1.970751708446380e-01 -1.258304734723373e-04  3.508480604612613e-18
 5.469665524804959e-01 -1.091519293655332e-03 -9.722707283301211e-18
 1.232572405511605e+01  1.126304699119297e-01 -2.205081993815775e-16
-2.894457577186499e+01 -4.517413314914637e+00  5.615180329670535e-16
-1.610956737069663e+00 -4.051990025953400e+00  7.030162218041132e-17
 2.796064464412450e+01  4.343475397388689e+00 -5.422206559493877e-16
-5.561719351196382e+00 -6.230718315019506e-02  9.961761377858974e-17
-2.227593781839709e+00  6.485388206740009e-03  3.957605350234028e-17
-1.158618311673737e+01  3.732543484110779e-01  2.023548961970463e-16
-1.203008763068685e-01  9.446921356866773e-05  2.139926957308819e-18
 7.942017116110939e+00 -2.523433539114216e-01 -1.387449318622410e-16
 2.126753253394440e+01  3.273066390301005e+00 -4.121106784305253e-16
-2.483395528231303e+01 -8.129034470650717e-01  4.503021448374643e-16
 2.014901242452538e+01 -8.517562918071171e+00 -2.710608459996558e-16
 1.751258503969357e+01  6.758518440998630e-01 -3.186014727399934e-16
-1.012464818451563e+01 -4.276359721257402e-01  1.845739958266323e-16
-2.332854989313856e+00  3.344013096626317e-02  4.117235207848459e-17
 5.713673566991051e-01 -1.925568954291810e-03 -1.014837914261302e-17
 1.038933786435337e-01 -3.102883705380031e-04 -1.845718502231594e-18
 1.042105465129919e+00 -2.529824947748943e-03 -1.851951678804229e-17
-8.991486991228216e-01 -6.060238299878023e-03  1.606369040873643e-17
 2.815364724585248e-01 -4.088033550455884e-03 -4.968274296650997e-18
 8.264998100994898e-01  1.823337421018661e-02 -1.489589131457687e-17
 9.147706423555998e-01 -1.233241267344640e-02 -1.615272368248139e-17
-4.919583049912764e-01 -7.428116012254312e-03  8.831306057960044e-18
 1.305347151090503e+00 -6.231698679375819e-02 -2.258992522651761e-17
 6.292150684132605e-01  7.191303136559865e-03 -1.127152072423579e-17
 8.340005094905977e-01 -1.571031045970588e-02 -1.468061616709691e-17
-7.684997088729913e+00 -3.181314358130473e-01  1.400323751369436e-16
-6.149839201679414e+00 -6.022827741685030e+00  1.713260917382894e-16
 8.719967301367163e+00  2.780841668284828e-01 -1.580394334787954e-16
-2.920053991053201e-01  2.796412436096835e-03  5.167852272822368e-18
 7.269629445811939e-01  2.329641545979631e-03 -1.296110897087638e-17
 2.112603868673172e+00 -5.820550138338832e-03 -3.753650181204837e-17
-5.024958856132288e-01 -2.378561246675328e-02  9.186902210687739e-18
-1.443797326045086e+01  2.273424234953249e-01  2.546050955527417e-16
 1.804806171503817e+01 -1.507462159377235e+00 -3.056981606565852e-16
 5.882649066054714e+00  2.164216180388664e-01 -1.069124107137577e-16
-3.146008805099856e+00 -2.734056734119983e-02  5.626789379442602e-17
-3.046400283769555e-01 -2.680635191694991e-05  5.421708125303940e-18
 1.484746105535931e+00  8.881633430432068e-03 -2.651408359927925e-17
 3.781576320874578e-02  3.662304203891657e-04 -6.767395023398321e-19
 1.244699734575194e+00  9.919072541319185e-03 -2.225283137209535e-17
-1.319761712815343e+01 -7.950824854396079e-01  2.430365231804915e-16
-2.180566272894558e+01 -1.579741818077128e+01  5.503705120505860e-16
 1.422227834545924e+01  5.548135568331004e-01 -2.588029158485166e-16
 3.024898937752908e+00  1.900150846841983e-01 -5.578402076373520e-17
 1.077155465783361e+01  4.188475341192764e-02 -1.921230145385724e-16
-9.209336813306331e+00 -1.774793962214877e-01  1.657146701816220e-16
 2.601465514242282e+01 -5.977874715924908e+00 -4.015413284944956e-16
 1.324504843990069e+01  1.143885605647356e-01 -2.368867371593031e-16
-1.506923915107064e+00 -4.429322249875058e-02  2.727260536405163e-17
-8.781151038351988e-01 -1.010607578702842e-02  1.573094197507531e-17
-3.518733155071134e+00 -1.289143323654930e-02  6.275250858671409e-17
 1.757366507298508e+00  3.569613439635885e-03 -3.131110974229716e-17
 5.537053751299724e-01  5.981417798790911e-03 -9.915304524350475e-18
 2.015746178488815e-01  2.083490174199999e-03 -3.608668006788979e-18
-5.572071618697206e-01 -6.159563447190365e-03  9.979453412808352e-18
 3.082629061983597e-01  1.904837754062508e-03 -5.505477675618166e-18
 7.110676909402561e-02  8.388602773437048e-04 -1.274048755519691e-18
-2.346811291046282e-01 -1.240185564035225e-03  4.189173074643465e-18
 2.156616131180516e-01  2.607941207014844e-03 -3.864751310795767e-18
-1.097351524233945e-01 -1.008855935439989e-03  1.963233560505247e-18
-1.083444958878551e+00 -1.411090456245927e-02  1.942617984146189e-17
 5.971375659876133e-02  2.364763877931298e-04 -1.065107268421458e-18
 2.325755482140037e-01  2.016929816506989e-03 -4.159682524247077e-18
 1.310616751448776e-01  1.426234447773959e-03 -2.347052883008486e-18
 4.355857010765510e-02  7.875696124182890e-04 -7.832687085525417e-19
-4.133984264229921e+00 -4.706081209414997e-02  7.405271390516063e-17
-2.681322115025434e-01  1.665806757793261e-04  4.770020983965699e-18
-6.700339697785331e-01  2.065721125901544e-02  1.171180839707498e-17
 1.916921984788256e+01  4.793612396226326e-01 -3.460643956865526e-16
 2.476707083748693e+00  3.227967244360126e+01 -3.757378647350455e-16
-2.559452445138630e+01 -4.579380333513546e-01  4.601902397999579e-16
 2.296975081106758e-01 -4.661534918424342e-02 -3.608785359001318e-18
 2.772002550653984e+00 -4.849169261110771e-02 -4.883285748543169e-17
 1.347145457307171e+00 -4.494772999300918e-04 -2.396944213869447e-17
 4.610178764679920e-01  1.500661404798669e-03 -8.219781789419739e-18
 4.685588667843396e-01  3.849154977799717e-03 -8.378112623490290e-18
-1.997522347270666e+00 -1.131443749300499e-02  3.566454463335790e-17
-1.637309459341361e+00  2.178696704015624e-02  2.891402170144997e-17
 1.311558576055040e+00 -8.504556519735621e-03 -2.325336811896347e-17
 2.149414233014204e-01 -7.432381681693065e-04 -3.817502513302665e-18
-1.481246726836703e-01  1.179782654654928e-03  2.623933403279204e-18
 9.114592019462121e-01 -5.752816550967162e-03 -1.616139562981241e-17
-6.056995639905252e-01 -2.737609233273874e-03  1.080727418336390e-17
-1.406512007115742e+00  1.060043206348540e-02  2.492164332794157e-17
-1.918931795129116e+00  2.176481685865914e-02  3.392605469090769e-17
-1.878624882910881e+00  6.161350184984017e-02  3.279931431597645e-17
 7.149775780230805e-01 -1.371184174481197e-02 -1.258299466644264e-17
 1.311271211313793e+01 -2.711202178457501e-02 -2.330777872839873e-16
-1.062946777615049e+01 -5.649411653955085e+00  2.472097108392043e-16
-1.333007511468840e+01  5.202231149582756e-02  2.366900770022668e-16
 4.176873319314277e-02 -7.928921014721669e-03 -6.618576470656168e-19
 1.911992345843643e+00 -4.424020720825573e-02 -3.357163243718365e-17
 1.428005866598321e-01 -5.879624366919818e-04 -2.535265677889240e-18
 6.529047034624919e-01 -1.521310340919964e-02 -1.146290889517062e-17
-7.023196117441464e-01 -8.902035304527506e-04  1.250776176651418e-17
 9.861954826595971e-01 -3.260395091406598e-02 -1.721553123703782e-17
 5.961157364803509e-01  1.479616337999040e-03 -1.062379312463998e-17
 6.415714625894283e-01 -5.409663743407580e-02 -1.086170617304955e-17
-1.323346931174293e+00 -1.619518221889054e-02  2.371693680139855e-17
 6.455350609915723e-01 -3.153910049739127e-02 -1.116401362906156e-17
 2.320824770325849e+00  8.850367007762541e-02 -4.221118821307318e-17
 4.300120536499412e-01 -1.515293387033658e-02 -7.496886549174897e-18
-1.385237586768737e+01 -8.555743943964145e-01  2.553102683697862e-16
 2.410978535947653e+01 -9.053440150162416e+00 -3.360415809782588e-16
 8.848704237585258e+00  1.174394608689977e+00 -1.695397250004726e-16
-8.281519041542616e+00  8.377480598819409e-01  1.387719528666945e-16
 1.278688375916799e+01  1.786972069171473e+00 -2.459183383000849e-16
 1.160564190587104e+01 -8.896800126505900e-01 -1.973951025174623e-16
-8.813278183030949e+00 -2.809341930168226e+00  1.857077658647575e-16
-7.055131045134894e+00  6.137164643996623e-01  1.192487588843668e-16
 2.132604049427279e+00  1.763890515200795e-01 -3.976456629355511e-17
 3.245737678435318e+00 -2.602789908629037e-01 -5.508750158258615e-17
-2.596283540837101e+00 -2.638201690455919e-01  4.891461897096463e-17
-4.153520433420075e-01  7.286744956634177e-02  6.642998490556384e-18
 5.369584413690778e+00  2.261271277354651e-01 -9.788153380757119e-17
-2.684135245881054e+00  3.996795568156508e-01  4.366082643308914e-17
-5.975127115956576e+00 -2.874949335434011e-01  1.092884204206920e-16
 6.062372419750322e+00 -1.141009262493238e+00 -9.616369298149635e-17
 5.731608923191397e+00  5.592179299945456e-01 -1.077465787811018e-16
-5.547259928972234e+00  1.820175943952231e-01  9.684994279534101e-17
 6.744992610791110e+00  1.827677302854972e-02 -1.202229764310815e-16
 5.834753170719813e-01  8.811885274820140e-04 -1.039269315509379e-17
 2.607954301166023e-01  2.396603915517524e-04 -4.643628190413387e-18
 1.715346581389052e-01  1.621109331823476e-04 -3.054329484306584e-18
 2.818585816566775e-02  3.444209135306770e-05 -5.019548439948168e-19
-1.860122436766158e+00 -1.579415383987130e-03  3.311932551985749e-17
-1.854749455922146e-01  3.672411056889838e-04  3.296974628411131e-18
 1.221192432427015e-01 -2.674094572060548e-04 -2.170510066975926e-18
 5.566491874220482e-01 -1.577115828243976e-03 -9.890032013803353e-18
 5.249933435850941e-01 -2.284239649169775e-04 -9.340535810649370e-18
 2.312738108883522e-01 -4.737522892315054e-05 -4.115306574882571e-18
-8.996618728688917e-01 -2.142349538100246e-03  1.603256802802790e-17
 1.815425964524862e+00 -2.923190890554415e-02 -3.200732330889285e-17
 2.182045892726910e+00  3.609581032966522e-02 -3.920298083819359e-17
-1.785258957569421e+00 -4.745198780184730e-03  3.181956787644784e-17
 2.867506497236068e+00 -5.151765259177818e-02 -5.050137343786714e-17
 3.517842780806539e+00  3.669292419800882e-02 -6.298121498591745e-17
-1.248325539683124e+00 -1.580358638788574e-02  2.237781814251292e-17
-1.344477551377445e+00 -3.006760656824034e-03  2.395747515205107e-17
 2.317262498122915e-01  2.064298305755567e-04 -4.125966018800224e-18
 2.778392521751160e+00  1.196668588247661e-02 -4.956776246654117e-17
 3.643257307442761e-02  1.940932028091261e-03 -6.683034742504871e-19
-2.082952197908437e+00 -1.457097520278668e-02  3.721833047423109e-17
-1.739315165773794e+00 -4.408678553441765e-03  3.099848567520974e-17
-3.676232902218635e+00  1.885130372525562e-02  6.522925936406655e-17
 5.017946708193140e+00 -2.631872613848876e-01 -8.659619378670836e-17
 6.730347784386175e+00  1.182883430350493e-01 -1.209899368263746e-16
-1.992054539275818e+00 -4.507812094311620e-02  3.591414805199058e-17
-1.309470257366368e+01  8.390797198085874e-02  2.321737282951749e-16
-3.616710005429730e+00  8.638611743378022e-01  5.548780892405193e-17
 9.657736282054200e+00  5.977902316264833e-01 -1.780130147762324e-16
-4.529230870188865e+00 -9.985265521782044e-02  8.162901575283402e-17
-1.118316214366839e+01 -6.621837913952669e-02  1.996980799015464e-16
 1.251485828863377e+01 -3.326732179589272e+00 -1.885358664227813e-16
 8.373537043698610e+00  1.461640744618634e-01 -1.505188627774573e-16
 7.712335307424186e-01  2.448359301712227e-03 -1.375017664217672e-17
-5.152532478683447e-01 -9.405622171523920e-04  9.179210097789445e-18
-4.696424824689693e+00  1.478243047642083e-02  8.342659774942384e-17
 1.119684599032433e+01 -6.428947834746012e-01 -1.926557201211483e-16
 8.664729566369484e+00  7.866049558190489e-01 -1.622812784819875e-16
-9.830513055469712e+00  2.328263741019380e-01  1.725534996776529e-16
 1.606674746170887e+00  4.342880162413150e-03 -2.863731513669922e-17
-9.991529251368452e-01 -1.788621524712417e-03  1.779949556557689e-17
 2.520606083060381e+00 -4.196199637587315e-02 -4.442604767262085e-17
 6.706972296909764e-01  4.353016724020038e-03 -1.198058290258599e-17
 3.634148774485771e+00 -1.323563012453980e-01 -6.331409949396411e-17
 6.392894631413413e+00  3.696417191353445e-01 -1.175671200674037e-16
-2.911868500672426e+00 -2.467415376326807e-02  5.207369133604067e-17
 4.983465880166875e+00  5.581233231124278e-02 -8.926017126972062e-17
-1.523425385770561e+00 -7.744269927264284e-02  2.790686754751869e-17
-8.003030130349231e+00  2.804338861292712e-01  1.395421112073676e-16
 2.193293778638522e+00  7.560623905187188e-03 -3.910996171013358e-17
 5.418675786448138e-01  3.226002335566899e-03 -9.676325925965229e-18
 3.382798616357541e+00  2.578119220832755e-02 -6.046582890676757e-17
 7.997895719974263e-01  1.670680326414739e-02 -1.440486579166463e-17
 1.103897159412943e-02  8.911982557192302e-04 -2.056084103993661e-19
 4.940824487419996e-02  9.646854745227254e-04 -8.891904336977902e-19
-5.825732729746576e-01 -6.772299871793844e-03  1.043716923519348e-17
 2.538901276043874e-01  4.197497820967148e-03 -4.561405451675861e-18
-1.896760195148715e-01 -2.763901370534819e-03  3.403909102387228e-18
-1.718184412897183e-01 -2.474291434191108e-03  3.083136561602491e-18
-2.703635541911206e-01 -3.889840647649076e-03  4.851408648011655e-18
-4.528656195286215e-01 -6.506241476902593e-03  8.126133172845340e-18
-1.522151763028283e+00 -2.111836111001981e-02  2.730548981309336e-17
-5.371745204099668e-01 -5.878817107976753e-03  9.620064069793300e-18
-4.944636725201715e-01 -5.907855542106284e-03  8.860271935561870e-18
 5.715129978625696e-01  3.359035142896131e-03 -1.020526838469894e-17
-5.463555189265252e+00 -2.779275276236623e-01  1.000860861396950e-16
-1.592224043177829e+00  1.172107170057148e-02  2.821509637844429e-17
 8.421034834116804e-01  1.951579398472695e-02 -1.518675365789645e-17
-1.726211410420661e+00 -1.440479467451670e-03  3.073479155193092e-17
 3.155323248275052e+00  1.708329499581971e-02 -5.632826566163397e-17
-8.633339467095679e+00 -5.801090552402195e-01  1.596009838373853e-16
-1.969951435464411e+01  3.119279389233512e+00  3.185268938883292e-16
 1.812061781771876e+01 -6.616025021638985e-02 -3.217982365818922e-16
 2.235895935438354e+00  7.722283241421106e-02 -4.058387177855143e-17
-2.350692581354370e+00 -1.918851749820071e-02  4.203053354380961e-17
-1.182969951609547e+00  1.577206672594107e-02  2.089030911132650e-17
-4.796444887810793e+00 -8.893882173647696e-02  8.627227226745510e-17
 5.686011474986467e+00 -4.039588633209095e-01 -9.703882611563820e-17
 5.104430191174997e+00  3.890388783969339e-01 -9.483665719282134e-17
-4.680460971899552e+00  4.639925664015679e-02  8.281765054111574e-17
 1.052233563934819e+00  1.755018124597708e-02 -1.890607315860012e-17
-2.981219097737071e+00 -9.867356400382112e-03  5.315573347359359e-17
-1.081771854000899e+01  1.961642435041195e-01  1.904986889222370e-16
 1.239297866723652e+01 -3.001110094390240e+00 -1.897125222418115e-16
 9.895692512552797e+00  8.483608565598331e+00 -2.632716484216766e-16
-2.186150287270943e+01  1.508067209882946e+00  3.735566782171475e-16
 1.188248873035068e+01 -1.214444391308476e+00 -1.989850859027473e-16
 7.658067759240332e+00 -6.517489047071284e-02 -1.356148023276873e-16
-4.197679370903011e-01 -6.275784182213092e-03  7.534752559802595e-18
-2.117458099892214e+00  1.691153900661611e-02  3.750893288038828e-17
 8.378140062689764e-02 -8.922869351674392e-04 -1.481822053148919e-18
-4.237353606909300e-01  2.570908509357706e-03  7.514461070281513e-18
VECTORS SF_force double
0.000000000000000e+00 0.000000000000000e+00 0.000000000000000e+00
0.000000000000000e+00 0.000000000000000e+00 0.000000000000000e+00
0.000000000000000e+00 0.000000000000000e+00 0.000000000000000e+00
0.000000000000000e+00 0.000000000000000e+00 0.000000000000000e+00
0.000000000000000e+00 0.000000000000000e+00 0.000000000000000e+00
0.000000000000000e+00 0.000000000000000e+00 0.000000000000000e+00
0.000000000000000e+00 0.000000000000000e+00 0.000000000000000e+00
0.000000000000000e+00 0.000000000000000e+00 0.000000000000000e+00
0.000000000000000e+00 0.000000000000000e+00 0.000000000000000e+00
0.000000000000000e+00 0.000000000000000e+00 0.000000000000000e+00
0.000000000000000e+00 0.000000000000000e+00 0.000000000000000e+00
0.000000000000000e+00 0.000000000000000e+00 0.000000000000000e+00
0.000000000000000e+00 0.000000000000000e+00 0.000000000000000e+00
0.000000000000000e+00 0.000000000000000e+00 0.000000000000000e+00
0.000000000000000e+00 0.000000000000000e+00 0.000000000000000e+00
0.000000000000000e+00 0.000000000000000e+00 0.000000000000000e+00
0.000000000000000e+00 0.000000000000000e+00 0.000000000000000e+00
0.000000000000000e+00 0.000000000000000e+00 0.000000000000000e+00
0.000000000000000e+00 0.000000000000000e+00 0.000000000000000e+00
0.000000000000000e+00 0.000000000000000e+00 0.000000000000000e+00
0.000000000000000e+00 0.000000000000000e+00 0.000000000000000e+00
0.000000000000000e+00 0.000000000000000e+00 0.000000000000000e+00
0.000000000000000e+00 0.000000000000000e+00 0.000000000000000e+00
0.000000000000000e+00 0.000000000000000e+00 0.000000000000000e+00
0.000000000000000e+00 0.000000000000000e+00 0.000000000000000e+00
0.000000000000000e+00 0.000000000000000e+00 0.000000000000000e+00
0.000000000000000e+00 0.000000000000000e+00 0.000000000000000e+00
0.000000000000000e+00 0.000000000000000e+00 0.000000000000000e+00
0.000000000000000e+00 0.000000000000000e+00 0.000000000000000e+00
0.000000000000000e+00 0.000000000000000e+00 0.000000000000000e+00
0.000000000000000e+00 0.000000000000000e+00 0.000000000000000e+00
0.000000000000000e+00 0.000000000000000e+00 0.000000000000000e+00
0.000000000000000e+00 0.000000000000000e+00 0.000000000000000e+00
0.000000000000000e+00 0.000000000000000e+00 0.000000000000000e+00
0.000000000000000e+00 0.000000000000000e+00 0.000000000000000e+00
0.000000000000000e+00 0.000000000000000e+00 0.000000000000000e+00
0.000000000000000e+00 0.000000000000000e+00 0.000000000000000e+00
0.000000000000000e+00 0.000000000000000e+00 0.000000000000000e+00
0.000000000000000e+00 0.000000000000000e+00 0.000000000000000e+00
0.000000000000000e+00 0.000000000000000e+00 0.000000000000000e+00
0.000000000000000e+00 0.000000000000000e+00 0.000000000000000e+00
0.000000000000000e+00 0.000000000000000e+00 0.000000000000000e+00
0.000000000000000e+00 0.000000000000000e+00 0.000000000000000e+00
0.000000000000000e+00 0.000000000000000e+00 0.000000000000000e+00
0.000000000000000e+00 0.000000000000000e+00 0.000000000000000e+00
0.000000000000000e+00 0.000000000000000e+00 0.000000000000000e+00
0.000000000000000e+00 0.000000000000000e+00 0.000000000000000e+00
0.000000000000000e+00 0.000000000000000e+00 0.000000000000000e+00
0.000000000000000e+00 0.000000000000000e+00 0.000000000000000e+00
0.000000000000000e+00 0.000000000000000e+00 0.000000000000000e+00
0.000000000000000e+00 0.000000000000000e+00 0.000000000000000e+00
0.000000000000000e+00 0.000000000000000e+00 0.000000000000000e+00
0.000000000000000e+00 0.000000000000000e+00 0.000000000000000e+00
0.000000000000000e+00 0.000000000000000e+00 0.000000000000000e+00
0.000000000000000e+00 0.000000000000000e+00 0.000000000000000e+00
0.000000000000000e+00 0.000000000000000e+00 0.000000000000000e+00
0.000000000000000e+00 0.000000000000000e+00 0.000000000000000e+00
0.000000000000000e+00 0.000000000000000e+00 0.000000000000000e+00
0.000000000000000e+00 0.000000000000000e+00 0.000000000000000e+00
0.000000000000000e+00 0.000000000000000e+00 0.000000000000000e+00
0.000000000000000e+00 0.000000000000000e+00 0.000000000000000e+00
0.000000000000000e+00 0.000000000000000e+00 0.000000000000000e+00
0.000000000000000e+00 0.000000000000000e+00 0.000000000000000e+00
0.000000000000000e+00 0.000000000000000e+00 0.000000000000000e+00
0.000000000000000e+00 0.000000000000000e+00 0.000000000000000e+00
0.000000000000000e+00 0.000000000000000e+00 0.000000000000000e+00
0.000000000000000e+00 0.000000000000000e+00 0.000000000000000e+00
0.000000000000000e+00 0.000000000000000e+00 0.000000000000000e+00
0.000000000000000e+00 0.000000000000000e+00 0.000000000000000e+00
0.000000000000000e+00 0.000000000000000e+00 0.000000000000000e+00
0.000000000000000e+00 0.000000000000000e+00 0.000000000000000e+00
0.000000000000000e+00 0.000000000000000e+00 0.000000000000000e+00
0.000000000000000e+00 0.000000000000000e+00 0.000000000000000e+00
0.000000000000000e+00 0.000000000000000e+00 0.000000000000000e+00
0.000000000000000e+00 0.000000000000000e+00 0.000000000000000e+00
0.000000000000000e+00 0.000000000000000e+00 0.000000000000000e+00
0.000000000000000e+00 0.000000000000000e+00 0.000000000000000e+00
0.000000000000000e+00 0.000000000000000e+00 0.000000000000000e+00
0.000000000000000e+00 0.000000000000000e+00 0.000000000000000e+00
0.000000000000000e+00 0.000000000000000e+00 0.000000000000000e+00
0.000000000000000e+00 0.000000000000000e+00 0.000000000000000e+00
0.000000000000000e+00 0.000000000000000e+00 0.000000000000000e+00
0.000000000000000e+00 0.000000000000000e+00 0.000000000000000e+00
0.000000000000000e+00 0.000000000000000e+00 0.000000000000000e+00
0.000000000000000e+00 0.000000000000000e+00 0.000000000000000e+00
0.000000000000000e+00 0.000000000000000e+00 0.000000000000000e+00
0.000000000000000e+00 0.000000000000000e+00 0.000000000000000e+00
0.000000000000000e+00 0.000000000000000e+00 0.000000000000000e+00
0.000000000000000e+00 0.000000000000000e+00 0.000000000000000e+00
0.000000000000000e+00 0.000000000000000e+00 0.000000000000000e+00
0.000000000000000e+00 0.000000000000000e+00 0.000000000000000e+00
0.000000000000000e+00 0.000000000000000e+00 0.000000000000000e+00
0.000000000000000e+00 0.000000000000000e+00 0.000000000000000e+00
0.000000000000000e+00 0.000000000000000e+00 0.000000000000000e+00
0.000000000000000e+00 0.000000000000000e+00 0.000000000000000e+00
0.000000000000000e+00 0.000000000000000e+00 0.000000000000000e+00
0.000000000000000e+00 0.000000000000000e+00 0.000000000000000e+00
0.000000000000000e+00 0.000000000000000e+00 0.000000000000000e+00
0.000000000000000e+00 0.000000000000000e+00 0.000000000000000e+00
0.000000000000000e+00 0.000000000000000e+00 0.000000000000000e+00
0.000000000000000e+00 0.000000000000000e+00 0.000000000000000e+00
0.000000000000000e+00 0.000000000000000e+00 0.000000000000000e+00
0.000000000000000e+00 0.000000000000000e+00 0.000000000000000e+00
0.000000000000000e+00 0.000000000000000e+00 0.000000000000000e+00
0.000000000000000e+00 0.000000000000000e+00 0.000000000000000e+00
0.000000000000000e+00 0.000000000000000e+00 0.000000000000000e+00
0.000000000000000e+00 0.000000000000000e+00 0.000000000000000e+00
0.000000000000000e+00 0.000000000000000e+00 0.000000000000000e+00
0.000000000000000e+00 0.000000000000000e+00 0.000000000000000e+00
0.000000000000000e+00 0.000000000000000e+00 0.000000000000000e+00
0.000000000000000e+00 0.000000000000000e+00 0.000000000000000e+00
0.000000000000000e+00 0.000000000000000e+00 0.000000000000000e+00
0.000000000000000e+00 0.000000000000000e+00 0.000000000000000e+00
0.000000000000000e+00 0.000000000000000e+00 0.000000000000000e+00
0.000000000000000e+00 0.000000000000000e+00 0.000000000000000e+00
0.000000000000000e+00 0.000000000000000e+00 0.000000000000000e+00
0.000000000000000e+00 0.000000000000000e+00 0.000000000000000e+00
0.000000000000000e+00 0.000000000000000e+00 0.000000000000000e+00
0.000000000000000e+00 0.000000000000000e+00 0.000000000000000e+00
0.000000000000000e+00 0.000000000000000e+00 0.000000000000000e+00
0.000000000000000e+00 0.000000000000000e+00 0.000000000000000e+00
0.000000000000000e+00 0.000000000000000e+00 0.000000000000000e+00
0.000000000000000e+00 0.000000000000000e+00 0.000000000000000e+00
0.000000000000000e+00 0.000000000000000e+00 0.000000000000000e+00
0.000000000000000e+00 0.000000000000000e+00 0.000000000000000e+00
0.000000000000000e+00 0.000000000000000e+00 0.000000000000000e+00
0.000000000000000e+00 0.000000000000000e+00 0.000000000000000e+00
0.000000000000000e+00 0.000000000000000e+00 0.000000000000000e+00
0.000000000000000e+00 0.000000000000000e+00 0.000000000000000e+00
0.000000000000000e+00 0.000000000000000e+00 0.000000000000000e+00
0.000000000000000e+00 0.000000000000000e+00 0.000000000000000e+00
0.000000000000000e+00 0.000000000000000e+00 0.000000000000000e+00
0.000000000000000e+00 0.000000000000000e+00 0.000000000000000e+00
0.000000000000000e+00 0.000000000000000e+00 0.000000000000000e+00
0.000000000000000e+00 0.000000000000000e+00 0.000000000000000e+00
0.000000000000000e+00 0.000000000000000e+00 0.000000000000000e+00
0.000000000000000e+00 0.000000000000000e+00 0.000000000000000e+00
0.000000000000000e+00 0.000000000000000e+00 0.000000000000000e+00
0.000000000000000e+00 0.000000000000000e+00 0.000000000000000e+00
0.000000000000000e+00 0.000000000000000e+00 0.000000000000000e+00
0.000000000000000e+00 0.000000000000000e+00 0.000000000000000e+00
0.000000000000000e+00 0.000000000000000e+00 0.000000000000000e+00
0.000000000000000e+00 0.000000000000000e+00 0.000000000000000e+00
0.000000000000000e+00 0.000000000000000e+00 0.000000000000000e+00
0.000000000000000e+00 0.000000000000000e+00 0.000000000000000e+00
0.000000000000000e+00 0.000000000000000e+00 0.000000000000000e+00
0.000000000000000e+00 0.000000000000000e+00 0.000000000000000e+00
0.000000000000000e+00 0.000000000000000e+00 0.000000000000000e+00
0.000000000000000e+00 0.000000000000000e+00 0.000000000000000e+00
0.000000000000000e+00 0.000000000000000e+00 0.000000000000000e+00
0.000000000000000e+00 0.000000000000000e+00 0.000000000000000e+00
0.000000000000000e+00 0.000000000000000e+00 0.000000000000000e+00
0.000000000000000e+00 0.000000000000000e+00 0.000000000000000e+00
0.000000000000000e+00 0.000000000000000e+00 0.000000000000000e+00
0.000000000000000e+00 0.000000000000000e+00 0.000000000000000e+00
0.000000000000000e+00 0.000000000000000e+00 0.000000000000000e+00
0.000000000000000e+00 0.000000000000000e+00 0.000000000000000e+00
0.000000000000000e+00 0.000000000000000e+00 0.000000000000000e+00
0.000000000000000e+00 0.000000000000000e+00 0.000000000000000e+00
0.000000000000000e+00 0.000000000000000e+00 0.000000000000000e+00
0.000000000000000e+00 0.000000000000000e+00 0.000000000000000e+00
0.000000000000000e+00 0.000000000000000e+00 0.000000000000000e+00
0.000000000000000e+00 0.000000000000000e+00 0.000000000000000e+00
0.000000000000000e+00 0.000000000000000e+00 0.000000000000000e+00
0.000000000000000e+00 0.000000000000000e+00 0.000000000000000e+00
0.000000000000000e+00 0.000000000000000e+00 0.000000000000000e+00
0.000000000000000e+00 0.000000000000000e+00 0.000000000000000e+00
0.000000000000000e+00 0.000000000000000e+00 0.000000000000000e+00
0.000000000000000e+00 0.000000000000000e+00 0.000000000000000e+00
0.000000000000000e+00 0.000000000000000e+00 0.000000000000000e+00
0.000000000000000e+00 0.000000000000000e+00 0.000000000000000e+00
0.000000000000000e+00 0.000000000000000e+00 0.000000000000000e+00
0.000000000000000e+00 0.000000000000000e+00 0.000000000000000e+00
0.000000000000000e+00 0.000000000000000e+00 0.000000000000000e+00
0.000000000000000e+00 0.000000000000000e+00 0.000000000000000e+00
0.000000000000000e+00 0.000000000000000e+00 0.000000000000000e+00
0.000000000000000e+00 0.000000000000000e+00 0.000000000000000e+00
0.000000000000000e+00 0.000000000000000e+00 0.000000000000000e+00
0.000000000000000e+00 0.000000000000000e+00 0.000000000000000e+00
0.000000000000000e+00 0.000000000000000e+00 0.000000000000000e+00
0.000000000000000e+00 0.000000000000000e+00 0.000000000000000e+00
0.000000000000000e+00 0.000000000000000e+00 0.000000000000000e+00
0.000000000000000e+00 0.000000000000000e+00 0.000000000000000e+00
0.000000000000000e+00 0.000000000000000e+00 0.000000000000000e+00
0.000000000000000e+00 0.000000000000000e+00 0.000000000000000e+00
0.000000000000000e+00 0.000000000000000e+00 0.000000000000000e+00
0.000000000000000e+00 0.000000000000000e+00 0.000000000000000e+00
0.000000000000000e+00 0.000000000000000e+00 0.000000000000000e+00
0.000000000000000e+00 0.000000000000000e+00 0.000000000000000e+00
0.000000000000000e+00 0.000000000000000e+00 0.000000000000000e+00
0.000000000000000e+00 0.000000000000000e+00 0.000000000000000e+00
0.000000000000000e+00 0.000000000000000e+00 0.000000000000000e+00
0.000000000000000e+00 0.000000000000000e+00 0.000000000000000e+00
0.000000000000000e+00 0.000000000000000e+00 0.000000000000000e+00
0.000000000000000e+00 0.000000000000000e+00 0.000000000000000e+00
0.000000000000000e+00 0.000000000000000e+00 0.000000000000000e+00
0.000000000000000e+00 0.000000000000000e+00 0.000000000000000e+00
0.000000000000000e+00 0.000000000000000e+00 0.000000000000000e+00
0.000000000000000e+00 0.000000000000000e+00 0.000000000000000e+00
0.000000000000000e+00 0.000000000000000e+00 0.000000000000000e+00
0.000000000000000e+00 0.000000000000000e+00 0.000000000000000e+00
0.000000000000000e+00 0.000000000000000e+00 0.000000000000000e+00
0.000000000000000e+00 0.000000000000000e+00 0.000000000000000e+00
0.000000000000000e+00 0.000000000000000e+00 0.000000000000000e+00
0.000000000000000e+00 0.000000000000000e+00 0.000000000000000e+00
0.000000000000000e+00 0.000000000000000e+00 0.000000000000000e+00
0.000000000000000e+00 0.000000000000000e+00 0.000000000000000e+00
0.000000000000000e+00 0.000000000000000e+00 0.000000000000000e+00
0.000000000000000e+00 0.000000000000000e+00 0.000000000000000e+00
0.000000000000000e+00 0.000000000000000e+00 0.000000000000000e+00
0.000000000000000e+00 0.000000000000000e+00 0.000000000000000e+00
0.000000000000000e+00 0.000000000000000e+00 0.000000000000000e+00
0.000000000000000e+00 0.000000000000000e+00 0.000000000000000e+00
0.000000000000000e+00 0.000000000000000e+00 0.000000000000000e+00
0.000000000000000e+00 0.000000000000000e+00 0.000000000000000e+00
0.000000000000000e+00 0.000000000000000e+00 0.000000000000000e+00
0.000000000000000e+00 0.000000000000000e+00 0.000000000000000e+00
0.000000000000000e+00 0.000000000000000e+00 0.000000000000000e+00
0.000000000000000e+00 0.000000000000000e+00 0.000000000000000e+00
0.000000000000000e+00 0.000000000000000e+00 0.000000000000000e+00
0.000000000000000e+00 0.000000000000000e+00 0.000000000000000e+00
0.000000000000000e+00 0.000000000000000e+00 0.000000000000000e+00
0.000000000000000e+00 0.000000000000000e+00 0.000000000000000e+00
0.000000000000000e+00 0.000000000000000e+00 0.000000000000000e+00
0.000000000000000e+00 0.000000000000000e+00 0.000000000000000e+00
0.000000000000000e+00 0.000000000000000e+00 0.000000000000000e+00
0.000000000000000e+00 0.000000000000000e+00 0.000000000000000e+00
0.000000000000000e+00 0.000000000000000e+00 0.000000000000000e+00
0.000000000000000e+00 0.000000000000000e+00 0.000000000000000e+00
0.000000000000000e+00 0.000000000000000e+00 0.000000000000000e+00
0.000000000000000e+00 0.000000000000000e+00 0.000000000000000e+00
0.000000000000000e+00 0.000000000000000e+00 0.000000000000000e+00
0.000000000000000e+00 0.000000000000000e+00 0.000000000000000e+00
0.000000000000000e+00 0.000000000000000e+00 0.000000000000000e+00
0.000000000000000e+00 0.000000000000000e+00 0.000000000000000e+00
0.000000000000000e+00 0.000000000000000e+00 0.000000000000000e+00
0.000000000000000e+00 0.000000000000000e+00 0.000000000000000e+00
0.000000000000000e+00 0.000000000000000e+00 0.000000000000000e+00
0.000000000000000e+00 0.000000000000000e+00 0.000000000000000e+00
0.000000000000000e+00 0.000000000000000e+00 0.000000000000000e+00
0.000000000000000e+00 0.000000000000000e+00 0.000000000000000e+00
0.000000000000000e+00 0.000000000000000e+00 0.000000000000000e+00
0.000000000000000e+00 0.000000000000000e+00 0.000000000000000e+00
0.000000000000000e+00 0.000000000000000e+00 0.000000000000000e+00
0.000000000000000e+00 0.000000000000000e+00 0.000000000000000e+00
0.000000000000000e+00 0.000000000000000e+00 0.000000000000000e+00
0.000000000000000e+00 0.000000000000000e+00 0.000000000000000e+00
0.000000000000000e+00 0.000000000000000e+00 0.000000000000000e+00
0.000000000000000e+00 0.000000000000000e+00 0.000000000000000e+00
0.000000000000000e+00 0.000000000000000e+00 0.000000000000000e+00
0.000000000000000e+00 0.000000000000000e+00 0.000000000000000e+00
0.000000000000000e+00 0.000000000000000e+00 0.000000000000000e+00
0.000000000000000e+00 0.000000000000000e+00 0.000000000000000e+00
0.000000000000000e+00 0.000000000000000e+00 0.000000000000000e+00
0.000000000000000e+00 0.000000000000000e+00 0.000000000000000e+00
0.000000000000000e+00 0.000000000000000e+00 0.000000000000000e+00
0.000000000000000e+00 0.000000000000000e+00 0.000000000000000e+00
0.000000000000000e+00 0.000000000000000e+00 0.000000000000000e+00
0.000000000000000e+00 0.000000000000000e+00 0.000000000000000e+00
0.000000000000000e+00 0.000000000000000e+00 0.000000000000000e+00
0.000000000000000e+00 0.000000000000000e+00 0.000000000000000e+00
0.000000000000000e+00 0.000000000000000e+00 0.000000000000000e+00
0.000000000000000e+00 0.000000000000000e+00 0.000000000000000e+00
0.000000000000000e+00 0.000000000000000e+00 0.000000000000000e+00
0.000000000000000e+00 0.000000000000000e+00 0.000000000000000e+00
0.000000000000000e+00 0.000000000000000e+00 0.000000000000000e+00
0.000000000000000e+00 0.000000000000000e+00 0.000000000000000e+00
0.000000000000000e+00 0.000000000000000e+00 0.000000000000000e+00
0.000000000000000e+00 0.000000000000000e+00 0.000000000000000e+00
0.000000000000000e+00 0.000000000000000e+00 0.000000000000000e+00
0.000000000000000e+00 0.000000000000000e+00 0.000000000000000e+00
0.000000000000000e+00 0.000000000000000e+00 0.000000000000000e+00
0.000000000000000e+00 0.000000000000000e+00 0.000000000000000e+00
0.000000000000000e+00 0.000000000000000e+00 0.000000000000000e+00
0.000000000000000e+00 0.000000000000000e+00 0.000000000000000e+00
0.000000000000000e+00 0.000000000000000e+00 0.000000000000000e+00
0.000000000000000e+00 0.000000000000000e+00 0.000000000000000e+00
0.000000000000000e+00 0.000000000000000e+00 0.000000000000000e+00
0.000000000000000e+00 0.000000000000000e+00 0.000000000000000e+00
0.000000000000000e+00 0.000000000000000e+00 0.000000000000000e+00
0.000000000000000e+00 0.000000000000000e+00 0.000000000000000e+00
0.000000000000000e+00 0.000000000000000e+00 0.000000000000000e+00
0.000000000000000e+00 0.000000000000000e+00 0.000000000000000e+00
0.000000000000000e+00 0.000000000000000e+00 0.000000000000000e+00
0.000000000000000e+00 0.000000000000000e+00 0.000000000000000e+00
0.000000000000000e+00 0.000000000000000e+00 0.000000000000000e+00
0.000000000000000e+00 0.000000000000000e+00 0.000000000000000e+00
0.000000000000000e+00 0.000000000000000e+00 0.000000000000000e+00
0.000000000000000e+00 0.000000000000000e+00 0.000000000000000e+00
0.000000000000000e+00 0.000000000000000e+00 0.000000000000000e+00
0.000000000000000e+00 0.000000000000000e+00 0.000000000000000e+00
0.000000000000000e+00 0.000000000000000e+00 0.000000000000000e+00
0.000000000000000e+00 0.000000000000000e+00 0.000000000000000e+00
0.000000000000000e+00 0.000000000000000e+00 0.000000000000000e+00
0.000000000000000e+00 0.000000000000000e+00 0.000000000000000e+00
0.000000000000000e+00 0.000000000000000e+00 0.000000000000000e+00
0.000000000000000e+00 0.000000000000000e+00 0.000000000000000e+00
0.000000000000000e+00 0.000000000000000e+00 0.000000000000000e+00
0.000000000000000e+00 0.000000000000000e+00 0.000000000000000e+00
0.000000000000000e+00 0.000000000000000e+00 0.000000000000000e+00
0.000000000000000e+00 0.000000000000000e+00 0.000000000000000e+00
0.000000000000000e+00 0.000000000000000e+00 0.000000000000000e+00
0.000000000000000e+00 0.000000000000000e+00 0.000000000000000e+00
0.000000000000000e+00 0.000000000000000e+00 0.000000000000000e+00
0.000000000000000e+00 0.000000000000000e+00 0.000000000000000e+00
0.000000000000000e+00 0.000000000000000e+00 0.000000000000000e+00
0.000000000000000e+00 0.000000000000000e+00 0.000000000000000e+00
0.000000000000000e+00 0.000000000000000e+00 0.000000000000000e+00
0.000000000000000e+00 0.000000000000000e+00 0.000000000000000e+00
0.000000000000000e+00 0.000000000000000e+00 0.000000000000000e+00
0.000000000000000e+00 0.000000000000000e+00 0.000000000000000e+00
0.000000000000000e+00 0.000000000000000e+00 0.000000000000000e+00
0.000000000000000e+00 0.000000000000000e+00 0.000000000000000e+00
0.000000000000000e+00 0.000000000000000e+00 0.000000000000000e+00
0.000000000000000e+00 0.000000000000000e+00 0.000000000000000e+00
0.000000000000000e+00 0.000000000000000e+00 0.000000000000000e+00
0.000000000000000e+00 0.000000000000000e+00 0.000000000000000e+00
0.000000000000000e+00 0.000000000000000e+00 0.000000000000000e+00
0.000000000000000e+00 0.000000000000000e+00 0.000000000000000e+00
0.000000000000000e+00 0.000000000000000e+00 0.000000000000000e+00
0.000000000000000e+00 0.000000000000000e+00 0.000000000000000e+00
0.000000000000000e+00 0.000000000000000e+00 0.000000000000000e+00
0.000000000000000e+00 0.000000000000000e+00 0.000000000000000e+00
0.000000000000000e+00 0.000000000000000e+00 0.000000000000000e+00
0.000000000000000e+00 0.000000000000000e+00 0.000000000000000e+00
0.000000000000000e+00 0.000000000000000e+00 0.000000000000000e+00
0.000000000000000e+00 0.000000000000000e+00 0.000000000000000e+00
0.000000000000000e+00 0.000000000000000e+00 0.000000000000000e+00
0.000000000000000e+00 0.000000000000000e+00 0.000000000000000e+00
0.000000000000000e+00 0.000000000000000e+00 0.000000000000000e+00
0.000000000000000e+00 0.000000000000000e+00 0.000000000000000e+00
0.000000000000000e+00 0.000000000000000e+00 0.000000000000000e+00
0.000000000000000e+00 0.000000000000000e+00 0.000000000000000e+00
0.000000000000000e+00 0.000000000000000e+00 0.000000000000000e+00
0.000000000000000e+00 0.000000000000000e+00 0.000000000000000e+00
0.000000000000000e+00 0.000000000000000e+00 0.000000000000000e+00
0.000000000000000e+00 0.000000000000000e+00 0.000000000000000e+00
0.000000000000000e+00 0.000000000000000e+00 0.000000000000000e+00
0.000000000000000e+00 0.000000000000000e+00 0.000000000000000e+00
0.000000000000000e+00 0.000000000000000e+00 0.000000000000000e+00
0.000000000000000e+00 0.000000000000000e+00 0.000000000000000e+00
0.000000000000000e+00 0.000000000000000e+00 0.000000000000000e+00
0.000000000000000e+00 0.000000000000000e+00 0.000000000000000e+00
0.000000000000000e+00 0.000000000000000e+00 0.000000000000000e+00
0.000000000000000e+00 0.000000000000000e+00 0.000000000000000e+00
0.000000000000000e+00 0.000000000000000e+00 0.000000000000000e+00
0.000000000000000e+00 0.000000000000000e+00 0.000000000000000e+00
0.000000000000000e+00 0.000000000000000e+00 0.000000000000000e+00
0.000000000000000e+00 0.000000000000000e+00 0.000000000000000e+00
0.000000000000000e+00 0.000000000000000e+00 0.000000000000000e+00
0.000000000000000e+00 0.000000000000000e+00 0.000000000000000e+00
0.000000000000000e+00 0.000000000000000e+00 0.000000000000000e+00
0.000000000000000e+00 0.000000000000000e+00 0.000000000000000e+00
0.000000000000000e+00 0.000000000000000e+00 0.000000000000000e+00
0.000000000000000e+00 0.000000000000000e+00 0.000000000000000e+00
0.000000000000000e+00 0.000000000000000e+00 0.000000000000000e+00
0.000000000000000e+00 0.000000000000000e+00 0.000000000000000e+00
0.000000000000000e+00 0.000000000000000e+00 0.000000000000000e+00
0.000000000000000e+00 0.000000000000000e+00 0.000000000000000e+00
0.000000000000000e+00 0.000000000000000e+00 0.000000000000000e+00
0.000000000000000e+00 0.000000000000000e+00 0.000000000000000e+00
0.000000000000000e+00 0.000000000000000e+00 0.000000000000000e+00
0.000000000000000e+00 0.000000000000000e+00 0.000000000000000e+00
0.000000000000000e+00 0.000000000000000e+00 0.000000000000000e+00
0.000000000000000e+00 0.000000000000000e+00 0.000000000000000e+00
0.000000000000000e+00 0.000000000000000e+00 0.000000000000000e+00
0.000000000000000e+00 0.000000000000000e+00 0.000000000000000e+00
0.000000000000000e+00 0.000000000000000e+00 0.000000000000000e+00
0.000000000000000e+00 0.000000000000000e+00 0.000000000000000e+00
0.000000000000000e+00 0.000000000000000e+00 0.000000000000000e+00
0.000000000000000e+00 0.000000000000000e+00 0.000000000000000e+00
0.000000000000000e+00 0.000000000000000e+00 0.000000000000000e+00
0.000000000000000e+00 0.000000000000000e+00 0.000000000000000e+00
0.000000000000000e+00 0.000000000000000e+00 0.000000000000000e+00
0.000000000000000e+00 0.000000000000000e+00 0.000000000000000e+00
0.000000000000000e+00 0.000000000000000e+00 0.000000000000000e+00
0.000000000000000e+00 0.000000000000000e+00 0.000000000000000e+00
0.000000000000000e+00 0.000000000000000e+00 0.000000000000000e+00
0.000000000000000e+00 0.000000000000000e+00 0.000000000000000e+00
0.000000000000000e+00 0.000000000000000e+00 0.000000000000000e+00
0.000000000000000e+00 0.000000000000000e+00 0.000000000000000e+00
0.000000000000000e+00 0.000000000000000e+00 0.000000000000000e+00
0.000000000000000e+00 0.000000000000000e+00 0.000000000000000e+00
0.000000000000000e+00 0.000000000000000e+00 0.000000000000000e+00
0.000000000000000e+00 0.000000000000000e+00 0.000000000000000e+00
0.000000000000000e+00 0.000000000000000e+00 0.000000000000000e+00
0.000000000000000e+00 0.000000000000000e+00 0.000000000000000e+00
0.000000000000000e+00 0.000000000000000e+00 0.000000000000000e+00
0.000000000000000e+00 0.000000000000000e+00 0.000000000000000e+00
0.000000000000000e+00 0.000000000000000e+00 0.000000000000000e+00
0.000000000000000e+00 0.000000000000000e+00 0.000000000000000e+00
0.000000000000000e+00 0.000000000000000e+00 0.000000000000000e+00
0.000000000000000e+00 0.000000000000000e+00 0.000000000000000e+00
0.000000000000000e+00 0.000000000000000e+00 0.000000000000000e+00
0.000000000000000e+00 0.000000000000000e+00 0.000000000000000e+00
0.000000000000000e+00 0.000000000000000e+00 0.000000000000000e+00
0.000000000000000e+00 0.000000000000000e+00 0.000000000000000e+00
0.000000000000000e+00 0.000000000000000e+00 0.000000000000000e+00
0.000000000000000e+00 0.000000000000000e+00 0.000000000000000e+00
0.000000000000000e+00 0.000000000000000e+00 0.000000000000000e+00
0.000000000000000e+00 0.000000000000000e+00 0.000000000000000e+00
0.000000000000000e+00 0.000000000000000e+00 0.000000000000000e+00
0.000000000000000e+00 0.000000000000000e+00 0.000000000000000e+00
0.000000000000000e+00 0.000000000000000e+00 0.000000000000000e+00
0.000000000000000e+00 0.000000000000000e+00 0.000000000000000e+00
0.000000000000000e+00 0.000000000000000e+00 0.000000000000000e+00
0.000000000000000e+00 0.000000000000000e+00 0.000000000000000e+00
0.000000000000000e+00 0.000000000000000e+00 0.000000000000000e+00
0.000000000000000e+00 0.000000000000000e+00 0.000000000000000e+00
0.000000000000000e+00 0.000000000000000e+00 0.000000000000000e+00
0.000000000000000e+00 0.000000000000000e+00 0.000000000000000e+00
0.000000000000000e+00 0.000000000000000e+00 0.000000000000000e+00
0.000000000000000e+00 0.000000000000000e+00 0.000000000000000e+00
0.000000000000000e+00 0.000000000000000e+00 0.000000000000000e+00
0.000000000000000e+00 0.000000000000000e+00 0.000000000000000e+00
0.000000000000000e+00 0.000000000000000e+00 0.000000000000000e+00
0.000000000000000e+00 0.000000000000000e+00 0.000000000000000e+00
0.000000000000000e+00 0.000000000000000e+00 0.000000000000000e+00
0.000000000000000e+00 0.000000000000000e+00 0.000000000000000e+00
0.000000000000000e+00 0.000000000000000e+00 0.000000000000000e+00
0.000000000000000e+00 0.000000000000000e+00 0.000000000000000e+00
0.000000000000000e+00 0.000000000000000e+00 0.000000000000000e+00
0.000000000000000e+00 0.000000000000000e+00 0.000000000000000e+00
0.000000000000000e+00 0.000000000000000e+00 0.000000000000000e+00
0.000000000000000e+00 0.000000000000000e+00 0.000000000000000e+00
0.000000000000000e+00 0.000000000000000e+00 0.000000000000000e+00
0.000000000000000e+00 0.000000000000000e+00 0.000000000000000e+00
0.000000000000000e+00 0.000000000000000e+00 0.000000000000000e+00
0.000000000000000e+00 0.000000000000000e+00 0.000000000000000e+00
0.000000000000000e+00 0.000000000000000e+00 0.000000000000000e+00
0.000000000000000e+00 0.000000000000000e+00 0.000000000000000e+00
0.000000000000000e+00 0.000000000000000e+00 0.000000000000000e+00
0.000000000000000e+00 0.000000000000000e+00 0.000000000000000e+00
0.000000000000000e+00 0.000000000000000e+00 0.000000000000000e+00
0.000000000000000e+00 0.000000000000000e+00 0.000000000000000e+00
0.000000000000000e+00 0.000000000000000e+00 0.000000000000000e+00
0.000000000000000e+00 0.000000000000000e+00 0.000000000000000e+00
0.000000000000000e+00 0.000000000000000e+00 0.000000000000000e+00
0.000000000000000e+00 0.000000000000000e+00 0.000000000000000e+00
0.000000000000000e+00 0.000000000000000e+00 0.000000000000000e+00
0.000000000000000e+00 0.000000000000000e+00 0.000000000000000e+00
0.000000000000000e+00 0.000000000000000e+00 0.000000000000000e+00
0.000000000000000e+00 0.000000000000000e+00 0.000000000000000e+00
0.000000000000000e+00 0.000000000000000e+00 0.000000000000000e+00
0.000000000000000e+00 0.000000000000000e+00 0.000000000000000e+00
0.000000000000000e+00 0.000000000000000e+00 0.000000000000000e+00
0.000000000000000e+00 0.000000000000000e+00 0.000000000000000e+00
0.000000000000000e+00 0.000000000000000e+00 0.000000000000000e+00
0.000000000000000e+00 0.000000000000000e+00 0.000000000000000e+00
0.000000000000000e+00 0.000000000000000e+00 0.000000000000000e+00
0.000000000000000e+00 0.000000000000000e+00 0.000000000000000e+00
0.000000000000000e+00 0.000000000000000e+00 0.000000000000000e+00
0.000000000000000e+00 0.000000000000000e+00 0.000000000000000e+00
0.000000000000000e+00 0.000000000000000e+00 0.000000000000000e+00
0.000000000000000e+00 0.000000000000000e+00 0.000000000000000e+00
0.000000000000000e+00 0.000000000000000e+00 0.000000000000000e+00
0.000000000000000e+00 0.000000000000000e+00 0.000000000000000e+00
0.000000000000000e+00 0.000000000000000e+00 0.000000000000000e+00
0.000000000000000e+00 0.000000000000000e+00 0.000000000000000e+00
0.000000000000000e+00 0.000000000000000e+00 0.000000000000000e+00
0.000000000000000e+00 0.000000000000000e+00 0.000000000000000e+00
0.000000000000000e+00 0.000000000000000e+00 0.000000000000000e+00
0.000000000000000e+00 0.000000000000000e+00 0.000000000000000e+00
0.000000000000000e+00 0.000000000000000e+00 0.000000000000000e+00
0.000000000000000e+00 0.000000000000000e+00 0.000000000000000e+00
0.000000000000000e+00 0.000000000000000e+00 0.000000000000000e+00
0.000000000000000e+00 0.000000000000000e+00 0.000000000000000e+00
0.000000000000000e+00 0.000000000000000e+00 0.000000000000000e+00
0.000000000000000e+00 0.000000000000000e+00 0.000000000000000e+00
0.000000000000000e+00 0.000000000000000e+00 0.000000000000000e+00
0.000000000000000e+00 0.000000000000000e+00 0.000000000000000e+00
0.000000000000000e+00 0.000000000000000e+00 0.000000000000000e+00
0.000000000000000e+00 0.000000000000000e+00 0.000000000000000e+00
0.000000000000000e+00 0.000000000000000e+00 0.000000000000000e+00
0.000000000000000e+00 0.000000000000000e+00 0.000000000000000e+00
0.000000000000000e+00 0.000000000000000e+00 0.000000000000000e+00
0.000000000000000e+00 0.000000000000000e+00 0.000000000000000e+00
0.000000000000000e+00 0.000000000000000e+00 0.000000000000000e+00
0.000000000000000e+00 0.000000000000000e+00 0.000000000000000e+00
0.000000000000000e+00 0.000000000000000e+00 0.000000000000000e+00
0.000000000000000e+00 0.000000000000000e+00 0.000000000000000e+00
0.000000000000000e+00 0.000000000000000e+00 0.000000000000000e+00
0.000000000000000e+00 0.000000000000000e+00 0.000000000000000e+00
0.000000000000000e+00 0.000000000000000e+00 0.000000000000000e+00
0.000000000000000e+00 0.000000000000000e+00 0.000000000000000e+00
0.000000000000000e+00 0.000000000000000e+00 0.000000000000000e+00
0.000000000000000e+00 0.000000000000000e+00 0.000000000000000e+00
0.000000000000000e+00 0.000000000000000e+00 0.000000000000000e+00
0.000000000000000e+00 0.000000000000000e+00 0.000000000000000e+00
0.000000000000000e+00 0.000000000000000e+00 0.000000000000000e+00
0.000000000000000e+00 0.000000000000000e+00 0.000000000000000e+00
0.000000000000000e+00 0.000000000000000e+00 0.000000000000000e+00
0.000000000000000e+00 0.000000000000000e+00 0.000000000000000e+00
0.000000000000000e+00 0.000000000000000e+00 0.000000000000000e+00
0.000000000000000e+00 0.000000000000000e+00 0.000000000000000e+00
0.000000000000000e+00 0.000000000000000e+00 0.000000000000000e+00
0.000000000000000e+00 0.000000000000000e+00 0.000000000000000e+00
0.000000000000000e+00 0.000000000000000e+00 0.000000000000000e+00
0.000000000000000e+00 0.000000000000000e+00 0.000000000000000e+00
0.000000000000000e+00 0.000000000000000e+00 0.000000000000000e+00
0.000000000000000e+00 0.000000000000000e+00 0.000000000000000e+00
0.000000000000000e+00 0.000000000000000e+00 0.000000000000000e+00
0.000000000000000e+00 0.000000000000000e+00 0.000000000000000e+00
0.000000000000000e+00 0.000000000000000e+00 0.000000000000000e+00
0.000000000000000e+00 0.000000000000000e+00 0.000000000000000e+00
0.000000000000000e+00 0.000000000000000e+00 0.000000000000000e+00
0.000000000000000e+00 0.000000000000000e+00 0.000000000000000e+00
0.000000000000000e+00 0.000000000000000e+00 0.000000000000000e+00
0.000000000000000e+00 0.000000000000000e+00 0.000000000000000e+00
0.000000000000000e+00 0.000000000000000e+00 0.000000000000000e+00
0.000000000000000e+00 0.000000000000000e+00 0.000000000000000e+00
0.000000000000000e+00 0.000000000000000e+00 0.000000000000000e+00
0.000000000000000e+00 0.000000000000000e+00 0.000000000000000e+00
0.000000000000000e+00 0.000000000000000e+00 0.000000000000000e+00
0.000000000000000e+00 0.000000000000000e+00 0.000000000000000e+00
0.000000000000000e+00 0.000000000000000e+00 0.000000000000000e+00
0.000000000000000e+00 0.000000000000000e+00 0.000000000000000e+00
0.000000000000000e+00 0.000000000000000e+00 0.000000000000000e+00
0.000000000000000e+00 0.000000000000000e+00 0.000000000000000e+00
0.000000000000000e+00 0.000000000000000e+00 0.000000000000000e+00
0.000000000000000e+00 0.000000000000000e+00 0.000000000000000e+00
0.000000000000000e+00 0.000000000000000e+00 0.000000000000000e+00
0.000000000000000e+00 0.000000000000000e+00 0.000000000000000e+00
0.000000000000000e+00 0.000000000000000e+00 0.000000000000000e+00
0.000000000000000e+00 0.000000000000000e+00 0.000000000000000e+00
0.000000000000000e+00 0.000000000000000e+00 0.000000000000000e+00
0.000000000000000e+00 0.000000000000000e+00 0.000000000000000e+00
0.000000000000000e+00 0.000000000000000e+00 0.000000000000000e+00
0.000000000000000e+00 0.000000000000000e+00 0.000000000000000e+00
0.000000000000000e+00 0.000000000000000e+00 0.000000000000000e+00
0.000000000000000e+00 0.000000000000000e+00 0.000000000000000e+00
0.000000000000000e+00 0.000000000000000e+00 0.000000000000000e+00
0.000000000000000e+00 0.000000000000000e+00 0.000000000000000e+00
0.000000000000000e+00 0.000000000000000e+00 0.000000000000000e+00
0.000000000000000e+00 0.000000000000000e+00 0.000000000000000e+00
0.000000000000000e+00 0.000000000000000e+00 0.000000000000000e+00
0.000000000000000e+00 0.000000000000000e+00 0.000000000000000e+00
0.000000000000000e+00 0.000000000000000e+00 0.000000000000000e+00
0.000000000000000e+00 0.000000000000000e+00 0.000000000000000e+00
0.000000000000000e+00 0.000000000000000e+00 0.000000000000000e+00
0.000000000000000e+00 0.000000000000000e+00 0.000000000000000e+00
0.000000000000000e+00 0.000000000000000e+00 0.000000000000000e+00
0.000000000000000e+00 0.000000000000000e+00 0.000000000000000e+00
0.000000000000000e+00 0.000000000000000e+00 0.000000000000000e+00
0.000000000000000e+00 0.000000000000000e+00 0.000000000000000e+00
0.000000000000000e+00 0.000000000000000e+00 0.000000000000000e+00
0.000000000000000e+00 0.000000000000000e+00 0.000000000000000e+00
0.000000000000000e+00 0.000000000000000e+00 0.000000000000000e+00
0.000000000000000e+00 0.000000000000000e+00 0.000000000000000e+00
0.000000000000000e+00 0.000000000000000e+00 0.000000000000000e+00
0.000000000000000e+00 0.000000000000000e+00 0.000000000000000e+00
0.000000000000000e+00 0.000000000000000e+00 0.000000000000000e+00
0.000000000000000e+00 0.000000000000000e+00 0.000000000000000e+00
0.000000000000000e+00 0.000000000000000e+00 0.000000000000000e+00
0.000000000000000e+00 0.000000000000000e+00 0.000000000000000e+00
0.000000000000000e+00 0.000000000000000e+00 0.000000000000000e+00
0.000000000000000e+00 0.000000000000000e+00 0.000000000000000e+00
0.000000000000000e+00 0.000000000000000e+00 0.000000000000000e+00
0.000000000000000e+00 0.000000000000000e+00 0.000000000000000e+00
0.000000000000000e+00 0.000000000000000e+00 0.000000000000000e+00
0.000000000000000e+00 0.000000000000000e+00 0.000000000000000e+00
0.000000000000000e+00 0.000000000000000e+00 0.000000000000000e+00
0.000000000000000e+00 0.000000000000000e+00 0.000000000000000e+00
0.000000000000000e+00 0.000000000000000e+00 0.000000000000000e+00
0.000000000000000e+00 0.000000000000000e+00 0.000000000000000e+00
0.000000000000000e+00 0.000000000000000e+00 0.000000000000000e+00
0.000000000000000e+00 0.000000000000000e+00 0.000000000000000e+00
0.000000000000000e+00 0.000000000000000e+00 0.000000000000000e+00
0.000000000000000e+00 0.000000000000000e+00 0.000000000000000e+00
0.000000000000000e+00 0.000000000000000e+00 0.000000000000000e+00
0.000000000000000e+00 0.000000000000000e+00 0.000000000000000e+00
0.000000000000000e+00 0.000000000000000e+00 0.000000000000000e+00
0.000000000000000e+00 0.000000000000000e+00 0.000000000000000e+00
0.000000000000000e+00 0.000000000000000e+00 0.000000000000000e+00
0.000000000000000e+00 0.000000000000000e+00 0.000000000000000e+00
0.000000000000000e+00 0.000000000000000e+00 0.000000000000000e+00
0.000000000000000e+00 0.000000000000000e+00 0.000000000000000e+00
0.000000000000000e+00 0.000000000000000e+00 0.000000000000000e+00
0.000000000000000e+00 0.000000000000000e+00 0.000000000000000e+00
0.000000000000000e+00 0.000000000000000e+00 0.000000000000000e+00
0.000000000000000e+00 0.000000000000000e+00 0.000000000000000e+00
0.000000000000000e+00 0.000000000000000e+00 0.000000000000000e+00
0.000000000000000e+00 0.000000000000000e+00 0.000000000000000e+00
0.000000000000000e+00 0.000000000000000e+00 0.000000000000000e+00
0.000000000000000e+00 0.000000000000000e+00 0.000000000000000e+00
0.000000000000000e+00 0.000000000000000e+00 0.000000000000000e+00
0.000000000000000e+00 0.000000000000000e+00 0.000000000000000e+00
0.000000000000000e+00 0.000000000000000e+00 0.000000000000000e+00
0.000000000000000e+00 0.000000000000000e+00 0.000000000000000e+00
0.000000000000000e+00 0.000000000000000e+00 0.000000000000000e+00
0.000000000000000e+00 0.000000000000000e+00 0.000000000000000e+00
0.000000000000000e+00 0.000000000000000e+00 0.000000000000000e+00
0.000000000000000e+00 0.000000000000000e+00 0.000000000000000e+00
0.000000000000000e+00 0.000000000000000e+00 0.000000000000000e+00
0.000000000000000e+00 0.000000000000000e+00 0.000000000000000e+00
0.000000000000000e+00 0.000000000000000e+00 0.000000000000000e+00
0.000000000000000e+00 0.000000000000000e+00 0.000000000000000e+00
0.000000000000000e+00 0.000000000000000e+00 0.000000000000000e+00
0.000000000000000e+00 0.000000000000000e+00 0.000000000000000e+00
0.000000000000000e+00 0.000000000000000e+00 0.000000000000000e+00
0.000000000000000e+00 0.000000000000000e+00 0.000000000000000e+00
0.000000000000000e+00 0.000000000000000e+00 0.000000000000000e+00
0.000000000000000e+00 0.000000000000000e+00 0.000000000000000e+00
0.000000000000000e+00 0.000000000000000e+00 0.000000000000000e+00
0.000000000000000e+00 0.000000000000000e+00 0.000000000000000e+00
0.000000000000000e+00 0.000000000000000e+00 0.000000000000000e+00
0.000000000000000e+00 0.000000000000000e+00 0.000000000000000e+00
0.000000000000000e+00 0.000000000000000e+00 0.000000000000000e+00
0.000000000000000e+00 0.000000000000000e+00 0.000000000000000e+00
0.000000000000000e+00 0.000000000000000e+00 0.000000000000000e+00
0.000000000000000e+00 0.000000000000000e+00 0.000000000000000e+00
0.000000000000000e+00 0.000000000000000e+00 0.000000000000000e+00
0.000000000000000e+00 0.000000000000000e+00 0.000000000000000e+00
0.000000000000000e+00 0.000000000000000e+00 0.000000000000000e+00
0.000000000000000e+00 0.000000000000000e+00 0.000000000000000e+00
0.000000000000000e+00 0.000000000000000e+00 0.000000000000000e+00
0.000000000000000e+00 0.000000000000000e+00 0.000000000000000e+00
0.000000000000000e+00 0.000000000000000e+00 0.000000000000000e+00
0.000000000000000e+00 0.000000000000000e+00 0.000000000000000e+00
0.000000000000000e+00 0.000000000000000e+00 0.000000000000000e+00
0.000000000000000e+00 0.000000000000000e+00 0.000000000000000e+00
0.000000000000000e+00 0.000000000000000e+00 0.000000000000000e+00
0.000000000000000e+00 0.000000000000000e+00 0.000000000000000e+00
0.000000000000000e+00 0.000000000000000e+00 0.000000000000000e+00
0.000000000000000e+00 0.000000000000000e+00 0.000000000000000e+00
0.000000000000000e+00 0.000000000000000e+00 0.000000000000000e+00
0.000000000000000e+00 0.000000000000000e+00 0.000000000000000e+00
0.000000000000000e+00 0.000000000000000e+00 0.000000000000000e+00
0.000000000000000e+00 0.000000000000000e+00 0.000000000000000e+00
0.000000000000000e+00 0.000000000000000e+00 0.000000000000000e+00
0.000000000000000e+00 0.000000000000000e+00 0.000000000000000e+00
0.000000000000000e+00 0.000000000000000e+00 0.000000000000000e+00
0.000000000000000e+00 0.000000000000000e+00 0.000000000000000e+00
0.000000000000000e+00 0.000000000000000e+00 0.000000000000000e+00
0.000000000000000e+00 0.000000000000000e+00 0.000000000000000e+00
0.000000000000000e+00 0.000000000000000e+00 0.000000000000000e+00
0.000000000000000e+00 0.000000000000000e+00 0.000000000000000e+00
0.000000000000000e+00 0.000000000000000e+00 0.000000000000000e+00
0.000000000000000e+00 0.000000000000000e+00 0.000000000000000e+00
0.000000000000000e+00 0.000000000000000e+00 0.000000000000000e+00
0.000000000000000e+00 0.000000000000000e+00 0.000000000000000e+00
0.000000000000000e+00 0.000000000000000e+00 0.000000000000000e+00
0.000000000000000e+00 0.000000000000000e+00 0.000000000000000e+00
0.000000000000000e+00 0.000000000000000e+00 0.000000000000000e+00
0.000000000000000e+00 0.000000000000000e+00 0.000000000000000e+00
0.000000000000000e+00 0.000000000000000e+00 0.000000000000000e+00
0.000000000000000e+00 0.000000000000000e+00 0.000000000000000e+00
0.000000000000000e+00 0.000000000000000e+00 0.000000000000000e+00
0.000000000000000e+00 0.000000000000000e+00 0.000000000000000e+00
0.000000000000000e+00 0.000000000000000e+00 0.000000000000000e+00
0.000000000000000e+00 0.000000000000000e+00 0.000000000000000e+00
0.000000000000000e+00 0.000000000000000e+00 0.000000000000000e+00
0.000000000000000e+00 0.000000000000000e+00 0.000000000000000e+00
0.000000000000000e+00 0.000000000000000e+00 0.000000000000000e+00
0.000000000000000e+00 0.000000000000000e+00 0.000000000000000e+00
0.000000000000000e+00 0.000000000000000e+00 0.000000000000000e+00
0.000000000000000e+00 0.000000000000000e+00 0.000000000000000e+00
0.000000000000000e+00 0.000000000000000e+00 0.000000000000000e+00
0.000000000000000e+00 0.000000000000000e+00 0.000000000000000e+00
0.000000000000000e+00 0.000000000000000e+00 0.000000000000000e+00
0.000000000000000e+00 0.000000000000000e+00 0.000000000000000e+00
0.000000000000000e+00 0.000000000000000e+00 0.000000000000000e+00
0.000000000000000e+00 0.000000000000000e+00 0.000000000000000e+00
0.000000000000000e+00 0.000000000000000e+00 0.000000000000000e+00
0.000000000000000e+00 0.000000000000000e+00 0.000000000000000e+00
0.000000000000000e+00 0.000000000000000e+00 0.000000000000000e+00
0.000000000000000e+00 0.000000000000000e+00 0.000000000000000e+00
0.000000000000000e+00 0.000000000000000e+00 0.000000000000000e+00
0.000000000000000e+00 0.000000000000000e+00 0.000000000000000e+00
0.000000000000000e+00 0.000000000000000e+00 0.000000000000000e+00
0.000000000000000e+00 0.000000000000000e+00 0.000000000000000e+00
0.000000000000000e+00 0.000000000000000e+00 0.000000000000000e+00
0.000000000000000e+00 0.000000000000000e+00 0.000000000000000e+00
0.000000000000000e+00 0.000000000000000e+00 0.000000000000000e+00
0.000000000000000e+00 0.000000000000000e+00 0.000000000000000e+00
0.000000000000000e+00 0.000000000000000e+00 0.000000000000000e+00
0.000000000000000e+00 0.000000000000000e+00 0.000000000000000e+00
0.000000000000000e+00 0.000000000000000e+00 0.000000000000000e+00
0.000000000000000e+00 0.000000000000000e+00 0.000000000000000e+00
0.000000000000000e+00 0.000000000000000e+00 0.000000000000000e+00
0.000000000000000e+00 0.000000000000000e+00 0.000000000000000e+00
0.000000000000000e+00 0.000000000000000e+00 0.000000000000000e+00
0.000000000000000e+00 0.000000000000000e+00 0.000000000000000e+00
0.000000000000000e+00 0.000000000000000e+00 0.000000000000000e+00
0.000000000000000e+00 0.000000000000000e+00 0.000000000000000e+00
0.000000000000000e+00 0.000000000000000e+00 0.000000000000000e+00
0.000000000000000e+00 0.000000000000000e+00 0.000000000000000e+00
0.000000000000000e+00 0.000000000000000e+00 0.000000000000000e+00
0.000000000000000e+00 0.000000000000000e+00 0.000000000000000e+00
0.000000000000000e+00 0.000000000000000e+00 0.000000000000000e+00
0.000000000000000e+00 0.000000000000000e+00 0.000000000000000e+00
0.000000000000000e+00 0.000000000000000e+00 0.000000000000000e+00
0.000000000000000e+00 0.000000000000000e+00 0.000000000000000e+00
0.000000000000000e+00 0.000000000000000e+00 0.000000000000000e+00
0.000000000000000e+00 0.000000000000000e+00 0.000000000000000e+00
0.000000000000000e+00 0.000000000000000e+00 0.000000000000000e+00
0.000000000000000e+00 0.000000000000000e+00 0.000000000000000e+00
0.000000000000000e+00 0.000000000000000e+00 0.000000000000000e+00
0.000000000000000e+00 0.000000000000000e+00 0.000000000000000e+00
0.000000000000000e+00 0.000000000000000e+00 0.000000000000000e+00
0.000000000000000e+00 0.000000000000000e+00 0.000000000000000e+00
0.000000000000000e+00 0.000000000000000e+00 0.000000000000000e+00
0.000000000000000e+00 0.000000000000000e+00 0.000000000000000e+00
0.000000000000000e+00 0.000000000000000e+00 0.000000000000000e+00
0.000000000000000e+00 0.000000000000000e+00 0.000000000000000e+00
0.000000000000000e+00 0.000000000000000e+00 0.000000000000000e+00
0.000000000000000e+00 0.000000000000000e+00 0.000000000000000e+00
0.000000000000000e+00 0.000000000000000e+00 0.000000000000000e+00
0.000000000000000e+00 0.000000000000000e+00 0.000000000000000e+00
0.000000000000000e+00 0.000000000000000e+00 0.000000000000000e+00
0.000000000000000e+00 0.000000000000000e+00 0.000000000000000e+00
0.000000000000000e+00 0.000000000000000e+00 0.000000000000000e+00
0.000000000000000e+00 0.000000000000000e+00 0.000000000000000e+00
0.000000000000000e+00 0.000000000000000e+00 0.000000000000000e+00
0.000000000000000e+00 0.000000000000000e+00 0.000000000000000e+00
0.000000000000000e+00 0.000000000000000e+00 0.000000000000000e+00
0.000000000000000e+00 0.000000000000000e+00 0.000000000000000e+00
0.000000000000000e+00 0.000000000000000e+00 0.000000000000000e+00
0.000000000000000e+00 0.000000000000000e+00 0.000000000000000e+00
0.000000000000000e+00 0.000000000000000e+00 0.000000000000000e+00
0.000000000000000e+00 0.000000000000000e+00 0.000000000000000e+00
0.000000000000000e+00 0.000000000000000e+00 0.000000000000000e+00
0.000000000000000e+00 0.000000000000000e+00 0.000000000000000e+00
0.000000000000000e+00 0.000000000000000e+00 0.000000000000000e+00
0.000000000000000e+00 0.000000000000000e+00 0.000000000000000e+00
0.000000000000000e+00 0.000000000000000e+00 0.000000000000000e+00
0.000000000000000e+00 0.000000000000000e+00 0.000000000000000e+00
0.000000000000000e+00 0.000000000000000e+00 0.000000000000000e+00
0.000000000000000e+00 0.000000000000000e+00 0.000000000000000e+00
0.000000000000000e+00 0.000000000000000e+00 0.000000000000000e+00
0.000000000000000e+00 0.000000000000000e+00 0.000000000000000e+00
0.000000000000000e+00 0.000000000000000e+00 0.000000000000000e+00
0.000000000000000e+00 0.000000000000000e+00 0.000000000000000e+00
0.000000000000000e+00 0.000000000000000e+00 0.000000000000000e+00
0.000000000000000e+00 0.000000000000000e+00 0.000000000000000e+00
0.000000000000000e+00 0.000000000000000e+00 0.000000000000000e+00
0.000000000000000e+00 0.000000000000000e+00 0.000000000000000e+00
0.000000000000000e+00 0.000000000000000e+00 0.000000000000000e+00
0.000000000000000e+00 0.000000000000000e+00 0.000000000000000e+00
0.000000000000000e+00 0.000000000000000e+00 0.000000000000000e+00
0.000000000000000e+00 0.000000000000000e+00 0.000000000000000e+00
0.000000000000000e+00 0.000000000000000e+00 0.000000000000000e+00
0.000000000000000e+00 0.000000000000000e+00 0.000000000000000e+00
0.000000000000000e+00 0.000000000000000e+00 0.000000000000000e+00
0.000000000000000e+00 0.000000000000000e+00 0.000000000000000e+00
0.000000000000000e+00 0.000000000000000e+00 0.000000000000000e+00
0.000000000000000e+00 0.000000000000000e+00 0.000000000000000e+00
0.000000000000000e+00 0.000000000000000e+00 0.000000000000000e+00
0.000000000000000e+00 0.000000000000000e+00 0.000000000000000e+00
0.000000000000000e+00 0.000000000000000e+00 0.000000000000000e+00
0.000000000000000e+00 0.000000000000000e+00 0.000000000000000e+00
0.000000000000000e+00 0.000000000000000e+00 0.000000000000000e+00
0.000000000000000e+00 0.000000000000000e+00 0.000000000000000e+00
0.000000000000000e+00 0.000000000000000e+00 0.000000000000000e+00
0.000000000000000e+00 0.000000000000000e+00 0.000000000000000e+00
0.000000000000000e+00 0.000000000000000e+00 0.000000000000000e+00
0.000000000000000e+00 0.000000000000000e+00 0.000000000000000e+00
0.000000000000000e+00 0.000000000000000e+00 0.000000000000000e+00
0.000000000000000e+00 0.000000000000000e+00 0.000000000000000e+00
0.000000000000000e+00 0.000000000000000e+00 0.000000000000000e+00
0.000000000000000e+00 0.000000000000000e+00 0.000000000000000e+00
0.000000000000000e+00 0.000000000000000e+00 0.000000000000000e+00
0.000000000000000e+00 0.000000000000000e+00 0.000000000000000e+00
0.000000000000000e+00 0.000000000000000e+00 0.000000000000000e+00
0.000000000000000e+00 0.000000000000000e+00 0.000000000000000e+00
0.000000000000000e+00 0.000000000000000e+00 0.000000000000000e+00
0.000000000000000e+00 0.000000000000000e+00 0.000000000000000e+00
0.000000000000000e+00 0.000000000000000e+00 0.000000000000000e+00
0.000000000000000e+00 0.000000000000000e+00 0.000000000000000e+00
0.000000000000000e+00 0.000000000000000e+00 0.000000000000000e+00
0.000000000000000e+00 0.000000000000000e+00 0.000000000000000e+00
0.000000000000000e+00 0.000000000000000e+00 0.000000000000000e+00
0.000000000000000e+00 0.000000000000000e+00 0.000000000000000e+00
0.000000000000000e+00 0.000000000000000e+00 0.000000000000000e+00
0.000000000000000e+00 0.000000000000000e+00 0.000000000000000e+00
0.000000000000000e+00 0.000000000000000e+00 0.000000000000000e+00
0.000000000000000e+00 0.000000000000000e+00 0.000000000000000e+00
0.000000000000000e+00 0.000000000000000e+00 0.000000000000000e+00
0.000000000000000e+00 0.000000000000000e+00 0.000000000000000e+00
0.000000000000000e+00 0.000000000000000e+00 0.000000000000000e+00
0.000000000000000e+00 0.000000000000000e+00 0.000000000000000e+00
0.000000000000000e+00 0.000000000000000e+00 0.000000000000000e+00
0.000000000000000e+00 0.000000000000000e+00 0.000000000000000e+00
0.000000000000000e+00 0.000000000000000e+00 0.000000000000000e+00
0.000000000000000e+00 0.000000000000000e+00 0.000000000000000e+00
0.000000000000000e+00 0.000000000000000e+00 0.000000000000000e+00
0.000000000000000e+00 0.000000000000000e+00 0.000000000000000e+00
0.000000000000000e+00 0.000000000000000e+00 0.000000000000000e+00
0.000000000000000e+00 0.000000000000000e+00 0.000000000000000e+00
0.000000000000000e+00 0.000000000000000e+00 0.000000000000000e+00
0.000000000000000e+00 0.000000000000000e+00 0.000000000000000e+00
0.000000000000000e+00 0.000000000000000e+00 0.000000000000000e+00
0.000000000000000e+00 0.000000000000000e+00 0.000000000000000e+00
0.000000000000000e+00 0.000000000000000e+00 0.000000000000000e+00
0.000000000000000e+00 0.000000000000000e+00 0.000000000000000e+00
0.000000000000000e+00 0.000000000000000e+00 0.000000000000000e+00
0.000000000000000e+00 0.000000000000000e+00 0.000000000000000e+00
0.000000000000000e+00 0.000000000000000e+00 0.000000000000000e+00
0.000000000000000e+00 0.000000000000000e+00 0.000000000000000e+00
0.000000000000000e+00 0.000000000000000e+00 0.000000000000000e+00
0.000000000000000e+00 0.000000000000000e+00 0.000000000000000e+00
0.000000000000000e+00 0.000000000000000e+00 0.000000000000000e+00
0.000000000000000e+00 0.000000000000000e+00 0.000000000000000e+00
0.000000000000000e+00 0.000000000000000e+00 0.000000000000000e+00
0.000000000000000e+00 0.000000000000000e+00 0.000000000000000e+00
0.000000000000000e+00 0.000000000000000e+00 0.000000000000000e+00
0.000000000000000e+00 0.000000000000000e+00 0.000000000000000e+00
0.000000000000000e+00 0.000000000000000e+00 0.000000000000000e+00
0.000000000000000e+00 0.000000000000000e+00 0.000000000000000e+00
0.000000000000000e+00 0.000000000000000e+00 0.000000000000000e+00
0.000000000000000e+00 0.000000000000000e+00 0.000000000000000e+00
0.000000000000000e+00 0.000000000000000e+00 0.000000000000000e+00
0.000000000000000e+00 0.000000000000000e+00 0.000000000000000e+00
0.000000000000000e+00 0.000000000000000e+00 0.000000000000000e+00
0.000000000000000e+00 0.000000000000000e+00 0.000000000000000e+00
0.000000000000000e+00 0.000000000000000e+00 0.000000000000000e+00
0.000000000000000e+00 0.000000000000000e+00 0.000000000000000e+00
0.000000000000000e+00 0.000000000000000e+00 0.000000000000000e+00
0.000000000000000e+00 0.000000000000000e+00 0.000000000000000e+00
0.000000000000000e+00 0.000000000000000e+00 0.000000000000000e+00
0.000000000000000e+00 0.000000000000000e+00 0.000000000000000e+00
0.000000000000000e+00 0.000000000000000e+00 0.000000000000000e+00
0.000000000000000e+00 0.000000000000000e+00 0.000000000000000e+00
0.000000000000000e+00 0.000000000000000e+00 0.000000000000000e+00
0.000000000000000e+00 0.000000000000000e+00 0.000000000000000e+00
0.000000000000000e+00 0.000000000000000e+00 0.000000000000000e+00
0.000000000000000e+00 0.000000000000000e+00 0.000000000000000e+00
0.000000000000000e+00 0.000000000000000e+00 0.000000000000000e+00
0.000000000000000e+00 0.000000000000000e+00 0.000000000000000e+00
0.000000000000000e+00 0.000000000000000e+00 0.000000000000000e+00
0.000000000000000e+00 0.000000000000000e+00 0.000000000000000e+00
0.000000000000000e+00 0.000000000000000e+00 0.000000000000000e+00
0.000000000000000e+00 0.000000000000000e+00 0.000000000000000e+00
0.000000000000000e+00 0.000000000000000e+00 0.000000000000000e+00
0.000000000000000e+00 0.000000000000000e+00 0.000000000000000e+00
0.000000000000000e+00 0.000000000000000e+00 0.000000000000000e+00
0.000000000000000e+00 0.000000000000000e+00 0.000000000000000e+00
0.000000000000000e+00 0.000000000000000e+00 0.000000000000000e+00
0.000000000000000e+00 0.000000000000000e+00 0.000000000000000e+00
0.000000000000000e+00 0.000000000000000e+00 0.000000000000000e+00
0.000000000000000e+00 0.000000000000000e+00 0.000000000000000e+00
0.000000000000000e+00 0.000000000000000e+00 0.000000000000000e+00
0.000000000000000e+00 0.000000000000000e+00 0.000000000000000e+00
0.000000000000000e+00 0.000000000000000e+00 0.000000000000000e+00
0.000000000000000e+00 0.000000000000000e+00 0.000000000000000e+00
0.000000000000000e+00 0.000000000000000e+00 0.000000000000000e+00
0.000000000000000e+00 0.000000000000000e+00 0.000000000000000e+00
0.000000000000000e+00 0.000000000000000e+00 0.000000000000000e+00
0.000000000000000e+00 0.000000000000000e+00 0.000000000000000e+00
0.000000000000000e+00 0.000000000000000e+00 0.000000000000000e+00
0.000000000000000e+00 0.000000000000000e+00 0.000000000000000e+00
0.000000000000000e+00 0.000000000000000e+00 0.000000000000000e+00
0.000000000000000e+00 0.000000000000000e+00 0.000000000000000e+00
0.000000000000000e+00 0.000000000000000e+00 0.000000000000000e+00
0.000000000000000e+00 0.000000000000000e+00 0.000000000000000e+00
0.000000000000000e+00 0.000000000000000e+00 0.000000000000000e+00
0.000000000000000e+00 0.000000000000000e+00 0.000000000000000e+00
0.000000000000000e+00 0.000000000000000e+00 0.000000000000000e+00
0.000000000000000e+00 0.000000000000000e+00 0.000000000000000e+00
0.000000000000000e+00 0.000000000000000e+00 0.000000000000000e+00
0.000000000000000e+00 0.000000000000000e+00 0.000000000000000e+00
0.000000000000000e+00 0.000000000000000e+00 0.000000000000000e+00
0.000000000000000e+00 0.000000000000000e+00 0.000000000000000e+00
0.000000000000000e+00 0.000000000000000e+00 0.000000000000000e+00
0.000000000000000e+00 0.000000000000000e+00 0.000000000000000e+00
0.000000000000000e+00 0.000000000000000e+00 0.000000000000000e+00
0.000000000000000e+00 0.000000000000000e+00 0.000000000000000e+00
0.000000000000000e+00 0.000000000000000e+00 0.000000000000000e+00
0.000000000000000e+00 0.000000000000000e+00 0.000000000000000e+00
0.000000000000000e+00 0.000000000000000e+00 0.000000000000000e+00
0.000000000000000e+00 0.000000000000000e+00 0.000000000000000e+00
0.000000000000000e+00 0.000000000000000e+00 0.000000000000000e+00
0.000000000000000e+00 0.000000000000000e+00 0.000000000000000e+00
0.000000000000000e+00 0.000000000000000e+00 0.000000000000000e+00
0.000000000000000e+00 0.000000000000000e+00 0.000000000000000e+00
0.000000000000000e+00 0.000000000000000e+00 0.000000000000000e+00
0.000000000000000e+00 0.000000000000000e+00 0.000000000000000e+00
0.000000000000000e+00 0.000000000000000e+00 0.000000000000000e+00
0.000000000000000e+00 0.000000000000000e+00 0.000000000000000e+00
0.000000000000000e+00 0.000000000000000e+00 0.000000000000000e+00
0.000000000000000e+00 0.000000000000000e+00 0.000000000000000e+00
0.000000000000000e+00 0.000000000000000e+00 0.000000000000000e+00
0.000000000000000e+00 0.000000000000000e+00 0.000000000000000e+00
0.000000000000000e+00 0.000000000000000e+00 0.000000000000000e+00
0.000000000000000e+00 0.000000000000000e+00 0.000000000000000e+00
0.000000000000000e+00 0.000000000000000e+00 0.000000000000000e+00
0.000000000000000e+00 0.000000000000000e+00 0.000000000000000e+00
0.000000000000000e+00 0.000000000000000e+00 0.000000000000000e+00
0.000000000000000e+00 0.000000000000000e+00 0.000000000000000e+00
0.000000000000000e+00 0.000000000000000e+00 0.000000000000000e+00
0.000000000000000e+00 0.000000000000000e+00 0.000000000000000e+00
0.000000000000000e+00 0.000000000000000e+00 0.000000000000000e+00
0.000000000000000e+00 0.000000000000000e+00 0.000000000000000e+00
0.000000000000000e+00 0.000000000000000e+00 0.000000000000000e+00
0.000000000000000e+00 0.000000000000000e+00 0.000000000000000e+00
0.000000000000000e+00 0.000000000000000e+00 0.000000000000000e+00
0.000000000000000e+00 0.000000000000000e+00 0.000000000000000e+00
0.000000000000000e+00 0.000000000000000e+00 0.000000000000000e+00
0.000000000000000e+00 0.000000000000000e+00 0.000000000000000e+00
0.000000000000000e+00 0.000000000000000e+00 0.000000000000000e+00
0.000000000000000e+00 0.000000000000000e+00 0.000000000000000e+00
0.000000000000000e+00 0.000000000000000e+00 0.000000000000000e+00
0.000000000000000e+00 0.000000000000000e+00 0.000000000000000e+00
0.000000000000000e+00 0.000000000000000e+00 0.000000000000000e+00
0.000000000000000e+00 0.000000000000000e+00 0.000000000000000e+00
0.000000000000000e+00 0.000000000000000e+00 0.000000000000000e+00
0.000000000000000e+00 0.000000000000000e+00 0.000000000000000e+00
0.000000000000000e+00 0.000000000000000e+00 0.000000000000000e+00
0.000000000000000e+00 0.000000000000000e+00 0.000000000000000e+00
0.000000000000000e+00 0.000000000000000e+00 0.000000000000000e+00
0.000000000000000e+00 0.000000000000000e+00 0.000000000000000e+00
0.000000000000000e+00 0.000000000000000e+00 0.000000000000000e+00
0.000000000000000e+00 0.000000000000000e+00 0.000000000000000e+00
0.000000000000000e+00 0.000000000000000e+00 0.000000000000000e+00
0.000000000000000e+00 0.000000000000000e+00 0.000000000000000e+00
0.000000000000000e+00 0.000000000000000e+00 0.000000000000000e+00
0.000000000000000e+00 0.000000000000000e+00 0.000000000000000e+00
0.000000000000000e+00 0.000000000000000e+00 0.000000000000000e+00
0.000000000000000e+00 0.000000000000000e+00 0.000000000000000e+00
0.000000000000000e+00 0.000000000000000e+00 0.000000000000000e+00
0.000000000000000e+00 0.000000000000000e+00 0.000000000000000e+00
0.000000000000000e+00 0.000000000000000e+00 0.000000000000000e+00
0.000000000000000e+00 0.000000000000000e+00 0.000000000000000e+00
0.000000000000000e+00 0.000000000000000e+00 0.000000000000000e+00
0.000000000000000e+00 0.000000000000000e+00 0.000000000000000e+00
0.000000000000000e+00 0.000000000000000e+00 0.000000000000000e+00
0.000000000000000e+00 0.000000000000000e+00 0.000000000000000e+00
0.000000000000000e+00 0.000000000000000e+00 0.000000000000000e+00
0.000000000000000e+00 0.000000000000000e+00 0.000000000000000e+00
0.000000000000000e+00 0.000000000000000e+00 0.000000000000000e+00
0.000000000000000e+00 0.000000000000000e+00 0.000000000000000e+00
0.000000000000000e+00 0.000000000000000e+00 0.000000000000000e+00
0.000000000000000e+00 0.000000000000000e+00 0.000000000000000e+00
0.000000000000000e+00 0.000000000000000e+00 0.000000000000000e+00
0.000000000000000e+00 0.000000000000000e+00 0.000000000000000e+00
0.000000000000000e+00 0.000000000000000e+00 0.000000000000000e+00
0.000000000000000e+00 0.000000000000000e+00 0.000000000000000e+00
0.000000000000000e+00 0.000000000000000e+00 0.000000000000000e+00
0.000000000000000e+00 0.000000000000000e+00 0.000000000000000e+00
0.000000000000000e+00 0.000000000000000e+00 0.000000000000000e+00
0.000000000000000e+00 0.000000000000000e+00 0.000000000000000e+00
0.000000000000000e+00 0.000000000000000e+00 0.000000000000000e+00
0.000000000000000e+00 0.000000000000000e+00 0.000000000000000e+00
0.000000000000000e+00 0.000000000000000e+00 0.000000000000000e+00
0.000000000000000e+00 0.000000000000000e+00 0.000000000000000e+00
0.000000000000000e+00 0.000000000000000e+00 0.000000000000000e+00
0.000000000000000e+00 0.000000000000000e+00 0.000000000000000e+00
0.000000000000000e+00 0.000000000000000e+00 0.000000000000000e+00
0.000000000000000e+00 0.000000000000000e+00 0.000000000000000e+00
0.000000000000000e+00 0.000000000000000e+00 0.000000000000000e+00
0.000000000000000e+00 0.000000000000000e+00 0.000000000000000e+00
0.000000000000000e+00 0.000000000000000e+00 0.000000000000000e+00
0.000000000000000e+00 0.000000000000000e+00 0.000000000000000e+00
0.000000000000000e+00 0.000000000000000e+00 0.000000000000000e+00
0.000000000000000e+00 0.000000000000000e+00 0.000000000000000e+00
0.000000000000000e+00 0.000000000000000e+00 0.000000000000000e+00
0.000000000000000e+00 0.000000000000000e+00 0.000000000000000e+00
0.000000000000000e+00 0.000000000000000e+00 0.000000000000000e+00
0.000000000000000e+00 0.000000000000000e+00 0.000000000000000e+00
0.000000000000000e+00 0.000000000000000e+00 0.000000000000000e+00
0.000000000000000e+00 0.000000000000000e+00 0.000000000000000e+00
0.000000000000000e+00 0.000000000000000e+00 0.000000000000000e+00
0.000000000000000e+00 0.000000000000000e+00 0.000000000000000e+00
0.000000000000000e+00 0.000000000000000e+00 0.000000000000000e+00
0.000000000000000e+00 0.000000000000000e+00 0.000000000000000e+00
0.000000000000000e+00 0.000000000000000e+00 0.000000000000000e+00
0.000000000000000e+00 0.000000000000000e+00 0.000000000000000e+00
0.000000000000000e+00 0.000000000000000e+00 0.000000000000000e+00
0.000000000000000e+00 0.000000000000000e+00 0.000000000000000e+00
0.000000000000000e+00 0.000000000000000e+00 0.000000000000000e+00
0.000000000000000e+00 0.000000000000000e+00 0.000000000000000e+00
0.000000000000000e+00 0.000000000000000e+00 0.000000000000000e+00
0.000000000000000e+00 0.000000000000000e+00 0.000000000000000e+00
0.000000000000000e+00 0.000000000000000e+00 0.000000000000000e+00
0.000000000000000e+00 0.000000000000000e+00 0.000000000000000e+00
0.000000000000000e+00 0.000000000000000e+00 0.000000000000000e+00
0.000000000000000e+00 0.000000000000000e+00 0.000000000000000e+00
0.000000000000000e+00 0.000000000000000e+00 0.000000000000000e+00
0.000000000000000e+00 0.000000000000000e+00 0.000000000000000e+00
0.000000000000000e+00 0.000000000000000e+00 0.000000000000000e+00
0.000000000000000e+00 0.000000000000000e+00 0.000000000000000e+00
0.000000000000000e+00 0.000000000000000e+00 0.000000000000000e+00
0.000000000000000e+00 0.000000000000000e+00 0.000000000000000e+00
0.000000000000000e+00 0.000000000000000e+00 0.000000000000000e+00
0.000000000000000e+00 0.000000000000000e+00 0.000000000000000e+00
0.000000000000000e+00 0.000000000000000e+00 0.000000000000000e+00
0.000000000000000e+00 0.000000000000000e+00 0.000000000000000e+00
0.000000000000000e+00 0.000000000000000e+00 0.000000000000000e+00
0.000000000000000e+00 0.000000000000000e+00 0.000000000000000e+00
0.000000000000000e+00 0.000000000000000e+00 0.000000000000000e+00
0.000000000000000e+00 0.000000000000000e+00 0.000000000000000e+00
0.000000000000000e+00 0.000000000000000e+00 0.000000000000000e+00
0.000000000000000e+00 0.000000000000000e+00 0.000000000000000e+00
0.000000000000000e+00 0.000000000000000e+00 0.000000000000000e+00
0.000000000000000e+00 0.000000000000000e+00 0.000000000000000e+00
0.000000000000000e+00 0.000000000000000e+00 0.000000000000000e+00
0.000000000000000e+00 0.000000000000000e+00 0.000000000000000e+00
0.000000000000000e+00 0.000000000000000e+00 0.000000000000000e+00
0.000000000000000e+00 0.000000000000000e+00 0.000000000000000e+00
0.000000000000000e+00 0.000000000000000e+00 0.000000000000000e+00
0.000000000000000e+00 0.000000000000000e+00 0.000000000000000e+00
0.000000000000000e+00 0.000000000000000e+00 0.000000000000000e+00
0.000000000000000e+00 0.000000000000000e+00 0.000000000000000e+00
0.000000000000000e+00 0.000000000000000e+00 0.000000000000000e+00
0.000000000000000e+00 0.000000000000000e+00 0.000000000000000e+00
0.000000000000000e+00 0.000000000000000e+00 0.000000000000000e+00
0.000000000000000e+00 0.000000000000000e+00 0.000000000000000e+00
0.000000000000000e+00 0.000000000000000e+00 0.000000000000000e+00
0.000000000000000e+00 0.000000000000000e+00 0.000000000000000e+00
0.000000000000000e+00 0.000000000000000e+00 0.000000000000000e+00
0.000000000000000e+00 0.000000000000000e+00 0.000000000000000e+00
0.000000000000000e+00 0.000000000000000e+00 0.000000000000000e+00
0.000000000000000e+00 0.000000000000000e+00 0.000000000000000e+00
0.000000000000000e+00 0.000000000000000e+00 0.000000000000000e+00
0.000000000000000e+00 0.000000000000000e+00 0.000000000000000e+00
0.000000000000000e+00 0.000000000000000e+00 0.000000000000000e+00
0.000000000000000e+00 0.000000000000000e+00 0.000000000000000e+00
0.000000000000000e+00 0.000000000000000e+00 0.000000000000000e+00
0.000000000000000e+00 0.000000000000000e+00 0.000000000000000e+00
0.000000000000000e+00 0.000000000000000e+00 0.000000000000000e+00
0.000000000000000e+00 0.000000000000000e+00 0.000000000000000e+00
0.000000000000000e+00 0.000000000000000e+00 0.000000000000000e+00
0.000000000000000e+00 0.000000000000000e+00 0.000000000000000e+00
0.000000000000000e+00 0.000000000000000e+00 0.000000000000000e+00
0.000000000000000e+00 0.000000000000000e+00 0.000000000000000e+00
0.000000000000000e+00 0.000000000000000e+00 0.000000000000000e+00
0.000000000000000e+00 0.000000000000000e+00 0.000000000000000e+00
0.000000000000000e+00 0.000000000000000e+00 0.000000000000000e+00
0.000000000000000e+00 0.000000000000000e+00 0.000000000000000e+00
0.000000000000000e+00 0.000000000000000e+00 0.000000000000000e+00
0.000000000000000e+00 0.000000000000000e+00 0.000000000000000e+00
0.000000000000000e+00 0.000000000000000e+00 0.000000000000000e+00
0.000000000000000e+00 0.000000000000000e+00 0.000000000000000e+00
0.000000000000000e+00 0.000000000000000e+00 0.000000000000000e+00
0.000000000000000e+00 0.000000000000000e+00 0.000000000000000e+00
0.000000000000000e+00 0.000000000000000e+00 0.000000000000000e+00
0.000000000000000e+00 0.000000000000000e+00 0.000000000000000e+00
0.000000000000000e+00 0.000000000000000e+00 0.000000000000000e+00
0.000000000000000e+00 0.000000000000000e+00 0.000000000000000e+00
0.000000000000000e+00 0.000000000000000e+00 0.000000000000000e+00
0.000000000000000e+00 0.000000000000000e+00 0.000000000000000e+00
0.000000000000000e+00 0.000000000000000e+00 0.000000000000000e+00
0.000000000000000e+00 0.000000000000000e+00 0.000000000000000e+00
0.000000000000000e+00 0.000000000000000e+00 0.000000000000000e+00
0.000000000000000e+00 0.000000000000000e+00 0.000000000000000e+00
0.000000000000000e+00 0.000000000000000e+00 0.000000000000000e+00
0.000000000000000e+00 0.000000000000000e+00 0.000000000000000e+00
0.000000000000000e+00 0.000000000000000e+00 0.000000000000000e+00
0.000000000000000e+00 0.000000000000000e+00 0.000000000000000e+00
0.000000000000000e+00 0.000000000000000e+00 0.000000000000000e+00
0.000000000000000e+00 0.000000000000000e+00 0.000000000000000e+00
0.000000000000000e+00 0.000000000000000e+00 0.000000000000000e+00
0.000000000000000e+00 0.000000000000000e+00 0.000000000000000e+00
0.000000000000000e+00 0.000000000000000e+00 0.000000000000000e+00
0.000000000000000e+00 0.000000000000000e+00 0.000000000000000e+00
0.000000000000000e+00 0.000000000000000e+00 0.000000000000000e+00
0.000000000000000e+00 0.000000000000000e+00 0.000000000000000e+00
0.000000000000000e+00 0.000000000000000e+00 0.000000000000000e+00
0.000000000000000e+00 0.000000000000000e+00 0.000000000000000e+00
0.000000000000000e+00 0.000000000000000e+00 0.000000000000000e+00
0.000000000000000e+00 0.000000000000000e+00 0.000000000000000e+00
0.000000000000000e+00 0.000000000000000e+00 0.000000000000000e+00
0.000000000000000e+00 0.000000000000000e+00 0.000000000000000e+00
0.000000000000000e+00 0.000000000000000e+00 0.000000000000000e+00
0.000000000000000e+00 0.000000000000000e+00 0.000000000000000e+00
0.000000000000000e+00 0.000000000000000e+00 0.000000000000000e+00
0.000000000000000e+00 0.000000000000000e+00 0.000000000000000e+00
0.000000000000000e+00 0.000000000000000e+00 0.000000000000000e+00
0.000000000000000e+00 0.000000000000000e+00 0.000000000000000e+00
0.000000000000000e+00 0.000000000000000e+00 0.000000000000000e+00
0.000000000000000e+00 0.000000000000000e+00 0.000000000000000e+00
0.000000000000000e+00 0.000000000000000e+00 0.000000000000000e+00
0.000000000000000e+00 0.000000000000000e+00 0.000000000000000e+00
0.000000000000000e+00 0.000000000000000e+00 0.000000000000000e+00
0.000000000000000e+00 0.000000000000000e+00 0.000000000000000e+00
0.000000000000000e+00 0.000000000000000e+00 0.000000000000000e+00
0.000000000000000e+00 0.000000000000000e+00 0.000000000000000e+00
0.000000000000000e+00 0.000000000000000e+00 0.000000000000000e+00
0.000000000000000e+00 0.000000000000000e+00 0.000000000000000e+00
0.000000000000000e+00 0.000000000000000e+00 0.000000000000000e+00
0.000000000000000e+00 0.000000000000000e+00 0.000000000000000e+00
0.000000000000000e+00 0.000000000000000e+00 0.000000000000000e+00
0.000000000000000e+00 0.000000000000000e+00 0.000000000000000e+00
0.000000000000000e+00 0.000000000000000e+00 0.000000000000000e+00
0.000000000000000e+00 0.000000000000000e+00 0.000000000000000e+00
0.000000000000000e+00 0.000000000000000e+00 0.000000000000000e+00
0.000000000000000e+00 0.000000000000000e+00 0.000000000000000e+00
0.000000000000000e+00 0.000000000000000e+00 0.000000000000000e+00
0.000000000000000e+00 0.000000000000000e+00 0.000000000000000e+00
0.000000000000000e+00 0.000000000000000e+00 0.000000000000000e+00
0.000000000000000e+00 0.000000000000000e+00 0.000000000000000e+00
0.000000000000000e+00 0.000000000000000e+00 0.000000000000000e+00
0.000000000000000e+00 0.000000000000000e+00 0.000000000000000e+00
0.000000000000000e+00 0.000000000000000e+00 0.000000000000000e+00
0.000000000000000e+00 0.000000000000000e+00 0.000000000000000e+00
0.000000000000000e+00 0.000000000000000e+00 0.000000000000000e+00
0.000000000000000e+00 0.000000000000000e+00 0.000000000000000e+00
0.000000000000000e+00 0.000000000000000e+00 0.000000000000000e+00
0.000000000000000e+00 0.000000000000000e+00 0.000000000000000e+00
0.000000000000000e+00 0.000000000000000e+00 0.000000000000000e+00
0.000000000000000e+00 0.000000000000000e+00 0.000000000000000e+00
0.000000000000000e+00 0.000000000000000e+00 0.000000000000000e+00
0.000000000000000e+00 0.000000000000000e+00 0.000000000000000e+00
0.000000000000000e+00 0.000000000000000e+00 0.000000000000000e+00
0.000000000000000e+00 0.000000000000000e+00 0.000000000000000e+00
0.000000000000000e+00 0.000000000000000e+00 0.000000000000000e+00
0.000000000000000e+00 0.000000000000000e+00 0.000000000000000e+00
0.000000000000000e+00 0.000000000000000e+00 0.000000000000000e+00
0.000000000000000e+00 0.000000000000000e+00 0.000000000000000e+00
0.000000000000000e+00 0.000000000000000e+00 0.000000000000000e+00
0.000000000000000e+00 0.000000000000000e+00 0.000000000000000e+00
0.000000000000000e+00 0.000000000000000e+00 0.000000000000000e+00
0.000000000000000e+00 0.000000000000000e+00 0.000000000000000e+00
0.000000000000000e+00 0.000000000000000e+00 0.000000000000000e+00
0.000000000000000e+00 0.000000000000000e+00 0.000000000000000e+00
0.000000000000000e+00 0.000000000000000e+00 0.000000000000000e+00
0.000000000000000e+00 0.000000000000000e+00 0.000000000000000e+00
0.000000000000000e+00 0.000000000000000e+00 0.000000000000000e+00
0.000000000000000e+00 0.000000000000000e+00 0.000000000000000e+00
0.000000000000000e+00 0.000000000000000e+00 0.000000000000000e+00
0.000000000000000e+00 0.000000000000000e+00 0.000000000000000e+00
0.000000000000000e+00 0.000000000000000e+00 0.000000000000000e+00
0.000000000000000e+00 0.000000000000000e+00 0.000000000000000e+00
0.000000000000000e+00 0.000000000000000e+00 0.000000000000000e+00
0.000000000000000e+00 0.000000000000000e+00 0.000000000000000e+00
0.000000000000000e+00 0.000000000000000e+00 0.000000000000000e+00
0.000000000000000e+00 0.000000000000000e+00 0.000000000000000e+00
0.000000000000000e+00 0.000000000000000e+00 0.000000000000000e+00
0.000000000000000e+00 0.000000000000000e+00 0.000000000000000e+00
0.000000000000000e+00 0.000000000000000e+00 0.000000000000000e+00
0.000000000000000e+00 0.000000000000000e+00 0.000000000000000e+00
0.000000000000000e+00 0.000000000000000e+00 0.000000000000000e+00
0.000000000000000e+00 0.000000000000000e+00 0.000000000000000e+00
0.000000000000000e+00 0.000000000000000e+00 0.000000000000000e+00
0.000000000000000e+00 0.000000000000000e+00 0.000000000000000e+00
0.000000000000000e+00 0.000000000000000e+00 0.000000000000000e+00
0.000000000000000e+00 0.000000000000000e+00 0.000000000000000e+00
0.000000000000000e+00 0.000000000000000e+00 0.000000000000000e+00
0.000000000000000e+00 0.000000000000000e+00 0.000000000000000e+00
0.000000000000000e+00 0.000000000000000e+00 0.000000000000000e+00
0.000000000000000e+00 0.000000000000000e+00 0.000000000000000e+00
0.000000000000000e+00 0.000000000000000e+00 0.000000000000000e+00
0.000000000000000e+00 0.000000000000000e+00 0.000000000000000e+00
0.000000000000000e+00 0.000000000000000e+00 0.000000000000000e+00
0.000000000000000e+00 0.000000000000000e+00 0.000000000000000e+00
0.000000000000000e+00 0.000000000000000e+00 0.000000000000000e+00
0.000000000000000e+00 0.000000000000000e+00 0.000000000000000e+00
0.000000000000000e+00 0.000000000000000e+00 0.000000000000000e+00
0.000000000000000e+00 0.000000000000000e+00 0.000000000000000e+00
0.000000000000000e+00 0.000000000000000e+00 0.000000000000000e+00
0.000000000000000e+00 0.000000000000000e+00 0.000000000000000e+00
0.000000000000000e+00 0.000000000000000e+00 0.000000000000000e+00
0.000000000000000e+00 0.000000000000000e+00 0.000000000000000e+00
0.000000000000000e+00 0.000000000000000e+00 0.000000000000000e+00
0.000000000000000e+00 0.000000000000000e+00 0.000000000000000e+00
0.000000000000000e+00 0.000000000000000e+00 0.000000000000000e+00
0.000000000000000e+00 0.000000000000000e+00 0.000000000000000e+00
0.000000000000000e+00 0.000000000000000e+00 0.000000000000000e+00
0.000000000000000e+00 0.000000000000000e+00 0.000000000000000e+00
0.000000000000000e+00 0.000000000000000e+00 0.000000000000000e+00
0.000000000000000e+00 0.000000000000000e+00 0.000000000000000e+00
0.000000000000000e+00 0.000000000000000e+00 0.000000000000000e+00
0.000000000000000e+00 0.000000000000000e+00 0.000000000000000e+00
0.000000000000000e+00 0.000000000000000e+00 0.000000000000000e+00
0.000000000000000e+00 0.000000000000000e+00 0.000000000000000e+00
0.000000000000000e+00 0.000000000000000e+00 0.000000000000000e+00
0.000000000000000e+00 0.000000000000000e+00 0.000000000000000e+00
0.000000000000000e+00 0.000000000000000e+00 0.000000000000000e+00
0.000000000000000e+00 0.000000000000000e+00 0.000000000000000e+00
0.000000000000000e+00 0.000000000000000e+00 0.000000000000000e+00
0.000000000000000e+00 0.000000000000000e+00 0.000000000000000e+00
0.000000000000000e+00 0.000000000000000e+00 0.000000000000000e+00
0.000000000000000e+00 0.000000000000000e+00 0.000000000000000e+00
0.000000000000000e+00 0.000000000000000e+00 0.000000000000000e+00
0.000000000000000e+00 0.000000000000000e+00 0.000000000000000e+00
0.000000000000000e+00 0.000000000000000e+00 0.000000000000000e+00
0.000000000000000e+00 0.000000000000000e+00 0.000000000000000e+00
0.000000000000000e+00 0.000000000000000e+00 0.000000000000000e+00
0.000000000000000e+00 0.000000000000000e+00 0.000000000000000e+00
0.000000000000000e+00 0.000000000000000e+00 0.000000000000000e+00
0.000000000000000e+00 0.000000000000000e+00 0.000000000000000e+00
0.000000000000000e+00 0.000000000000000e+00 0.000000000000000e+00
0.000000000000000e+00 0.000000000000000e+00 0.000000000000000e+00
0.000000000000000e+00 0.000000000000000e+00 0.000000000000000e+00
0.000000000000000e+00 0.000000000000000e+00 0.000000000000000e+00
0.000000000000000e+00 0.000000000000000e+00 0.000000000000000e+00
0.000000000000000e+00 0.000000000000000e+00 0.000000000000000e+00
0.000000000000000e+00 0.000000000000000e+00 0.000000000000000e+00
0.000000000000000e+00 0.000000000000000e+00 0.000000000000000e+00
0.000000000000000e+00 0.000000000000000e+00 0.000000000000000e+00
0.000000000000000e+00 0.000000000000000e+00 0.000000000000000e+00
0.000000000000000e+00 0.000000000000000e+00 0.000000000000000e+00
0.000000000000000e+00 0.000000000000000e+00 0.000000000000000e+00
0.000000000000000e+00 0.000000000000000e+00 0.000000000000000e+00
0.000000000000000e+00 0.000000000000000e+00 0.000000000000000e+00
0.000000000000000e+00 0.000000000000000e+00 0.000000000000000e+00
0.000000000000000e+00 0.000000000000000e+00 0.000000000000000e+00
0.000000000000000e+00 0.000000000000000e+00 0.000000000000000e+00
0.000000000000000e+00 0.000000000000000e+00 0.000000000000000e+00
0.000000000000000e+00 0.000000000000000e+00 0.000000000000000e+00
0.000000000000000e+00 0.000000000000000e+00 0.000000000000000e+00
0.000000000000000e+00 0.000000000000000e+00 0.000000000000000e+00
0.000000000000000e+00 0.000000000000000e+00 0.000000000000000e+00
0.000000000000000e+00 0.000000000000000e+00 0.000000000000000e+00
0.000000000000000e+00 0.000000000000000e+00 0.000000000000000e+00
0.000000000000000e+00 0.000000000000000e+00 0.000000000000000e+00
0.000000000000000e+00 0.000000000000000e+00 0.000000000000000e+00
0.000000000000000e+00 0.000000000000000e+00 0.000000000000000e+00
0.000000000000000e+00 0.000000000000000e+00 0.000000000000000e+00
0.000000000000000e+00 0.000000000000000e+00 0.000000000000000e+00
0.000000000000000e+00 0.000000000000000e+00 0.000000000000000e+00
0.000000000000000e+00 0.000000000000000e+00 0.000000000000000e+00
0.000000000000000e+00 0.000000000000000e+00 0.000000000000000e+00
0.000000000000000e+00 0.000000000000000e+00 0.000000000000000e+00
0.000000000000000e+00 0.000000000000000e+00 0.000000000000000e+00
0.000000000000000e+00 0.000000000000000e+00 0.000000000000000e+00
0.000000000000000e+00 0.000000000000000e+00 0.000000000000000e+00
0.000000000000000e+00 0.000000000000000e+00 0.000000000000000e+00
0.000000000000000e+00 0.000000000000000e+00 0.000000000000000e+00
0.000000000000000e+00 0.000000000000000e+00 0.000000000000000e+00
0.000000000000000e+00 0.000000000000000e+00 0.000000000000000e+00
0.000000000000000e+00 0.000000000000000e+00 0.000000000000000e+00
0.000000000000000e+00 0.000000000000000e+00 0.000000000000000e+00
0.000000000000000e+00 0.000000000000000e+00 0.000000000000000e+00
0.000000000000000e+00 0.000000000000000e+00 0.000000000000000e+00
0.000000000000000e+00 0.000000000000000e+00 0.000000000000000e+00
0.000000000000000e+00 0.000000000000000e+00 0.000000000000000e+00
0.000000000000000e+00 0.000000000000000e+00 0.000000000000000e+00
0.000000000000000e+00 0.000000000000000e+00 0.000000000000000e+00
0.000000000000000e+00 0.000000000000000e+00 0.000000000000000e+00
0.000000000000000e+00 0.000000000000000e+00 0.000000000000000e+00
0.000000000000000e+00 0.000000000000000e+00 0.000000000000000e+00
0.000000000000000e+00 0.000000000000000e+00 0.000000000000000e+00
0.000000000000000e+00 0.000000000000000e+00 0.000000000000000e+00
0.000000000000000e+00 0.000000000000000e+00 0.000000000000000e+00
0.000000000000000e+00 0.000000000000000e+00 0.000000000000000e+00
0.000000000000000e+00 0.000000000000000e+00 0.000000000000000e+00
0.000000000000000e+00 0.000000000000000e+00 0.000000000000000e+00
0.000000000000000e+00 0.000000000000000e+00 0.000000000000000e+00
0.000000000000000e+00 0.000000000000000e+00 0.000000000000000e+00
0.000000000000000e+00 0.000000000000000e+00 0.000000000000000e+00
0.000000000000000e+00 0.000000000000000e+00 0.000000000000000e+00
0.000000000000000e+00 0.000000000000000e+00 0.000000000000000e+00
0.000000000000000e+00 0.000000000000000e+00 0.000000000000000e+00
0.000000000000000e+00 0.000000000000000e+00 0.000000000000000e+00
0.000000000000000e+00 0.000000000000000e+00 0.000000000000000e+00
0.000000000000000e+00 0.000000000000000e+00 0.000000000000000e+00
0.000000000000000e+00 0.000000000000000e+00 0.000000000000000e+00
0.000000000000000e+00 0.000000000000000e+00 0.000000000000000e+00
0.000000000000000e+00 0.000000000000000e+00 0.000000000000000e+00
0.000000000000000e+00 0.000000000000000e+00 0.000000000000000e+00
0.000000000000000e+00 0.000000000000000e+00 0.000000000000000e+00
0.000000000000000e+00 0.000000000000000e+00 0.000000000000000e+00
0.000000000000000e+00 0.000000000000000e+00 0.000000000000000e+00
0.000000000000000e+00 0.000000000000000e+00 0.000000000000000e+00
0.000000000000000e+00 0.000000000000000e+00 0.000000000000000e+00
0.000000000000000e+00 0.000000000000000e+00 0.000000000000000e+00
0.000000000000000e+00 0.000000000000000e+00 0.000000000000000e+00
0.000000000000000e+00 0.000000000000000e+00 0.000000000000000e+00
0.000000000000000e+00 0.000000000000000e+00 0.000000000000000e+00
0.000000000000000e+00 0.000000000000000e+00 0.000000000000000e+00
0.000000000000000e+00 0.000000000000000e+00 0.000000000000000e+00
0.000000000000000e+00 0.000000000000000e+00 0.000000000000000e+00
0.000000000000000e+00 0.000000000000000e+00 0.000000000000000e+00
0.000000000000000e+00 0.000000000000000e+00 0.000000000000000e+00
0.000000000000000e+00 0.000000000000000e+00 0.000000000000000e+00
0.000000000000000e+00 0.000000000000000e+00 0.000000000000000e+00
0.000000000000000e+00 0.000000000000000e+00 0.000000000000000e+00
0.000000000000000e+00 0.000000000000000e+00 0.000000000000000e+00
0.000000000000000e+00 0.000000000000000e+00 0.000000000000000e+00
0.000000000000000e+00 0.000000000000000e+00 0.000000000000000e+00
0.000000000000000e+00 0.000000000000000e+00 0.000000000000000e+00
0.000000000000000e+00 0.000000000000000e+00 0.000000000000000e+00
0.000000000000000e+00 0.000000000000000e+00 0.000000000000000e+00
0.000000000000000e+00 0.000000000000000e+00 0.000000000000000e+00
0.000000000000000e+00 0.000000000000000e+00 0.000000000000000e+00
0.000000000000000e+00 0.000000000000000e+00 0.000000000000000e+00
0.000000000000000e+00 0.000000000000000e+00 0.000000000000000e+00
0.000000000000000e+00 0.000000000000000e+00 0.000000000000000e+00
0.000000000000000e+00 0.000000000000000e+00 0.000000000000000e+00
0.000000000000000e+00 0.000000000000000e+00 0.000000000000000e+00
0.000000000000000e+00 0.000000000000000e+00 0.000000000000000e+00
0.000000000000000e+00 0.000000000000000e+00 0.000000000000000e+00
0.000000000000000e+00 0.000000000000000e+00 0.000000000000000e+00
0.000000000000000e+00 0.000000000000000e+00 0.000000000000000e+00
0.000000000000000e+00 0.000000000000000e+00 0.000000000000000e+00
0.000000000000000e+00 0.000000000000000e+00 0.000000000000000e+00
0.000000000000000e+00 0.000000000000000e+00 0.000000000000000e+00
0.000000000000000e+00 0.000000000000000e+00 0.000000000000000e+00
0.000000000000000e+00 0.000000000000000e+00 0.000000000000000e+00
0.000000000000000e+00 0.000000000000000e+00 0.000000000000000e+00
0.000000000000000e+00 0.000000000000000e+00 0.000000000000000e+00
0.000000000000000e+00 0.000000000000000e+00 0.000000000000000e+00
0.000000000000000e+00 0.000000000000000e+00 0.000000000000000e+00
0.000000000000000e+00 0.000000000000000e+00 0.000000000000000e+00
0.000000000000000e+00 0.000000000000000e+00 0.000000000000000e+00
0.000000000000000e+00 0.000000000000000e+00 0.000000000000000e+00
0.000000000000000e+00 0.000000000000000e+00 0.000000000000000e+00
0.000000000000000e+00 0.000000000000000e+00 0.000000000000000e+00
0.000000000000000e+00 0.000000000000000e+00 0.000000000000000e+00
0.000000000000000e+00 0.000000000000000e+00 0.000000000000000e+00
0.000000000000000e+00 0.000000000000000e+00 0.000000000000000e+00
0.000000000000000e+00 0.000000000000000e+00 0.000000000000000e+00
0.000000000000000e+00 0.000000000000000e+00 0.000000000000000e+00
0.000000000000000e+00 0.000000000000000e+00 0.000000000000000e+00
0.000000000000000e+00 0.000000000000000e+00 0.000000000000000e+00
0.000000000000000e+00 0.000000000000000e+00 0.000000000000000e+00
0.000000000000000e+00 0.000000000000000e+00 0.000000000000000e+00
0.000000000000000e+00 0.000000000000000e+00 0.000000000000000e+00
0.000000000000000e+00 0.000000000000000e+00 0.000000000000000e+00
0.000000000000000e+00 0.000000000000000e+00 0.000000000000000e+00
0.000000000000000e+00 0.000000000000000e+00 0.000000000000000e+00
0.000000000000000e+00 0.000000000000000e+00 0.000000000000000e+00
0.000000000000000e+00 0.000000000000000e+00 0.000000000000000e+00
0.000000000000000e+00 0.000000000000000e+00 0.000000000000000e+00
0.000000000000000e+00 0.000000000000000e+00 0.000000000000000e+00
0.000000000000000e+00 0.000000000000000e+00 0.000000000000000e+00
0.000000000000000e+00 0.000000000000000e+00 0.000000000000000e+00
0.000000000000000e+00 0.000000000000000e+00 0.000000000000000e+00
0.000000000000000e+00 0.000000000000000e+00 0.000000000000000e+00
0.000000000000000e+00 0.000000000000000e+00 0.000000000000000e+00
0.000000000000000e+00 0.000000000000000e+00 0.000000000000000e+00
0.000000000000000e+00 0.000000000000000e+00 0.000000000000000e+00
0.000000000000000e+00 0.000000000000000e+00 0.000000000000000e+00
0.000000000000000e+00 0.000000000000000e+00 0.000000000000000e+00
0.000000000000000e+00 0.000000000000000e+00 0.000000000000000e+00
0.000000000000000e+00 0.000000000000000e+00 0.000000000000000e+00
0.000000000000000e+00 0.000000000000000e+00 0.000000000000000e+00
0.000000000000000e+00 0.000000000000000e+00 0.000000000000000e+00
0.000000000000000e+00 0.000000000000000e+00 0.000000000000000e+00
0.000000000000000e+00 0.000000000000000e+00 0.000000000000000e+00
0.000000000000000e+00 0.000000000000000e+00 0.000000000000000e+00
0.000000000000000e+00 0.000000000000000e+00 0.000000000000000e+00
0.000000000000000e+00 0.000000000000000e+00 0.000000000000000e+00
0.000000000000000e+00 0.000000000000000e+00 0.000000000000000e+00
-1.099961919764936e-01  9.152872064427268e-04  1.948109200880458e-18
-1.099668538463298e-01  2.700195389202429e-03  1.929247810686714e-18
-1.098433242624456e-01 -5.868910884922244e-03  2.015093908445126e-18
-1.099831336830653e-01 -1.926215266501923e-03  1.977072218645215e-18
-1.098166006204957e-01  6.349348640489082e-03  1.889080151280649e-18
-1.095396833424904e-01  1.005274953566676e-02  1.846100979141487e-18
-1.083468665417102e-01 -1.899885550744500e-02  2.123368069527779e-18
-1.099996330828273e-01 -2.841155456833194e-04  1.960493867041695e-18
-1.099866307398162e-01 -1.714951457987510e-03  1.974963794055159e-18
-1.099913729440837e-01  1.377634884650961e-03  1.943272986014491e-18
-1.099697852929875e-01 -2.578046278515725e-03  1.983531994978094e-18
-1.099983960967374e-01  5.940169569983787e-04  1.951449360934099e-18
-1.099913265334934e-01 -1.381335369255564e-03  1.971619577186468e-18
-1.099999559600030e-01  9.843168868746850e-05  1.956569079161503e-18
-1.099977692193566e-01 -7.005474752603431e-04  1.964739384166515e-18
-1.099977692193566e-01 -7.005474752603431e-04  1.964739384166515e-18
-1.099959202409387e-01 -9.473807835164456e-04  1.967242601964868e-18
-1.099986615559340e-01 -5.426379115138759e-04  1.963132800956867e-18
-1.099973830891377e-01 -7.587578937935170e-04  1.965330603422924e-18
-1.099973830891377e-01 -7.587578937935170e-04  1.965330603422924e-18
-1.099971783688093e-01 -7.878774652612465e-04  1.965626153199003e-18
-1.099972256174004e-01 -7.812531437689708e-04  1.965558931547134e-18
-1.099972256174004e-01 -7.812531437689708e-04  1.965558931547134e-18
-1.099963241586252e-01 -8.992616919218783e-04  1.966755383976068e-18
-1.099963241586252e-01 -8.992616919218783e-04  1.966755383976068e-18
-1.099999988793496e-01 -1.570168805845410e-05  1.957742521947142e-18
-1.099049252472520e-01 -4.572461743511295e-03  2.002869627485020e-18
-1.098507396995916e-01  5.728436737234067e-03  1.896067341162113e-18
-1.099277289252629e-01 -3.986779820085928e-03  1.997257777134756e-18
-1.098537830306809e-01  5.669775467159486e-03  1.896724224109116e-18
-1.098757771858291e-01 -5.226240313069421e-03  2.009068240266061e-18
-1.095556295006399e-01  9.877451327060345e-03  1.848185885459620e-18
-1.098969739559398e-01 -4.759738997826067e-03  2.004652330527081e-18
-1.095238717931798e-01  1.022357605884713e-02  1.844064413291525e-18
-1.095417333018457e-01 -1.003038709259185e-02  2.052484393838880e-18
-1.098025410478891e-01  6.588017867807829e-03  1.886377704806263e-18
-1.093833582269706e-01 -1.163103361658526e-02  2.066111982029714e-18
-1.096336404870411e-01  8.970221488801408e-03  1.858895641034923e-18
-1.097037827726279e-01 -8.067220424409122e-03  2.035197433117859e-18
-1.097366788474914e-01  7.606662574510687e-03  1.874739404070067e-18
-1.092322606071131e-01 -1.297355936740803e-02  2.077216984037024e-18
-1.098474929777426e-01  5.790361517618543e-03  1.895373307251033e-18
-1.095449611062947e-01 -9.995073597543131e-03  2.052179003136073e-18
-1.095860972566160e-01  9.533482473022619e-03  1.852262250541646e-18
-1.097387215407722e-01 -7.577136305807682e-03  2.030783773888392e-18
-1.095251319449734e-01  1.021006721016518e-02  1.844225637708683e-18
-1.096267710618531e-01 -9.053787414777583e-03  2.043963535296152e-18
-1.098921985401654e-01  4.868747273045038e-03  1.905638147627932e-18
-1.092808091531927e-01 -1.255805521660929e-02  2.073811809116647e-18
-1.099417735753633e-01  3.578606307416327e-03  1.919776124264987e-18
-1.097290487371196e-01 -7.715948629089900e-03  2.032037881004430e-18
-1.093497578752976e-01  1.194279919506794e-02  1.823301455252207e-18
-1.098218305395474e-01 -6.258237526880787e-03  2.018711591822385e-18
-1.097915185597286e-01  6.769228342189661e-03  1.884319674685663e-18
-1.098875922275013e-01 -4.971626941184156e-03  2.006662443123754e-18
-1.094076106791344e-01  1.140064583621842e-02  1.829901443719153e-18
-1.098932314063574e-01 -4.845378320495381e-03  2.005465640323094e-18
-1.098416156039192e-01  5.900803464002546e-03  1.894133961494370e-18
-1.099292305484649e-01 -3.945157921094265e-03  1.996856850418745e-18
-1.099781503396051e-01  2.192361256531203e-03  1.934666656491055e-18
-1.099999818687776e-01  6.315748987270768e-05  1.956931969817766e-18
-1.099914812565529e-01 -1.368959820193312e-03  1.971495176396940e-18
-1.099810984220485e-01  2.039114974588456e-03  1.936293671011700e-18
-1.099925916316859e-01 -1.276630778694101e-03  1.970566289486035e-18
-1.099944914163705e-01  1.100844245988201e-03  1.946172406210809e-18
-1.099792882298977e-01 -2.134516442900124e-03  1.979144003136698e-18
-1.099960066556943e-01 -9.372938708784796e-04  1.967140500455454e-18
-1.099960066556943e-01 -9.372938708784796e-04  1.967140500455454e-18
-9.709114564401941e-02  5.170405629669439e-02  1.196612355404564e-18
-1.099971725176247e-01 -7.886939380015890e-04  1.965634438030998e-18
-1.099726062550261e-01 -2.454765462714833e-03  1.982315531764582e-18
-9.648992645944188e-02  5.281755476971104e-02  1.174472150546753e-18
-1.099928580001406e-01 -1.253470765849677e-03  1.970333069111816e-18
-1.099984354366868e-01 -5.866868678960827e-04  1.963581363920238e-18
-1.099995980617196e-01  2.973655327652303e-04  1.954518736953718e-18
-1.099541871346598e-01  3.174386800022337e-03  1.924150246957168e-18
-1.099915184865114e-01  1.365965237972735e-03  1.943395477495971e-18
-1.099814009614619e-01 -2.022731458715211e-03  1.978033051610832e-18
-1.099999718602705e-01  7.868125336030783e-05  1.956772290673947e-18
-1.099845091467331e-01  1.846008600222468e-03  1.938338466772501e-18
-1.099935580421778e-01  1.190457568330201e-03  1.945235051370577e-18
-1.099980676975472e-01 -6.519990841557148e-04  1.964245878859599e-18
-1.099998552197285e-01  1.784702739868297e-04  1.955744918979932e-18
-1.099975397557046e-01  7.356953799784083e-04  1.949978426995546e-18
-1.099986040270335e-01  5.541769607541696e-04  1.951862402790423e-18
-1.099986040270335e-01  5.541769607541696e-04  1.951862402790423e-18
-1.099999898227116e-01  4.731810716401246e-05  1.957094855270847e-18
-1.099988170461196e-01  5.101455225973877e-04  1.952318600750857e-18
-1.099972877888699e-01  7.724500582273856e-04  1.949596301978083e-18
-1.099993496591284e-01  3.782519910266968e-04  1.953683237358409e-18
-1.099993496591284e-01  3.782519910266968e-04  1.953683237358409e-18
-1.099993496591284e-01  3.782519910266968e-04  1.953683237358409e-18
-1.099890987630757e-01  1.548597199503393e-03  1.941475938571330e-18
-1.099942867426790e-01 -1.121108366411058e-03  1.968998519718801e-18
-1.099382114949874e-01 -3.686414692264161e-03  1.994358184392770e-18
-1.097475072658911e-01  7.448801844800607e-03  1.876554070343573e-18
-1.099938487474956e-01  1.163287459311666e-03  1.945519387818513e-18
-1.099967954959840e-01 -8.396312372741273e-04  1.966151090727133e-18
-1.099982004543292e-01  6.292033130290260e-04  1.951084352218060e-18
-1.099982004543292e-01  6.292033130290260e-04  1.951084352218060e-18
-1.095191644915334e-01 -1.027387994266896e-02  2.054584555518865e-18
-1.099793388055336e-01  2.131908979662657e-03  1.935308931844145e-18
-1.099961901051913e-01  9.155120657567175e-04  1.948106857230634e-18
-1.081649972268973e-01 -2.000833263680979e-02  2.130503498919126e-18
-1.099987724446989e-01 -5.196736084134554e-04  1.962898824482629e-18
-1.099972151796439e-01  7.827213572100640e-04  1.949489475944517e-18
-1.099200516909409e-01 -4.193117725606176e-03  1.999241198614812e-18
-1.099995648858014e-01 -3.093944639233348e-04  1.960752385096077e-18
-1.099325724970410e-01 -3.850909526689103e-03  1.995947956365314e-18
-1.099117858455766e-01  4.404467304457579e-03  1.910757035109890e-18
-1.097710757741857e-01 -7.093019341430215e-03  2.026385430122403e-18
-1.099972228360685e-01  7.816446457329922e-04  1.949500675019015e-18
-1.095134654275312e-01 -1.033445160871413e-02  2.055105485741514e-18
-1.099657085587072e-01  2.746441548879295e-03  1.928752266436550e-18
-1.099547446818934e-01 -3.155015362808395e-03  1.989192477107303e-18
-1.099975672408609e-01  7.315743928110230e-04  1.950021257772795e-18
-1.097433776637607e-01 -7.509398041727379e-03  2.030170649094951e-18
-1.098339475411379e-01  6.041851333035537e-03  1.892548283554728e-18
-1.098894690599730e-01 -4.929968531052572e-03  2.006267818565563e-18
-1.099763609669258e-01  2.280357093171692e-03  1.933730687214677e-18
-1.099814696659374e-01 -2.018992352741457e-03  1.977995856333357e-18
-1.099814696659374e-01 -2.018992352741457e-03  1.977995856333357e-18
-1.098393437699013e-01  5.942942048966237e-03  1.893660572845322e-18
-1.097520498728638e-01 -7.381568173791815e-03  2.029011575944429e-18
-1.099484841505014e-01  3.366130271821568e-03  1.922078661033494e-18
-1.099999361778579e-01 -1.184941649491758e-04  1.958797561457783e-18
-1.098156413521065e-01  6.365918191859436e-03  1.888892833834321e-18
-1.099136234945353e-01 -4.358367848342440e-03  2.000824686172409e-18
-1.097553025491607e-01  7.333045911633610e-03  1.877882146870372e-18
-1.099366782957421e-01  3.731858156259570e-03  1.918110840611414e-18
-1.097742061828014e-01  7.044406074023507e-03  1.881184229056912e-18
 3.243732918953825e-02 -1.051086089483134e-01  5.026918084134604e-19
-1.099999913349170e-01 -4.366140288413750e-05  1.958029663597832e-18
-1.099119352919388e-01  4.400736345271576e-03  1.910798028936456e-18
-1.099827793132612e-01 -1.946343888015142e-03  1.977272726485737e-18
-1.099935694069629e-01 -1.189407043682134e-03  1.969687497972065e-18
-1.099323993401715e-01  3.855849493040203e-03  1.916760725550004e-18
-1.099919971615038e-01  1.326861116948159e-03  1.943805776726562e-18
-9.983404701679252e-02 -4.618617819487551e-02  2.251212155858644e-18
-1.099950705586439e-01  1.041370634731122e-03  1.946793782488991e-18
-1.096633494925636e-01  8.599405681311704e-03  1.863234345941545e-18
-1.099981283980808e-01 -6.416766469517366e-04  1.964140899805576e-18
-1.099998219063869e-01 -1.979408070053273e-04  1.959611813247082e-18
-1.099997407107803e-01  2.388379388474211e-04  1.955122625330014e-18
-1.099997407107803e-01  2.388379388474211e-04  1.955122625330014e-18
-1.099999908669056e-01  4.482499995948058e-05  1.957120489624375e-18
-1.099996221919157e-01  2.883012932996734e-04  1.954612298147073e-18
-1.099999691623370e-01  8.236677028870846e-05  1.956734375313406e-18
-1.099998810877621e-01 -1.617426293056749e-04  1.959240943324146e-18
-1.099999618184003e-01 -9.165124324897449e-05  1.958522216492620e-18
-1.099984158661194e-01 -5.903447672264841e-04  1.963618599225454e-18
-1.099997477889522e-01 -2.355554432188880e-04  1.959996970961691e-18
-1.099990234986580e-01 -4.634968625656688e-04  1.962326096631122e-18
-1.099990234986580e-01 -4.634968625656688e-04  1.962326096631122e-18
-1.099990234986580e-01 -4.634968625656688e-04  1.962326096631122e-18
-1.099997204057346e-01 -2.480134273169609e-04  1.960124484905649e-18
-1.099999923288179e-01  4.108113850140726e-05  1.957158982457292e-18
-1.099969911673785e-01 -8.135933404289097e-04  1.965887043001742e-18
-1.099871052853141e-01 -1.684241953271960e-03  1.974656710153287e-18
-1.099984042084773e-01 -5.925129436355187e-04  1.963640668988775e-18
-1.099973960485168e-01 -7.568768365237987e-04  1.965311506870420e-18
-1.099955558384134e-01 -9.887850112197320e-04  1.967661530385932e-18
-1.099958259391859e-01 -9.582671633012696e-04  1.967352777350265e-18
-1.099825494498274e-01 -1.959289798929554e-03  1.977401650323509e-18
-1.099825494498274e-01 -1.959289798929554e-03  1.977401650323509e-18
-1.099964914512710e-01  8.785604193178164e-04  1.948491884787264e-18
-1.099964914512710e-01  8.785604193178164e-04  1.948491884787264e-18
-1.099964914512710e-01  8.785604193178164e-04  1.948491884787264e-18
-1.099924678785789e-01 -1.287248996779748e-03  1.970673185485413e-18
-1.098907759532047e-01  4.900751003926205e-03  1.905284004287280e-18
-1.099993763129006e-01  3.704197251912877e-04  1.953764185380297e-18
-1.099964053950480e-01  8.892694575803322e-04  1.948380321836264e-18
-1.099964053950480e-01  8.892694575803322e-04  1.948380321836264e-18
-1.099983073031113e-01  6.102380275086741e-04  1.951281115138766e-18
-1.099994932846658e-01  3.338818903389228e-04  1.954141680012344e-18
-1.099975254917226e-01  7.378249777260982e-04  1.949956292307737e-18
-1.099975254917226e-01  7.378249777260982e-04  1.949956292307737e-18
-1.099968374096638e-01  8.341222164145865e-04  1.948954627921238e-18
-1.099978898668981e-01  6.813404653202207e-04  1.950543134644387e-18
-1.099969752246634e-01  8.157459314683582e-04  1.949145890155791e-18
-1.099966291813916e-01  8.611438505687004e-04  1.948673284776005e-18
-1.099966291813916e-01  8.611438505687004e-04  1.948673284776005e-18
-1.099966291813916e-01  8.611438505687004e-04  1.948673284776005e-18
-1.099974141575771e-01 -7.542404433486077e-04  1.965284741160601e-18
-1.099987817608059e-01 -5.176979220771336e-04  1.962878690814471e-18
-1.042271878893630e-01  3.516665046141508e-02  1.493522576730024e-18
-1.099998919063004e-01 -1.542096046415934e-04  1.959163736761049e-18
-1.097911537694870e-01 -6.775142357528336e-03  2.023476671464727e-18
-1.099987667154943e-01  5.208848914875411e-04  1.952207361943303e-18
-1.063829286792709e-01  2.797628434265496e-02  1.605764955362733e-18
-1.099944440882792e-01 -1.105563073887300e-03  1.968841597637924e-18
-1.099991163865442e-01 -4.409015529864470e-04  1.962095591084162e-18
-1.099995852703255e-01  3.020601866021099e-04  1.954470273452863e-18
-1.099999983096435e-01 -1.928414770201149e-05  1.957779320279974e-18
-1.099999983096435e-01 -1.928414770201149e-05  1.957779320279974e-18
-1.099995852703252e-01  3.020601866999153e-04  1.954470273451853e-18
-1.099999679291220e-01  8.399757166511213e-05  1.956717597475157e-18
-1.099448499326974e-01  3.482811116982645e-03  1.920815132495409e-18
-1.099973503435868e-01 -7.634902685472051e-04  1.965378644108240e-18
-1.099999761481086e-01 -7.243904661228895e-05  1.958325073165671e-18
-1.099999761481086e-01 -7.243904661228895e-05  1.958325073165671e-18
-1.099996260469295e-01 -2.868266647182925e-04  1.960521597592714e-18
-1.099996260469295e-01 -2.868266647182925e-04  1.960521597592714e-18
-1.099996260469295e-01 -2.868266647182925e-04  1.960521597592714e-18
-1.099995989276507e-01 -2.970450402075078e-04  1.960626105068906e-18
-1.099997819978699e-01 -2.189986781328062e-04  1.959827465003527e-18
-1.099982103339001e-01 -6.274737755384445e-04  1.963996428606943e-18
-1.099999899015937e-01  4.713437395597056e-05  1.957096744466614e-18
-1.099975137055928e-01 -7.395800077426879e-04  1.965135882086152e-18
-1.099999295054537e-01 -1.245343130930646e-04  1.958859503042358e-18
-1.099958867189320e-01 -9.512649030617792e-04  1.967281913318112e-18
-1.099999450448769e-01 -1.099550999248134e-04  1.958709983465837e-18
-1.099896960701834e-01 -1.505575766477163e-03  1.972867086095443e-18
-1.099999743526547e-01 -7.511601185302739e-05  1.958352546058811e-18
-1.099978527298923e-01 -6.873098375851812e-04  1.964604858417857e-18
-1.099978527298923e-01 -6.873098375851812e-04  1.964604858417857e-18
-1.099978527298923e-01 -6.873098375851812e-04  1.964604858417857e-18
-1.099883845027557e-01 -1.598522590989464e-03  1.973798740045509e-18
-1.099889481674497e-01  1.559256559387815e-03  1.941363737491957e-18
-1.099988665472247e-01 -4.993579134936221e-04  1.962691762764136e-18
 6.143226546316256e-02 -9.124733837248872e-02 -1.557271887504965e-19
-1.099731404570925e-01  2.430715533445591e-03  1.932128496047744e-18
-1.098779728072254e-01  5.179873721875523e-03  1.902188272502813e-18
-1.099951972137060e-01  1.027905597731990e-03  1.946934384830604e-18
-1.099999645615118e-01 -8.829759945777952e-05  1.958487807837889e-18
-1.099954508636387e-01  1.000394574535398e-03  1.947221564603098e-18
-1.099999997948297e-01 -6.718436664144654e-06  1.957650238594484e-18
-1.099958933086633e-01  9.505026191924886e-04  1.947742060156902e-18
-1.099999842350868e-01  5.889210968479553e-05  1.956975837161000e-18
-1.099982682279465e-01  6.172413244801021e-04  1.951208463417315e-18
-1.099990525286464e-01  4.565553635973973e-04  1.952873410859264e-18
-1.099990525286464e-01  4.565553635973973e-04  1.952873410859264e-18
-1.099990525286464e-01  4.565553635973973e-04  1.952873410859264e-18
-1.099999519443996e-01  1.028213485532916e-04  1.956523905538568e-18
-1.099999519443996e-01  1.028213485532916e-04  1.956523905538568e-18
-1.099611413732191e-01  2.923591609447612e-03  1.926850835404074e-18
-1.099964613972688e-01  8.823151812699668e-04  1.948452771125382e-18
-1.099999999959073e-01  9.488471259106885e-07  1.957571463617262e-18
-1.099879251813051e-01  1.629820331067465e-03  1.940620515113045e-18
-1.099976373204009e-01  7.209604215774688e-04  1.950131559620476e-18
-1.099946237745304e-01 -1.087538826631099e-03  1.968659602776240e-18
-1.099719220303134e-01 -2.485229357343959e-03  1.982616360620298e-18
-1.071518215778803e-01  2.486940153164155e-02  1.651370413903506e-18
-1.099999456455672e-01 -1.093525134391866e-04  1.958703802798600e-18
-1.099959556511177e-01 -9.432605140108299e-04  1.967200897858846e-18
-1.098228429122226e-01 -6.240446672891588e-03  2.018546813639913e-18
-1.099794497879130e-01  2.126175991739779e-03  1.935369811276246e-18
-1.099970808249723e-01  8.013800499419406e-04  1.949295373653221e-18
-1.099994800785526e-01 -3.382047427857128e-04  1.961046890999283e-18
-1.099998574468807e-01 -1.770922523320772e-04  1.959398234406980e-18
-1.099997624595473e-01 -2.286019315178609e-04  1.959925787235715e-18
-1.099985075141723e-01  5.730136599655773e-04  1.951667144987372e-18
-1.099991705121335e-01 -4.271845532265781e-04  1.961955617124048e-18
-1.099996780986924e-01 -2.661168615193278e-04  1.960309738211335e-18
-1.099999702109268e-01 -8.095427814259827e-05  1.958412458417072e-18
-1.099999702109268e-01 -8.095427814259827e-05  1.958412458417072e-18
-1.099951906364771e-01  1.028609179905682e-03  1.946927038729727e-18
-1.097004346610409e-01 -8.112621966948834e-03  2.035604333834909e-18
-1.099928194982850e-01 -1.256844786612544e-03  1.970367050763022e-18
-1.098244988697588e-01  6.211235626368111e-03  1.890639771095239e-18
-1.099832604923694e-01 -1.918961038565721e-03  1.976999940811256e-18
-1.088353265199051e-01 -1.596470172930122e-02  2.100885969646898e-18
-1.098795210473894e-01 -5.146926694274522e-03  2.008319948127620e-18
-1.067866948374060e-01  2.639321514523481e-02  1.629215916696118e-18
-1.097781322145008e-01 -6.982956930665044e-03  2.025380156606953e-18
-1.099994580316974e-01  3.453009307431179e-04  1.954023726151779e-18
-1.097730755040358e-01 -7.062003567344113e-03  2.026102341888859e-18
-1.099944278149917e-01  1.107180948408730e-03  1.946106167032977e-18
-1.099691632181219e-01 -2.604446410657046e-03  1.983792176181162e-18
-1.099853467564609e-01 -1.795410499297715e-03  1.975767631460751e-18
-1.099853467564609e-01 -1.795410499297715e-03  1.975767631460751e-18
-1.099962360162622e-01 -9.099792605731852e-04  1.966863934502082e-18
-1.099604022413439e-01 -2.951260564873504e-03  1.987199653595823e-18
-1.099996872290237e-01  2.623156817253523e-04  1.954880448279084e-18
-1.086890321929777e-01 -1.693204892958293e-02  2.108221628666318e-18
-1.099999978521081e-01 -2.173789636066306e-05  1.957804523513677e-18
-1.099425262296368e-01  3.555408027996006e-03  1.920027872539355e-18
-1.099999803679147e-01 -6.571954284314942e-05  1.958256107801930e-18
-1.098253562621392e-01 -6.196056963434821e-03  2.018135453560556e-18
-1.088095758808451e-01  1.613927497227019e-02  1.770571008157564e-18
-1.099941008432283e-01  1.139201338502217e-03  1.945771350304306e-18
-1.095770300092457e-01 -9.637141399439837e-03  2.049072084208292e-18
-1.099999539191841e-01  1.006865298973866e-04  1.956545875168384e-18
-1.099999539191841e-01  1.006865298973866e-04  1.956545875168384e-18
-1.099999795368291e-01 -6.709617806128162e-05  1.958270237438545e-18
-1.099988108098901e-01  5.114884260002805e-04  1.952304691925087e-18
-1.099628832047672e-01 -2.857326949208189e-03  1.986278671521778e-18
-1.099420971679684e-01 -3.568651048914637e-03  1.993217355923217e-18
-1.099970334134118e-01 -8.078615281618326e-04  1.965828902531460e-18
-1.097719037419755e-01  7.080194126038756e-03  1.880775545142285e-18
-1.099651845504315e-01  2.767342911435864e-03  1.928528187176825e-18
-1.097770769657800e-01 -6.999526616074754e-03  2.025531624695512e-18
-1.099976110717790e-01 -7.249541375535224e-04  1.964987339330547e-18
-1.099952289774831e-01  1.024500947292465e-03  1.946969931651359e-18
-1.099283399732313e-01  3.969895556509493e-03  1.915516702400646e-18
-1.099972708044074e-01 -7.748648796933837e-04  1.965494098611122e-18
-1.099974299711146e-01 -7.519306814205539e-04  1.965261290616623e-18
-1.099982965742195e-01  6.121689064190848e-04  1.951261085125966e-18
-1.099981887272826e-01  6.312501224102761e-04  1.951063113298432e-18
-1.099836289363754e-01  1.897726530776316e-03  1.937791419430439e-18
-1.099971371364824e-01 -7.936131159405935e-04  1.965684351147694e-18
-1.099526758005020e-01 -3.226311254303130e-03  1.989888198280438e-18
-1.099974524886758e-01  7.486294152909315e-04  1.949843981460402e-18
-1.093311995597733e-01  1.211151529829942e-02  1.821237691219332e-18
-1.099992771763845e-01 -3.987739621151629e-04  1.961665606838714e-18
-1.098785726519939e-01 -5.167133824514451e-03  2.008510691222810e-18
-1.099953463274122e-01  1.011823261531748e-03  1.947102278649079e-18
-1.099994975418798e-01  3.324763659351260e-04  1.954156197027208e-18
-1.099994975418798e-01  3.324763659351260e-04  1.954156197027208e-18
-1.099788487630154e-01  2.157040741783077e-03  1.935041991226852e-18
-1.099999776640063e-01 -7.009934423092296e-05  1.958301060550857e-18
-1.098067688674463e-01 -6.517170466632916e-03  2.021103993294145e-18
-1.099872968610466e-01  1.671684539602822e-03  1.940179193869928e-18
-1.098035646112739e-01  6.570935904246971e-03  1.886571431307846e-18
-1.099963684085173e-01 -8.938327235378720e-04  1.966700390777722e-18
-1.098848581530071e-01 -5.031694415745668e-03  2.007230958487128e-18
-1.099990570260352e-01 -4.554705072531168e-04  1.962244225405701e-18
-9.156763933010369e-02  6.095381388815610e-02  1.003277072792102e-18
-1.099999825461188e-01 -6.196655135983677e-05  1.958217585941533e-18
-1.099960789665572e-01 -9.287690686283550e-04  1.967054198067212e-18
-1.099604063022556e-01 -2.951109256329034e-03  1.987198171224263e-18
-1.099732137409157e-01  2.427397679572345e-03  1.932163889964061e-18
-1.099986190461661e-01 -5.511877505499179e-04  1.963219890935022e-18
-1.099966070608092e-01  8.639647619344212e-04  1.948643907274329e-18
-1.099980305823640e-01  6.582309634355321e-04  1.950783080580799e-18
-1.099310255610509e-01  3.894819520271099e-03  1.916335874638751e-18
-1.099985878428046e-01 -5.573801115265554e-04  1.963282959893511e-18
-1.099983770195267e-01  5.975391786119593e-04  1.951412831884823e-18
-1.099983770195267e-01  5.975391786119593e-04  1.951412831884823e-18
-1.099332490465019e-01 -3.831547217473378e-03  1.995761055676569e-18
-1.099059102558549e-01  4.548724088344953e-03  1.909170285932063e-18
-1.099997308461852e-01  2.433387900382451e-04  1.955076205166824e-18
-1.099735154103272e-01  2.413691839167614e-03  1.932310081062299e-18
-1.094499270235961e-01 -1.098696839575961e-02  2.060679116998315e-18
-1.096041922954935e-01  9.323144922846209e-03  1.854745415261455e-18
-1.099919561666557e-01 -1.330255100500938e-03  1.971105951054193e-18
-1.099633520635427e-01  2.839225765817033e-03  1.927757005670992e-18
-1.092857389927397e-01 -1.251508101494779e-02  2.073457997181138e-18
-1.094178185318839e-01  1.130225586879231e-02  1.831094025808236e-18
-1.099377149713956e-01 -3.701192627804504e-03  1.994501186082453e-18
-1.099330734322849e-01  3.836582558968572e-03  1.916970682571706e-18
-1.095969555796033e-01 -9.407833314977186e-03  2.047070626234110e-18
-1.097194063947586e-01  7.851869865307630e-03  1.871912604334228e-18
-1.099573454241002e-01 -3.063035632347362e-03  1.988293702100273e-18
-1.099112334612473e-01  4.418230304898742e-03  1.910605794942014e-18
-1.099958889105638e-01 -9.510114483104317e-04  1.967279348165316e-18
-1.099582084330844e-01  3.031896796774850e-03  1.925685843780232e-18
-1.099988479438057e-01 -5.034392072977368e-04  1.962733365505324e-18
-1.099873246174745e-01  1.669857326307366e-03  1.940198461781508e-18
-1.099976765571621e-01  7.149489673408314e-04  1.950194023393934e-18
-1.099976765571621e-01  7.149489673408314e-04  1.950194023393934e-18
-1.099858490002315e-01  1.764375158005646e-03  1.939201065027420e-18
-1.099994124383484e-01  3.595319430193656e-04  1.953876696282330e-18
-1.099984052608900e-01  5.923175338834861e-04  1.951466984976280e-18
-1.099969433779781e-01 -8.200289640084234e-04  1.965952316226759e-18
-1.095875435849973e-01  9.516842491406810e-03  1.852458959446707e-18
-1.099998580702326e-01  1.767046365992843e-04  1.955763110990806e-18
-1.099973994878682e-01  7.563768282225731e-04  1.949763436394349e-18
-1.099971287768215e-01  7.947709451607346e-04  1.949364133164306e-18
-1.099971287768215e-01  7.947709451607346e-04  1.949364133164306e-18
-1.099982276042673e-01  6.244388839098824e-04  1.951133788162011e-18
-1.099709960193078e-01  2.525873021611836e-03  1.931112624596477e-18
-1.099996951804061e-01  2.589598765292972e-04  1.954915069462741e-18
-1.099990014116478e-01  4.687093344777169e-04  1.952747623535696e-18
-1.099929883977181e-01  1.241975579218377e-03  1.944695585021067e-18
-1.099929007151368e-01  1.249716875934104e-03  1.944614485593378e-18
-1.099519882648444e-01 -3.249657921605902e-03  1.990115841288647e-18
-1.098654411763980e-01  5.439194344326911e-03  1.899300831992059e-18
-1.099695987632276e-01  2.585990691140781e-03  1.930470071542445e-18
-1.099960498734109e-01  9.322082632211911e-04  1.947932814275134e-18
-1.099265026112408e-01 -4.020450678815931e-03  1.997581909255722e-18
-1.099951075390689e-01  1.037457212900726e-03  1.946834649587439e-18
-1.099951075390689e-01  1.037457212900726e-03  1.946834649587439e-18
-1.073599427809349e-01  2.395501379824930e-02  1.664469180757475e-18
-1.099964376789925e-01  8.852671525908734e-04  1.948422018597409e-18
-1.095857429846897e-01 -9.537553905140786e-03  2.048203916672899e-18
-1.099682972452165e-01  2.640757654091743e-03  1.929884198827882e-18
-1.099752275902173e-01  2.334377107461666e-03  1.933155481401308e-18
-1.099875432562750e-01 -1.655393744388121e-03  1.974368099502416e-18
-1.099978969063855e-01  6.802030374297315e-04  1.950554946578840e-18
-1.099978969063855e-01  6.802030374297315e-04  1.950554946578840e-18
-1.090377540079751e-01  1.451785799958926e-02  1.791291180490383e-18
-9.668212638542589e-02 -5.246490672432825e-02  2.259631623233821e-18
 1.099819592814923e-01  1.992142716800379e-03 -1.977728699370603e-18
 1.099715406678830e-01 -2.502047787726261e-03 -1.931367112890702e-18
 1.099689219945024e-01 -2.614611896050965e-03 -1.930163955152515e-18
 1.099998404923282e-01  1.873276869194839e-04 -1.959503098052637e-18
 1.099827243990731e-01 -1.949444474063556e-03 -1.937243939030548e-18
 1.099993583725155e-01  3.757095085849630e-04 -1.961430072939354e-18
 1.099770627230318e-01 -2.246257958083369e-03 -1.934093532027460e-18
 1.099932850764901e-01 -1.215416834630456e-03 -1.944973746226313e-18
 1.099847251607326e-01 -1.833093374062945e-03 -1.938475010256349e-18
 1.099884111358378e-01 -1.596689016004648e-03 -1.940969575480234e-18
 1.099884111358378e-01 -1.596689016004648e-03 -1.940969575480234e-18
 1.099814655187598e-01 -2.019218251149803e-03 -1.936504635540985e-18
 1.099806680435769e-01 -2.062197053744576e-03 -1.936048851935153e-18
 1.099979880678778e-01  6.652976919713803e-04 -1.964381100118947e-18
 1.099994140584836e-01  3.590359177043961e-04 -1.961259748848323e-18
 1.066945134193424e-01 -2.676342291654215e-02 -1.623771688039428e-18
 1.099997332956596e-01 -2.422289901531177e-04 -1.955087651548804e-18
 1.099885905237719e-01  1.584283621691016e-03 -1.973656106198313e-18
 1.099885460433286e-01 -1.587368663702493e-03 -1.941067739554043e-18
 1.099885460433286e-01 -1.587368663702493e-03 -1.941067739554043e-18
 1.099943619216417e-01 -1.113707973770410e-03 -1.946037931567705e-18
 1.099873244643003e-01 -1.669867415291820e-03 -1.940198355394941e-18
 1.099996583193917e-01 -2.741707806994472e-04 -1.954758126962359e-18
 1.099697382114077e-01 -2.580053820055390e-03 -1.930533552382857e-18
 1.099999843608478e-01  5.865674009121495e-05 -1.958183611128377e-18
 1.099794768135377e-01 -2.124777593169950e-03 -1.935384660266783e-18
 1.099999714104759e-01 -7.930759363982063e-05 -1.956765847250477e-18
 1.099750427832581e-01 -2.343067395634595e-03 -1.933062902986980e-18
 1.099866333674472e-01  1.714782929316134e-03 -1.974962109246111e-18
 1.098788306824375e-01 -5.161643910631555e-03 -1.902390844103686e-18
 1.099984863748974e-01  5.770573900783463e-04 -1.963483331039993e-18
 1.099991933991475e-01  4.212499695842528e-04 -1.961895048734702e-18
 1.099944789671944e-01  1.102087444514122e-03 -1.968806507520613e-18
 1.088021689079503e-01 -1.618913342108742e-02 -1.769926914790100e-18
 1.099104178817937e-01  4.438472828508695e-03 -2.001590688041235e-18
 1.099965768053925e-01  8.678082134416464e-04 -1.966436707061424e-18
 1.099895586998289e-01 -1.515578113068065e-03 -1.941823382812718e-18
 1.099997164375320e-01 -2.497672165514217e-04 -1.955009899000493e-18
 1.099997164375320e-01 -2.497672165514217e-04 -1.955009899000493e-18
 1.099999538553036e-01 -1.007562951782917e-04 -1.956545157218637e-18
 1.099989067173614e-01  4.904293885628135e-04 -1.962600740289449e-18
 1.099923716288025e-01 -1.295447209003349e-03 -1.944135207311182e-18
 1.099683435956075e-01 -2.638826792029808e-03 -1.929904862594640e-18
 1.099525591313875e-01  3.230284888159333e-03 -1.989926949658742e-18
 1.098140085946172e-01  6.394021925303085e-03 -2.019967526349195e-18
 1.098472652181018e-01 -5.794680673163258e-03 -1.895324876242348e-18
 1.099907332442137e-01 -1.427795643697232e-03 -1.942746218215012e-18
 1.099695547169208e-01  2.587863087972828e-03 -1.983628755752952e-18
 1.099995843722893e-01 -3.023870426092123e-04 -1.954466899144501e-18
 1.099995843722893e-01 -3.023870426092123e-04 -1.954466899144501e-18
 1.099997251418280e-01 -2.459038881558838e-04 -1.955049748199651e-18
 1.099974293403252e-01  7.520229518360073e-04 -1.965262227435973e-18
 1.099907558044746e-01  1.426056646972168e-03 -1.972068915265362e-18
 1.099173699958255e-01 -4.262836285942027e-03 -1.912311618989326e-18
 1.099781878461435e-01  2.190478960932453e-03 -1.979699415038405e-18
 1.094832138613304e-01 -1.065015880605096e-02 -1.838957874133539e-18
 1.099608959963621e-01 -2.932806109713290e-03 -1.926751792987340e-18
 1.099997899173035e-01 -2.149840668945028e-04 -1.955368590887677e-18
 7.499308483204861e-02  8.047382945637102e-02 -2.161430763396243e-18
 1.099894099095241e-01 -1.526338021085391e-03 -1.941710180765649e-18
 1.099894099095241e-01 -1.526338021085391e-03 -1.941710180765649e-18
 1.099997324588154e-01 -2.426087157694111e-04 -1.955083735113397e-18
 1.099997324588154e-01 -2.426087157694111e-04 -1.955083735113397e-18
 1.099999283756158e-01 -1.255283208127361e-04 -1.956290180212775e-18
 1.099998408500944e-01 -1.871174867105546e-04 -1.955655816285703e-18
 1.099998408500944e-01 -1.871174867105546e-04 -1.955655816285703e-18
 1.099999420573969e-01 -1.129042481035945e-04 -1.956420131457512e-18
 1.099997758536661e-01 -2.220633764354319e-04 -1.955295603274650e-18
 1.099999858668196e-01 -5.576109228364016e-05 -1.957008036266021e-18
 1.099999858668196e-01 -5.576109228364016e-05 -1.957008036266021e-18
 1.099999947125213e-01 -3.410638094435077e-05 -1.957230687978306e-18
 1.099999325793814e-01 -1.217888807216637e-04 -1.956328676412304e-18
 1.099999783496916e-01 -6.901497879170627e-05 -1.956871723620649e-18
 1.099999979644163e-01 -2.116195509381117e-05 -1.957363745122930e-18
 1.099999923165798e-01  4.111389430973674e-05 -1.958003506342528e-18
 1.099999384876845e-01 -1.163301575677138e-04 -1.956384867955012e-18
 1.099999995291763e-01  1.017748171171777e-05 -1.957685774298157e-18
 1.099999934370794e-01  3.799792658293634e-05 -1.957971510846703e-18
 1.099999934370794e-01  3.799792658293634e-05 -1.957971510846703e-18
 1.099999343053174e-01  1.202199058541553e-04 -1.958815259494581e-18
 1.099967347379955e-01 -8.475535257397744e-04 -1.948814798932323e-18
 1.099978088709831e-01 -6.942935853078611e-04 -1.950408604623089e-18
 1.099791471808712e-01  2.141771549022484e-03 -1.979216036580856e-18
 1.099853896705615e-01  1.792779689384425e-03 -1.975741364552202e-18
 1.062707221820093e-01 -2.839953532919390e-02 -1.599419356767515e-18
 1.099320566245400e-01  3.865608140884429e-03 -1.996089798720072e-18
 1.099034645116684e-01  4.607438369894693e-03 -2.003203004082960e-18
 1.099866794323350e-01 -1.711825764702415e-03 -1.939755769483773e-18
 1.099182185350578e-01  4.240900149637765e-03 -1.999699522468140e-18
 1.099182185350578e-01  4.240900149637765e-03 -1.999699522468140e-18
 1.099906217207393e-01 -1.436361195917798e-03 -1.942656225584312e-18
 1.080422862855044e-01  2.066069636292665e-02 -2.135022511642869e-18
 1.099236085552781e-01 -4.098814729397864e-03 -1.914107903505553e-18
 1.099308143054159e-01  3.900777633765395e-03 -1.996429043932649e-18
 1.099308143054159e-01  3.900777633765395e-03 -1.996429043932649e-18
 1.034598968224911e-01  3.736374913575210e-02 -2.225091224575277e-18
 1.070618727098967e-01 -2.525381974770973e-02 -1.645819908980901e-18
 1.070618727098967e-01 -2.525381974770973e-02 -1.645819908980901e-18
 1.070618727098967e-01 -2.525381974770973e-02 -1.645819908980901e-18
 1.097781661119187e-01  6.982424013471391e-03 -2.025375284321369e-18
 1.090696428658978e-01  1.427630922561674e-02 -2.087708288895912e-18
 1.099697125439886e-01  2.581147611516271e-03 -1.983562565392838e-18
 1.099919474032977e-01  1.330979500265442e-03 -1.971113238044210e-18
 1.099676002189540e-01 -2.669625832252489e-03 -1.929575184370483e-18
 1.099937004507864e-01  1.177226037170199e-03 -1.969564674636321e-18
 1.099937004507864e-01  1.177226037170199e-03 -1.969564674636321e-18
 1.099991712979372e-01  4.269821623976543e-04 -1.961953551616117e-18
 1.099993665060419e-01 -3.733205986451565e-04 -1.953734205434617e-18
 1.099996947988001e-01  2.591219225754253e-04 -1.960238164953085e-18
 1.099996947988001e-01  2.591219225754253e-04 -1.960238164953085e-18
 1.099996696911619e-01  2.695697223637640e-04 -1.960345065480151e-18
 1.099995375200642e-01  3.189755036461748e-04 -1.960850339792776e-18
 1.099995135151548e-01  3.271489404185835e-04 -1.960933891690439e-18
 1.099995102177150e-01  3.282557885651372e-04 -1.960945205471185e-18
 1.099987112103171e-01  5.324772945174222e-04 -1.963029287967269e-18
 1.099996330772967e-01  2.841176869333487e-04 -1.960493888943838e-18
 1.099991879975359e-01  4.226581156032141e-04 -1.961909420795386e-18
 1.099996685040613e-01  2.700536919875544e-04 -1.960350016966352e-18
 1.099993995427565e-01  3.634559573960431e-04 -1.961304904825800e-18
 1.099999653443555e-01  8.731689715807892e-05 -1.958477745409656e-18
 1.099995280643993e-01  3.222198152754980e-04 -1.960883505641366e-18
 1.099993793261467e-01  3.695238320005856e-04 -1.961366890254392e-18
 1.099993793261467e-01  3.695238320005856e-04 -1.961366890254392e-18
 1.099994105369130e-01  3.601132205038437e-04 -1.961270755072686e-18
 1.099994105369130e-01  3.601132205038437e-04 -1.961270755072686e-18
 1.099999808582556e-01 -6.489363074722233e-05 -1.956914113617528e-18
 1.099999808582556e-01 -6.489363074722233e-05 -1.956914113617528e-18
 1.099949894033760e-01  1.049907686954443e-03 -1.968279463287825e-18
 1.099660099584407e-01  2.734347055520769e-03 -1.985070742100572e-18
 1.099996434705481e-01  2.800649071861519e-04 -1.960452433064501e-18
 1.097134687581403e-01 -7.934404392044752e-03 -1.870958924728148e-18
 1.099973359346308e-01  7.655633768027956e-04 -1.965399688117907e-18
 1.099973746705577e-01  7.599773581294870e-04 -1.965342983157306e-18
 1.099999937547187e-01  3.706699018942576e-05 -1.957961951466214e-18
 1.099999937547187e-01  3.706699018942576e-05 -1.957961951466214e-18
 1.099999035780670e-01  1.456462010429539e-04 -1.959075958612924e-18
 1.099970275743678e-01 -8.086561714853804e-04 -1.949219666489544e-18
 1.099985716640829e-01  5.605638782120523e-04 -1.963315384019982e-18
 1.099988857858304e-01 -4.951018842247151e-04 -1.952474391975361e-18
 1.099967115318138e-01  8.505599255018524e-04 -1.966261884786028e-18
 1.099997568076657e-01 -2.313055432199360e-04 -1.955200304422061e-18
 1.097289907624117e-01 -7.716773047232301e-03 -1.873471240318171e-18
 1.099998926706813e-01 -1.536633935461091e-04 -1.956000467149208e-18
 1.099920441701980e-01  1.322958525857993e-03 -1.971032547528384e-18
 1.099993022521706e-01 -3.917959105712540e-04 -1.953543234841844e-18
 1.099993022521706e-01 -3.917959105712540e-04 -1.953543234841844e-18
 1.099994018136391e-01  3.627680271262991e-04 -1.961297877005250e-18
 1.099921372884526e-01 -1.315193794892495e-03 -1.943928147948482e-18
 1.099800003582799e-01  2.097503562017481e-03 -1.978776382405369e-18
 1.099453702813331e-01 -3.466345871446125e-03 -1.920993567136610e-18
 1.099929898136673e-01  1.241850172284535e-03 -1.970216017513305e-18
 1.098696498899780e-01 -5.353506612827446e-03 -1.900256141383802e-18
 1.099733392516551e-01  2.421704738465673e-03 -1.981988889382302e-18
 1.099470053830572e-01 -3.414089526934205e-03 -1.921559580678832e-18
 1.099814659341879e-01  2.019195623751600e-03 -1.977997878458212e-18
 1.072856500388193e-01 -2.428557793728441e-02 -1.659750626347863e-18
 1.099114887264084e-01  4.411875558593709e-03 -2.001336467712157e-18
 1.099597885834525e-01 -2.974036765468793e-03 -1.926308455243677e-18
 1.099710722007754e-01  2.522554065182084e-03 -1.982984734703994e-18
 1.099266746018533e-01 -4.015745382637224e-03 -1.915015974822918e-18
 1.089082534934589e-01  1.545937647527934e-02 -2.096991758716890e-18
 1.099222024402485e-01 -4.136352340523887e-03 -1.913697194693349e-18
 1.099378455006825e-01  3.697313439242228e-03 -1.994463651753535e-18
 1.097915006838234e-01 -6.769518268971117e-03 -1.884316377670251e-18
 1.099616355054198e-01  2.904946982842991e-03 -1.986745745770182e-18
 1.099510381035361e-01 -3.281648968838035e-03 -1.922992126372724e-18
 1.097679430703382e-01  7.141335596855459e-03 -2.026826111893189e-18
 1.099868084909321e-01 -1.703513422000293e-03 -1.939843472537084e-18
 1.099363286953317e-01  3.742142834249979e-03 -1.994897264141471e-18
 1.010556575466207e-01 -4.344829200118270e-02 -1.351990552805329e-18
 1.099717268935487e-01  2.493849243771806e-03 -1.982701454130491e-18
 1.099977162793532e-01  7.088112067602460e-04 -1.964823348875191e-18
 1.099977162793532e-01  7.088112067602460e-04 -1.964823348875191e-18
 1.099977803396209e-01 -6.987992246945429e-04 -1.950361803065538e-18
 1.099995915413928e-01 -2.997677879176751e-04 -1.954493938617706e-18
 1.088870661113416e-01  1.560790933034422e-02 -2.098140825106935e-18
 1.099997354954162e-01  2.412279801499939e-04 -1.960055035439849e-18
 1.099995307663111e-01  3.212961115602519e-04 -1.960874063004990e-18
 1.099985817734883e-01  5.585766027508880e-04 -1.963295145395466e-18
 1.099985817734883e-01  5.585766027508880e-04 -1.963295145395466e-18
 1.099606197444117e-01  2.943145498414107e-03 -1.987120144962463e-18
 1.099967949331640e-01  8.397049668761715e-04 -1.966151838255956e-18
 1.099950628064390e-01  1.042189141883939e-03 -1.968201464336217e-18
 1.099967949331639e-01  8.397049668863740e-04 -1.966151838256060e-18
 1.099999999318563e-01  3.871890830999739e-06 -1.957620993808669e-18
 1.099738268483689e-01  2.399460006941298e-03 -1.981769010211914e-18
 1.099999948387740e-01  3.369672994043490e-05 -1.957927342558533e-18
 1.099854536632919e-01  1.788849484945646e-03 -1.975702121956295e-18
 1.099609784325364e-01 -2.929713665049479e-03 -1.926785033782921e-18
 1.099627877582236e-01  2.860997804926307e-03 -1.986314689645671e-18
 1.099993021319059e-01  3.918296742257274e-04 -1.961594700916584e-18
 1.099640934334578e-01  2.810365698211986e-03 -1.985817699190637e-18
 1.099993858127421e-01 -3.675878390817598e-04 -1.953793451042341e-18
 1.099720783518108e-01  2.478302439797557e-03 -1.982547970986375e-18
 1.099947379267255e-01 -1.075931424812521e-03 -1.946432763344088e-18
 1.099209661458904e-01  4.169076822742555e-03 -1.999010460887891e-18
 1.099957393812277e-01 -9.681518356979000e-04 -1.947557981546438e-18
 1.099492145897391e-01  3.342186574599077e-03 -1.991017178728077e-18
 1.099980674227731e-01 -6.520454393488098e-04 -1.950847290212790e-18
 1.099830470589016e-01  1.931155001383495e-03 -1.977121431046336e-18
 1.098918405774139e-01 -4.876820122598770e-03 -1.905548831657244e-18
 1.091153962241326e-01  1.392229531544564e-02 -2.084885160158416e-18
 1.099105166380623e-01  4.436026640378840e-03 -2.001567311832432e-18
 1.095908057590500e-01 -9.479203188142625e-03 -1.852903743892993e-18
 1.099102324816531e-01 -4.443061537823575e-03 -1.910332849418299e-18
 1.096530607978456e-01  8.729619560090249e-03 -2.041100685561683e-18
 1.097221662132476e-01  7.813209422024450e-03 -2.032914717597688e-18
 1.099730532311564e-01 -2.434658706508270e-03 -1.932086429087387e-18
 1.099925162304674e-01 -1.283110786446611e-03 -1.944264532930595e-18
 1.099808343626564e-01  2.053307793260011e-03 -1.978337129039163e-18
 1.099808343626564e-01  2.053307793260011e-03 -1.978337129039163e-18
 1.098269182774829e-01 -6.168307845027172e-03 -1.891123894700503e-18
 1.097482728792756e-01  7.437513026273175e-03 -2.029519172874243e-18
 1.098670138900876e-01  5.407333804679532e-03 -2.010772956805302e-18
 1.091241765516250e-01 -1.385330617324658e-02 -1.799657201346146e-18
 1.099704351878757e-01  2.550173442956985e-03 -1.983257177372892e-18
 1.099989123421871e-01  4.891661637654493e-04 -1.962587861214033e-18
 1.096916589335025e-01  8.230428932691705e-03 -2.036658583072398e-18
-1.801112210621875e-02 -1.085154342961167e-01  1.435486069158773e-18
 1.099995276621489e-01  3.223571064316220e-04 -1.960884909099595e-18
 1.099953024739682e-01 -1.016579391969020e-03 -1.947052630712255e-18
 1.099998047597653e-01 -2.072506054454359e-04 -1.955448313534031e-18
 1.099995945875604e-01 -2.986479068859463e-04 -1.954505499198671e-18
 1.099995945875604e-01 -2.986479068859463e-04 -1.954505499198671e-18
 9.244728527931032e-02 -5.961123589127929e-02 -1.032725922935569e-18
 1.099990651668052e-01  4.535001972069473e-04 -1.962224126060447e-18
 1.099697086420574e-01  2.581313847819115e-03 -1.983564203970938e-18
 1.099918910901264e-01 -1.335625103728952e-03 -1.943713842279407e-18
 1.099702379520802e-01 -2.558664644455459e-03 -1.930762211873449e-18
 1.099959232207193e-01 -9.470347520291973e-04 -1.947778223552946e-18
 1.099946750279372e-01 -1.082342597522922e-03 -1.946365771514518e-18
 1.099946750279372e-01 -1.082342597522922e-03 -1.946365771514518e-18
 1.099942675352476e-01 -1.122991266355652e-03 -1.945940869390276e-18
 1.099940582653147e-01 -1.143305001506281e-03 -1.945728428932922e-18
 1.099939068936539e-01 -1.157776433567772e-03 -1.945577046386280e-18
 1.099947472300858e-01 -1.074979901888296e-03 -1.946442705460866e-18
 1.099959975454635e-01 -9.383623917825484e-04 -1.947868651601541e-18
 1.099955662547241e-01 -9.876255882330660e-04 -1.947354814820753e-18
 1.099941542224179e-01 -1.134035667369759e-03 -1.945825375645004e-18
 1.099941542224179e-01 -1.134035667369759e-03 -1.945825375645004e-18
 1.099896523525290e-01 -1.508766174642224e-03 -1.941895039666971e-18
 1.099993670446014e-01 -3.731618777168991e-04 -1.953735845818804e-18
 1.099985173332556e-01 -5.711256301289462e-04 -1.951686718550376e-18
 1.091903615775180e-01 -1.332159669749851e-02 -1.806298164538714e-18
 1.099998363796547e-01 -1.897273019768634e-04 -1.955628921825106e-18
 1.099998363796547e-01 -1.897273019768634e-04 -1.955628921825106e-18
 1.099999983562349e-01  1.901652534653488e-05 -1.957776571386641e-18
 1.099984457576894e-01  5.847485721177783e-04 -1.963561632309796e-18
 1.099580792958141e-01 -3.036576621027628e-03 -1.925635462134317e-18
 1.099981124048915e-01  6.444124151410298e-04 -1.964168724212013e-18
 1.099675951321379e-01  2.669835360864901e-03 -1.984436117930044e-18
 1.099661192924241e-01 -2.729946476452038e-03 -1.928929056809985e-18
 1.099890723197166e-01 -1.550474201036157e-03 -1.941456182471323e-18
 1.099999835374319e-01  6.018109876665405e-05 -1.958199258706341e-18
 1.099999835374319e-01  6.018109876665405e-05 -1.958199258706341e-18
 1.099999835374319e-01  6.018109876665405e-05 -1.958199258706341e-18
 1.099999991734831e-01 -1.348457079706882e-05 -1.957442648974391e-18
 1.099990265085451e-01 -4.627819922059992e-04 -1.952808971453528e-18
 1.099997353179408e-01  2.413088951958791e-04 -1.960055863654166e-18
 1.099920063169790e-01  1.326101943891155e-03 -1.971064171363575e-18
 1.099594937198111e-01 -2.984918907230580e-03 -1.926191397740022e-18
 1.099996260776698e-01  2.868148753694325e-04 -1.960521477008499e-18
 1.099998501128501e-01 -1.815906121697447e-04 -1.955712767755641e-18
 1.099996177375249e-01  2.899958591581872e-04 -1.960554012038539e-18
 1.099999887534492e-01 -4.974174281788915e-05 -1.957069934266140e-18
 1.099999887534492e-01 -4.974174281788915e-05 -1.957069934266140e-18
 1.099994536055573e-01  3.467080598523638e-04 -1.961133788374602e-18
 1.099909133753447e-01 -1.413851073260795e-03 -1.942892699258927e-18
 1.099996743459404e-01 -2.676635705010178e-04 -1.954825271394815e-18
 1.099516824462493e-01  3.259988840330553e-03 -1.990216545318923e-18
 1.099175791531525e-01  4.257439736552751e-03 -1.999858082151644e-18
-4.185741306174302e-02 -1.017249083154099e-01  1.790089073950218e-18
 1.099431786248201e-01  3.535176639269237e-03 -1.992892664339090e-18
 1.094337343199598e-01  1.114709795365484e-02 -2.062036221558631e-18
 1.099625082359597e-01 -2.871721166206864e-03 -1.927408110318241e-18
 1.099787811798857e-01 -2.160483785344084e-03 -1.935005412482615e-18
 1.098061950954942e-01  6.526830674239172e-03 -2.021193037461714e-18
 1.099987494895958e-01 -5.245099856582206e-04 -1.952169808862182e-18
 1.099987494895958e-01 -5.245099856582206e-04 -1.952169808862182e-18
 1.099991107599207e-01 -4.423030936031823e-04 -1.953020884051001e-18
 1.099995588656379e-01  3.115274706924040e-04 -1.960774193829778e-18
 1.099995588656379e-01  3.115274706924040e-04 -1.960774193829778e-18
 1.099998440823562e-01  1.852076058487293e-04 -1.959481378878631e-18
 1.099996465964644e-01 -2.788344542265557e-04 -1.954710000787571e-18
 1.099977743024062e-01  6.997488955434206e-04 -1.964731269508957e-18
 1.099979914944774e-01  6.647309085635220e-04 -1.964375337605755e-18
 1.099997918450444e-01  2.139954364639802e-04 -1.959776233755131e-18
 1.099997918450444e-01  2.139954364639802e-04 -1.959776233755131e-18
 1.099994782780660e-01  3.387898363433669e-04 -1.961052870581234e-18
 1.099976538988524e-01  7.184265781617925e-04 -1.964921033187928e-18
 1.099997706649002e-01  2.246189424205626e-04 -1.959885009493689e-18
 1.099857375231744e-01  1.771310668212957e-03 -1.975526968610926e-18
 1.099996151319746e-01  2.909825035925295e-04 -1.960564103082806e-18
 1.099981077518983e-01  6.452061699081444e-04 -1.964176796948333e-18
 1.099981077518983e-01  6.452061699081444e-04 -1.964176796948333e-18
 1.099981077518983e-01  6.452061699081444e-04 -1.964176796948333e-18
 1.099705438475623e-01 -2.545483425857315e-03 -1.930903087881173e-18
 1.099702730565557e-01  2.557155424788331e-03 -1.983326029379617e-18
 1.099898822562783e-01  1.491911944445755e-03 -1.972730008691394e-18
 1.099978556760358e-01 -6.868381715677390e-04 -1.950486039242674e-18
 1.099520378134960e-01 -3.247981012795009e-03 -1.923355843421692e-18
 1.099684759458971e-01  2.633305553211761e-03 -1.984076462558162e-18
 1.099997559211190e-01  2.317267661838898e-04 -1.959957777417614e-18
 1.099995196838361e-01  3.250681855894874e-04 -1.960912622469491e-18
 1.099995196838361e-01  3.250681855894874e-04 -1.960912622469491e-18
 1.099999983259584e-01  1.919085904586522e-05 -1.957778362063264e-18
 1.099994861228224e-01  3.362331258608345e-04 -1.961026740916604e-18
 1.099835845272044e-01 -1.900298541600674e-03 -1.937764202639385e-18
 1.098840905272079e-01  5.048430350942019e-03 -2.007389253324830e-18
 1.099878427596200e-01  1.635373072128788e-03 -1.974167724387173e-18
-4.168623339174297e-02 -1.017951764358658e-01  1.787764706943348e-18
 1.098478152550867e-01  5.784244435037220e-03 -2.014303914000560e-18
 1.099426034318680e-01  3.553019929993308e-03 -1.993065761424626e-18
 1.099852340093480e-01 -1.802304055616910e-03 -1.938800414886589e-18
 1.098790890903095e-01 -5.156140095436386e-03 -1.902451992481759e-18
 1.099342098099507e-01  3.803881367979289e-03 -1.995493897054843e-18
 1.099342098099507e-01  3.803881367979289e-03 -1.995493897054843e-18
 1.099741101301004e-01 -2.386441093445943e-03 -1.932600656322943e-18
 1.094936781404759e-01 -1.054203240697883e-02 -1.840255057934409e-18
 1.082060976787806e-01  1.978485342705698e-02 -2.128938762790186e-18
 1.098895960553931e-01  4.927136976221764e-03 -2.006240985403287e-18
 1.098805233528409e-01 -5.125484143541990e-03 -1.902792495663641e-18
 1.099994263811515e-01  3.552405066439062e-04 -1.961220971675015e-18
 1.098473871640800e-01  5.792368533220058e-03 -2.014379767768025e-18
 1.099976180369869e-01  7.238965320045622e-04 -1.964976596771911e-18
 1.099976180369869e-01  7.238965320045622e-04 -1.964976596771911e-18
 1.099980728695707e-01  6.511259329283596e-04 -1.964236999590257e-18
 1.099875318122253e-01  1.656153934465585e-03 -1.974375706518791e-18
 1.099875318122253e-01  1.656153934465585e-03 -1.974375706518791e-18
 1.099875318122253e-01  1.656153934465585e-03 -1.974375706518791e-18
 1.099875318122253e-01  1.656153934465585e-03 -1.974375706518791e-18
 1.099868351431856e-01  1.701791757424084e-03 -1.974832220514194e-18
 1.099867400187912e-01  1.707928581280967e-03 -1.974893581297925e-18
 1.099867400187912e-01  1.707928581280967e-03 -1.974893581297925e-18
 1.099919210501202e-01  1.333155543838295e-03 -1.971135127115198e-18
 1.099919210501202e-01  1.333155543838295e-03 -1.971135127115198e-18
 1.099996700933682e-01 -2.694055494457543e-04 -1.954807297514374e-18
 1.099996700933682e-01 -2.694055494457543e-04 -1.954807297514374e-18
 1.097253164980855e-01  7.768842860742211e-03 -2.032514930374104e-18
 1.099963339108770e-01  8.980680190198268e-04 -1.966743292973579e-18
 1.099963339108770e-01  8.980680190198268e-04 -1.966743292973579e-18
 1.099963339108770e-01  8.980680190198268e-04 -1.966743292973579e-18
 1.099558210376273e-01  3.117277649041320e-03 -1.988823890841587e-18
 1.099936726075232e-01  1.179824694146532e-03 -1.969590879388655e-18
 1.099949749567393e-01  1.051420118800675e-03 -1.968294745880489e-18
 1.099440489375620e-01 -3.508005589346897e-03 -1.920542013780404e-18
 1.095161696880700e-01  1.030575455043346e-02 -2.054858759434549e-18
 1.099982336873012e-01  6.233664041234767e-04 -1.963954642459375e-18
 1.099670626541508e-01  2.691678141604822e-03 -1.984651068486345e-18
 1.052169818396929e-01 -3.208405729557372e-02 -1.542809665706065e-18
 1.098804386462624e-01  5.127299767410595e-03 -2.008134618350492e-18
 1.099977488580794e-01 -7.037372768319220e-04 -1.950310506122097e-18
 1.099965038297439e-01  8.770092548412788e-04 -1.966529945730613e-18
 1.099917687771591e-01 -1.345660162108175e-03 -1.943608558994859e-18
 1.099997514624702e-01 -2.338336902796386e-04 -1.955174233505296e-18
 1.099997514624702e-01 -2.338336902796386e-04 -1.955174233505296e-18
 1.099974967184168e-01 -7.421022044266463e-04 -1.949911833301884e-18
 1.099993552843951e-01 -3.766125560108895e-04 -1.953700182065966e-18
 1.099960307474421e-01 -9.344623094040496e-04 -1.947909314400005e-18
 1.099989134054796e-01 -4.889270024495650e-04 -1.952538328167046e-18
 1.099961849650298e-01 -9.161294334802168e-04 -1.948100422526241e-18
 1.099961849650298e-01 -9.161294334802168e-04 -1.948100422526241e-18
 1.099982341347564e-01 -6.232874419027280e-04 -1.951145735028192e-18
 1.099059564983326e-01 -4.547606643780882e-03 -1.909182590209072e-18
 1.099958666361393e-01  9.535842724075142e-04 -1.967305386598324e-18
 1.099774414159105e-01 -2.227639919263868e-03 -1.934291564904426e-18
 1.099993422397489e-01  3.804034996178460e-04 -1.961478014890199e-18
 1.099936738736962e-01  1.179706644434641e-03 -1.969589689003807e-18
 1.099936738736962e-01  1.179706644434641e-03 -1.969589689003807e-18
 1.099981829235023e-01  6.322606485343169e-04 -1.964045124187316e-18
 1.099981829235023e-01  6.322606485343169e-04 -1.964045124187316e-18
 1.099205620044209e-01  4.179718726448945e-03 -1.999112610403046e-18
 1.099205620044209e-01  4.179718726448945e-03 -1.999112610403046e-18
 5.218771700128057e-02 -9.683203082758418e-02  6.617126464209723e-20
 1.099957804746097e-01 -9.634717335894755e-04 -1.947606799201208e-18
 1.099475974440355e-01  3.394969261170510e-03 -1.991530722621358e-18
 1.099903271360159e-01 -1.458744841355313e-03 -1.942420999272232e-18
 1.099903271360159e-01 -1.458744841355313e-03 -1.942420999272232e-18
 1.090412817651811e-01 -1.449133779215538e-02 -1.791626446635274e-18
 1.099948092055420e-01  1.068619593857941e-03 -1.968468514498353e-18
 1.099889855087709e-01  1.556620297746906e-03 -1.973378904823294e-18
 1.099999991270082e-01 -1.385850476151444e-05 -1.957438806111671e-18
 1.099999991270082e-01 -1.385850476151444e-05 -1.957438806111671e-18
 1.099995903648423e-01 -3.001992119434627e-04 -1.954489484954446e-18
 1.099982808640918e-01 -6.149853204384336e-04 -1.951231867914577e-18
 1.099979492780923e-01  6.716804405434182e-04 -1.964445990231351e-18
 1.099753420940145e-01  2.328976449954917e-03 -1.981071782872256e-18
 1.099374477192415e-01 -3.709122400108655e-03 -1.918358135055589e-18
 1.099892786780886e-01  1.535765566003289e-03 -1.973169847328272e-18
 1.098534072028347e-01 -5.677052574016802e-03 -1.896642766174894e-18
 9.923885131614382e-02  4.745155834587794e-02 -2.253621259765550e-18
 1.098832180208304e-01 -5.067385655997742e-03 -1.903437391348825e-18
 1.099646677772800e-01  2.787802115000796e-03 -1.985596087703266e-18
 1.095292313798918e-01 -1.016599593399889e-02 -1.844751408395812e-18
 1.097312694241136e-01  7.684302868351033e-03 -2.031752252082829e-18
 1.099866217520886e-01 -1.715527779705810e-03 -1.939716706135663e-18
 1.096477447541145e-01  8.796139513247833e-03 -2.041689548576177e-18
 1.099517165638531e-01 -3.258837931238716e-03 -1.923238575508096e-18
 1.098856883129232e-01  5.013532087767101e-03 -2.007059120850961e-18
 1.098904684881558e-01 -4.907640517966668e-03 -1.905207745325975e-18
 1.097907607805822e-01  6.781507739502688e-03 -2.023535079745816e-18
 1.098353973445579e-01 -6.015437653491814e-03 -1.892845475497953e-18
 1.098626343594228e-01  5.495595655408848e-03 -2.011601876286263e-18
 1.099098279544311e-01 -4.453057267463748e-03 -1.910222947882956e-18
 1.098916703784027e-01  4.880653792726308e-03 -2.005800302631181e-18
 1.099463738392186e-01 -3.434367424538245e-03 -1.921339993571394e-18
 1.097088082244800e-01  7.998587248023084e-03 -2.034581686073251e-18
 1.094477764516576e-01 -1.100837089618365e-02 -1.834646724059246e-18
 1.099702534843038e-01  2.557996989429471e-03 -1.983334327839021e-18
 1.099352705628994e-01 -3.773100351447017e-03 -1.917662039752833e-18
 1.089126491524228e-01  1.542837822330089e-02 -2.096751488933184e-18
 1.099258840110463e-01 -4.037328868194757e-03 -1.914780142843016e-18
 1.099999977482448e-01 -2.225727072343178e-05 -1.957352487305704e-18
 1.099989701111344e-01  4.759984135777321e-04 -1.962453595431648e-18
 1.099784142373636e-01  2.179082796686568e-03 -1.979586352492490e-18
 1.099987154433920e-01 -5.316021102497258e-04 -1.952096333965562e-18
 1.099422869317175e-01  3.562800053870132e-03 -1.993160616146908e-18
 1.099636441612963e-01 -2.827890161899928e-03 -1.927878673111290e-18
 1.099997819402750e-01  2.190276053971587e-04 -1.959827761195689e-18
 1.098721879548555e-01  5.301161572038482e-03 -2.009774154338649e-18
 1.099882878291132e-01  1.605160558983844e-03 -1.973865222332482e-18
 1.099991040173244e-01 -4.439767852214824e-04 -1.953003567485082e-18
 1.099972316644780e-01  7.804012757001433e-04 -1.965550286527146e-18
 1.099873191238947e-01  1.670219128890233e-03 -1.974516436239474e-18
 1.099701630249813e-01  2.561882951854387e-03 -1.983372644859730e-18
 8.474656794377759e-02 -7.012859061574425e-02 -7.876204730623457e-19
 1.099903940485664e-01  1.453690834070314e-03 -1.972346408621180e-18
 1.099177419775900e-01  4.253233892922899e-03 -1.999817766291300e-18
 1.099996700437132e-01  2.694258231439166e-04 -1.960343593242015e-18
 1.089893089514930e-01 -1.487718166441375e-02 -1.786737122798883e-18
 1.099867696890081e-01  1.706016816169302e-03 -1.974874466622793e-18
 1.099216891680714e-01  4.149969932163743e-03 -1.998827011570342e-18
 1.099980651728826e-01 -6.524248786160698e-04 -1.950843351572672e-18
 1.098029862467419e-01 -6.580593536891022e-03 -1.886461909954024e-18
 1.099994626542335e-01  3.438252170096080e-04 -1.961104329243634e-18
 1.099994626542335e-01  3.438252170096080e-04 -1.961104329243634e-18
 1.099933873369781e-01  1.206126915986950e-03 -1.969856048433585e-18
 1.099971268718410e-01  7.950345527596115e-04 -1.965698773223103e-18
 1.099999801335644e-01  6.611062996951467e-05 -1.958260121909540e-18
 1.098934411131522e-01 -4.840619827060392e-03 -1.905949259986019e-18
 1.094710983450559e-01  1.077397916867613e-02 -2.058867498982379e-18
 1.099229113779561e-01 -4.117469391991509e-03 -1.913903826522041e-18
 1.099938330284280e-01  1.164772816590790e-03 -1.969439081696043e-18
 1.098872354540833e-01 -4.979506427229977e-03 -1.904411813517303e-18
 1.086991295704789e-01  1.686710498633920e-02 -2.107734048118992e-18
 1.090874658966371e-01 -1.413947609531583e-02 -1.796063599458680e-18
 1.099641400318582e-01  2.808541802047722e-03 -1.985799788594238e-18
 1.097760263557406e-01 -7.015984431546902e-03 -1.881508643257222e-18
 1.098952688726356e-01  4.798945656192337e-03 -2.005024820707841e-18
 1.097613774671086e-01 -7.241547936930925e-03 -1.878930365733148e-18
 1.096486658674463e-01  8.784649878570697e-03 -2.041587889064209e-18
 1.098278274514793e-01 -6.152098608446009e-03 -1.891306618553792e-18
 1.096826506449658e-01  8.349619601774763e-03 -2.037722910658675e-18
 1.091151151899395e-01 -1.392449773191886e-02 -1.798764476202671e-18
 1.098584188112161e-01  5.579230798184659e-03 -2.012386176287199e-18
 1.099168532931524e-01 -4.276138694146977e-03 -1.912165746236993e-18
 1.099801365229053e-01  2.090351741474769e-03 -1.978705323259277e-18
 1.098337319972920e-01 -6.045768400047437e-03 -1.892504201254292e-18
 1.097649785008153e-01  7.186758289766356e-03 -2.027240055511155e-18
 1.097102310697474e-01 -7.979047475895205e-03 -1.870442614732137e-18
 1.099680834608830e-01  2.649645247998454e-03 -1.984237362247350e-18
 1.099446170072961e-01 -3.490156317265141e-03 -1.920735518045448e-18
 1.093157288427451e-01  1.225036438557624e-02 -2.071271835132372e-18
 1.097368179692702e-01 -7.604655283392188e-03 -1.874762504095123e-18
 1.099152978507296e-01  4.315935400973115e-03 -2.000418505355906e-18
 1.099733980038656e-01 -2.419035238133824e-03 -1.932253090190995e-18
 1.099764646417525e-01  2.275351599495554e-03 -1.980540784090184e-18
 1.099340147530464e-01 -3.809514441099761e-03 -1.917265549575533e-18
 1.099992149888942e-01 -4.155740932551514e-04 -1.953297369698607e-18
 1.099699515023636e-01 -2.570946628729533e-03 -1.930630921232329e-18
 1.099699515023636e-01 -2.570946628729533e-03 -1.930630921232329e-18
 1.099410419235808e-01  3.601013851319657e-03 -1.993531092628829e-18
 1.099938161975950e-01  1.166361131746326e-03 -1.969455101532528e-18
 1.066951394427380e-01 -2.676092710080621e-02 -1.623808472472529e-18
 1.099705796391012e-01  2.543936681613047e-03 -1.983195667597587e-18
 1.099999988815543e-01 -1.568623655456088e-05 -1.957420022463313e-18
 1.099882345103635e-01  1.608809899662349e-03 -1.973901769111501e-18
 1.099999971884840e-01 -2.487033328386688e-05 -1.957325629075535e-18
 1.099964488989130e-01 -8.838719527157389e-04 -1.948436553441159e-18
 1.099806735012041e-01 -2.061905968157605e-03 -1.936051939858801e-18
 1.091884417203300e-01  1.333732337037876e-02 -2.080174717663110e-18
 1.099645211321083e-01  2.793580531517461e-03 -1.985652849108086e-18
 1.098489696329427e-01 -5.762279981118844e-03 -1.895688113678051e-18
 1.095404104859171e-01 -1.004482307344123e-02 -1.846195361046043e-18
 1.097377441672876e-01  7.591278224047857e-03 -2.030911683433944e-18
 1.099795870122774e-01  2.119065975578181e-03 -1.978990572386527e-18
 1.099902160884302e-01  1.467094005305375e-03 -1.972480954323729e-18
 1.099902160884302e-01  1.467094005305375e-03 -1.972480954323729e-18
 1.099902160884302e-01  1.467094005305375e-03 -1.972480954323729e-18
 1.099223654651750e-01  4.132017732353023e-03 -1.998654594752483e-18
-1.610794813411868e-02 -1.088142178527628e-01  1.404686710642168e-18
 1.099971759183890e-01  7.882194992236620e-04 -1.965629623865561e-18
 1.099980086476079e-01  6.618863654387698e-04 -1.964346416218907e-18
 1.099959285384020e-01 -9.464169138027857e-04 -1.947784666250786e-18
 1.099984476125846e-01 -5.843995392194987e-04 -1.951549093193997e-18
 1.099984476125846e-01 -5.843995392194987e-04 -1.951549093193997e-18
 1.099984476125846e-01 -5.843995392194987e-04 -1.951549093193997e-18
 1.099984476125846e-01 -5.843995392194987e-04 -1.951549093193997e-18
 1.099949458720404e-01 -1.054458442459914e-03 -1.946657091072164e-18
 1.099770593987736e-01 -2.246420708279874e-03 -1.934091800669174e-18
 1.099963571228050e-01  8.952204825136035e-04 -1.966714448654353e-18
 1.099990530224666e-01 -4.564363707364718e-04 -1.952874642255805e-18
 1.099705601134225e-01 -2.544780607458353e-03 -1.930910598555293e-18
 1.099468361707109e-01 -3.419534478672821e-03 -1.921500624442167e-18
 1.098460692594937e-01  5.817307645163129e-03 -2.014612554399406e-18
 1.099927873746379e-01 -1.259652951275347e-03 -1.944510378999364e-18
 1.099983462600986e-01 -6.031749691648949e-04 -1.951354378783498e-18
 1.099983462600986e-01 -6.031749691648949e-04 -1.951354378783498e-18
 1.099794638885451e-01 -2.125446491486201e-03 -1.935377557563913e-18
 1.099992773346388e-01  3.987303063422748e-04 -1.961665161107830e-18
 1.098875256419027e-01 -4.973098460732090e-03 -1.904482817283633e-18
 1.078945141735538e-01  2.141900584183954e-02 -2.140184085065406e-18
 1.093851383578110e-01 -1.161428028086565e-02 -1.827306505643790e-18
 1.098441795080543e-01  5.852882042406246e-03 -2.014944438026874e-18
 1.099226591912489e-01 -4.124196445915048e-03 -1.913830220523451e-18
 1.097660588787000e-01  7.170238366869279e-03 -2.027089545917784e-18
 1.099467439947675e-01 -3.422496888096427e-03 -1.921468546380634e-18
 1.099644807648610e-01  2.795169067244278e-03 -1.985668452352292e-18
 1.020250507401302e-01 -4.112042097880117e-02 -1.393160090123798e-18
 1.098149969516396e-01  6.377024738179343e-03 -2.019810475418259e-18
 1.099995903559917e-01 -3.002024549791439e-04 -1.954489451475925e-18
 1.099909196857155e-01  1.413360071051658e-03 -1.971941379022250e-18
 1.099992910402916e-01  3.949311752385516e-04 -1.961626370324297e-18
 1.099992910402916e-01  3.949311752385516e-04 -1.961626370324297e-18
 1.099879641722166e-01  1.627186913407661e-03 -1.974085775262095e-18
 1.099999259973629e-01  1.275953551166497e-04 -1.958890891706501e-18
 1.099837392203053e-01  1.891324171008875e-03 -1.976724501571459e-18
 1.099999052193477e-01 -1.444012966363867e-04 -1.956095855148789e-18
 1.099821236277266e-01  1.983048747616233e-03 -1.977638186878094e-18
 1.099999986987176e-01 -1.691987260518839e-05 -1.957407344047242e-18
 1.099999986987176e-01 -1.691987260518839e-05 -1.957407344047242e-18
 1.099947752623489e-01  1.072107730278911e-03 -1.968503749773329e-18
 1.099171382009564e-01  4.268808933625756e-03 -1.999967049251149e-18
 1.099864612493387e-01 -1.725787312409314e-03 -1.939608436826240e-18
 1.099639147751842e-01 -2.817347567482753e-03 -1.927991810336037e-18
 1.099921112617826e-01  1.317368655918376e-03 -1.970976307620172e-18
 1.099257717108111e-01  4.040385350757914e-03 -1.997773723523231e-18
 1.099185290374553e-01  4.232844698552495e-03 -1.999622281395097e-18
 1.097728093177581e-01 -7.066139999115148e-03 -1.880936061992223e-18
 1.099996244741050e-01  2.874292188356628e-04 -1.960527760627092e-18
 1.099154830971385e-01 -4.311215086565344e-03 -1.911780964774651e-18
 1.097625025560836e-01  7.224474557067481e-03 -2.027583514066517e-18
 1.099936704442801e-01 -1.180026353551567e-03 -1.945344228642554e-18
 1.099690018205978e-01  2.611252301354461e-03 -1.983859231974229e-18
 1.099119885587938e-01 -4.399405761184978e-03 -1.910812648151807e-18
 1.099343050399788e-01  3.801128171592575e-03 -1.995467303694070e-18
 1.099875162732559e-01 -1.657185578093035e-03 -1.940332070134372e-18
 1.099882113225449e-01  1.610394382496792e-03 -1.973917636442136e-18
 1.099988301562632e-01  5.073108056574367e-04 -1.962772828221492e-18
 1.099874971159858e-01  1.658456559873413e-03 -1.974398747697408e-18
 1.099874971159858e-01  1.658456559873413e-03 -1.974398747697408e-18
 6.927245363044075e-02 -8.544780376357490e-02 -3.548408006034833e-19
 1.099995511386068e-01 -3.142440214108377e-04 -1.954344481561595e-18
 1.099995511386068e-01 -3.142440214108377e-04 -1.954344481561595e-18
 1.099972197640782e-01 -7.820768332114583e-04 -1.949496179779942e-18
 1.099965680132324e-01 -8.689219241603768e-04 -1.948592279335047e-18
 1.099956267463152e-01 -9.808652737643641e-04 -1.947425351116111e-18
 1.099812198504598e-01  2.032555092683712e-03 -1.978130762794894e-18
 1.099782499102305e-01 -2.187360665929053e-03 -1.934719807720970e-18
 1.099998985538250e-01 -1.493925974723807e-04 -1.956044452724967e-18
 1.099958530035406e-01 -9.551554970051180e-04 -1.947693536249900e-18
 1.099926114178581e-01  1.274924891915363e-03 -1.970549114237620e-18
 1.099524293138682e-01 -3.234700601105043e-03 -1.923499262043534e-18
 1.099548915509796e-01 -3.149892698535448e-03 -1.924414450880608e-18
 1.097175705300638e-01  7.877481639485522e-03 -2.033493305619658e-18
 1.099819333374761e-01  1.993574516020979e-03 -1.977742948882747e-18
 1.015012805679747e-01 -4.239681642601540e-02 -1.370724475592501e-18
 1.099887527850966e-01  1.572978314808335e-03 -1.973542835910815e-18
 1.099995365856892e-01  3.192975627743777e-04 -1.960853632205005e-18
 1.099990373521785e-01 -4.601973424575127e-04 -1.952835720766155e-18
 1.099987843652550e-01 -5.171442410920301e-04 -1.952246109865790e-18
 1.099990373521784e-01 -4.601973424818641e-04 -1.952835720765903e-18
 1.099997896779640e-01 -2.151064937326478e-04 -1.955367328737058e-18
 1.099386431065151e-01  3.673520368563828e-03 -1.994233380942868e-18
 1.099401231735512e-01 -3.628955302062498e-03 -1.919229435766433e-18
 1.099999904074726e-01  4.593861009720329e-05 -1.958053044569723e-18
 1.099999034655968e-01  1.457311200460157e-04 -1.959076829123289e-18
 1.099996442756884e-01  2.797484977260841e-04 -1.960449196400673e-18
 1.099996442756884e-01  2.797484977260841e-04 -1.960449196400673e-18
 1.099993543659191e-01  3.768807250311352e-04 -1.961442035460709e-18
 1.099997977947170e-01 -2.109149623072064e-04 -1.955410539647093e-18
 1.099998078595938e-01  2.055987655664335e-04 -1.959690246009940e-18
 1.099984737535217e-01  5.794582778551295e-04 -1.963507774677288e-18
 1.099995108972944e-01  3.280279804723842e-04 -1.960942876919714e-18
 1.099995108972944e-01  3.280279804723842e-04 -1.960942876919714e-18
 1.099998407609640e-01  1.871698761248907e-04 -1.959501481384745e-18
 1.099995989006234e-01  2.970550486399346e-04 -1.960626207420932e-18
 1.099995989006234e-01  2.970550486399346e-04 -1.960626207420932e-18
 1.099994219486052e-01  3.566103933936484e-04 -1.961234967881279e-18
 1.099997190981935e-01  2.485926758548095e-04 -1.960130413204696e-18
 1.099997190981935e-01  2.485926758548095e-04 -1.960130413204696e-18
 1.099997190981935e-01  2.485926758548095e-04 -1.960130413204696e-18
 1.099998813472674e-01 -1.615660455160730e-04 -1.955919068757368e-18
 1.099998953166822e-01  1.517574344965721e-04 -1.959138602295425e-18
 1.099999716183144e-01 -7.901879521397780e-05 -1.956768818248124e-18
 1.099999123230361e-01  1.388845720159887e-04 -1.959006640958134e-18
 1.099999946908402e-01 -3.417623604795011e-05 -1.957229969856651e-18
 1.099999959531269e-01 -2.983809699809362e-05 -1.957274565123365e-18
 1.099999959531269e-01 -2.983809699809362e-05 -1.957274565123365e-18
 1.099987346297990e-01 -5.276171367765708e-04 -1.952137619565369e-18
 1.099998910457265e-01  1.548222473391322e-04 -1.959170016127272e-18
 1.099963539547266e-01  8.956096618858849e-04 -1.966718390951292e-18
 1.099963539547266e-01  8.956096618858849e-04 -1.966718390951292e-18
 9.183603388128186e-02 -6.054868190931995e-02 -1.012216057892591e-18
 1.099999656316365e-01 -8.695423359489205e-05 -1.956687177961404e-18
 1.099999656316365e-01 -8.695423359489205e-05 -1.956687177961404e-18
 1.099972044028975e-01  7.842343700353816e-04 -1.965589185026643e-18
 1.099686326152745e-01 -2.626754789991867e-03 -1.930034041479895e-18
 1.099229469912511e-01  4.116518524014883e-03 -1.998505694967423e-18
 1.095783930027961e-01 -9.621631198748258e-03 -1.851219448020040e-18
 1.099919972621818e-01 -1.326852771087158e-03 -1.943805864268938e-18
 1.099999505175102e-01  1.043366917971705e-04 -1.958652353755372e-18
 1.097073548024791e-01  8.018497505326582e-03 -2.034760391356005e-18
 1.095651155103880e-01 -9.771666346907694e-03 -1.849441602560818e-18
 1.099834483053088e-01  1.908166364187996e-03 -1.976892371808709e-18
 1.066616954150094e-01 -2.689391624876756e-02 -1.621846880921475e-18
 1.098207950067081e-01  6.276383042370750e-03 -2.018879601860194e-18
 1.087996216127167e-01 -1.620624376373583e-02 -1.769705780077880e-18
 1.098542087947307e-01  5.661520121282780e-03 -2.013156746923423e-18
 1.075501925647778e-01 -2.308584153283499e-02 -1.676785331880788e-18
 1.095061105420463e-01  1.041209652054251e-02 -2.055772370043943e-18
 1.098054052349660e-01 -6.540105594319444e-03 -1.886920957636757e-18
 1.091521421374246e-01  1.363120929380125e-02 -2.082548294388403e-18
 1.099972296687060e-01 -7.806825282370276e-04 -1.949510682021711e-18
 1.099949019715793e-01  1.059027980099254e-03 -1.968371615033630e-18
 1.014845601131640e-01 -4.243682432319306e-02 -1.370015848544492e-18
 1.095641913618522e-01  9.782022859479747e-03 -2.050332209534045e-18
 1.089560994746333e-01 -1.511847833856942e-02 -1.783666884873706e-18
 1.094874705388296e-01  1.060630920767883e-02 -2.057436113760503e-18
 1.091195473956590e-01 -1.388972196145430e-02 -1.799200660998856e-18
 1.098656895025130e-01  5.434176123146126e-03 -2.011025182819822e-18
 1.098360992971558e-01 -6.002607032391108e-03 -1.892989797552561e-18
 1.099624036439536e-01  2.875723360163119e-03 -1.986459153604732e-18
 1.099999524224188e-01  1.023086778311442e-04 -1.958631550548710e-18
 1.095822258294317e-01  9.577879841979376e-03 -2.048555659051426e-18
 1.099954333020920e-01 -1.002323642838793e-03 -1.947201431598384e-18
 1.095972388603364e-01 -9.404532640718563e-03 -1.853785441353170e-18
 1.099432314493379e-01  3.533533426653959e-03 -1.992876721001706e-18
 1.080087710266233e-01  2.083519573506371e-02 -2.136218985290704e-18
 1.099847100313386e-01 -1.834000905757640e-03 -1.938465416452253e-18
 1.099994319650115e-01  3.535072485528268e-04 -1.961203262449222e-18
 1.098145594206318e-01  6.384554741914573e-03 -2.019880057085012e-18
 1.099961923877537e-01  9.152377812510414e-04 -1.966917187470426e-18
 1.099822794954153e-01  1.974385218829752e-03 -1.977551946118470e-18
 1.099025000645611e-01 -4.630386545323200e-03 -1.908270545430353e-18
 1.098469558222206e-01  5.800542784177547e-03 -2.014456078984230e-18
 1.099823991093480e-01 -1.967710891377422e-03 -1.937050469309639e-18
 1.099939652940144e-01  1.152214779941817e-03 -1.969312406255334e-18
 1.099973735582462e-01 -7.601383345102177e-04 -1.949724326835140e-18
 1.098913295180193e-01  4.888322489573834e-03 -2.005873029688354e-18
 1.097170652780524e-01 -7.884515633286642e-03 -1.871535517963147e-18
 1.094205615740322e-01  1.127566870847914e-02 -2.063122814631566e-18
 1.098920750904344e-01  4.871532850990473e-03 -2.005713790601586e-18
 1.095463702172126e-01 -9.979617840046367e-03 -1.846971381659403e-18
 1.099630106882953e-01 -2.852416583497686e-03 -1.927615399631436e-18
 1.098416343637667e-01  5.900454244932361e-03 -2.015387931247654e-18
 1.099999160227600e-01  1.359227196785484e-04 -1.958976274842322e-18
 1.099060847248817e-01  4.544506623066347e-03 -2.002603033065240e-18
 1.098187272312497e-01 -6.312459846077087e-03 -1.889497015817669e-18
 1.090961159764204e-01  1.407257896973314e-02 -2.086086155106112e-18
 1.099955275199127e-01 -9.919302475958798e-04 -1.947309896677387e-18
 1.099925008266083e-01  1.284430577540103e-03 -1.970644813601063e-18
 1.098898890993420e-01 -4.920596888009954e-03 -1.905064312415396e-18
 1.099820086569430e-01  1.989414935121742e-03 -1.977701551099822e-18
 1.099970407000031e-01  8.068687884813592e-04 -1.965818832165460e-18
 1.099991261609726e-01  4.384561807054875e-04 -1.962070639719922e-18
 1.099991261609726e-01  4.384561807054875e-04 -1.962070639719922e-18
 1.099993490102460e-01  3.784406453418545e-04 -1.961457967764635e-18
 1.099999422756621e-01 -1.126913970501604e-04 -1.956422322309053e-18
 1.099762148635131e-01  2.287392466182358e-03 -1.980660054519572e-18
 1.099745750527573e-01 -2.364919018783518e-03 -1.932830061675005e-18
 1.099992494782782e-01  4.063424854472064e-04 -1.961742877745682e-18
 1.099952034833607e-01 -1.027234468862759e-03 -1.946941392011920e-18
 1.099494302191844e-01  3.335085377715544e-03 -1.990948053892953e-18
 1.099957886210646e-01 -9.625412355045390e-04 -1.947616504706888e-18
 1.099865128300734e-01  1.722496873743656e-03 -1.975039222116499e-18
 1.099684387293899e-01 -2.634859279048067e-03 -1.929947320368379e-18
 1.099407147112772e-01  3.610989999090688e-03 -1.993627770789869e-18
 1.099068067198823e-01  4.527011888476431e-03 -2.002436129784928e-18
 1.099681478780657e-01 -2.646970394213283e-03 -1.929817707013424e-18
 1.099434322054877e-01 -3.527281513756926e-03 -1.920332985176556e-18
 1.099144812799164e-01  4.336681331025918e-03 -2.000617130399133e-18
 1.099997409451937e-01 -2.387299525316119e-04 -1.955123739021848e-18
 1.099985284649792e-01 -5.689776262030451e-04 -1.951708986612706e-18
 1.099557707921384e-01 -3.119049455633552e-03 -1.924747001142173e-18
 1.099998143704711e-01  2.020852836302088e-04 -1.959654262128221e-18
 1.099997191991186e-01  2.485480135171467e-04 -1.960129956111484e-18
 1.099959702771860e-01 -9.415533868992092e-04 -1.947835380014389e-18
 1.099999751849640e-01  7.388712519946500e-05 -1.958339934506802e-18
 1.099449786517202e-01 -3.478745358997292e-03 -1.920859197390288e-18
 1.097567134541761e-01  7.311897957292461e-03 -2.028378733771469e-18
 1.099926553628573e-01 -1.271127935209539e-03 -1.944390128400869e-18
 1.099978700782800e-01  6.845277509359177e-04 -1.964576582223440e-18
 1.094266499962714e-01 -1.121642860243245e-02 -1.832133036234817e-18
 1.097943482587514e-01  6.723175621384267e-03 -2.022999581875862e-18
 1.099724839533681e-01 -2.460238428724605e-03 -1.931813475756695e-18
 1.099279452716033e-01  3.980810013470164e-03 -1.997200289681634e-18
 1.098137264278552e-01 -6.398866151760532e-03 -1.888520227154134e-18
 1.099633939695553e-01  2.837602279446989e-03 -1.986085097374060e-18
 1.096657405626325e-01 -8.568859133475343e-03 -1.863590752567923e-18
 1.099596314502401e-01  2.979840822481759e-03 -1.987479588213231e-18
 1.097430396136541e-01 -7.514336720956733e-03 -1.875801216097250e-18
 1.048624572723572e-01  3.322446470303216e-02 -2.207521816952930e-18
 1.097943459121229e-01 -6.723213943424242e-03 -1.884842772025707e-18
 1.098301744016618e-01  6.110056538241921e-03 -2.017337574973287e-18
 1.094602769780101e-01 -1.088337098041264e-02 -1.836153514562502e-18
 1.091961185524743e-01  1.327432458070600e-02 -2.079664046370149e-18
 1.097638513155190e-01 -7.203953385788175e-03 -1.879360661172488e-18
 1.095282205570108e-01  1.017688074091243e-02 -2.053749087445493e-18
 1.092974491602106e-01 -1.241239731361906e-02 -1.817545609194613e-18
 1.099635798776104e-01  2.830388754280910e-03 -1.986014289479045e-18
 1.093303035858454e-01 -1.211960056383203e-02 -1.821138673128326e-18
 1.098323291091375e-01  6.071201072445703e-03 -2.016976694767070e-18
 1.094303085321908e-01 -1.118067862651862e-02 -1.832565462261130e-18
 1.099647905287230e-01  2.782955977739186e-03 -1.985548479911718e-18
 1.097411839957551e-01 -7.541388148729330e-03 -1.875490249569924e-18
 1.093315815699927e-01  1.210806637758490e-02 -2.070091892984252e-18
 1.099387127202687e-01 -3.671436423280959e-03 -1.918767856979480e-18
 1.099972558410983e-01  7.769861182377848e-04 -1.965515627276645e-18
 1.097929889826421e-01 -6.745336926898965e-03 -1.884591318228438e-18
 1.085214490757938e-01  1.797484604912827e-02 -2.115953648780569e-18
 1.098973179453727e-01 -4.751790022046951e-03 -1.906930946817019e-18
 1.099354758521044e-01  3.767114170201249e-03 -1.995138658184461e-18
 1.098710469561210e-01 -5.324757343375204e-03 -1.900576392142130e-18
 1.099880104600519e-01  1.624055122061289e-03 -1.974054420990944e-18
 1.099212292930292e-01 -4.162132951897387e-03 -1.913414989961266e-18
 1.099952875539160e-01  1.018192482439615e-03 -1.967958907027169e-18
 1.096681907570923e-01 -8.537443180834367e-03 -1.863957144201901e-18
 5.653282669731496e-02  9.436121822873692e-02 -1.975596324440006e-18
 1.097908304075120e-01 -6.780380404438386e-03 -1.884192844807733e-18
 1.099915490447766e-01 -1.363502376407639e-03 -1.943421326324645e-18
 1.099944365340003e-01 -1.106314407271065e-03 -1.946115225593538e-18
 1.099969419789225e-01 -8.202166089043318e-04 -1.949099363921589e-18
 1.099969419789225e-01 -8.202166089043318e-04 -1.949099363921589e-18
 1.099963018449334e-01 -9.019869390744000e-04 -1.948247811536002e-18
 1.099963379318866e-01 -8.975753863400270e-04 -1.948293780848135e-18
 1.099938900762130e-01 -1.159373064177407e-03 -1.945560342300355e-18
 1.099948847686563e-01 -1.060813239917597e-03 -1.946590710429196e-18
 1.099685714736264e-01  2.629313227799194e-03 -1.984037142894738e-18
 1.099956297339758e-01 -9.805301760064276e-04 -1.947428847292827e-18
 1.099956297339758e-01 -9.805301760064276e-04 -1.947428847292827e-18
 1.099912927171158e-01 -1.384025439692829e-03 -1.943205897648350e-18
 1.099834170447965e-01 -1.909967316562028e-03 -1.937661878939818e-18
 1.099989083712015e-01  4.900583067144606e-04 -1.962596956990318e-18
 1.099517074202140e-01 -3.259146418868375e-03 -1.923235243187801e-18
 1.099981302336939e-01  6.413619035097836e-04 -1.964137698597972e-18
 1.099300364270496e-01 -3.922638289149128e-03 -1.916032444074858e-18
 1.099941788419173e-01  1.131645214842990e-03 -1.969104861785940e-18
 1.099773712117486e-01 -2.231103169561549e-03 -1.934254731898913e-18
 1.099942091131018e-01 -1.128699066712128e-03 -1.945881184123321e-18
 1.099856802667069e-01 -1.774862324145110e-03 -1.939090310390682e-18
 1.099999836042874e-01  6.005877510669184e-05 -1.958198003064946e-18
 1.099961605033085e-01 -9.190617663399248e-04 -1.948069858545832e-18
 1.099961605033085e-01 -9.190617663399248e-04 -1.948069858545832e-18
 1.099963653036273e-01 -8.942147342349545e-04 -1.948328797440463e-18
 1.099984366547754e-01 -5.864584429754204e-04 -1.951527743698559e-18
 1.099984366547754e-01 -5.864584429754204e-04 -1.951527743698559e-18
 1.099949126141931e-01 -1.057922017914556e-03 -1.946620912229522e-18
 1.099949126141931e-01 -1.057922017914556e-03 -1.946620912229522e-18
 1.099774278202886e-01  2.228311027026831e-03 -1.980074600207536e-18
 1.098207495977408e-01  6.277177533755238e-03 -2.018886956863814e-18
 1.097295715413325e-01 -7.708510190403537e-03 -1.873566473824099e-18
 1.081050108621599e-01 -2.032994408482898e-02 -1.714974830433348e-18
 1.099340345354314e-01  3.808943523151220e-03 -1.995542789641150e-18
 1.099958308778715e-01  9.577001026670695e-04 -1.967347038898049e-18
 1.099958308778715e-01  9.577001026670695e-04 -1.967347038898049e-18
-1.098584407340908e-01  5.578799106817601e-03  1.897741862550603e-18
-1.099955419277681e-01  9.903312660821837e-04  1.947326582036549e-18
-1.099854606489792e-01  1.788419926026071e-03  1.938947102597010e-18
-1.099926935564994e-01  1.267818672362353e-03  1.944424809575882e-18
-1.099926935564994e-01  1.267818672362353e-03  1.944424809575882e-18
-1.099862948773332e-01  1.736358014999396e-03  1.939496865908869e-18
-1.099862948773332e-01  1.736358014999396e-03  1.939496865908869e-18
-1.099862948773332e-01  1.736358014999396e-03  1.939496865908869e-18
-1.099851487145537e-01  1.807501656284525e-03  1.938745493505261e-18
-1.099851487145537e-01  1.807501656284525e-03  1.938745493505261e-18
-1.099678895480385e-01  2.657681009894714e-03  1.929703062037179e-18
-1.099678895480385e-01  2.657681009894714e-03  1.929703062037179e-18
-9.260046207182195e-02 -5.937301090634565e-02  2.257971798941077e-18
-1.099867348593560e-01  1.708260804941145e-03  1.939793384540226e-18
-1.099890544959793e-01  1.551738083718837e-03  1.941442879341225e-18
-1.099890544959793e-01  1.551738083718837e-03  1.941442879341225e-18
-1.099943385247654e-01  1.116016352599190e-03  1.946013797438486e-18
-1.099939040595895e-01  1.158045650993097e-03  1.945574229839478e-18
-1.099939040595895e-01  1.158045650993097e-03  1.945574229839478e-18
-1.099992998070088e-01  3.924818056185090e-04  1.953536144004829e-18
-1.099821004662909e-01  1.984332891088194e-03  1.936874369591473e-18
-1.099952872337173e-01 -1.018227072901532e-03  1.967959256733283e-18
-1.099434124232681e-01  3.527898060763210e-03  1.920326298331846e-18
-1.099713805053811e-01 -2.509077468044430e-03  1.982851754212285e-18
-1.099446298829546e-01  3.489750693112839e-03  1.920739914823965e-18
-1.099725281932841e-01 -2.458260111806793e-03  1.982350048812682e-18
-1.099364694150951e-01  3.738006493283593e-03  1.918043951401732e-18
-1.099248098423669e-01 -4.066470351476829e-03  1.998024619833361e-18
-1.098892036560894e-01  4.935880856592544e-03  1.904895076910134e-18
-1.099601041391264e-01 -2.962346656358552e-03  1.987308254074022e-18
-1.099315427658847e-01  3.880193952940486e-03  1.916495351306982e-18
-1.099968972873788e-01 -8.261883258687130e-04  1.966014781195159e-18
-1.099637046439919e-01  2.825537288530701e-03  1.927903924392142e-18
-1.099641017821927e-01 -2.810039009607373e-03  1.985814491159599e-18
-1.099795814244263e-01  2.119355965368640e-03  1.935442227198466e-18
-1.099971384724729e-01 -7.934279221040944e-04  1.965682472123844e-18
-1.099965196774687e-01  8.750193393366589e-04  1.948528770416553e-18
-1.099956541319363e-01 -9.777893880663097e-04  1.967550303602914e-18
-1.099956136968750e-01  9.823275664546216e-04  1.947410094359573e-18
-1.099923165361706e-01 -1.300116535852660e-03  1.970802701456296e-18
-1.099951957484829e-01  1.028062377915860e-03  1.946932747895777e-18
-1.099939086251392e-01 -1.157611923100539e-03  1.969366851450429e-18
-1.099904681603190e-01  1.448072468428052e-03  1.942533163722786e-18
-1.099983102898489e-01 -6.096994161770659e-04  1.963815582356762e-18
-1.099964382602119e-01  8.851949318466965e-04  1.948422770982812e-18
-1.099648377294176e-01 -2.781090279517304e-03  1.985530150532906e-18
-1.099966846823120e-01  8.540251167276153e-04  1.948747414885272e-18
-1.099999805413996e-01 -6.542852351928529e-05  1.958253120771466e-18
-1.099949775866689e-01  1.051144951079611e-03  1.946691700392044e-18
-1.099924979354851e-01 -1.284678135669421e-03  1.970647305719924e-18
-1.099978198975098e-01  6.925444353747492e-04  1.950426772733431e-18
-1.099999538074990e-01 -1.008084721060644e-04  1.958616161129021e-18
-1.099971763758868e-01  7.881556521430148e-04  1.949432949979061e-18
-1.099999727997322e-01 -7.735669417762566e-05  1.958375540619612e-18
-1.099995448234698e-01  3.164468824620248e-04  1.954321735579134e-18
-1.099989560400163e-01  4.792390911739687e-04  1.952638626668499e-18
-1.099907766120342e-01  1.424450870179499e-03  1.942781356329945e-18
-1.099907766120342e-01  1.424450870179499e-03  1.942781356329945e-18
-8.886662909655280e-02 -6.482840606567219e-02  2.247575990741792e-18
-1.099991782064110e-01  4.251986761380266e-04  1.953197826017657e-18
-1.099996831024787e-01  2.640404405293971e-04  1.954862653572136e-18
-1.099999999782863e-01 -2.185629556449186e-06  1.957603668912921e-18
-1.099999999782863e-01 -2.185629556449186e-06  1.957603668912921e-18
-1.099999999782863e-01 -2.185629556449186e-06  1.957603668912921e-18
-1.099974167951112e-01 -7.538556907960546e-04  1.965280834905959e-18
-1.099989663927782e-01  4.768569181676621e-04  1.952663286870511e-18
-1.099909957956628e-01 -1.407424555160052e-03  1.971881748219965e-18
-1.099852785927491e-01  1.799581305562909e-03  1.938829183569099e-18
-1.099896951624235e-01 -1.505642081344185e-03  1.972867751301941e-18
-1.099857015147677e-01  1.773545123300798e-03  1.939104222285444e-18
-1.099743909662225e-01 -2.373464052479130e-03  1.981511950373511e-18
-1.099970610361358e-01  8.040916692572882e-04  1.949267160583860e-18
-1.099939680393858e-01  1.151952668536958e-03  1.945637971617601e-18
-1.099303960725980e-01  3.912546398662114e-03  1.916142534905051e-18
-1.099021863073716e-01 -4.637827601339272e-03  2.003492495226355e-18
-1.094853385757182e-01  1.062829416982460e-02  1.839220337154947e-18
-1.099798416678267e-01 -2.105807854418094e-03  1.978858881907167e-18
-1.099725317467667e-01  2.458101138345652e-03  1.931836286179462e-18
-1.098618305483604e-01 -5.511641186007983e-03  2.011752433507611e-18
-1.099152199790632e-01  4.317918127305372e-03  1.911707410966061e-18
-1.099691808792485e-01 -2.603700587066571e-03  1.983784827415522e-18
-1.099260183677398e-01  4.033669026493879e-03  1.914820137424603e-18
-1.099799438146229e-01 -2.100466265465255e-03  1.978805816845206e-18
-1.099186295879449e-01  4.230232795973143e-03  1.912669023949102e-18
-1.099474666139827e-01 -3.399203607777416e-03  1.991571900717679e-18
-1.099889967252712e-01  1.555827550936888e-03  1.941399833452484e-18
-1.099942898888729e-01 -1.120799644248975e-03  1.968995403701010e-18
-1.099999519493712e-01  1.028160298260125e-04  1.956523960275035e-18
-1.099927805910260e-01 -1.260245156461519e-03  1.970401295926878e-18
-1.099988271942612e-01 -5.079526425012646e-04  1.962779370149543e-18
-1.099988271942612e-01 -5.079526425012646e-04  1.962779370149543e-18
-1.099988271942612e-01 -5.079526425012646e-04  1.962779370149543e-18
-1.099999250419563e-01 -1.284163695389285e-04  1.958899310328838e-18
-1.099991670338721e-01 -4.280792616540152e-04  1.961964748028308e-18
-1.099991670338721e-01 -4.280792616540152e-04  1.961964748028308e-18
-1.099997136583814e-01 -2.509881950763412e-04  1.960154929486528e-18
-1.099998206437260e-01 -1.986412547394704e-04  1.959618987622539e-18
-1.099909019184578e-01 -1.414742083969228e-03  1.971955262513388e-18
-1.099999504316934e-01 -1.044271275292067e-04  1.958653281422452e-18
-1.099996727342468e-01 -2.683250986644775e-04  1.960332331579103e-18
-1.099993545297637e-01 -3.768329010575708e-04  1.961441547002561e-18
-1.099985689753641e-01 -5.610912332487304e-04  1.963320754552452e-18
-1.099996521453423e-01 -2.766367720896972e-04  1.960417364600038e-18
-1.099994709138648e-01 -3.411724927044235e-04  1.961077220455048e-18
-1.099994709138648e-01 -3.411724927044235e-04  1.961077220455048e-18
-1.099993145138145e-01 -3.883381141066184e-04  1.961559046755578e-18
-1.099994525397300e-01 -3.470460483102444e-04  1.961137242115557e-18
-1.099994227305403e-01 -3.563691174478875e-04  1.961232502774053e-18
-1.099994184244159e-01 -3.576958068353657e-04  1.961246057392942e-18
-1.099994184244159e-01 -3.576958068353657e-04  1.961246057392942e-18
-1.099995133069180e-01 -3.272189498430339e-04  1.960934607306021e-18
-1.099997011910428e-01 -2.563939961616469e-04  1.960210250257744e-18
-1.099993792962078e-01 -3.695327441035662e-04  1.961366981290215e-18
-1.099920082981711e-01 -1.325937606013747e-03  1.971062518109260e-18
-1.099998306681479e-01 -1.930103073728665e-04  1.959561310080456e-18
-1.099998306681479e-01 -1.930103073728665e-04  1.959561310080456e-18
-1.099998471122621e-01 -1.833992336740809e-04  1.959462852432257e-18
-1.099993041967377e-01 -3.912495795876087e-04  1.961588777401054e-18
-1.099995924876689e-01 -2.994203512350716e-04  1.960650395919675e-18
-1.099999887007208e-01 -4.985821151198927e-05  1.958093286676696e-18
-1.099999997602131e-01 -7.263131734615127e-06  1.957655834522416e-18
-1.099983163262550e-01 -6.086093896082222e-04  1.963804490154789e-18
-1.099983295957844e-01 -6.062063486552237e-04  1.963780035929058e-18
-1.099999870638140e-01 -5.334754644562684e-05  1.958129109194855e-18
-1.099999994402887e-01  1.109668641978039e-05  1.957467188367042e-18
-1.099999789022576e-01 -6.812857579423962e-05  1.958280833657255e-18
-1.099999789022576e-01 -6.812857579423962e-05  1.958280833657255e-18
-1.099999999050942e-01 -4.569381836506635e-06  1.957628159799107e-18
-1.099883899815034e-01 -1.598145574306562e-03  1.973794963836904e-18
-1.096814300952523e-01 -8.365637588387027e-03  2.037865768514164e-18
 1.371451756252288e-02  1.091417060890437e-01 -1.365457581293955e-18
-1.097446083957008e-01 -7.491390263110974e-03  2.030007528054323e-18
-1.099985436301517e-01 -5.660382015131718e-04  1.963371131805990e-18
-1.099985436301517e-01 -5.660382015131718e-04  1.963371131805990e-18
-1.099744403729336e-01  2.371173688288759e-03  1.932763400429867e-18
-1.099991729514797e-01  4.265559639859382e-04  1.953183786860312e-18
-1.099842406827476e-01  1.861934864434877e-03  1.938170052556418e-18
-1.093051473307837e-01 -1.234442250555372e-02  2.072049937519076e-18
-1.099839454092612e-01 -1.879295669289538e-03  1.976604582464326e-18
-1.055943085026976e-01  3.081950700185012e-02  1.562517438658774e-18
-1.099847593445553e-01 -1.831041212046683e-03  1.976123270395077e-18
-1.099430514761455e-01 -3.539128722382249e-03  1.992931007795065e-18
-1.099941493830957e-01  1.134504953357366e-03  1.945820467780447e-18
-1.099991090146158e-01  4.427369316261887e-04  1.953016395463133e-18
-1.099994832446496e-01  3.371734123760840e-04  1.954107682145064e-18
-1.099994832446496e-01  3.371734123760840e-04  1.954107682145064e-18
-1.099992985400376e-01 -3.928367340744371e-04  1.961604984169112e-18
-1.099933009210990e-01  1.213982075864622e-03  1.944988769825141e-18
-1.099866539663373e-01 -1.713461201526866e-03  1.974948895555044e-18
-1.099929563808118e-01  1.244807860198077e-03  1.944665914583847e-18
-1.099973888501867e-01 -7.579222524688743e-04  1.965322120036615e-18
-1.099331110103112e-01  3.835505650441024e-03  1.916982416161419e-18
-1.099971277787328e-01 -7.949090697005032e-04  1.965697500069477e-18
-1.099916289200159e-01  1.357043669711175e-03  1.943489108664848e-18
-1.099888109250015e-01 -1.568907678685956e-03  1.973502046272362e-18
 5.614208523682016e-02  9.459421898436281e-02 -1.971036612178751e-18
-1.099969287786518e-01 -8.219849537335097e-04  1.965972153498203e-18
-1.099995204784147e-01  3.247991976362628e-04  1.954235485325582e-18
-1.099995697945561e-01 -3.076442954847681e-04  1.960734490108304e-18
-1.099999992569975e-01 -1.278516720424213e-05  1.957712562475549e-18
-1.099547864371885e-01 -3.153559822205958e-03  1.989178265041653e-18
-1.099874027537955e-01  1.664702818628111e-03  1.940252813004465e-18
-1.097938625030614e-01  6.731103673159554e-03  1.884753105077908e-18
-1.099620988324185e-01 -2.887355255140175e-03  1.986573242615227e-18
-1.099947656639190e-01 -1.073092046144805e-03  1.968513692445767e-18
-1.099998749187243e-01 -1.658850956608951e-04  1.959283395875721e-18
-1.099983160760031e-01 -6.086546177157929e-04  1.963804950403636e-18
-1.099977002968317e-01 -7.112871490191179e-04  1.964848503854424e-18
-1.099977002968317e-01 -7.112871490191179e-04  1.964848503854424e-18
-1.099730721522929e-01 -2.433803892379974e-03  1.982108450441735e-18
 7.376163070867964e-02  8.160405526195579e-02 -2.151128227912868e-18
-1.099949636436957e-01 -1.052602974542086e-03  1.968306697964430e-18
-1.098560004284257e-01 -5.626648191392054e-03  2.012830334770515e-18
-1.099949636436958e-01 -1.052602974534140e-03  1.968306697964350e-18
-1.099919465993668e-01 -1.331045935353086e-03  1.971113906333692e-18
-1.087945772885791e-01  1.624007243208466e-02  1.769268433034468e-18
-1.099860220321518e-01 -1.753555685737625e-03  1.975349605792498e-18
-1.099860220321518e-01 -1.753555685737625e-03  1.975349605792498e-18
-1.099927273602214e-01 -1.264882547894607e-03  1.970447996133559e-18
-1.099987754469429e-01 -5.190377375545217e-04  1.962892344569061e-18
-1.099993993659016e-01 -3.635094783338772e-04  1.961305451586652e-18
-1.099941490934654e-01 -1.134533033663681e-03  1.969134003666074e-18
-1.099941182505155e-01 -1.137519358775317e-03  1.969164138184664e-18
-1.099939651685511e-01 -1.152226756994334e-03  1.969312527082428e-18
-1.099973011203666e-01 -7.705493075423464e-04  1.965450297183651e-18
-1.099929730225687e-01 -1.243336501688293e-03  1.970230990190360e-18
-1.099974497239031e-01 -7.490355381150923e-04  1.965231895595317e-18
-1.099932000436008e-01 -1.223087964280934e-03  1.970026983934282e-18
-1.099953407988569e-01 -1.012424092602190e-03  1.967900586474318e-18
-1.099924985113991e-01 -1.284628825706792e-03  1.970646809327046e-18
-1.099979484925804e-01 -6.718090677991933e-04  1.964447297850558e-18
-1.099949715117363e-01 -1.051780458212225e-03  1.968298386929105e-18
-1.099949715117363e-01 -1.051780458212225e-03  1.968298386929105e-18
-1.099913599986114e-01 -1.378668073116791e-03  1.971592767239287e-18
-1.099942726672066e-01 -1.122488490884253e-03  1.969012449506583e-18
-1.099999915952605e-01 -4.300049531269407e-05  1.958022877645746e-18
-1.099986883187876e-01 -5.371853927473809e-04  1.963077254584190e-18
-1.099986883187876e-01 -5.371853927473809e-04  1.963077254584190e-18
-5.299553518154456e-02 -9.639228833688740e-02  1.933514510014299e-18
-1.099980167119315e-01  6.605448066496932e-04  1.950759059841434e-18
-1.099980167119315e-01  6.605448066496932e-04  1.950759059841434e-18
-1.099914327539379e-01  1.372851316025374e-03  1.943323199832085e-18
-1.099998792731995e-01 -1.629720267216076e-04  1.959253542643685e-18
-1.099998792731995e-01 -1.629720267216076e-04  1.959253542643685e-18
-1.099975093685887e-01 -7.402247680364083e-04  1.965142429581785e-18
-1.099989257345671e-01 -4.861452881295346e-04  1.962557061147648e-18
-1.099934625871589e-01  1.199244798713073e-03  1.945143067034619e-18
-1.099976555967389e-01  7.181665692487310e-04  1.950160590687462e-18
-1.099995949615338e-01  2.985101312399770e-04  1.954506921448689e-18
-1.099977669565845e-01  7.009026786104619e-04  1.950339952673580e-18
-1.099977669565845e-01  7.009026786104619e-04  1.950339952673580e-18
-1.099998603630011e-01 -1.752715613310399e-04  1.959379579364191e-18
-1.099952670950119e-01  1.020400263110477e-03  1.947012743038563e-18
-1.099952670950119e-01  1.020400263110477e-03  1.947012743038563e-18
-1.099630306840528e-01  2.851645626305699e-03  1.927623676784873e-18
-1.099902556611042e-01  1.464124176737045e-03  1.942364456574032e-18
-1.099902556611042e-01  1.464124176737045e-03  1.942364456574032e-18
-1.049997368916770e-01 -3.278803520613225e-02  2.205480716993509e-18
-1.099882915331950e-01  1.604906729020180e-03  1.940883012992564e-18
-1.099882915331950e-01  1.604906729020180e-03  1.940883012992564e-18
-1.099786484341763e-01  2.167230627275625e-03  1.934933728764459e-18
-1.099992075462693e-01  4.175394505049500e-04  1.953277043916436e-18
-1.099791671761407e-01  2.140744553292786e-03  1.935215095185033e-18
-1.099995578731928e-01  3.118777037037539e-04  1.954368914466411e-18
-1.099577659536296e-01  3.047901981162997e-03  1.925513521875164e-18
-1.099998072054119e-01 -2.059484697198650e-04  1.959693827451132e-18
-1.098479708410716e-01  5.781288965191731e-03  1.895475028579375e-18
-1.099981277702354e-01 -6.417842650864126e-04  1.964141994369558e-18
-1.099265463316244e-01  4.019255105265217e-03  1.914977630976167e-18
-1.099661486169799e-01 -2.728764985895350e-03  1.985015855957080e-18
-1.099111873004551e-01  4.419378486195624e-03  1.910593176309930e-18
-1.099679574537044e-01 -2.654869763323059e-03  1.984288799796345e-18
-1.065470397285678e-01  2.734462150184128e-02  1.615175613468007e-18
-1.096174700677853e-01 -9.165710880130979e-03  2.044947985959998e-18
-1.097710718779161e-01  7.093079639574419e-03  1.880628347158425e-18
-1.096060875966734e-01 -9.300836615613334e-03  2.046133789153817e-18
-1.098890636670947e-01  4.938996494144599e-03  1.904860573594963e-18
-1.075891707025530e-01 -2.290350077033779e-02  2.150002779887780e-18
-1.098639089810710e-01  5.470055155015022e-03  1.898956481129577e-18
-1.098141956287582e-01 -6.390808900975816e-03  2.019937842187073e-18
-1.098285937631972e-01  6.138403049536259e-03  1.891460972877494e-18
-1.097798301394292e-01 -6.956212659056791e-03  2.025135585531070e-18
-1.097891517275152e-01  6.807507837131438e-03  1.883884246178488e-18
-1.099480089287109e-01 -3.381616863584188e-03  1.991400854447340e-18
-1.096666428982948e-01  8.557303045811376e-03  1.863725545310129e-18
-1.099516078317506e-01 -3.262504438755382e-03  1.990241064324884e-18
-1.091276422675467e-01  1.382597892108570e-02  1.799999655483772e-18
-1.097782785823021e-01 -6.980655521256192e-03  2.025359115250932e-18
-1.099742393898716e-01  2.380476973039092e-03  1.932664235825347e-18
-1.099999848295098e-01  5.777116569431015e-05  1.956987365031762e-18
-1.099998791970189e-01 -1.630234376069960e-04  1.959254069516131e-18
-1.099999510675218e-01 -1.037552060596147e-04  1.958646388988766e-18
-1.099999510675218e-01 -1.037552060596147e-04  1.958646388988766e-18
-1.099999510675218e-01 -1.037552060596147e-04  1.958646388988766e-18
-1.099999928154043e-01 -3.975689846794122e-05  1.957989572580387e-18
-1.099997292756814e-01  2.440476936088625e-04  1.955068893491171e-18
-1.099997292756814e-01  2.440476936088625e-04  1.955068893491171e-18
-1.099996312893469e-01  2.848090723384148e-04  1.954648341348466e-18
-1.099999955586791e-01  3.125844761201454e-05  1.957259964517110e-18
-1.099999955586791e-01  3.125844761201454e-05  1.957259964517110e-18
-1.099999891329355e-01 -4.889533753242394e-05  1.958083401188117e-18
-1.099915329399923e-01  1.364800905092845e-03  1.943407697810277e-18
-1.099910758413475e-01 -1.401154974621063e-03  1.971818755065928e-18
-1.099997404538551e-01 -2.389562396836659e-04  1.960031782373152e-18
-1.099910161991136e-01  1.405829109923696e-03  1.942976951889685e-18
-1.099937504481468e-01 -1.172545244653080e-03  1.969517470956274e-18
-1.099937504481468e-01 -1.172545244653080e-03  1.969517470956274e-18
-1.099997133046446e-01 -2.511431781889197e-04  1.960156515586542e-18
-1.099997133046446e-01 -2.511431781889197e-04  1.960156515586542e-18
-1.099997133046446e-01 -2.511431781889197e-04  1.960156515586542e-18
-1.099700007974917e-01 -2.568837207694537e-03  1.983441210280516e-18
-1.099997950044738e-01 -2.123651894574215e-04  1.959759539785177e-18
-1.099997950044738e-01 -2.123651894574215e-04  1.959759539785177e-18
-1.099997950044738e-01 -2.123651894574215e-04  1.959759539785177e-18
-1.099328530367536e-01  3.842892556330755e-03  1.916901927439675e-18
-1.099926153185086e-01 -1.274588323557716e-03  1.970545725536739e-18
-1.099926153185086e-01 -1.274588323557716e-03  1.970545725536739e-18
-1.099926153185086e-01 -1.274588323557716e-03  1.970545725536739e-18
-1.087701468118220e-01  1.640290104020185e-02  1.767160658761427e-18
-1.098854782532132e-01 -5.018134021981919e-03  2.007102665790160e-18
-1.099730666302151e-01 -2.434053398392722e-03  1.982110915753419e-18
-1.099995493810282e-01  3.148586519326120e-04  1.954338135178053e-18
-1.082613482929568e-01  1.948025836048056e-02  1.726487253651540e-18
-1.099989184531550e-01 -4.877900533377726e-04  1.962573830931253e-18
-1.099994343037121e-01 -3.527787738690729e-04  1.961195819256447e-18
-1.099994343037121e-01 -3.527787738690729e-04  1.961195819256447e-18
-1.099980417349964e-01  6.563645830919649e-04  1.950802455435223e-18
-1.099155538044416e-01  4.309412008949619e-03  1.911800749062946e-18
-1.097577126543044e-01 -7.296883779745274e-03  2.028242250509566e-18
-1.099950463499659e-01  1.043924551300128e-03  1.946767111101710e-18
-1.099998247336729e-01 -1.963633397661806e-04  1.959595655659175e-18
-1.099998247336729e-01 -1.963633397661806e-04  1.959595655659175e-18
-1.099907094669636e-01  1.429626158816395e-03  1.942726987192610e-18
-1.099845750211342e-01 -1.842079645531789e-03  1.976233406034040e-18
-1.099602371490532e-01  2.957405302618800e-03  1.926487320242657e-18
-1.098920004021034e-01 -4.873217379112291e-03  2.005729769348154e-18
-1.099920827370177e-01 -1.319748147569938e-03  1.971000248400273e-18
-1.099920827370177e-01 -1.319748147569938e-03  1.971000248400273e-18
-1.098980027809593e-01 -4.735924910323071e-03  2.004425958597416e-18
-1.099770404586565e-01  2.247347760135206e-03  1.934081938486156e-18
-1.099981504500322e-01 -6.378852342387581e-04  1.964102336858040e-18
-1.099981504500322e-01 -6.378852342387581e-04  1.964102336858040e-18
-1.099958596905554e-01 -9.543851086549422e-04  1.967313491294895e-18
-1.099772877876610e-01 -2.235211594001659e-03  1.980143008978777e-18
-1.099929126021854e-01 -1.248670207845003e-03  1.970284716830744e-18
-1.099786450456992e-01 -2.167402572676843e-03  1.979470449943533e-18
-1.099911193486455e-01 -1.397735465665906e-03  1.971784395117890e-18
-1.099865082445307e-01 -1.722789649299698e-03  1.975042148673779e-18
-1.099886057568663e-01 -1.583225713730414e-03  1.973645507669410e-18
-1.099886057568663e-01 -1.583225713730414e-03  1.973645507669410e-18
-1.099886057568663e-01 -1.583225713730414e-03  1.973645507669410e-18
-1.099886057568663e-01 -1.583225713730414e-03  1.973645507669410e-18
-1.099897700149771e-01 -1.500164008501038e-03  1.972812798183984e-18
-1.099933438634347e-01 -1.210085013608411e-03  1.969895942785221e-18
-1.099922928947666e-01 -1.302115106980998e-03  1.970822815321630e-18
-1.099947703831600e-01 -1.072608202405433e-03  1.968508805111635e-18
-1.099221340282917e-01 -4.138169965849091e-03  1.998713688021318e-18
-1.099993377838719e-01  3.816898081113438e-04  1.953647703702369e-18
-1.099871913481374e-01 -1.678612328132903e-03  1.974600399390666e-18
-1.099991897794535e-01 -4.221941067174035e-04  1.961904684983994e-18
-1.099991897794535e-01 -4.221941067174035e-04  1.961904684983994e-18
-1.099042282246504e-01 -4.589184932418665e-03  2.003029047827351e-18
-1.092779398973654e-01  1.258299852132837e-02  1.815445553156125e-18
-1.099937603383559e-01  1.171617099695391e-03  1.945432230443392e-18
-1.099591202062828e-01 -2.998646938240261e-03  1.987663716024871e-18
-1.099962633392726e-01 -9.066705009755645e-04  1.966830424444758e-18
-1.099940122234714e-01  1.147726005105808e-03  1.945682185357437e-18
-1.099949976160410e-01 -1.049046923203289e-03  1.968270765407145e-18
-1.098680748409840e-01  5.385734001590968e-03  1.899896986795913e-18
-1.098520857195539e-01 -5.702566357679685e-03  2.013540699436211e-18
-1.099991019972982e-01  4.444769824739572e-04  1.952998392191245e-18
-1.099998552249862e-01  1.784670334693001e-04  1.955744952368641e-18
-1.099998552249862e-01  1.784670334693001e-04  1.955744952368641e-18
-1.099998552249862e-01  1.784670334693001e-04  1.955744952368641e-18
-1.090250752150301e-01  1.461276751190495e-02  1.790090385484987e-18
-9.850611216112042e-02 -4.895452856376743e-02  2.256023765461665e-18
-1.099301657627813e-01  3.919012039709391e-03  1.916072004154161e-18
-1.096494587715555e-01  8.774747352767578e-03  1.861185572014167e-18
-1.099990639041579e-01  4.538063562244278e-04  1.952901858352183e-18
-1.099990639041579e-01  4.538063562244278e-04  1.952901858352183e-18
-1.099968811263805e-01  8.283371710133816e-04  1.949014845152314e-18
-1.099954101825622e-01  1.004857586853758e-03  1.947174984804528e-18
-1.099979326248849e-01  6.744021435789424e-04  1.950615184309162e-18

TENSORS stress double
0.000000000000000e+00 0.000000000000000e+00 0.000000000000000e+00
0.000000000000000e+00 0.000000000000000e+00 0.000000000000000e+00
0.000000000000000e+00 0.000000000000000e+00 0.000000000000000e+00

0.000000000000000e+00 0.000000000000000e+00 0.000000000000000e+00
0.000000000000000e+00 0.000000000000000e+00 0.000000000000000e+00
0.000000000000000e+00 0.000000000000000e+00 0.000000000000000e+00

0.000000000000000e+00 0.000000000000000e+00 0.000000000000000e+00
0.000000000000000e+00 0.000000000000000e+00 0.000000000000000e+00
0.000000000000000e+00 0.000000000000000e+00 0.000000000000000e+00

0.000000000000000e+00 0.000000000000000e+00 0.000000000000000e+00
0.000000000000000e+00 0.000000000000000e+00 0.000000000000000e+00
0.000000000000000e+00 0.000000000000000e+00 0.000000000000000e+00

0.000000000000000e+00 0.000000000000000e+00 0.000000000000000e+00
0.000000000000000e+00 0.000000000000000e+00 0.000000000000000e+00
0.000000000000000e+00 0.000000000000000e+00 0.000000000000000e+00

0.000000000000000e+00 0.000000000000000e+00 0.000000000000000e+00
0.000000000000000e+00 0.000000000000000e+00 0.000000000000000e+00
0.000000000000000e+00 0.000000000000000e+00 0.000000000000000e+00

0.000000000000000e+00 0.000000000000000e+00 0.000000000000000e+00
0.000000000000000e+00 0.000000000000000e+00 0.000000000000000e+00
0.000000000000000e+00 0.000000000000000e+00 0.000000000000000e+00

0.000000000000000e+00 0.000000000000000e+00 0.000000000000000e+00
0.000000000000000e+00 0.000000000000000e+00 0.000000000000000e+00
0.000000000000000e+00 0.000000000000000e+00 0.000000000000000e+00

0.000000000000000e+00 0.000000000000000e+00 0.000000000000000e+00
0.000000000000000e+00 0.000000000000000e+00 0.000000000000000e+00
0.000000000000000e+00 0.000000000000000e+00 0.000000000000000e+00

0.000000000000000e+00 0.000000000000000e+00 0.000000000000000e+00
0.000000000000000e+00 0.000000000000000e+00 0.000000000000000e+00
0.000000000000000e+00 0.000000000000000e+00 0.000000000000000e+00

0.000000000000000e+00 0.000000000000000e+00 0.000000000000000e+00
0.000000000000000e+00 0.000000000000000e+00 0.000000000000000e+00
0.000000000000000e+00 0.000000000000000e+00 0.000000000000000e+00

0.000000000000000e+00 0.000000000000000e+00 0.000000000000000e+00
0.000000000000000e+00 0.000000000000000e+00 0.000000000000000e+00
0.000000000000000e+00 0.000000000000000e+00 0.000000000000000e+00

0.000000000000000e+00 0.000000000000000e+00 0.000000000000000e+00
0.000000000000000e+00 0.000000000000000e+00 0.000000000000000e+00
0.000000000000000e+00 0.000000000000000e+00 0.000000000000000e+00

0.000000000000000e+00 0.000000000000000e+00 0.000000000000000e+00
0.000000000000000e+00 0.000000000000000e+00 0.000000000000000e+00
0.000000000000000e+00 0.000000000000000e+00 0.000000000000000e+00

0.000000000000000e+00 0.000000000000000e+00 0.000000000000000e+00
0.000000000000000e+00 0.000000000000000e+00 0.000000000000000e+00
0.000000000000000e+00 0.000000000000000e+00 0.000000000000000e+00

0.000000000000000e+00 0.000000000000000e+00 0.000000000000000e+00
0.000000000000000e+00 0.000000000000000e+00 0.000000000000000e+00
0.000000000000000e+00 0.000000000000000e+00 0.000000000000000e+00

0.000000000000000e+00 0.000000000000000e+00 0.000000000000000e+00
0.000000000000000e+00 0.000000000000000e+00 0.000000000000000e+00
0.000000000000000e+00 0.000000000000000e+00 0.000000000000000e+00

0.000000000000000e+00 0.000000000000000e+00 0.000000000000000e+00
0.000000000000000e+00 0.000000000000000e+00 0.000000000000000e+00
0.000000000000000e+00 0.000000000000000e+00 0.000000000000000e+00

0.000000000000000e+00 0.000000000000000e+00 0.000000000000000e+00
0.000000000000000e+00 0.000000000000000e+00 0.000000000000000e+00
0.000000000000000e+00 0.000000000000000e+00 0.000000000000000e+00

0.000000000000000e+00 0.000000000000000e+00 0.000000000000000e+00
0.000000000000000e+00 0.000000000000000e+00 0.000000000000000e+00
0.000000000000000e+00 0.000000000000000e+00 0.000000000000000e+00

0.000000000000000e+00 0.000000000000000e+00 0.000000000000000e+00
0.000000000000000e+00 0.000000000000000e+00 0.000000000000000e+00
0.000000000000000e+00 0.000000000000000e+00 0.000000000000000e+00

0.000000000000000e+00 0.000000000000000e+00 0.000000000000000e+00
0.000000000000000e+00 0.000000000000000e+00 0.000000000000000e+00
0.000000000000000e+00 0.000000000000000e+00 0.000000000000000e+00

0.000000000000000e+00 0.000000000000000e+00 0.000000000000000e+00
0.000000000000000e+00 0.000000000000000e+00 0.000000000000000e+00
0.000000000000000e+00 0.000000000000000e+00 0.000000000000000e+00

0.000000000000000e+00 0.000000000000000e+00 0.000000000000000e+00
0.000000000000000e+00 0.000000000000000e+00 0.000000000000000e+00
0.000000000000000e+00 0.000000000000000e+00 0.000000000000000e+00

0.000000000000000e+00 0.000000000000000e+00 0.000000000000000e+00
0.000000000000000e+00 0.000000000000000e+00 0.000000000000000e+00
0.000000000000000e+00 0.000000000000000e+00 0.000000000000000e+00

0.000000000000000e+00 0.000000000000000e+00 0.000000000000000e+00
0.000000000000000e+00 0.000000000000000e+00 0.000000000000000e+00
0.000000000000000e+00 0.000000000000000e+00 0.000000000000000e+00

0.000000000000000e+00 0.000000000000000e+00 0.000000000000000e+00
0.000000000000000e+00 0.000000000000000e+00 0.000000000000000e+00
0.000000000000000e+00 0.000000000000000e+00 0.000000000000000e+00

0.000000000000000e+00 0.000000000000000e+00 0.000000000000000e+00
0.000000000000000e+00 0.000000000000000e+00 0.000000000000000e+00
0.000000000000000e+00 0.000000000000000e+00 0.000000000000000e+00

0.000000000000000e+00 0.000000000000000e+00 0.000000000000000e+00
0.000000000000000e+00 0.000000000000000e+00 0.000000000000000e+00
0.000000000000000e+00 0.000000000000000e+00 0.000000000000000e+00

0.000000000000000e+00 0.000000000000000e+00 0.000000000000000e+00
0.000000000000000e+00 0.000000000000000e+00 0.000000000000000e+00
0.000000000000000e+00 0.000000000000000e+00 0.000000000000000e+00

0.000000000000000e+00 0.000000000000000e+00 0.000000000000000e+00
0.000000000000000e+00 0.000000000000000e+00 0.000000000000000e+00
0.000000000000000e+00 0.000000000000000e+00 0.000000000000000e+00

0.000000000000000e+00 0.000000000000000e+00 0.000000000000000e+00
0.000000000000000e+00 0.000000000000000e+00 0.000000000000000e+00
0.000000000000000e+00 0.000000000000000e+00 0.000000000000000e+00

0.000000000000000e+00 0.000000000000000e+00 0.000000000000000e+00
0.000000000000000e+00 0.000000000000000e+00 0.000000000000000e+00
0.000000000000000e+00 0.000000000000000e+00 0.000000000000000e+00

0.000000000000000e+00 0.000000000000000e+00 0.000000000000000e+00
0.000000000000000e+00 0.000000000000000e+00 0.000000000000000e+00
0.000000000000000e+00 0.000000000000000e+00 0.000000000000000e+00

0.000000000000000e+00 0.000000000000000e+00 0.000000000000000e+00
0.000000000000000e+00 0.000000000000000e+00 0.000000000000000e+00
0.000000000000000e+00 0.000000000000000e+00 0.000000000000000e+00

0.000000000000000e+00 0.000000000000000e+00 0.000000000000000e+00
0.000000000000000e+00 0.000000000000000e+00 0.000000000000000e+00
0.000000000000000e+00 0.000000000000000e+00 0.000000000000000e+00

0.000000000000000e+00 0.000000000000000e+00 0.000000000000000e+00
0.000000000000000e+00 0.000000000000000e+00 0.000000000000000e+00
0.000000000000000e+00 0.000000000000000e+00 0.000000000000000e+00

0.000000000000000e+00 0.000000000000000e+00 0.000000000000000e+00
0.000000000000000e+00 0.000000000000000e+00 0.000000000000000e+00
0.000000000000000e+00 0.000000000000000e+00 0.000000000000000e+00

0.000000000000000e+00 0.000000000000000e+00 0.000000000000000e+00
0.000000000000000e+00 0.000000000000000e+00 0.000000000000000e+00
0.000000000000000e+00 0.000000000000000e+00 0.000000000000000e+00

0.000000000000000e+00 0.000000000000000e+00 0.000000000000000e+00
0.000000000000000e+00 0.000000000000000e+00 0.000000000000000e+00
0.000000000000000e+00 0.000000000000000e+00 0.000000000000000e+00

0.000000000000000e+00 0.000000000000000e+00 0.000000000000000e+00
0.000000000000000e+00 0.000000000000000e+00 0.000000000000000e+00
0.000000000000000e+00 0.000000000000000e+00 0.000000000000000e+00

0.000000000000000e+00 0.000000000000000e+00 0.000000000000000e+00
0.000000000000000e+00 0.000000000000000e+00 0.000000000000000e+00
0.000000000000000e+00 0.000000000000000e+00 0.000000000000000e+00

0.000000000000000e+00 0.000000000000000e+00 0.000000000000000e+00
0.000000000000000e+00 0.000000000000000e+00 0.000000000000000e+00
0.000000000000000e+00 0.000000000000000e+00 0.000000000000000e+00

0.000000000000000e+00 0.000000000000000e+00 0.000000000000000e+00
0.000000000000000e+00 0.000000000000000e+00 0.000000000000000e+00
0.000000000000000e+00 0.000000000000000e+00 0.000000000000000e+00

0.000000000000000e+00 0.000000000000000e+00 0.000000000000000e+00
0.000000000000000e+00 0.000000000000000e+00 0.000000000000000e+00
0.000000000000000e+00 0.000000000000000e+00 0.000000000000000e+00

0.000000000000000e+00 0.000000000000000e+00 0.000000000000000e+00
0.000000000000000e+00 0.000000000000000e+00 0.000000000000000e+00
0.000000000000000e+00 0.000000000000000e+00 0.000000000000000e+00

0.000000000000000e+00 0.000000000000000e+00 0.000000000000000e+00
0.000000000000000e+00 0.000000000000000e+00 0.000000000000000e+00
0.000000000000000e+00 0.000000000000000e+00 0.000000000000000e+00

0.000000000000000e+00 0.000000000000000e+00 0.000000000000000e+00
0.000000000000000e+00 0.000000000000000e+00 0.000000000000000e+00
0.000000000000000e+00 0.000000000000000e+00 0.000000000000000e+00

0.000000000000000e+00 0.000000000000000e+00 0.000000000000000e+00
0.000000000000000e+00 0.000000000000000e+00 0.000000000000000e+00
0.000000000000000e+00 0.000000000000000e+00 0.000000000000000e+00

0.000000000000000e+00 0.000000000000000e+00 0.000000000000000e+00
0.000000000000000e+00 0.000000000000000e+00 0.000000000000000e+00
0.000000000000000e+00 0.000000000000000e+00 0.000000000000000e+00

0.000000000000000e+00 0.000000000000000e+00 0.000000000000000e+00
0.000000000000000e+00 0.000000000000000e+00 0.000000000000000e+00
0.000000000000000e+00 0.000000000000000e+00 0.000000000000000e+00

0.000000000000000e+00 0.000000000000000e+00 0.000000000000000e+00
0.000000000000000e+00 0.000000000000000e+00 0.000000000000000e+00
0.000000000000000e+00 0.000000000000000e+00 0.000000000000000e+00

0.000000000000000e+00 0.000000000000000e+00 0.000000000000000e+00
0.000000000000000e+00 0.000000000000000e+00 0.000000000000000e+00
0.000000000000000e+00 0.000000000000000e+00 0.000000000000000e+00

0.000000000000000e+00 0.000000000000000e+00 0.000000000000000e+00
0.000000000000000e+00 0.000000000000000e+00 0.000000000000000e+00
0.000000000000000e+00 0.000000000000000e+00 0.000000000000000e+00

0.000000000000000e+00 0.000000000000000e+00 0.000000000000000e+00
0.000000000000000e+00 0.000000000000000e+00 0.000000000000000e+00
0.000000000000000e+00 0.000000000000000e+00 0.000000000000000e+00

0.000000000000000e+00 0.000000000000000e+00 0.000000000000000e+00
0.000000000000000e+00 0.000000000000000e+00 0.000000000000000e+00
0.000000000000000e+00 0.000000000000000e+00 0.000000000000000e+00

0.000000000000000e+00 0.000000000000000e+00 0.000000000000000e+00
0.000000000000000e+00 0.000000000000000e+00 0.000000000000000e+00
0.000000000000000e+00 0.000000000000000e+00 0.000000000000000e+00

0.000000000000000e+00 0.000000000000000e+00 0.000000000000000e+00
0.000000000000000e+00 0.000000000000000e+00 0.000000000000000e+00
0.000000000000000e+00 0.000000000000000e+00 0.000000000000000e+00

0.000000000000000e+00 0.000000000000000e+00 0.000000000000000e+00
0.000000000000000e+00 0.000000000000000e+00 0.000000000000000e+00
0.000000000000000e+00 0.000000000000000e+00 0.000000000000000e+00

0.000000000000000e+00 0.000000000000000e+00 0.000000000000000e+00
0.000000000000000e+00 0.000000000000000e+00 0.000000000000000e+00
0.000000000000000e+00 0.000000000000000e+00 0.000000000000000e+00

0.000000000000000e+00 0.000000000000000e+00 0.000000000000000e+00
0.000000000000000e+00 0.000000000000000e+00 0.000000000000000e+00
0.000000000000000e+00 0.000000000000000e+00 0.000000000000000e+00

0.000000000000000e+00 0.000000000000000e+00 0.000000000000000e+00
0.000000000000000e+00 0.000000000000000e+00 0.000000000000000e+00
0.000000000000000e+00 0.000000000000000e+00 0.000000000000000e+00

0.000000000000000e+00 0.000000000000000e+00 0.000000000000000e+00
0.000000000000000e+00 0.000000000000000e+00 0.000000000000000e+00
0.000000000000000e+00 0.000000000000000e+00 0.000000000000000e+00

0.000000000000000e+00 0.000000000000000e+00 0.000000000000000e+00
0.000000000000000e+00 0.000000000000000e+00 0.000000000000000e+00
0.000000000000000e+00 0.000000000000000e+00 0.000000000000000e+00

0.000000000000000e+00 0.000000000000000e+00 0.000000000000000e+00
0.000000000000000e+00 0.000000000000000e+00 0.000000000000000e+00
0.000000000000000e+00 0.000000000000000e+00 0.000000000000000e+00

0.000000000000000e+00 0.000000000000000e+00 0.000000000000000e+00
0.000000000000000e+00 0.000000000000000e+00 0.000000000000000e+00
0.000000000000000e+00 0.000000000000000e+00 0.000000000000000e+00

0.000000000000000e+00 0.000000000000000e+00 0.000000000000000e+00
0.000000000000000e+00 0.000000000000000e+00 0.000000000000000e+00
0.000000000000000e+00 0.000000000000000e+00 0.000000000000000e+00

0.000000000000000e+00 0.000000000000000e+00 0.000000000000000e+00
0.000000000000000e+00 0.000000000000000e+00 0.000000000000000e+00
0.000000000000000e+00 0.000000000000000e+00 0.000000000000000e+00

0.000000000000000e+00 0.000000000000000e+00 0.000000000000000e+00
0.000000000000000e+00 0.000000000000000e+00 0.000000000000000e+00
0.000000000000000e+00 0.000000000000000e+00 0.000000000000000e+00

0.000000000000000e+00 0.000000000000000e+00 0.000000000000000e+00
0.000000000000000e+00 0.000000000000000e+00 0.000000000000000e+00
0.000000000000000e+00 0.000000000000000e+00 0.000000000000000e+00

0.000000000000000e+00 0.000000000000000e+00 0.000000000000000e+00
0.000000000000000e+00 0.000000000000000e+00 0.000000000000000e+00
0.000000000000000e+00 0.000000000000000e+00 0.000000000000000e+00

0.000000000000000e+00 0.000000000000000e+00 0.000000000000000e+00
0.000000000000000e+00 0.000000000000000e+00 0.000000000000000e+00
0.000000000000000e+00 0.000000000000000e+00 0.000000000000000e+00

0.000000000000000e+00 0.000000000000000e+00 0.000000000000000e+00
0.000000000000000e+00 0.000000000000000e+00 0.000000000000000e+00
0.000000000000000e+00 0.000000000000000e+00 0.000000000000000e+00

0.000000000000000e+00 0.000000000000000e+00 0.000000000000000e+00
0.000000000000000e+00 0.000000000000000e+00 0.000000000000000e+00
0.000000000000000e+00 0.000000000000000e+00 0.000000000000000e+00

0.000000000000000e+00 0.000000000000000e+00 0.000000000000000e+00
0.000000000000000e+00 0.000000000000000e+00 0.000000000000000e+00
0.000000000000000e+00 0.000000000000000e+00 0.000000000000000e+00

0.000000000000000e+00 0.000000000000000e+00 0.000000000000000e+00
0.000000000000000e+00 0.000000000000000e+00 0.000000000000000e+00
0.000000000000000e+00 0.000000000000000e+00 0.000000000000000e+00

0.000000000000000e+00 0.000000000000000e+00 0.000000000000000e+00
0.000000000000000e+00 0.000000000000000e+00 0.000000000000000e+00
0.000000000000000e+00 0.000000000000000e+00 0.000000000000000e+00

0.000000000000000e+00 0.000000000000000e+00 0.000000000000000e+00
0.000000000000000e+00 0.000000000000000e+00 0.000000000000000e+00
0.000000000000000e+00 0.000000000000000e+00 0.000000000000000e+00

0.000000000000000e+00 0.000000000000000e+00 0.000000000000000e+00
0.000000000000000e+00 0.000000000000000e+00 0.000000000000000e+00
0.000000000000000e+00 0.000000000000000e+00 0.000000000000000e+00

0.000000000000000e+00 0.000000000000000e+00 0.000000000000000e+00
0.000000000000000e+00 0.000000000000000e+00 0.000000000000000e+00
0.000000000000000e+00 0.000000000000000e+00 0.000000000000000e+00

0.000000000000000e+00 0.000000000000000e+00 0.000000000000000e+00
0.000000000000000e+00 0.000000000000000e+00 0.000000000000000e+00
0.000000000000000e+00 0.000000000000000e+00 0.000000000000000e+00

0.000000000000000e+00 0.000000000000000e+00 0.000000000000000e+00
0.000000000000000e+00 0.000000000000000e+00 0.000000000000000e+00
0.000000000000000e+00 0.000000000000000e+00 0.000000000000000e+00

0.000000000000000e+00 0.000000000000000e+00 0.000000000000000e+00
0.000000000000000e+00 0.000000000000000e+00 0.000000000000000e+00
0.000000000000000e+00 0.000000000000000e+00 0.000000000000000e+00

0.000000000000000e+00 0.000000000000000e+00 0.000000000000000e+00
0.000000000000000e+00 0.000000000000000e+00 0.000000000000000e+00
0.000000000000000e+00 0.000000000000000e+00 0.000000000000000e+00

0.000000000000000e+00 0.000000000000000e+00 0.000000000000000e+00
0.000000000000000e+00 0.000000000000000e+00 0.000000000000000e+00
0.000000000000000e+00 0.000000000000000e+00 0.000000000000000e+00

0.000000000000000e+00 0.000000000000000e+00 0.000000000000000e+00
0.000000000000000e+00 0.000000000000000e+00 0.000000000000000e+00
0.000000000000000e+00 0.000000000000000e+00 0.000000000000000e+00

0.000000000000000e+00 0.000000000000000e+00 0.000000000000000e+00
0.000000000000000e+00 0.000000000000000e+00 0.000000000000000e+00
0.000000000000000e+00 0.000000000000000e+00 0.000000000000000e+00

0.000000000000000e+00 0.000000000000000e+00 0.000000000000000e+00
0.000000000000000e+00 0.000000000000000e+00 0.000000000000000e+00
0.000000000000000e+00 0.000000000000000e+00 0.000000000000000e+00

0.000000000000000e+00 0.000000000000000e+00 0.000000000000000e+00
0.000000000000000e+00 0.000000000000000e+00 0.000000000000000e+00
0.000000000000000e+00 0.000000000000000e+00 0.000000000000000e+00

0.000000000000000e+00 0.000000000000000e+00 0.000000000000000e+00
0.000000000000000e+00 0.000000000000000e+00 0.000000000000000e+00
0.000000000000000e+00 0.000000000000000e+00 0.000000000000000e+00

0.000000000000000e+00 0.000000000000000e+00 0.000000000000000e+00
0.000000000000000e+00 0.000000000000000e+00 0.000000000000000e+00
0.000000000000000e+00 0.000000000000000e+00 0.000000000000000e+00

0.000000000000000e+00 0.000000000000000e+00 0.000000000000000e+00
0.000000000000000e+00 0.000000000000000e+00 0.000000000000000e+00
0.000000000000000e+00 0.000000000000000e+00 0.000000000000000e+00

0.000000000000000e+00 0.000000000000000e+00 0.000000000000000e+00
0.000000000000000e+00 0.000000000000000e+00 0.000000000000000e+00
0.000000000000000e+00 0.000000000000000e+00 0.000000000000000e+00

0.000000000000000e+00 0.000000000000000e+00 0.000000000000000e+00
0.000000000000000e+00 0.000000000000000e+00 0.000000000000000e+00
0.000000000000000e+00 0.000000000000000e+00 0.000000000000000e+00

0.000000000000000e+00 0.000000000000000e+00 0.000000000000000e+00
0.000000000000000e+00 0.000000000000000e+00 0.000000000000000e+00
0.000000000000000e+00 0.000000000000000e+00 0.000000000000000e+00

0.000000000000000e+00 0.000000000000000e+00 0.000000000000000e+00
0.000000000000000e+00 0.000000000000000e+00 0.000000000000000e+00
0.000000000000000e+00 0.000000000000000e+00 0.000000000000000e+00

0.000000000000000e+00 0.000000000000000e+00 0.000000000000000e+00
0.000000000000000e+00 0.000000000000000e+00 0.000000000000000e+00
0.000000000000000e+00 0.000000000000000e+00 0.000000000000000e+00

0.000000000000000e+00 0.000000000000000e+00 0.000000000000000e+00
0.000000000000000e+00 0.000000000000000e+00 0.000000000000000e+00
0.000000000000000e+00 0.000000000000000e+00 0.000000000000000e+00

0.000000000000000e+00 0.000000000000000e+00 0.000000000000000e+00
0.000000000000000e+00 0.000000000000000e+00 0.000000000000000e+00
0.000000000000000e+00 0.000000000000000e+00 0.000000000000000e+00

0.000000000000000e+00 0.000000000000000e+00 0.000000000000000e+00
0.000000000000000e+00 0.000000000000000e+00 0.000000000000000e+00
0.000000000000000e+00 0.000000000000000e+00 0.000000000000000e+00

0.000000000000000e+00 0.000000000000000e+00 0.000000000000000e+00
0.000000000000000e+00 0.000000000000000e+00 0.000000000000000e+00
0.000000000000000e+00 0.000000000000000e+00 0.000000000000000e+00

0.000000000000000e+00 0.000000000000000e+00 0.000000000000000e+00
0.000000000000000e+00 0.000000000000000e+00 0.000000000000000e+00
0.000000000000000e+00 0.000000000000000e+00 0.000000000000000e+00

0.000000000000000e+00 0.000000000000000e+00 0.000000000000000e+00
0.000000000000000e+00 0.000000000000000e+00 0.000000000000000e+00
0.000000000000000e+00 0.000000000000000e+00 0.000000000000000e+00

0.000000000000000e+00 0.000000000000000e+00 0.000000000000000e+00
0.000000000000000e+00 0.000000000000000e+00 0.000000000000000e+00
0.000000000000000e+00 0.000000000000000e+00 0.000000000000000e+00

0.000000000000000e+00 0.000000000000000e+00 0.000000000000000e+00
0.000000000000000e+00 0.000000000000000e+00 0.000000000000000e+00
0.000000000000000e+00 0.000000000000000e+00 0.000000000000000e+00

0.000000000000000e+00 0.000000000000000e+00 0.000000000000000e+00
0.000000000000000e+00 0.000000000000000e+00 0.000000000000000e+00
0.000000000000000e+00 0.000000000000000e+00 0.000000000000000e+00

0.000000000000000e+00 0.000000000000000e+00 0.000000000000000e+00
0.000000000000000e+00 0.000000000000000e+00 0.000000000000000e+00
0.000000000000000e+00 0.000000000000000e+00 0.000000000000000e+00

0.000000000000000e+00 0.000000000000000e+00 0.000000000000000e+00
0.000000000000000e+00 0.000000000000000e+00 0.000000000000000e+00
0.000000000000000e+00 0.000000000000000e+00 0.000000000000000e+00

0.000000000000000e+00 0.000000000000000e+00 0.000000000000000e+00
0.000000000000000e+00 0.000000000000000e+00 0.000000000000000e+00
0.000000000000000e+00 0.000000000000000e+00 0.000000000000000e+00

0.000000000000000e+00 0.000000000000000e+00 0.000000000000000e+00
0.000000000000000e+00 0.000000000000000e+00 0.000000000000000e+00
0.000000000000000e+00 0.000000000000000e+00 0.000000000000000e+00

0.000000000000000e+00 0.000000000000000e+00 0.000000000000000e+00
0.000000000000000e+00 0.000000000000000e+00 0.000000000000000e+00
0.000000000000000e+00 0.000000000000000e+00 0.000000000000000e+00

0.000000000000000e+00 0.000000000000000e+00 0.000000000000000e+00
0.000000000000000e+00 0.000000000000000e+00 0.000000000000000e+00
0.000000000000000e+00 0.000000000000000e+00 0.000000000000000e+00

0.000000000000000e+00 0.000000000000000e+00 0.000000000000000e+00
0.000000000000000e+00 0.000000000000000e+00 0.000000000000000e+00
0.000000000000000e+00 0.000000000000000e+00 0.000000000000000e+00

0.000000000000000e+00 0.000000000000000e+00 0.000000000000000e+00
0.000000000000000e+00 0.000000000000000e+00 0.000000000000000e+00
0.000000000000000e+00 0.000000000000000e+00 0.000000000000000e+00

0.000000000000000e+00 0.000000000000000e+00 0.000000000000000e+00
0.000000000000000e+00 0.000000000000000e+00 0.000000000000000e+00
0.000000000000000e+00 0.000000000000000e+00 0.000000000000000e+00

0.000000000000000e+00 0.000000000000000e+00 0.000000000000000e+00
0.000000000000000e+00 0.000000000000000e+00 0.000000000000000e+00
0.000000000000000e+00 0.000000000000000e+00 0.000000000000000e+00

0.000000000000000e+00 0.000000000000000e+00 0.000000000000000e+00
0.000000000000000e+00 0.000000000000000e+00 0.000000000000000e+00
0.000000000000000e+00 0.000000000000000e+00 0.000000000000000e+00

0.000000000000000e+00 0.000000000000000e+00 0.000000000000000e+00
0.000000000000000e+00 0.000000000000000e+00 0.000000000000000e+00
0.000000000000000e+00 0.000000000000000e+00 0.000000000000000e+00

0.000000000000000e+00 0.000000000000000e+00 0.000000000000000e+00
0.000000000000000e+00 0.000000000000000e+00 0.000000000000000e+00
0.000000000000000e+00 0.000000000000000e+00 0.000000000000000e+00

0.000000000000000e+00 0.000000000000000e+00 0.000000000000000e+00
0.000000000000000e+00 0.000000000000000e+00 0.000000000000000e+00
0.000000000000000e+00 0.000000000000000e+00 0.000000000000000e+00

0.000000000000000e+00 0.000000000000000e+00 0.000000000000000e+00
0.000000000000000e+00 0.000000000000000e+00 0.000000000000000e+00
0.000000000000000e+00 0.000000000000000e+00 0.000000000000000e+00

0.000000000000000e+00 0.000000000000000e+00 0.000000000000000e+00
0.000000000000000e+00 0.000000000000000e+00 0.000000000000000e+00
0.000000000000000e+00 0.000000000000000e+00 0.000000000000000e+00

0.000000000000000e+00 0.000000000000000e+00 0.000000000000000e+00
0.000000000000000e+00 0.000000000000000e+00 0.000000000000000e+00
0.000000000000000e+00 0.000000000000000e+00 0.000000000000000e+00

0.000000000000000e+00 0.000000000000000e+00 0.000000000000000e+00
0.000000000000000e+00 0.000000000000000e+00 0.000000000000000e+00
0.000000000000000e+00 0.000000000000000e+00 0.000000000000000e+00

0.000000000000000e+00 0.000000000000000e+00 0.000000000000000e+00
0.000000000000000e+00 0.000000000000000e+00 0.000000000000000e+00
0.000000000000000e+00 0.000000000000000e+00 0.000000000000000e+00

0.000000000000000e+00 0.000000000000000e+00 0.000000000000000e+00
0.000000000000000e+00 0.000000000000000e+00 0.000000000000000e+00
0.000000000000000e+00 0.000000000000000e+00 0.000000000000000e+00

0.000000000000000e+00 0.000000000000000e+00 0.000000000000000e+00
0.000000000000000e+00 0.000000000000000e+00 0.000000000000000e+00
0.000000000000000e+00 0.000000000000000e+00 0.000000000000000e+00

0.000000000000000e+00 0.000000000000000e+00 0.000000000000000e+00
0.000000000000000e+00 0.000000000000000e+00 0.000000000000000e+00
0.000000000000000e+00 0.000000000000000e+00 0.000000000000000e+00

0.000000000000000e+00 0.000000000000000e+00 0.000000000000000e+00
0.000000000000000e+00 0.000000000000000e+00 0.000000000000000e+00
0.000000000000000e+00 0.000000000000000e+00 0.000000000000000e+00

0.000000000000000e+00 0.000000000000000e+00 0.000000000000000e+00
0.000000000000000e+00 0.000000000000000e+00 0.000000000000000e+00
0.000000000000000e+00 0.000000000000000e+00 0.000000000000000e+00

0.000000000000000e+00 0.000000000000000e+00 0.000000000000000e+00
0.000000000000000e+00 0.000000000000000e+00 0.000000000000000e+00
0.000000000000000e+00 0.000000000000000e+00 0.000000000000000e+00

0.000000000000000e+00 0.000000000000000e+00 0.000000000000000e+00
0.000000000000000e+00 0.000000000000000e+00 0.000000000000000e+00
0.000000000000000e+00 0.000000000000000e+00 0.000000000000000e+00

0.000000000000000e+00 0.000000000000000e+00 0.000000000000000e+00
0.000000000000000e+00 0.000000000000000e+00 0.000000000000000e+00
0.000000000000000e+00 0.000000000000000e+00 0.000000000000000e+00

0.000000000000000e+00 0.000000000000000e+00 0.000000000000000e+00
0.000000000000000e+00 0.000000000000000e+00 0.000000000000000e+00
0.000000000000000e+00 0.000000000000000e+00 0.000000000000000e+00

0.000000000000000e+00 0.000000000000000e+00 0.000000000000000e+00
0.000000000000000e+00 0.000000000000000e+00 0.000000000000000e+00
0.000000000000000e+00 0.000000000000000e+00 0.000000000000000e+00

0.000000000000000e+00 0.000000000000000e+00 0.000000000000000e+00
0.000000000000000e+00 0.000000000000000e+00 0.000000000000000e+00
0.000000000000000e+00 0.000000000000000e+00 0.000000000000000e+00

0.000000000000000e+00 0.000000000000000e+00 0.000000000000000e+00
0.000000000000000e+00 0.000000000000000e+00 0.000000000000000e+00
0.000000000000000e+00 0.000000000000000e+00 0.000000000000000e+00

0.000000000000000e+00 0.000000000000000e+00 0.000000000000000e+00
0.000000000000000e+00 0.000000000000000e+00 0.000000000000000e+00
0.000000000000000e+00 0.000000000000000e+00 0.000000000000000e+00

0.000000000000000e+00 0.000000000000000e+00 0.000000000000000e+00
0.000000000000000e+00 0.000000000000000e+00 0.000000000000000e+00
0.000000000000000e+00 0.000000000000000e+00 0.000000000000000e+00

0.000000000000000e+00 0.000000000000000e+00 0.000000000000000e+00
0.000000000000000e+00 0.000000000000000e+00 0.000000000000000e+00
0.000000000000000e+00 0.000000000000000e+00 0.000000000000000e+00

0.000000000000000e+00 0.000000000000000e+00 0.000000000000000e+00
0.000000000000000e+00 0.000000000000000e+00 0.000000000000000e+00
0.000000000000000e+00 0.000000000000000e+00 0.000000000000000e+00

0.000000000000000e+00 0.000000000000000e+00 0.000000000000000e+00
0.000000000000000e+00 0.000000000000000e+00 0.000000000000000e+00
0.000000000000000e+00 0.000000000000000e+00 0.000000000000000e+00

0.000000000000000e+00 0.000000000000000e+00 0.000000000000000e+00
0.000000000000000e+00 0.000000000000000e+00 0.000000000000000e+00
0.000000000000000e+00 0.000000000000000e+00 0.000000000000000e+00

0.000000000000000e+00 0.000000000000000e+00 0.000000000000000e+00
0.000000000000000e+00 0.000000000000000e+00 0.000000000000000e+00
0.000000000000000e+00 0.000000000000000e+00 0.000000000000000e+00

0.000000000000000e+00 0.000000000000000e+00 0.000000000000000e+00
0.000000000000000e+00 0.000000000000000e+00 0.000000000000000e+00
0.000000000000000e+00 0.000000000000000e+00 0.000000000000000e+00

0.000000000000000e+00 0.000000000000000e+00 0.000000000000000e+00
0.000000000000000e+00 0.000000000000000e+00 0.000000000000000e+00
0.000000000000000e+00 0.000000000000000e+00 0.000000000000000e+00

0.000000000000000e+00 0.000000000000000e+00 0.000000000000000e+00
0.000000000000000e+00 0.000000000000000e+00 0.000000000000000e+00
0.000000000000000e+00 0.000000000000000e+00 0.000000000000000e+00

0.000000000000000e+00 0.000000000000000e+00 0.000000000000000e+00
0.000000000000000e+00 0.000000000000000e+00 0.000000000000000e+00
0.000000000000000e+00 0.000000000000000e+00 0.000000000000000e+00

0.000000000000000e+00 0.000000000000000e+00 0.000000000000000e+00
0.000000000000000e+00 0.000000000000000e+00 0.000000000000000e+00
0.000000000000000e+00 0.000000000000000e+00 0.000000000000000e+00

0.000000000000000e+00 0.000000000000000e+00 0.000000000000000e+00
0.000000000000000e+00 0.000000000000000e+00 0.000000000000000e+00
0.000000000000000e+00 0.000000000000000e+00 0.000000000000000e+00

0.000000000000000e+00 0.000000000000000e+00 0.000000000000000e+00
0.000000000000000e+00 0.000000000000000e+00 0.000000000000000e+00
0.000000000000000e+00 0.000000000000000e+00 0.000000000000000e+00

0.000000000000000e+00 0.000000000000000e+00 0.000000000000000e+00
0.000000000000000e+00 0.000000000000000e+00 0.000000000000000e+00
0.000000000000000e+00 0.000000000000000e+00 0.000000000000000e+00

0.000000000000000e+00 0.000000000000000e+00 0.000000000000000e+00
0.000000000000000e+00 0.000000000000000e+00 0.000000000000000e+00
0.000000000000000e+00 0.000000000000000e+00 0.000000000000000e+00

0.000000000000000e+00 0.000000000000000e+00 0.000000000000000e+00
0.000000000000000e+00 0.000000000000000e+00 0.000000000000000e+00
0.000000000000000e+00 0.000000000000000e+00 0.000000000000000e+00

0.000000000000000e+00 0.000000000000000e+00 0.000000000000000e+00
0.000000000000000e+00 0.000000000000000e+00 0.000000000000000e+00
0.000000000000000e+00 0.000000000000000e+00 0.000000000000000e+00

0.000000000000000e+00 0.000000000000000e+00 0.000000000000000e+00
0.000000000000000e+00 0.000000000000000e+00 0.000000000000000e+00
0.000000000000000e+00 0.000000000000000e+00 0.000000000000000e+00

0.000000000000000e+00 0.000000000000000e+00 0.000000000000000e+00
0.000000000000000e+00 0.000000000000000e+00 0.000000000000000e+00
0.000000000000000e+00 0.000000000000000e+00 0.000000000000000e+00

0.000000000000000e+00 0.000000000000000e+00 0.000000000000000e+00
0.000000000000000e+00 0.000000000000000e+00 0.000000000000000e+00
0.000000000000000e+00 0.000000000000000e+00 0.000000000000000e+00

0.000000000000000e+00 0.000000000000000e+00 0.000000000000000e+00
0.000000000000000e+00 0.000000000000000e+00 0.000000000000000e+00
0.000000000000000e+00 0.000000000000000e+00 0.000000000000000e+00

0.000000000000000e+00 0.000000000000000e+00 0.000000000000000e+00
0.000000000000000e+00 0.000000000000000e+00 0.000000000000000e+00
0.000000000000000e+00 0.000000000000000e+00 0.000000000000000e+00

0.000000000000000e+00 0.000000000000000e+00 0.000000000000000e+00
0.000000000000000e+00 0.000000000000000e+00 0.000000000000000e+00
0.000000000000000e+00 0.000000000000000e+00 0.000000000000000e+00

0.000000000000000e+00 0.000000000000000e+00 0.000000000000000e+00
0.000000000000000e+00 0.000000000000000e+00 0.000000000000000e+00
0.000000000000000e+00 0.000000000000000e+00 0.000000000000000e+00

0.000000000000000e+00 0.000000000000000e+00 0.000000000000000e+00
0.000000000000000e+00 0.000000000000000e+00 0.000000000000000e+00
0.000000000000000e+00 0.000000000000000e+00 0.000000000000000e+00

0.000000000000000e+00 0.000000000000000e+00 0.000000000000000e+00
0.000000000000000e+00 0.000000000000000e+00 0.000000000000000e+00
0.000000000000000e+00 0.000000000000000e+00 0.000000000000000e+00

0.000000000000000e+00 0.000000000000000e+00 0.000000000000000e+00
0.000000000000000e+00 0.000000000000000e+00 0.000000000000000e+00
0.000000000000000e+00 0.000000000000000e+00 0.000000000000000e+00

0.000000000000000e+00 0.000000000000000e+00 0.000000000000000e+00
0.000000000000000e+00 0.000000000000000e+00 0.000000000000000e+00
0.000000000000000e+00 0.000000000000000e+00 0.000000000000000e+00

0.000000000000000e+00 0.000000000000000e+00 0.000000000000000e+00
0.000000000000000e+00 0.000000000000000e+00 0.000000000000000e+00
0.000000000000000e+00 0.000000000000000e+00 0.000000000000000e+00

0.000000000000000e+00 0.000000000000000e+00 0.000000000000000e+00
0.000000000000000e+00 0.000000000000000e+00 0.000000000000000e+00
0.000000000000000e+00 0.000000000000000e+00 0.000000000000000e+00

0.000000000000000e+00 0.000000000000000e+00 0.000000000000000e+00
0.000000000000000e+00 0.000000000000000e+00 0.000000000000000e+00
0.000000000000000e+00 0.000000000000000e+00 0.000000000000000e+00

0.000000000000000e+00 0.000000000000000e+00 0.000000000000000e+00
0.000000000000000e+00 0.000000000000000e+00 0.000000000000000e+00
0.000000000000000e+00 0.000000000000000e+00 0.000000000000000e+00

0.000000000000000e+00 0.000000000000000e+00 0.000000000000000e+00
0.000000000000000e+00 0.000000000000000e+00 0.000000000000000e+00
0.000000000000000e+00 0.000000000000000e+00 0.000000000000000e+00

0.000000000000000e+00 0.000000000000000e+00 0.000000000000000e+00
0.000000000000000e+00 0.000000000000000e+00 0.000000000000000e+00
0.000000000000000e+00 0.000000000000000e+00 0.000000000000000e+00

0.000000000000000e+00 0.000000000000000e+00 0.000000000000000e+00
0.000000000000000e+00 0.000000000000000e+00 0.000000000000000e+00
0.000000000000000e+00 0.000000000000000e+00 0.000000000000000e+00

0.000000000000000e+00 0.000000000000000e+00 0.000000000000000e+00
0.000000000000000e+00 0.000000000000000e+00 0.000000000000000e+00
0.000000000000000e+00 0.000000000000000e+00 0.000000000000000e+00

0.000000000000000e+00 0.000000000000000e+00 0.000000000000000e+00
0.000000000000000e+00 0.000000000000000e+00 0.000000000000000e+00
0.000000000000000e+00 0.000000000000000e+00 0.000000000000000e+00

0.000000000000000e+00 0.000000000000000e+00 0.000000000000000e+00
0.000000000000000e+00 0.000000000000000e+00 0.000000000000000e+00
0.000000000000000e+00 0.000000000000000e+00 0.000000000000000e+00

0.000000000000000e+00 0.000000000000000e+00 0.000000000000000e+00
0.000000000000000e+00 0.000000000000000e+00 0.000000000000000e+00
0.000000000000000e+00 0.000000000000000e+00 0.000000000000000e+00

0.000000000000000e+00 0.000000000000000e+00 0.000000000000000e+00
0.000000000000000e+00 0.000000000000000e+00 0.000000000000000e+00
0.000000000000000e+00 0.000000000000000e+00 0.000000000000000e+00

0.000000000000000e+00 0.000000000000000e+00 0.000000000000000e+00
0.000000000000000e+00 0.000000000000000e+00 0.000000000000000e+00
0.000000000000000e+00 0.000000000000000e+00 0.000000000000000e+00

0.000000000000000e+00 0.000000000000000e+00 0.000000000000000e+00
0.000000000000000e+00 0.000000000000000e+00 0.000000000000000e+00
0.000000000000000e+00 0.000000000000000e+00 0.000000000000000e+00

0.000000000000000e+00 0.000000000000000e+00 0.000000000000000e+00
0.000000000000000e+00 0.000000000000000e+00 0.000000000000000e+00
0.000000000000000e+00 0.000000000000000e+00 0.000000000000000e+00

0.000000000000000e+00 0.000000000000000e+00 0.000000000000000e+00
0.000000000000000e+00 0.000000000000000e+00 0.000000000000000e+00
0.000000000000000e+00 0.000000000000000e+00 0.000000000000000e+00

0.000000000000000e+00 0.000000000000000e+00 0.000000000000000e+00
0.000000000000000e+00 0.000000000000000e+00 0.000000000000000e+00
0.000000000000000e+00 0.000000000000000e+00 0.000000000000000e+00

0.000000000000000e+00 0.000000000000000e+00 0.000000000000000e+00
0.000000000000000e+00 0.000000000000000e+00 0.000000000000000e+00
0.000000000000000e+00 0.000000000000000e+00 0.000000000000000e+00

0.000000000000000e+00 0.000000000000000e+00 0.000000000000000e+00
0.000000000000000e+00 0.000000000000000e+00 0.000000000000000e+00
0.000000000000000e+00 0.000000000000000e+00 0.000000000000000e+00

0.000000000000000e+00 0.000000000000000e+00 0.000000000000000e+00
0.000000000000000e+00 0.000000000000000e+00 0.000000000000000e+00
0.000000000000000e+00 0.000000000000000e+00 0.000000000000000e+00

0.000000000000000e+00 0.000000000000000e+00 0.000000000000000e+00
0.000000000000000e+00 0.000000000000000e+00 0.000000000000000e+00
0.000000000000000e+00 0.000000000000000e+00 0.000000000000000e+00

0.000000000000000e+00 0.000000000000000e+00 0.000000000000000e+00
0.000000000000000e+00 0.000000000000000e+00 0.000000000000000e+00
0.000000000000000e+00 0.000000000000000e+00 0.000000000000000e+00

0.000000000000000e+00 0.000000000000000e+00 0.000000000000000e+00
0.000000000000000e+00 0.000000000000000e+00 0.000000000000000e+00
0.000000000000000e+00 0.000000000000000e+00 0.000000000000000e+00

0.000000000000000e+00 0.000000000000000e+00 0.000000000000000e+00
0.000000000000000e+00 0.000000000000000e+00 0.000000000000000e+00
0.000000000000000e+00 0.000000000000000e+00 0.000000000000000e+00

0.000000000000000e+00 0.000000000000000e+00 0.000000000000000e+00
0.000000000000000e+00 0.000000000000000e+00 0.000000000000000e+00
0.000000000000000e+00 0.000000000000000e+00 0.000000000000000e+00

0.000000000000000e+00 0.000000000000000e+00 0.000000000000000e+00
0.000000000000000e+00 0.000000000000000e+00 0.000000000000000e+00
0.000000000000000e+00 0.000000000000000e+00 0.000000000000000e+00

0.000000000000000e+00 0.000000000000000e+00 0.000000000000000e+00
0.000000000000000e+00 0.000000000000000e+00 0.000000000000000e+00
0.000000000000000e+00 0.000000000000000e+00 0.000000000000000e+00

0.000000000000000e+00 0.000000000000000e+00 0.000000000000000e+00
0.000000000000000e+00 0.000000000000000e+00 0.000000000000000e+00
0.000000000000000e+00 0.000000000000000e+00 0.000000000000000e+00

0.000000000000000e+00 0.000000000000000e+00 0.000000000000000e+00
0.000000000000000e+00 0.000000000000000e+00 0.000000000000000e+00
0.000000000000000e+00 0.000000000000000e+00 0.000000000000000e+00

0.000000000000000e+00 0.000000000000000e+00 0.000000000000000e+00
0.000000000000000e+00 0.000000000000000e+00 0.000000000000000e+00
0.000000000000000e+00 0.000000000000000e+00 0.000000000000000e+00

0.000000000000000e+00 0.000000000000000e+00 0.000000000000000e+00
0.000000000000000e+00 0.000000000000000e+00 0.000000000000000e+00
0.000000000000000e+00 0.000000000000000e+00 0.000000000000000e+00

0.000000000000000e+00 0.000000000000000e+00 0.000000000000000e+00
0.000000000000000e+00 0.000000000000000e+00 0.000000000000000e+00
0.000000000000000e+00 0.000000000000000e+00 0.000000000000000e+00

0.000000000000000e+00 0.000000000000000e+00 0.000000000000000e+00
0.000000000000000e+00 0.000000000000000e+00 0.000000000000000e+00
0.000000000000000e+00 0.000000000000000e+00 0.000000000000000e+00

0.000000000000000e+00 0.000000000000000e+00 0.000000000000000e+00
0.000000000000000e+00 0.000000000000000e+00 0.000000000000000e+00
0.000000000000000e+00 0.000000000000000e+00 0.000000000000000e+00

0.000000000000000e+00 0.000000000000000e+00 0.000000000000000e+00
0.000000000000000e+00 0.000000000000000e+00 0.000000000000000e+00
0.000000000000000e+00 0.000000000000000e+00 0.000000000000000e+00

0.000000000000000e+00 0.000000000000000e+00 0.000000000000000e+00
0.000000000000000e+00 0.000000000000000e+00 0.000000000000000e+00
0.000000000000000e+00 0.000000000000000e+00 0.000000000000000e+00

0.000000000000000e+00 0.000000000000000e+00 0.000000000000000e+00
0.000000000000000e+00 0.000000000000000e+00 0.000000000000000e+00
0.000000000000000e+00 0.000000000000000e+00 0.000000000000000e+00

0.000000000000000e+00 0.000000000000000e+00 0.000000000000000e+00
0.000000000000000e+00 0.000000000000000e+00 0.000000000000000e+00
0.000000000000000e+00 0.000000000000000e+00 0.000000000000000e+00

0.000000000000000e+00 0.000000000000000e+00 0.000000000000000e+00
0.000000000000000e+00 0.000000000000000e+00 0.000000000000000e+00
0.000000000000000e+00 0.000000000000000e+00 0.000000000000000e+00

0.000000000000000e+00 0.000000000000000e+00 0.000000000000000e+00
0.000000000000000e+00 0.000000000000000e+00 0.000000000000000e+00
0.000000000000000e+00 0.000000000000000e+00 0.000000000000000e+00

0.000000000000000e+00 0.000000000000000e+00 0.000000000000000e+00
0.000000000000000e+00 0.000000000000000e+00 0.000000000000000e+00
0.000000000000000e+00 0.000000000000000e+00 0.000000000000000e+00

0.000000000000000e+00 0.000000000000000e+00 0.000000000000000e+00
0.000000000000000e+00 0.000000000000000e+00 0.000000000000000e+00
0.000000000000000e+00 0.000000000000000e+00 0.000000000000000e+00

0.000000000000000e+00 0.000000000000000e+00 0.000000000000000e+00
0.000000000000000e+00 0.000000000000000e+00 0.000000000000000e+00
0.000000000000000e+00 0.000000000000000e+00 0.000000000000000e+00

0.000000000000000e+00 0.000000000000000e+00 0.000000000000000e+00
0.000000000000000e+00 0.000000000000000e+00 0.000000000000000e+00
0.000000000000000e+00 0.000000000000000e+00 0.000000000000000e+00

0.000000000000000e+00 0.000000000000000e+00 0.000000000000000e+00
0.000000000000000e+00 0.000000000000000e+00 0.000000000000000e+00
0.000000000000000e+00 0.000000000000000e+00 0.000000000000000e+00

0.000000000000000e+00 0.000000000000000e+00 0.000000000000000e+00
0.000000000000000e+00 0.000000000000000e+00 0.000000000000000e+00
0.000000000000000e+00 0.000000000000000e+00 0.000000000000000e+00

0.000000000000000e+00 0.000000000000000e+00 0.000000000000000e+00
0.000000000000000e+00 0.000000000000000e+00 0.000000000000000e+00
0.000000000000000e+00 0.000000000000000e+00 0.000000000000000e+00

0.000000000000000e+00 0.000000000000000e+00 0.000000000000000e+00
0.000000000000000e+00 0.000000000000000e+00 0.000000000000000e+00
0.000000000000000e+00 0.000000000000000e+00 0.000000000000000e+00

0.000000000000000e+00 0.000000000000000e+00 0.000000000000000e+00
0.000000000000000e+00 0.000000000000000e+00 0.000000000000000e+00
0.000000000000000e+00 0.000000000000000e+00 0.000000000000000e+00

0.000000000000000e+00 0.000000000000000e+00 0.000000000000000e+00
0.000000000000000e+00 0.000000000000000e+00 0.000000000000000e+00
0.000000000000000e+00 0.000000000000000e+00 0.000000000000000e+00

0.000000000000000e+00 0.000000000000000e+00 0.000000000000000e+00
0.000000000000000e+00 0.000000000000000e+00 0.000000000000000e+00
0.000000000000000e+00 0.000000000000000e+00 0.000000000000000e+00

0.000000000000000e+00 0.000000000000000e+00 0.000000000000000e+00
0.000000000000000e+00 0.000000000000000e+00 0.000000000000000e+00
0.000000000000000e+00 0.000000000000000e+00 0.000000000000000e+00

0.000000000000000e+00 0.000000000000000e+00 0.000000000000000e+00
0.000000000000000e+00 0.000000000000000e+00 0.000000000000000e+00
0.000000000000000e+00 0.000000000000000e+00 0.000000000000000e+00

0.000000000000000e+00 0.000000000000000e+00 0.000000000000000e+00
0.000000000000000e+00 0.000000000000000e+00 0.000000000000000e+00
0.000000000000000e+00 0.000000000000000e+00 0.000000000000000e+00

0.000000000000000e+00 0.000000000000000e+00 0.000000000000000e+00
0.000000000000000e+00 0.000000000000000e+00 0.000000000000000e+00
0.000000000000000e+00 0.000000000000000e+00 0.000000000000000e+00

0.000000000000000e+00 0.000000000000000e+00 0.000000000000000e+00
0.000000000000000e+00 0.000000000000000e+00 0.000000000000000e+00
0.000000000000000e+00 0.000000000000000e+00 0.000000000000000e+00

0.000000000000000e+00 0.000000000000000e+00 0.000000000000000e+00
0.000000000000000e+00 0.000000000000000e+00 0.000000000000000e+00
0.000000000000000e+00 0.000000000000000e+00 0.000000000000000e+00

0.000000000000000e+00 0.000000000000000e+00 0.000000000000000e+00
0.000000000000000e+00 0.000000000000000e+00 0.000000000000000e+00
0.000000000000000e+00 0.000000000000000e+00 0.000000000000000e+00

0.000000000000000e+00 0.000000000000000e+00 0.000000000000000e+00
0.000000000000000e+00 0.000000000000000e+00 0.000000000000000e+00
0.000000000000000e+00 0.000000000000000e+00 0.000000000000000e+00

0.000000000000000e+00 0.000000000000000e+00 0.000000000000000e+00
0.000000000000000e+00 0.000000000000000e+00 0.000000000000000e+00
0.000000000000000e+00 0.000000000000000e+00 0.000000000000000e+00

0.000000000000000e+00 0.000000000000000e+00 0.000000000000000e+00
0.000000000000000e+00 0.000000000000000e+00 0.000000000000000e+00
0.000000000000000e+00 0.000000000000000e+00 0.000000000000000e+00

0.000000000000000e+00 0.000000000000000e+00 0.000000000000000e+00
0.000000000000000e+00 0.000000000000000e+00 0.000000000000000e+00
0.000000000000000e+00 0.000000000000000e+00 0.000000000000000e+00

0.000000000000000e+00 0.000000000000000e+00 0.000000000000000e+00
0.000000000000000e+00 0.000000000000000e+00 0.000000000000000e+00
0.000000000000000e+00 0.000000000000000e+00 0.000000000000000e+00

0.000000000000000e+00 0.000000000000000e+00 0.000000000000000e+00
0.000000000000000e+00 0.000000000000000e+00 0.000000000000000e+00
0.000000000000000e+00 0.000000000000000e+00 0.000000000000000e+00

0.000000000000000e+00 0.000000000000000e+00 0.000000000000000e+00
0.000000000000000e+00 0.000000000000000e+00 0.000000000000000e+00
0.000000000000000e+00 0.000000000000000e+00 0.000000000000000e+00

0.000000000000000e+00 0.000000000000000e+00 0.000000000000000e+00
0.000000000000000e+00 0.000000000000000e+00 0.000000000000000e+00
0.000000000000000e+00 0.000000000000000e+00 0.000000000000000e+00

0.000000000000000e+00 0.000000000000000e+00 0.000000000000000e+00
0.000000000000000e+00 0.000000000000000e+00 0.000000000000000e+00
0.000000000000000e+00 0.000000000000000e+00 0.000000000000000e+00

0.000000000000000e+00 0.000000000000000e+00 0.000000000000000e+00
0.000000000000000e+00 0.000000000000000e+00 0.000000000000000e+00
0.000000000000000e+00 0.000000000000000e+00 0.000000000000000e+00

0.000000000000000e+00 0.000000000000000e+00 0.000000000000000e+00
0.000000000000000e+00 0.000000000000000e+00 0.000000000000000e+00
0.000000000000000e+00 0.000000000000000e+00 0.000000000000000e+00

0.000000000000000e+00 0.000000000000000e+00 0.000000000000000e+00
0.000000000000000e+00 0.000000000000000e+00 0.000000000000000e+00
0.000000000000000e+00 0.000000000000000e+00 0.000000000000000e+00

0.000000000000000e+00 0.000000000000000e+00 0.000000000000000e+00
0.000000000000000e+00 0.000000000000000e+00 0.000000000000000e+00
0.000000000000000e+00 0.000000000000000e+00 0.000000000000000e+00

0.000000000000000e+00 0.000000000000000e+00 0.000000000000000e+00
0.000000000000000e+00 0.000000000000000e+00 0.000000000000000e+00
0.000000000000000e+00 0.000000000000000e+00 0.000000000000000e+00

0.000000000000000e+00 0.000000000000000e+00 0.000000000000000e+00
0.000000000000000e+00 0.000000000000000e+00 0.000000000000000e+00
0.000000000000000e+00 0.000000000000000e+00 0.000000000000000e+00

0.000000000000000e+00 0.000000000000000e+00 0.000000000000000e+00
0.000000000000000e+00 0.000000000000000e+00 0.000000000000000e+00
0.000000000000000e+00 0.000000000000000e+00 0.000000000000000e+00

0.000000000000000e+00 0.000000000000000e+00 0.000000000000000e+00
0.000000000000000e+00 0.000000000000000e+00 0.000000000000000e+00
0.000000000000000e+00 0.000000000000000e+00 0.000000000000000e+00

0.000000000000000e+00 0.000000000000000e+00 0.000000000000000e+00
0.000000000000000e+00 0.000000000000000e+00 0.000000000000000e+00
0.000000000000000e+00 0.000000000000000e+00 0.000000000000000e+00

0.000000000000000e+00 0.000000000000000e+00 0.000000000000000e+00
0.000000000000000e+00 0.000000000000000e+00 0.000000000000000e+00
0.000000000000000e+00 0.000000000000000e+00 0.000000000000000e+00

0.000000000000000e+00 0.000000000000000e+00 0.000000000000000e+00
0.000000000000000e+00 0.000000000000000e+00 0.000000000000000e+00
0.000000000000000e+00 0.000000000000000e+00 0.000000000000000e+00

0.000000000000000e+00 0.000000000000000e+00 0.000000000000000e+00
0.000000000000000e+00 0.000000000000000e+00 0.000000000000000e+00
0.000000000000000e+00 0.000000000000000e+00 0.000000000000000e+00

0.000000000000000e+00 0.000000000000000e+00 0.000000000000000e+00
0.000000000000000e+00 0.000000000000000e+00 0.000000000000000e+00
0.000000000000000e+00 0.000000000000000e+00 0.000000000000000e+00

0.000000000000000e+00 0.000000000000000e+00 0.000000000000000e+00
0.000000000000000e+00 0.000000000000000e+00 0.000000000000000e+00
0.000000000000000e+00 0.000000000000000e+00 0.000000000000000e+00

0.000000000000000e+00 0.000000000000000e+00 0.000000000000000e+00
0.000000000000000e+00 0.000000000000000e+00 0.000000000000000e+00
0.000000000000000e+00 0.000000000000000e+00 0.000000000000000e+00

0.000000000000000e+00 0.000000000000000e+00 0.000000000000000e+00
0.000000000000000e+00 0.000000000000000e+00 0.000000000000000e+00
0.000000000000000e+00 0.000000000000000e+00 0.000000000000000e+00

0.000000000000000e+00 0.000000000000000e+00 0.000000000000000e+00
0.000000000000000e+00 0.000000000000000e+00 0.000000000000000e+00
0.000000000000000e+00 0.000000000000000e+00 0.000000000000000e+00

0.000000000000000e+00 0.000000000000000e+00 0.000000000000000e+00
0.000000000000000e+00 0.000000000000000e+00 0.000000000000000e+00
0.000000000000000e+00 0.000000000000000e+00 0.000000000000000e+00

0.000000000000000e+00 0.000000000000000e+00 0.000000000000000e+00
0.000000000000000e+00 0.000000000000000e+00 0.000000000000000e+00
0.000000000000000e+00 0.000000000000000e+00 0.000000000000000e+00

0.000000000000000e+00 0.000000000000000e+00 0.000000000000000e+00
0.000000000000000e+00 0.000000000000000e+00 0.000000000000000e+00
0.000000000000000e+00 0.000000000000000e+00 0.000000000000000e+00

0.000000000000000e+00 0.000000000000000e+00 0.000000000000000e+00
0.000000000000000e+00 0.000000000000000e+00 0.000000000000000e+00
0.000000000000000e+00 0.000000000000000e+00 0.000000000000000e+00

0.000000000000000e+00 0.000000000000000e+00 0.000000000000000e+00
0.000000000000000e+00 0.000000000000000e+00 0.000000000000000e+00
0.000000000000000e+00 0.000000000000000e+00 0.000000000000000e+00

0.000000000000000e+00 0.000000000000000e+00 0.000000000000000e+00
0.000000000000000e+00 0.000000000000000e+00 0.000000000000000e+00
0.000000000000000e+00 0.000000000000000e+00 0.000000000000000e+00

0.000000000000000e+00 0.000000000000000e+00 0.000000000000000e+00
0.000000000000000e+00 0.000000000000000e+00 0.000000000000000e+00
0.000000000000000e+00 0.000000000000000e+00 0.000000000000000e+00

0.000000000000000e+00 0.000000000000000e+00 0.000000000000000e+00
0.000000000000000e+00 0.000000000000000e+00 0.000000000000000e+00
0.000000000000000e+00 0.000000000000000e+00 0.000000000000000e+00

0.000000000000000e+00 0.000000000000000e+00 0.000000000000000e+00
0.000000000000000e+00 0.000000000000000e+00 0.000000000000000e+00
0.000000000000000e+00 0.000000000000000e+00 0.000000000000000e+00

0.000000000000000e+00 0.000000000000000e+00 0.000000000000000e+00
0.000000000000000e+00 0.000000000000000e+00 0.000000000000000e+00
0.000000000000000e+00 0.000000000000000e+00 0.000000000000000e+00

0.000000000000000e+00 0.000000000000000e+00 0.000000000000000e+00
0.000000000000000e+00 0.000000000000000e+00 0.000000000000000e+00
0.000000000000000e+00 0.000000000000000e+00 0.000000000000000e+00

0.000000000000000e+00 0.000000000000000e+00 0.000000000000000e+00
0.000000000000000e+00 0.000000000000000e+00 0.000000000000000e+00
0.000000000000000e+00 0.000000000000000e+00 0.000000000000000e+00

0.000000000000000e+00 0.000000000000000e+00 0.000000000000000e+00
0.000000000000000e+00 0.000000000000000e+00 0.000000000000000e+00
0.000000000000000e+00 0.000000000000000e+00 0.000000000000000e+00

0.000000000000000e+00 0.000000000000000e+00 0.000000000000000e+00
0.000000000000000e+00 0.000000000000000e+00 0.000000000000000e+00
0.000000000000000e+00 0.000000000000000e+00 0.000000000000000e+00

0.000000000000000e+00 0.000000000000000e+00 0.000000000000000e+00
0.000000000000000e+00 0.000000000000000e+00 0.000000000000000e+00
0.000000000000000e+00 0.000000000000000e+00 0.000000000000000e+00

0.000000000000000e+00 0.000000000000000e+00 0.000000000000000e+00
0.000000000000000e+00 0.000000000000000e+00 0.000000000000000e+00
0.000000000000000e+00 0.000000000000000e+00 0.000000000000000e+00

0.000000000000000e+00 0.000000000000000e+00 0.000000000000000e+00
0.000000000000000e+00 0.000000000000000e+00 0.000000000000000e+00
0.000000000000000e+00 0.000000000000000e+00 0.000000000000000e+00

0.000000000000000e+00 0.000000000000000e+00 0.000000000000000e+00
0.000000000000000e+00 0.000000000000000e+00 0.000000000000000e+00
0.000000000000000e+00 0.000000000000000e+00 0.000000000000000e+00

0.000000000000000e+00 0.000000000000000e+00 0.000000000000000e+00
0.000000000000000e+00 0.000000000000000e+00 0.000000000000000e+00
0.000000000000000e+00 0.000000000000000e+00 0.000000000000000e+00

0.000000000000000e+00 0.000000000000000e+00 0.000000000000000e+00
0.000000000000000e+00 0.000000000000000e+00 0.000000000000000e+00
0.000000000000000e+00 0.000000000000000e+00 0.000000000000000e+00

0.000000000000000e+00 0.000000000000000e+00 0.000000000000000e+00
0.000000000000000e+00 0.000000000000000e+00 0.000000000000000e+00
0.000000000000000e+00 0.000000000000000e+00 0.000000000000000e+00

0.000000000000000e+00 0.000000000000000e+00 0.000000000000000e+00
0.000000000000000e+00 0.000000000000000e+00 0.000000000000000e+00
0.000000000000000e+00 0.000000000000000e+00 0.000000000000000e+00

0.000000000000000e+00 0.000000000000000e+00 0.000000000000000e+00
0.000000000000000e+00 0.000000000000000e+00 0.000000000000000e+00
0.000000000000000e+00 0.000000000000000e+00 0.000000000000000e+00

0.000000000000000e+00 0.000000000000000e+00 0.000000000000000e+00
0.000000000000000e+00 0.000000000000000e+00 0.000000000000000e+00
0.000000000000000e+00 0.000000000000000e+00 0.000000000000000e+00

0.000000000000000e+00 0.000000000000000e+00 0.000000000000000e+00
0.000000000000000e+00 0.000000000000000e+00 0.000000000000000e+00
0.000000000000000e+00 0.000000000000000e+00 0.000000000000000e+00

0.000000000000000e+00 0.000000000000000e+00 0.000000000000000e+00
0.000000000000000e+00 0.000000000000000e+00 0.000000000000000e+00
0.000000000000000e+00 0.000000000000000e+00 0.000000000000000e+00

0.000000000000000e+00 0.000000000000000e+00 0.000000000000000e+00
0.000000000000000e+00 0.000000000000000e+00 0.000000000000000e+00
0.000000000000000e+00 0.000000000000000e+00 0.000000000000000e+00

0.000000000000000e+00 0.000000000000000e+00 0.000000000000000e+00
0.000000000000000e+00 0.000000000000000e+00 0.000000000000000e+00
0.000000000000000e+00 0.000000000000000e+00 0.000000000000000e+00

0.000000000000000e+00 0.000000000000000e+00 0.000000000000000e+00
0.000000000000000e+00 0.000000000000000e+00 0.000000000000000e+00
0.000000000000000e+00 0.000000000000000e+00 0.000000000000000e+00

0.000000000000000e+00 0.000000000000000e+00 0.000000000000000e+00
0.000000000000000e+00 0.000000000000000e+00 0.000000000000000e+00
0.000000000000000e+00 0.000000000000000e+00 0.000000000000000e+00

0.000000000000000e+00 0.000000000000000e+00 0.000000000000000e+00
0.000000000000000e+00 0.000000000000000e+00 0.000000000000000e+00
0.000000000000000e+00 0.000000000000000e+00 0.000000000000000e+00

0.000000000000000e+00 0.000000000000000e+00 0.000000000000000e+00
0.000000000000000e+00 0.000000000000000e+00 0.000000000000000e+00
0.000000000000000e+00 0.000000000000000e+00 0.000000000000000e+00

0.000000000000000e+00 0.000000000000000e+00 0.000000000000000e+00
0.000000000000000e+00 0.000000000000000e+00 0.000000000000000e+00
0.000000000000000e+00 0.000000000000000e+00 0.000000000000000e+00

0.000000000000000e+00 0.000000000000000e+00 0.000000000000000e+00
0.000000000000000e+00 0.000000000000000e+00 0.000000000000000e+00
0.000000000000000e+00 0.000000000000000e+00 0.000000000000000e+00

0.000000000000000e+00 0.000000000000000e+00 0.000000000000000e+00
0.000000000000000e+00 0.000000000000000e+00 0.000000000000000e+00
0.000000000000000e+00 0.000000000000000e+00 0.000000000000000e+00

0.000000000000000e+00 0.000000000000000e+00 0.000000000000000e+00
0.000000000000000e+00 0.000000000000000e+00 0.000000000000000e+00
0.000000000000000e+00 0.000000000000000e+00 0.000000000000000e+00

0.000000000000000e+00 0.000000000000000e+00 0.000000000000000e+00
0.000000000000000e+00 0.000000000000000e+00 0.000000000000000e+00
0.000000000000000e+00 0.000000000000000e+00 0.000000000000000e+00

0.000000000000000e+00 0.000000000000000e+00 0.000000000000000e+00
0.000000000000000e+00 0.000000000000000e+00 0.000000000000000e+00
0.000000000000000e+00 0.000000000000000e+00 0.000000000000000e+00

0.000000000000000e+00 0.000000000000000e+00 0.000000000000000e+00
0.000000000000000e+00 0.000000000000000e+00 0.000000000000000e+00
0.000000000000000e+00 0.000000000000000e+00 0.000000000000000e+00

0.000000000000000e+00 0.000000000000000e+00 0.000000000000000e+00
0.000000000000000e+00 0.000000000000000e+00 0.000000000000000e+00
0.000000000000000e+00 0.000000000000000e+00 0.000000000000000e+00

0.000000000000000e+00 0.000000000000000e+00 0.000000000000000e+00
0.000000000000000e+00 0.000000000000000e+00 0.000000000000000e+00
0.000000000000000e+00 0.000000000000000e+00 0.000000000000000e+00

0.000000000000000e+00 0.000000000000000e+00 0.000000000000000e+00
0.000000000000000e+00 0.000000000000000e+00 0.000000000000000e+00
0.000000000000000e+00 0.000000000000000e+00 0.000000000000000e+00

0.000000000000000e+00 0.000000000000000e+00 0.000000000000000e+00
0.000000000000000e+00 0.000000000000000e+00 0.000000000000000e+00
0.000000000000000e+00 0.000000000000000e+00 0.000000000000000e+00

0.000000000000000e+00 0.000000000000000e+00 0.000000000000000e+00
0.000000000000000e+00 0.000000000000000e+00 0.000000000000000e+00
0.000000000000000e+00 0.000000000000000e+00 0.000000000000000e+00

0.000000000000000e+00 0.000000000000000e+00 0.000000000000000e+00
0.000000000000000e+00 0.000000000000000e+00 0.000000000000000e+00
0.000000000000000e+00 0.000000000000000e+00 0.000000000000000e+00

0.000000000000000e+00 0.000000000000000e+00 0.000000000000000e+00
0.000000000000000e+00 0.000000000000000e+00 0.000000000000000e+00
0.000000000000000e+00 0.000000000000000e+00 0.000000000000000e+00

0.000000000000000e+00 0.000000000000000e+00 0.000000000000000e+00
0.000000000000000e+00 0.000000000000000e+00 0.000000000000000e+00
0.000000000000000e+00 0.000000000000000e+00 0.000000000000000e+00

0.000000000000000e+00 0.000000000000000e+00 0.000000000000000e+00
0.000000000000000e+00 0.000000000000000e+00 0.000000000000000e+00
0.000000000000000e+00 0.000000000000000e+00 0.000000000000000e+00

0.000000000000000e+00 0.000000000000000e+00 0.000000000000000e+00
0.000000000000000e+00 0.000000000000000e+00 0.000000000000000e+00
0.000000000000000e+00 0.000000000000000e+00 0.000000000000000e+00

0.000000000000000e+00 0.000000000000000e+00 0.000000000000000e+00
0.000000000000000e+00 0.000000000000000e+00 0.000000000000000e+00
0.000000000000000e+00 0.000000000000000e+00 0.000000000000000e+00

0.000000000000000e+00 0.000000000000000e+00 0.000000000000000e+00
0.000000000000000e+00 0.000000000000000e+00 0.000000000000000e+00
0.000000000000000e+00 0.000000000000000e+00 0.000000000000000e+00

0.000000000000000e+00 0.000000000000000e+00 0.000000000000000e+00
0.000000000000000e+00 0.000000000000000e+00 0.000000000000000e+00
0.000000000000000e+00 0.000000000000000e+00 0.000000000000000e+00

0.000000000000000e+00 0.000000000000000e+00 0.000000000000000e+00
0.000000000000000e+00 0.000000000000000e+00 0.000000000000000e+00
0.000000000000000e+00 0.000000000000000e+00 0.000000000000000e+00

0.000000000000000e+00 0.000000000000000e+00 0.000000000000000e+00
0.000000000000000e+00 0.000000000000000e+00 0.000000000000000e+00
0.000000000000000e+00 0.000000000000000e+00 0.000000000000000e+00

0.000000000000000e+00 0.000000000000000e+00 0.000000000000000e+00
0.000000000000000e+00 0.000000000000000e+00 0.000000000000000e+00
0.000000000000000e+00 0.000000000000000e+00 0.000000000000000e+00

0.000000000000000e+00 0.000000000000000e+00 0.000000000000000e+00
0.000000000000000e+00 0.000000000000000e+00 0.000000000000000e+00
0.000000000000000e+00 0.000000000000000e+00 0.000000000000000e+00

0.000000000000000e+00 0.000000000000000e+00 0.000000000000000e+00
0.000000000000000e+00 0.000000000000000e+00 0.000000000000000e+00
0.000000000000000e+00 0.000000000000000e+00 0.000000000000000e+00

0.000000000000000e+00 0.000000000000000e+00 0.000000000000000e+00
0.000000000000000e+00 0.000000000000000e+00 0.000000000000000e+00
0.000000000000000e+00 0.000000000000000e+00 0.000000000000000e+00

0.000000000000000e+00 0.000000000000000e+00 0.000000000000000e+00
0.000000000000000e+00 0.000000000000000e+00 0.000000000000000e+00
0.000000000000000e+00 0.000000000000000e+00 0.000000000000000e+00

0.000000000000000e+00 0.000000000000000e+00 0.000000000000000e+00
0.000000000000000e+00 0.000000000000000e+00 0.000000000000000e+00
0.000000000000000e+00 0.000000000000000e+00 0.000000000000000e+00

0.000000000000000e+00 0.000000000000000e+00 0.000000000000000e+00
0.000000000000000e+00 0.000000000000000e+00 0.000000000000000e+00
0.000000000000000e+00 0.000000000000000e+00 0.000000000000000e+00

0.000000000000000e+00 0.000000000000000e+00 0.000000000000000e+00
0.000000000000000e+00 0.000000000000000e+00 0.000000000000000e+00
0.000000000000000e+00 0.000000000000000e+00 0.000000000000000e+00

0.000000000000000e+00 0.000000000000000e+00 0.000000000000000e+00
0.000000000000000e+00 0.000000000000000e+00 0.000000000000000e+00
0.000000000000000e+00 0.000000000000000e+00 0.000000000000000e+00

0.000000000000000e+00 0.000000000000000e+00 0.000000000000000e+00
0.000000000000000e+00 0.000000000000000e+00 0.000000000000000e+00
0.000000000000000e+00 0.000000000000000e+00 0.000000000000000e+00

0.000000000000000e+00 0.000000000000000e+00 0.000000000000000e+00
0.000000000000000e+00 0.000000000000000e+00 0.000000000000000e+00
0.000000000000000e+00 0.000000000000000e+00 0.000000000000000e+00

0.000000000000000e+00 0.000000000000000e+00 0.000000000000000e+00
0.000000000000000e+00 0.000000000000000e+00 0.000000000000000e+00
0.000000000000000e+00 0.000000000000000e+00 0.000000000000000e+00

0.000000000000000e+00 0.000000000000000e+00 0.000000000000000e+00
0.000000000000000e+00 0.000000000000000e+00 0.000000000000000e+00
0.000000000000000e+00 0.000000000000000e+00 0.000000000000000e+00

0.000000000000000e+00 0.000000000000000e+00 0.000000000000000e+00
0.000000000000000e+00 0.000000000000000e+00 0.000000000000000e+00
0.000000000000000e+00 0.000000000000000e+00 0.000000000000000e+00

0.000000000000000e+00 0.000000000000000e+00 0.000000000000000e+00
0.000000000000000e+00 0.000000000000000e+00 0.000000000000000e+00
0.000000000000000e+00 0.000000000000000e+00 0.000000000000000e+00

0.000000000000000e+00 0.000000000000000e+00 0.000000000000000e+00
0.000000000000000e+00 0.000000000000000e+00 0.000000000000000e+00
0.000000000000000e+00 0.000000000000000e+00 0.000000000000000e+00

0.000000000000000e+00 0.000000000000000e+00 0.000000000000000e+00
0.000000000000000e+00 0.000000000000000e+00 0.000000000000000e+00
0.000000000000000e+00 0.000000000000000e+00 0.000000000000000e+00

0.000000000000000e+00 0.000000000000000e+00 0.000000000000000e+00
0.000000000000000e+00 0.000000000000000e+00 0.000000000000000e+00
0.000000000000000e+00 0.000000000000000e+00 0.000000000000000e+00

0.000000000000000e+00 0.000000000000000e+00 0.000000000000000e+00
0.000000000000000e+00 0.000000000000000e+00 0.000000000000000e+00
0.000000000000000e+00 0.000000000000000e+00 0.000000000000000e+00

0.000000000000000e+00 0.000000000000000e+00 0.000000000000000e+00
0.000000000000000e+00 0.000000000000000e+00 0.000000000000000e+00
0.000000000000000e+00 0.000000000000000e+00 0.000000000000000e+00

0.000000000000000e+00 0.000000000000000e+00 0.000000000000000e+00
0.000000000000000e+00 0.000000000000000e+00 0.000000000000000e+00
0.000000000000000e+00 0.000000000000000e+00 0.000000000000000e+00

0.000000000000000e+00 0.000000000000000e+00 0.000000000000000e+00
0.000000000000000e+00 0.000000000000000e+00 0.000000000000000e+00
0.000000000000000e+00 0.000000000000000e+00 0.000000000000000e+00

0.000000000000000e+00 0.000000000000000e+00 0.000000000000000e+00
0.000000000000000e+00 0.000000000000000e+00 0.000000000000000e+00
0.000000000000000e+00 0.000000000000000e+00 0.000000000000000e+00

0.000000000000000e+00 0.000000000000000e+00 0.000000000000000e+00
0.000000000000000e+00 0.000000000000000e+00 0.000000000000000e+00
0.000000000000000e+00 0.000000000000000e+00 0.000000000000000e+00

0.000000000000000e+00 0.000000000000000e+00 0.000000000000000e+00
0.000000000000000e+00 0.000000000000000e+00 0.000000000000000e+00
0.000000000000000e+00 0.000000000000000e+00 0.000000000000000e+00

0.000000000000000e+00 0.000000000000000e+00 0.000000000000000e+00
0.000000000000000e+00 0.000000000000000e+00 0.000000000000000e+00
0.000000000000000e+00 0.000000000000000e+00 0.000000000000000e+00

0.000000000000000e+00 0.000000000000000e+00 0.000000000000000e+00
0.000000000000000e+00 0.000000000000000e+00 0.000000000000000e+00
0.000000000000000e+00 0.000000000000000e+00 0.000000000000000e+00

0.000000000000000e+00 0.000000000000000e+00 0.000000000000000e+00
0.000000000000000e+00 0.000000000000000e+00 0.000000000000000e+00
0.000000000000000e+00 0.000000000000000e+00 0.000000000000000e+00

0.000000000000000e+00 0.000000000000000e+00 0.000000000000000e+00
0.000000000000000e+00 0.000000000000000e+00 0.000000000000000e+00
0.000000000000000e+00 0.000000000000000e+00 0.000000000000000e+00

0.000000000000000e+00 0.000000000000000e+00 0.000000000000000e+00
0.000000000000000e+00 0.000000000000000e+00 0.000000000000000e+00
0.000000000000000e+00 0.000000000000000e+00 0.000000000000000e+00

0.000000000000000e+00 0.000000000000000e+00 0.000000000000000e+00
0.000000000000000e+00 0.000000000000000e+00 0.000000000000000e+00
0.000000000000000e+00 0.000000000000000e+00 0.000000000000000e+00

0.000000000000000e+00 0.000000000000000e+00 0.000000000000000e+00
0.000000000000000e+00 0.000000000000000e+00 0.000000000000000e+00
0.000000000000000e+00 0.000000000000000e+00 0.000000000000000e+00

0.000000000000000e+00 0.000000000000000e+00 0.000000000000000e+00
0.000000000000000e+00 0.000000000000000e+00 0.000000000000000e+00
0.000000000000000e+00 0.000000000000000e+00 0.000000000000000e+00

0.000000000000000e+00 0.000000000000000e+00 0.000000000000000e+00
0.000000000000000e+00 0.000000000000000e+00 0.000000000000000e+00
0.000000000000000e+00 0.000000000000000e+00 0.000000000000000e+00

0.000000000000000e+00 0.000000000000000e+00 0.000000000000000e+00
0.000000000000000e+00 0.000000000000000e+00 0.000000000000000e+00
0.000000000000000e+00 0.000000000000000e+00 0.000000000000000e+00

0.000000000000000e+00 0.000000000000000e+00 0.000000000000000e+00
0.000000000000000e+00 0.000000000000000e+00 0.000000000000000e+00
0.000000000000000e+00 0.000000000000000e+00 0.000000000000000e+00

0.000000000000000e+00 0.000000000000000e+00 0.000000000000000e+00
0.000000000000000e+00 0.000000000000000e+00 0.000000000000000e+00
0.000000000000000e+00 0.000000000000000e+00 0.000000000000000e+00

0.000000000000000e+00 0.000000000000000e+00 0.000000000000000e+00
0.000000000000000e+00 0.000000000000000e+00 0.000000000000000e+00
0.000000000000000e+00 0.000000000000000e+00 0.000000000000000e+00

0.000000000000000e+00 0.000000000000000e+00 0.000000000000000e+00
0.000000000000000e+00 0.000000000000000e+00 0.000000000000000e+00
0.000000000000000e+00 0.000000000000000e+00 0.000000000000000e+00

0.000000000000000e+00 0.000000000000000e+00 0.000000000000000e+00
0.000000000000000e+00 0.000000000000000e+00 0.000000000000000e+00
0.000000000000000e+00 0.000000000000000e+00 0.000000000000000e+00

0.000000000000000e+00 0.000000000000000e+00 0.000000000000000e+00
0.000000000000000e+00 0.000000000000000e+00 0.000000000000000e+00
0.000000000000000e+00 0.000000000000000e+00 0.000000000000000e+00

0.000000000000000e+00 0.000000000000000e+00 0.000000000000000e+00
0.000000000000000e+00 0.000000000000000e+00 0.000000000000000e+00
0.000000000000000e+00 0.000000000000000e+00 0.000000000000000e+00

0.000000000000000e+00 0.000000000000000e+00 0.000000000000000e+00
0.000000000000000e+00 0.000000000000000e+00 0.000000000000000e+00
0.000000000000000e+00 0.000000000000000e+00 0.000000000000000e+00

0.000000000000000e+00 0.000000000000000e+00 0.000000000000000e+00
0.000000000000000e+00 0.000000000000000e+00 0.000000000000000e+00
0.000000000000000e+00 0.000000000000000e+00 0.000000000000000e+00

0.000000000000000e+00 0.000000000000000e+00 0.000000000000000e+00
0.000000000000000e+00 0.000000000000000e+00 0.000000000000000e+00
0.000000000000000e+00 0.000000000000000e+00 0.000000000000000e+00

0.000000000000000e+00 0.000000000000000e+00 0.000000000000000e+00
0.000000000000000e+00 0.000000000000000e+00 0.000000000000000e+00
0.000000000000000e+00 0.000000000000000e+00 0.000000000000000e+00

0.000000000000000e+00 0.000000000000000e+00 0.000000000000000e+00
0.000000000000000e+00 0.000000000000000e+00 0.000000000000000e+00
0.000000000000000e+00 0.000000000000000e+00 0.000000000000000e+00

0.000000000000000e+00 0.000000000000000e+00 0.000000000000000e+00
0.000000000000000e+00 0.000000000000000e+00 0.000000000000000e+00
0.000000000000000e+00 0.000000000000000e+00 0.000000000000000e+00

0.000000000000000e+00 0.000000000000000e+00 0.000000000000000e+00
0.000000000000000e+00 0.000000000000000e+00 0.000000000000000e+00
0.000000000000000e+00 0.000000000000000e+00 0.000000000000000e+00

0.000000000000000e+00 0.000000000000000e+00 0.000000000000000e+00
0.000000000000000e+00 0.000000000000000e+00 0.000000000000000e+00
0.000000000000000e+00 0.000000000000000e+00 0.000000000000000e+00

0.000000000000000e+00 0.000000000000000e+00 0.000000000000000e+00
0.000000000000000e+00 0.000000000000000e+00 0.000000000000000e+00
0.000000000000000e+00 0.000000000000000e+00 0.000000000000000e+00

0.000000000000000e+00 0.000000000000000e+00 0.000000000000000e+00
0.000000000000000e+00 0.000000000000000e+00 0.000000000000000e+00
0.000000000000000e+00 0.000000000000000e+00 0.000000000000000e+00

0.000000000000000e+00 0.000000000000000e+00 0.000000000000000e+00
0.000000000000000e+00 0.000000000000000e+00 0.000000000000000e+00
0.000000000000000e+00 0.000000000000000e+00 0.000000000000000e+00

0.000000000000000e+00 0.000000000000000e+00 0.000000000000000e+00
0.000000000000000e+00 0.000000000000000e+00 0.000000000000000e+00
0.000000000000000e+00 0.000000000000000e+00 0.000000000000000e+00

0.000000000000000e+00 0.000000000000000e+00 0.000000000000000e+00
0.000000000000000e+00 0.000000000000000e+00 0.000000000000000e+00
0.000000000000000e+00 0.000000000000000e+00 0.000000000000000e+00

0.000000000000000e+00 0.000000000000000e+00 0.000000000000000e+00
0.000000000000000e+00 0.000000000000000e+00 0.000000000000000e+00
0.000000000000000e+00 0.000000000000000e+00 0.000000000000000e+00

0.000000000000000e+00 0.000000000000000e+00 0.000000000000000e+00
0.000000000000000e+00 0.000000000000000e+00 0.000000000000000e+00
0.000000000000000e+00 0.000000000000000e+00 0.000000000000000e+00

0.000000000000000e+00 0.000000000000000e+00 0.000000000000000e+00
0.000000000000000e+00 0.000000000000000e+00 0.000000000000000e+00
0.000000000000000e+00 0.000000000000000e+00 0.000000000000000e+00

0.000000000000000e+00 0.000000000000000e+00 0.000000000000000e+00
0.000000000000000e+00 0.000000000000000e+00 0.000000000000000e+00
0.000000000000000e+00 0.000000000000000e+00 0.000000000000000e+00

0.000000000000000e+00 0.000000000000000e+00 0.000000000000000e+00
0.000000000000000e+00 0.000000000000000e+00 0.000000000000000e+00
0.000000000000000e+00 0.000000000000000e+00 0.000000000000000e+00

0.000000000000000e+00 0.000000000000000e+00 0.000000000000000e+00
0.000000000000000e+00 0.000000000000000e+00 0.000000000000000e+00
0.000000000000000e+00 0.000000000000000e+00 0.000000000000000e+00

0.000000000000000e+00 0.000000000000000e+00 0.000000000000000e+00
0.000000000000000e+00 0.000000000000000e+00 0.000000000000000e+00
0.000000000000000e+00 0.000000000000000e+00 0.000000000000000e+00

0.000000000000000e+00 0.000000000000000e+00 0.000000000000000e+00
0.000000000000000e+00 0.000000000000000e+00 0.000000000000000e+00
0.000000000000000e+00 0.000000000000000e+00 0.000000000000000e+00

0.000000000000000e+00 0.000000000000000e+00 0.000000000000000e+00
0.000000000000000e+00 0.000000000000000e+00 0.000000000000000e+00
0.000000000000000e+00 0.000000000000000e+00 0.000000000000000e+00

0.000000000000000e+00 0.000000000000000e+00 0.000000000000000e+00
0.000000000000000e+00 0.000000000000000e+00 0.000000000000000e+00
0.000000000000000e+00 0.000000000000000e+00 0.000000000000000e+00

0.000000000000000e+00 0.000000000000000e+00 0.000000000000000e+00
0.000000000000000e+00 0.000000000000000e+00 0.000000000000000e+00
0.000000000000000e+00 0.000000000000000e+00 0.000000000000000e+00

0.000000000000000e+00 0.000000000000000e+00 0.000000000000000e+00
0.000000000000000e+00 0.000000000000000e+00 0.000000000000000e+00
0.000000000000000e+00 0.000000000000000e+00 0.000000000000000e+00

0.000000000000000e+00 0.000000000000000e+00 0.000000000000000e+00
0.000000000000000e+00 0.000000000000000e+00 0.000000000000000e+00
0.000000000000000e+00 0.000000000000000e+00 0.000000000000000e+00

0.000000000000000e+00 0.000000000000000e+00 0.000000000000000e+00
0.000000000000000e+00 0.000000000000000e+00 0.000000000000000e+00
0.000000000000000e+00 0.000000000000000e+00 0.000000000000000e+00

0.000000000000000e+00 0.000000000000000e+00 0.000000000000000e+00
0.000000000000000e+00 0.000000000000000e+00 0.000000000000000e+00
0.000000000000000e+00 0.000000000000000e+00 0.000000000000000e+00

0.000000000000000e+00 0.000000000000000e+00 0.000000000000000e+00
0.000000000000000e+00 0.000000000000000e+00 0.000000000000000e+00
0.000000000000000e+00 0.000000000000000e+00 0.000000000000000e+00

0.000000000000000e+00 0.000000000000000e+00 0.000000000000000e+00
0.000000000000000e+00 0.000000000000000e+00 0.000000000000000e+00
0.000000000000000e+00 0.000000000000000e+00 0.000000000000000e+00

0.000000000000000e+00 0.000000000000000e+00 0.000000000000000e+00
0.000000000000000e+00 0.000000000000000e+00 0.000000000000000e+00
0.000000000000000e+00 0.000000000000000e+00 0.000000000000000e+00

0.000000000000000e+00 0.000000000000000e+00 0.000000000000000e+00
0.000000000000000e+00 0.000000000000000e+00 0.000000000000000e+00
0.000000000000000e+00 0.000000000000000e+00 0.000000000000000e+00

0.000000000000000e+00 0.000000000000000e+00 0.000000000000000e+00
0.000000000000000e+00 0.000000000000000e+00 0.000000000000000e+00
0.000000000000000e+00 0.000000000000000e+00 0.000000000000000e+00

0.000000000000000e+00 0.000000000000000e+00 0.000000000000000e+00
0.000000000000000e+00 0.000000000000000e+00 0.000000000000000e+00
0.000000000000000e+00 0.000000000000000e+00 0.000000000000000e+00

0.000000000000000e+00 0.000000000000000e+00 0.000000000000000e+00
0.000000000000000e+00 0.000000000000000e+00 0.000000000000000e+00
0.000000000000000e+00 0.000000000000000e+00 0.000000000000000e+00

0.000000000000000e+00 0.000000000000000e+00 0.000000000000000e+00
0.000000000000000e+00 0.000000000000000e+00 0.000000000000000e+00
0.000000000000000e+00 0.000000000000000e+00 0.000000000000000e+00

0.000000000000000e+00 0.000000000000000e+00 0.000000000000000e+00
0.000000000000000e+00 0.000000000000000e+00 0.000000000000000e+00
0.000000000000000e+00 0.000000000000000e+00 0.000000000000000e+00

0.000000000000000e+00 0.000000000000000e+00 0.000000000000000e+00
0.000000000000000e+00 0.000000000000000e+00 0.000000000000000e+00
0.000000000000000e+00 0.000000000000000e+00 0.000000000000000e+00

0.000000000000000e+00 0.000000000000000e+00 0.000000000000000e+00
0.000000000000000e+00 0.000000000000000e+00 0.000000000000000e+00
0.000000000000000e+00 0.000000000000000e+00 0.000000000000000e+00

0.000000000000000e+00 0.000000000000000e+00 0.000000000000000e+00
0.000000000000000e+00 0.000000000000000e+00 0.000000000000000e+00
0.000000000000000e+00 0.000000000000000e+00 0.000000000000000e+00

0.000000000000000e+00 0.000000000000000e+00 0.000000000000000e+00
0.000000000000000e+00 0.000000000000000e+00 0.000000000000000e+00
0.000000000000000e+00 0.000000000000000e+00 0.000000000000000e+00

0.000000000000000e+00 0.000000000000000e+00 0.000000000000000e+00
0.000000000000000e+00 0.000000000000000e+00 0.000000000000000e+00
0.000000000000000e+00 0.000000000000000e+00 0.000000000000000e+00

0.000000000000000e+00 0.000000000000000e+00 0.000000000000000e+00
0.000000000000000e+00 0.000000000000000e+00 0.000000000000000e+00
0.000000000000000e+00 0.000000000000000e+00 0.000000000000000e+00

0.000000000000000e+00 0.000000000000000e+00 0.000000000000000e+00
0.000000000000000e+00 0.000000000000000e+00 0.000000000000000e+00
0.000000000000000e+00 0.000000000000000e+00 0.000000000000000e+00

0.000000000000000e+00 0.000000000000000e+00 0.000000000000000e+00
0.000000000000000e+00 0.000000000000000e+00 0.000000000000000e+00
0.000000000000000e+00 0.000000000000000e+00 0.000000000000000e+00

0.000000000000000e+00 0.000000000000000e+00 0.000000000000000e+00
0.000000000000000e+00 0.000000000000000e+00 0.000000000000000e+00
0.000000000000000e+00 0.000000000000000e+00 0.000000000000000e+00

0.000000000000000e+00 0.000000000000000e+00 0.000000000000000e+00
0.000000000000000e+00 0.000000000000000e+00 0.000000000000000e+00
0.000000000000000e+00 0.000000000000000e+00 0.000000000000000e+00

0.000000000000000e+00 0.000000000000000e+00 0.000000000000000e+00
0.000000000000000e+00 0.000000000000000e+00 0.000000000000000e+00
0.000000000000000e+00 0.000000000000000e+00 0.000000000000000e+00

0.000000000000000e+00 0.000000000000000e+00 0.000000000000000e+00
0.000000000000000e+00 0.000000000000000e+00 0.000000000000000e+00
0.000000000000000e+00 0.000000000000000e+00 0.000000000000000e+00

0.000000000000000e+00 0.000000000000000e+00 0.000000000000000e+00
0.000000000000000e+00 0.000000000000000e+00 0.000000000000000e+00
0.000000000000000e+00 0.000000000000000e+00 0.000000000000000e+00

0.000000000000000e+00 0.000000000000000e+00 0.000000000000000e+00
0.000000000000000e+00 0.000000000000000e+00 0.000000000000000e+00
0.000000000000000e+00 0.000000000000000e+00 0.000000000000000e+00

0.000000000000000e+00 0.000000000000000e+00 0.000000000000000e+00
0.000000000000000e+00 0.000000000000000e+00 0.000000000000000e+00
0.000000000000000e+00 0.000000000000000e+00 0.000000000000000e+00

0.000000000000000e+00 0.000000000000000e+00 0.000000000000000e+00
0.000000000000000e+00 0.000000000000000e+00 0.000000000000000e+00
0.000000000000000e+00 0.000000000000000e+00 0.000000000000000e+00

0.000000000000000e+00 0.000000000000000e+00 0.000000000000000e+00
0.000000000000000e+00 0.000000000000000e+00 0.000000000000000e+00
0.000000000000000e+00 0.000000000000000e+00 0.000000000000000e+00

0.000000000000000e+00 0.000000000000000e+00 0.000000000000000e+00
0.000000000000000e+00 0.000000000000000e+00 0.000000000000000e+00
0.000000000000000e+00 0.000000000000000e+00 0.000000000000000e+00

0.000000000000000e+00 0.000000000000000e+00 0.000000000000000e+00
0.000000000000000e+00 0.000000000000000e+00 0.000000000000000e+00
0.000000000000000e+00 0.000000000000000e+00 0.000000000000000e+00

0.000000000000000e+00 0.000000000000000e+00 0.000000000000000e+00
0.000000000000000e+00 0.000000000000000e+00 0.000000000000000e+00
0.000000000000000e+00 0.000000000000000e+00 0.000000000000000e+00

0.000000000000000e+00 0.000000000000000e+00 0.000000000000000e+00
0.000000000000000e+00 0.000000000000000e+00 0.000000000000000e+00
0.000000000000000e+00 0.000000000000000e+00 0.000000000000000e+00

0.000000000000000e+00 0.000000000000000e+00 0.000000000000000e+00
0.000000000000000e+00 0.000000000000000e+00 0.000000000000000e+00
0.000000000000000e+00 0.000000000000000e+00 0.000000000000000e+00

0.000000000000000e+00 0.000000000000000e+00 0.000000000000000e+00
0.000000000000000e+00 0.000000000000000e+00 0.000000000000000e+00
0.000000000000000e+00 0.000000000000000e+00 0.000000000000000e+00

0.000000000000000e+00 0.000000000000000e+00 0.000000000000000e+00
0.000000000000000e+00 0.000000000000000e+00 0.000000000000000e+00
0.000000000000000e+00 0.000000000000000e+00 0.000000000000000e+00

0.000000000000000e+00 0.000000000000000e+00 0.000000000000000e+00
0.000000000000000e+00 0.000000000000000e+00 0.000000000000000e+00
0.000000000000000e+00 0.000000000000000e+00 0.000000000000000e+00

0.000000000000000e+00 0.000000000000000e+00 0.000000000000000e+00
0.000000000000000e+00 0.000000000000000e+00 0.000000000000000e+00
0.000000000000000e+00 0.000000000000000e+00 0.000000000000000e+00

0.000000000000000e+00 0.000000000000000e+00 0.000000000000000e+00
0.000000000000000e+00 0.000000000000000e+00 0.000000000000000e+00
0.000000000000000e+00 0.000000000000000e+00 0.000000000000000e+00

0.000000000000000e+00 0.000000000000000e+00 0.000000000000000e+00
0.000000000000000e+00 0.000000000000000e+00 0.000000000000000e+00
0.000000000000000e+00 0.000000000000000e+00 0.000000000000000e+00

0.000000000000000e+00 0.000000000000000e+00 0.000000000000000e+00
0.000000000000000e+00 0.000000000000000e+00 0.000000000000000e+00
0.000000000000000e+00 0.000000000000000e+00 0.000000000000000e+00

0.000000000000000e+00 0.000000000000000e+00 0.000000000000000e+00
0.000000000000000e+00 0.000000000000000e+00 0.000000000000000e+00
0.000000000000000e+00 0.000000000000000e+00 0.000000000000000e+00

0.000000000000000e+00 0.000000000000000e+00 0.000000000000000e+00
0.000000000000000e+00 0.000000000000000e+00 0.000000000000000e+00
0.000000000000000e+00 0.000000000000000e+00 0.000000000000000e+00

0.000000000000000e+00 0.000000000000000e+00 0.000000000000000e+00
0.000000000000000e+00 0.000000000000000e+00 0.000000000000000e+00
0.000000000000000e+00 0.000000000000000e+00 0.000000000000000e+00

0.000000000000000e+00 0.000000000000000e+00 0.000000000000000e+00
0.000000000000000e+00 0.000000000000000e+00 0.000000000000000e+00
0.000000000000000e+00 0.000000000000000e+00 0.000000000000000e+00

0.000000000000000e+00 0.000000000000000e+00 0.000000000000000e+00
0.000000000000000e+00 0.000000000000000e+00 0.000000000000000e+00
0.000000000000000e+00 0.000000000000000e+00 0.000000000000000e+00

0.000000000000000e+00 0.000000000000000e+00 0.000000000000000e+00
0.000000000000000e+00 0.000000000000000e+00 0.000000000000000e+00
0.000000000000000e+00 0.000000000000000e+00 0.000000000000000e+00

0.000000000000000e+00 0.000000000000000e+00 0.000000000000000e+00
0.000000000000000e+00 0.000000000000000e+00 0.000000000000000e+00
0.000000000000000e+00 0.000000000000000e+00 0.000000000000000e+00

0.000000000000000e+00 0.000000000000000e+00 0.000000000000000e+00
0.000000000000000e+00 0.000000000000000e+00 0.000000000000000e+00
0.000000000000000e+00 0.000000000000000e+00 0.000000000000000e+00

0.000000000000000e+00 0.000000000000000e+00 0.000000000000000e+00
0.000000000000000e+00 0.000000000000000e+00 0.000000000000000e+00
0.000000000000000e+00 0.000000000000000e+00 0.000000000000000e+00

0.000000000000000e+00 0.000000000000000e+00 0.000000000000000e+00
0.000000000000000e+00 0.000000000000000e+00 0.000000000000000e+00
0.000000000000000e+00 0.000000000000000e+00 0.000000000000000e+00

0.000000000000000e+00 0.000000000000000e+00 0.000000000000000e+00
0.000000000000000e+00 0.000000000000000e+00 0.000000000000000e+00
0.000000000000000e+00 0.000000000000000e+00 0.000000000000000e+00

0.000000000000000e+00 0.000000000000000e+00 0.000000000000000e+00
0.000000000000000e+00 0.000000000000000e+00 0.000000000000000e+00
0.000000000000000e+00 0.000000000000000e+00 0.000000000000000e+00

0.000000000000000e+00 0.000000000000000e+00 0.000000000000000e+00
0.000000000000000e+00 0.000000000000000e+00 0.000000000000000e+00
0.000000000000000e+00 0.000000000000000e+00 0.000000000000000e+00

0.000000000000000e+00 0.000000000000000e+00 0.000000000000000e+00
0.000000000000000e+00 0.000000000000000e+00 0.000000000000000e+00
0.000000000000000e+00 0.000000000000000e+00 0.000000000000000e+00

0.000000000000000e+00 0.000000000000000e+00 0.000000000000000e+00
0.000000000000000e+00 0.000000000000000e+00 0.000000000000000e+00
0.000000000000000e+00 0.000000000000000e+00 0.000000000000000e+00

0.000000000000000e+00 0.000000000000000e+00 0.000000000000000e+00
0.000000000000000e+00 0.000000000000000e+00 0.000000000000000e+00
0.000000000000000e+00 0.000000000000000e+00 0.000000000000000e+00

0.000000000000000e+00 0.000000000000000e+00 0.000000000000000e+00
0.000000000000000e+00 0.000000000000000e+00 0.000000000000000e+00
0.000000000000000e+00 0.000000000000000e+00 0.000000000000000e+00

0.000000000000000e+00 0.000000000000000e+00 0.000000000000000e+00
0.000000000000000e+00 0.000000000000000e+00 0.000000000000000e+00
0.000000000000000e+00 0.000000000000000e+00 0.000000000000000e+00

0.000000000000000e+00 0.000000000000000e+00 0.000000000000000e+00
0.000000000000000e+00 0.000000000000000e+00 0.000000000000000e+00
0.000000000000000e+00 0.000000000000000e+00 0.000000000000000e+00

0.000000000000000e+00 0.000000000000000e+00 0.000000000000000e+00
0.000000000000000e+00 0.000000000000000e+00 0.000000000000000e+00
0.000000000000000e+00 0.000000000000000e+00 0.000000000000000e+00

0.000000000000000e+00 0.000000000000000e+00 0.000000000000000e+00
0.000000000000000e+00 0.000000000000000e+00 0.000000000000000e+00
0.000000000000000e+00 0.000000000000000e+00 0.000000000000000e+00

0.000000000000000e+00 0.000000000000000e+00 0.000000000000000e+00
0.000000000000000e+00 0.000000000000000e+00 0.000000000000000e+00
0.000000000000000e+00 0.000000000000000e+00 0.000000000000000e+00

0.000000000000000e+00 0.000000000000000e+00 0.000000000000000e+00
0.000000000000000e+00 0.000000000000000e+00 0.000000000000000e+00
0.000000000000000e+00 0.000000000000000e+00 0.000000000000000e+00

0.000000000000000e+00 0.000000000000000e+00 0.000000000000000e+00
0.000000000000000e+00 0.000000000000000e+00 0.000000000000000e+00
0.000000000000000e+00 0.000000000000000e+00 0.000000000000000e+00

0.000000000000000e+00 0.000000000000000e+00 0.000000000000000e+00
0.000000000000000e+00 0.000000000000000e+00 0.000000000000000e+00
0.000000000000000e+00 0.000000000000000e+00 0.000000000000000e+00

0.000000000000000e+00 0.000000000000000e+00 0.000000000000000e+00
0.000000000000000e+00 0.000000000000000e+00 0.000000000000000e+00
0.000000000000000e+00 0.000000000000000e+00 0.000000000000000e+00

0.000000000000000e+00 0.000000000000000e+00 0.000000000000000e+00
0.000000000000000e+00 0.000000000000000e+00 0.000000000000000e+00
0.000000000000000e+00 0.000000000000000e+00 0.000000000000000e+00

0.000000000000000e+00 0.000000000000000e+00 0.000000000000000e+00
0.000000000000000e+00 0.000000000000000e+00 0.000000000000000e+00
0.000000000000000e+00 0.000000000000000e+00 0.000000000000000e+00

0.000000000000000e+00 0.000000000000000e+00 0.000000000000000e+00
0.000000000000000e+00 0.000000000000000e+00 0.000000000000000e+00
0.000000000000000e+00 0.000000000000000e+00 0.000000000000000e+00

0.000000000000000e+00 0.000000000000000e+00 0.000000000000000e+00
0.000000000000000e+00 0.000000000000000e+00 0.000000000000000e+00
0.000000000000000e+00 0.000000000000000e+00 0.000000000000000e+00

0.000000000000000e+00 0.000000000000000e+00 0.000000000000000e+00
0.000000000000000e+00 0.000000000000000e+00 0.000000000000000e+00
0.000000000000000e+00 0.000000000000000e+00 0.000000000000000e+00

0.000000000000000e+00 0.000000000000000e+00 0.000000000000000e+00
0.000000000000000e+00 0.000000000000000e+00 0.000000000000000e+00
0.000000000000000e+00 0.000000000000000e+00 0.000000000000000e+00

0.000000000000000e+00 0.000000000000000e+00 0.000000000000000e+00
0.000000000000000e+00 0.000000000000000e+00 0.000000000000000e+00
0.000000000000000e+00 0.000000000000000e+00 0.000000000000000e+00

0.000000000000000e+00 0.000000000000000e+00 0.000000000000000e+00
0.000000000000000e+00 0.000000000000000e+00 0.000000000000000e+00
0.000000000000000e+00 0.000000000000000e+00 0.000000000000000e+00

0.000000000000000e+00 0.000000000000000e+00 0.000000000000000e+00
0.000000000000000e+00 0.000000000000000e+00 0.000000000000000e+00
0.000000000000000e+00 0.000000000000000e+00 0.000000000000000e+00

0.000000000000000e+00 0.000000000000000e+00 0.000000000000000e+00
0.000000000000000e+00 0.000000000000000e+00 0.000000000000000e+00
0.000000000000000e+00 0.000000000000000e+00 0.000000000000000e+00

0.000000000000000e+00 0.000000000000000e+00 0.000000000000000e+00
0.000000000000000e+00 0.000000000000000e+00 0.000000000000000e+00
0.000000000000000e+00 0.000000000000000e+00 0.000000000000000e+00

0.000000000000000e+00 0.000000000000000e+00 0.000000000000000e+00
0.000000000000000e+00 0.000000000000000e+00 0.000000000000000e+00
0.000000000000000e+00 0.000000000000000e+00 0.000000000000000e+00

0.000000000000000e+00 0.000000000000000e+00 0.000000000000000e+00
0.000000000000000e+00 0.000000000000000e+00 0.000000000000000e+00
0.000000000000000e+00 0.000000000000000e+00 0.000000000000000e+00

0.000000000000000e+00 0.000000000000000e+00 0.000000000000000e+00
0.000000000000000e+00 0.000000000000000e+00 0.000000000000000e+00
0.000000000000000e+00 0.000000000000000e+00 0.000000000000000e+00

0.000000000000000e+00 0.000000000000000e+00 0.000000000000000e+00
0.000000000000000e+00 0.000000000000000e+00 0.000000000000000e+00
0.000000000000000e+00 0.000000000000000e+00 0.000000000000000e+00

0.000000000000000e+00 0.000000000000000e+00 0.000000000000000e+00
0.000000000000000e+00 0.000000000000000e+00 0.000000000000000e+00
0.000000000000000e+00 0.000000000000000e+00 0.000000000000000e+00

0.000000000000000e+00 0.000000000000000e+00 0.000000000000000e+00
0.000000000000000e+00 0.000000000000000e+00 0.000000000000000e+00
0.000000000000000e+00 0.000000000000000e+00 0.000000000000000e+00

0.000000000000000e+00 0.000000000000000e+00 0.000000000000000e+00
0.000000000000000e+00 0.000000000000000e+00 0.000000000000000e+00
0.000000000000000e+00 0.000000000000000e+00 0.000000000000000e+00

0.000000000000000e+00 0.000000000000000e+00 0.000000000000000e+00
0.000000000000000e+00 0.000000000000000e+00 0.000000000000000e+00
0.000000000000000e+00 0.000000000000000e+00 0.000000000000000e+00

0.000000000000000e+00 0.000000000000000e+00 0.000000000000000e+00
0.000000000000000e+00 0.000000000000000e+00 0.000000000000000e+00
0.000000000000000e+00 0.000000000000000e+00 0.000000000000000e+00

0.000000000000000e+00 0.000000000000000e+00 0.000000000000000e+00
0.000000000000000e+00 0.000000000000000e+00 0.000000000000000e+00
0.000000000000000e+00 0.000000000000000e+00 0.000000000000000e+00

0.000000000000000e+00 0.000000000000000e+00 0.000000000000000e+00
0.000000000000000e+00 0.000000000000000e+00 0.000000000000000e+00
0.000000000000000e+00 0.000000000000000e+00 0.000000000000000e+00

0.000000000000000e+00 0.000000000000000e+00 0.000000000000000e+00
0.000000000000000e+00 0.000000000000000e+00 0.000000000000000e+00
0.000000000000000e+00 0.000000000000000e+00 0.000000000000000e+00

0.000000000000000e+00 0.000000000000000e+00 0.000000000000000e+00
0.000000000000000e+00 0.000000000000000e+00 0.000000000000000e+00
0.000000000000000e+00 0.000000000000000e+00 0.000000000000000e+00

0.000000000000000e+00 0.000000000000000e+00 0.000000000000000e+00
0.000000000000000e+00 0.000000000000000e+00 0.000000000000000e+00
0.000000000000000e+00 0.000000000000000e+00 0.000000000000000e+00

0.000000000000000e+00 0.000000000000000e+00 0.000000000000000e+00
0.000000000000000e+00 0.000000000000000e+00 0.000000000000000e+00
0.000000000000000e+00 0.000000000000000e+00 0.000000000000000e+00

0.000000000000000e+00 0.000000000000000e+00 0.000000000000000e+00
0.000000000000000e+00 0.000000000000000e+00 0.000000000000000e+00
0.000000000000000e+00 0.000000000000000e+00 0.000000000000000e+00

0.000000000000000e+00 0.000000000000000e+00 0.000000000000000e+00
0.000000000000000e+00 0.000000000000000e+00 0.000000000000000e+00
0.000000000000000e+00 0.000000000000000e+00 0.000000000000000e+00

0.000000000000000e+00 0.000000000000000e+00 0.000000000000000e+00
0.000000000000000e+00 0.000000000000000e+00 0.000000000000000e+00
0.000000000000000e+00 0.000000000000000e+00 0.000000000000000e+00

0.000000000000000e+00 0.000000000000000e+00 0.000000000000000e+00
0.000000000000000e+00 0.000000000000000e+00 0.000000000000000e+00
0.000000000000000e+00 0.000000000000000e+00 0.000000000000000e+00

0.000000000000000e+00 0.000000000000000e+00 0.000000000000000e+00
0.000000000000000e+00 0.000000000000000e+00 0.000000000000000e+00
0.000000000000000e+00 0.000000000000000e+00 0.000000000000000e+00

0.000000000000000e+00 0.000000000000000e+00 0.000000000000000e+00
0.000000000000000e+00 0.000000000000000e+00 0.000000000000000e+00
0.000000000000000e+00 0.000000000000000e+00 0.000000000000000e+00

0.000000000000000e+00 0.000000000000000e+00 0.000000000000000e+00
0.000000000000000e+00 0.000000000000000e+00 0.000000000000000e+00
0.000000000000000e+00 0.000000000000000e+00 0.000000000000000e+00

0.000000000000000e+00 0.000000000000000e+00 0.000000000000000e+00
0.000000000000000e+00 0.000000000000000e+00 0.000000000000000e+00
0.000000000000000e+00 0.000000000000000e+00 0.000000000000000e+00

0.000000000000000e+00 0.000000000000000e+00 0.000000000000000e+00
0.000000000000000e+00 0.000000000000000e+00 0.000000000000000e+00
0.000000000000000e+00 0.000000000000000e+00 0.000000000000000e+00

0.000000000000000e+00 0.000000000000000e+00 0.000000000000000e+00
0.000000000000000e+00 0.000000000000000e+00 0.000000000000000e+00
0.000000000000000e+00 0.000000000000000e+00 0.000000000000000e+00

0.000000000000000e+00 0.000000000000000e+00 0.000000000000000e+00
0.000000000000000e+00 0.000000000000000e+00 0.000000000000000e+00
0.000000000000000e+00 0.000000000000000e+00 0.000000000000000e+00

0.000000000000000e+00 0.000000000000000e+00 0.000000000000000e+00
0.000000000000000e+00 0.000000000000000e+00 0.000000000000000e+00
0.000000000000000e+00 0.000000000000000e+00 0.000000000000000e+00

0.000000000000000e+00 0.000000000000000e+00 0.000000000000000e+00
0.000000000000000e+00 0.000000000000000e+00 0.000000000000000e+00
0.000000000000000e+00 0.000000000000000e+00 0.000000000000000e+00

0.000000000000000e+00 0.000000000000000e+00 0.000000000000000e+00
0.000000000000000e+00 0.000000000000000e+00 0.000000000000000e+00
0.000000000000000e+00 0.000000000000000e+00 0.000000000000000e+00

0.000000000000000e+00 0.000000000000000e+00 0.000000000000000e+00
0.000000000000000e+00 0.000000000000000e+00 0.000000000000000e+00
0.000000000000000e+00 0.000000000000000e+00 0.000000000000000e+00

0.000000000000000e+00 0.000000000000000e+00 0.000000000000000e+00
0.000000000000000e+00 0.000000000000000e+00 0.000000000000000e+00
0.000000000000000e+00 0.000000000000000e+00 0.000000000000000e+00

0.000000000000000e+00 0.000000000000000e+00 0.000000000000000e+00
0.000000000000000e+00 0.000000000000000e+00 0.000000000000000e+00
0.000000000000000e+00 0.000000000000000e+00 0.000000000000000e+00

0.000000000000000e+00 0.000000000000000e+00 0.000000000000000e+00
0.000000000000000e+00 0.000000000000000e+00 0.000000000000000e+00
0.000000000000000e+00 0.000000000000000e+00 0.000000000000000e+00

0.000000000000000e+00 0.000000000000000e+00 0.000000000000000e+00
0.000000000000000e+00 0.000000000000000e+00 0.000000000000000e+00
0.000000000000000e+00 0.000000000000000e+00 0.000000000000000e+00

0.000000000000000e+00 0.000000000000000e+00 0.000000000000000e+00
0.000000000000000e+00 0.000000000000000e+00 0.000000000000000e+00
0.000000000000000e+00 0.000000000000000e+00 0.000000000000000e+00

0.000000000000000e+00 0.000000000000000e+00 0.000000000000000e+00
0.000000000000000e+00 0.000000000000000e+00 0.000000000000000e+00
0.000000000000000e+00 0.000000000000000e+00 0.000000000000000e+00

0.000000000000000e+00 0.000000000000000e+00 0.000000000000000e+00
0.000000000000000e+00 0.000000000000000e+00 0.000000000000000e+00
0.000000000000000e+00 0.000000000000000e+00 0.000000000000000e+00

0.000000000000000e+00 0.000000000000000e+00 0.000000000000000e+00
0.000000000000000e+00 0.000000000000000e+00 0.000000000000000e+00
0.000000000000000e+00 0.000000000000000e+00 0.000000000000000e+00

0.000000000000000e+00 0.000000000000000e+00 0.000000000000000e+00
0.000000000000000e+00 0.000000000000000e+00 0.000000000000000e+00
0.000000000000000e+00 0.000000000000000e+00 0.000000000000000e+00

0.000000000000000e+00 0.000000000000000e+00 0.000000000000000e+00
0.000000000000000e+00 0.000000000000000e+00 0.000000000000000e+00
0.000000000000000e+00 0.000000000000000e+00 0.000000000000000e+00

0.000000000000000e+00 0.000000000000000e+00 0.000000000000000e+00
0.000000000000000e+00 0.000000000000000e+00 0.000000000000000e+00
0.000000000000000e+00 0.000000000000000e+00 0.000000000000000e+00

0.000000000000000e+00 0.000000000000000e+00 0.000000000000000e+00
0.000000000000000e+00 0.000000000000000e+00 0.000000000000000e+00
0.000000000000000e+00 0.000000000000000e+00 0.000000000000000e+00

0.000000000000000e+00 0.000000000000000e+00 0.000000000000000e+00
0.000000000000000e+00 0.000000000000000e+00 0.000000000000000e+00
0.000000000000000e+00 0.000000000000000e+00 0.000000000000000e+00

0.000000000000000e+00 0.000000000000000e+00 0.000000000000000e+00
0.000000000000000e+00 0.000000000000000e+00 0.000000000000000e+00
0.000000000000000e+00 0.000000000000000e+00 0.000000000000000e+00

0.000000000000000e+00 0.000000000000000e+00 0.000000000000000e+00
0.000000000000000e+00 0.000000000000000e+00 0.000000000000000e+00
0.000000000000000e+00 0.000000000000000e+00 0.000000000000000e+00

0.000000000000000e+00 0.000000000000000e+00 0.000000000000000e+00
0.000000000000000e+00 0.000000000000000e+00 0.000000000000000e+00
0.000000000000000e+00 0.000000000000000e+00 0.000000000000000e+00

0.000000000000000e+00 0.000000000000000e+00 0.000000000000000e+00
0.000000000000000e+00 0.000000000000000e+00 0.000000000000000e+00
0.000000000000000e+00 0.000000000000000e+00 0.000000000000000e+00

0.000000000000000e+00 0.000000000000000e+00 0.000000000000000e+00
0.000000000000000e+00 0.000000000000000e+00 0.000000000000000e+00
0.000000000000000e+00 0.000000000000000e+00 0.000000000000000e+00

0.000000000000000e+00 0.000000000000000e+00 0.000000000000000e+00
0.000000000000000e+00 0.000000000000000e+00 0.000000000000000e+00
0.000000000000000e+00 0.000000000000000e+00 0.000000000000000e+00

0.000000000000000e+00 0.000000000000000e+00 0.000000000000000e+00
0.000000000000000e+00 0.000000000000000e+00 0.000000000000000e+00
0.000000000000000e+00 0.000000000000000e+00 0.000000000000000e+00

0.000000000000000e+00 0.000000000000000e+00 0.000000000000000e+00
0.000000000000000e+00 0.000000000000000e+00 0.000000000000000e+00
0.000000000000000e+00 0.000000000000000e+00 0.000000000000000e+00

0.000000000000000e+00 0.000000000000000e+00 0.000000000000000e+00
0.000000000000000e+00 0.000000000000000e+00 0.000000000000000e+00
0.000000000000000e+00 0.000000000000000e+00 0.000000000000000e+00

0.000000000000000e+00 0.000000000000000e+00 0.000000000000000e+00
0.000000000000000e+00 0.000000000000000e+00 0.000000000000000e+00
0.000000000000000e+00 0.000000000000000e+00 0.000000000000000e+00

0.000000000000000e+00 0.000000000000000e+00 0.000000000000000e+00
0.000000000000000e+00 0.000000000000000e+00 0.000000000000000e+00
0.000000000000000e+00 0.000000000000000e+00 0.000000000000000e+00

0.000000000000000e+00 0.000000000000000e+00 0.000000000000000e+00
0.000000000000000e+00 0.000000000000000e+00 0.000000000000000e+00
0.000000000000000e+00 0.000000000000000e+00 0.000000000000000e+00

0.000000000000000e+00 0.000000000000000e+00 0.000000000000000e+00
0.000000000000000e+00 0.000000000000000e+00 0.000000000000000e+00
0.000000000000000e+00 0.000000000000000e+00 0.000000000000000e+00

0.000000000000000e+00 0.000000000000000e+00 0.000000000000000e+00
0.000000000000000e+00 0.000000000000000e+00 0.000000000000000e+00
0.000000000000000e+00 0.000000000000000e+00 0.000000000000000e+00

0.000000000000000e+00 0.000000000000000e+00 0.000000000000000e+00
0.000000000000000e+00 0.000000000000000e+00 0.000000000000000e+00
0.000000000000000e+00 0.000000000000000e+00 0.000000000000000e+00

0.000000000000000e+00 0.000000000000000e+00 0.000000000000000e+00
0.000000000000000e+00 0.000000000000000e+00 0.000000000000000e+00
0.000000000000000e+00 0.000000000000000e+00 0.000000000000000e+00

0.000000000000000e+00 0.000000000000000e+00 0.000000000000000e+00
0.000000000000000e+00 0.000000000000000e+00 0.000000000000000e+00
0.000000000000000e+00 0.000000000000000e+00 0.000000000000000e+00

0.000000000000000e+00 0.000000000000000e+00 0.000000000000000e+00
0.000000000000000e+00 0.000000000000000e+00 0.000000000000000e+00
0.000000000000000e+00 0.000000000000000e+00 0.000000000000000e+00

0.000000000000000e+00 0.000000000000000e+00 0.000000000000000e+00
0.000000000000000e+00 0.000000000000000e+00 0.000000000000000e+00
0.000000000000000e+00 0.000000000000000e+00 0.000000000000000e+00

0.000000000000000e+00 0.000000000000000e+00 0.000000000000000e+00
0.000000000000000e+00 0.000000000000000e+00 0.000000000000000e+00
0.000000000000000e+00 0.000000000000000e+00 0.000000000000000e+00

0.000000000000000e+00 0.000000000000000e+00 0.000000000000000e+00
0.000000000000000e+00 0.000000000000000e+00 0.000000000000000e+00
0.000000000000000e+00 0.000000000000000e+00 0.000000000000000e+00

0.000000000000000e+00 0.000000000000000e+00 0.000000000000000e+00
0.000000000000000e+00 0.000000000000000e+00 0.000000000000000e+00
0.000000000000000e+00 0.000000000000000e+00 0.000000000000000e+00

0.000000000000000e+00 0.000000000000000e+00 0.000000000000000e+00
0.000000000000000e+00 0.000000000000000e+00 0.000000000000000e+00
0.000000000000000e+00 0.000000000000000e+00 0.000000000000000e+00

0.000000000000000e+00 0.000000000000000e+00 0.000000000000000e+00
0.000000000000000e+00 0.000000000000000e+00 0.000000000000000e+00
0.000000000000000e+00 0.000000000000000e+00 0.000000000000000e+00

0.000000000000000e+00 0.000000000000000e+00 0.000000000000000e+00
0.000000000000000e+00 0.000000000000000e+00 0.000000000000000e+00
0.000000000000000e+00 0.000000000000000e+00 0.000000000000000e+00

0.000000000000000e+00 0.000000000000000e+00 0.000000000000000e+00
0.000000000000000e+00 0.000000000000000e+00 0.000000000000000e+00
0.000000000000000e+00 0.000000000000000e+00 0.000000000000000e+00

0.000000000000000e+00 0.000000000000000e+00 0.000000000000000e+00
0.000000000000000e+00 0.000000000000000e+00 0.000000000000000e+00
0.000000000000000e+00 0.000000000000000e+00 0.000000000000000e+00

0.000000000000000e+00 0.000000000000000e+00 0.000000000000000e+00
0.000000000000000e+00 0.000000000000000e+00 0.000000000000000e+00
0.000000000000000e+00 0.000000000000000e+00 0.000000000000000e+00

0.000000000000000e+00 0.000000000000000e+00 0.000000000000000e+00
0.000000000000000e+00 0.000000000000000e+00 0.000000000000000e+00
0.000000000000000e+00 0.000000000000000e+00 0.000000000000000e+00

0.000000000000000e+00 0.000000000000000e+00 0.000000000000000e+00
0.000000000000000e+00 0.000000000000000e+00 0.000000000000000e+00
0.000000000000000e+00 0.000000000000000e+00 0.000000000000000e+00

0.000000000000000e+00 0.000000000000000e+00 0.000000000000000e+00
0.000000000000000e+00 0.000000000000000e+00 0.000000000000000e+00
0.000000000000000e+00 0.000000000000000e+00 0.000000000000000e+00

0.000000000000000e+00 0.000000000000000e+00 0.000000000000000e+00
0.000000000000000e+00 0.000000000000000e+00 0.000000000000000e+00
0.000000000000000e+00 0.000000000000000e+00 0.000000000000000e+00

0.000000000000000e+00 0.000000000000000e+00 0.000000000000000e+00
0.000000000000000e+00 0.000000000000000e+00 0.000000000000000e+00
0.000000000000000e+00 0.000000000000000e+00 0.000000000000000e+00

0.000000000000000e+00 0.000000000000000e+00 0.000000000000000e+00
0.000000000000000e+00 0.000000000000000e+00 0.000000000000000e+00
0.000000000000000e+00 0.000000000000000e+00 0.000000000000000e+00

0.000000000000000e+00 0.000000000000000e+00 0.000000000000000e+00
0.000000000000000e+00 0.000000000000000e+00 0.000000000000000e+00
0.000000000000000e+00 0.000000000000000e+00 0.000000000000000e+00

0.000000000000000e+00 0.000000000000000e+00 0.000000000000000e+00
0.000000000000000e+00 0.000000000000000e+00 0.000000000000000e+00
0.000000000000000e+00 0.000000000000000e+00 0.000000000000000e+00

0.000000000000000e+00 0.000000000000000e+00 0.000000000000000e+00
0.000000000000000e+00 0.000000000000000e+00 0.000000000000000e+00
0.000000000000000e+00 0.000000000000000e+00 0.000000000000000e+00

0.000000000000000e+00 0.000000000000000e+00 0.000000000000000e+00
0.000000000000000e+00 0.000000000000000e+00 0.000000000000000e+00
0.000000000000000e+00 0.000000000000000e+00 0.000000000000000e+00

0.000000000000000e+00 0.000000000000000e+00 0.000000000000000e+00
0.000000000000000e+00 0.000000000000000e+00 0.000000000000000e+00
0.000000000000000e+00 0.000000000000000e+00 0.000000000000000e+00

0.000000000000000e+00 0.000000000000000e+00 0.000000000000000e+00
0.000000000000000e+00 0.000000000000000e+00 0.000000000000000e+00
0.000000000000000e+00 0.000000000000000e+00 0.000000000000000e+00

0.000000000000000e+00 0.000000000000000e+00 0.000000000000000e+00
0.000000000000000e+00 0.000000000000000e+00 0.000000000000000e+00
0.000000000000000e+00 0.000000000000000e+00 0.000000000000000e+00

0.000000000000000e+00 0.000000000000000e+00 0.000000000000000e+00
0.000000000000000e+00 0.000000000000000e+00 0.000000000000000e+00
0.000000000000000e+00 0.000000000000000e+00 0.000000000000000e+00

0.000000000000000e+00 0.000000000000000e+00 0.000000000000000e+00
0.000000000000000e+00 0.000000000000000e+00 0.000000000000000e+00
0.000000000000000e+00 0.000000000000000e+00 0.000000000000000e+00

0.000000000000000e+00 0.000000000000000e+00 0.000000000000000e+00
0.000000000000000e+00 0.000000000000000e+00 0.000000000000000e+00
0.000000000000000e+00 0.000000000000000e+00 0.000000000000000e+00

0.000000000000000e+00 0.000000000000000e+00 0.000000000000000e+00
0.000000000000000e+00 0.000000000000000e+00 0.000000000000000e+00
0.000000000000000e+00 0.000000000000000e+00 0.000000000000000e+00

0.000000000000000e+00 0.000000000000000e+00 0.000000000000000e+00
0.000000000000000e+00 0.000000000000000e+00 0.000000000000000e+00
0.000000000000000e+00 0.000000000000000e+00 0.000000000000000e+00

0.000000000000000e+00 0.000000000000000e+00 0.000000000000000e+00
0.000000000000000e+00 0.000000000000000e+00 0.000000000000000e+00
0.000000000000000e+00 0.000000000000000e+00 0.000000000000000e+00

0.000000000000000e+00 0.000000000000000e+00 0.000000000000000e+00
0.000000000000000e+00 0.000000000000000e+00 0.000000000000000e+00
0.000000000000000e+00 0.000000000000000e+00 0.000000000000000e+00

0.000000000000000e+00 0.000000000000000e+00 0.000000000000000e+00
0.000000000000000e+00 0.000000000000000e+00 0.000000000000000e+00
0.000000000000000e+00 0.000000000000000e+00 0.000000000000000e+00

0.000000000000000e+00 0.000000000000000e+00 0.000000000000000e+00
0.000000000000000e+00 0.000000000000000e+00 0.000000000000000e+00
0.000000000000000e+00 0.000000000000000e+00 0.000000000000000e+00

0.000000000000000e+00 0.000000000000000e+00 0.000000000000000e+00
0.000000000000000e+00 0.000000000000000e+00 0.000000000000000e+00
0.000000000000000e+00 0.000000000000000e+00 0.000000000000000e+00

0.000000000000000e+00 0.000000000000000e+00 0.000000000000000e+00
0.000000000000000e+00 0.000000000000000e+00 0.000000000000000e+00
0.000000000000000e+00 0.000000000000000e+00 0.000000000000000e+00

0.000000000000000e+00 0.000000000000000e+00 0.000000000000000e+00
0.000000000000000e+00 0.000000000000000e+00 0.000000000000000e+00
0.000000000000000e+00 0.000000000000000e+00 0.000000000000000e+00

0.000000000000000e+00 0.000000000000000e+00 0.000000000000000e+00
0.000000000000000e+00 0.000000000000000e+00 0.000000000000000e+00
0.000000000000000e+00 0.000000000000000e+00 0.000000000000000e+00

0.000000000000000e+00 0.000000000000000e+00 0.000000000000000e+00
0.000000000000000e+00 0.000000000000000e+00 0.000000000000000e+00
0.000000000000000e+00 0.000000000000000e+00 0.000000000000000e+00

0.000000000000000e+00 0.000000000000000e+00 0.000000000000000e+00
0.000000000000000e+00 0.000000000000000e+00 0.000000000000000e+00
0.000000000000000e+00 0.000000000000000e+00 0.000000000000000e+00

0.000000000000000e+00 0.000000000000000e+00 0.000000000000000e+00
0.000000000000000e+00 0.000000000000000e+00 0.000000000000000e+00
0.000000000000000e+00 0.000000000000000e+00 0.000000000000000e+00

0.000000000000000e+00 0.000000000000000e+00 0.000000000000000e+00
0.000000000000000e+00 0.000000000000000e+00 0.000000000000000e+00
0.000000000000000e+00 0.000000000000000e+00 0.000000000000000e+00

0.000000000000000e+00 0.000000000000000e+00 0.000000000000000e+00
0.000000000000000e+00 0.000000000000000e+00 0.000000000000000e+00
0.000000000000000e+00 0.000000000000000e+00 0.000000000000000e+00

0.000000000000000e+00 0.000000000000000e+00 0.000000000000000e+00
0.000000000000000e+00 0.000000000000000e+00 0.000000000000000e+00
0.000000000000000e+00 0.000000000000000e+00 0.000000000000000e+00

0.000000000000000e+00 0.000000000000000e+00 0.000000000000000e+00
0.000000000000000e+00 0.000000000000000e+00 0.000000000000000e+00
0.000000000000000e+00 0.000000000000000e+00 0.000000000000000e+00

0.000000000000000e+00 0.000000000000000e+00 0.000000000000000e+00
0.000000000000000e+00 0.000000000000000e+00 0.000000000000000e+00
0.000000000000000e+00 0.000000000000000e+00 0.000000000000000e+00

0.000000000000000e+00 0.000000000000000e+00 0.000000000000000e+00
0.000000000000000e+00 0.000000000000000e+00 0.000000000000000e+00
0.000000000000000e+00 0.000000000000000e+00 0.000000000000000e+00

0.000000000000000e+00 0.000000000000000e+00 0.000000000000000e+00
0.000000000000000e+00 0.000000000000000e+00 0.000000000000000e+00
0.000000000000000e+00 0.000000000000000e+00 0.000000000000000e+00

0.000000000000000e+00 0.000000000000000e+00 0.000000000000000e+00
0.000000000000000e+00 0.000000000000000e+00 0.000000000000000e+00
0.000000000000000e+00 0.000000000000000e+00 0.000000000000000e+00

0.000000000000000e+00 0.000000000000000e+00 0.000000000000000e+00
0.000000000000000e+00 0.000000000000000e+00 0.000000000000000e+00
0.000000000000000e+00 0.000000000000000e+00 0.000000000000000e+00

0.000000000000000e+00 0.000000000000000e+00 0.000000000000000e+00
0.000000000000000e+00 0.000000000000000e+00 0.000000000000000e+00
0.000000000000000e+00 0.000000000000000e+00 0.000000000000000e+00

0.000000000000000e+00 0.000000000000000e+00 0.000000000000000e+00
0.000000000000000e+00 0.000000000000000e+00 0.000000000000000e+00
0.000000000000000e+00 0.000000000000000e+00 0.000000000000000e+00

0.000000000000000e+00 0.000000000000000e+00 0.000000000000000e+00
0.000000000000000e+00 0.000000000000000e+00 0.000000000000000e+00
0.000000000000000e+00 0.000000000000000e+00 0.000000000000000e+00

0.000000000000000e+00 0.000000000000000e+00 0.000000000000000e+00
0.000000000000000e+00 0.000000000000000e+00 0.000000000000000e+00
0.000000000000000e+00 0.000000000000000e+00 0.000000000000000e+00

0.000000000000000e+00 0.000000000000000e+00 0.000000000000000e+00
0.000000000000000e+00 0.000000000000000e+00 0.000000000000000e+00
0.000000000000000e+00 0.000000000000000e+00 0.000000000000000e+00

0.000000000000000e+00 0.000000000000000e+00 0.000000000000000e+00
0.000000000000000e+00 0.000000000000000e+00 0.000000000000000e+00
0.000000000000000e+00 0.000000000000000e+00 0.000000000000000e+00

0.000000000000000e+00 0.000000000000000e+00 0.000000000000000e+00
0.000000000000000e+00 0.000000000000000e+00 0.000000000000000e+00
0.000000000000000e+00 0.000000000000000e+00 0.000000000000000e+00

0.000000000000000e+00 0.000000000000000e+00 0.000000000000000e+00
0.000000000000000e+00 0.000000000000000e+00 0.000000000000000e+00
0.000000000000000e+00 0.000000000000000e+00 0.000000000000000e+00

0.000000000000000e+00 0.000000000000000e+00 0.000000000000000e+00
0.000000000000000e+00 0.000000000000000e+00 0.000000000000000e+00
0.000000000000000e+00 0.000000000000000e+00 0.000000000000000e+00

0.000000000000000e+00 0.000000000000000e+00 0.000000000000000e+00
0.000000000000000e+00 0.000000000000000e+00 0.000000000000000e+00
0.000000000000000e+00 0.000000000000000e+00 0.000000000000000e+00

0.000000000000000e+00 0.000000000000000e+00 0.000000000000000e+00
0.000000000000000e+00 0.000000000000000e+00 0.000000000000000e+00
0.000000000000000e+00 0.000000000000000e+00 0.000000000000000e+00

0.000000000000000e+00 0.000000000000000e+00 0.000000000000000e+00
0.000000000000000e+00 0.000000000000000e+00 0.000000000000000e+00
0.000000000000000e+00 0.000000000000000e+00 0.000000000000000e+00

0.000000000000000e+00 0.000000000000000e+00 0.000000000000000e+00
0.000000000000000e+00 0.000000000000000e+00 0.000000000000000e+00
0.000000000000000e+00 0.000000000000000e+00 0.000000000000000e+00

0.000000000000000e+00 0.000000000000000e+00 0.000000000000000e+00
0.000000000000000e+00 0.000000000000000e+00 0.000000000000000e+00
0.000000000000000e+00 0.000000000000000e+00 0.000000000000000e+00

0.000000000000000e+00 0.000000000000000e+00 0.000000000000000e+00
0.000000000000000e+00 0.000000000000000e+00 0.000000000000000e+00
0.000000000000000e+00 0.000000000000000e+00 0.000000000000000e+00

0.000000000000000e+00 0.000000000000000e+00 0.000000000000000e+00
0.000000000000000e+00 0.000000000000000e+00 0.000000000000000e+00
0.000000000000000e+00 0.000000000000000e+00 0.000000000000000e+00

0.000000000000000e+00 0.000000000000000e+00 0.000000000000000e+00
0.000000000000000e+00 0.000000000000000e+00 0.000000000000000e+00
0.000000000000000e+00 0.000000000000000e+00 0.000000000000000e+00

0.000000000000000e+00 0.000000000000000e+00 0.000000000000000e+00
0.000000000000000e+00 0.000000000000000e+00 0.000000000000000e+00
0.000000000000000e+00 0.000000000000000e+00 0.000000000000000e+00

0.000000000000000e+00 0.000000000000000e+00 0.000000000000000e+00
0.000000000000000e+00 0.000000000000000e+00 0.000000000000000e+00
0.000000000000000e+00 0.000000000000000e+00 0.000000000000000e+00

0.000000000000000e+00 0.000000000000000e+00 0.000000000000000e+00
0.000000000000000e+00 0.000000000000000e+00 0.000000000000000e+00
0.000000000000000e+00 0.000000000000000e+00 0.000000000000000e+00

0.000000000000000e+00 0.000000000000000e+00 0.000000000000000e+00
0.000000000000000e+00 0.000000000000000e+00 0.000000000000000e+00
0.000000000000000e+00 0.000000000000000e+00 0.000000000000000e+00

0.000000000000000e+00 0.000000000000000e+00 0.000000000000000e+00
0.000000000000000e+00 0.000000000000000e+00 0.000000000000000e+00
0.000000000000000e+00 0.000000000000000e+00 0.000000000000000e+00

0.000000000000000e+00 0.000000000000000e+00 0.000000000000000e+00
0.000000000000000e+00 0.000000000000000e+00 0.000000000000000e+00
0.000000000000000e+00 0.000000000000000e+00 0.000000000000000e+00

0.000000000000000e+00 0.000000000000000e+00 0.000000000000000e+00
0.000000000000000e+00 0.000000000000000e+00 0.000000000000000e+00
0.000000000000000e+00 0.000000000000000e+00 0.000000000000000e+00

0.000000000000000e+00 0.000000000000000e+00 0.000000000000000e+00
0.000000000000000e+00 0.000000000000000e+00 0.000000000000000e+00
0.000000000000000e+00 0.000000000000000e+00 0.000000000000000e+00

0.000000000000000e+00 0.000000000000000e+00 0.000000000000000e+00
0.000000000000000e+00 0.000000000000000e+00 0.000000000000000e+00
0.000000000000000e+00 0.000000000000000e+00 0.000000000000000e+00

0.000000000000000e+00 0.000000000000000e+00 0.000000000000000e+00
0.000000000000000e+00 0.000000000000000e+00 0.000000000000000e+00
0.000000000000000e+00 0.000000000000000e+00 0.000000000000000e+00

0.000000000000000e+00 0.000000000000000e+00 0.000000000000000e+00
0.000000000000000e+00 0.000000000000000e+00 0.000000000000000e+00
0.000000000000000e+00 0.000000000000000e+00 0.000000000000000e+00

0.000000000000000e+00 0.000000000000000e+00 0.000000000000000e+00
0.000000000000000e+00 0.000000000000000e+00 0.000000000000000e+00
0.000000000000000e+00 0.000000000000000e+00 0.000000000000000e+00

0.000000000000000e+00 0.000000000000000e+00 0.000000000000000e+00
0.000000000000000e+00 0.000000000000000e+00 0.000000000000000e+00
0.000000000000000e+00 0.000000000000000e+00 0.000000000000000e+00

0.000000000000000e+00 0.000000000000000e+00 0.000000000000000e+00
0.000000000000000e+00 0.000000000000000e+00 0.000000000000000e+00
0.000000000000000e+00 0.000000000000000e+00 0.000000000000000e+00

0.000000000000000e+00 0.000000000000000e+00 0.000000000000000e+00
0.000000000000000e+00 0.000000000000000e+00 0.000000000000000e+00
0.000000000000000e+00 0.000000000000000e+00 0.000000000000000e+00

0.000000000000000e+00 0.000000000000000e+00 0.000000000000000e+00
0.000000000000000e+00 0.000000000000000e+00 0.000000000000000e+00
0.000000000000000e+00 0.000000000000000e+00 0.000000000000000e+00

0.000000000000000e+00 0.000000000000000e+00 0.000000000000000e+00
0.000000000000000e+00 0.000000000000000e+00 0.000000000000000e+00
0.000000000000000e+00 0.000000000000000e+00 0.000000000000000e+00

0.000000000000000e+00 0.000000000000000e+00 0.000000000000000e+00
0.000000000000000e+00 0.000000000000000e+00 0.000000000000000e+00
0.000000000000000e+00 0.000000000000000e+00 0.000000000000000e+00

0.000000000000000e+00 0.000000000000000e+00 0.000000000000000e+00
0.000000000000000e+00 0.000000000000000e+00 0.000000000000000e+00
0.000000000000000e+00 0.000000000000000e+00 0.000000000000000e+00

0.000000000000000e+00 0.000000000000000e+00 0.000000000000000e+00
0.000000000000000e+00 0.000000000000000e+00 0.000000000000000e+00
0.000000000000000e+00 0.000000000000000e+00 0.000000000000000e+00

0.000000000000000e+00 0.000000000000000e+00 0.000000000000000e+00
0.000000000000000e+00 0.000000000000000e+00 0.000000000000000e+00
0.000000000000000e+00 0.000000000000000e+00 0.000000000000000e+00

0.000000000000000e+00 0.000000000000000e+00 0.000000000000000e+00
0.000000000000000e+00 0.000000000000000e+00 0.000000000000000e+00
0.000000000000000e+00 0.000000000000000e+00 0.000000000000000e+00

0.000000000000000e+00 0.000000000000000e+00 0.000000000000000e+00
0.000000000000000e+00 0.000000000000000e+00 0.000000000000000e+00
0.000000000000000e+00 0.000000000000000e+00 0.000000000000000e+00

0.000000000000000e+00 0.000000000000000e+00 0.000000000000000e+00
0.000000000000000e+00 0.000000000000000e+00 0.000000000000000e+00
0.000000000000000e+00 0.000000000000000e+00 0.000000000000000e+00

0.000000000000000e+00 0.000000000000000e+00 0.000000000000000e+00
0.000000000000000e+00 0.000000000000000e+00 0.000000000000000e+00
0.000000000000000e+00 0.000000000000000e+00 0.000000000000000e+00

0.000000000000000e+00 0.000000000000000e+00 0.000000000000000e+00
0.000000000000000e+00 0.000000000000000e+00 0.000000000000000e+00
0.000000000000000e+00 0.000000000000000e+00 0.000000000000000e+00

0.000000000000000e+00 0.000000000000000e+00 0.000000000000000e+00
0.000000000000000e+00 0.000000000000000e+00 0.000000000000000e+00
0.000000000000000e+00 0.000000000000000e+00 0.000000000000000e+00

0.000000000000000e+00 0.000000000000000e+00 0.000000000000000e+00
0.000000000000000e+00 0.000000000000000e+00 0.000000000000000e+00
0.000000000000000e+00 0.000000000000000e+00 0.000000000000000e+00

0.000000000000000e+00 0.000000000000000e+00 0.000000000000000e+00
0.000000000000000e+00 0.000000000000000e+00 0.000000000000000e+00
0.000000000000000e+00 0.000000000000000e+00 0.000000000000000e+00

0.000000000000000e+00 0.000000000000000e+00 0.000000000000000e+00
0.000000000000000e+00 0.000000000000000e+00 0.000000000000000e+00
0.000000000000000e+00 0.000000000000000e+00 0.000000000000000e+00

0.000000000000000e+00 0.000000000000000e+00 0.000000000000000e+00
0.000000000000000e+00 0.000000000000000e+00 0.000000000000000e+00
0.000000000000000e+00 0.000000000000000e+00 0.000000000000000e+00

0.000000000000000e+00 0.000000000000000e+00 0.000000000000000e+00
0.000000000000000e+00 0.000000000000000e+00 0.000000000000000e+00
0.000000000000000e+00 0.000000000000000e+00 0.000000000000000e+00

0.000000000000000e+00 0.000000000000000e+00 0.000000000000000e+00
0.000000000000000e+00 0.000000000000000e+00 0.000000000000000e+00
0.000000000000000e+00 0.000000000000000e+00 0.000000000000000e+00

0.000000000000000e+00 0.000000000000000e+00 0.000000000000000e+00
0.000000000000000e+00 0.000000000000000e+00 0.000000000000000e+00
0.000000000000000e+00 0.000000000000000e+00 0.000000000000000e+00

0.000000000000000e+00 0.000000000000000e+00 0.000000000000000e+00
0.000000000000000e+00 0.000000000000000e+00 0.000000000000000e+00
0.000000000000000e+00 0.000000000000000e+00 0.000000000000000e+00

0.000000000000000e+00 0.000000000000000e+00 0.000000000000000e+00
0.000000000000000e+00 0.000000000000000e+00 0.000000000000000e+00
0.000000000000000e+00 0.000000000000000e+00 0.000000000000000e+00

0.000000000000000e+00 0.000000000000000e+00 0.000000000000000e+00
0.000000000000000e+00 0.000000000000000e+00 0.000000000000000e+00
0.000000000000000e+00 0.000000000000000e+00 0.000000000000000e+00

0.000000000000000e+00 0.000000000000000e+00 0.000000000000000e+00
0.000000000000000e+00 0.000000000000000e+00 0.000000000000000e+00
0.000000000000000e+00 0.000000000000000e+00 0.000000000000000e+00

0.000000000000000e+00 0.000000000000000e+00 0.000000000000000e+00
0.000000000000000e+00 0.000000000000000e+00 0.000000000000000e+00
0.000000000000000e+00 0.000000000000000e+00 0.000000000000000e+00

0.000000000000000e+00 0.000000000000000e+00 0.000000000000000e+00
0.000000000000000e+00 0.000000000000000e+00 0.000000000000000e+00
0.000000000000000e+00 0.000000000000000e+00 0.000000000000000e+00

0.000000000000000e+00 0.000000000000000e+00 0.000000000000000e+00
0.000000000000000e+00 0.000000000000000e+00 0.000000000000000e+00
0.000000000000000e+00 0.000000000000000e+00 0.000000000000000e+00

0.000000000000000e+00 0.000000000000000e+00 0.000000000000000e+00
0.000000000000000e+00 0.000000000000000e+00 0.000000000000000e+00
0.000000000000000e+00 0.000000000000000e+00 0.000000000000000e+00

0.000000000000000e+00 0.000000000000000e+00 0.000000000000000e+00
0.000000000000000e+00 0.000000000000000e+00 0.000000000000000e+00
0.000000000000000e+00 0.000000000000000e+00 0.000000000000000e+00

0.000000000000000e+00 0.000000000000000e+00 0.000000000000000e+00
0.000000000000000e+00 0.000000000000000e+00 0.000000000000000e+00
0.000000000000000e+00 0.000000000000000e+00 0.000000000000000e+00

0.000000000000000e+00 0.000000000000000e+00 0.000000000000000e+00
0.000000000000000e+00 0.000000000000000e+00 0.000000000000000e+00
0.000000000000000e+00 0.000000000000000e+00 0.000000000000000e+00

0.000000000000000e+00 0.000000000000000e+00 0.000000000000000e+00
0.000000000000000e+00 0.000000000000000e+00 0.000000000000000e+00
0.000000000000000e+00 0.000000000000000e+00 0.000000000000000e+00

0.000000000000000e+00 0.000000000000000e+00 0.000000000000000e+00
0.000000000000000e+00 0.000000000000000e+00 0.000000000000000e+00
0.000000000000000e+00 0.000000000000000e+00 0.000000000000000e+00

0.000000000000000e+00 0.000000000000000e+00 0.000000000000000e+00
0.000000000000000e+00 0.000000000000000e+00 0.000000000000000e+00
0.000000000000000e+00 0.000000000000000e+00 0.000000000000000e+00

0.000000000000000e+00 0.000000000000000e+00 0.000000000000000e+00
0.000000000000000e+00 0.000000000000000e+00 0.000000000000000e+00
0.000000000000000e+00 0.000000000000000e+00 0.000000000000000e+00

0.000000000000000e+00 0.000000000000000e+00 0.000000000000000e+00
0.000000000000000e+00 0.000000000000000e+00 0.000000000000000e+00
0.000000000000000e+00 0.000000000000000e+00 0.000000000000000e+00

0.000000000000000e+00 0.000000000000000e+00 0.000000000000000e+00
0.000000000000000e+00 0.000000000000000e+00 0.000000000000000e+00
0.000000000000000e+00 0.000000000000000e+00 0.000000000000000e+00

0.000000000000000e+00 0.000000000000000e+00 0.000000000000000e+00
0.000000000000000e+00 0.000000000000000e+00 0.000000000000000e+00
0.000000000000000e+00 0.000000000000000e+00 0.000000000000000e+00

0.000000000000000e+00 0.000000000000000e+00 0.000000000000000e+00
0.000000000000000e+00 0.000000000000000e+00 0.000000000000000e+00
0.000000000000000e+00 0.000000000000000e+00 0.000000000000000e+00

0.000000000000000e+00 0.000000000000000e+00 0.000000000000000e+00
0.000000000000000e+00 0.000000000000000e+00 0.000000000000000e+00
0.000000000000000e+00 0.000000000000000e+00 0.000000000000000e+00

0.000000000000000e+00 0.000000000000000e+00 0.000000000000000e+00
0.000000000000000e+00 0.000000000000000e+00 0.000000000000000e+00
0.000000000000000e+00 0.000000000000000e+00 0.000000000000000e+00

0.000000000000000e+00 0.000000000000000e+00 0.000000000000000e+00
0.000000000000000e+00 0.000000000000000e+00 0.000000000000000e+00
0.000000000000000e+00 0.000000000000000e+00 0.000000000000000e+00

0.000000000000000e+00 0.000000000000000e+00 0.000000000000000e+00
0.000000000000000e+00 0.000000000000000e+00 0.000000000000000e+00
0.000000000000000e+00 0.000000000000000e+00 0.000000000000000e+00

0.000000000000000e+00 0.000000000000000e+00 0.000000000000000e+00
0.000000000000000e+00 0.000000000000000e+00 0.000000000000000e+00
0.000000000000000e+00 0.000000000000000e+00 0.000000000000000e+00

0.000000000000000e+00 0.000000000000000e+00 0.000000000000000e+00
0.000000000000000e+00 0.000000000000000e+00 0.000000000000000e+00
0.000000000000000e+00 0.000000000000000e+00 0.000000000000000e+00

0.000000000000000e+00 0.000000000000000e+00 0.000000000000000e+00
0.000000000000000e+00 0.000000000000000e+00 0.000000000000000e+00
0.000000000000000e+00 0.000000000000000e+00 0.000000000000000e+00

0.000000000000000e+00 0.000000000000000e+00 0.000000000000000e+00
0.000000000000000e+00 0.000000000000000e+00 0.000000000000000e+00
0.000000000000000e+00 0.000000000000000e+00 0.000000000000000e+00

0.000000000000000e+00 0.000000000000000e+00 0.000000000000000e+00
0.000000000000000e+00 0.000000000000000e+00 0.000000000000000e+00
0.000000000000000e+00 0.000000000000000e+00 0.000000000000000e+00

0.000000000000000e+00 0.000000000000000e+00 0.000000000000000e+00
0.000000000000000e+00 0.000000000000000e+00 0.000000000000000e+00
0.000000000000000e+00 0.000000000000000e+00 0.000000000000000e+00

0.000000000000000e+00 0.000000000000000e+00 0.000000000000000e+00
0.000000000000000e+00 0.000000000000000e+00 0.000000000000000e+00
0.000000000000000e+00 0.000000000000000e+00 0.000000000000000e+00

0.000000000000000e+00 0.000000000000000e+00 0.000000000000000e+00
0.000000000000000e+00 0.000000000000000e+00 0.000000000000000e+00
0.000000000000000e+00 0.000000000000000e+00 0.000000000000000e+00

0.000000000000000e+00 0.000000000000000e+00 0.000000000000000e+00
0.000000000000000e+00 0.000000000000000e+00 0.000000000000000e+00
0.000000000000000e+00 0.000000000000000e+00 0.000000000000000e+00

0.000000000000000e+00 0.000000000000000e+00 0.000000000000000e+00
0.000000000000000e+00 0.000000000000000e+00 0.000000000000000e+00
0.000000000000000e+00 0.000000000000000e+00 0.000000000000000e+00

0.000000000000000e+00 0.000000000000000e+00 0.000000000000000e+00
0.000000000000000e+00 0.000000000000000e+00 0.000000000000000e+00
0.000000000000000e+00 0.000000000000000e+00 0.000000000000000e+00

0.000000000000000e+00 0.000000000000000e+00 0.000000000000000e+00
0.000000000000000e+00 0.000000000000000e+00 0.000000000000000e+00
0.000000000000000e+00 0.000000000000000e+00 0.000000000000000e+00

0.000000000000000e+00 0.000000000000000e+00 0.000000000000000e+00
0.000000000000000e+00 0.000000000000000e+00 0.000000000000000e+00
0.000000000000000e+00 0.000000000000000e+00 0.000000000000000e+00

0.000000000000000e+00 0.000000000000000e+00 0.000000000000000e+00
0.000000000000000e+00 0.000000000000000e+00 0.000000000000000e+00
0.000000000000000e+00 0.000000000000000e+00 0.000000000000000e+00

0.000000000000000e+00 0.000000000000000e+00 0.000000000000000e+00
0.000000000000000e+00 0.000000000000000e+00 0.000000000000000e+00
0.000000000000000e+00 0.000000000000000e+00 0.000000000000000e+00

0.000000000000000e+00 0.000000000000000e+00 0.000000000000000e+00
0.000000000000000e+00 0.000000000000000e+00 0.000000000000000e+00
0.000000000000000e+00 0.000000000000000e+00 0.000000000000000e+00

0.000000000000000e+00 0.000000000000000e+00 0.000000000000000e+00
0.000000000000000e+00 0.000000000000000e+00 0.000000000000000e+00
0.000000000000000e+00 0.000000000000000e+00 0.000000000000000e+00

0.000000000000000e+00 0.000000000000000e+00 0.000000000000000e+00
0.000000000000000e+00 0.000000000000000e+00 0.000000000000000e+00
0.000000000000000e+00 0.000000000000000e+00 0.000000000000000e+00

0.000000000000000e+00 0.000000000000000e+00 0.000000000000000e+00
0.000000000000000e+00 0.000000000000000e+00 0.000000000000000e+00
0.000000000000000e+00 0.000000000000000e+00 0.000000000000000e+00

0.000000000000000e+00 0.000000000000000e+00 0.000000000000000e+00
0.000000000000000e+00 0.000000000000000e+00 0.000000000000000e+00
0.000000000000000e+00 0.000000000000000e+00 0.000000000000000e+00

0.000000000000000e+00 0.000000000000000e+00 0.000000000000000e+00
0.000000000000000e+00 0.000000000000000e+00 0.000000000000000e+00
0.000000000000000e+00 0.000000000000000e+00 0.000000000000000e+00

0.000000000000000e+00 0.000000000000000e+00 0.000000000000000e+00
0.000000000000000e+00 0.000000000000000e+00 0.000000000000000e+00
0.000000000000000e+00 0.000000000000000e+00 0.000000000000000e+00

0.000000000000000e+00 0.000000000000000e+00 0.000000000000000e+00
0.000000000000000e+00 0.000000000000000e+00 0.000000000000000e+00
0.000000000000000e+00 0.000000000000000e+00 0.000000000000000e+00

0.000000000000000e+00 0.000000000000000e+00 0.000000000000000e+00
0.000000000000000e+00 0.000000000000000e+00 0.000000000000000e+00
0.000000000000000e+00 0.000000000000000e+00 0.000000000000000e+00

0.000000000000000e+00 0.000000000000000e+00 0.000000000000000e+00
0.000000000000000e+00 0.000000000000000e+00 0.000000000000000e+00
0.000000000000000e+00 0.000000000000000e+00 0.000000000000000e+00

0.000000000000000e+00 0.000000000000000e+00 0.000000000000000e+00
0.000000000000000e+00 0.000000000000000e+00 0.000000000000000e+00
0.000000000000000e+00 0.000000000000000e+00 0.000000000000000e+00

0.000000000000000e+00 0.000000000000000e+00 0.000000000000000e+00
0.000000000000000e+00 0.000000000000000e+00 0.000000000000000e+00
0.000000000000000e+00 0.000000000000000e+00 0.000000000000000e+00

0.000000000000000e+00 0.000000000000000e+00 0.000000000000000e+00
0.000000000000000e+00 0.000000000000000e+00 0.000000000000000e+00
0.000000000000000e+00 0.000000000000000e+00 0.000000000000000e+00

0.000000000000000e+00 0.000000000000000e+00 0.000000000000000e+00
0.000000000000000e+00 0.000000000000000e+00 0.000000000000000e+00
0.000000000000000e+00 0.000000000000000e+00 0.000000000000000e+00

0.000000000000000e+00 0.000000000000000e+00 0.000000000000000e+00
0.000000000000000e+00 0.000000000000000e+00 0.000000000000000e+00
0.000000000000000e+00 0.000000000000000e+00 0.000000000000000e+00

0.000000000000000e+00 0.000000000000000e+00 0.000000000000000e+00
0.000000000000000e+00 0.000000000000000e+00 0.000000000000000e+00
0.000000000000000e+00 0.000000000000000e+00 0.000000000000000e+00

0.000000000000000e+00 0.000000000000000e+00 0.000000000000000e+00
0.000000000000000e+00 0.000000000000000e+00 0.000000000000000e+00
0.000000000000000e+00 0.000000000000000e+00 0.000000000000000e+00

0.000000000000000e+00 0.000000000000000e+00 0.000000000000000e+00
0.000000000000000e+00 0.000000000000000e+00 0.000000000000000e+00
0.000000000000000e+00 0.000000000000000e+00 0.000000000000000e+00

0.000000000000000e+00 0.000000000000000e+00 0.000000000000000e+00
0.000000000000000e+00 0.000000000000000e+00 0.000000000000000e+00
0.000000000000000e+00 0.000000000000000e+00 0.000000000000000e+00

0.000000000000000e+00 0.000000000000000e+00 0.000000000000000e+00
0.000000000000000e+00 0.000000000000000e+00 0.000000000000000e+00
0.000000000000000e+00 0.000000000000000e+00 0.000000000000000e+00

0.000000000000000e+00 0.000000000000000e+00 0.000000000000000e+00
0.000000000000000e+00 0.000000000000000e+00 0.000000000000000e+00
0.000000000000000e+00 0.000000000000000e+00 0.000000000000000e+00

0.000000000000000e+00 0.000000000000000e+00 0.000000000000000e+00
0.000000000000000e+00 0.000000000000000e+00 0.000000000000000e+00
0.000000000000000e+00 0.000000000000000e+00 0.000000000000000e+00

0.000000000000000e+00 0.000000000000000e+00 0.000000000000000e+00
0.000000000000000e+00 0.000000000000000e+00 0.000000000000000e+00
0.000000000000000e+00 0.000000000000000e+00 0.000000000000000e+00

0.000000000000000e+00 0.000000000000000e+00 0.000000000000000e+00
0.000000000000000e+00 0.000000000000000e+00 0.000000000000000e+00
0.000000000000000e+00 0.000000000000000e+00 0.000000000000000e+00

0.000000000000000e+00 0.000000000000000e+00 0.000000000000000e+00
0.000000000000000e+00 0.000000000000000e+00 0.000000000000000e+00
0.000000000000000e+00 0.000000000000000e+00 0.000000000000000e+00

0.000000000000000e+00 0.000000000000000e+00 0.000000000000000e+00
0.000000000000000e+00 0.000000000000000e+00 0.000000000000000e+00
0.000000000000000e+00 0.000000000000000e+00 0.000000000000000e+00

0.000000000000000e+00 0.000000000000000e+00 0.000000000000000e+00
0.000000000000000e+00 0.000000000000000e+00 0.000000000000000e+00
0.000000000000000e+00 0.000000000000000e+00 0.000000000000000e+00

0.000000000000000e+00 0.000000000000000e+00 0.000000000000000e+00
0.000000000000000e+00 0.000000000000000e+00 0.000000000000000e+00
0.000000000000000e+00 0.000000000000000e+00 0.000000000000000e+00

0.000000000000000e+00 0.000000000000000e+00 0.000000000000000e+00
0.000000000000000e+00 0.000000000000000e+00 0.000000000000000e+00
0.000000000000000e+00 0.000000000000000e+00 0.000000000000000e+00

0.000000000000000e+00 0.000000000000000e+00 0.000000000000000e+00
0.000000000000000e+00 0.000000000000000e+00 0.000000000000000e+00
0.000000000000000e+00 0.000000000000000e+00 0.000000000000000e+00

0.000000000000000e+00 0.000000000000000e+00 0.000000000000000e+00
0.000000000000000e+00 0.000000000000000e+00 0.000000000000000e+00
0.000000000000000e+00 0.000000000000000e+00 0.000000000000000e+00

0.000000000000000e+00 0.000000000000000e+00 0.000000000000000e+00
0.000000000000000e+00 0.000000000000000e+00 0.000000000000000e+00
0.000000000000000e+00 0.000000000000000e+00 0.000000000000000e+00

0.000000000000000e+00 0.000000000000000e+00 0.000000000000000e+00
0.000000000000000e+00 0.000000000000000e+00 0.000000000000000e+00
0.000000000000000e+00 0.000000000000000e+00 0.000000000000000e+00

0.000000000000000e+00 0.000000000000000e+00 0.000000000000000e+00
0.000000000000000e+00 0.000000000000000e+00 0.000000000000000e+00
0.000000000000000e+00 0.000000000000000e+00 0.000000000000000e+00

0.000000000000000e+00 0.000000000000000e+00 0.000000000000000e+00
0.000000000000000e+00 0.000000000000000e+00 0.000000000000000e+00
0.000000000000000e+00 0.000000000000000e+00 0.000000000000000e+00

0.000000000000000e+00 0.000000000000000e+00 0.000000000000000e+00
0.000000000000000e+00 0.000000000000000e+00 0.000000000000000e+00
0.000000000000000e+00 0.000000000000000e+00 0.000000000000000e+00

0.000000000000000e+00 0.000000000000000e+00 0.000000000000000e+00
0.000000000000000e+00 0.000000000000000e+00 0.000000000000000e+00
0.000000000000000e+00 0.000000000000000e+00 0.000000000000000e+00

0.000000000000000e+00 0.000000000000000e+00 0.000000000000000e+00
0.000000000000000e+00 0.000000000000000e+00 0.000000000000000e+00
0.000000000000000e+00 0.000000000000000e+00 0.000000000000000e+00

0.000000000000000e+00 0.000000000000000e+00 0.000000000000000e+00
0.000000000000000e+00 0.000000000000000e+00 0.000000000000000e+00
0.000000000000000e+00 0.000000000000000e+00 0.000000000000000e+00

0.000000000000000e+00 0.000000000000000e+00 0.000000000000000e+00
0.000000000000000e+00 0.000000000000000e+00 0.000000000000000e+00
0.000000000000000e+00 0.000000000000000e+00 0.000000000000000e+00

0.000000000000000e+00 0.000000000000000e+00 0.000000000000000e+00
0.000000000000000e+00 0.000000000000000e+00 0.000000000000000e+00
0.000000000000000e+00 0.000000000000000e+00 0.000000000000000e+00

0.000000000000000e+00 0.000000000000000e+00 0.000000000000000e+00
0.000000000000000e+00 0.000000000000000e+00 0.000000000000000e+00
0.000000000000000e+00 0.000000000000000e+00 0.000000000000000e+00

0.000000000000000e+00 0.000000000000000e+00 0.000000000000000e+00
0.000000000000000e+00 0.000000000000000e+00 0.000000000000000e+00
0.000000000000000e+00 0.000000000000000e+00 0.000000000000000e+00

0.000000000000000e+00 0.000000000000000e+00 0.000000000000000e+00
0.000000000000000e+00 0.000000000000000e+00 0.000000000000000e+00
0.000000000000000e+00 0.000000000000000e+00 0.000000000000000e+00

0.000000000000000e+00 0.000000000000000e+00 0.000000000000000e+00
0.000000000000000e+00 0.000000000000000e+00 0.000000000000000e+00
0.000000000000000e+00 0.000000000000000e+00 0.000000000000000e+00

0.000000000000000e+00 0.000000000000000e+00 0.000000000000000e+00
0.000000000000000e+00 0.000000000000000e+00 0.000000000000000e+00
0.000000000000000e+00 0.000000000000000e+00 0.000000000000000e+00

0.000000000000000e+00 0.000000000000000e+00 0.000000000000000e+00
0.000000000000000e+00 0.000000000000000e+00 0.000000000000000e+00
0.000000000000000e+00 0.000000000000000e+00 0.000000000000000e+00

0.000000000000000e+00 0.000000000000000e+00 0.000000000000000e+00
0.000000000000000e+00 0.000000000000000e+00 0.000000000000000e+00
0.000000000000000e+00 0.000000000000000e+00 0.000000000000000e+00

0.000000000000000e+00 0.000000000000000e+00 0.000000000000000e+00
0.000000000000000e+00 0.000000000000000e+00 0.000000000000000e+00
0.000000000000000e+00 0.000000000000000e+00 0.000000000000000e+00

0.000000000000000e+00 0.000000000000000e+00 0.000000000000000e+00
0.000000000000000e+00 0.000000000000000e+00 0.000000000000000e+00
0.000000000000000e+00 0.000000000000000e+00 0.000000000000000e+00

0.000000000000000e+00 0.000000000000000e+00 0.000000000000000e+00
0.000000000000000e+00 0.000000000000000e+00 0.000000000000000e+00
0.000000000000000e+00 0.000000000000000e+00 0.000000000000000e+00

0.000000000000000e+00 0.000000000000000e+00 0.000000000000000e+00
0.000000000000000e+00 0.000000000000000e+00 0.000000000000000e+00
0.000000000000000e+00 0.000000000000000e+00 0.000000000000000e+00

0.000000000000000e+00 0.000000000000000e+00 0.000000000000000e+00
0.000000000000000e+00 0.000000000000000e+00 0.000000000000000e+00
0.000000000000000e+00 0.000000000000000e+00 0.000000000000000e+00

0.000000000000000e+00 0.000000000000000e+00 0.000000000000000e+00
0.000000000000000e+00 0.000000000000000e+00 0.000000000000000e+00
0.000000000000000e+00 0.000000000000000e+00 0.000000000000000e+00

0.000000000000000e+00 0.000000000000000e+00 0.000000000000000e+00
0.000000000000000e+00 0.000000000000000e+00 0.000000000000000e+00
0.000000000000000e+00 0.000000000000000e+00 0.000000000000000e+00

0.000000000000000e+00 0.000000000000000e+00 0.000000000000000e+00
0.000000000000000e+00 0.000000000000000e+00 0.000000000000000e+00
0.000000000000000e+00 0.000000000000000e+00 0.000000000000000e+00

0.000000000000000e+00 0.000000000000000e+00 0.000000000000000e+00
0.000000000000000e+00 0.000000000000000e+00 0.000000000000000e+00
0.000000000000000e+00 0.000000000000000e+00 0.000000000000000e+00

0.000000000000000e+00 0.000000000000000e+00 0.000000000000000e+00
0.000000000000000e+00 0.000000000000000e+00 0.000000000000000e+00
0.000000000000000e+00 0.000000000000000e+00 0.000000000000000e+00

0.000000000000000e+00 0.000000000000000e+00 0.000000000000000e+00
0.000000000000000e+00 0.000000000000000e+00 0.000000000000000e+00
0.000000000000000e+00 0.000000000000000e+00 0.000000000000000e+00

0.000000000000000e+00 0.000000000000000e+00 0.000000000000000e+00
0.000000000000000e+00 0.000000000000000e+00 0.000000000000000e+00
0.000000000000000e+00 0.000000000000000e+00 0.000000000000000e+00

0.000000000000000e+00 0.000000000000000e+00 0.000000000000000e+00
0.000000000000000e+00 0.000000000000000e+00 0.000000000000000e+00
0.000000000000000e+00 0.000000000000000e+00 0.000000000000000e+00

0.000000000000000e+00 0.000000000000000e+00 0.000000000000000e+00
0.000000000000000e+00 0.000000000000000e+00 0.000000000000000e+00
0.000000000000000e+00 0.000000000000000e+00 0.000000000000000e+00

0.000000000000000e+00 0.000000000000000e+00 0.000000000000000e+00
0.000000000000000e+00 0.000000000000000e+00 0.000000000000000e+00
0.000000000000000e+00 0.000000000000000e+00 0.000000000000000e+00

0.000000000000000e+00 0.000000000000000e+00 0.000000000000000e+00
0.000000000000000e+00 0.000000000000000e+00 0.000000000000000e+00
0.000000000000000e+00 0.000000000000000e+00 0.000000000000000e+00

0.000000000000000e+00 0.000000000000000e+00 0.000000000000000e+00
0.000000000000000e+00 0.000000000000000e+00 0.000000000000000e+00
0.000000000000000e+00 0.000000000000000e+00 0.000000000000000e+00

0.000000000000000e+00 0.000000000000000e+00 0.000000000000000e+00
0.000000000000000e+00 0.000000000000000e+00 0.000000000000000e+00
0.000000000000000e+00 0.000000000000000e+00 0.000000000000000e+00

0.000000000000000e+00 0.000000000000000e+00 0.000000000000000e+00
0.000000000000000e+00 0.000000000000000e+00 0.000000000000000e+00
0.000000000000000e+00 0.000000000000000e+00 0.000000000000000e+00

0.000000000000000e+00 0.000000000000000e+00 0.000000000000000e+00
0.000000000000000e+00 0.000000000000000e+00 0.000000000000000e+00
0.000000000000000e+00 0.000000000000000e+00 0.000000000000000e+00

0.000000000000000e+00 0.000000000000000e+00 0.000000000000000e+00
0.000000000000000e+00 0.000000000000000e+00 0.000000000000000e+00
0.000000000000000e+00 0.000000000000000e+00 0.000000000000000e+00

0.000000000000000e+00 0.000000000000000e+00 0.000000000000000e+00
0.000000000000000e+00 0.000000000000000e+00 0.000000000000000e+00
0.000000000000000e+00 0.000000000000000e+00 0.000000000000000e+00

0.000000000000000e+00 0.000000000000000e+00 0.000000000000000e+00
0.000000000000000e+00 0.000000000000000e+00 0.000000000000000e+00
0.000000000000000e+00 0.000000000000000e+00 0.000000000000000e+00

0.000000000000000e+00 0.000000000000000e+00 0.000000000000000e+00
0.000000000000000e+00 0.000000000000000e+00 0.000000000000000e+00
0.000000000000000e+00 0.000000000000000e+00 0.000000000000000e+00

0.000000000000000e+00 0.000000000000000e+00 0.000000000000000e+00
0.000000000000000e+00 0.000000000000000e+00 0.000000000000000e+00
0.000000000000000e+00 0.000000000000000e+00 0.000000000000000e+00

0.000000000000000e+00 0.000000000000000e+00 0.000000000000000e+00
0.000000000000000e+00 0.000000000000000e+00 0.000000000000000e+00
0.000000000000000e+00 0.000000000000000e+00 0.000000000000000e+00

0.000000000000000e+00 0.000000000000000e+00 0.000000000000000e+00
0.000000000000000e+00 0.000000000000000e+00 0.000000000000000e+00
0.000000000000000e+00 0.000000000000000e+00 0.000000000000000e+00

0.000000000000000e+00 0.000000000000000e+00 0.000000000000000e+00
0.000000000000000e+00 0.000000000000000e+00 0.000000000000000e+00
0.000000000000000e+00 0.000000000000000e+00 0.000000000000000e+00

0.000000000000000e+00 0.000000000000000e+00 0.000000000000000e+00
0.000000000000000e+00 0.000000000000000e+00 0.000000000000000e+00
0.000000000000000e+00 0.000000000000000e+00 0.000000000000000e+00

0.000000000000000e+00 0.000000000000000e+00 0.000000000000000e+00
0.000000000000000e+00 0.000000000000000e+00 0.000000000000000e+00
0.000000000000000e+00 0.000000000000000e+00 0.000000000000000e+00

0.000000000000000e+00 0.000000000000000e+00 0.000000000000000e+00
0.000000000000000e+00 0.000000000000000e+00 0.000000000000000e+00
0.000000000000000e+00 0.000000000000000e+00 0.000000000000000e+00

0.000000000000000e+00 0.000000000000000e+00 0.000000000000000e+00
0.000000000000000e+00 0.000000000000000e+00 0.000000000000000e+00
0.000000000000000e+00 0.000000000000000e+00 0.000000000000000e+00

0.000000000000000e+00 0.000000000000000e+00 0.000000000000000e+00
0.000000000000000e+00 0.000000000000000e+00 0.000000000000000e+00
0.000000000000000e+00 0.000000000000000e+00 0.000000000000000e+00

0.000000000000000e+00 0.000000000000000e+00 0.000000000000000e+00
0.000000000000000e+00 0.000000000000000e+00 0.000000000000000e+00
0.000000000000000e+00 0.000000000000000e+00 0.000000000000000e+00

0.000000000000000e+00 0.000000000000000e+00 0.000000000000000e+00
0.000000000000000e+00 0.000000000000000e+00 0.000000000000000e+00
0.000000000000000e+00 0.000000000000000e+00 0.000000000000000e+00

0.000000000000000e+00 0.000000000000000e+00 0.000000000000000e+00
0.000000000000000e+00 0.000000000000000e+00 0.000000000000000e+00
0.000000000000000e+00 0.000000000000000e+00 0.000000000000000e+00

0.000000000000000e+00 0.000000000000000e+00 0.000000000000000e+00
0.000000000000000e+00 0.000000000000000e+00 0.000000000000000e+00
0.000000000000000e+00 0.000000000000000e+00 0.000000000000000e+00

0.000000000000000e+00 0.000000000000000e+00 0.000000000000000e+00
0.000000000000000e+00 0.000000000000000e+00 0.000000000000000e+00
0.000000000000000e+00 0.000000000000000e+00 0.000000000000000e+00

0.000000000000000e+00 0.000000000000000e+00 0.000000000000000e+00
0.000000000000000e+00 0.000000000000000e+00 0.000000000000000e+00
0.000000000000000e+00 0.000000000000000e+00 0.000000000000000e+00

0.000000000000000e+00 0.000000000000000e+00 0.000000000000000e+00
0.000000000000000e+00 0.000000000000000e+00 0.000000000000000e+00
0.000000000000000e+00 0.000000000000000e+00 0.000000000000000e+00

0.000000000000000e+00 0.000000000000000e+00 0.000000000000000e+00
0.000000000000000e+00 0.000000000000000e+00 0.000000000000000e+00
0.000000000000000e+00 0.000000000000000e+00 0.000000000000000e+00

0.000000000000000e+00 0.000000000000000e+00 0.000000000000000e+00
0.000000000000000e+00 0.000000000000000e+00 0.000000000000000e+00
0.000000000000000e+00 0.000000000000000e+00 0.000000000000000e+00

0.000000000000000e+00 0.000000000000000e+00 0.000000000000000e+00
0.000000000000000e+00 0.000000000000000e+00 0.000000000000000e+00
0.000000000000000e+00 0.000000000000000e+00 0.000000000000000e+00

0.000000000000000e+00 0.000000000000000e+00 0.000000000000000e+00
0.000000000000000e+00 0.000000000000000e+00 0.000000000000000e+00
0.000000000000000e+00 0.000000000000000e+00 0.000000000000000e+00

0.000000000000000e+00 0.000000000000000e+00 0.000000000000000e+00
0.000000000000000e+00 0.000000000000000e+00 0.000000000000000e+00
0.000000000000000e+00 0.000000000000000e+00 0.000000000000000e+00

0.000000000000000e+00 0.000000000000000e+00 0.000000000000000e+00
0.000000000000000e+00 0.000000000000000e+00 0.000000000000000e+00
0.000000000000000e+00 0.000000000000000e+00 0.000000000000000e+00

0.000000000000000e+00 0.000000000000000e+00 0.000000000000000e+00
0.000000000000000e+00 0.000000000000000e+00 0.000000000000000e+00
0.000000000000000e+00 0.000000000000000e+00 0.000000000000000e+00

0.000000000000000e+00 0.000000000000000e+00 0.000000000000000e+00
0.000000000000000e+00 0.000000000000000e+00 0.000000000000000e+00
0.000000000000000e+00 0.000000000000000e+00 0.000000000000000e+00

0.000000000000000e+00 0.000000000000000e+00 0.000000000000000e+00
0.000000000000000e+00 0.000000000000000e+00 0.000000000000000e+00
0.000000000000000e+00 0.000000000000000e+00 0.000000000000000e+00

0.000000000000000e+00 0.000000000000000e+00 0.000000000000000e+00
0.000000000000000e+00 0.000000000000000e+00 0.000000000000000e+00
0.000000000000000e+00 0.000000000000000e+00 0.000000000000000e+00

0.000000000000000e+00 0.000000000000000e+00 0.000000000000000e+00
0.000000000000000e+00 0.000000000000000e+00 0.000000000000000e+00
0.000000000000000e+00 0.000000000000000e+00 0.000000000000000e+00

0.000000000000000e+00 0.000000000000000e+00 0.000000000000000e+00
0.000000000000000e+00 0.000000000000000e+00 0.000000000000000e+00
0.000000000000000e+00 0.000000000000000e+00 0.000000000000000e+00

0.000000000000000e+00 0.000000000000000e+00 0.000000000000000e+00
0.000000000000000e+00 0.000000000000000e+00 0.000000000000000e+00
0.000000000000000e+00 0.000000000000000e+00 0.000000000000000e+00

0.000000000000000e+00 0.000000000000000e+00 0.000000000000000e+00
0.000000000000000e+00 0.000000000000000e+00 0.000000000000000e+00
0.000000000000000e+00 0.000000000000000e+00 0.000000000000000e+00

0.000000000000000e+00 0.000000000000000e+00 0.000000000000000e+00
0.000000000000000e+00 0.000000000000000e+00 0.000000000000000e+00
0.000000000000000e+00 0.000000000000000e+00 0.000000000000000e+00

0.000000000000000e+00 0.000000000000000e+00 0.000000000000000e+00
0.000000000000000e+00 0.000000000000000e+00 0.000000000000000e+00
0.000000000000000e+00 0.000000000000000e+00 0.000000000000000e+00

0.000000000000000e+00 0.000000000000000e+00 0.000000000000000e+00
0.000000000000000e+00 0.000000000000000e+00 0.000000000000000e+00
0.000000000000000e+00 0.000000000000000e+00 0.000000000000000e+00

0.000000000000000e+00 0.000000000000000e+00 0.000000000000000e+00
0.000000000000000e+00 0.000000000000000e+00 0.000000000000000e+00
0.000000000000000e+00 0.000000000000000e+00 0.000000000000000e+00

0.000000000000000e+00 0.000000000000000e+00 0.000000000000000e+00
0.000000000000000e+00 0.000000000000000e+00 0.000000000000000e+00
0.000000000000000e+00 0.000000000000000e+00 0.000000000000000e+00

0.000000000000000e+00 0.000000000000000e+00 0.000000000000000e+00
0.000000000000000e+00 0.000000000000000e+00 0.000000000000000e+00
0.000000000000000e+00 0.000000000000000e+00 0.000000000000000e+00

0.000000000000000e+00 0.000000000000000e+00 0.000000000000000e+00
0.000000000000000e+00 0.000000000000000e+00 0.000000000000000e+00
0.000000000000000e+00 0.000000000000000e+00 0.000000000000000e+00

0.000000000000000e+00 0.000000000000000e+00 0.000000000000000e+00
0.000000000000000e+00 0.000000000000000e+00 0.000000000000000e+00
0.000000000000000e+00 0.000000000000000e+00 0.000000000000000e+00

0.000000000000000e+00 0.000000000000000e+00 0.000000000000000e+00
0.000000000000000e+00 0.000000000000000e+00 0.000000000000000e+00
0.000000000000000e+00 0.000000000000000e+00 0.000000000000000e+00

0.000000000000000e+00 0.000000000000000e+00 0.000000000000000e+00
0.000000000000000e+00 0.000000000000000e+00 0.000000000000000e+00
0.000000000000000e+00 0.000000000000000e+00 0.000000000000000e+00

0.000000000000000e+00 0.000000000000000e+00 0.000000000000000e+00
0.000000000000000e+00 0.000000000000000e+00 0.000000000000000e+00
0.000000000000000e+00 0.000000000000000e+00 0.000000000000000e+00

0.000000000000000e+00 0.000000000000000e+00 0.000000000000000e+00
0.000000000000000e+00 0.000000000000000e+00 0.000000000000000e+00
0.000000000000000e+00 0.000000000000000e+00 0.000000000000000e+00

0.000000000000000e+00 0.000000000000000e+00 0.000000000000000e+00
0.000000000000000e+00 0.000000000000000e+00 0.000000000000000e+00
0.000000000000000e+00 0.000000000000000e+00 0.000000000000000e+00

0.000000000000000e+00 0.000000000000000e+00 0.000000000000000e+00
0.000000000000000e+00 0.000000000000000e+00 0.000000000000000e+00
0.000000000000000e+00 0.000000000000000e+00 0.000000000000000e+00

0.000000000000000e+00 0.000000000000000e+00 0.000000000000000e+00
0.000000000000000e+00 0.000000000000000e+00 0.000000000000000e+00
0.000000000000000e+00 0.000000000000000e+00 0.000000000000000e+00

0.000000000000000e+00 0.000000000000000e+00 0.000000000000000e+00
0.000000000000000e+00 0.000000000000000e+00 0.000000000000000e+00
0.000000000000000e+00 0.000000000000000e+00 0.000000000000000e+00

0.000000000000000e+00 0.000000000000000e+00 0.000000000000000e+00
0.000000000000000e+00 0.000000000000000e+00 0.000000000000000e+00
0.000000000000000e+00 0.000000000000000e+00 0.000000000000000e+00

0.000000000000000e+00 0.000000000000000e+00 0.000000000000000e+00
0.000000000000000e+00 0.000000000000000e+00 0.000000000000000e+00
0.000000000000000e+00 0.000000000000000e+00 0.000000000000000e+00

0.000000000000000e+00 0.000000000000000e+00 0.000000000000000e+00
0.000000000000000e+00 0.000000000000000e+00 0.000000000000000e+00
0.000000000000000e+00 0.000000000000000e+00 0.000000000000000e+00

0.000000000000000e+00 0.000000000000000e+00 0.000000000000000e+00
0.000000000000000e+00 0.000000000000000e+00 0.000000000000000e+00
0.000000000000000e+00 0.000000000000000e+00 0.000000000000000e+00

0.000000000000000e+00 0.000000000000000e+00 0.000000000000000e+00
0.000000000000000e+00 0.000000000000000e+00 0.000000000000000e+00
0.000000000000000e+00 0.000000000000000e+00 0.000000000000000e+00

0.000000000000000e+00 0.000000000000000e+00 0.000000000000000e+00
0.000000000000000e+00 0.000000000000000e+00 0.000000000000000e+00
0.000000000000000e+00 0.000000000000000e+00 0.000000000000000e+00

0.000000000000000e+00 0.000000000000000e+00 0.000000000000000e+00
0.000000000000000e+00 0.000000000000000e+00 0.000000000000000e+00
0.000000000000000e+00 0.000000000000000e+00 0.000000000000000e+00

0.000000000000000e+00 0.000000000000000e+00 0.000000000000000e+00
0.000000000000000e+00 0.000000000000000e+00 0.000000000000000e+00
0.000000000000000e+00 0.000000000000000e+00 0.000000000000000e+00

0.000000000000000e+00 0.000000000000000e+00 0.000000000000000e+00
0.000000000000000e+00 0.000000000000000e+00 0.000000000000000e+00
0.000000000000000e+00 0.000000000000000e+00 0.000000000000000e+00

0.000000000000000e+00 0.000000000000000e+00 0.000000000000000e+00
0.000000000000000e+00 0.000000000000000e+00 0.000000000000000e+00
0.000000000000000e+00 0.000000000000000e+00 0.000000000000000e+00

0.000000000000000e+00 0.000000000000000e+00 0.000000000000000e+00
0.000000000000000e+00 0.000000000000000e+00 0.000000000000000e+00
0.000000000000000e+00 0.000000000000000e+00 0.000000000000000e+00

0.000000000000000e+00 0.000000000000000e+00 0.000000000000000e+00
0.000000000000000e+00 0.000000000000000e+00 0.000000000000000e+00
0.000000000000000e+00 0.000000000000000e+00 0.000000000000000e+00

0.000000000000000e+00 0.000000000000000e+00 0.000000000000000e+00
0.000000000000000e+00 0.000000000000000e+00 0.000000000000000e+00
0.000000000000000e+00 0.000000000000000e+00 0.000000000000000e+00

0.000000000000000e+00 0.000000000000000e+00 0.000000000000000e+00
0.000000000000000e+00 0.000000000000000e+00 0.000000000000000e+00
0.000000000000000e+00 0.000000000000000e+00 0.000000000000000e+00

0.000000000000000e+00 0.000000000000000e+00 0.000000000000000e+00
0.000000000000000e+00 0.000000000000000e+00 0.000000000000000e+00
0.000000000000000e+00 0.000000000000000e+00 0.000000000000000e+00

0.000000000000000e+00 0.000000000000000e+00 0.000000000000000e+00
0.000000000000000e+00 0.000000000000000e+00 0.000000000000000e+00
0.000000000000000e+00 0.000000000000000e+00 0.000000000000000e+00

0.000000000000000e+00 0.000000000000000e+00 0.000000000000000e+00
0.000000000000000e+00 0.000000000000000e+00 0.000000000000000e+00
0.000000000000000e+00 0.000000000000000e+00 0.000000000000000e+00

0.000000000000000e+00 0.000000000000000e+00 0.000000000000000e+00
0.000000000000000e+00 0.000000000000000e+00 0.000000000000000e+00
0.000000000000000e+00 0.000000000000000e+00 0.000000000000000e+00

0.000000000000000e+00 0.000000000000000e+00 0.000000000000000e+00
0.000000000000000e+00 0.000000000000000e+00 0.000000000000000e+00
0.000000000000000e+00 0.000000000000000e+00 0.000000000000000e+00

0.000000000000000e+00 0.000000000000000e+00 0.000000000000000e+00
0.000000000000000e+00 0.000000000000000e+00 0.000000000000000e+00
0.000000000000000e+00 0.000000000000000e+00 0.000000000000000e+00

0.000000000000000e+00 0.000000000000000e+00 0.000000000000000e+00
0.000000000000000e+00 0.000000000000000e+00 0.000000000000000e+00
0.000000000000000e+00 0.000000000000000e+00 0.000000000000000e+00

0.000000000000000e+00 0.000000000000000e+00 0.000000000000000e+00
0.000000000000000e+00 0.000000000000000e+00 0.000000000000000e+00
0.000000000000000e+00 0.000000000000000e+00 0.000000000000000e+00

0.000000000000000e+00 0.000000000000000e+00 0.000000000000000e+00
0.000000000000000e+00 0.000000000000000e+00 0.000000000000000e+00
0.000000000000000e+00 0.000000000000000e+00 0.000000000000000e+00

0.000000000000000e+00 0.000000000000000e+00 0.000000000000000e+00
0.000000000000000e+00 0.000000000000000e+00 0.000000000000000e+00
0.000000000000000e+00 0.000000000000000e+00 0.000000000000000e+00

0.000000000000000e+00 0.000000000000000e+00 0.000000000000000e+00
0.000000000000000e+00 0.000000000000000e+00 0.000000000000000e+00
0.000000000000000e+00 0.000000000000000e+00 0.000000000000000e+00

0.000000000000000e+00 0.000000000000000e+00 0.000000000000000e+00
0.000000000000000e+00 0.000000000000000e+00 0.000000000000000e+00
0.000000000000000e+00 0.000000000000000e+00 0.000000000000000e+00

0.000000000000000e+00 0.000000000000000e+00 0.000000000000000e+00
0.000000000000000e+00 0.000000000000000e+00 0.000000000000000e+00
0.000000000000000e+00 0.000000000000000e+00 0.000000000000000e+00

0.000000000000000e+00 0.000000000000000e+00 0.000000000000000e+00
0.000000000000000e+00 0.000000000000000e+00 0.000000000000000e+00
0.000000000000000e+00 0.000000000000000e+00 0.000000000000000e+00

0.000000000000000e+00 0.000000000000000e+00 0.000000000000000e+00
0.000000000000000e+00 0.000000000000000e+00 0.000000000000000e+00
0.000000000000000e+00 0.000000000000000e+00 0.000000000000000e+00

0.000000000000000e+00 0.000000000000000e+00 0.000000000000000e+00
0.000000000000000e+00 0.000000000000000e+00 0.000000000000000e+00
0.000000000000000e+00 0.000000000000000e+00 0.000000000000000e+00

0.000000000000000e+00 0.000000000000000e+00 0.000000000000000e+00
0.000000000000000e+00 0.000000000000000e+00 0.000000000000000e+00
0.000000000000000e+00 0.000000000000000e+00 0.000000000000000e+00

0.000000000000000e+00 0.000000000000000e+00 0.000000000000000e+00
0.000000000000000e+00 0.000000000000000e+00 0.000000000000000e+00
0.000000000000000e+00 0.000000000000000e+00 0.000000000000000e+00

0.000000000000000e+00 0.000000000000000e+00 0.000000000000000e+00
0.000000000000000e+00 0.000000000000000e+00 0.000000000000000e+00
0.000000000000000e+00 0.000000000000000e+00 0.000000000000000e+00

0.000000000000000e+00 0.000000000000000e+00 0.000000000000000e+00
0.000000000000000e+00 0.000000000000000e+00 0.000000000000000e+00
0.000000000000000e+00 0.000000000000000e+00 0.000000000000000e+00

0.000000000000000e+00 0.000000000000000e+00 0.000000000000000e+00
0.000000000000000e+00 0.000000000000000e+00 0.000000000000000e+00
0.000000000000000e+00 0.000000000000000e+00 0.000000000000000e+00

0.000000000000000e+00 0.000000000000000e+00 0.000000000000000e+00
0.000000000000000e+00 0.000000000000000e+00 0.000000000000000e+00
0.000000000000000e+00 0.000000000000000e+00 0.000000000000000e+00

0.000000000000000e+00 0.000000000000000e+00 0.000000000000000e+00
0.000000000000000e+00 0.000000000000000e+00 0.000000000000000e+00
0.000000000000000e+00 0.000000000000000e+00 0.000000000000000e+00

0.000000000000000e+00 0.000000000000000e+00 0.000000000000000e+00
0.000000000000000e+00 0.000000000000000e+00 0.000000000000000e+00
0.000000000000000e+00 0.000000000000000e+00 0.000000000000000e+00

0.000000000000000e+00 0.000000000000000e+00 0.000000000000000e+00
0.000000000000000e+00 0.000000000000000e+00 0.000000000000000e+00
0.000000000000000e+00 0.000000000000000e+00 0.000000000000000e+00

0.000000000000000e+00 0.000000000000000e+00 0.000000000000000e+00
0.000000000000000e+00 0.000000000000000e+00 0.000000000000000e+00
0.000000000000000e+00 0.000000000000000e+00 0.000000000000000e+00

0.000000000000000e+00 0.000000000000000e+00 0.000000000000000e+00
0.000000000000000e+00 0.000000000000000e+00 0.000000000000000e+00
0.000000000000000e+00 0.000000000000000e+00 0.000000000000000e+00

0.000000000000000e+00 0.000000000000000e+00 0.000000000000000e+00
0.000000000000000e+00 0.000000000000000e+00 0.000000000000000e+00
0.000000000000000e+00 0.000000000000000e+00 0.000000000000000e+00

0.000000000000000e+00 0.000000000000000e+00 0.000000000000000e+00
0.000000000000000e+00 0.000000000000000e+00 0.000000000000000e+00
0.000000000000000e+00 0.000000000000000e+00 0.000000000000000e+00

0.000000000000000e+00 0.000000000000000e+00 0.000000000000000e+00
0.000000000000000e+00 0.000000000000000e+00 0.000000000000000e+00
0.000000000000000e+00 0.000000000000000e+00 0.000000000000000e+00

0.000000000000000e+00 0.000000000000000e+00 0.000000000000000e+00
0.000000000000000e+00 0.000000000000000e+00 0.000000000000000e+00
0.000000000000000e+00 0.000000000000000e+00 0.000000000000000e+00

0.000000000000000e+00 0.000000000000000e+00 0.000000000000000e+00
0.000000000000000e+00 0.000000000000000e+00 0.000000000000000e+00
0.000000000000000e+00 0.000000000000000e+00 0.000000000000000e+00

0.000000000000000e+00 0.000000000000000e+00 0.000000000000000e+00
0.000000000000000e+00 0.000000000000000e+00 0.000000000000000e+00
0.000000000000000e+00 0.000000000000000e+00 0.000000000000000e+00

0.000000000000000e+00 0.000000000000000e+00 0.000000000000000e+00
0.000000000000000e+00 0.000000000000000e+00 0.000000000000000e+00
0.000000000000000e+00 0.000000000000000e+00 0.000000000000000e+00

0.000000000000000e+00 0.000000000000000e+00 0.000000000000000e+00
0.000000000000000e+00 0.000000000000000e+00 0.000000000000000e+00
0.000000000000000e+00 0.000000000000000e+00 0.000000000000000e+00

0.000000000000000e+00 0.000000000000000e+00 0.000000000000000e+00
0.000000000000000e+00 0.000000000000000e+00 0.000000000000000e+00
0.000000000000000e+00 0.000000000000000e+00 0.000000000000000e+00

0.000000000000000e+00 0.000000000000000e+00 0.000000000000000e+00
0.000000000000000e+00 0.000000000000000e+00 0.000000000000000e+00
0.000000000000000e+00 0.000000000000000e+00 0.000000000000000e+00

0.000000000000000e+00 0.000000000000000e+00 0.000000000000000e+00
0.000000000000000e+00 0.000000000000000e+00 0.000000000000000e+00
0.000000000000000e+00 0.000000000000000e+00 0.000000000000000e+00

0.000000000000000e+00 0.000000000000000e+00 0.000000000000000e+00
0.000000000000000e+00 0.000000000000000e+00 0.000000000000000e+00
0.000000000000000e+00 0.000000000000000e+00 0.000000000000000e+00

0.000000000000000e+00 0.000000000000000e+00 0.000000000000000e+00
0.000000000000000e+00 0.000000000000000e+00 0.000000000000000e+00
0.000000000000000e+00 0.000000000000000e+00 0.000000000000000e+00

0.000000000000000e+00 0.000000000000000e+00 0.000000000000000e+00
0.000000000000000e+00 0.000000000000000e+00 0.000000000000000e+00
0.000000000000000e+00 0.000000000000000e+00 0.000000000000000e+00

0.000000000000000e+00 0.000000000000000e+00 0.000000000000000e+00
0.000000000000000e+00 0.000000000000000e+00 0.000000000000000e+00
0.000000000000000e+00 0.000000000000000e+00 0.000000000000000e+00

0.000000000000000e+00 0.000000000000000e+00 0.000000000000000e+00
0.000000000000000e+00 0.000000000000000e+00 0.000000000000000e+00
0.000000000000000e+00 0.000000000000000e+00 0.000000000000000e+00

0.000000000000000e+00 0.000000000000000e+00 0.000000000000000e+00
0.000000000000000e+00 0.000000000000000e+00 0.000000000000000e+00
0.000000000000000e+00 0.000000000000000e+00 0.000000000000000e+00

0.000000000000000e+00 0.000000000000000e+00 0.000000000000000e+00
0.000000000000000e+00 0.000000000000000e+00 0.000000000000000e+00
0.000000000000000e+00 0.000000000000000e+00 0.000000000000000e+00

0.000000000000000e+00 0.000000000000000e+00 0.000000000000000e+00
0.000000000000000e+00 0.000000000000000e+00 0.000000000000000e+00
0.000000000000000e+00 0.000000000000000e+00 0.000000000000000e+00

0.000000000000000e+00 0.000000000000000e+00 0.000000000000000e+00
0.000000000000000e+00 0.000000000000000e+00 0.000000000000000e+00
0.000000000000000e+00 0.000000000000000e+00 0.000000000000000e+00

0.000000000000000e+00 0.000000000000000e+00 0.000000000000000e+00
0.000000000000000e+00 0.000000000000000e+00 0.000000000000000e+00
0.000000000000000e+00 0.000000000000000e+00 0.000000000000000e+00

0.000000000000000e+00 0.000000000000000e+00 0.000000000000000e+00
0.000000000000000e+00 0.000000000000000e+00 0.000000000000000e+00
0.000000000000000e+00 0.000000000000000e+00 0.000000000000000e+00

0.000000000000000e+00 0.000000000000000e+00 0.000000000000000e+00
0.000000000000000e+00 0.000000000000000e+00 0.000000000000000e+00
0.000000000000000e+00 0.000000000000000e+00 0.000000000000000e+00

0.000000000000000e+00 0.000000000000000e+00 0.000000000000000e+00
0.000000000000000e+00 0.000000000000000e+00 0.000000000000000e+00
0.000000000000000e+00 0.000000000000000e+00 0.000000000000000e+00

0.000000000000000e+00 0.000000000000000e+00 0.000000000000000e+00
0.000000000000000e+00 0.000000000000000e+00 0.000000000000000e+00
0.000000000000000e+00 0.000000000000000e+00 0.000000000000000e+00

0.000000000000000e+00 0.000000000000000e+00 0.000000000000000e+00
0.000000000000000e+00 0.000000000000000e+00 0.000000000000000e+00
0.000000000000000e+00 0.000000000000000e+00 0.000000000000000e+00

0.000000000000000e+00 0.000000000000000e+00 0.000000000000000e+00
0.000000000000000e+00 0.000000000000000e+00 0.000000000000000e+00
0.000000000000000e+00 0.000000000000000e+00 0.000000000000000e+00

0.000000000000000e+00 0.000000000000000e+00 0.000000000000000e+00
0.000000000000000e+00 0.000000000000000e+00 0.000000000000000e+00
0.000000000000000e+00 0.000000000000000e+00 0.000000000000000e+00

0.000000000000000e+00 0.000000000000000e+00 0.000000000000000e+00
0.000000000000000e+00 0.000000000000000e+00 0.000000000000000e+00
0.000000000000000e+00 0.000000000000000e+00 0.000000000000000e+00

0.000000000000000e+00 0.000000000000000e+00 0.000000000000000e+00
0.000000000000000e+00 0.000000000000000e+00 0.000000000000000e+00
0.000000000000000e+00 0.000000000000000e+00 0.000000000000000e+00

0.000000000000000e+00 0.000000000000000e+00 0.000000000000000e+00
0.000000000000000e+00 0.000000000000000e+00 0.000000000000000e+00
0.000000000000000e+00 0.000000000000000e+00 0.000000000000000e+00

0.000000000000000e+00 0.000000000000000e+00 0.000000000000000e+00
0.000000000000000e+00 0.000000000000000e+00 0.000000000000000e+00
0.000000000000000e+00 0.000000000000000e+00 0.000000000000000e+00

0.000000000000000e+00 0.000000000000000e+00 0.000000000000000e+00
0.000000000000000e+00 0.000000000000000e+00 0.000000000000000e+00
0.000000000000000e+00 0.000000000000000e+00 0.000000000000000e+00

0.000000000000000e+00 0.000000000000000e+00 0.000000000000000e+00
0.000000000000000e+00 0.000000000000000e+00 0.000000000000000e+00
0.000000000000000e+00 0.000000000000000e+00 0.000000000000000e+00

0.000000000000000e+00 0.000000000000000e+00 0.000000000000000e+00
0.000000000000000e+00 0.000000000000000e+00 0.000000000000000e+00
0.000000000000000e+00 0.000000000000000e+00 0.000000000000000e+00

0.000000000000000e+00 0.000000000000000e+00 0.000000000000000e+00
0.000000000000000e+00 0.000000000000000e+00 0.000000000000000e+00
0.000000000000000e+00 0.000000000000000e+00 0.000000000000000e+00

0.000000000000000e+00 0.000000000000000e+00 0.000000000000000e+00
0.000000000000000e+00 0.000000000000000e+00 0.000000000000000e+00
0.000000000000000e+00 0.000000000000000e+00 0.000000000000000e+00

0.000000000000000e+00 0.000000000000000e+00 0.000000000000000e+00
0.000000000000000e+00 0.000000000000000e+00 0.000000000000000e+00
0.000000000000000e+00 0.000000000000000e+00 0.000000000000000e+00

0.000000000000000e+00 0.000000000000000e+00 0.000000000000000e+00
0.000000000000000e+00 0.000000000000000e+00 0.000000000000000e+00
0.000000000000000e+00 0.000000000000000e+00 0.000000000000000e+00

0.000000000000000e+00 0.000000000000000e+00 0.000000000000000e+00
0.000000000000000e+00 0.000000000000000e+00 0.000000000000000e+00
0.000000000000000e+00 0.000000000000000e+00 0.000000000000000e+00

0.000000000000000e+00 0.000000000000000e+00 0.000000000000000e+00
0.000000000000000e+00 0.000000000000000e+00 0.000000000000000e+00
0.000000000000000e+00 0.000000000000000e+00 0.000000000000000e+00

0.000000000000000e+00 0.000000000000000e+00 0.000000000000000e+00
0.000000000000000e+00 0.000000000000000e+00 0.000000000000000e+00
0.000000000000000e+00 0.000000000000000e+00 0.000000000000000e+00

0.000000000000000e+00 0.000000000000000e+00 0.000000000000000e+00
0.000000000000000e+00 0.000000000000000e+00 0.000000000000000e+00
0.000000000000000e+00 0.000000000000000e+00 0.000000000000000e+00

0.000000000000000e+00 0.000000000000000e+00 0.000000000000000e+00
0.000000000000000e+00 0.000000000000000e+00 0.000000000000000e+00
0.000000000000000e+00 0.000000000000000e+00 0.000000000000000e+00

0.000000000000000e+00 0.000000000000000e+00 0.000000000000000e+00
0.000000000000000e+00 0.000000000000000e+00 0.000000000000000e+00
0.000000000000000e+00 0.000000000000000e+00 0.000000000000000e+00

0.000000000000000e+00 0.000000000000000e+00 0.000000000000000e+00
0.000000000000000e+00 0.000000000000000e+00 0.000000000000000e+00
0.000000000000000e+00 0.000000000000000e+00 0.000000000000000e+00

0.000000000000000e+00 0.000000000000000e+00 0.000000000000000e+00
0.000000000000000e+00 0.000000000000000e+00 0.000000000000000e+00
0.000000000000000e+00 0.000000000000000e+00 0.000000000000000e+00

0.000000000000000e+00 0.000000000000000e+00 0.000000000000000e+00
0.000000000000000e+00 0.000000000000000e+00 0.000000000000000e+00
0.000000000000000e+00 0.000000000000000e+00 0.000000000000000e+00

0.000000000000000e+00 0.000000000000000e+00 0.000000000000000e+00
0.000000000000000e+00 0.000000000000000e+00 0.000000000000000e+00
0.000000000000000e+00 0.000000000000000e+00 0.000000000000000e+00

0.000000000000000e+00 0.000000000000000e+00 0.000000000000000e+00
0.000000000000000e+00 0.000000000000000e+00 0.000000000000000e+00
0.000000000000000e+00 0.000000000000000e+00 0.000000000000000e+00

0.000000000000000e+00 0.000000000000000e+00 0.000000000000000e+00
0.000000000000000e+00 0.000000000000000e+00 0.000000000000000e+00
0.000000000000000e+00 0.000000000000000e+00 0.000000000000000e+00

0.000000000000000e+00 0.000000000000000e+00 0.000000000000000e+00
0.000000000000000e+00 0.000000000000000e+00 0.000000000000000e+00
0.000000000000000e+00 0.000000000000000e+00 0.000000000000000e+00

0.000000000000000e+00 0.000000000000000e+00 0.000000000000000e+00
0.000000000000000e+00 0.000000000000000e+00 0.000000000000000e+00
0.000000000000000e+00 0.000000000000000e+00 0.000000000000000e+00

0.000000000000000e+00 0.000000000000000e+00 0.000000000000000e+00
0.000000000000000e+00 0.000000000000000e+00 0.000000000000000e+00
0.000000000000000e+00 0.000000000000000e+00 0.000000000000000e+00

0.000000000000000e+00 0.000000000000000e+00 0.000000000000000e+00
0.000000000000000e+00 0.000000000000000e+00 0.000000000000000e+00
0.000000000000000e+00 0.000000000000000e+00 0.000000000000000e+00

0.000000000000000e+00 0.000000000000000e+00 0.000000000000000e+00
0.000000000000000e+00 0.000000000000000e+00 0.000000000000000e+00
0.000000000000000e+00 0.000000000000000e+00 0.000000000000000e+00

0.000000000000000e+00 0.000000000000000e+00 0.000000000000000e+00
0.000000000000000e+00 0.000000000000000e+00 0.000000000000000e+00
0.000000000000000e+00 0.000000000000000e+00 0.000000000000000e+00

0.000000000000000e+00 0.000000000000000e+00 0.000000000000000e+00
0.000000000000000e+00 0.000000000000000e+00 0.000000000000000e+00
0.000000000000000e+00 0.000000000000000e+00 0.000000000000000e+00

0.000000000000000e+00 0.000000000000000e+00 0.000000000000000e+00
0.000000000000000e+00 0.000000000000000e+00 0.000000000000000e+00
0.000000000000000e+00 0.000000000000000e+00 0.000000000000000e+00

0.000000000000000e+00 0.000000000000000e+00 0.000000000000000e+00
0.000000000000000e+00 0.000000000000000e+00 0.000000000000000e+00
0.000000000000000e+00 0.000000000000000e+00 0.000000000000000e+00

0.000000000000000e+00 0.000000000000000e+00 0.000000000000000e+00
0.000000000000000e+00 0.000000000000000e+00 0.000000000000000e+00
0.000000000000000e+00 0.000000000000000e+00 0.000000000000000e+00

0.000000000000000e+00 0.000000000000000e+00 0.000000000000000e+00
0.000000000000000e+00 0.000000000000000e+00 0.000000000000000e+00
0.000000000000000e+00 0.000000000000000e+00 0.000000000000000e+00

0.000000000000000e+00 0.000000000000000e+00 0.000000000000000e+00
0.000000000000000e+00 0.000000000000000e+00 0.000000000000000e+00
0.000000000000000e+00 0.000000000000000e+00 0.000000000000000e+00

0.000000000000000e+00 0.000000000000000e+00 0.000000000000000e+00
0.000000000000000e+00 0.000000000000000e+00 0.000000000000000e+00
0.000000000000000e+00 0.000000000000000e+00 0.000000000000000e+00

0.000000000000000e+00 0.000000000000000e+00 0.000000000000000e+00
0.000000000000000e+00 0.000000000000000e+00 0.000000000000000e+00
0.000000000000000e+00 0.000000000000000e+00 0.000000000000000e+00

0.000000000000000e+00 0.000000000000000e+00 0.000000000000000e+00
0.000000000000000e+00 0.000000000000000e+00 0.000000000000000e+00
0.000000000000000e+00 0.000000000000000e+00 0.000000000000000e+00

0.000000000000000e+00 0.000000000000000e+00 0.000000000000000e+00
0.000000000000000e+00 0.000000000000000e+00 0.000000000000000e+00
0.000000000000000e+00 0.000000000000000e+00 0.000000000000000e+00

0.000000000000000e+00 0.000000000000000e+00 0.000000000000000e+00
0.000000000000000e+00 0.000000000000000e+00 0.000000000000000e+00
0.000000000000000e+00 0.000000000000000e+00 0.000000000000000e+00

0.000000000000000e+00 0.000000000000000e+00 0.000000000000000e+00
0.000000000000000e+00 0.000000000000000e+00 0.000000000000000e+00
0.000000000000000e+00 0.000000000000000e+00 0.000000000000000e+00

0.000000000000000e+00 0.000000000000000e+00 0.000000000000000e+00
0.000000000000000e+00 0.000000000000000e+00 0.000000000000000e+00
0.000000000000000e+00 0.000000000000000e+00 0.000000000000000e+00

0.000000000000000e+00 0.000000000000000e+00 0.000000000000000e+00
0.000000000000000e+00 0.000000000000000e+00 0.000000000000000e+00
0.000000000000000e+00 0.000000000000000e+00 0.000000000000000e+00

0.000000000000000e+00 0.000000000000000e+00 0.000000000000000e+00
0.000000000000000e+00 0.000000000000000e+00 0.000000000000000e+00
0.000000000000000e+00 0.000000000000000e+00 0.000000000000000e+00

0.000000000000000e+00 0.000000000000000e+00 0.000000000000000e+00
0.000000000000000e+00 0.000000000000000e+00 0.000000000000000e+00
0.000000000000000e+00 0.000000000000000e+00 0.000000000000000e+00

0.000000000000000e+00 0.000000000000000e+00 0.000000000000000e+00
0.000000000000000e+00 0.000000000000000e+00 0.000000000000000e+00
0.000000000000000e+00 0.000000000000000e+00 0.000000000000000e+00

0.000000000000000e+00 0.000000000000000e+00 0.000000000000000e+00
0.000000000000000e+00 0.000000000000000e+00 0.000000000000000e+00
0.000000000000000e+00 0.000000000000000e+00 0.000000000000000e+00

0.000000000000000e+00 0.000000000000000e+00 0.000000000000000e+00
0.000000000000000e+00 0.000000000000000e+00 0.000000000000000e+00
0.000000000000000e+00 0.000000000000000e+00 0.000000000000000e+00

0.000000000000000e+00 0.000000000000000e+00 0.000000000000000e+00
0.000000000000000e+00 0.000000000000000e+00 0.000000000000000e+00
0.000000000000000e+00 0.000000000000000e+00 0.000000000000000e+00

0.000000000000000e+00 0.000000000000000e+00 0.000000000000000e+00
0.000000000000000e+00 0.000000000000000e+00 0.000000000000000e+00
0.000000000000000e+00 0.000000000000000e+00 0.000000000000000e+00

0.000000000000000e+00 0.000000000000000e+00 0.000000000000000e+00
0.000000000000000e+00 0.000000000000000e+00 0.000000000000000e+00
0.000000000000000e+00 0.000000000000000e+00 0.000000000000000e+00

0.000000000000000e+00 0.000000000000000e+00 0.000000000000000e+00
0.000000000000000e+00 0.000000000000000e+00 0.000000000000000e+00
0.000000000000000e+00 0.000000000000000e+00 0.000000000000000e+00

0.000000000000000e+00 0.000000000000000e+00 0.000000000000000e+00
0.000000000000000e+00 0.000000000000000e+00 0.000000000000000e+00
0.000000000000000e+00 0.000000000000000e+00 0.000000000000000e+00

0.000000000000000e+00 0.000000000000000e+00 0.000000000000000e+00
0.000000000000000e+00 0.000000000000000e+00 0.000000000000000e+00
0.000000000000000e+00 0.000000000000000e+00 0.000000000000000e+00

0.000000000000000e+00 0.000000000000000e+00 0.000000000000000e+00
0.000000000000000e+00 0.000000000000000e+00 0.000000000000000e+00
0.000000000000000e+00 0.000000000000000e+00 0.000000000000000e+00

0.000000000000000e+00 0.000000000000000e+00 0.000000000000000e+00
0.000000000000000e+00 0.000000000000000e+00 0.000000000000000e+00
0.000000000000000e+00 0.000000000000000e+00 0.000000000000000e+00

0.000000000000000e+00 0.000000000000000e+00 0.000000000000000e+00
0.000000000000000e+00 0.000000000000000e+00 0.000000000000000e+00
0.000000000000000e+00 0.000000000000000e+00 0.000000000000000e+00

0.000000000000000e+00 0.000000000000000e+00 0.000000000000000e+00
0.000000000000000e+00 0.000000000000000e+00 0.000000000000000e+00
0.000000000000000e+00 0.000000000000000e+00 0.000000000000000e+00

0.000000000000000e+00 0.000000000000000e+00 0.000000000000000e+00
0.000000000000000e+00 0.000000000000000e+00 0.000000000000000e+00
0.000000000000000e+00 0.000000000000000e+00 0.000000000000000e+00

0.000000000000000e+00 0.000000000000000e+00 0.000000000000000e+00
0.000000000000000e+00 0.000000000000000e+00 0.000000000000000e+00
0.000000000000000e+00 0.000000000000000e+00 0.000000000000000e+00

0.000000000000000e+00 0.000000000000000e+00 0.000000000000000e+00
0.000000000000000e+00 0.000000000000000e+00 0.000000000000000e+00
0.000000000000000e+00 0.000000000000000e+00 0.000000000000000e+00

0.000000000000000e+00 0.000000000000000e+00 0.000000000000000e+00
0.000000000000000e+00 0.000000000000000e+00 0.000000000000000e+00
0.000000000000000e+00 0.000000000000000e+00 0.000000000000000e+00

0.000000000000000e+00 0.000000000000000e+00 0.000000000000000e+00
0.000000000000000e+00 0.000000000000000e+00 0.000000000000000e+00
0.000000000000000e+00 0.000000000000000e+00 0.000000000000000e+00

0.000000000000000e+00 0.000000000000000e+00 0.000000000000000e+00
0.000000000000000e+00 0.000000000000000e+00 0.000000000000000e+00
0.000000000000000e+00 0.000000000000000e+00 0.000000000000000e+00

0.000000000000000e+00 0.000000000000000e+00 0.000000000000000e+00
0.000000000000000e+00 0.000000000000000e+00 0.000000000000000e+00
0.000000000000000e+00 0.000000000000000e+00 0.000000000000000e+00

0.000000000000000e+00 0.000000000000000e+00 0.000000000000000e+00
0.000000000000000e+00 0.000000000000000e+00 0.000000000000000e+00
0.000000000000000e+00 0.000000000000000e+00 0.000000000000000e+00

0.000000000000000e+00 0.000000000000000e+00 0.000000000000000e+00
0.000000000000000e+00 0.000000000000000e+00 0.000000000000000e+00
0.000000000000000e+00 0.000000000000000e+00 0.000000000000000e+00

0.000000000000000e+00 0.000000000000000e+00 0.000000000000000e+00
0.000000000000000e+00 0.000000000000000e+00 0.000000000000000e+00
0.000000000000000e+00 0.000000000000000e+00 0.000000000000000e+00

0.000000000000000e+00 0.000000000000000e+00 0.000000000000000e+00
0.000000000000000e+00 0.000000000000000e+00 0.000000000000000e+00
0.000000000000000e+00 0.000000000000000e+00 0.000000000000000e+00

0.000000000000000e+00 0.000000000000000e+00 0.000000000000000e+00
0.000000000000000e+00 0.000000000000000e+00 0.000000000000000e+00
0.000000000000000e+00 0.000000000000000e+00 0.000000000000000e+00

0.000000000000000e+00 0.000000000000000e+00 0.000000000000000e+00
0.000000000000000e+00 0.000000000000000e+00 0.000000000000000e+00
0.000000000000000e+00 0.000000000000000e+00 0.000000000000000e+00

0.000000000000000e+00 0.000000000000000e+00 0.000000000000000e+00
0.000000000000000e+00 0.000000000000000e+00 0.000000000000000e+00
0.000000000000000e+00 0.000000000000000e+00 0.000000000000000e+00

0.000000000000000e+00 0.000000000000000e+00 0.000000000000000e+00
0.000000000000000e+00 0.000000000000000e+00 0.000000000000000e+00
0.000000000000000e+00 0.000000000000000e+00 0.000000000000000e+00

0.000000000000000e+00 0.000000000000000e+00 0.000000000000000e+00
0.000000000000000e+00 0.000000000000000e+00 0.000000000000000e+00
0.000000000000000e+00 0.000000000000000e+00 0.000000000000000e+00

0.000000000000000e+00 0.000000000000000e+00 0.000000000000000e+00
0.000000000000000e+00 0.000000000000000e+00 0.000000000000000e+00
0.000000000000000e+00 0.000000000000000e+00 0.000000000000000e+00

0.000000000000000e+00 0.000000000000000e+00 0.000000000000000e+00
0.000000000000000e+00 0.000000000000000e+00 0.000000000000000e+00
0.000000000000000e+00 0.000000000000000e+00 0.000000000000000e+00

0.000000000000000e+00 0.000000000000000e+00 0.000000000000000e+00
0.000000000000000e+00 0.000000000000000e+00 0.000000000000000e+00
0.000000000000000e+00 0.000000000000000e+00 0.000000000000000e+00

0.000000000000000e+00 0.000000000000000e+00 0.000000000000000e+00
0.000000000000000e+00 0.000000000000000e+00 0.000000000000000e+00
0.000000000000000e+00 0.000000000000000e+00 0.000000000000000e+00

0.000000000000000e+00 0.000000000000000e+00 0.000000000000000e+00
0.000000000000000e+00 0.000000000000000e+00 0.000000000000000e+00
0.000000000000000e+00 0.000000000000000e+00 0.000000000000000e+00

0.000000000000000e+00 0.000000000000000e+00 0.000000000000000e+00
0.000000000000000e+00 0.000000000000000e+00 0.000000000000000e+00
0.000000000000000e+00 0.000000000000000e+00 0.000000000000000e+00

0.000000000000000e+00 0.000000000000000e+00 0.000000000000000e+00
0.000000000000000e+00 0.000000000000000e+00 0.000000000000000e+00
0.000000000000000e+00 0.000000000000000e+00 0.000000000000000e+00

0.000000000000000e+00 0.000000000000000e+00 0.000000000000000e+00
0.000000000000000e+00 0.000000000000000e+00 0.000000000000000e+00
0.000000000000000e+00 0.000000000000000e+00 0.000000000000000e+00

0.000000000000000e+00 0.000000000000000e+00 0.000000000000000e+00
0.000000000000000e+00 0.000000000000000e+00 0.000000000000000e+00
0.000000000000000e+00 0.000000000000000e+00 0.000000000000000e+00

0.000000000000000e+00 0.000000000000000e+00 0.000000000000000e+00
0.000000000000000e+00 0.000000000000000e+00 0.000000000000000e+00
0.000000000000000e+00 0.000000000000000e+00 0.000000000000000e+00

0.000000000000000e+00 0.000000000000000e+00 0.000000000000000e+00
0.000000000000000e+00 0.000000000000000e+00 0.000000000000000e+00
0.000000000000000e+00 0.000000000000000e+00 0.000000000000000e+00

0.000000000000000e+00 0.000000000000000e+00 0.000000000000000e+00
0.000000000000000e+00 0.000000000000000e+00 0.000000000000000e+00
0.000000000000000e+00 0.000000000000000e+00 0.000000000000000e+00

0.000000000000000e+00 0.000000000000000e+00 0.000000000000000e+00
0.000000000000000e+00 0.000000000000000e+00 0.000000000000000e+00
0.000000000000000e+00 0.000000000000000e+00 0.000000000000000e+00

0.000000000000000e+00 0.000000000000000e+00 0.000000000000000e+00
0.000000000000000e+00 0.000000000000000e+00 0.000000000000000e+00
0.000000000000000e+00 0.000000000000000e+00 0.000000000000000e+00

0.000000000000000e+00 0.000000000000000e+00 0.000000000000000e+00
0.000000000000000e+00 0.000000000000000e+00 0.000000000000000e+00
0.000000000000000e+00 0.000000000000000e+00 0.000000000000000e+00

0.000000000000000e+00 0.000000000000000e+00 0.000000000000000e+00
0.000000000000000e+00 0.000000000000000e+00 0.000000000000000e+00
0.000000000000000e+00 0.000000000000000e+00 0.000000000000000e+00

0.000000000000000e+00 0.000000000000000e+00 0.000000000000000e+00
0.000000000000000e+00 0.000000000000000e+00 0.000000000000000e+00
0.000000000000000e+00 0.000000000000000e+00 0.000000000000000e+00

0.000000000000000e+00 0.000000000000000e+00 0.000000000000000e+00
0.000000000000000e+00 0.000000000000000e+00 0.000000000000000e+00
0.000000000000000e+00 0.000000000000000e+00 0.000000000000000e+00

0.000000000000000e+00 0.000000000000000e+00 0.000000000000000e+00
0.000000000000000e+00 0.000000000000000e+00 0.000000000000000e+00
0.000000000000000e+00 0.000000000000000e+00 0.000000000000000e+00

0.000000000000000e+00 0.000000000000000e+00 0.000000000000000e+00
0.000000000000000e+00 0.000000000000000e+00 0.000000000000000e+00
0.000000000000000e+00 0.000000000000000e+00 0.000000000000000e+00

0.000000000000000e+00 0.000000000000000e+00 0.000000000000000e+00
0.000000000000000e+00 0.000000000000000e+00 0.000000000000000e+00
0.000000000000000e+00 0.000000000000000e+00 0.000000000000000e+00

0.000000000000000e+00 0.000000000000000e+00 0.000000000000000e+00
0.000000000000000e+00 0.000000000000000e+00 0.000000000000000e+00
0.000000000000000e+00 0.000000000000000e+00 0.000000000000000e+00

0.000000000000000e+00 0.000000000000000e+00 0.000000000000000e+00
0.000000000000000e+00 0.000000000000000e+00 0.000000000000000e+00
0.000000000000000e+00 0.000000000000000e+00 0.000000000000000e+00

0.000000000000000e+00 0.000000000000000e+00 0.000000000000000e+00
0.000000000000000e+00 0.000000000000000e+00 0.000000000000000e+00
0.000000000000000e+00 0.000000000000000e+00 0.000000000000000e+00

0.000000000000000e+00 0.000000000000000e+00 0.000000000000000e+00
0.000000000000000e+00 0.000000000000000e+00 0.000000000000000e+00
0.000000000000000e+00 0.000000000000000e+00 0.000000000000000e+00

0.000000000000000e+00 0.000000000000000e+00 0.000000000000000e+00
0.000000000000000e+00 0.000000000000000e+00 0.000000000000000e+00
0.000000000000000e+00 0.000000000000000e+00 0.000000000000000e+00

0.000000000000000e+00 0.000000000000000e+00 0.000000000000000e+00
0.000000000000000e+00 0.000000000000000e+00 0.000000000000000e+00
0.000000000000000e+00 0.000000000000000e+00 0.000000000000000e+00

0.000000000000000e+00 0.000000000000000e+00 0.000000000000000e+00
0.000000000000000e+00 0.000000000000000e+00 0.000000000000000e+00
0.000000000000000e+00 0.000000000000000e+00 0.000000000000000e+00

0.000000000000000e+00 0.000000000000000e+00 0.000000000000000e+00
0.000000000000000e+00 0.000000000000000e+00 0.000000000000000e+00
0.000000000000000e+00 0.000000000000000e+00 0.000000000000000e+00

0.000000000000000e+00 0.000000000000000e+00 0.000000000000000e+00
0.000000000000000e+00 0.000000000000000e+00 0.000000000000000e+00
0.000000000000000e+00 0.000000000000000e+00 0.000000000000000e+00

0.000000000000000e+00 0.000000000000000e+00 0.000000000000000e+00
0.000000000000000e+00 0.000000000000000e+00 0.000000000000000e+00
0.000000000000000e+00 0.000000000000000e+00 0.000000000000000e+00

0.000000000000000e+00 0.000000000000000e+00 0.000000000000000e+00
0.000000000000000e+00 0.000000000000000e+00 0.000000000000000e+00
0.000000000000000e+00 0.000000000000000e+00 0.000000000000000e+00

0.000000000000000e+00 0.000000000000000e+00 0.000000000000000e+00
0.000000000000000e+00 0.000000000000000e+00 0.000000000000000e+00
0.000000000000000e+00 0.000000000000000e+00 0.000000000000000e+00

0.000000000000000e+00 0.000000000000000e+00 0.000000000000000e+00
0.000000000000000e+00 0.000000000000000e+00 0.000000000000000e+00
0.000000000000000e+00 0.000000000000000e+00 0.000000000000000e+00

0.000000000000000e+00 0.000000000000000e+00 0.000000000000000e+00
0.000000000000000e+00 0.000000000000000e+00 0.000000000000000e+00
0.000000000000000e+00 0.000000000000000e+00 0.000000000000000e+00

0.000000000000000e+00 0.000000000000000e+00 0.000000000000000e+00
0.000000000000000e+00 0.000000000000000e+00 0.000000000000000e+00
0.000000000000000e+00 0.000000000000000e+00 0.000000000000000e+00

0.000000000000000e+00 0.000000000000000e+00 0.000000000000000e+00
0.000000000000000e+00 0.000000000000000e+00 0.000000000000000e+00
0.000000000000000e+00 0.000000000000000e+00 0.000000000000000e+00

0.000000000000000e+00 0.000000000000000e+00 0.000000000000000e+00
0.000000000000000e+00 0.000000000000000e+00 0.000000000000000e+00
0.000000000000000e+00 0.000000000000000e+00 0.000000000000000e+00

0.000000000000000e+00 0.000000000000000e+00 0.000000000000000e+00
0.000000000000000e+00 0.000000000000000e+00 0.000000000000000e+00
0.000000000000000e+00 0.000000000000000e+00 0.000000000000000e+00

0.000000000000000e+00 0.000000000000000e+00 0.000000000000000e+00
0.000000000000000e+00 0.000000000000000e+00 0.000000000000000e+00
0.000000000000000e+00 0.000000000000000e+00 0.000000000000000e+00

0.000000000000000e+00 0.000000000000000e+00 0.000000000000000e+00
0.000000000000000e+00 0.000000000000000e+00 0.000000000000000e+00
0.000000000000000e+00 0.000000000000000e+00 0.000000000000000e+00

0.000000000000000e+00 0.000000000000000e+00 0.000000000000000e+00
0.000000000000000e+00 0.000000000000000e+00 0.000000000000000e+00
0.000000000000000e+00 0.000000000000000e+00 0.000000000000000e+00

0.000000000000000e+00 0.000000000000000e+00 0.000000000000000e+00
0.000000000000000e+00 0.000000000000000e+00 0.000000000000000e+00
0.000000000000000e+00 0.000000000000000e+00 0.000000000000000e+00

0.000000000000000e+00 0.000000000000000e+00 0.000000000000000e+00
0.000000000000000e+00 0.000000000000000e+00 0.000000000000000e+00
0.000000000000000e+00 0.000000000000000e+00 0.000000000000000e+00

0.000000000000000e+00 0.000000000000000e+00 0.000000000000000e+00
0.000000000000000e+00 0.000000000000000e+00 0.000000000000000e+00
0.000000000000000e+00 0.000000000000000e+00 0.000000000000000e+00

0.000000000000000e+00 0.000000000000000e+00 0.000000000000000e+00
0.000000000000000e+00 0.000000000000000e+00 0.000000000000000e+00
0.000000000000000e+00 0.000000000000000e+00 0.000000000000000e+00

0.000000000000000e+00 0.000000000000000e+00 0.000000000000000e+00
0.000000000000000e+00 0.000000000000000e+00 0.000000000000000e+00
0.000000000000000e+00 0.000000000000000e+00 0.000000000000000e+00

0.000000000000000e+00 0.000000000000000e+00 0.000000000000000e+00
0.000000000000000e+00 0.000000000000000e+00 0.000000000000000e+00
0.000000000000000e+00 0.000000000000000e+00 0.000000000000000e+00

0.000000000000000e+00 0.000000000000000e+00 0.000000000000000e+00
0.000000000000000e+00 0.000000000000000e+00 0.000000000000000e+00
0.000000000000000e+00 0.000000000000000e+00 0.000000000000000e+00

0.000000000000000e+00 0.000000000000000e+00 0.000000000000000e+00
0.000000000000000e+00 0.000000000000000e+00 0.000000000000000e+00
0.000000000000000e+00 0.000000000000000e+00 0.000000000000000e+00

0.000000000000000e+00 0.000000000000000e+00 0.000000000000000e+00
0.000000000000000e+00 0.000000000000000e+00 0.000000000000000e+00
0.000000000000000e+00 0.000000000000000e+00 0.000000000000000e+00

0.000000000000000e+00 0.000000000000000e+00 0.000000000000000e+00
0.000000000000000e+00 0.000000000000000e+00 0.000000000000000e+00
0.000000000000000e+00 0.000000000000000e+00 0.000000000000000e+00

0.000000000000000e+00 0.000000000000000e+00 0.000000000000000e+00
0.000000000000000e+00 0.000000000000000e+00 0.000000000000000e+00
0.000000000000000e+00 0.000000000000000e+00 0.000000000000000e+00

0.000000000000000e+00 0.000000000000000e+00 0.000000000000000e+00
0.000000000000000e+00 0.000000000000000e+00 0.000000000000000e+00
0.000000000000000e+00 0.000000000000000e+00 0.000000000000000e+00

0.000000000000000e+00 0.000000000000000e+00 0.000000000000000e+00
0.000000000000000e+00 0.000000000000000e+00 0.000000000000000e+00
0.000000000000000e+00 0.000000000000000e+00 0.000000000000000e+00

0.000000000000000e+00 0.000000000000000e+00 0.000000000000000e+00
0.000000000000000e+00 0.000000000000000e+00 0.000000000000000e+00
0.000000000000000e+00 0.000000000000000e+00 0.000000000000000e+00

0.000000000000000e+00 0.000000000000000e+00 0.000000000000000e+00
0.000000000000000e+00 0.000000000000000e+00 0.000000000000000e+00
0.000000000000000e+00 0.000000000000000e+00 0.000000000000000e+00

0.000000000000000e+00 0.000000000000000e+00 0.000000000000000e+00
0.000000000000000e+00 0.000000000000000e+00 0.000000000000000e+00
0.000000000000000e+00 0.000000000000000e+00 0.000000000000000e+00

0.000000000000000e+00 0.000000000000000e+00 0.000000000000000e+00
0.000000000000000e+00 0.000000000000000e+00 0.000000000000000e+00
0.000000000000000e+00 0.000000000000000e+00 0.000000000000000e+00

0.000000000000000e+00 0.000000000000000e+00 0.000000000000000e+00
0.000000000000000e+00 0.000000000000000e+00 0.000000000000000e+00
0.000000000000000e+00 0.000000000000000e+00 0.000000000000000e+00

0.000000000000000e+00 0.000000000000000e+00 0.000000000000000e+00
0.000000000000000e+00 0.000000000000000e+00 0.000000000000000e+00
0.000000000000000e+00 0.000000000000000e+00 0.000000000000000e+00

0.000000000000000e+00 0.000000000000000e+00 0.000000000000000e+00
0.000000000000000e+00 0.000000000000000e+00 0.000000000000000e+00
0.000000000000000e+00 0.000000000000000e+00 0.000000000000000e+00

0.000000000000000e+00 0.000000000000000e+00 0.000000000000000e+00
0.000000000000000e+00 0.000000000000000e+00 0.000000000000000e+00
0.000000000000000e+00 0.000000000000000e+00 0.000000000000000e+00

0.000000000000000e+00 0.000000000000000e+00 0.000000000000000e+00
0.000000000000000e+00 0.000000000000000e+00 0.000000000000000e+00
0.000000000000000e+00 0.000000000000000e+00 0.000000000000000e+00

0.000000000000000e+00 0.000000000000000e+00 0.000000000000000e+00
0.000000000000000e+00 0.000000000000000e+00 0.000000000000000e+00
0.000000000000000e+00 0.000000000000000e+00 0.000000000000000e+00

0.000000000000000e+00 0.000000000000000e+00 0.000000000000000e+00
0.000000000000000e+00 0.000000000000000e+00 0.000000000000000e+00
0.000000000000000e+00 0.000000000000000e+00 0.000000000000000e+00

0.000000000000000e+00 0.000000000000000e+00 0.000000000000000e+00
0.000000000000000e+00 0.000000000000000e+00 0.000000000000000e+00
0.000000000000000e+00 0.000000000000000e+00 0.000000000000000e+00

0.000000000000000e+00 0.000000000000000e+00 0.000000000000000e+00
0.000000000000000e+00 0.000000000000000e+00 0.000000000000000e+00
0.000000000000000e+00 0.000000000000000e+00 0.000000000000000e+00

0.000000000000000e+00 0.000000000000000e+00 0.000000000000000e+00
0.000000000000000e+00 0.000000000000000e+00 0.000000000000000e+00
0.000000000000000e+00 0.000000000000000e+00 0.000000000000000e+00

0.000000000000000e+00 0.000000000000000e+00 0.000000000000000e+00
0.000000000000000e+00 0.000000000000000e+00 0.000000000000000e+00
0.000000000000000e+00 0.000000000000000e+00 0.000000000000000e+00

0.000000000000000e+00 0.000000000000000e+00 0.000000000000000e+00
0.000000000000000e+00 0.000000000000000e+00 0.000000000000000e+00
0.000000000000000e+00 0.000000000000000e+00 0.000000000000000e+00

0.000000000000000e+00 0.000000000000000e+00 0.000000000000000e+00
0.000000000000000e+00 0.000000000000000e+00 0.000000000000000e+00
0.000000000000000e+00 0.000000000000000e+00 0.000000000000000e+00

0.000000000000000e+00 0.000000000000000e+00 0.000000000000000e+00
0.000000000000000e+00 0.000000000000000e+00 0.000000000000000e+00
0.000000000000000e+00 0.000000000000000e+00 0.000000000000000e+00

0.000000000000000e+00 0.000000000000000e+00 0.000000000000000e+00
0.000000000000000e+00 0.000000000000000e+00 0.000000000000000e+00
0.000000000000000e+00 0.000000000000000e+00 0.000000000000000e+00

0.000000000000000e+00 0.000000000000000e+00 0.000000000000000e+00
0.000000000000000e+00 0.000000000000000e+00 0.000000000000000e+00
0.000000000000000e+00 0.000000000000000e+00 0.000000000000000e+00

0.000000000000000e+00 0.000000000000000e+00 0.000000000000000e+00
0.000000000000000e+00 0.000000000000000e+00 0.000000000000000e+00
0.000000000000000e+00 0.000000000000000e+00 0.000000000000000e+00

0.000000000000000e+00 0.000000000000000e+00 0.000000000000000e+00
0.000000000000000e+00 0.000000000000000e+00 0.000000000000000e+00
0.000000000000000e+00 0.000000000000000e+00 0.000000000000000e+00

0.000000000000000e+00 0.000000000000000e+00 0.000000000000000e+00
0.000000000000000e+00 0.000000000000000e+00 0.000000000000000e+00
0.000000000000000e+00 0.000000000000000e+00 0.000000000000000e+00

0.000000000000000e+00 0.000000000000000e+00 0.000000000000000e+00
0.000000000000000e+00 0.000000000000000e+00 0.000000000000000e+00
0.000000000000000e+00 0.000000000000000e+00 0.000000000000000e+00

0.000000000000000e+00 0.000000000000000e+00 0.000000000000000e+00
0.000000000000000e+00 0.000000000000000e+00 0.000000000000000e+00
0.000000000000000e+00 0.000000000000000e+00 0.000000000000000e+00

0.000000000000000e+00 0.000000000000000e+00 0.000000000000000e+00
0.000000000000000e+00 0.000000000000000e+00 0.000000000000000e+00
0.000000000000000e+00 0.000000000000000e+00 0.000000000000000e+00

0.000000000000000e+00 0.000000000000000e+00 0.000000000000000e+00
0.000000000000000e+00 0.000000000000000e+00 0.000000000000000e+00
0.000000000000000e+00 0.000000000000000e+00 0.000000000000000e+00

0.000000000000000e+00 0.000000000000000e+00 0.000000000000000e+00
0.000000000000000e+00 0.000000000000000e+00 0.000000000000000e+00
0.000000000000000e+00 0.000000000000000e+00 0.000000000000000e+00

0.000000000000000e+00 0.000000000000000e+00 0.000000000000000e+00
0.000000000000000e+00 0.000000000000000e+00 0.000000000000000e+00
0.000000000000000e+00 0.000000000000000e+00 0.000000000000000e+00

0.000000000000000e+00 0.000000000000000e+00 0.000000000000000e+00
0.000000000000000e+00 0.000000000000000e+00 0.000000000000000e+00
0.000000000000000e+00 0.000000000000000e+00 0.000000000000000e+00

0.000000000000000e+00 0.000000000000000e+00 0.000000000000000e+00
0.000000000000000e+00 0.000000000000000e+00 0.000000000000000e+00
0.000000000000000e+00 0.000000000000000e+00 0.000000000000000e+00

0.000000000000000e+00 0.000000000000000e+00 0.000000000000000e+00
0.000000000000000e+00 0.000000000000000e+00 0.000000000000000e+00
0.000000000000000e+00 0.000000000000000e+00 0.000000000000000e+00

0.000000000000000e+00 0.000000000000000e+00 0.000000000000000e+00
0.000000000000000e+00 0.000000000000000e+00 0.000000000000000e+00
0.000000000000000e+00 0.000000000000000e+00 0.000000000000000e+00

0.000000000000000e+00 0.000000000000000e+00 0.000000000000000e+00
0.000000000000000e+00 0.000000000000000e+00 0.000000000000000e+00
0.000000000000000e+00 0.000000000000000e+00 0.000000000000000e+00

0.000000000000000e+00 0.000000000000000e+00 0.000000000000000e+00
0.000000000000000e+00 0.000000000000000e+00 0.000000000000000e+00
0.000000000000000e+00 0.000000000000000e+00 0.000000000000000e+00

0.000000000000000e+00 0.000000000000000e+00 0.000000000000000e+00
0.000000000000000e+00 0.000000000000000e+00 0.000000000000000e+00
0.000000000000000e+00 0.000000000000000e+00 0.000000000000000e+00

0.000000000000000e+00 0.000000000000000e+00 0.000000000000000e+00
0.000000000000000e+00 0.000000000000000e+00 0.000000000000000e+00
0.000000000000000e+00 0.000000000000000e+00 0.000000000000000e+00

0.000000000000000e+00 0.000000000000000e+00 0.000000000000000e+00
0.000000000000000e+00 0.000000000000000e+00 0.000000000000000e+00
0.000000000000000e+00 0.000000000000000e+00 0.000000000000000e+00

0.000000000000000e+00 0.000000000000000e+00 0.000000000000000e+00
0.000000000000000e+00 0.000000000000000e+00 0.000000000000000e+00
0.000000000000000e+00 0.000000000000000e+00 0.000000000000000e+00

0.000000000000000e+00 0.000000000000000e+00 0.000000000000000e+00
0.000000000000000e+00 0.000000000000000e+00 0.000000000000000e+00
0.000000000000000e+00 0.000000000000000e+00 0.000000000000000e+00

0.000000000000000e+00 0.000000000000000e+00 0.000000000000000e+00
0.000000000000000e+00 0.000000000000000e+00 0.000000000000000e+00
0.000000000000000e+00 0.000000000000000e+00 0.000000000000000e+00

0.000000000000000e+00 0.000000000000000e+00 0.000000000000000e+00
0.000000000000000e+00 0.000000000000000e+00 0.000000000000000e+00
0.000000000000000e+00 0.000000000000000e+00 0.000000000000000e+00

0.000000000000000e+00 0.000000000000000e+00 0.000000000000000e+00
0.000000000000000e+00 0.000000000000000e+00 0.000000000000000e+00
0.000000000000000e+00 0.000000000000000e+00 0.000000000000000e+00

0.000000000000000e+00 0.000000000000000e+00 0.000000000000000e+00
0.000000000000000e+00 0.000000000000000e+00 0.000000000000000e+00
0.000000000000000e+00 0.000000000000000e+00 0.000000000000000e+00

0.000000000000000e+00 0.000000000000000e+00 0.000000000000000e+00
0.000000000000000e+00 0.000000000000000e+00 0.000000000000000e+00
0.000000000000000e+00 0.000000000000000e+00 0.000000000000000e+00

0.000000000000000e+00 0.000000000000000e+00 0.000000000000000e+00
0.000000000000000e+00 0.000000000000000e+00 0.000000000000000e+00
0.000000000000000e+00 0.000000000000000e+00 0.000000000000000e+00

0.000000000000000e+00 0.000000000000000e+00 0.000000000000000e+00
0.000000000000000e+00 0.000000000000000e+00 0.000000000000000e+00
0.000000000000000e+00 0.000000000000000e+00 0.000000000000000e+00

0.000000000000000e+00 0.000000000000000e+00 0.000000000000000e+00
0.000000000000000e+00 0.000000000000000e+00 0.000000000000000e+00
0.000000000000000e+00 0.000000000000000e+00 0.000000000000000e+00

0.000000000000000e+00 0.000000000000000e+00 0.000000000000000e+00
0.000000000000000e+00 0.000000000000000e+00 0.000000000000000e+00
0.000000000000000e+00 0.000000000000000e+00 0.000000000000000e+00

0.000000000000000e+00 0.000000000000000e+00 0.000000000000000e+00
0.000000000000000e+00 0.000000000000000e+00 0.000000000000000e+00
0.000000000000000e+00 0.000000000000000e+00 0.000000000000000e+00

0.000000000000000e+00 0.000000000000000e+00 0.000000000000000e+00
0.000000000000000e+00 0.000000000000000e+00 0.000000000000000e+00
0.000000000000000e+00 0.000000000000000e+00 0.000000000000000e+00

0.000000000000000e+00 0.000000000000000e+00 0.000000000000000e+00
0.000000000000000e+00 0.000000000000000e+00 0.000000000000000e+00
0.000000000000000e+00 0.000000000000000e+00 0.000000000000000e+00

0.000000000000000e+00 0.000000000000000e+00 0.000000000000000e+00
0.000000000000000e+00 0.000000000000000e+00 0.000000000000000e+00
0.000000000000000e+00 0.000000000000000e+00 0.000000000000000e+00

0.000000000000000e+00 0.000000000000000e+00 0.000000000000000e+00
0.000000000000000e+00 0.000000000000000e+00 0.000000000000000e+00
0.000000000000000e+00 0.000000000000000e+00 0.000000000000000e+00

0.000000000000000e+00 0.000000000000000e+00 0.000000000000000e+00
0.000000000000000e+00 0.000000000000000e+00 0.000000000000000e+00
0.000000000000000e+00 0.000000000000000e+00 0.000000000000000e+00

0.000000000000000e+00 0.000000000000000e+00 0.000000000000000e+00
0.000000000000000e+00 0.000000000000000e+00 0.000000000000000e+00
0.000000000000000e+00 0.000000000000000e+00 0.000000000000000e+00

0.000000000000000e+00 0.000000000000000e+00 0.000000000000000e+00
0.000000000000000e+00 0.000000000000000e+00 0.000000000000000e+00
0.000000000000000e+00 0.000000000000000e+00 0.000000000000000e+00

0.000000000000000e+00 0.000000000000000e+00 0.000000000000000e+00
0.000000000000000e+00 0.000000000000000e+00 0.000000000000000e+00
0.000000000000000e+00 0.000000000000000e+00 0.000000000000000e+00

0.000000000000000e+00 0.000000000000000e+00 0.000000000000000e+00
0.000000000000000e+00 0.000000000000000e+00 0.000000000000000e+00
0.000000000000000e+00 0.000000000000000e+00 0.000000000000000e+00

0.000000000000000e+00 0.000000000000000e+00 0.000000000000000e+00
0.000000000000000e+00 0.000000000000000e+00 0.000000000000000e+00
0.000000000000000e+00 0.000000000000000e+00 0.000000000000000e+00

0.000000000000000e+00 0.000000000000000e+00 0.000000000000000e+00
0.000000000000000e+00 0.000000000000000e+00 0.000000000000000e+00
0.000000000000000e+00 0.000000000000000e+00 0.000000000000000e+00

0.000000000000000e+00 0.000000000000000e+00 0.000000000000000e+00
0.000000000000000e+00 0.000000000000000e+00 0.000000000000000e+00
0.000000000000000e+00 0.000000000000000e+00 0.000000000000000e+00

0.000000000000000e+00 0.000000000000000e+00 0.000000000000000e+00
0.000000000000000e+00 0.000000000000000e+00 0.000000000000000e+00
0.000000000000000e+00 0.000000000000000e+00 0.000000000000000e+00

0.000000000000000e+00 0.000000000000000e+00 0.000000000000000e+00
0.000000000000000e+00 0.000000000000000e+00 0.000000000000000e+00
0.000000000000000e+00 0.000000000000000e+00 0.000000000000000e+00

0.000000000000000e+00 0.000000000000000e+00 0.000000000000000e+00
0.000000000000000e+00 0.000000000000000e+00 0.000000000000000e+00
0.000000000000000e+00 0.000000000000000e+00 0.000000000000000e+00

0.000000000000000e+00 0.000000000000000e+00 0.000000000000000e+00
0.000000000000000e+00 0.000000000000000e+00 0.000000000000000e+00
0.000000000000000e+00 0.000000000000000e+00 0.000000000000000e+00

0.000000000000000e+00 0.000000000000000e+00 0.000000000000000e+00
0.000000000000000e+00 0.000000000000000e+00 0.000000000000000e+00
0.000000000000000e+00 0.000000000000000e+00 0.000000000000000e+00

0.000000000000000e+00 0.000000000000000e+00 0.000000000000000e+00
0.000000000000000e+00 0.000000000000000e+00 0.000000000000000e+00
0.000000000000000e+00 0.000000000000000e+00 0.000000000000000e+00

0.000000000000000e+00 0.000000000000000e+00 0.000000000000000e+00
0.000000000000000e+00 0.000000000000000e+00 0.000000000000000e+00
0.000000000000000e+00 0.000000000000000e+00 0.000000000000000e+00

0.000000000000000e+00 0.000000000000000e+00 0.000000000000000e+00
0.000000000000000e+00 0.000000000000000e+00 0.000000000000000e+00
0.000000000000000e+00 0.000000000000000e+00 0.000000000000000e+00

0.000000000000000e+00 0.000000000000000e+00 0.000000000000000e+00
0.000000000000000e+00 0.000000000000000e+00 0.000000000000000e+00
0.000000000000000e+00 0.000000000000000e+00 0.000000000000000e+00

0.000000000000000e+00 0.000000000000000e+00 0.000000000000000e+00
0.000000000000000e+00 0.000000000000000e+00 0.000000000000000e+00
0.000000000000000e+00 0.000000000000000e+00 0.000000000000000e+00

0.000000000000000e+00 0.000000000000000e+00 0.000000000000000e+00
0.000000000000000e+00 0.000000000000000e+00 0.000000000000000e+00
0.000000000000000e+00 0.000000000000000e+00 0.000000000000000e+00

0.000000000000000e+00 0.000000000000000e+00 0.000000000000000e+00
0.000000000000000e+00 0.000000000000000e+00 0.000000000000000e+00
0.000000000000000e+00 0.000000000000000e+00 0.000000000000000e+00

0.000000000000000e+00 0.000000000000000e+00 0.000000000000000e+00
0.000000000000000e+00 0.000000000000000e+00 0.000000000000000e+00
0.000000000000000e+00 0.000000000000000e+00 0.000000000000000e+00

0.000000000000000e+00 0.000000000000000e+00 0.000000000000000e+00
0.000000000000000e+00 0.000000000000000e+00 0.000000000000000e+00
0.000000000000000e+00 0.000000000000000e+00 0.000000000000000e+00

0.000000000000000e+00 0.000000000000000e+00 0.000000000000000e+00
0.000000000000000e+00 0.000000000000000e+00 0.000000000000000e+00
0.000000000000000e+00 0.000000000000000e+00 0.000000000000000e+00

0.000000000000000e+00 0.000000000000000e+00 0.000000000000000e+00
0.000000000000000e+00 0.000000000000000e+00 0.000000000000000e+00
0.000000000000000e+00 0.000000000000000e+00 0.000000000000000e+00

0.000000000000000e+00 0.000000000000000e+00 0.000000000000000e+00
0.000000000000000e+00 0.000000000000000e+00 0.000000000000000e+00
0.000000000000000e+00 0.000000000000000e+00 0.000000000000000e+00

0.000000000000000e+00 0.000000000000000e+00 0.000000000000000e+00
0.000000000000000e+00 0.000000000000000e+00 0.000000000000000e+00
0.000000000000000e+00 0.000000000000000e+00 0.000000000000000e+00

0.000000000000000e+00 0.000000000000000e+00 0.000000000000000e+00
0.000000000000000e+00 0.000000000000000e+00 0.000000000000000e+00
0.000000000000000e+00 0.000000000000000e+00 0.000000000000000e+00

0.000000000000000e+00 0.000000000000000e+00 0.000000000000000e+00
0.000000000000000e+00 0.000000000000000e+00 0.000000000000000e+00
0.000000000000000e+00 0.000000000000000e+00 0.000000000000000e+00

0.000000000000000e+00 0.000000000000000e+00 0.000000000000000e+00
0.000000000000000e+00 0.000000000000000e+00 0.000000000000000e+00
0.000000000000000e+00 0.000000000000000e+00 0.000000000000000e+00

0.000000000000000e+00 0.000000000000000e+00 0.000000000000000e+00
0.000000000000000e+00 0.000000000000000e+00 0.000000000000000e+00
0.000000000000000e+00 0.000000000000000e+00 0.000000000000000e+00

0.000000000000000e+00 0.000000000000000e+00 0.000000000000000e+00
0.000000000000000e+00 0.000000000000000e+00 0.000000000000000e+00
0.000000000000000e+00 0.000000000000000e+00 0.000000000000000e+00

0.000000000000000e+00 0.000000000000000e+00 0.000000000000000e+00
0.000000000000000e+00 0.000000000000000e+00 0.000000000000000e+00
0.000000000000000e+00 0.000000000000000e+00 0.000000000000000e+00

0.000000000000000e+00 0.000000000000000e+00 0.000000000000000e+00
0.000000000000000e+00 0.000000000000000e+00 0.000000000000000e+00
0.000000000000000e+00 0.000000000000000e+00 0.000000000000000e+00

0.000000000000000e+00 0.000000000000000e+00 0.000000000000000e+00
0.000000000000000e+00 0.000000000000000e+00 0.000000000000000e+00
0.000000000000000e+00 0.000000000000000e+00 0.000000000000000e+00

0.000000000000000e+00 0.000000000000000e+00 0.000000000000000e+00
0.000000000000000e+00 0.000000000000000e+00 0.000000000000000e+00
0.000000000000000e+00 0.000000000000000e+00 0.000000000000000e+00

0.000000000000000e+00 0.000000000000000e+00 0.000000000000000e+00
0.000000000000000e+00 0.000000000000000e+00 0.000000000000000e+00
0.000000000000000e+00 0.000000000000000e+00 0.000000000000000e+00

0.000000000000000e+00 0.000000000000000e+00 0.000000000000000e+00
0.000000000000000e+00 0.000000000000000e+00 0.000000000000000e+00
0.000000000000000e+00 0.000000000000000e+00 0.000000000000000e+00

0.000000000000000e+00 0.000000000000000e+00 0.000000000000000e+00
0.000000000000000e+00 0.000000000000000e+00 0.000000000000000e+00
0.000000000000000e+00 0.000000000000000e+00 0.000000000000000e+00

0.000000000000000e+00 0.000000000000000e+00 0.000000000000000e+00
0.000000000000000e+00 0.000000000000000e+00 0.000000000000000e+00
0.000000000000000e+00 0.000000000000000e+00 0.000000000000000e+00

0.000000000000000e+00 0.000000000000000e+00 0.000000000000000e+00
0.000000000000000e+00 0.000000000000000e+00 0.000000000000000e+00
0.000000000000000e+00 0.000000000000000e+00 0.000000000000000e+00

0.000000000000000e+00 0.000000000000000e+00 0.000000000000000e+00
0.000000000000000e+00 0.000000000000000e+00 0.000000000000000e+00
0.000000000000000e+00 0.000000000000000e+00 0.000000000000000e+00

0.000000000000000e+00 0.000000000000000e+00 0.000000000000000e+00
0.000000000000000e+00 0.000000000000000e+00 0.000000000000000e+00
0.000000000000000e+00 0.000000000000000e+00 0.000000000000000e+00

0.000000000000000e+00 0.000000000000000e+00 0.000000000000000e+00
0.000000000000000e+00 0.000000000000000e+00 0.000000000000000e+00
0.000000000000000e+00 0.000000000000000e+00 0.000000000000000e+00

0.000000000000000e+00 0.000000000000000e+00 0.000000000000000e+00
0.000000000000000e+00 0.000000000000000e+00 0.000000000000000e+00
0.000000000000000e+00 0.000000000000000e+00 0.000000000000000e+00

0.000000000000000e+00 0.000000000000000e+00 0.000000000000000e+00
0.000000000000000e+00 0.000000000000000e+00 0.000000000000000e+00
0.000000000000000e+00 0.000000000000000e+00 0.000000000000000e+00

0.000000000000000e+00 0.000000000000000e+00 0.000000000000000e+00
0.000000000000000e+00 0.000000000000000e+00 0.000000000000000e+00
0.000000000000000e+00 0.000000000000000e+00 0.000000000000000e+00

0.000000000000000e+00 0.000000000000000e+00 0.000000000000000e+00
0.000000000000000e+00 0.000000000000000e+00 0.000000000000000e+00
0.000000000000000e+00 0.000000000000000e+00 0.000000000000000e+00

0.000000000000000e+00 0.000000000000000e+00 0.000000000000000e+00
0.000000000000000e+00 0.000000000000000e+00 0.000000000000000e+00
0.000000000000000e+00 0.000000000000000e+00 0.000000000000000e+00

0.000000000000000e+00 0.000000000000000e+00 0.000000000000000e+00
0.000000000000000e+00 0.000000000000000e+00 0.000000000000000e+00
0.000000000000000e+00 0.000000000000000e+00 0.000000000000000e+00

0.000000000000000e+00 0.000000000000000e+00 0.000000000000000e+00
0.000000000000000e+00 0.000000000000000e+00 0.000000000000000e+00
0.000000000000000e+00 0.000000000000000e+00 0.000000000000000e+00

0.000000000000000e+00 0.000000000000000e+00 0.000000000000000e+00
0.000000000000000e+00 0.000000000000000e+00 0.000000000000000e+00
0.000000000000000e+00 0.000000000000000e+00 0.000000000000000e+00

0.000000000000000e+00 0.000000000000000e+00 0.000000000000000e+00
0.000000000000000e+00 0.000000000000000e+00 0.000000000000000e+00
0.000000000000000e+00 0.000000000000000e+00 0.000000000000000e+00

0.000000000000000e+00 0.000000000000000e+00 0.000000000000000e+00
0.000000000000000e+00 0.000000000000000e+00 0.000000000000000e+00
0.000000000000000e+00 0.000000000000000e+00 0.000000000000000e+00

0.000000000000000e+00 0.000000000000000e+00 0.000000000000000e+00
0.000000000000000e+00 0.000000000000000e+00 0.000000000000000e+00
0.000000000000000e+00 0.000000000000000e+00 0.000000000000000e+00

0.000000000000000e+00 0.000000000000000e+00 0.000000000000000e+00
0.000000000000000e+00 0.000000000000000e+00 0.000000000000000e+00
0.000000000000000e+00 0.000000000000000e+00 0.000000000000000e+00

0.000000000000000e+00 0.000000000000000e+00 0.000000000000000e+00
0.000000000000000e+00 0.000000000000000e+00 0.000000000000000e+00
0.000000000000000e+00 0.000000000000000e+00 0.000000000000000e+00

0.000000000000000e+00 0.000000000000000e+00 0.000000000000000e+00
0.000000000000000e+00 0.000000000000000e+00 0.000000000000000e+00
0.000000000000000e+00 0.000000000000000e+00 0.000000000000000e+00

0.000000000000000e+00 0.000000000000000e+00 0.000000000000000e+00
0.000000000000000e+00 0.000000000000000e+00 0.000000000000000e+00
0.000000000000000e+00 0.000000000000000e+00 0.000000000000000e+00

0.000000000000000e+00 0.000000000000000e+00 0.000000000000000e+00
0.000000000000000e+00 0.000000000000000e+00 0.000000000000000e+00
0.000000000000000e+00 0.000000000000000e+00 0.000000000000000e+00

0.000000000000000e+00 0.000000000000000e+00 0.000000000000000e+00
0.000000000000000e+00 0.000000000000000e+00 0.000000000000000e+00
0.000000000000000e+00 0.000000000000000e+00 0.000000000000000e+00

0.000000000000000e+00 0.000000000000000e+00 0.000000000000000e+00
0.000000000000000e+00 0.000000000000000e+00 0.000000000000000e+00
0.000000000000000e+00 0.000000000000000e+00 0.000000000000000e+00

0.000000000000000e+00 0.000000000000000e+00 0.000000000000000e+00
0.000000000000000e+00 0.000000000000000e+00 0.000000000000000e+00
0.000000000000000e+00 0.000000000000000e+00 0.000000000000000e+00

0.000000000000000e+00 0.000000000000000e+00 0.000000000000000e+00
0.000000000000000e+00 0.000000000000000e+00 0.000000000000000e+00
0.000000000000000e+00 0.000000000000000e+00 0.000000000000000e+00

0.000000000000000e+00 0.000000000000000e+00 0.000000000000000e+00
0.000000000000000e+00 0.000000000000000e+00 0.000000000000000e+00
0.000000000000000e+00 0.000000000000000e+00 0.000000000000000e+00

0.000000000000000e+00 0.000000000000000e+00 0.000000000000000e+00
0.000000000000000e+00 0.000000000000000e+00 0.000000000000000e+00
0.000000000000000e+00 0.000000000000000e+00 0.000000000000000e+00

0.000000000000000e+00 0.000000000000000e+00 0.000000000000000e+00
0.000000000000000e+00 0.000000000000000e+00 0.000000000000000e+00
0.000000000000000e+00 0.000000000000000e+00 0.000000000000000e+00

0.000000000000000e+00 0.000000000000000e+00 0.000000000000000e+00
0.000000000000000e+00 0.000000000000000e+00 0.000000000000000e+00
0.000000000000000e+00 0.000000000000000e+00 0.000000000000000e+00

0.000000000000000e+00 0.000000000000000e+00 0.000000000000000e+00
0.000000000000000e+00 0.000000000000000e+00 0.000000000000000e+00
0.000000000000000e+00 0.000000000000000e+00 0.000000000000000e+00

0.000000000000000e+00 0.000000000000000e+00 0.000000000000000e+00
0.000000000000000e+00 0.000000000000000e+00 0.000000000000000e+00
0.000000000000000e+00 0.000000000000000e+00 0.000000000000000e+00

0.000000000000000e+00 0.000000000000000e+00 0.000000000000000e+00
0.000000000000000e+00 0.000000000000000e+00 0.000000000000000e+00
0.000000000000000e+00 0.000000000000000e+00 0.000000000000000e+00

0.000000000000000e+00 0.000000000000000e+00 0.000000000000000e+00
0.000000000000000e+00 0.000000000000000e+00 0.000000000000000e+00
0.000000000000000e+00 0.000000000000000e+00 0.000000000000000e+00

0.000000000000000e+00 0.000000000000000e+00 0.000000000000000e+00
0.000000000000000e+00 0.000000000000000e+00 0.000000000000000e+00
0.000000000000000e+00 0.000000000000000e+00 0.000000000000000e+00

0.000000000000000e+00 0.000000000000000e+00 0.000000000000000e+00
0.000000000000000e+00 0.000000000000000e+00 0.000000000000000e+00
0.000000000000000e+00 0.000000000000000e+00 0.000000000000000e+00

0.000000000000000e+00 0.000000000000000e+00 0.000000000000000e+00
0.000000000000000e+00 0.000000000000000e+00 0.000000000000000e+00
0.000000000000000e+00 0.000000000000000e+00 0.000000000000000e+00

0.000000000000000e+00 0.000000000000000e+00 0.000000000000000e+00
0.000000000000000e+00 0.000000000000000e+00 0.000000000000000e+00
0.000000000000000e+00 0.000000000000000e+00 0.000000000000000e+00

0.000000000000000e+00 0.000000000000000e+00 0.000000000000000e+00
0.000000000000000e+00 0.000000000000000e+00 0.000000000000000e+00
0.000000000000000e+00 0.000000000000000e+00 0.000000000000000e+00

0.000000000000000e+00 0.000000000000000e+00 0.000000000000000e+00
0.000000000000000e+00 0.000000000000000e+00 0.000000000000000e+00
0.000000000000000e+00 0.000000000000000e+00 0.000000000000000e+00

0.000000000000000e+00 0.000000000000000e+00 0.000000000000000e+00
0.000000000000000e+00 0.000000000000000e+00 0.000000000000000e+00
0.000000000000000e+00 0.000000000000000e+00 0.000000000000000e+00

0.000000000000000e+00 0.000000000000000e+00 0.000000000000000e+00
0.000000000000000e+00 0.000000000000000e+00 0.000000000000000e+00
0.000000000000000e+00 0.000000000000000e+00 0.000000000000000e+00

0.000000000000000e+00 0.000000000000000e+00 0.000000000000000e+00
0.000000000000000e+00 0.000000000000000e+00 0.000000000000000e+00
0.000000000000000e+00 0.000000000000000e+00 0.000000000000000e+00

0.000000000000000e+00 0.000000000000000e+00 0.000000000000000e+00
0.000000000000000e+00 0.000000000000000e+00 0.000000000000000e+00
0.000000000000000e+00 0.000000000000000e+00 0.000000000000000e+00

0.000000000000000e+00 0.000000000000000e+00 0.000000000000000e+00
0.000000000000000e+00 0.000000000000000e+00 0.000000000000000e+00
0.000000000000000e+00 0.000000000000000e+00 0.000000000000000e+00

0.000000000000000e+00 0.000000000000000e+00 0.000000000000000e+00
0.000000000000000e+00 0.000000000000000e+00 0.000000000000000e+00
0.000000000000000e+00 0.000000000000000e+00 0.000000000000000e+00

0.000000000000000e+00 0.000000000000000e+00 0.000000000000000e+00
0.000000000000000e+00 0.000000000000000e+00 0.000000000000000e+00
0.000000000000000e+00 0.000000000000000e+00 0.000000000000000e+00

0.000000000000000e+00 0.000000000000000e+00 0.000000000000000e+00
0.000000000000000e+00 0.000000000000000e+00 0.000000000000000e+00
0.000000000000000e+00 0.000000000000000e+00 0.000000000000000e+00

0.000000000000000e+00 0.000000000000000e+00 0.000000000000000e+00
0.000000000000000e+00 0.000000000000000e+00 0.000000000000000e+00
0.000000000000000e+00 0.000000000000000e+00 0.000000000000000e+00

0.000000000000000e+00 0.000000000000000e+00 0.000000000000000e+00
0.000000000000000e+00 0.000000000000000e+00 0.000000000000000e+00
0.000000000000000e+00 0.000000000000000e+00 0.000000000000000e+00

0.000000000000000e+00 0.000000000000000e+00 0.000000000000000e+00
0.000000000000000e+00 0.000000000000000e+00 0.000000000000000e+00
0.000000000000000e+00 0.000000000000000e+00 0.000000000000000e+00

0.000000000000000e+00 0.000000000000000e+00 0.000000000000000e+00
0.000000000000000e+00 0.000000000000000e+00 0.000000000000000e+00
0.000000000000000e+00 0.000000000000000e+00 0.000000000000000e+00

0.000000000000000e+00 0.000000000000000e+00 0.000000000000000e+00
0.000000000000000e+00 0.000000000000000e+00 0.000000000000000e+00
0.000000000000000e+00 0.000000000000000e+00 0.000000000000000e+00

0.000000000000000e+00 0.000000000000000e+00 0.000000000000000e+00
0.000000000000000e+00 0.000000000000000e+00 0.000000000000000e+00
0.000000000000000e+00 0.000000000000000e+00 0.000000000000000e+00

0.000000000000000e+00 0.000000000000000e+00 0.000000000000000e+00
0.000000000000000e+00 0.000000000000000e+00 0.000000000000000e+00
0.000000000000000e+00 0.000000000000000e+00 0.000000000000000e+00

0.000000000000000e+00 0.000000000000000e+00 0.000000000000000e+00
0.000000000000000e+00 0.000000000000000e+00 0.000000000000000e+00
0.000000000000000e+00 0.000000000000000e+00 0.000000000000000e+00

0.000000000000000e+00 0.000000000000000e+00 0.000000000000000e+00
0.000000000000000e+00 0.000000000000000e+00 0.000000000000000e+00
0.000000000000000e+00 0.000000000000000e+00 0.000000000000000e+00

0.000000000000000e+00 0.000000000000000e+00 0.000000000000000e+00
0.000000000000000e+00 0.000000000000000e+00 0.000000000000000e+00
0.000000000000000e+00 0.000000000000000e+00 0.000000000000000e+00

0.000000000000000e+00 0.000000000000000e+00 0.000000000000000e+00
0.000000000000000e+00 0.000000000000000e+00 0.000000000000000e+00
0.000000000000000e+00 0.000000000000000e+00 0.000000000000000e+00

0.000000000000000e+00 0.000000000000000e+00 0.000000000000000e+00
0.000000000000000e+00 0.000000000000000e+00 0.000000000000000e+00
0.000000000000000e+00 0.000000000000000e+00 0.000000000000000e+00

0.000000000000000e+00 0.000000000000000e+00 0.000000000000000e+00
0.000000000000000e+00 0.000000000000000e+00 0.000000000000000e+00
0.000000000000000e+00 0.000000000000000e+00 0.000000000000000e+00

0.000000000000000e+00 0.000000000000000e+00 0.000000000000000e+00
0.000000000000000e+00 0.000000000000000e+00 0.000000000000000e+00
0.000000000000000e+00 0.000000000000000e+00 0.000000000000000e+00

0.000000000000000e+00 0.000000000000000e+00 0.000000000000000e+00
0.000000000000000e+00 0.000000000000000e+00 0.000000000000000e+00
0.000000000000000e+00 0.000000000000000e+00 0.000000000000000e+00

0.000000000000000e+00 0.000000000000000e+00 0.000000000000000e+00
0.000000000000000e+00 0.000000000000000e+00 0.000000000000000e+00
0.000000000000000e+00 0.000000000000000e+00 0.000000000000000e+00

0.000000000000000e+00 0.000000000000000e+00 0.000000000000000e+00
0.000000000000000e+00 0.000000000000000e+00 0.000000000000000e+00
0.000000000000000e+00 0.000000000000000e+00 0.000000000000000e+00

0.000000000000000e+00 0.000000000000000e+00 0.000000000000000e+00
0.000000000000000e+00 0.000000000000000e+00 0.000000000000000e+00
0.000000000000000e+00 0.000000000000000e+00 0.000000000000000e+00

0.000000000000000e+00 0.000000000000000e+00 0.000000000000000e+00
0.000000000000000e+00 0.000000000000000e+00 0.000000000000000e+00
0.000000000000000e+00 0.000000000000000e+00 0.000000000000000e+00

0.000000000000000e+00 0.000000000000000e+00 0.000000000000000e+00
0.000000000000000e+00 0.000000000000000e+00 0.000000000000000e+00
0.000000000000000e+00 0.000000000000000e+00 0.000000000000000e+00

0.000000000000000e+00 0.000000000000000e+00 0.000000000000000e+00
0.000000000000000e+00 0.000000000000000e+00 0.000000000000000e+00
0.000000000000000e+00 0.000000000000000e+00 0.000000000000000e+00

0.000000000000000e+00 0.000000000000000e+00 0.000000000000000e+00
0.000000000000000e+00 0.000000000000000e+00 0.000000000000000e+00
0.000000000000000e+00 0.000000000000000e+00 0.000000000000000e+00

0.000000000000000e+00 0.000000000000000e+00 0.000000000000000e+00
0.000000000000000e+00 0.000000000000000e+00 0.000000000000000e+00
0.000000000000000e+00 0.000000000000000e+00 0.000000000000000e+00

0.000000000000000e+00 0.000000000000000e+00 0.000000000000000e+00
0.000000000000000e+00 0.000000000000000e+00 0.000000000000000e+00
0.000000000000000e+00 0.000000000000000e+00 0.000000000000000e+00

0.000000000000000e+00 0.000000000000000e+00 0.000000000000000e+00
0.000000000000000e+00 0.000000000000000e+00 0.000000000000000e+00
0.000000000000000e+00 0.000000000000000e+00 0.000000000000000e+00

0.000000000000000e+00 0.000000000000000e+00 0.000000000000000e+00
0.000000000000000e+00 0.000000000000000e+00 0.000000000000000e+00
0.000000000000000e+00 0.000000000000000e+00 0.000000000000000e+00

0.000000000000000e+00 0.000000000000000e+00 0.000000000000000e+00
0.000000000000000e+00 0.000000000000000e+00 0.000000000000000e+00
0.000000000000000e+00 0.000000000000000e+00 0.000000000000000e+00

0.000000000000000e+00 0.000000000000000e+00 0.000000000000000e+00
0.000000000000000e+00 0.000000000000000e+00 0.000000000000000e+00
0.000000000000000e+00 0.000000000000000e+00 0.000000000000000e+00

0.000000000000000e+00 0.000000000000000e+00 0.000000000000000e+00
0.000000000000000e+00 0.000000000000000e+00 0.000000000000000e+00
0.000000000000000e+00 0.000000000000000e+00 0.000000000000000e+00

0.000000000000000e+00 0.000000000000000e+00 0.000000000000000e+00
0.000000000000000e+00 0.000000000000000e+00 0.000000000000000e+00
0.000000000000000e+00 0.000000000000000e+00 0.000000000000000e+00

0.000000000000000e+00 0.000000000000000e+00 0.000000000000000e+00
0.000000000000000e+00 0.000000000000000e+00 0.000000000000000e+00
0.000000000000000e+00 0.000000000000000e+00 0.000000000000000e+00

0.000000000000000e+00 0.000000000000000e+00 0.000000000000000e+00
0.000000000000000e+00 0.000000000000000e+00 0.000000000000000e+00
0.000000000000000e+00 0.000000000000000e+00 0.000000000000000e+00

0.000000000000000e+00 0.000000000000000e+00 0.000000000000000e+00
0.000000000000000e+00 0.000000000000000e+00 0.000000000000000e+00
0.000000000000000e+00 0.000000000000000e+00 0.000000000000000e+00

0.000000000000000e+00 0.000000000000000e+00 0.000000000000000e+00
0.000000000000000e+00 0.000000000000000e+00 0.000000000000000e+00
0.000000000000000e+00 0.000000000000000e+00 0.000000000000000e+00

0.000000000000000e+00 0.000000000000000e+00 0.000000000000000e+00
0.000000000000000e+00 0.000000000000000e+00 0.000000000000000e+00
0.000000000000000e+00 0.000000000000000e+00 0.000000000000000e+00

0.000000000000000e+00 0.000000000000000e+00 0.000000000000000e+00
0.000000000000000e+00 0.000000000000000e+00 0.000000000000000e+00
0.000000000000000e+00 0.000000000000000e+00 0.000000000000000e+00

0.000000000000000e+00 0.000000000000000e+00 0.000000000000000e+00
0.000000000000000e+00 0.000000000000000e+00 0.000000000000000e+00
0.000000000000000e+00 0.000000000000000e+00 0.000000000000000e+00

0.000000000000000e+00 0.000000000000000e+00 0.000000000000000e+00
0.000000000000000e+00 0.000000000000000e+00 0.000000000000000e+00
0.000000000000000e+00 0.000000000000000e+00 0.000000000000000e+00

0.000000000000000e+00 0.000000000000000e+00 0.000000000000000e+00
0.000000000000000e+00 0.000000000000000e+00 0.000000000000000e+00
0.000000000000000e+00 0.000000000000000e+00 0.000000000000000e+00

0.000000000000000e+00 0.000000000000000e+00 0.000000000000000e+00
0.000000000000000e+00 0.000000000000000e+00 0.000000000000000e+00
0.000000000000000e+00 0.000000000000000e+00 0.000000000000000e+00

0.000000000000000e+00 0.000000000000000e+00 0.000000000000000e+00
0.000000000000000e+00 0.000000000000000e+00 0.000000000000000e+00
0.000000000000000e+00 0.000000000000000e+00 0.000000000000000e+00

0.000000000000000e+00 0.000000000000000e+00 0.000000000000000e+00
0.000000000000000e+00 0.000000000000000e+00 0.000000000000000e+00
0.000000000000000e+00 0.000000000000000e+00 0.000000000000000e+00

0.000000000000000e+00 0.000000000000000e+00 0.000000000000000e+00
0.000000000000000e+00 0.000000000000000e+00 0.000000000000000e+00
0.000000000000000e+00 0.000000000000000e+00 0.000000000000000e+00

0.000000000000000e+00 0.000000000000000e+00 0.000000000000000e+00
0.000000000000000e+00 0.000000000000000e+00 0.000000000000000e+00
0.000000000000000e+00 0.000000000000000e+00 0.000000000000000e+00

0.000000000000000e+00 0.000000000000000e+00 0.000000000000000e+00
0.000000000000000e+00 0.000000000000000e+00 0.000000000000000e+00
0.000000000000000e+00 0.000000000000000e+00 0.000000000000000e+00

0.000000000000000e+00 0.000000000000000e+00 0.000000000000000e+00
0.000000000000000e+00 0.000000000000000e+00 0.000000000000000e+00
0.000000000000000e+00 0.000000000000000e+00 0.000000000000000e+00

0.000000000000000e+00 0.000000000000000e+00 0.000000000000000e+00
0.000000000000000e+00 0.000000000000000e+00 0.000000000000000e+00
0.000000000000000e+00 0.000000000000000e+00 0.000000000000000e+00

0.000000000000000e+00 0.000000000000000e+00 0.000000000000000e+00
0.000000000000000e+00 0.000000000000000e+00 0.000000000000000e+00
0.000000000000000e+00 0.000000000000000e+00 0.000000000000000e+00

0.000000000000000e+00 0.000000000000000e+00 0.000000000000000e+00
0.000000000000000e+00 0.000000000000000e+00 0.000000000000000e+00
0.000000000000000e+00 0.000000000000000e+00 0.000000000000000e+00

0.000000000000000e+00 0.000000000000000e+00 0.000000000000000e+00
0.000000000000000e+00 0.000000000000000e+00 0.000000000000000e+00
0.000000000000000e+00 0.000000000000000e+00 0.000000000000000e+00

0.000000000000000e+00 0.000000000000000e+00 0.000000000000000e+00
0.000000000000000e+00 0.000000000000000e+00 0.000000000000000e+00
0.000000000000000e+00 0.000000000000000e+00 0.000000000000000e+00

0.000000000000000e+00 0.000000000000000e+00 0.000000000000000e+00
0.000000000000000e+00 0.000000000000000e+00 0.000000000000000e+00
0.000000000000000e+00 0.000000000000000e+00 0.000000000000000e+00

0.000000000000000e+00 0.000000000000000e+00 0.000000000000000e+00
0.000000000000000e+00 0.000000000000000e+00 0.000000000000000e+00
0.000000000000000e+00 0.000000000000000e+00 0.000000000000000e+00

0.000000000000000e+00 0.000000000000000e+00 0.000000000000000e+00
0.000000000000000e+00 0.000000000000000e+00 0.000000000000000e+00
0.000000000000000e+00 0.000000000000000e+00 0.000000000000000e+00

0.000000000000000e+00 0.000000000000000e+00 0.000000000000000e+00
0.000000000000000e+00 0.000000000000000e+00 0.000000000000000e+00
0.000000000000000e+00 0.000000000000000e+00 0.000000000000000e+00

0.000000000000000e+00 0.000000000000000e+00 0.000000000000000e+00
0.000000000000000e+00 0.000000000000000e+00 0.000000000000000e+00
0.000000000000000e+00 0.000000000000000e+00 0.000000000000000e+00

0.000000000000000e+00 0.000000000000000e+00 0.000000000000000e+00
0.000000000000000e+00 0.000000000000000e+00 0.000000000000000e+00
0.000000000000000e+00 0.000000000000000e+00 0.000000000000000e+00

0.000000000000000e+00 0.000000000000000e+00 0.000000000000000e+00
0.000000000000000e+00 0.000000000000000e+00 0.000000000000000e+00
0.000000000000000e+00 0.000000000000000e+00 0.000000000000000e+00

0.000000000000000e+00 0.000000000000000e+00 0.000000000000000e+00
0.000000000000000e+00 0.000000000000000e+00 0.000000000000000e+00
0.000000000000000e+00 0.000000000000000e+00 0.000000000000000e+00

0.000000000000000e+00 0.000000000000000e+00 0.000000000000000e+00
0.000000000000000e+00 0.000000000000000e+00 0.000000000000000e+00
0.000000000000000e+00 0.000000000000000e+00 0.000000000000000e+00

0.000000000000000e+00 0.000000000000000e+00 0.000000000000000e+00
0.000000000000000e+00 0.000000000000000e+00 0.000000000000000e+00
0.000000000000000e+00 0.000000000000000e+00 0.000000000000000e+00

0.000000000000000e+00 0.000000000000000e+00 0.000000000000000e+00
0.000000000000000e+00 0.000000000000000e+00 0.000000000000000e+00
0.000000000000000e+00 0.000000000000000e+00 0.000000000000000e+00

0.000000000000000e+00 0.000000000000000e+00 0.000000000000000e+00
0.000000000000000e+00 0.000000000000000e+00 0.000000000000000e+00
0.000000000000000e+00 0.000000000000000e+00 0.000000000000000e+00

0.000000000000000e+00 0.000000000000000e+00 0.000000000000000e+00
0.000000000000000e+00 0.000000000000000e+00 0.000000000000000e+00
0.000000000000000e+00 0.000000000000000e+00 0.000000000000000e+00

0.000000000000000e+00 0.000000000000000e+00 0.000000000000000e+00
0.000000000000000e+00 0.000000000000000e+00 0.000000000000000e+00
0.000000000000000e+00 0.000000000000000e+00 0.000000000000000e+00

0.000000000000000e+00 0.000000000000000e+00 0.000000000000000e+00
0.000000000000000e+00 0.000000000000000e+00 0.000000000000000e+00
0.000000000000000e+00 0.000000000000000e+00 0.000000000000000e+00

0.000000000000000e+00 0.000000000000000e+00 0.000000000000000e+00
0.000000000000000e+00 0.000000000000000e+00 0.000000000000000e+00
0.000000000000000e+00 0.000000000000000e+00 0.000000000000000e+00

0.000000000000000e+00 0.000000000000000e+00 0.000000000000000e+00
0.000000000000000e+00 0.000000000000000e+00 0.000000000000000e+00
0.000000000000000e+00 0.000000000000000e+00 0.000000000000000e+00

0.000000000000000e+00 0.000000000000000e+00 0.000000000000000e+00
0.000000000000000e+00 0.000000000000000e+00 0.000000000000000e+00
0.000000000000000e+00 0.000000000000000e+00 0.000000000000000e+00

0.000000000000000e+00 0.000000000000000e+00 0.000000000000000e+00
0.000000000000000e+00 0.000000000000000e+00 0.000000000000000e+00
0.000000000000000e+00 0.000000000000000e+00 0.000000000000000e+00

0.000000000000000e+00 0.000000000000000e+00 0.000000000000000e+00
0.000000000000000e+00 0.000000000000000e+00 0.000000000000000e+00
0.000000000000000e+00 0.000000000000000e+00 0.000000000000000e+00

0.000000000000000e+00 0.000000000000000e+00 0.000000000000000e+00
0.000000000000000e+00 0.000000000000000e+00 0.000000000000000e+00
0.000000000000000e+00 0.000000000000000e+00 0.000000000000000e+00

0.000000000000000e+00 0.000000000000000e+00 0.000000000000000e+00
0.000000000000000e+00 0.000000000000000e+00 0.000000000000000e+00
0.000000000000000e+00 0.000000000000000e+00 0.000000000000000e+00

0.000000000000000e+00 0.000000000000000e+00 0.000000000000000e+00
0.000000000000000e+00 0.000000000000000e+00 0.000000000000000e+00
0.000000000000000e+00 0.000000000000000e+00 0.000000000000000e+00

0.000000000000000e+00 0.000000000000000e+00 0.000000000000000e+00
0.000000000000000e+00 0.000000000000000e+00 0.000000000000000e+00
0.000000000000000e+00 0.000000000000000e+00 0.000000000000000e+00

0.000000000000000e+00 0.000000000000000e+00 0.000000000000000e+00
0.000000000000000e+00 0.000000000000000e+00 0.000000000000000e+00
0.000000000000000e+00 0.000000000000000e+00 0.000000000000000e+00

0.000000000000000e+00 0.000000000000000e+00 0.000000000000000e+00
0.000000000000000e+00 0.000000000000000e+00 0.000000000000000e+00
0.000000000000000e+00 0.000000000000000e+00 0.000000000000000e+00

0.000000000000000e+00 0.000000000000000e+00 0.000000000000000e+00
0.000000000000000e+00 0.000000000000000e+00 0.000000000000000e+00
0.000000000000000e+00 0.000000000000000e+00 0.000000000000000e+00

0.000000000000000e+00 0.000000000000000e+00 0.000000000000000e+00
0.000000000000000e+00 0.000000000000000e+00 0.000000000000000e+00
0.000000000000000e+00 0.000000000000000e+00 0.000000000000000e+00

0.000000000000000e+00 0.000000000000000e+00 0.000000000000000e+00
0.000000000000000e+00 0.000000000000000e+00 0.000000000000000e+00
0.000000000000000e+00 0.000000000000000e+00 0.000000000000000e+00

0.000000000000000e+00 0.000000000000000e+00 0.000000000000000e+00
0.000000000000000e+00 0.000000000000000e+00 0.000000000000000e+00
0.000000000000000e+00 0.000000000000000e+00 0.000000000000000e+00

0.000000000000000e+00 0.000000000000000e+00 0.000000000000000e+00
0.000000000000000e+00 0.000000000000000e+00 0.000000000000000e+00
0.000000000000000e+00 0.000000000000000e+00 0.000000000000000e+00

0.000000000000000e+00 0.000000000000000e+00 0.000000000000000e+00
0.000000000000000e+00 0.000000000000000e+00 0.000000000000000e+00
0.000000000000000e+00 0.000000000000000e+00 0.000000000000000e+00

0.000000000000000e+00 0.000000000000000e+00 0.000000000000000e+00
0.000000000000000e+00 0.000000000000000e+00 0.000000000000000e+00
0.000000000000000e+00 0.000000000000000e+00 0.000000000000000e+00

0.000000000000000e+00 0.000000000000000e+00 0.000000000000000e+00
0.000000000000000e+00 0.000000000000000e+00 0.000000000000000e+00
0.000000000000000e+00 0.000000000000000e+00 0.000000000000000e+00

0.000000000000000e+00 0.000000000000000e+00 0.000000000000000e+00
0.000000000000000e+00 0.000000000000000e+00 0.000000000000000e+00
0.000000000000000e+00 0.000000000000000e+00 0.000000000000000e+00

0.000000000000000e+00 0.000000000000000e+00 0.000000000000000e+00
0.000000000000000e+00 0.000000000000000e+00 0.000000000000000e+00
0.000000000000000e+00 0.000000000000000e+00 0.000000000000000e+00

0.000000000000000e+00 0.000000000000000e+00 0.000000000000000e+00
0.000000000000000e+00 0.000000000000000e+00 0.000000000000000e+00
0.000000000000000e+00 0.000000000000000e+00 0.000000000000000e+00

0.000000000000000e+00 0.000000000000000e+00 0.000000000000000e+00
0.000000000000000e+00 0.000000000000000e+00 0.000000000000000e+00
0.000000000000000e+00 0.000000000000000e+00 0.000000000000000e+00

0.000000000000000e+00 0.000000000000000e+00 0.000000000000000e+00
0.000000000000000e+00 0.000000000000000e+00 0.000000000000000e+00
0.000000000000000e+00 0.000000000000000e+00 0.000000000000000e+00

0.000000000000000e+00 0.000000000000000e+00 0.000000000000000e+00
0.000000000000000e+00 0.000000000000000e+00 0.000000000000000e+00
0.000000000000000e+00 0.000000000000000e+00 0.000000000000000e+00

0.000000000000000e+00 0.000000000000000e+00 0.000000000000000e+00
0.000000000000000e+00 0.000000000000000e+00 0.000000000000000e+00
0.000000000000000e+00 0.000000000000000e+00 0.000000000000000e+00

0.000000000000000e+00 0.000000000000000e+00 0.000000000000000e+00
0.000000000000000e+00 0.000000000000000e+00 0.000000000000000e+00
0.000000000000000e+00 0.000000000000000e+00 0.000000000000000e+00

0.000000000000000e+00 0.000000000000000e+00 0.000000000000000e+00
0.000000000000000e+00 0.000000000000000e+00 0.000000000000000e+00
0.000000000000000e+00 0.000000000000000e+00 0.000000000000000e+00

0.000000000000000e+00 0.000000000000000e+00 0.000000000000000e+00
0.000000000000000e+00 0.000000000000000e+00 0.000000000000000e+00
0.000000000000000e+00 0.000000000000000e+00 0.000000000000000e+00

0.000000000000000e+00 0.000000000000000e+00 0.000000000000000e+00
0.000000000000000e+00 0.000000000000000e+00 0.000000000000000e+00
0.000000000000000e+00 0.000000000000000e+00 0.000000000000000e+00

0.000000000000000e+00 0.000000000000000e+00 0.000000000000000e+00
0.000000000000000e+00 0.000000000000000e+00 0.000000000000000e+00
0.000000000000000e+00 0.000000000000000e+00 0.000000000000000e+00

0.000000000000000e+00 0.000000000000000e+00 0.000000000000000e+00
0.000000000000000e+00 0.000000000000000e+00 0.000000000000000e+00
0.000000000000000e+00 0.000000000000000e+00 0.000000000000000e+00

0.000000000000000e+00 0.000000000000000e+00 0.000000000000000e+00
0.000000000000000e+00 0.000000000000000e+00 0.000000000000000e+00
0.000000000000000e+00 0.000000000000000e+00 0.000000000000000e+00

0.000000000000000e+00 0.000000000000000e+00 0.000000000000000e+00
0.000000000000000e+00 0.000000000000000e+00 0.000000000000000e+00
0.000000000000000e+00 0.000000000000000e+00 0.000000000000000e+00

0.000000000000000e+00 0.000000000000000e+00 0.000000000000000e+00
0.000000000000000e+00 0.000000000000000e+00 0.000000000000000e+00
0.000000000000000e+00 0.000000000000000e+00 0.000000000000000e+00

0.000000000000000e+00 0.000000000000000e+00 0.000000000000000e+00
0.000000000000000e+00 0.000000000000000e+00 0.000000000000000e+00
0.000000000000000e+00 0.000000000000000e+00 0.000000000000000e+00

0.000000000000000e+00 0.000000000000000e+00 0.000000000000000e+00
0.000000000000000e+00 0.000000000000000e+00 0.000000000000000e+00
0.000000000000000e+00 0.000000000000000e+00 0.000000000000000e+00

0.000000000000000e+00 0.000000000000000e+00 0.000000000000000e+00
0.000000000000000e+00 0.000000000000000e+00 0.000000000000000e+00
0.000000000000000e+00 0.000000000000000e+00 0.000000000000000e+00

0.000000000000000e+00 0.000000000000000e+00 0.000000000000000e+00
0.000000000000000e+00 0.000000000000000e+00 0.000000000000000e+00
0.000000000000000e+00 0.000000000000000e+00 0.000000000000000e+00

0.000000000000000e+00 0.000000000000000e+00 0.000000000000000e+00
0.000000000000000e+00 0.000000000000000e+00 0.000000000000000e+00
0.000000000000000e+00 0.000000000000000e+00 0.000000000000000e+00

0.000000000000000e+00 0.000000000000000e+00 0.000000000000000e+00
0.000000000000000e+00 0.000000000000000e+00 0.000000000000000e+00
0.000000000000000e+00 0.000000000000000e+00 0.000000000000000e+00

0.000000000000000e+00 0.000000000000000e+00 0.000000000000000e+00
0.000000000000000e+00 0.000000000000000e+00 0.000000000000000e+00
0.000000000000000e+00 0.000000000000000e+00 0.000000000000000e+00

0.000000000000000e+00 0.000000000000000e+00 0.000000000000000e+00
0.000000000000000e+00 0.000000000000000e+00 0.000000000000000e+00
0.000000000000000e+00 0.000000000000000e+00 0.000000000000000e+00

0.000000000000000e+00 0.000000000000000e+00 0.000000000000000e+00
0.000000000000000e+00 0.000000000000000e+00 0.000000000000000e+00
0.000000000000000e+00 0.000000000000000e+00 0.000000000000000e+00

0.000000000000000e+00 0.000000000000000e+00 0.000000000000000e+00
0.000000000000000e+00 0.000000000000000e+00 0.000000000000000e+00
0.000000000000000e+00 0.000000000000000e+00 0.000000000000000e+00

0.000000000000000e+00 0.000000000000000e+00 0.000000000000000e+00
0.000000000000000e+00 0.000000000000000e+00 0.000000000000000e+00
0.000000000000000e+00 0.000000000000000e+00 0.000000000000000e+00

0.000000000000000e+00 0.000000000000000e+00 0.000000000000000e+00
0.000000000000000e+00 0.000000000000000e+00 0.000000000000000e+00
0.000000000000000e+00 0.000000000000000e+00 0.000000000000000e+00

0.000000000000000e+00 0.000000000000000e+00 0.000000000000000e+00
0.000000000000000e+00 0.000000000000000e+00 0.000000000000000e+00
0.000000000000000e+00 0.000000000000000e+00 0.000000000000000e+00

0.000000000000000e+00 0.000000000000000e+00 0.000000000000000e+00
0.000000000000000e+00 0.000000000000000e+00 0.000000000000000e+00
0.000000000000000e+00 0.000000000000000e+00 0.000000000000000e+00

0.000000000000000e+00 0.000000000000000e+00 0.000000000000000e+00
0.000000000000000e+00 0.000000000000000e+00 0.000000000000000e+00
0.000000000000000e+00 0.000000000000000e+00 0.000000000000000e+00

0.000000000000000e+00 0.000000000000000e+00 0.000000000000000e+00
0.000000000000000e+00 0.000000000000000e+00 0.000000000000000e+00
0.000000000000000e+00 0.000000000000000e+00 0.000000000000000e+00

0.000000000000000e+00 0.000000000000000e+00 0.000000000000000e+00
0.000000000000000e+00 0.000000000000000e+00 0.000000000000000e+00
0.000000000000000e+00 0.000000000000000e+00 0.000000000000000e+00

0.000000000000000e+00 0.000000000000000e+00 0.000000000000000e+00
0.000000000000000e+00 0.000000000000000e+00 0.000000000000000e+00
0.000000000000000e+00 0.000000000000000e+00 0.000000000000000e+00

0.000000000000000e+00 0.000000000000000e+00 0.000000000000000e+00
0.000000000000000e+00 0.000000000000000e+00 0.000000000000000e+00
0.000000000000000e+00 0.000000000000000e+00 0.000000000000000e+00

0.000000000000000e+00 0.000000000000000e+00 0.000000000000000e+00
0.000000000000000e+00 0.000000000000000e+00 0.000000000000000e+00
0.000000000000000e+00 0.000000000000000e+00 0.000000000000000e+00

0.000000000000000e+00 0.000000000000000e+00 0.000000000000000e+00
0.000000000000000e+00 0.000000000000000e+00 0.000000000000000e+00
0.000000000000000e+00 0.000000000000000e+00 0.000000000000000e+00

0.000000000000000e+00 0.000000000000000e+00 0.000000000000000e+00
0.000000000000000e+00 0.000000000000000e+00 0.000000000000000e+00
0.000000000000000e+00 0.000000000000000e+00 0.000000000000000e+00

0.000000000000000e+00 0.000000000000000e+00 0.000000000000000e+00
0.000000000000000e+00 0.000000000000000e+00 0.000000000000000e+00
0.000000000000000e+00 0.000000000000000e+00 0.000000000000000e+00

0.000000000000000e+00 0.000000000000000e+00 0.000000000000000e+00
0.000000000000000e+00 0.000000000000000e+00 0.000000000000000e+00
0.000000000000000e+00 0.000000000000000e+00 0.000000000000000e+00

0.000000000000000e+00 0.000000000000000e+00 0.000000000000000e+00
0.000000000000000e+00 0.000000000000000e+00 0.000000000000000e+00
0.000000000000000e+00 0.000000000000000e+00 0.000000000000000e+00

0.000000000000000e+00 0.000000000000000e+00 0.000000000000000e+00
0.000000000000000e+00 0.000000000000000e+00 0.000000000000000e+00
0.000000000000000e+00 0.000000000000000e+00 0.000000000000000e+00

0.000000000000000e+00 0.000000000000000e+00 0.000000000000000e+00
0.000000000000000e+00 0.000000000000000e+00 0.000000000000000e+00
0.000000000000000e+00 0.000000000000000e+00 0.000000000000000e+00

0.000000000000000e+00 0.000000000000000e+00 0.000000000000000e+00
0.000000000000000e+00 0.000000000000000e+00 0.000000000000000e+00
0.000000000000000e+00 0.000000000000000e+00 0.000000000000000e+00

0.000000000000000e+00 0.000000000000000e+00 0.000000000000000e+00
0.000000000000000e+00 0.000000000000000e+00 0.000000000000000e+00
0.000000000000000e+00 0.000000000000000e+00 0.000000000000000e+00

0.000000000000000e+00 0.000000000000000e+00 0.000000000000000e+00
0.000000000000000e+00 0.000000000000000e+00 0.000000000000000e+00
0.000000000000000e+00 0.000000000000000e+00 0.000000000000000e+00

0.000000000000000e+00 0.000000000000000e+00 0.000000000000000e+00
0.000000000000000e+00 0.000000000000000e+00 0.000000000000000e+00
0.000000000000000e+00 0.000000000000000e+00 0.000000000000000e+00

0.000000000000000e+00 0.000000000000000e+00 0.000000000000000e+00
0.000000000000000e+00 0.000000000000000e+00 0.000000000000000e+00
0.000000000000000e+00 0.000000000000000e+00 0.000000000000000e+00

0.000000000000000e+00 0.000000000000000e+00 0.000000000000000e+00
0.000000000000000e+00 0.000000000000000e+00 0.000000000000000e+00
0.000000000000000e+00 0.000000000000000e+00 0.000000000000000e+00

0.000000000000000e+00 0.000000000000000e+00 0.000000000000000e+00
0.000000000000000e+00 0.000000000000000e+00 0.000000000000000e+00
0.000000000000000e+00 0.000000000000000e+00 0.000000000000000e+00

0.000000000000000e+00 0.000000000000000e+00 0.000000000000000e+00
0.000000000000000e+00 0.000000000000000e+00 0.000000000000000e+00
0.000000000000000e+00 0.000000000000000e+00 0.000000000000000e+00

0.000000000000000e+00 0.000000000000000e+00 0.000000000000000e+00
0.000000000000000e+00 0.000000000000000e+00 0.000000000000000e+00
0.000000000000000e+00 0.000000000000000e+00 0.000000000000000e+00

0.000000000000000e+00 0.000000000000000e+00 0.000000000000000e+00
0.000000000000000e+00 0.000000000000000e+00 0.000000000000000e+00
0.000000000000000e+00 0.000000000000000e+00 0.000000000000000e+00

0.000000000000000e+00 0.000000000000000e+00 0.000000000000000e+00
0.000000000000000e+00 0.000000000000000e+00 0.000000000000000e+00
0.000000000000000e+00 0.000000000000000e+00 0.000000000000000e+00

0.000000000000000e+00 0.000000000000000e+00 0.000000000000000e+00
0.000000000000000e+00 0.000000000000000e+00 0.000000000000000e+00
0.000000000000000e+00 0.000000000000000e+00 0.000000000000000e+00

0.000000000000000e+00 0.000000000000000e+00 0.000000000000000e+00
0.000000000000000e+00 0.000000000000000e+00 0.000000000000000e+00
0.000000000000000e+00 0.000000000000000e+00 0.000000000000000e+00

0.000000000000000e+00 0.000000000000000e+00 0.000000000000000e+00
0.000000000000000e+00 0.000000000000000e+00 0.000000000000000e+00
0.000000000000000e+00 0.000000000000000e+00 0.000000000000000e+00

0.000000000000000e+00 0.000000000000000e+00 0.000000000000000e+00
0.000000000000000e+00 0.000000000000000e+00 0.000000000000000e+00
0.000000000000000e+00 0.000000000000000e+00 0.000000000000000e+00

0.000000000000000e+00 0.000000000000000e+00 0.000000000000000e+00
0.000000000000000e+00 0.000000000000000e+00 0.000000000000000e+00
0.000000000000000e+00 0.000000000000000e+00 0.000000000000000e+00

0.000000000000000e+00 0.000000000000000e+00 0.000000000000000e+00
0.000000000000000e+00 0.000000000000000e+00 0.000000000000000e+00
0.000000000000000e+00 0.000000000000000e+00 0.000000000000000e+00

0.000000000000000e+00 0.000000000000000e+00 0.000000000000000e+00
0.000000000000000e+00 0.000000000000000e+00 0.000000000000000e+00
0.000000000000000e+00 0.000000000000000e+00 0.000000000000000e+00

0.000000000000000e+00 0.000000000000000e+00 0.000000000000000e+00
0.000000000000000e+00 0.000000000000000e+00 0.000000000000000e+00
0.000000000000000e+00 0.000000000000000e+00 0.000000000000000e+00

0.000000000000000e+00 0.000000000000000e+00 0.000000000000000e+00
0.000000000000000e+00 0.000000000000000e+00 0.000000000000000e+00
0.000000000000000e+00 0.000000000000000e+00 0.000000000000000e+00

0.000000000000000e+00 0.000000000000000e+00 0.000000000000000e+00
0.000000000000000e+00 0.000000000000000e+00 0.000000000000000e+00
0.000000000000000e+00 0.000000000000000e+00 0.000000000000000e+00

0.000000000000000e+00 0.000000000000000e+00 0.000000000000000e+00
0.000000000000000e+00 0.000000000000000e+00 0.000000000000000e+00
0.000000000000000e+00 0.000000000000000e+00 0.000000000000000e+00

0.000000000000000e+00 0.000000000000000e+00 0.000000000000000e+00
0.000000000000000e+00 0.000000000000000e+00 0.000000000000000e+00
0.000000000000000e+00 0.000000000000000e+00 0.000000000000000e+00

0.000000000000000e+00 0.000000000000000e+00 0.000000000000000e+00
0.000000000000000e+00 0.000000000000000e+00 0.000000000000000e+00
0.000000000000000e+00 0.000000000000000e+00 0.000000000000000e+00

0.000000000000000e+00 0.000000000000000e+00 0.000000000000000e+00
0.000000000000000e+00 0.000000000000000e+00 0.000000000000000e+00
0.000000000000000e+00 0.000000000000000e+00 0.000000000000000e+00

0.000000000000000e+00 0.000000000000000e+00 0.000000000000000e+00
0.000000000000000e+00 0.000000000000000e+00 0.000000000000000e+00
0.000000000000000e+00 0.000000000000000e+00 0.000000000000000e+00

0.000000000000000e+00 0.000000000000000e+00 0.000000000000000e+00
0.000000000000000e+00 0.000000000000000e+00 0.000000000000000e+00
0.000000000000000e+00 0.000000000000000e+00 0.000000000000000e+00

0.000000000000000e+00 0.000000000000000e+00 0.000000000000000e+00
0.000000000000000e+00 0.000000000000000e+00 0.000000000000000e+00
0.000000000000000e+00 0.000000000000000e+00 0.000000000000000e+00

0.000000000000000e+00 0.000000000000000e+00 0.000000000000000e+00
0.000000000000000e+00 0.000000000000000e+00 0.000000000000000e+00
0.000000000000000e+00 0.000000000000000e+00 0.000000000000000e+00

0.000000000000000e+00 0.000000000000000e+00 0.000000000000000e+00
0.000000000000000e+00 0.000000000000000e+00 0.000000000000000e+00
0.000000000000000e+00 0.000000000000000e+00 0.000000000000000e+00

0.000000000000000e+00 0.000000000000000e+00 0.000000000000000e+00
0.000000000000000e+00 0.000000000000000e+00 0.000000000000000e+00
0.000000000000000e+00 0.000000000000000e+00 0.000000000000000e+00

0.000000000000000e+00 0.000000000000000e+00 0.000000000000000e+00
0.000000000000000e+00 0.000000000000000e+00 0.000000000000000e+00
0.000000000000000e+00 0.000000000000000e+00 0.000000000000000e+00

0.000000000000000e+00 0.000000000000000e+00 0.000000000000000e+00
0.000000000000000e+00 0.000000000000000e+00 0.000000000000000e+00
0.000000000000000e+00 0.000000000000000e+00 0.000000000000000e+00

0.000000000000000e+00 0.000000000000000e+00 0.000000000000000e+00
0.000000000000000e+00 0.000000000000000e+00 0.000000000000000e+00
0.000000000000000e+00 0.000000000000000e+00 0.000000000000000e+00

0.000000000000000e+00 0.000000000000000e+00 0.000000000000000e+00
0.000000000000000e+00 0.000000000000000e+00 0.000000000000000e+00
0.000000000000000e+00 0.000000000000000e+00 0.000000000000000e+00

0.000000000000000e+00 0.000000000000000e+00 0.000000000000000e+00
0.000000000000000e+00 0.000000000000000e+00 0.000000000000000e+00
0.000000000000000e+00 0.000000000000000e+00 0.000000000000000e+00

0.000000000000000e+00 0.000000000000000e+00 0.000000000000000e+00
0.000000000000000e+00 0.000000000000000e+00 0.000000000000000e+00
0.000000000000000e+00 0.000000000000000e+00 0.000000000000000e+00

0.000000000000000e+00 0.000000000000000e+00 0.000000000000000e+00
0.000000000000000e+00 0.000000000000000e+00 0.000000000000000e+00
0.000000000000000e+00 0.000000000000000e+00 0.000000000000000e+00

0.000000000000000e+00 0.000000000000000e+00 0.000000000000000e+00
0.000000000000000e+00 0.000000000000000e+00 0.000000000000000e+00
0.000000000000000e+00 0.000000000000000e+00 0.000000000000000e+00

0.000000000000000e+00 0.000000000000000e+00 0.000000000000000e+00
0.000000000000000e+00 0.000000000000000e+00 0.000000000000000e+00
0.000000000000000e+00 0.000000000000000e+00 0.000000000000000e+00

0.000000000000000e+00 0.000000000000000e+00 0.000000000000000e+00
0.000000000000000e+00 0.000000000000000e+00 0.000000000000000e+00
0.000000000000000e+00 0.000000000000000e+00 0.000000000000000e+00

0.000000000000000e+00 0.000000000000000e+00 0.000000000000000e+00
0.000000000000000e+00 0.000000000000000e+00 0.000000000000000e+00
0.000000000000000e+00 0.000000000000000e+00 0.000000000000000e+00

0.000000000000000e+00 0.000000000000000e+00 0.000000000000000e+00
0.000000000000000e+00 0.000000000000000e+00 0.000000000000000e+00
0.000000000000000e+00 0.000000000000000e+00 0.000000000000000e+00

0.000000000000000e+00 0.000000000000000e+00 0.000000000000000e+00
0.000000000000000e+00 0.000000000000000e+00 0.000000000000000e+00
0.000000000000000e+00 0.000000000000000e+00 0.000000000000000e+00

0.000000000000000e+00 0.000000000000000e+00 0.000000000000000e+00
0.000000000000000e+00 0.000000000000000e+00 0.000000000000000e+00
0.000000000000000e+00 0.000000000000000e+00 0.000000000000000e+00

0.000000000000000e+00 0.000000000000000e+00 0.000000000000000e+00
0.000000000000000e+00 0.000000000000000e+00 0.000000000000000e+00
0.000000000000000e+00 0.000000000000000e+00 0.000000000000000e+00

0.000000000000000e+00 0.000000000000000e+00 0.000000000000000e+00
0.000000000000000e+00 0.000000000000000e+00 0.000000000000000e+00
0.000000000000000e+00 0.000000000000000e+00 0.000000000000000e+00

0.000000000000000e+00 0.000000000000000e+00 0.000000000000000e+00
0.000000000000000e+00 0.000000000000000e+00 0.000000000000000e+00
0.000000000000000e+00 0.000000000000000e+00 0.000000000000000e+00

0.000000000000000e+00 0.000000000000000e+00 0.000000000000000e+00
0.000000000000000e+00 0.000000000000000e+00 0.000000000000000e+00
0.000000000000000e+00 0.000000000000000e+00 0.000000000000000e+00

0.000000000000000e+00 0.000000000000000e+00 0.000000000000000e+00
0.000000000000000e+00 0.000000000000000e+00 0.000000000000000e+00
0.000000000000000e+00 0.000000000000000e+00 0.000000000000000e+00

0.000000000000000e+00 0.000000000000000e+00 0.000000000000000e+00
0.000000000000000e+00 0.000000000000000e+00 0.000000000000000e+00
0.000000000000000e+00 0.000000000000000e+00 0.000000000000000e+00

0.000000000000000e+00 0.000000000000000e+00 0.000000000000000e+00
0.000000000000000e+00 0.000000000000000e+00 0.000000000000000e+00
0.000000000000000e+00 0.000000000000000e+00 0.000000000000000e+00

0.000000000000000e+00 0.000000000000000e+00 0.000000000000000e+00
0.000000000000000e+00 0.000000000000000e+00 0.000000000000000e+00
0.000000000000000e+00 0.000000000000000e+00 0.000000000000000e+00

0.000000000000000e+00 0.000000000000000e+00 0.000000000000000e+00
0.000000000000000e+00 0.000000000000000e+00 0.000000000000000e+00
0.000000000000000e+00 0.000000000000000e+00 0.000000000000000e+00

0.000000000000000e+00 0.000000000000000e+00 0.000000000000000e+00
0.000000000000000e+00 0.000000000000000e+00 0.000000000000000e+00
0.000000000000000e+00 0.000000000000000e+00 0.000000000000000e+00

0.000000000000000e+00 0.000000000000000e+00 0.000000000000000e+00
0.000000000000000e+00 0.000000000000000e+00 0.000000000000000e+00
0.000000000000000e+00 0.000000000000000e+00 0.000000000000000e+00

0.000000000000000e+00 0.000000000000000e+00 0.000000000000000e+00
0.000000000000000e+00 0.000000000000000e+00 0.000000000000000e+00
0.000000000000000e+00 0.000000000000000e+00 0.000000000000000e+00

0.000000000000000e+00 0.000000000000000e+00 0.000000000000000e+00
0.000000000000000e+00 0.000000000000000e+00 0.000000000000000e+00
0.000000000000000e+00 0.000000000000000e+00 0.000000000000000e+00

0.000000000000000e+00 0.000000000000000e+00 0.000000000000000e+00
0.000000000000000e+00 0.000000000000000e+00 0.000000000000000e+00
0.000000000000000e+00 0.000000000000000e+00 0.000000000000000e+00

0.000000000000000e+00 0.000000000000000e+00 0.000000000000000e+00
0.000000000000000e+00 0.000000000000000e+00 0.000000000000000e+00
0.000000000000000e+00 0.000000000000000e+00 0.000000000000000e+00

0.000000000000000e+00 0.000000000000000e+00 0.000000000000000e+00
0.000000000000000e+00 0.000000000000000e+00 0.000000000000000e+00
0.000000000000000e+00 0.000000000000000e+00 0.000000000000000e+00

0.000000000000000e+00 0.000000000000000e+00 0.000000000000000e+00
0.000000000000000e+00 0.000000000000000e+00 0.000000000000000e+00
0.000000000000000e+00 0.000000000000000e+00 0.000000000000000e+00

0.000000000000000e+00 0.000000000000000e+00 0.000000000000000e+00
0.000000000000000e+00 0.000000000000000e+00 0.000000000000000e+00
0.000000000000000e+00 0.000000000000000e+00 0.000000000000000e+00

0.000000000000000e+00 0.000000000000000e+00 0.000000000000000e+00
0.000000000000000e+00 0.000000000000000e+00 0.000000000000000e+00
0.000000000000000e+00 0.000000000000000e+00 0.000000000000000e+00

0.000000000000000e+00 0.000000000000000e+00 0.000000000000000e+00
0.000000000000000e+00 0.000000000000000e+00 0.000000000000000e+00
0.000000000000000e+00 0.000000000000000e+00 0.000000000000000e+00

0.000000000000000e+00 0.000000000000000e+00 0.000000000000000e+00
0.000000000000000e+00 0.000000000000000e+00 0.000000000000000e+00
0.000000000000000e+00 0.000000000000000e+00 0.000000000000000e+00

0.000000000000000e+00 0.000000000000000e+00 0.000000000000000e+00
0.000000000000000e+00 0.000000000000000e+00 0.000000000000000e+00
0.000000000000000e+00 0.000000000000000e+00 0.000000000000000e+00

0.000000000000000e+00 0.000000000000000e+00 0.000000000000000e+00
0.000000000000000e+00 0.000000000000000e+00 0.000000000000000e+00
0.000000000000000e+00 0.000000000000000e+00 0.000000000000000e+00

0.000000000000000e+00 0.000000000000000e+00 0.000000000000000e+00
0.000000000000000e+00 0.000000000000000e+00 0.000000000000000e+00
0.000000000000000e+00 0.000000000000000e+00 0.000000000000000e+00

0.000000000000000e+00 0.000000000000000e+00 0.000000000000000e+00
0.000000000000000e+00 0.000000000000000e+00 0.000000000000000e+00
0.000000000000000e+00 0.000000000000000e+00 0.000000000000000e+00

0.000000000000000e+00 0.000000000000000e+00 0.000000000000000e+00
0.000000000000000e+00 0.000000000000000e+00 0.000000000000000e+00
0.000000000000000e+00 0.000000000000000e+00 0.000000000000000e+00

0.000000000000000e+00 0.000000000000000e+00 0.000000000000000e+00
0.000000000000000e+00 0.000000000000000e+00 0.000000000000000e+00
0.000000000000000e+00 0.000000000000000e+00 0.000000000000000e+00

0.000000000000000e+00 0.000000000000000e+00 0.000000000000000e+00
0.000000000000000e+00 0.000000000000000e+00 0.000000000000000e+00
0.000000000000000e+00 0.000000000000000e+00 0.000000000000000e+00

0.000000000000000e+00 0.000000000000000e+00 0.000000000000000e+00
0.000000000000000e+00 0.000000000000000e+00 0.000000000000000e+00
0.000000000000000e+00 0.000000000000000e+00 0.000000000000000e+00

0.000000000000000e+00 0.000000000000000e+00 0.000000000000000e+00
0.000000000000000e+00 0.000000000000000e+00 0.000000000000000e+00
0.000000000000000e+00 0.000000000000000e+00 0.000000000000000e+00

0.000000000000000e+00 0.000000000000000e+00 0.000000000000000e+00
0.000000000000000e+00 0.000000000000000e+00 0.000000000000000e+00
0.000000000000000e+00 0.000000000000000e+00 0.000000000000000e+00

0.000000000000000e+00 0.000000000000000e+00 0.000000000000000e+00
0.000000000000000e+00 0.000000000000000e+00 0.000000000000000e+00
0.000000000000000e+00 0.000000000000000e+00 0.000000000000000e+00

0.000000000000000e+00 0.000000000000000e+00 0.000000000000000e+00
0.000000000000000e+00 0.000000000000000e+00 0.000000000000000e+00
0.000000000000000e+00 0.000000000000000e+00 0.000000000000000e+00

0.000000000000000e+00 0.000000000000000e+00 0.000000000000000e+00
0.000000000000000e+00 0.000000000000000e+00 0.000000000000000e+00
0.000000000000000e+00 0.000000000000000e+00 0.000000000000000e+00

0.000000000000000e+00 0.000000000000000e+00 0.000000000000000e+00
0.000000000000000e+00 0.000000000000000e+00 0.000000000000000e+00
0.000000000000000e+00 0.000000000000000e+00 0.000000000000000e+00

0.000000000000000e+00 0.000000000000000e+00 0.000000000000000e+00
0.000000000000000e+00 0.000000000000000e+00 0.000000000000000e+00
0.000000000000000e+00 0.000000000000000e+00 0.000000000000000e+00

0.000000000000000e+00 0.000000000000000e+00 0.000000000000000e+00
0.000000000000000e+00 0.000000000000000e+00 0.000000000000000e+00
0.000000000000000e+00 0.000000000000000e+00 0.000000000000000e+00

0.000000000000000e+00 0.000000000000000e+00 0.000000000000000e+00
0.000000000000000e+00 0.000000000000000e+00 0.000000000000000e+00
0.000000000000000e+00 0.000000000000000e+00 0.000000000000000e+00

0.000000000000000e+00 0.000000000000000e+00 0.000000000000000e+00
0.000000000000000e+00 0.000000000000000e+00 0.000000000000000e+00
0.000000000000000e+00 0.000000000000000e+00 0.000000000000000e+00

0.000000000000000e+00 0.000000000000000e+00 0.000000000000000e+00
0.000000000000000e+00 0.000000000000000e+00 0.000000000000000e+00
0.000000000000000e+00 0.000000000000000e+00 0.000000000000000e+00

0.000000000000000e+00 0.000000000000000e+00 0.000000000000000e+00
0.000000000000000e+00 0.000000000000000e+00 0.000000000000000e+00
0.000000000000000e+00 0.000000000000000e+00 0.000000000000000e+00

0.000000000000000e+00 0.000000000000000e+00 0.000000000000000e+00
0.000000000000000e+00 0.000000000000000e+00 0.000000000000000e+00
0.000000000000000e+00 0.000000000000000e+00 0.000000000000000e+00

0.000000000000000e+00 0.000000000000000e+00 0.000000000000000e+00
0.000000000000000e+00 0.000000000000000e+00 0.000000000000000e+00
0.000000000000000e+00 0.000000000000000e+00 0.000000000000000e+00

0.000000000000000e+00 0.000000000000000e+00 0.000000000000000e+00
0.000000000000000e+00 0.000000000000000e+00 0.000000000000000e+00
0.000000000000000e+00 0.000000000000000e+00 0.000000000000000e+00

0.000000000000000e+00 0.000000000000000e+00 0.000000000000000e+00
0.000000000000000e+00 0.000000000000000e+00 0.000000000000000e+00
0.000000000000000e+00 0.000000000000000e+00 0.000000000000000e+00

0.000000000000000e+00 0.000000000000000e+00 0.000000000000000e+00
0.000000000000000e+00 0.000000000000000e+00 0.000000000000000e+00
0.000000000000000e+00 0.000000000000000e+00 0.000000000000000e+00

0.000000000000000e+00 0.000000000000000e+00 0.000000000000000e+00
0.000000000000000e+00 0.000000000000000e+00 0.000000000000000e+00
0.000000000000000e+00 0.000000000000000e+00 0.000000000000000e+00

0.000000000000000e+00 0.000000000000000e+00 0.000000000000000e+00
0.000000000000000e+00 0.000000000000000e+00 0.000000000000000e+00
0.000000000000000e+00 0.000000000000000e+00 0.000000000000000e+00

0.000000000000000e+00 0.000000000000000e+00 0.000000000000000e+00
0.000000000000000e+00 0.000000000000000e+00 0.000000000000000e+00
0.000000000000000e+00 0.000000000000000e+00 0.000000000000000e+00

0.000000000000000e+00 0.000000000000000e+00 0.000000000000000e+00
0.000000000000000e+00 0.000000000000000e+00 0.000000000000000e+00
0.000000000000000e+00 0.000000000000000e+00 0.000000000000000e+00

0.000000000000000e+00 0.000000000000000e+00 0.000000000000000e+00
0.000000000000000e+00 0.000000000000000e+00 0.000000000000000e+00
0.000000000000000e+00 0.000000000000000e+00 0.000000000000000e+00

0.000000000000000e+00 0.000000000000000e+00 0.000000000000000e+00
0.000000000000000e+00 0.000000000000000e+00 0.000000000000000e+00
0.000000000000000e+00 0.000000000000000e+00 0.000000000000000e+00

0.000000000000000e+00 0.000000000000000e+00 0.000000000000000e+00
0.000000000000000e+00 0.000000000000000e+00 0.000000000000000e+00
0.000000000000000e+00 0.000000000000000e+00 0.000000000000000e+00

0.000000000000000e+00 0.000000000000000e+00 0.000000000000000e+00
0.000000000000000e+00 0.000000000000000e+00 0.000000000000000e+00
0.000000000000000e+00 0.000000000000000e+00 0.000000000000000e+00

0.000000000000000e+00 0.000000000000000e+00 0.000000000000000e+00
0.000000000000000e+00 0.000000000000000e+00 0.000000000000000e+00
0.000000000000000e+00 0.000000000000000e+00 0.000000000000000e+00

0.000000000000000e+00 0.000000000000000e+00 0.000000000000000e+00
0.000000000000000e+00 0.000000000000000e+00 0.000000000000000e+00
0.000000000000000e+00 0.000000000000000e+00 0.000000000000000e+00

0.000000000000000e+00 0.000000000000000e+00 0.000000000000000e+00
0.000000000000000e+00 0.000000000000000e+00 0.000000000000000e+00
0.000000000000000e+00 0.000000000000000e+00 0.000000000000000e+00

0.000000000000000e+00 0.000000000000000e+00 0.000000000000000e+00
0.000000000000000e+00 0.000000000000000e+00 0.000000000000000e+00
0.000000000000000e+00 0.000000000000000e+00 0.000000000000000e+00

0.000000000000000e+00 0.000000000000000e+00 0.000000000000000e+00
0.000000000000000e+00 0.000000000000000e+00 0.000000000000000e+00
0.000000000000000e+00 0.000000000000000e+00 0.000000000000000e+00

0.000000000000000e+00 0.000000000000000e+00 0.000000000000000e+00
0.000000000000000e+00 0.000000000000000e+00 0.000000000000000e+00
0.000000000000000e+00 0.000000000000000e+00 0.000000000000000e+00

 1.118944364417018e-17 -3.200821006695572e-20 -1.017379906803834e+00
-3.200821006695572e-20  3.271490043558915e-17  4.319877809434012e-01
-1.017379906803834e+00  4.319877809434012e-01  8.288734591790711e-18

 1.099156521397965e-17 -2.996887542967887e-20 -1.006903977651949e+00
-2.996887542967887e-20  5.541284781246580e-17  4.099967117029178e-01
-1.006903977651949e+00  4.099967117029178e-01  7.917658199028534e-18

 1.106842296456226e-17 -2.596815074649449e-20 -1.012511767857971e+00
-2.596815074649449e-20  2.633346899958581e-17  4.309761120470522e-01
-1.012511767857971e+00  4.309761120470522e-01  7.935694648132971e-18

 1.116394488797320e-17 -9.030728181102563e-20 -1.016946129333264e+00
-9.030728181102563e-20 -2.648097016203007e-17  4.111948387550235e-01
-1.016946129333264e+00  4.111948387550235e-01  8.325345604628079e-18

 1.178012940768861e-17 -3.324655702515939e-20 -1.044253019806193e+00
-3.324655702515939e-20 -3.949374188435499e-18  3.923462533902925e-01
-1.044253019806193e+00  3.923462533902925e-01  1.006685266374548e-17

 1.154539821279955e-17 -2.826408994455695e-20 -1.037203689508440e+00
-2.826408994455695e-20  4.275610936535062e-17  4.466144804017380e-01
-1.037203689508440e+00  4.466144804017380e-01  9.011151596510859e-18

 1.152595098648221e-17 -7.227784027933932e-20 -1.037060035025921e+00
-7.227784027933932e-20 -1.533875046656042e-17  4.387115133980307e-01
-1.037060035025921e+00  4.387115133980307e-01  8.983239940182829e-18

 1.112791031659828e-17 -1.391359957580153e-19 -1.017574163901300e+00
-1.391359957580153e-19 -6.264272393151357e-17  4.186813121599333e-01
-1.017574163901300e+00  4.186813121599333e-01  8.134431496396645e-18

 1.128352257891323e-17 -6.542762446946958e-20 -1.023741533976162e+00
-6.542762446946958e-20  1.301533260930165e-17  4.195884412584674e-01
-1.023741533976162e+00  4.195884412584674e-01  8.586713690117588e-18

 1.134335202535840e-17 -2.695460201269757e-21 -1.026763017891173e+00
-2.695460201269757e-21  7.582337489109947e-17  4.244035391320516e-01
-1.026763017891173e+00  4.244035391320516e-01  8.723308280344444e-18

 1.130717144914034e-17 -4.901909219815053e-20 -1.024299239290023e+00
-4.901909219815053e-20  2.590802396200111e-17  4.230835384190435e-01
-1.024299239290023e+00  4.230835384190435e-01  8.665436529926217e-18

 1.119770951585527e-17 -1.212760209536515e-19 -1.018282219153397e+00
-1.212760209536515e-19 -4.060884667209593e-17  4.217747478474777e-01
-1.018282219153397e+00  4.217747478474777e-01  8.429326973749063e-18

 1.120446945624648e-17 -1.482574178575752e-19 -1.017008196815609e+00
-1.482574178575752e-19 -9.687358999766233e-17  4.215400477231230e-01
-1.017008196815609e+00  4.215400477231230e-01  8.483749971362088e-18

 1.118235491586190e-17 -8.247361410102270e-20 -1.015210718907854e+00
-8.247361410102270e-20 -1.261558877478490e-17  4.194390402080367e-01
-1.015210718907854e+00  4.194390402080367e-01  8.434819963732813e-18

 1.114219251438614e-17 -7.529485879023856e-20 -1.013024654381208e+00
-7.529485879023856e-20 -1.119825488979556e-17  4.202893516681564e-01
-1.013024654381208e+00  4.202893516681564e-01  8.369207107598899e-18

 1.113549474187221e-17 -1.082661918965900e-19 -1.012015676390932e+00
-1.082661918965900e-19 -7.384752575827303e-17  4.191462243728025e-01
-1.012015676390932e+00  4.191462243728025e-01  8.367163457450681e-18

 1.112772473330564e-17 -7.759822469338898e-20 -1.011501280838790e+00
-7.759822469338898e-20 -2.813207225244062e-17  4.180744012822494e-01
-1.011501280838790e+00  4.180744012822494e-01  8.371810809981781e-18

 1.111786887846879e-17 -5.941344117880848e-20 -1.011208328280909e+00
-5.941344117880848e-20 -7.586720377245696e-18  4.180475490660358e-01
-1.011208328280909e+00  4.180475490660358e-01  8.361824862873962e-18

 1.111575422401490e-17 -6.241886378289325e-20 -1.011064380308869e+00
-6.241886378289325e-20 -1.350676297024861e-17  4.177397745752029e-01
-1.011064380308869e+00  4.177397745752029e-01  8.374937204943839e-18

 1.111153174812354e-17 -5.208135007707885e-20 -1.010705252720607e+00
-5.208135007707885e-20  2.087382118678197e-18  4.173019109585974e-01
-1.010705252720607e+00  4.173019109585974e-01  8.367695396319093e-18

 1.110469649614066e-17 -5.885269525214925e-20 -1.010965209445841e+00
-5.885269525214925e-20 -1.571149236248057e-17  4.173185678512814e-01
-1.010965209445841e+00  4.173185678512814e-01  8.364966684304764e-18

 1.109392743376105e-17 -7.332494506615423e-20 -1.010355814061012e+00
-7.332494506615423e-20 -6.102407125913800e-17  4.168571684995815e-01
-1.010355814061012e+00  4.168571684995815e-01  8.357342210088671e-18

 1.109646099821263e-17 -4.542470923771871e-20 -1.010464452850517e+00
-4.542470923771871e-20 -3.855892316010214e-18  4.168463842980554e-01
-1.010464452850517e+00  4.168463842980554e-01  8.362911263372805e-18

 1.108104086849373e-17 -3.134748526424793e-20 -1.010440991912418e+00
-3.134748526424793e-20  3.348456412979519e-17  4.166973683109695e-01
-1.010440991912418e+00  4.166973683109695e-01  8.353211561340055e-18

 1.108364266596195e-17 -2.654977904214406e-20 -1.010673381492265e+00
-2.654977904214406e-20  5.107544958579914e-17  4.159043166092158e-01
-1.010673381492265e+00  4.159043166092158e-01  8.361810936533871e-18

 1.107259596643731e-17 -3.260463365597073e-20 -1.011331401521958e+00
-3.260463365597073e-20  1.985740641369488e-17  4.197108683662961e-01
-1.011331401521958e+00  4.197108683662961e-01  8.336815049403989e-18

 1.118771920051202e-17 -4.831022341237851e-20 -1.016201247495873e+00
-4.831022341237851e-20 -7.402513452959936e-17  4.100832281363438e-01
-1.016201247495873e+00  4.100832281363438e-01  8.734521830837571e-18

 1.109513393819785e-17 -3.490327184720409e-20 -1.012352937281483e+00
-3.490327184720409e-20  1.242574336355251e-17  4.157072842698739e-01
-1.012352937281483e+00  4.157072842698739e-01  8.408009634438636e-18

 1.106661996429752e-17 -3.373734448314681e-20 -1.011865570414327e+00
-3.373734448314681e-20  1.826056794676419e-17  4.177390985600671e-01
-1.011865570414327e+00  4.177390985600671e-01  8.375518143244277e-18

 1.103723322591378e-17 -2.785698978268475e-20 -1.010025113294286e+00
-2.785698978268475e-20  4.599706559423704e-17  4.199590820747449e-01
-1.010025113294286e+00  4.199590820747449e-01  8.197713603074782e-18

 1.108286270810014e-17 -3.497865776845238e-20 -1.012825284931356e+00
-3.497865776845238e-20  1.664575725119442e-18  4.126467398199358e-01
-1.012825284931356e+00  4.126467398199358e-01  8.483170034759389e-18

 1.112585666362581e-17 -2.907883749051478e-20 -1.014180641173078e+00
-2.907883749051478e-20  2.673218967295141e-17  4.163816964901205e-01
-1.014180641173078e+00  4.163816964901205e-01  8.500417995078762e-18

 1.107326641817285e-17 -3.590501154567188e-20 -1.013106766892944e+00
-3.590501154567188e-20  3.601790470012184e-17  4.202421276025407e-01
-1.013106766892944e+00  4.202421276025407e-01  8.440906875472226e-18

 1.070265776397675e-17 -3.298281217058790e-20 -9.974916820349149e-01
-3.298281217058790e-20  1.355607447116400e-17  4.274788960083427e-01
-9.974916820349149e-01  4.274788960083427e-01  7.371084194465161e-18

 1.087496009021477e-17 -2.912324500873252e-20 -1.004843190448905e+00
-2.912324500873252e-20 -2.270602817281958e-17  4.154318789777634e-01
-1.004843190448905e+00  4.154318789777634e-01  7.953869802502837e-18

 1.092799390507782e-17 -1.672317538432094e-20 -1.007294968545744e+00
-1.672317538432094e-20 -1.203938210689966e-16  4.180947848713641e-01
-1.007294968545744e+00  4.180947848713641e-01  8.114685702588906e-18

 1.109950844718128e-17 -3.523088064258702e-20 -1.014653415984860e+00
-3.523088064258702e-20  5.860511310096206e-18  4.207313284315828e-01
-1.014653415984860e+00  4.207313284315828e-01  8.549476091186544e-18

 1.111767537144933e-17 -4.090352833791761e-20 -1.015296958687575e+00
-4.090352833791761e-20  4.135578975298145e-17  4.175947150694911e-01
-1.015296958687575e+00  4.175947150694911e-01  8.630580286212891e-18

 1.084257152839055e-17 -3.824958617892392e-20 -1.004236846570467e+00
-3.824958617892392e-20  1.441299697048507e-17  4.162568821191135e-01
-1.004236846570467e+00  4.162568821191135e-01  7.956131764259021e-18

 1.078750027282241e-17 -6.285094494467131e-20 -1.002442079231599e+00
-6.285094494467131e-20  1.048427190434594e-16  4.213739139317511e-01
-1.002442079231599e+00  4.213739139317511e-01  7.794895924654862e-18

 1.091351339683983e-17 -3.531758048361994e-20 -1.007757983684839e+00
-3.531758048361994e-20 -1.108151263142245e-17  4.223091428478352e-01
-1.007757983684839e+00  4.223091428478352e-01  8.087045772825172e-18

 1.104462677508035e-17 -6.420890127084496e-20 -1.013965871787196e+00
-6.420890127084496e-20  9.910249237445356e-17  4.171355235372280e-01
-1.013965871787196e+00  4.171355235372280e-01  8.555571846136807e-18

 1.100865561318277e-17 -8.086384037230394e-20 -1.012738575266062e+00
-8.086384037230394e-20  1.450230084191990e-16  4.122860862877167e-01
-1.012738575266062e+00  4.122860862877167e-01  8.515186420839181e-18

 1.099475386261728e-17 -4.133575795245375e-20 -1.012473468968986e+00
-4.133575795245375e-20  8.900699355387552e-18  4.137800674635914e-01
-1.012473468968986e+00  4.137800674635914e-01  8.483144081953455e-18

 1.099224735790504e-17 -5.579545795038010e-20 -1.012817411651963e+00
-5.579545795038010e-20  6.470823045326140e-17  4.210182204665345e-01
-1.012817411651963e+00  4.210182204665345e-01  8.464362107564698e-18

 1.083902682012665e-17 -1.516735244905971e-20 -1.005580687909372e+00
-1.516735244905971e-20 -4.907835121058243e-17  4.216222802833137e-01
-1.005580687909372e+00  4.216222802833137e-01  7.978609679458002e-18

 1.061958751725346e-17 -3.040871557274387e-20 -9.974195340278161e-01
-3.040871557274387e-20 -7.955024383920422e-18  4.218865340171973e-01
-9.974195340278161e-01  4.218865340171973e-01  7.485299582722026e-18

 1.071853478959690e-17 -9.023586645743733e-20 -1.001939698342742e+00
-9.023586645743733e-20  1.277012473486038e-16  4.188063410515058e-01
-1.001939698342742e+00  4.188063410515058e-01  7.815189904429962e-18

 1.082870708154663e-17 -6.120423296866012e-20 -1.007258016037942e+00
-6.120423296866012e-20  6.709860529693428e-17  4.217024028924702e-01
-1.007258016037942e+00  4.217024028924702e-01  8.083057439546909e-18

 1.103183259600711e-17 -2.601268091867639e-20 -1.016913078407333e+00
-2.601268091867639e-20 -2.708029037412837e-17  4.167917622582586e-01
-1.016913078407333e+00  4.167917622582586e-01  8.688220461273434e-18

 1.108597310204644e-17 -5.052674914488449e-20 -1.019881277229154e+00
-5.052674914488449e-20  3.800590407522363e-17  4.101092299216296e-01
-1.019881277229154e+00  4.101092299216296e-01  8.921347353691450e-18

 1.095780122507830e-17 -6.825016226641826e-20 -1.014231853702591e+00
-6.825016226641826e-20  7.220148811373516e-17  4.137737153867656e-01
-1.014231853702591e+00  4.137737153867656e-01  8.509965555063797e-18

 1.075421381829787e-17 -2.384412683651506e-20 -1.006836214443068e+00
-2.384412683651506e-20 -2.636504224009950e-17  4.238840807676837e-01
-1.006836214443068e+00  4.238840807676837e-01  7.967354765988964e-18

 1.088208459539564e-17 -5.379918803330673e-20 -1.011365752890777e+00
-5.379918803330673e-20  2.851672466366230e-17  4.161891225991866e-01
-1.011365752890777e+00  4.161891225991866e-01  8.333446123598102e-18

 1.085076063617051e-17 -5.544877639475577e-20 -1.011028606875123e+00
-5.544877639475577e-20  4.477048493043094e-17  4.123693073810196e-01
-1.011028606875123e+00  4.123693073810196e-01  8.374400742068386e-18

 1.088220160432725e-17 -4.678105762810743e-20 -1.012319832770992e+00
-4.678105762810743e-20  2.246388006938345e-17  4.190222517589915e-01
-1.012319832770992e+00  4.190222517589915e-01  8.366694484234492e-18

 1.081049203032185e-17 -2.447140525490242e-20 -1.010335534446226e+00
-2.447140525490242e-20 -2.782562083213113e-17  4.236916007297407e-01
-1.010335534446226e+00  4.236916007297407e-01  8.238459772121779e-18

 1.079419026022387e-17 -8.932284581344349e-20 -1.009131384563687e+00
-8.932284581344349e-20  9.422983016553791e-17  4.157991519054621e-01
-1.009131384563687e+00  4.157991519054621e-01  8.285024980716288e-18

 1.060955476290498e-17 -8.836733685669861e-20 -1.002281488674003e+00
-8.836733685669861e-20  8.911789791080446e-17  4.206444601896825e-01
-1.002281488674003e+00  4.206444601896825e-01  7.779282505669090e-18

 1.074295648702256e-17 -2.330480620000219e-20 -1.008021517809993e+00
-2.330480620000219e-20 -3.129411507331947e-17  4.144322615064813e-01
-1.008021517809993e+00  4.144322615064813e-01  8.228095119938698e-18

 1.063830780345325e-17 -9.914022657834284e-21 -1.004525095822575e+00
-9.914022657834284e-21 -6.242420848022598e-17  4.255513164480424e-01
-1.004525095822575e+00  4.255513164480424e-01  7.884587982667611e-18

 1.070031457542980e-17 -5.199475081015284e-20 -1.007106993896719e+00
-5.199475081015284e-20  2.188272031472041e-17  4.177911170086814e-01
-1.007106993896719e+00  4.177911170086814e-01  8.135627934070708e-18

 1.066740973184061e-17 -2.272607188978699e-20 -1.006991704159218e+00
-2.272607188978699e-20 -3.435287528520176e-17  4.184530277479233e-01
-1.006991704159218e+00  4.184530277479233e-01  8.092911502563273e-18

 1.070796356459759e-17 -9.037426958856646e-20 -1.008773435555886e+00
-9.037426958856646e-20  9.146313290225747e-17  4.208374430473122e-01
-1.008773435555886e+00  4.208374430473122e-01  8.150171806914708e-18

 1.073497445825883e-17 -8.285569488164056e-20 -1.011407636862983e+00
-8.285569488164056e-20  7.089125790129120e-17  4.200194418570513e-01
-1.011407636862983e+00  4.200194418570513e-01  8.343107723971995e-18

 1.065535564776382e-17  3.659837260604666e-21 -1.008113932274820e+00
 3.659837260604666e-21 -9.385262959503773e-17  4.240691462985571e-01
-1.008113932274820e+00  4.240691462985571e-01  8.076234581939652e-18

 1.056964572084548e-17 -1.702045979671792e-20 -1.004733327526871e+00
-1.702045979671792e-20 -5.213084475377997e-17  4.192150004677954e-01
-1.004733327526871e+00  4.192150004677954e-01  7.975701556875622e-18

 1.069133635831708e-17 -1.274311449425567e-20 -1.009860431938757e+00
-1.274311449425567e-20 -5.091731221140448e-17  4.081174783685308e-01
-1.009860431938757e+00  4.081174783685308e-01  8.420987099595814e-18

 1.057088137820883e-17 -1.149923242502293e-19 -1.005924384866532e+00
-1.149923242502293e-19  1.290710276403527e-16  4.207215373907717e-01
-1.005924384866532e+00  4.207215373907717e-01  8.032513495963342e-18

 1.042158604952048e-17 -8.449488207693437e-20 -1.001135879524611e+00
-8.449488207693437e-20  6.751277791366598e-17  4.339865635617193e-01
-1.001135879524611e+00  4.339865635617193e-01  7.550112673187049e-18

 1.086731936422018e-17 -6.753420176731821e-20 -1.020072738052106e+00
-6.753420176731821e-20  2.843119537793489e-17  4.037911356455642e-01
-1.020072738052106e+00  4.037911356455642e-01  9.034687412409154e-18

 1.070845777546600e-17  5.799238329224111e-21 -1.013649231327906e+00
 5.799238329224111e-21 -1.305071072310240e-16  4.145839576817795e-01
-1.013649231327906e+00  4.145839576817795e-01  8.516980513679792e-18

 1.021480523253396e-17 -7.851008077736586e-20 -9.948925546373478e-01
-7.851008077736586e-20  3.492870345311298e-17  4.398870673467661e-01
-9.948925546373478e-01  4.398870673467661e-01  6.989698960788724e-18

 1.060589524451038e-17 -4.267788761493166e-21 -1.011390216152431e+00
-4.267788761493166e-21 -1.127882677626238e-16  4.200342852915212e-01
-1.011390216152431e+00  4.200342852915212e-01  8.274913523877158e-18

 1.057954985225839e-17 -3.151502931321311e-21 -1.011203995735432e+00
-3.151502931321311e-21 -1.113316213754931e-16  4.147589477510994e-01
-1.011203995735432e+00  4.147589477510994e-01  8.289333835061857e-18

 1.059309122376074e-17 -1.388189896631573e-19 -1.012391908856792e+00
-1.388189896631573e-19  1.828265628505785e-16  4.185364901120694e-01
-1.012391908856792e+00  4.185364901120694e-01  8.303268793648171e-18

 1.052363222888853e-17 -3.755180790321871e-20 -1.010633545014298e+00
-3.755180790321871e-20 -6.885689385850573e-17  4.268676955614379e-01
-1.010633545014298e+00  4.268676955614379e-01  8.115067530283380e-18

 1.055109676435326e-17 -1.972533336778254e-20 -1.011693508198143e+00
-1.972533336778254e-20 -1.187736518669198e-16  4.240702004745158e-01
-1.011693508198143e+00  4.240702004745158e-01  8.189961692736672e-18

 1.055862227973329e-17 -8.952510157340691e-20 -1.012917238179189e+00
-8.952510157340691e-20  7.995537263298249e-17  4.163215151391588e-01
-1.012917238179189e+00  4.163215151391588e-01  8.370251948331960e-18

 1.054813918479340e-17 -1.213951787262770e-19 -1.012479056378399e+00
-1.213951787262770e-19  1.795596549555402e-16  4.177833713961929e-01
-1.012479056378399e+00  4.177833713961929e-01  8.309023594974611e-18

 1.049255148656918e-17 -7.836426217128867e-20 -1.011483902219666e+00
-7.836426217128867e-20  4.672279658803842e-17  4.222280704534612e-01
-1.011483902219666e+00  4.222280704534612e-01  8.230145755854028e-18

 1.046138056571244e-17 -1.431787089464467e-20 -1.010296244200452e+00
-1.431787089464467e-20 -1.605803360541899e-16  4.230007532952489e-01
-1.010296244200452e+00  4.230007532952489e-01  8.160811541679998e-18

 1.050914721085742e-17 -6.966117399558426e-20 -1.013272672858949e+00
-6.966117399558426e-20  3.373253652813548e-17  4.190303278280780e-01
-1.013272672858949e+00  4.190303278280780e-01  8.365756871704664e-18

 1.045191939859067e-17 -7.025091511338513e-20 -1.011575144335466e+00
-7.025091511338513e-20  3.080910297192155e-17  4.195369394597880e-01
-1.011575144335466e+00  4.195369394597880e-01  8.257746427428756e-18

 1.041946626018354e-17 -1.145305945584551e-19 -1.011536398438704e+00
-1.145305945584551e-19  2.083453067410607e-16  4.199240270361065e-01
-1.011536398438704e+00  4.199240270361065e-01  8.258614609744550e-18

 1.042131934900719e-17 -7.941882805413923e-20 -1.012229049251320e+00
-7.941882805413923e-20  6.718818995816550e-17  4.201706095799748e-01
-1.012229049251320e+00  4.201706095799748e-01  8.280773306546769e-18

 1.040413649291308e-17 -6.521627623618275e-20 -1.012938273052673e+00
-6.521627623618275e-20  1.368138016576029e-17  4.205436266618955e-01
-1.012938273052673e+00  4.205436266618955e-01  8.269204773049099e-18

 1.036503075953266e-17 -9.287384229612132e-20 -1.012579691405812e+00
-9.287384229612132e-20  1.526334199636952e-16  4.194591041969369e-01
-1.012579691405812e+00  4.194591041969369e-01  8.279699609264798e-18

 1.034218250603314e-17 -4.672746989805795e-20 -1.012289125504907e+00
-4.672746989805795e-20 -1.102820882925981e-16  4.204519378336732e-01
-1.012289125504907e+00  4.204519378336732e-01  8.253770550081005e-18

 1.030347641136093e-17 -4.095104737881363e-20 -1.012119589988921e+00
-4.095104737881363e-20 -1.586760800477492e-16  4.203544410428768e-01
-1.012119589988921e+00  4.203544410428768e-01  8.261191367719533e-18

 1.027930643759597e-17 -3.845326956496907e-20 -1.011551176753373e+00
-3.845326956496907e-20 -2.043996442013848e-16  4.200232099551033e-01
-1.011551176753373e+00  4.200232099551033e-01  8.226909427985381e-18

 1.026601308410176e-17 -3.613472303303335e-20 -1.011454438719464e+00
-3.613472303303335e-20 -2.500727455193465e-16  4.184973363518231e-01
-1.011454438719464e+00  4.184973363518231e-01  8.224490763759695e-18

 1.031315990217078e-17 -7.103888207735269e-20 -1.016413923786702e+00
-7.103888207735269e-20  3.592959553711670e-17  4.192750601757594e-01
-1.016413923786702e+00  4.192750601757594e-01  8.501938248438123e-18

 1.022293399827064e-17 -6.855962693410986e-20 -1.014026399514372e+00
-6.855962693410986e-20  1.842961846648078e-17  4.234285678915690e-01
-1.014026399514372e+00  4.234285678915690e-01  8.352745015443810e-18

 1.011432252004648e-17 -7.486777304989327e-20 -1.009667741929419e+00
-7.486777304989327e-20  5.020758184027891e-17  4.095285870701000e-01
-1.009667741929419e+00  4.095285870701000e-01  8.272977693407313e-18

 1.017656231199111e-17 -7.624006932693346e-20 -1.012320822949160e+00
-7.624006932693346e-20  8.745875007393224e-17  4.087300855624071e-01
-1.012320822949160e+00  4.087300855624071e-01  8.455318141153250e-18

 9.941906286580525e-18 -6.534130391502636e-20 -1.004460982582467e+00
-6.534130391502636e-20 -1.243060137657802e-16  4.284807522697774e-01
-1.004460982582467e+00  4.284807522697774e-01  7.761230718601341e-18

 1.012833449573470e-17 -6.665336788625424e-20 -1.013326838444523e+00
-6.665336788625424e-20  1.597459566808387e-17  4.195282081365923e-01
-1.013326838444523e+00  4.195282081365923e-01  8.382540729723752e-18

 1.010919582831800e-17 -6.717386251063325e-20 -1.013699372523859e+00
-6.717386251063325e-20  2.564736105277369e-16  4.152775033095988e-01
-1.013699372523859e+00  4.152775033095988e-01  8.454847989965737e-18

 1.000904615123180e-17 -6.307344204226897e-20 -1.010744983610025e+00
-6.307344204226897e-20  2.561666387908323e-16  4.220454895406807e-01
-1.010744983610025e+00  4.220454895406807e-01  8.175638342888027e-18

 1.012699498033094e-17 -5.886948422569663e-20 -1.016446448612554e+00
-5.886948422569663e-20  4.405943455940316e-17  4.112318918869524e-01
-1.016446448612554e+00  4.112318918869524e-01  8.653013000786762e-18

 1.016803474151120e-17 -4.801311134135771e-20 -1.019572743236784e+00
-4.801311134135771e-20 -1.588480464869613e-16  4.078470765440937e-01
-1.019572743236784e+00  4.078470765440937e-01  8.853949105270258e-18

 9.806491787580261e-18 -5.181895763342997e-20 -1.006325407154589e+00
-5.181895763342997e-20 -1.057543855962411e-17  4.306622306732959e-01
-1.006325407154589e+00  4.306622306732959e-01  7.769466714470041e-18

 9.846736156159037e-18 -7.031232034762954e-20 -1.007996227248374e+00
-7.031232034762954e-20  1.952577211039313e-16  4.216928200104132e-01
-1.007996227248374e+00  4.216928200104132e-01  7.993845311112954e-18

 1.007498474893698e-17 -5.216298923585691e-20 -1.017869826857388e+00
-5.216298923585691e-20 -8.463743084644659e-17  4.046649727235818e-01
-1.017869826857388e+00  4.046649727235818e-01  8.816271651522328e-18

 9.844482733642874e-18 -5.929580437716872e-20 -1.010884347660711e+00
-5.929580437716872e-20  4.395287300791228e-17  4.179719978181062e-01
-1.010884347660711e+00  4.179719978181062e-01  8.216639710729743e-18

 9.837366654988753e-18 -6.037082617439801e-20 -1.012085996476022e+00
-6.037082617439801e-20  2.020778638330474e-17  4.204162847334166e-01
-1.012085996476022e+00  4.204162847334166e-01  8.201329617591156e-18

 9.741347378651038e-18 -4.501472774375693e-20 -1.010020723799942e+00
-4.501472774375693e-20 -9.231266232327766e-17  4.154164468937864e-01
-1.010020723799942e+00  4.154164468937864e-01  8.143070065185691e-18

 9.939916969077964e-18 -2.355401358123934e-20 -1.018390112801464e+00
-2.355401358123934e-20 -1.688919346214157e-16  4.058231555668694e-01
-1.018390112801464e+00  4.058231555668694e-01  8.744514977623445e-18

 9.706081403951826e-18 -2.819395201633570e-20 -1.011443712853268e+00
-2.819395201633570e-20 -1.789830882841349e-16  4.198910497720169e-01
-1.011443712853268e+00  4.198910497720169e-01  8.149317094556150e-18

 9.673365296413229e-18 -3.810732798235281e-20 -1.011333267324954e+00
-3.810732798235281e-20 -1.506985495152420e-16  4.236967259886588e-01
-1.011333267324954e+00  4.236967259886588e-01  8.061046723258368e-18

 9.698354278027630e-18 -7.824513453065660e-20 -1.014001194169479e+00
-7.824513453065660e-20  1.374869633714009e-16  4.164122878296078e-01
-1.014001194169479e+00  4.164122878296078e-01  8.321877060506293e-18

 9.734355632922055e-18 -7.744401950925174e-20 -1.016454886492099e+00
-7.744401950925174e-20  1.028068870811331e-16  4.098754980845278e-01
-1.016454886492099e+00  4.098754980845278e-01  8.553898118773042e-18

 9.725637881657541e-18  7.918533767678738e-22 -1.017914005893506e+00
 7.918533767678738e-22 -2.403376927294681e-16  4.098277135674928e-01
-1.017914005893506e+00  4.098277135674928e-01  8.610617395611749e-18

 9.550045492855556e-18 -1.090893291104466e-19 -1.013286720384213e+00
-1.090893291104466e-19  1.633282771138119e-16  4.163282961043672e-01
-1.013286720384213e+00  4.163282961043672e-01  8.246836388121373e-18

 9.435818156634284e-18 -3.041375117422198e-20 -1.011421038707334e+00
-3.041375117422198e-20 -1.163655087776181e-16  4.194809648644058e-01
-1.011421038707334e+00  4.194809648644058e-01  8.109166181012665e-18

 9.408913176522575e-18 -1.868614816036021e-20 -1.011850908761301e+00
-1.868614816036021e-20 -1.455956907087900e-16  4.121054711911594e-01
-1.011850908761301e+00  4.121054711911594e-01  8.267051098886263e-18

 9.282680191258477e-18 -1.265276170229777e-19 -1.007642319970886e+00
-1.265276170229777e-19  8.317538396637239e-17  4.126191913893997e-01
-1.007642319970886e+00  4.126191913893997e-01  8.020599382001631e-18

 9.038032103237166e-18 -2.196400457041964e-19 -9.993921494485920e-01
-2.196400457041964e-19  2.552355524450306e-16  4.213055314810285e-01
-9.993921494485920e-01  4.213055314810285e-01  7.450419866572541e-18

 9.145939447222683e-18 -1.034290936360313e-19 -1.004922468186635e+00
-1.034290936360313e-19 -6.822339884574285e-18  4.140012702118104e-01
-1.004922468186635e+00  4.140012702118104e-01  7.932537983464289e-18

 8.969800398963597e-18 -1.656230363714870e-19 -9.997432377964156e-01
-1.656230363714870e-19  9.170338145467619e-17  4.225369099134575e-01
-9.997432377964156e-01  4.225369099134575e-01  7.591720809705583e-18

 8.926786803334615e-18 -1.779389238626892e-19 -9.988842064288829e-01
-1.779389238626892e-19  9.175649035424761e-17  4.164314452142728e-01
-9.988842064288829e-01  4.164314452142728e-01  7.703431384946028e-18

 8.402423959087214e-18 -1.142929404015899e-19 -9.791287865296069e-01
-1.142929404015899e-19 -1.744970367955227e-17  4.358877935266840e-01
-9.791287865296069e-01  4.358877935266840e-01  6.299796159259530e-18

 8.444178594044329e-18 -6.378963486523144e-20 -9.818954405305982e-01
-6.378963486523144e-20 -9.889548891609269e-17  4.235446025332905e-01
-9.818954405305982e-01  4.235446025332905e-01  6.659950208914159e-18

 8.320408731039344e-18 -1.149912358551492e-19 -9.799985795375625e-01
-1.149912358551492e-19 -5.178968721801286e-17  4.217255508493449e-01
-9.799985795375625e-01  4.217255508493449e-01  6.591426250514622e-18

 8.393526219640928e-18 -1.018956442585538e-19 -9.890283347243661e-01
-1.018956442585538e-19 -1.002169627996274e-16  4.216532690844611e-01
-9.890283347243661e-01  4.216532690844611e-01  7.034787793975438e-18

 8.273540880374387e-18 -1.765860621810635e-19 -9.895728060685938e-01
-1.765860621810635e-19 -8.681445235489684e-18  4.263304255986122e-01
-9.895728060685938e-01  4.263304255986122e-01  6.846909898806213e-18

 8.404210478275727e-18 -2.682317117304089e-19 -9.987191929867993e-01
-2.682317117304089e-19  1.906700243106311e-16  4.190559601174407e-01
-9.987191929867993e-01  4.190559601174407e-01  7.334559829239383e-18

 8.561535268935286e-18 -2.141234841137340e-19 -1.009793131467040e+00
-2.141234841137340e-19  7.749799220245090e-17  4.094894330596732e-01
-1.009793131467040e+00  4.094894330596732e-01  7.963899487547947e-18

 8.720141805918866e-18 -1.852610362675167e-19 -1.021375735034529e+00
-1.852610362675167e-19 -4.267653775952787e-17  4.170055321761494e-01
-1.021375735034529e+00  4.170055321761494e-01  8.426611767977944e-18

 8.601483373631940e-18 -2.336230172215958e-19 -1.022368797110099e+00
-2.336230172215958e-19  1.294356701473837e-16  4.394398440434481e-01
-1.022368797110099e+00  4.394398440434481e-01  8.124273857662005e-18

 8.144117294711041e-18 -2.264763642874687e-19 -1.006305183600162e+00
-2.264763642874687e-19  1.421821599408073e-16  4.454959739786838e-01
-1.006305183600162e+00  4.454959739786838e-01  6.932671182455107e-18

 8.775394183899358e-18 -2.055585927151178e-19 -1.033555791810588e+00
-2.055585927151178e-19 -1.421848746694863e-16  3.998187804328538e-01
-1.033555791810588e+00  3.998187804328538e-01  9.208411070461041e-18

 8.207729897537725e-18 -2.264647143083314e-19 -1.013959379815421e+00
-2.264647143083314e-19 -8.353455164713153e-17  4.217349417635705e-01
-1.013959379815421e+00  4.217349417635705e-01  7.718400001269795e-18

 7.959752555071650e-18 -2.299533375971769e-19 -1.005543018604003e+00
-2.299533375971769e-19 -1.061348220500099e-16  4.310479188733651e-01
-1.005543018604003e+00  4.310479188733651e-01  7.126115355231452e-18

 8.156981963444645e-18 -2.857149048397161e-19 -1.016920434613439e+00
-2.857149048397161e-19  2.020683518809936e-16  4.143935193069305e-01
-1.016920434613439e+00  4.143935193069305e-01  8.028973935452260e-18

 8.130812045001497e-18 -2.650478825887782e-19 -1.019820152370709e+00
-2.650478825887782e-19  3.678788027241518e-17  4.152222901013720e-01
-1.019820152370709e+00  4.152222901013720e-01  8.185200407537689e-18

 7.699252717379968e-18 -2.904995875110061e-19 -1.006671185538862e+00
-2.904995875110061e-19  2.038537961837632e-16  4.376331970360167e-01
-1.006671185538862e+00  4.376331970360167e-01  7.130472893957582e-18

 7.752949221841464e-18 -2.494261360149738e-19 -1.010508547473381e+00
-2.494261360149738e-19 -2.401434281465381e-16  4.208180623400272e-01
-1.010508547473381e+00  4.208180623400272e-01  7.582768752309842e-18

 7.823097680185501e-18 -3.117622269915672e-19 -1.016454462003105e+00
-3.117622269915672e-19  3.852332909758886e-17  4.016543398724650e-01
-1.016454462003105e+00  4.016543398724650e-01  8.154719961050882e-18

 7.443425086210028e-18 -3.171106042858949e-19 -1.005336080704024e+00
-3.171106042858949e-19  4.141810255833357e-19  4.238931636096790e-01
-1.005336080704024e+00  4.238931636096790e-01  7.201905460212794e-18

 7.477424305979244e-18 -3.127854830615694e-19 -1.011785381669716e+00
-3.127854830615694e-19 -2.506482951709477e-16  4.264537599742181e-01
-1.011785381669716e+00  4.264537599742181e-01  7.555082725891518e-18

 7.303382374942162e-18 -3.601442472494279e-19 -1.012002297212606e+00
-3.601442472494279e-19  1.804013766098908e-17  4.181964447680156e-01
-1.012002297212606e+00  4.181964447680156e-01  7.615557264808604e-18

 7.033294468055475e-18 -3.889872844521547e-19 -1.009308820622279e+00
-3.889872844521547e-19 -4.724211320911483e-17  4.185229718016061e-01
-1.009308820622279e+00  4.185229718016061e-01  7.428652151295046e-18

 6.846259977515587e-18 -4.209997580873891e-19 -1.009129024882987e+00
-4.209997580873891e-19 -4.758087397058699e-17  4.189298710208686e-01
-1.009129024882987e+00  4.189298710208686e-01  7.370831226509187e-18

 6.595986857896173e-18 -4.577211086647161e-19 -1.009215414449987e+00
-4.577211086647161e-19 -7.642275574502492e-17  4.183326517003500e-01
-1.009215414449987e+00  4.183326517003500e-01  7.317514195129426e-18

 6.379530541003588e-18 -5.204348245456110e-19 -1.009473546565703e+00
-5.204348245456110e-19  2.760027695398502e-16  4.179500276376339e-01
-1.009473546565703e+00  4.179500276376339e-01  7.272691995862234e-18

 6.195042730389485e-18 -5.343813856084557e-19 -1.009464192293633e+00
-5.343813856084557e-19  2.746121844994517e-17  4.183330526842595e-01
-1.009464192293633e+00  4.183330526842595e-01  7.213912399250766e-18

 5.927769567868300e-18 -5.738999578526655e-19 -1.009423884070275e+00
-5.738999578526655e-19 -1.447413717664396e-16  4.173755636313640e-01
-1.009423884070275e+00  4.173755636313640e-01  7.145773504315675e-18

 5.485903907419198e-18 -6.728432515150702e-19 -1.009472046480601e+00
-6.728432515150702e-19  4.663149825662768e-17  4.170450526206269e-01
-1.009472046480601e+00  4.170450526206269e-01  7.011263427270631e-18

 5.092528424772493e-18 -7.571583713894329e-19 -1.009943232301135e+00
-7.571583713894329e-19  6.570586540029098e-17  4.174323633875905e-01
-1.009943232301135e+00  4.174323633875905e-01  6.881276440600479e-18

 4.819212408017415e-18 -8.198782308947394e-19 -1.009688305139732e+00
-8.198782308947394e-19  9.154555714534779e-17  4.170273123662556e-01
-1.009688305139732e+00  4.170273123662556e-01  6.789120777779885e-18

 4.401468001782949e-18 -8.695247591499313e-19 -1.008716622890022e+00
-8.695247591499313e-19 -2.706498000240064e-16  4.172438046949160e-01
-1.008716622890022e+00  4.172438046949160e-01  6.627569627607042e-18

 3.961275146937861e-18 -1.009094713485323e-18 -1.008451798800821e+00
-1.009094713485323e-18 -1.184797229721942e-17  4.172111521148385e-01
-1.008451798800821e+00  4.172111521148385e-01  6.455428849731150e-18

 3.522490724653478e-18 -1.149206155996661e-18 -1.008256205819634e+00
-1.149206155996661e-18  2.469590018372444e-16  4.171292634281105e-01
-1.008256205819634e+00  4.171292634281105e-01  6.284560125185921e-18

 2.853750340172577e-18 -1.290619675735306e-18 -1.009234534881057e+00
-1.290619675735306e-18  7.821224996105844e-17  4.169560768558874e-01
-1.009234534881057e+00  4.169560768558874e-01  6.103607927798676e-18

 2.247795773297579e-18 -1.428339210107993e-18 -1.011361852064217e+00
-1.428339210107993e-18 -1.062848160336746e-16  4.178459072383739e-01
-1.011361852064217e+00  4.178459072383739e-01  5.974770269160775e-18

 1.530755273622625e-18 -1.688998713815675e-18 -1.011472757937310e+00
-1.688998713815675e-18  2.391151612784598e-16  4.173698871405155e-01
-1.011472757937310e+00  4.173698871405155e-01  5.761792436848691e-18

 9.160752220153220e-19 -1.823729368225436e-18 -1.010310719928470e+00
-1.823729368225436e-18  2.434790828324622e-17  4.161470933258609e-01
-1.010310719928470e+00  4.161470933258609e-01  5.519761258281220e-18

 2.313467173522319e-19 -2.020760101814647e-18 -1.009364277156690e+00
-2.020760101814647e-18  3.817082021905246e-17  4.166227038114466e-01
-1.009364277156690e+00  4.166227038114466e-01  5.231964748629834e-18

-1.002183105889761e-18 -2.349451552873528e-18 -1.009368196079978e+00
-2.349451552873528e-18 -2.031993358554651e-16  4.171293237566185e-01
-1.009368196079978e+00  4.171293237566185e-01  4.830760396083485e-18

-2.516220085770428e-18 -2.860258505060523e-18 -1.008304508910477e+00
-2.860258505060523e-18 -1.089011258516978e-16  4.168754325405964e-01
-1.008304508910477e+00  4.168754325405964e-01  4.297044942058170e-18

-4.604144210158690e-18 -3.602446886720005e-18 -1.006999017940090e+00
-3.602446886720005e-18 -3.954782366774908e-17  4.170998199037018e-01
-1.006999017940090e+00  4.170998199037018e-01  3.579651878906893e-18

-6.988913223844055e-18 -4.464227047018154e-18 -1.001807135191224e+00
-4.464227047018154e-18 -9.099521735774414e-18  4.193291004145100e-01
-1.001807135191224e+00  4.193291004145100e-01  2.564852361423621e-18

-9.128818023994914e-18 -5.263346610282221e-18 -9.946167788584134e-01
-5.263346610282221e-18 -1.241329747065246e-17  4.176473957577865e-01
-9.946167788584134e-01  4.176473957577865e-01  1.511580162229459e-18

-1.136439551562537e-17 -6.173084164440065e-18 -9.940778949521575e-01
-6.173084164440065e-18  1.067459891637143e-16  4.177099965243271e-01
-9.940778949521575e-01  4.177099965243271e-01  7.499092651797993e-19

-1.381980453392002e-17 -7.235214841727923e-18 -1.000346029084771e+00
-7.235214841727923e-18  1.492010583060408e-16  4.194110886244289e-01
-1.000346029084771e+00  4.194110886244289e-01  1.815486101445021e-19

-1.676322096769794e-17 -8.526358033260101e-18 -1.005570341061513e+00
-8.526358033260101e-18  1.909172426217615e-16  4.208811388807894e-01
-1.005570341061513e+00  4.208811388807894e-01 -6.097340641108816e-19

-2.153314621801822e-17 -1.042079344490554e-17 -1.003602845681664e+00
-1.042079344490554e-17 -3.110143236993649e-16  4.181743865732909e-01
-1.003602845681664e+00  4.181743865732909e-01 -2.324422616154235e-18

-2.525782716733969e-17 -1.224204567678548e-17 -1.005757734614559e+00
-1.224204567678548e-17 -3.955729015761985e-17  4.157910500482497e-01
-1.005757734614559e+00  4.157910500482497e-01 -3.435715673357969e-18

-3.096059055382213e-17 -1.493892865664253e-17 -1.007155251763159e+00
-1.493892865664253e-17  3.384479911699917e-17  4.216209148853468e-01
-1.007155251763159e+00  4.216209148853468e-01 -5.357343923512944e-18

-3.921772604928342e-17 -1.886795728751473e-17 -1.009369470173997e+00
-1.886795728751473e-17 -1.169493308475101e-16  4.202295914290182e-01
-1.009369470173997e+00  4.202295914290182e-01 -8.001728083086599e-18

-4.709710856565170e-17 -2.282669915800869e-17 -1.011626190232445e+00
-2.282669915800869e-17 -1.292696244281273e-16  4.214638361222924e-01
-1.011626190232445e+00  4.214638361222924e-01 -1.052093130458920e-17

-6.136077948162133e-17 -3.017528555714458e-17 -1.013836477376505e+00
-3.017528555714458e-17 -2.693670859212998e-16  4.219427563636483e-01
-1.013836477376505e+00  4.219427563636483e-01 -1.504196204841044e-17

-7.545252056538350e-17 -3.787526068070190e-17 -1.014097839695203e+00
-3.787526068070190e-17  3.112363657670601e-16  4.220950487870733e-01
-1.014097839695203e+00  4.220950487870733e-01 -1.951069408093495e-17

-8.683698188960016e-17 -4.394435516296249e-17 -1.014048375756098e+00
-4.394435516296249e-17 -1.103386770161123e-16  4.225553201148444e-01
-1.014048375756098e+00  4.225553201148444e-01 -2.309110655019846e-17

-1.092276099949826e-16 -5.631377763579355e-17 -1.014223358577322e+00
-5.631377763579355e-17 -1.408373320219884e-16  4.231492556869801e-01
-1.014223358577322e+00  4.231492556869801e-01 -3.004522204030571e-17

-1.333321570770994e-16 -6.965365943383700e-17 -1.015028197971809e+00
-6.965365943383700e-17 -6.880994984652590e-16  4.236045873562326e-01
-1.015028197971809e+00  4.236045873562326e-01 -3.738408372390348e-17

-1.773443028639323e-16 -9.455484648976263e-17 -1.014324837182347e+00
-9.455484648976263e-17  2.206853167236904e-16  4.233623745603863e-01
-1.014324837182347e+00  4.233623745603863e-01 -5.063753566887624e-17

-2.775866706555993e-16 -1.499602297624959e-16 -1.014180278528176e+00
-1.499602297624959e-16 -4.653175834509086e-16  4.231977947123693e-01
-1.014180278528176e+00  4.231977947123693e-01 -8.012458726103346e-17

-4.171728443384287e-16 -2.235803317150625e-16 -1.014710758546544e+00
-2.235803317150625e-16 -8.363323896319301e-17  4.227633869965270e-01
-1.014710758546544e+00  4.227633869965270e-01 -1.203173363860325e-16

-5.988478941570221e-16 -3.117459414854506e-16 -1.015775009874737e+00
-3.117459414854506e-16 -3.934086694227573e-16  4.223698445735004e-01
-1.015775009874737e+00  4.223698445735004e-01 -1.722089746714934e-16

-8.919179386834447e-16 -4.365997676248976e-16 -1.016149898206292e+00
-4.365997676248976e-16 -7.419425392625620e-16  4.239683021350314e-01
-1.016149898206292e+00  4.239683021350314e-01 -2.564731896043641e-16

-1.334499740677819e-15 -5.901716346595515e-16 -1.011867945196424e+00
-5.901716346595515e-16 -2.059587945054268e-16  4.243675633170975e-01
-1.011867945196424e+00  4.243675633170975e-01 -3.874451933546706e-16

-2.023783740911275e-15 -7.599104444187441e-16 -1.019903859058739e+00
-7.599104444187441e-16 -1.616321483460839e-15  4.077822989141984e-01
-1.019903859058739e+00  4.077822989141984e-01 -6.029746680186715e-16

-2.618803815797544e-15 -8.472795310563118e-16 -1.017344098168846e+00
-8.472795310563118e-16 -1.427514897072081e-15  4.221194811364420e-01
-1.017344098168846e+00  4.221194811364420e-01 -8.032310566937562e-16

-3.335546160249306e-15 -8.961677737682836e-16 -1.005661564965551e+00
-8.961677737682836e-16 -2.257557867000706e-15  4.451066599290331e-01
-1.005661564965551e+00  4.451066599290331e-01 -1.062208776211589e-15

-4.716386338954848e-15 -8.335176998602995e-16 -1.016025056534565e+00
-8.335176998602995e-16 -1.756744002717508e-15  4.208921742695056e-01
-1.016025056534565e+00  4.208921742695056e-01 -1.634711060712888e-15

-6.983217624144145e-15 -5.700007678935072e-16 -1.020696146183604e+00
-5.700007678935072e-16 -2.531925498862109e-15  4.017424270235661e-01
-1.020696146183604e+00  4.017424270235661e-01 -2.686746584001013e-15

-9.655130076994918e-15 -1.266232925097456e-21 -1.007878108797161e+00
-1.266232925097456e-21 -2.838689798693636e-15  4.254841827924273e-01
-1.007878108797161e+00  4.254841827924273e-01 -4.078537155169924e-15

-1.418566504150632e-14  1.208582293895943e-15 -1.011027996891773e+00
 1.208582293895943e-15 -3.242797592375127e-15  4.337354020942276e-01
-1.011027996891773e+00  4.337354020942276e-01 -6.599444916401983e-15

 1.348253288670865e-14  2.364128990792825e-14 -1.014520650097612e+00
 2.364128990792825e-14  2.933177137330386e-14  4.197643904064054e-01
-1.014520650097612e+00  4.197643904064054e-01 -2.506927616985554e-15

-6.428389106543900e-13 -1.556290775235635e-13 -1.013592104883627e+00
-1.556290775235635e-13 -2.851562095543114e-13  4.177086686897867e-01
-1.013592104883627e+00  4.177086686897867e-01 -2.132389362701272e-13

 1.714668802813427e-14  3.336215254343295e-15 -1.011666445048396e+00
 3.336215254343295e-15  2.309115515590718e-14  4.175675018131839e-01
-1.011666445048396e+00  4.175675018131839e-01 -4.356126453757362e-15

-7.997446832794421e-15 -1.145615033648222e-14 -1.010990064469172e+00
-1.145615033648222e-14 -5.355924161219706e-16  4.166294594468893e-01
-1.010990064469172e+00  4.166294594468893e-01 -8.152261260994716e-15

-6.458292180967340e-13 -1.500680457681746e-13 -1.011586170148671e+00
-1.500680457681746e-13 -3.244137608867026e-13  4.173621088532964e-01
-1.011586170148671e+00  4.173621088532964e-01 -1.593199680807956e-13

-4.288746837674962e-15 -8.599003623875111e-15 -1.015947447529298e+00
-8.599003623875111e-15  6.746068537847693e-16  4.130981918129514e-01
-1.015947447529298e+00  4.130981918129514e-01 -4.386710289239692e-15

-3.334624562680820e-15 -6.763610227926156e-15 -1.011405796730522e+00
-6.763610227926156e-15  1.169177247419631e-15  4.188930508156122e-01
-1.011405796730522e+00  4.188930508156122e-01 -3.209377209369731e-15

-2.708884703630984e-15 -4.378535270895234e-15 -1.013287653375627e+00
-4.378535270895234e-15  1.404729537682432e-15  4.183997798611174e-01
-1.013287653375627e+00  4.183997798611174e-01 -2.028550774828523e-15

-1.952431732017629e-15 -2.111557278066313e-15 -1.011955608303765e+00
-2.111557278066313e-15  1.118163923653872e-15  4.155070565395784e-01
-1.011955608303765e+00  4.155070565395784e-01 -1.093029075936005e-15

-1.389183346601846e-15 -1.026469558044857e-15 -1.011695595442366e+00
-1.026469558044857e-15  7.070452064582685e-16  4.163825282340187e-01
-1.011695595442366e+00  4.163825282340187e-01 -6.458978845828215e-16

-9.693448955695996e-16 -4.994506061872327e-16 -1.011577621889205e+00
-4.994506061872327e-16  3.848630721988821e-16  4.162019817071657e-01
-1.011577621889205e+00  4.162019817071657e-01 -4.006789257184320e-16

-6.750649415906099e-16 -2.449617316978653e-16 -1.011006881371469e+00
-2.449617316978653e-16  2.383274894063805e-16  4.160530848072228e-01
-1.011006881371469e+00  4.160530848072228e-01 -2.584794182927025e-16

-4.786644260635919e-16 -1.231562601465372e-16 -1.010525701074555e+00
-1.231562601465372e-16  1.744720561082339e-16  4.160591224148458e-01
-1.010525701074555e+00  4.160591224148458e-01 -1.739999652302824e-16

-3.816955608856903e-16 -7.745252364701539e-17 -1.011126748798024e+00
-7.745252364701539e-17  7.782599830503779e-17  4.160785298043365e-01
-1.011126748798024e+00  4.160785298043365e-01 -1.349517429624473e-16

-2.822502798815116e-16 -4.000180385264884e-17 -1.010585841909196e+00
-4.000180385264884e-17  1.228476508952818e-16  4.159011440557444e-01
-1.010585841909196e+00  4.159011440557444e-01 -9.642998356791255e-17

-2.042313250924226e-16 -1.876435517469994e-17 -1.010424930440394e+00
-1.876435517469994e-17 -5.593739569326360e-17  4.154212927674077e-01
-1.010424930440394e+00  4.154212927674077e-01 -6.734806510981135e-17

-1.685911065157144e-16 -1.114236392340743e-17 -1.010329210182726e+00
-1.114236392340743e-17  5.480502582228211e-17  4.159289407189490e-01
-1.010329210182726e+00  4.159289407189490e-01 -5.433427421374833e-17

-1.386013435317329e-16 -6.113317798406261e-18 -1.009576021324228e+00
-6.113317798406261e-18 -1.029280730365858e-16  4.156867722510667e-01
-1.009576021324228e+00  4.156867722510667e-01 -4.353324227121665e-17

-1.101575652282608e-16 -2.361996969814165e-18 -1.009125992233575e+00
-2.361996969814165e-18  7.958966304652145e-18  4.156348313073684e-01
-1.009125992233575e+00  4.156348313073684e-01 -3.338395524301954e-17

-9.134116927474257e-17 -4.780884702565860e-19 -1.009144850139791e+00
-4.780884702565860e-19 -1.002642033966069e-16  4.153618164939616e-01
-1.009144850139791e+00  4.153618164939616e-01 -2.670598998137471e-17

-7.605879751550455e-17  6.045599864258806e-19 -1.008490551930507e+00
 6.045599864258806e-19  6.236050413737935e-17  4.153582520677880e-01
-1.008490551930507e+00  4.153582520677880e-01 -2.133317258030804e-17

-6.434388848102861e-17  1.262221798557711e-18 -1.009296056548520e+00
 1.262221798557711e-18 -1.976928653384515e-17  4.153214812831888e-01
-1.009296056548520e+00  4.153214812831888e-01 -1.719844481420995e-17

-5.716881590312702e-17  1.515926613730563e-18 -1.008883646751403e+00
 1.515926613730563e-18  4.149498729103719e-18  4.141781257672444e-01
-1.008883646751403e+00  4.141781257672444e-01 -1.465880380938645e-17

-4.682519001883961e-17  1.750551551774762e-18 -1.007648371671628e+00
 1.750551551774762e-18 -3.843520479562466e-17  4.149851682355450e-01
-1.007648371671628e+00  4.149851682355450e-01 -1.108309133843938e-17

-3.750600617552845e-17  1.799262079675996e-18 -1.006203570168912e+00
 1.799262079675996e-18 -4.371260731157703e-17  4.146421369700692e-01
-1.006203570168912e+00  4.146421369700692e-01 -7.878372623018476e-18

-3.013515040247387e-17  1.729576096721516e-18 -1.004074201262581e+00
 1.729576096721516e-18 -4.905955936865407e-17  4.157179569667060e-01
-1.004074201262581e+00  4.157179569667060e-01 -5.397588852828340e-18

-2.511683133916603e-17  1.638115454283064e-18 -1.003045867275390e+00
 1.638115454283064e-18  1.086824136395332e-17  4.124832952050481e-01
-1.003045867275390e+00  4.124832952050481e-01 -3.657311538131786e-18

-2.177110188777798e-17  1.533933598490777e-18 -1.004406248696931e+00
 1.533933598490777e-18 -8.645450339630435e-18  4.145135308323745e-01
-1.004406248696931e+00  4.145135308323745e-01 -2.425838256783071e-18

-1.877362229927172e-17  1.419545068006025e-18 -9.922242797020647e-01
 1.419545068006025e-18 -2.899140006401646e-17  4.301368338956898e-01
-9.922242797020647e-01  4.301368338956898e-01 -2.180624567820706e-18

-1.660854039765036e-17  1.346433204825919e-18 -1.004135394322632e+00
 1.346433204825919e-18 -2.265734479304657e-17  4.045929030316726e-01
-1.004135394322632e+00  4.045929030316726e-01 -4.413896716080430e-19

-1.518873175767910e-17  1.309829543853877e-18 -1.000435414505304e+00
 1.309829543853877e-18  4.569582345882957e-18  3.989287354418430e-01
-1.000435414505304e+00  3.989287354418430e-01 -1.287552034993259e-19

-1.334881181324382e-17  1.198456938453873e-18 -9.928774785673903e-01
 1.198456938453873e-18  2.783138529910039e-17  4.201889933913305e-01
-9.928774785673903e-01  4.201889933913305e-01 -1.586528014902823e-19

-1.121753165086236e-17  1.076532541374754e-18 -1.005102175574105e+00
 1.076532541374754e-18 -5.685615818714809e-17  4.197684894519909e-01
-1.005102175574105e+00  4.197684894519909e-01  1.190995828016235e-18

-8.228661468637227e-18  9.311011538166199e-19 -1.006862237894091e+00
 9.311011538166199e-19  2.629260848759336e-17  4.152854796372731e-01
-1.006862237894091e+00  4.152854796372731e-01  2.276951485383645e-18

-5.552662024046933e-18  7.817235329270882e-19 -1.007236778438202e+00
 7.817235329270882e-19  4.079701062393323e-17  4.160549770482654e-01
-1.007236778438202e+00  4.160549770482654e-01  3.157057939339228e-18

-3.725039174844050e-18  6.519737445982088e-19 -1.009281277960854e+00
 6.519737445982088e-19  2.289516871386267e-18  4.163975374468373e-01
-1.009281277960854e+00  4.163975374468373e-01  3.844630725433707e-18

-2.549799005270521e-18  5.854662585624684e-19 -1.009796009048189e+00
 5.854662585624684e-19 -8.909026452190482e-18  4.167046332518627e-01
-1.009796009048189e+00  4.167046332518627e-01  4.240240049373083e-18

-1.626114817932370e-18  5.201992081343993e-19 -1.009935426801499e+00
 5.201992081343993e-19 -2.789725051774026e-18  4.174922195073141e-01
-1.009935426801499e+00  4.174922195073141e-01  4.543223883206912e-18

-7.517800023626111e-19  4.601370525483116e-19 -1.010294055304443e+00
 4.601370525483116e-19  3.526613751770147e-17  4.168545186456352e-01
-1.010294055304443e+00  4.168545186456352e-01  4.859565702636765e-18

 1.162568690692048e-19  4.043133723812872e-19 -1.010141480758911e+00
 4.043133723812872e-19  6.510618518754942e-18  4.173620022645583e-01
-1.010141480758911e+00  4.173620022645583e-01  5.136840938743863e-18

 8.938510201184379e-19  3.540794110840581e-19 -1.010650563198900e+00
 3.540794110840581e-19  6.785097858373597e-18  4.172143262530745e-01
-1.010650563198900e+00  4.172143262530745e-01  5.430557111591766e-18

 1.666850773741660e-18  3.031722774403468e-19 -1.010928471637930e+00
 3.031722774403468e-19  7.030455309143110e-18  4.177134695285794e-01
-1.010928471637930e+00  4.177134695285794e-01  5.707847653182066e-18

 2.371993282127324e-18  2.556291620310000e-19 -1.009971919754626e+00
 2.556291620310000e-19  2.853708523913423e-17  4.181066795330838e-01
-1.009971919754626e+00  4.181066795330838e-01  5.872672928560564e-18

 2.906620352184388e-18  2.200695312651969e-19 -1.009495656027722e+00
 2.200695312651969e-19  2.899186720842430e-17  4.159639325290376e-01
-1.009495656027722e+00  4.159639325290376e-01  6.067105430075250e-18

 3.295575580054986e-18  2.011712648040567e-19 -1.011117752114841e+00
 2.011712648040567e-19  9.561006626518131e-18  4.152421316852147e-01
-1.011117752114841e+00  4.152421316852147e-01  6.298284279852619e-18

 3.550961694780677e-18  1.784042200021218e-19 -1.010055329169825e+00
 1.784042200021218e-19  8.758130768439386e-18  4.193637625469727e-01
-1.010055329169825e+00  4.193637625469727e-01  6.265338862509135e-18

 4.103797288828811e-18  1.397791854264574e-19 -1.010673797840134e+00
 1.397791854264574e-19  5.282688177058538e-18  4.166766619601638e-01
-1.010673797840134e+00  4.166766619601638e-01  6.522043945447964e-18

 4.545198725895007e-18  1.138866251559416e-19 -1.012780815088686e+00
 1.138866251559416e-19 -5.196548735191666e-18  4.155511725365928e-01
-1.012780815088686e+00  4.155511725365928e-01  6.774038419188902e-18

 4.733287973771731e-18  1.047890701911563e-19 -1.010200175727731e+00
 1.047890701911563e-19  1.524129747680503e-17  4.204677845868818e-01
-1.010200175727731e+00  4.204677845868818e-01  6.689187663096051e-18

 4.954345531124438e-18  9.252193383928804e-20 -1.005676204642439e+00
 9.252193383928804e-20  4.217540899531761e-17  4.197072261981645e-01
-1.005676204642439e+00  4.197072261981645e-01  6.544985580172807e-18

 5.590580734710208e-18  8.185232139794041e-20 -1.019923778512015e+00
 8.185232139794041e-20  5.883313666695090e-17  3.959466661636316e-01
-1.019923778512015e+00  3.959466661636316e-01  7.802191504135440e-18

 5.599454797286817e-18  7.821524461727873e-20 -1.014015842886169e+00
 7.821524461727873e-20 -1.973683635327739e-17  4.082882584225690e-01
-1.014015842886169e+00  4.082882584225690e-01  7.369690481302985e-18

 5.365780612463134e-18  4.908163256156196e-20 -9.997791619862827e-01
 4.908163256156196e-20 -3.055065103813050e-17  4.331075587661903e-01
-9.997791619862827e-01  4.331075587661903e-01  6.199825026531649e-18

 5.926085161914591e-18  4.148115510352182e-20 -1.011247853183166e+00
 4.148115510352182e-20  1.666434680853809e-17  4.182016843693931e-01
-1.011247853183166e+00  4.182016843693931e-01  7.195757330228138e-18

 6.190574191610620e-18  3.080120648153613e-20 -1.013095323876773e+00
 3.080120648153613e-20 -4.721900402165122e-18  4.058235125525643e-01
-1.013095323876773e+00  4.058235125525643e-01  7.544352232987025e-18

 6.244511599179562e-18  3.123452960102271e-20 -1.010849512498325e+00
 3.123452960102271e-20  4.802191453849273e-17  4.070759639133315e-01
-1.010849512498325e+00  4.070759639133315e-01  7.392076984067384e-18

 6.388816240593766e-18  1.327275811136648e-20 -1.007592497598381e+00
 1.327275811136648e-20 -1.372094733238610e-17  4.170432651356986e-01
-1.007592497598381e+00  4.170432651356986e-01  7.170504409608640e-18

 6.621136300770129e-18  1.063034277584418e-20 -1.009713042452268e+00
 1.063034277584418e-20  4.831366086639302e-17  4.174195491284325e-01
-1.009713042452268e+00  4.174195491284325e-01  7.329174632089274e-18

 6.792264612132740e-18 -1.263387785307912e-20 -1.008986223899859e+00
-1.263387785307912e-20  6.329055768048930e-17  4.144487243514896e-01
-1.008986223899859e+00  4.144487243514896e-01  7.417454353999712e-18

 6.965689963523394e-18 -7.363827237309075e-21 -1.007514946017518e+00
-7.363827237309075e-21  3.191484756686410e-17  4.135667863575619e-01
-1.007514946017518e+00  4.135667863575619e-01  7.438052646119548e-18

 7.097255264000699e-18 -2.310768746209215e-20 -1.006610048518946e+00
-2.310768746209215e-20  1.402022085083536e-18  4.148546765696620e-01
-1.006610048518946e+00  4.148546765696620e-01  7.428521509597372e-18

 7.192859359947703e-18 -2.485557107492053e-20 -1.004802750998909e+00
-2.485557107492053e-20  4.274556374793298e-17  4.144627227844777e-01
-1.004802750998909e+00  4.144627227844777e-01  7.436404628695320e-18

 7.343530169461801e-18 -1.801132281177400e-20 -1.004935046312630e+00
-1.801132281177400e-20 -7.966139025653273e-18  4.124239485173730e-01
-1.004935046312630e+00  4.124239485173730e-01  7.527965777486490e-18

 7.469517688827626e-18 -2.344069914752793e-20 -1.003288391414213e+00
-2.344069914752793e-20 -1.873277957513809e-17  4.115056475084626e-01
-1.003288391414213e+00  4.115056475084626e-01  7.538591498459353e-18

 7.696696013438409e-18 -2.144050114185712e-20 -1.005939503377767e+00
-2.144050114185712e-20 -1.850912470636075e-17  4.102388960084360e-01
-1.005939503377767e+00  4.102388960084360e-01  7.795902697246411e-18

 7.611210322320135e-18 -2.305514158778384e-20 -9.970548475213613e-01
-2.305514158778384e-20  2.200368426743672e-17  4.226023475275740e-01
-9.970548475213613e-01  4.226023475275740e-01  7.087025538843684e-18

 7.689715361496256e-18 -2.541765956090030e-20 -9.968758885977229e-01
-2.541765956090030e-20  2.842760199256328e-17  4.155256794175150e-01
-9.968758885977229e-01  4.155256794175150e-01  7.223887817804490e-18

 7.979575754530260e-18 -2.731302242233699e-20 -1.005132420576355e+00
-2.731302242233699e-20 -2.154253387851052e-17  3.971564995647303e-01
-1.005132420576355e+00  3.971564995647303e-01  7.942035294066611e-18

 8.106148576881019e-18 -2.243645413441765e-20 -1.007383901072632e+00
-2.243645413441765e-20 -9.924688574672517e-18  4.100737732639547e-01
-1.007383901072632e+00  4.100737732639547e-01  7.928964610831940e-18

 8.207126971672161e-18 -1.567379021606501e-20 -1.007582026360450e+00
-1.567379021606501e-20  4.449836631439814e-17  4.231345672856157e-01
-1.007582026360450e+00  4.231345672856157e-01  7.833403789047645e-18

 8.054921365799221e-18 -1.111203900145240e-20 -9.977489346253791e-01
-1.111203900145240e-20 -1.438341501841503e-17  4.194221577826742e-01
-9.977489346253791e-01  4.194221577826742e-01  7.258162767226717e-18

 8.435398575210562e-18 -2.849837753275767e-20 -1.009612205393133e+00
-2.849837753275767e-20  2.279232487584923e-17  3.907218181511553e-01
-1.009612205393133e+00  3.907218181511553e-01  8.371863406923178e-18

 8.166014240219269e-18 -2.892065179984279e-20 -9.958086262096695e-01
-2.892065179984279e-20 -2.449988875603621e-17  4.135705094628666e-01
-9.958086262096695e-01  4.135705094628666e-01  7.267399538716808e-18

 8.043027740419805e-18 -2.181913012387802e-20 -9.895518185671609e-01
-2.181913012387802e-20  2.729489085275674e-17  4.297905348535137e-01
-9.895518185671609e-01  4.297905348535137e-01  6.670939211569608e-18

 8.496417125768190e-18 -2.174286076859521e-20 -1.004455453660786e+00
-2.174286076859521e-20  1.861709188050970e-17  4.093961962236984e-01
-1.004455453660786e+00  4.093961962236984e-01  7.851357520925934e-18

 8.577560831702732e-18 -2.680026329382031e-20 -1.004148497287831e+00
-2.680026329382031e-20  1.443253320300101e-17  4.078163861371722e-01
-1.004148497287831e+00  4.078163861371722e-01  7.815656895798972e-18

 8.664135878670514e-18 -2.454917263302938e-20 -1.006236188577584e+00
-2.454917263302938e-20  1.947034018885971e-17  4.071805704924429e-01
-1.006236188577584e+00  4.071805704924429e-01  7.972461663883453e-18

 8.810094587428101e-18 -4.568138172837544e-20 -1.008292896557721e+00
-4.568138172837544e-20 -3.443766275240709e-17  4.118058991726167e-01
-1.008292896557721e+00  4.118058991726167e-01  8.048715707820770e-18

 8.851812699757434e-18 -4.446913633901124e-20 -1.004867437658182e+00
-4.446913633901124e-20 -7.504038756485877e-18  4.100256553318694e-01
-1.004867437658182e+00  4.100256553318694e-01  7.880114908267421e-18

 8.923131057223739e-18 -4.681398164278525e-20 -1.004839701925157e+00
-4.681398164278525e-20 -6.860690153442641e-18  4.107024440031380e-01
-1.004839701925157e+00  4.107024440031380e-01  7.899304488202148e-18

 8.994775139534653e-18 -4.967359664919820e-20 -1.005065836854723e+00
-4.967359664919820e-20 -2.048003096091627e-17  4.140667267048667e-01
-1.005065836854723e+00  4.140667267048667e-01  7.858070095042523e-18

 9.043925387020346e-18 -5.001226981443782e-20 -1.003838002125585e+00
-5.001226981443782e-20 -1.123939071541143e-17  4.113401352805133e-01
-1.003838002125585e+00  4.113401352805133e-01  7.841740089031807e-18

 9.106021514667174e-18 -4.109184858096482e-20 -1.003207755058567e+00
-4.109184858096482e-20  1.955147584178851e-17  4.183462931583530e-01
-1.003207755058567e+00  4.183462931583530e-01  7.733522712029617e-18

 9.117534763023449e-18 -7.435352155015961e-20 -1.001036350358077e+00
-7.435352155015961e-20 -2.379640158592093e-17  4.145130580684432e-01
-1.001036350358077e+00  4.145130580684432e-01  7.652630771237296e-18

 9.346087004384953e-18 -6.467817799685413e-20 -1.009086852180405e+00
-6.467817799685413e-20  9.260806964871556e-18  3.994475055950347e-01
-1.009086852180405e+00  3.994475055950347e-01  8.316524527105204e-18

 9.184549152600578e-18 -9.153978816014534e-20 -1.001068495044113e+00
-9.153978816014534e-20 -2.974710420345796e-17  4.150720756738433e-01
-1.001068495044113e+00  4.150720756738433e-01  7.651083623496616e-18

 9.062436613849773e-18 -4.891339107588667e-20 -9.958779912469923e-01
-4.891339107588667e-20  1.478306553254577e-17  4.276571751656624e-01
-9.958779912469923e-01  4.276571751656624e-01  7.142405807654733e-18

 9.505029316610573e-18 -5.324097684168519e-20 -1.011725691526939e+00
-5.324097684168519e-20  1.749067798225969e-17  3.975616809367978e-01
-1.011725691526939e+00  3.975616809367978e-01  8.435686517090702e-18

 9.874481355409720e-18 -9.153216963799512e-20 -1.025623633533597e+00
-9.153216963799512e-20 -2.217021441219715e-17  3.920793412028052e-01
-1.025623633533597e+00  3.920793412028052e-01  9.368995569824598e-18

 9.515472869144684e-18 -8.192750076618957e-20 -1.011570309250741e+00
-8.192750076618957e-20 -1.475944242914058e-17  4.357461333891053e-01
-1.011570309250741e+00  4.357461333891053e-01  7.979422969943944e-18

 9.593878734918131e-18 -4.150781975225426e-20 -1.010690632098655e+00
-4.150781975225426e-20  3.429583631527041e-17  4.146216474340299e-01
-1.010690632098655e+00  4.146216474340299e-01  8.232539895862734e-18

 9.207764168252673e-18 -8.589479370451400e-20 -9.891450994270155e-01
-8.589479370451400e-20  4.054679787156745e-18  4.119138484707641e-01
-9.891450994270155e-01  4.119138484707641e-01  7.068800856167185e-18

 9.424365225968717e-18 -6.068161709156753e-20 -9.972595018857537e-01
-6.068161709156753e-20  1.754062632937658e-17  4.182924162773206e-01
-9.972595018857537e-01  4.182924162773206e-01  7.522785100586774e-18

 9.620698849691987e-18 -5.554556142981307e-20 -1.003572787151150e+00
-5.554556142981307e-20  2.771868011634926e-17  4.156032355132741e-01
-1.003572787151150e+00  4.156032355132741e-01  7.870815757796216e-18

 9.842606673431843e-18 -1.237355757303857e-19 -1.010818535640767e+00
-1.237355757303857e-19 -2.566833229086764e-17  4.150456741247197e-01
-1.010818535640767e+00  4.150456741247197e-01  8.286520699703717e-18

 9.783835347171241e-18 -6.145741304612882e-21 -1.006208746517053e+00
-6.145741304612882e-21  8.037977070494844e-17  4.200618875451491e-01
-1.006208746517053e+00  4.200618875451491e-01  7.961210581037067e-18

 9.710033723764149e-18 -4.636386716053112e-20 -1.000778298104928e+00
-4.636386716053112e-20  4.333679560671055e-17  4.119107124843021e-01
-1.000778298104928e+00  4.119107124843021e-01  7.723334552627236e-18

 9.824053123353334e-18 -1.412449592946835e-19 -1.004504359898454e+00
-1.412449592946835e-19 -2.807745198701530e-17  4.012903957569048e-01
-1.004504359898454e+00  4.012903957569048e-01  8.084721097025644e-18

 9.972659764448820e-18 -6.442046356121575e-20 -1.009790909091987e+00
-6.442046356121575e-20  3.360276560043565e-17  4.102423561714755e-01
-1.009790909091987e+00  4.102423561714755e-01  8.301800023656934e-18

 9.703044801741140e-18 -7.798749942104199e-20 -9.990863700861558e-01
-7.798749942104199e-20  2.661895381861648e-17  4.380018139805721e-01
-9.990863700861558e-01  4.380018139805721e-01  7.326526603654940e-18

 9.947833743307566e-18 -1.123393689799539e-19 -1.008006302062690e+00
-1.123393689799539e-19 -8.077063034070921e-18  4.244663555934092e-01
-1.008006302062690e+00  4.244663555934092e-01  8.021361473933246e-18

 9.898987533375738e-18 -1.068408337804515e-19 -1.003751578715722e+00
-1.068408337804515e-19  6.156394798452447e-18  4.103661692848254e-01
-1.003751578715722e+00  4.103661692848254e-01  7.948482357961083e-18

 9.969493306157797e-18 -6.549249920498773e-20 -1.005625942923417e+00
-6.549249920498773e-20  3.673500264951425e-17  4.124611061902744e-01
-1.005625942923417e+00  4.124611061902744e-01  8.041433515361654e-18

 9.892762198784749e-18 -1.075694156745215e-19 -1.001448250492366e+00
-1.075694156745215e-19  9.031203595125710e-18  4.222023202680479e-01
-1.001448250492366e+00  4.222023202680479e-01  7.698408021789384e-18

 1.001409442093610e-17 -1.259355863030504e-19 -1.006205681795161e+00
-1.259355863030504e-19 -9.726055880778679e-18  4.214312184316927e-01
-1.006205681795161e+00  4.214312184316927e-01  7.987186589613528e-18

 1.003513937753658e-17 -1.076702550452072e-19 -1.005438453405157e+00
-1.076702550452072e-19  9.466225036649964e-18  4.159086150369200e-01
-1.005438453405157e+00  4.159086150369200e-01  7.997641158073019e-18

 1.005504202472887e-17 -9.722020443567804e-20 -1.005117281880876e+00
-9.722020443567804e-20  1.398105133720838e-17  4.150603806812759e-01
-1.005117281880876e+00  4.150603806812759e-01  7.977995927000897e-18

 1.014367435677025e-17 -1.246764955495262e-19 -1.008109709214559e+00
-1.246764955495262e-19  2.566913764177613e-18  4.158483853308113e-01
-1.008109709214559e+00  4.158483853308113e-01  8.146490373173507e-18

 1.016824829383385e-17 -9.148443854325433e-20 -1.008285226977533e+00
-9.148443854325433e-20  2.346723225905520e-17  4.215800620952689e-01
-1.008285226977533e+00  4.215800620952689e-01  8.071148772355861e-18

 1.006465275868113e-17 -7.575587913518352e-20 -1.003757753127016e+00
-7.575587913518352e-20  2.789771108060911e-17  4.261948016555133e-01
-1.003757753127016e+00  4.261948016555133e-01  7.738306350651840e-18

 1.017103819706234e-17 -7.789923399810164e-20 -1.006856978956968e+00
-7.789923399810164e-20  3.524416701812896e-17  4.149815685684827e-01
-1.006856978956968e+00  4.149815685684827e-01  8.070435395140136e-18

 1.022787690919196e-17 -8.514722882926793e-20 -1.008164731311853e+00
-8.514722882926793e-20  2.562275050429676e-17  4.077777791874481e-01
-1.008164731311853e+00  4.077777791874481e-01  8.239076594417519e-18

 1.015675072621985e-17 -5.201280178574567e-20 -1.004635842123430e+00
-5.201280178574567e-20  5.838816797425076e-17  4.214285504772526e-01
-1.004635842123430e+00  4.214285504772526e-01  7.881161295720907e-18

 1.021557638599864e-17 -1.305051559923766e-19 -1.007045525255479e+00
-1.305051559923766e-19 -9.621913572092650e-19  4.272628553329687e-01
-1.007045525255479e+00  4.272628553329687e-01  7.958672555086876e-18

 1.036771380231348e-17 -6.119099784065334e-20 -1.011717012766637e+00
-6.119099784065334e-20  5.082295996093042e-17  4.138082840862478e-01
-1.011717012766637e+00  4.138082840862478e-01  8.417406494684941e-18

 1.030225942916931e-17 -1.013376129174276e-19 -1.008689349933380e+00
-1.013376129174276e-19  2.695949362217336e-17  4.129078063091076e-01
-1.008689349933380e+00  4.129078063091076e-01  8.216870800780793e-18

 1.025516656099982e-17 -1.793474000507413e-19 -1.005029996848857e+00
-1.793474000507413e-19 -3.732988006047898e-17  4.190389026003328e-01
-1.005029996848857e+00  4.190389026003328e-01  7.954187384745409e-18

 1.031627334286148e-17 -1.805453368043388e-19 -1.007013325293604e+00
-1.805453368043388e-19 -3.654178259072220e-17  4.165816551877825e-01
-1.007013325293604e+00  4.165816551877825e-01  8.097935135989361e-18

 1.039596559891381e-17 -1.028619857038317e-19 -1.009828132593486e+00
-1.028619857038317e-19  2.098210208211613e-17  4.200429311577836e-01
-1.009828132593486e+00  4.200429311577836e-01  8.207482551268359e-18

 1.020942906689262e-17 -6.038402310203674e-20 -1.001606778452043e+00
-6.038402310203674e-20  4.925156589930434e-17  4.295164591323755e-01
-1.001606778452043e+00  4.295164591323755e-01  7.583401799199599e-18

 1.039289621964565e-17 -1.079736443101412e-19 -1.007517962964472e+00
-1.079736443101412e-19  1.095334462928979e-17  4.134187815200138e-01
-1.007517962964472e+00  4.134187815200138e-01  8.176972278356791e-18

 1.055179733385175e-17 -1.300629993798415e-19 -1.013966042524225e+00
-1.300629993798415e-19 -1.968468084338788e-18  4.026887574595334e-01
-1.013966042524225e+00  4.026887574595334e-01  8.663342815992897e-18

 1.037024903040603e-17 -1.162480673075354e-19 -1.006013319348660e+00
-1.162480673075354e-19  2.850474210756640e-18  4.247508780216423e-01
-1.006013319348660e+00  4.247508780216423e-01  7.907637791959823e-18

 1.032255500381685e-17 -1.107566958522642e-19 -1.004195064588771e+00
-1.107566958522642e-19  1.391807490440304e-17  4.342669733118470e-01
-1.004195064588771e+00  4.342669733118470e-01  7.723551984212906e-18

 1.039124350235417e-17 -1.214168543401190e-19 -1.005330439516947e+00
-1.214168543401190e-19  1.487974683068028e-17  4.188712652310428e-01
-1.005330439516947e+00  4.188712652310428e-01  7.944684996954179e-18

 1.057170238491410e-17 -1.333685092892438e-19 -1.012090043193581e+00
-1.333685092892438e-19 -9.009936766664177e-18  3.980446725582914e-01
-1.012090043193581e+00  3.980446725582914e-01  8.607165578046809e-18

 1.042041900313743e-17 -1.151141007083839e-19 -1.005502805853635e+00
-1.151141007083839e-19  1.569292555022820e-17  4.179487281446144e-01
-1.005502805853635e+00  4.179487281446144e-01  7.996722773341808e-18

 1.026293518053759e-17 -1.113403772285747e-19 -9.995740418874308e-01
-1.113403772285747e-19  1.310077250796062e-17  4.387926370085249e-01
-9.995740418874308e-01  4.387926370085249e-01  7.377556233419061e-18

 1.055384679328242e-17 -1.415665273206916e-19 -1.011154089980635e+00
-1.415665273206916e-19 -5.517742010563969e-18  4.208531194882239e-01
-1.011154089980635e+00  4.208531194882239e-01  8.238222124714852e-18

 1.072401148334733e-17 -1.257488747901633e-19 -1.016933190629603e+00
-1.257488747901633e-19  1.188246969975804e-17  4.084655030912014e-01
-1.016933190629603e+00  4.084655030912014e-01  8.781822944080170e-18

 1.051719485499286e-17 -1.227263876345926e-19 -1.008536892979171e+00
-1.227263876345926e-19  8.194985690342337e-18  4.181301891024948e-01
-1.008536892979171e+00  4.181301891024948e-01  8.115204127513350e-18

 1.051275695078830e-17 -1.423149733844572e-19 -1.007344724424112e+00
-1.423149733844572e-19 -1.021029431174315e-17  4.246579539160169e-01
-1.007344724424112e+00  4.246579539160169e-01  7.938471584272751e-18

 1.054134244992979e-17 -9.682487429166959e-20 -1.008480911832802e+00
-9.682487429166959e-20  3.077981606162771e-17  4.194930447231346e-01
-1.008480911832802e+00  4.194930447231346e-01  8.090037581833645e-18

 1.067403457853977e-17 -1.435787083387010e-19 -1.013427578305004e+00
-1.435787083387010e-19  6.127323095447201e-18  4.141722705916198e-01
-1.013427578305004e+00  4.141722705916198e-01  8.413055147105357e-18

 1.064324253200720e-17 -9.729613262166816e-20 -1.012127452474548e+00
-9.729613262166816e-20  4.986870649184095e-17  4.215234893531364e-01
-1.012127452474548e+00  4.215234893531364e-01  8.262009476880211e-18

 1.066777676917931e-17 -1.336817026776704e-19 -1.012701339475035e+00
-1.336817026776704e-19  3.077214035498064e-17  4.247357558071245e-01
-1.012701339475035e+00  4.247357558071245e-01  8.262027278501704e-18

 1.071443077403036e-17 -1.418169533422567e-19 -1.012946848180455e+00
-1.418169533422567e-19 -1.103522977492404e-17  4.184022025540791e-01
-1.012946848180455e+00  4.184022025540791e-01  8.388561356041735e-18

 1.055016399344329e-17 -1.357710370062278e-19 -1.005370820182911e+00
-1.357710370062278e-19 -1.378973686759197e-17  4.237777572807551e-01
-1.005370820182911e+00  4.237777572807551e-01  7.902283892221535e-18

 1.073726528257242e-17 -1.411948810317052e-19 -1.011410061687371e+00
-1.411948810317052e-19 -6.378404992159376e-18  4.113917743377632e-01
-1.011410061687371e+00  4.113917743377632e-01  8.392074843569784e-18

 1.065122428261710e-17 -1.400638307678050e-19 -1.008275466898312e+00
-1.400638307678050e-19  7.119060122259044e-19  4.169355786098491e-01
-1.008275466898312e+00  4.169355786098491e-01  8.159958580859160e-18

 1.078398954651136e-17 -1.183663997948380e-19 -1.013299574541110e+00
-1.183663997948380e-19  2.347509934332926e-17  4.209050321864982e-01
-1.013299574541110e+00  4.209050321864982e-01  8.426133021957282e-18

 1.059679432820797e-17 -1.391776429268695e-19 -1.005090994391655e+00
-1.391776429268695e-19  1.961332951793701e-17  4.286229684846631e-01
-1.005090994391655e+00  4.286229684846631e-01  7.811869605043331e-18

 1.096215424185322e-17 -1.175744358634191e-19 -1.018247457969826e+00
-1.175744358634191e-19  2.105748431332297e-17  4.058746749796605e-01
-1.018247457969826e+00  4.058746749796605e-01  8.888436825546885e-18

 1.092548223551854e-17 -1.070235058076748e-19 -1.017221260508158e+00
-1.070235058076748e-19  2.359000546218591e-17  4.047836368106556e-01
-1.017221260508158e+00  4.047836368106556e-01  8.835284628148984e-18

 1.053342863323406e-17 -1.131911618389302e-19 -1.000173902277997e+00
-1.131911618389302e-19  5.530380766445102e-18  4.314859502752932e-01
-1.000173902277997e+00  4.314859502752932e-01  7.444680083204804e-18

 1.073210260174767e-17 -1.126818870861656e-19 -1.009061385688430e+00
-1.126818870861656e-19  2.334556962095273e-17  4.286205079374827e-01
-1.009061385688430e+00  4.286205079374827e-01  8.085641269912325e-18

 1.114704930947166e-17 -1.109518198995572e-19 -1.024280329803225e+00
-1.109518198995572e-19  1.972368709028899e-17  4.038841165478908e-01
-1.024280329803225e+00  4.038841165478908e-01  9.299944072676981e-18

 1.100835950168859e-17 -1.159397195328550e-19 -1.018977125298921e+00
-1.159397195328550e-19  2.853875068159725e-18  4.067928692258845e-01
-1.018977125298921e+00  4.067928692258845e-01  8.923799713166302e-18

 1.058591727748329e-17 -1.350231896383470e-19 -1.001798405446222e+00
-1.350231896383470e-19  2.118770837022775e-17  4.288836368983876e-01
-1.001798405446222e+00  4.288836368983876e-01  7.586485170780462e-18

 1.079681674222763e-17 -1.241901321098355e-19 -1.010063489818848e+00
-1.241901321098355e-19  1.648938063634191e-18  4.237667922130791e-01
-1.010063489818848e+00  4.237667922130791e-01  8.195744485198379e-18

 1.101360003937689e-17 -1.105785662310590e-19 -1.017530151918278e+00
-1.105785662310590e-19  1.294746966182276e-17  4.130505872357438e-01
-1.017530151918278e+00  4.130505872357438e-01  8.763396634534735e-18

 1.096782702652667e-17 -1.199358509276213e-19 -1.016121150059481e+00
-1.199358509276213e-19  1.910773761712089e-17  4.116933247095979e-01
-1.016121150059481e+00  4.116933247095979e-01  8.694517538828728e-18

 1.073957602949537e-17 -9.888966576590435e-20 -1.006576238270221e+00
-9.888966576590435e-20  4.012015847910017e-17  4.227946362789152e-01
-1.006576238270221e+00  4.227946362789152e-01  7.962678542531868e-18

 1.094039264084182e-17 -1.106550562436440e-19 -1.014520072723419e+00
-1.106550562436440e-19  4.998724046361860e-18  4.172752226688212e-01
-1.014520072723419e+00  4.172752226688212e-01  8.526844693043937e-18

 1.088119839841171e-17 -1.213782058374016e-19 -1.011295669148829e+00
-1.213782058374016e-19 -1.077579347344656e-18  4.199111866393155e-01
-1.011295669148829e+00  4.199111866393155e-01  8.300279095820910e-18

 1.088075943599825e-17 -1.140545569921104e-19 -1.010942016752375e+00
-1.140545569921104e-19 -2.161726215735945e-18  4.194090401087431e-01
-1.010942016752375e+00  4.194090401087431e-01  8.255290443478458e-18

 1.093600304432876e-17 -1.039469322536985e-19 -1.012925149418987e+00
-1.039469322536985e-19  1.974633516554533e-17  4.208400169561868e-01
-1.012925149418987e+00  4.208400169561868e-01  8.349004622102784e-18

 1.090094459614929e-17 -1.119415271988007e-19 -1.010905272010919e+00
-1.119415271988007e-19  1.078101099010007e-17  4.199432805767140e-01
-1.010905272010919e+00  4.199432805767140e-01  8.217231978790651e-18

 1.097853769204592e-17 -1.153415687357946e-19 -1.013324681316494e+00
-1.153415687357946e-19  9.401456733668169e-18  4.210732818083033e-01
-1.013324681316494e+00  4.210732818083033e-01  8.356081245721872e-18

 1.094695210038357e-17 -1.124658421277920e-19 -1.011929555744885e+00
-1.124658421277920e-19  1.475325836766969e-17  4.197959656388774e-01
-1.011929555744885e+00  4.197959656388774e-01  8.274781936609419e-18

 1.100365413915395e-17 -1.094230062689034e-19 -1.014033683626439e+00
-1.094230062689034e-19 -7.468151963532697e-18  4.206866740183787e-01
-1.014033683626439e+00  4.206866740183787e-01  8.379644159423583e-18

 1.102904664909409e-17 -1.141219650564185e-19 -1.014887249793045e+00
-1.141219650564185e-19  1.607894749294935e-18  4.224714468987699e-01
-1.014887249793045e+00  4.224714468987699e-01  8.409433891774963e-18

 1.097708368862987e-17 -1.119244733995018e-19 -1.012367859329173e+00
-1.119244733995018e-19  1.919741857681129e-17  4.229158773198759e-01
-1.012367859329173e+00  4.229158773198759e-01  8.245127467891272e-18

 1.102282733752833e-17 -1.058508562158601e-19 -1.013406671169925e+00
-1.058508562158601e-19 -3.698518123069182e-18  4.146748734266357e-01
-1.013406671169925e+00  4.146748734266357e-01  8.425268525006473e-18

 1.102880706756127e-17 -1.071849973258445e-19 -1.013172323047683e+00
-1.071849973258445e-19  2.568159047804314e-17  4.176854926308295e-01
-1.013172323047683e+00  4.176854926308295e-01  8.399631301631108e-18

 1.091914978906345e-17 -1.109948343597618e-19 -1.009234476250799e+00
-1.109948343597618e-19  1.738507337764211e-17  4.276764882232928e-01
-1.009234476250799e+00  4.276764882232928e-01  8.012502939793460e-18

 1.104707715489009e-17 -1.051737837442622e-19 -1.013673450847640e+00
-1.051737837442622e-19  2.127568713716511e-17  4.201483662434217e-01
-1.013673450847640e+00  4.201483662434217e-01  8.386057835332906e-18

 1.103958924552033e-17 -1.079562485508072e-19 -1.012353499725307e+00
-1.079562485508072e-19  2.891085525430538e-17  4.205895743530449e-01
-1.012353499725307e+00  4.205895743530449e-01  8.318484098055550e-18

 1.102331542134619e-17 -1.125920936953542e-19 -1.011441991351032e+00
-1.125920936953542e-19  1.013369029766483e-17  4.210569019214851e-01
-1.011441991351032e+00  4.210569019214851e-01  8.275960781945029e-18

 1.103367931429036e-17 -1.209200065316616e-19 -1.011463750137619e+00
-1.209200065316616e-19 -2.012771678603335e-17  4.192048779126871e-01
-1.011463750137619e+00  4.192048779126871e-01  8.290781328447699e-18

 1.105667731992307e-17 -1.158985119531620e-19 -1.012348062832123e+00
-1.158985119531620e-19 -1.804314755692405e-17  4.214772380818712e-01
-1.012348062832123e+00  4.214772380818712e-01  8.314003639444541e-18

 1.103488344001971e-17 -1.058742542535374e-19 -1.011339631528855e+00
-1.058742542535374e-19  2.440748296533035e-17  4.248395970794215e-01
-1.011339631528855e+00  4.248395970794215e-01  8.203414858443953e-18

 1.107401397460227e-17 -1.092141741579365e-19 -1.012553981448811e+00
-1.092141741579365e-19  4.084883696727911e-18  4.198259129070320e-01
-1.012553981448811e+00  4.198259129070320e-01  8.355907410870402e-18

 1.106422426179408e-17 -9.468176333980750e-20 -1.011654988028407e+00
-9.468176333980750e-20  2.348854058016596e-17  4.198647697345237e-01
-1.011654988028407e+00  4.198647697345237e-01  8.307931526093297e-18

 1.110172391117333e-17 -8.065945681336269e-20 -1.012875998291549e+00
-8.065945681336269e-20  4.870910421848585e-17  4.232142219803290e-01
-1.012875998291549e+00  4.232142219803290e-01  8.369700858348875e-18

 1.106627920370066e-17 -1.142470284140178e-19 -1.011079323530550e+00
-1.142470284140178e-19  6.408093481939806e-19  4.147969236463678e-01
-1.011079323530550e+00  4.147969236463678e-01  8.326017315413557e-18

 1.117290691866128e-17 -9.430410866787581e-20 -1.015231392083800e+00
-9.430410866787581e-20  4.502739921848506e-18  4.086840353626137e-01
-1.015231392083800e+00  4.086840353626137e-01  8.621200883108586e-18

 1.116364664105144e-17 -1.194986683177635e-19 -1.015414827644587e+00
-1.194986683177635e-19  5.829287825872803e-18  4.213613779306335e-01
-1.015414827644587e+00  4.213613779306335e-01  8.486609166836899e-18

 1.141423647950753e-17 -9.506250700275584e-20 -1.026030522661729e+00
-9.506250700275584e-20  1.221501116694461e-17  4.184436968748160e-01
-1.026030522661729e+00  4.184436968748160e-01  9.140665082121184e-18

 1.111742433600976e-17 -7.804242047500229e-20 -1.012025581286443e+00
-7.804242047500229e-20  4.162706869186750e-17  4.194208103477992e-01
-1.012025581286443e+00  4.194208103477992e-01  8.369489261399237e-18

 1.085906784669239e-17 -1.047395129845508e-19 -9.992669570081578e-01
-1.047395129845508e-19 -1.941858231390731e-17  4.186928230983076e-01
-9.992669570081578e-01  4.186928230983076e-01  7.697316817844761e-18

 1.106860009687721e-17 -8.627202749554951e-20 -1.008186843157844e+00
-8.627202749554951e-20 -3.738033659869731e-18  4.136320110813803e-01
-1.008186843157844e+00  4.136320110813803e-01  8.285273083917637e-18

 1.120266432811582e-17 -1.206433605456579e-19 -1.014136838003588e+00
-1.206433605456579e-19 -1.330426616259987e-17  4.225284404447966e-01
-1.014136838003588e+00  4.225284404447966e-01  8.549100133647832e-18

 1.087441152200842e-17 -1.313811369231832e-19 -1.001719785466040e+00
-1.313811369231832e-19 -1.514877984285752e-17  4.443259291296235e-01
-1.001719785466040e+00  4.443259291296235e-01  7.473094288989067e-18

 1.130563912912195e-17 -7.406429461107655e-20 -1.018387831547826e+00
-7.406429461107655e-20  2.330536006722316e-17  4.162509691962885e-01
-1.018387831547826e+00  4.162509691962885e-01  8.796724756197355e-18

 1.121561930224533e-17 -1.002506241594089e-19 -1.015005054983955e+00
-1.002506241594089e-19  2.154528124860137e-18  4.074769203894618e-01
-1.015005054983955e+00  4.074769203894618e-01  8.664722160404722e-18

 1.114029445777892e-17 -9.861163310936259e-20 -1.012601301446694e+00
-9.861163310936259e-20  6.425294776341003e-18  4.250183028209339e-01
-1.012601301446694e+00  4.250183028209339e-01  8.313715060086173e-18

 1.120442643390194e-17 -1.235052581773605e-21 -1.015504206656960e+00
-1.235052581773605e-21  7.779956953517538e-17  4.213704789523984e-01
-1.015504206656960e+00  4.213704789523984e-01  8.504110822442128e-18

 1.111813546929393e-17 -4.751220002327529e-20 -1.011427140663795e+00
-4.751220002327529e-20  2.974002678691944e-17  4.183409530584191e-01
-1.011427140663795e+00  4.183409530584191e-01  8.264753419206434e-18

 1.129627955697323e-17 -5.637992700293928e-20 -1.020080441175360e+00
-5.637992700293928e-20  5.910842902764936e-18  4.090763056816904e-01
-1.020080441175360e+00  4.090763056816904e-01  8.753700757727237e-18

 1.085394333189874e-17 -2.215309374965265e-19 -1.005107740322391e+00
-2.215309374965265e-19 -1.096240716164101e-16  4.696396218959408e-01
-1.005107740322391e+00  4.696396218959408e-01  7.051326527993443e-18

 1.084824095961130e-17  9.879054193782488e-20 -1.003803541893765e+00
 9.879054193782488e-20  1.152567937907479e-16  4.515167528422331e-01
-1.003803541893765e+00  4.515167528422331e-01  7.154835621453306e-18

 1.122500793360956e-17  3.200152880198717e-20 -1.021115266243611e+00
 3.200152880198717e-20  1.187830156360015e-17  4.301201939120334e-01
-1.021115266243611e+00  4.301201939120334e-01  8.544868356151819e-18

 1.120727522509978e-17  4.762282082448397e-20 -1.020765719047969e+00
 4.762282082448397e-20  1.395310801663566e-17  4.286729723276938e-01
-1.020765719047969e+00  4.286729723276938e-01  8.566287525136029e-18

 1.119195126139926e-17  3.061347581153502e-20 -1.020222323410633e+00
 3.061347581153502e-20  1.487304038573361e-17  4.308458521769978e-01
-1.020222323410633e+00  4.308458521769978e-01  8.515709530421818e-18

 1.125539557145225e-17  2.915184582755253e-20 -1.021974375602793e+00
 2.915184582755253e-20  1.600105747262022e-17  4.285059088558996e-01
-1.021974375602793e+00  4.285059088558996e-01  8.618353489647842e-18

 1.116270553016752e-17  4.445054077377402e-20 -1.018790116144987e+00
 4.445054077377402e-20  1.271701963225526e-17  4.299911233035705e-01
-1.018790116144987e+00  4.299911233035705e-01  8.450731435143303e-18

 1.118099169666629e-17  2.437578400552335e-20 -1.019171676554808e+00
 2.437578400552335e-20  1.135708567024746e-17  4.313488344945603e-01
-1.019171676554808e+00  4.313488344945603e-01  8.424661621618468e-18

 1.115039294184138e-17  3.748736943473058e-20 -1.018710815975496e+00
 3.748736943473058e-20  1.571767241292688e-17  4.317126217927248e-01
-1.018710815975496e+00  4.317126217927248e-01  8.416035965367382e-18

 1.117791956836239e-17  3.939761126483919e-20 -1.020019624466336e+00
 3.939761126483919e-20  1.512510127951028e-17  4.299065672548088e-01
-1.020019624466336e+00  4.299065672548088e-01  8.504034821818904e-18

 1.115249510184394e-17  4.235078076560638e-20 -1.018761565736292e+00
 4.235078076560638e-20  1.463206728615764e-17  4.306609295767798e-01
-1.018761565736292e+00  4.306609295767798e-01  8.437868414318746e-18

 1.113881757507065e-17  3.797073156879493e-20 -1.018257763545160e+00
 3.797073156879493e-20  1.203408292798475e-17  4.304097294346729e-01
-1.018257763545160e+00  4.304097294346729e-01  8.410145865741852e-18

 1.113539940825430e-17  3.385737686851263e-20 -1.018099728542689e+00
 3.385737686851263e-20  1.270919359327855e-17  4.312634604314032e-01
-1.018099728542689e+00  4.312634604314032e-01  8.395658617446171e-18

 1.109451669113039e-17  3.097994185094784e-20 -1.016731288678502e+00
 3.097994185094784e-20  1.180337990788987e-17  4.316820350161680e-01
-1.016731288678502e+00  4.316820350161680e-01  8.302446895266651e-18

 1.107081225206720e-17  3.631339501023782e-20 -1.015562853504880e+00
 3.631339501023782e-20  1.418622381707676e-17  4.277801316346198e-01
-1.015562853504880e+00  4.277801316346198e-01  8.273948259400586e-18

 1.118877098152840e-17  3.474541215120698e-20 -1.020593528874719e+00
 3.474541215120698e-20  1.374031097911411e-17  4.274786716550657e-01
-1.020593528874719e+00  4.274786716550657e-01  8.599889696191979e-18

 1.088284030136712e-17  3.025701275029300e-20 -1.008234160665588e+00
 3.025701275029300e-20  1.306211612244374e-17  4.479187378887916e-01
-1.008234160665588e+00  4.479187378887916e-01  7.618220465212915e-18

 1.104848005858123e-17  3.862957516072109e-20 -1.014106669494988e+00
 3.862957516072109e-20  1.187134687542991e-17  4.320272193418336e-01
-1.014106669494988e+00  4.320272193418336e-01  8.187896090083331e-18

 1.134014334826788e-17  4.422404575492120e-20 -1.026268313110811e+00
 4.422404575492120e-20  1.364334927015533e-17  4.109462249451753e-01
-1.026268313110811e+00  4.109462249451753e-01  9.170858576693321e-18

 1.098209497805511e-17  3.788934553717029e-20 -1.011859306632577e+00
 3.788934553717029e-20  1.363567372664882e-17  4.314232279048841e-01
-1.011859306632577e+00  4.314232279048841e-01  8.033894223811154e-18

 1.108637838797901e-17  3.703967813321280e-20 -1.016178944125890e+00
 3.703967813321280e-20  1.302868669550518e-17  4.331481626507891e-01
-1.016178944125890e+00  4.331481626507891e-01  8.321574763839415e-18

 1.110414081698060e-17  3.662196536719806e-20 -1.016741168938321e+00
 3.662196536719806e-20  1.276809834408830e-17  4.288563340066973e-01
-1.016741168938321e+00  4.288563340066973e-01  8.399470844138251e-18

 1.106427643363604e-17  3.952922316344158e-20 -1.015553609146496e+00
 3.952922316344158e-20  1.031401607532307e-17  4.300055378503986e-01
-1.015553609146496e+00  4.300055378503986e-01  8.291187428910233e-18

 1.101910292534166e-17  3.931052580808760e-20 -1.013427634396358e+00
 3.931052580808760e-20  1.431899641719824e-17  4.290408757881692e-01
-1.013427634396358e+00  4.290408757881692e-01  8.209949147995796e-18

 1.101373849043414e-17  3.858019107745946e-20 -1.013472650979524e+00
 3.858019107745946e-20  1.347180294391849e-17  4.296614120308265e-01
-1.013472650979524e+00  4.296614120308265e-01  8.207516507683981e-18

 1.107189274361424e-17  4.158851873129669e-20 -1.015694791424281e+00
 4.158851873129669e-20  1.266956933967265e-17  4.281323864651366e-01
-1.015694791424281e+00  4.281323864651366e-01  8.376132912889451e-18

 1.108119085066272e-17  4.041906675546331e-20 -1.016637531258124e+00
 4.041906675546331e-20  1.469132792744752e-17  4.289848858737689e-01
-1.016637531258124e+00  4.289848858737689e-01  8.411201119762464e-18

 1.102247405381212e-17  3.942859276268545e-20 -1.014208817809152e+00
 3.942859276268545e-20  1.411936717511061e-17  4.288884882926505e-01
-1.014208817809152e+00  4.288884882926505e-01  8.272478162665742e-18

 1.099661772962502e-17  4.339236103800547e-20 -1.013268925337799e+00
 4.339236103800547e-20  1.199067361690152e-17  4.288186391689943e-01
-1.013268925337799e+00  4.288186391689943e-01  8.228338060888618e-18

 1.103828612359659e-17  4.372813817862084e-20 -1.015601103477359e+00
 4.372813817862084e-20  1.318002245455087e-17  4.257179934585881e-01
-1.015601103477359e+00  4.257179934585881e-01  8.385206934229080e-18

 1.102223986758163e-17  4.580402731881337e-20 -1.015206011631678e+00
 4.580402731881337e-20  1.335694890888579e-17  4.308373069945834e-01
-1.015206011631678e+00  4.308373069945834e-01  8.323893103254831e-18

 1.097117298871182e-17  4.642331932009382e-20 -1.013073542643275e+00
 4.642331932009382e-20  1.336881192343325e-17  4.299743934227869e-01
-1.013073542643275e+00  4.299743934227869e-01  8.212744285832382e-18

 1.098634394520721e-17  4.606059408228111e-20 -1.013357127930026e+00
 4.606059408228111e-20  1.387286068096861e-17  4.213226936012852e-01
-1.013357127930026e+00  4.213226936012852e-01  8.346464237720132e-18

 1.092048122277840e-17  4.541470817780994e-20 -1.010947258920336e+00
 4.541470817780994e-20  1.416622665800678e-17  4.321752458948309e-01
-1.010947258920336e+00  4.321752458948309e-01  8.091927758998650e-18

 1.051135714293182e-17  4.134658004035685e-20 -9.939739520338375e-01
 4.134658004035685e-20  1.211257005717466e-17  4.475378494938134e-01
-9.939739520338375e-01  4.475378494938134e-01  6.808140033452769e-18

 1.106455659056849e-17  4.815721811813734e-20 -1.016284951328996e+00
 4.815721811813734e-20  1.438700660656369e-17  4.186738522686992e-01
-1.016284951328996e+00  4.186738522686992e-01  8.619982380033844e-18

 1.121173200992820e-17  5.262284618222844e-20 -1.022915244332242e+00
 5.262284618222844e-20  1.407611314634023e-17  4.102146617997728e-01
-1.022915244332242e+00  4.102146617997728e-01  9.096694715054375e-18

 1.083198141685916e-17  5.043933345755982e-20 -1.008392813229002e+00
 5.043933345755982e-20  1.283334992078570e-17  4.348883639607058e-01
-1.008392813229002e+00  4.348883639607058e-01  7.878461768003861e-18

 1.097874644498445e-17  4.837405953209513e-20 -1.014782480067937e+00
 4.837405953209513e-20  1.362884533561476e-17  4.298085075289425e-01
-1.014782480067937e+00  4.298085075289425e-01  8.325389988080862e-18

 1.096263265104913e-17  4.796840311671466e-20 -1.014136148884021e+00
 4.796840311671466e-20  1.225014144908821e-17  4.257509317511396e-01
-1.014136148884021e+00  4.257509317511396e-01  8.338670005047934e-18

 1.093733358155213e-17  4.778841606046851e-20 -1.013241314647355e+00
 4.778841606046851e-20  1.324323577262708e-17  4.268745325440812e-01
-1.013241314647355e+00  4.268745325440812e-01  8.264323134186836e-18

 1.093754111916953e-17  4.961188915243140e-20 -1.014259401298482e+00
 4.961188915243140e-20  1.357287347812026e-17  4.265224841308904e-01
-1.014259401298482e+00  4.265224841308904e-01  8.311155669038662e-18

 1.096197505656461e-17  4.993336251546178e-20 -1.016328689757424e+00
 4.993336251546178e-20  1.163681836015190e-17  4.286771691986193e-01
-1.016328689757424e+00  4.286771691986193e-01  8.396654951933509e-18

 1.085010086708801e-17  4.681548925184494e-20 -1.012075193227671e+00
 4.681548925184494e-20  1.440586309076787e-17  4.323000754184194e-01
-1.012075193227671e+00  4.323000754184194e-01  8.085306400778754e-18

 1.092780295199465e-17  4.698180617316459e-20 -1.015241853574865e+00
 4.698180617316459e-20  1.371226400566367e-17  4.196215259737561e-01
-1.015241853574865e+00  4.196215259737561e-01  8.419114124822679e-18

 1.118625746632889e-17  4.210633427118221e-20 -1.025770705595532e+00
 4.210633427118221e-20  1.375707194244415e-17  4.134660444958585e-01
-1.025770705595532e+00  4.134660444958585e-01  9.154593682814470e-18

 1.061840775768015e-17  4.764889627865660e-20 -1.003391666084444e+00
 4.764889627865660e-20  1.276445326880285e-17  4.451319613426561e-01
-1.003391666084444e+00  4.451319613426561e-01  7.336958073701591e-18

 1.070020536958670e-17  4.652403606417729e-20 -1.007204909708705e+00
 4.652403606417729e-20  1.222657681195740e-17  4.432670925778141e-01
-1.007204909708705e+00  4.432670925778141e-01  7.600276244418181e-18

 1.107425216901027e-17  4.836850920452931e-20 -1.022830808134867e+00
 4.836850920452931e-20  1.427977690083375e-17  4.171108111183838e-01
-1.022830808134867e+00  4.171108111183838e-01  8.894916338293374e-18

 1.090621785101693e-17  4.537462054613883e-20 -1.016286040653576e+00
 4.537462054613883e-20  1.504671467267642e-17  4.243016627168135e-01
-1.016286040653576e+00  4.243016627168135e-01  8.378252134543979e-18

 1.086733220530317e-17  4.616375044396305e-20 -1.015195060842945e+00
 4.616375044396305e-20  1.422226205252697e-17  4.299339818947472e-01
-1.015195060842945e+00  4.299339818947472e-01  8.281380765230104e-18

 1.089457193074422e-17  4.492283727197683e-20 -1.016680083976411e+00
 4.492283727197683e-20  1.398491543340219e-17  4.270863265122272e-01
-1.016680083976411e+00  4.270863265122272e-01  8.388083907484499e-18

 1.083542552837303e-17  4.408939519444796e-20 -1.015316954889851e+00
 4.408939519444796e-20  1.318063599719007e-17  4.267284121420704e-01
-1.015316954889851e+00  4.267284121420704e-01  8.280990862384376e-18

 1.092695687192217e-17  3.934532980313007e-20 -1.020276469482835e+00
 3.934532980313007e-20  1.416203054760536e-17  4.237464179041175e-01
-1.020276469482835e+00  4.237464179041175e-01  8.561910004004301e-18

 1.090154414131680e-17  4.236164242028341e-20 -1.020142926488195e+00
 4.236164242028341e-20  1.285389358142689e-17  4.302033475618922e-01
-1.020142926488195e+00  4.302033475618922e-01  8.477706020761199e-18

 1.103911925468664e-17  4.025470626015975e-20 -1.026136335167833e+00
 4.025470626015975e-20  1.357163803237109e-17  4.240361231143928e-01
-1.026136335167833e+00  4.240361231143928e-01  8.875396452601780e-18

 1.095044592717713e-17  3.922559537226114e-20 -1.023042819571335e+00
 3.922559537226114e-20  1.446748747644113e-17  4.310440357055973e-01
-1.023042819571335e+00  4.310440357055973e-01  8.671857390517724e-18

 1.063697412404960e-17  4.564909444927873e-20 -1.009116627567518e+00
 4.564909444927873e-20  1.098761068398914e-17  4.404093955180404e-01
-1.009116627567518e+00  4.404093955180404e-01  7.711387141769017e-18

 1.097052283074037e-17  4.887230148259094e-20 -1.023216539176752e+00
 4.887230148259094e-20  1.385260777636518e-17  4.127026373437607e-01
-1.023216539176752e+00  4.127026373437607e-01  8.926543785938855e-18

 1.071058327461788e-17  3.560288120658518e-20 -1.012421041963685e+00
 3.560288120658518e-20  1.335254202975198e-17  4.148100502840836e-01
-1.012421041963685e+00  4.148100502840836e-01  8.275560696031013e-18

 1.060747480231576e-17  4.189835355245597e-20 -1.009245884908349e+00
 4.189835355245597e-20  1.210436204262627e-17  4.335127522693195e-01
-1.009245884908349e+00  4.335127522693195e-01  7.856258181317685e-18

 1.055717605434273e-17  4.375944299789404e-20 -1.008543414705820e+00
 4.375944299789404e-20  1.218125202721031e-17  4.453407356007347e-01
-1.008543414705820e+00  4.453407356007347e-01  7.650978578633631e-18

 1.085281180320079e-17  3.623640432816448e-20 -1.020656914127181e+00
 3.623640432816448e-20  1.333441223705055e-17  4.254517375444163e-01
-1.020656914127181e+00  4.254517375444163e-01  8.621996024850132e-18

 1.071019375061130e-17  3.678094846572256e-20 -1.015584447865333e+00
 3.678094846572256e-20  1.397559364157058e-17  4.257963532319832e-01
-1.015584447865333e+00  4.257963532319832e-01  8.307203111721064e-18

 1.068952863183066e-17  3.459313860863471e-20 -1.015097897111818e+00
 3.459313860863471e-20  1.356591441105158e-17  4.273609971564495e-01
-1.015097897111818e+00  4.273609971564495e-01  8.266195340574601e-18

 1.067793935998580e-17  3.412427336019052e-20 -1.015944814771643e+00
 3.412427336019052e-20  1.318676420450890e-17  4.273691946579632e-01
-1.015944814771643e+00  4.273691946579632e-01  8.302273339102556e-18

 1.065985873769153e-17  3.655847696238092e-20 -1.015772287278864e+00
 3.655847696238092e-20  1.283068748966944e-17  4.271303286628313e-01
-1.015772287278864e+00  4.271303286628313e-01  8.310285788756097e-18

 1.064785455535024e-17  3.526641547602224e-20 -1.015538017442845e+00
 3.526641547602224e-20  1.341808749192714e-17  4.267079880940253e-01
-1.015538017442845e+00  4.267079880940253e-01  8.305577044891654e-18

 1.061733504749498e-17  3.438526471708341e-20 -1.015497999759187e+00
 3.438526471708341e-20  1.404937859512680e-17  4.268274685336363e-01
-1.015497999759187e+00  4.268274685336363e-01  8.296821482049398e-18

 1.060431910346280e-17  3.312873660866337e-20 -1.015608330697195e+00
 3.312873660866337e-20  1.374381014845392e-17  4.268411923882121e-01
-1.015608330697195e+00  4.268411923882121e-01  8.296824540558626e-18

 1.057433341971245e-17  3.386814669063830e-20 -1.014807951471317e+00
 3.386814669063830e-20  1.515722357739779e-17  4.264448204256854e-01
-1.014807951471317e+00  4.264448204256854e-01  8.282985651405577e-18

 1.056420675722515e-17  3.222206866569265e-20 -1.014825957611324e+00
 3.222206866569265e-20  1.479967762872268e-17  4.264293146434659e-01
-1.014825957611324e+00  4.264293146434659e-01  8.282720859595594e-18

 1.053550123268521e-17  3.159525447419976e-20 -1.015069594044977e+00
 3.159525447419976e-20  1.297894930763097e-17  4.264395519544899e-01
-1.015069594044977e+00  4.264395519544899e-01  8.292080841704044e-18

 1.051905402032011e-17  2.958489494242217e-20 -1.015433381900935e+00
 2.958489494242217e-20  1.167654575841733e-17  4.266556161813861e-01
-1.015433381900935e+00  4.266556161813861e-01  8.291363420920739e-18

 1.047986326922042e-17  2.911710856324230e-20 -1.014554988803777e+00
 2.911710856324230e-20  1.120889004795628e-17  4.263026469857882e-01
-1.014554988803777e+00  4.263026469857882e-01  8.268285653827522e-18

 1.045139316086962e-17  2.762209007055585e-20 -1.014826750487604e+00
 2.762209007055585e-20  1.301690714517249e-17  4.264040311367561e-01
-1.014826750487604e+00  4.264040311367561e-01  8.269432074187926e-18

 1.042787951492065e-17  2.673298305383261e-20 -1.014717743885485e+00
 2.673298305383261e-20  1.297787990595751e-17  4.267445584966543e-01
-1.014717743885485e+00  4.267445584966543e-01  8.259707007583938e-18

 1.040362854703519e-17  2.701924709408740e-20 -1.014658018118106e+00
 2.701924709408740e-20  1.138785596095916e-17  4.267104298357827e-01
-1.014658018118106e+00  4.267104298357827e-01  8.252195724325456e-18

 1.038863858004767e-17  2.168839247129602e-20 -1.014832597626005e+00
 2.168839247129602e-20  1.338889627712205e-17  4.266571205834852e-01
-1.014832597626005e+00  4.266571205834852e-01  8.254389991794512e-18

 1.035109261146433e-17  2.322435964341743e-20 -1.014120493343676e+00
 2.322435964341743e-20  1.092647725435149e-17  4.267387745427285e-01
-1.014120493343676e+00  4.267387745427285e-01  8.229177285632855e-18

 1.033974367563634e-17  2.040924903719637e-20 -1.014426460146326e+00
 2.040924903719637e-20  1.089493860985862e-17  4.267909002279026e-01
-1.014426460146326e+00  4.267909002279026e-01  8.235087477344210e-18

 1.030759764852581e-17  2.028369403189407e-20 -1.015134397328014e+00
 2.028369403189407e-20  1.208405930945395e-17  4.278226684177467e-01
-1.015134397328014e+00  4.278226684177467e-01  8.259403769896023e-18

 1.019736260276733e-17  2.222669344737603e-20 -1.012336340956259e+00
 2.222669344737603e-20  1.297131737708949e-17  4.299799085143103e-01
-1.012336340956259e+00  4.299799085143103e-01  8.046074298166580e-18

 1.019896734566236e-17  1.691446596733768e-20 -1.013242257941027e+00
 1.691446596733768e-20  1.241909613499499e-17  4.250331261766081e-01
-1.013242257941027e+00  4.250331261766081e-01  8.153581621076735e-18

 1.018113524813651e-17  1.504848182307089e-20 -1.013754952286372e+00
 1.504848182307089e-20  1.244507113597344e-17  4.298294611897727e-01
-1.013754952286372e+00  4.298294611897727e-01  8.139440162421145e-18

 9.621853231756177e-18  1.616281673405168e-20 -9.922879208645566e-01
 1.616281673405168e-20  1.023379915643289e-17  4.535594573626889e-01
-9.922879208645566e-01  4.535594573626889e-01  6.461376261985660e-18

 1.015181927744105e-17  1.543788953661949e-20 -1.013691901949202e+00
 1.543788953661949e-20  1.054692583428003e-17  4.250197657069287e-01
-1.013691901949202e+00  4.250197657069287e-01  8.180751605882273e-18

 1.047918774813459e-17  1.263223746828529e-20 -1.028068011608487e+00
 1.263223746828529e-20  1.184514933651946e-17  4.069550686438019e-01
-1.028068011608487e+00  4.069550686438019e-01  9.254589615111289e-18

 9.814527866625190e-18  2.269773136267287e-20 -1.003194330075541e+00
 2.269773136267287e-20  1.152143164176300e-17  4.404030027044296e-01
-1.003194330075541e+00  4.404030027044296e-01  7.208931773530899e-18

 9.974044969234479e-18  1.692929588096918e-20 -1.011671937628908e+00
 1.692929588096918e-20  1.247387692793785e-17  4.355927896250271e-01
-1.011671937628908e+00  4.355927896250271e-01  7.719782942133340e-18

 1.009617214626996e-17  9.689322443044103e-21 -1.019514255858524e+00
 9.689322443044103e-21  1.340577541156540e-17  4.292246485821318e-01
-1.019514255858524e+00  4.292246485821318e-01  8.143377868693935e-18

 1.024060887313659e-17  2.023333419309873e-20 -1.030135972232657e+00
 2.023333419309873e-20  1.293845581619721e-17  4.407449431205548e-01
-1.030135972232657e+00  4.407449431205548e-01  8.439534374005026e-18

 9.964244524826111e-18 -5.712925553793905e-21 -1.023561642439290e+00
-5.712925553793905e-21  1.180445557880973e-17  4.302557257693667e-01
-1.023561642439290e+00  4.302557257693667e-01  7.824029052638646e-18

 1.034718925478245e-17  1.321119602201412e-20 -1.047985114270493e+00
 1.321119602201412e-20  1.287964717025589e-17  4.354364999309844e-01
-1.047985114270493e+00  4.354364999309844e-01  8.784706033092873e-18

 1.031590677772366e-17  7.055020816121645e-20 -1.053944294126167e+00
 7.055020816121645e-20  1.056648987042509e-17  4.628108522227656e-01
-1.053944294126167e+00  4.628108522227656e-01  8.381270954721965e-18

 1.113898821290554e-17  5.917332452166096e-21 -1.090378058216849e+00
 5.917332452166096e-21  1.236003124444369e-17  4.145063971627223e-01
-1.090378058216849e+00  4.145063971627223e-01  1.098097503584452e-17

 1.217578231952132e-17 -6.627446797856031e-20 -1.136507250740504e+00
-6.627446797856031e-20  1.408829478008179e-17  3.772430172371258e-01
-1.136507250740504e+00  3.772430172371258e-01  1.393485692993786e-17

 1.202156928769925e-17  6.764166874125316e-20 -1.141027832409466e+00
 6.764166874125316e-20  8.262191203419493e-18  4.639336177418974e-01
-1.141027832409466e+00  4.639336177418974e-01  1.286872128454531e-17

 1.263616118040137e-17 -2.420840000956733e-19 -1.156617089739114e+00
-2.420840000956733e-19  1.459873151870102e-17  4.567426551559395e-01
-1.156617089739114e+00  4.567426551559395e-01  1.510171546483562e-17

 1.017315385834492e-17 -9.698251293424689e-21 -1.038088115061978e+00
-9.698251293424689e-21  1.278510162760131e-17  4.237728693685007e-01
-1.038088115061978e+00  4.237728693685007e-01  9.177313986270007e-18

 7.428567966495633e-18  2.037132483623137e-19 -9.090643698288532e-01
 2.037132483623137e-19  9.731322587930970e-18  4.269356182028585e-01
-9.090643698288532e-01  4.269356182028585e-01  2.351069431028206e-18

 6.575836587053333e-18 -4.524604204785017e-20 -8.642919238935721e-01
-4.524604204785017e-20  8.847957379001984e-18  4.532663215442468e-01
-8.642919238935721e-01  4.532663215442468e-01  5.362588206326061e-19

 8.846335833246713e-18  1.116702998588904e-21 -9.717938047195473e-01
 1.116702998588904e-21  1.104625196462310e-17  4.343152877868707e-01
-9.717938047195473e-01  4.343152877868707e-01  6.622058964023461e-18

 9.991954015963237e-18 -2.028916510683955e-21 -1.034056126554276e+00
-2.028916510683955e-21  1.155060657938279e-17  4.152724722225502e-01
-1.034056126554276e+00  4.152724722225502e-01  9.698271820831951e-18

 9.644635655117327e-18 -1.735867212172379e-20 -1.025657149741502e+00
-1.735867212172379e-20  1.307942331934319e-17  4.219442462662042e-01
-1.025657149741502e+00  4.219442462662042e-01  8.830034897001249e-18

 9.499960904882171e-18 -2.090472893872772e-20 -1.021737479067995e+00
-2.090472893872772e-20  1.013556528634428e-17  4.172984609618247e-01
-1.021737479067995e+00  4.172984609618247e-01  8.599647596560276e-18

 9.304263846692553e-18 -1.964555322198020e-20 -1.016022478604196e+00
-1.964555322198020e-20  1.153467897848528e-17  4.156518365253595e-01
-1.016022478604196e+00  4.156518365253595e-01  8.259322804827173e-18

 9.241405810932554e-18 -2.148958318095431e-20 -1.016119465056126e+00
-2.148958318095431e-20  1.120587772775288e-17  4.220766881559038e-01
-1.016119465056126e+00  4.220766881559038e-01  8.168837343026379e-18

 9.191072582819749e-18 -2.037316694465003e-20 -1.017907853896260e+00
-2.037316694465003e-20  1.134688535333204e-17  4.238707120731429e-01
-1.017907853896260e+00  4.238707120731429e-01  8.219724501858896e-18

 9.111885664794576e-18 -2.532732399272701e-20 -1.017222436940973e+00
-2.532732399272701e-20  1.056080615768482e-17  4.229518252726949e-01
-1.017222436940973e+00  4.229518252726949e-01  8.163175897401591e-18

 8.990260433469065e-18 -2.739713954287676e-20 -1.015034613169396e+00
-2.739713954287676e-20  9.200688184423961e-18  4.225978093161699e-01
-1.015034613169396e+00  4.225978093161699e-01  8.046961998579607e-18

 8.902574617470481e-18 -3.141601413994959e-20 -1.014210171302736e+00
-3.141601413994959e-20  9.063056452124634e-18  4.236890862082419e-01
-1.014210171302736e+00  4.236890862082419e-01  7.970922918822704e-18

 8.824372872449538e-18 -3.099122826896907e-20 -1.014727955632735e+00
-3.099122826896907e-20  1.134836578139353e-17  4.240288836787221e-01
-1.014727955632735e+00  4.240288836787221e-01  7.960513186700450e-18

 8.714215432221298e-18 -3.594958777574584e-20 -1.014011641200461e+00
-3.594958777574584e-20  1.049437952830977e-17  4.240348310923014e-01
-1.014011641200461e+00  4.240348310923014e-01  7.917942383736745e-18

 8.628486667412619e-18 -4.156546016365683e-20 -1.014715462926018e+00
-4.156546016365683e-20  9.639283224716028e-18  4.243667910016135e-01
-1.014715462926018e+00  4.243667910016135e-01  7.901640614062226e-18

 8.525348331537440e-18 -4.288040176925901e-20 -1.014048528820033e+00
-4.288040176925901e-20  9.437660286980884e-18  4.239804800457829e-01
-1.014048528820033e+00  4.239804800457829e-01  7.869484901456384e-18

 8.445466900480326e-18 -4.750561713170874e-20 -1.014738781793679e+00
-4.750561713170874e-20  9.093397482774031e-18  4.243997059354827e-01
-1.014738781793679e+00  4.243997059354827e-01  7.858381615192261e-18

 8.344965631668004e-18 -4.777022777713366e-20 -1.014351876272386e+00
-4.777022777713366e-20  9.843289694532639e-18  4.240423582617903e-01
-1.014351876272386e+00  4.240423582617903e-01  7.834816359543514e-18

 8.229965937608475e-18 -5.224243104635500e-20 -1.014447668635703e+00
-5.224243104635500e-20  1.035741007133211e-17  4.239922796670790e-01
-1.014447668635703e+00  4.239922796670790e-01  7.808887891686484e-18

 8.109208412404435e-18 -5.584622805695212e-20 -1.014472162491237e+00
-5.584622805695212e-20  9.034590496848584e-18  4.239797429061421e-01
-1.014472162491237e+00  4.239797429061421e-01  7.777642498284965e-18

 7.942668788840585e-18 -6.031380922951972e-20 -1.014452172376775e+00
-6.031380922951972e-20  9.145325452814535e-18  4.238908204933492e-01
-1.014452172376775e+00  4.238908204933492e-01  7.739067462359106e-18

 7.729815373967220e-18 -6.624061761111081e-20 -1.013851888185119e+00
-6.624061761111081e-20  8.294595545828540e-18  4.239693940518898e-01
-1.013851888185119e+00  4.239693940518898e-01  7.651035669843444e-18

 7.641793781451001e-18 -7.113883429232107e-20 -1.014496124028176e+00
-7.113883429232107e-20  8.982116446080510e-18  4.236539640984643e-01
-1.014496124028176e+00  4.236539640984643e-01  7.632303671725907e-18

 7.464600851495800e-18 -7.130341099705893e-20 -1.013023432542985e+00
-7.130341099705893e-20  8.037073622927146e-18  4.238954182977488e-01
-1.013023432542985e+00  4.238954182977488e-01  7.547357658054874e-18

 7.323435669514773e-18 -7.686735539072431e-20 -1.013359414063108e+00
-7.686735539072431e-20  7.908055115540324e-18  4.238461709787656e-01
-1.013359414063108e+00  4.238461709787656e-01  7.515243684231717e-18

 7.067302391283115e-18 -8.148088370779156e-20 -1.013691985531719e+00
-8.148088370779156e-20  9.056538771237026e-18  4.236713804144840e-01
-1.013691985531719e+00  4.236713804144840e-01  7.468473296240370e-18

 6.825302585103267e-18 -8.963884025683587e-20 -1.014259665858924e+00
-8.963884025683587e-20  9.117503501148004e-18  4.237307232290839e-01
-1.014259665858924e+00  4.237307232290839e-01  7.417726169066176e-18

 6.487815298911288e-18 -9.520154656254373e-20 -1.013111445032105e+00
-9.520154656254373e-20  7.429257285448504e-18  4.244793804424802e-01
-1.013111445032105e+00  4.244793804424802e-01  7.265401097153836e-18

 6.200994390084586e-18 -1.020107323772740e-19 -1.010900991070552e+00
-1.020107323772740e-19  7.242617529868182e-18  4.235297823470508e-01
-1.010900991070552e+00  4.235297823470508e-01  7.055697486752191e-18

 5.908178711133999e-18 -1.090547094668405e-19 -1.012795740644952e+00
-1.090547094668405e-19  7.165085627907435e-18  4.225510555659689e-01
-1.012795740644952e+00  4.225510555659689e-01  7.050880412537723e-18

 5.787048775349555e-18 -1.136230683639385e-19 -1.018591276264694e+00
-1.136230683639385e-19  7.024321630063510e-18  4.253422991907733e-01
-1.018591276264694e+00  4.253422991907733e-01  7.233347261562704e-18

 5.533700725064436e-18 -1.210094260113996e-19 -1.018809501086075e+00
-1.210094260113996e-19  5.829341926018869e-18  4.287484291872541e-01
-1.018809501086075e+00  4.287484291872541e-01  7.164342520098271e-18

 5.277124463697211e-18 -1.226243718936454e-19 -1.016838800927095e+00
-1.226243718936454e-19  6.103133841553268e-18  4.219053823219648e-01
-1.016838800927095e+00  4.219053823219648e-01  7.060839971947145e-18

 5.002562558464756e-18 -1.267475651778304e-19 -1.014769409568258e+00
-1.267475651778304e-19  7.124266605202259e-18  4.180721785672073e-01
-1.014769409568258e+00  4.180721785672073e-01  6.895026641254222e-18

 4.578659542472939e-18 -1.339374907999228e-19 -1.013755720865700e+00
-1.339374907999228e-19  6.705189673910852e-18  4.249128557244756e-01
-1.013755720865700e+00  4.249128557244756e-01  6.644694762467926e-18

 4.168230161299730e-18 -1.407992172462132e-19 -1.015752514355865e+00
-1.407992172462132e-19  8.063090601862238e-18  4.245611332964177e-01
-1.015752514355865e+00  4.245611332964177e-01  6.627407205126333e-18

 3.732579096275413e-18 -1.489505492144478e-19 -1.015508799034004e+00
-1.489505492144478e-19  7.761093843734490e-18  4.236022367640438e-01
-1.015508799034004e+00  4.236022367640438e-01  6.464210489860689e-18

 3.136866147458026e-18 -1.562921182190834e-19 -1.015298755527007e+00
-1.562921182190834e-19  4.566942445604948e-18  4.244597105374547e-01
-1.015298755527007e+00  4.244597105374547e-01  6.256049291215087e-18

 2.631003306725646e-18 -1.661163036269108e-19 -1.015760547052215e+00
-1.661163036269108e-19  5.178026156595958e-18  4.236095118906461e-01
-1.015760547052215e+00  4.236095118906461e-01  6.094526655269720e-18

 2.103036381820793e-18 -1.696195009795932e-19 -1.014914582937289e+00
-1.696195009795932e-19  3.677067152240618e-18  4.241031585697803e-01
-1.014914582937289e+00  4.241031585697803e-01  5.891218513623820e-18

 1.425840620099107e-18 -1.775404518354423e-19 -1.015456644155258e+00
-1.775404518354423e-19  4.270232398478722e-18  4.238933639264580e-01
-1.015456644155258e+00  4.238933639264580e-01  5.687424789436639e-18

 8.105789417040566e-19 -1.862852674477192e-19 -1.016671661505242e+00
-1.862852674477192e-19  3.618085239432109e-18  4.236376247572788e-01
-1.016671661505242e+00  4.236376247572788e-01  5.536337653574558e-18

-1.272771373792787e-19 -1.971730013534888e-19 -1.017429715348048e+00
-1.971730013534888e-19  4.327006631402709e-18  4.254216347328146e-01
-1.017429715348048e+00  4.254216347328146e-01  5.256888881923831e-18

-8.801211011331835e-19 -2.026168377737957e-19 -1.015067036570198e+00
-2.026168377737957e-19  1.411786687526890e-18  4.241059326291420e-01
-1.015067036570198e+00  4.241059326291420e-01  4.898987898377674e-18

-1.756933776238947e-18 -2.080541453726557e-19 -1.013085189910419e+00
-2.080541453726557e-19  2.336851490454865e-18  4.233165836944922e-01
-1.013085189910419e+00  4.233165836944922e-01  4.499208839767765e-18

-2.721547607737017e-18 -2.184584902838102e-19 -1.015217265734098e+00
-2.184584902838102e-19 -7.687632996243569e-19  4.258977283142186e-01
-1.015217265734098e+00  4.258977283142186e-01  4.214783350375628e-18

-3.621256194273624e-18 -2.266407547291591e-19 -1.014989028828300e+00
-2.266407547291591e-19  2.553547227313860e-19  4.261734005618576e-01
-1.014989028828300e+00  4.261734005618576e-01  3.946802301261860e-18

-4.833407095148428e-18 -2.381695843795336e-19 -1.015610272810173e+00
-2.381695843795336e-19 -4.604015124193680e-19  4.235239663692316e-01
-1.015610272810173e+00  4.235239663692316e-01  3.576533241270868e-18

-6.088595575708366e-18 -2.481343485028884e-19 -1.015003810960612e+00
-2.481343485028884e-19 -1.167870331587903e-18  4.259713830970163e-01
-1.015003810960612e+00  4.259713830970163e-01  3.085786100913709e-18

-7.493650494783096e-18 -2.632750067167789e-19 -1.015319746372271e+00
-2.632750067167789e-19 -3.143459215254820e-18  4.233690889994748e-01
-1.015319746372271e+00  4.233690889994748e-01  2.664487850566573e-18

-8.956757759737696e-18 -2.807613847505696e-19 -1.011523121800346e+00
-2.807613847505696e-19 -3.112334949479416e-18  4.279644926002566e-01
-1.011523121800346e+00  4.279644926002566e-01  1.894680238672217e-18

-9.989097902910220e-18 -2.881975206778100e-19 -1.012691201990722e+00
-2.881975206778100e-19 -4.918270230398392e-18  4.261729235974641e-01
-1.012691201990722e+00  4.261729235974641e-01  1.617688085454495e-18

-1.197238424767716e-17 -3.184433643431889e-19 -1.013692356543387e+00
-3.184433643431889e-19 -6.157682608434153e-18  4.260412367898965e-01
-1.013692356543387e+00  4.260412367898965e-01  1.020848118860534e-18

-1.399140326938211e-17 -3.448562461120397e-19 -1.016597600882921e+00
-3.448562461120397e-19 -7.399307905023658e-18  4.228897969107716e-01
-1.016597600882921e+00  4.228897969107716e-01  4.607289299195627e-19

-1.617483544895043e-17 -3.853013620680111e-19 -1.015258127644997e+00
-3.853013620680111e-19 -6.393368031341289e-18  4.241908942395623e-01
-1.015258127644997e+00  4.241908942395623e-01 -3.469616983895596e-19

-1.904675111975408e-17 -4.400635907491558e-19 -1.014453417289595e+00
-4.400635907491558e-19 -1.037342296019141e-17  4.262432031548546e-01
-1.014453417289595e+00  4.262432031548546e-01 -1.417236810652040e-18

-2.271230448948752e-17 -5.240914060627485e-19 -1.009080992557053e+00
-5.240914060627485e-19 -1.186939234665406e-17  4.298555715290676e-01
-1.009080992557053e+00  4.298555715290676e-01 -3.028324366010371e-18

-2.499191144671953e-17 -5.782426351773065e-19 -1.019210803090397e+00
-5.782426351773065e-19 -1.240252476197078e-17  4.170079053675568e-01
-1.019210803090397e+00  4.170079053675568e-01 -3.119544552721711e-18

-2.789602869706189e-17 -6.797211457092443e-19 -1.020362030235781e+00
-6.797211457092443e-19 -1.372824165600995e-17  4.193219393437338e-01
-1.020362030235781e+00  4.193219393437338e-01 -4.131119591601106e-18

-3.376374265937562e-17 -8.930636649152873e-19 -1.018834111221050e+00
-8.930636649152873e-19 -1.683797022705295e-17  4.259834105481219e-01
-1.018834111221050e+00  4.259834105481219e-01 -6.366694941827636e-18

-4.116247116980371e-17 -1.219466450006388e-18 -1.020080696954849e+00
-1.219466450006388e-18 -1.859134660875808e-17  4.248389595955355e-01
-1.020080696954849e+00  4.248389595955355e-01 -8.872289734836941e-18

-5.134935610679257e-17 -1.750376775656275e-18 -1.018644874278075e+00
-1.750376775656275e-18 -2.160284570276412e-17  4.207720705174637e-01
-1.018644874278075e+00  4.207720705174637e-01 -1.243557431324895e-17

-5.889157399014731e-17 -2.198622171371796e-18 -1.012155841776432e+00
-2.198622171371796e-18 -2.439544083418604e-17  4.251648761558942e-01
-1.012155841776432e+00  4.251648761558942e-01 -1.542705094340214e-17

-6.640617038266386e-17 -2.762308640233207e-18 -1.009033689778662e+00
-2.762308640233207e-18 -2.625545449203771e-17  4.305313969032015e-01
-1.009033689778662e+00  4.305313969032015e-01 -1.828352649023458e-17

-8.026872999516459e-17 -3.980508456976814e-18 -1.015502740141827e+00
-3.980508456976814e-18 -3.042327681121035e-17  4.278283371256829e-01
-1.015502740141827e+00  4.278283371256829e-01 -2.272904175321379e-17

-9.577317268112935e-17 -5.550585028785876e-18 -1.012482960522153e+00
-5.550585028785876e-18 -3.332513201185472e-17  4.266894913795650e-01
-1.012482960522153e+00  4.266894913795650e-01 -2.833192293731825e-17

-1.052680160204658e-16 -1.027032856147808e-17 -1.012771986692654e+00
-1.027032856147808e-17 -1.635454841788805e-17  4.236198725969526e-01
-1.012771986692654e+00  4.236198725969526e-01 -4.053346613116482e-17

-1.470970966665839e-16 -1.827719055585216e-17 -1.016015597446770e+00
-1.827719055585216e-17 -2.164004820362446e-17  4.229579957587876e-01
-1.016015597446770e+00  4.229579957587876e-01 -5.675261595171521e-17

-2.033931081385310e-16 -2.374047755747123e-17 -1.014945343697551e+00
-2.374047755747123e-17 -3.276693918648944e-17  4.211837121197738e-01
-1.014945343697551e+00  4.211837121197738e-01 -6.653773187161503e-17

-2.585586764980569e-16 -3.740449270837636e-17 -1.010816082877574e+00
-3.740449270837636e-17 -2.994936927998287e-17  4.259511315858421e-01
-1.010816082877574e+00  4.259511315858421e-01 -8.685366170715794e-17

-3.530104175157721e-16 -6.488829051536723e-17 -1.004233674842308e+00
-6.488829051536723e-17  1.261116515466675e-17  4.361438212465947e-01
-1.004233674842308e+00  4.361438212465947e-01 -1.303776206407092e-16

-4.220316708098370e-16 -9.335040994585327e-17 -1.006143025546719e+00
-9.335040994585327e-17  3.428625188669333e-18  4.299193831748427e-01
-1.006143025546719e+00  4.299193831748427e-01 -1.485882548386990e-16

-4.849244549093657e-16 -1.226538955233867e-16 -1.020082013524966e+00
-1.226538955233867e-16  2.166996944040729e-17  4.095866549141762e-01
-1.020082013524966e+00  4.095866549141762e-01 -1.726621126056342e-16

-6.364348193107201e-16 -1.988029531594977e-16 -1.009433033078671e+00
-1.988029531594977e-16  6.907151254368108e-17  4.256513503989014e-01
-1.009433033078671e+00  4.256513503989014e-01 -2.342987397756490e-16

-8.853307456100723e-16 -3.619030257243797e-16 -1.013182144694054e+00
-3.619030257243797e-16  1.688975386906352e-16  4.249315776429556e-01
-1.013182144694054e+00  4.249315776429556e-01 -3.414499542166803e-16

-1.150971924037682e-15 -6.097044490526279e-16 -1.011197500673797e+00
-6.097044490526279e-16  3.626152797744786e-16  4.257132637814536e-01
-1.011197500673797e+00  4.257132637814536e-01 -4.912021139646009e-16

-1.623651670875670e-15 -1.103955216620886e-15 -1.010096524726191e+00
-1.103955216620886e-15  5.123518015300370e-16  4.189406555013249e-01
-1.010096524726191e+00  4.189406555013249e-01 -7.225437200082232e-16

-2.047250255529868e-15 -1.694934834222890e-15 -1.011717148506481e+00
-1.694934834222890e-15  7.069098643687328e-16  4.214494165968588e-01
-1.011717148506481e+00  4.214494165968588e-01 -9.892875220231851e-16

-2.708553708468765e-15 -2.844072242273277e-15 -1.013568947554754e+00
-2.844072242273277e-15  9.465004332839871e-16  4.259853963708739e-01
-1.013568947554754e+00  4.259853963708739e-01 -1.488968736760262e-15

-4.451333364576688e-15 -6.479196072859392e-15 -1.012951037401682e+00
-6.479196072859392e-15  7.813933299091195e-16  4.229153584260112e-01
-1.012951037401682e+00  4.229153584260112e-01 -3.225684283399084e-15

-8.855084325206589e-15 -1.153784995383141e-14 -1.011453668914581e+00
-1.153784995383141e-14 -9.005426333489314e-16  4.235718413726772e-01
-1.011453668914581e+00  4.235718413726772e-01 -7.242018722795023e-15

-1.068889292972270e-14 -7.994167452248684e-15 -1.012019312067632e+00
-7.994167452248684e-15  8.558092294190899e-15  4.224647884328792e-01
-1.012019312067632e+00  4.224647884328792e-01 -1.266390976109693e-14

 1.196564908340252e-13  3.182286289263167e-14 -1.013246120582474e+00
 3.182286289263167e-14  7.449979198720287e-14  4.228630481640788e-01
-1.013246120582474e+00  4.228630481640788e-01  2.812129498107883e-14

-6.183141560870576e-13 -1.395012442646510e-13 -1.014249750808017e+00
-1.395012442646510e-13 -3.050184676680826e-13  4.244109335895838e-01
-1.014249750808017e+00  4.244109335895838e-01 -1.525542761200363e-13

-1.129139409393618e-14  1.699392504321644e-14 -1.016331283344803e+00
 1.699392504321644e-14  1.855116899638986e-14  4.267881224124392e-01
-1.016331283344803e+00  4.267881224124392e-01 -1.017308067890933e-14

-6.512606653735990e-13 -1.385734592671529e-13 -1.016031599330378e+00
-1.385734592671529e-13 -3.087776254170515e-13  4.264865196517756e-01
-1.016031599330378e+00  4.264865196517756e-01 -1.660284910421924e-13

-1.567265100308228e-14  4.600567058409429e-17 -1.015309041897948e+00
 4.600567058409429e-17 -4.250303656533022e-15  4.258910482904578e-01
-1.015309041897948e+00  4.258910482904578e-01 -6.752036356325259e-15

-9.426054808643113e-15 -9.508535923696157e-16 -1.014442508871661e+00
-9.508535923696157e-16 -3.257383968669703e-15  4.265706355334303e-01
-1.014442508871661e+00  4.265706355334303e-01 -3.647849916060205e-15

-6.938189558386922e-15 -1.222197358143192e-15 -1.013572049698912e+00
-1.222197358143192e-15 -2.551009963187669e-15  4.270079111186575e-01
-1.013572049698912e+00  4.270079111186575e-01 -2.478263658614265e-15

-4.245201508571663e-15 -1.227954743945027e-15 -1.013961834388061e+00
-1.227954743945027e-15 -1.685456503692999e-15  4.279640768640767e-01
-1.013961834388061e+00  4.279640768640767e-01 -1.376628415918063e-15

-2.905236166815334e-15 -1.061684630013770e-15 -1.016560089774527e+00
-1.061684630013770e-15 -1.370671935694702e-15  4.239417374015992e-01
-1.016560089774527e+00  4.239417374015992e-01 -8.980121393656972e-16

-2.190661340826302e-15 -9.045721923309603e-16 -1.018151052592102e+00
-9.045721923309603e-16 -1.711099834136367e-15  4.232015441261996e-01
-1.018151052592102e+00  4.232015441261996e-01 -6.886510605647593e-16

-1.325741522155273e-15 -6.391297519799286e-16 -1.014182697906659e+00
-6.391297519799286e-16 -1.112322079604942e-15  4.263089363914284e-01
-1.014182697906659e+00  4.263089363914284e-01 -3.932725600597070e-16

-7.882603363610249e-16 -4.093387628297990e-16 -1.014975869386991e+00
-4.093387628297990e-16 -1.031760447905236e-15  4.274022561501142e-01
-1.014975869386991e+00  4.274022561501142e-01 -2.478806832295666e-16

-5.798978352473357e-16 -3.137976427182493e-16 -1.015061191516353e+00
-3.137976427182493e-16 -5.968927523270868e-16  4.263092995076568e-01
-1.015061191516353e+00  4.263092995076568e-01 -1.728168223546902e-16

-4.018191763210793e-16 -2.207929638104286e-16 -1.015704370398733e+00
-2.207929638104286e-16 -3.844903438781621e-16  4.262705252240678e-01
-1.015704370398733e+00  4.262705252240678e-01 -1.203155568386759e-16

-3.036465942517698e-16 -1.646615247759202e-16 -1.018749538074056e+00
-1.646615247759202e-16 -4.377709338527277e-16  4.246571003033322e-01
-1.018749538074056e+00  4.246571003033322e-01 -9.082432792371536e-17

-2.562328908347829e-16 -1.370479126630703e-16 -1.017396512148520e+00
-1.370479126630703e-16 -4.738429288719951e-16  4.253269694955463e-01
-1.017396512148520e+00  4.253269694955463e-01 -7.663137728276987e-17

-2.206670828293954e-16 -1.158252997373566e-16 -1.016184678840510e+00
-1.158252997373566e-16 -5.151255749043764e-16  4.254524623350110e-01
-1.016184678840510e+00  4.254524623350110e-01 -6.583064992585681e-17

-1.841549413426781e-16 -9.768252289989380e-17 -1.018694586494205e+00
-9.768252289989380e-17 -2.454538175627041e-16  4.251161461073392e-01
-1.018694586494205e+00  4.251161461073392e-01 -5.444516008599626e-17

-1.526599166207468e-16 -7.659606046909453e-17 -1.018543156705288e+00
-7.659606046909453e-17 -4.853277538302433e-16  4.288704086297075e-01
-1.018543156705288e+00  4.288704086297075e-01 -4.465671709496326e-17

-1.297830692177285e-16 -6.691989376771513e-17 -1.007888891335069e+00
-6.691989376771513e-17 -1.644158480899081e-16  4.366485155301065e-01
-1.007888891335069e+00  4.366485155301065e-01 -3.812333798471216e-17

-1.105611048949140e-16 -5.309634344720153e-17 -1.006457044592756e+00
-5.309634344720153e-17 -4.488611082590317e-16  4.158057055707420e-01
-1.006457044592756e+00  4.158057055707420e-01 -3.179027761171233e-17

-9.319326384300080e-17 -4.745288275199692e-17 -1.021926036658005e+00
-4.745288275199692e-17 -8.626358309833583e-17  4.087868359499570e-01
-1.021926036658005e+00  4.087868359499570e-01 -2.532730343385208e-17

-8.050327726275017e-17 -3.526463365085522e-17 -1.018060909342000e+00
-3.526463365085522e-17 -4.709017571569939e-16  4.505841086604700e-01
-1.018060909342000e+00  4.505841086604700e-01 -2.198235318481066e-17

-7.022797858309822e-17 -3.493256830783293e-17 -1.011138476353438e+00
-3.493256830783293e-17 -1.053103850569698e-17  4.481536069623173e-01
-1.011138476353438e+00  4.481536069623173e-01 -1.900895241971810e-17

-6.212869524670679e-17 -3.174358615605374e-17 -1.016117434560214e+00
-3.174358615605374e-17  4.161367559029987e-17  4.056781495384952e-01
-1.016117434560214e+00  4.056781495384952e-01 -1.559331354517581e-17

-5.365197135480852e-17 -2.656956055062890e-17 -1.017079408531359e+00
-2.656956055062890e-17 -1.808361825765016e-17  4.068679946730340e-01
-1.017079408531359e+00  4.068679946730340e-01 -1.273935765466354e-17

-4.693513122452401e-17 -1.987738858469501e-17 -1.021177640962325e+00
-1.987738858469501e-17 -2.610893227192721e-16  4.404580520581690e-01
-1.021177640962325e+00  4.404580520581690e-01 -1.078474282307271e-17

-3.822519642999192e-17 -1.663571758334673e-17 -1.035858915054858e+00
-1.663571758334673e-17 -1.797726281833612e-16  4.264000250819235e-01
-1.035858915054858e+00  4.264000250819235e-01 -6.899996105829840e-18

-3.016913343612179e-17 -1.273412824597747e-17 -1.012902937996062e+00
-1.273412824597747e-17 -1.797645262433237e-16  4.242829857900638e-01
-1.012902937996062e+00  4.242829857900638e-01 -5.293818941279418e-18

-2.180284109132411e-17 -9.569796068488311e-18 -1.012836930714288e+00
-9.569796068488311e-18 -9.091275155637669e-17  4.255195811418227e-01
-1.012836930714288e+00  4.255195811418227e-01 -4.052202401285814e-18

-1.730099808489494e-17 -7.672769953637998e-18 -1.021791822470357e+00
-7.672769953637998e-18 -8.406166396552675e-17  4.351621878445002e-01
-1.021791822470357e+00  4.351621878445002e-01 -2.011120056433459e-18

-1.619983109709500e-17 -8.427876230439595e-18 -1.008983951420819e+00
-8.427876230439595e-18 -4.120597227463202e-18  4.260197613139041e-01
-1.008983951420819e+00  4.260197613139041e-01 -7.282234164348397e-19

-1.340994380041736e-17 -6.875958684814818e-18 -1.012428703237571e+00
-6.875958684814818e-18 -3.950903081730358e-17  4.171262991290523e-01
-1.012428703237571e+00  4.171262991290523e-01  4.641962633063791e-19

-1.122985424703369e-17 -3.501564749511229e-18 -1.018688572818425e+00
-3.501564749511229e-18 -2.475824318285928e-16  4.487869566925232e-01
-1.018688572818425e+00  4.487869566925232e-01  1.074216630768890e-18

-9.700040786114994e-18 -6.296820184386877e-18 -1.026407217852077e+00
-6.296820184386877e-18  3.946158858512344e-17  4.367121032391458e-01
-1.026407217852077e+00  4.367121032391458e-01  2.074189285882001e-18

-8.262735450339496e-18 -2.879445421587792e-18 -1.034136467247494e+00
-2.879445421587792e-18 -2.134335588060114e-16  4.189005758970760e-01
-1.034136467247494e+00  4.189005758970760e-01  3.111826468836214e-18

-6.224397137455617e-18 -6.865766118434381e-18 -1.038665177022722e+00
-6.865766118434381e-18  1.930097282266083e-16  4.232363845246747e-01
-1.038665177022722e+00  4.232363845246747e-01  3.899459752841237e-18

-5.489567646944665e-18 -5.594277321048493e-18 -1.010433568464542e+00
-5.594277321048493e-18  1.339781338637003e-16  4.695103439309118e-01
-1.010433568464542e+00  4.695103439309118e-01  2.024589842314346e-18

-4.912604800425802e-18 -4.677424348487652e-18 -1.011890778142432e+00
-4.677424348487652e-18  6.847105036134607e-17  4.604995082573344e-01
-1.011890778142432e+00  4.604995082573344e-01  2.422404602695541e-18

-3.222266602105251e-18 -3.687850663677091e-18 -1.060093433254469e+00
-3.687850663677091e-18 -1.018573804249232e-18  4.011236534053646e-01
-1.060093433254469e+00  4.011236534053646e-01  6.347945035185590e-18

-3.020643028301247e-18 -1.883686023417795e-18 -1.026802311125278e+00
-1.883686023417795e-18 -1.260079807549341e-16  4.281343186864243e-01
-1.026802311125278e+00  4.281343186864243e-01  4.316405168742561e-18

-2.133289825188326e-18 -2.138428573997838e-18 -1.030240943008525e+00
-2.138428573997838e-18 -8.163498627922809e-17  4.284653997707656e-01
-1.030240943008525e+00  4.284653997707656e-01  4.831731896475876e-18

-1.281488096681164e-18 -2.785889918819831e-18 -1.033290067191917e+00
-2.785889918819831e-18 -6.813251684017280e-18  4.301780268533745e-01
-1.033290067191917e+00  4.301780268533745e-01  5.328032278667738e-18

-8.292247070088458e-19 -2.531825446628557e-18 -1.015743698539714e+00
-2.531825446628557e-18 -6.263346233842645e-18  4.528536348199510e-01
-1.015743698539714e+00  4.528536348199510e-01  4.387422072091638e-18

-1.232001488845845e-19 -4.601742522083609e-18 -1.022788577184030e+00
-4.601742522083609e-18  1.822166247347451e-16  4.285776996311072e-01
-1.022788577184030e+00  4.285776996311072e-01  5.290153085402898e-18

 2.752416605540749e-19 -3.468715526148570e-18 -1.016608311081523e+00
-3.468715526148570e-18  9.867144697781856e-17  4.178162522358996e-01
-1.016608311081523e+00  4.178162522358996e-01  5.220309260416495e-18

 9.837832536370022e-19 -2.499647523015877e-18 -1.016758673200597e+00
-2.499647523015877e-18  3.753251869270374e-17  4.364003334160680e-01
-1.016758673200597e+00  4.364003334160680e-01  5.309299051147910e-18

 1.645331240176864e-18 -1.650708577496683e-18 -1.022850973863477e+00
-1.650708577496683e-18 -2.013253124008216e-17  4.372994711928579e-01
-1.022850973863477e+00  4.372994711928579e-01  5.864782191643758e-18

 2.175541563410047e-18 -9.550274822855053e-19 -1.023916139249939e+00
-9.550274822855053e-19 -6.274229457901249e-17  4.305220713500597e-01
-1.023916139249939e+00  4.305220713500597e-01  6.147325384464526e-18

 2.545657684276264e-18 -1.560029322512190e-18 -1.021440364317636e+00
-1.560029322512190e-18 -5.132157990002676e-18  4.288870939354028e-01
-1.021440364317636e+00  4.288870939354028e-01  6.168383959559038e-18

 2.992711618745747e-18 -1.664480385332500e-18 -1.019034117987353e+00
-1.664480385332500e-18  1.502960279393760e-17  4.313148287255075e-01
-1.019034117987353e+00  4.313148287255075e-01  6.191231459793752e-18

 3.494634072083255e-18 -1.526527925714301e-18 -1.019060787201192e+00
-1.526527925714301e-18  1.585674153776557e-17  4.310978080512546e-01
-1.019060787201192e+00  4.310978080512546e-01  6.392990293939205e-18

 3.965506318790441e-18 -1.607074350474860e-18 -1.019091722664307e+00
-1.607074350474860e-18  3.034397151871421e-17  4.312583950185296e-01
-1.019091722664307e+00  4.312583950185296e-01  6.541592974764214e-18

 4.327245379177983e-18  1.288693984457111e-19 -1.018617617410440e+00
 1.288693984457111e-19 -9.573493904975269e-17  4.312600755231674e-01
-1.018617617410440e+00  4.312600755231674e-01  6.651265159918133e-18

 4.638671103020560e-18  5.576801180159993e-20 -1.018702878118039e+00
 5.576801180159993e-20 -8.416421065919884e-17  4.313868337476269e-01
-1.018702878118039e+00  4.313868337476269e-01  6.744989674340264e-18

 5.042419653938088e-18 -9.274725375182536e-19 -1.018004904855248e+00
-9.274725375182536e-19  2.802280356360706e-19  4.313178100198657e-01
-1.018004904855248e+00  4.313178100198657e-01  6.847636005717841e-18

 5.467357009542279e-18 -9.570073540347007e-19 -1.018693441999165e+00
-9.570073540347007e-19  1.208267283465015e-17  4.313988607965576e-01
-1.018693441999165e+00  4.313988607965576e-01  7.000537599069060e-18

 5.865101665117285e-18 -1.227811171787662e-18 -1.019057333827055e+00
-1.227811171787662e-18  3.939315063619263e-17  4.313463332910429e-01
-1.019057333827055e+00  4.313463332910429e-01  7.145477809732817e-18

 6.238289907973071e-18 -1.323329310098084e-18 -1.018901968899206e+00
-1.323329310098084e-18  5.713390997882513e-17  4.316221284496543e-01
-1.018901968899206e+00  4.316221284496543e-01  7.243289474824860e-18

 6.430027751047994e-18 -1.270138299268170e-18 -1.017778866072689e+00
-1.270138299268170e-18  5.746944721745761e-17  4.319503759446903e-01
-1.017778866072689e+00  4.319503759446903e-01  7.249282090164521e-18

 6.624779399995952e-18  4.430406326294662e-20 -1.018881472446767e+00
 4.430406326294662e-20 -4.169379229494102e-17  4.304994770849315e-01
-1.018881472446767e+00  4.304994770849315e-01  7.347648500360198e-18

 6.807104649776891e-18 -8.283089581128708e-20 -1.018521810706408e+00
-8.283089581128708e-20 -2.753175271309039e-17  4.308709675620736e-01
-1.018521810706408e+00  4.308709675620736e-01  7.395725130312032e-18

 7.190173577178608e-18 -7.661405026627156e-19 -1.022321513795249e+00
-7.661405026627156e-19  2.850428181520532e-17  4.336895700216203e-01
-1.022321513795249e+00  4.336895700216203e-01  7.686331787077373e-18

 7.283327353140251e-18 -3.907629930425974e-19 -1.018685786127365e+00
-3.907629930425974e-19 -4.981058608424972e-20  4.307479236571005e-01
-1.018685786127365e+00  4.307479236571005e-01  7.547171572476752e-18

 7.385603282837812e-18 -4.997852950380957e-19 -1.018148911920598e+00
-4.997852950380957e-19  1.690961819661019e-17  4.255593599571307e-01
-1.018148911920598e+00  4.255593599571307e-01  7.595683144921830e-18

 7.469108260213055e-18 -4.682139116899749e-19 -1.015976522798289e+00
-4.682139116899749e-19  1.686606856722765e-17  4.326460426825682e-01
-1.015976522798289e+00  4.326460426825682e-01  7.422005906259341e-18

 7.735787075806250e-18 -4.083411109199447e-19 -1.021280963422400e+00
-4.083411109199447e-19  1.344337825452757e-17  4.324590280591516e-01
-1.021280963422400e+00  4.324590280591516e-01  7.753610329480688e-18

 7.744513793654223e-18 -1.934469747426828e-19 -1.017096748859024e+00
-1.934469747426828e-19 -3.431128477625052e-18  4.395937679794746e-01
-1.017096748859024e+00  4.395937679794746e-01  7.388510417607257e-18

 7.870577564640932e-18  9.785909490954322e-20 -1.019764273916410e+00
 9.785909490954322e-20 -2.140734144612052e-17  4.312041721840124e-01
-1.019764273916410e+00  4.312041721840124e-01  7.695258892287010e-18

 8.109956337778544e-18 -1.809511677924071e-19 -1.025311926300455e+00
-1.809511677924071e-19  3.947899758300544e-18  4.225934378462503e-01
-1.025311926300455e+00  4.225934378462503e-01  8.163545594841284e-18

 7.993152348525364e-18 -1.619999332514343e-20 -1.017537085891101e+00
-1.619999332514343e-20 -8.659572201072560e-18  4.378416880973841e-01
-1.017537085891101e+00  4.378416880973841e-01  7.514428322598408e-18

 8.056117848166843e-18 -3.486851018310245e-19 -1.017080812037374e+00
-3.486851018310245e-19  1.452672069373450e-17  4.398027518054797e-01
-1.017080812037374e+00  4.398027518054797e-01  7.504457091361984e-18

 8.253916167836093e-18 -3.389429829031943e-19 -1.021538598996160e+00
-3.389429829031943e-19  1.700396520491679e-17  4.279458482720052e-01
-1.021538598996160e+00  4.279458482720052e-01  7.965154742692384e-18

 8.272029330480497e-18  2.101071818866779e-19 -1.016418308786517e+00
 2.101071818866779e-19 -2.260878869967920e-17  4.297098244237540e-01
-1.016418308786517e+00  4.297098244237540e-01  7.695318317228150e-18

 8.391756706881699e-18  4.971950940088348e-20 -1.017704760322863e+00
 4.971950940088348e-20 -1.028088138582396e-17  4.309993420937794e-01
-1.017704760322863e+00  4.309993420937794e-01  7.795063129947528e-18

 8.520964034808210e-18 -1.097924107735896e-19 -1.019319843279442e+00
-1.097924107735896e-19  2.125779016342733e-18  4.302529338655707e-01
-1.019319843279442e+00  4.302529338655707e-01  7.928701817959347e-18

 8.640683260067814e-18 -1.597739180405966e-19 -1.019751596850367e+00
-1.597739180405966e-19  1.241762353501844e-17  4.309072491130029e-01
-1.019751596850367e+00  4.309072491130029e-01  7.954794020764663e-18

 8.713843654131129e-18 -2.381183019632179e-19 -1.018728422987987e+00
-2.381183019632179e-19  1.916371252038089e-17  4.294151450992071e-01
-1.018728422987987e+00  4.294151450992071e-01  7.957133531108753e-18

 8.822317395358587e-18  2.690006029185259e-19 -1.018818263492106e+00
 2.690006029185259e-19 -1.603532601963894e-17  4.283776815446831e-01
-1.018818263492106e+00  4.283776815446831e-01  8.020153061803751e-18

 8.843805994458902e-18 -2.025609515062822e-19 -1.016453489107209e+00
-2.025609515062822e-19  1.695547766511921e-17  4.347550329244864e-01
-1.016453489107209e+00  4.347550329244864e-01  7.790554156325794e-18

 8.951087474835161e-18 -1.530206984611414e-19 -1.018170049956336e+00
-1.530206984611414e-19  1.444110536452544e-17  4.319035205838681e-01
-1.018170049956336e+00  4.319035205838681e-01  7.949739544243614e-18

 9.004187545836647e-18 -1.023762381135279e-19 -1.018568973028972e+00
-1.023762381135279e-19  1.165367581761492e-17  4.277574700516018e-01
-1.018568973028972e+00  4.277574700516018e-01  8.068994377112530e-18

 9.074912519558914e-18 -1.105395267038835e-20 -1.018477122025989e+00
-1.105395267038835e-20  7.404341079854594e-18  4.293930395987867e-01
-1.018477122025989e+00  4.293930395987867e-01  8.055723121319371e-18

 9.148267245381910e-18  4.578112460740996e-20 -1.019252862517262e+00
 4.578112460740996e-20  2.249459339008456e-18  4.291357825802473e-01
-1.019252862517262e+00  4.291357825802473e-01  8.109666452118518e-18

 9.206124888359695e-18  1.300113651355107e-19 -1.018685846811826e+00
 1.300113651355107e-19 -2.949542175029674e-18  4.292024683282699e-01
-1.018685846811826e+00  4.292024683282699e-01  8.107540344969643e-18

 9.270468374909007e-18  1.385176925722666e-19 -1.019220252524986e+00
 1.385176925722666e-19 -2.822118931907690e-18  4.280209883151672e-01
-1.019220252524986e+00  4.280209883151672e-01  8.166698489173186e-18

 9.377454581473865e-18 -1.964553650334946e-19 -1.020337581971671e+00
-1.964553650334946e-19  2.441573547475311e-17  4.293447011384253e-01
-1.020337581971671e+00  4.293447011384253e-01  8.233252986899662e-18

 9.400996547272390e-18 -1.159040703509889e-20 -1.018905111115919e+00
-1.159040703509889e-20  9.214196852522075e-18  4.296206559551703e-01
-1.018905111115919e+00  4.296206559551703e-01  8.142746791980858e-18

 9.483325773192226e-18 -4.606213001170752e-19 -1.019381418355882e+00
-4.606213001170752e-19  4.116246874301637e-17  4.241057682608558e-01
-1.019381418355882e+00  4.241057682608558e-01  8.263051853530951e-18

 9.714604232789347e-18 -1.329371482661656e-19 -1.027062549786760e+00
-1.329371482661656e-19  1.981123828203346e-17  4.277011669173890e-01
-1.027062549786760e+00  4.277011669173890e-01  8.753114351911694e-18

 8.521186060081934e-18 -1.071588990165664e-19 -9.774177578122991e-01
-1.071588990165664e-19  1.128684536178202e-17  4.757331754151136e-01
-9.774177578122991e-01  4.757331754151136e-01  5.020746491920040e-18

 9.507688779574950e-18 -2.648601965188311e-19 -1.015920779871713e+00
-2.648601965188311e-19  2.795450473193746e-17  4.289728194714565e-01
-1.015920779871713e+00  4.289728194714565e-01  8.055616563006745e-18

 1.067461107919220e-17 -5.462882955765794e-20 -1.062882356685639e+00
-5.462882955765794e-20  1.396492395542990e-17  3.771476318508671e-01
-1.062882356685639e+00  3.771476318508671e-01  1.164690153639513e-17

 9.245833282893984e-18  1.464108372465500e-19 -1.003437794757475e+00
 1.464108372465500e-19 -2.409218316951600e-18  4.355009958098743e-01
-1.003437794757475e+00  4.355009958098743e-01  7.186851356683149e-18

 9.213870218333662e-18 -4.770115236882163e-20 -1.001658321658406e+00
-4.770115236882163e-20  1.676652047397836e-17  4.463035466486295e-01
-1.001658321658406e+00  4.463035466486295e-01  6.960795197983448e-18

 9.821927003739713e-18  2.415749425077620e-19 -1.024832807466202e+00
 2.415749425077620e-19 -7.432266361970313e-18  4.186751796424895e-01
-1.024832807466202e+00  4.186751796424895e-01  8.771226190981533e-18

 9.736095220624504e-18  1.299523557861562e-19 -1.019840217999275e+00
 1.299523557861562e-19  1.026718174191831e-18  4.236550497338075e-01
-1.019840217999275e+00  4.236550497338075e-01  8.421083725144509e-18

 9.684863208766709e-18 -1.848049468443145e-19 -1.016233252555662e+00
-1.848049468443145e-19  2.932478553864802e-17  4.326866773527278e-01
-1.016233252555662e+00  4.326866773527278e-01  8.090375651840123e-18

 9.759822395159136e-18 -1.799612221862990e-19 -1.017620273000998e+00
-1.799612221862990e-19  2.954329112292995e-17  4.281579604061935e-01
-1.017620273000998e+00  4.281579604061935e-01  8.246376195451697e-18

 9.753556161138705e-18  2.598121087146237e-21 -1.014579123331010e+00
 2.598121087146237e-21  1.051319591568756e-17  4.283101140385675e-01
-1.014579123331010e+00  4.283101140385675e-01  8.079641077929883e-18

 9.812605393992171e-18 -1.301446335197888e-19 -1.014200281289160e+00
-1.301446335197888e-19  1.926458879085550e-17  4.279156983571712e-01
-1.014200281289160e+00  4.279156983571712e-01  8.086306191685250e-18

 9.863784865068272e-18 -1.259147423232913e-19 -1.015238640938890e+00
-1.259147423232913e-19  1.924303561276338e-17  4.285717147076100e-01
-1.015238640938890e+00  4.285717147076100e-01  8.153175946294910e-18

 9.908848790533383e-18 -4.763898723199833e-20 -1.015720357723093e+00
-4.763898723199833e-20  1.407968404352202e-17  4.293206136183438e-01
-1.015720357723093e+00  4.293206136183438e-01  8.163380530884458e-18

 9.931939585457470e-18 -1.914935040528015e-20 -1.014763908632314e+00
-1.914935040528015e-20  1.381081981024552e-17  4.277011671766935e-01
-1.014763908632314e+00  4.277011671766935e-01  8.145173820357291e-18

 9.977024113829383e-18 -5.369299354899569e-20 -1.014938938561236e+00
-5.369299354899569e-20  1.667091038917735e-17  4.268199228400307e-01
-1.014938938561236e+00  4.268199228400307e-01  8.169234934641581e-18

 1.001917691964071e-17 -2.186282060854106e-19 -1.015302815736619e+00
-2.186282060854106e-19  3.022330307930038e-17  4.289326118195072e-01
-1.015302815736619e+00  4.289326118195072e-01  8.161562114981800e-18

 1.006370668395358e-17  9.534129574277052e-20 -1.015543995410116e+00
 9.534129574277052e-20  1.219912711232570e-17  4.277087566137153e-01
-1.015543995410116e+00  4.277087566137153e-01  8.232782213260579e-18

 1.007381457445153e-17  9.856230221895853e-20 -1.014745264450877e+00
 9.856230221895853e-20  1.228893449204864e-17  4.269427966923482e-01
-1.014745264450877e+00  4.269427966923482e-01  8.213829801097527e-18

 1.010490870943601e-17 -2.176935121403327e-20 -1.013864483253209e+00
-2.176935121403327e-20  1.590454494947750e-17  4.269337444110409e-01
-1.013864483253209e+00  4.269337444110409e-01  8.177487905517416e-18

 1.013633120254285e-17 -8.933953369141128e-20 -1.013837681058747e+00
-8.933953369141128e-20  2.067232560621141e-17  4.275137669764524e-01
-1.013837681058747e+00  4.275137669764524e-01  8.169512971173976e-18

 1.018260534779697e-17 -1.105465809172711e-20 -1.014839553101503e+00
-1.105465809172711e-20  1.574010429320414e-17  4.261986492979258e-01
-1.014839553101503e+00  4.261986492979258e-01  8.245129204826055e-18

 1.023152052692380e-17  4.935691654469531e-20 -1.015685648656948e+00
 4.935691654469531e-20  1.383273277594135e-17  4.271807700728350e-01
-1.015685648656948e+00  4.271807700728350e-01  8.262873283042302e-18

 1.022040206581417e-17 -7.287818580548215e-20 -1.014966466943705e+00
-7.287818580548215e-20  2.155449292479444e-17  4.285296523052580e-01
-1.014966466943705e+00  4.285296523052580e-01  8.212530069374701e-18

 1.030977919936388e-17  1.185053171675478e-19 -1.016208974733258e+00
 1.185053171675478e-19  9.926346040760716e-18  4.265951446994530e-01
-1.016208974733258e+00  4.265951446994530e-01  8.326763543470349e-18

 1.035879979327136e-17  1.207415976336631e-19 -1.018168324574642e+00
 1.207415976336631e-19  8.439192469906151e-18  4.266967952978661e-01
-1.018168324574642e+00  4.266967952978661e-01  8.411331630182551e-18

 1.041997816821662e-17  1.235268559333210e-19 -1.020566310032097e+00
 1.235268559333210e-19  6.837331028825414e-18  4.294723787195756e-01
-1.020566310032097e+00  4.294723787195756e-01  8.516738309390720e-18

 1.031355544815723e-17  2.598500630668658e-20 -1.013861280830470e+00
 2.598500630668658e-20  1.453750894555858e-17  4.277455247678931e-01
-1.013861280830470e+00  4.277455247678931e-01  8.110243593682411e-18

 1.032298755299508e-17 -1.239823286702497e-19 -1.013135181198733e+00
-1.239823286702497e-19  2.449855943996202e-17  4.279988184459516e-01
-1.013135181198733e+00  4.279988184459516e-01  8.022682966193865e-18

 1.069759426255305e-17  1.730566830218602e-21 -1.028928140727727e+00
 1.730566830218602e-21  1.656315496795769e-17  4.281048053089991e-01
-1.028928140727727e+00  4.281048053089991e-01  8.882818599964554e-18

 1.060429353148273e-17  1.362242989884691e-19 -1.024354242018607e+00
 1.362242989884691e-19  7.793541812885585e-18  4.358260411315716e-01
-1.024354242018607e+00  4.358260411315716e-01  8.497878334419170e-18

 1.058325285102537e-17  9.958995129288351e-20 -1.021898745739397e+00
 9.958995129288351e-20  1.525569611605988e-17  4.242428953872485e-01
-1.021898745739397e+00  4.242428953872485e-01  8.503236742107232e-18

 1.052401056568471e-17  1.267608979358051e-19 -1.017897293674690e+00
 1.267608979358051e-19  1.278301302359575e-17  4.248204696569026e-01
-1.017897293674690e+00  4.248204696569026e-01  8.299302756621853e-18

 1.053391437931054e-17  9.933091914075766e-20 -1.018108496726345e+00
 9.933091914075766e-20  1.059160977640634e-17  4.336659258387938e-01
-1.018108496726345e+00  4.336659258387938e-01  8.204243460175170e-18

 1.067011279833991e-17  5.410339854157701e-22 -1.022573177122008e+00
 5.410339854157701e-22  1.752643462536896e-17  4.289159762034584e-01
-1.022573177122008e+00  4.289159762034584e-01  8.545086858588405e-18

 1.068430546582825e-17 -1.717439488892524e-21 -1.023031719979950e+00
-1.717439488892524e-21  1.788596687195997e-17  4.288093731068893e-01
-1.023031719979950e+00  4.288093731068893e-01  8.550291191493650e-18

 1.072378928105916e-17  5.153927177754376e-20 -1.023857511208850e+00
 5.153927177754376e-20  1.544441812723076e-17  4.286911549911594e-01
-1.023857511208850e+00  4.286911549911594e-01  8.582690619453804e-18

 1.068423915985907e-17  1.503404358598412e-19 -1.021685782494674e+00
 1.503404358598412e-19  1.154902945371994e-17  4.324509738079094e-01
-1.021685782494674e+00  4.324509738079094e-01  8.395866376325354e-18

 1.073623917391010e-17  7.231153171047159e-20 -1.022440735038099e+00
 7.231153171047159e-20  1.426003899698644e-17  4.249643722960029e-01
-1.022440735038099e+00  4.249643722960029e-01  8.551140706504051e-18

 1.080568576707300e-17  6.949645039592715e-20 -1.024692468141680e+00
 6.949645039592715e-20  1.219577617509408e-17  4.291100647220655e-01
-1.024692468141680e+00  4.291100647220655e-01  8.648689304179889e-18

 9.890967648204454e-18  1.027199231692155e-19 -9.872838625060305e-01
 1.027199231692155e-19  1.174742195842589e-17  4.647772941336719e-01
-9.872838625060305e-01  4.647772941336719e-01  5.832762034997200e-18

 1.106939527691245e-17  5.971453937583289e-20 -1.034092878485021e+00
 5.971453937583289e-20  1.506021309161924e-17  4.152124794901024e-01
-1.034092878485021e+00  4.152124794901024e-01  9.467191952472855e-18

 1.164918626020433e-17  7.748745090928977e-20 -1.057691081325888e+00
 7.748745090928977e-20  1.421701412182136e-17  3.897681836003474e-01
-1.057691081325888e+00  3.897681836003474e-01  1.124763742133732e-17

 1.057776244927565e-17  9.077612464125224e-20 -1.014050097586973e+00
 9.077612464125224e-20  1.037706179602960e-17  4.378556468988267e-01
-1.014050097586973e+00  4.378556468988267e-01  7.878892324370201e-18

 1.057788704702071e-17  1.259790217690325e-19 -1.013343930281363e+00
 1.259790217690325e-19  9.025885259015397e-18  4.428272967973229e-01
-1.013343930281363e+00  4.428272967973229e-01  7.850355348276061e-18

 1.075128452648404e-17  6.096550535876859e-20 -1.019055212885660e+00
 6.096550535876859e-20  1.228552724768790e-17  4.198776358078048e-01
-1.019055212885660e+00  4.198776358078048e-01  8.453680876198117e-18

 1.068537280997917e-17  6.593621621910411e-20 -1.015223216294977e+00
 6.593621621910411e-20  1.255126158635550e-17  4.201369208998970e-01
-1.015223216294977e+00  4.201369208998970e-01  8.212758286343235e-18

 1.095609743751964e-17  7.846367813520694e-20 -1.027650628057865e+00
 7.846367813520694e-20  1.173644344875847e-17  4.334674264547427e-01
-1.027650628057865e+00  4.334674264547427e-01  8.789822596016256e-18

 1.099889566620441e-17  7.294517002996723e-20 -1.027202682377375e+00
 7.294517002996723e-20  1.442454772641891e-17  4.341809746067647e-01
-1.027202682377375e+00  4.341809746067647e-01  8.863451558275585e-18

 1.060393698975094e-17  7.523287857725523e-20 -1.007099148837443e+00
 7.523287857725523e-20  1.674217974935960e-17  4.021471934003303e-01
-1.007099148837443e+00  4.021471934003303e-01  8.043170462753051e-18

 1.090903996009275e-17  5.406044792504925e-20 -1.017825694623150e+00
 5.406044792504925e-20  1.599623061725465e-17  3.974569361011300e-01
-1.017825694623150e+00  3.974569361011300e-01  8.855675193649783e-18

 1.076710666917871e-17  1.299404388285484e-19 -1.015305747887224e+00
 1.299404388285484e-19  1.139625981895354e-17  4.464704169900724e-01
-1.015305747887224e+00  4.464704169900724e-01  8.057551960691828e-18

 1.098706742294740e-17  1.175227567015006e-19 -1.022853289918296e+00
 1.175227567015006e-19  1.228384192383790e-17  4.323891431211682e-01
-1.022853289918296e+00  4.323891431211682e-01  8.701084955478974e-18

 1.071973394743430e-17  1.159658797035093e-19 -1.009272810219204e+00
 1.159658797035093e-19  1.366309391328017e-17  4.193010001542270e-01
-1.009272810219204e+00  4.193010001542270e-01  8.057732127047045e-18

 1.080822042945317e-17  1.079713269946095e-19 -1.012534314770022e+00
 1.079713269946095e-19  1.396909705810325e-17  4.253066908532769e-01
-1.012534314770022e+00  4.253066908532769e-01  8.216143067467233e-18

 1.090756397325492e-17  1.594793613229713e-19 -1.015983188031266e+00
 1.594793613229713e-19  1.236703834503514e-17  4.292822458263608e-01
-1.015983188031266e+00  4.292822458263608e-01  8.415542199031707e-18

 1.090227633903109e-17  1.232526741954883e-19 -1.015431015969477e+00
 1.232526741954883e-19  1.322311464762821e-17  4.246360493661423e-01
-1.015431015969477e+00  4.246360493661423e-01  8.426722209401573e-18

 1.086189080028134e-17  1.255238558929552e-19 -1.013036932553446e+00
 1.255238558929552e-19  1.476167180527953e-17  4.238324547074439e-01
-1.013036932553446e+00  4.238324547074439e-01  8.286857883375071e-18

 1.086892238824204e-17  1.488309027332803e-19 -1.011668403126205e+00
 1.488309027332803e-19  1.306607388524040e-17  4.244388313417756e-01
-1.011668403126205e+00  4.244388313417756e-01  8.221877827903788e-18

 1.090191208319223e-17  1.275278190007453e-19 -1.012973404661581e+00
 1.275278190007453e-19  1.396955241010470e-17  4.248304709673381e-01
-1.012973404661581e+00  4.248304709673381e-01  8.296572562991631e-18

 1.092779627353080e-17  1.052720793220393e-19 -1.013918960157315e+00
 1.052720793220393e-19  1.491728151781202e-17  4.241830226365311e-01
-1.013918960157315e+00  4.241830226365311e-01  8.358585560347856e-18

 1.094197089760933e-17  8.202978264794272e-20 -1.014355030615324e+00
 8.202978264794272e-20  1.586003733334318e-17  4.236784111893975e-01
-1.014355030615324e+00  4.236784111893975e-01  8.389879867499222e-18

 1.098290798826103e-17  1.635259686684820e-19 -1.015133909189204e+00
 1.635259686684820e-19  1.047091081613847e-17  4.233604221207645e-01
-1.015133909189204e+00  4.233604221207645e-01  8.432509087480413e-18

 1.102078273948783e-17  1.247623538107165e-19 -1.015967844280531e+00
 1.247623538107165e-19  1.166508774813459e-17  4.228609010803502e-01
-1.015967844280531e+00  4.228609010803502e-01  8.489976219398509e-18

 1.104685242576867e-17  1.226270165878432e-19 -1.016886641151075e+00
 1.226270165878432e-19  1.181592638142098e-17  4.227794588468924e-01
-1.016886641151075e+00  4.227794588468924e-01  8.545683420678636e-18

 1.108873633418900e-17  9.894036327839073e-20 -1.017654218370575e+00
 9.894036327839073e-20  1.498059851079687e-17  4.222445164770716e-01
-1.017654218370575e+00  4.222445164770716e-01  8.609081734959026e-18

 1.110170508719359e-17  1.120412487654942e-19 -1.017870615675953e+00
 1.120412487654942e-19  1.305227485590375e-17  4.233357593059506e-01
-1.017870615675953e+00  4.233357593059506e-01  8.644637286679390e-18

 1.100948143712024e-17  1.169482770881249e-19 -1.012314367931123e+00
 1.169482770881249e-19  1.301632334255652e-17  4.253188029726176e-01
-1.012314367931123e+00  4.253188029726176e-01  8.356411045193125e-18

 1.079252384705398e-17  1.074092614966316e-19 -1.002335108138809e+00
 1.074092614966316e-19  1.514212678730049e-17  4.204154623390996e-01
-1.002335108138809e+00  4.204154623390996e-01  7.826290164157662e-18

 1.097699295260260e-17  6.694581113070759e-20 -1.010769528061166e+00
 6.694581113070759e-20  1.549699423468490e-17  4.231463696695484e-01
-1.010769528061166e+00  4.231463696695484e-01  8.268061377399328e-18

 1.117674968070081e-17  1.040234920071578e-19 -1.019447660621873e+00
 1.040234920071578e-19  1.430974849083268e-17  4.287927380437911e-01
-1.019447660621873e+00  4.287927380437911e-01  8.691088761956395e-18

 1.115488795006376e-17  1.070823158737715e-19 -1.018753864861259e+00
 1.070823158737715e-19  1.345853624392411e-17  4.228798866982817e-01
-1.018753864861259e+00  4.228798866982817e-01  8.660218869200905e-18

 1.108601620000940e-17  1.144654974607608e-19 -1.016113842499935e+00
 1.144654974607608e-19  1.239577229927898e-17  4.219203599761173e-01
-1.016113842499935e+00  4.219203599761173e-01  8.476900497794774e-18

 1.117146406634478e-17  8.496230481624799e-20 -1.020189570050705e+00
 8.496230481624799e-20  1.650807314349101e-17  4.234625306100452e-01
-1.020189570050705e+00  4.234625306100452e-01  8.654415544258585e-18

 1.127838853623684e-17  5.231843239609368e-20 -1.025130930057370e+00
 5.231843239609368e-20  1.712135703728051e-17  4.260643574500503e-01
-1.025130930057370e+00  4.260643574500503e-01  8.893636537545148e-18

 1.111881518997687e-17  9.061228629077453e-20 -1.018834463469525e+00
 9.061228629077453e-20  1.236507759245659e-17  4.322587596397142e-01
-1.018834463469525e+00  4.322587596397142e-01  8.370232160611318e-18

 1.136407336165772e-17  1.127332991627703e-19 -1.028561822522199e+00
 1.127332991627703e-19  1.107007591804291e-17  4.143833566832316e-01
-1.028561822522199e+00  4.143833566832316e-01  9.189850946771674e-18

 1.141038413085400e-17  8.760420222354485e-20 -1.029951807865578e+00
 8.760420222354485e-20  1.355680143450818e-17  4.130492006964037e-01
-1.029951807865578e+00  4.130492006964037e-01  9.314517575166495e-18

 1.128980556610823e-17  1.333773221754531e-19 -1.026026971060794e+00
 1.333773221754531e-19  1.179683598110696e-17  4.273678027996594e-01
-1.026026971060794e+00  4.273678027996594e-01  8.862040308455438e-18

 1.092858138334038e-17  9.648852826696480e-20 -1.011474060250638e+00
 9.648852826696480e-20  1.254881756133644e-17  4.452989266022996e-01
-1.011474060250638e+00  4.452989266022996e-01  7.706062239847012e-18

 1.141030367163370e-17  6.038309027842598e-20 -1.029994671806689e+00
 6.038309027842598e-20  1.420373123646488e-17  4.175668623093783e-01
-1.029994671806689e+00  4.175668623093783e-01  9.243257232744047e-18

 1.157265215166077e-17  6.501377934995689e-20 -1.036620992576067e+00
 6.501377934995689e-20  1.654975226928450e-17  4.053676154832400e-01
-1.036620992576067e+00  4.053676154832400e-01  9.790249352154936e-18

 1.114559405137276e-17  9.465124046928935e-20 -1.019524482966887e+00
 9.465124046928935e-20  1.450758552818798e-17  4.298342374490086e-01
-1.019524482966887e+00  4.298342374490086e-01  8.434410588883946e-18

 1.125057262022956e-17  1.139875597503864e-19 -1.024355124574867e+00
 1.139875597503864e-19  1.324056599481046e-17  4.266828511249046e-01
-1.024355124574867e+00  4.266828511249046e-01  8.787938225214945e-18

 1.125228390664777e-17  7.220715751446751e-20 -1.022641978267556e+00
 7.220715751446751e-20  1.515920813941282e-17  4.270299827409277e-01
-1.022641978267556e+00  4.270299827409277e-01  8.702613341370996e-18

 1.134242038672974e-17  3.068007560110813e-20 -1.020059653295236e+00
 3.068007560110813e-20  1.445679715789210e-17  4.248321687935418e-01
-1.020059653295236e+00  4.248321687935418e-01  8.609696005752078e-18

 1.132789065567697e-17  3.673893544381046e-20 -1.019169782392106e+00
 3.673893544381046e-20  1.374368414538881e-17  4.266783774417792e-01
-1.019169782392106e+00  4.266783774417792e-01  8.569009747114542e-18

 1.475516317894699e-17 -4.976135360538273e-19 -1.018972961981427e+00
-4.976135360538273e-19  1.295755971332310e-17  4.264242020767254e-01
-1.018972961981427e+00  4.264242020767254e-01  8.573484687442491e-18

 5.041585686287372e-17 -6.462770827871452e-18 -1.018157412787268e+00
-6.462770827871452e-18  1.487283550134866e-17  4.263309179465095e-01
-1.018157412787268e+00  4.263309179465095e-01  8.564237945947883e-18

 2.354519816470605e-16 -3.710658886490389e-17 -1.017568658842246e+00
-3.710658886490389e-17  2.177746928553957e-17  4.267910688190835e-01
-1.017568658842246e+00  4.267910688190835e-01  8.535284997645533e-18

 1.579725063774375e-17 -7.196902282972565e-19 -1.017739051628069e+00
-7.196902282972565e-19  1.433210790852643e-17  4.271916132533851e-01
-1.017739051628069e+00  4.271916132533851e-01  8.532565093370586e-18

 1.104055672288473e-17  7.574006889533666e-20 -1.019072199468556e+00
 7.574006889533666e-20  1.270668777372584e-17  4.280443509696931e-01
-1.019072199468556e+00  4.280443509696931e-01  8.576579864022212e-18

 1.106100603684925e-17  7.914303009542879e-20 -1.020452341283351e+00
 7.914303009542879e-20  1.230272379863903e-17  4.275584583083852e-01
-1.020452341283351e+00  4.275584583083852e-01  8.628539852105775e-18

 1.122366917092788e-17  2.721996310042524e-20 -1.019667654245612e+00
 2.721996310042524e-20  1.200581589962113e-17  4.316049447738947e-01
-1.019667654245612e+00  4.316049447738947e-01  8.494116204143054e-18

 1.128445395066307e-17  6.054446395305235e-20 -1.023590202559588e+00
 6.054446395305235e-20  8.454302805913035e-18  4.253899448284202e-01
-1.023590202559588e+00  4.253899448284202e-01  8.771832228979727e-18

 1.126042211536895e-17  5.548245196310248e-20 -1.022954272879474e+00
 5.548245196310248e-20  1.490765279624159e-17  4.265196180457779e-01
-1.022954272879474e+00  4.265196180457779e-01  8.712667090634202e-18

 1.120018704735116e-17  3.940910783318726e-20 -1.020601676299262e+00
 3.940910783318726e-20  1.038183552941530e-17  4.294275137698412e-01
-1.020601676299262e+00  4.294275137698412e-01  8.546342182969073e-18

 1.118375152268945e-17  4.104486615191884e-20 -1.019838177607924e+00
 4.104486615191884e-20  1.884535269542963e-17  4.298233393386859e-01
-1.019838177607924e+00  4.298233393386859e-01  8.493268953447940e-18

-2.500094878430318e-17 -8.298453927906550e-20  1.016613434376274e+00
-8.298453927906550e-20 -1.787901039157900e-17  4.241520064715787e-01
 1.016613434376274e+00  4.241520064715787e-01 -3.467919844663717e-17

-2.508089352301867e-17 -6.178083974526299e-20  1.020140043591653e+00
-6.178083974526299e-20  1.447236580293314e-17  4.227709879373399e-01
 1.020140043591653e+00  4.227709879373399e-01 -3.480648908318910e-17

-2.494875515695675e-17 -9.943988490306540e-20  1.014536780457372e+00
-9.943988490306540e-20 -4.109034132521154e-17  4.230708406538609e-01
 1.014536780457372e+00  4.230708406538609e-01 -3.459954305203734e-17

-2.492299314050599e-17 -1.070149922011955e-19  1.013660610133002e+00
-1.070149922011955e-19 -5.509298158973651e-17  4.223115067723448e-01
 1.013660610133002e+00  4.223115067723448e-01 -3.457027416610943e-17

-2.534084004110651e-17 -6.775681091332688e-20  1.036165426907840e+00
-6.775681091332688e-20  1.403651097939035e-17  4.186401184576091e-01
 1.036165426907840e+00  4.186401184576091e-01 -3.539333158285731e-17

-2.537218329837072e-17 -9.250752856753593e-20  1.030104003393074e+00
-9.250752856753593e-20 -1.841868702524781e-17  4.480557899131575e-01
 1.030104003393074e+00  4.480557899131575e-01 -3.521744382260344e-17

-2.525613603956667e-17 -9.796070249394049e-20  1.023237044438416e+00
-9.796070249394049e-20 -1.582473674489436e-17  4.438648541142424e-01
 1.023237044438416e+00  4.438648541142424e-01 -3.494933566695334e-17

-2.518581762057506e-17 -1.165727698050969e-19  1.027489592634892e+00
-1.165727698050969e-19 -1.939214271113097e-17  4.153942312953040e-01
 1.027489592634892e+00  4.153942312953040e-01 -3.505674954316289e-17

-2.521045557600357e-17 -8.509315286684400e-20  1.028277862431657e+00
-8.509315286684400e-20  4.428513202848514e-17  4.242638146004558e-01
 1.028277862431657e+00  4.242638146004558e-01 -3.509187734536683e-17

-2.531595972817394e-17 -1.181253423895622e-19  1.034704478889174e+00
-1.181253423895622e-19 -2.928985070925637e-17  4.270820503175453e-01
 1.034704478889174e+00  4.270820503175453e-01 -3.533828747768146e-17

-2.508866732046620e-17 -1.039807407106845e-19  1.020858958059761e+00
-1.039807407106845e-19 -6.016959734324037e-18  4.311926791328092e-01
 1.020858958059761e+00  4.311926791328092e-01 -3.481946893954206e-17

-2.496598736021811e-17 -7.749025233811767e-20  1.017434151535346e+00
-7.749025233811767e-20  4.827804668394301e-17  4.178368426829187e-01
 1.017434151535346e+00  4.178368426829187e-01 -3.467513628732431e-17

-2.474500969190354e-17 -1.063716290894647e-19  1.003529137786738e+00
-1.063716290894647e-19  9.090553927009425e-18  4.225738074327051e-01
 1.003529137786738e+00  4.225738074327051e-01 -3.415809489916629e-17

-2.488523612382542e-17 -8.812556221412716e-20  1.012504621693843e+00
-8.812556221412716e-20  3.675555462576771e-17  4.253158271593567e-01
 1.012504621693843e+00  4.253158271593567e-01 -3.449582079131246e-17

-2.493144319359432e-17 -9.076940444734530e-20  1.015045582074955e+00
-9.076940444734530e-20  2.423643246062798e-17  4.241778234531557e-01
 1.015045582074955e+00  4.241778234531557e-01 -3.459452740040297e-17

-2.488983720593909e-17 -1.188015600911000e-19  1.013151767973738e+00
-1.188015600911000e-19 -2.700359083977554e-17  4.225612991451964e-01
 1.013151767973738e+00  4.225612991451964e-01 -3.452122358264392e-17

-2.482989263367339e-17 -9.823777596117634e-20  1.009315917102989e+00
-9.823777596117634e-20  9.116645691675390e-18  4.237939606888998e-01
 1.009315917102989e+00  4.237939606888998e-01 -3.437537106734794e-17

-2.479134568761822e-17 -9.890786518711408e-20  1.007572816067585e+00
-9.890786518711408e-20  8.227959701511617e-18  4.209998742281348e-01
 1.007572816067585e+00  4.209998742281348e-01 -3.430348083191568e-17

-2.485286587624591e-17 -1.663681330286211e-19  1.010590731479283e+00
-1.663681330286211e-19 -9.620827028208953e-17  4.163527000238211e-01
 1.010590731479283e+00  4.163527000238211e-01 -3.440557675609150e-17

-2.485685207488379e-17 -1.228949517617080e-19  1.010898908269612e+00
-1.228949517617080e-19 -2.373182087914181e-17  4.234056984078439e-01
 1.010898908269612e+00  4.234056984078439e-01 -3.443789945192312e-17

-2.489350044212982e-17 -1.282447330132025e-19  1.012315513885202e+00
-1.282447330132025e-19 -3.510414229643023e-17  4.240910957841889e-01
 1.012315513885202e+00  4.240910957841889e-01 -3.449452703238602e-17

-2.483897403016319e-17 -8.639562828926907e-20  1.009269093548692e+00
-8.639562828926907e-20  4.875526504262303e-17  4.238785778278227e-01
 1.009269093548692e+00  4.238785778278227e-01 -3.437383440422141e-17

-2.501382128769162e-17 -6.628796894352225e-20  1.028048619765104e+00
-6.628796894352225e-20  7.241100306827775e-17  3.976332383412881e-01
 1.028048619765104e+00  3.976332383412881e-01 -3.501716571095810e-17

-2.483372229806261e-17 -1.327878982262212e-19  1.009307555735917e+00
-1.327878982262212e-19 -3.619799843431948e-17  4.198353948305276e-01
 1.009307555735917e+00  4.198353948305276e-01 -3.437422458165758e-17

-2.465408050545760e-17 -1.487995330680381e-19  9.909750405079872e-01
-1.487995330680381e-19 -1.051255480942650e-16  4.438453348979396e-01
 9.909750405079872e-01  4.438453348979396e-01 -3.373510437587107e-17

-2.481539119652551e-17 -1.480883112686031e-19  1.007298408199013e+00
-1.480883112686031e-19 -6.052577297490821e-17  4.221068401762938e-01
 1.007298408199013e+00  4.221068401762938e-01 -3.430001949086192e-17

-2.495552213699226e-17 -1.215651484731936e-19  1.019473152704247e+00
-1.215651484731936e-19 -2.128913866124334e-17  4.082088456987741e-01
 1.019473152704247e+00  4.082088456987741e-01 -3.472887419525109e-17

-2.496489569847972e-17 -1.070228450800349e-19  1.017939125919788e+00
-1.070228450800349e-19  4.669216255075501e-17  4.158123143632597e-01
 1.017939125919788e+00  4.158123143632597e-01 -3.467922268881285e-17

-2.495450461619165e-17 -1.129517274201875e-19  1.015046356985978e+00
-1.129517274201875e-19  8.390235251247988e-18  4.210022186371051e-01
 1.015046356985978e+00  4.210022186371051e-01 -3.458906021398770e-17

-2.495784565079692e-17 -1.323262333227922e-19  1.011996853674944e+00
-1.323262333227922e-19 -8.555969985209612e-17  4.253610484672670e-01
 1.011996853674944e+00  4.253610484672670e-01 -3.447879527927175e-17

-2.488973705106424e-17 -1.371377256862804e-19  1.009438010328945e+00
-1.371377256862804e-19 -6.674659750143135e-17  4.245623065341377e-01
 1.009438010328945e+00  4.245623065341377e-01 -3.438528199166860e-17

-2.484707522037149e-17 -1.243743183709809e-19  1.006975489203816e+00
-1.243743183709809e-19 -1.998138591665207e-17  4.199841581420786e-01
 1.006975489203816e+00  4.199841581420786e-01 -3.428570828063471e-17

-2.497233031185725e-17 -1.311925420929044e-19  1.015304639637677e+00
-1.311925420929044e-19 -5.927945573444442e-18  4.162064082566038e-01
 1.015304639637677e+00  4.162064082566038e-01 -3.459274450245766e-17

-2.506354820129889e-17 -1.275493355616782e-19  1.019121611675402e+00
-1.275493355616782e-19 -2.402993982669278e-17  4.243288347194338e-01
 1.019121611675402e+00  4.243288347194338e-01 -3.474942585925728e-17

-2.509784669355565e-17 -1.220114124222188e-19  1.019365683909331e+00
-1.220114124222188e-19 -2.043645090779010e-17  4.285350414278259e-01
 1.019365683909331e+00  4.285350414278259e-01 -3.476173795661276e-17

-2.509885394129015e-17 -1.312978954378048e-19  1.018347057796841e+00
-1.312978954378048e-19 -1.968628971749080e-17  4.194849493255096e-01
 1.018347057796841e+00  4.194849493255096e-01 -3.471553832369066e-17

-2.490098430573470e-17 -1.338382932323196e-19  1.008897329310823e+00
-1.338382932323196e-19 -2.291223650469457e-17  4.181210992963647e-01
 1.008897329310823e+00  4.181210992963647e-01 -3.435895198401394e-17

-2.491789904081107e-17 -1.338791047432757e-19  1.010019899050832e+00
-1.338791047432757e-19 -2.411289446665353e-17  4.172184173115958e-01
 1.010019899050832e+00  4.172184173115958e-01 -3.440189999439790e-17

-2.514946572975844e-17 -1.442257156431657e-19  1.024405707807968e+00
-1.442257156431657e-19  7.307896409820916e-17  4.168885003141090e-01
 1.024405707807968e+00  4.168885003141090e-01 -3.494317823573052e-17

-2.508520531801388e-17 -1.373275423671043e-19  1.014715052365177e+00
-1.373275423671043e-19 -9.309445630036279e-18  4.358452893761468e-01
 1.014715052365177e+00  4.358452893761468e-01 -3.461657220321188e-17

-2.510082254365813e-17 -1.381372567831764e-19  1.013777198463764e+00
-1.381372567831764e-19  2.918595425568798e-17  4.312922502156692e-01
 1.013777198463764e+00  4.312922502156692e-01 -3.457445149466067e-17

-2.505470927432084e-17 -1.077375145316560e-19  1.018606751127713e+00
-1.077375145316560e-19 -1.026222937889995e-16  4.104062002757335e-01
 1.018606751127713e+00  4.104062002757335e-01 -3.472761541077825e-17

-2.527104747822642e-17 -1.311268328207624e-19  1.030062327876289e+00
-1.311268328207624e-19  2.624363436503120e-18  4.065791953523253e-01
 1.030062327876289e+00  4.065791953523253e-01 -3.514140731792299e-17

-2.505273873646445e-17 -1.366331295157483e-19  1.013653294337627e+00
-1.366331295157483e-19  3.665204329857394e-17  4.261559307875314e-01
 1.013653294337627e+00  4.261559307875314e-01 -3.457722141924033e-17

-2.498132306370521e-17 -1.186772801287387e-19  1.007068259717010e+00
-1.186772801287387e-19 -2.909518105938342e-17  4.346583668226341e-01
 1.007068259717010e+00  4.346583668226341e-01 -3.434122438005788e-17

-2.501784218526105e-17 -1.346186085547035e-19  1.014448318259885e+00
-1.346186085547035e-19  2.799684255704961e-17  4.144616559459579e-01
 1.014448318259885e+00  4.144616559459579e-01 -3.458580220750065e-17

-2.499445347448931e-17 -1.280539507898400e-19  1.012196023860300e+00
-1.280539507898400e-19  4.280705741650843e-17  4.142778511676379e-01
 1.012196023860300e+00  4.142778511676379e-01 -3.450745552648924e-17

-2.499353414680380e-17 -1.270022041490819e-19  1.010497116823321e+00
-1.270022041490819e-19 -7.061959449284820e-18  4.215575386562722e-01
 1.010497116823321e+00  4.215575386562722e-01 -3.445305621804245e-17

-2.510890322169646e-17 -1.204998091313100e-19  1.016796930936431e+00
-1.204998091313100e-19  1.691283189389633e-17  4.202452622926352e-01
 1.016796930936431e+00  4.202452622926352e-01 -3.468308059735249e-17

-2.508869672007775e-17 -1.303607696928035e-19  1.012524791287413e+00
-1.303607696928035e-19  2.706534445377798e-17  4.261091487535038e-01
 1.012524791287413e+00  4.261091487535038e-01 -3.453718364439333e-17

-2.503032607011591e-17 -1.469075855308381e-19  1.009629068326870e+00
-1.469075855308381e-19  7.676935411433431e-17  4.257543821481121e-01
 1.009629068326870e+00  4.257543821481121e-01 -3.443048880104004e-17

-2.501131699987405e-17 -1.042709965105253e-19  1.011572247091728e+00
-1.042709965105253e-19 -6.610080016903977e-17  4.141452387326033e-01
 1.011572247091728e+00  4.141452387326033e-01 -3.448962651247348e-17

-2.506291259835647e-17 -1.095008658939905e-19  1.013342755785244e+00
-1.095008658939905e-19 -1.939515651318914e-17  4.162666121124319e-01
 1.013342755785244e+00  4.162666121124319e-01 -3.456480096790224e-17

-2.505458726467921e-17 -1.143529658386097e-19  1.009649844361994e+00
-1.143529658386097e-19  5.243676953941273e-18  4.269277770187971e-01
 1.009649844361994e+00  4.269277770187971e-01 -3.444292075347862e-17

-2.509984842111177e-17 -1.127770563427663e-19  1.013260134823249e+00
-1.127770563427663e-19  2.739428936159386e-17  4.203511658943407e-01
 1.013260134823249e+00  4.203511658943407e-01 -3.457506486051082e-17

-2.515267062706556e-17 -1.321203505079851e-19  1.014663331271023e+00
-1.321203505079851e-19  6.622873284655382e-17  4.150477993520971e-01
 1.014663331271023e+00  4.150477993520971e-01 -3.461405675431719e-17

-2.515698395884948e-17 -1.059651288976185e-19  1.015815350725092e+00
-1.059651288976185e-19 -1.302028531708424e-17  4.177645305653741e-01
 1.015815350725092e+00  4.177645305653741e-01 -3.466779640383483e-17

-2.510613324573612e-17 -1.163236783642612e-19  1.006238670269453e+00
-1.163236783642612e-19  3.248301993446550e-17  4.383006901919366e-01
 1.006238670269453e+00  4.383006901919366e-01 -3.434324193743054e-17

-2.511263556448491e-17 -9.734733737201306e-20  1.009579521684247e+00
-9.734733737201306e-20 -4.872628178636884e-17  4.234935836568601e-01
 1.009579521684247e+00  4.234935836568601e-01 -3.445094810754929e-17

-2.519409555366053e-17 -7.958532268863382e-20  1.021537337690175e+00
-7.958532268863382e-20 -7.013085591168988e-17  4.001168529527125e-01
 1.021537337690175e+00  4.001168529527125e-01 -3.485312882572136e-17

-2.515547695433737e-17 -9.709510310582246e-20  1.012217070827823e+00
-9.709510310582246e-20 -5.810967477530953e-18  4.234669950419365e-01
 1.012217070827823e+00  4.234669950419365e-01 -3.454333047358627e-17

-2.506053930953109e-17 -1.039398946191722e-19  9.995557001007909e-01
-1.039398946191722e-19  6.867917147807184e-18  4.422111533463738e-01
 9.995557001007909e-01  4.422111533463738e-01 -3.410770347538454e-17

-2.520725769972185e-17 -8.976908737730942e-20  1.015882341296090e+00
-8.976908737730942e-20 -3.442718323908265e-17  4.168046292112956e-01
 1.015882341296090e+00  4.168046292112956e-01 -3.468057219240512e-17

-2.517319720914389e-17 -6.874111120471846e-20  1.015868546657817e+00
-6.874111120471846e-20 -1.082359420095924e-16  4.072152165352254e-01
 1.015868546657817e+00  4.072152165352254e-01 -3.466359351058217e-17

-2.522083829704358e-17 -9.883819174449722e-20  1.012758300477849e+00
-9.883819174449722e-20 -3.652243108022645e-17  4.241999971682253e-01
 1.012758300477849e+00  4.241999971682253e-01 -3.457760049977648e-17

-2.523936521796804e-17 -1.275630182517295e-19  1.013151761836927e+00
-1.275630182517295e-19  3.213861524793360e-17  4.287136741057227e-01
 1.013151761836927e+00  4.287136741057227e-01 -3.460449783303929e-17

-2.525636904844353e-17 -1.404546677007468e-19  1.016269934545001e+00
-1.404546677007468e-19  8.006242662613302e-17  4.161359913139662e-01
 1.016269934545001e+00  4.161359913139662e-01 -3.471038405338247e-17

-2.518069483347490e-17 -9.632989085013819e-20  1.011116697475952e+00
-9.632989085013819e-20 -4.683158862959895e-18  4.144070903555472e-01
 1.011116697475952e+00  4.144070903555472e-01 -3.451925250756204e-17

-2.516420969021323e-17 -9.067422118497245e-20  1.008587604514420e+00
-9.067422118497245e-20 -4.983231823632490e-18  4.184162963171345e-01
 1.008587604514420e+00  4.184162963171345e-01 -3.443787736419520e-17

-2.525806381040955e-17 -1.123062872735228e-19  1.013159859024139e+00
-1.123062872735228e-19  6.762504291799085e-17  4.180670415997448e-01
 1.013159859024139e+00  4.180670415997448e-01 -3.460985645182489e-17

-2.531452277945248e-17 -6.395050752637973e-20  1.013444048010913e+00
-6.395050752637973e-20 -4.465695531438142e-17  4.213284367190602e-01
 1.013444048010913e+00  4.213284367190602e-01 -3.463513285304269e-17

-2.529633460949705e-17 -4.514718289678049e-20  1.012852148447287e+00
-4.514718289678049e-20 -6.319784221366116e-17  4.234330760833045e-01
 1.012852148447287e+00  4.234330760833045e-01 -3.461320182122408e-17

-2.536332470354823e-17 -6.423208689864813e-20  1.020917307002737e+00
-6.423208689864813e-20 -1.660346256818065e-17  4.055424975904836e-01
 1.020917307002737e+00  4.055424975904836e-01 -3.488561593593685e-17

-2.536872494435565e-17 -7.018384988033246e-20  1.013121248052549e+00
-7.018384988033246e-20  1.965135913387144e-17  4.153383660849407e-01
 1.013121248052549e+00  4.153383660849407e-01 -3.462100982155327e-17

-2.522406733719406e-17 -4.414278167472826e-20  1.003252056141806e+00
-4.414278167472826e-20 -6.461741662481716e-17  4.293897690509318e-01
 1.003252056141806e+00  4.293897690509318e-01 -3.427905263851921e-17

-2.533993887132220e-17 -6.258057415785417e-20  1.013492852501047e+00
-6.258057415785417e-20 -7.455336671175791e-18  4.189044739907824e-01
 1.013492852501047e+00  4.189044739907824e-01 -3.464830435321936e-17

-2.543101974655895e-17 -7.924230507844544e-20  1.021580312559613e+00
-7.924230507844544e-20  2.210982190843205e-18  4.059074746231667e-01
 1.021580312559613e+00  4.059074746231667e-01 -3.492838610972108e-17

-2.520276460134652e-17 -1.141846500093921e-19  9.981062598943994e-01
-1.141846500093921e-19  1.377201044587770e-16  4.291009978004600e-01
 9.981062598943994e-01  4.291009978004600e-01 -3.411143881361074e-17

-2.513749793506587e-17 -5.425001684548162e-21  9.911680827698914e-01
-5.425001684548162e-21 -1.219277925761723e-16  4.373378439965849e-01
 9.911680827698914e-01  4.373378439965849e-01 -3.387239290556642e-17

-2.538992657454986e-17 -7.091022868799793e-20  1.014308556976473e+00
-7.091022868799793e-20  1.757827321006165e-17  4.142440255383142e-01
 1.014308556976473e+00  4.142440255383142e-01 -3.468329320863540e-17

-2.548361065840397e-17 -8.744165687362957e-20  1.015810969902420e+00
-8.744165687362957e-20  2.899715566032725e-17  4.110121160756770e-01
 1.015810969902420e+00  4.110121160756770e-01 -3.473582617637637e-17

-2.548229688935618e-17 -2.068675399197222e-20  1.017112899823817e+00
-2.068675399197222e-20 -4.558262758544193e-17  4.181028107170068e-01
 1.017112899823817e+00  4.181028107170068e-01 -3.479920952612420e-17

-2.554086143832448e-17 -7.046029611384090e-20  1.020294652388130e+00
-7.046029611384090e-20  2.076959461616661e-17  4.159535929633638e-01
 1.020294652388130e+00  4.159535929633638e-01 -3.491429591149942e-17

-2.552918254133315e-17 -5.517890308395024e-20  1.014621290058953e+00
-5.517890308395024e-20 -1.419017461039435e-17  4.150940091443453e-01
 1.014621290058953e+00  4.150940091443453e-01 -3.470532697888335e-17

-2.535435129702189e-17 -7.389265177009220e-20  1.006713380226234e+00
-7.389265177009220e-20  5.824514733831259e-17  4.157736655915384e-01
 1.006713380226234e+00  4.157736655915384e-01 -3.441200219495310e-17

-2.531712953008376e-17 -8.457608988459330e-20  1.000971654397572e+00
-8.457608988459330e-20  7.375230060843266e-17  4.220899132886611e-01
 1.000971654397572e+00  4.220899132886611e-01 -3.421025055988378e-17

-2.539419565409347e-17 -7.064858354249934e-20  1.005172884336632e+00
-7.064858354249934e-20 -1.121834238407718e-17  4.219556352784535e-01
 1.005172884336632e+00  4.219556352784535e-01 -3.437377171398541e-17

-2.560600621118987e-17 -5.285639280348248e-20  1.021981309780655e+00
-5.285639280348248e-20 -3.291945800747058e-18  4.119623004749635e-01
 1.021981309780655e+00  4.119623004749635e-01 -3.497065016605504e-17

-2.545957384611386e-17 -2.578546632365559e-20  1.009033734167528e+00
-2.578546632365559e-20 -7.023321893301401e-17  4.193420420678670e-01
 1.009033734167528e+00  4.193420420678670e-01 -3.450619120903232e-17

-2.534608095962379e-17 -3.497462305324444e-20  9.995268501135595e-01
-3.497462305324444e-20  1.237221786118973e-17  4.206803110134814e-01
 9.995268501135595e-01  4.206803110134814e-01 -3.415395465813015e-17

-2.560263487334394e-17 -3.745357360462194e-20  1.015428803313916e+00
-3.745357360462194e-20 -2.870710724363631e-17  4.071713713750592e-01
 1.015428803313916e+00  4.071713713750592e-01 -3.471776065193393e-17

-2.569921112367102e-17 -4.157568738200692e-20  1.018592023795873e+00
-4.157568738200692e-20 -4.888526733742258e-17  4.188925874617918e-01
 1.018592023795873e+00  4.188925874617918e-01 -3.486709069427177e-17

-2.574287833173257e-17  7.147629401694767e-21  1.018125700609642e+00
 7.147629401694767e-21 -2.124802606687732e-16  4.267442966116256e-01
 1.018125700609642e+00  4.267442966116256e-01 -3.485926535343316e-17

-2.574384698461077e-17 -4.678276246356843e-20  1.022531481091784e+00
-4.678276246356843e-20 -9.593695800123199e-17  4.045684904502677e-01
 1.022531481091784e+00  4.045684904502677e-01 -3.500080042909028e-17

-2.555217847983347e-17 -8.558880524885464e-20  1.008430225208427e+00
-8.558880524885464e-20  1.240528375525422e-16  4.071765963256728e-01
 1.008430225208427e+00  4.071765963256728e-01 -3.447659833036305e-17

-2.553274882062070e-17 -7.553523958419254e-20  9.996913167307726e-01
-7.553523958419254e-20  1.340689845019006e-16  4.268731658510184e-01
 9.996913167307726e-01  4.268731658510184e-01 -3.417816366991870e-17

-2.556706534620355e-17 -4.750743274958863e-20  1.002198293702361e+00
-4.750743274958863e-20  2.801615688180884e-17  4.285038380612419e-01
 1.002198293702361e+00  4.285038380612419e-01 -3.427396012578440e-17

-2.572544479147765e-17 -5.966039310575006e-20  1.015820669322483e+00
-5.966039310575006e-20 -2.846959357047122e-17  4.119492093750362e-01
 1.015820669322483e+00  4.119492093750362e-01 -3.475292773788636e-17

-2.566067224622771e-17 -6.612546891438975e-20  1.007942371997641e+00
-6.612546891438975e-20  1.053564647752363e-16  4.193533822664375e-01
 1.007942371997641e+00  4.193533822664375e-01 -3.447799752955154e-17

-2.572587825638201e-17 -5.883429888868299e-20  1.010302025323980e+00
-5.883429888868299e-20  5.269726662600557e-17  4.178303996101790e-01
 1.010302025323980e+00  4.178303996101790e-01 -3.456531378733658e-17

-2.575009183062920e-17 -4.398581086168301e-20  1.008179542788490e+00
-4.398581086168301e-20 -1.233325092508765e-16  4.245820049781641e-01
 1.008179542788490e+00  4.245820049781641e-01 -3.450445964560260e-17

-2.583908056804657e-17 -6.789571791631782e-20  1.014833905677889e+00
-6.789571791631782e-20 -5.369610640256391e-17  4.166329641724648e-01
 1.014833905677889e+00  4.166329641724648e-01 -3.473542358339685e-17

-2.576056801916657e-17 -6.428942171477811e-20  1.006814047169239e+00
-6.428942171477811e-20  1.322225133335580e-17  4.209440476843040e-01
 1.006814047169239e+00  4.209440476843040e-01 -3.443960010612671e-17

-2.558502991524149e-17 -6.689792738789769e-20  9.964821045342306e-01
-6.689792738789769e-20  1.328499533126854e-17  4.152968733361874e-01
 9.964821045342306e-01  4.152968733361874e-01 -3.405195316722822e-17

-2.568446828900838e-17 -6.589919355268796e-20  1.001048563358729e+00
-6.589919355268796e-20  1.351753445812316e-18  4.158075159195190e-01
 1.001048563358729e+00  4.158075159195190e-01 -3.421342603314908e-17

-2.580116927301410e-17 -7.739154355629854e-20  1.002252296724857e+00
-7.739154355629854e-20 -9.226916207894855e-17  4.316942126403636e-01
 1.002252296724857e+00  4.316942126403636e-01 -3.428812040942116e-17

-2.586826037491698e-17 -8.260672452240393e-20  1.008510700303409e+00
-8.260672452240393e-20  9.331825986266914e-17  4.152264374824900e-01
 1.008510700303409e+00  4.152264374824900e-01 -3.449937356111743e-17

-2.584626994040771e-17 -6.877319414168124e-20  1.007589975801756e+00
-6.877319414168124e-20 -7.785904109187540e-19  4.099308205445748e-01
 1.007589975801756e+00  4.099308205445748e-01 -3.445260136899334e-17

-2.586585303973511e-17 -5.425455873466372e-20  1.003157951784814e+00
-5.425455873466372e-20  1.178679228664061e-16  4.216737365537106e-01
 1.003157951784814e+00  4.216737365537106e-01 -3.430680230290279e-17

-2.600427620991069e-17 -9.063843267007693e-20  1.009013719790478e+00
-9.063843267007693e-20  1.152511193090060e-17  4.196626099328852e-01
 1.009013719790478e+00  4.196626099328852e-01 -3.452787582765603e-17

-2.609565117587552e-17 -9.933213120565670e-20  1.010975564136284e+00
-9.933213120565670e-20  3.770310814283464e-17  4.225803961468252e-01
 1.010975564136284e+00  4.225803961468252e-01 -3.460884537811349e-17

-2.604403007072018e-17 -7.224147792218071e-20  1.003872816226088e+00
-7.224147792218071e-20 -1.827704237845784e-19  4.237527078324416e-01
 1.003872816226088e+00  4.237527078324416e-01 -3.434671644640995e-17

-2.613005915043158e-17 -7.250734252590344e-20  1.013914001274001e+00
-7.250734252590344e-20  3.981485227960244e-17  4.048467685130045e-01
 1.013914001274001e+00  4.048467685130045e-01 -3.469094653716655e-17

-2.626139135171910e-17 -1.002316824542647e-19  1.020291867170580e+00
-1.002316824542647e-19  1.853582882723700e-16  4.057177294474069e-01
 1.020291867170580e+00  4.057177294474069e-01 -3.493628559492480e-17

-2.624843168503833e-17 -1.151228207451203e-19  1.010535522416572e+00
-1.151228207451203e-19  3.756358933710689e-17  4.362122794933300e-01
 1.010535522416572e+00  4.362122794933300e-01 -3.462933716925206e-17

-2.610332207389743e-17 -7.340027726649618e-20  9.960662896709985e-01
-7.340027726649618e-20 -1.186240449129603e-16  4.422206662977106e-01
 9.960662896709985e-01  4.422206662977106e-01 -3.409269692793346e-17

-2.632207501468101e-17 -1.031415842165533e-19  1.020554829302360e+00
-1.031415842165533e-19 -3.527088714666745e-17  3.953057765432759e-01
 1.020554829302360e+00  3.953057765432759e-01 -3.493820156011107e-17

-2.612850501064752e-17 -1.110972136227823e-19  1.004981163103282e+00
-1.110972136227823e-19  1.165605117295426e-16  4.066103974294142e-01
 1.004981163103282e+00  4.066103974294142e-01 -3.437386585438772e-17

-2.628200904382132e-17 -1.213425699948838e-19  1.005985718164597e+00
-1.213425699948838e-19  9.103321155730391e-17  4.298076775013199e-01
 1.005985718164597e+00  4.298076775013199e-01 -3.446564946852698e-17

-2.649952963219977e-17 -9.602682307635836e-20  1.014769513531383e+00
-9.602682307635836e-20 -7.371733886967169e-18  4.218832711158325e-01
 1.014769513531383e+00  4.218832711158325e-01 -3.479734106624595e-17

-2.655236396432767e-17 -9.297815894715517e-20  1.015337948833824e+00
-9.297815894715517e-20 -1.878746424626377e-17  4.206725169158407e-01
 1.015337948833824e+00  4.206725169158407e-01 -3.483039684536493e-17

-2.663194790486361e-17 -8.682322191952038e-20  1.018172300344973e+00
-8.682322191952038e-20 -3.024123513015671e-17  4.171895573534711e-01
 1.018172300344973e+00  4.171895573534711e-01 -3.494903375942429e-17

-2.676071719973508e-17 -1.391881977108246e-19  1.016482279265936e+00
-1.391881977108246e-19  8.752348215254995e-17  4.324980596858731e-01
 1.016482279265936e+00  4.324980596858731e-01 -3.493921910929244e-17

-2.670063525620750e-17 -8.711610790347777e-20  1.009741953222134e+00
-8.711610790347777e-20 -2.452475938338156e-17  4.322645606516874e-01
 1.009741953222134e+00  4.322645606516874e-01 -3.470637756975528e-17

-2.683111035103635e-17 -9.624265437613034e-20  1.023901740548689e+00
-9.624265437613034e-20 -4.055380176787295e-17  4.071624015727134e-01
 1.023901740548689e+00  4.071624015727134e-01 -3.520184852230862e-17

-2.679205188852225e-17 -1.597966201179213e-20  1.013403334810706e+00
-1.597966201179213e-20 -7.437617448384203e-17  4.180718078194754e-01
 1.013403334810706e+00  4.180718078194754e-01 -3.486973754769563e-17

-2.684186957877960e-17 -3.016384570220483e-20  1.010779861202547e+00
-3.016384570220483e-20  6.610811297478571e-17  4.168343627456421e-01
 1.010779861202547e+00  4.168343627456421e-01 -3.482165866177702e-17

-2.684888445549876e-17 -2.468554288383096e-20  1.004986014636035e+00
-2.468554288383096e-20 -2.914667762910964e-17  4.150943123812342e-01
 1.004986014636035e+00  4.150943123812342e-01 -3.465983726075260e-17

-2.693043129131737e-17  1.183556990606863e-20  1.003182852154110e+00
 1.183556990606863e-20 -3.161571052915281e-17  4.145198065246157e-01
 1.003182852154110e+00  4.145198065246157e-01 -3.464395807923957e-17

-2.705794684034377e-17  4.651081192069902e-20  1.003710373892218e+00
 4.651081192069902e-20 -3.411983867982284e-17  4.134632061617784e-01
 1.003710373892218e+00  4.134632061617784e-01 -3.470745429785524e-17

-2.722278049574040e-17  7.386593318278921e-20  1.006209014378425e+00
 7.386593318278921e-20 -3.663333212998541e-17  4.131694210994261e-01
 1.006209014378425e+00  4.131694210994261e-01 -3.483255825720174e-17

-2.739703254622876e-17  1.053616486304570e-19  1.008867481044265e+00
 1.053616486304570e-19  2.086351062036105e-17  4.145009226180703e-01
 1.008867481044265e+00  4.145009226180703e-01 -3.494984691096416e-17

-2.749166177782006e-17  1.228918948903605e-19  1.006673814399296e+00
 1.228918948903605e-19 -7.368640430591987e-17  4.136512231341872e-01
 1.006673814399296e+00  4.136512231341872e-01 -3.487752411133689e-17

-2.766887268048705e-17  9.071884298124024e-20  1.010138312871388e+00
 9.071884298124024e-20  7.364915360533777e-17  4.147310636802365e-01
 1.010138312871388e+00  4.147310636802365e-01 -3.501540954507705e-17

-2.782532862228952e-17  1.415717829971541e-19  1.009828226651496e+00
 1.415717829971541e-19 -3.493180454160575e-17  4.256129855919779e-01
 1.009828226651496e+00  4.256129855919779e-01 -3.502458779163820e-17

-2.783645459728575e-17  9.676993403862692e-20  1.008880847254412e+00
 9.676993403862692e-20 -6.574893751633371e-17  4.247328442062898e-01
 1.008880847254412e+00  4.247328442062898e-01 -3.499542289795453e-17

-2.778490841776769e-17  1.204538571057264e-19  1.001724936687843e+00
 1.204538571057264e-19  1.665298764432016e-16  4.140948800750623e-01
 1.001724936687843e+00  4.140948800750623e-01 -3.474552337544908e-17

-2.798403394401246e-17  5.975888597699219e-20  1.006085199411488e+00
 5.975888597699219e-20  7.129111134357482e-17  4.157772521149983e-01
 1.006085199411488e+00  4.157772521149983e-01 -3.493356747147836e-17

-2.829583546055868e-17  1.155015177911923e-19  1.013784391874632e+00
 1.155015177911923e-19 -1.262706670921916e-17  4.192761432020862e-01
 1.013784391874632e+00  4.192761432020862e-01 -3.528039365804057e-17

-2.843337000446832e-17  1.584368129075994e-19  1.009326525984970e+00
 1.584368129075994e-19 -8.690563315090204e-17  4.167695123866067e-01
 1.009326525984970e+00  4.167695123866067e-01 -3.516758492225328e-17

-2.853896577689076e-17  1.801400913101918e-19  1.006945964686382e+00
 1.801400913101918e-19 -8.705133587892902e-17  4.201670599562960e-01
 1.006945964686382e+00  4.201670599562960e-01 -3.513037152816846e-17

-2.864297757862878e-17  2.060665485670208e-19  1.004163016445723e+00
 2.060665485670208e-19 -4.444272892907539e-17  4.185640972161987e-01
 1.004163016445723e+00  4.185640972161987e-01 -3.506032401699277e-17

-2.870707918637641e-17  1.843817658749522e-19  9.987487230168881e-01
 1.843817658749522e-19 -7.414172230250090e-17  4.182486348201753e-01
 9.987487230168881e-01  4.182486348201753e-01 -3.489836495989976e-17

-2.917736254072749e-17  2.332487463272623e-19  1.027349083015076e+00
 2.332487463272623e-19  5.932240647912091e-17  3.940063510167696e-01
 1.027349083015076e+00  3.940063510167696e-01 -3.594039718884095e-17

-2.888788810019973e-17  2.714712741868958e-19  9.929769622107355e-01
 2.714712741868958e-19  3.311627576747206e-17  4.334240198466346e-01
 9.929769622107355e-01  4.334240198466346e-01 -3.477865440471738e-17

-2.902771612775010e-17  2.689854189314645e-19  9.951825211321239e-01
 2.689854189314645e-19  6.341523926568387e-17  4.352756489830066e-01
 9.951825211321239e-01  4.352756489830066e-01 -3.488586854872537e-17

-2.939571253452327e-17  3.441677774955201e-19  1.017967829321333e+00
 3.441677774955201e-19 -1.234629453337831e-16  4.113421193667136e-01
 1.017967829321333e+00  4.113421193667136e-01 -3.572771650005953e-17

-2.939289605304774e-17  3.408670503849176e-19  9.978694117144822e-01
 3.408670503849176e-19  8.148503252552732e-17  4.196996182182741e-01
 9.978694117144822e-01  4.196996182182741e-01 -3.508043267536399e-17

-2.975900219231729e-17  4.207063647579353e-19  1.000292393897948e+00
 4.207063647579353e-19 -6.599340992852497e-17  4.197104936763428e-01
 1.000292393897948e+00  4.197104936763428e-01 -3.526814119527036e-17

-3.019675154717595e-17  4.477385616407815e-19  1.008184673495470e+00
 4.477385616407815e-19 -2.948216221842110e-17  4.231492614395295e-01
 1.008184673495470e+00  4.231492614395295e-01 -3.566006015849615e-17

-3.068005998006495e-17  4.578769865710714e-19  1.009764281677022e+00
 4.578769865710714e-19  2.023871317408619e-16  4.241532214671286e-01
 1.009764281677022e+00  4.241532214671286e-01 -3.585766012651717e-17

-3.095993331943623e-17  6.205020130323754e-19  1.010898852229840e+00
 6.205020130323754e-19  6.937595248841409e-17  4.080816269884411e-01
 1.010898852229840e+00  4.080816269884411e-01 -3.598278082190743e-17

-3.113179697047405e-17  6.214651486531832e-19  1.006138381976411e+00
 6.214651486531832e-19  2.997375273777114e-17  4.036288528899674e-01
 1.006138381976411e+00  4.036288528899674e-01 -3.587886217602582e-17

-3.188810736765624e-17  6.838670751892557e-19  1.011177944727948e+00
 6.838670751892557e-19 -1.053521559741627e-17  4.210981436061907e-01
 1.011177944727948e+00  4.210981436061907e-01 -3.629162519464877e-17

-3.240718553699150e-17  8.839229676092558e-19  1.009789640641446e+00
 8.839229676092558e-19 -1.110863116097869e-16  4.184256874498980e-01
 1.009789640641446e+00  4.184256874498980e-01 -3.641004229809357e-17

-3.298759387372938e-17  9.672879329862936e-19  1.009444344037500e+00
 9.672879329862936e-19  6.744289170087838e-17  4.203929922676587e-01
 1.009444344037500e+00  4.203929922676587e-01 -3.658463524906823e-17

-3.371583358050753e-17  1.144668668655372e-18  1.009003156654279e+00
 1.144668668655372e-18  6.614717657774077e-17  4.197550635465369e-01
 1.009003156654279e+00  4.197550635465369e-01 -3.682751734949558e-17

-3.421615199865249e-17  1.268742908995280e-18  1.008162133512881e+00
 1.268742908995280e-18  4.442593580007271e-17  4.210226273845102e-01
 1.008162133512881e+00  4.210226273845102e-01 -3.695719434173203e-17

-3.466117157616871e-17  1.324583905971041e-18  1.009529854696818e+00
 1.324583905971041e-18 -1.618173362653893e-17  4.199291616727457e-01
 1.009529854696818e+00  4.199291616727457e-01 -3.714775513279260e-17

-3.526653587589348e-17  1.502739906272809e-18  1.010368168702856e+00
 1.502739906272809e-18 -9.964281098677176e-18  4.211085379591119e-01
 1.010368168702856e+00  4.211085379591119e-01 -3.737299048038762e-17

-3.595939629973666e-17  1.676693459581930e-18  1.010769861300582e+00
 1.676693459581930e-18 -2.080714372029351e-17  4.200856313596273e-01
 1.010769861300582e+00  4.200856313596273e-01 -3.762342928656252e-17

-3.675328183493613e-17  1.903688811807965e-18  1.011658778312300e+00
 1.903688811807965e-18  1.091606731616613e-17  4.197678540061779e-01
 1.011658778312300e+00  4.197678540061779e-01 -3.792042615033456e-17

-3.780349550891152e-17  2.166741603728448e-18  1.011157916879894e+00
 2.166741603728448e-18 -6.792902960261646e-17  4.214474591637166e-01
 1.011157916879894e+00  4.214474591637166e-01 -3.825588592313419e-17

-3.909338754379702e-17  2.579685291661383e-18  1.007042114453509e+00
 2.579685291661383e-18 -7.031649303556502e-17  4.196451791260073e-01
 1.007042114453509e+00  4.196451791260073e-01 -3.858353827629202e-17

-4.060302555746257e-17  3.093222596910653e-18  1.008813126895743e+00
 3.093222596910653e-18  3.058522034935301e-17  4.166523247003581e-01
 1.008813126895743e+00  4.166523247003581e-01 -3.914772001284955e-17

-4.183467616500327e-17  3.468306131787579e-18  1.008629892529310e+00
 3.468306131787579e-18 -1.628384808524450e-16  4.266675027481073e-01
 1.008629892529310e+00  4.266675027481073e-01 -3.956558310834422e-17

-4.261686775542870e-17  3.662090141561552e-18  1.002266406373323e+00
 3.662090141561552e-18  9.844416062285603e-18  4.344082804787975e-01
 1.002266406373323e+00  4.344082804787975e-01 -3.962780910515770e-17

-4.375463861602542e-17  4.133304556859660e-18  1.007121747330670e+00
 4.133304556859660e-18  3.476356909362524e-18  4.165161895931977e-01
 1.007121747330670e+00  4.165161895931977e-01 -4.018091513300385e-17

-4.520042777395593e-17  4.682503343119807e-18  1.006533974888928e+00
 4.682503343119807e-18 -6.004765852535008e-17  4.082678716409881e-01
 1.006533974888928e+00  4.082678716409881e-01 -4.065372683098767e-17

-4.640553539302294e-17  4.986630445456372e-18  1.010628887536441e+00
 4.986630445456372e-18 -2.800177125948813e-18  4.113691822762782e-01
 1.010628887536441e+00  4.113691822762782e-01 -4.120411460455355e-17

-4.768247543312151e-17  5.489763288305808e-18  1.004297968410347e+00
 5.489763288305808e-18 -2.610709902198212e-16  4.311582837374764e-01
 1.004297968410347e+00  4.311582837374764e-01 -4.145080237619750e-17

-4.909680855742087e-17  5.940346364359357e-18  1.005311010356239e+00
 5.940346364359357e-18 -2.702792007052096e-17  4.297818765426857e-01
 1.005311010356239e+00  4.297818765426857e-01 -4.196477041173972e-17

-5.074943644359513e-17  6.561940662553935e-18  1.011054177260923e+00
 6.561940662553935e-18  1.384552425626956e-16  4.154905734639901e-01
 1.011054177260923e+00  4.154905734639901e-01 -4.269931775570426e-17

-5.272774675434144e-17  7.420905437165266e-18  1.018113081763465e+00
 7.420905437165266e-18 -1.246372950484110e-16  4.026059212011648e-01
 1.018113081763465e+00  4.026059212011648e-01 -4.358089858633441e-17

-5.443164889086291e-17  7.901590571910759e-18  1.013991143354269e+00
 7.901590571910759e-18 -8.388754489474149e-17  4.131263580039684e-01
 1.013991143354269e+00  4.131263580039684e-01 -4.403017987485086e-17

-5.845894566489907e-17  9.585594878327105e-18  1.014939835819921e+00
 9.585594878327105e-18 -1.179651222869995e-16  4.206939626951600e-01
 1.014939835819921e+00  4.206939626951600e-01 -4.542499330700873e-17

-6.190434927398038e-17  1.107233883764122e-17  1.003157009617113e+00
 1.107233883764122e-17 -1.938496671901732e-16  4.240003971329691e-01
 1.003157009617113e+00  4.240003971329691e-01 -4.620040643929742e-17

-6.410247899978372e-17  1.197530029987281e-17  1.011579843925961e+00
 1.197530029987281e-17  4.458957912196270e-18  4.129784989365604e-01
 1.011579843925961e+00  4.129784989365604e-01 -4.718404607939461e-17

-6.805097887085458e-17  1.365873017909816e-17  1.011924381157625e+00
 1.365873017909816e-17 -2.695714836257013e-16  4.159829583964947e-01
 1.011924381157625e+00  4.159829583964947e-01 -4.851367409211193e-17

-7.509678434264260e-17  1.688750012694636e-17  1.012224339617985e+00
 1.688750012694636e-17 -1.928887542671051e-16  4.206351263516606e-01
 1.012224339617985e+00  4.206351263516606e-01 -5.084276289980478e-17

-8.237237399297664e-17  2.024223965201297e-17  1.014224108169289e+00
 2.024223965201297e-17 -5.002559862661549e-17  4.140311853972253e-01
 1.014224108169289e+00  4.140311853972253e-01 -5.327244232656016e-17

-8.797069607648203e-17  2.286721738173517e-17  1.015731094489288e+00
 2.286721738173517e-17 -1.906010617722951e-16  4.169607073047618e-01
 1.015731094489288e+00  4.169607073047618e-01 -5.513611929432387e-17

-9.639475500283494e-17  2.650764653581246e-17  1.024705712371557e+00
 2.650764653581246e-17  2.450097985824824e-16  4.155162187208374e-01
 1.024705712371557e+00  4.155162187208374e-01 -5.814327330046071e-17

-1.090627520422906e-16  3.272177213770609e-17  1.014589442864935e+00
 3.272177213770609e-17  2.251660730891014e-16  4.388614429980827e-01
 1.014589442864935e+00  4.388614429980827e-01 -6.189205536226348e-17

-1.171307514668237e-16  3.753649958039280e-17  1.015786480016644e+00
 3.753649958039280e-17 -3.495473701934031e-16  4.252564388964454e-01
 1.015786480016644e+00  4.252564388964454e-01 -6.445322980750025e-17

-1.269355724910147e-16  4.298683735255660e-17  1.025171301597075e+00
 4.298683735255660e-17 -1.360539558631857e-16  4.013727742839524e-01
 1.025171301597075e+00  4.013727742839524e-01 -6.778248637347171e-17

-1.493301852036689e-16  5.511186111672847e-17  1.009672769406131e+00
 5.511186111672847e-17 -1.676356446886965e-16  4.204868297875308e-01
 1.009672769406131e+00  4.204868297875308e-01 -7.422630171544724e-17

-1.944695449255552e-16  7.975143614829790e-17  1.013260859507463e+00
 7.975143614829790e-17 -2.172746564574384e-16  4.200753080909085e-01
 1.013260859507463e+00  4.200753080909085e-01 -8.801290849400266e-17

-2.499915083176640e-16  1.105543182899255e-16  1.013355176854818e+00
 1.105543182899255e-16 -4.527959084120017e-16  4.204008790142112e-01
 1.013355176854818e+00  4.204008790142112e-01 -1.044490593840298e-16

-3.191587891515199e-16  1.481609786751067e-16  1.012527158419864e+00
 1.481609786751067e-16 -9.160384086032040e-17  4.190762617019541e-01
 1.012527158419864e+00  4.190762617019541e-01 -1.245430146333494e-16

-4.078918849612317e-16  1.950787907766982e-16  1.009357951144759e+00
 1.950787907766982e-16 -4.317268072698587e-16  4.231124227038864e-01
 1.009357951144759e+00  4.231124227038864e-01 -1.498782063901517e-16

-4.809529779597644e-16  2.318590519268093e-16  1.010846481669192e+00
 2.318590519268093e-16 -5.022724728116504e-16  4.214257416608551e-01
 1.010846481669192e+00  4.214257416608551e-01 -1.706467641422016e-16

-6.402621944356410e-16  3.086350773033363e-16  1.011598485422146e+00
 3.086350773033363e-16 -8.176881963834371e-16  4.187522972628019e-01
 1.011598485422146e+00  4.187522972628019e-01 -2.157472160887601e-16

-1.046013651585455e-15  4.739738038281482e-16  1.011964256664123e+00
 4.739738038281482e-16 -9.745768174002757e-16  4.189346233838041e-01
 1.011964256664123e+00  4.189346233838041e-01 -3.315833166926181e-16

-1.676615755723853e-15  6.550105790167839e-16  1.012110540282683e+00
 6.550105790167839e-16 -1.251235254079792e-15  4.242398831151224e-01
 1.012110540282683e+00  4.242398831151224e-01 -5.201530543390888e-16

-2.259600163521638e-15  7.729742675738970e-16  1.007303772254169e+00
 7.729742675738970e-16 -1.230192605287601e-15  4.273734923406736e-01
 1.007303772254169e+00  4.273734923406736e-01 -7.062628221859165e-16

-3.427903355488479e-15  8.572138557135265e-16  1.005334528477852e+00
 8.572138557135265e-16 -1.719669648487422e-15  4.116141990862549e-01
 1.005334528477852e+00  4.116141990862549e-01 -1.124894172204252e-15

-4.749620011255161e-15  7.141724673079203e-16  1.014583070425427e+00
 7.141724673079203e-16 -9.765841537329023e-16  4.079520966190184e-01
 1.014583070425427e+00  4.079520966190184e-01 -1.743237667502538e-15

-7.109759030121993e-15  3.280235621556791e-16  1.001071137783426e+00
 3.280235621556791e-16 -2.020228485746181e-15  4.406116780375634e-01
 1.001071137783426e+00  4.406116780375634e-01 -2.812464123728106e-15

-9.960828978044245e-15 -4.231392386945695e-16  1.008711593377913e+00
-4.231392386945695e-16 -2.372680506879103e-15  4.229705466961429e-01
 1.008711593377913e+00  4.229705466961429e-01 -4.407062607547699e-15

-1.396185376716960e-14 -1.707159695538750e-15  1.017113820678950e+00
-1.707159695538750e-15 -2.594246927495805e-15  4.045823680017998e-01
 1.017113820678950e+00  4.045823680017998e-01 -6.798364483774979e-15

 1.725946901605962e-14 -2.483576482936374e-14  1.008145005606803e+00
-2.483576482936374e-14  3.164796255851771e-14  4.216200193197809e-01
 1.008145005606803e+00  4.216200193197809e-01 -1.608103514831919e-15

-6.193029117333129e-13  1.477709239378539e-13  1.008123644666771e+00
 1.477709239378539e-13 -2.511247884104762e-13  4.235543745041395e-01
 1.008123644666771e+00  4.235543745041395e-01 -2.188507712102121e-13

 8.829993316991721e-14 -2.289853149969396e-14  1.009722789537180e+00
-2.289853149969396e-14  5.550172353234793e-14  4.170507658466250e-01
 1.009722789537180e+00  4.170507658466250e-01  1.799258624749192e-14

-6.539320345728488e-13  1.530381433500621e-13  1.010187280508029e+00
 1.530381433500621e-13 -3.304703131202905e-13  4.172235742774750e-01
 1.010187280508029e+00  4.172235742774750e-01 -1.629946854742076e-13

-8.617094669440480e-15  1.142324282867752e-14  1.007780017284855e+00
 1.142324282867752e-14  1.060299083845154e-15  4.159381889567162e-01
 1.007780017284855e+00  4.159381889567162e-01 -1.012392779588231e-14

-4.180094644135392e-15  9.321484271722717e-15  1.006210292082221e+00
 9.321484271722717e-15  8.590514356532123e-16  4.237442375955362e-01
 1.006210292082221e+00  4.237442375955362e-01 -4.850776091510838e-15

-3.308179893008439e-15  7.359169439922439e-15  1.005846687938521e+00
 7.359169439922439e-15  1.390936349729350e-15  4.243989356826796e-01
 1.005846687938521e+00  4.243989356826796e-01 -3.505043058980478e-15

-2.570837947470718e-15  4.428954739441558e-15  1.009225849513044e+00
 4.428954739441558e-15  1.653373230459453e-15  4.154731303819084e-01
 1.009225849513044e+00  4.154731303819084e-01 -2.057092889811376e-15

-1.751025892822946e-15  1.660997515158200e-15  1.008341330812872e+00
 1.660997515158200e-15  1.079850484813990e-15  4.176816767623525e-01
 1.008341330812872e+00  4.176816767623525e-01 -9.521531432189248e-16

-1.149649239389801e-15  6.521300516426512e-16  1.009034637858168e+00
 6.521300516426512e-16  5.554827549174719e-16  4.174147759170726e-01
 1.009034637858168e+00  4.174147759170726e-01 -5.245233892964293e-16

-8.253478964690804e-16  3.204626054405778e-16  1.009695822858512e+00
 3.204626054405778e-16  3.002002552417100e-16  4.172782544041678e-01
 1.009695822858512e+00  4.172782544041678e-01 -3.543119237776775e-16

-5.572264422174624e-16  1.343831327225700e-16  1.011061870532745e+00
 1.343831327225700e-16  1.333483310919543e-16  4.172127336653334e-01
 1.011061870532745e+00  4.172127336653334e-01 -2.340998899530492e-16

-3.675757409275094e-16  4.843191881846951e-17  1.009770148041050e+00
 4.843191881846951e-17  3.068591323534999e-17  4.174550421955431e-01
 1.009770148041050e+00  4.174550421955431e-01 -1.577662638195452e-16

-2.896683760048510e-16  2.449864155749926e-17  1.009726205721519e+00
 2.449864155749926e-17  5.708380507398598e-18  4.162778683471497e-01
 1.009726205721519e+00  4.162778683471497e-01 -1.282031461313959e-16

-2.509116765087704e-16  1.520490952762255e-17  1.008641945457751e+00
 1.520490952762255e-17 -1.739808891466179e-17  4.175696943766402e-01
 1.008641945457751e+00  4.175696943766402e-01 -1.138184782894679e-16

-2.015738467696025e-16  5.507093529616856e-18  1.009388056728231e+00
 5.507093529616856e-18 -3.919146264656682e-17  4.174423708752418e-01
 1.009388056728231e+00  4.174423708752418e-01 -9.582856455822415e-17

-1.604928578772761e-16  9.362822223474738e-20  1.009654360207891e+00
 9.362822223474738e-20 -4.676670044596660e-17  4.171198566641573e-01
 1.009654360207891e+00  4.171198566641573e-01 -8.108490857414777e-17

-1.235296560002634e-16 -5.816032604809420e-18  1.009263264737725e+00
-5.816032604809420e-18 -1.699685917471101e-17  4.170145264422132e-01
 1.009263264737725e+00  4.170145264422132e-01 -7.174553884060375e-17

-1.069022933862988e-16 -3.383625247991232e-18  1.008474289887916e+00
-3.383625247991232e-18 -4.953307351448958e-17  4.167812387499844e-01
 1.008474289887916e+00  4.167812387499844e-01 -6.215948973412468e-17

-9.321804712413097e-17 -3.566502256604567e-18  1.008262633518693e+00
-3.566502256604567e-18 -4.876703637328507e-17  4.166959484507055e-01
 1.008262633518693e+00  4.166959484507055e-01 -5.735275473404339e-17

-8.268051170986147e-17 -3.474124610051515e-18  1.008362002224678e+00
-3.474124610051515e-18 -2.456829537544323e-17  4.164934587731964e-01
 1.008362002224678e+00  4.164934587731964e-01 -5.369766378528171e-17

-7.390620105024658e-17 -3.294273901951923e-18  1.007857773178513e+00
-3.294273901951923e-18 -3.835285042080496e-17  4.161888952105744e-01
 1.007857773178513e+00  4.161888952105744e-01 -5.064982696987333e-17

-6.718220733848857e-17 -3.046445093072428e-18  1.007422653443718e+00
-3.046445093072428e-18 -3.543744488472444e-17  4.157629738736863e-01
 1.007422653443718e+00  4.157629738736863e-01 -4.829510882576887e-17

-6.166442480490854e-17 -2.780416661203740e-18  1.006901574187000e+00
-2.780416661203740e-18 -3.250143018047280e-17  4.157689988098411e-01
 1.006901574187000e+00  4.157689988098411e-01 -4.636122999208422e-17

-5.819536674707740e-17 -2.584176498188600e-18  1.007147289161863e+00
-2.584176498188600e-18 -4.368947834496278e-17  4.157442524647889e-01
 1.007147289161863e+00  4.157442524647889e-01 -4.517722112992107e-17

-5.465455824619600e-17 -2.362010057217927e-18  1.005849843823610e+00
-2.362010057217927e-18 -3.784866240548689e-17  4.149184860900643e-01
 1.005849843823610e+00  4.149184860900643e-01 -4.393251675723962e-17

-5.151158453676404e-17 -2.135230743318725e-18  1.006108394210080e+00
-2.135230743318725e-18 -2.155082041449131e-17  4.148244999570538e-01
 1.006108394210080e+00  4.148244999570538e-01 -4.285486928594149e-17

-4.960032339868894e-17 -2.008878020726777e-18  1.006028586032615e+00
-2.008878020726777e-18 -2.693509789917107e-17  4.144955327554573e-01
 1.006028586032615e+00  4.144955327554573e-01 -4.220414296892639e-17

-4.711693651582455e-17 -1.810871686804824e-18  1.006374376681242e+00
-1.810871686804824e-18 -1.559693334181006e-17  4.143756351806179e-01
 1.006374376681242e+00  4.143756351806179e-01 -4.136401383548736e-17

-4.486008686102351e-17 -1.630551097046119e-18  1.006870972750621e+00
-1.630551097046119e-18 -3.675786635803037e-17  4.141101002729122e-01
 1.006870972750621e+00  4.141101002729122e-01 -4.061257349697584e-17

-4.298269697912018e-17 -1.470776025223577e-18  1.007358953114614e+00
-1.470776025223577e-18 -3.586859337250689e-17  4.149396007962033e-01
 1.007358953114614e+00  4.149396007962033e-01 -3.996632244846588e-17

-4.139302246351068e-17 -1.345395428312169e-18  1.007590677550291e+00
-1.345395428312169e-18 -4.153172372982702e-17  4.146345406794048e-01
 1.007590677550291e+00  4.146345406794048e-01 -3.943198065903651e-17

-3.998776122119402e-17 -1.216700856101606e-18  1.007964958035478e+00
-1.216700856101606e-18 -2.780689005617899e-17  4.134967428867481e-01
 1.007964958035478e+00  4.134967428867481e-01 -3.896289988327597e-17

-3.870771511984630e-17 -1.095915279814128e-18  1.013902378798208e+00
-1.095915279814128e-18 -3.273624765441803e-17  4.127925276241412e-01
 1.013902378798208e+00  4.127925276241412e-01 -3.872202266031638e-17

-3.757762902366747e-17 -9.873581916694563e-19  1.009941974839220e+00
-9.873581916694563e-19 -3.189972408159862e-17  4.266608439406122e-01
 1.009941974839220e+00  4.266608439406122e-01 -3.819630290950097e-17

-3.691773451025658e-17 -9.381912920243786e-19  1.008885586005002e+00
-9.381912920243786e-19 -1.983226430400554e-17  4.185493715972113e-01
 1.008885586005002e+00  4.185493715972113e-01 -3.794567988032510e-17

-3.641883468870385e-17 -9.062439686383751e-19  1.012445533718821e+00
-9.062439686383751e-19 -2.597469392083431e-17  4.045895686071059e-01
 1.012445533718821e+00  4.045895686071059e-01 -3.789914906789954e-17

-3.545066309741829e-17 -8.207500929960681e-19  1.003951710206306e+00
-8.207500929960681e-19 -2.522765535563028e-17  4.158710129601483e-01
 1.003951710206306e+00  4.158710129601483e-01 -3.728541956530420e-17

-3.468179536080841e-17 -7.477767647488556e-19  1.006930470264912e+00
-7.477767647488556e-19 -1.872117916207442e-17  4.173169442843414e-01
 1.006930470264912e+00  4.173169442843414e-01 -3.712687732949152e-17

-3.433879777230174e-17 -6.983917616454949e-19  1.018220973218690e+00
-6.983917616454949e-19 -1.960487248274600e-17  4.066723003387674e-01
 1.018220973218690e+00  4.066723003387674e-01 -3.735228049126136e-17

-3.387229585905082e-17 -6.528929692350161e-19  1.018873153785871e+00
-6.528929692350161e-19 -3.616850362630715e-17  4.198627006836411e-01
 1.018873153785871e+00  4.198627006836411e-01 -3.723827363931059e-17

-3.324198522720332e-17 -5.990064414932209e-19  1.010802162190486e+00
-5.990064414932209e-19 -1.105903763690050e-17  4.243764515638129e-01
 1.010802162190486e+00  4.243764515638129e-01 -3.676259182830844e-17

-3.260347477321657e-17 -5.764406744720995e-19  1.002941560409195e+00
-5.764406744720995e-19 -1.729176511445528e-17  4.051354210638810e-01
 1.002941560409195e+00  4.051354210638810e-01 -3.630890237312701e-17

-3.230966041438302e-17 -5.306472128098219e-19  1.011753805702645e+00
-5.306472128098219e-19 -2.797044106205686e-17  3.978149496426029e-01
 1.011753805702645e+00  3.978149496426029e-01 -3.647451126214575e-17

-3.209312983081698e-17 -5.064739381502876e-19  1.013341232225988e+00
-5.064739381502876e-19 -3.448124758968526e-17  4.273334188862367e-01
 1.013341232225988e+00  4.273334188862367e-01 -3.647575255212320e-17

-3.162266347983096e-17 -4.622614616804161e-19  1.012073840392345e+00
-4.622614616804161e-19 -3.748065011966563e-17  4.201369665771587e-01
 1.012073840392345e+00  4.201369665771587e-01 -3.627496893679247e-17

-3.080001769876912e-17 -4.294627607842767e-19  9.943571941023900e-01
-4.294627607842767e-19 -2.409772301719133e-17  4.162578254301171e-01
 9.943571941023900e-01  4.162578254301171e-01 -3.544218241747064e-17

-3.077169749737657e-17 -3.989064301170370e-19  1.018102549318332e+00
-3.989064301170370e-19 -2.698056886358317e-17  4.014983721941494e-01
 1.018102549318332e+00  4.014983721941494e-01 -3.618736340506028e-17

-3.052066356923712e-17 -3.848048707169688e-19  1.009423659106801e+00
-3.848048707169688e-19 -6.253495954802250e-18  4.217980485328289e-01
 1.009423659106801e+00  4.217980485328289e-01 -3.583025782235561e-17

-3.011599800756682e-17 -3.589691252821868e-19  1.000272160782876e+00
-3.589691252821868e-19 -2.097498020290207e-17  4.180563211039496e-01
 1.000272160782876e+00  4.180563211039496e-01 -3.540160631324163e-17

-2.975373998543159e-17 -3.503932160840110e-19  9.952462806096877e-01
-3.503932160840110e-19 -1.200933182280672e-17  4.024118420769780e-01
 9.952462806096877e-01  4.024118420769780e-01 -3.512422255358383e-17

-2.987358837648084e-17 -3.362631496462185e-19  1.014361715302659e+00
-3.362631496462185e-19 -1.969788064193350e-17  3.999143042779108e-01
 1.014361715302659e+00  3.999143042779108e-01 -3.577101016864489e-17

-2.982698175380380e-17 -3.313189582705126e-19  1.014406353276480e+00
-3.313189582705126e-19 -3.196527607462145e-17  4.182617169011017e-01
 1.014406353276480e+00  4.182617169011017e-01 -3.576655085184875e-17

-2.944053933965082e-17 -3.076674841333853e-19  1.007588851873966e+00
-3.076674841333853e-19 -1.228317022862972e-17  4.119891022832415e-01
 1.007588851873966e+00  4.119891022832415e-01 -3.542169209749087e-17

-2.925042201302445e-17 -2.999181101285512e-19  1.013124873536263e+00
-2.999181101285512e-19 -2.490924499292466e-17  3.986659245191334e-01
 1.013124873536263e+00  3.986659245191334e-01 -3.552364176607666e-17

-2.922110901031969e-17 -2.815330179977412e-19  1.017155413026544e+00
-2.815330179977412e-19 -6.012327327719224e-19  4.246784683723643e-01
 1.017155413026544e+00  4.246784683723643e-01 -3.566468048190260e-17

-2.864679427780370e-17 -2.417221761571714e-19  9.852738433457833e-01
-2.417221761571714e-19 -2.754689097035195e-17  4.542704430687049e-01
 9.852738433457833e-01  4.542704430687049e-01 -3.442512771712620e-17

-2.864571345191132e-17 -2.788119847031959e-19  1.009041694998080e+00
-2.788119847031959e-19 -1.966236771715848e-17  3.926028218211229e-01
 1.009041694998080e+00  3.926028218211229e-01 -3.523320248740925e-17

-2.817069907500496e-17 -2.786595799123798e-19  9.870884419643735e-01
-2.786595799123798e-19 -1.445967802516238e-17  3.947153996273191e-01
 9.870884419643735e-01  3.947153996273191e-01 -3.437370043180868e-17

-2.808269979774896e-17 -2.589780589827073e-19  9.839516604147310e-01
-2.589780589827073e-19 -1.104249715703519e-17  4.212366036283083e-01
 9.839516604147310e-01  4.212366036283083e-01 -3.424399229107641e-17

-2.808970956341249e-17 -2.570114300326108e-19  9.899368082010909e-01
-2.570114300326108e-19 -1.212060320699694e-17  4.251246414857944e-01
 9.899368082010909e-01  4.251246414857944e-01 -3.443008840492278e-17

-2.795628932275770e-17 -2.477970221078159e-19  9.845153007784010e-01
-2.477970221078159e-19 -2.201470374182182e-17  4.268670520795561e-01
 9.845153007784010e-01  4.268670520795561e-01 -3.420187082416593e-17

-2.787957008377908e-17 -2.480834775613239e-19  9.936709761205755e-01
-2.480834775613239e-19 -1.072884153741182e-17  4.116694084531140e-01
 9.936709761205755e-01  4.116694084531140e-01 -3.448340647724384e-17

-2.771059391057536e-17 -2.384324205887559e-19  9.850079975684145e-01
-2.384324205887559e-19 -1.850194698912880e-17  4.285195294082507e-01
 9.850079975684145e-01  4.285195294082507e-01 -3.415659209210643e-17

-2.784128652614649e-17 -2.381127672125033e-19  1.001912302648112e+00
-2.381127672125033e-19 -1.407070850805096e-17  4.099198892428188e-01
 1.001912302648112e+00  4.099198892428188e-01 -3.473542536015352e-17

-2.759554182777486e-17 -2.324441790309808e-19  9.914087309199828e-01
-2.324441790309808e-19 -1.967651323215959e-17  4.109260231141836e-01
 9.914087309199828e-01  4.109260231141836e-01 -3.431303499781832e-17

-2.764482048590638e-17 -2.385575624054959e-19  9.998346672564644e-01
-2.385575624054959e-19 -1.303562407810072e-17  4.212392367565285e-01
 9.998346672564644e-01  4.212392367565285e-01 -3.459889595673729e-17

-2.745020715779255e-17 -2.317920734781927e-19  9.867291898366647e-01
-2.317920734781927e-19 -3.994235994869587e-18  4.458246753677177e-01
 9.867291898366647e-01  4.458246753677177e-01 -3.412162412786910e-17

-2.740711481116107e-17 -2.251359722944897e-19  9.973361803882842e-01
-2.251359722944897e-19 -2.490327414066679e-17  4.105257071389206e-01
 9.973361803882842e-01  4.105257071389206e-01 -3.443703891861485e-17

-2.726240822891059e-17 -2.162071987465859e-19  9.989082400482240e-01
-2.162071987465859e-19 -2.939606881073512e-17  3.917502140918315e-01
 9.989082400482240e-01  3.917502140918315e-01 -3.442343271004091e-17

-2.721666717899515e-17 -2.352426004522710e-19  9.886306561975314e-01
-2.352426004522710e-19 -1.944253358346590e-17  4.330479078707627e-01
 9.886306561975314e-01  4.330479078707627e-01 -3.412191119839855e-17

-2.726244716859312e-17 -2.345240688595058e-19  9.908282469984134e-01
-2.345240688595058e-19 -1.413901759721817e-17  4.484752954053147e-01
 9.908282469984134e-01  4.484752954053147e-01 -3.421733357137909e-17

-2.730768892801303e-17 -2.225088901175913e-19  1.009094816089712e+00
-2.225088901175913e-19 -9.740824416800795e-18  4.129423702521318e-01
 1.009094816089712e+00  4.129423702521318e-01 -3.479397915803509e-17

-2.723779338874387e-17 -2.202480883861864e-19  1.008329517673425e+00
-2.202480883861864e-19 -1.736456237868376e-17  4.167460087859531e-01
 1.008329517673425e+00  4.167460087859531e-01 -3.474080713429306e-17

-2.717046075342492e-17 -2.216550735182559e-19  1.008701357980170e+00
-2.216550735182559e-19 -2.709451883029400e-17  4.221365939175189e-01
 1.008701357980170e+00  4.221365939175189e-01 -3.474917703701913e-17

-2.703476734023838e-17 -2.157822575583539e-19  1.005454280555641e+00
-2.157822575583539e-19 -1.626224669840974e-17  4.210302873419232e-01
 1.005454280555641e+00  4.210302873419232e-01 -3.460163411559072e-17

-2.710295517219766e-17 -2.105235634100566e-19  1.016405484578354e+00
-2.105235634100566e-19 -1.406228356146589e-17  4.072129801410047e-01
 1.016405484578354e+00  4.072129801410047e-01 -3.497523124859289e-17

-2.702543207727371e-17 -2.185433618245846e-19  1.012031881301843e+00
-2.185433618245846e-19 -2.161411593244555e-17  4.189547836950241e-01
 1.012031881301843e+00  4.189547836950241e-01 -3.481941837085137e-17

-2.694326987344661e-17 -2.076296911762796e-19  1.006737538735077e+00
-2.076296911762796e-19 -5.508667018017466e-18  4.311445192599364e-01
 1.006737538735077e+00  4.311445192599364e-01 -3.462836267346965e-17

-2.691086326952764e-17 -2.112543052885245e-19  1.010645530369924e+00
-2.112543052885245e-19 -2.323066111999492e-17  4.190772415971368e-01
 1.010645530369924e+00  4.190772415971368e-01 -3.475096536918203e-17

-2.682738948005504e-17 -1.964914637648020e-19  1.008792244470844e+00
-1.964914637648020e-19 -6.985765768299246e-18  4.134551853713599e-01
 1.008792244470844e+00  4.134551853713599e-01 -3.465337166574331e-17

-2.668280722451376e-17 -2.030717995682192e-19  1.001427646997887e+00
-2.030717995682192e-19 -1.758238891155062e-17  4.254679770053812e-01
 1.001427646997887e+00  4.254679770053812e-01 -3.439501626675720e-17

-2.685134808890280e-17 -1.914256515623051e-19  1.017610720061176e+00
-1.914256515623051e-19 -2.097085347033901e-18  4.061291245710630e-01
 1.017610720061176e+00  4.061291245710630e-01 -3.494520259067167e-17

-2.694412209067328e-17 -1.945618083594333e-19  1.029217562900168e+00
-1.945618083594333e-19 -2.431060368992124e-17  3.969132435398126e-01
 1.029217562900168e+00  3.969132435398126e-01 -3.535084946581216e-17

-2.701962888332011e-17 -1.978512961093156e-19  1.029378368691927e+00
-1.978512961093156e-19 -1.872389209047306e-17  4.294321707638240e-01
 1.029378368691927e+00  4.294321707638240e-01 -3.543713766711917e-17

-2.682767143553595e-17 -1.987704637591346e-19  1.016167524794913e+00
-1.987704637591346e-19 -3.651517452100917e-17  4.362500042233904e-01
 1.016167524794913e+00  4.362500042233904e-01 -3.493039709673331e-17

-2.655339242887477e-17 -1.749059251531495e-19  1.012118957252478e+00
-1.749059251531495e-19 -1.257493361678713e-17  4.064294320384718e-01
 1.012118957252478e+00  4.064294320384718e-01 -3.473512868305630e-17

-2.639367049459316e-17 -1.899957032486169e-19  1.003974217996882e+00
-1.899957032486169e-19 -4.076159146043356e-17  4.154077119872343e-01
 1.003974217996882e+00  4.154077119872343e-01 -3.442470827646756e-17

-2.647811354959424e-17 -1.804164141555816e-19  1.008785194804022e+00
-1.804164141555816e-19 -2.415364322708308e-17  4.247770810071871e-01
 1.008785194804022e+00  4.247770810071871e-01 -3.462244902659337e-17

-2.653866724913587e-17 -1.706464658093753e-19  1.014837853853781e+00
-1.706464658093753e-19 -1.107469404233341e-17  4.289737262255655e-01
 1.014837853853781e+00  4.289737262255655e-01 -3.484448173902797e-17

-2.656156752262872e-17 -1.655889065463398e-19  1.023438699389912e+00
-1.655889065463398e-19 -1.860246884033029e-17  4.090240407423644e-01
 1.023438699389912e+00  4.090240407423644e-01 -3.512069183584475e-17

-2.659127752326829e-17 -1.260650219134586e-19  1.025647097632293e+00
-1.260650219134586e-19 -1.248806256179383e-17  4.039212875136189e-01
 1.025647097632293e+00  4.039212875136189e-01 -3.519415518653329e-17

-2.633701810461539e-17 -1.714094681501052e-19  1.000870110045593e+00
-1.714094681501052e-19 -2.589723339578474e-17  4.355505716745791e-01
 1.000870110045593e+00  4.355505716745791e-01 -3.433546703092131e-17

-2.644159127084584e-17 -1.499744350706063e-19  1.018234271642619e+00
-1.499744350706063e-19 -1.740988648583097e-17  4.217479145652589e-01
 1.018234271642619e+00  4.217479145652589e-01 -3.495155545604260e-17

-2.642668747068762e-17 -1.676624057511321e-19  1.016479037472070e+00
-1.676624057511321e-19 -3.033372625991533e-17  4.161652581407487e-01
 1.016479037472070e+00  4.161652581407487e-01 -3.487619686049907e-17

-2.629611922341898e-17 -1.165060822774438e-19  1.015673531446400e+00
-1.165060822774438e-19  3.045420615388725e-18  4.112829764004430e-01
 1.015673531446400e+00  4.112829764004430e-01 -3.483607373852055e-17

-2.622367343976384e-17 -1.198083507948455e-19  1.012072417030854e+00
-1.198083507948455e-19 -1.288854221657920e-17  4.186429118883335e-01
 1.012072417030854e+00  4.186429118883335e-01 -3.471477118144747e-17

-2.617826198380201e-17 -1.081707846228012e-19  1.012855368320383e+00
-1.081707846228012e-19 -7.974078569035703e-18  4.176259775702595e-01
 1.012855368320383e+00  4.176259775702595e-01 -3.473854327069455e-17

-2.614039416465786e-17 -1.071670721894475e-19  1.012340731230389e+00
-1.071670721894475e-19 -6.540554884330714e-18  4.172517220349088e-01
 1.012340731230389e+00  4.172517220349088e-01 -3.471051929267813e-17

-2.607136866504985e-17 -8.664428047959958e-20  1.011834703546431e+00
-8.664428047959958e-20  7.291158562568572e-18  4.173002740852717e-01
 1.011834703546431e+00  4.173002740852717e-01 -3.468538454211613e-17

-2.608058154049867e-17 -1.297487796920232e-19  1.015119713783093e+00
-1.297487796920232e-19 -3.190854408331333e-17  4.143539243669473e-01
 1.015119713783093e+00  4.143539243669473e-01 -3.479430166949430e-17

-2.602443632007853e-17 -6.759964739127207e-20  1.010682537855153e+00
-6.759964739127207e-20  8.186209533710325e-18  4.213247246360107e-01
 1.010682537855153e+00  4.213247246360107e-01 -3.463842230366991e-17

-2.598105074137097e-17 -1.183066928947068e-19  1.009898493377932e+00
-1.183066928947068e-19 -3.783466145627855e-17  4.204434007832157e-01
 1.009898493377932e+00  4.204434007832157e-01 -3.460583313761430e-17

-2.591223596044799e-17 -1.020663609725671e-19  1.009591553455600e+00
-1.020663609725671e-19 -2.552345379212682e-17  4.142587753164292e-01
 1.009591553455600e+00  4.142587753164292e-01 -3.458667608259064e-17

-2.597152763446861e-17 -6.948427079349369e-20  1.015973086503713e+00
-6.948427079349369e-20  1.392715975830258e-17  4.090061825414424e-01
 1.015973086503713e+00  4.090061825414424e-01 -3.481525815671214e-17

-2.594679801776965e-17 -1.020240825604416e-19  1.012796110850698e+00
-1.020240825604416e-19 -2.698925977757924e-17  4.175252206280863e-01
 1.012796110850698e+00  4.175252206280863e-01 -3.470343017144953e-17

-2.591988264676349e-17 -9.968921311743380e-20  1.014046855311403e+00
-9.968921311743380e-20 -2.721673456858077e-17  4.168514103351551e-01
 1.014046855311403e+00  4.168514103351551e-01 -3.475229608456845e-17

-2.587128947681596e-17 -6.132465108366464e-20  1.008057183580419e+00
-6.132465108366464e-20  1.573719527693419e-18  4.211577754758091e-01
 1.008057183580419e+00  4.211577754758091e-01 -3.452747230460346e-17

-2.571855865978149e-17 -6.446924467721007e-20  1.005582929834595e+00
-6.446924467721007e-20 -6.235025523058680e-18  4.146586246492998e-01
 1.005582929834595e+00  4.146586246492998e-01 -3.442619865626222e-17

-2.578785911275140e-17 -8.534814155193136e-20  1.013541137882282e+00
-8.534814155193136e-20 -2.725945295353312e-17  4.080019512783034e-01
 1.013541137882282e+00  4.080019512783034e-01 -3.470417734359942e-17

-2.580587096134724e-17 -8.665185284947036e-20  1.005567872086869e+00
-8.665185284947036e-20 -2.184637289881518e-17  4.317803499981041e-01
 1.005567872086869e+00  4.317803499981041e-01 -3.445282731366120e-17

-2.579956835694055e-17 -3.517223536066244e-20  1.012160056929021e+00
-3.517223536066244e-20  5.779077710640329e-18  4.247454870104581e-01
 1.012160056929021e+00  4.247454870104581e-01 -3.468010292585311e-17

-2.580886256916673e-17 -6.931906451804148e-20  1.018832834677829e+00
-6.931906451804148e-20 -1.717039346414059e-17  4.035503301797352e-01
 1.018832834677829e+00  4.035503301797352e-01 -3.489216300777857e-17

-2.575452891120290e-17 -9.969258936618972e-20  1.014197692496456e+00
-9.969258936618972e-20 -3.883554717096026e-17  4.083198664752416e-01
 1.014197692496456e+00  4.083198664752416e-01 -3.472549338111073e-17

-2.566095190394267e-17 -7.845306618528591e-20  1.006065308526327e+00
-7.845306618528591e-20 -2.265570015149204e-17  4.231178506395178e-01
 1.006065308526327e+00  4.231178506395178e-01 -3.444539457357607e-17

-2.567955499520418e-17 -9.540290081213498e-20  1.011168754118709e+00
-9.540290081213498e-20 -3.957017350863331e-17  4.184659634920234e-01
 1.011168754118709e+00  4.184659634920234e-01 -3.462640531993606e-17

-2.564089584388116e-17 -5.731375916452003e-20  1.010494137009265e+00
-5.731375916452003e-20 -8.803561621915765e-18  4.136773903457227e-01
 1.010494137009265e+00  4.136773903457227e-01 -3.459735005070023e-17

-2.563212742123218e-17 -4.295624055676623e-20  1.011572806716430e+00
-4.295624055676623e-20 -1.416766566565124e-17  4.114721093534153e-01
 1.011572806716430e+00  4.114721093534153e-01 -3.462424111485910e-17

-2.558345289670029e-17 -7.971828222592458e-20  1.009101911992604e+00
-7.971828222592458e-20 -2.933647068079298e-17  4.165142871490123e-01
 1.009101911992604e+00  4.165142871490123e-01 -3.454397207665817e-17

-2.562785289827367e-17 -5.145300336087587e-20  1.011746109160573e+00
-5.145300336087587e-20 -1.534627521080752e-17  4.163407699331125e-01
 1.011746109160573e+00  4.163407699331125e-01 -3.463581929044763e-17

-2.556118426229831e-17 -5.611528454134867e-20  1.010170825730117e+00
-5.611528454134867e-20 -1.677865097240515e-17  4.176478085212546e-01
 1.010170825730117e+00  4.176478085212546e-01 -3.458261971646643e-17

-2.555874965114309e-17 -3.998540184305049e-20  1.013833497025284e+00
-3.998540184305049e-20 -5.776215741160927e-18  4.080947826194325e-01
 1.013833497025284e+00  4.080947826194325e-01 -3.470051681718137e-17

-2.554937442266218e-17 -4.592410619065426e-20  1.013171774501265e+00
-4.592410619065426e-20 -1.115019613386210e-17  4.094985771379486e-01
 1.013171774501265e+00  4.094985771379486e-01 -3.468525123192873e-17

-2.550911241364084e-17 -5.613930664356102e-20  1.009305265683716e+00
-5.613930664356102e-20 -1.643206549629482e-17  4.203658749435924e-01
 1.009305265683716e+00  4.203658749435924e-01 -3.455408995889696e-17

-2.542237573531566e-17 -3.885355924665650e-20  1.002886097062728e+00
-3.885355924665650e-20 -2.406916070984823e-17  4.239552453485850e-01
 1.002886097062728e+00  4.239552453485850e-01 -3.431965441589222e-17

-2.557408043045078e-17 -2.891861503490230e-20  1.020051005319957e+00
-2.891861503490230e-20 -3.971008274016715e-18  4.002983610906381e-01
 1.020051005319957e+00  4.002983610906381e-01 -3.492714670794900e-17

-2.555556682342247e-17 -2.516561373319203e-20  1.018438524646499e+00
-2.516561373319203e-20 -5.037824376606721e-19  4.046158332748883e-01
 1.018438524646499e+00  4.046158332748883e-01 -3.486696494357227e-17

-2.549727947691992e-17 -1.782704075328091e-20  1.012452439464863e+00
-1.782704075328091e-20 -8.063066295811519e-18  4.188346747146768e-01
 1.012452439464863e+00  4.188346747146768e-01 -3.467131392661506e-17

-2.536670491816550e-17 -1.454587257204085e-20  1.002673722229219e+00
-1.454587257204085e-20 -5.374074313621196e-18  4.235027458345356e-01
 1.002673722229219e+00  4.235027458345356e-01 -3.432031001029194e-17

-2.537916935790706e-17 -2.243263980562035e-20  1.007001631508442e+00
-2.243263980562035e-20 -2.069528511425315e-17  4.134693952422028e-01
 1.007001631508442e+00  4.134693952422028e-01 -3.445770865893095e-17

-2.538676146657672e-17 -4.309603985034643e-20  1.008650118407189e+00
-4.309603985034643e-20 -2.947068701383527e-17  4.156627270774313e-01
 1.008650118407189e+00  4.156627270774313e-01 -3.452498077014590e-17

-2.548729967153753e-17 -1.629405296400231e-20  1.014215429081810e+00
-1.629405296400231e-20 -1.681072464306128e-17  4.143422617815827e-01
 1.014215429081810e+00  4.143422617815827e-01 -3.472334497247150e-17

-2.544058964969200e-17 -5.029800480919003e-20  1.014403632648160e+00
-5.029800480919003e-20 -3.880893368301723e-17  4.137455695748427e-01
 1.014403632648160e+00  4.137455695748427e-01 -3.473246728260317e-17

-2.547708695224153e-17 -2.616510433655622e-20  1.021439322466852e+00
-2.616510433655622e-20 -3.195021742936157e-17  4.020617783812465e-01
 1.021439322466852e+00  4.020617783812465e-01 -3.497156084322453e-17

-2.537051745400385e-17 -2.918600145313321e-20  1.012238144774011e+00
-2.918600145313321e-20 -2.576591580964310e-17  4.109304161955257e-01
 1.012238144774011e+00  4.109304161955257e-01 -3.464820288919124e-17

-2.525128660971492e-17 -4.151301433751520e-21  1.002163234751361e+00
-4.151301433751520e-21  7.654453077610329e-18  4.253579664663272e-01
 1.002163234751361e+00  4.253579664663272e-01 -3.428764996469731e-17

-2.523828981837494e-17 -2.179146999330335e-20  1.002462234617137e+00
-2.179146999330335e-20 -2.149552634572751e-17  4.203354618468210e-01
 1.002462234617137e+00  4.203354618468210e-01 -3.428393504624414e-17

-2.532244831411564e-17  8.010310453423194e-22  1.014301323908933e+00
 8.010310453423194e-22 -2.063348361106923e-17  4.027777988334871e-01
 1.014301323908933e+00  4.027777988334871e-01 -3.469285596011979e-17

-2.535539018298530e-17 -3.330302671576587e-20  1.014778957500370e+00
-3.330302671576587e-20 -2.767077318518475e-17  4.096409410644615e-01
 1.014778957500370e+00  4.096409410644615e-01 -3.471879538905304e-17

-2.530247965678071e-17 -5.473819435525017e-21  1.010880289344257e+00
-5.473819435525017e-21 -2.643616232338401e-18  4.217073294532575e-01
 1.010880289344257e+00  4.217073294532575e-01 -3.459239967198214e-17

-2.519824139311775e-17 -3.563164916627424e-20  9.994788162188178e-01
-3.563164916627424e-20 -2.480070116584443e-17  4.248036154008287e-01
 9.994788162188178e-01  4.248036154008287e-01 -3.417522654817688e-17

-2.505093909237050e-17 -1.719424871539759e-20  9.947851703986266e-01
-1.719424871539759e-20 -2.338363047557692e-17  4.210693476852975e-01
 9.947851703986266e-01  4.210693476852975e-01 -3.399200168094048e-17

-2.507953236380249e-17 -2.460627904651808e-20  1.000459167708895e+00
-2.460627904651808e-20 -2.289507108920345e-17  4.153479577355821e-01
 1.000459167708895e+00  4.153479577355821e-01 -3.419550341131050e-17

-2.531170182265390e-17 -2.871246883397512e-20  1.014134665961496e+00
-2.871246883397512e-20 -1.287218062895728e-17  4.066789369338074e-01
 1.014134665961496e+00  4.066789369338074e-01 -3.468387819464740e-17

-2.529309900377607e-17 -1.141322794512624e-20  1.015813476860591e+00
-1.141322794512624e-20 -1.057338446395435e-17  4.135928866190867e-01
 1.015813476860591e+00  4.135928866190867e-01 -3.475953872411145e-17

-2.528121330814102e-17 -4.789901780601607e-21  1.012475818623595e+00
-4.789901780601607e-21 -2.250675866074986e-17  4.260200670242734e-01
 1.012475818623595e+00  4.260200670242734e-01 -3.464208066304439e-17

-2.528599282945082e-17  6.718661409230056e-21  1.014103261003738e+00
 6.718661409230056e-21 -9.083012812266141e-18  4.101865889071328e-01
 1.014103261003738e+00  4.101865889071328e-01 -3.468539168845404e-17

-2.498179949237380e-17 -1.199523042505633e-20  1.001063067745813e+00
-1.199523042505633e-20 -5.574351838794499e-18  4.022870227615976e-01
 1.001063067745813e+00  4.022870227615976e-01 -3.419106290647364e-17

-2.506270385104501e-17 -1.403407134843474e-20  1.005275726668603e+00
-1.403407134843474e-20 -9.533654630702855e-18  4.073910267722303e-01
 1.005275726668603e+00  4.073910267722303e-01 -3.434135161925376e-17

-2.505110565350511e-17 -2.052534184834996e-20  9.983653266959513e-01
-2.052534184834996e-20 -1.136932575896152e-17  4.344535088448018e-01
 9.983653266959513e-01  4.344535088448018e-01 -3.413231756217003e-17

-2.516006404542243e-17 -6.164354939271634e-22  1.009150513923133e+00
-6.164354939271634e-22 -1.834557916865512e-17  4.234477202902440e-01
 1.009150513923133e+00  4.234477202902440e-01 -3.450595927287318e-17

-2.510377681809746e-17 -4.321272397746243e-23  1.011704445022597e+00
-4.321272397746243e-23 -2.258596976495095e-17  4.026494856393978e-01
 1.011704445022597e+00  4.026494856393978e-01 -3.457607707066956e-17

-2.505941341553376e-17 -6.034060003067684e-21  1.007508226970814e+00
-6.034060003067684e-21 -8.678917259951418e-18  4.089929531109566e-01
 1.007508226970814e+00  4.089929531109566e-01 -3.442957974225677e-17

-2.500202278650583e-17 -2.138691160911890e-20  1.000723001674934e+00
-2.138691160911890e-20 -1.267684610004562e-17  4.252950914730870e-01
 1.000723001674934e+00  4.252950914730870e-01 -3.419628324560410e-17

-2.506744308451273e-17 -1.900569566524250e-20  1.006897653096362e+00
-1.900569566524250e-20 -3.243392342107843e-18  4.179598834711016e-01
 1.006897653096362e+00  4.179598834711016e-01 -3.440645032161952e-17

-2.496612391730747e-17 -1.588587512608424e-20  1.001491091533990e+00
-1.588587512608424e-20 -1.655359112505558e-17  4.181147166300474e-01
 1.001491091533990e+00  4.181147166300474e-01 -3.420646134123549e-17

-2.500905922208354e-17 -2.006377755997293e-20  1.005344524973167e+00
-2.006377755997293e-20 -6.220997766789414e-18  4.156686206542051e-01
 1.005344524973167e+00  4.156686206542051e-01 -3.434811457337091e-17

-2.512749237373512e-17 -3.193475803490943e-20  1.011930057005459e+00
-3.193475803490943e-20  8.567145800593149e-18  4.177340331530424e-01
 1.011930057005459e+00  4.177340331530424e-01 -3.458998810173408e-17

-2.504669977509488e-17 -1.813469235377041e-20  1.007952138837483e+00
-1.813469235377041e-20 -1.307621601492367e-18  4.168887788442778e-01
 1.007952138837483e+00  4.168887788442778e-01 -3.444182800450704e-17

-2.542651419271902e-17 -1.322259594731053e-20  1.043011206570052e+00
-1.322259594731053e-20 -2.295269356003075e-17  3.833307735556784e-01
 1.043011206570052e+00  3.833307735556784e-01 -3.567673584116443e-17

-2.516612547546132e-17 -2.135468655024135e-20  1.017841085683578e+00
-2.135468655024135e-20 -1.184564208586790e-17  4.101404752989202e-01
 1.017841085683578e+00  4.101404752989202e-01 -3.480427483108353e-17

-2.480393852569889e-17 -1.718231317924438e-20  9.822134380893189e-01
-1.718231317924438e-20  6.068987671293096e-18  4.487813690347658e-01
 9.822134380893189e-01  4.487813690347658e-01 -3.354857044133555e-17

-2.512206236167690e-17 -1.645829232521173e-20  1.015381873955670e+00
-1.645829232521173e-20 -4.030463803922964e-17  4.126661230099313e-01
 1.015381873955670e+00  4.126661230099313e-01 -3.471414403353271e-17

-2.502506694285531e-17 -1.771584056556183e-20  1.009337917178194e+00
-1.771584056556183e-20  1.640102281601332e-18  4.156722683816362e-01
 1.009337917178194e+00  4.156722683816362e-01 -3.449092316400981e-17

-2.500308847584776e-17 -1.835757388662178e-20  1.009053107840100e+00
-1.835757388662178e-20 -7.117093589512591e-18  4.159723472027694e-01
 1.009053107840100e+00  4.159723472027694e-01 -3.447810892801829e-17

-2.501308181775514e-17 -1.848676246955161e-20  1.009768991057692e+00
-1.848676246955161e-20 -1.490112369391167e-17  4.161949957330641e-01
 1.009768991057692e+00  4.161949957330641e-01 -3.450430435567084e-17

-2.500323083647699e-17 -2.210375836467104e-20  1.010532518681745e+00
-2.210375836467104e-20 -1.296994884975640e-17  4.163063068009248e-01
 1.010532518681745e+00  4.163063068009248e-01 -3.452510760033102e-17

-2.499013977291442e-17 -2.137459465666504e-20  1.010327146563373e+00
-2.137459465666504e-20 -2.525003209526455e-17  4.164288557170782e-01
 1.010327146563373e+00  4.164288557170782e-01 -3.451755301530000e-17

-2.497111795712012e-17 -1.688485310726512e-20  1.009676684408819e+00
-1.688485310726512e-20 -6.793780477489516e-18  4.167272834974575e-01
 1.009676684408819e+00  4.167272834974575e-01 -3.449047417053503e-17

-2.493334352534494e-17 -2.150823250627821e-20  1.007989780992768e+00
-2.150823250627821e-20 -2.481368798295081e-17  4.155523950767306e-01
 1.007989780992768e+00  4.155523950767306e-01 -3.442869079220313e-17

-2.496281886225709e-17 -2.108454847553069e-20  1.009927925442727e+00
-2.108454847553069e-20 -2.161766214759568e-17  4.157265943847024e-01
 1.009927925442727e+00  4.157265943847024e-01 -3.450234621290741e-17

-2.496936383276133e-17 -2.662547899152047e-20  1.010457524379903e+00
-2.662547899152047e-20 -3.766301001732418e-17  4.180595362179473e-01
 1.010457524379903e+00  4.180595362179473e-01 -3.452321556505971e-17

-2.498638009738667e-17 -2.480781371403172e-20  1.012191646046083e+00
-2.480781371403172e-20 -3.443690351052988e-17  4.158447694480489e-01
 1.012191646046083e+00  4.158447694480489e-01 -3.458446445661400e-17

-2.494408110831158e-17 -2.108791652603454e-20  1.010418963466200e+00
-2.108791652603454e-20 -2.634690131069593e-17  4.172525901869704e-01
 1.010418963466200e+00  4.172525901869704e-01 -3.451333002278756e-17

-2.487240992067457e-17 -2.948728768392526e-20  1.006921863239793e+00
-2.948728768392526e-20 -2.854762084506092e-17  4.150142205373702e-01
 1.006921863239793e+00  4.150142205373702e-01 -3.438253437860577e-17

-2.487282236930678e-17 -2.623289210868443e-20  1.007123285970344e+00
-2.623289210868443e-20 -2.130938481231455e-17  4.172194929755843e-01
 1.007123285970344e+00  4.172194929755843e-01 -3.439102185842685e-17

-2.492665800790392e-17 -2.999367506352650e-20  1.010206072650395e+00
-2.999367506352650e-20 -3.673991273643458e-17  4.166585797726217e-01
 1.010206072650395e+00  4.166585797726217e-01 -3.449780086929377e-17

-2.488085811417215e-17 -2.079549598442442e-20  1.008341898375472e+00
-2.079549598442442e-20 -1.530743279505397e-17  4.170965678638280e-01
 1.008341898375472e+00  4.170965678638280e-01 -3.443003776829470e-17

-2.487918344637305e-17 -7.211993135644299e-21  1.008441315239512e+00
-7.211993135644299e-21  1.146094550166879e-18  4.147135421207827e-01
 1.008441315239512e+00  4.147135421207827e-01 -3.442955732171894e-17

-2.488509288450789e-17 -3.531851592009095e-20  1.009885784022459e+00
-3.531851592009095e-20 -3.564439097347094e-17  4.144100493104310e-01
 1.009885784022459e+00  4.144100493104310e-01 -3.448391803981179e-17

-2.489363134320723e-17 -2.796527054949897e-20  1.009857323181540e+00
-2.796527054949897e-20 -3.272650374193589e-17  4.190938202752659e-01
 1.009857323181540e+00  4.190938202752659e-01 -3.448520775385486e-17

-2.487550164404133e-17 -3.455907960413042e-20  1.009443403824234e+00
-3.455907960413042e-20 -3.061813948441013e-17  4.149922016595491e-01
 1.009443403824234e+00  4.149922016595491e-01 -3.446744920526691e-17

-2.480050276227663e-17 -2.650618619561360e-20  1.005244071985937e+00
-2.650618619561360e-20 -9.501767352205345e-18  4.153239871110567e-01
 1.005244071985937e+00  4.153239871110567e-01 -3.430653957637952e-17

-2.480209719380993e-17 -4.305659914981886e-20  1.005758698659319e+00
-4.305659914981886e-20 -3.247434737150171e-17  4.163622946937688e-01
 1.005758698659319e+00  4.163622946937688e-01 -3.431935426342009e-17

-2.484286179656415e-17 -1.592230581667632e-20  1.008544568420503e+00
-1.592230581667632e-20  2.845656509974131e-18  4.172459297655627e-01
 1.008544568420503e+00  4.172459297655627e-01 -3.441682351443920e-17

-2.480750472302043e-17 -2.684582324595132e-20  1.006915768485393e+00
-2.684582324595132e-20 -3.619277833390359e-18  4.171114613378267e-01
 1.006915768485393e+00  4.171114613378267e-01 -3.434856154667435e-17

-2.482170992376265e-17 -3.310436974898704e-20  1.007007918522210e+00
-3.310436974898704e-20 -8.511012007584507e-18  4.170954896900862e-01
 1.007007918522210e+00  4.170954896900862e-01 -3.434190050492282e-17

-2.475885572185743e-17 -5.448774626501757e-20  1.005145410884412e+00
-5.448774626501757e-20 -2.134523370905828e-17  4.172606394296939e-01
 1.005145410884412e+00  4.172606394296939e-01 -3.428116073884711e-17

-2.475528649011910e-17 -6.500217090996236e-20  1.004873384705035e+00
-6.500217090996236e-20 -3.772449219430096e-17  4.183495324268616e-01
 1.004873384705035e+00  4.183495324268616e-01 -3.427473393045231e-17

-2.471240672429238e-17 -7.454935124566559e-20  1.002396077879656e+00
-7.454935124566559e-20 -4.531764586182215e-17  4.193234376321934e-01
 1.002396077879656e+00  4.193234376321934e-01 -3.418185192735256e-17

-2.467132688874991e-17 -7.933187542045877e-20  1.000339581929768e+00
-7.933187542045877e-20 -4.425164292831155e-17  4.150916254457978e-01
 1.000339581929768e+00  4.150916254457978e-01 -3.409687813772204e-17

-2.484840508378572e-17 -6.590536704281219e-20  1.014028633140608e+00
-6.590536704281219e-20 -4.190495282403949e-17  4.068076808679543e-01
 1.014028633140608e+00  4.068076808679543e-01 -3.457945406459991e-17

-2.490534591444041e-17 -6.159957135622731e-20  1.010109813324484e+00
-6.159957135622731e-20 -2.347045139170053e-17  4.356221498424157e-01
 1.010109813324484e+00  4.356221498424157e-01 -3.448052419693202e-17

-2.468489178133427e-17 -1.029285235572080e-19  9.912870177763773e-01
-1.029285235572080e-19 -8.519746128594941e-17  4.492177334343059e-01
 9.912870177763773e-01  4.492177334343059e-01 -3.379567421044457e-17

-2.507126173920648e-17  2.916117379774530e-20  1.033351919859953e+00
 2.916117379774530e-20  5.842397707509419e-17  3.904886675025759e-01
 1.033351919859953e+00  3.904886675025759e-01 -3.527601497559034e-17

-2.478362128172084e-17 -1.365187261644892e-19  1.011939159259633e+00
-1.365187261644892e-19 -8.425145315671487e-17  3.993104800132690e-01
 1.011939159259633e+00  3.993104800132690e-01 -3.448726311194472e-17

-2.472724290240201e-17  5.147802551817422e-21  1.001491495702342e+00
 5.147802551817422e-21  4.188387604950759e-17  4.249259168166650e-01
 1.001491495702342e+00  4.249259168166650e-01 -3.413377550917877e-17

-2.486248186789750e-17 -6.928078439299355e-20  1.010332911935538e+00
-6.928078439299355e-20 -2.744565288166589e-17  4.224927005029199e-01
 1.010332911935538e+00  4.224927005029199e-01 -3.445266689831300e-17

-2.495440996111803e-17  1.571917187554824e-19  1.011886756271514e+00
 1.571917187554824e-19 -1.534620839190775e-17  4.212729643033831e-01
 1.011886756271514e+00  4.212729643033831e-01 -3.458732620078813e-17

-2.491936620307017e-17  1.554444000224306e-19  1.010120744228044e+00
 1.554444000224306e-19 -1.610326364603332e-17  4.212846255018386e-01
 1.010120744228044e+00  4.212846255018386e-01 -3.451558706162835e-17

-2.496449143671214e-17  1.543221160282649e-19  1.011677465068035e+00
 1.543221160282649e-19 -1.356489889700784e-17  4.255982207670624e-01
 1.011677465068035e+00  4.255982207670624e-01 -3.458543852523424e-17

-2.499095481713087e-17  1.591836785022180e-19  1.013246500473205e+00
 1.591836785022180e-19 -1.523711718832963e-17  4.235766393030826e-01
 1.013246500473205e+00  4.235766393030826e-01 -3.464937423827656e-17

-2.496764967825714e-17  1.586550852338675e-19  1.011881594291111e+00
 1.586550852338675e-19 -1.535005787746120e-17  4.226040030259876e-01
 1.011881594291111e+00  4.226040030259876e-01 -3.460146041226863e-17

-2.496528182481355e-17  1.616168167618118e-19  1.011314320380458e+00
 1.616168167618118e-19 -1.510559308657815e-17  4.228023458091014e-01
 1.011314320380458e+00  4.228023458091014e-01 -3.458533856954123e-17

-2.497742420137900e-17  1.642986086440461e-19  1.011919526660049e+00
 1.642986086440461e-19 -1.452068002926868e-17  4.231766660389136e-01
 1.011919526660049e+00  4.231766660389136e-01 -3.461144370377793e-17

-2.498910533738058e-17  1.662724818228927e-19  1.012447096892266e+00
 1.662724818228927e-19 -1.394585483615400e-17  4.229408854112070e-01
 1.012447096892266e+00  4.229408854112070e-01 -3.463458446023910e-17

-2.500183857371572e-17  1.669464267654630e-19  1.012800784752601e+00
 1.669464267654630e-19 -1.356315348899556e-17  4.228904181855483e-01
 1.012800784752601e+00  4.228904181855483e-01 -3.465109003106880e-17

-2.501917432190878e-17  1.626612951060246e-19  1.013799846679577e+00
 1.626612951060246e-19 -1.338076723769482e-17  4.214958906718690e-01
 1.013799846679577e+00  4.214958906718690e-01 -3.468999892403575e-17

-2.510216433962431e-17  1.606026871873614e-19  1.018445470315250e+00
 1.606026871873614e-19 -1.317687746741720e-17  4.205380286983010e-01
 1.018445470315250e+00  4.205380286983010e-01 -3.486553736748591e-17

-2.513433960078213e-17  1.571472500139395e-19  1.017809650112536e+00
 1.571472500139395e-19 -1.269321296079347e-17  4.314262475734718e-01
 1.017809650112536e+00  4.314262475734718e-01 -3.485779829968653e-17

-2.507737882642388e-17  1.567531302988050e-19  1.015364319597111e+00
 1.567531302988050e-19 -1.352630188650079e-17  4.254997197864403e-01
 1.015364319597111e+00  4.254997197864403e-01 -3.475866247067645e-17

-2.500231126899462e-17  1.529978406356262e-19  1.013172122022387e+00
 1.529978406356262e-19 -1.375819265423109e-17  4.178547452277112e-01
 1.013172122022387e+00  4.178547452277112e-01 -3.465941425617221e-17

-2.502201503804110e-17  1.529680253830556e-19  1.013011939481610e+00
 1.529680253830556e-19 -1.316912372839609e-17  4.235700090563767e-01
 1.013011939481610e+00  4.235700090563767e-01 -3.466024011860352e-17

-2.505316416166201e-17  1.485736263760110e-19  1.015030783760137e+00
 1.485736263760110e-19 -1.401659987171523e-17  4.232661078202530e-01
 1.015030783760137e+00  4.232661078202530e-01 -3.473369637460536e-17

-2.506740190251713e-17  1.424836465719305e-19  1.015879095957112e+00
 1.424836465719305e-19 -1.390830878087895e-17  4.228453531154958e-01
 1.015879095957112e+00  4.228453531154958e-01 -3.476218988576101e-17

-2.507310945818442e-17  1.412619363188497e-19  1.015536302819185e+00
 1.412619363188497e-19 -1.350764942596666e-17  4.225233142109526e-01
 1.015536302819185e+00  4.225233142109526e-01 -3.475015430985359e-17

-2.507416979531095e-17  1.363901597805833e-19  1.015570941468057e+00
 1.363901597805833e-19 -1.407038936559952e-17  4.234614033544472e-01
 1.015570941468057e+00  4.234614033544472e-01 -3.474932724262701e-17

-2.504847390265570e-17  1.378547331672190e-19  1.014037010139913e+00
 1.378547331672190e-19 -1.401109510689188e-17  4.226561096068461e-01
 1.014037010139913e+00  4.226561096068461e-01 -3.468683018353203e-17

-2.508114741736142e-17  1.287154998324789e-19  1.015402128486560e+00
 1.287154998324789e-19 -1.329552362065526e-17  4.240168524490209e-01
 1.015402128486560e+00  4.240168524490209e-01 -3.473754664089639e-17

-2.509976684805295e-17  1.298013392553606e-19  1.016949765412224e+00
 1.298013392553606e-19 -1.302611587787340e-17  4.216401467275808e-01
 1.016949765412224e+00  4.216401467275808e-01 -3.478701365752629e-17

-2.507252971068970e-17  1.257738282476319e-19  1.013767153927110e+00
 1.257738282476319e-19 -1.385834274543774e-17  4.251998122112038e-01
 1.013767153927110e+00  4.251998122112038e-01 -3.467234591037454e-17

-2.509561945199099e-17  1.228198413603643e-19  1.015256964915162e+00
 1.228198413603643e-19 -1.414083792037655e-17  4.230438146207343e-01
 1.015256964915162e+00  4.230438146207343e-01 -3.472207513843681e-17

-2.512634489247462e-17  1.219618178100451e-19  1.017256169722740e+00
 1.219618178100451e-19 -1.443948690574146e-17  4.234159621152285e-01
 1.017256169722740e+00  4.234159621152285e-01 -3.479974015120744e-17

-2.512774451861005e-17  1.177043993918008e-19  1.017033232625497e+00
 1.177043993918008e-19 -1.322614694888991e-17  4.232325748424622e-01
 1.017033232625497e+00  4.232325748424622e-01 -3.478907724797166e-17

-2.508004731602161e-17  1.175760268785262e-19  1.013322539670146e+00
 1.175760268785262e-19 -1.380526748173408e-17  4.238976069779482e-01
 1.013322539670146e+00  4.238976069779482e-01 -3.465009136385784e-17

-2.516542112181716e-17  1.116898743369746e-19  1.017817179278760e+00
 1.116898743369746e-19 -1.377321809348771e-17  4.216636341736434e-01
 1.017817179278760e+00  4.216636341736434e-01 -3.480802068459294e-17

-2.516236296320477e-17  1.140329776227886e-19  1.018472502135532e+00
 1.140329776227886e-19 -1.322076089607502e-17  4.234359303888276e-01
 1.018472502135532e+00  4.234359303888276e-01 -3.483397737609232e-17

-2.514304151876333e-17  1.076962839297762e-19  1.016607582690531e+00
 1.076962839297762e-19 -1.410139634042363e-17  4.257116810061667e-01
 1.016607582690531e+00  4.257116810061667e-01 -3.476534643483725e-17

-2.520427596042571e-17  1.006250415266341e-19  1.019531223351343e+00
 1.006250415266341e-19 -1.475497204459853e-17  4.200238710748839e-01
 1.019531223351343e+00  4.200238710748839e-01 -3.485986067614993e-17

-2.509279412491560e-17  9.495877996385086e-20  1.013084690396724e+00
 9.495877996385086e-20 -1.449098310218380e-17  4.248474764007454e-01
 1.013084690396724e+00  4.248474764007454e-01 -3.462882392958362e-17

-2.509421972572908e-17  1.021726254478572e-19  1.011923453029292e+00
 1.021726254478572e-19 -1.337745905815543e-17  4.268602381920268e-01
 1.011923453029292e+00  4.268602381920268e-01 -3.458154348316662e-17

-2.517596550360951e-17  9.181276474297283e-20  1.014164286966279e+00
 9.181276474297283e-20 -1.254745967951245e-17  4.260899822483781e-01
 1.014164286966279e+00  4.260899822483781e-01 -3.466159657151884e-17

-2.518429960123949e-17  9.230493442678212e-20  1.017823781028794e+00
 9.230493442678212e-20 -1.467765439967615e-17  4.233435620598062e-01
 1.017823781028794e+00  4.233435620598062e-01 -3.479600999892853e-17

-2.519663448286948e-17  9.139718162121407e-20  1.017099134817586e+00
 9.139718162121407e-20 -1.396251877548978e-17  4.250779385490269e-01
 1.017099134817586e+00  4.250779385490269e-01 -3.477158651021684e-17

-2.515679090423324e-17  8.632082724277282e-20  1.013847239936184e+00
 8.632082724277282e-20 -1.336638909589940e-17  4.254006771496022e-01
 1.013847239936184e+00  4.254006771496022e-01 -3.464781743732117e-17

-2.522080905224987e-17  7.985071559156581e-20  1.015444000430117e+00
 7.985071559156581e-20 -1.404652367118401e-17  4.255960294445554e-01
 1.015444000430117e+00  4.255960294445554e-01 -3.470273077506875e-17

-2.520446693949540e-17  7.910003690357586e-20  1.015496481172882e+00
 7.910003690357586e-20 -1.449749439638798e-17  4.258068761786767e-01
 1.015496481172882e+00  4.258068761786767e-01 -3.470944845785361e-17

-2.524820513628050e-17  9.498610476154347e-20  1.016680395945792e+00
 9.498610476154347e-20 -1.333604780503299e-17  4.256234093989796e-01
 1.016680395945792e+00  4.256234093989796e-01 -3.474808861360045e-17

-2.524587365963526e-17  8.659975186262331e-20  1.016626844133214e+00
 8.659975186262331e-20 -1.426120200182599e-17  4.255225463132885e-01
 1.016626844133214e+00  4.255225463132885e-01 -3.475058261404572e-17

-2.527016989206455e-17  6.887844380076988e-20  1.017436728586740e+00
 6.887844380076988e-20 -1.379956051397921e-17  4.253793806112142e-01
 1.017436728586740e+00  4.253793806112142e-01 -3.477669982671746e-17

-2.527833502017740e-17  8.054206373654455e-20  1.017284692155317e+00
 8.054206373654455e-20 -1.428993600040699e-17  4.253630041585688e-01
 1.017284692155317e+00  4.253630041585688e-01 -3.477005395196729e-17

-2.527337270287633e-17  7.279259707655528e-20  1.015960414197760e+00
 7.279259707655528e-20 -1.315003752435742e-17  4.266861634676909e-01
 1.015960414197760e+00  4.266861634676909e-01 -3.472576339709337e-17

-2.528621642832374e-17  7.375629020118837e-20  1.015583050792924e+00
 7.375629020118837e-20 -1.407655091083219e-17  4.267597795519047e-01
 1.015583050792924e+00  4.267597795519047e-01 -3.471397241941905e-17

-2.531410411305173e-17  7.045971633317153e-20  1.016242901262877e+00
 7.045971633317153e-20 -1.260142788084618e-17  4.261718961536665e-01
 1.016242901262877e+00  4.261718961536665e-01 -3.474273957077420e-17

-2.533817178819401e-17  8.069618336482288e-20  1.017806003254459e+00
 8.069618336482288e-20 -1.386618870397912e-17  4.251082951394284e-01
 1.017806003254459e+00  4.251082951394284e-01 -3.479827649455445e-17

-2.535774696464953e-17  8.506825932447272e-20  1.017377697421818e+00
 8.506825932447272e-20 -1.302715015275782e-17  4.257747348679362e-01
 1.017377697421818e+00  4.257747348679362e-01 -3.479138777176978e-17

-2.535660211785863e-17  9.191076234860851e-20  1.015674509059021e+00
 9.191076234860851e-20 -1.395928191119192e-17  4.274167521187023e-01
 1.015674509059021e+00  4.274167521187023e-01 -3.473261157711837e-17

-2.542849917546146e-17  1.001429187629657e-19  1.016346040305385e+00
 1.001429187629657e-19 -1.428823997550869e-17  4.267815238607175e-01
 1.016346040305385e+00  4.267815238607175e-01 -3.475930562466287e-17

-2.537058505299741e-17  7.433784871977452e-20  1.016124455763674e+00
 7.433784871977452e-20 -1.364634149085010e-17  4.252801301629969e-01
 1.016124455763674e+00  4.252801301629969e-01 -3.475395539748305e-17

-2.540117154752067e-17  9.448230488932694e-20  1.016963835308186e+00
 9.448230488932694e-20 -1.441907868523908e-17  4.258295266341781e-01
 1.016963835308186e+00  4.258295266341781e-01 -3.478378945622038e-17

-2.541507883598275e-17  9.343922005362938e-20  1.017209668828428e+00
 9.343922005362938e-20 -1.416710229668450e-17  4.259658918934586e-01
 1.017209668828428e+00  4.259658918934586e-01 -3.479425391225737e-17

-2.541863360576678e-17  7.277013347275783e-20  1.016522363451515e+00
 7.277013347275783e-20 -1.305134746464679e-17  4.264221354720666e-01
 1.016522363451515e+00  4.264221354720666e-01 -3.477258000144198e-17

-2.542309908886018e-17  8.942800028375382e-20  1.015676125076959e+00
 8.942800028375382e-20 -1.471971163481970e-17  4.256904142727354e-01
 1.015676125076959e+00  4.256904142727354e-01 -3.474260222405722e-17

-2.545688065288803e-17  7.084345649769904e-20  1.016077537763593e+00
 7.084345649769904e-20 -1.382357694257864e-17  4.250440301337127e-01
 1.016077537763593e+00  4.250440301337127e-01 -3.476201386546754e-17

-2.557816227906230e-17  7.298584326098122e-20  1.021926595872126e+00
 7.298584326098122e-20 -1.402089105433936e-17  4.236877038658479e-01
 1.021926595872126e+00  4.236877038658479e-01 -3.498241553549569e-17

-2.554567641990551e-17  6.783931982007511e-20  1.015353940683119e+00
 6.783931982007511e-20 -1.362274486481604e-17  4.383124972762705e-01
 1.015353940683119e+00  4.383124972762705e-01 -3.476763218320782e-17

-2.554335610392228e-17  7.253374887970844e-20  1.016695200077116e+00
 7.253374887970844e-20 -1.420226450007966e-17  4.291545574107797e-01
 1.016695200077116e+00  4.291545574107797e-01 -3.480127954185131e-17

-2.547610224856277e-17  7.367805489816320e-20  1.013799864472585e+00
 7.367805489816320e-20 -1.523490411115403e-17  4.223600042615482e-01
 1.013799864472585e+00  4.223600042615482e-01 -3.467758955485236e-17

-2.555115861073407e-17  7.155749548144788e-20  1.015779910948936e+00
 7.155749548144788e-20 -1.508426894384610e-17  4.263821522354735e-01
 1.015779910948936e+00  4.263821522354735e-01 -3.476057121904211e-17

-2.562380978976778e-17  6.936878782844299e-20  1.016565166077511e+00
 6.936878782844299e-20 -1.563396686142858e-17  4.258663675836349e-01
 1.016565166077511e+00  4.258663675836349e-01 -3.479799829133069e-17

-2.562778756184835e-17  6.650214256674379e-20  1.016264085315620e+00
 6.650214256674379e-20 -1.538569546629625e-17  4.257314653276159e-01
 1.016264085315620e+00  4.257314653276159e-01 -3.478712390835324e-17

-2.563554694687277e-17  6.356479490971257e-20  1.016103337804337e+00
 6.356479490971257e-20 -1.512188594253551e-17  4.263650441643124e-01
 1.016103337804337e+00  4.263650441643124e-01 -3.478254814999138e-17

-2.566139006452017e-17  6.334704737124768e-20  1.015468822691292e+00
 6.334704737124768e-20 -1.486259127393258e-17  4.258261960678409e-01
 1.015468822691292e+00  4.258261960678409e-01 -3.475697071495324e-17

-2.570020177899265e-17  5.814975149903792e-20  1.015403027844379e+00
 5.814975149903792e-20 -1.557721873415696e-17  4.266438022388145e-01
 1.015403027844379e+00  4.266438022388145e-01 -3.476551875630166e-17

-2.574547256710627e-17  5.575668624067789e-20  1.016841979348697e+00
 5.575668624067789e-20 -1.590132774367441e-17  4.251791986053732e-01
 1.016841979348697e+00  4.251791986053732e-01 -3.481612666588826e-17

-2.575237395651334e-17  4.017576933522150e-20  1.015327634820686e+00
 4.017576933522150e-20 -1.414831867107101e-17  4.274885834588033e-01
 1.015327634820686e+00  4.274885834588033e-01 -3.476530708786160e-17

-2.576081068041953e-17  1.134831174105736e-20  1.014561254122869e+00
 1.134831174105736e-20 -1.221689011156963e-17  4.270807944992086e-01
 1.014561254122869e+00  4.270807944992086e-01 -3.474175454683481e-17

-2.586759127933888e-17  4.584504449233279e-20  1.018715673390941e+00
 4.584504449233279e-20 -1.606244560329107e-17  4.273983957036559e-01
 1.018715673390941e+00  4.273983957036559e-01 -3.490396989702178e-17

-2.590570460870277e-17  3.015897056890975e-20  1.018600347016120e+00
 3.015897056890975e-20 -1.576436950729838e-17  4.287601738997762e-01
 1.018600347016120e+00  4.287601738997762e-01 -3.490213992365247e-17

-2.595014038859903e-17  1.726387942508570e-20  1.021316748672999e+00
 1.726387942508570e-20 -1.621425656082569e-17  4.205555110136546e-01
 1.021316748672999e+00  4.205555110136546e-01 -3.498321492414305e-17

-2.599140913919703e-17  3.775932224829494e-20  1.022699155205487e+00
 3.775932224829494e-20 -1.656338177859181e-17  4.242470313976974e-01
 1.022699155205487e+00  4.242470313976974e-01 -3.504543975544847e-17

-2.593471997524811e-17  7.331063339218898e-21  1.011913024644790e+00
 7.331063339218898e-21 -1.579201266436354e-17  4.421890277977438e-01
 1.011913024644790e+00  4.421890277977438e-01 -3.466609080687010e-17

-2.605824982673093e-17 -4.935339865118860e-21  1.024620909557904e+00
-4.935339865118860e-21 -1.510296705766669e-17  4.260668514201942e-01
 1.024620909557904e+00  4.260668514201942e-01 -3.510747052454619e-17

-2.611717727317965e-17 -2.210571345566700e-20  1.026704728952123e+00
-2.210571345566700e-20 -1.463506023381023e-17  4.248414308648918e-01
 1.026704728952123e+00  4.248414308648918e-01 -3.518179850736578e-17

-2.611639640886799e-17 -5.007959030244393e-20  1.022082995694271e+00
-5.007959030244393e-20 -1.284216267146518e-17  4.370682761078539e-01
 1.022082995694271e+00  4.370682761078539e-01 -3.501840040098586e-17

-2.621405683825203e-17 -6.020880393159696e-20  1.025603158241454e+00
-6.020880393159696e-20 -1.402219157249180e-17  4.388721032651927e-01
 1.025603158241454e+00  4.388721032651927e-01 -3.513827713624820e-17

-2.629370864736337e-17 -5.274994965153499e-20  1.029729726204105e+00
-5.274994965153499e-20 -1.690571652186240e-17  4.322341721149644e-01
 1.029729726204105e+00  4.322341721149644e-01 -3.526859366359130e-17

-2.642431992107588e-17 -6.891357016296529e-20  1.034775433658956e+00
-6.891357016296529e-20 -1.533172566215235e-17  4.343751291217397e-01
 1.034775433658956e+00  4.343751291217397e-01 -3.545109409060108e-17

-2.658646541560854e-17 -9.761540569596975e-20  1.038037094190787e+00
-9.761540569596975e-20 -1.358906618780414e-17  4.396653358896966e-01
 1.038037094190787e+00  4.396653358896966e-01 -3.557321011503060e-17

-2.679565085566520e-17 -5.355252271823693e-20  1.044546011737659e+00
-5.355252271823693e-20 -1.619638910462722e-17  4.397349691554919e-01
 1.044546011737659e+00  4.397349691554919e-01 -3.582657913969593e-17

-2.700536160977565e-17 -4.568368451308159e-21  1.049964789355705e+00
-4.568368451308159e-21 -1.545839761292945e-17  4.376372635684887e-01
 1.049964789355705e+00  4.376372635684887e-01 -3.609407628722091e-17

-2.705446492748007e-17  1.026200645655281e-19  1.046761789708218e+00
 1.026200645655281e-19 -1.754908125942969e-17  4.335495873490718e-01
 1.046761789708218e+00  4.335495873490718e-01 -3.609432783572026e-17

-2.704336484125023e-17  1.518572208896325e-19  1.042424909078912e+00
 1.518572208896325e-19 -1.638374541627431e-17  4.320579135145356e-01
 1.042424909078912e+00  4.320579135145356e-01 -3.603780946178371e-17

-2.688126180232665e-17  2.437608679434336e-19  1.033100773483609e+00
 2.437608679434336e-19 -1.675917511702308e-17  4.192285756378537e-01
 1.033100773483609e+00  4.192285756378537e-01 -3.580331933646300e-17

-2.653779174428773e-17  2.147207659607679e-19  1.015350141172850e+00
 2.147207659607679e-19 -1.489812381832019e-17  4.169080330624265e-01
 1.015350141172850e+00  4.169080330624265e-01 -3.520858293841872e-17

-2.623028466711885e-17  9.078211548242335e-20  1.001206882386458e+00
 9.078211548242335e-20 -1.392581491908555e-17  4.178556614648987e-01
 1.001206882386458e+00  4.178556614648987e-01 -3.462666321260211e-17

-2.618608160647380e-17 -3.921633239385233e-20  9.994082739111291e-01
-3.921633239385233e-20 -1.432298710437360e-17  4.227852240149312e-01
 9.994082739111291e-01  4.227852240149312e-01 -3.443704201646512e-17

-2.630410344857744e-17 -1.131144819543527e-19  1.001339050835978e+00
-1.131144819543527e-19 -1.458506432771786e-17  4.248702275157580e-01
 1.001339050835978e+00  4.248702275157580e-01 -3.442686783640640e-17

-2.644427330970092e-17 -1.333620050180939e-19  1.006046985525150e+00
-1.333620050180939e-19 -1.492963574051742e-17  4.267219198073243e-01
 1.006046985525150e+00  4.267219198073243e-01 -3.456393586270785e-17

-2.657372028951897e-17 -1.287390629516032e-19  1.009645658541328e+00
-1.287390629516032e-19 -1.531497785426760e-17  4.263962667197400e-01
 1.009645658541328e+00  4.263962667197400e-01 -3.469193954744447e-17

-2.673142592965716e-17 -1.486532431280980e-19  1.012683906122971e+00
-1.486532431280980e-19 -1.399790322020087e-17  4.265238160460970e-01
 1.012683906122971e+00  4.265238160460970e-01 -3.481868511149933e-17

-2.689010635291480e-17 -1.066141560252457e-19  1.014257488910454e+00
-1.066141560252457e-19 -1.609602434250407e-17  4.262889641891089e-01
 1.014257488910454e+00  4.262889641891089e-01 -3.491205874485213e-17

-2.697783105495921e-17 -1.005235500001785e-19  1.014403389512720e+00
-1.005235500001785e-19 -1.709120725006704e-17  4.259511814087424e-01
 1.014403389512720e+00  4.259511814087424e-01 -3.495031770499786e-17

-2.710188182135377e-17 -9.775017189077682e-20  1.014935028490504e+00
-9.775017189077682e-20 -1.782066874763454e-17  4.258301556716192e-01
 1.014935028490504e+00  4.258301556716192e-01 -3.500023046756764e-17

-2.721324893113439e-17 -8.409814369484264e-20  1.015326426632806e+00
-8.409814369484264e-20 -1.873719350771607e-17  4.264116529548142e-01
 1.015326426632806e+00  4.264116529548142e-01 -3.504628647126422e-17

-2.728281367496477e-17 -1.096198298847116e-19  1.015230721282879e+00
-1.096198298847116e-19 -1.822509602243337e-17  4.255352750817428e-01
 1.015230721282879e+00  4.255352750817428e-01 -3.506303883009206e-17

-2.734554732778916e-17 -1.102106230409820e-19  1.016355836225757e+00
-1.102106230409820e-19 -1.745109719536802e-17  4.247658195298333e-01
 1.016355836225757e+00  4.247658195298333e-01 -3.510587673317249e-17

-2.741827067542110e-17 -1.378268989643658e-19  1.015292258863978e+00
-1.378268989643658e-19 -1.676599233333209e-17  4.259373715019809e-01
 1.015292258863978e+00  4.259373715019809e-01 -3.510169829280739e-17

-2.752549713624697e-17 -1.245961861738850e-19  1.015695372278163e+00
-1.245961861738850e-19 -1.899808699979071e-17  4.264652888523575e-01
 1.015695372278163e+00  4.264652888523575e-01 -3.513857346967178e-17

-2.759665326929333e-17 -1.655667810560382e-19  1.015864300106373e+00
-1.655667810560382e-19 -1.646493517451613e-17  4.259289539780775e-01
 1.015864300106373e+00  4.259289539780775e-01 -3.516095320556474e-17

-2.767096765460420e-17 -1.620226320075631e-19  1.015018975547352e+00
-1.620226320075631e-19 -1.831090272030416e-17  4.256822807323755e-01
 1.015018975547352e+00  4.256822807323755e-01 -3.516006221121852e-17

-2.781329872004081e-17 -1.860058463147596e-19  1.014940273462560e+00
-1.860058463147596e-19 -1.695155851193914e-17  4.258045583661063e-01
 1.014940273462560e+00  4.258045583661063e-01 -3.519313922614148e-17

-2.792128642677905e-17 -2.036143067082565e-19  1.014943984935459e+00
-2.036143067082565e-19 -1.714143299059446e-17  4.256590740085245e-01
 1.014943984935459e+00  4.256590740085245e-01 -3.523229937264418e-17

-2.808198241557307e-17 -2.338906835698307e-19  1.015987068016974e+00
-2.338906835698307e-19 -1.558645835667414e-17  4.261609852173507e-01
 1.015987068016974e+00  4.261609852173507e-01 -3.528831335446651e-17

-2.816254837853002e-17 -2.618037193968366e-19  1.014820825489368e+00
-2.618037193968366e-19 -1.540245733006589e-17  4.255849654356270e-01
 1.014820825489368e+00  4.255849654356270e-01 -3.529141757265096e-17

-2.836869103032770e-17 -2.530509710081554e-19  1.014709701845293e+00
-2.530509710081554e-19 -1.874438831887848e-17  4.255735771023847e-01
 1.014709701845293e+00  4.255735771023847e-01 -3.534644554167720e-17

-2.856561561363862e-17 -2.662026765504342e-19  1.014343479202205e+00
-2.662026765504342e-19 -2.025417759316404e-17  4.255004258613954e-01
 1.014343479202205e+00  4.255004258613954e-01 -3.538722771188447e-17

-2.872168725494845e-17 -2.936024807842940e-19  1.014165588336549e+00
-2.936024807842940e-19 -2.040221873042954e-17  4.254020123559288e-01
 1.014165588336549e+00  4.254020123559288e-01 -3.543729785954785e-17

-2.892615756529938e-17 -2.952791452988443e-19  1.014300365192271e+00
-2.952791452988443e-19 -2.246279427371226e-17  4.253622791273790e-01
 1.014300365192271e+00  4.253622791273790e-01 -3.549551076972997e-17

-2.911393387193474e-17 -4.037493051398456e-19  1.014814018374019e+00
-4.037493051398456e-19 -1.524362034139394e-17  4.256181975033915e-01
 1.014814018374019e+00  4.256181975033915e-01 -3.556498263995893e-17

-2.934495412024013e-17 -4.812025054416028e-19  1.014192503782082e+00
-4.812025054416028e-19 -1.335083144175385e-17  4.257010871772063e-01
 1.014192503782082e+00  4.257010871772063e-01 -3.561910096775268e-17

-2.953029672534489e-17 -4.046391721192763e-19  1.013619805699924e+00
-4.046391721192763e-19 -2.140200467093712e-17  4.248950742452282e-01
 1.013619805699924e+00  4.248950742452282e-01 -3.565604593302606e-17

-2.967535859786154e-17 -4.608526748735907e-19  1.013389109738257e+00
-4.608526748735907e-19 -1.846881782552275e-17  4.246889047875306e-01
 1.013389109738257e+00  4.246889047875306e-01 -3.568761715782662e-17

-2.988543325101745e-17 -4.977239011642809e-19  1.013310877313696e+00
-4.977239011642809e-19 -1.863634496461304e-17  4.255322608879767e-01
 1.013310877313696e+00  4.255322608879767e-01 -3.575897375662194e-17

-3.018297365379444e-17 -4.938195787138303e-19  1.014278600631670e+00
-4.938195787138303e-19 -2.350786950704721e-17  4.257724295617935e-01
 1.014278600631670e+00  4.257724295617935e-01 -3.587557340240162e-17

-3.053420463776089e-17 -6.190947132247945e-19  1.013985919976087e+00
-6.190947132247945e-19 -1.778456288319790e-17  4.255592812423367e-01
 1.013985919976087e+00  4.255592812423367e-01 -3.597730254608059e-17

-3.078312729787845e-17 -6.418191619807554e-19  1.013983321315590e+00
-6.418191619807554e-19 -1.905422839627750e-17  4.243619480254163e-01
 1.013983321315590e+00  4.243619480254163e-01 -3.605704149253193e-17

-3.097882721462789e-17 -6.383151614632825e-19  1.014167116148009e+00
-6.383151614632825e-19 -2.254539052196603e-17  4.250719155707501e-01
 1.014167116148009e+00  4.250719155707501e-01 -3.612320069607579e-17

-3.138623270220924e-17 -7.103134540460552e-19  1.014749684969285e+00
-7.103134540460552e-19 -2.188434629013408e-17  4.254529406332041e-01
 1.014749684969285e+00  4.254529406332041e-01 -3.627654146261495e-17

-3.179464632904613e-17 -8.064349605640642e-19  1.014022626757046e+00
-8.064349605640642e-19 -2.023855951450519e-17  4.257338609987809e-01
 1.014022626757046e+00  4.257338609987809e-01 -3.638500044839889e-17

-3.203031216445760e-17 -7.419048796347358e-19  1.014190707173191e+00
-7.419048796347358e-19 -2.821310287506398e-17  4.235376646951519e-01
 1.014190707173191e+00  4.235376646951519e-01 -3.646796517258523e-17

-3.239222939911312e-17 -9.081717856215908e-19  1.012695069485167e+00
-9.081717856215908e-19 -2.098869297137211e-17  4.249477384415863e-01
 1.012695069485167e+00  4.249477384415863e-01 -3.653934502653388e-17

-3.301543675768724e-17 -9.849610758501132e-19  1.013374196626601e+00
-9.849610758501132e-19 -2.234784589695546e-17  4.251198418412066e-01
 1.013374196626601e+00  4.251198418412066e-01 -3.676650679492784e-17

-3.366535352057004e-17 -1.065647893027222e-18  1.013456189016217e+00
-1.065647893027222e-18 -2.471769548819145e-17  4.248548970822489e-01
 1.013456189016217e+00  4.248548970822489e-01 -3.697863188742492e-17

-3.431853437086889e-17 -1.178346604809826e-18  1.013350297313092e+00
-1.178346604809826e-18 -2.514236069135561e-17  4.245816716862508e-01
 1.013350297313092e+00  4.245816716862508e-01 -3.720772201088318e-17

-3.523958157230186e-17 -1.473332038429898e-18  1.012882317434014e+00
-1.473332038429898e-18 -1.507090631852634e-17  4.257934017536989e-01
 1.012882317434014e+00  4.257934017536989e-01 -3.749576968832839e-17

-3.597069339803000e-17 -1.462263204558120e-18  1.005140557623439e+00
-1.462263204558120e-18 -2.748025109819095e-17  4.257417283306189e-01
 1.005140557623439e+00  4.257417283306189e-01 -3.749390105895916e-17

-3.711185359746258e-17 -1.575677311737647e-18  1.065935788191924e+00
-1.575677311737647e-18 -2.622893965142958e-17  3.715948637201539e-01
 1.065935788191924e+00  3.715948637201539e-01 -3.980332017863104e-17

-3.675783358400701e-17 -1.550880712346640e-18  1.015417949228993e+00
-1.550880712346640e-18 -2.783557247254108e-17  4.206375242902205e-01
 1.015417949228993e+00  4.206375242902205e-01 -3.809011981815982e-17

-3.644718742869801e-17 -1.612688912394661e-18  9.636247320490948e-01
-1.612688912394661e-18 -2.375344185374895e-17  4.737448866219680e-01
 9.636247320490948e-01  4.737448866219680e-01 -3.632137265058471e-17

-3.774249318121013e-17 -1.808484277197162e-18  1.018865442635158e+00
-1.808484277197162e-18 -2.029724382286624e-17  4.242157568177893e-01
 1.018865442635158e+00  4.242157568177893e-01 -3.852453599846105e-17

-3.862772126192945e-17 -1.976513093268285e-18  1.013599492817983e+00
-1.976513093268285e-18 -2.085961689551646e-17  4.213474751101352e-01
 1.013599492817983e+00  4.213474751101352e-01 -3.867223432525605e-17

-3.928172520024283e-17 -1.980735794560705e-18  1.014049096925038e+00
-1.980735794560705e-18 -2.900750199081815e-17  4.207081455547155e-01
 1.014049096925038e+00  4.207081455547155e-01 -3.890221612062537e-17

-4.043478444540412e-17 -2.228482549185386e-18  1.014174345981939e+00
-2.228482549185386e-18 -2.488690704465151e-17  4.235779295033550e-01
 1.014174345981939e+00  4.235779295033550e-01 -3.930047827364319e-17

-4.203153709537639e-17 -2.550465422654188e-18  1.009072597551314e+00
-2.550465422654188e-18 -2.102228585002388e-17  4.350122045527685e-01
 1.009072597551314e+00  4.350122045527685e-01 -3.968685964476814e-17

-4.282376394125499e-17 -2.536645459841999e-18  1.006583838489444e+00
-2.536645459841999e-18 -3.294631546975568e-17  4.272248070489644e-01
 1.006583838489444e+00  4.272248070489644e-01 -3.987769075236245e-17

-4.391257236202558e-17 -2.633706469775499e-18  1.043160903813597e+00
-2.633706469775499e-18 -3.620189534921131e-17  3.887196300662599e-01
 1.043160903813597e+00  3.887196300662599e-01 -4.139343113788488e-17

-4.421003559859904e-17 -2.811311095192041e-18  1.013950894984012e+00
-2.811311095192041e-18 -2.810805319388373e-17  4.206595900259008e-01
 1.013950894984012e+00  4.206595900259008e-01 -4.058362195787592e-17

-4.486436863576097e-17 -2.846388047272515e-18  9.967536076718783e-01
-2.846388047272515e-18 -3.612431893127166e-17  4.465912689556141e-01
 9.967536076718783e-01  4.465912689556141e-01 -4.026181212891382e-17

-4.627827179888209e-17 -3.064320899023963e-18  1.017729478596853e+00
-3.064320899023963e-18 -3.429066964516227e-17  4.208073344653731e-01
 1.017729478596853e+00  4.208073344653731e-01 -4.140018502544363e-17

-4.820557105146707e-17 -3.354489525079140e-18  1.010217633002749e+00
-3.354489525079140e-18 -3.764183724783189e-17  4.222787402738274e-01
 1.010217633002749e+00  4.222787402738274e-01 -4.183719984452180e-17

-5.209021731161803e-17 -4.007928510896640e-18  1.014010498734017e+00
-4.007928510896640e-18 -3.109506044957880e-17  4.243647123729619e-01
 1.014010498734017e+00  4.243647123729619e-01 -4.329465659007301e-17

-5.624289092430250e-17 -4.579278948449326e-18  1.015034855940323e+00
-4.579278948449326e-18 -3.222949404614018e-17  4.239128247010913e-01
 1.015034855940323e+00  4.239128247010913e-01 -4.474881307709052e-17

-5.993027190893894e-17 -5.079349666407579e-18  1.015054473301135e+00
-5.079349666407579e-18 -3.333833838049668e-17  4.248194027764040e-01
 1.015054473301135e+00  4.248194027764040e-01 -4.603592727474043e-17

-6.430481440922880e-17 -5.665156376192594e-18  1.014328840905435e+00
-5.665156376192594e-18 -3.297742554848109e-17  4.236720846429124e-01
 1.014328840905435e+00  4.236720846429124e-01 -4.751277440689763e-17

-7.041642675861758e-17 -6.335384499794109e-18  1.014702063462829e+00
-6.335384499794109e-18 -3.910268156174580e-17  4.248014597505987e-01
 1.014702063462829e+00  4.248014597505987e-01 -4.963944698130595e-17

-7.523490637768362e-17 -6.897991887954133e-18  1.016605379613037e+00
-6.897991887954133e-18 -3.713627720366391e-17  4.237241097801445e-01
 1.016605379613037e+00  4.237241097801445e-01 -5.136978584680564e-17

-8.056618987952041e-17 -7.299295145710749e-18  1.018432607125449e+00
-7.299295145710749e-18 -4.718841700339600e-17  4.234122435679292e-01
 1.018432607125449e+00  4.234122435679292e-01 -5.327597364281679e-17

-9.238806356022824e-17 -8.360904290761612e-18  1.015928566105776e+00
-8.360904290761612e-18 -4.400261523860677e-17  4.227038687794387e-01
 1.015928566105776e+00  4.227038687794387e-01 -5.730590876633543e-17

-1.030069021765809e-16 -9.077997737250867e-18  1.016735663957984e+00
-9.077997737250867e-18 -4.951150434196639e-17  4.241568550055039e-01
 1.016735663957984e+00  4.241568550055039e-01 -6.100827579939346e-17

-1.062811702291657e-16 -8.349231174012721e-18  1.015404057070349e+00
-8.349231174012721e-18 -2.542606781409116e-17  4.243157298741267e-01
 1.015404057070349e+00  4.243157298741267e-01 -6.900983828864379e-17

-1.470071605447497e-16 -1.067857405752947e-17  1.014465936978532e+00
-1.067857405752947e-17 -1.228400431477421e-17  4.247848905694834e-01
 1.014465936978532e+00  4.247848905694834e-01 -7.635922194013448e-17

-1.845381013166589e-16 -9.547184194456219e-18  1.011652035921173e+00
-9.547184194456219e-18 -2.941956453865251e-17  4.192188024189394e-01
 1.011652035921173e+00  4.192188024189394e-01 -8.953424227991345e-17

-2.138140294082215e-16 -7.467237852186359e-18  1.017227313727201e+00
-7.467237852186359e-18 -3.334057515924167e-17  4.201757569996079e-01
 1.017227313727201e+00  4.201757569996079e-01 -1.001498062778275e-16

-2.503820089663103e-16 -3.928007659012399e-18  1.019763675651180e+00
-3.928007659012399e-18 -8.479625995880106e-18  4.278596036022603e-01
 1.019763675651180e+00  4.278596036022603e-01 -1.133790562153675e-16

-3.355762730098509e-16  1.122232322821893e-17  1.018150957077642e+00
 1.122232322821893e-17  4.646168023621403e-17  4.221655617504933e-01
 1.018150957077642e+00  4.221655617504933e-01 -1.447242487914594e-16

-4.322254817099911e-16  3.631151093421707e-17  1.017841296306782e+00
 3.631151093421707e-17  6.466927469701771e-17  4.234505918513372e-01
 1.017841296306782e+00  4.234505918513372e-01 -1.812484402214400e-16

-5.918680121794381e-16  9.848935034381585e-17  1.016966111847629e+00
 9.848935034381585e-17  1.320106996049167e-16  4.257604794262403e-01
 1.016966111847629e+00  4.257604794262403e-01 -2.446853487048121e-16

-7.695488844848544e-16  1.991332646462274e-16  1.016334521862256e+00
 1.991332646462274e-16  2.666193410626187e-16  4.204022609842931e-01
 1.016334521862256e+00  4.204022609842931e-01 -3.210551536453997e-16

-9.084242594269635e-16  2.966287509056850e-16  1.027231722867720e+00
 2.966287509056850e-16  4.172551058510982e-16  4.101016077598793e-01
 1.027231722867720e+00  4.101016077598793e-01 -3.849911181682612e-16

-1.035147049422072e-15  3.963488054745310e-16  1.010510483995348e+00
 3.963488054745310e-16  5.021919345528368e-16  4.342583588409075e-01
 1.010510483995348e+00  4.342583588409075e-01 -4.445009638782279e-16

-1.234056840683634e-15  5.932477290448711e-16  1.017002244032583e+00
 5.932477290448711e-16  6.850043816534970e-16  4.327851714318471e-01
 1.017002244032583e+00  4.327851714318471e-01 -5.485571476255741e-16

-1.588751093633007e-15  1.085948706203016e-15  1.018092301881286e+00
 1.085948706203016e-15  1.125246469504795e-15  4.214763761048725e-01
 1.018092301881286e+00  4.214763761048725e-01 -7.709081495077541e-16

-2.156530463084062e-15  2.413026697384091e-15  1.015108278081734e+00
 2.413026697384091e-15  1.874714706764986e-15  4.252039084733923e-01
 1.015108278081734e+00  4.252039084733923e-01 -1.288200782235198e-15

-2.615313947574042e-15  4.970537787235783e-15  1.016843451428962e+00
 4.970537787235783e-15  2.626364607866874e-15  4.266635571899483e-01
 1.016843451428962e+00  4.266635571899483e-01 -2.232093270399516e-15

-2.827947217741723e-15  9.073184212623848e-15  1.016160784324699e+00
 9.073184212623848e-15  2.484171448184419e-15  4.260566927253469e-01
 1.016160784324699e+00  4.260566927253469e-01 -4.000419469652076e-15

-5.289263179835997e-15  1.490650852467593e-14  1.013115408280864e+00
 1.490650852467593e-14 -9.892203617068143e-18  4.279919898375848e-01
 1.013115408280864e+00  4.279919898375848e-01 -9.604672033199496e-15

 4.275597869160959e-14 -5.538456880120728e-15  1.027927693196271e+00
-5.538456880120728e-15  3.075541649978298e-14  4.071101074412380e-01
 1.027927693196271e+00  4.071101074412380e-01 -1.851873304019870e-16

 2.464037820023082e-13 -5.341142073607704e-14  1.025556054813470e+00
-5.341142073607704e-14  1.081085658154746e-13  4.193178882309198e-01
 1.025556054813470e+00  4.193178882309198e-01  6.614789989315152e-14

-6.419746672174072e-13  1.524086764200696e-13  1.016686835856843e+00
 1.524086764200696e-13 -3.276635181636796e-13  4.418390501255308e-01
 1.016686835856843e+00  4.418390501255308e-01 -1.649120401746730e-13

 1.682549878638556e-13 -6.381794493415196e-14  1.021808707367929e+00
-6.381794493415196e-14  9.203583046182548e-14  4.296349439872209e-01
 1.021808707367929e+00  4.296349439872209e-01  4.437798753960282e-14

-6.701716114402041e-13  1.493219782639859e-13  1.022729344949763e+00
 1.493219782639859e-13 -3.117058506679127e-13  4.393901404041515e-01
 1.022729344949763e+00  4.393901404041515e-01 -1.793974425454487e-13

-1.686465795613617e-14 -1.231797622718090e-14  1.020099473246965e+00
-1.231797622718090e-14  7.755811016768751e-15  4.183870723527907e-01
 1.020099473246965e+00  4.183870723527907e-01 -1.224388265961505e-14

-1.641808634058569e-14 -4.112878769776670e-15  1.017007289183381e+00
-4.112878769776670e-15 -1.510890889426280e-15  4.312115033667504e-01
 1.017007289183381e+00  4.312115033667504e-01 -8.956617909789927e-15

-1.189319761898335e-14 -1.522101237857323e-15  1.017446170681997e+00
-1.522101237857323e-15 -2.249838665616230e-15  4.398110708230002e-01
 1.017446170681997e+00  4.398110708230002e-01 -5.623106952729300e-15

-7.065696880382028e-15  3.256709739407275e-16  1.022017145299212e+00
 3.256709739407275e-16 -1.700563074545448e-15  4.293512324758539e-01
 1.022017145299212e+00  4.293512324758539e-01 -2.694477456729585e-15

-4.005196269170243e-15  9.010760094692380e-16  1.017373889943483e+00
 9.010760094692380e-16 -1.479411054632290e-15  4.300030608837303e-01
 1.017373889943483e+00  4.300030608837303e-01 -1.291548965504773e-15

-2.651904424911403e-15  8.562391340888382e-16  1.019730338771643e+00
 8.562391340888382e-16 -1.340442075017139e-15  4.293135247650002e-01
 1.019730338771643e+00  4.293135247650002e-01 -8.102153785137648e-16

-2.095051886048738e-15  7.655506357841888e-16  1.018365097000105e+00
 7.655506357841888e-16 -1.237225909776449e-15  4.320373712621650e-01
 1.018365097000105e+00  4.320373712621650e-01 -6.323498764673120e-16

-1.368381631221221e-15  5.897772876457184e-16  1.019244387634461e+00
 5.897772876457184e-16 -1.047453125106408e-15  4.310975553997695e-01
 1.019244387634461e+00  4.310975553997695e-01 -4.161227690222802e-16

-9.669490639010198e-16  4.462854912632149e-16  1.019459352196308e+00
 4.462854912632149e-16 -8.744919596845179e-16  4.312595394103730e-01
 1.019459352196308e+00  4.312595394103730e-01 -3.030794738328850e-16

-7.923032342056035e-16  3.733915497142636e-16  1.018876822075901e+00
 3.733915497142636e-16 -7.788271183534771e-16  4.303301130028680e-01
 1.018876822075901e+00  4.303301130028680e-01 -2.547323493090253e-16

-5.707622719170214e-16  2.732381957831447e-16  1.018605522505087e+00
 2.732381957831447e-16 -6.306303716314325e-16  4.310721150597092e-01
 1.018605522505087e+00  4.310721150597092e-01 -2.053057840130232e-16

-4.217073596909317e-16  1.979133644035879e-16  1.018270424188599e+00
 1.979133644035879e-16 -5.093208652761788e-16  4.308439116195205e-01
 1.018270424188599e+00  4.308439116195205e-01 -1.523393858041161e-16

-3.256711533997776e-16  1.472622830779727e-16  1.018433805991217e+00
 1.472622830779727e-16 -4.208289022517690e-16  4.311023283046356e-01
 1.018433805991217e+00  4.311023283046356e-01 -1.253419442993670e-16

-2.741985422678459e-16  1.195404060917882e-16  1.017643185343378e+00
 1.195404060917882e-16 -3.638605518153870e-16  4.312715832754748e-01
 1.017643185343378e+00  4.312715832754748e-01 -1.106456429214424e-16

-2.224418662574452e-16  9.149047096976385e-17  1.017012951777814e+00
 9.149047096976385e-17 -3.055220474993633e-16  4.309106537148270e-01
 1.017012951777814e+00  4.309106537148270e-01 -9.564243972881426e-17

-1.893402495945287e-16  7.349358111379183e-17  1.018285705941733e+00
 7.349358111379183e-17 -2.660428263707043e-16  4.306187920874441e-01
 1.018285705941733e+00  4.306187920874441e-01 -8.596064298946099e-17

-1.705299796785444e-16  6.341719915807244e-17  1.017529911152570e+00
 6.341719915807244e-17 -2.389318685995043e-16  4.308387056473820e-01
 1.017529911152570e+00  4.308387056473820e-01 -8.034963607290881e-17

-1.452647039260158e-16  4.996512608927499e-17  1.017096433593490e+00
 4.996512608927499e-17 -2.069245757274815e-16  4.312794966290251e-01
 1.017096433593490e+00  4.312794966290251e-01 -7.274354162376708e-17

-1.225186575772238e-16  3.816466990757266e-17  1.016851811055134e+00
 3.816466990757266e-17 -1.742558285736162e-16  4.315816637946642e-01
 1.016851811055134e+00  4.315816637946642e-01 -6.574301024850483e-17

-1.070116690165406e-16  3.043366178631338e-17  1.015777184074305e+00
 3.043366178631338e-17 -1.499380456383699e-16  4.318183789543348e-01
 1.015777184074305e+00  4.318183789543348e-01 -6.087955050369529e-17

-9.787438003340417e-17  2.595660791472406e-17  1.017499838903386e+00
 2.595660791472406e-17 -1.352727327280015e-16  4.290738119991891e-01
 1.017499838903386e+00  4.290738119991891e-01 -5.804982711626623e-17

-9.034531520952455e-17  2.235444293367251e-17  1.016814450522333e+00
 2.235444293367251e-17 -1.240667828658962e-16  4.307830698234885e-01
 1.016814450522333e+00  4.307830698234885e-01 -5.565118127855699e-17

-7.940844297850194e-17  1.723427135948593e-17  1.020237559941640e+00
 1.723427135948593e-17 -1.065119932420403e-16  4.301839306688381e-01
 1.020237559941640e+00  4.301839306688381e-01 -5.228467549267383e-17

-6.920247048722126e-17  1.275504236635775e-17  1.018528252253126e+00
 1.275504236635775e-17 -8.959405080376116e-17  4.372449704703086e-01
 1.018528252253126e+00  4.372449704703086e-01 -4.891371768316063e-17

-6.491776542134519e-17  1.113836615292761e-17  1.014955486176614e+00
 1.113836615292761e-17 -8.351710644223520e-17  4.265250313679563e-01
 1.014955486176614e+00  4.265250313679563e-01 -4.739539875554837e-17

-6.264466614842221e-17  1.034996916252630e-17  1.014676886941732e+00
 1.034996916252630e-17 -7.886473212717931e-17  4.158241327255922e-01
 1.014676886941732e+00  4.158241327255922e-01 -4.663313782788644e-17

-5.825950488305910e-17  8.563037331319337e-18  1.006779181198453e+00
 8.563037331319337e-18 -7.135205896174177e-17  4.320919634817358e-01
 1.006779181198453e+00  4.320919634817358e-01 -4.493631955354558e-17

-5.524972021329220e-17  7.303416003940084e-18  1.013154852422942e+00
 7.303416003940084e-18 -6.660172070715879e-17  4.340021395152373e-01
 1.013154852422942e+00  4.340021395152373e-01 -4.414575855890289e-17

-5.286140520628371e-17  6.409061423281973e-18  1.016732261392905e+00
 6.409061423281973e-18 -6.234134092904061e-17  4.322738799181011e-01
 1.016732261392905e+00  4.322738799181011e-01 -4.348141654892698e-17

-4.995802117754599e-17  5.358883795666789e-18  1.018247272913730e+00
 5.358883795666789e-18 -5.731422850088747e-17  4.313835645268587e-01
 1.018247272913730e+00  4.313835645268587e-01 -4.253741519986571e-17

-4.732286209345010e-17  4.472294282237515e-18  1.017558021357399e+00
 4.472294282237515e-18 -5.267510999196045e-17  4.323674415349234e-01
 1.017558021357399e+00  4.323674415349234e-01 -4.163488522928640e-17

-4.493407282278213e-17  3.734882501890917e-18  1.014971956332739e+00
 3.734882501890917e-18 -4.796519498159763e-17  4.316002812611062e-01
 1.014971956332739e+00  4.316002812611062e-01 -4.074843051260216e-17

-4.288655146093064e-17  3.104959027746728e-18  1.017124037096196e+00
 3.104959027746728e-18 -4.484068182633312e-17  4.312012057122316e-01
 1.017124037096196e+00  4.312012057122316e-01 -4.013555516478268e-17

-4.134101117407595e-17  2.634922369622291e-18  1.020728504880547e+00
 2.634922369622291e-18 -4.220896069093364e-17  4.318195274724428e-01
 1.020728504880547e+00  4.318195274724428e-01 -3.974415179200161e-17

-3.984246410345501e-17  2.235504755671982e-18  1.020776432395996e+00
 2.235504755671982e-18 -3.842598019082275e-17  4.297198285372909e-01
 1.020776432395996e+00  4.297198285372909e-01 -3.925846448895819e-17

-3.835586916367846e-17  1.878202035254034e-18  1.019089037850129e+00
 1.878202035254034e-18 -3.606244113035365e-17  4.285566692661703e-01
 1.019089037850129e+00  4.285566692661703e-01 -3.873576237976071e-17

-3.698907042192352e-17  1.548109948131329e-18  1.018276122837160e+00
 1.548109948131329e-18 -3.367758700655933e-17  4.284587037952589e-01
 1.018276122837160e+00  4.284587037952589e-01 -3.825002117551947e-17

-3.587942302772353e-17  1.306092968245941e-18  1.015522997970334e+00
 1.306092968245941e-18 -3.216363936668016e-17  4.279138672382371e-01
 1.015522997970334e+00  4.279138672382371e-01 -3.780649608098624e-17

-3.512304602800340e-17  1.159827993216338e-18  1.012634801601215e+00
 1.159827993216338e-18 -3.094559175394111e-17  4.271823885472602e-01
 1.012634801601215e+00  4.271823885472602e-01 -3.747627716135022e-17

-3.443688512429341e-17  1.007824262099877e-18  1.013239655212803e+00
 1.007824262099877e-18 -2.975901922169145e-17  4.261081339991581e-01
 1.013239655212803e+00  4.261081339991581e-01 -3.725682677003401e-17

-3.403283315898610e-17  9.033081307841960e-19  1.017127639470964e+00
 9.033081307841960e-19 -2.930276551553026e-17  4.260900546189045e-01
 1.017127639470964e+00  4.260900546189045e-01 -3.723505630940117e-17

-3.356188466105803e-17  8.153816371335224e-19  1.019422665513368e+00
 8.153816371335224e-19 -2.884611103635445e-17  4.261441166613112e-01
 1.019422665513368e+00  4.261441166613112e-01 -3.718417871307426e-17

-3.294591180724667e-17  6.969033455626819e-19  1.017601445368706e+00
 6.969033455626819e-19 -2.766180337376190e-17  4.332322580239983e-01
 1.017601445368706e+00  4.332322580239983e-01 -3.691370714182730e-17

-3.251675620275626e-17  6.424892541017101e-19  1.015029572144241e+00
 6.424892541017101e-19 -2.671920631048480e-17  4.257250430265988e-01
 1.015029572144241e+00  4.257250430265988e-01 -3.669580730673493e-17

-3.212402386467650e-17  6.028110252918941e-19  1.011170746188151e+00
 6.028110252918941e-19 -2.563456279470531e-17  4.200020862211041e-01
 1.011170746188151e+00  4.200020862211041e-01 -3.645060427314628e-17

-3.164438944982968e-17  5.150664178788137e-19  1.011221957245255e+00
 5.150664178788137e-19 -2.465199725982066e-17  4.268949707220727e-01
 1.011221957245255e+00  4.268949707220727e-01 -3.628538492848671e-17

-3.129109145310987e-17  4.501985249348001e-19  1.015772050901652e+00
 4.501985249348001e-19 -2.340418799975330e-17  4.279790055552710e-01
 1.015772050901652e+00  4.279790055552710e-01 -3.632211856348740e-17

-3.095228754622844e-17  4.000542425464330e-19  1.016506861914895e+00
 4.000542425464330e-19 -2.301754045838570e-17  4.257525827086235e-01
 1.016506861914895e+00  4.257525827086235e-01 -3.624041385864245e-17

-3.062127139000231e-17  3.563611856930535e-19  1.016520645109043e+00
 3.563611856930535e-19 -2.375474104786607e-17  4.260974801494904e-01
 1.016520645109043e+00  4.260974801494904e-01 -3.613492935989044e-17

-3.024339825526799e-17  3.117411990718401e-19  1.014839708476024e+00
 3.117411990718401e-19 -2.228742646493787e-17  4.259531462471348e-01
 1.014839708476024e+00  4.259531462471348e-01 -3.596352597935709e-17

-2.993201834931432e-17  2.684641694892164e-19  1.018270973734301e+00
 2.684641694892164e-19 -2.274007976001124e-17  4.262376840225584e-01
 1.018270973734301e+00  4.262376840225584e-01 -3.597641952115431e-17

-2.963568755228455e-17  2.331553855492373e-19  1.019991923355844e+00
 2.331553855492373e-19 -2.072519646832026e-17  4.255098894322266e-01
 1.019991923355844e+00  4.255098894322266e-01 -3.594137273061805e-17

-2.935921090524677e-17  2.121467493442343e-19  1.014952356303922e+00
 2.121467493442343e-19 -2.132835419689303e-17  4.282011217839631e-01
 1.014952356303922e+00  4.282011217839631e-01 -3.569447415759202e-17

-2.915598369716029e-17  1.982353420169537e-19  1.012816957923594e+00
 1.982353420169537e-19 -2.182740400849416e-17  4.274943476360513e-01
 1.012816957923594e+00  4.274943476360513e-01 -3.556272606774139e-17

-2.898531950366547e-17  1.774016321904649e-19  1.016734253210498e+00
 1.774016321904649e-19 -2.054281966045037e-17  4.290482926164199e-01
 1.016734253210498e+00  4.290482926164199e-01 -3.563791240227376e-17

-2.888734536266753e-17  1.612773573570425e-19  1.020990171973862e+00
 1.612773573570425e-19 -1.976186700002267e-17  4.271872829263060e-01
 1.020990171973862e+00  4.271872829263060e-01 -3.574437744503499e-17

-2.875521700213411e-17  1.549138890174964e-19  1.019801922834468e+00
 1.549138890174964e-19 -1.879160020051553e-17  4.248327016324777e-01
 1.019801922834468e+00  4.248327016324777e-01 -3.566400749977957e-17

-2.886009017109576e-17  1.348404408004415e-19  1.037679778384056e+00
 1.348404408004415e-19 -2.047751203252086e-17  4.120548534927607e-01
 1.037679778384056e+00  4.120548534927607e-01 -3.627333990448182e-17

-2.854330066338030e-17  1.291188753875351e-19  1.011336242527040e+00
 1.291188753875351e-19 -1.950307555691629e-17  4.453001974586607e-01
 1.011336242527040e+00  4.453001974586607e-01 -3.533549436358912e-17

-2.850484029665758e-17  1.172971478128421e-19  1.015670380512635e+00
 1.172971478128421e-19 -1.925235868622822e-17  4.399703614460116e-01
 1.015670380512635e+00  4.399703614460116e-01 -3.545642216979777e-17

-2.854285985546953e-17  1.175676363461370e-19  1.031255337358465e+00
 1.175676363461370e-19 -1.836452899796790e-17  4.155977065604289e-01
 1.031255337358465e+00  4.155977065604289e-01 -3.596157274632204e-17

-2.843413859021168e-17  1.092628707921365e-19  1.023551837100050e+00
 1.092628707921365e-19 -1.907399659135031e-17  4.322399559852992e-01
 1.023551837100050e+00  4.322399559852992e-01 -3.569055453142380e-17

-2.835122964133847e-17  1.034472794887456e-19  1.020326191435316e+00
 1.034472794887456e-19 -1.966037220351287e-17  4.457740700228857e-01
 1.020326191435316e+00  4.457740700228857e-01 -3.556772318253638e-17

-2.828122548046382e-17  9.974094459351421e-20  1.025629659420715e+00
 9.974094459351421e-20 -1.824714927783998e-17  4.251559625256722e-01
 1.025629659420715e+00  4.251559625256722e-01 -3.571050846183635e-17

-2.812501181976957e-17  9.586093672568686e-20  1.024060959190437e+00
 9.586093672568686e-20 -1.716638027528079e-17  4.178634776673574e-01
 1.024060959190437e+00  4.178634776673574e-01 -3.560270149099212e-17

-2.803660939594413e-17  7.537432062581525e-20  1.021766571418715e+00
 7.537432062581525e-20 -1.790408607543953e-17  4.284387685379315e-01
 1.021766571418715e+00  4.284387685379315e-01 -3.550206948602490e-17

-2.796014636698703e-17  8.391811241253481e-20  1.022002530691317e+00
 8.391811241253481e-20 -1.897268007789024e-17  4.312652931779067e-01
 1.022002530691317e+00  4.312652931779067e-01 -3.549198872701974e-17

-2.783721390982093e-17  7.064033051833754e-20  1.020329625341028e+00
 7.064033051833754e-20 -1.786431443334340e-17  4.266311879495698e-01
 1.020329625341028e+00  4.266311879495698e-01 -3.539939370544004e-17

-2.783506261019850e-17  6.974094775077460e-20  1.026729677364161e+00
 6.974094775077460e-20 -1.764222830794804e-17  4.238527011518401e-01
 1.026729677364161e+00  4.238527011518401e-01 -3.560829753826653e-17

-2.780927465111827e-17  6.115409931489030e-20  1.030786438755414e+00
 6.115409931489030e-20 -1.802615486427479e-17  4.322181037872703e-01
 1.030786438755414e+00  4.322181037872703e-01 -3.573852876894424e-17

-2.757798921460647e-17  6.063516504262444e-20  1.020912689962722e+00
 6.063516504262444e-20 -1.621804593474001e-17  4.274671209601154e-01
 1.020912689962722e+00  4.274671209601154e-01 -3.534579869298877e-17

-2.738104360695840e-17  5.695807916338920e-20  1.014516431139094e+00
 5.695807916338920e-20 -1.623385618210152e-17  4.207587356599551e-01
 1.014516431139094e+00  4.207587356599551e-01 -3.507645360619225e-17

-2.737725805546268e-17  5.777802452990364e-20  1.015853191855559e+00
 5.777802452990364e-20 -1.684773283251761e-17  4.375409824966150e-01
 1.015853191855559e+00  4.375409824966150e-01 -3.512206319670046e-17

-2.732791265339850e-17  4.994905054258149e-20  1.017209939078108e+00
 4.994905054258149e-20 -1.813068592030155e-17  4.399513619103001e-01
 1.017209939078108e+00  4.399513619103001e-01 -3.516076371701528e-17

-2.713136025964709e-17  5.138641048502554e-20  1.013913293049373e+00
 5.138641048502554e-20 -1.770341906610809e-17  4.251424388749324e-01
 1.013913293049373e+00  4.251424388749324e-01 -3.499127324623885e-17

-2.716543395026874e-17  5.037068765897682e-20  1.018458392036900e+00
 5.037068765897682e-20 -1.710245424538942e-17  4.341619709453191e-01
 1.018458392036900e+00  4.341619709453191e-01 -3.514976369272201e-17

-2.710977189523277e-17  4.793328159078849e-20  1.021389008583369e+00
 4.793328159078849e-20 -1.950815770988106e-17  4.281888532902370e-01
 1.021389008583369e+00  4.281888532902370e-01 -3.523746022364674e-17

-2.696654391184331e-17  4.757848204902425e-20  1.019369530625418e+00
 4.757848204902425e-20 -1.685071981676857e-17  4.281916250983926e-01
 1.019369530625418e+00  4.281916250983926e-01 -3.514020562678855e-17

-2.690511088852342e-17  4.795753625756557e-20  1.018443265339684e+00
 4.795753625756557e-20 -1.661858523947506e-17  4.284602796385754e-01
 1.018443265339684e+00  4.284602796385754e-01 -3.509226580227392e-17

-2.684231582314426e-17  4.860091155028300e-20  1.017379117032985e+00
 4.860091155028300e-20 -1.638889832122232e-17  4.284476997605888e-01
 1.017379117032985e+00  4.284476997605888e-01 -3.504005199507656e-17

-2.680221861032787e-17  4.582566155303889e-20  1.018254702862448e+00
 4.582566155303889e-20 -1.924891992685483e-17  4.280251409504500e-01
 1.018254702862448e+00  4.280251409504500e-01 -3.505191870182418e-17

-2.669192796692079e-17  5.042420457323092e-20  1.016879579306356e+00
 5.042420457323092e-20 -1.667068160582474e-17  4.282423248750647e-01
 1.016879579306356e+00  4.282423248750647e-01 -3.499756827577470e-17

-2.665907114769247e-17  4.959425850307302e-20  1.017596833484202e+00
 4.959425850307302e-20 -1.657942263912768e-17  4.279644233934944e-01
 1.017596833484202e+00  4.279644233934944e-01 -3.501256198626568e-17

-2.658730549426359e-17  4.869558430531672e-20  1.018568134871026e+00
 4.869558430531672e-20 -1.647836409630767e-17  4.279265168757511e-01
 1.018568134871026e+00  4.279265168757511e-01 -3.503062445446629e-17

-2.652378075812873e-17  4.779859720356290e-20  1.018549835292949e+00
 4.779859720356290e-20 -1.708806816480432e-17  4.278976933677632e-01
 1.018549835292949e+00  4.278976933677632e-01 -3.502105314053583e-17

-2.647481592682951e-17  4.562318941504720e-20  1.017946247841088e+00
 4.562318941504720e-20 -1.699390808285962e-17  4.278728830999142e-01
 1.017946247841088e+00  4.278728830999142e-01 -3.498387893203953e-17

-2.639107584608420e-17  4.452181025831955e-20  1.017405057433368e+00
 4.452181025831955e-20 -1.708721514712209e-17  4.270418488043156e-01
 1.017405057433368e+00  4.270418488043156e-01 -3.494900474914048e-17

-2.639566633474855e-17  3.886591256168469e-20  1.021006020746017e+00
 3.886591256168469e-20 -1.573084459668434e-17  4.286272043660823e-01
 1.021006020746017e+00  4.286272043660823e-01 -3.507107101875169e-17

-2.635105531827078e-17  4.039029163613433e-20  1.021013787860870e+00
 4.039029163613433e-20 -1.532028452390001e-17  4.290805293928235e-01
 1.021013787860870e+00  4.290805293928235e-01 -3.506093569728136e-17

-2.622807642680771e-17  3.504575538307281e-20  1.017138937908884e+00
 3.504575538307281e-20 -1.566370093726680e-17  4.265552319373537e-01
 1.017138937908884e+00  4.265552319373537e-01 -3.489927577876820e-17

-2.625122389018469e-17  3.662663142300487e-20  1.021424667568491e+00
 3.662663142300487e-20 -1.718061957278906e-17  4.285824649806638e-01
 1.021424667568491e+00  4.285824649806638e-01 -3.504778360679596e-17

-2.622746284400091e-17  3.003275856707666e-20  1.023102873234461e+00
 3.003275856707666e-20 -1.563956421359895e-17  4.289200949920760e-01
 1.023102873234461e+00  4.289200949920760e-01 -3.510229776460665e-17

-2.610642681136339e-17  2.757641044792832e-20  1.017610686055899e+00
 2.757641044792832e-20 -1.595068721612719e-17  4.275984981222236e-01
 1.017610686055899e+00  4.275984981222236e-01 -3.488409699715670e-17

-2.599399675630108e-17  2.595305712455155e-20  1.015742325948136e+00
 2.595305712455155e-20 -1.588812478004191e-17  4.281575538334446e-01
 1.015742325948136e+00  4.281575538334446e-01 -3.479896682266673e-17

-2.600463913775924e-17  2.402144286714158e-20  1.017584344854219e+00
 2.402144286714158e-20 -1.568148775370930e-17  4.286001744430424e-01
 1.017584344854219e+00  4.286001744430424e-01 -3.486059142480998e-17

-2.600934627867775e-17  2.243492063313104e-20  1.018679845540761e+00
 2.243492063313104e-20 -1.544293760206967e-17  4.305565690099752e-01
 1.018679845540761e+00  4.305565690099752e-01 -3.489713746526622e-17

-2.590709383301973e-17  2.119033963866003e-20  1.016495019904091e+00
 2.119033963866003e-20 -1.412524315131204e-17  4.297052647340331e-01
 1.016495019904091e+00  4.297052647340331e-01 -3.479495212017200e-17

-2.580467742483517e-17  2.384402121449009e-20  1.013048805697933e+00
 2.384402121449009e-20 -1.504218266694568e-17  4.280558994392634e-01
 1.013048805697933e+00  4.280558994392634e-01 -3.466213032777691e-17

-2.579061665306143e-17  2.442536118830640e-20  1.012265863899063e+00
 2.442536118830640e-20 -1.548593830992275e-17  4.308632029333537e-01
 1.012265863899063e+00  4.308632029333537e-01 -3.463425253080557e-17

-2.582324468977675e-17  2.516455875198525e-20  1.015542745006534e+00
 2.516455875198525e-20 -1.608421955509047e-17  4.262588355147187e-01
 1.015542745006534e+00  4.262588355147187e-01 -3.474999605481152e-17

-2.588353228905429e-17  2.712745082812310e-20  1.020193710443697e+00
 2.712745082812310e-20 -1.400378939425601e-17  4.317074177054469e-01
 1.020193710443697e+00  4.317074177054469e-01 -3.491758374631599e-17

-2.588648053026034e-17  2.652027734838941e-20  1.022681715208356e+00
 2.652027734838941e-20 -1.593427137446341e-17  4.335240993056795e-01
 1.022681715208356e+00  4.335240993056795e-01 -3.501549772769262e-17

-2.576132880912418e-17  2.574006109539373e-20  1.015818868863346e+00
 2.574006109539373e-20 -1.495517033007279e-17  4.311298520189499e-01
 1.015818868863346e+00  4.311298520189499e-01 -3.475010943742223e-17

-2.572940347178847e-17  2.078762808454693e-20  1.016458979314377e+00
 2.078762808454693e-20 -1.423303246193930e-17  4.168072219914617e-01
 1.016458979314377e+00  4.168072219914617e-01 -3.476033514234710e-17

-2.596338827397485e-17  2.857779866978487e-20  1.028962190885553e+00
 2.857779866978487e-20 -1.420913607828112e-17  4.355892220512682e-01
 1.028962190885553e+00  4.355892220512682e-01 -3.523848880747289e-17

-2.612943154978662e-17  3.033328389053919e-20  1.041464579049388e+00
 3.033328389053919e-20 -1.607004203915072e-17  4.348372605777130e-01
 1.041464579049388e+00  4.348372605777130e-01 -3.571192941297150e-17

-2.558455135564212e-17  3.942989311742205e-20  1.011572992088517e+00
 3.942989311742205e-20 -1.402619819316987e-17  4.294632952045546e-01
 1.011572992088517e+00  4.294632952045546e-01 -3.457448077597972e-17

-2.554683273997344e-17  3.664140720478667e-20  1.013777445407816e+00
 3.664140720478667e-20 -1.555726175930344e-17  4.221334493340543e-01
 1.013777445407816e+00  4.221334493340543e-01 -3.464375122903940e-17

-2.560755553782029e-17  4.271988062771691e-20  1.014384222233049e+00
 4.271988062771691e-20 -1.407633785972925e-17  4.348975797475624e-01
 1.014384222233049e+00  4.348975797475624e-01 -3.468852367499436e-17

-2.570952773503655e-17  4.306481622046812e-20  1.020559481345585e+00
 4.306481622046812e-20 -1.654764194584331e-17  4.400210363382411e-01
 1.020559481345585e+00  4.400210363382411e-01 -3.492383729965896e-17

-2.571909370546174e-17  4.655691366802868e-20  1.024683771988031e+00
 4.655691366802868e-20 -1.356204658137116e-17  4.294217901029291e-01
 1.024683771988031e+00  4.294217901029291e-01 -3.506858066837993e-17

-2.565554368776715e-17  4.823950701202304e-20  1.020887598821955e+00
 4.823950701202304e-20 -1.388120070024188e-17  4.293724714462462e-01
 1.020887598821955e+00  4.293724714462462e-01 -3.493058575030279e-17

-2.568375162855166e-17  4.974787635704663e-20  1.026063895464694e+00
 4.974787635704663e-20 -1.495652523567689e-17  4.256274479840166e-01
 1.026063895464694e+00  4.256274479840166e-01 -3.511251981678195e-17

-2.564267608106363e-17  4.649355718152576e-20  1.018851881022696e+00
 4.649355718152576e-20 -1.377821733619582e-17  4.427108870704054e-01
 1.018851881022696e+00  4.427108870704054e-01 -3.487072124141287e-17

-2.569607977042622e-17  5.140585661259447e-20  1.022805412247725e+00
 5.140585661259447e-20 -1.310748584045910e-17  4.371731475585308e-01
 1.022805412247725e+00  4.371731475585308e-01 -3.500793977802643e-17

-2.575044608332469e-17  5.345730043975862e-20  1.033522689408480e+00
 5.345730043975862e-20 -1.529197561998133e-17  4.199928125729531e-01
 1.033522689408480e+00  4.199928125729531e-01 -3.537001163654478e-17

-2.558110003675036e-17  4.518600049987339e-20  1.021658211927458e+00
 4.518600049987339e-20 -1.359649514498602e-17  4.307192689790168e-01
 1.021658211927458e+00  4.307192689790168e-01 -3.495211635599226e-17

-2.558941763857129e-17  4.027180356743651e-20  1.022821058098259e+00
 4.027180356743651e-20 -1.444584723460245e-17  4.291017021030433e-01
 1.022821058098259e+00  4.291017021030433e-01 -3.499020731514416e-17

-2.565401853569666e-17  3.954935260268562e-20  1.028378522883278e+00
 3.954935260268562e-20 -1.489540066096736e-17  4.306677246564925e-01
 1.028378522883278e+00  4.306677246564925e-01 -3.519448751195798e-17

-2.565327499756044e-17  3.426798766420664e-20  1.030185411748314e+00
 3.426798766420664e-20 -1.539373368472102e-17  4.271672631836260e-01
 1.030185411748314e+00  4.271672631836260e-01 -3.525440064561674e-17

-2.566540408062296e-17  3.507197623621464e-20  1.031224901882390e+00
 3.507197623621464e-20 -1.614320160456389e-17  4.316325207287097e-01
 1.031224901882390e+00  4.316325207287097e-01 -3.529226595112777e-17

-2.564769055180999e-17  1.915816508658099e-20  1.030346619173332e+00
 1.915816508658099e-20 -1.439241635731868e-17  4.353150422269762e-01
 1.030346619173332e+00  4.353150422269762e-01 -3.525419828140946e-17

-2.557211829771386e-17  1.708495499876467e-20  1.030024546762207e+00
 1.708495499876467e-20 -1.495657096145272e-17  4.250017181069751e-01
 1.030024546762207e+00  4.250017181069751e-01 -3.521649959549515e-17

-2.552574355714148e-17  6.943898513500000e-21  1.026797520692512e+00
 6.943898513500000e-21 -1.474706265450212e-17  4.331762550959139e-01
 1.026797520692512e+00  4.331762550959139e-01 -3.510036065828240e-17

-2.526341915993563e-17  4.906265405535799e-21  1.014209489233411e+00
 4.906265405535799e-21 -1.439535258881040e-17  4.311228691897778e-01
 1.014209489233411e+00  4.311228691897778e-01 -3.460537011215256e-17

-2.517867940216690e-17 -2.039171781791414e-21  1.011920785514858e+00
-2.039171781791414e-21 -1.383606599500926e-17  4.272268539512613e-01
 1.011920785514858e+00  4.272268539512613e-01 -3.449997737099238e-17

-2.526997383285640e-17 -7.327086644649608e-22  1.016801759281655e+00
-7.327086644649608e-22 -1.450545744652647e-17  4.342627506015031e-01
 1.016801759281655e+00  4.342627506015031e-01 -3.469425433600188e-17

-2.535319526729353e-17 -4.062223608300847e-21  1.022426900249015e+00
-4.062223608300847e-21 -1.486952541325756e-17  4.301405521527104e-01
 1.022426900249015e+00  4.301405521527104e-01 -3.489661757226749e-17

-2.537114526489937e-17 -8.418224598727603e-21  1.024908263189199e+00
-8.418224598727603e-21 -1.442561368346179e-17  4.312887798891037e-01
 1.024908263189199e+00  4.312887798891037e-01 -3.498054260720732e-17

-2.531860667069578e-17 -9.989071951691439e-21  1.022922524087490e+00
-9.989071951691439e-21 -1.376783633866785e-17  4.299276514473228e-01
 1.022922524087490e+00  4.299276514473228e-01 -3.489774125951114e-17

-2.526190903314572e-17 -1.563605420606359e-20  1.020704222098603e+00
-1.563605420606359e-20 -1.459355617307391e-17  4.308544079813840e-01
 1.020704222098603e+00  4.308544079813840e-01 -3.480284644272002e-17

-2.521756061202876e-17 -1.346695737571019e-20  1.018771794800284e+00
-1.346695737571019e-20 -1.403643862625177e-17  4.313274194956682e-01
 1.018771794800284e+00  4.313274194956682e-01 -3.472974334789508e-17

-2.517807770766843e-17 -1.000696579049022e-20  1.017610461279293e+00
-1.000696579049022e-20 -1.343112643978227e-17  4.310175616659507e-01
 1.017610461279293e+00  4.310175616659507e-01 -3.467940675599619e-17

-2.517823092518926e-17 -5.606343570300240e-21  1.018109388931827e+00
-5.606343570300240e-21 -1.308378098323160e-17  4.316750647807658e-01
 1.018109388931827e+00  4.316750647807658e-01 -3.469280160680106e-17

-2.514307062076965e-17 -8.203982838374816e-21  1.017221723940556e+00
-8.203982838374816e-21 -1.370674695020331e-17  4.306644805239616e-01
 1.017221723940556e+00  4.306644805239616e-01 -3.466290455861486e-17

-2.512651946771764e-17 -3.699526031822057e-21  1.016445270243656e+00
-3.699526031822057e-21 -1.362631588996663e-17  4.304930731392350e-01
 1.016445270243656e+00  4.304930731392350e-01 -3.463602744237886e-17

-2.510366317543319e-17 -2.237330393047301e-23  1.015362672401337e+00
-2.237330393047301e-23 -1.354317909273493e-17  4.303577819869319e-01
 1.015362672401337e+00  4.303577819869319e-01 -3.459782347338134e-17

-2.507517743164762e-17  1.029373963844043e-21  1.013968896267226e+00
 1.029373963844043e-21 -1.345768502791556e-17  4.303783242373622e-01
 1.013968896267226e+00  4.303783242373622e-01 -3.454545641129842e-17

-2.504709484193787e-17 -1.013198834799155e-21  1.014030547696394e+00
-1.013198834799155e-21 -1.403359078392701e-17  4.302400088864277e-01
 1.014030547696394e+00  4.302400088864277e-01 -3.453396214857489e-17

-2.502792697084470e-17 -4.869742700159222e-21  1.013699515250094e+00
-4.869742700159222e-21 -1.349614172515035e-17  4.307500051035219e-01
 1.013699515250094e+00  4.307500051035219e-01 -3.452019992357532e-17

-2.503165315417590e-17  3.323525705005061e-22  1.014600091978014e+00
 3.323525705005061e-22 -1.328674338225433e-17  4.308088916686063e-01
 1.014600091978014e+00  4.308088916686063e-01 -3.454683031224306e-17

-2.503356315333901e-17  1.647998409422819e-21  1.014736348109866e+00
 1.647998409422819e-21 -1.406989792567767e-17  4.317925482321865e-01
 1.014736348109866e+00  4.317925482321865e-01 -3.455247499352071e-17

-2.507535780201849e-17  2.649023174745054e-20  1.015781561816755e+00
 2.649023174745054e-20 -1.310468191166029e-17  4.277056369236007e-01
 1.015781561816755e+00  4.277056369236007e-01 -3.458054256344747e-17

-2.500047943096998e-17  1.411534613593134e-20  1.013512451082809e+00
 1.411534613593134e-20 -1.352134575748089e-17  4.298024641017375e-01
 1.013512451082809e+00  4.298024641017375e-01 -3.450474208061088e-17

-2.503584253570037e-17  2.578920081204836e-20  1.014688636761962e+00
 2.578920081204836e-20 -1.335797952829874e-17  4.326748761248102e-01
 1.014688636761962e+00  4.326748761248102e-01 -3.455393153967549e-17

-2.503076896180566e-17  3.059789222278757e-20  1.015134820146210e+00
 3.059789222278757e-20 -1.279393686422937e-17  4.295913623838063e-01
 1.015134820146210e+00  4.295913623838063e-01 -3.457822060069992e-17

-2.500820137001412e-17  4.028062657120574e-20  1.012339101941732e+00
 4.028062657120574e-20 -1.360688308272687e-17  4.337428995382727e-01
 1.012339101941732e+00  4.337428995382727e-01 -3.449142604874464e-17

-2.504332016573923e-17  4.442610056002239e-20  1.019875764131887e+00
 4.442610056002239e-20 -1.443437709456206e-17  4.142381650258439e-01
 1.019875764131887e+00  4.142381650258439e-01 -3.474305729674092e-17

-2.512657699704015e-17  5.631523152585256e-20  1.024554476585201e+00
 5.631523152585256e-20 -1.414396706459662e-17  4.154798476841938e-01
 1.024554476585201e+00  4.154798476841938e-01 -3.493103698973269e-17

-2.497493829756884e-17  6.775779651854875e-20  1.004722249060754e+00
 6.775779651854875e-20 -1.288484557894382e-17  4.494157567355336e-01
 1.004722249060754e+00  4.494157567355336e-01 -3.424443720758043e-17

-2.513942437263611e-17  6.672208228805208e-20  1.020636994720241e+00
 6.672208228805208e-20 -1.250864102060254e-17  4.333575010891635e-01
 1.020636994720241e+00  4.333575010891635e-01 -3.481846759261068e-17

-2.499549043563366e-17  7.463909180703698e-20  1.013483324610973e+00
 7.463909180703698e-20 -1.430095296181991e-17  4.260222057424545e-01
 1.013483324610973e+00  4.260222057424545e-01 -3.455354049146364e-17

-2.496222550932934e-17  8.709975742303221e-20  1.010559159964887e+00
 8.709975742303221e-20 -1.355788548198219e-17  4.282413201226337e-01
 1.010559159964887e+00  4.282413201226337e-01 -3.444922994780477e-17

-2.499489885760335e-17  9.199953277471262e-20  1.013897977826202e+00
 9.199953277471262e-20 -1.326374131202029e-17  4.223307871084602e-01
 1.013897977826202e+00  4.223307871084602e-01 -3.457461364276089e-17

-2.508092980822783e-17  1.069007198853118e-19  1.014570924554896e+00
 1.069007198853118e-19 -1.251903304200619e-17  4.330037803943392e-01
 1.014570924554896e+00  4.330037803943392e-01 -3.461959610580943e-17

-2.489145276872361e-17  7.273326975813711e-20  1.012819197610715e+00
 7.273326975813711e-20 -1.425492971064372e-17  4.335700313806737e-01
 1.012819197610715e+00  4.335700313806737e-01 -3.456054036568983e-17

-2.536233532110028e-17  1.832798313047717e-19  1.007941313477309e+00
 1.832798313047717e-19 -1.426337811291884e-17  4.226284133680840e-01
 1.007941313477309e+00  4.226284133680840e-01 -3.436741407219997e-17

-1.239246551114831e-16  1.652054970100330e-17  1.006401371466142e+00
 1.652054970100330e-17 -1.523482014423946e-17  4.269679411862684e-01
 1.006401371466142e+00  4.269679411862684e-01 -3.432321865971888e-17

-1.238762023531478e-16  1.652683981678543e-17  1.003605869923256e+00
 1.652683981678543e-17 -1.562661246117861e-17  4.271741397786092e-01
 1.003605869923256e+00  4.271741397786092e-01 -3.422488019884654e-17

-1.238430917940191e-16  1.652919628864481e-17  1.002532230573828e+00
 1.652919628864481e-17 -1.618579601651654e-17  4.193680134534105e-01
 1.002532230573828e+00  4.193680134534105e-01 -3.418890423005912e-17

-2.483311787719999e-17  1.610524726213634e-19  9.791370441016732e-01
 1.610524726213634e-19 -1.126342977598479e-17  4.682897979196465e-01
 9.791370441016732e-01  4.682897979196465e-01 -3.339617401797132e-17

-2.483238829429363e-17  1.655735431694413e-19  9.806964100693610e-01
 1.655735431694413e-19 -1.373735783216430e-17  4.573683702420276e-01
 9.806964100693610e-01  4.573683702420276e-01 -3.345216364511938e-17

-2.506430150777684e-17  1.437295480568849e-19  1.024006923868346e+00
 1.437295480568849e-19 -1.406542105058523e-17  3.909814745115299e-01
 1.024006923868346e+00  3.909814745115299e-01 -3.493984325972356e-17

-2.487262764829371e-17  1.466271362875097e-19  1.006038771375785e+00
 1.466271362875097e-19 -1.392299894727155e-17  4.291450855746844e-01
 1.006038771375785e+00  4.291450855746844e-01 -3.434152556002362e-17

-2.507401178394346e-17  1.411693545931521e-19  1.018550556920761e+00
 1.411693545931521e-19 -1.261761059928091e-17  4.304969992510523e-01
 1.018550556920761e+00  4.304969992510523e-01 -3.482122726171492e-17

-2.504570019405867e-17  1.409465271729269e-19  1.018076984729587e+00
 1.409465271729269e-19 -1.378650242955671e-17  4.214099498896566e-01
 1.018076984729587e+00  4.214099498896566e-01 -3.480341594003163e-17

-2.506014909183327e-17  1.550661489704154e-19  1.015940804336627e+00
 1.550661489704154e-19 -1.544472939840810e-17  4.219605914323972e-01
 1.015940804336627e+00  4.219605914323972e-01 -3.471960948784825e-17

-2.496651721284980e-17  1.481244366470819e-19  1.012384958904448e+00
 1.481244366470819e-19 -1.258545137279673e-17  4.238313125150331e-01
 1.012384958904448e+00  4.238313125150331e-01 -3.459535928049951e-17

-2.493935411550926e-17  1.504951136268083e-19  1.010597486150571e+00
 1.504951136268083e-19 -1.261464956877885e-17  4.244426675198489e-01
 1.010597486150571e+00  4.244426675198489e-01 -3.452970702246073e-17


CELL_DATA 1323
SCALARS dislocation_index int
LOOKUP_TABLE default
0
1
2
3
4
5
6
7
8
9
10
11
12
13
14
15
16
17
18
19
20
21
22
23
24
25
26
27
28
29
30
31
32
33
34
35
36
37
38
39
40
41
42
43
44
45
46
47
48
49
50
51
52
53
54
55
56
57
58
59
60
61
62
63
64
65
66
67
68
69
70
71
72
73
74
75
76
77
78
79
80
81
82
83
84
85
86
87
88
89
90
91
92
93
94
95
96
97
98
99
100
101
102
103
104
105
106
107
108
109
110
111
112
113
114
115
116
117
118
119
120
121
122
123
124
125
126
127
128
129
130
131
132
133
134
135
136
137
138
139
140
141
142
143
144
145
146
147
148
149
150
151
152
153
154
155
156
157
158
159
160
161
162
163
164
165
166
167
168
169
170
171
172
173
174
175
176
177
178
179
180
181
182
183
184
185
186
187
188
189
190
191
192
193
194
195
196
197
198
199
200
201
202
203
204
205
206
207
208
209
210
211
212
213
214
215
216
217
218
219
220
221
222
223
224
225
226
227
228
229
230
231
232
233
234
235
236
237
238
239
240
241
242
243
244
245
246
247
248
249
250
251
252
253
254
255
256
257
258
259
260
261
262
263
264
265
266
267
268
269
270
271
272
273
274
275
276
277
278
279
280
281
282
283
284
285
286
287
288
289
290
291
292
293
294
295
296
297
298
299
300
301
302
303
304
305
306
307
308
309
310
311
312
313
314
315
316
317
318
319
320
321
322
323
324
325
326
327
328
329
330
331
332
333
334
335
336
337
338
339
340
341
342
343
344
345
346
347
348
349
350
351
352
353
354
355
356
357
358
359
360
361
362
363
364
365
366
367
368
369
370
371
372
373
374
375
376
377
378
379
380
381
382
383
384
385
386
387
388
389
390
391
392
393
394
395
396
397
398
399
400
401
402
403
404
405
406
407
408
409
410
411
412
413
414
415
416
417
418
419
420
421
422
423
424
425
426
427
428
429
430
431
432
433
434
435
436
437
438
439
440
441
442
443
444
445
446
447
448
449
450
451
452
453
454
455
456
457
458
459
460
461
462
463
464
465
466
467
468
469
470
471
472
473
474
475
476
477
478
479
480
481
482
483
484
485
486
487
488
489
490
491
492
493
494
495
496
497
498
499
500
501
502
503
504
505
506
507
508
509
510
511
512
513
514
515
516
517
518
519
520
521
522
523
524
525
526
527
528
529
530
531
532
533
534
535
536
537
538
539
540
541
542
543
544
545
546
547
548
549
550
551
552
553
554
555
556
557
558
559
560
561
562
563
564
565
566
567
568
569
570
571
572
573
574
575
576
577
578
579
580
581
582
583
584
585
586
587
588
589
590
591
592
593
594
595
596
597
598
599
600
601
602
603
604
605
606
607
608
609
610
611
612
613
614
615
616
617
618
619
620
621
622
623
624
625
626
627
628
629
630
631
632
633
634
635
636
637
638
639
640
641
642
643
644
645
646
647
648
649
650
651
652
653
654
655
656
657
658
659
660
661
662
663
664
665
666
667
668
669
670
671
672
673
674
675
676
677
678
679
680
681
682
683
684
685
686
687
688
689
690
691
692
693
694
695
696
697
698
699
700
701
702
703
704
705
706
707
708
709
710
711
712
713
714
715
716
717
718
719
720
721
722
723
724
725
726
727
728
729
730
731
732
733
734
735
736
737
738
739
740
741
742
743
744
745
746
747
748
749
750
751
752
753
754
755
756
757
758
759
760
761
762
763
764
765
766
767
768
769
770
771
772
773
774
775
776
777
778
779
780
781
782
783
784
785
786
787
788
789
790
791
792
793
794
795
796
797
798
799
800
801
802
803
804
805
806
807
808
809
810
811
812
813
814
815
816
817
818
819
820
821
822
823
824
825
826
827
828
829
830
831
832
833
834
835
836
837
838
839
840
841
842
843
844
845
846
847
848
849
850
851
852
853
854
855
856
857
858
859
860
861
862
863
864
865
866
867
868
869
870
871
872
873
874
875
876
877
878
879
880
881
882
883
884
885
886
887
888
889
890
891
892
893
894
895
896
897
898
899
900
901
902
903
904
905
906
907
908
909
910
911
912
913
914
915
916
917
918
919
920
921
922
923
924
925
926
927
928
929
930
931
932
933
934
935
936
937
938
939
940
941
942
943
944
945
946
947
948
949
950
951
952
953
954
955
956
957
958
959
960
961
962
963
964
965
966
967
968
969
970
971
972
973
974
975
976
977
978
979
980
981
982
983
984
985
986
987
988
989
990
991
992
993
994
995
996
997
998
999
1000
1001
1002
1003
1004
1005
1006
1007
1008
1009
1010
1011
1012
1013
1014
1015
1016
1017
1018
1019
1020
1021
1022
1023
1024
1025
1026
1027
1028
1029
1030
1031
1032
1033
1034
1035
1036
1037
1038
1039
1040
1041
1042
1043
1044
1045
1046
1047
1048
1049
1050
1051
1052
1053
1054
1055
1056
1057
1058
1059
1060
1061
1062
1063
1064
1065
1066
1067
1068
1069
1070
1071
1072
1073
1074
1075
1076
1077
1078
1079
1080
1081
1082
1083
1084
1085
1086
1087
1088
1089
1090
1091
1092
1093
1094
1095
1096
1097
1098
1099
1100
1101
1102
1103
1104
1105
1106
1107
1108
1109
1110
1111
1112
1113
1114
1115
1116
1117
1118
1119
1120
1121
1122
1123
1124
1125
1126
1127
1128
1129
1130
1131
1132
1133
1134
1135
1136
1137
1138
1139
1140
1141
1142
1143
1144
1145
1146
1147
1148
1149
1150
1151
1152
1153
1154
1155
1156
1157
1158
1159
1160
1161
1162
1163
1164
1165
1166
1167
1168
1169
1170
1171
1172
1173
1174
1175
1176
1177
1178
1179
1180
1181
1182
1183
1184
1185
1186
1187
1188
1189
1190
1191
1192
1193
1194
1195
1196
1197
1198
1199
1200
1201
1202
1203
1204
1205
1206
1207
1208
1209
1210
1211
1212
1213
1214
1215
1216
1217
1218
1219
1220
1221
1222
1223
1224
1225
1226
1227
1228
1229
1230
1231
1232
1233
1234
1235
1236
1237
1238
1239
1240
1241
1242
1243
1244
1245
1246
1247
1248
1249
1250
1251
1252
1253
1254
1255
1256
1257
1258
1259
1260
1261
1262
1263
1264
1265
1266
1267
1268
1269
1270
1271
1272
1273
1274
1275
1276
1277
1278
1279
1280
1281
1282
1283
1284
1285
1286
1287
1288
1289
1290
1291
1292
1293
1294
1295
1296
1297
1298
1299
1300
1301
1302
1303
1304
1305
1306
1307
1308
1309
1310
1311
1312
1313
1314
1315
1316
1317
1318
1319
1320
1321
1322

VECTORS burgers_vector_global double
-1.429999999999999e+00 -8.256108849411650e-01  3.393140768766017e-17
 1.429999999999999e+00  8.256108849411650e-01 -3.393140768766017e-17
-1.429999999999999e+00 -8.256108849411650e-01  3.393140768766017e-17
-1.429999999999999e+00 -8.256108849411650e-01  3.393140768766017e-17
-1.429999999999999e+00 -8.256108849411650e-01  3.393140768766017e-17
-1.429999999999999e+00 -8.256108849411650e-01  3.393140768766017e-17
-1.429999999999999e+00 -8.256108849411650e-01  3.393140768766017e-17
-1.429999999999999e+00 -8.256108849411650e-01  3.393140768766017e-17
-1.429999999999999e+00 -8.256108849411650e-01  3.393140768766017e-17
-1.429999999999999e+00 -8.256108849411650e-01  3.393140768766017e-17
-1.429999999999999e+00 -8.256108849411650e-01  3.393140768766017e-17
-1.429999999999999e+00 -8.256108849411650e-01  3.393140768766017e-17
-1.429999999999999e+00 -8.256108849411650e-01  3.393140768766017e-17
-1.429999999999999e+00 -8.256108849411650e-01  3.393140768766017e-17
-1.429999999999999e+00 -8.256108849411650e-01  3.393140768766017e-17
-1.429999999999999e+00 -8.256108849411650e-01  3.393140768766017e-17
-1.429999999999999e+00 -8.256108849411650e-01  3.393140768766017e-17
-1.429999999999999e+00 -8.256108849411650e-01  3.393140768766017e-17
-1.429999999999999e+00 -8.256108849411650e-01  3.393140768766017e-17
-1.429999999999999e+00 -8.256108849411650e-01  3.393140768766017e-17
-1.429999999999999e+00 -8.256108849411650e-01  3.393140768766017e-17
-1.429999999999999e+00 -8.256108849411650e-01  3.393140768766017e-17
-1.429999999999999e+00 -8.256108849411650e-01  3.393140768766017e-17
-1.429999999999999e+00 -8.256108849411650e-01  3.393140768766017e-17
-1.429999999999999e+00 -8.256108849411650e-01  3.393140768766017e-17
-1.429999999999999e+00 -8.256108849411650e-01  3.393140768766017e-17
-1.429999999999999e+00 -8.256108849411650e-01  3.393140768766017e-17
-1.429999999999999e+00 -8.256108849411650e-01  3.393140768766017e-17
-1.429999999999999e+00 -8.256108849411650e-01  3.393140768766017e-17
-1.429999999999999e+00 -8.256108849411650e-01  3.393140768766017e-17
-1.429999999999999e+00 -8.256108849411650e-01  3.393140768766017e-17
-1.429999999999999e+00 -8.256108849411650e-01  3.393140768766017e-17
-1.429999999999999e+00 -8.256108849411650e-01  3.393140768766017e-17
-1.429999999999999e+00 -8.256108849411650e-01  3.393140768766017e-17
-1.429999999999999e+00 -8.256108849411650e-01  3.393140768766017e-17
-1.429999999999999e+00 -8.256108849411650e-01  3.393140768766017e-17
-1.429999999999999e+00 -8.256108849411650e-01  3.393140768766017e-17
-1.429999999999999e+00 -8.256108849411650e-01  3.393140768766017e-17
-1.429999999999999e+00 -8.256108849411650e-01  3.393140768766017e-17
-1.429999999999999e+00 -8.256108849411650e-01  3.393140768766017e-17
-1.429999999999999e+00 -8.256108849411650e-01  3.393140768766017e-17
-1.429999999999999e+00 -8.256108849411650e-01  3.393140768766017e-17
-1.429999999999999e+00 -8.256108849411650e-01  3.393140768766017e-17
-1.429999999999999e+00 -8.256108849411650e-01  3.393140768766017e-17
-1.429999999999999e+00 -8.256108849411650e-01  3.393140768766017e-17
-1.429999999999999e+00 -8.256108849411650e-01  3.393140768766017e-17
-1.429999999999999e+00 -8.256108849411650e-01  3.393140768766017e-17
-1.429999999999999e+00 -8.256108849411650e-01  3.393140768766017e-17
-1.429999999999999e+00 -8.256108849411650e-01  3.393140768766017e-17
-1.429999999999999e+00 -8.256108849411650e-01  3.393140768766017e-17
-1.429999999999999e+00 -8.256108849411650e-01  3.393140768766017e-17
-1.429999999999999e+00 -8.256108849411650e-01  3.393140768766017e-17
-1.429999999999999e+00 -8.256108849411650e-01  3.393140768766017e-17
-1.429999999999999e+00 -8.256108849411650e-01  3.393140768766017e-17
-1.429999999999999e+00 -8.256108849411650e-01  3.393140768766017e-17
-1.429999999999999e+00 -8.256108849411650e-01  3.393140768766017e-17
-1.429999999999999e+00 -8.256108849411650e-01  3.393140768766017e-17
-1.429999999999999e+00 -8.256108849411650e-01  3.393140768766017e-17
-1.429999999999999e+00 -8.256108849411650e-01  3.393140768766017e-17
-1.429999999999999e+00 -8.256108849411650e-01  3.393140768766017e-17
-1.429999999999999e+00 -8.256108849411650e-01  3.393140768766017e-17
-1.429999999999999e+00 -8.256108849411650e-01  3.393140768766017e-17
-1.429999999999999e+00 -8.256108849411650e-01  3.393140768766017e-17
-1.429999999999999e+00 -8.256108849411650e-01  3.393140768766017e-17
-1.429999999999999e+00 -8.256108849411650e-01  3.393140768766017e-17
-1.429999999999999e+00 -8.256108849411650e-01  3.393140768766017e-17
-1.429999999999999e+00 -8.256108849411650e-01  3.393140768766017e-17
-1.429999999999999e+00 -8.256108849411650e-01  3.393140768766017e-17
-1.429999999999999e+00 -8.256108849411650e-01  3.393140768766017e-17
-1.429999999999999e+00 -8.256108849411650e-01  3.393140768766017e-17
-1.429999999999999e+00 -8.256108849411650e-01  3.393140768766017e-17
-1.429999999999999e+00 -8.256108849411650e-01  3.393140768766017e-17
-1.429999999999999e+00 -8.256108849411650e-01  3.393140768766017e-17
-1.429999999999999e+00 -8.256108849411650e-01  3.393140768766017e-17
-1.429999999999999e+00 -8.256108849411650e-01  3.393140768766017e-17
-1.429999999999999e+00 -8.256108849411650e-01  3.393140768766017e-17
-1.429999999999999e+00 -8.256108849411650e-01  3.393140768766017e-17
-1.429999999999999e+00 -8.256108849411650e-01  3.393140768766017e-17
-1.429999999999999e+00 -8.256108849411650e-01  3.393140768766017e-17
-1.429999999999999e+00 -8.256108849411650e-01  3.393140768766017e-17
-1.429999999999999e+00 -8.256108849411650e-01  3.393140768766017e-17
-1.429999999999999e+00 -8.256108849411650e-01  3.393140768766017e-17
-1.429999999999999e+00 -8.256108849411650e-01  3.393140768766017e-17
-1.429999999999999e+00 -8.256108849411650e-01  3.393140768766017e-17
-1.429999999999999e+00 -8.256108849411650e-01  3.393140768766017e-17
-1.429999999999999e+00 -8.256108849411650e-01  3.393140768766017e-17
-1.429999999999999e+00 -8.256108849411650e-01  3.393140768766017e-17
-1.429999999999999e+00 -8.256108849411650e-01  3.393140768766017e-17
-1.429999999999999e+00 -8.256108849411650e-01  3.393140768766017e-17
-1.429999999999999e+00 -8.256108849411650e-01  3.393140768766017e-17
-1.429999999999999e+00 -8.256108849411650e-01  3.393140768766017e-17
-1.429999999999999e+00 -8.256108849411650e-01  3.393140768766017e-17
-1.429999999999999e+00 -8.256108849411650e-01  3.393140768766017e-17
-1.429999999999999e+00 -8.256108849411650e-01  3.393140768766017e-17
-1.429999999999999e+00 -8.256108849411650e-01  3.393140768766017e-17
-1.429999999999999e+00 -8.256108849411650e-01  3.393140768766017e-17
-1.429999999999999e+00 -8.256108849411650e-01  3.393140768766017e-17
-1.429999999999999e+00 -8.256108849411650e-01  3.393140768766017e-17
-1.429999999999999e+00 -8.256108849411650e-01  3.393140768766017e-17
-1.429999999999999e+00 -8.256108849411650e-01  3.393140768766017e-17
-1.429999999999999e+00 -8.256108849411650e-01  3.393140768766017e-17
-1.429999999999999e+00 -8.256108849411650e-01  3.393140768766017e-17
-1.429999999999999e+00 -8.256108849411650e-01  3.393140768766017e-17
-1.429999999999999e+00 -8.256108849411650e-01  3.393140768766017e-17
-1.429999999999999e+00 -8.256108849411650e-01  3.393140768766017e-17
-1.429999999999999e+00 -8.256108849411650e-01  3.393140768766017e-17
-1.429999999999999e+00 -8.256108849411650e-01  3.393140768766017e-17
-1.429999999999999e+00 -8.256108849411650e-01  3.393140768766017e-17
-1.429999999999999e+00 -8.256108849411650e-01  3.393140768766017e-17
-1.429999999999999e+00 -8.256108849411650e-01  3.393140768766017e-17
-1.429999999999999e+00 -8.256108849411650e-01  3.393140768766017e-17
-1.429999999999999e+00 -8.256108849411650e-01  3.393140768766017e-17
-1.429999999999999e+00 -8.256108849411650e-01  3.393140768766017e-17
-1.429999999999999e+00 -8.256108849411650e-01  3.393140768766017e-17
-1.429999999999999e+00 -8.256108849411650e-01  3.393140768766017e-17
-1.429999999999999e+00 -8.256108849411650e-01  3.393140768766017e-17
-1.429999999999999e+00 -8.256108849411650e-01  3.393140768766017e-17
-1.429999999999999e+00 -8.256108849411650e-01  3.393140768766017e-17
-1.429999999999999e+00 -8.256108849411650e-01  3.393140768766017e-17
-1.429999999999999e+00 -8.256108849411650e-01  3.393140768766017e-17
-1.429999999999999e+00 -8.256108849411650e-01  3.393140768766017e-17
-1.429999999999999e+00 -8.256108849411650e-01  3.393140768766017e-17
-1.429999999999999e+00 -8.256108849411650e-01  3.393140768766017e-17
-1.429999999999999e+00 -8.256108849411650e-01  3.393140768766017e-17
-1.429999999999999e+00 -8.256108849411650e-01  3.393140768766017e-17
-1.429999999999999e+00 -8.256108849411650e-01  3.393140768766017e-17
-1.429999999999999e+00 -8.256108849411650e-01  3.393140768766017e-17
-1.429999999999999e+00 -8.256108849411650e-01  3.393140768766017e-17
-1.429999999999999e+00 -8.256108849411650e-01  3.393140768766017e-17
-1.429999999999999e+00 -8.256108849411650e-01  3.393140768766017e-17
-1.429999999999999e+00 -8.256108849411650e-01  3.393140768766017e-17
-1.429999999999999e+00 -8.256108849411650e-01  3.393140768766017e-17
-1.429999999999999e+00 -8.256108849411650e-01  3.393140768766017e-17
-1.429999999999999e+00 -8.256108849411650e-01  3.393140768766017e-17
-1.429999999999999e+00 -8.256108849411650e-01  3.393140768766017e-17
-1.429999999999999e+00 -8.256108849411650e-01  3.393140768766017e-17
-1.429999999999999e+00 -8.256108849411650e-01  3.393140768766017e-17
-1.429999999999999e+00 -8.256108849411650e-01  3.393140768766017e-17
-1.429999999999999e+00 -8.256108849411650e-01  3.393140768766017e-17
-1.429999999999999e+00 -8.256108849411650e-01  3.393140768766017e-17
-1.429999999999999e+00 -8.256108849411650e-01  3.393140768766017e-17
-1.429999999999999e+00 -8.256108849411650e-01  3.393140768766017e-17
-1.429999999999999e+00 -8.256108849411650e-01  3.393140768766017e-17
-1.429999999999999e+00 -8.256108849411650e-01  3.393140768766017e-17
-1.429999999999999e+00 -8.256108849411650e-01  3.393140768766017e-17
-1.429999999999999e+00 -8.256108849411650e-01  3.393140768766017e-17
-1.429999999999999e+00 -8.256108849411650e-01  3.393140768766017e-17
-1.429999999999999e+00 -8.256108849411650e-01  3.393140768766017e-17
-1.429999999999999e+00 -8.256108849411650e-01  3.393140768766017e-17
-1.429999999999999e+00 -8.256108849411650e-01  3.393140768766017e-17
-1.429999999999999e+00 -8.256108849411650e-01  3.393140768766017e-17
-1.429999999999999e+00 -8.256108849411650e-01  3.393140768766017e-17
-1.429999999999999e+00 -8.256108849411650e-01  3.393140768766017e-17
-1.429999999999999e+00 -8.256108849411650e-01  3.393140768766017e-17
-1.429999999999999e+00 -8.256108849411650e-01  3.393140768766017e-17
-1.429999999999999e+00 -8.256108849411650e-01  3.393140768766017e-17
-1.429999999999999e+00 -8.256108849411650e-01  3.393140768766017e-17
-1.429999999999999e+00 -8.256108849411650e-01  3.393140768766017e-17
-1.429999999999999e+00 -8.256108849411650e-01  3.393140768766017e-17
-1.429999999999999e+00 -8.256108849411650e-01  3.393140768766017e-17
-1.429999999999999e+00 -8.256108849411650e-01  3.393140768766017e-17
-1.429999999999999e+00 -8.256108849411650e-01  3.393140768766017e-17
-1.429999999999999e+00 -8.256108849411650e-01  3.393140768766017e-17
-1.429999999999999e+00 -8.256108849411650e-01  3.393140768766017e-17
-1.429999999999999e+00 -8.256108849411650e-01  3.393140768766017e-17
-1.429999999999999e+00 -8.256108849411650e-01  3.393140768766017e-17
-1.429999999999999e+00 -8.256108849411650e-01  3.393140768766017e-17
-1.429999999999999e+00 -8.256108849411650e-01  3.393140768766017e-17
-1.429999999999999e+00 -8.256108849411650e-01  3.393140768766017e-17
-1.429999999999999e+00 -8.256108849411650e-01  3.393140768766017e-17
-1.429999999999999e+00 -8.256108849411650e-01  3.393140768766017e-17
-1.429999999999999e+00 -8.256108849411650e-01  3.393140768766017e-17
-1.429999999999999e+00 -8.256108849411650e-01  3.393140768766017e-17
-1.429999999999999e+00 -8.256108849411650e-01  3.393140768766017e-17
 1.429999999999999e+00  8.256108849411650e-01 -3.393140768766017e-17
-1.429999999999999e+00 -8.256108849411650e-01  3.393140768766017e-17
-1.429999999999999e+00 -8.256108849411650e-01  3.393140768766017e-17
-1.429999999999999e+00 -8.256108849411650e-01  3.393140768766017e-17
-1.429999999999999e+00 -8.256108849411650e-01  3.393140768766017e-17
-1.429999999999999e+00 -8.256108849411650e-01  3.393140768766017e-17
-1.429999999999999e+00 -8.256108849411650e-01  3.393140768766017e-17
-1.429999999999999e+00 -8.256108849411650e-01  3.393140768766017e-17
-1.429999999999999e+00 -8.256108849411650e-01  3.393140768766017e-17
-1.429999999999999e+00 -8.256108849411650e-01  3.393140768766017e-17
-1.429999999999999e+00 -8.256108849411650e-01  3.393140768766017e-17
-1.429999999999999e+00 -8.256108849411650e-01  3.393140768766017e-17
-1.429999999999999e+00 -8.256108849411650e-01  3.393140768766017e-17
-1.429999999999999e+00 -8.256108849411650e-01  3.393140768766017e-17
-1.429999999999999e+00 -8.256108849411650e-01  3.393140768766017e-17
-1.429999999999999e+00 -8.256108849411650e-01  3.393140768766017e-17
-1.429999999999999e+00 -8.256108849411650e-01  3.393140768766017e-17
-1.429999999999999e+00 -8.256108849411650e-01  3.393140768766017e-17
-1.429999999999999e+00 -8.256108849411650e-01  3.393140768766017e-17
-1.429999999999999e+00 -8.256108849411650e-01  3.393140768766017e-17
-1.429999999999999e+00 -8.256108849411650e-01  3.393140768766017e-17
-1.429999999999999e+00 -8.256108849411650e-01  3.393140768766017e-17
-1.429999999999999e+00 -8.256108849411650e-01  3.393140768766017e-17
-1.429999999999999e+00 -8.256108849411650e-01  3.393140768766017e-17
-1.429999999999999e+00 -8.256108849411650e-01  3.393140768766017e-17
-1.429999999999999e+00 -8.256108849411650e-01  3.393140768766017e-17
-1.429999999999999e+00 -8.256108849411650e-01  3.393140768766017e-17
-1.429999999999999e+00 -8.256108849411650e-01  3.393140768766017e-17
-1.429999999999999e+00 -8.256108849411650e-01  3.393140768766017e-17
-1.429999999999999e+00 -8.256108849411650e-01  3.393140768766017e-17
-1.429999999999999e+00 -8.256108849411650e-01  3.393140768766017e-17
-1.429999999999999e+00 -8.256108849411650e-01  3.393140768766017e-17
-1.429999999999999e+00 -8.256108849411650e-01  3.393140768766017e-17
-1.429999999999999e+00 -8.256108849411650e-01  3.393140768766017e-17
-1.429999999999999e+00 -8.256108849411650e-01  3.393140768766017e-17
-1.429999999999999e+00 -8.256108849411650e-01  3.393140768766017e-17
-1.429999999999999e+00 -8.256108849411650e-01  3.393140768766017e-17
-1.429999999999999e+00 -8.256108849411650e-01  3.393140768766017e-17
-1.429999999999999e+00 -8.256108849411650e-01  3.393140768766017e-17
-1.429999999999999e+00 -8.256108849411650e-01  3.393140768766017e-17
-1.429999999999999e+00 -8.256108849411650e-01  3.393140768766017e-17
-1.429999999999999e+00 -8.256108849411650e-01  3.393140768766017e-17
-1.429999999999999e+00 -8.256108849411650e-01  3.393140768766017e-17
-1.429999999999999e+00 -8.256108849411650e-01  3.393140768766017e-17
-1.429999999999999e+00 -8.256108849411650e-01  3.393140768766017e-17
-1.429999999999999e+00 -8.256108849411650e-01  3.393140768766017e-17
-1.429999999999999e+00 -8.256108849411650e-01  3.393140768766017e-17
-1.429999999999999e+00 -8.256108849411650e-01  3.393140768766017e-17
-1.429999999999999e+00 -8.256108849411650e-01  3.393140768766017e-17
-1.429999999999999e+00 -8.256108849411650e-01  3.393140768766017e-17
-1.429999999999999e+00 -8.256108849411650e-01  3.393140768766017e-17
-1.429999999999999e+00 -8.256108849411650e-01  3.393140768766017e-17
-1.429999999999999e+00 -8.256108849411650e-01  3.393140768766017e-17
-1.429999999999999e+00 -8.256108849411650e-01  3.393140768766017e-17
-1.429999999999999e+00 -8.256108849411650e-01  3.393140768766017e-17
-1.429999999999999e+00 -8.256108849411650e-01  3.393140768766017e-17
-1.429999999999999e+00 -8.256108849411650e-01  3.393140768766017e-17
-1.429999999999999e+00 -8.256108849411650e-01  3.393140768766017e-17
-1.429999999999999e+00 -8.256108849411650e-01  3.393140768766017e-17
-1.429999999999999e+00 -8.256108849411650e-01  3.393140768766017e-17
-1.429999999999999e+00 -8.256108849411650e-01  3.393140768766017e-17
-1.429999999999999e+00 -8.256108849411650e-01  3.393140768766017e-17
-1.429999999999999e+00 -8.256108849411650e-01  3.393140768766017e-17
-1.429999999999999e+00 -8.256108849411650e-01  3.393140768766017e-17
-1.429999999999999e+00 -8.256108849411650e-01  3.393140768766017e-17
-1.429999999999999e+00 -8.256108849411650e-01  3.393140768766017e-17
-1.429999999999999e+00 -8.256108849411650e-01  3.393140768766017e-17
-1.429999999999999e+00 -8.256108849411650e-01  3.393140768766017e-17
-1.429999999999999e+00 -8.256108849411650e-01  3.393140768766017e-17
-1.429999999999999e+00 -8.256108849411650e-01  3.393140768766017e-17
-1.429999999999999e+00 -8.256108849411650e-01  3.393140768766017e-17
-1.429999999999999e+00 -8.256108849411650e-01  3.393140768766017e-17
-1.429999999999999e+00 -8.256108849411650e-01  3.393140768766017e-17
-1.429999999999999e+00 -8.256108849411650e-01  3.393140768766017e-17
-1.429999999999999e+00 -8.256108849411650e-01  3.393140768766017e-17
-1.429999999999999e+00 -8.256108849411650e-01  3.393140768766017e-17
-1.429999999999999e+00 -8.256108849411650e-01  3.393140768766017e-17
-1.429999999999999e+00 -8.256108849411650e-01  3.393140768766017e-17
-1.429999999999999e+00 -8.256108849411650e-01  3.393140768766017e-17
-1.429999999999999e+00 -8.256108849411650e-01  3.393140768766017e-17
-1.429999999999999e+00 -8.256108849411650e-01  3.393140768766017e-17
-1.429999999999999e+00 -8.256108849411650e-01  3.393140768766017e-17
-1.429999999999999e+00 -8.256108849411650e-01  3.393140768766017e-17
-1.429999999999999e+00 -8.256108849411650e-01  3.393140768766017e-17
-1.429999999999999e+00 -8.256108849411650e-01  3.393140768766017e-17
-1.429999999999999e+00 -8.256108849411650e-01  3.393140768766017e-17
-1.429999999999999e+00 -8.256108849411650e-01  3.393140768766017e-17
-1.429999999999999e+00 -8.256108849411650e-01  3.393140768766017e-17
-1.429999999999999e+00 -8.256108849411650e-01  3.393140768766017e-17
-1.429999999999999e+00 -8.256108849411650e-01  3.393140768766017e-17
-1.429999999999999e+00 -8.256108849411650e-01  3.393140768766017e-17
-1.429999999999999e+00 -8.256108849411650e-01  3.393140768766017e-17
-1.429999999999999e+00 -8.256108849411650e-01  3.393140768766017e-17
-1.429999999999999e+00 -8.256108849411650e-01  3.393140768766017e-17
-1.429999999999999e+00 -8.256108849411650e-01  3.393140768766017e-17
-1.429999999999999e+00 -8.256108849411650e-01  3.393140768766017e-17
-1.429999999999999e+00 -8.256108849411650e-01  3.393140768766017e-17
-1.429999999999999e+00 -8.256108849411650e-01  3.393140768766017e-17
-1.429999999999999e+00 -8.256108849411650e-01  3.393140768766017e-17
-1.429999999999999e+00 -8.256108849411650e-01  3.393140768766017e-17
-1.429999999999999e+00 -8.256108849411650e-01  3.393140768766017e-17
-1.429999999999999e+00 -8.256108849411650e-01  3.393140768766017e-17
-1.429999999999999e+00 -8.256108849411650e-01  3.393140768766017e-17
-1.429999999999999e+00 -8.256108849411650e-01  3.393140768766017e-17
-1.429999999999999e+00 -8.256108849411650e-01  3.393140768766017e-17
-1.429999999999999e+00 -8.256108849411650e-01  3.393140768766017e-17
-1.429999999999999e+00 -8.256108849411650e-01  3.393140768766017e-17
-1.429999999999999e+00 -8.256108849411650e-01  3.393140768766017e-17
-1.429999999999999e+00 -8.256108849411650e-01  3.393140768766017e-17
-1.429999999999999e+00 -8.256108849411650e-01  3.393140768766017e-17
-1.429999999999999e+00 -8.256108849411650e-01  3.393140768766017e-17
-1.429999999999999e+00 -8.256108849411650e-01  3.393140768766017e-17
-1.429999999999999e+00 -8.256108849411650e-01  3.393140768766017e-17
-1.429999999999999e+00 -8.256108849411650e-01  3.393140768766017e-17
-1.429999999999999e+00 -8.256108849411650e-01  3.393140768766017e-17
-1.429999999999999e+00 -8.256108849411650e-01  3.393140768766017e-17
-1.429999999999999e+00 -8.256108849411650e-01  3.393140768766017e-17
-1.429999999999999e+00 -8.256108849411650e-01  3.393140768766017e-17
-1.429999999999999e+00 -8.256108849411650e-01  3.393140768766017e-17
-1.429999999999999e+00 -8.256108849411650e-01  3.393140768766017e-17
-1.429999999999999e+00 -8.256108849411650e-01  3.393140768766017e-17
-1.429999999999999e+00 -8.256108849411650e-01  3.393140768766017e-17
-1.429999999999999e+00 -8.256108849411650e-01  3.393140768766017e-17
-1.429999999999999e+00 -8.256108849411650e-01  3.393140768766017e-17
-1.429999999999999e+00 -8.256108849411650e-01  3.393140768766017e-17
-1.429999999999999e+00 -8.256108849411650e-01  3.393140768766017e-17
-1.429999999999999e+00 -8.256108849411650e-01  3.393140768766017e-17
-1.429999999999999e+00 -8.256108849411650e-01  3.393140768766017e-17
-1.429999999999999e+00 -8.256108849411650e-01  3.393140768766017e-17
-1.429999999999999e+00 -8.256108849411650e-01  3.393140768766017e-17
-1.429999999999999e+00 -8.256108849411650e-01  3.393140768766017e-17
-1.429999999999999e+00 -8.256108849411650e-01  3.393140768766017e-17
-1.429999999999999e+00 -8.256108849411650e-01  3.393140768766017e-17
-1.429999999999999e+00 -8.256108849411650e-01  3.393140768766017e-17
-1.429999999999999e+00 -8.256108849411650e-01  3.393140768766017e-17
-1.429999999999999e+00 -8.256108849411650e-01  3.393140768766017e-17
-1.429999999999999e+00 -8.256108849411650e-01  3.393140768766017e-17
-1.429999999999999e+00 -8.256108849411650e-01  3.393140768766017e-17
-1.429999999999999e+00 -8.256108849411650e-01  3.393140768766017e-17
-1.429999999999999e+00 -8.256108849411650e-01  3.393140768766017e-17
-1.429999999999999e+00 -8.256108849411650e-01  3.393140768766017e-17
-1.429999999999999e+00 -8.256108849411650e-01  3.393140768766017e-17
-1.429999999999999e+00 -8.256108849411650e-01  3.393140768766017e-17
-1.429999999999999e+00 -8.256108849411650e-01  3.393140768766017e-17
-1.429999999999999e+00 -8.256108849411650e-01  3.393140768766017e-17
-1.429999999999999e+00 -8.256108849411650e-01  3.393140768766017e-17
-1.429999999999999e+00 -8.256108849411650e-01  3.393140768766017e-17
-1.429999999999999e+00 -8.256108849411650e-01  3.393140768766017e-17
-1.429999999999999e+00 -8.256108849411650e-01  3.393140768766017e-17
-1.429999999999999e+00 -8.256108849411650e-01  3.393140768766017e-17
-1.429999999999999e+00 -8.256108849411650e-01  3.393140768766017e-17
-1.429999999999999e+00 -8.256108849411650e-01  3.393140768766017e-17
-1.429999999999999e+00 -8.256108849411650e-01  3.393140768766017e-17
-1.429999999999999e+00 -8.256108849411650e-01  3.393140768766017e-17
-1.429999999999999e+00 -8.256108849411650e-01  3.393140768766017e-17
-1.429999999999999e+00 -8.256108849411650e-01  3.393140768766017e-17
-1.429999999999999e+00 -8.256108849411650e-01  3.393140768766017e-17
-1.429999999999999e+00 -8.256108849411650e-01  3.393140768766017e-17
-1.429999999999999e+00 -8.256108849411650e-01  3.393140768766017e-17
-1.429999999999999e+00 -8.256108849411650e-01  3.393140768766017e-17
-1.429999999999999e+00 -8.256108849411650e-01  3.393140768766017e-17
-1.429999999999999e+00 -8.256108849411650e-01  3.393140768766017e-17
-1.429999999999999e+00 -8.256108849411650e-01  3.393140768766017e-17
-1.429999999999999e+00 -8.256108849411650e-01  3.393140768766017e-17
-1.429999999999999e+00 -8.256108849411650e-01  3.393140768766017e-17
-1.429999999999999e+00 -8.256108849411650e-01  3.393140768766017e-17
-1.429999999999999e+00 -8.256108849411650e-01  3.393140768766017e-17
-1.429999999999999e+00 -8.256108849411650e-01  3.393140768766017e-17
-1.429999999999999e+00 -8.256108849411650e-01  3.393140768766017e-17
-1.429999999999999e+00 -8.256108849411650e-01  3.393140768766017e-17
-1.429999999999999e+00 -8.256108849411650e-01  3.393140768766017e-17
 1.429999999999999e+00  8.256108849411650e-01 -3.393140768766017e-17
-1.429999999999999e+00 -8.256108849411650e-01  3.393140768766017e-17
 1.429999999999999e+00  8.256108849411650e-01 -3.393140768766017e-17
 1.429999999999999e+00  8.256108849411650e-01 -3.393140768766017e-17
 1.429999999999999e+00  8.256108849411650e-01 -3.393140768766017e-17
 1.429999999999999e+00  8.256108849411650e-01 -3.393140768766017e-17
 1.429999999999999e+00  8.256108849411650e-01 -3.393140768766017e-17
 1.429999999999999e+00  8.256108849411650e-01 -3.393140768766017e-17
 1.429999999999999e+00  8.256108849411650e-01 -3.393140768766017e-17
 1.429999999999999e+00  8.256108849411650e-01 -3.393140768766017e-17
 1.429999999999999e+00  8.256108849411650e-01 -3.393140768766017e-17
 1.429999999999999e+00  8.256108849411650e-01 -3.393140768766017e-17
 1.429999999999999e+00  8.256108849411650e-01 -3.393140768766017e-17
 1.429999999999999e+00  8.256108849411650e-01 -3.393140768766017e-17
 1.429999999999999e+00  8.256108849411650e-01 -3.393140768766017e-17
 1.429999999999999e+00  8.256108849411650e-01 -3.393140768766017e-17
 1.429999999999999e+00  8.256108849411650e-01 -3.393140768766017e-17
 1.429999999999999e+00  8.256108849411650e-01 -3.393140768766017e-17
 1.429999999999999e+00  8.256108849411650e-01 -3.393140768766017e-17
 1.429999999999999e+00  8.256108849411650e-01 -3.393140768766017e-17
 1.429999999999999e+00  8.256108849411650e-01 -3.393140768766017e-17
 1.429999999999999e+00  8.256108849411650e-01 -3.393140768766017e-17
 1.429999999999999e+00  8.256108849411650e-01 -3.393140768766017e-17
 1.429999999999999e+00  8.256108849411650e-01 -3.393140768766017e-17
 1.429999999999999e+00  8.256108849411650e-01 -3.393140768766017e-17
 1.429999999999999e+00  8.256108849411650e-01 -3.393140768766017e-17
 1.429999999999999e+00  8.256108849411650e-01 -3.393140768766017e-17
 1.429999999999999e+00  8.256108849411650e-01 -3.393140768766017e-17
 1.429999999999999e+00  8.256108849411650e-01 -3.393140768766017e-17
 1.429999999999999e+00  8.256108849411650e-01 -3.393140768766017e-17
 1.429999999999999e+00  8.256108849411650e-01 -3.393140768766017e-17
 1.429999999999999e+00  8.256108849411650e-01 -3.393140768766017e-17
 1.429999999999999e+00  8.256108849411650e-01 -3.393140768766017e-17
 1.429999999999999e+00  8.256108849411650e-01 -3.393140768766017e-17
 1.429999999999999e+00  8.256108849411650e-01 -3.393140768766017e-17
 1.429999999999999e+00  8.256108849411650e-01 -3.393140768766017e-17
 1.429999999999999e+00  8.256108849411650e-01 -3.393140768766017e-17
 1.429999999999999e+00  8.256108849411650e-01 -3.393140768766017e-17
 1.429999999999999e+00  8.256108849411650e-01 -3.393140768766017e-17
 1.429999999999999e+00  8.256108849411650e-01 -3.393140768766017e-17
 1.429999999999999e+00  8.256108849411650e-01 -3.393140768766017e-17
 1.429999999999999e+00  8.256108849411650e-01 -3.393140768766017e-17
 1.429999999999999e+00  8.256108849411650e-01 -3.393140768766017e-17
 1.429999999999999e+00  8.256108849411650e-01 -3.393140768766017e-17
 1.429999999999999e+00  8.256108849411650e-01 -3.393140768766017e-17
 1.429999999999999e+00  8.256108849411650e-01 -3.393140768766017e-17
 1.429999999999999e+00  8.256108849411650e-01 -3.393140768766017e-17
 1.429999999999999e+00  8.256108849411650e-01 -3.393140768766017e-17
 1.429999999999999e+00  8.256108849411650e-01 -3.393140768766017e-17
 1.429999999999999e+00  8.256108849411650e-01 -3.393140768766017e-17
 1.429999999999999e+00  8.256108849411650e-01 -3.393140768766017e-17
 1.429999999999999e+00  8.256108849411650e-01 -3.393140768766017e-17
 1.429999999999999e+00  8.256108849411650e-01 -3.393140768766017e-17
 1.429999999999999e+00  8.256108849411650e-01 -3.393140768766017e-17
 1.429999999999999e+00  8.256108849411650e-01 -3.393140768766017e-17
 1.429999999999999e+00  8.256108849411650e-01 -3.393140768766017e-17
 1.429999999999999e+00  8.256108849411650e-01 -3.393140768766017e-17
 1.429999999999999e+00  8.256108849411650e-01 -3.393140768766017e-17
 1.429999999999999e+00  8.256108849411650e-01 -3.393140768766017e-17
 1.429999999999999e+00  8.256108849411650e-01 -3.393140768766017e-17
 1.429999999999999e+00  8.256108849411650e-01 -3.393140768766017e-17
 1.429999999999999e+00  8.256108849411650e-01 -3.393140768766017e-17
 1.429999999999999e+00  8.256108849411650e-01 -3.393140768766017e-17
 1.429999999999999e+00  8.256108849411650e-01 -3.393140768766017e-17
 1.429999999999999e+00  8.256108849411650e-01 -3.393140768766017e-17
 1.429999999999999e+00  8.256108849411650e-01 -3.393140768766017e-17
 1.429999999999999e+00  8.256108849411650e-01 -3.393140768766017e-17
 1.429999999999999e+00  8.256108849411650e-01 -3.393140768766017e-17
 1.429999999999999e+00  8.256108849411650e-01 -3.393140768766017e-17
 1.429999999999999e+00  8.256108849411650e-01 -3.393140768766017e-17
 1.429999999999999e+00  8.256108849411650e-01 -3.393140768766017e-17
 1.429999999999999e+00  8.256108849411650e-01 -3.393140768766017e-17
 1.429999999999999e+00  8.256108849411650e-01 -3.393140768766017e-17
 1.429999999999999e+00  8.256108849411650e-01 -3.393140768766017e-17
 1.429999999999999e+00  8.256108849411650e-01 -3.393140768766017e-17
 1.429999999999999e+00  8.256108849411650e-01 -3.393140768766017e-17
 1.429999999999999e+00  8.256108849411650e-01 -3.393140768766017e-17
 1.429999999999999e+00  8.256108849411650e-01 -3.393140768766017e-17
 1.429999999999999e+00  8.256108849411650e-01 -3.393140768766017e-17
 1.429999999999999e+00  8.256108849411650e-01 -3.393140768766017e-17
 1.429999999999999e+00  8.256108849411650e-01 -3.393140768766017e-17
 1.429999999999999e+00  8.256108849411650e-01 -3.393140768766017e-17
 1.429999999999999e+00  8.256108849411650e-01 -3.393140768766017e-17
 1.429999999999999e+00  8.256108849411650e-01 -3.393140768766017e-17
 1.429999999999999e+00  8.256108849411650e-01 -3.393140768766017e-17
 1.429999999999999e+00  8.256108849411650e-01 -3.393140768766017e-17
 1.429999999999999e+00  8.256108849411650e-01 -3.393140768766017e-17
 1.429999999999999e+00  8.256108849411650e-01 -3.393140768766017e-17
 1.429999999999999e+00  8.256108849411650e-01 -3.393140768766017e-17
 1.429999999999999e+00  8.256108849411650e-01 -3.393140768766017e-17
 1.429999999999999e+00  8.256108849411650e-01 -3.393140768766017e-17
 1.429999999999999e+00  8.256108849411650e-01 -3.393140768766017e-17
 1.429999999999999e+00  8.256108849411650e-01 -3.393140768766017e-17
 1.429999999999999e+00  8.256108849411650e-01 -3.393140768766017e-17
 1.429999999999999e+00  8.256108849411650e-01 -3.393140768766017e-17
 1.429999999999999e+00  8.256108849411650e-01 -3.393140768766017e-17
 1.429999999999999e+00  8.256108849411650e-01 -3.393140768766017e-17
 1.429999999999999e+00  8.256108849411650e-01 -3.393140768766017e-17
 1.429999999999999e+00  8.256108849411650e-01 -3.393140768766017e-17
 1.429999999999999e+00  8.256108849411650e-01 -3.393140768766017e-17
 1.429999999999999e+00  8.256108849411650e-01 -3.393140768766017e-17
 1.429999999999999e+00  8.256108849411650e-01 -3.393140768766017e-17
 1.429999999999999e+00  8.256108849411650e-01 -3.393140768766017e-17
 1.429999999999999e+00  8.256108849411650e-01 -3.393140768766017e-17
 1.429999999999999e+00  8.256108849411650e-01 -3.393140768766017e-17
 1.429999999999999e+00  8.256108849411650e-01 -3.393140768766017e-17
 1.429999999999999e+00  8.256108849411650e-01 -3.393140768766017e-17
 1.429999999999999e+00  8.256108849411650e-01 -3.393140768766017e-17
 1.429999999999999e+00  8.256108849411650e-01 -3.393140768766017e-17
 1.429999999999999e+00  8.256108849411650e-01 -3.393140768766017e-17
 1.429999999999999e+00  8.256108849411650e-01 -3.393140768766017e-17
 1.429999999999999e+00  8.256108849411650e-01 -3.393140768766017e-17
 1.429999999999999e+00  8.256108849411650e-01 -3.393140768766017e-17
 1.429999999999999e+00  8.256108849411650e-01 -3.393140768766017e-17
 1.429999999999999e+00  8.256108849411650e-01 -3.393140768766017e-17
 1.429999999999999e+00  8.256108849411650e-01 -3.393140768766017e-17
 1.429999999999999e+00  8.256108849411650e-01 -3.393140768766017e-17
 1.429999999999999e+00  8.256108849411650e-01 -3.393140768766017e-17
 1.429999999999999e+00  8.256108849411650e-01 -3.393140768766017e-17
 1.429999999999999e+00  8.256108849411650e-01 -3.393140768766017e-17
 1.429999999999999e+00  8.256108849411650e-01 -3.393140768766017e-17
 1.429999999999999e+00  8.256108849411650e-01 -3.393140768766017e-17
 1.429999999999999e+00  8.256108849411650e-01 -3.393140768766017e-17
 1.429999999999999e+00  8.256108849411650e-01 -3.393140768766017e-17
 1.429999999999999e+00  8.256108849411650e-01 -3.393140768766017e-17
 1.429999999999999e+00  8.256108849411650e-01 -3.393140768766017e-17
 1.429999999999999e+00  8.256108849411650e-01 -3.393140768766017e-17
 1.429999999999999e+00  8.256108849411650e-01 -3.393140768766017e-17
 1.429999999999999e+00  8.256108849411650e-01 -3.393140768766017e-17
 1.429999999999999e+00  8.256108849411650e-01 -3.393140768766017e-17
 1.429999999999999e+00  8.256108849411650e-01 -3.393140768766017e-17
 1.429999999999999e+00  8.256108849411650e-01 -3.393140768766017e-17
 1.429999999999999e+00  8.256108849411650e-01 -3.393140768766017e-17
 1.429999999999999e+00  8.256108849411650e-01 -3.393140768766017e-17
 1.429999999999999e+00  8.256108849411650e-01 -3.393140768766017e-17
 1.429999999999999e+00  8.256108849411650e-01 -3.393140768766017e-17
 1.429999999999999e+00  8.256108849411650e-01 -3.393140768766017e-17
 1.429999999999999e+00  8.256108849411650e-01 -3.393140768766017e-17
 1.429999999999999e+00  8.256108849411650e-01 -3.393140768766017e-17
 1.429999999999999e+00  8.256108849411650e-01 -3.393140768766017e-17
 1.429999999999999e+00  8.256108849411650e-01 -3.393140768766017e-17
 1.429999999999999e+00  8.256108849411650e-01 -3.393140768766017e-17
 1.429999999999999e+00  8.256108849411650e-01 -3.393140768766017e-17
 1.429999999999999e+00  8.256108849411650e-01 -3.393140768766017e-17
 1.429999999999999e+00  8.256108849411650e-01 -3.393140768766017e-17
 1.429999999999999e+00  8.256108849411650e-01 -3.393140768766017e-17
 1.429999999999999e+00  8.256108849411650e-01 -3.393140768766017e-17
 1.429999999999999e+00  8.256108849411650e-01 -3.393140768766017e-17
 1.429999999999999e+00  8.256108849411650e-01 -3.393140768766017e-17
 1.429999999999999e+00  8.256108849411650e-01 -3.393140768766017e-17
 1.429999999999999e+00  8.256108849411650e-01 -3.393140768766017e-17
 1.429999999999999e+00  8.256108849411650e-01 -3.393140768766017e-17
 1.429999999999999e+00  8.256108849411650e-01 -3.393140768766017e-17
 1.429999999999999e+00  8.256108849411650e-01 -3.393140768766017e-17
 1.429999999999999e+00  8.256108849411650e-01 -3.393140768766017e-17
 1.429999999999999e+00  8.256108849411650e-01 -3.393140768766017e-17
 1.429999999999999e+00  8.256108849411650e-01 -3.393140768766017e-17
 1.429999999999999e+00  8.256108849411650e-01 -3.393140768766017e-17
 1.429999999999999e+00  8.256108849411650e-01 -3.393140768766017e-17
 1.429999999999999e+00  8.256108849411650e-01 -3.393140768766017e-17
 1.429999999999999e+00  8.256108849411650e-01 -3.393140768766017e-17
-1.429999999999999e+00 -8.256108849411650e-01  3.393140768766017e-17
 1.429999999999999e+00  8.256108849411650e-01 -3.393140768766017e-17
 1.429999999999999e+00  8.256108849411650e-01 -3.393140768766017e-17
 1.429999999999999e+00  8.256108849411650e-01 -3.393140768766017e-17
 1.429999999999999e+00  8.256108849411650e-01 -3.393140768766017e-17
 1.429999999999999e+00  8.256108849411650e-01 -3.393140768766017e-17
 1.429999999999999e+00  8.256108849411650e-01 -3.393140768766017e-17
 1.429999999999999e+00  8.256108849411650e-01 -3.393140768766017e-17
 1.429999999999999e+00  8.256108849411650e-01 -3.393140768766017e-17
 1.429999999999999e+00  8.256108849411650e-01 -3.393140768766017e-17
 1.429999999999999e+00  8.256108849411650e-01 -3.393140768766017e-17
 1.429999999999999e+00  8.256108849411650e-01 -3.393140768766017e-17
 1.429999999999999e+00  8.256108849411650e-01 -3.393140768766017e-17
 1.429999999999999e+00  8.256108849411650e-01 -3.393140768766017e-17
 1.429999999999999e+00  8.256108849411650e-01 -3.393140768766017e-17
 1.429999999999999e+00  8.256108849411650e-01 -3.393140768766017e-17
 1.429999999999999e+00  8.256108849411650e-01 -3.393140768766017e-17
 1.429999999999999e+00  8.256108849411650e-01 -3.393140768766017e-17
 1.429999999999999e+00  8.256108849411650e-01 -3.393140768766017e-17
 1.429999999999999e+00  8.256108849411650e-01 -3.393140768766017e-17
 1.429999999999999e+00  8.256108849411650e-01 -3.393140768766017e-17
 1.429999999999999e+00  8.256108849411650e-01 -3.393140768766017e-17
 1.429999999999999e+00  8.256108849411650e-01 -3.393140768766017e-17
 1.429999999999999e+00  8.256108849411650e-01 -3.393140768766017e-17
 1.429999999999999e+00  8.256108849411650e-01 -3.393140768766017e-17
 1.429999999999999e+00  8.256108849411650e-01 -3.393140768766017e-17
 1.429999999999999e+00  8.256108849411650e-01 -3.393140768766017e-17
 1.429999999999999e+00  8.256108849411650e-01 -3.393140768766017e-17
 1.429999999999999e+00  8.256108849411650e-01 -3.393140768766017e-17
 1.429999999999999e+00  8.256108849411650e-01 -3.393140768766017e-17
 1.429999999999999e+00  8.256108849411650e-01 -3.393140768766017e-17
 1.429999999999999e+00  8.256108849411650e-01 -3.393140768766017e-17
 1.429999999999999e+00  8.256108849411650e-01 -3.393140768766017e-17
 1.429999999999999e+00  8.256108849411650e-01 -3.393140768766017e-17
 1.429999999999999e+00  8.256108849411650e-01 -3.393140768766017e-17
 1.429999999999999e+00  8.256108849411650e-01 -3.393140768766017e-17
 1.429999999999999e+00  8.256108849411650e-01 -3.393140768766017e-17
 1.429999999999999e+00  8.256108849411650e-01 -3.393140768766017e-17
 1.429999999999999e+00  8.256108849411650e-01 -3.393140768766017e-17
 1.429999999999999e+00  8.256108849411650e-01 -3.393140768766017e-17
 1.429999999999999e+00  8.256108849411650e-01 -3.393140768766017e-17
 1.429999999999999e+00  8.256108849411650e-01 -3.393140768766017e-17
 1.429999999999999e+00  8.256108849411650e-01 -3.393140768766017e-17
 1.429999999999999e+00  8.256108849411650e-01 -3.393140768766017e-17
 1.429999999999999e+00  8.256108849411650e-01 -3.393140768766017e-17
 1.429999999999999e+00  8.256108849411650e-01 -3.393140768766017e-17
 1.429999999999999e+00  8.256108849411650e-01 -3.393140768766017e-17
 1.429999999999999e+00  8.256108849411650e-01 -3.393140768766017e-17
 1.429999999999999e+00  8.256108849411650e-01 -3.393140768766017e-17
 1.429999999999999e+00  8.256108849411650e-01 -3.393140768766017e-17
 1.429999999999999e+00  8.256108849411650e-01 -3.393140768766017e-17
 1.429999999999999e+00  8.256108849411650e-01 -3.393140768766017e-17
 1.429999999999999e+00  8.256108849411650e-01 -3.393140768766017e-17
 1.429999999999999e+00  8.256108849411650e-01 -3.393140768766017e-17
 1.429999999999999e+00  8.256108849411650e-01 -3.393140768766017e-17
 1.429999999999999e+00  8.256108849411650e-01 -3.393140768766017e-17
 1.429999999999999e+00  8.256108849411650e-01 -3.393140768766017e-17
 1.429999999999999e+00  8.256108849411650e-01 -3.393140768766017e-17
 1.429999999999999e+00  8.256108849411650e-01 -3.393140768766017e-17
 1.429999999999999e+00  8.256108849411650e-01 -3.393140768766017e-17
 1.429999999999999e+00  8.256108849411650e-01 -3.393140768766017e-17
 1.429999999999999e+00  8.256108849411650e-01 -3.393140768766017e-17
 1.429999999999999e+00  8.256108849411650e-01 -3.393140768766017e-17
 1.429999999999999e+00  8.256108849411650e-01 -3.393140768766017e-17
 1.429999999999999e+00  8.256108849411650e-01 -3.393140768766017e-17
 1.429999999999999e+00  8.256108849411650e-01 -3.393140768766017e-17
 1.429999999999999e+00  8.256108849411650e-01 -3.393140768766017e-17
 1.429999999999999e+00  8.256108849411650e-01 -3.393140768766017e-17
 1.429999999999999e+00  8.256108849411650e-01 -3.393140768766017e-17
 1.429999999999999e+00  8.256108849411650e-01 -3.393140768766017e-17
 1.429999999999999e+00  8.256108849411650e-01 -3.393140768766017e-17
 1.429999999999999e+00  8.256108849411650e-01 -3.393140768766017e-17
 1.429999999999999e+00  8.256108849411650e-01 -3.393140768766017e-17
 1.429999999999999e+00  8.256108849411650e-01 -3.393140768766017e-17
 1.429999999999999e+00  8.256108849411650e-01 -3.393140768766017e-17
 1.429999999999999e+00  8.256108849411650e-01 -3.393140768766017e-17
 1.429999999999999e+00  8.256108849411650e-01 -3.393140768766017e-17
 1.429999999999999e+00  8.256108849411650e-01 -3.393140768766017e-17
 1.429999999999999e+00  8.256108849411650e-01 -3.393140768766017e-17
 1.429999999999999e+00  8.256108849411650e-01 -3.393140768766017e-17
 1.429999999999999e+00  8.256108849411650e-01 -3.393140768766017e-17
 1.429999999999999e+00  8.256108849411650e-01 -3.393140768766017e-17
 1.429999999999999e+00  8.256108849411650e-01 -3.393140768766017e-17
 1.429999999999999e+00  8.256108849411650e-01 -3.393140768766017e-17
 1.429999999999999e+00  8.256108849411650e-01 -3.393140768766017e-17
 1.429999999999999e+00  8.256108849411650e-01 -3.393140768766017e-17
 1.429999999999999e+00  8.256108849411650e-01 -3.393140768766017e-17
 1.429999999999999e+00  8.256108849411650e-01 -3.393140768766017e-17
 1.429999999999999e+00  8.256108849411650e-01 -3.393140768766017e-17
 1.429999999999999e+00  8.256108849411650e-01 -3.393140768766017e-17
 1.429999999999999e+00  8.256108849411650e-01 -3.393140768766017e-17
 1.429999999999999e+00  8.256108849411650e-01 -3.393140768766017e-17
 1.429999999999999e+00  8.256108849411650e-01 -3.393140768766017e-17
 1.429999999999999e+00  8.256108849411650e-01 -3.393140768766017e-17
 1.429999999999999e+00  8.256108849411650e-01 -3.393140768766017e-17
 1.429999999999999e+00  8.256108849411650e-01 -3.393140768766017e-17
 1.429999999999999e+00  8.256108849411650e-01 -3.393140768766017e-17
 1.429999999999999e+00  8.256108849411650e-01 -3.393140768766017e-17
 1.429999999999999e+00  8.256108849411650e-01 -3.393140768766017e-17
 1.429999999999999e+00  8.256108849411650e-01 -3.393140768766017e-17
 1.429999999999999e+00  8.256108849411650e-01 -3.393140768766017e-17
 1.429999999999999e+00  8.256108849411650e-01 -3.393140768766017e-17
 1.429999999999999e+00  8.256108849411650e-01 -3.393140768766017e-17
 1.429999999999999e+00  8.256108849411650e-01 -3.393140768766017e-17
 1.429999999999999e+00  8.256108849411650e-01 -3.393140768766017e-17
 1.429999999999999e+00  8.256108849411650e-01 -3.393140768766017e-17
 1.429999999999999e+00  8.256108849411650e-01 -3.393140768766017e-17
 1.429999999999999e+00  8.256108849411650e-01 -3.393140768766017e-17
 1.429999999999999e+00  8.256108849411650e-01 -3.393140768766017e-17
 1.429999999999999e+00  8.256108849411650e-01 -3.393140768766017e-17
 1.429999999999999e+00  8.256108849411650e-01 -3.393140768766017e-17
 1.429999999999999e+00  8.256108849411650e-01 -3.393140768766017e-17
 1.429999999999999e+00  8.256108849411650e-01 -3.393140768766017e-17
 1.429999999999999e+00  8.256108849411650e-01 -3.393140768766017e-17
 1.429999999999999e+00  8.256108849411650e-01 -3.393140768766017e-17
 1.429999999999999e+00  8.256108849411650e-01 -3.393140768766017e-17
 1.429999999999999e+00  8.256108849411650e-01 -3.393140768766017e-17
 1.429999999999999e+00  8.256108849411650e-01 -3.393140768766017e-17
 1.429999999999999e+00  8.256108849411650e-01 -3.393140768766017e-17
 1.429999999999999e+00  8.256108849411650e-01 -3.393140768766017e-17
 1.429999999999999e+00  8.256108849411650e-01 -3.393140768766017e-17
 1.429999999999999e+00  8.256108849411650e-01 -3.393140768766017e-17
 1.429999999999999e+00  8.256108849411650e-01 -3.393140768766017e-17
 1.429999999999999e+00  8.256108849411650e-01 -3.393140768766017e-17
 1.429999999999999e+00  8.256108849411650e-01 -3.393140768766017e-17
 1.429999999999999e+00  8.256108849411650e-01 -3.393140768766017e-17
 1.429999999999999e+00  8.256108849411650e-01 -3.393140768766017e-17
 1.429999999999999e+00  8.256108849411650e-01 -3.393140768766017e-17
 1.429999999999999e+00  8.256108849411650e-01 -3.393140768766017e-17
 1.429999999999999e+00  8.256108849411650e-01 -3.393140768766017e-17
 1.429999999999999e+00  8.256108849411650e-01 -3.393140768766017e-17
 1.429999999999999e+00  8.256108849411650e-01 -3.393140768766017e-17
 1.429999999999999e+00  8.256108849411650e-01 -3.393140768766017e-17
 1.429999999999999e+00  8.256108849411650e-01 -3.393140768766017e-17
 1.429999999999999e+00  8.256108849411650e-01 -3.393140768766017e-17
 1.429999999999999e+00  8.256108849411650e-01 -3.393140768766017e-17
 1.429999999999999e+00  8.256108849411650e-01 -3.393140768766017e-17
 1.429999999999999e+00  8.256108849411650e-01 -3.393140768766017e-17
 1.429999999999999e+00  8.256108849411650e-01 -3.393140768766017e-17
 1.429999999999999e+00  8.256108849411650e-01 -3.393140768766017e-17
 1.429999999999999e+00  8.256108849411650e-01 -3.393140768766017e-17
 1.429999999999999e+00  8.256108849411650e-01 -3.393140768766017e-17
 1.429999999999999e+00  8.256108849411650e-01 -3.393140768766017e-17
 1.429999999999999e+00  8.256108849411650e-01 -3.393140768766017e-17
 1.429999999999999e+00  8.256108849411650e-01 -3.393140768766017e-17
 1.429999999999999e+00  8.256108849411650e-01 -3.393140768766017e-17
 1.429999999999999e+00  8.256108849411650e-01 -3.393140768766017e-17
 1.429999999999999e+00  8.256108849411650e-01 -3.393140768766017e-17
 1.429999999999999e+00  8.256108849411650e-01 -3.393140768766017e-17
 1.429999999999999e+00  8.256108849411650e-01 -3.393140768766017e-17
 1.429999999999999e+00  8.256108849411650e-01 -3.393140768766017e-17
 1.429999999999999e+00  8.256108849411650e-01 -3.393140768766017e-17
 1.429999999999999e+00  8.256108849411650e-01 -3.393140768766017e-17
 1.429999999999999e+00  8.256108849411650e-01 -3.393140768766017e-17
 1.429999999999999e+00  8.256108849411650e-01 -3.393140768766017e-17
 1.429999999999999e+00  8.256108849411650e-01 -3.393140768766017e-17
 1.429999999999999e+00  8.256108849411650e-01 -3.393140768766017e-17
 1.429999999999999e+00  8.256108849411650e-01 -3.393140768766017e-17
-1.429999999999999e+00  8.256108849411650e-01  1.696570384383008e-17
 1.429999999999999e+00 -8.256108849411650e-01 -1.696570384383008e-17
-1.429999999999999e+00  8.256108849411650e-01  1.696570384383008e-17
-1.429999999999999e+00  8.256108849411650e-01  1.696570384383008e-17
-1.429999999999999e+00  8.256108849411650e-01  1.696570384383008e-17
-1.429999999999999e+00  8.256108849411650e-01  1.696570384383008e-17
-1.429999999999999e+00  8.256108849411650e-01  1.696570384383008e-17
-1.429999999999999e+00  8.256108849411650e-01  1.696570384383008e-17
-1.429999999999999e+00  8.256108849411650e-01  1.696570384383008e-17
-1.429999999999999e+00  8.256108849411650e-01  1.696570384383008e-17
-1.429999999999999e+00  8.256108849411650e-01  1.696570384383008e-17
-1.429999999999999e+00  8.256108849411650e-01  1.696570384383008e-17
-1.429999999999999e+00  8.256108849411650e-01  1.696570384383008e-17
-1.429999999999999e+00  8.256108849411650e-01  1.696570384383008e-17
-1.429999999999999e+00  8.256108849411650e-01  1.696570384383008e-17
-1.429999999999999e+00  8.256108849411650e-01  1.696570384383008e-17
-1.429999999999999e+00  8.256108849411650e-01  1.696570384383008e-17
-1.429999999999999e+00  8.256108849411650e-01  1.696570384383008e-17
-1.429999999999999e+00  8.256108849411650e-01  1.696570384383008e-17
-1.429999999999999e+00  8.256108849411650e-01  1.696570384383008e-17
-1.429999999999999e+00  8.256108849411650e-01  1.696570384383008e-17
-1.429999999999999e+00  8.256108849411650e-01  1.696570384383008e-17
-1.429999999999999e+00  8.256108849411650e-01  1.696570384383008e-17
-1.429999999999999e+00  8.256108849411650e-01  1.696570384383008e-17
-1.429999999999999e+00  8.256108849411650e-01  1.696570384383008e-17
-1.429999999999999e+00  8.256108849411650e-01  1.696570384383008e-17
-1.429999999999999e+00  8.256108849411650e-01  1.696570384383008e-17
-1.429999999999999e+00  8.256108849411650e-01  1.696570384383008e-17
-1.429999999999999e+00  8.256108849411650e-01  1.696570384383008e-17
-1.429999999999999e+00  8.256108849411650e-01  1.696570384383008e-17
-1.429999999999999e+00  8.256108849411650e-01  1.696570384383008e-17
-1.429999999999999e+00  8.256108849411650e-01  1.696570384383008e-17
-1.429999999999999e+00  8.256108849411650e-01  1.696570384383008e-17
-1.429999999999999e+00  8.256108849411650e-01  1.696570384383008e-17
-1.429999999999999e+00  8.256108849411650e-01  1.696570384383008e-17
-1.429999999999999e+00  8.256108849411650e-01  1.696570384383008e-17
-1.429999999999999e+00  8.256108849411650e-01  1.696570384383008e-17
-1.429999999999999e+00  8.256108849411650e-01  1.696570384383008e-17
-1.429999999999999e+00  8.256108849411650e-01  1.696570384383008e-17
-1.429999999999999e+00  8.256108849411650e-01  1.696570384383008e-17
-1.429999999999999e+00  8.256108849411650e-01  1.696570384383008e-17
-1.429999999999999e+00  8.256108849411650e-01  1.696570384383008e-17
-1.429999999999999e+00  8.256108849411650e-01  1.696570384383008e-17
-1.429999999999999e+00  8.256108849411650e-01  1.696570384383008e-17
-1.429999999999999e+00  8.256108849411650e-01  1.696570384383008e-17
-1.429999999999999e+00  8.256108849411650e-01  1.696570384383008e-17
-1.429999999999999e+00  8.256108849411650e-01  1.696570384383008e-17
-1.429999999999999e+00  8.256108849411650e-01  1.696570384383008e-17
-1.429999999999999e+00  8.256108849411650e-01  1.696570384383008e-17
-1.429999999999999e+00  8.256108849411650e-01  1.696570384383008e-17
-1.429999999999999e+00  8.256108849411650e-01  1.696570384383008e-17
-1.429999999999999e+00  8.256108849411650e-01  1.696570384383008e-17
-1.429999999999999e+00  8.256108849411650e-01  1.696570384383008e-17
-1.429999999999999e+00  8.256108849411650e-01  1.696570384383008e-17
-1.429999999999999e+00  8.256108849411650e-01  1.696570384383008e-17
-1.429999999999999e+00  8.256108849411650e-01  1.696570384383008e-17
-1.429999999999999e+00  8.256108849411650e-01  1.696570384383008e-17
-1.429999999999999e+00  8.256108849411650e-01  1.696570384383008e-17
-1.429999999999999e+00  8.256108849411650e-01  1.696570384383008e-17
-1.429999999999999e+00  8.256108849411650e-01  1.696570384383008e-17
-1.429999999999999e+00  8.256108849411650e-01  1.696570384383008e-17
-1.429999999999999e+00  8.256108849411650e-01  1.696570384383008e-17
-1.429999999999999e+00  8.256108849411650e-01  1.696570384383008e-17
-1.429999999999999e+00  8.256108849411650e-01  1.696570384383008e-17
-1.429999999999999e+00  8.256108849411650e-01  1.696570384383008e-17
-1.429999999999999e+00  8.256108849411650e-01  1.696570384383008e-17
-1.429999999999999e+00  8.256108849411650e-01  1.696570384383008e-17
-1.429999999999999e+00  8.256108849411650e-01  1.696570384383008e-17
-1.429999999999999e+00  8.256108849411650e-01  1.696570384383008e-17
-1.429999999999999e+00  8.256108849411650e-01  1.696570384383008e-17
-1.429999999999999e+00  8.256108849411650e-01  1.696570384383008e-17
-1.429999999999999e+00  8.256108849411650e-01  1.696570384383008e-17
-1.429999999999999e+00  8.256108849411650e-01  1.696570384383008e-17
-1.429999999999999e+00  8.256108849411650e-01  1.696570384383008e-17
-1.429999999999999e+00  8.256108849411650e-01  1.696570384383008e-17
-1.429999999999999e+00  8.256108849411650e-01  1.696570384383008e-17
-1.429999999999999e+00  8.256108849411650e-01  1.696570384383008e-17
-1.429999999999999e+00  8.256108849411650e-01  1.696570384383008e-17
-1.429999999999999e+00  8.256108849411650e-01  1.696570384383008e-17
-1.429999999999999e+00  8.256108849411650e-01  1.696570384383008e-17
-1.429999999999999e+00  8.256108849411650e-01  1.696570384383008e-17
-1.429999999999999e+00  8.256108849411650e-01  1.696570384383008e-17
-1.429999999999999e+00  8.256108849411650e-01  1.696570384383008e-17
-1.429999999999999e+00  8.256108849411650e-01  1.696570384383008e-17
-1.429999999999999e+00  8.256108849411650e-01  1.696570384383008e-17
-1.429999999999999e+00  8.256108849411650e-01  1.696570384383008e-17
-1.429999999999999e+00  8.256108849411650e-01  1.696570384383008e-17
-1.429999999999999e+00  8.256108849411650e-01  1.696570384383008e-17
-1.429999999999999e+00  8.256108849411650e-01  1.696570384383008e-17
-1.429999999999999e+00  8.256108849411650e-01  1.696570384383008e-17
-1.429999999999999e+00  8.256108849411650e-01  1.696570384383008e-17
-1.429999999999999e+00  8.256108849411650e-01  1.696570384383008e-17
-1.429999999999999e+00  8.256108849411650e-01  1.696570384383008e-17
-1.429999999999999e+00  8.256108849411650e-01  1.696570384383008e-17
-1.429999999999999e+00  8.256108849411650e-01  1.696570384383008e-17
-1.429999999999999e+00  8.256108849411650e-01  1.696570384383008e-17
-1.429999999999999e+00  8.256108849411650e-01  1.696570384383008e-17
-1.429999999999999e+00  8.256108849411650e-01  1.696570384383008e-17
-1.429999999999999e+00  8.256108849411650e-01  1.696570384383008e-17
-1.429999999999999e+00  8.256108849411650e-01  1.696570384383008e-17
-1.429999999999999e+00  8.256108849411650e-01  1.696570384383008e-17
-1.429999999999999e+00  8.256108849411650e-01  1.696570384383008e-17
-1.429999999999999e+00  8.256108849411650e-01  1.696570384383008e-17
-1.429999999999999e+00  8.256108849411650e-01  1.696570384383008e-17
-1.429999999999999e+00  8.256108849411650e-01  1.696570384383008e-17
-1.429999999999999e+00  8.256108849411650e-01  1.696570384383008e-17
-1.429999999999999e+00  8.256108849411650e-01  1.696570384383008e-17
-1.429999999999999e+00  8.256108849411650e-01  1.696570384383008e-17
-1.429999999999999e+00  8.256108849411650e-01  1.696570384383008e-17
-1.429999999999999e+00  8.256108849411650e-01  1.696570384383008e-17
-1.429999999999999e+00  8.256108849411650e-01  1.696570384383008e-17
-1.429999999999999e+00  8.256108849411650e-01  1.696570384383008e-17
-1.429999999999999e+00  8.256108849411650e-01  1.696570384383008e-17
-1.429999999999999e+00  8.256108849411650e-01  1.696570384383008e-17
-1.429999999999999e+00  8.256108849411650e-01  1.696570384383008e-17
-1.429999999999999e+00  8.256108849411650e-01  1.696570384383008e-17
-1.429999999999999e+00  8.256108849411650e-01  1.696570384383008e-17
-1.429999999999999e+00  8.256108849411650e-01  1.696570384383008e-17
-1.429999999999999e+00  8.256108849411650e-01  1.696570384383008e-17
-1.429999999999999e+00  8.256108849411650e-01  1.696570384383008e-17
-1.429999999999999e+00  8.256108849411650e-01  1.696570384383008e-17
-1.429999999999999e+00  8.256108849411650e-01  1.696570384383008e-17
-1.429999999999999e+00  8.256108849411650e-01  1.696570384383008e-17
-1.429999999999999e+00  8.256108849411650e-01  1.696570384383008e-17
-1.429999999999999e+00  8.256108849411650e-01  1.696570384383008e-17
-1.429999999999999e+00  8.256108849411650e-01  1.696570384383008e-17
-1.429999999999999e+00  8.256108849411650e-01  1.696570384383008e-17
-1.429999999999999e+00  8.256108849411650e-01  1.696570384383008e-17
-1.429999999999999e+00  8.256108849411650e-01  1.696570384383008e-17
-1.429999999999999e+00  8.256108849411650e-01  1.696570384383008e-17
-1.429999999999999e+00  8.256108849411650e-01  1.696570384383008e-17
-1.429999999999999e+00  8.256108849411650e-01  1.696570384383008e-17
-1.429999999999999e+00  8.256108849411650e-01  1.696570384383008e-17
-1.429999999999999e+00  8.256108849411650e-01  1.696570384383008e-17
-1.429999999999999e+00  8.256108849411650e-01  1.696570384383008e-17
-1.429999999999999e+00  8.256108849411650e-01  1.696570384383008e-17
-1.429999999999999e+00  8.256108849411650e-01  1.696570384383008e-17
-1.429999999999999e+00  8.256108849411650e-01  1.696570384383008e-17
-1.429999999999999e+00  8.256108849411650e-01  1.696570384383008e-17
-1.429999999999999e+00  8.256108849411650e-01  1.696570384383008e-17
-1.429999999999999e+00  8.256108849411650e-01  1.696570384383008e-17
-1.429999999999999e+00  8.256108849411650e-01  1.696570384383008e-17
-1.429999999999999e+00  8.256108849411650e-01  1.696570384383008e-17
-1.429999999999999e+00  8.256108849411650e-01  1.696570384383008e-17
-1.429999999999999e+00  8.256108849411650e-01  1.696570384383008e-17
-1.429999999999999e+00  8.256108849411650e-01  1.696570384383008e-17
-1.429999999999999e+00  8.256108849411650e-01  1.696570384383008e-17
-1.429999999999999e+00  8.256108849411650e-01  1.696570384383008e-17
-1.429999999999999e+00  8.256108849411650e-01  1.696570384383008e-17
-1.429999999999999e+00  8.256108849411650e-01  1.696570384383008e-17
-1.429999999999999e+00  8.256108849411650e-01  1.696570384383008e-17
-1.429999999999999e+00  8.256108849411650e-01  1.696570384383008e-17
-1.429999999999999e+00  8.256108849411650e-01  1.696570384383008e-17
-1.429999999999999e+00  8.256108849411650e-01  1.696570384383008e-17
-1.429999999999999e+00  8.256108849411650e-01  1.696570384383008e-17
-1.429999999999999e+00  8.256108849411650e-01  1.696570384383008e-17
-1.429999999999999e+00  8.256108849411650e-01  1.696570384383008e-17
-1.429999999999999e+00  8.256108849411650e-01  1.696570384383008e-17
-1.429999999999999e+00  8.256108849411650e-01  1.696570384383008e-17
-1.429999999999999e+00  8.256108849411650e-01  1.696570384383008e-17
-1.429999999999999e+00  8.256108849411650e-01  1.696570384383008e-17
-1.429999999999999e+00  8.256108849411650e-01  1.696570384383008e-17
-1.429999999999999e+00  8.256108849411650e-01  1.696570384383008e-17
-1.429999999999999e+00  8.256108849411650e-01  1.696570384383008e-17
-1.429999999999999e+00  8.256108849411650e-01  1.696570384383008e-17
-1.429999999999999e+00  8.256108849411650e-01  1.696570384383008e-17
-1.429999999999999e+00  8.256108849411650e-01  1.696570384383008e-17
-1.429999999999999e+00  8.256108849411650e-01  1.696570384383008e-17
-1.429999999999999e+00  8.256108849411650e-01  1.696570384383008e-17
-1.429999999999999e+00  8.256108849411650e-01  1.696570384383008e-17
-1.429999999999999e+00  8.256108849411650e-01  1.696570384383008e-17
-1.429999999999999e+00  8.256108849411650e-01  1.696570384383008e-17
-1.429999999999999e+00  8.256108849411650e-01  1.696570384383008e-17
-1.429999999999999e+00  8.256108849411650e-01  1.696570384383008e-17
-1.429999999999999e+00  8.256108849411650e-01  1.696570384383008e-17
-1.429999999999999e+00  8.256108849411650e-01  1.696570384383008e-17
-1.429999999999999e+00  8.256108849411650e-01  1.696570384383008e-17
-1.429999999999999e+00  8.256108849411650e-01  1.696570384383008e-17
-1.429999999999999e+00  8.256108849411650e-01  1.696570384383008e-17
-1.429999999999999e+00  8.256108849411650e-01  1.696570384383008e-17
-1.429999999999999e+00  8.256108849411650e-01  1.696570384383008e-17
-1.429999999999999e+00  8.256108849411650e-01  1.696570384383008e-17
-1.429999999999999e+00  8.256108849411650e-01  1.696570384383008e-17
-1.429999999999999e+00  8.256108849411650e-01  1.696570384383008e-17
-1.429999999999999e+00  8.256108849411650e-01  1.696570384383008e-17
-1.429999999999999e+00  8.256108849411650e-01  1.696570384383008e-17
-1.429999999999999e+00  8.256108849411650e-01  1.696570384383008e-17
 1.429999999999999e+00 -8.256108849411650e-01 -1.696570384383008e-17
-1.429999999999999e+00  8.256108849411650e-01  1.696570384383008e-17
-1.429999999999999e+00  8.256108849411650e-01  1.696570384383008e-17
-1.429999999999999e+00  8.256108849411650e-01  1.696570384383008e-17
-1.429999999999999e+00  8.256108849411650e-01  1.696570384383008e-17
-1.429999999999999e+00  8.256108849411650e-01  1.696570384383008e-17
-1.429999999999999e+00  8.256108849411650e-01  1.696570384383008e-17
-1.429999999999999e+00  8.256108849411650e-01  1.696570384383008e-17
-1.429999999999999e+00  8.256108849411650e-01  1.696570384383008e-17
-1.429999999999999e+00  8.256108849411650e-01  1.696570384383008e-17
-1.429999999999999e+00  8.256108849411650e-01  1.696570384383008e-17
-1.429999999999999e+00  8.256108849411650e-01  1.696570384383008e-17
-1.429999999999999e+00  8.256108849411650e-01  1.696570384383008e-17
-1.429999999999999e+00  8.256108849411650e-01  1.696570384383008e-17
-1.429999999999999e+00  8.256108849411650e-01  1.696570384383008e-17
-1.429999999999999e+00  8.256108849411650e-01  1.696570384383008e-17
-1.429999999999999e+00  8.256108849411650e-01  1.696570384383008e-17
-1.429999999999999e+00  8.256108849411650e-01  1.696570384383008e-17
-1.429999999999999e+00  8.256108849411650e-01  1.696570384383008e-17
-1.429999999999999e+00  8.256108849411650e-01  1.696570384383008e-17
-1.429999999999999e+00  8.256108849411650e-01  1.696570384383008e-17
-1.429999999999999e+00  8.256108849411650e-01  1.696570384383008e-17
-1.429999999999999e+00  8.256108849411650e-01  1.696570384383008e-17
-1.429999999999999e+00  8.256108849411650e-01  1.696570384383008e-17
-1.429999999999999e+00  8.256108849411650e-01  1.696570384383008e-17
-1.429999999999999e+00  8.256108849411650e-01  1.696570384383008e-17
-1.429999999999999e+00  8.256108849411650e-01  1.696570384383008e-17
-1.429999999999999e+00  8.256108849411650e-01  1.696570384383008e-17
-1.429999999999999e+00  8.256108849411650e-01  1.696570384383008e-17
-1.429999999999999e+00  8.256108849411650e-01  1.696570384383008e-17
-1.429999999999999e+00  8.256108849411650e-01  1.696570384383008e-17
-1.429999999999999e+00  8.256108849411650e-01  1.696570384383008e-17
-1.429999999999999e+00  8.256108849411650e-01  1.696570384383008e-17
-1.429999999999999e+00  8.256108849411650e-01  1.696570384383008e-17
-1.429999999999999e+00  8.256108849411650e-01  1.696570384383008e-17
-1.429999999999999e+00  8.256108849411650e-01  1.696570384383008e-17
-1.429999999999999e+00  8.256108849411650e-01  1.696570384383008e-17
-1.429999999999999e+00  8.256108849411650e-01  1.696570384383008e-17
-1.429999999999999e+00  8.256108849411650e-01  1.696570384383008e-17
-1.429999999999999e+00  8.256108849411650e-01  1.696570384383008e-17
-1.429999999999999e+00  8.256108849411650e-01  1.696570384383008e-17
-1.429999999999999e+00  8.256108849411650e-01  1.696570384383008e-17
-1.429999999999999e+00  8.256108849411650e-01  1.696570384383008e-17
-1.429999999999999e+00  8.256108849411650e-01  1.696570384383008e-17
-1.429999999999999e+00  8.256108849411650e-01  1.696570384383008e-17
-1.429999999999999e+00  8.256108849411650e-01  1.696570384383008e-17
-1.429999999999999e+00  8.256108849411650e-01  1.696570384383008e-17
-1.429999999999999e+00  8.256108849411650e-01  1.696570384383008e-17
-1.429999999999999e+00  8.256108849411650e-01  1.696570384383008e-17
-1.429999999999999e+00  8.256108849411650e-01  1.696570384383008e-17
-1.429999999999999e+00  8.256108849411650e-01  1.696570384383008e-17
-1.429999999999999e+00  8.256108849411650e-01  1.696570384383008e-17
-1.429999999999999e+00  8.256108849411650e-01  1.696570384383008e-17
-1.429999999999999e+00  8.256108849411650e-01  1.696570384383008e-17
-1.429999999999999e+00  8.256108849411650e-01  1.696570384383008e-17
-1.429999999999999e+00  8.256108849411650e-01  1.696570384383008e-17
-1.429999999999999e+00  8.256108849411650e-01  1.696570384383008e-17
-1.429999999999999e+00  8.256108849411650e-01  1.696570384383008e-17
-1.429999999999999e+00  8.256108849411650e-01  1.696570384383008e-17
-1.429999999999999e+00  8.256108849411650e-01  1.696570384383008e-17
-1.429999999999999e+00  8.256108849411650e-01  1.696570384383008e-17
-1.429999999999999e+00  8.256108849411650e-01  1.696570384383008e-17
-1.429999999999999e+00  8.256108849411650e-01  1.696570384383008e-17
-1.429999999999999e+00  8.256108849411650e-01  1.696570384383008e-17
-1.429999999999999e+00  8.256108849411650e-01  1.696570384383008e-17
-1.429999999999999e+00  8.256108849411650e-01  1.696570384383008e-17
-1.429999999999999e+00  8.256108849411650e-01  1.696570384383008e-17
-1.429999999999999e+00  8.256108849411650e-01  1.696570384383008e-17
-1.429999999999999e+00  8.256108849411650e-01  1.696570384383008e-17
-1.429999999999999e+00  8.256108849411650e-01  1.696570384383008e-17
-1.429999999999999e+00  8.256108849411650e-01  1.696570384383008e-17
-1.429999999999999e+00  8.256108849411650e-01  1.696570384383008e-17
-1.429999999999999e+00  8.256108849411650e-01  1.696570384383008e-17
-1.429999999999999e+00  8.256108849411650e-01  1.696570384383008e-17
-1.429999999999999e+00  8.256108849411650e-01  1.696570384383008e-17
-1.429999999999999e+00  8.256108849411650e-01  1.696570384383008e-17
-1.429999999999999e+00  8.256108849411650e-01  1.696570384383008e-17
-1.429999999999999e+00  8.256108849411650e-01  1.696570384383008e-17
-1.429999999999999e+00  8.256108849411650e-01  1.696570384383008e-17
-1.429999999999999e+00  8.256108849411650e-01  1.696570384383008e-17
-1.429999999999999e+00  8.256108849411650e-01  1.696570384383008e-17
-1.429999999999999e+00  8.256108849411650e-01  1.696570384383008e-17
-1.429999999999999e+00  8.256108849411650e-01  1.696570384383008e-17
-1.429999999999999e+00  8.256108849411650e-01  1.696570384383008e-17
-1.429999999999999e+00  8.256108849411650e-01  1.696570384383008e-17
-1.429999999999999e+00  8.256108849411650e-01  1.696570384383008e-17
-1.429999999999999e+00  8.256108849411650e-01  1.696570384383008e-17
-1.429999999999999e+00  8.256108849411650e-01  1.696570384383008e-17
-1.429999999999999e+00  8.256108849411650e-01  1.696570384383008e-17
-1.429999999999999e+00  8.256108849411650e-01  1.696570384383008e-17
-1.429999999999999e+00  8.256108849411650e-01  1.696570384383008e-17
-1.429999999999999e+00  8.256108849411650e-01  1.696570384383008e-17
-1.429999999999999e+00  8.256108849411650e-01  1.696570384383008e-17
-1.429999999999999e+00  8.256108849411650e-01  1.696570384383008e-17
-1.429999999999999e+00  8.256108849411650e-01  1.696570384383008e-17
-1.429999999999999e+00  8.256108849411650e-01  1.696570384383008e-17
-1.429999999999999e+00  8.256108849411650e-01  1.696570384383008e-17
-1.429999999999999e+00  8.256108849411650e-01  1.696570384383008e-17
-1.429999999999999e+00  8.256108849411650e-01  1.696570384383008e-17
-1.429999999999999e+00  8.256108849411650e-01  1.696570384383008e-17
-1.429999999999999e+00  8.256108849411650e-01  1.696570384383008e-17
-1.429999999999999e+00  8.256108849411650e-01  1.696570384383008e-17
-1.429999999999999e+00  8.256108849411650e-01  1.696570384383008e-17
-1.429999999999999e+00  8.256108849411650e-01  1.696570384383008e-17
-1.429999999999999e+00  8.256108849411650e-01  1.696570384383008e-17
-1.429999999999999e+00  8.256108849411650e-01  1.696570384383008e-17
-1.429999999999999e+00  8.256108849411650e-01  1.696570384383008e-17
-1.429999999999999e+00  8.256108849411650e-01  1.696570384383008e-17
-1.429999999999999e+00  8.256108849411650e-01  1.696570384383008e-17
-1.429999999999999e+00  8.256108849411650e-01  1.696570384383008e-17
-1.429999999999999e+00  8.256108849411650e-01  1.696570384383008e-17
-1.429999999999999e+00  8.256108849411650e-01  1.696570384383008e-17
-1.429999999999999e+00  8.256108849411650e-01  1.696570384383008e-17
-1.429999999999999e+00  8.256108849411650e-01  1.696570384383008e-17
-1.429999999999999e+00  8.256108849411650e-01  1.696570384383008e-17
-1.429999999999999e+00  8.256108849411650e-01  1.696570384383008e-17
-1.429999999999999e+00  8.256108849411650e-01  1.696570384383008e-17
-1.429999999999999e+00  8.256108849411650e-01  1.696570384383008e-17
-1.429999999999999e+00  8.256108849411650e-01  1.696570384383008e-17
-1.429999999999999e+00  8.256108849411650e-01  1.696570384383008e-17
-1.429999999999999e+00  8.256108849411650e-01  1.696570384383008e-17
-1.429999999999999e+00  8.256108849411650e-01  1.696570384383008e-17
-1.429999999999999e+00  8.256108849411650e-01  1.696570384383008e-17
-1.429999999999999e+00  8.256108849411650e-01  1.696570384383008e-17
-1.429999999999999e+00  8.256108849411650e-01  1.696570384383008e-17
-1.429999999999999e+00  8.256108849411650e-01  1.696570384383008e-17
-1.429999999999999e+00  8.256108849411650e-01  1.696570384383008e-17
-1.429999999999999e+00  8.256108849411650e-01  1.696570384383008e-17
-1.429999999999999e+00  8.256108849411650e-01  1.696570384383008e-17
-1.429999999999999e+00  8.256108849411650e-01  1.696570384383008e-17
-1.429999999999999e+00  8.256108849411650e-01  1.696570384383008e-17
-1.429999999999999e+00  8.256108849411650e-01  1.696570384383008e-17
-1.429999999999999e+00  8.256108849411650e-01  1.696570384383008e-17
-1.429999999999999e+00  8.256108849411650e-01  1.696570384383008e-17
-1.429999999999999e+00  8.256108849411650e-01  1.696570384383008e-17
-1.429999999999999e+00  8.256108849411650e-01  1.696570384383008e-17
-1.429999999999999e+00  8.256108849411650e-01  1.696570384383008e-17
-1.429999999999999e+00  8.256108849411650e-01  1.696570384383008e-17
-1.429999999999999e+00  8.256108849411650e-01  1.696570384383008e-17
-1.429999999999999e+00  8.256108849411650e-01  1.696570384383008e-17
-1.429999999999999e+00  8.256108849411650e-01  1.696570384383008e-17
-1.429999999999999e+00  8.256108849411650e-01  1.696570384383008e-17
-1.429999999999999e+00  8.256108849411650e-01  1.696570384383008e-17
-1.429999999999999e+00  8.256108849411650e-01  1.696570384383008e-17
-1.429999999999999e+00  8.256108849411650e-01  1.696570384383008e-17
-1.429999999999999e+00  8.256108849411650e-01  1.696570384383008e-17
-1.429999999999999e+00  8.256108849411650e-01  1.696570384383008e-17
-1.429999999999999e+00  8.256108849411650e-01  1.696570384383008e-17
-1.429999999999999e+00  8.256108849411650e-01  1.696570384383008e-17
-1.429999999999999e+00  8.256108849411650e-01  1.696570384383008e-17
-1.429999999999999e+00  8.256108849411650e-01  1.696570384383008e-17
-1.429999999999999e+00  8.256108849411650e-01  1.696570384383008e-17
-1.429999999999999e+00  8.256108849411650e-01  1.696570384383008e-17
-1.429999999999999e+00  8.256108849411650e-01  1.696570384383008e-17
-1.429999999999999e+00  8.256108849411650e-01  1.696570384383008e-17
-1.429999999999999e+00  8.256108849411650e-01  1.696570384383008e-17
-1.429999999999999e+00  8.256108849411650e-01  1.696570384383008e-17
-1.429999999999999e+00  8.256108849411650e-01  1.696570384383008e-17
-1.429999999999999e+00  8.256108849411650e-01  1.696570384383008e-17
-1.429999999999999e+00  8.256108849411650e-01  1.696570384383008e-17
-1.429999999999999e+00  8.256108849411650e-01  1.696570384383008e-17
-1.429999999999999e+00  8.256108849411650e-01  1.696570384383008e-17
-1.429999999999999e+00  8.256108849411650e-01  1.696570384383008e-17
-1.429999999999999e+00  8.256108849411650e-01  1.696570384383008e-17
-1.429999999999999e+00  8.256108849411650e-01  1.696570384383008e-17
-1.429999999999999e+00  8.256108849411650e-01  1.696570384383008e-17
-1.429999999999999e+00  8.256108849411650e-01  1.696570384383008e-17
-1.429999999999999e+00  8.256108849411650e-01  1.696570384383008e-17
-1.429999999999999e+00  8.256108849411650e-01  1.696570384383008e-17
-1.429999999999999e+00  8.256108849411650e-01  1.696570384383008e-17
-1.429999999999999e+00  8.256108849411650e-01  1.696570384383008e-17
-1.429999999999999e+00  8.256108849411650e-01  1.696570384383008e-17
-1.429999999999999e+00  8.256108849411650e-01  1.696570384383008e-17
-1.429999999999999e+00  8.256108849411650e-01  1.696570384383008e-17
-1.429999999999999e+00  8.256108849411650e-01  1.696570384383008e-17
-1.429999999999999e+00  8.256108849411650e-01  1.696570384383008e-17
-1.429999999999999e+00  8.256108849411650e-01  1.696570384383008e-17
-1.429999999999999e+00  8.256108849411650e-01  1.696570384383008e-17
-1.429999999999999e+00  8.256108849411650e-01  1.696570384383008e-17
-1.429999999999999e+00  8.256108849411650e-01  1.696570384383008e-17
 1.429999999999999e+00 -8.256108849411650e-01 -1.696570384383008e-17
-1.429999999999999e+00  8.256108849411650e-01  1.696570384383008e-17
 1.429999999999999e+00 -8.256108849411650e-01 -1.696570384383008e-17
 1.429999999999999e+00 -8.256108849411650e-01 -1.696570384383008e-17
 1.429999999999999e+00 -8.256108849411650e-01 -1.696570384383008e-17
 1.429999999999999e+00 -8.256108849411650e-01 -1.696570384383008e-17
 1.429999999999999e+00 -8.256108849411650e-01 -1.696570384383008e-17
 1.429999999999999e+00 -8.256108849411650e-01 -1.696570384383008e-17
 1.429999999999999e+00 -8.256108849411650e-01 -1.696570384383008e-17
 1.429999999999999e+00 -8.256108849411650e-01 -1.696570384383008e-17
 1.429999999999999e+00 -8.256108849411650e-01 -1.696570384383008e-17
 1.429999999999999e+00 -8.256108849411650e-01 -1.696570384383008e-17
 1.429999999999999e+00 -8.256108849411650e-01 -1.696570384383008e-17
 1.429999999999999e+00 -8.256108849411650e-01 -1.696570384383008e-17
 1.429999999999999e+00 -8.256108849411650e-01 -1.696570384383008e-17
 1.429999999999999e+00 -8.256108849411650e-01 -1.696570384383008e-17
 1.429999999999999e+00 -8.256108849411650e-01 -1.696570384383008e-17
 1.429999999999999e+00 -8.256108849411650e-01 -1.696570384383008e-17
 1.429999999999999e+00 -8.256108849411650e-01 -1.696570384383008e-17
 1.429999999999999e+00 -8.256108849411650e-01 -1.696570384383008e-17
 1.429999999999999e+00 -8.256108849411650e-01 -1.696570384383008e-17
 1.429999999999999e+00 -8.256108849411650e-01 -1.696570384383008e-17
 1.429999999999999e+00 -8.256108849411650e-01 -1.696570384383008e-17
 1.429999999999999e+00 -8.256108849411650e-01 -1.696570384383008e-17
 1.429999999999999e+00 -8.256108849411650e-01 -1.696570384383008e-17
 1.429999999999999e+00 -8.256108849411650e-01 -1.696570384383008e-17
 1.429999999999999e+00 -8.256108849411650e-01 -1.696570384383008e-17
 1.429999999999999e+00 -8.256108849411650e-01 -1.696570384383008e-17
 1.429999999999999e+00 -8.256108849411650e-01 -1.696570384383008e-17
 1.429999999999999e+00 -8.256108849411650e-01 -1.696570384383008e-17
 1.429999999999999e+00 -8.256108849411650e-01 -1.696570384383008e-17
 1.429999999999999e+00 -8.256108849411650e-01 -1.696570384383008e-17
 1.429999999999999e+00 -8.256108849411650e-01 -1.696570384383008e-17
 1.429999999999999e+00 -8.256108849411650e-01 -1.696570384383008e-17
 1.429999999999999e+00 -8.256108849411650e-01 -1.696570384383008e-17
 1.429999999999999e+00 -8.256108849411650e-01 -1.696570384383008e-17
 1.429999999999999e+00 -8.256108849411650e-01 -1.696570384383008e-17
 1.429999999999999e+00 -8.256108849411650e-01 -1.696570384383008e-17
 1.429999999999999e+00 -8.256108849411650e-01 -1.696570384383008e-17
 1.429999999999999e+00 -8.256108849411650e-01 -1.696570384383008e-17
 1.429999999999999e+00 -8.256108849411650e-01 -1.696570384383008e-17
 1.429999999999999e+00 -8.256108849411650e-01 -1.696570384383008e-17
 1.429999999999999e+00 -8.256108849411650e-01 -1.696570384383008e-17
 1.429999999999999e+00 -8.256108849411650e-01 -1.696570384383008e-17
 1.429999999999999e+00 -8.256108849411650e-01 -1.696570384383008e-17
 1.429999999999999e+00 -8.256108849411650e-01 -1.696570384383008e-17
 1.429999999999999e+00 -8.256108849411650e-01 -1.696570384383008e-17
 1.429999999999999e+00 -8.256108849411650e-01 -1.696570384383008e-17
 1.429999999999999e+00 -8.256108849411650e-01 -1.696570384383008e-17
 1.429999999999999e+00 -8.256108849411650e-01 -1.696570384383008e-17
 1.429999999999999e+00 -8.256108849411650e-01 -1.696570384383008e-17
 1.429999999999999e+00 -8.256108849411650e-01 -1.696570384383008e-17
 1.429999999999999e+00 -8.256108849411650e-01 -1.696570384383008e-17
 1.429999999999999e+00 -8.256108849411650e-01 -1.696570384383008e-17
 1.429999999999999e+00 -8.256108849411650e-01 -1.696570384383008e-17
 1.429999999999999e+00 -8.256108849411650e-01 -1.696570384383008e-17
 1.429999999999999e+00 -8.256108849411650e-01 -1.696570384383008e-17
 1.429999999999999e+00 -8.256108849411650e-01 -1.696570384383008e-17
 1.429999999999999e+00 -8.256108849411650e-01 -1.696570384383008e-17
 1.429999999999999e+00 -8.256108849411650e-01 -1.696570384383008e-17
 1.429999999999999e+00 -8.256108849411650e-01 -1.696570384383008e-17
 1.429999999999999e+00 -8.256108849411650e-01 -1.696570384383008e-17
 1.429999999999999e+00 -8.256108849411650e-01 -1.696570384383008e-17
 1.429999999999999e+00 -8.256108849411650e-01 -1.696570384383008e-17
 1.429999999999999e+00 -8.256108849411650e-01 -1.696570384383008e-17
 1.429999999999999e+00 -8.256108849411650e-01 -1.696570384383008e-17
 1.429999999999999e+00 -8.256108849411650e-01 -1.696570384383008e-17
 1.429999999999999e+00 -8.256108849411650e-01 -1.696570384383008e-17
 1.429999999999999e+00 -8.256108849411650e-01 -1.696570384383008e-17
 1.429999999999999e+00 -8.256108849411650e-01 -1.696570384383008e-17
 1.429999999999999e+00 -8.256108849411650e-01 -1.696570384383008e-17
 1.429999999999999e+00 -8.256108849411650e-01 -1.696570384383008e-17
 1.429999999999999e+00 -8.256108849411650e-01 -1.696570384383008e-17
 1.429999999999999e+00 -8.256108849411650e-01 -1.696570384383008e-17
 1.429999999999999e+00 -8.256108849411650e-01 -1.696570384383008e-17
 1.429999999999999e+00 -8.256108849411650e-01 -1.696570384383008e-17
 1.429999999999999e+00 -8.256108849411650e-01 -1.696570384383008e-17
 1.429999999999999e+00 -8.256108849411650e-01 -1.696570384383008e-17
 1.429999999999999e+00 -8.256108849411650e-01 -1.696570384383008e-17
 1.429999999999999e+00 -8.256108849411650e-01 -1.696570384383008e-17
 1.429999999999999e+00 -8.256108849411650e-01 -1.696570384383008e-17
 1.429999999999999e+00 -8.256108849411650e-01 -1.696570384383008e-17
 1.429999999999999e+00 -8.256108849411650e-01 -1.696570384383008e-17
 1.429999999999999e+00 -8.256108849411650e-01 -1.696570384383008e-17
 1.429999999999999e+00 -8.256108849411650e-01 -1.696570384383008e-17
 1.429999999999999e+00 -8.256108849411650e-01 -1.696570384383008e-17
 1.429999999999999e+00 -8.256108849411650e-01 -1.696570384383008e-17
 1.429999999999999e+00 -8.256108849411650e-01 -1.696570384383008e-17
 1.429999999999999e+00 -8.256108849411650e-01 -1.696570384383008e-17
 1.429999999999999e+00 -8.256108849411650e-01 -1.696570384383008e-17
 1.429999999999999e+00 -8.256108849411650e-01 -1.696570384383008e-17
 1.429999999999999e+00 -8.256108849411650e-01 -1.696570384383008e-17
 1.429999999999999e+00 -8.256108849411650e-01 -1.696570384383008e-17
 1.429999999999999e+00 -8.256108849411650e-01 -1.696570384383008e-17
 1.429999999999999e+00 -8.256108849411650e-01 -1.696570384383008e-17
 1.429999999999999e+00 -8.256108849411650e-01 -1.696570384383008e-17
 1.429999999999999e+00 -8.256108849411650e-01 -1.696570384383008e-17
 1.429999999999999e+00 -8.256108849411650e-01 -1.696570384383008e-17
 1.429999999999999e+00 -8.256108849411650e-01 -1.696570384383008e-17
 1.429999999999999e+00 -8.256108849411650e-01 -1.696570384383008e-17
 1.429999999999999e+00 -8.256108849411650e-01 -1.696570384383008e-17
 1.429999999999999e+00 -8.256108849411650e-01 -1.696570384383008e-17
 1.429999999999999e+00 -8.256108849411650e-01 -1.696570384383008e-17
 1.429999999999999e+00 -8.256108849411650e-01 -1.696570384383008e-17
 1.429999999999999e+00 -8.256108849411650e-01 -1.696570384383008e-17
 1.429999999999999e+00 -8.256108849411650e-01 -1.696570384383008e-17
 1.429999999999999e+00 -8.256108849411650e-01 -1.696570384383008e-17
 1.429999999999999e+00 -8.256108849411650e-01 -1.696570384383008e-17
 1.429999999999999e+00 -8.256108849411650e-01 -1.696570384383008e-17
 1.429999999999999e+00 -8.256108849411650e-01 -1.696570384383008e-17
 1.429999999999999e+00 -8.256108849411650e-01 -1.696570384383008e-17
 1.429999999999999e+00 -8.256108849411650e-01 -1.696570384383008e-17
 1.429999999999999e+00 -8.256108849411650e-01 -1.696570384383008e-17
 1.429999999999999e+00 -8.256108849411650e-01 -1.696570384383008e-17
 1.429999999999999e+00 -8.256108849411650e-01 -1.696570384383008e-17
 1.429999999999999e+00 -8.256108849411650e-01 -1.696570384383008e-17
 1.429999999999999e+00 -8.256108849411650e-01 -1.696570384383008e-17
 1.429999999999999e+00 -8.256108849411650e-01 -1.696570384383008e-17
 1.429999999999999e+00 -8.256108849411650e-01 -1.696570384383008e-17
 1.429999999999999e+00 -8.256108849411650e-01 -1.696570384383008e-17
 1.429999999999999e+00 -8.256108849411650e-01 -1.696570384383008e-17
 1.429999999999999e+00 -8.256108849411650e-01 -1.696570384383008e-17
 1.429999999999999e+00 -8.256108849411650e-01 -1.696570384383008e-17
 1.429999999999999e+00 -8.256108849411650e-01 -1.696570384383008e-17
 1.429999999999999e+00 -8.256108849411650e-01 -1.696570384383008e-17
 1.429999999999999e+00 -8.256108849411650e-01 -1.696570384383008e-17
 1.429999999999999e+00 -8.256108849411650e-01 -1.696570384383008e-17
 1.429999999999999e+00 -8.256108849411650e-01 -1.696570384383008e-17
 1.429999999999999e+00 -8.256108849411650e-01 -1.696570384383008e-17
 1.429999999999999e+00 -8.256108849411650e-01 -1.696570384383008e-17
 1.429999999999999e+00 -8.256108849411650e-01 -1.696570384383008e-17
 1.429999999999999e+00 -8.256108849411650e-01 -1.696570384383008e-17
 1.429999999999999e+00 -8.256108849411650e-01 -1.696570384383008e-17
 1.429999999999999e+00 -8.256108849411650e-01 -1.696570384383008e-17
 1.429999999999999e+00 -8.256108849411650e-01 -1.696570384383008e-17
 1.429999999999999e+00 -8.256108849411650e-01 -1.696570384383008e-17
 1.429999999999999e+00 -8.256108849411650e-01 -1.696570384383008e-17
 1.429999999999999e+00 -8.256108849411650e-01 -1.696570384383008e-17
 1.429999999999999e+00 -8.256108849411650e-01 -1.696570384383008e-17
 1.429999999999999e+00 -8.256108849411650e-01 -1.696570384383008e-17
 1.429999999999999e+00 -8.256108849411650e-01 -1.696570384383008e-17
 1.429999999999999e+00 -8.256108849411650e-01 -1.696570384383008e-17
 1.429999999999999e+00 -8.256108849411650e-01 -1.696570384383008e-17
 1.429999999999999e+00 -8.256108849411650e-01 -1.696570384383008e-17
 1.429999999999999e+00 -8.256108849411650e-01 -1.696570384383008e-17
 1.429999999999999e+00 -8.256108849411650e-01 -1.696570384383008e-17
 1.429999999999999e+00 -8.256108849411650e-01 -1.696570384383008e-17
 1.429999999999999e+00 -8.256108849411650e-01 -1.696570384383008e-17
 1.429999999999999e+00 -8.256108849411650e-01 -1.696570384383008e-17
 1.429999999999999e+00 -8.256108849411650e-01 -1.696570384383008e-17
 1.429999999999999e+00 -8.256108849411650e-01 -1.696570384383008e-17
 1.429999999999999e+00 -8.256108849411650e-01 -1.696570384383008e-17
 1.429999999999999e+00 -8.256108849411650e-01 -1.696570384383008e-17
-1.429999999999999e+00  8.256108849411650e-01  1.696570384383008e-17
 1.429999999999999e+00 -8.256108849411650e-01 -1.696570384383008e-17
 1.429999999999999e+00 -8.256108849411650e-01 -1.696570384383008e-17
 1.429999999999999e+00 -8.256108849411650e-01 -1.696570384383008e-17
 1.429999999999999e+00 -8.256108849411650e-01 -1.696570384383008e-17
 1.429999999999999e+00 -8.256108849411650e-01 -1.696570384383008e-17
 1.429999999999999e+00 -8.256108849411650e-01 -1.696570384383008e-17
 1.429999999999999e+00 -8.256108849411650e-01 -1.696570384383008e-17
 1.429999999999999e+00 -8.256108849411650e-01 -1.696570384383008e-17
 1.429999999999999e+00 -8.256108849411650e-01 -1.696570384383008e-17
 1.429999999999999e+00 -8.256108849411650e-01 -1.696570384383008e-17
 1.429999999999999e+00 -8.256108849411650e-01 -1.696570384383008e-17
 1.429999999999999e+00 -8.256108849411650e-01 -1.696570384383008e-17
 1.429999999999999e+00 -8.256108849411650e-01 -1.696570384383008e-17
 1.429999999999999e+00 -8.256108849411650e-01 -1.696570384383008e-17
 1.429999999999999e+00 -8.256108849411650e-01 -1.696570384383008e-17
 1.429999999999999e+00 -8.256108849411650e-01 -1.696570384383008e-17
 1.429999999999999e+00 -8.256108849411650e-01 -1.696570384383008e-17
 1.429999999999999e+00 -8.256108849411650e-01 -1.696570384383008e-17
 1.429999999999999e+00 -8.256108849411650e-01 -1.696570384383008e-17
 1.429999999999999e+00 -8.256108849411650e-01 -1.696570384383008e-17
 1.429999999999999e+00 -8.256108849411650e-01 -1.696570384383008e-17
 1.429999999999999e+00 -8.256108849411650e-01 -1.696570384383008e-17
 1.429999999999999e+00 -8.256108849411650e-01 -1.696570384383008e-17
 1.429999999999999e+00 -8.256108849411650e-01 -1.696570384383008e-17
 1.429999999999999e+00 -8.256108849411650e-01 -1.696570384383008e-17
 1.429999999999999e+00 -8.256108849411650e-01 -1.696570384383008e-17
 1.429999999999999e+00 -8.256108849411650e-01 -1.696570384383008e-17
 1.429999999999999e+00 -8.256108849411650e-01 -1.696570384383008e-17
 1.429999999999999e+00 -8.256108849411650e-01 -1.696570384383008e-17
 1.429999999999999e+00 -8.256108849411650e-01 -1.696570384383008e-17
 1.429999999999999e+00 -8.256108849411650e-01 -1.696570384383008e-17
 1.429999999999999e+00 -8.256108849411650e-01 -1.696570384383008e-17
 1.429999999999999e+00 -8.256108849411650e-01 -1.696570384383008e-17
 1.429999999999999e+00 -8.256108849411650e-01 -1.696570384383008e-17
 1.429999999999999e+00 -8.256108849411650e-01 -1.696570384383008e-17
 1.429999999999999e+00 -8.256108849411650e-01 -1.696570384383008e-17
 1.429999999999999e+00 -8.256108849411650e-01 -1.696570384383008e-17
 1.429999999999999e+00 -8.256108849411650e-01 -1.696570384383008e-17
 1.429999999999999e+00 -8.256108849411650e-01 -1.696570384383008e-17
 1.429999999999999e+00 -8.256108849411650e-01 -1.696570384383008e-17
 1.429999999999999e+00 -8.256108849411650e-01 -1.696570384383008e-17
 1.429999999999999e+00 -8.256108849411650e-01 -1.696570384383008e-17
 1.429999999999999e+00 -8.256108849411650e-01 -1.696570384383008e-17
 1.429999999999999e+00 -8.256108849411650e-01 -1.696570384383008e-17
 1.429999999999999e+00 -8.256108849411650e-01 -1.696570384383008e-17
 1.429999999999999e+00 -8.256108849411650e-01 -1.696570384383008e-17
 1.429999999999999e+00 -8.256108849411650e-01 -1.696570384383008e-17
 1.429999999999999e+00 -8.256108849411650e-01 -1.696570384383008e-17
 1.429999999999999e+00 -8.256108849411650e-01 -1.696570384383008e-17
 1.429999999999999e+00 -8.256108849411650e-01 -1.696570384383008e-17
 1.429999999999999e+00 -8.256108849411650e-01 -1.696570384383008e-17
 1.429999999999999e+00 -8.256108849411650e-01 -1.696570384383008e-17
 1.429999999999999e+00 -8.256108849411650e-01 -1.696570384383008e-17
 1.429999999999999e+00 -8.256108849411650e-01 -1.696570384383008e-17
 1.429999999999999e+00 -8.256108849411650e-01 -1.696570384383008e-17
 1.429999999999999e+00 -8.256108849411650e-01 -1.696570384383008e-17
 1.429999999999999e+00 -8.256108849411650e-01 -1.696570384383008e-17
 1.429999999999999e+00 -8.256108849411650e-01 -1.696570384383008e-17
 1.429999999999999e+00 -8.256108849411650e-01 -1.696570384383008e-17
 1.429999999999999e+00 -8.256108849411650e-01 -1.696570384383008e-17
 1.429999999999999e+00 -8.256108849411650e-01 -1.696570384383008e-17
 1.429999999999999e+00 -8.256108849411650e-01 -1.696570384383008e-17
 1.429999999999999e+00 -8.256108849411650e-01 -1.696570384383008e-17
 1.429999999999999e+00 -8.256108849411650e-01 -1.696570384383008e-17
 1.429999999999999e+00 -8.256108849411650e-01 -1.696570384383008e-17
 1.429999999999999e+00 -8.256108849411650e-01 -1.696570384383008e-17
 1.429999999999999e+00 -8.256108849411650e-01 -1.696570384383008e-17
 1.429999999999999e+00 -8.256108849411650e-01 -1.696570384383008e-17
 1.429999999999999e+00 -8.256108849411650e-01 -1.696570384383008e-17
 1.429999999999999e+00 -8.256108849411650e-01 -1.696570384383008e-17
 1.429999999999999e+00 -8.256108849411650e-01 -1.696570384383008e-17
 1.429999999999999e+00 -8.256108849411650e-01 -1.696570384383008e-17
 1.429999999999999e+00 -8.256108849411650e-01 -1.696570384383008e-17
 1.429999999999999e+00 -8.256108849411650e-01 -1.696570384383008e-17
 1.429999999999999e+00 -8.256108849411650e-01 -1.696570384383008e-17
 1.429999999999999e+00 -8.256108849411650e-01 -1.696570384383008e-17
 1.429999999999999e+00 -8.256108849411650e-01 -1.696570384383008e-17
 1.429999999999999e+00 -8.256108849411650e-01 -1.696570384383008e-17
 1.429999999999999e+00 -8.256108849411650e-01 -1.696570384383008e-17
 1.429999999999999e+00 -8.256108849411650e-01 -1.696570384383008e-17
 1.429999999999999e+00 -8.256108849411650e-01 -1.696570384383008e-17
 1.429999999999999e+00 -8.256108849411650e-01 -1.696570384383008e-17
 1.429999999999999e+00 -8.256108849411650e-01 -1.696570384383008e-17
 1.429999999999999e+00 -8.256108849411650e-01 -1.696570384383008e-17
 1.429999999999999e+00 -8.256108849411650e-01 -1.696570384383008e-17
 1.429999999999999e+00 -8.256108849411650e-01 -1.696570384383008e-17
 1.429999999999999e+00 -8.256108849411650e-01 -1.696570384383008e-17
 1.429999999999999e+00 -8.256108849411650e-01 -1.696570384383008e-17
 1.429999999999999e+00 -8.256108849411650e-01 -1.696570384383008e-17
 1.429999999999999e+00 -8.256108849411650e-01 -1.696570384383008e-17
 1.429999999999999e+00 -8.256108849411650e-01 -1.696570384383008e-17
 1.429999999999999e+00 -8.256108849411650e-01 -1.696570384383008e-17
 1.429999999999999e+00 -8.256108849411650e-01 -1.696570384383008e-17
 1.429999999999999e+00 -8.256108849411650e-01 -1.696570384383008e-17
 1.429999999999999e+00 -8.256108849411650e-01 -1.696570384383008e-17
 1.429999999999999e+00 -8.256108849411650e-01 -1.696570384383008e-17
 1.429999999999999e+00 -8.256108849411650e-01 -1.696570384383008e-17
 1.429999999999999e+00 -8.256108849411650e-01 -1.696570384383008e-17
 1.429999999999999e+00 -8.256108849411650e-01 -1.696570384383008e-17
 1.429999999999999e+00 -8.256108849411650e-01 -1.696570384383008e-17
 1.429999999999999e+00 -8.256108849411650e-01 -1.696570384383008e-17
 1.429999999999999e+00 -8.256108849411650e-01 -1.696570384383008e-17
 1.429999999999999e+00 -8.256108849411650e-01 -1.696570384383008e-17
 1.429999999999999e+00 -8.256108849411650e-01 -1.696570384383008e-17
 1.429999999999999e+00 -8.256108849411650e-01 -1.696570384383008e-17
 1.429999999999999e+00 -8.256108849411650e-01 -1.696570384383008e-17
 1.429999999999999e+00 -8.256108849411650e-01 -1.696570384383008e-17
 1.429999999999999e+00 -8.256108849411650e-01 -1.696570384383008e-17
 1.429999999999999e+00 -8.256108849411650e-01 -1.696570384383008e-17
 1.429999999999999e+00 -8.256108849411650e-01 -1.696570384383008e-17
 1.429999999999999e+00 -8.256108849411650e-01 -1.696570384383008e-17
 1.429999999999999e+00 -8.256108849411650e-01 -1.696570384383008e-17
 1.429999999999999e+00 -8.256108849411650e-01 -1.696570384383008e-17
 1.429999999999999e+00 -8.256108849411650e-01 -1.696570384383008e-17
 1.429999999999999e+00 -8.256108849411650e-01 -1.696570384383008e-17
 1.429999999999999e+00 -8.256108849411650e-01 -1.696570384383008e-17
 1.429999999999999e+00 -8.256108849411650e-01 -1.696570384383008e-17
 1.429999999999999e+00 -8.256108849411650e-01 -1.696570384383008e-17
 1.429999999999999e+00 -8.256108849411650e-01 -1.696570384383008e-17
 1.429999999999999e+00 -8.256108849411650e-01 -1.696570384383008e-17
 1.429999999999999e+00 -8.256108849411650e-01 -1.696570384383008e-17
 1.429999999999999e+00 -8.256108849411650e-01 -1.696570384383008e-17
 1.429999999999999e+00 -8.256108849411650e-01 -1.696570384383008e-17
 1.429999999999999e+00 -8.256108849411650e-01 -1.696570384383008e-17
 1.429999999999999e+00 -8.256108849411650e-01 -1.696570384383008e-17
 1.429999999999999e+00 -8.256108849411650e-01 -1.696570384383008e-17
 1.429999999999999e+00 -8.256108849411650e-01 -1.696570384383008e-17
 1.429999999999999e+00 -8.256108849411650e-01 -1.696570384383008e-17
 1.429999999999999e+00 -8.256108849411650e-01 -1.696570384383008e-17
 1.429999999999999e+00 -8.256108849411650e-01 -1.696570384383008e-17
 1.429999999999999e+00 -8.256108849411650e-01 -1.696570384383008e-17
 1.429999999999999e+00 -8.256108849411650e-01 -1.696570384383008e-17
 1.429999999999999e+00 -8.256108849411650e-01 -1.696570384383008e-17
 1.429999999999999e+00 -8.256108849411650e-01 -1.696570384383008e-17
 1.429999999999999e+00 -8.256108849411650e-01 -1.696570384383008e-17
 1.429999999999999e+00 -8.256108849411650e-01 -1.696570384383008e-17
 1.429999999999999e+00 -8.256108849411650e-01 -1.696570384383008e-17
 1.429999999999999e+00 -8.256108849411650e-01 -1.696570384383008e-17

VECTORS burgers_vector_local double
-1.666666666666667e-01 -3.333333333333333e-01 -1.666666666666665e-01
1.666666666666667e-01 3.333333333333333e-01 1.666666666666665e-01
-1.666666666666667e-01 -3.333333333333333e-01 -1.666666666666665e-01
-1.666666666666667e-01 -3.333333333333333e-01 -1.666666666666665e-01
-1.666666666666667e-01 -3.333333333333333e-01 -1.666666666666665e-01
-1.666666666666667e-01 -3.333333333333333e-01 -1.666666666666665e-01
-1.666666666666667e-01 -3.333333333333333e-01 -1.666666666666665e-01
-1.666666666666667e-01 -3.333333333333333e-01 -1.666666666666665e-01
-1.666666666666667e-01 -3.333333333333333e-01 -1.666666666666665e-01
-1.666666666666667e-01 -3.333333333333333e-01 -1.666666666666665e-01
-1.666666666666667e-01 -3.333333333333333e-01 -1.666666666666665e-01
-1.666666666666667e-01 -3.333333333333333e-01 -1.666666666666665e-01
-1.666666666666667e-01 -3.333333333333333e-01 -1.666666666666665e-01
-1.666666666666667e-01 -3.333333333333333e-01 -1.666666666666665e-01
-1.666666666666667e-01 -3.333333333333333e-01 -1.666666666666665e-01
-1.666666666666667e-01 -3.333333333333333e-01 -1.666666666666665e-01
-1.666666666666667e-01 -3.333333333333333e-01 -1.666666666666665e-01
-1.666666666666667e-01 -3.333333333333333e-01 -1.666666666666665e-01
-1.666666666666667e-01 -3.333333333333333e-01 -1.666666666666665e-01
-1.666666666666667e-01 -3.333333333333333e-01 -1.666666666666665e-01
-1.666666666666667e-01 -3.333333333333333e-01 -1.666666666666665e-01
-1.666666666666667e-01 -3.333333333333333e-01 -1.666666666666665e-01
-1.666666666666667e-01 -3.333333333333333e-01 -1.666666666666665e-01
-1.666666666666667e-01 -3.333333333333333e-01 -1.666666666666665e-01
-1.666666666666667e-01 -3.333333333333333e-01 -1.666666666666665e-01
-1.666666666666667e-01 -3.333333333333333e-01 -1.666666666666665e-01
-1.666666666666667e-01 -3.333333333333333e-01 -1.666666666666665e-01
-1.666666666666667e-01 -3.333333333333333e-01 -1.666666666666665e-01
-1.666666666666667e-01 -3.333333333333333e-01 -1.666666666666665e-01
-1.666666666666667e-01 -3.333333333333333e-01 -1.666666666666665e-01
-1.666666666666667e-01 -3.333333333333333e-01 -1.666666666666665e-01
-1.666666666666667e-01 -3.333333333333333e-01 -1.666666666666665e-01
-1.666666666666667e-01 -3.333333333333333e-01 -1.666666666666665e-01
-1.666666666666667e-01 -3.333333333333333e-01 -1.666666666666665e-01
-1.666666666666667e-01 -3.333333333333333e-01 -1.666666666666665e-01
-1.666666666666667e-01 -3.333333333333333e-01 -1.666666666666665e-01
-1.666666666666667e-01 -3.333333333333333e-01 -1.666666666666665e-01
-1.666666666666667e-01 -3.333333333333333e-01 -1.666666666666665e-01
-1.666666666666667e-01 -3.333333333333333e-01 -1.666666666666665e-01
-1.666666666666667e-01 -3.333333333333333e-01 -1.666666666666665e-01
-1.666666666666667e-01 -3.333333333333333e-01 -1.666666666666665e-01
-1.666666666666667e-01 -3.333333333333333e-01 -1.666666666666665e-01
-1.666666666666667e-01 -3.333333333333333e-01 -1.666666666666665e-01
-1.666666666666667e-01 -3.333333333333333e-01 -1.666666666666665e-01
-1.666666666666667e-01 -3.333333333333333e-01 -1.666666666666665e-01
-1.666666666666667e-01 -3.333333333333333e-01 -1.666666666666665e-01
-1.666666666666667e-01 -3.333333333333333e-01 -1.666666666666665e-01
-1.666666666666667e-01 -3.333333333333333e-01 -1.666666666666665e-01
-1.666666666666667e-01 -3.333333333333333e-01 -1.666666666666665e-01
-1.666666666666667e-01 -3.333333333333333e-01 -1.666666666666665e-01
-1.666666666666667e-01 -3.333333333333333e-01 -1.666666666666665e-01
-1.666666666666667e-01 -3.333333333333333e-01 -1.666666666666665e-01
-1.666666666666667e-01 -3.333333333333333e-01 -1.666666666666665e-01
-1.666666666666667e-01 -3.333333333333333e-01 -1.666666666666665e-01
-1.666666666666667e-01 -3.333333333333333e-01 -1.666666666666665e-01
-1.666666666666667e-01 -3.333333333333333e-01 -1.666666666666665e-01
-1.666666666666667e-01 -3.333333333333333e-01 -1.666666666666665e-01
-1.666666666666667e-01 -3.333333333333333e-01 -1.666666666666665e-01
-1.666666666666667e-01 -3.333333333333333e-01 -1.666666666666665e-01
-1.666666666666667e-01 -3.333333333333333e-01 -1.666666666666665e-01
-1.666666666666667e-01 -3.333333333333333e-01 -1.666666666666665e-01
-1.666666666666667e-01 -3.333333333333333e-01 -1.666666666666665e-01
-1.666666666666667e-01 -3.333333333333333e-01 -1.666666666666665e-01
-1.666666666666667e-01 -3.333333333333333e-01 -1.666666666666665e-01
-1.666666666666667e-01 -3.333333333333333e-01 -1.666666666666665e-01
-1.666666666666667e-01 -3.333333333333333e-01 -1.666666666666665e-01
-1.666666666666667e-01 -3.333333333333333e-01 -1.666666666666665e-01
-1.666666666666667e-01 -3.333333333333333e-01 -1.666666666666665e-01
-1.666666666666667e-01 -3.333333333333333e-01 -1.666666666666665e-01
-1.666666666666667e-01 -3.333333333333333e-01 -1.666666666666665e-01
-1.666666666666667e-01 -3.333333333333333e-01 -1.666666666666665e-01
-1.666666666666667e-01 -3.333333333333333e-01 -1.666666666666665e-01
-1.666666666666667e-01 -3.333333333333333e-01 -1.666666666666665e-01
-1.666666666666667e-01 -3.333333333333333e-01 -1.666666666666665e-01
-1.666666666666667e-01 -3.333333333333333e-01 -1.666666666666665e-01
-1.666666666666667e-01 -3.333333333333333e-01 -1.666666666666665e-01
-1.666666666666667e-01 -3.333333333333333e-01 -1.666666666666665e-01
-1.666666666666667e-01 -3.333333333333333e-01 -1.666666666666665e-01
-1.666666666666667e-01 -3.333333333333333e-01 -1.666666666666665e-01
-1.666666666666667e-01 -3.333333333333333e-01 -1.666666666666665e-01
-1.666666666666667e-01 -3.333333333333333e-01 -1.666666666666665e-01
-1.666666666666667e-01 -3.333333333333333e-01 -1.666666666666665e-01
-1.666666666666667e-01 -3.333333333333333e-01 -1.666666666666665e-01
-1.666666666666667e-01 -3.333333333333333e-01 -1.666666666666665e-01
-1.666666666666667e-01 -3.333333333333333e-01 -1.666666666666665e-01
-1.666666666666667e-01 -3.333333333333333e-01 -1.666666666666665e-01
-1.666666666666667e-01 -3.333333333333333e-01 -1.666666666666665e-01
-1.666666666666667e-01 -3.333333333333333e-01 -1.666666666666665e-01
-1.666666666666667e-01 -3.333333333333333e-01 -1.666666666666665e-01
-1.666666666666667e-01 -3.333333333333333e-01 -1.666666666666665e-01
-1.666666666666667e-01 -3.333333333333333e-01 -1.666666666666665e-01
-1.666666666666667e-01 -3.333333333333333e-01 -1.666666666666665e-01
-1.666666666666667e-01 -3.333333333333333e-01 -1.666666666666665e-01
-1.666666666666667e-01 -3.333333333333333e-01 -1.666666666666665e-01
-1.666666666666667e-01 -3.333333333333333e-01 -1.666666666666665e-01
-1.666666666666667e-01 -3.333333333333333e-01 -1.666666666666665e-01
-1.666666666666667e-01 -3.333333333333333e-01 -1.666666666666665e-01
-1.666666666666667e-01 -3.333333333333333e-01 -1.666666666666665e-01
-1.666666666666667e-01 -3.333333333333333e-01 -1.666666666666665e-01
-1.666666666666667e-01 -3.333333333333333e-01 -1.666666666666665e-01
-1.666666666666667e-01 -3.333333333333333e-01 -1.666666666666665e-01
-1.666666666666667e-01 -3.333333333333333e-01 -1.666666666666665e-01
-1.666666666666667e-01 -3.333333333333333e-01 -1.666666666666665e-01
-1.666666666666667e-01 -3.333333333333333e-01 -1.666666666666665e-01
-1.666666666666667e-01 -3.333333333333333e-01 -1.666666666666665e-01
-1.666666666666667e-01 -3.333333333333333e-01 -1.666666666666665e-01
-1.666666666666667e-01 -3.333333333333333e-01 -1.666666666666665e-01
-1.666666666666667e-01 -3.333333333333333e-01 -1.666666666666665e-01
-1.666666666666667e-01 -3.333333333333333e-01 -1.666666666666665e-01
-1.666666666666667e-01 -3.333333333333333e-01 -1.666666666666665e-01
-1.666666666666667e-01 -3.333333333333333e-01 -1.666666666666665e-01
-1.666666666666667e-01 -3.333333333333333e-01 -1.666666666666665e-01
-1.666666666666667e-01 -3.333333333333333e-01 -1.666666666666665e-01
-1.666666666666667e-01 -3.333333333333333e-01 -1.666666666666665e-01
-1.666666666666667e-01 -3.333333333333333e-01 -1.666666666666665e-01
-1.666666666666667e-01 -3.333333333333333e-01 -1.666666666666665e-01
-1.666666666666667e-01 -3.333333333333333e-01 -1.666666666666665e-01
-1.666666666666667e-01 -3.333333333333333e-01 -1.666666666666665e-01
-1.666666666666667e-01 -3.333333333333333e-01 -1.666666666666665e-01
-1.666666666666667e-01 -3.333333333333333e-01 -1.666666666666665e-01
-1.666666666666667e-01 -3.333333333333333e-01 -1.666666666666665e-01
-1.666666666666667e-01 -3.333333333333333e-01 -1.666666666666665e-01
-1.666666666666667e-01 -3.333333333333333e-01 -1.666666666666665e-01
-1.666666666666667e-01 -3.333333333333333e-01 -1.666666666666665e-01
-1.666666666666667e-01 -3.333333333333333e-01 -1.666666666666665e-01
-1.666666666666667e-01 -3.333333333333333e-01 -1.666666666666665e-01
-1.666666666666667e-01 -3.333333333333333e-01 -1.666666666666665e-01
-1.666666666666667e-01 -3.333333333333333e-01 -1.666666666666665e-01
-1.666666666666667e-01 -3.333333333333333e-01 -1.666666666666665e-01
-1.666666666666667e-01 -3.333333333333333e-01 -1.666666666666665e-01
-1.666666666666667e-01 -3.333333333333333e-01 -1.666666666666665e-01
-1.666666666666667e-01 -3.333333333333333e-01 -1.666666666666665e-01
-1.666666666666667e-01 -3.333333333333333e-01 -1.666666666666665e-01
-1.666666666666667e-01 -3.333333333333333e-01 -1.666666666666665e-01
-1.666666666666667e-01 -3.333333333333333e-01 -1.666666666666665e-01
-1.666666666666667e-01 -3.333333333333333e-01 -1.666666666666665e-01
-1.666666666666667e-01 -3.333333333333333e-01 -1.666666666666665e-01
-1.666666666666667e-01 -3.333333333333333e-01 -1.666666666666665e-01
-1.666666666666667e-01 -3.333333333333333e-01 -1.666666666666665e-01
-1.666666666666667e-01 -3.333333333333333e-01 -1.666666666666665e-01
-1.666666666666667e-01 -3.333333333333333e-01 -1.666666666666665e-01
-1.666666666666667e-01 -3.333333333333333e-01 -1.666666666666665e-01
-1.666666666666667e-01 -3.333333333333333e-01 -1.666666666666665e-01
-1.666666666666667e-01 -3.333333333333333e-01 -1.666666666666665e-01
-1.666666666666667e-01 -3.333333333333333e-01 -1.666666666666665e-01
-1.666666666666667e-01 -3.333333333333333e-01 -1.666666666666665e-01
-1.666666666666667e-01 -3.333333333333333e-01 -1.666666666666665e-01
-1.666666666666667e-01 -3.333333333333333e-01 -1.666666666666665e-01
-1.666666666666667e-01 -3.333333333333333e-01 -1.666666666666665e-01
-1.666666666666667e-01 -3.333333333333333e-01 -1.666666666666665e-01
-1.666666666666667e-01 -3.333333333333333e-01 -1.666666666666665e-01
-1.666666666666667e-01 -3.333333333333333e-01 -1.666666666666665e-01
-1.666666666666667e-01 -3.333333333333333e-01 -1.666666666666665e-01
-1.666666666666667e-01 -3.333333333333333e-01 -1.666666666666665e-01
-1.666666666666667e-01 -3.333333333333333e-01 -1.666666666666665e-01
-1.666666666666667e-01 -3.333333333333333e-01 -1.666666666666665e-01
-1.666666666666667e-01 -3.333333333333333e-01 -1.666666666666665e-01
-1.666666666666667e-01 -3.333333333333333e-01 -1.666666666666665e-01
-1.666666666666667e-01 -3.333333333333333e-01 -1.666666666666665e-01
-1.666666666666667e-01 -3.333333333333333e-01 -1.666666666666665e-01
-1.666666666666667e-01 -3.333333333333333e-01 -1.666666666666665e-01
-1.666666666666667e-01 -3.333333333333333e-01 -1.666666666666665e-01
-1.666666666666667e-01 -3.333333333333333e-01 -1.666666666666665e-01
-1.666666666666667e-01 -3.333333333333333e-01 -1.666666666666665e-01
-1.666666666666667e-01 -3.333333333333333e-01 -1.666666666666665e-01
-1.666666666666667e-01 -3.333333333333333e-01 -1.666666666666665e-01
-1.666666666666667e-01 -3.333333333333333e-01 -1.666666666666665e-01
-1.666666666666667e-01 -3.333333333333333e-01 -1.666666666666665e-01
-1.666666666666667e-01 -3.333333333333333e-01 -1.666666666666665e-01
-1.666666666666667e-01 -3.333333333333333e-01 -1.666666666666665e-01
-1.666666666666667e-01 -3.333333333333333e-01 -1.666666666666665e-01
-1.666666666666667e-01 -3.333333333333333e-01 -1.666666666666665e-01
-1.666666666666667e-01 -3.333333333333333e-01 -1.666666666666665e-01
-1.666666666666667e-01 -3.333333333333333e-01 -1.666666666666665e-01
1.666666666666667e-01 3.333333333333333e-01 1.666666666666665e-01
-1.666666666666667e-01 -3.333333333333333e-01 -1.666666666666665e-01
-1.666666666666667e-01 -3.333333333333333e-01 -1.666666666666665e-01
-1.666666666666667e-01 -3.333333333333333e-01 -1.666666666666665e-01
-1.666666666666667e-01 -3.333333333333333e-01 -1.666666666666665e-01
-1.666666666666667e-01 -3.333333333333333e-01 -1.666666666666665e-01
-1.666666666666667e-01 -3.333333333333333e-01 -1.666666666666665e-01
-1.666666666666667e-01 -3.333333333333333e-01 -1.666666666666665e-01
-1.666666666666667e-01 -3.333333333333333e-01 -1.666666666666665e-01
-1.666666666666667e-01 -3.333333333333333e-01 -1.666666666666665e-01
-1.666666666666667e-01 -3.333333333333333e-01 -1.666666666666665e-01
-1.666666666666667e-01 -3.333333333333333e-01 -1.666666666666665e-01
-1.666666666666667e-01 -3.333333333333333e-01 -1.666666666666665e-01
-1.666666666666667e-01 -3.333333333333333e-01 -1.666666666666665e-01
-1.666666666666667e-01 -3.333333333333333e-01 -1.666666666666665e-01
-1.666666666666667e-01 -3.333333333333333e-01 -1.666666666666665e-01
-1.666666666666667e-01 -3.333333333333333e-01 -1.666666666666665e-01
-1.666666666666667e-01 -3.333333333333333e-01 -1.666666666666665e-01
-1.666666666666667e-01 -3.333333333333333e-01 -1.666666666666665e-01
-1.666666666666667e-01 -3.333333333333333e-01 -1.666666666666665e-01
-1.666666666666667e-01 -3.333333333333333e-01 -1.666666666666665e-01
-1.666666666666667e-01 -3.333333333333333e-01 -1.666666666666665e-01
-1.666666666666667e-01 -3.333333333333333e-01 -1.666666666666665e-01
-1.666666666666667e-01 -3.333333333333333e-01 -1.666666666666665e-01
-1.666666666666667e-01 -3.333333333333333e-01 -1.666666666666665e-01
-1.666666666666667e-01 -3.333333333333333e-01 -1.666666666666665e-01
-1.666666666666667e-01 -3.333333333333333e-01 -1.666666666666665e-01
-1.666666666666667e-01 -3.333333333333333e-01 -1.666666666666665e-01
-1.666666666666667e-01 -3.333333333333333e-01 -1.666666666666665e-01
-1.666666666666667e-01 -3.333333333333333e-01 -1.666666666666665e-01
-1.666666666666667e-01 -3.333333333333333e-01 -1.666666666666665e-01
-1.666666666666667e-01 -3.333333333333333e-01 -1.666666666666665e-01
-1.666666666666667e-01 -3.333333333333333e-01 -1.666666666666665e-01
-1.666666666666667e-01 -3.333333333333333e-01 -1.666666666666665e-01
-1.666666666666667e-01 -3.333333333333333e-01 -1.666666666666665e-01
-1.666666666666667e-01 -3.333333333333333e-01 -1.666666666666665e-01
-1.666666666666667e-01 -3.333333333333333e-01 -1.666666666666665e-01
-1.666666666666667e-01 -3.333333333333333e-01 -1.666666666666665e-01
-1.666666666666667e-01 -3.333333333333333e-01 -1.666666666666665e-01
-1.666666666666667e-01 -3.333333333333333e-01 -1.666666666666665e-01
-1.666666666666667e-01 -3.333333333333333e-01 -1.666666666666665e-01
-1.666666666666667e-01 -3.333333333333333e-01 -1.666666666666665e-01
-1.666666666666667e-01 -3.333333333333333e-01 -1.666666666666665e-01
-1.666666666666667e-01 -3.333333333333333e-01 -1.666666666666665e-01
-1.666666666666667e-01 -3.333333333333333e-01 -1.666666666666665e-01
-1.666666666666667e-01 -3.333333333333333e-01 -1.666666666666665e-01
-1.666666666666667e-01 -3.333333333333333e-01 -1.666666666666665e-01
-1.666666666666667e-01 -3.333333333333333e-01 -1.666666666666665e-01
-1.666666666666667e-01 -3.333333333333333e-01 -1.666666666666665e-01
-1.666666666666667e-01 -3.333333333333333e-01 -1.666666666666665e-01
-1.666666666666667e-01 -3.333333333333333e-01 -1.666666666666665e-01
-1.666666666666667e-01 -3.333333333333333e-01 -1.666666666666665e-01
-1.666666666666667e-01 -3.333333333333333e-01 -1.666666666666665e-01
-1.666666666666667e-01 -3.333333333333333e-01 -1.666666666666665e-01
-1.666666666666667e-01 -3.333333333333333e-01 -1.666666666666665e-01
-1.666666666666667e-01 -3.333333333333333e-01 -1.666666666666665e-01
-1.666666666666667e-01 -3.333333333333333e-01 -1.666666666666665e-01
-1.666666666666667e-01 -3.333333333333333e-01 -1.666666666666665e-01
-1.666666666666667e-01 -3.333333333333333e-01 -1.666666666666665e-01
-1.666666666666667e-01 -3.333333333333333e-01 -1.666666666666665e-01
-1.666666666666667e-01 -3.333333333333333e-01 -1.666666666666665e-01
-1.666666666666667e-01 -3.333333333333333e-01 -1.666666666666665e-01
-1.666666666666667e-01 -3.333333333333333e-01 -1.666666666666665e-01
-1.666666666666667e-01 -3.333333333333333e-01 -1.666666666666665e-01
-1.666666666666667e-01 -3.333333333333333e-01 -1.666666666666665e-01
-1.666666666666667e-01 -3.333333333333333e-01 -1.666666666666665e-01
-1.666666666666667e-01 -3.333333333333333e-01 -1.666666666666665e-01
-1.666666666666667e-01 -3.333333333333333e-01 -1.666666666666665e-01
-1.666666666666667e-01 -3.333333333333333e-01 -1.666666666666665e-01
-1.666666666666667e-01 -3.333333333333333e-01 -1.666666666666665e-01
-1.666666666666667e-01 -3.333333333333333e-01 -1.666666666666665e-01
-1.666666666666667e-01 -3.333333333333333e-01 -1.666666666666665e-01
-1.666666666666667e-01 -3.333333333333333e-01 -1.666666666666665e-01
-1.666666666666667e-01 -3.333333333333333e-01 -1.666666666666665e-01
-1.666666666666667e-01 -3.333333333333333e-01 -1.666666666666665e-01
-1.666666666666667e-01 -3.333333333333333e-01 -1.666666666666665e-01
-1.666666666666667e-01 -3.333333333333333e-01 -1.666666666666665e-01
-1.666666666666667e-01 -3.333333333333333e-01 -1.666666666666665e-01
-1.666666666666667e-01 -3.333333333333333e-01 -1.666666666666665e-01
-1.666666666666667e-01 -3.333333333333333e-01 -1.666666666666665e-01
-1.666666666666667e-01 -3.333333333333333e-01 -1.666666666666665e-01
-1.666666666666667e-01 -3.333333333333333e-01 -1.666666666666665e-01
-1.666666666666667e-01 -3.333333333333333e-01 -1.666666666666665e-01
-1.666666666666667e-01 -3.333333333333333e-01 -1.666666666666665e-01
-1.666666666666667e-01 -3.333333333333333e-01 -1.666666666666665e-01
-1.666666666666667e-01 -3.333333333333333e-01 -1.666666666666665e-01
-1.666666666666667e-01 -3.333333333333333e-01 -1.666666666666665e-01
-1.666666666666667e-01 -3.333333333333333e-01 -1.666666666666665e-01
-1.666666666666667e-01 -3.333333333333333e-01 -1.666666666666665e-01
-1.666666666666667e-01 -3.333333333333333e-01 -1.666666666666665e-01
-1.666666666666667e-01 -3.333333333333333e-01 -1.666666666666665e-01
-1.666666666666667e-01 -3.333333333333333e-01 -1.666666666666665e-01
-1.666666666666667e-01 -3.333333333333333e-01 -1.666666666666665e-01
-1.666666666666667e-01 -3.333333333333333e-01 -1.666666666666665e-01
-1.666666666666667e-01 -3.333333333333333e-01 -1.666666666666665e-01
-1.666666666666667e-01 -3.333333333333333e-01 -1.666666666666665e-01
-1.666666666666667e-01 -3.333333333333333e-01 -1.666666666666665e-01
-1.666666666666667e-01 -3.333333333333333e-01 -1.666666666666665e-01
-1.666666666666667e-01 -3.333333333333333e-01 -1.666666666666665e-01
-1.666666666666667e-01 -3.333333333333333e-01 -1.666666666666665e-01
-1.666666666666667e-01 -3.333333333333333e-01 -1.666666666666665e-01
-1.666666666666667e-01 -3.333333333333333e-01 -1.666666666666665e-01
-1.666666666666667e-01 -3.333333333333333e-01 -1.666666666666665e-01
-1.666666666666667e-01 -3.333333333333333e-01 -1.666666666666665e-01
-1.666666666666667e-01 -3.333333333333333e-01 -1.666666666666665e-01
-1.666666666666667e-01 -3.333333333333333e-01 -1.666666666666665e-01
-1.666666666666667e-01 -3.333333333333333e-01 -1.666666666666665e-01
-1.666666666666667e-01 -3.333333333333333e-01 -1.666666666666665e-01
-1.666666666666667e-01 -3.333333333333333e-01 -1.666666666666665e-01
-1.666666666666667e-01 -3.333333333333333e-01 -1.666666666666665e-01
-1.666666666666667e-01 -3.333333333333333e-01 -1.666666666666665e-01
-1.666666666666667e-01 -3.333333333333333e-01 -1.666666666666665e-01
-1.666666666666667e-01 -3.333333333333333e-01 -1.666666666666665e-01
-1.666666666666667e-01 -3.333333333333333e-01 -1.666666666666665e-01
-1.666666666666667e-01 -3.333333333333333e-01 -1.666666666666665e-01
-1.666666666666667e-01 -3.333333333333333e-01 -1.666666666666665e-01
-1.666666666666667e-01 -3.333333333333333e-01 -1.666666666666665e-01
-1.666666666666667e-01 -3.333333333333333e-01 -1.666666666666665e-01
-1.666666666666667e-01 -3.333333333333333e-01 -1.666666666666665e-01
-1.666666666666667e-01 -3.333333333333333e-01 -1.666666666666665e-01
-1.666666666666667e-01 -3.333333333333333e-01 -1.666666666666665e-01
-1.666666666666667e-01 -3.333333333333333e-01 -1.666666666666665e-01
-1.666666666666667e-01 -3.333333333333333e-01 -1.666666666666665e-01
-1.666666666666667e-01 -3.333333333333333e-01 -1.666666666666665e-01
-1.666666666666667e-01 -3.333333333333333e-01 -1.666666666666665e-01
-1.666666666666667e-01 -3.333333333333333e-01 -1.666666666666665e-01
-1.666666666666667e-01 -3.333333333333333e-01 -1.666666666666665e-01
-1.666666666666667e-01 -3.333333333333333e-01 -1.666666666666665e-01
-1.666666666666667e-01 -3.333333333333333e-01 -1.666666666666665e-01
-1.666666666666667e-01 -3.333333333333333e-01 -1.666666666666665e-01
-1.666666666666667e-01 -3.333333333333333e-01 -1.666666666666665e-01
-1.666666666666667e-01 -3.333333333333333e-01 -1.666666666666665e-01
-1.666666666666667e-01 -3.333333333333333e-01 -1.666666666666665e-01
-1.666666666666667e-01 -3.333333333333333e-01 -1.666666666666665e-01
-1.666666666666667e-01 -3.333333333333333e-01 -1.666666666666665e-01
-1.666666666666667e-01 -3.333333333333333e-01 -1.666666666666665e-01
-1.666666666666667e-01 -3.333333333333333e-01 -1.666666666666665e-01
-1.666666666666667e-01 -3.333333333333333e-01 -1.666666666666665e-01
-1.666666666666667e-01 -3.333333333333333e-01 -1.666666666666665e-01
-1.666666666666667e-01 -3.333333333333333e-01 -1.666666666666665e-01
-1.666666666666667e-01 -3.333333333333333e-01 -1.666666666666665e-01
-1.666666666666667e-01 -3.333333333333333e-01 -1.666666666666665e-01
-1.666666666666667e-01 -3.333333333333333e-01 -1.666666666666665e-01
-1.666666666666667e-01 -3.333333333333333e-01 -1.666666666666665e-01
-1.666666666666667e-01 -3.333333333333333e-01 -1.666666666666665e-01
-1.666666666666667e-01 -3.333333333333333e-01 -1.666666666666665e-01
-1.666666666666667e-01 -3.333333333333333e-01 -1.666666666666665e-01
-1.666666666666667e-01 -3.333333333333333e-01 -1.666666666666665e-01
-1.666666666666667e-01 -3.333333333333333e-01 -1.666666666666665e-01
-1.666666666666667e-01 -3.333333333333333e-01 -1.666666666666665e-01
-1.666666666666667e-01 -3.333333333333333e-01 -1.666666666666665e-01
-1.666666666666667e-01 -3.333333333333333e-01 -1.666666666666665e-01
-1.666666666666667e-01 -3.333333333333333e-01 -1.666666666666665e-01
-1.666666666666667e-01 -3.333333333333333e-01 -1.666666666666665e-01
-1.666666666666667e-01 -3.333333333333333e-01 -1.666666666666665e-01
-1.666666666666667e-01 -3.333333333333333e-01 -1.666666666666665e-01
-1.666666666666667e-01 -3.333333333333333e-01 -1.666666666666665e-01
-1.666666666666667e-01 -3.333333333333333e-01 -1.666666666666665e-01
-1.666666666666667e-01 -3.333333333333333e-01 -1.666666666666665e-01
-1.666666666666667e-01 -3.333333333333333e-01 -1.666666666666665e-01
-1.666666666666667e-01 -3.333333333333333e-01 -1.666666666666665e-01
-1.666666666666667e-01 -3.333333333333333e-01 -1.666666666666665e-01
-1.666666666666667e-01 -3.333333333333333e-01 -1.666666666666665e-01
-1.666666666666667e-01 -3.333333333333333e-01 -1.666666666666665e-01
-1.666666666666667e-01 -3.333333333333333e-01 -1.666666666666665e-01
-1.666666666666667e-01 -3.333333333333333e-01 -1.666666666666665e-01
-1.666666666666667e-01 -3.333333333333333e-01 -1.666666666666665e-01
-1.666666666666667e-01 -3.333333333333333e-01 -1.666666666666665e-01
-1.666666666666667e-01 -3.333333333333333e-01 -1.666666666666665e-01
-1.666666666666667e-01 -3.333333333333333e-01 -1.666666666666665e-01
-1.666666666666667e-01 -3.333333333333333e-01 -1.666666666666665e-01
1.666666666666667e-01 3.333333333333333e-01 1.666666666666665e-01
-1.666666666666667e-01 -3.333333333333333e-01 -1.666666666666665e-01
1.666666666666667e-01 3.333333333333333e-01 1.666666666666665e-01
1.666666666666667e-01 3.333333333333333e-01 1.666666666666665e-01
1.666666666666667e-01 3.333333333333333e-01 1.666666666666665e-01
1.666666666666667e-01 3.333333333333333e-01 1.666666666666665e-01
1.666666666666667e-01 3.333333333333333e-01 1.666666666666665e-01
1.666666666666667e-01 3.333333333333333e-01 1.666666666666665e-01
1.666666666666667e-01 3.333333333333333e-01 1.666666666666665e-01
1.666666666666667e-01 3.333333333333333e-01 1.666666666666665e-01
1.666666666666667e-01 3.333333333333333e-01 1.666666666666665e-01
1.666666666666667e-01 3.333333333333333e-01 1.666666666666665e-01
1.666666666666667e-01 3.333333333333333e-01 1.666666666666665e-01
1.666666666666667e-01 3.333333333333333e-01 1.666666666666665e-01
1.666666666666667e-01 3.333333333333333e-01 1.666666666666665e-01
1.666666666666667e-01 3.333333333333333e-01 1.666666666666665e-01
1.666666666666667e-01 3.333333333333333e-01 1.666666666666665e-01
1.666666666666667e-01 3.333333333333333e-01 1.666666666666665e-01
1.666666666666667e-01 3.333333333333333e-01 1.666666666666665e-01
1.666666666666667e-01 3.333333333333333e-01 1.666666666666665e-01
1.666666666666667e-01 3.333333333333333e-01 1.666666666666665e-01
1.666666666666667e-01 3.333333333333333e-01 1.666666666666665e-01
1.666666666666667e-01 3.333333333333333e-01 1.666666666666665e-01
1.666666666666667e-01 3.333333333333333e-01 1.666666666666665e-01
1.666666666666667e-01 3.333333333333333e-01 1.666666666666665e-01
1.666666666666667e-01 3.333333333333333e-01 1.666666666666665e-01
1.666666666666667e-01 3.333333333333333e-01 1.666666666666665e-01
1.666666666666667e-01 3.333333333333333e-01 1.666666666666665e-01
1.666666666666667e-01 3.333333333333333e-01 1.666666666666665e-01
1.666666666666667e-01 3.333333333333333e-01 1.666666666666665e-01
1.666666666666667e-01 3.333333333333333e-01 1.666666666666665e-01
1.666666666666667e-01 3.333333333333333e-01 1.666666666666665e-01
1.666666666666667e-01 3.333333333333333e-01 1.666666666666665e-01
1.666666666666667e-01 3.333333333333333e-01 1.666666666666665e-01
1.666666666666667e-01 3.333333333333333e-01 1.666666666666665e-01
1.666666666666667e-01 3.333333333333333e-01 1.666666666666665e-01
1.666666666666667e-01 3.333333333333333e-01 1.666666666666665e-01
1.666666666666667e-01 3.333333333333333e-01 1.666666666666665e-01
1.666666666666667e-01 3.333333333333333e-01 1.666666666666665e-01
1.666666666666667e-01 3.333333333333333e-01 1.666666666666665e-01
1.666666666666667e-01 3.333333333333333e-01 1.666666666666665e-01
1.666666666666667e-01 3.333333333333333e-01 1.666666666666665e-01
1.666666666666667e-01 3.333333333333333e-01 1.666666666666665e-01
1.666666666666667e-01 3.333333333333333e-01 1.666666666666665e-01
1.666666666666667e-01 3.333333333333333e-01 1.666666666666665e-01
1.666666666666667e-01 3.333333333333333e-01 1.666666666666665e-01
1.666666666666667e-01 3.333333333333333e-01 1.666666666666665e-01
1.666666666666667e-01 3.333333333333333e-01 1.666666666666665e-01
1.666666666666667e-01 3.333333333333333e-01 1.666666666666665e-01
1.666666666666667e-01 3.333333333333333e-01 1.666666666666665e-01
1.666666666666667e-01 3.333333333333333e-01 1.666666666666665e-01
1.666666666666667e-01 3.333333333333333e-01 1.666666666666665e-01
1.666666666666667e-01 3.333333333333333e-01 1.666666666666665e-01
1.666666666666667e-01 3.333333333333333e-01 1.666666666666665e-01
1.666666666666667e-01 3.333333333333333e-01 1.666666666666665e-01
1.666666666666667e-01 3.333333333333333e-01 1.666666666666665e-01
1.666666666666667e-01 3.333333333333333e-01 1.666666666666665e-01
1.666666666666667e-01 3.333333333333333e-01 1.666666666666665e-01
1.666666666666667e-01 3.333333333333333e-01 1.666666666666665e-01
1.666666666666667e-01 3.333333333333333e-01 1.666666666666665e-01
1.666666666666667e-01 3.333333333333333e-01 1.666666666666665e-01
1.666666666666667e-01 3.333333333333333e-01 1.666666666666665e-01
1.666666666666667e-01 3.333333333333333e-01 1.666666666666665e-01
1.666666666666667e-01 3.333333333333333e-01 1.666666666666665e-01
1.666666666666667e-01 3.333333333333333e-01 1.666666666666665e-01
1.666666666666667e-01 3.333333333333333e-01 1.666666666666665e-01
1.666666666666667e-01 3.333333333333333e-01 1.666666666666665e-01
1.666666666666667e-01 3.333333333333333e-01 1.666666666666665e-01
1.666666666666667e-01 3.333333333333333e-01 1.666666666666665e-01
1.666666666666667e-01 3.333333333333333e-01 1.666666666666665e-01
1.666666666666667e-01 3.333333333333333e-01 1.666666666666665e-01
1.666666666666667e-01 3.333333333333333e-01 1.666666666666665e-01
1.666666666666667e-01 3.333333333333333e-01 1.666666666666665e-01
1.666666666666667e-01 3.333333333333333e-01 1.666666666666665e-01
1.666666666666667e-01 3.333333333333333e-01 1.666666666666665e-01
1.666666666666667e-01 3.333333333333333e-01 1.666666666666665e-01
1.666666666666667e-01 3.333333333333333e-01 1.666666666666665e-01
1.666666666666667e-01 3.333333333333333e-01 1.666666666666665e-01
1.666666666666667e-01 3.333333333333333e-01 1.666666666666665e-01
1.666666666666667e-01 3.333333333333333e-01 1.666666666666665e-01
1.666666666666667e-01 3.333333333333333e-01 1.666666666666665e-01
1.666666666666667e-01 3.333333333333333e-01 1.666666666666665e-01
1.666666666666667e-01 3.333333333333333e-01 1.666666666666665e-01
1.666666666666667e-01 3.333333333333333e-01 1.666666666666665e-01
1.666666666666667e-01 3.333333333333333e-01 1.666666666666665e-01
1.666666666666667e-01 3.333333333333333e-01 1.666666666666665e-01
1.666666666666667e-01 3.333333333333333e-01 1.666666666666665e-01
1.666666666666667e-01 3.333333333333333e-01 1.666666666666665e-01
1.666666666666667e-01 3.333333333333333e-01 1.666666666666665e-01
1.666666666666667e-01 3.333333333333333e-01 1.666666666666665e-01
1.666666666666667e-01 3.333333333333333e-01 1.666666666666665e-01
1.666666666666667e-01 3.333333333333333e-01 1.666666666666665e-01
1.666666666666667e-01 3.333333333333333e-01 1.666666666666665e-01
1.666666666666667e-01 3.333333333333333e-01 1.666666666666665e-01
1.666666666666667e-01 3.333333333333333e-01 1.666666666666665e-01
1.666666666666667e-01 3.333333333333333e-01 1.666666666666665e-01
1.666666666666667e-01 3.333333333333333e-01 1.666666666666665e-01
1.666666666666667e-01 3.333333333333333e-01 1.666666666666665e-01
1.666666666666667e-01 3.333333333333333e-01 1.666666666666665e-01
1.666666666666667e-01 3.333333333333333e-01 1.666666666666665e-01
1.666666666666667e-01 3.333333333333333e-01 1.666666666666665e-01
1.666666666666667e-01 3.333333333333333e-01 1.666666666666665e-01
1.666666666666667e-01 3.333333333333333e-01 1.666666666666665e-01
1.666666666666667e-01 3.333333333333333e-01 1.666666666666665e-01
1.666666666666667e-01 3.333333333333333e-01 1.666666666666665e-01
1.666666666666667e-01 3.333333333333333e-01 1.666666666666665e-01
1.666666666666667e-01 3.333333333333333e-01 1.666666666666665e-01
1.666666666666667e-01 3.333333333333333e-01 1.666666666666665e-01
1.666666666666667e-01 3.333333333333333e-01 1.666666666666665e-01
1.666666666666667e-01 3.333333333333333e-01 1.666666666666665e-01
1.666666666666667e-01 3.333333333333333e-01 1.666666666666665e-01
1.666666666666667e-01 3.333333333333333e-01 1.666666666666665e-01
1.666666666666667e-01 3.333333333333333e-01 1.666666666666665e-01
1.666666666666667e-01 3.333333333333333e-01 1.666666666666665e-01
1.666666666666667e-01 3.333333333333333e-01 1.666666666666665e-01
1.666666666666667e-01 3.333333333333333e-01 1.666666666666665e-01
1.666666666666667e-01 3.333333333333333e-01 1.666666666666665e-01
1.666666666666667e-01 3.333333333333333e-01 1.666666666666665e-01
1.666666666666667e-01 3.333333333333333e-01 1.666666666666665e-01
1.666666666666667e-01 3.333333333333333e-01 1.666666666666665e-01
1.666666666666667e-01 3.333333333333333e-01 1.666666666666665e-01
1.666666666666667e-01 3.333333333333333e-01 1.666666666666665e-01
1.666666666666667e-01 3.333333333333333e-01 1.666666666666665e-01
1.666666666666667e-01 3.333333333333333e-01 1.666666666666665e-01
1.666666666666667e-01 3.333333333333333e-01 1.666666666666665e-01
1.666666666666667e-01 3.333333333333333e-01 1.666666666666665e-01
1.666666666666667e-01 3.333333333333333e-01 1.666666666666665e-01
1.666666666666667e-01 3.333333333333333e-01 1.666666666666665e-01
1.666666666666667e-01 3.333333333333333e-01 1.666666666666665e-01
1.666666666666667e-01 3.333333333333333e-01 1.666666666666665e-01
1.666666666666667e-01 3.333333333333333e-01 1.666666666666665e-01
1.666666666666667e-01 3.333333333333333e-01 1.666666666666665e-01
1.666666666666667e-01 3.333333333333333e-01 1.666666666666665e-01
1.666666666666667e-01 3.333333333333333e-01 1.666666666666665e-01
1.666666666666667e-01 3.333333333333333e-01 1.666666666666665e-01
1.666666666666667e-01 3.333333333333333e-01 1.666666666666665e-01
1.666666666666667e-01 3.333333333333333e-01 1.666666666666665e-01
1.666666666666667e-01 3.333333333333333e-01 1.666666666666665e-01
1.666666666666667e-01 3.333333333333333e-01 1.666666666666665e-01
1.666666666666667e-01 3.333333333333333e-01 1.666666666666665e-01
1.666666666666667e-01 3.333333333333333e-01 1.666666666666665e-01
1.666666666666667e-01 3.333333333333333e-01 1.666666666666665e-01
1.666666666666667e-01 3.333333333333333e-01 1.666666666666665e-01
1.666666666666667e-01 3.333333333333333e-01 1.666666666666665e-01
1.666666666666667e-01 3.333333333333333e-01 1.666666666666665e-01
1.666666666666667e-01 3.333333333333333e-01 1.666666666666665e-01
1.666666666666667e-01 3.333333333333333e-01 1.666666666666665e-01
1.666666666666667e-01 3.333333333333333e-01 1.666666666666665e-01
1.666666666666667e-01 3.333333333333333e-01 1.666666666666665e-01
1.666666666666667e-01 3.333333333333333e-01 1.666666666666665e-01
1.666666666666667e-01 3.333333333333333e-01 1.666666666666665e-01
1.666666666666667e-01 3.333333333333333e-01 1.666666666666665e-01
1.666666666666667e-01 3.333333333333333e-01 1.666666666666665e-01
1.666666666666667e-01 3.333333333333333e-01 1.666666666666665e-01
1.666666666666667e-01 3.333333333333333e-01 1.666666666666665e-01
1.666666666666667e-01 3.333333333333333e-01 1.666666666666665e-01
1.666666666666667e-01 3.333333333333333e-01 1.666666666666665e-01
1.666666666666667e-01 3.333333333333333e-01 1.666666666666665e-01
1.666666666666667e-01 3.333333333333333e-01 1.666666666666665e-01
1.666666666666667e-01 3.333333333333333e-01 1.666666666666665e-01
1.666666666666667e-01 3.333333333333333e-01 1.666666666666665e-01
-1.666666666666667e-01 -3.333333333333333e-01 -1.666666666666665e-01
1.666666666666667e-01 3.333333333333333e-01 1.666666666666665e-01
1.666666666666667e-01 3.333333333333333e-01 1.666666666666665e-01
1.666666666666667e-01 3.333333333333333e-01 1.666666666666665e-01
1.666666666666667e-01 3.333333333333333e-01 1.666666666666665e-01
1.666666666666667e-01 3.333333333333333e-01 1.666666666666665e-01
1.666666666666667e-01 3.333333333333333e-01 1.666666666666665e-01
1.666666666666667e-01 3.333333333333333e-01 1.666666666666665e-01
1.666666666666667e-01 3.333333333333333e-01 1.666666666666665e-01
1.666666666666667e-01 3.333333333333333e-01 1.666666666666665e-01
1.666666666666667e-01 3.333333333333333e-01 1.666666666666665e-01
1.666666666666667e-01 3.333333333333333e-01 1.666666666666665e-01
1.666666666666667e-01 3.333333333333333e-01 1.666666666666665e-01
1.666666666666667e-01 3.333333333333333e-01 1.666666666666665e-01
1.666666666666667e-01 3.333333333333333e-01 1.666666666666665e-01
1.666666666666667e-01 3.333333333333333e-01 1.666666666666665e-01
1.666666666666667e-01 3.333333333333333e-01 1.666666666666665e-01
1.666666666666667e-01 3.333333333333333e-01 1.666666666666665e-01
1.666666666666667e-01 3.333333333333333e-01 1.666666666666665e-01
1.666666666666667e-01 3.333333333333333e-01 1.666666666666665e-01
1.666666666666667e-01 3.333333333333333e-01 1.666666666666665e-01
1.666666666666667e-01 3.333333333333333e-01 1.666666666666665e-01
1.666666666666667e-01 3.333333333333333e-01 1.666666666666665e-01
1.666666666666667e-01 3.333333333333333e-01 1.666666666666665e-01
1.666666666666667e-01 3.333333333333333e-01 1.666666666666665e-01
1.666666666666667e-01 3.333333333333333e-01 1.666666666666665e-01
1.666666666666667e-01 3.333333333333333e-01 1.666666666666665e-01
1.666666666666667e-01 3.333333333333333e-01 1.666666666666665e-01
1.666666666666667e-01 3.333333333333333e-01 1.666666666666665e-01
1.666666666666667e-01 3.333333333333333e-01 1.666666666666665e-01
1.666666666666667e-01 3.333333333333333e-01 1.666666666666665e-01
1.666666666666667e-01 3.333333333333333e-01 1.666666666666665e-01
1.666666666666667e-01 3.333333333333333e-01 1.666666666666665e-01
1.666666666666667e-01 3.333333333333333e-01 1.666666666666665e-01
1.666666666666667e-01 3.333333333333333e-01 1.666666666666665e-01
1.666666666666667e-01 3.333333333333333e-01 1.666666666666665e-01
1.666666666666667e-01 3.333333333333333e-01 1.666666666666665e-01
1.666666666666667e-01 3.333333333333333e-01 1.666666666666665e-01
1.666666666666667e-01 3.333333333333333e-01 1.666666666666665e-01
1.666666666666667e-01 3.333333333333333e-01 1.666666666666665e-01
1.666666666666667e-01 3.333333333333333e-01 1.666666666666665e-01
1.666666666666667e-01 3.333333333333333e-01 1.666666666666665e-01
1.666666666666667e-01 3.333333333333333e-01 1.666666666666665e-01
1.666666666666667e-01 3.333333333333333e-01 1.666666666666665e-01
1.666666666666667e-01 3.333333333333333e-01 1.666666666666665e-01
1.666666666666667e-01 3.333333333333333e-01 1.666666666666665e-01
1.666666666666667e-01 3.333333333333333e-01 1.666666666666665e-01
1.666666666666667e-01 3.333333333333333e-01 1.666666666666665e-01
1.666666666666667e-01 3.333333333333333e-01 1.666666666666665e-01
1.666666666666667e-01 3.333333333333333e-01 1.666666666666665e-01
1.666666666666667e-01 3.333333333333333e-01 1.666666666666665e-01
1.666666666666667e-01 3.333333333333333e-01 1.666666666666665e-01
1.666666666666667e-01 3.333333333333333e-01 1.666666666666665e-01
1.666666666666667e-01 3.333333333333333e-01 1.666666666666665e-01
1.666666666666667e-01 3.333333333333333e-01 1.666666666666665e-01
1.666666666666667e-01 3.333333333333333e-01 1.666666666666665e-01
1.666666666666667e-01 3.333333333333333e-01 1.666666666666665e-01
1.666666666666667e-01 3.333333333333333e-01 1.666666666666665e-01
1.666666666666667e-01 3.333333333333333e-01 1.666666666666665e-01
1.666666666666667e-01 3.333333333333333e-01 1.666666666666665e-01
1.666666666666667e-01 3.333333333333333e-01 1.666666666666665e-01
1.666666666666667e-01 3.333333333333333e-01 1.666666666666665e-01
1.666666666666667e-01 3.333333333333333e-01 1.666666666666665e-01
1.666666666666667e-01 3.333333333333333e-01 1.666666666666665e-01
1.666666666666667e-01 3.333333333333333e-01 1.666666666666665e-01
1.666666666666667e-01 3.333333333333333e-01 1.666666666666665e-01
1.666666666666667e-01 3.333333333333333e-01 1.666666666666665e-01
1.666666666666667e-01 3.333333333333333e-01 1.666666666666665e-01
1.666666666666667e-01 3.333333333333333e-01 1.666666666666665e-01
1.666666666666667e-01 3.333333333333333e-01 1.666666666666665e-01
1.666666666666667e-01 3.333333333333333e-01 1.666666666666665e-01
1.666666666666667e-01 3.333333333333333e-01 1.666666666666665e-01
1.666666666666667e-01 3.333333333333333e-01 1.666666666666665e-01
1.666666666666667e-01 3.333333333333333e-01 1.666666666666665e-01
1.666666666666667e-01 3.333333333333333e-01 1.666666666666665e-01
1.666666666666667e-01 3.333333333333333e-01 1.666666666666665e-01
1.666666666666667e-01 3.333333333333333e-01 1.666666666666665e-01
1.666666666666667e-01 3.333333333333333e-01 1.666666666666665e-01
1.666666666666667e-01 3.333333333333333e-01 1.666666666666665e-01
1.666666666666667e-01 3.333333333333333e-01 1.666666666666665e-01
1.666666666666667e-01 3.333333333333333e-01 1.666666666666665e-01
1.666666666666667e-01 3.333333333333333e-01 1.666666666666665e-01
1.666666666666667e-01 3.333333333333333e-01 1.666666666666665e-01
1.666666666666667e-01 3.333333333333333e-01 1.666666666666665e-01
1.666666666666667e-01 3.333333333333333e-01 1.666666666666665e-01
1.666666666666667e-01 3.333333333333333e-01 1.666666666666665e-01
1.666666666666667e-01 3.333333333333333e-01 1.666666666666665e-01
1.666666666666667e-01 3.333333333333333e-01 1.666666666666665e-01
1.666666666666667e-01 3.333333333333333e-01 1.666666666666665e-01
1.666666666666667e-01 3.333333333333333e-01 1.666666666666665e-01
1.666666666666667e-01 3.333333333333333e-01 1.666666666666665e-01
1.666666666666667e-01 3.333333333333333e-01 1.666666666666665e-01
1.666666666666667e-01 3.333333333333333e-01 1.666666666666665e-01
1.666666666666667e-01 3.333333333333333e-01 1.666666666666665e-01
1.666666666666667e-01 3.333333333333333e-01 1.666666666666665e-01
1.666666666666667e-01 3.333333333333333e-01 1.666666666666665e-01
1.666666666666667e-01 3.333333333333333e-01 1.666666666666665e-01
1.666666666666667e-01 3.333333333333333e-01 1.666666666666665e-01
1.666666666666667e-01 3.333333333333333e-01 1.666666666666665e-01
1.666666666666667e-01 3.333333333333333e-01 1.666666666666665e-01
1.666666666666667e-01 3.333333333333333e-01 1.666666666666665e-01
1.666666666666667e-01 3.333333333333333e-01 1.666666666666665e-01
1.666666666666667e-01 3.333333333333333e-01 1.666666666666665e-01
1.666666666666667e-01 3.333333333333333e-01 1.666666666666665e-01
1.666666666666667e-01 3.333333333333333e-01 1.666666666666665e-01
1.666666666666667e-01 3.333333333333333e-01 1.666666666666665e-01
1.666666666666667e-01 3.333333333333333e-01 1.666666666666665e-01
1.666666666666667e-01 3.333333333333333e-01 1.666666666666665e-01
1.666666666666667e-01 3.333333333333333e-01 1.666666666666665e-01
1.666666666666667e-01 3.333333333333333e-01 1.666666666666665e-01
1.666666666666667e-01 3.333333333333333e-01 1.666666666666665e-01
1.666666666666667e-01 3.333333333333333e-01 1.666666666666665e-01
1.666666666666667e-01 3.333333333333333e-01 1.666666666666665e-01
1.666666666666667e-01 3.333333333333333e-01 1.666666666666665e-01
1.666666666666667e-01 3.333333333333333e-01 1.666666666666665e-01
1.666666666666667e-01 3.333333333333333e-01 1.666666666666665e-01
1.666666666666667e-01 3.333333333333333e-01 1.666666666666665e-01
1.666666666666667e-01 3.333333333333333e-01 1.666666666666665e-01
1.666666666666667e-01 3.333333333333333e-01 1.666666666666665e-01
1.666666666666667e-01 3.333333333333333e-01 1.666666666666665e-01
1.666666666666667e-01 3.333333333333333e-01 1.666666666666665e-01
1.666666666666667e-01 3.333333333333333e-01 1.666666666666665e-01
1.666666666666667e-01 3.333333333333333e-01 1.666666666666665e-01
1.666666666666667e-01 3.333333333333333e-01 1.666666666666665e-01
1.666666666666667e-01 3.333333333333333e-01 1.666666666666665e-01
1.666666666666667e-01 3.333333333333333e-01 1.666666666666665e-01
1.666666666666667e-01 3.333333333333333e-01 1.666666666666665e-01
1.666666666666667e-01 3.333333333333333e-01 1.666666666666665e-01
1.666666666666667e-01 3.333333333333333e-01 1.666666666666665e-01
1.666666666666667e-01 3.333333333333333e-01 1.666666666666665e-01
1.666666666666667e-01 3.333333333333333e-01 1.666666666666665e-01
1.666666666666667e-01 3.333333333333333e-01 1.666666666666665e-01
1.666666666666667e-01 3.333333333333333e-01 1.666666666666665e-01
1.666666666666667e-01 3.333333333333333e-01 1.666666666666665e-01
1.666666666666667e-01 3.333333333333333e-01 1.666666666666665e-01
1.666666666666667e-01 3.333333333333333e-01 1.666666666666665e-01
1.666666666666667e-01 3.333333333333333e-01 1.666666666666665e-01
1.666666666666667e-01 3.333333333333333e-01 1.666666666666665e-01
1.666666666666667e-01 3.333333333333333e-01 1.666666666666665e-01
1.666666666666667e-01 3.333333333333333e-01 1.666666666666665e-01
1.666666666666667e-01 3.333333333333333e-01 1.666666666666665e-01
1.666666666666667e-01 3.333333333333333e-01 1.666666666666665e-01
1.666666666666667e-01 3.333333333333333e-01 1.666666666666665e-01
1.666666666666667e-01 3.333333333333333e-01 1.666666666666665e-01
1.666666666666667e-01 3.333333333333333e-01 1.666666666666665e-01
1.666666666666667e-01 3.333333333333333e-01 1.666666666666665e-01
1.666666666666667e-01 3.333333333333333e-01 1.666666666666665e-01
1.666666666666667e-01 3.333333333333333e-01 1.666666666666665e-01
1.666666666666667e-01 3.333333333333333e-01 1.666666666666665e-01
1.666666666666667e-01 3.333333333333333e-01 1.666666666666665e-01
1.666666666666667e-01 3.333333333333333e-01 1.666666666666665e-01
1.666666666666667e-01 3.333333333333333e-01 1.666666666666665e-01
1.666666666666667e-01 3.333333333333333e-01 1.666666666666665e-01
1.666666666666667e-01 3.333333333333333e-01 1.666666666666665e-01
1.666666666666667e-01 3.333333333333333e-01 1.666666666666665e-01
1.666666666666667e-01 3.333333333333333e-01 1.666666666666665e-01
1.666666666666667e-01 3.333333333333333e-01 1.666666666666665e-01
1.666666666666667e-01 3.333333333333333e-01 1.666666666666665e-01
 1.666666666666667e-01 -1.666666666666665e-01 -3.333333333333333e-01
-1.666666666666667e-01  1.666666666666665e-01  3.333333333333333e-01
 1.666666666666667e-01 -1.666666666666665e-01 -3.333333333333333e-01
 1.666666666666667e-01 -1.666666666666665e-01 -3.333333333333333e-01
 1.666666666666667e-01 -1.666666666666665e-01 -3.333333333333333e-01
 1.666666666666667e-01 -1.666666666666665e-01 -3.333333333333333e-01
 1.666666666666667e-01 -1.666666666666665e-01 -3.333333333333333e-01
 1.666666666666667e-01 -1.666666666666665e-01 -3.333333333333333e-01
 1.666666666666667e-01 -1.666666666666665e-01 -3.333333333333333e-01
 1.666666666666667e-01 -1.666666666666665e-01 -3.333333333333333e-01
 1.666666666666667e-01 -1.666666666666665e-01 -3.333333333333333e-01
 1.666666666666667e-01 -1.666666666666665e-01 -3.333333333333333e-01
 1.666666666666667e-01 -1.666666666666665e-01 -3.333333333333333e-01
 1.666666666666667e-01 -1.666666666666665e-01 -3.333333333333333e-01
 1.666666666666667e-01 -1.666666666666665e-01 -3.333333333333333e-01
 1.666666666666667e-01 -1.666666666666665e-01 -3.333333333333333e-01
 1.666666666666667e-01 -1.666666666666665e-01 -3.333333333333333e-01
 1.666666666666667e-01 -1.666666666666665e-01 -3.333333333333333e-01
 1.666666666666667e-01 -1.666666666666665e-01 -3.333333333333333e-01
 1.666666666666667e-01 -1.666666666666665e-01 -3.333333333333333e-01
 1.666666666666667e-01 -1.666666666666665e-01 -3.333333333333333e-01
 1.666666666666667e-01 -1.666666666666665e-01 -3.333333333333333e-01
 1.666666666666667e-01 -1.666666666666665e-01 -3.333333333333333e-01
 1.666666666666667e-01 -1.666666666666665e-01 -3.333333333333333e-01
 1.666666666666667e-01 -1.666666666666665e-01 -3.333333333333333e-01
 1.666666666666667e-01 -1.666666666666665e-01 -3.333333333333333e-01
 1.666666666666667e-01 -1.666666666666665e-01 -3.333333333333333e-01
 1.666666666666667e-01 -1.666666666666665e-01 -3.333333333333333e-01
 1.666666666666667e-01 -1.666666666666665e-01 -3.333333333333333e-01
 1.666666666666667e-01 -1.666666666666665e-01 -3.333333333333333e-01
 1.666666666666667e-01 -1.666666666666665e-01 -3.333333333333333e-01
 1.666666666666667e-01 -1.666666666666665e-01 -3.333333333333333e-01
 1.666666666666667e-01 -1.666666666666665e-01 -3.333333333333333e-01
 1.666666666666667e-01 -1.666666666666665e-01 -3.333333333333333e-01
 1.666666666666667e-01 -1.666666666666665e-01 -3.333333333333333e-01
 1.666666666666667e-01 -1.666666666666665e-01 -3.333333333333333e-01
 1.666666666666667e-01 -1.666666666666665e-01 -3.333333333333333e-01
 1.666666666666667e-01 -1.666666666666665e-01 -3.333333333333333e-01
 1.666666666666667e-01 -1.666666666666665e-01 -3.333333333333333e-01
 1.666666666666667e-01 -1.666666666666665e-01 -3.333333333333333e-01
 1.666666666666667e-01 -1.666666666666665e-01 -3.333333333333333e-01
 1.666666666666667e-01 -1.666666666666665e-01 -3.333333333333333e-01
 1.666666666666667e-01 -1.666666666666665e-01 -3.333333333333333e-01
 1.666666666666667e-01 -1.666666666666665e-01 -3.333333333333333e-01
 1.666666666666667e-01 -1.666666666666665e-01 -3.333333333333333e-01
 1.666666666666667e-01 -1.666666666666665e-01 -3.333333333333333e-01
 1.666666666666667e-01 -1.666666666666665e-01 -3.333333333333333e-01
 1.666666666666667e-01 -1.666666666666665e-01 -3.333333333333333e-01
 1.666666666666667e-01 -1.666666666666665e-01 -3.333333333333333e-01
 1.666666666666667e-01 -1.666666666666665e-01 -3.333333333333333e-01
 1.666666666666667e-01 -1.666666666666665e-01 -3.333333333333333e-01
 1.666666666666667e-01 -1.666666666666665e-01 -3.333333333333333e-01
 1.666666666666667e-01 -1.666666666666665e-01 -3.333333333333333e-01
 1.666666666666667e-01 -1.666666666666665e-01 -3.333333333333333e-01
 1.666666666666667e-01 -1.666666666666665e-01 -3.333333333333333e-01
 1.666666666666667e-01 -1.666666666666665e-01 -3.333333333333333e-01
 1.666666666666667e-01 -1.666666666666665e-01 -3.333333333333333e-01
 1.666666666666667e-01 -1.666666666666665e-01 -3.333333333333333e-01
 1.666666666666667e-01 -1.666666666666665e-01 -3.333333333333333e-01
 1.666666666666667e-01 -1.666666666666665e-01 -3.333333333333333e-01
 1.666666666666667e-01 -1.666666666666665e-01 -3.333333333333333e-01
 1.666666666666667e-01 -1.666666666666665e-01 -3.333333333333333e-01
 1.666666666666667e-01 -1.666666666666665e-01 -3.333333333333333e-01
 1.666666666666667e-01 -1.666666666666665e-01 -3.333333333333333e-01
 1.666666666666667e-01 -1.666666666666665e-01 -3.333333333333333e-01
 1.666666666666667e-01 -1.666666666666665e-01 -3.333333333333333e-01
 1.666666666666667e-01 -1.666666666666665e-01 -3.333333333333333e-01
 1.666666666666667e-01 -1.666666666666665e-01 -3.333333333333333e-01
 1.666666666666667e-01 -1.666666666666665e-01 -3.333333333333333e-01
 1.666666666666667e-01 -1.666666666666665e-01 -3.333333333333333e-01
 1.666666666666667e-01 -1.666666666666665e-01 -3.333333333333333e-01
 1.666666666666667e-01 -1.666666666666665e-01 -3.333333333333333e-01
 1.666666666666667e-01 -1.666666666666665e-01 -3.333333333333333e-01
 1.666666666666667e-01 -1.666666666666665e-01 -3.333333333333333e-01
 1.666666666666667e-01 -1.666666666666665e-01 -3.333333333333333e-01
 1.666666666666667e-01 -1.666666666666665e-01 -3.333333333333333e-01
 1.666666666666667e-01 -1.666666666666665e-01 -3.333333333333333e-01
 1.666666666666667e-01 -1.666666666666665e-01 -3.333333333333333e-01
 1.666666666666667e-01 -1.666666666666665e-01 -3.333333333333333e-01
 1.666666666666667e-01 -1.666666666666665e-01 -3.333333333333333e-01
 1.666666666666667e-01 -1.666666666666665e-01 -3.333333333333333e-01
 1.666666666666667e-01 -1.666666666666665e-01 -3.333333333333333e-01
 1.666666666666667e-01 -1.666666666666665e-01 -3.333333333333333e-01
 1.666666666666667e-01 -1.666666666666665e-01 -3.333333333333333e-01
 1.666666666666667e-01 -1.666666666666665e-01 -3.333333333333333e-01
 1.666666666666667e-01 -1.666666666666665e-01 -3.333333333333333e-01
 1.666666666666667e-01 -1.666666666666665e-01 -3.333333333333333e-01
 1.666666666666667e-01 -1.666666666666665e-01 -3.333333333333333e-01
 1.666666666666667e-01 -1.666666666666665e-01 -3.333333333333333e-01
 1.666666666666667e-01 -1.666666666666665e-01 -3.333333333333333e-01
 1.666666666666667e-01 -1.666666666666665e-01 -3.333333333333333e-01
 1.666666666666667e-01 -1.666666666666665e-01 -3.333333333333333e-01
 1.666666666666667e-01 -1.666666666666665e-01 -3.333333333333333e-01
 1.666666666666667e-01 -1.666666666666665e-01 -3.333333333333333e-01
 1.666666666666667e-01 -1.666666666666665e-01 -3.333333333333333e-01
 1.666666666666667e-01 -1.666666666666665e-01 -3.333333333333333e-01
 1.666666666666667e-01 -1.666666666666665e-01 -3.333333333333333e-01
 1.666666666666667e-01 -1.666666666666665e-01 -3.333333333333333e-01
 1.666666666666667e-01 -1.666666666666665e-01 -3.333333333333333e-01
 1.666666666666667e-01 -1.666666666666665e-01 -3.333333333333333e-01
 1.666666666666667e-01 -1.666666666666665e-01 -3.333333333333333e-01
 1.666666666666667e-01 -1.666666666666665e-01 -3.333333333333333e-01
 1.666666666666667e-01 -1.666666666666665e-01 -3.333333333333333e-01
 1.666666666666667e-01 -1.666666666666665e-01 -3.333333333333333e-01
 1.666666666666667e-01 -1.666666666666665e-01 -3.333333333333333e-01
 1.666666666666667e-01 -1.666666666666665e-01 -3.333333333333333e-01
 1.666666666666667e-01 -1.666666666666665e-01 -3.333333333333333e-01
 1.666666666666667e-01 -1.666666666666665e-01 -3.333333333333333e-01
 1.666666666666667e-01 -1.666666666666665e-01 -3.333333333333333e-01
 1.666666666666667e-01 -1.666666666666665e-01 -3.333333333333333e-01
 1.666666666666667e-01 -1.666666666666665e-01 -3.333333333333333e-01
 1.666666666666667e-01 -1.666666666666665e-01 -3.333333333333333e-01
 1.666666666666667e-01 -1.666666666666665e-01 -3.333333333333333e-01
 1.666666666666667e-01 -1.666666666666665e-01 -3.333333333333333e-01
 1.666666666666667e-01 -1.666666666666665e-01 -3.333333333333333e-01
 1.666666666666667e-01 -1.666666666666665e-01 -3.333333333333333e-01
 1.666666666666667e-01 -1.666666666666665e-01 -3.333333333333333e-01
 1.666666666666667e-01 -1.666666666666665e-01 -3.333333333333333e-01
 1.666666666666667e-01 -1.666666666666665e-01 -3.333333333333333e-01
 1.666666666666667e-01 -1.666666666666665e-01 -3.333333333333333e-01
 1.666666666666667e-01 -1.666666666666665e-01 -3.333333333333333e-01
 1.666666666666667e-01 -1.666666666666665e-01 -3.333333333333333e-01
 1.666666666666667e-01 -1.666666666666665e-01 -3.333333333333333e-01
 1.666666666666667e-01 -1.666666666666665e-01 -3.333333333333333e-01
 1.666666666666667e-01 -1.666666666666665e-01 -3.333333333333333e-01
 1.666666666666667e-01 -1.666666666666665e-01 -3.333333333333333e-01
 1.666666666666667e-01 -1.666666666666665e-01 -3.333333333333333e-01
 1.666666666666667e-01 -1.666666666666665e-01 -3.333333333333333e-01
 1.666666666666667e-01 -1.666666666666665e-01 -3.333333333333333e-01
 1.666666666666667e-01 -1.666666666666665e-01 -3.333333333333333e-01
 1.666666666666667e-01 -1.666666666666665e-01 -3.333333333333333e-01
 1.666666666666667e-01 -1.666666666666665e-01 -3.333333333333333e-01
 1.666666666666667e-01 -1.666666666666665e-01 -3.333333333333333e-01
 1.666666666666667e-01 -1.666666666666665e-01 -3.333333333333333e-01
 1.666666666666667e-01 -1.666666666666665e-01 -3.333333333333333e-01
 1.666666666666667e-01 -1.666666666666665e-01 -3.333333333333333e-01
 1.666666666666667e-01 -1.666666666666665e-01 -3.333333333333333e-01
 1.666666666666667e-01 -1.666666666666665e-01 -3.333333333333333e-01
 1.666666666666667e-01 -1.666666666666665e-01 -3.333333333333333e-01
 1.666666666666667e-01 -1.666666666666665e-01 -3.333333333333333e-01
 1.666666666666667e-01 -1.666666666666665e-01 -3.333333333333333e-01
 1.666666666666667e-01 -1.666666666666665e-01 -3.333333333333333e-01
 1.666666666666667e-01 -1.666666666666665e-01 -3.333333333333333e-01
 1.666666666666667e-01 -1.666666666666665e-01 -3.333333333333333e-01
 1.666666666666667e-01 -1.666666666666665e-01 -3.333333333333333e-01
 1.666666666666667e-01 -1.666666666666665e-01 -3.333333333333333e-01
 1.666666666666667e-01 -1.666666666666665e-01 -3.333333333333333e-01
 1.666666666666667e-01 -1.666666666666665e-01 -3.333333333333333e-01
 1.666666666666667e-01 -1.666666666666665e-01 -3.333333333333333e-01
 1.666666666666667e-01 -1.666666666666665e-01 -3.333333333333333e-01
 1.666666666666667e-01 -1.666666666666665e-01 -3.333333333333333e-01
 1.666666666666667e-01 -1.666666666666665e-01 -3.333333333333333e-01
 1.666666666666667e-01 -1.666666666666665e-01 -3.333333333333333e-01
 1.666666666666667e-01 -1.666666666666665e-01 -3.333333333333333e-01
 1.666666666666667e-01 -1.666666666666665e-01 -3.333333333333333e-01
 1.666666666666667e-01 -1.666666666666665e-01 -3.333333333333333e-01
 1.666666666666667e-01 -1.666666666666665e-01 -3.333333333333333e-01
 1.666666666666667e-01 -1.666666666666665e-01 -3.333333333333333e-01
 1.666666666666667e-01 -1.666666666666665e-01 -3.333333333333333e-01
 1.666666666666667e-01 -1.666666666666665e-01 -3.333333333333333e-01
 1.666666666666667e-01 -1.666666666666665e-01 -3.333333333333333e-01
 1.666666666666667e-01 -1.666666666666665e-01 -3.333333333333333e-01
 1.666666666666667e-01 -1.666666666666665e-01 -3.333333333333333e-01
 1.666666666666667e-01 -1.666666666666665e-01 -3.333333333333333e-01
 1.666666666666667e-01 -1.666666666666665e-01 -3.333333333333333e-01
 1.666666666666667e-01 -1.666666666666665e-01 -3.333333333333333e-01
 1.666666666666667e-01 -1.666666666666665e-01 -3.333333333333333e-01
 1.666666666666667e-01 -1.666666666666665e-01 -3.333333333333333e-01
 1.666666666666667e-01 -1.666666666666665e-01 -3.333333333333333e-01
 1.666666666666667e-01 -1.666666666666665e-01 -3.333333333333333e-01
 1.666666666666667e-01 -1.666666666666665e-01 -3.333333333333333e-01
 1.666666666666667e-01 -1.666666666666665e-01 -3.333333333333333e-01
 1.666666666666667e-01 -1.666666666666665e-01 -3.333333333333333e-01
 1.666666666666667e-01 -1.666666666666665e-01 -3.333333333333333e-01
 1.666666666666667e-01 -1.666666666666665e-01 -3.333333333333333e-01
 1.666666666666667e-01 -1.666666666666665e-01 -3.333333333333333e-01
 1.666666666666667e-01 -1.666666666666665e-01 -3.333333333333333e-01
 1.666666666666667e-01 -1.666666666666665e-01 -3.333333333333333e-01
 1.666666666666667e-01 -1.666666666666665e-01 -3.333333333333333e-01
 1.666666666666667e-01 -1.666666666666665e-01 -3.333333333333333e-01
 1.666666666666667e-01 -1.666666666666665e-01 -3.333333333333333e-01
 1.666666666666667e-01 -1.666666666666665e-01 -3.333333333333333e-01
 1.666666666666667e-01 -1.666666666666665e-01 -3.333333333333333e-01
 1.666666666666667e-01 -1.666666666666665e-01 -3.333333333333333e-01
 1.666666666666667e-01 -1.666666666666665e-01 -3.333333333333333e-01
 1.666666666666667e-01 -1.666666666666665e-01 -3.333333333333333e-01
 1.666666666666667e-01 -1.666666666666665e-01 -3.333333333333333e-01
-1.666666666666667e-01  1.666666666666665e-01  3.333333333333333e-01
 1.666666666666667e-01 -1.666666666666665e-01 -3.333333333333333e-01
 1.666666666666667e-01 -1.666666666666665e-01 -3.333333333333333e-01
 1.666666666666667e-01 -1.666666666666665e-01 -3.333333333333333e-01
 1.666666666666667e-01 -1.666666666666665e-01 -3.333333333333333e-01
 1.666666666666667e-01 -1.666666666666665e-01 -3.333333333333333e-01
 1.666666666666667e-01 -1.666666666666665e-01 -3.333333333333333e-01
 1.666666666666667e-01 -1.666666666666665e-01 -3.333333333333333e-01
 1.666666666666667e-01 -1.666666666666665e-01 -3.333333333333333e-01
 1.666666666666667e-01 -1.666666666666665e-01 -3.333333333333333e-01
 1.666666666666667e-01 -1.666666666666665e-01 -3.333333333333333e-01
 1.666666666666667e-01 -1.666666666666665e-01 -3.333333333333333e-01
 1.666666666666667e-01 -1.666666666666665e-01 -3.333333333333333e-01
 1.666666666666667e-01 -1.666666666666665e-01 -3.333333333333333e-01
 1.666666666666667e-01 -1.666666666666665e-01 -3.333333333333333e-01
 1.666666666666667e-01 -1.666666666666665e-01 -3.333333333333333e-01
 1.666666666666667e-01 -1.666666666666665e-01 -3.333333333333333e-01
 1.666666666666667e-01 -1.666666666666665e-01 -3.333333333333333e-01
 1.666666666666667e-01 -1.666666666666665e-01 -3.333333333333333e-01
 1.666666666666667e-01 -1.666666666666665e-01 -3.333333333333333e-01
 1.666666666666667e-01 -1.666666666666665e-01 -3.333333333333333e-01
 1.666666666666667e-01 -1.666666666666665e-01 -3.333333333333333e-01
 1.666666666666667e-01 -1.666666666666665e-01 -3.333333333333333e-01
 1.666666666666667e-01 -1.666666666666665e-01 -3.333333333333333e-01
 1.666666666666667e-01 -1.666666666666665e-01 -3.333333333333333e-01
 1.666666666666667e-01 -1.666666666666665e-01 -3.333333333333333e-01
 1.666666666666667e-01 -1.666666666666665e-01 -3.333333333333333e-01
 1.666666666666667e-01 -1.666666666666665e-01 -3.333333333333333e-01
 1.666666666666667e-01 -1.666666666666665e-01 -3.333333333333333e-01
 1.666666666666667e-01 -1.666666666666665e-01 -3.333333333333333e-01
 1.666666666666667e-01 -1.666666666666665e-01 -3.333333333333333e-01
 1.666666666666667e-01 -1.666666666666665e-01 -3.333333333333333e-01
 1.666666666666667e-01 -1.666666666666665e-01 -3.333333333333333e-01
 1.666666666666667e-01 -1.666666666666665e-01 -3.333333333333333e-01
 1.666666666666667e-01 -1.666666666666665e-01 -3.333333333333333e-01
 1.666666666666667e-01 -1.666666666666665e-01 -3.333333333333333e-01
 1.666666666666667e-01 -1.666666666666665e-01 -3.333333333333333e-01
 1.666666666666667e-01 -1.666666666666665e-01 -3.333333333333333e-01
 1.666666666666667e-01 -1.666666666666665e-01 -3.333333333333333e-01
 1.666666666666667e-01 -1.666666666666665e-01 -3.333333333333333e-01
 1.666666666666667e-01 -1.666666666666665e-01 -3.333333333333333e-01
 1.666666666666667e-01 -1.666666666666665e-01 -3.333333333333333e-01
 1.666666666666667e-01 -1.666666666666665e-01 -3.333333333333333e-01
 1.666666666666667e-01 -1.666666666666665e-01 -3.333333333333333e-01
 1.666666666666667e-01 -1.666666666666665e-01 -3.333333333333333e-01
 1.666666666666667e-01 -1.666666666666665e-01 -3.333333333333333e-01
 1.666666666666667e-01 -1.666666666666665e-01 -3.333333333333333e-01
 1.666666666666667e-01 -1.666666666666665e-01 -3.333333333333333e-01
 1.666666666666667e-01 -1.666666666666665e-01 -3.333333333333333e-01
 1.666666666666667e-01 -1.666666666666665e-01 -3.333333333333333e-01
 1.666666666666667e-01 -1.666666666666665e-01 -3.333333333333333e-01
 1.666666666666667e-01 -1.666666666666665e-01 -3.333333333333333e-01
 1.666666666666667e-01 -1.666666666666665e-01 -3.333333333333333e-01
 1.666666666666667e-01 -1.666666666666665e-01 -3.333333333333333e-01
 1.666666666666667e-01 -1.666666666666665e-01 -3.333333333333333e-01
 1.666666666666667e-01 -1.666666666666665e-01 -3.333333333333333e-01
 1.666666666666667e-01 -1.666666666666665e-01 -3.333333333333333e-01
 1.666666666666667e-01 -1.666666666666665e-01 -3.333333333333333e-01
 1.666666666666667e-01 -1.666666666666665e-01 -3.333333333333333e-01
 1.666666666666667e-01 -1.666666666666665e-01 -3.333333333333333e-01
 1.666666666666667e-01 -1.666666666666665e-01 -3.333333333333333e-01
 1.666666666666667e-01 -1.666666666666665e-01 -3.333333333333333e-01
 1.666666666666667e-01 -1.666666666666665e-01 -3.333333333333333e-01
 1.666666666666667e-01 -1.666666666666665e-01 -3.333333333333333e-01
 1.666666666666667e-01 -1.666666666666665e-01 -3.333333333333333e-01
 1.666666666666667e-01 -1.666666666666665e-01 -3.333333333333333e-01
 1.666666666666667e-01 -1.666666666666665e-01 -3.333333333333333e-01
 1.666666666666667e-01 -1.666666666666665e-01 -3.333333333333333e-01
 1.666666666666667e-01 -1.666666666666665e-01 -3.333333333333333e-01
 1.666666666666667e-01 -1.666666666666665e-01 -3.333333333333333e-01
 1.666666666666667e-01 -1.666666666666665e-01 -3.333333333333333e-01
 1.666666666666667e-01 -1.666666666666665e-01 -3.333333333333333e-01
 1.666666666666667e-01 -1.666666666666665e-01 -3.333333333333333e-01
 1.666666666666667e-01 -1.666666666666665e-01 -3.333333333333333e-01
 1.666666666666667e-01 -1.666666666666665e-01 -3.333333333333333e-01
 1.666666666666667e-01 -1.666666666666665e-01 -3.333333333333333e-01
 1.666666666666667e-01 -1.666666666666665e-01 -3.333333333333333e-01
 1.666666666666667e-01 -1.666666666666665e-01 -3.333333333333333e-01
 1.666666666666667e-01 -1.666666666666665e-01 -3.333333333333333e-01
 1.666666666666667e-01 -1.666666666666665e-01 -3.333333333333333e-01
 1.666666666666667e-01 -1.666666666666665e-01 -3.333333333333333e-01
 1.666666666666667e-01 -1.666666666666665e-01 -3.333333333333333e-01
 1.666666666666667e-01 -1.666666666666665e-01 -3.333333333333333e-01
 1.666666666666667e-01 -1.666666666666665e-01 -3.333333333333333e-01
 1.666666666666667e-01 -1.666666666666665e-01 -3.333333333333333e-01
 1.666666666666667e-01 -1.666666666666665e-01 -3.333333333333333e-01
 1.666666666666667e-01 -1.666666666666665e-01 -3.333333333333333e-01
 1.666666666666667e-01 -1.666666666666665e-01 -3.333333333333333e-01
 1.666666666666667e-01 -1.666666666666665e-01 -3.333333333333333e-01
 1.666666666666667e-01 -1.666666666666665e-01 -3.333333333333333e-01
 1.666666666666667e-01 -1.666666666666665e-01 -3.333333333333333e-01
 1.666666666666667e-01 -1.666666666666665e-01 -3.333333333333333e-01
 1.666666666666667e-01 -1.666666666666665e-01 -3.333333333333333e-01
 1.666666666666667e-01 -1.666666666666665e-01 -3.333333333333333e-01
 1.666666666666667e-01 -1.666666666666665e-01 -3.333333333333333e-01
 1.666666666666667e-01 -1.666666666666665e-01 -3.333333333333333e-01
 1.666666666666667e-01 -1.666666666666665e-01 -3.333333333333333e-01
 1.666666666666667e-01 -1.666666666666665e-01 -3.333333333333333e-01
 1.666666666666667e-01 -1.666666666666665e-01 -3.333333333333333e-01
 1.666666666666667e-01 -1.666666666666665e-01 -3.333333333333333e-01
 1.666666666666667e-01 -1.666666666666665e-01 -3.333333333333333e-01
 1.666666666666667e-01 -1.666666666666665e-01 -3.333333333333333e-01
 1.666666666666667e-01 -1.666666666666665e-01 -3.333333333333333e-01
 1.666666666666667e-01 -1.666666666666665e-01 -3.333333333333333e-01
 1.666666666666667e-01 -1.666666666666665e-01 -3.333333333333333e-01
 1.666666666666667e-01 -1.666666666666665e-01 -3.333333333333333e-01
 1.666666666666667e-01 -1.666666666666665e-01 -3.333333333333333e-01
 1.666666666666667e-01 -1.666666666666665e-01 -3.333333333333333e-01
 1.666666666666667e-01 -1.666666666666665e-01 -3.333333333333333e-01
 1.666666666666667e-01 -1.666666666666665e-01 -3.333333333333333e-01
 1.666666666666667e-01 -1.666666666666665e-01 -3.333333333333333e-01
 1.666666666666667e-01 -1.666666666666665e-01 -3.333333333333333e-01
 1.666666666666667e-01 -1.666666666666665e-01 -3.333333333333333e-01
 1.666666666666667e-01 -1.666666666666665e-01 -3.333333333333333e-01
 1.666666666666667e-01 -1.666666666666665e-01 -3.333333333333333e-01
 1.666666666666667e-01 -1.666666666666665e-01 -3.333333333333333e-01
 1.666666666666667e-01 -1.666666666666665e-01 -3.333333333333333e-01
 1.666666666666667e-01 -1.666666666666665e-01 -3.333333333333333e-01
 1.666666666666667e-01 -1.666666666666665e-01 -3.333333333333333e-01
 1.666666666666667e-01 -1.666666666666665e-01 -3.333333333333333e-01
 1.666666666666667e-01 -1.666666666666665e-01 -3.333333333333333e-01
 1.666666666666667e-01 -1.666666666666665e-01 -3.333333333333333e-01
 1.666666666666667e-01 -1.666666666666665e-01 -3.333333333333333e-01
 1.666666666666667e-01 -1.666666666666665e-01 -3.333333333333333e-01
 1.666666666666667e-01 -1.666666666666665e-01 -3.333333333333333e-01
 1.666666666666667e-01 -1.666666666666665e-01 -3.333333333333333e-01
 1.666666666666667e-01 -1.666666666666665e-01 -3.333333333333333e-01
 1.666666666666667e-01 -1.666666666666665e-01 -3.333333333333333e-01
 1.666666666666667e-01 -1.666666666666665e-01 -3.333333333333333e-01
 1.666666666666667e-01 -1.666666666666665e-01 -3.333333333333333e-01
 1.666666666666667e-01 -1.666666666666665e-01 -3.333333333333333e-01
 1.666666666666667e-01 -1.666666666666665e-01 -3.333333333333333e-01
 1.666666666666667e-01 -1.666666666666665e-01 -3.333333333333333e-01
 1.666666666666667e-01 -1.666666666666665e-01 -3.333333333333333e-01
 1.666666666666667e-01 -1.666666666666665e-01 -3.333333333333333e-01
 1.666666666666667e-01 -1.666666666666665e-01 -3.333333333333333e-01
 1.666666666666667e-01 -1.666666666666665e-01 -3.333333333333333e-01
 1.666666666666667e-01 -1.666666666666665e-01 -3.333333333333333e-01
 1.666666666666667e-01 -1.666666666666665e-01 -3.333333333333333e-01
 1.666666666666667e-01 -1.666666666666665e-01 -3.333333333333333e-01
 1.666666666666667e-01 -1.666666666666665e-01 -3.333333333333333e-01
 1.666666666666667e-01 -1.666666666666665e-01 -3.333333333333333e-01
 1.666666666666667e-01 -1.666666666666665e-01 -3.333333333333333e-01
 1.666666666666667e-01 -1.666666666666665e-01 -3.333333333333333e-01
 1.666666666666667e-01 -1.666666666666665e-01 -3.333333333333333e-01
 1.666666666666667e-01 -1.666666666666665e-01 -3.333333333333333e-01
 1.666666666666667e-01 -1.666666666666665e-01 -3.333333333333333e-01
 1.666666666666667e-01 -1.666666666666665e-01 -3.333333333333333e-01
 1.666666666666667e-01 -1.666666666666665e-01 -3.333333333333333e-01
 1.666666666666667e-01 -1.666666666666665e-01 -3.333333333333333e-01
 1.666666666666667e-01 -1.666666666666665e-01 -3.333333333333333e-01
 1.666666666666667e-01 -1.666666666666665e-01 -3.333333333333333e-01
 1.666666666666667e-01 -1.666666666666665e-01 -3.333333333333333e-01
 1.666666666666667e-01 -1.666666666666665e-01 -3.333333333333333e-01
 1.666666666666667e-01 -1.666666666666665e-01 -3.333333333333333e-01
 1.666666666666667e-01 -1.666666666666665e-01 -3.333333333333333e-01
 1.666666666666667e-01 -1.666666666666665e-01 -3.333333333333333e-01
 1.666666666666667e-01 -1.666666666666665e-01 -3.333333333333333e-01
 1.666666666666667e-01 -1.666666666666665e-01 -3.333333333333333e-01
 1.666666666666667e-01 -1.666666666666665e-01 -3.333333333333333e-01
 1.666666666666667e-01 -1.666666666666665e-01 -3.333333333333333e-01
 1.666666666666667e-01 -1.666666666666665e-01 -3.333333333333333e-01
 1.666666666666667e-01 -1.666666666666665e-01 -3.333333333333333e-01
 1.666666666666667e-01 -1.666666666666665e-01 -3.333333333333333e-01
 1.666666666666667e-01 -1.666666666666665e-01 -3.333333333333333e-01
 1.666666666666667e-01 -1.666666666666665e-01 -3.333333333333333e-01
 1.666666666666667e-01 -1.666666666666665e-01 -3.333333333333333e-01
 1.666666666666667e-01 -1.666666666666665e-01 -3.333333333333333e-01
 1.666666666666667e-01 -1.666666666666665e-01 -3.333333333333333e-01
 1.666666666666667e-01 -1.666666666666665e-01 -3.333333333333333e-01
 1.666666666666667e-01 -1.666666666666665e-01 -3.333333333333333e-01
 1.666666666666667e-01 -1.666666666666665e-01 -3.333333333333333e-01
 1.666666666666667e-01 -1.666666666666665e-01 -3.333333333333333e-01
 1.666666666666667e-01 -1.666666666666665e-01 -3.333333333333333e-01
 1.666666666666667e-01 -1.666666666666665e-01 -3.333333333333333e-01
 1.666666666666667e-01 -1.666666666666665e-01 -3.333333333333333e-01
 1.666666666666667e-01 -1.666666666666665e-01 -3.333333333333333e-01
 1.666666666666667e-01 -1.666666666666665e-01 -3.333333333333333e-01
 1.666666666666667e-01 -1.666666666666665e-01 -3.333333333333333e-01
 1.666666666666667e-01 -1.666666666666665e-01 -3.333333333333333e-01
-1.666666666666667e-01  1.666666666666665e-01  3.333333333333333e-01
 1.666666666666667e-01 -1.666666666666665e-01 -3.333333333333333e-01
-1.666666666666667e-01  1.666666666666665e-01  3.333333333333333e-01
-1.666666666666667e-01  1.666666666666665e-01  3.333333333333333e-01
-1.666666666666667e-01  1.666666666666665e-01  3.333333333333333e-01
-1.666666666666667e-01  1.666666666666665e-01  3.333333333333333e-01
-1.666666666666667e-01  1.666666666666665e-01  3.333333333333333e-01
-1.666666666666667e-01  1.666666666666665e-01  3.333333333333333e-01
-1.666666666666667e-01  1.666666666666665e-01  3.333333333333333e-01
-1.666666666666667e-01  1.666666666666665e-01  3.333333333333333e-01
-1.666666666666667e-01  1.666666666666665e-01  3.333333333333333e-01
-1.666666666666667e-01  1.666666666666665e-01  3.333333333333333e-01
-1.666666666666667e-01  1.666666666666665e-01  3.333333333333333e-01
-1.666666666666667e-01  1.666666666666665e-01  3.333333333333333e-01
-1.666666666666667e-01  1.666666666666665e-01  3.333333333333333e-01
-1.666666666666667e-01  1.666666666666665e-01  3.333333333333333e-01
-1.666666666666667e-01  1.666666666666665e-01  3.333333333333333e-01
-1.666666666666667e-01  1.666666666666665e-01  3.333333333333333e-01
-1.666666666666667e-01  1.666666666666665e-01  3.333333333333333e-01
-1.666666666666667e-01  1.666666666666665e-01  3.333333333333333e-01
-1.666666666666667e-01  1.666666666666665e-01  3.333333333333333e-01
-1.666666666666667e-01  1.666666666666665e-01  3.333333333333333e-01
-1.666666666666667e-01  1.666666666666665e-01  3.333333333333333e-01
-1.666666666666667e-01  1.666666666666665e-01  3.333333333333333e-01
-1.666666666666667e-01  1.666666666666665e-01  3.333333333333333e-01
-1.666666666666667e-01  1.666666666666665e-01  3.333333333333333e-01
-1.666666666666667e-01  1.666666666666665e-01  3.333333333333333e-01
-1.666666666666667e-01  1.666666666666665e-01  3.333333333333333e-01
-1.666666666666667e-01  1.666666666666665e-01  3.333333333333333e-01
-1.666666666666667e-01  1.666666666666665e-01  3.333333333333333e-01
-1.666666666666667e-01  1.666666666666665e-01  3.333333333333333e-01
-1.666666666666667e-01  1.666666666666665e-01  3.333333333333333e-01
-1.666666666666667e-01  1.666666666666665e-01  3.333333333333333e-01
-1.666666666666667e-01  1.666666666666665e-01  3.333333333333333e-01
-1.666666666666667e-01  1.666666666666665e-01  3.333333333333333e-01
-1.666666666666667e-01  1.666666666666665e-01  3.333333333333333e-01
-1.666666666666667e-01  1.666666666666665e-01  3.333333333333333e-01
-1.666666666666667e-01  1.666666666666665e-01  3.333333333333333e-01
-1.666666666666667e-01  1.666666666666665e-01  3.333333333333333e-01
-1.666666666666667e-01  1.666666666666665e-01  3.333333333333333e-01
-1.666666666666667e-01  1.666666666666665e-01  3.333333333333333e-01
-1.666666666666667e-01  1.666666666666665e-01  3.333333333333333e-01
-1.666666666666667e-01  1.666666666666665e-01  3.333333333333333e-01
-1.666666666666667e-01  1.666666666666665e-01  3.333333333333333e-01
-1.666666666666667e-01  1.666666666666665e-01  3.333333333333333e-01
-1.666666666666667e-01  1.666666666666665e-01  3.333333333333333e-01
-1.666666666666667e-01  1.666666666666665e-01  3.333333333333333e-01
-1.666666666666667e-01  1.666666666666665e-01  3.333333333333333e-01
-1.666666666666667e-01  1.666666666666665e-01  3.333333333333333e-01
-1.666666666666667e-01  1.666666666666665e-01  3.333333333333333e-01
-1.666666666666667e-01  1.666666666666665e-01  3.333333333333333e-01
-1.666666666666667e-01  1.666666666666665e-01  3.333333333333333e-01
-1.666666666666667e-01  1.666666666666665e-01  3.333333333333333e-01
-1.666666666666667e-01  1.666666666666665e-01  3.333333333333333e-01
-1.666666666666667e-01  1.666666666666665e-01  3.333333333333333e-01
-1.666666666666667e-01  1.666666666666665e-01  3.333333333333333e-01
-1.666666666666667e-01  1.666666666666665e-01  3.333333333333333e-01
-1.666666666666667e-01  1.666666666666665e-01  3.333333333333333e-01
-1.666666666666667e-01  1.666666666666665e-01  3.333333333333333e-01
-1.666666666666667e-01  1.666666666666665e-01  3.333333333333333e-01
-1.666666666666667e-01  1.666666666666665e-01  3.333333333333333e-01
-1.666666666666667e-01  1.666666666666665e-01  3.333333333333333e-01
-1.666666666666667e-01  1.666666666666665e-01  3.333333333333333e-01
-1.666666666666667e-01  1.666666666666665e-01  3.333333333333333e-01
-1.666666666666667e-01  1.666666666666665e-01  3.333333333333333e-01
-1.666666666666667e-01  1.666666666666665e-01  3.333333333333333e-01
-1.666666666666667e-01  1.666666666666665e-01  3.333333333333333e-01
-1.666666666666667e-01  1.666666666666665e-01  3.333333333333333e-01
-1.666666666666667e-01  1.666666666666665e-01  3.333333333333333e-01
-1.666666666666667e-01  1.666666666666665e-01  3.333333333333333e-01
-1.666666666666667e-01  1.666666666666665e-01  3.333333333333333e-01
-1.666666666666667e-01  1.666666666666665e-01  3.333333333333333e-01
-1.666666666666667e-01  1.666666666666665e-01  3.333333333333333e-01
-1.666666666666667e-01  1.666666666666665e-01  3.333333333333333e-01
-1.666666666666667e-01  1.666666666666665e-01  3.333333333333333e-01
-1.666666666666667e-01  1.666666666666665e-01  3.333333333333333e-01
-1.666666666666667e-01  1.666666666666665e-01  3.333333333333333e-01
-1.666666666666667e-01  1.666666666666665e-01  3.333333333333333e-01
-1.666666666666667e-01  1.666666666666665e-01  3.333333333333333e-01
-1.666666666666667e-01  1.666666666666665e-01  3.333333333333333e-01
-1.666666666666667e-01  1.666666666666665e-01  3.333333333333333e-01
-1.666666666666667e-01  1.666666666666665e-01  3.333333333333333e-01
-1.666666666666667e-01  1.666666666666665e-01  3.333333333333333e-01
-1.666666666666667e-01  1.666666666666665e-01  3.333333333333333e-01
-1.666666666666667e-01  1.666666666666665e-01  3.333333333333333e-01
-1.666666666666667e-01  1.666666666666665e-01  3.333333333333333e-01
-1.666666666666667e-01  1.666666666666665e-01  3.333333333333333e-01
-1.666666666666667e-01  1.666666666666665e-01  3.333333333333333e-01
-1.666666666666667e-01  1.666666666666665e-01  3.333333333333333e-01
-1.666666666666667e-01  1.666666666666665e-01  3.333333333333333e-01
-1.666666666666667e-01  1.666666666666665e-01  3.333333333333333e-01
-1.666666666666667e-01  1.666666666666665e-01  3.333333333333333e-01
-1.666666666666667e-01  1.666666666666665e-01  3.333333333333333e-01
-1.666666666666667e-01  1.666666666666665e-01  3.333333333333333e-01
-1.666666666666667e-01  1.666666666666665e-01  3.333333333333333e-01
-1.666666666666667e-01  1.666666666666665e-01  3.333333333333333e-01
-1.666666666666667e-01  1.666666666666665e-01  3.333333333333333e-01
-1.666666666666667e-01  1.666666666666665e-01  3.333333333333333e-01
-1.666666666666667e-01  1.666666666666665e-01  3.333333333333333e-01
-1.666666666666667e-01  1.666666666666665e-01  3.333333333333333e-01
-1.666666666666667e-01  1.666666666666665e-01  3.333333333333333e-01
-1.666666666666667e-01  1.666666666666665e-01  3.333333333333333e-01
-1.666666666666667e-01  1.666666666666665e-01  3.333333333333333e-01
-1.666666666666667e-01  1.666666666666665e-01  3.333333333333333e-01
-1.666666666666667e-01  1.666666666666665e-01  3.333333333333333e-01
-1.666666666666667e-01  1.666666666666665e-01  3.333333333333333e-01
-1.666666666666667e-01  1.666666666666665e-01  3.333333333333333e-01
-1.666666666666667e-01  1.666666666666665e-01  3.333333333333333e-01
-1.666666666666667e-01  1.666666666666665e-01  3.333333333333333e-01
-1.666666666666667e-01  1.666666666666665e-01  3.333333333333333e-01
-1.666666666666667e-01  1.666666666666665e-01  3.333333333333333e-01
-1.666666666666667e-01  1.666666666666665e-01  3.333333333333333e-01
-1.666666666666667e-01  1.666666666666665e-01  3.333333333333333e-01
-1.666666666666667e-01  1.666666666666665e-01  3.333333333333333e-01
-1.666666666666667e-01  1.666666666666665e-01  3.333333333333333e-01
-1.666666666666667e-01  1.666666666666665e-01  3.333333333333333e-01
-1.666666666666667e-01  1.666666666666665e-01  3.333333333333333e-01
-1.666666666666667e-01  1.666666666666665e-01  3.333333333333333e-01
-1.666666666666667e-01  1.666666666666665e-01  3.333333333333333e-01
-1.666666666666667e-01  1.666666666666665e-01  3.333333333333333e-01
-1.666666666666667e-01  1.666666666666665e-01  3.333333333333333e-01
-1.666666666666667e-01  1.666666666666665e-01  3.333333333333333e-01
-1.666666666666667e-01  1.666666666666665e-01  3.333333333333333e-01
-1.666666666666667e-01  1.666666666666665e-01  3.333333333333333e-01
-1.666666666666667e-01  1.666666666666665e-01  3.333333333333333e-01
-1.666666666666667e-01  1.666666666666665e-01  3.333333333333333e-01
-1.666666666666667e-01  1.666666666666665e-01  3.333333333333333e-01
-1.666666666666667e-01  1.666666666666665e-01  3.333333333333333e-01
-1.666666666666667e-01  1.666666666666665e-01  3.333333333333333e-01
-1.666666666666667e-01  1.666666666666665e-01  3.333333333333333e-01
-1.666666666666667e-01  1.666666666666665e-01  3.333333333333333e-01
-1.666666666666667e-01  1.666666666666665e-01  3.333333333333333e-01
-1.666666666666667e-01  1.666666666666665e-01  3.333333333333333e-01
-1.666666666666667e-01  1.666666666666665e-01  3.333333333333333e-01
-1.666666666666667e-01  1.666666666666665e-01  3.333333333333333e-01
-1.666666666666667e-01  1.666666666666665e-01  3.333333333333333e-01
-1.666666666666667e-01  1.666666666666665e-01  3.333333333333333e-01
-1.666666666666667e-01  1.666666666666665e-01  3.333333333333333e-01
-1.666666666666667e-01  1.666666666666665e-01  3.333333333333333e-01
-1.666666666666667e-01  1.666666666666665e-01  3.333333333333333e-01
-1.666666666666667e-01  1.666666666666665e-01  3.333333333333333e-01
-1.666666666666667e-01  1.666666666666665e-01  3.333333333333333e-01
-1.666666666666667e-01  1.666666666666665e-01  3.333333333333333e-01
-1.666666666666667e-01  1.666666666666665e-01  3.333333333333333e-01
-1.666666666666667e-01  1.666666666666665e-01  3.333333333333333e-01
-1.666666666666667e-01  1.666666666666665e-01  3.333333333333333e-01
-1.666666666666667e-01  1.666666666666665e-01  3.333333333333333e-01
-1.666666666666667e-01  1.666666666666665e-01  3.333333333333333e-01
-1.666666666666667e-01  1.666666666666665e-01  3.333333333333333e-01
-1.666666666666667e-01  1.666666666666665e-01  3.333333333333333e-01
-1.666666666666667e-01  1.666666666666665e-01  3.333333333333333e-01
-1.666666666666667e-01  1.666666666666665e-01  3.333333333333333e-01
-1.666666666666667e-01  1.666666666666665e-01  3.333333333333333e-01
 1.666666666666667e-01 -1.666666666666665e-01 -3.333333333333333e-01
-1.666666666666667e-01  1.666666666666665e-01  3.333333333333333e-01
-1.666666666666667e-01  1.666666666666665e-01  3.333333333333333e-01
-1.666666666666667e-01  1.666666666666665e-01  3.333333333333333e-01
-1.666666666666667e-01  1.666666666666665e-01  3.333333333333333e-01
-1.666666666666667e-01  1.666666666666665e-01  3.333333333333333e-01
-1.666666666666667e-01  1.666666666666665e-01  3.333333333333333e-01
-1.666666666666667e-01  1.666666666666665e-01  3.333333333333333e-01
-1.666666666666667e-01  1.666666666666665e-01  3.333333333333333e-01
-1.666666666666667e-01  1.666666666666665e-01  3.333333333333333e-01
-1.666666666666667e-01  1.666666666666665e-01  3.333333333333333e-01
-1.666666666666667e-01  1.666666666666665e-01  3.333333333333333e-01
-1.666666666666667e-01  1.666666666666665e-01  3.333333333333333e-01
-1.666666666666667e-01  1.666666666666665e-01  3.333333333333333e-01
-1.666666666666667e-01  1.666666666666665e-01  3.333333333333333e-01
-1.666666666666667e-01  1.666666666666665e-01  3.333333333333333e-01
-1.666666666666667e-01  1.666666666666665e-01  3.333333333333333e-01
-1.666666666666667e-01  1.666666666666665e-01  3.333333333333333e-01
-1.666666666666667e-01  1.666666666666665e-01  3.333333333333333e-01
-1.666666666666667e-01  1.666666666666665e-01  3.333333333333333e-01
-1.666666666666667e-01  1.666666666666665e-01  3.333333333333333e-01
-1.666666666666667e-01  1.666666666666665e-01  3.333333333333333e-01
-1.666666666666667e-01  1.666666666666665e-01  3.333333333333333e-01
-1.666666666666667e-01  1.666666666666665e-01  3.333333333333333e-01
-1.666666666666667e-01  1.666666666666665e-01  3.333333333333333e-01
-1.666666666666667e-01  1.666666666666665e-01  3.333333333333333e-01
-1.666666666666667e-01  1.666666666666665e-01  3.333333333333333e-01
-1.666666666666667e-01  1.666666666666665e-01  3.333333333333333e-01
-1.666666666666667e-01  1.666666666666665e-01  3.333333333333333e-01
-1.666666666666667e-01  1.666666666666665e-01  3.333333333333333e-01
-1.666666666666667e-01  1.666666666666665e-01  3.333333333333333e-01
-1.666666666666667e-01  1.666666666666665e-01  3.333333333333333e-01
-1.666666666666667e-01  1.666666666666665e-01  3.333333333333333e-01
-1.666666666666667e-01  1.666666666666665e-01  3.333333333333333e-01
-1.666666666666667e-01  1.666666666666665e-01  3.333333333333333e-01
-1.666666666666667e-01  1.666666666666665e-01  3.333333333333333e-01
-1.666666666666667e-01  1.666666666666665e-01  3.333333333333333e-01
-1.666666666666667e-01  1.666666666666665e-01  3.333333333333333e-01
-1.666666666666667e-01  1.666666666666665e-01  3.333333333333333e-01
-1.666666666666667e-01  1.666666666666665e-01  3.333333333333333e-01
-1.666666666666667e-01  1.666666666666665e-01  3.333333333333333e-01
-1.666666666666667e-01  1.666666666666665e-01  3.333333333333333e-01
-1.666666666666667e-01  1.666666666666665e-01  3.333333333333333e-01
-1.666666666666667e-01  1.666666666666665e-01  3.333333333333333e-01
-1.666666666666667e-01  1.666666666666665e-01  3.333333333333333e-01
-1.666666666666667e-01  1.666666666666665e-01  3.333333333333333e-01
-1.666666666666667e-01  1.666666666666665e-01  3.333333333333333e-01
-1.666666666666667e-01  1.666666666666665e-01  3.333333333333333e-01
-1.666666666666667e-01  1.666666666666665e-01  3.333333333333333e-01
-1.666666666666667e-01  1.666666666666665e-01  3.333333333333333e-01
-1.666666666666667e-01  1.666666666666665e-01  3.333333333333333e-01
-1.666666666666667e-01  1.666666666666665e-01  3.333333333333333e-01
-1.666666666666667e-01  1.666666666666665e-01  3.333333333333333e-01
-1.666666666666667e-01  1.666666666666665e-01  3.333333333333333e-01
-1.666666666666667e-01  1.666666666666665e-01  3.333333333333333e-01
-1.666666666666667e-01  1.666666666666665e-01  3.333333333333333e-01
-1.666666666666667e-01  1.666666666666665e-01  3.333333333333333e-01
-1.666666666666667e-01  1.666666666666665e-01  3.333333333333333e-01
-1.666666666666667e-01  1.666666666666665e-01  3.333333333333333e-01
-1.666666666666667e-01  1.666666666666665e-01  3.333333333333333e-01
-1.666666666666667e-01  1.666666666666665e-01  3.333333333333333e-01
-1.666666666666667e-01  1.666666666666665e-01  3.333333333333333e-01
-1.666666666666667e-01  1.666666666666665e-01  3.333333333333333e-01
-1.666666666666667e-01  1.666666666666665e-01  3.333333333333333e-01
-1.666666666666667e-01  1.666666666666665e-01  3.333333333333333e-01
-1.666666666666667e-01  1.666666666666665e-01  3.333333333333333e-01
-1.666666666666667e-01  1.666666666666665e-01  3.333333333333333e-01
-1.666666666666667e-01  1.666666666666665e-01  3.333333333333333e-01
-1.666666666666667e-01  1.666666666666665e-01  3.333333333333333e-01
-1.666666666666667e-01  1.666666666666665e-01  3.333333333333333e-01
-1.666666666666667e-01  1.666666666666665e-01  3.333333333333333e-01
-1.666666666666667e-01  1.666666666666665e-01  3.333333333333333e-01
-1.666666666666667e-01  1.666666666666665e-01  3.333333333333333e-01
-1.666666666666667e-01  1.666666666666665e-01  3.333333333333333e-01
-1.666666666666667e-01  1.666666666666665e-01  3.333333333333333e-01
-1.666666666666667e-01  1.666666666666665e-01  3.333333333333333e-01
-1.666666666666667e-01  1.666666666666665e-01  3.333333333333333e-01
-1.666666666666667e-01  1.666666666666665e-01  3.333333333333333e-01
-1.666666666666667e-01  1.666666666666665e-01  3.333333333333333e-01
-1.666666666666667e-01  1.666666666666665e-01  3.333333333333333e-01
-1.666666666666667e-01  1.666666666666665e-01  3.333333333333333e-01
-1.666666666666667e-01  1.666666666666665e-01  3.333333333333333e-01
-1.666666666666667e-01  1.666666666666665e-01  3.333333333333333e-01
-1.666666666666667e-01  1.666666666666665e-01  3.333333333333333e-01
-1.666666666666667e-01  1.666666666666665e-01  3.333333333333333e-01
-1.666666666666667e-01  1.666666666666665e-01  3.333333333333333e-01
-1.666666666666667e-01  1.666666666666665e-01  3.333333333333333e-01
-1.666666666666667e-01  1.666666666666665e-01  3.333333333333333e-01
-1.666666666666667e-01  1.666666666666665e-01  3.333333333333333e-01
-1.666666666666667e-01  1.666666666666665e-01  3.333333333333333e-01
-1.666666666666667e-01  1.666666666666665e-01  3.333333333333333e-01
-1.666666666666667e-01  1.666666666666665e-01  3.333333333333333e-01
-1.666666666666667e-01  1.666666666666665e-01  3.333333333333333e-01
-1.666666666666667e-01  1.666666666666665e-01  3.333333333333333e-01
-1.666666666666667e-01  1.666666666666665e-01  3.333333333333333e-01
-1.666666666666667e-01  1.666666666666665e-01  3.333333333333333e-01
-1.666666666666667e-01  1.666666666666665e-01  3.333333333333333e-01
-1.666666666666667e-01  1.666666666666665e-01  3.333333333333333e-01
-1.666666666666667e-01  1.666666666666665e-01  3.333333333333333e-01
-1.666666666666667e-01  1.666666666666665e-01  3.333333333333333e-01
-1.666666666666667e-01  1.666666666666665e-01  3.333333333333333e-01
-1.666666666666667e-01  1.666666666666665e-01  3.333333333333333e-01
-1.666666666666667e-01  1.666666666666665e-01  3.333333333333333e-01
-1.666666666666667e-01  1.666666666666665e-01  3.333333333333333e-01
-1.666666666666667e-01  1.666666666666665e-01  3.333333333333333e-01
-1.666666666666667e-01  1.666666666666665e-01  3.333333333333333e-01
-1.666666666666667e-01  1.666666666666665e-01  3.333333333333333e-01
-1.666666666666667e-01  1.666666666666665e-01  3.333333333333333e-01
-1.666666666666667e-01  1.666666666666665e-01  3.333333333333333e-01
-1.666666666666667e-01  1.666666666666665e-01  3.333333333333333e-01
-1.666666666666667e-01  1.666666666666665e-01  3.333333333333333e-01
-1.666666666666667e-01  1.666666666666665e-01  3.333333333333333e-01
-1.666666666666667e-01  1.666666666666665e-01  3.333333333333333e-01
-1.666666666666667e-01  1.666666666666665e-01  3.333333333333333e-01
-1.666666666666667e-01  1.666666666666665e-01  3.333333333333333e-01
-1.666666666666667e-01  1.666666666666665e-01  3.333333333333333e-01
-1.666666666666667e-01  1.666666666666665e-01  3.333333333333333e-01
-1.666666666666667e-01  1.666666666666665e-01  3.333333333333333e-01
-1.666666666666667e-01  1.666666666666665e-01  3.333333333333333e-01
-1.666666666666667e-01  1.666666666666665e-01  3.333333333333333e-01
-1.666666666666667e-01  1.666666666666665e-01  3.333333333333333e-01
-1.666666666666667e-01  1.666666666666665e-01  3.333333333333333e-01
-1.666666666666667e-01  1.666666666666665e-01  3.333333333333333e-01
-1.666666666666667e-01  1.666666666666665e-01  3.333333333333333e-01
-1.666666666666667e-01  1.666666666666665e-01  3.333333333333333e-01
-1.666666666666667e-01  1.666666666666665e-01  3.333333333333333e-01
-1.666666666666667e-01  1.666666666666665e-01  3.333333333333333e-01
-1.666666666666667e-01  1.666666666666665e-01  3.333333333333333e-01
-1.666666666666667e-01  1.666666666666665e-01  3.333333333333333e-01
-1.666666666666667e-01  1.666666666666665e-01  3.333333333333333e-01
-1.666666666666667e-01  1.666666666666665e-01  3.333333333333333e-01
-1.666666666666667e-01  1.666666666666665e-01  3.333333333333333e-01
-1.666666666666667e-01  1.666666666666665e-01  3.333333333333333e-01
-1.666666666666667e-01  1.666666666666665e-01  3.333333333333333e-01
-1.666666666666667e-01  1.666666666666665e-01  3.333333333333333e-01
-1.666666666666667e-01  1.666666666666665e-01  3.333333333333333e-01
-1.666666666666667e-01  1.666666666666665e-01  3.333333333333333e-01
-1.666666666666667e-01  1.666666666666665e-01  3.333333333333333e-01
-1.666666666666667e-01  1.666666666666665e-01  3.333333333333333e-01
