# vtk DataFile Version 3.0
# Dislocation lines converted from MoDELib file
ASCII
DATASET UNSTRUCTURED_GRID
POINTS 2893 double
-1.429999999999877e+00  3.863858941524650e+02 -2.918975276816622e+03
-1.429999999999897e+00 -3.863858941524674e+02 -2.918975276816622e+03
-1.429999999999897e+00  0.000000000000000e+00 -2.918975276816622e+03
-1.430000000000221e+00  0.000000000000000e+00  2.918975276816619e+03
-1.430000000000221e+00 -3.863858941524674e+02  2.918975276816619e+03
-1.430000000000201e+00  3.863858941524653e+02  2.918975276816619e+03
-1.148445549362900e+03  1.101267788113109e+00 -2.918975276816622e+03
-1.148433510681640e+03 -1.062317645104890e+00 -2.918975276816622e+03
-1.148353198654362e+03 -1.742186890638015e+00 -2.918975276816622e+03
-1.148404786585512e+03 -3.962968835224148e+00 -2.918975276816622e+03
-1.148670757980944e+03 -5.192949456551087e+00 -2.918975276816622e+03
-1.148384079698922e+03 -6.490117507568369e+00 -2.918975276816622e+03
-1.147447920628318e+03 -8.562573812451681e+00 -2.918975276816622e+03
-1.148303107454804e+03 -1.296521242737966e+01 -2.918975276816622e+03
-1.148398384605552e+03 -1.364388411066436e+01 -2.918975276816622e+03
-1.148364317523361e+03 -1.661030350783009e+01 -2.918975276816622e+03
-1.148226728832475e+03 -2.009491100390569e+01 -2.918975276816622e+03
-1.148281486327749e+03 -2.290318666253531e+01 -2.918975276816622e+03
-1.148207235069301e+03 -2.691516670336486e+01 -2.918975276816622e+03
-1.148230213462701e+03 -2.804286909418526e+01 -2.918975276816622e+03
-1.148177811596410e+03 -3.455549669379568e+01 -2.918975276816622e+03
-1.148164353862347e+03 -3.540729313247409e+01 -2.918975276816622e+03
-1.148141097711895e+03 -3.851513900122100e+01 -2.918975276816622e+03
-1.148234160813345e+03 -4.348633066155313e+01 -2.918975276816622e+03
-1.148079363461694e+03 -4.492455230162599e+01 -2.918975276816622e+03
-1.147904941071301e+03 -5.005798973552037e+01 -2.918975276816622e+03
-1.148092566803035e+03 -5.593831779149176e+01 -2.918975276816622e+03
-1.148014091260028e+03 -5.836911347355534e+01 -2.918975276816622e+03
-1.147770753266507e+03 -6.003736755348592e+01 -2.918975276816622e+03
-1.147998494735986e+03 -6.121629489021283e+01 -2.918975276816622e+03
-1.147925228078725e+03 -6.327555586543885e+01 -2.918975276816622e+03
-1.147958165921901e+03 -6.426129579834398e+01 -2.918975276816622e+03
-1.147845370407511e+03 -6.639809472076824e+01 -2.918975276816622e+03
-1.147974254752295e+03 -6.741908279446766e+01 -2.918975276816622e+03
-1.147825671402449e+03 -6.995396595614959e+01 -2.918975276816622e+03
-1.147894012934603e+03 -7.065750936929973e+01 -2.918975276816622e+03
-1.147766875118400e+03 -7.212122717022490e+01 -2.918975276816622e+03
-1.147951849174743e+03 -7.418846033002457e+01 -2.918975276816622e+03
-1.147748643710601e+03 -7.531410844508535e+01 -2.918975276816622e+03
-1.147843927685155e+03 -7.637987530272878e+01 -2.918975276816622e+03
-1.147696277825670e+03 -7.837002608467317e+01 -2.918975276816622e+03
-1.147840928400254e+03 -8.038440789262856e+01 -2.918975276816622e+03
-1.147723363309830e+03 -8.148936916811196e+01 -2.918975276816622e+03
-1.147829156914525e+03 -8.370468265950026e+01 -2.918975276816622e+03
-1.147687100415283e+03 -8.524616250665801e+01 -2.918975276816622e+03
-1.147842214357709e+03 -8.727929953745742e+01 -2.918975276816622e+03
-1.147668240199887e+03 -8.947926720179582e+01 -2.918975276816622e+03
-1.147764892713477e+03 -9.035786661746319e+01 -2.918975276816622e+03
-1.147644648253111e+03 -9.208511597888277e+01 -2.918975276816622e+03
-1.147756246120968e+03 -9.483961826248712e+01 -2.918975276816622e+03
-1.147642062560141e+03 -9.554822646666508e+01 -2.918975276816622e+03
-1.147723361081268e+03 -9.844463893989966e+01 -2.918975276816622e+03
-1.147617568377622e+03 -1.003487554806580e+02 -2.918975276816622e+03
-1.147726783439443e+03 -1.013847197916222e+02 -2.918975276816622e+03
-1.147598032350246e+03 -1.032453519141403e+02 -2.918975276816622e+03
-1.147675409699508e+03 -1.042473466321441e+02 -2.918975276816622e+03
-1.147579003635871e+03 -1.062253276162858e+02 -2.918975276816622e+03
-1.147649226712513e+03 -1.072796298989042e+02 -2.918975276816622e+03
-1.147573632753093e+03 -1.096930330994632e+02 -2.918975276816622e+03
-1.147627037005778e+03 -1.105507054054468e+02 -2.918975276816622e+03
-1.147512312772948e+03 -1.122557970627117e+02 -2.918975276816622e+03
-1.147563844723713e+03 -1.141066251487999e+02 -2.918975276816622e+03
-1.147614678402907e+03 -1.141963543712850e+02 -2.918975276816622e+03
-1.147628510427208e+03 -1.157378465606965e+02 -2.918975276816622e+03
-1.147576109099598e+03 -1.183231921899975e+02 -2.918975276816622e+03
-1.147609337613075e+03 -1.201158498620745e+02 -2.918975276816622e+03
-1.147591879772212e+03 -1.213431470375277e+02 -2.918975276816622e+03
-1.147629968884745e+03 -1.236074196044016e+02 -2.918975276816622e+03
-1.147599615671419e+03 -1.248557497011734e+02 -2.918975276816622e+03
-1.147601975402266e+03 -1.294999509328848e+02 -2.918975276816622e+03
-1.147634689349748e+03 -1.297522263449068e+02 -2.918975276816622e+03
-1.147654024511961e+03 -1.319560137089790e+02 -2.918975276816622e+03
-1.147622913924411e+03 -1.340765943811996e+02 -2.918975276816622e+03
-1.147639730018882e+03 -1.343738826995792e+02 -2.918975276816622e+03
-1.147642383329194e+03 -1.357579407924337e+02 -2.918975276816622e+03
-1.147649129929240e+03 -1.383907595654906e+02 -2.918975276816622e+03
-1.147610171215314e+03 -1.400749736162081e+02 -2.918975276816622e+03
-1.147706074610343e+03 -1.412835375705533e+02 -2.918975276816622e+03
-1.147709504229470e+03 -1.431664750705903e+02 -2.918975276816622e+03
-1.147676104324888e+03 -1.441701007484793e+02 -2.918975276816622e+03
-1.147709439186997e+03 -1.461341177933552e+02 -2.918975276816622e+03
-1.147737488352938e+03 -1.471532804011249e+02 -2.918975276816622e+03
-1.147763278206116e+03 -1.496673687601048e+02 -2.918975276816622e+03
-1.147743612632720e+03 -1.503680042842840e+02 -2.918975276816622e+03
-1.147731710160349e+03 -1.520388491058403e+02 -2.918975276816622e+03
-1.147724692191684e+03 -1.540272273560671e+02 -2.918975276816622e+03
-1.147808877283660e+03 -1.540540885240634e+02 -2.918975276816622e+03
-1.147784526982849e+03 -1.559561978515906e+02 -2.918975276816622e+03
-1.147803427033308e+03 -1.601501881187462e+02 -2.918975276816622e+03
-1.147831824175819e+03 -1.612048145389789e+02 -2.918975276816622e+03
-1.147825000500438e+03 -1.632521193259838e+02 -2.918975276816622e+03
-1.147761150483382e+03 -1.647730169940640e+02 -2.918975276816622e+03
-1.147893418036281e+03 -1.723249957697250e+02 -2.918975276816622e+03
-1.147908874563277e+03 -1.756640537844411e+02 -2.918975276816622e+03
-1.147889330423199e+03 -1.783165769463907e+02 -2.918975276816622e+03
-1.147924405950725e+03 -1.802168575218611e+02 -2.918975276816622e+03
-1.147929311129067e+03 -1.812745231294412e+02 -2.918975276816622e+03
-1.147941259182883e+03 -1.831434156111599e+02 -2.918975276816622e+03
-1.147915120307883e+03 -1.847069178782286e+02 -2.918975276816622e+03
-1.147892242670321e+03 -1.894801862841209e+02 -2.918975276816622e+03
-1.147896346426599e+03 -1.900379851743965e+02 -2.918975276816622e+03
-1.148008748263863e+03 -1.919430418449642e+02 -2.918975276816622e+03
-1.147970467696362e+03 -1.938947195240263e+02 -2.918975276816622e+03
-1.147953337979146e+03 -1.942880130595704e+02 -2.918975276816622e+03
-1.147873058543491e+03 -1.960516873350871e+02 -2.918975276816622e+03
-1.147915245719515e+03 -2.000911225598807e+02 -2.918975276816622e+03
-1.147922051963856e+03 -2.010806568640094e+02 -2.918975276816622e+03
-1.147943530030479e+03 -2.031308070206968e+02 -2.918975276816622e+03
-1.147766719822749e+03 -2.041194012667836e+02 -2.918975276816622e+03
-1.147910735802454e+03 -2.060169062417621e+02 -2.918975276816622e+03
-1.147846464510711e+03 -2.071021378265434e+02 -2.918975276816622e+03
-1.147880513000272e+03 -2.096421669993495e+02 -2.918975276816622e+03
-1.147788927060478e+03 -2.104399836878014e+02 -2.918975276816622e+03
-1.147848232463451e+03 -2.123836422491591e+02 -2.918975276816622e+03
-1.147727509446674e+03 -2.155943849876410e+02 -2.918975276816622e+03
-1.147740224951135e+03 -2.182363907955094e+02 -2.918975276816622e+03
-1.147658975716915e+03 -2.200668928525565e+02 -2.918975276816622e+03
-1.147681153221018e+03 -2.212032419347906e+02 -2.918975276816622e+03
-1.147599331625085e+03 -2.231658505548549e+02 -2.918975276816622e+03
-1.147592675347578e+03 -2.246360592712327e+02 -2.918975276816622e+03
-1.147460522066702e+03 -2.294509788924918e+02 -2.918975276816622e+03
-1.147435235791598e+03 -2.301830157548864e+02 -2.918975276816622e+03
-1.147386866910269e+03 -2.319961272378026e+02 -2.918975276816622e+03
-1.147313159152982e+03 -2.338081210781242e+02 -2.918975276816622e+03
-1.147246003283518e+03 -2.339087795503136e+02 -2.918975276816622e+03
-1.147416383377241e+03 -2.355482709605916e+02 -2.918975276816622e+03
-1.147473298500935e+03 -2.381359659554365e+02 -2.918975276816622e+03
-1.147605967967507e+03 -2.400681548596052e+02 -2.918975276816622e+03
-1.147564570249688e+03 -2.411821597463746e+02 -2.918975276816622e+03
-1.147701750457467e+03 -2.431696311564859e+02 -2.918975276816622e+03
-1.147683557991376e+03 -2.444741109712462e+02 -2.918975276816622e+03
-1.147864379252672e+03 -2.470157182692862e+02 -2.918975276816622e+03
-1.147820871321228e+03 -2.470554567107913e+02 -2.918975276816622e+03
-1.147790721849938e+03 -2.497765505657071e+02 -2.918975276816622e+03
-1.147796978947550e+03 -2.508560741358255e+02 -2.918975276816622e+03
-1.147789661176036e+03 -2.516889784894987e+02 -2.918975276816622e+03
-1.147788884171119e+03 -2.538529584937048e+02 -2.918975276816622e+03
-1.147791901933464e+03 -2.552309463394717e+02 -2.918975276816622e+03
-1.147783202495768e+03 -2.574753394970433e+02 -2.918975276816622e+03
-1.147767745826116e+03 -2.577210175094405e+02 -2.918975276816622e+03
-1.147775917948628e+03 -2.601532935205640e+02 -2.918975276816622e+03
-1.147797478729731e+03 -2.609425281482905e+02 -2.918975276816622e+03
-1.147793386756090e+03 -2.634033062499723e+02 -2.918975276816622e+03
-1.147800947173319e+03 -2.661363475905497e+02 -2.918975276816622e+03
-1.147824303534799e+03 -2.710889608850393e+02 -2.918975276816622e+03
-1.147826732573215e+03 -2.738734179758795e+02 -2.918975276816622e+03
-1.147824055840217e+03 -2.755635181623589e+02 -2.918975276816622e+03
-1.147827215304749e+03 -2.773803049992335e+02 -2.918975276816622e+03
-1.147876301777558e+03 -2.802886465346929e+02 -2.918975276816622e+03
-1.147879356839628e+03 -2.843310808415904e+02 -2.918975276816622e+03
-1.147775871717430e+03 -2.859630014252461e+02 -2.918975276816622e+03
-1.147782986709419e+03 -2.878080639626424e+02 -2.918975276816622e+03
-1.147868262806940e+03 -2.950801647295954e+02 -2.918975276816622e+03
-1.147831565135863e+03 -2.986130432235022e+02 -2.918975276816622e+03
-1.147817371003351e+03 -3.003118980699211e+02 -2.918975276816622e+03
-1.147804688071082e+03 -3.036502945089731e+02 -2.918975276816622e+03
-1.147798714986002e+03 -3.042760341122651e+02 -2.918975276816622e+03
-1.147781260886636e+03 -3.073839948490516e+02 -2.918975276816622e+03
-1.147743511325355e+03 -3.106702228494871e+02 -2.918975276816622e+03
-1.147716472514875e+03 -3.139484547255808e+02 -2.918975276816622e+03
-1.147666864285449e+03 -3.181070514530248e+02 -2.918975276816622e+03
-1.147559539460123e+03 -3.231521113258244e+02 -2.918975276816622e+03
-1.147433974276713e+03 -3.266283464223886e+02 -2.918975276816622e+03
-1.147447351155015e+03 -3.266360451471420e+02 -2.918975276816622e+03
-1.147641928851975e+03 -3.304581185296854e+02 -2.918975276816622e+03
-1.147576143813839e+03 -3.338699140221125e+02 -2.918975276816622e+03
-1.147635462940213e+03 -3.347157508418478e+02 -2.918975276816622e+03
-1.147642098369932e+03 -3.386948267129223e+02 -2.918975276816622e+03
-1.147681214841720e+03 -3.432352356222813e+02 -2.918975276816622e+03
-1.147708139401743e+03 -3.472916068346768e+02 -2.918975276816622e+03
-1.147716813748537e+03 -3.479688169118874e+02 -2.918975276816622e+03
-1.147752283095836e+03 -3.528709217731849e+02 -2.918975276816622e+03
-1.147762131381251e+03 -3.543910622321995e+02 -2.918975276816622e+03
-1.147790209205892e+03 -3.583821686802900e+02 -2.918975276816622e+03
-1.147801699019539e+03 -3.621408251795934e+02 -2.918975276816622e+03
-1.147911001670373e+03 -3.696672664971240e+02 -2.918975276816622e+03
-1.147883857220065e+03 -3.717654865184952e+02 -2.918975276816622e+03
-1.147898194970281e+03 -3.740973879748811e+02 -2.918975276816622e+03
-1.147916950437559e+03 -3.744019272946985e+02 -2.918975276816622e+03
-1.147942094449915e+03 -3.763752572730845e+02 -2.918975276816622e+03
-1.147917540861022e+03 -3.775369341568224e+02 -2.918975276816622e+03
-1.147930114358859e+03 -3.796470738189738e+02 -2.918975276816622e+03
-1.147940615577682e+03 -3.799799084981050e+02 -2.918975276816622e+03
-1.147940064601294e+03 -3.823258277996188e+02 -2.918975276816622e+03
-1.147922978934478e+03 -3.860599043252176e+02 -2.918975276816622e+03
-1.147964460259258e+03  3.832684932200539e+02 -2.918975276816622e+03
-1.147936715250404e+03  3.785186894608937e+02 -2.918975276816622e+03
-1.147936074929248e+03  3.770757269102092e+02 -2.918975276816622e+03
-1.147929983741062e+03  3.763613355154853e+02 -2.918975276816622e+03
-1.147929128393079e+03  3.737488719913254e+02 -2.918975276816622e+03
-1.147926199104979e+03  3.685195959919771e+02 -2.918975276816622e+03
-1.147906240116400e+03  3.602111804570734e+02 -2.918975276816622e+03
-1.147899450462324e+03  3.590955322287415e+02 -2.918975276816622e+03
-1.147920771279368e+03  3.548456792835426e+02 -2.918975276816622e+03
-1.147872023359699e+03  3.527602756199742e+02 -2.918975276816622e+03
-1.147909080295916e+03  3.510008196028294e+02 -2.918975276816622e+03
-1.147857018263478e+03  3.485389937702075e+02 -2.918975276816622e+03
-1.147888859154245e+03  3.459140820805235e+02 -2.918975276816622e+03
-1.147852582743131e+03  3.443545489208018e+02 -2.918975276816622e+03
-1.147857028564836e+03  3.413968645727675e+02 -2.918975276816622e+03
-1.147820214830872e+03  3.404627490363025e+02 -2.918975276816622e+03
-1.147834089091040e+03  3.383536029420364e+02 -2.918975276816622e+03
-1.147746365489794e+03  3.296876895262716e+02 -2.918975276816622e+03
-1.147729217580830e+03  3.276917096360945e+02 -2.918975276816622e+03
-1.147732513734885e+03  3.260457717610113e+02 -2.918975276816622e+03
-1.147681614874940e+03  3.234620933481011e+02 -2.918975276816622e+03
-1.147642914032260e+03  3.234224639618200e+02 -2.918975276816622e+03
-1.147710723775846e+03  3.209074278240651e+02 -2.918975276816622e+03
-1.147720261510025e+03  3.200609012581618e+02 -2.918975276816622e+03
-1.147774835391554e+03  3.172123685649825e+02 -2.918975276816622e+03
-1.147780468306646e+03  3.132548676883595e+02 -2.918975276816622e+03
-1.147795724393790e+03  3.098342546767076e+02 -2.918975276816622e+03
-1.147813979957600e+03  3.073259594683819e+02 -2.918975276816622e+03
-1.147824845954115e+03  3.053453501729680e+02 -2.918975276816622e+03
-1.147825218223093e+03  3.033546932270895e+02 -2.918975276816622e+03
-1.147832532028798e+03  3.012132262874878e+02 -2.918975276816622e+03
-1.147885485246951e+03  2.936919170382983e+02 -2.918975276816622e+03
-1.147914805651967e+03  2.890560093510618e+02 -2.918975276816622e+03
-1.147868168870134e+03  2.885694205226238e+02 -2.918975276816622e+03
-1.147878389796080e+03  2.862413668950601e+02 -2.918975276816622e+03
-1.147885991610679e+03  2.831810646202848e+02 -2.918975276816622e+03
-1.147921516849726e+03  2.820390244781784e+02 -2.918975276816622e+03
-1.147909995956268e+03  2.800982373872253e+02 -2.918975276816622e+03
-1.147906214891370e+03  2.779950251161331e+02 -2.918975276816622e+03
-1.147751348854974e+03  2.762320457242981e+02 -2.918975276816622e+03
-1.147968869390091e+03  2.757559295471938e+02 -2.918975276816622e+03
-1.148021147714302e+03  2.741933660230635e+02 -2.918975276816622e+03
-1.147994090001252e+03  2.716310252453264e+02 -2.918975276816622e+03
-1.147677223039365e+03  2.709757432603292e+02 -2.918975276816622e+03
-1.147903531991836e+03  2.692623305418131e+02 -2.918975276816622e+03
-1.147955965243378e+03  2.667067370579576e+02 -2.918975276816622e+03
-1.147928080658406e+03  2.655197839291352e+02 -2.918975276816622e+03
-1.147909197539621e+03  2.630890701491190e+02 -2.918975276816622e+03
-1.147924488518538e+03  2.611243160023198e+02 -2.918975276816622e+03
-1.147914512347156e+03  2.599455278697975e+02 -2.918975276816622e+03
-1.147846806789857e+03  2.578503646168490e+02 -2.918975276816622e+03
-1.147923708460496e+03  2.565966406405393e+02 -2.918975276816622e+03
-1.147950200316883e+03  2.514118003718185e+02 -2.918975276816622e+03
-1.147884848403168e+03  2.503069639763087e+02 -2.918975276816622e+03
-1.147775000124767e+03  2.494380127067692e+02 -2.918975276816622e+03
-1.147823543387965e+03  2.471165260595925e+02 -2.918975276816622e+03
-1.147924539833670e+03  2.457538605006355e+02 -2.918975276816622e+03
-1.147809673526080e+03  2.434566829107458e+02 -2.918975276816622e+03
-1.147914198443478e+03  2.431834499389715e+02 -2.918975276816622e+03
-1.147874219817648e+03  2.406478340703808e+02 -2.918975276816622e+03
-1.147881174976948e+03  2.400909021084402e+02 -2.918975276816622e+03
-1.147629744817622e+03  2.383700725445194e+02 -2.918975276816622e+03
-1.147692644031532e+03  2.362220829279428e+02 -2.918975276816622e+03
-1.147738372007862e+03  2.353013332618533e+02 -2.918975276816622e+03
-1.148077674589510e+03  2.333957712329022e+02 -2.918975276816622e+03
-1.148586312520552e+03  2.312977607203523e+02 -2.918975276816622e+03
-1.147978695141645e+03  2.305107563350057e+02 -2.918975276816622e+03
-1.147821155800100e+03  2.279250481615839e+02 -2.918975276816622e+03
-1.147530869245633e+03  2.279617221681998e+02 -2.918975276816622e+03
-1.147473577123880e+03  2.246007982966458e+02 -2.918975276816622e+03
-1.147758900342919e+03  2.231126072857856e+02 -2.918975276816622e+03
-1.147470935295426e+03  2.200636074155890e+02 -2.918975276816622e+03
-1.147472936683017e+03  2.170568887406021e+02 -2.918975276816622e+03
-1.147369453087226e+03  2.164766655353619e+02 -2.918975276816622e+03
-1.147383936854986e+03  2.143806756270396e+02 -2.918975276816622e+03
-1.147285006269929e+03  2.138229883947063e+02 -2.918975276816622e+03
-1.147434605985966e+03  2.121221134179366e+02 -2.918975276816622e+03
-1.147261624601733e+03  2.100525117505774e+02 -2.918975276816622e+03
-1.147263603080052e+03  2.093193194537037e+02 -2.918975276816622e+03
-1.147233161635971e+03  2.071608961566617e+02 -2.918975276816622e+03
-1.147236402667295e+03  2.046163129475498e+02 -2.918975276816622e+03
-1.147246296537974e+03  1.986040408359332e+02 -2.918975276816622e+03
-1.147173594005287e+03  1.963244361126850e+02 -2.918975276816622e+03
-1.147425410943858e+03  1.921571124249306e+02 -2.918975276816622e+03
-1.147206998140651e+03  1.902009328607717e+02 -2.918975276816622e+03
-1.146458994382760e+03  1.891358226306307e+02 -2.918975276816622e+03
-1.147008309307076e+03  1.871297684591157e+02 -2.918975276816622e+03
-1.147496102657946e+03  1.862159875539332e+02 -2.918975276816622e+03
-1.147111073256961e+03  1.844614745757356e+02 -2.918975276816622e+03
-1.147006012639403e+03  1.832583905952117e+02 -2.918975276816622e+03
-1.146901507845788e+03  1.805799074625514e+02 -2.918975276816622e+03
-1.147108026207088e+03  1.789301671862742e+02 -2.918975276816622e+03
-1.147161126137132e+03  1.782516361467307e+02 -2.918975276816622e+03
-1.147143506815328e+03  1.760034974292017e+02 -2.918975276816622e+03
-1.147133482891049e+03  1.735412156961888e+02 -2.918975276816622e+03
-1.147128110533212e+03  1.718389291667550e+02 -2.918975276816622e+03
-1.147142878371066e+03  1.702031310062709e+02 -2.918975276816622e+03
-1.147196626926868e+03  1.689583460030379e+02 -2.918975276816622e+03
-1.147149478744357e+03  1.674261385935772e+02 -2.918975276816622e+03
-1.147151807310909e+03  1.662568795480789e+02 -2.918975276816622e+03
-1.147158807478384e+03  1.639727770512796e+02 -2.918975276816622e+03
-1.147159393491934e+03  1.634983170132141e+02 -2.918975276816622e+03
-1.147168075260401e+03  1.610058765852417e+02 -2.918975276816622e+03
-1.147170229893178e+03  1.602923813076366e+02 -2.918975276816622e+03
-1.147171068225050e+03  1.582513015147534e+02 -2.918975276816622e+03
-1.147177905871318e+03  1.532382570258805e+02 -2.918975276816622e+03
-1.147418891271045e+03  1.515473190658489e+02 -2.918975276816622e+03
-1.147208359446299e+03  1.500124367114309e+02 -2.918975276816622e+03
-1.147169703255404e+03  1.492217406876662e+02 -2.918975276816622e+03
-1.147195152681928e+03  1.474821258505294e+02 -2.918975276816622e+03
-1.147234407674744e+03  1.463348595452545e+02 -2.918975276816622e+03
-1.147227619735069e+03  1.443913992702879e+02 -2.918975276816622e+03
-1.147226228365967e+03  1.433527881935977e+02 -2.918975276816622e+03
-1.147220223789398e+03  1.410183110864269e+02 -2.918975276816622e+03
-1.147227749906034e+03  1.408023553130560e+02 -2.918975276816622e+03
-1.147239800817273e+03  1.386075883418428e+02 -2.918975276816622e+03
-1.147273641668371e+03  1.370967506642025e+02 -2.918975276816622e+03
-1.147255772862973e+03  1.365809270388654e+02 -2.918975276816622e+03
-1.147274122819428e+03  1.340596655984237e+02 -2.918975276816622e+03
-1.147308492864351e+03  1.330555455220500e+02 -2.918975276816622e+03
-1.147329477675140e+03  1.304499141659758e+02 -2.918975276816622e+03
-1.147343018431458e+03  1.291588513410396e+02 -2.918975276816622e+03
-1.147357494268705e+03  1.273594231794758e+02 -2.918975276816622e+03
-1.147385863029764e+03  1.256908291134771e+02 -2.918975276816622e+03
-1.147440525919967e+03  1.211368919323524e+02 -2.918975276816622e+03
-1.147443772910436e+03  1.201389363650094e+02 -2.918975276816622e+03
-1.147501997583428e+03  1.178205600241245e+02 -2.918975276816622e+03
-1.147463104407041e+03  1.148587111217353e+02 -2.918975276816622e+03
-1.147565506934351e+03  1.127621622417993e+02 -2.918975276816622e+03
-1.147573172522028e+03  1.117764540317993e+02 -2.918975276816622e+03
-1.147604819330981e+03  1.103707620209811e+02 -2.918975276816622e+03
-1.147501430146292e+03  1.094070500289283e+02 -2.918975276816622e+03
-1.147645838019639e+03  1.070099912705488e+02 -2.918975276816622e+03
-1.147553545349321e+03  1.060530047397724e+02 -2.918975276816622e+03
-1.147672132521881e+03  1.047912282956577e+02 -2.918975276816622e+03
-1.147565997098463e+03  1.034389472507426e+02 -2.918975276816622e+03
-1.147693680640052e+03  1.010869777290175e+02 -2.918975276816622e+03
-1.147594145051914e+03  1.000577958292825e+02 -2.918975276816622e+03
-1.147718022139027e+03  9.866837242394929e+01 -2.918975276816622e+03
-1.147634823978343e+03  9.709618027714785e+01 -2.918975276816622e+03
-1.147731905263022e+03  9.519348308482886e+01 -2.918975276816622e+03
-1.147669786370648e+03  9.150329290639058e+01 -2.918975276816622e+03
-1.147761594805213e+03  8.882812025435042e+01 -2.918975276816622e+03
-1.147785683157238e+03  8.565336753517890e+01 -2.918975276816622e+03
-1.147761089151883e+03  8.231605749559502e+01 -2.918975276816622e+03
-1.147509677453938e+03  7.963016360720295e+01 -2.918975276816622e+03
-1.148245202454249e+03  7.896437514196852e+01 -2.918975276816622e+03
-1.147823020718109e+03  7.625397093597870e+01 -2.918975276816622e+03
-1.147545474270696e+03  7.378983194619516e+01 -2.918975276816622e+03
-1.147812215550689e+03  7.193583145223467e+01 -2.918975276816622e+03
-1.148009855209890e+03  7.047423603881018e+01 -2.918975276816622e+03
-1.147869864870859e+03  6.818659470406793e+01 -2.918975276816622e+03
-1.147842641235663e+03  6.755949703357120e+01 -2.918975276816622e+03
-1.147870369433264e+03  6.562368683405205e+01 -2.918975276816622e+03
-1.147930727084922e+03  6.198114994285128e+01 -2.918975276816622e+03
-1.148011443113362e+03  5.511962817821360e+01 -2.918975276816622e+03
-1.148020348167928e+03  5.316673954149437e+01 -2.918975276816622e+03
-1.147864320483924e+03  5.120784441630578e+01 -2.918975276816622e+03
-1.148145287665624e+03  4.967509185157564e+01 -2.918975276816622e+03
-1.148091582697988e+03  4.743609979863452e+01 -2.918975276816622e+03
-1.148111021143468e+03  4.450344900852694e+01 -2.918975276816622e+03
-1.148163141747257e+03  4.131051919659988e+01 -2.918975276816622e+03
-1.148294994668511e+03  3.964830545604173e+01 -2.918975276816622e+03
-1.148207102347436e+03  3.839464170846590e+01 -2.918975276816622e+03
-1.148227507521983e+03  3.544962314389002e+01 -2.918975276816622e+03
-1.148265996556101e+03  3.167671887876396e+01 -2.918975276816622e+03
-1.148500668014771e+03  2.908606800520515e+01 -2.918975276816622e+03
-1.148411472969666e+03  2.327222725809803e+01 -2.918975276816622e+03
-1.148345395087385e+03  2.290498006190252e+01 -2.918975276816622e+03
-1.148319520119949e+03  2.117828877926852e+01 -2.918975276816622e+03
-1.148436087357724e+03  2.015082412846486e+01 -2.918975276816622e+03
-1.148403950692056e+03  1.791140857748755e+01 -2.918975276816622e+03
-1.148336436719707e+03  1.602097129743795e+01 -2.918975276816622e+03
-1.148437063137996e+03  1.388129537775962e+01 -2.918975276816622e+03
-1.148411806306758e+03  7.648025192613732e+00 -2.918975276816622e+03
-1.148414910124010e+03  6.186104706122227e+00 -2.918975276816622e+03
-1.148489110763148e+03  5.238635011676464e+00 -2.918975276816622e+03
1.145762025595707e+03 5.235608233268954e-01 2.918975276816622e+03
1.145877915178618e+03 1.154076802851978e-01 2.918975276816622e+03
 1.145731281681571e+03 -8.988297168965097e-01  2.918975276816622e+03
 1.145656469016134e+03 -3.509344860693749e+00  2.918975276816622e+03
 1.145719461115832e+03 -4.464609486853990e+00  2.918975276816622e+03
 1.145708893919630e+03 -8.732537140081368e+00  2.918975276816622e+03
 1.145613396022373e+03 -9.699898987407616e+00  2.918975276816622e+03
 1.145546210675490e+03 -1.176551645717237e+01  2.918975276816622e+03
 1.145535785106138e+03 -1.342980582319197e+01  2.918975276816622e+03
 1.145461898315709e+03 -1.701814406394924e+01  2.918975276816622e+03
 1.145385938255207e+03 -2.154185176760537e+01  2.918975276816622e+03
 1.145326713023885e+03 -2.386062244533395e+01  2.918975276816622e+03
 1.145267982295280e+03 -2.615469645166935e+01  2.918975276816622e+03
 1.145260061426432e+03 -2.780911010086745e+01  2.918975276816622e+03
 1.145262451069595e+03 -2.977002296314318e+01  2.918975276816622e+03
 1.145214342433020e+03 -3.017538540569490e+01  2.918975276816622e+03
 1.145184958131174e+03 -3.192188251512568e+01  2.918975276816622e+03
 1.145189041077518e+03 -3.332607578072244e+01  2.918975276816622e+03
 1.145137729345197e+03 -3.799809268264134e+01  2.918975276816622e+03
 1.145129289068592e+03 -3.936745396308579e+01  2.918975276816622e+03
 1.145076450224892e+03 -4.207378662116744e+01  2.918975276816622e+03
 1.145070246886537e+03 -4.470571492599324e+01  2.918975276816622e+03
 1.145040810916606e+03 -4.555339881105876e+01  2.918975276816622e+03
 1.145061075519141e+03 -4.768474767611658e+01  2.918975276816622e+03
 1.144993332574038e+03 -5.063539428436478e+01  2.918975276816622e+03
 1.145014416959519e+03 -5.434036899175587e+01  2.918975276816622e+03
 1.144947192634681e+03 -5.634098333740820e+01  2.918975276816622e+03
 1.144988596548009e+03 -5.865099703100732e+01  2.918975276816622e+03
 1.144917149751918e+03 -6.037644166555611e+01  2.918975276816622e+03
 1.144957115819967e+03 -6.238082618842840e+01  2.918975276816622e+03
 1.144921389413191e+03 -6.371138309900648e+01  2.918975276816622e+03
 1.144960920632238e+03 -6.468706492872698e+01  2.918975276816622e+03
 1.144835304659745e+03 -6.536969313567973e+01  2.918975276816622e+03
 1.144919661060116e+03 -6.694105025828870e+01  2.918975276816622e+03
 1.144963484132127e+03 -6.868318276294981e+01  2.918975276816622e+03
 1.144915470907726e+03 -7.027904397846068e+01  2.918975276816622e+03
 1.144917210065087e+03 -7.501844535643417e+01  2.918975276816622e+03
 1.144915981320570e+03 -7.872416586219819e+01  2.918975276816622e+03
 1.144902005450541e+03 -8.070464454469474e+01  2.918975276816622e+03
 1.144914167895727e+03 -8.229778573505412e+01  2.918975276816622e+03
 1.144937987687493e+03 -8.398377505844540e+01  2.918975276816622e+03
 1.144993276675477e+03 -8.504487185548243e+01  2.918975276816622e+03
 1.144846140841398e+03 -8.508599598341674e+01  2.918975276816622e+03
 1.144898707796555e+03 -8.616091341725655e+01  2.918975276816622e+03
 1.144925606318156e+03 -8.726253313097460e+01  2.918975276816622e+03
 1.144925144287064e+03 -8.891427193755983e+01  2.918975276816622e+03
 1.144916672696140e+03 -9.020858397526871e+01  2.918975276816622e+03
 1.144922307794845e+03 -9.472672506875124e+01  2.918975276816622e+03
 1.144911293314609e+03 -9.800601804269523e+01  2.918975276816622e+03
 1.144894433838334e+03 -9.938474643132520e+01  2.918975276816622e+03
 1.144899387163385e+03 -1.017354526388392e+02  2.918975276816622e+03
 1.144942984829664e+03 -1.027980190349693e+02  2.918975276816622e+03
 1.144956589304132e+03 -1.041286483798010e+02  2.918975276816622e+03
 1.144862549164146e+03 -1.042328596340664e+02  2.918975276816622e+03
 1.144869774231655e+03 -1.055299507433986e+02  2.918975276816622e+03
 1.144914932207555e+03 -1.063476745895478e+02  2.918975276816622e+03
 1.144888351923394e+03 -1.075238945241664e+02  2.918975276816622e+03
 1.144869277133303e+03 -1.100615065552836e+02  2.918975276816622e+03
 1.144871411849530e+03 -1.102016829791645e+02  2.918975276816622e+03
 1.144844588529956e+03 -1.145904268989455e+02  2.918975276816622e+03
 1.144824733403541e+03 -1.194499138204040e+02  2.918975276816622e+03
 1.144831727679461e+03 -1.217883891943430e+02  2.918975276816622e+03
 1.144819761278258e+03 -1.264681699411902e+02  2.918975276816622e+03
 1.144761935415800e+03 -1.287256832563146e+02  2.918975276816622e+03
 1.144806961478735e+03 -1.301988043802270e+02  2.918975276816622e+03
 1.144872675193338e+03 -1.347662188066814e+02  2.918975276816622e+03
 1.144803010610228e+03 -1.379733606001927e+02  2.918975276816622e+03
 1.144794606366013e+03 -1.392920921131481e+02  2.918975276816622e+03
 1.144827403431182e+03 -1.430051285546546e+02  2.918975276816622e+03
 1.144824467849271e+03 -1.447998139264759e+02  2.918975276816622e+03
 1.144811354742732e+03 -1.468240131546841e+02  2.918975276816622e+03
 1.144801803468723e+03 -1.488068182107621e+02  2.918975276816622e+03
 1.144806784342153e+03 -1.502555446833080e+02  2.918975276816622e+03
 1.144844199740134e+03 -1.549908201422411e+02  2.918975276816622e+03
 1.144841053274889e+03 -1.586772469208907e+02  2.918975276816622e+03
 1.144759495607158e+03 -1.604428879910194e+02  2.918975276816622e+03
 1.144819112675662e+03 -1.621540738598974e+02  2.918975276816622e+03
 1.144860128718789e+03 -1.639299060379361e+02  2.918975276816622e+03
 1.144836897884393e+03 -1.651539706657895e+02  2.918975276816622e+03
 1.144796174520831e+03 -1.656175685492022e+02  2.918975276816622e+03
 1.144827764193627e+03 -1.671696367026299e+02  2.918975276816622e+03
 1.144830552300388e+03 -1.686695089910879e+02  2.918975276816622e+03
 1.144817290910715e+03 -1.701575700788152e+02  2.918975276816622e+03
 1.144871122869549e+03 -1.750470955390626e+02  2.918975276816622e+03
 1.144836976696130e+03 -1.785322388168453e+02  2.918975276816622e+03
 1.144788396949897e+03 -1.802592511072514e+02  2.918975276816622e+03
 1.144840948435024e+03 -1.815585619994452e+02  2.918975276816622e+03
 1.144813478447574e+03 -1.856843109122626e+02  2.918975276816622e+03
 1.144309315912693e+03 -1.875146717049716e+02  2.918975276816622e+03
 1.144786321896064e+03 -1.891106705247249e+02  2.918975276816622e+03
 1.144948333881327e+03 -1.902705459203825e+02  2.918975276816622e+03
 1.144756205400786e+03 -1.949643847941950e+02  2.918975276816622e+03
 1.145017699151589e+03 -1.987456208185333e+02  2.918975276816622e+03
 1.144861600898148e+03 -2.029020642080299e+02  2.918975276816622e+03
 1.144789076819870e+03 -2.067764087013981e+02  2.918975276816622e+03
 1.144865890238395e+03 -2.084569717031758e+02  2.918975276816622e+03
 1.145007656985526e+03 -2.101655953786047e+02  2.918975276816622e+03
 1.144868144889313e+03 -2.148083319435224e+02  2.918975276816622e+03
 1.144830685344663e+03 -2.169585366599412e+02  2.918975276816622e+03
 1.144881121331431e+03 -2.186579749399709e+02  2.918975276816622e+03
 1.145046616690888e+03 -2.237392932804169e+02  2.918975276816622e+03
 1.144889454572164e+03 -2.251315407195318e+02  2.918975276816622e+03
 1.144755119534039e+03 -2.288522169758816e+02  2.918975276816622e+03
 1.144909603469364e+03 -2.301857712237374e+02  2.918975276816622e+03
 1.144933400530704e+03 -2.328849070282174e+02  2.918975276816622e+03
 1.144926578559573e+03 -2.341764800278835e+02  2.918975276816622e+03
 1.144941351848618e+03 -2.368089038346641e+02  2.918975276816622e+03
 1.144944368843900e+03 -2.389163076943074e+02  2.918975276816622e+03
 1.144960442561293e+03 -2.414179312325324e+02  2.918975276816622e+03
 1.144972619885382e+03 -2.449568075345141e+02  2.918975276816622e+03
 1.144986838202201e+03 -2.480068645229429e+02  2.918975276816622e+03
 1.144989495507727e+03 -2.489273987698778e+02  2.918975276816622e+03
 1.145009668458373e+03 -2.536441898652926e+02  2.918975276816622e+03
 1.145040520550083e+03 -2.606988142876862e+02  2.918975276816622e+03
 1.145054322820453e+03 -2.658389731709618e+02  2.918975276816622e+03
 1.145067505318199e+03 -2.690381348325383e+02  2.918975276816622e+03
 1.145064337217251e+03 -2.700191859317787e+02  2.918975276816622e+03
 1.145068409886976e+03 -2.727476073089184e+02  2.918975276816622e+03
 1.145042474489351e+03 -2.733897456264737e+02  2.918975276816622e+03
 1.145097974460656e+03 -2.758376094005920e+02  2.918975276816622e+03
 1.145177591135185e+03 -2.785601916993015e+02  2.918975276816622e+03
 1.145082901356807e+03 -2.833295995978938e+02  2.918975276816622e+03
 1.144728254877973e+03 -2.867425323032567e+02  2.918975276816622e+03
 1.145088709530910e+03 -2.885725783803383e+02  2.918975276816622e+03
 1.145129193494769e+03 -2.907938642963171e+02  2.918975276816622e+03
 1.145091901158251e+03 -2.931321385922510e+02  2.918975276816622e+03
 1.145082818394670e+03 -2.950544382593316e+02  2.918975276816622e+03
 1.145085763217322e+03 -2.987526738472124e+02  2.918975276816622e+03
 1.145097059310854e+03 -2.990024455717690e+02  2.918975276816622e+03
 1.145078784977961e+03 -3.026534767387817e+02  2.918975276816622e+03
 1.145061580575628e+03 -3.036819693914675e+02  2.918975276816622e+03
 1.145058790616997e+03 -3.082446089464439e+02  2.918975276816622e+03
 1.145068764005022e+03 -3.100741125245781e+02  2.918975276816622e+03
 1.145033058212361e+03 -3.123647213566211e+02  2.918975276816622e+03
 1.145055291653142e+03 -3.137132478310600e+02  2.918975276816622e+03
 1.145014568152941e+03 -3.149361149643589e+02  2.918975276816622e+03
 1.145045188614905e+03 -3.179834210854901e+02  2.918975276816622e+03
 1.144990483850906e+03 -3.190884546394245e+02  2.918975276816622e+03
 1.145049750956777e+03 -3.215707263991486e+02  2.918975276816622e+03
 1.144937128899797e+03 -3.234318210733113e+02  2.918975276816622e+03
 1.144945852539465e+03 -3.261498496255348e+02  2.918975276816622e+03
 1.144999225894649e+03 -3.265045249754280e+02  2.918975276816622e+03
 1.145130792970087e+03 -3.290334570921649e+02  2.918975276816622e+03
 1.144898151781856e+03 -3.316938770165686e+02  2.918975276816622e+03
 1.145037270312595e+03 -3.344827482293709e+02  2.918975276816622e+03
 1.144967242048865e+03 -3.376296964962056e+02  2.918975276816622e+03
 1.144980049248173e+03 -3.382601492279601e+02  2.918975276816622e+03
 1.144731507197055e+03 -3.406048517924081e+02  2.918975276816622e+03
 1.144986606325226e+03 -3.431470959682715e+02  2.918975276816622e+03
 1.144862924005717e+03 -3.450417864220833e+02  2.918975276816622e+03
 1.144984176292878e+03 -3.487725502935986e+02  2.918975276816622e+03
 1.144825745050111e+03 -3.521805942143993e+02  2.918975276816622e+03
 1.144992222829541e+03 -3.531246240407134e+02  2.918975276816622e+03
 1.144864562633559e+03 -3.570156665078523e+02  2.918975276816622e+03
 1.144983020233074e+03 -3.595125070224302e+02  2.918975276816622e+03
 1.144903182191377e+03 -3.597780873829008e+02  2.918975276816622e+03
 1.144918186486745e+03 -3.617731311319191e+02  2.918975276816622e+03
 1.144935018962266e+03 -3.668995970626310e+02  2.918975276816622e+03
 1.144934988089112e+03 -3.685847617409927e+02  2.918975276816622e+03
 1.144938661590679e+03 -3.713898261181503e+02  2.918975276816622e+03
 1.144963761738245e+03 -3.717022495843551e+02  2.918975276816622e+03
 1.144962618829297e+03 -3.752671525558641e+02  2.918975276816622e+03
 1.144956783010821e+03 -3.778664977510269e+02  2.918975276816622e+03
 1.144993044116821e+03 -3.828947715033799e+02  2.918975276816622e+03
 1.145016316336148e+03 -3.834803049342368e+02  2.918975276816622e+03
1.145090773648775e+03 3.848360200475737e+02 2.918975276816622e+03
1.145071508670704e+03 3.813431761240338e+02 2.918975276816622e+03
1.145069449879149e+03 3.788109068949004e+02 2.918975276816622e+03
1.145107554753456e+03 3.778691627435388e+02 2.918975276816622e+03
1.145113696763932e+03 3.763977664254476e+02 2.918975276816622e+03
1.145168458165112e+03 3.736764557577826e+02 2.918975276816622e+03
1.145116422220059e+03 3.728433033349249e+02 2.918975276816622e+03
1.145095646333662e+03 3.712439197999320e+02 2.918975276816622e+03
1.145173069511660e+03 3.672577243989314e+02 2.918975276816622e+03
1.145626130210789e+03 3.653417315732670e+02 2.918975276816622e+03
1.145284448083957e+03 3.626814034351019e+02 2.918975276816622e+03
1.145278825314334e+03 3.599546875192525e+02 2.918975276816622e+03
1.145291169508273e+03 3.581754361920717e+02 2.918975276816622e+03
1.145366582960374e+03 3.571257960040454e+02 2.918975276816622e+03
1.145324690570883e+03 3.554362337293371e+02 2.918975276816622e+03
1.145395508476299e+03 3.537416266748613e+02 2.918975276816622e+03
1.145372306263928e+03 3.516994809658150e+02 2.918975276816622e+03
1.145435599356035e+03 3.504182863022407e+02 2.918975276816622e+03
1.145422432235998e+03 3.480849591219958e+02 2.918975276816622e+03
1.145477418953653e+03 3.467876505547156e+02 2.918975276816622e+03
1.145475178523458e+03 3.446223931765269e+02 2.918975276816622e+03
1.145508651902526e+03 3.435602644270731e+02 2.918975276816622e+03
1.145514876265004e+03 3.415310577788638e+02 2.918975276816622e+03
1.145548335526684e+03 3.399386840535563e+02 2.918975276816622e+03
1.145604245802237e+03 3.382282580829200e+02 2.918975276816622e+03
1.145615042540666e+03 3.346208625891886e+02 2.918975276816622e+03
1.145751918099200e+03 3.315399433186292e+02 2.918975276816622e+03
1.145805631359560e+03 3.288142319150116e+02 2.918975276816622e+03
1.145748781646546e+03 3.288434643317023e+02 2.918975276816622e+03
1.145626254614783e+03 3.261003407991798e+02 2.918975276816622e+03
1.145759773381334e+03 3.235134680875932e+02 2.918975276816622e+03
1.145639359717396e+03 3.214453497075755e+02 2.918975276816622e+03
1.145746788334185e+03 3.193518586242333e+02 2.918975276816622e+03
1.145678160668620e+03 3.186337113817477e+02 2.918975276816622e+03
1.145748399223750e+03 3.161424564882979e+02 2.918975276816622e+03
1.145692941625087e+03 3.135173751162533e+02 2.918975276816622e+03
1.145780855599719e+03 3.118484723930264e+02 2.918975276816622e+03
1.145701731728552e+03 3.116781060175451e+02 2.918975276816622e+03
1.145698985082122e+03 3.097385687943121e+02 2.918975276816622e+03
1.145665575020263e+03 3.078305949693815e+02 2.918975276816622e+03
1.145651112945941e+03 3.065173638198618e+02 2.918975276816622e+03
1.145596736802306e+03 3.021177125120684e+02 2.918975276816622e+03
1.145581055533873e+03 3.018568106023407e+02 2.918975276816622e+03
1.145527332237899e+03 2.989090962941723e+02 2.918975276816622e+03
1.145529188057013e+03 2.975047695453834e+02 2.918975276816622e+03
1.145508525686922e+03 2.952848714073890e+02 2.918975276816622e+03
1.145479325620564e+03 2.937548798881928e+02 2.918975276816622e+03
1.145454349731315e+03 2.919795878694558e+02 2.918975276816622e+03
1.145400776217519e+03 2.871032067667729e+02 2.918975276816622e+03
1.145373092199789e+03 2.849344074385419e+02 2.918975276816622e+03
1.145345394767348e+03 2.827438006463223e+02 2.918975276816622e+03
1.145327186605879e+03 2.812105579451347e+02 2.918975276816622e+03
1.145281220482271e+03 2.773782645830154e+02 2.918975276816622e+03
1.145255717817456e+03 2.752967750311492e+02 2.918975276816622e+03
1.145216491731455e+03 2.711880682005020e+02 2.918975276816622e+03
1.145121775936899e+03 2.665717270300444e+02 2.918975276816622e+03
1.145173384686417e+03 2.652727583736500e+02 2.918975276816622e+03
1.145107650816925e+03 2.623945149624549e+02 2.918975276816622e+03
1.145082728363834e+03 2.584087878114372e+02 2.918975276816622e+03
1.145085792216112e+03 2.579569303573242e+02 2.918975276816622e+03
1.145052672862490e+03 2.533178276310481e+02 2.918975276816622e+03
1.144957587270125e+03 2.511550457505142e+02 2.918975276816622e+03
1.145029752799454e+03 2.502402094280693e+02 2.918975276816622e+03
1.145031524383436e+03 2.485619289412107e+02 2.918975276816622e+03
1.145016008829601e+03 2.470809282111515e+02 2.918975276816622e+03
1.144964702286481e+03 2.458368785131370e+02 2.918975276816622e+03
1.145001197003077e+03 2.445492249800882e+02 2.918975276816622e+03
1.145018273639991e+03 2.428389211100765e+02 2.918975276816622e+03
1.145039425159676e+03 2.355085202168829e+02 2.918975276816622e+03
1.144953999613095e+03 2.339500268504320e+02 2.918975276816622e+03
1.144541434488254e+03 2.313376846961096e+02 2.918975276816622e+03
1.144952814651896e+03 2.285424587352050e+02 2.918975276816622e+03
1.145431573970795e+03 2.273722878860753e+02 2.918975276816622e+03
1.145043635560309e+03 2.263272501447546e+02 2.918975276816622e+03
1.144966421856607e+03 2.236687960742433e+02 2.918975276816622e+03
1.144608469914804e+03 2.217154472043670e+02 2.918975276816622e+03
1.144997457134693e+03 2.202440943344579e+02 2.918975276816622e+03
1.145114690120314e+03 2.157496094466200e+02 2.918975276816622e+03
1.145073972301197e+03 2.128696699639118e+02 2.918975276816622e+03
1.144964772428939e+03 2.112833778300267e+02 2.918975276816622e+03
1.145008453434535e+03 2.086825712975185e+02 2.918975276816622e+03
1.145042431562835e+03 2.076520492078465e+02 2.918975276816622e+03
1.145060413091273e+03 2.062605452298589e+02 2.918975276816622e+03
1.144975844722715e+03 2.060684338893239e+02 2.918975276816622e+03
1.145016323746978e+03 2.046280035966072e+02 2.918975276816622e+03
1.145033288876779e+03 2.039852888890239e+02 2.918975276816622e+03
1.145008337763459e+03 2.024668271624057e+02 2.918975276816622e+03
1.144932756899647e+03 2.010317624946752e+02 2.918975276816622e+03
1.145000787821454e+03 2.002560781697132e+02 2.918975276816622e+03
1.144979020154984e+03 1.953926722072101e+02 2.918975276816622e+03
1.144932693200326e+03 1.922381715742023e+02 2.918975276816622e+03
1.144904159761562e+03 1.879252087097620e+02 2.918975276816622e+03
1.144937301093332e+03 1.863162742331895e+02 2.918975276816622e+03
1.144908552980165e+03 1.836065639861318e+02 2.918975276816622e+03
1.144882077311232e+03 1.814269764308160e+02 2.918975276816622e+03
1.144908569832247e+03 1.803692194183902e+02 2.918975276816622e+03
1.144900334355983e+03 1.755973762661446e+02 2.918975276816622e+03
1.145003722031784e+03 1.725791007382734e+02 2.918975276816622e+03
1.144879315224194e+03 1.710155118289410e+02 2.918975276816622e+03
1.144938449773499e+03 1.688578794337452e+02 2.918975276816622e+03
1.144935038360203e+03 1.677494727745002e+02 2.918975276816622e+03
1.144768463644828e+03 1.662859381240389e+02 2.918975276816622e+03
1.144903982276468e+03 1.569877815498321e+02 2.918975276816622e+03
1.145326973149650e+03 1.544642439592920e+02 2.918975276816622e+03
1.145269154874904e+03 1.511042964885871e+02 2.918975276816622e+03
1.145344078074639e+03 1.475271679885276e+02 2.918975276816622e+03
1.145489379700877e+03 1.460569981396475e+02 2.918975276816622e+03
1.145584005422270e+03 1.450238099766776e+02 2.918975276816622e+03
1.145483887998495e+03 1.450118785865210e+02 2.918975276816622e+03
1.145400477187941e+03 1.438927131290006e+02 2.918975276816622e+03
1.145346345989110e+03 1.418343593686353e+02 2.918975276816622e+03
1.145266538887504e+03 1.404003755179891e+02 2.918975276816622e+03
1.145192273013492e+03 1.360029552266074e+02 2.918975276816622e+03
1.145136894834805e+03 1.328963677757035e+02 2.918975276816622e+03
1.145081761898037e+03 1.312634903888963e+02 2.918975276816622e+03
1.145098595451333e+03 1.289087073870508e+02 2.918975276816622e+03
1.145101395771162e+03 1.277886028252709e+02 2.918975276816622e+03
1.145171089139440e+03 1.264799402649309e+02 2.918975276816622e+03
1.145061338453928e+03 1.263057224954405e+02 2.918975276816622e+03
1.145091093917398e+03 1.249917341331941e+02 2.918975276816622e+03
1.145265081266134e+03 1.249838255190936e+02 2.918975276816622e+03
1.145106175241150e+03 1.236599311754853e+02 2.918975276816622e+03
1.145106408224501e+03 1.218742398642941e+02 2.918975276816622e+03
1.145045848900596e+03 1.205309098534463e+02 2.918975276816622e+03
1.145058313498291e+03 1.159705270258091e+02 2.918975276816622e+03
1.145009640855531e+03 1.124129684076354e+02 2.918975276816622e+03
1.145021828478677e+03 1.105332423073174e+02 2.918975276816622e+03
1.145132052187006e+03 1.093258237915813e+02 2.918975276816622e+03
1.145059638258431e+03 1.068539575311629e+02 2.918975276816622e+03
1.144956121075278e+03 1.051275656213426e+02 2.918975276816622e+03
1.145100874152195e+03 1.019611883234845e+02 2.918975276816622e+03
1.145165245758687e+03 1.005544023793681e+02 2.918975276816622e+03
1.145253704592419e+03 9.560355042382450e+01 2.918975276816622e+03
1.145281261558094e+03 9.376155691683927e+01 2.918975276816622e+03
1.145507374881426e+03 8.353863067038291e+01 2.918975276816622e+03
1.145549122312310e+03 8.038171909479259e+01 2.918975276816622e+03
1.145686709480872e+03 7.596103506512999e+01 2.918975276816622e+03
1.145776632346462e+03 7.041614547017330e+01 2.918975276816622e+03
1.145910425414635e+03 6.451507713415083e+01 2.918975276816622e+03
1.145941192756684e+03 6.275678619414889e+01 2.918975276816622e+03
1.146035209613181e+03 5.765528876300310e+01 2.918975276816622e+03
1.146010150961331e+03 5.716908589061195e+01 2.918975276816622e+03
1.146080242157634e+03 5.503533030748973e+01 2.918975276816622e+03
1.146021985427933e+03 5.311969341104200e+01 2.918975276816622e+03
1.146111886233980e+03 5.065507672602843e+01 2.918975276816622e+03
1.146121686704775e+03 4.937490689858527e+01 2.918975276816622e+03
1.146120100968664e+03 4.777670405369662e+01 2.918975276816622e+03
1.146108957423558e+03 4.705016602663419e+01 2.918975276816622e+03
1.146121114388361e+03 4.416380354177254e+01 2.918975276816622e+03
1.146131728515184e+03 4.250285673614295e+01 2.918975276816622e+03
1.146133531661087e+03 4.203603869959002e+01 2.918975276816622e+03
1.146079147122391e+03 4.032162030720049e+01 2.918975276816622e+03
1.146089287137419e+03 3.824480465367313e+01 2.918975276816622e+03
1.146124991164901e+03 3.609956284437815e+01 2.918975276816622e+03
1.146067184333036e+03 3.385807154276106e+01 2.918975276816622e+03
1.146060273217533e+03 2.915228242430384e+01 2.918975276816622e+03
1.146037990638088e+03 2.723662179960916e+01 2.918975276816622e+03
1.146017306655267e+03 2.363593561444493e+01 2.918975276816622e+03
1.146003262794133e+03 2.074563011325454e+01 2.918975276816622e+03
1.145972756894166e+03 1.751744961240616e+01 2.918975276816622e+03
1.145959222172701e+03 1.293961456147952e+01 2.918975276816622e+03
1.145929159450660e+03 1.075342667389811e+01 2.918975276816622e+03
1.145878824782139e+03 9.675484741573072e+00 2.918975276816622e+03
1.145878784667130e+03 7.910039549008594e+00 2.918975276816622e+03
1.145742927209291e+03 4.467248877654082e+00 2.918975276816622e+03
1.145824580856731e+03 2.826821369872389e+00 2.918975276816622e+03
-1.157275584288765e+03  1.135991759077456e+00 -2.918975276816622e+03
-1.157150182920189e+03 -5.871524519926965e+00 -2.918975276816622e+03
-1.156913903914929e+03 -1.037441923254378e+01 -2.918975276816622e+03
-1.157352452964908e+03 -1.046661536907054e+01 -2.918975276816622e+03
-1.157271778398432e+03 -1.384484091414739e+01 -2.918975276816622e+03
-1.157530455972809e+03 -1.492788807338679e+01 -2.918975276816622e+03
-1.157505397909275e+03 -1.671819853305371e+01 -2.918975276816622e+03
-1.157280995340304e+03 -2.137711436775103e+01 -2.918975276816622e+03
-1.156956308609599e+03 -2.201177078988628e+01 -2.918975276816622e+03
-1.156963063131480e+03 -2.575348915909137e+01 -2.918975276816622e+03
-1.157045717733313e+03 -2.845061998418378e+01 -2.918975276816622e+03
-1.157029375100768e+03 -3.288410470834829e+01 -2.918975276816622e+03
-1.157022577400736e+03 -3.443515268073461e+01 -2.918975276816622e+03
-1.156982304922625e+03 -3.602130014225020e+01 -2.918975276816622e+03
-1.157041329648883e+03 -3.719835540501375e+01 -2.918975276816622e+03
-1.156944650439445e+03 -4.056151163784102e+01 -2.918975276816622e+03
-1.156946559216247e+03 -4.142745759816933e+01 -2.918975276816622e+03
-1.156880112691671e+03 -4.356911688472898e+01 -2.918975276816622e+03
-1.156968275503295e+03 -4.527139801568080e+01 -2.918975276816622e+03
-1.156887932600875e+03 -4.565586072440810e+01 -2.918975276816622e+03
-1.156964109192758e+03 -4.740872430586433e+01 -2.918975276816622e+03
-1.156859495114710e+03 -4.974294074227598e+01 -2.918975276816622e+03
-1.156921905856685e+03 -5.040115563045326e+01 -2.918975276816622e+03
-1.156802950047860e+03 -5.206593738489829e+01 -2.918975276816622e+03
-1.156866236811476e+03 -5.509677930323410e+01 -2.918975276816622e+03
-1.156792427147334e+03 -5.617591826654348e+01 -2.918975276816622e+03
-1.156855248761961e+03 -5.862374768077159e+01 -2.918975276816622e+03
-1.156766569267620e+03 -6.054281945985499e+01 -2.918975276816622e+03
-1.156801772454711e+03 -6.139996593894097e+01 -2.918975276816622e+03
-1.156749950424405e+03 -6.354342773796509e+01 -2.918975276816622e+03
-1.156766826742862e+03 -6.492833962989094e+01 -2.918975276816622e+03
-1.156701214441410e+03 -6.575947935078160e+01 -2.918975276816622e+03
-1.156767234015528e+03 -6.743356344539880e+01 -2.918975276816622e+03
-1.156728316516262e+03 -6.991941484148605e+01 -2.918975276816622e+03
-1.156708309526793e+03 -7.043211708201812e+01 -2.918975276816622e+03
-1.156675570920350e+03 -7.197755740502981e+01 -2.918975276816622e+03
-1.156690177491196e+03 -7.331345518551989e+01 -2.918975276816622e+03
-1.156645081335609e+03 -7.528647504498332e+01 -2.918975276816622e+03
-1.156656516557642e+03 -7.626278122605142e+01 -2.918975276816622e+03
-1.156644365825207e+03 -7.688216427039194e+01 -2.918975276816622e+03
-1.156655756321285e+03 -7.863729551100526e+01 -2.918975276816622e+03
-1.156612661607175e+03 -8.042266920738436e+01 -2.918975276816622e+03
-1.156616911929764e+03 -8.128046335450627e+01 -2.918975276816622e+03
-1.156594152138056e+03 -8.344736316356364e+01 -2.918975276816622e+03
-1.156599916773223e+03 -8.482285251701933e+01 -2.918975276816622e+03
-1.156576813091972e+03 -8.595744020220937e+01 -2.918975276816622e+03
-1.156584335453678e+03 -8.737760562927531e+01 -2.918975276816622e+03
-1.156555653555002e+03 -8.977173538293574e+01 -2.918975276816622e+03
-1.156568329654489e+03 -9.039910099768022e+01 -2.918975276816622e+03
-1.156536081070846e+03 -9.198784827308378e+01 -2.918975276816622e+03
-1.156542742652541e+03 -9.524212405042547e+01 -2.918975276816622e+03
-1.156518839946884e+03 -9.639852711862460e+01 -2.918975276816622e+03
-1.156528550063577e+03 -9.895074628062990e+01 -2.918975276816622e+03
-1.156496421109043e+03 -1.011877700286453e+02 -2.918975276816622e+03
-1.156502739172068e+03 -1.013795094468765e+02 -2.918975276816622e+03
-1.156474152286574e+03 -1.035818612323302e+02 -2.918975276816622e+03
-1.156483794336717e+03 -1.052614201433237e+02 -2.918975276816622e+03
-1.156460573908475e+03 -1.065687441182722e+02 -2.918975276816622e+03
-1.156470976037336e+03 -1.071398610129004e+02 -2.918975276816622e+03
-1.156452835609354e+03 -1.095342640774151e+02 -2.918975276816622e+03
-1.156451170854590e+03 -1.108322431559277e+02 -2.918975276816622e+03
-1.156444210249633e+03 -1.128659620849493e+02 -2.918975276816622e+03
-1.156468710954709e+03 -1.134783327525133e+02 -2.918975276816622e+03
-1.156443742824131e+03 -1.182537304383261e+02 -2.918975276816622e+03
-1.156418469073397e+03 -1.204139127891179e+02 -2.918975276816622e+03
-1.156439110070477e+03 -1.212163637095685e+02 -2.918975276816622e+03
-1.156410775423162e+03 -1.234306087668550e+02 -2.918975276816622e+03
-1.156452561411074e+03 -1.250073640497207e+02 -2.918975276816622e+03
-1.156402880594239e+03 -1.259299339746893e+02 -2.918975276816622e+03
-1.156460762036066e+03 -1.272903470984473e+02 -2.918975276816622e+03
-1.156418794956994e+03 -1.298459832829306e+02 -2.918975276816622e+03
-1.156493095629082e+03 -1.316079689604738e+02 -2.918975276816622e+03
-1.156403093591069e+03 -1.324308392476949e+02 -2.918975276816622e+03
-1.156484132260874e+03 -1.332742401896988e+02 -2.918975276816622e+03
-1.156440503414262e+03 -1.351712066827674e+02 -2.918975276816622e+03
-1.156531045301290e+03 -1.361813630077798e+02 -2.918975276816622e+03
-1.156415647579684e+03 -1.385073342771568e+02 -2.918975276816622e+03
-1.156531655644142e+03 -1.404082151836100e+02 -2.918975276816622e+03
-1.156455758200400e+03 -1.413278677516807e+02 -2.918975276816622e+03
-1.156600216569268e+03 -1.435040720274080e+02 -2.918975276816622e+03
-1.156484401894497e+03 -1.449870381040387e+02 -2.918975276816622e+03
-1.156591198947254e+03 -1.458241015828985e+02 -2.918975276816622e+03
-1.156498292560849e+03 -1.476685596915069e+02 -2.918975276816622e+03
-1.156842621667011e+03 -1.516278151914561e+02 -2.918975276816622e+03
-1.156568121011279e+03 -1.550178991746233e+02 -2.918975276816622e+03
-1.156654470072566e+03 -1.562190854859661e+02 -2.918975276816622e+03
-1.156561255105572e+03 -1.586039091954984e+02 -2.918975276816622e+03
-1.156703185921014e+03 -1.604466866014584e+02 -2.918975276816622e+03
-1.156613817951138e+03 -1.610419246071925e+02 -2.918975276816622e+03
-1.156736619919595e+03 -1.633821318877317e+02 -2.918975276816622e+03
-1.156634465395160e+03 -1.644120528843007e+02 -2.918975276816622e+03
-1.156742982625063e+03 -1.659535654985277e+02 -2.918975276816622e+03
-1.156671518008376e+03 -1.674275483534115e+02 -2.918975276816622e+03
-1.156744888450405e+03 -1.700893068949443e+02 -2.918975276816622e+03
-1.156692507761823e+03 -1.721656882527946e+02 -2.918975276816622e+03
-1.156775411389040e+03 -1.730803237615187e+02 -2.918975276816622e+03
-1.156756835577120e+03 -1.770659443152480e+02 -2.918975276816622e+03
-1.157059510147950e+03 -1.823179711467723e+02 -2.918975276816622e+03
-1.156646533923634e+03 -1.844843247193071e+02 -2.918975276816622e+03
-1.156651321935105e+03 -1.864791667996288e+02 -2.918975276816622e+03
-1.156948811935343e+03 -1.869449207959515e+02 -2.918975276816622e+03
-1.156831961752337e+03 -1.893985510844601e+02 -2.918975276816622e+03
-1.156794487846364e+03 -1.914862014654052e+02 -2.918975276816622e+03
-1.157052852368274e+03 -1.949048623434753e+02 -2.918975276816622e+03
-1.156910013955980e+03 -1.973377046794336e+02 -2.918975276816622e+03
-1.156717727094567e+03 -1.985322838071931e+02 -2.918975276816622e+03
-1.156792242597375e+03 -2.003168297798684e+02 -2.918975276816622e+03
-1.156822288158740e+03 -2.009336911487814e+02 -2.918975276816622e+03
-1.156799152769578e+03 -2.031424140143855e+02 -2.918975276816622e+03
-1.156415869168563e+03 -2.045749850330338e+02 -2.918975276816622e+03
-1.156795691293426e+03 -2.056313967187975e+02 -2.918975276816622e+03
-1.156925160360609e+03 -2.073362443576314e+02 -2.918975276816622e+03
-1.156650420483857e+03 -2.097533260286474e+02 -2.918975276816622e+03
-1.156593785525726e+03 -2.151717159736693e+02 -2.918975276816622e+03
-1.156697293232172e+03 -2.151434503715175e+02 -2.918975276816622e+03
-1.156671703293885e+03 -2.182412576682496e+02 -2.918975276816622e+03
-1.156483881944814e+03 -2.208058198726412e+02 -2.918975276816622e+03
-1.156477717510829e+03 -2.208466581728449e+02 -2.918975276816622e+03
-1.156128750130953e+03 -2.233122686058866e+02 -2.918975276816622e+03
-1.156169810595101e+03 -2.254216657470400e+02 -2.918975276816622e+03
-1.156809019279112e+03 -2.252795498638880e+02 -2.918975276816622e+03
-1.157044256009435e+03 -2.269020233553660e+02 -2.918975276816622e+03
-1.156501747596107e+03 -2.300460385999063e+02 -2.918975276816622e+03
-1.156519881709074e+03 -2.410101695283997e+02 -2.918975276816622e+03
-1.156449452585386e+03 -2.441273512356831e+02 -2.918975276816622e+03
-1.156627036971948e+03 -2.468018832213462e+02 -2.918975276816622e+03
-1.156554178962441e+03 -2.491477103009972e+02 -2.918975276816622e+03
-1.156927941237748e+03 -2.503582955144799e+02 -2.918975276816622e+03
-1.156523605221377e+03 -2.517403422148949e+02 -2.918975276816622e+03
-1.156573095756973e+03 -2.546915952565977e+02 -2.918975276816622e+03
-1.156737042223144e+03 -2.564596475919676e+02 -2.918975276816622e+03
-1.156781225027111e+03 -2.604363559447524e+02 -2.918975276816622e+03
-1.156666965161360e+03 -2.649057544717631e+02 -2.918975276816622e+03
-1.156755318403614e+03 -2.668612419903554e+02 -2.918975276816622e+03
-1.156601476175166e+03 -2.683649816962153e+02 -2.918975276816622e+03
-1.156725739574833e+03 -2.694691351881192e+02 -2.918975276816622e+03
-1.156659758653741e+03 -2.702897914055687e+02 -2.918975276816622e+03
-1.156903108190086e+03 -2.716842930205173e+02 -2.918975276816622e+03
-1.156533950369268e+03 -2.732959882682912e+02 -2.918975276816622e+03
-1.156779733994300e+03 -2.771396418924521e+02 -2.918975276816622e+03
-1.156585669944823e+03 -2.794843154696955e+02 -2.918975276816622e+03
-1.156875787771240e+03 -2.819308605699291e+02 -2.918975276816622e+03
-1.156759130782024e+03 -2.860566774778725e+02 -2.918975276816622e+03
-1.156709413067590e+03 -2.867349984972281e+02 -2.918975276816622e+03
-1.156669113543244e+03 -2.892583173285406e+02 -2.918975276816622e+03
-1.156761226759889e+03 -2.932731088991401e+02 -2.918975276816622e+03
-1.156684066096558e+03 -2.948855660219338e+02 -2.918975276816622e+03
-1.156679517791521e+03 -3.010661195319378e+02 -2.918975276816622e+03
-1.156661146028001e+03 -3.018287466726220e+02 -2.918975276816622e+03
-1.156657868637055e+03 -3.039432019290476e+02 -2.918975276816622e+03
-1.156649043809375e+03 -3.054740557991353e+02 -2.918975276816622e+03
-1.156656374770834e+03 -3.078534975233194e+02 -2.918975276816622e+03
-1.156629398820651e+03 -3.095314711591239e+02 -2.918975276816622e+03
-1.156614815256469e+03 -3.151889758819877e+02 -2.918975276816622e+03
-1.156645257640832e+03 -3.177616281918396e+02 -2.918975276816622e+03
-1.156623073556118e+03 -3.189358970477105e+02 -2.918975276816622e+03
-1.156525425674000e+03 -3.201096760686036e+02 -2.918975276816622e+03
-1.156612360859091e+03 -3.219231061468900e+02 -2.918975276816622e+03
-1.156573804826488e+03 -3.236169030687427e+02 -2.918975276816622e+03
-1.156610120598515e+03 -3.243963362590250e+02 -2.918975276816622e+03
-1.156513442184134e+03 -3.261830766190064e+02 -2.918975276816622e+03
-1.156579079497301e+03 -3.269668130065826e+02 -2.918975276816622e+03
-1.156508160470982e+03 -3.288470474294116e+02 -2.918975276816622e+03
-1.156580432712669e+03 -3.299049320995196e+02 -2.918975276816622e+03
-1.156446186487118e+03 -3.312516874185093e+02 -2.918975276816622e+03
-1.156533255186565e+03 -3.346058639277485e+02 -2.918975276816622e+03
-1.156491087477247e+03 -3.352023829236348e+02 -2.918975276816622e+03
-1.156560302644227e+03 -3.365227037041627e+02 -2.918975276816622e+03
-1.156455265728207e+03 -3.384527760535293e+02 -2.918975276816622e+03
-1.156515742160852e+03 -3.413507427686419e+02 -2.918975276816622e+03
-1.156475762968781e+03 -3.427681901695992e+02 -2.918975276816622e+03
-1.156491733983248e+03 -3.441080610280740e+02 -2.918975276816622e+03
-1.156416072785548e+03 -3.485477010146986e+02 -2.918975276816622e+03
-1.156497114520904e+03 -3.485989851823299e+02 -2.918975276816622e+03
-1.156549934941062e+03 -3.533206801315829e+02 -2.918975276816622e+03
-1.156584451304122e+03 -3.575665560814704e+02 -2.918975276816622e+03
-1.156595027855483e+03 -3.587056104509958e+02 -2.918975276816622e+03
-1.156643149225617e+03 -3.622821404373069e+02 -2.918975276816622e+03
-1.156637392817548e+03 -3.629042031362147e+02 -2.918975276816622e+03
-1.156669760356546e+03 -3.647490553246531e+02 -2.918975276816622e+03
-1.156648263479136e+03 -3.672223238641012e+02 -2.918975276816622e+03
-1.156704761969924e+03 -3.710901255677433e+02 -2.918975276816622e+03
-1.156708721822773e+03 -3.725449447161645e+02 -2.918975276816622e+03
-1.156744879256586e+03 -3.741768446159564e+02 -2.918975276816622e+03
-1.156729757848247e+03 -3.767845522367321e+02 -2.918975276816622e+03
-1.156758497495608e+03 -3.776242552406970e+02 -2.918975276816622e+03
-1.156742475340479e+03 -3.798764091946982e+02 -2.918975276816622e+03
-1.156747499793901e+03 -3.802848277037166e+02 -2.918975276816622e+03
-1.156762303933097e+03 -3.825105442486197e+02 -2.918975276816622e+03
-1.156774588983521e+03 -3.861365285444636e+02 -2.918975276816622e+03
-1.156764111855379e+03  3.833405204046907e+02 -2.918975276816622e+03
-1.156781895525861e+03  3.823228218736604e+02 -2.918975276816622e+03
-1.156801961656430e+03  3.786830627102815e+02 -2.918975276816622e+03
-1.156809123984244e+03  3.775852730271407e+02 -2.918975276816622e+03
-1.156811495815105e+03  3.765375355893234e+02 -2.918975276816622e+03
-1.156678283229078e+03  3.736079474664426e+02 -2.918975276816622e+03
-1.156647938576212e+03  3.694705758371122e+02 -2.918975276816622e+03
-1.157146931278568e+03  3.642188280012988e+02 -2.918975276816622e+03
-1.156824178458541e+03  3.601884420595055e+02 -2.918975276816622e+03
-1.156668659417420e+03  3.564463215892622e+02 -2.918975276816622e+03
-1.156787129758120e+03  3.552530252951588e+02 -2.918975276816622e+03
-1.156925688150703e+03  3.531879863254826e+02 -2.918975276816622e+03
-1.156646472988527e+03  3.470570791898450e+02 -2.918975276816622e+03
-1.156717922147106e+03  3.433689711261773e+02 -2.918975276816622e+03
-1.156731102507353e+03  3.380513738989436e+02 -2.918975276816622e+03
-1.156720064043110e+03  3.354028892609283e+02 -2.918975276816622e+03
-1.156695266464712e+03  3.277251273349573e+02 -2.918975276816622e+03
-1.156671648486804e+03  3.265187051376338e+02 -2.918975276816622e+03
-1.156672766669431e+03  3.231506173225936e+02 -2.918975276816622e+03
-1.156696044003022e+03  3.220494473932721e+02 -2.918975276816622e+03
-1.156676185636222e+03  3.199872855002512e+02 -2.918975276816622e+03
-1.156680755767719e+03  3.173098031752337e+02 -2.918975276816622e+03
-1.156676073454717e+03  3.124395689825221e+02 -2.918975276816622e+03
-1.156675754654817e+03  3.105256114683755e+02 -2.918975276816622e+03
-1.156669634030360e+03  3.077169221797877e+02 -2.918975276816622e+03
-1.156622851243613e+03  3.027878634100400e+02 -2.918975276816622e+03
-1.156673759616778e+03  3.027008690888505e+02 -2.918975276816622e+03
-1.156701304852088e+03  2.977421179013318e+02 -2.918975276816622e+03
-1.156696157048872e+03  2.954046891078511e+02 -2.918975276816622e+03
-1.156723068668832e+03  2.942787169991191e+02 -2.918975276816622e+03
-1.156713085130961e+03  2.917410765596316e+02 -2.918975276816622e+03
-1.156759237375075e+03  2.901887562681891e+02 -2.918975276816622e+03
-1.156731772566905e+03  2.879332253056948e+02 -2.918975276816622e+03
-1.156794662369980e+03  2.865026794220897e+02 -2.918975276816622e+03
-1.156743745909481e+03  2.844693523568952e+02 -2.918975276816622e+03
-1.156844253047075e+03  2.819636914041620e+02 -2.918975276816622e+03
-1.156790663354982e+03  2.780337081981235e+02 -2.918975276816622e+03
-1.156871137339349e+03  2.776857515768464e+02 -2.918975276816622e+03
-1.156740710682233e+03  2.753356661680818e+02 -2.918975276816622e+03
-1.156906550189845e+03  2.739512602584673e+02 -2.918975276816622e+03
-1.156759692200094e+03  2.716860995424991e+02 -2.918975276816622e+03
-1.156871517021975e+03  2.713578673351159e+02 -2.918975276816622e+03
-1.156691778601326e+03  2.695789560674862e+02 -2.918975276816622e+03
-1.156915762077426e+03  2.661337303867866e+02 -2.918975276816622e+03
-1.156730391987569e+03  2.648928549003453e+02 -2.918975276816622e+03
-1.156966399050572e+03  2.625732569625259e+02 -2.918975276816622e+03
-1.156784414032636e+03  2.607904589787981e+02 -2.918975276816622e+03
-1.156990893265578e+03  2.600262335885026e+02 -2.918975276816622e+03
-1.156820247903639e+03  2.577073719164371e+02 -2.918975276816622e+03
-1.157040949405106e+03  2.568218340690835e+02 -2.918975276816622e+03
-1.156916025542081e+03  2.552251765182343e+02 -2.918975276816622e+03
-1.157148026986494e+03  2.541098740905355e+02 -2.918975276816622e+03
-1.157026558155345e+03  2.516242687131850e+02 -2.918975276816622e+03
-1.157250225805924e+03  2.507212836799260e+02 -2.918975276816622e+03
-1.157218619962315e+03  2.502796992464900e+02 -2.918975276816622e+03
-1.157099709682431e+03  2.473711202806388e+02 -2.918975276816622e+03
-1.156958519958534e+03  2.459721229950509e+02 -2.918975276816622e+03
-1.156903618160833e+03  2.443379139237967e+02 -2.918975276816622e+03
-1.156862167394694e+03  2.431204805657285e+02 -2.918975276816622e+03
-1.156774702534456e+03  2.408889300905313e+02 -2.918975276816622e+03
-1.156772106689824e+03  2.400656673374838e+02 -2.918975276816622e+03
-1.156702318591395e+03  2.385195699133364e+02 -2.918975276816622e+03
-1.156744376201092e+03  2.354445588362255e+02 -2.918975276816622e+03
-1.156624245647549e+03  2.342562525444645e+02 -2.918975276816622e+03
-1.156636306989465e+03  2.316979110122676e+02 -2.918975276816622e+03
-1.156544163828245e+03  2.298109529826716e+02 -2.918975276816622e+03
-1.156594257090990e+03  2.291812080965245e+02 -2.918975276816622e+03
-1.156492000917124e+03  2.270008996831182e+02 -2.918975276816622e+03
-1.156507021495137e+03  2.256910175477561e+02 -2.918975276816622e+03
-1.156452360057967e+03  2.248968420161055e+02 -2.918975276816622e+03
-1.156494041453344e+03  2.232875716389190e+02 -2.918975276816622e+03
-1.156369609757974e+03  2.207180604669224e+02 -2.918975276816622e+03
-1.156343244993898e+03  2.196917903002623e+02 -2.918975276816622e+03
-1.156318275166236e+03  2.183599014135453e+02 -2.918975276816622e+03
-1.156335794735580e+03  2.154122549577490e+02 -2.918975276816622e+03
-1.156217587825100e+03  2.143936061812430e+02 -2.918975276816622e+03
-1.156208037867146e+03  2.119879255305791e+02 -2.918975276816622e+03
-1.156150691767195e+03  2.100320890201415e+02 -2.918975276816622e+03
-1.156146429276255e+03  2.091841690184812e+02 -2.918975276816622e+03
-1.155983346423064e+03  2.070657495014605e+02 -2.918975276816622e+03
-1.156032139308205e+03  2.053592560601305e+02 -2.918975276816622e+03
-1.156128047578382e+03  2.044858885685397e+02 -2.918975276816622e+03
-1.155991752039125e+03  2.034377528530131e+02 -2.918975276816622e+03
-1.155945048171018e+03  2.009208664638052e+02 -2.918975276816622e+03
-1.156558963880897e+03  1.999366176098704e+02 -2.918975276816622e+03
-1.156024643086762e+03  1.979756900489028e+02 -2.918975276816622e+03
-1.155933027510760e+03  1.950177508937434e+02 -2.918975276816622e+03
-1.155947565431558e+03  1.902139163082663e+02 -2.918975276816622e+03
-1.156287577312828e+03  1.900798412632970e+02 -2.918975276816622e+03
-1.156030891575616e+03  1.872447880540961e+02 -2.918975276816622e+03
-1.156008543307354e+03  1.859176246521799e+02 -2.918975276816622e+03
-1.155999999715094e+03  1.845704107163023e+02 -2.918975276816622e+03
-1.156073516090470e+03  1.831930885056677e+02 -2.918975276816622e+03
-1.156020690884036e+03  1.808579875991382e+02 -2.918975276816622e+03
-1.156020348105404e+03  1.801960640061523e+02 -2.918975276816622e+03
-1.155959350615381e+03  1.788082877336983e+02 -2.918975276816622e+03
-1.156032452399652e+03  1.753874701320252e+02 -2.918975276816622e+03
-1.156016804025619e+03  1.743696513187132e+02 -2.918975276816622e+03
-1.156029356765460e+03  1.719391795963372e+02 -2.918975276816622e+03
-1.156008779209226e+03  1.701118215271842e+02 -2.918975276816622e+03
-1.156049199613488e+03  1.691469524339331e+02 -2.918975276816622e+03
-1.156026478595049e+03  1.671107942552174e+02 -2.918975276816622e+03
-1.156029012467846e+03  1.657484425206513e+02 -2.918975276816622e+03
-1.156022667048571e+03  1.646232539565842e+02 -2.918975276816622e+03
-1.156044618717598e+03  1.632562391420343e+02 -2.918975276816622e+03
-1.156038493721490e+03  1.608843041446411e+02 -2.918975276816622e+03
-1.156049055764094e+03  1.600765885490379e+02 -2.918975276816622e+03
-1.156045270809320e+03  1.585811384099329e+02 -2.918975276816622e+03
-1.156053921279128e+03  1.556747962932856e+02 -2.918975276816622e+03
-1.156063070249905e+03  1.544733572471179e+02 -2.918975276816622e+03
-1.156072649163921e+03  1.519159127370455e+02 -2.918975276816622e+03
-1.156081913597275e+03  1.501629360617527e+02 -2.918975276816622e+03
-1.156050345716568e+03  1.493426197130937e+02 -2.918975276816622e+03
-1.156104023350266e+03  1.471009122135765e+02 -2.918975276816622e+03
-1.156094175281470e+03  1.456122298005552e+02 -2.918975276816622e+03
-1.156117323835257e+03  1.447912579491413e+02 -2.918975276816622e+03
-1.156077080516176e+03  1.433512065829711e+02 -2.918975276816622e+03
-1.156145918402792e+03  1.408504317556087e+02 -2.918975276816622e+03
-1.156101354428818e+03  1.400602594531106e+02 -2.918975276816622e+03
-1.156181767104742e+03  1.385197313628510e+02 -2.918975276816622e+03
-1.156116599427332e+03  1.355076684684398e+02 -2.918975276816622e+03
-1.156213849483099e+03  1.343485727843133e+02 -2.918975276816622e+03
-1.156120749762901e+03  1.318601810661585e+02 -2.918975276816622e+03
-1.156258117609751e+03  1.296795918057837e+02 -2.918975276816622e+03
-1.156174487702914e+03  1.292329794066800e+02 -2.918975276816622e+03
-1.156328917513984e+03  1.270780267128010e+02 -2.918975276816622e+03
-1.156212805365332e+03  1.258666617389850e+02 -2.918975276816622e+03
-1.156368917881965e+03  1.244306648904999e+02 -2.918975276816622e+03
-1.156212565722926e+03  1.231491163273149e+02 -2.918975276816622e+03
-1.156410452280519e+03  1.209669647843402e+02 -2.918975276816622e+03
-1.156288267718942e+03  1.200740007276365e+02 -2.918975276816622e+03
-1.156458460599879e+03  1.187738545351448e+02 -2.918975276816622e+03
-1.156364334959572e+03  1.153554469438139e+02 -2.918975276816622e+03
-1.156541502551200e+03  1.143729438624177e+02 -2.918975276816622e+03
-1.156410161830369e+03  1.118643636734141e+02 -2.918975276816622e+03
-1.156547573279394e+03  1.104974337263767e+02 -2.918975276816622e+03
-1.156482298306400e+03  1.096051807065838e+02 -2.918975276816622e+03
-1.156669796266422e+03  1.074888730292219e+02 -2.918975276816622e+03
-1.156494567227782e+03  1.061826152341410e+02 -2.918975276816622e+03
-1.156582786779871e+03  1.047122188956889e+02 -2.918975276816622e+03
-1.156505767135914e+03  1.033126377574387e+02 -2.918975276816622e+03
-1.156618550764809e+03  1.010912484023261e+02 -2.918975276816622e+03
-1.156524784993466e+03  1.003488898897425e+02 -2.918975276816622e+03
-1.156569795601337e+03  9.823535492485314e+01 -2.918975276816622e+03
-1.156550655191652e+03  9.696736647078349e+01 -2.918975276816622e+03
-1.156627799198445e+03  9.517267543214810e+01 -2.918975276816622e+03
-1.156572585082831e+03  9.118397348637643e+01 -2.918975276816622e+03
-1.156626035286904e+03  8.994899100145662e+01 -2.918975276816622e+03
-1.156591472142283e+03  8.808393365380537e+01 -2.918975276816622e+03
-1.156641162697461e+03  8.686761107689365e+01 -2.918975276816622e+03
-1.156589150600844e+03  8.653716158908479e+01 -2.918975276816622e+03
-1.156621553710592e+03  8.511446978116297e+01 -2.918975276816622e+03
-1.156630251075162e+03  8.267715092674949e+01 -2.918975276816622e+03
-1.156670651389665e+03  7.913988490165320e+01 -2.918975276816622e+03
-1.156677413507543e+03  7.355706301630336e+01 -2.918975276816622e+03
-1.156697547614508e+03  7.166453424822527e+01 -2.918975276816622e+03
-1.156711739005462e+03  6.912935546392252e+01 -2.918975276816622e+03
-1.156679395533176e+03  6.724340078927628e+01 -2.918975276816622e+03
-1.156724787651091e+03  6.340101842177778e+01 -2.918975276816622e+03
-1.156836832586311e+03  6.277855870645550e+01 -2.918975276816622e+03
-1.156870697327136e+03  5.825932314698839e+01 -2.918975276816622e+03
-1.156682312335490e+03  5.633466876127253e+01 -2.918975276816622e+03
-1.156889683266886e+03  5.354538863203494e+01 -2.918975276816622e+03
-1.156982229927775e+03  5.094952044098988e+01 -2.918975276816622e+03
-1.156966132248563e+03  4.968016037879106e+01 -2.918975276816622e+03
-1.156860835090525e+03  4.793560918692724e+01 -2.918975276816622e+03
-1.157003890166480e+03  4.658693793008310e+01 -2.918975276816622e+03
-1.156947630591638e+03  4.421699397891121e+01 -2.918975276816622e+03
-1.157063711600621e+03  4.212212837800161e+01 -2.918975276816622e+03
-1.157035854143491e+03  4.161240406869423e+01 -2.918975276816622e+03
-1.157112833531419e+03  3.895578004993698e+01 -2.918975276816622e+03
-1.156990209262388e+03  3.612257208586458e+01 -2.918975276816622e+03
-1.157164276622116e+03  2.988685050242395e+01 -2.918975276816622e+03
-1.157237510757982e+03  2.879100969011842e+01 -2.918975276816622e+03
-1.157155546442805e+03  2.361895074041727e+01 -2.918975276816622e+03
-1.157272672198481e+03  1.904274027242560e+01 -2.918975276816622e+03
-1.157133325916651e+03  1.722068709275365e+01 -2.918975276816622e+03
-1.157297757044124e+03  1.586343340697603e+01 -2.918975276816622e+03
-1.157601519485758e+03  1.470404507915869e+01 -2.918975276816622e+03
-1.157291659644803e+03  1.330705911142001e+01 -2.918975276816622e+03
-1.157261291993806e+03  1.195408897631717e+01 -2.918975276816622e+03
-1.157269948417033e+03  7.574135082170662e+00 -2.918975276816622e+03
1.154291405676900e+03 5.926847561672343e-01 2.918975276816622e+03
 1.154516419044602e+03 -1.557499629774888e+00  2.918975276816622e+03
 1.154574576842666e+03 -2.045410012948837e+00  2.918975276816622e+03
 1.154484855530518e+03 -4.571177790709430e+00  2.918975276816622e+03
 1.154377292276822e+03 -9.306174040370044e+00  2.918975276816622e+03
 1.154265215062917e+03 -1.649912004494217e+01  2.918975276816622e+03
 1.154160486283468e+03 -2.117197019221125e+01  2.918975276816622e+03
 1.154052803317697e+03 -2.658361049073118e+01  2.918975276816622e+03
 1.154073492020968e+03 -2.672722925966348e+01  2.918975276816622e+03
 1.154036669552377e+03 -3.023790810889620e+01  2.918975276816622e+03
 1.153966660548081e+03 -3.482406646829624e+01  2.918975276816622e+03
 1.153934680068145e+03 -3.782887570152985e+01  2.918975276816622e+03
 1.153878142765629e+03 -4.290015184015933e+01  2.918975276816622e+03
 1.153868779745674e+03 -4.586260193262773e+01  2.918975276816622e+03
 1.153791441354492e+03 -4.901264950374026e+01  2.918975276816622e+03
 1.153849136603365e+03 -5.102704055270693e+01  2.918975276816622e+03
 1.153741660810078e+03 -5.268754596583278e+01  2.918975276816622e+03
 1.153799470026033e+03 -5.419150539413791e+01  2.918975276816622e+03
 1.153692828913819e+03 -5.661222918541611e+01  2.918975276816622e+03
 1.153790059278967e+03 -5.877017878698747e+01  2.918975276816622e+03
 1.153695952819886e+03 -6.057575481502271e+01  2.918975276816622e+03
 1.153757426971531e+03 -6.177282587667133e+01  2.918975276816622e+03
 1.153676399196992e+03 -6.337979473260876e+01  2.918975276816622e+03
 1.153740858688156e+03 -6.529624381583515e+01  2.918975276816622e+03
 1.153709537569411e+03 -6.635465272470786e+01  2.918975276816622e+03
 1.153728224542117e+03 -6.928637264346264e+01  2.918975276816622e+03
 1.153679916992978e+03 -7.089409613247835e+01  2.918975276816622e+03
 1.153723521049597e+03 -7.197520911166305e+01  2.918975276816622e+03
 1.153703196594948e+03 -7.450294377948599e+01  2.918975276816622e+03
 1.153710506357776e+03 -7.810412217776663e+01  2.918975276816622e+03
 1.153665725447351e+03 -8.074171389424035e+01  2.918975276816622e+03
 1.153699977838491e+03 -8.184647486683460e+01  2.918975276816622e+03
 1.153732522779152e+03 -8.478471599175037e+01  2.918975276816622e+03
 1.153713750522997e+03 -8.604846849477579e+01  2.918975276816622e+03
 1.153655411853870e+03 -8.892753122943078e+01  2.918975276816622e+03
 1.153698558686265e+03 -9.069004816970707e+01  2.918975276816622e+03
 1.153674012190048e+03 -9.233794210487352e+01  2.918975276816622e+03
 1.153675097718538e+03 -9.467551942062330e+01  2.918975276816622e+03
 1.153661014872275e+03 -9.736841318687408e+01  2.918975276816622e+03
 1.153697143143226e+03 -9.787394889188708e+01  2.918975276816622e+03
 1.153674114636037e+03 -1.004413575890148e+02  2.918975276816622e+03
 1.153653219142214e+03 -1.036888383886305e+02  2.918975276816622e+03
 1.153548713987295e+03 -1.051317287144434e+02  2.918975276816622e+03
 1.153650609585825e+03 -1.060814937887316e+02  2.918975276816622e+03
 1.153689982240363e+03 -1.089607201155801e+02  2.918975276816622e+03
 1.153631826757685e+03 -1.105222927757010e+02  2.918975276816622e+03
 1.153609243428865e+03 -1.122036547432864e+02  2.918975276816622e+03
 1.153626902535379e+03 -1.146485488353287e+02  2.918975276816622e+03
 1.153640381482527e+03 -1.172328441445192e+02  2.918975276816622e+03
 1.153590510359322e+03 -1.204196325054153e+02  2.918975276816622e+03
 1.153543326891684e+03 -1.249579011611334e+02  2.918975276816622e+03
 1.153611770831757e+03 -1.250750541841984e+02  2.918975276816622e+03
 1.153616497671485e+03 -1.289897578159573e+02  2.918975276816622e+03
 1.153784285068712e+03 -1.331211010357486e+02  2.918975276816622e+03
 1.152944335662912e+03 -1.431547049469538e+02  2.918975276816622e+03
 1.153724071532558e+03 -1.453973166421715e+02  2.918975276816622e+03
 1.153697473026799e+03 -1.488709293897071e+02  2.918975276816622e+03
 1.153498781046122e+03 -1.507029996202392e+02  2.918975276816622e+03
 1.153613177374379e+03 -1.522599757904897e+02  2.918975276816622e+03
 1.153911251583026e+03 -1.543752355805612e+02  2.918975276816622e+03
 1.153707493400058e+03 -1.578147808310467e+02  2.918975276816622e+03
 1.153519515666517e+03 -1.603556027690815e+02  2.918975276816622e+03
 1.153568699791721e+03 -1.616042518512376e+02  2.918975276816622e+03
 1.153708753993679e+03 -1.624367162396959e+02  2.918975276816622e+03
 1.153589202540022e+03 -1.636362081296923e+02  2.918975276816622e+03
 1.153659939358134e+03 -1.656233848829998e+02  2.918975276816622e+03
 1.153604129637753e+03 -1.664599773971932e+02  2.918975276816622e+03
 1.153653613238545e+03 -1.686957215027772e+02  2.918975276816622e+03
 1.153597852487726e+03 -1.705137405585133e+02  2.918975276816622e+03
 1.153675401619806e+03 -1.721217203294250e+02  2.918975276816622e+03
 1.153623503457560e+03 -1.743252309101223e+02  2.918975276816622e+03
 1.153675724598251e+03 -1.779408998474646e+02  2.918975276816622e+03
 1.153466847929699e+03 -1.806170449796188e+02  2.918975276816622e+03
 1.153662130260429e+03 -1.839200397755823e+02  2.918975276816622e+03
 1.154034573162204e+03 -1.862332896790219e+02  2.918975276816622e+03
 1.153666558547992e+03 -1.881925387231520e+02  2.918975276816622e+03
 1.153558573531742e+03 -1.913600406919383e+02  2.918975276816622e+03
 1.153657595073031e+03 -1.942725043404805e+02  2.918975276816622e+03
 1.153632137345583e+03 -1.978385013439257e+02  2.918975276816622e+03
 1.153655080813764e+03 -2.009850111610781e+02  2.918975276816622e+03
 1.153663984321260e+03 -2.087257606851152e+02  2.918975276816622e+03
 1.153659900302545e+03 -2.110707606032018e+02  2.918975276816622e+03
 1.153677116918760e+03 -2.178581963075181e+02  2.918975276816622e+03
 1.153691606115334e+03 -2.204341033194627e+02  2.918975276816622e+03
 1.153691277633271e+03 -2.233828156533468e+02  2.918975276816622e+03
 1.153688798298548e+03 -2.241151537783994e+02  2.918975276816622e+03
 1.153692054237852e+03 -2.257159095160405e+02  2.918975276816622e+03
 1.153704707062261e+03 -2.288083732584789e+02  2.918975276816622e+03
 1.153734255229239e+03 -2.304139795494332e+02  2.918975276816622e+03
 1.153711866336428e+03 -2.318587866467279e+02  2.918975276816622e+03
 1.153624621210108e+03 -2.345656456893082e+02  2.918975276816622e+03
 1.153759727437583e+03 -2.396252084915131e+02  2.918975276816622e+03
 1.153771490711648e+03 -2.407137597572662e+02  2.918975276816622e+03
 1.153767582253508e+03 -2.445989369531561e+02  2.918975276816622e+03
 1.153782046169556e+03 -2.476500654647029e+02  2.918975276816622e+03
 1.153804080758870e+03 -2.527740279076217e+02  2.918975276816622e+03
 1.153813905383848e+03 -2.554478055073494e+02  2.918975276816622e+03
 1.153823488978833e+03 -2.572498736830054e+02  2.918975276816622e+03
 1.153832128891441e+03 -2.608157612768929e+02  2.918975276816622e+03
 1.153836399585248e+03 -2.614399916844906e+02  2.918975276816622e+03
 1.153850558983710e+03 -2.657840456863983e+02  2.918975276816622e+03
 1.153860951294802e+03 -2.685534371541344e+02  2.918975276816622e+03
 1.153865340118471e+03 -2.715204162575841e+02  2.918975276816622e+03
 1.153858865852402e+03 -2.723158052271675e+02  2.918975276816622e+03
 1.153876440282236e+03 -2.743172251404745e+02  2.918975276816622e+03
 1.153896584554195e+03 -2.774879679404132e+02  2.918975276816622e+03
 1.153881247426829e+03 -2.794490661911392e+02  2.918975276816622e+03
 1.153868580140463e+03 -2.801613513076066e+02  2.918975276816622e+03
 1.153894314656957e+03 -2.834667013899644e+02  2.918975276816622e+03
 1.153900204118173e+03 -2.861098753380874e+02  2.918975276816622e+03
 1.153899465200969e+03 -2.914048745746892e+02  2.918975276816622e+03
 1.153899999106595e+03 -2.951227154909631e+02  2.918975276816622e+03
 1.153903555971259e+03 -2.965542860468877e+02  2.918975276816622e+03
 1.153928566426442e+03 -2.975071015936571e+02  2.918975276816622e+03
 1.153895555007362e+03 -2.978260602006161e+02  2.918975276816622e+03
 1.153900368665483e+03 -2.987984072282664e+02  2.918975276816622e+03
 1.153883113617128e+03 -3.032312704942532e+02  2.918975276816622e+03
 1.153890315532050e+03 -3.037932430845824e+02  2.918975276816622e+03
 1.153876976012095e+03 -3.073993088854900e+02  2.918975276816622e+03
 1.153875296865136e+03 -3.094225089859052e+02  2.918975276816622e+03
 1.153911582468168e+03 -3.100723226575314e+02  2.918975276816622e+03
 1.153894993477258e+03 -3.111247332426862e+02  2.918975276816622e+03
 1.153820728500368e+03 -3.116014531014374e+02  2.918975276816622e+03
 1.153846492333680e+03 -3.134150556323309e+02  2.918975276816622e+03
 1.153863377057375e+03 -3.145323618628760e+02  2.918975276816622e+03
 1.153831791943070e+03 -3.176878515765726e+02  2.918975276816622e+03
 1.153805925379192e+03 -3.214117577716128e+02  2.918975276816622e+03
 1.153790594245042e+03 -3.260613561432276e+02  2.918975276816622e+03
 1.153783818325214e+03 -3.285485823171978e+02  2.918975276816622e+03
 1.153777745206797e+03 -3.314448150350136e+02  2.918975276816622e+03
 1.153765004513647e+03 -3.322962095721623e+02  2.918975276816622e+03
 1.153685915637812e+03 -3.348206785920299e+02  2.918975276816622e+03
 1.153735988556230e+03 -3.385232154822652e+02  2.918975276816622e+03
 1.153748080922009e+03 -3.396137348071566e+02  2.918975276816622e+03
 1.153804276729524e+03 -3.438160617017043e+02  2.918975276816622e+03
 1.153433899946971e+03 -3.466857541845075e+02  2.918975276816622e+03
 1.153456494406216e+03 -3.506410249772516e+02  2.918975276816622e+03
 1.154235444250637e+03 -3.514646074269024e+02  2.918975276816622e+03
 1.153718597597388e+03 -3.548164537523329e+02  2.918975276816622e+03
 1.153632421101577e+03 -3.572131029344575e+02  2.918975276816622e+03
 1.153701888050471e+03 -3.601418716161292e+02  2.918975276816622e+03
 1.153723592857246e+03 -3.631374755085117e+02  2.918975276816622e+03
 1.153721591835257e+03 -3.646772959708498e+02  2.918975276816622e+03
 1.153698818955362e+03 -3.659274350452063e+02  2.918975276816622e+03
 1.153712487433434e+03 -3.667817395567088e+02  2.918975276816622e+03
 1.153703785228206e+03 -3.687834066079683e+02  2.918975276816622e+03
 1.153762276981892e+03 -3.709376457727973e+02  2.918975276816622e+03
 1.153744707900354e+03 -3.743002513440525e+02  2.918975276816622e+03
 1.153770385122558e+03 -3.760332338409035e+02  2.918975276816622e+03
 1.153830155793406e+03 -3.815147106674581e+02  2.918975276816622e+03
 1.153679989110480e+03 -3.833841053913702e+02  2.918975276816622e+03
 1.153870707786454e+03 -3.838460109484426e+02  2.918975276816622e+03
1.153944465579625e+03 3.851968851862835e+02 2.918975276816622e+03
1.153825804899594e+03 3.839996319015546e+02 2.918975276816622e+03
1.153840324872802e+03 3.815363903900881e+02 2.918975276816622e+03
1.153884344173319e+03 3.811023640883425e+02 2.918975276816622e+03
1.153897192194632e+03 3.765633418199719e+02 2.918975276816622e+03
1.153917307632758e+03 3.733439681575655e+02 2.918975276816622e+03
1.153932738966274e+03 3.723178128087475e+02 2.918975276816622e+03
1.153942007145158e+03 3.708628986044955e+02 2.918975276816622e+03
1.153989737326207e+03 3.675545905802613e+02 2.918975276816622e+03
1.153985688012389e+03 3.665270035575648e+02 2.918975276816622e+03
1.154004517072534e+03 3.648216554559597e+02 2.918975276816622e+03
1.154025150062464e+03 3.625677875036543e+02 2.918975276816622e+03
1.154074228135097e+03 3.593092392120417e+02 2.918975276816622e+03
1.154081327544974e+03 3.578323498760213e+02 2.918975276816622e+03
1.154110077670165e+03 3.558543083508599e+02 2.918975276816622e+03
1.154133931801590e+03 3.532146199624931e+02 2.918975276816622e+03
1.154148260179762e+03 3.522062057695793e+02 2.918975276816622e+03
1.154164882359663e+03 3.504864496604642e+02 2.918975276816622e+03
1.154218477333013e+03 3.452111634762199e+02 2.918975276816622e+03
1.154241621016104e+03 3.430725765408542e+02 2.918975276816622e+03
1.154249875215498e+03 3.419058302594286e+02 2.918975276816622e+03
1.154265497179804e+03 3.397606822350660e+02 2.918975276816622e+03
1.154284053632224e+03 3.326071552761182e+02 2.918975276816622e+03
1.154420918433979e+03 3.325797342470674e+02 2.918975276816622e+03
1.154399063197824e+03 3.278934865778715e+02 2.918975276816622e+03
1.154382094945043e+03 3.266072002592090e+02 2.918975276816622e+03
1.154394661702264e+03 3.216840509261539e+02 2.918975276816622e+03
1.154430463358560e+03 3.193011055473319e+02 2.918975276816622e+03
1.154392947506570e+03 3.162902146349551e+02 2.918975276816622e+03
1.154256929491921e+03 3.137666240208757e+02 2.918975276816622e+03
1.154379754059579e+03 3.112876095442610e+02 2.918975276816622e+03
1.154458481713974e+03 3.084110297794111e+02 2.918975276816622e+03
1.154303777078110e+03 3.017640984454554e+02 2.918975276816622e+03
1.154290566138805e+03 2.997596079775700e+02 2.918975276816622e+03
1.154256188914750e+03 2.948333899600410e+02 2.918975276816622e+03
1.154239360868015e+03 2.937538071650048e+02 2.918975276816622e+03
1.154173331237302e+03 2.880201650197906e+02 2.918975276816622e+03
1.154183764200954e+03 2.877927350053504e+02 2.918975276816622e+03
1.154109656470901e+03 2.817386294500167e+02 2.918975276816622e+03
1.154075880598048e+03 2.798209086310732e+02 2.918975276816622e+03
1.154057233438683e+03 2.769130638421282e+02 2.918975276816622e+03
1.154010916260562e+03 2.748709187613265e+02 2.918975276816622e+03
1.153998975184482e+03 2.709964195895180e+02 2.918975276816622e+03
1.153950127583383e+03 2.683025071489880e+02 2.918975276816622e+03
1.153935655734176e+03 2.644092032028867e+02 2.918975276816622e+03
1.153869815450947e+03 2.638276674636372e+02 2.918975276816622e+03
1.153901895221734e+03 2.606739444020753e+02 2.918975276816622e+03
1.153811917570861e+03 2.579123015894836e+02 2.918975276816622e+03
1.153867250474259e+03 2.562584592508102e+02 2.918975276816622e+03
1.153750491755860e+03 2.546437994197269e+02 2.918975276816622e+03
1.153841797643301e+03 2.531376764183449e+02 2.918975276816622e+03
1.153744961432799e+03 2.524403446491419e+02 2.918975276816622e+03
1.153860417500328e+03 2.505582693469072e+02 2.918975276816622e+03
1.153713675776134e+03 2.488680912140750e+02 2.918975276816622e+03
1.153795613262487e+03 2.483614335887682e+02 2.918975276816622e+03
1.153674531029574e+03 2.465214234371548e+02 2.918975276816622e+03
1.153776409642844e+03 2.457114606327611e+02 2.918975276816622e+03
1.153660846440680e+03 2.432560591131189e+02 2.918975276816622e+03
1.153762021343393e+03 2.418918035711664e+02 2.918975276816622e+03
1.153654592672417e+03 2.400641964164110e+02 2.918975276816622e+03
1.153751478486373e+03 2.382825121949066e+02 2.918975276816622e+03
1.153649886396354e+03 2.359531402631945e+02 2.918975276816622e+03
1.153719657779102e+03 2.331101990501738e+02 2.918975276816622e+03
1.153706030475100e+03 2.328697017116870e+02 2.918975276816622e+03
1.153776812454562e+03 2.299536008547425e+02 2.918975276816622e+03
1.153742483105158e+03 2.286293072928243e+02 2.918975276816622e+03
1.153680309234018e+03 2.265473787563414e+02 2.918975276816622e+03
1.153528963593541e+03 2.252224036674697e+02 2.918975276816622e+03
1.153848828117850e+03 2.244640681152190e+02 2.918975276816622e+03
1.153838511842258e+03 2.212560351069085e+02 2.918975276816622e+03
1.153757331481981e+03 2.181520056361314e+02 2.918975276816622e+03
1.153697462196335e+03 2.106659175328336e+02 2.918975276816622e+03
1.153747663883594e+03 2.095856984348936e+02 2.918975276816622e+03
1.153775551332270e+03 2.036183889381136e+02 2.918975276816622e+03
1.153711345802465e+03 2.009185208020883e+02 2.918975276816622e+03
1.153744488832821e+03 1.956785691260515e+02 2.918975276816622e+03
1.153740267742294e+03 1.924265500704985e+02 2.918975276816622e+03
1.153686070892404e+03 1.924219599243961e+02 2.918975276816622e+03
1.153689118711754e+03 1.899246493009578e+02 2.918975276816622e+03
1.153701236397930e+03 1.875364113349203e+02 2.918975276816622e+03
1.153698094748648e+03 1.841726129274410e+02 2.918975276816622e+03
1.153687779050977e+03 1.819525061908938e+02 2.918975276816622e+03
1.153699265251934e+03 1.760072882094562e+02 2.918975276816622e+03
1.153708212644399e+03 1.679888372596482e+02 2.918975276816622e+03
1.153738978436333e+03 1.662700084191504e+02 2.918975276816622e+03
1.153715314598926e+03 1.590894207957588e+02 2.918975276816622e+03
1.153746691715178e+03 1.576606437120927e+02 2.918975276816622e+03
1.153737549431857e+03 1.497844766927259e+02 2.918975276816622e+03
1.153787467216160e+03 1.484747240671223e+02 2.918975276816622e+03
1.153766149243291e+03 1.450087715844236e+02 2.918975276816622e+03
1.153719865104290e+03 1.416695939351357e+02 2.918975276816622e+03
1.153731404281573e+03 1.393290454438929e+02 2.918975276816622e+03
1.153802642718952e+03 1.388791072508275e+02 2.918975276816622e+03
1.153805879284614e+03 1.363124402818530e+02 2.918975276816622e+03
1.153384463129900e+03 1.303288226445875e+02 2.918975276816622e+03
1.153547444530619e+03 1.281719318286829e+02 2.918975276816622e+03
1.153689087694946e+03 1.269034639634873e+02 2.918975276816622e+03
1.153632591997097e+03 1.258746877314074e+02 2.918975276816622e+03
1.153716103258352e+03 1.246029143981090e+02 2.918975276816622e+03
1.153763169531472e+03 1.212432242701136e+02 2.918975276816622e+03
1.152970958048846e+03 1.209899440488033e+02 2.918975276816622e+03
1.153670875198922e+03 1.188134649416713e+02 2.918975276816622e+03
1.153964633777281e+03 1.162669273218970e+02 2.918975276816622e+03
1.154102433035936e+03 1.131488526514306e+02 2.918975276816622e+03
1.153825895408085e+03 1.111768403968196e+02 2.918975276816622e+03
1.153524345252099e+03 1.099533793418262e+02 2.918975276816622e+03
1.153101987113342e+03 1.069182379270971e+02 2.918975276816622e+03
1.154084022539209e+03 1.055977614876358e+02 2.918975276816622e+03
1.153824669628357e+03 1.044327917728031e+02 2.918975276816622e+03
1.153930364689804e+03 1.013327201432265e+02 2.918975276816622e+03
1.154281845942081e+03 9.942653650837583e+01 2.918975276816622e+03
1.154036732019783e+03 9.359853975655606e+01 2.918975276816622e+03
1.154042310237262e+03 9.136540205539561e+01 2.918975276816622e+03
1.154205188993938e+03 8.764038826636482e+01 2.918975276816622e+03
1.154246219947051e+03 8.587965644935193e+01 2.918975276816622e+03
1.154319860453961e+03 8.272499680401761e+01 2.918975276816622e+03
1.154343988397505e+03 7.990420000418615e+01 2.918975276816622e+03
1.154439468880828e+03 7.828139501347253e+01 2.918975276816622e+03
1.154659337568927e+03 6.765011019409694e+01 2.918975276816622e+03
1.154668475429560e+03 6.605616805797186e+01 2.918975276816622e+03
1.154711647488528e+03 6.240262412534393e+01 2.918975276816622e+03
1.154984989779031e+03 5.917725098261666e+01 2.918975276816622e+03
1.154888088275362e+03 5.522340180667793e+01 2.918975276816622e+03
1.154984150124273e+03 5.433041690651365e+01 2.918975276816622e+03
1.154734473351536e+03 5.152552187500146e+01 2.918975276816622e+03
1.155027988260553e+03 5.004679883351485e+01 2.918975276816622e+03
1.154809075781356e+03 4.755828947380449e+01 2.918975276816622e+03
1.154615345579076e+03 4.751549784861368e+01 2.918975276816622e+03
1.154646139878976e+03 4.459777994784109e+01 2.918975276816622e+03
1.154710042326326e+03 4.279096877185341e+01 2.918975276816622e+03
1.154788396327845e+03 4.198899978639326e+01 2.918975276816622e+03
1.154950397031309e+03 4.069996312087941e+01 2.918975276816622e+03
1.154789878611504e+03 3.906797664085479e+01 2.918975276816622e+03
1.154944346492469e+03 3.556066384288641e+01 2.918975276816622e+03
1.154807423737643e+03 3.414743606219889e+01 2.918975276816622e+03
1.154784781306408e+03 3.197820682291921e+01 2.918975276816622e+03
1.154784753517350e+03 3.019716269334659e+01 2.918975276816622e+03
1.154885451472938e+03 2.851275780963655e+01 2.918975276816622e+03
1.154797097557589e+03 2.545634421015705e+01 2.918975276816622e+03
1.154839274646492e+03 1.601034315381005e+01 2.918975276816622e+03
1.154701455958846e+03 1.453308865434718e+01 2.918975276816622e+03
1.154723886719027e+03 1.342207520910222e+01 2.918975276816622e+03
1.154743676237500e+03 1.155721122875353e+01 2.918975276816622e+03
1.154631294342682e+03 1.025122579285208e+01 2.918975276816622e+03
1.154649161735577e+03 5.445095552896349e+00 2.918975276816622e+03
1.154640422972992e+03 4.350119865345883e+00 2.918975276816622e+03
1.154611745290633e+03 2.466693966231691e+00 2.918975276816622e+03
1.154529733438080e+03 8.757332543155302e-01 2.918975276816622e+03
-1.147926906019971e+03 -3.863858941524650e+02 -2.918975276816622e+03
-1.147926906019971e+03  3.863858941524653e+02 -2.918975276816622e+03
 1.145064872984267e+03 -3.863858941524653e+02  2.918975276816622e+03
1.145064872984267e+03 3.863858941524650e+02 2.918975276816622e+03
-1.156773796011711e+03 -3.863858941524650e+02 -2.918975276816622e+03
-1.156773796011711e+03  3.863858941524653e+02 -2.918975276816622e+03
 1.153920946884687e+03 -3.863858941524653e+02  2.918975276816622e+03
1.153920946884687e+03 3.863858941524650e+02 2.918975276816622e+03
-1.148439530022270e+03  1.947507150410957e-02 -2.918975276816622e+03
-1.148467330063024e+03  3.169951399894785e+00 -2.918975276816622e+03
-1.148393354668000e+03 -1.402252267871453e+00 -2.918975276816622e+03
-1.148378992619937e+03 -2.852577862931082e+00 -2.918975276816622e+03
-1.148537772283228e+03 -4.577959145887619e+00 -2.918975276816622e+03
-1.148527418839933e+03 -5.841533482059730e+00 -2.918975276816622e+03
-1.147916000163620e+03 -7.526345660010025e+00 -2.918975276816622e+03
-1.147661717334940e+03 -9.663233466183675e+00 -2.918975276816622e+03
-1.148089310748183e+03 -1.186455277364766e+01 -2.918975276816622e+03
-1.148350746030178e+03 -1.330454826902201e+01 -2.918975276816622e+03
-1.148381351064456e+03 -1.512709380924722e+01 -2.918975276816622e+03
-1.148295523177918e+03 -1.835260725586789e+01 -2.918975276816622e+03
-1.148254107580112e+03 -2.149904883322050e+01 -2.918975276816622e+03
-1.148244360698524e+03 -2.490917668295009e+01 -2.918975276816622e+03
-1.148218724266001e+03 -2.747901789877506e+01 -2.918975276816622e+03
-1.148217112996129e+03 -2.967102599408785e+01 -2.918975276816622e+03
-1.148190912062983e+03 -3.292733979389309e+01 -2.918975276816622e+03
-1.148171082729378e+03 -3.498139491313487e+01 -2.918975276816622e+03
-1.148152725787121e+03 -3.696121606684753e+01 -2.918975276816622e+03
-1.148164363487258e+03 -3.975793691630404e+01 -2.918975276816622e+03
-1.148210895037982e+03 -4.224353274647008e+01 -2.918975276816622e+03
-1.148156762137520e+03 -4.420544148158956e+01 -2.918975276816622e+03
-1.148035757864096e+03 -4.620791166009959e+01 -2.918975276816622e+03
-1.147948546668899e+03 -4.877463037704678e+01 -2.918975276816622e+03
-1.147951847504235e+03 -5.152807174951321e+01 -2.918975276816622e+03
-1.148045660370102e+03 -5.446823577749891e+01 -2.918975276816622e+03
-1.148053329031531e+03 -5.715371563252354e+01 -2.918975276816622e+03
-1.147892422263267e+03 -5.920324051352063e+01 -2.918975276816622e+03
-1.147884624001246e+03 -6.062683122184938e+01 -2.918975276816622e+03
-1.147961861407356e+03 -6.224592537782585e+01 -2.918975276816622e+03
-1.147941697000313e+03 -6.376842583189143e+01 -2.918975276816622e+03
-1.147901768164706e+03 -6.532969525955613e+01 -2.918975276816622e+03
-1.147909812579903e+03 -6.690858875761795e+01 -2.918975276816622e+03
-1.147899963077372e+03 -6.868652437530864e+01 -2.918975276816622e+03
-1.147859842168526e+03 -7.030573766272468e+01 -2.918975276816622e+03
-1.147830444026502e+03 -7.138936826976231e+01 -2.918975276816622e+03
-1.147859362146572e+03 -7.315484375012474e+01 -2.918975276816622e+03
-1.147850246442672e+03 -7.475128438755497e+01 -2.918975276816622e+03
-1.147796285697878e+03 -7.584699187390709e+01 -2.918975276816622e+03
-1.147770102755412e+03 -7.737495069370097e+01 -2.918975276816622e+03
-1.147768603112962e+03 -7.937721698865087e+01 -2.918975276816622e+03
-1.147782145855042e+03 -8.093688853037024e+01 -2.918975276816622e+03
-1.147776260112177e+03 -8.259702591380614e+01 -2.918975276816622e+03
-1.147758128664904e+03 -8.447542258307912e+01 -2.918975276816622e+03
-1.147764657386496e+03 -8.626273102205769e+01 -2.918975276816622e+03
-1.147755227278798e+03 -8.837928336962663e+01 -2.918975276816622e+03
-1.147716566456682e+03 -8.991856690962949e+01 -2.918975276816622e+03
-1.147704770483294e+03 -9.122149129817296e+01 -2.918975276816622e+03
-1.147700447187039e+03 -9.346236712068496e+01 -2.918975276816622e+03
-1.147699154340554e+03 -9.519392236457611e+01 -2.918975276816622e+03
-1.147682711820704e+03 -9.699643270328237e+01 -2.918975276816622e+03
-1.147670464729445e+03 -9.939669721027882e+01 -2.918975276816622e+03
-1.147672175908533e+03 -1.008667376361401e+02 -2.918975276816622e+03
-1.147662407894844e+03 -1.023150358528813e+02 -2.918975276816622e+03
-1.147636721024877e+03 -1.037463492731422e+02 -2.918975276816622e+03
-1.147627206667689e+03 -1.052363371242149e+02 -2.918975276816622e+03
-1.147614115174192e+03 -1.067524787575950e+02 -2.918975276816622e+03
-1.147611429732803e+03 -1.084863314991837e+02 -2.918975276816622e+03
-1.147600334879435e+03 -1.101218692524550e+02 -2.918975276816622e+03
-1.147569674889363e+03 -1.114032512340793e+02 -2.918975276816622e+03
-1.147538078748330e+03 -1.131812111057558e+02 -2.918975276816622e+03
-1.147589261563310e+03 -1.141514897600424e+02 -2.918975276816622e+03
-1.147621594415058e+03 -1.149671004659908e+02 -2.918975276816622e+03
-1.147602309763404e+03 -1.170305193753470e+02 -2.918975276816622e+03
-1.147592723356337e+03 -1.192195210260360e+02 -2.918975276816622e+03
-1.147600608692644e+03 -1.207294984498011e+02 -2.918975276816622e+03
-1.147610924328478e+03 -1.224752833209647e+02 -2.918975276816622e+03
-1.147614792278082e+03 -1.242315846527875e+02 -2.918975276816622e+03
-1.147600205604131e+03 -1.260168000091013e+02 -2.918975276816622e+03
-1.147601385469555e+03 -1.283389006249569e+02 -2.918975276816622e+03
-1.147618332376007e+03 -1.296260886388958e+02 -2.918975276816622e+03
-1.147644356930855e+03 -1.308541200269429e+02 -2.918975276816622e+03
-1.147638469218186e+03 -1.330163040450893e+02 -2.918975276816622e+03
-1.147631321971646e+03 -1.342252385403894e+02 -2.918975276816622e+03
-1.147641056674038e+03 -1.350659117460064e+02 -2.918975276816622e+03
-1.147645756629217e+03 -1.370743501789621e+02 -2.918975276816622e+03
-1.147629650572277e+03 -1.392328665908493e+02 -2.918975276816622e+03
-1.147658122912829e+03 -1.406792555933807e+02 -2.918975276816622e+03
-1.147707789419906e+03 -1.422250063205718e+02 -2.918975276816622e+03
-1.147692804277179e+03 -1.436682879095348e+02 -2.918975276816622e+03
-1.147692771755942e+03 -1.451521092709173e+02 -2.918975276816622e+03
-1.147723463769968e+03 -1.466436990972401e+02 -2.918975276816622e+03
-1.147750383279527e+03 -1.484103245806148e+02 -2.918975276816622e+03
-1.147753445419418e+03 -1.500176865221944e+02 -2.918975276816622e+03
-1.147737661396535e+03 -1.512034266950621e+02 -2.918975276816622e+03
-1.147728201176016e+03 -1.530330382309537e+02 -2.918975276816622e+03
-1.147766784737672e+03 -1.540406579400652e+02 -2.918975276816622e+03
-1.147796702133255e+03 -1.550051431878270e+02 -2.918975276816622e+03
-1.147793977008078e+03 -1.580531929851684e+02 -2.918975276816622e+03
-1.147817625604563e+03 -1.606775013288625e+02 -2.918975276816622e+03
-1.147828412338129e+03 -1.622284669324814e+02 -2.918975276816622e+03
-1.147793075491910e+03 -1.640125681600239e+02 -2.918975276816622e+03
-1.147783195075532e+03 -1.660316801233409e+02 -2.918975276816622e+03
-1.147827284259832e+03 -1.685490063818945e+02 -2.918975276816622e+03
-1.147871373444132e+03 -1.710663326404482e+02 -2.918975276816622e+03
-1.147901146299779e+03 -1.739945247770831e+02 -2.918975276816622e+03
-1.147899102493238e+03 -1.769903153654159e+02 -2.918975276816622e+03
-1.147906868186962e+03 -1.792667172341259e+02 -2.918975276816622e+03
-1.147926858539896e+03 -1.807456903256512e+02 -2.918975276816622e+03
-1.147935285155975e+03 -1.822089693703006e+02 -2.918975276816622e+03
-1.147928189745383e+03 -1.839251667446943e+02 -2.918975276816622e+03
-1.147909400898493e+03 -1.859002349797017e+02 -2.918975276816622e+03
-1.147897962079712e+03 -1.882868691826478e+02 -2.918975276816622e+03
-1.147894294548460e+03 -1.897590857292587e+02 -2.918975276816622e+03
-1.147952547345231e+03 -1.909905135096804e+02 -2.918975276816622e+03
-1.147989607980113e+03 -1.929188806844953e+02 -2.918975276816622e+03
-1.147961902837754e+03 -1.940913662917984e+02 -2.918975276816622e+03
-1.147913198261319e+03 -1.951698501973288e+02 -2.918975276816622e+03
-1.147894152131503e+03 -1.980714049474839e+02 -2.918975276816622e+03
-1.147918648841686e+03 -2.005858897119450e+02 -2.918975276816622e+03
-1.147932790997168e+03 -2.021057319423531e+02 -2.918975276816622e+03
-1.147855124926614e+03 -2.036251041437402e+02 -2.918975276816622e+03
-1.147838727812601e+03 -2.050681537542728e+02 -2.918975276816622e+03
-1.147878600156582e+03 -2.065595220341527e+02 -2.918975276816622e+03
-1.147863488755492e+03 -2.083721524129465e+02 -2.918975276816622e+03
-1.147834720030375e+03 -2.100410753435755e+02 -2.918975276816622e+03
-1.147818579761965e+03 -2.114118129684802e+02 -2.918975276816622e+03
-1.147787870955062e+03 -2.139890136184000e+02 -2.918975276816622e+03
-1.147733867198904e+03 -2.169153878915752e+02 -2.918975276816622e+03
-1.147699600334025e+03 -2.191516418240329e+02 -2.918975276816622e+03
-1.147670064468967e+03 -2.206350673936736e+02 -2.918975276816622e+03
-1.147640242423051e+03 -2.221845462448227e+02 -2.918975276816622e+03
-1.147596003486331e+03 -2.239009549130438e+02 -2.918975276816622e+03
-1.147559637027359e+03 -2.258397891765475e+02 -2.918975276816622e+03
-1.147493560386921e+03 -2.282472489871770e+02 -2.918975276816622e+03
-1.147447878929150e+03 -2.298169973236891e+02 -2.918975276816622e+03
-1.147411051350934e+03 -2.310895714963445e+02 -2.918975276816622e+03
-1.147350013031625e+03 -2.329021241579634e+02 -2.918975276816622e+03
-1.147279581218250e+03 -2.338584503142189e+02 -2.918975276816622e+03
-1.147331193330380e+03 -2.347285252554526e+02 -2.918975276816622e+03
-1.147444840939088e+03 -2.368421184580141e+02 -2.918975276816622e+03
-1.147539633234221e+03 -2.391020604075208e+02 -2.918975276816622e+03
-1.147585269108597e+03 -2.406251573029899e+02 -2.918975276816622e+03
-1.147633160353577e+03 -2.421758954514302e+02 -2.918975276816622e+03
-1.147692654224422e+03 -2.438218710638661e+02 -2.918975276816622e+03
-1.147773968622024e+03 -2.457449146202662e+02 -2.918975276816622e+03
-1.147842625286950e+03 -2.470355874900388e+02 -2.918975276816622e+03
-1.147805796585583e+03 -2.484160036382492e+02 -2.918975276816622e+03
-1.147793850398744e+03 -2.503163123507663e+02 -2.918975276816622e+03
-1.147793320061793e+03 -2.512725263126621e+02 -2.918975276816622e+03
-1.147789272673577e+03 -2.527709684916018e+02 -2.918975276816622e+03
-1.147790393052291e+03 -2.545419524165883e+02 -2.918975276816622e+03
-1.147787552214616e+03 -2.563531429182575e+02 -2.918975276816622e+03
-1.147775474160942e+03 -2.575981785032419e+02 -2.918975276816622e+03
-1.147771831887372e+03 -2.589371555150022e+02 -2.918975276816622e+03
-1.147786698339179e+03 -2.605479108344273e+02 -2.918975276816622e+03
-1.147795432742910e+03 -2.621729171991315e+02 -2.918975276816622e+03
-1.147797166964705e+03 -2.647698269202610e+02 -2.918975276816622e+03
-1.147806786263689e+03 -2.673745009141721e+02 -2.918975276816622e+03
-1.147818464444429e+03 -2.698508075614169e+02 -2.918975276816622e+03
-1.147825518054007e+03 -2.724811894304594e+02 -2.918975276816622e+03
-1.147825394206717e+03 -2.747184680691192e+02 -2.918975276816622e+03
-1.147825635572484e+03 -2.764719115807962e+02 -2.918975276816622e+03
-1.147851758541153e+03 -2.788344757669632e+02 -2.918975276816622e+03
-1.147877829308592e+03 -2.823098636881417e+02 -2.918975276816622e+03
-1.147827614278529e+03 -2.851470411334183e+02 -2.918975276816622e+03
-1.147779429213425e+03 -2.868855326939442e+02 -2.918975276816622e+03
-1.147797199392340e+03 -2.890200807571346e+02 -2.918975276816622e+03
-1.147825624758180e+03 -2.914441143461187e+02 -2.918975276816622e+03
-1.147854050124020e+03 -2.938681479351031e+02 -2.918975276816622e+03
-1.147849913971401e+03 -2.968466039765486e+02 -2.918975276816622e+03
-1.147824468069607e+03 -2.994624706467117e+02 -2.918975276816622e+03
-1.147811029537216e+03 -3.019810962894471e+02 -2.918975276816622e+03
-1.147801701528542e+03 -3.039631643106189e+02 -2.918975276816622e+03
-1.147789987936319e+03 -3.058300144806584e+02 -2.918975276816622e+03
-1.147762386105996e+03 -3.090271088492694e+02 -2.918975276816622e+03
-1.147729991920115e+03 -3.123093387875338e+02 -2.918975276816622e+03
-1.147691668400162e+03 -3.160277530893028e+02 -2.918975276816622e+03
-1.147640033079117e+03 -3.193683164212246e+02 -2.918975276816622e+03
-1.147586370666454e+03 -3.218908463576245e+02 -2.918975276816622e+03
-1.147496756868418e+03 -3.248902288741063e+02 -2.918975276816622e+03
-1.147440662715864e+03 -3.266321957847651e+02 -2.918975276816622e+03
-1.147544640003495e+03 -3.285470818384137e+02 -2.918975276816622e+03
-1.147609036332907e+03 -3.321640162758990e+02 -2.918975276816622e+03
-1.147605803377026e+03 -3.342928324319802e+02 -2.918975276816622e+03
-1.147638780655072e+03 -3.367052887773849e+02 -2.918975276816622e+03
-1.147651877487879e+03 -3.398299289402621e+02 -2.918975276816622e+03
-1.147671435723773e+03 -3.421001333949416e+02 -2.918975276816622e+03
-1.147694677121732e+03 -3.452634212284792e+02 -2.918975276816622e+03
-1.147712476575140e+03 -3.476302118732821e+02 -2.918975276816622e+03
-1.147725681085362e+03 -3.491943431272119e+02 -2.918975276816622e+03
-1.147743415759011e+03 -3.516453955578607e+02 -2.918975276816622e+03
-1.147757207238544e+03 -3.536309920026924e+02 -2.918975276816622e+03
-1.147776170293572e+03 -3.563866154562448e+02 -2.918975276816622e+03
-1.147795954112715e+03 -3.602614969299418e+02 -2.918975276816622e+03
-1.147819916128011e+03 -3.633952320658485e+02 -2.918975276816622e+03
-1.147856350344956e+03 -3.659040458383587e+02 -2.918975276816622e+03
-1.147892784561900e+03 -3.684128596108689e+02 -2.918975276816622e+03
-1.147897429445219e+03 -3.707163765078096e+02 -2.918975276816622e+03
-1.147891026095173e+03 -3.729314372466880e+02 -2.918975276816622e+03
-1.147907572703920e+03 -3.742496576347898e+02 -2.918975276816622e+03
-1.147929522443737e+03 -3.753885922838915e+02 -2.918975276816622e+03
-1.147929817655468e+03 -3.769560957149533e+02 -2.918975276816622e+03
-1.147923827609940e+03 -3.785920039878980e+02 -2.918975276816622e+03
-1.147935364968271e+03 -3.798134911585395e+02 -2.918975276816622e+03
-1.147940340089488e+03 -3.811528681488620e+02 -2.918975276816622e+03
-1.147931521767886e+03 -3.841928660624182e+02 -2.918975276816622e+03
-1.147924942477224e+03 -3.862228992388415e+02 -2.918975276816622e+03
-1.147957524007045e+03  3.820810422802638e+02 -2.918975276816622e+03
-1.147943651502618e+03  3.797061404006837e+02 -2.918975276816622e+03
-1.147945683139615e+03  3.848271936862596e+02 -2.918975276816622e+03
-1.147936395089826e+03  3.777972081855514e+02 -2.918975276816622e+03
-1.147933029335155e+03  3.767185312128472e+02 -2.918975276816622e+03
-1.147929556067071e+03  3.750551037534052e+02 -2.918975276816622e+03
-1.147928396071054e+03  3.724415529914883e+02 -2.918975276816622e+03
-1.147926931427004e+03  3.698269149918142e+02 -2.918975276816622e+03
-1.147922872606882e+03  3.671348600694932e+02 -2.918975276816622e+03
-1.147916219610689e+03  3.643653882245251e+02 -2.918975276816622e+03
-1.147909566614496e+03  3.615959163795573e+02 -2.918975276816622e+03
-1.147902845289362e+03  3.596533563429075e+02 -2.918975276816622e+03
-1.147910110870846e+03  3.569706057561420e+02 -2.918975276816622e+03
-1.147896397319534e+03  3.538029774517584e+02 -2.918975276816622e+03
-1.147890551827808e+03  3.518805476114019e+02 -2.918975276816622e+03
-1.147883049279697e+03  3.497699066865186e+02 -2.918975276816622e+03
-1.147872938708862e+03  3.472265379253654e+02 -2.918975276816622e+03
-1.147870720948688e+03  3.451343155006627e+02 -2.918975276816622e+03
-1.147854805653983e+03  3.428757067467846e+02 -2.918975276816622e+03
-1.147838621697854e+03  3.409298068045350e+02 -2.918975276816622e+03
-1.147827151960956e+03  3.394081759891694e+02 -2.918975276816622e+03
-1.147819468490833e+03  3.369092840394090e+02 -2.918975276816622e+03
-1.147790227290417e+03  3.340206462341541e+02 -2.918975276816622e+03
-1.147760986090001e+03  3.311320084288992e+02 -2.918975276816622e+03
-1.147737791535312e+03  3.286896995811832e+02 -2.918975276816622e+03
-1.147730865657857e+03  3.268687406985529e+02 -2.918975276816622e+03
-1.147707064304912e+03  3.247539325545563e+02 -2.918975276816622e+03
-1.147662264453600e+03  3.234422786549606e+02 -2.918975276816622e+03
-1.147676818904053e+03  3.221649458929427e+02 -2.918975276816622e+03
-1.147715492642935e+03  3.204841645411134e+02 -2.918975276816622e+03
-1.147747548450790e+03  3.186366349115721e+02 -2.918975276816622e+03
-1.147777651849100e+03  3.152336181266710e+02 -2.918975276816622e+03
-1.147788096350218e+03  3.115445611825335e+02 -2.918975276816622e+03
-1.147804852175695e+03  3.085801070725447e+02 -2.918975276816622e+03
-1.147819412955858e+03  3.063356548206749e+02 -2.918975276816622e+03
-1.147825032088604e+03  3.043500217000285e+02 -2.918975276816622e+03
-1.147828875125945e+03  3.022839597572886e+02 -2.918975276816622e+03
-1.147841357565157e+03  2.999596747459561e+02 -2.918975276816622e+03
-1.147859008637874e+03  2.974525716628929e+02 -2.918975276816622e+03
-1.147876659710592e+03  2.949454685798298e+02 -2.918975276816622e+03
-1.147892815348204e+03  2.925329401164890e+02 -2.918975276816622e+03
-1.147907475550712e+03  2.902149862728710e+02 -2.918975276816622e+03
-1.147891487261050e+03  2.888127149368430e+02 -2.918975276816622e+03
-1.147873279333107e+03  2.874053937088420e+02 -2.918975276816622e+03
-1.147882190703380e+03  2.847112157576725e+02 -2.918975276816622e+03
-1.147903754230203e+03  2.826100445492316e+02 -2.918975276816622e+03
-1.147915756402997e+03  2.810686309327018e+02 -2.918975276816622e+03
-1.147908105423819e+03  2.790466312516792e+02 -2.918975276816622e+03
-1.147828781873172e+03  2.771135354202156e+02 -2.918975276816622e+03
-1.147860109122533e+03  2.759939876357460e+02 -2.918975276816622e+03
-1.147995008552196e+03  2.749746477851286e+02 -2.918975276816622e+03
-1.148007618857777e+03  2.729121956341949e+02 -2.918975276816622e+03
-1.147835656520308e+03  2.713033842528278e+02 -2.918975276816622e+03
-1.147790377515600e+03  2.701190369010711e+02 -2.918975276816622e+03
-1.147929748617607e+03  2.679845337998854e+02 -2.918975276816622e+03
-1.147942022950892e+03  2.661132604935464e+02 -2.918975276816622e+03
-1.147918639099014e+03  2.643044270391271e+02 -2.918975276816622e+03
-1.147916843029079e+03  2.621066930757194e+02 -2.918975276816622e+03
-1.147919500432847e+03  2.605349219360587e+02 -2.918975276816622e+03
-1.147880659568506e+03  2.588979462433232e+02 -2.918975276816622e+03
-1.147885257625176e+03  2.572235026286942e+02 -2.918975276816622e+03
-1.147930331424593e+03  2.553004305733591e+02 -2.918975276816622e+03
-1.147943577352786e+03  2.527080104389987e+02 -2.918975276816622e+03
-1.147917524360025e+03  2.508593821740636e+02 -2.918975276816622e+03
-1.147829924263968e+03  2.498724883415389e+02 -2.918975276816622e+03
-1.147799271756366e+03  2.482772693831808e+02 -2.918975276816622e+03
-1.147874041610818e+03  2.464351932801140e+02 -2.918975276816622e+03
-1.147867106679875e+03  2.446052717056907e+02 -2.918975276816622e+03
-1.147861935984779e+03  2.433200664248587e+02 -2.918975276816622e+03
-1.147894209130563e+03  2.419156420046762e+02 -2.918975276816622e+03
-1.147877697397298e+03  2.403693680894105e+02 -2.918975276816622e+03
-1.147755459897285e+03  2.392304873264798e+02 -2.918975276816622e+03
-1.147661194424577e+03  2.372960777362311e+02 -2.918975276816622e+03
-1.147715508019697e+03  2.357617080948980e+02 -2.918975276816622e+03
-1.147908023298686e+03  2.343485522473777e+02 -2.918975276816622e+03
-1.148331993555031e+03  2.323467659766272e+02 -2.918975276816622e+03
-1.148282503831099e+03  2.309042585276790e+02 -2.918975276816622e+03
-1.147899925470873e+03  2.292179022482948e+02 -2.918975276816622e+03
-1.147676012522866e+03  2.279433851648919e+02 -2.918975276816622e+03
-1.147502223184757e+03  2.262812602324228e+02 -2.918975276816622e+03
-1.147616238733400e+03  2.238567027912157e+02 -2.918975276816622e+03
-1.147614917819173e+03  2.215881073506873e+02 -2.918975276816622e+03
-1.147471935989222e+03  2.185602480780956e+02 -2.918975276816622e+03
-1.147421194885122e+03  2.167667771379820e+02 -2.918975276816622e+03
-1.147376694971106e+03  2.154286705812007e+02 -2.918975276816622e+03
-1.147334471562458e+03  2.141018320108730e+02 -2.918975276816622e+03
-1.147359806127947e+03  2.129725509063214e+02 -2.918975276816622e+03
-1.147348115293850e+03  2.110873125842570e+02 -2.918975276816622e+03
-1.147262613840893e+03  2.096859156021405e+02 -2.918975276816622e+03
-1.147248382358011e+03  2.082401078051827e+02 -2.918975276816622e+03
-1.147234782151633e+03  2.058886045521058e+02 -2.918975276816622e+03
-1.147238876134965e+03  2.031132449196456e+02 -2.918975276816622e+03
-1.147243823070304e+03  2.001071088638373e+02 -2.918975276816622e+03
-1.147209945271631e+03  1.974642384743091e+02 -2.918975276816622e+03
-1.147299502474573e+03  1.942407742688078e+02 -2.918975276816622e+03
-1.147316204542254e+03  1.911790226428512e+02 -2.918975276816622e+03
-1.146832996261705e+03  1.896683777457012e+02 -2.918975276816622e+03
-1.146733651844918e+03  1.881327955448732e+02 -2.918975276816622e+03
-1.147252205982511e+03  1.866728780065244e+02 -2.918975276816622e+03
-1.147303587957454e+03  1.853387310648344e+02 -2.918975276816622e+03
-1.147058542948182e+03  1.838599325854736e+02 -2.918975276816622e+03
-1.146953760242596e+03  1.819191490288815e+02 -2.918975276816622e+03
-1.147004767026438e+03  1.797550373244128e+02 -2.918975276816622e+03
-1.147134576172110e+03  1.785909016665024e+02 -2.918975276816622e+03
-1.147152316476230e+03  1.771275667879662e+02 -2.918975276816622e+03
-1.147138494853189e+03  1.747723565626953e+02 -2.918975276816622e+03
-1.147130796712131e+03  1.726900724314719e+02 -2.918975276816622e+03
-1.147135494452139e+03  1.710210300865129e+02 -2.918975276816622e+03
-1.147169752648967e+03  1.695807385046544e+02 -2.918975276816622e+03
-1.147173052835613e+03  1.681922422983075e+02 -2.918975276816622e+03
-1.147150643027633e+03  1.668415090708280e+02 -2.918975276816622e+03
-1.147155307394647e+03  1.651148282996793e+02 -2.918975276816622e+03
-1.147159100485159e+03  1.637355470322469e+02 -2.918975276816622e+03
-1.147163734376167e+03  1.622520967992278e+02 -2.918975276816622e+03
-1.147169152576789e+03  1.606491289464391e+02 -2.918975276816622e+03
-1.147170649059114e+03  1.592718414111950e+02 -2.918975276816622e+03
-1.147172777636617e+03  1.569980403925352e+02 -2.918975276816622e+03
-1.147176196459751e+03  1.544915181480987e+02 -2.918975276816622e+03
-1.147298398571181e+03  1.523927880458647e+02 -2.918975276816622e+03
-1.147313625358672e+03  1.507798778886399e+02 -2.918975276816622e+03
-1.147189031350852e+03  1.496170886995486e+02 -2.918975276816622e+03
-1.147182427968667e+03  1.483519332690978e+02 -2.918975276816622e+03
-1.147214780178336e+03  1.469084926978920e+02 -2.918975276816622e+03
-1.147231013704906e+03  1.453631294077712e+02 -2.918975276816622e+03
-1.147226924050518e+03  1.438720937319428e+02 -2.918975276816622e+03
-1.147223226077682e+03  1.421855496400123e+02 -2.918975276816622e+03
-1.147223986847716e+03  1.409103331997415e+02 -2.918975276816622e+03
-1.147233775361654e+03  1.397049718274494e+02 -2.918975276816622e+03
-1.147256721242822e+03  1.378521695030226e+02 -2.918975276816622e+03
-1.147264707265672e+03  1.368388388515339e+02 -2.918975276816622e+03
-1.147264947841200e+03  1.353202963186446e+02 -2.918975276816622e+03
-1.147291307841890e+03  1.335576055602368e+02 -2.918975276816622e+03
-1.147318985269746e+03  1.317527298440129e+02 -2.918975276816622e+03
-1.147336248053299e+03  1.298043827535077e+02 -2.918975276816622e+03
-1.147350256350082e+03  1.282591372602577e+02 -2.918975276816622e+03
-1.147371678649235e+03  1.265251261464764e+02 -2.918975276816622e+03
-1.147399528752315e+03  1.245523448181959e+02 -2.918975276816622e+03
-1.147426860197416e+03  1.222753762276336e+02 -2.918975276816622e+03
-1.147442149415201e+03  1.206379141486809e+02 -2.918975276816622e+03
-1.147472885246932e+03  1.189797481945670e+02 -2.918975276816622e+03
-1.147482550995235e+03  1.163396355729299e+02 -2.918975276816622e+03
-1.147514305670696e+03  1.138104366817673e+02 -2.918975276816622e+03
-1.147569339728190e+03  1.122693081367993e+02 -2.918975276816622e+03
-1.147588995926505e+03  1.110736080263902e+02 -2.918975276816622e+03
-1.147553124738637e+03  1.098889060249547e+02 -2.918975276816622e+03
-1.147573634082965e+03  1.082085206497386e+02 -2.918975276816622e+03
-1.147599691684480e+03  1.065314980051606e+02 -2.918975276816622e+03
-1.147612838935602e+03  1.054221165177151e+02 -2.918975276816622e+03
-1.147619064810172e+03  1.041150877732002e+02 -2.918975276816622e+03
-1.147629838869257e+03  1.022629624898801e+02 -2.918975276816622e+03
-1.147643912845983e+03  1.005723867791500e+02 -2.918975276816622e+03
-1.147656083595471e+03  9.936308412661590e+01 -2.918975276816622e+03
-1.147676423058685e+03  9.788227635054858e+01 -2.918975276816622e+03
-1.147683364620683e+03  9.614483168098835e+01 -2.918975276816622e+03
-1.147700845816835e+03  9.334838799560971e+01 -2.918975276816622e+03
-1.147715690587930e+03  9.016570658037051e+01 -2.918975276816622e+03
-1.147773638981225e+03  8.724074389476466e+01 -2.918975276816622e+03
-1.147773386154561e+03  8.398471251538695e+01 -2.918975276816622e+03
-1.147635383302910e+03  8.097311055139897e+01 -2.918975276816622e+03
-1.147877439954093e+03  7.929726937458574e+01 -2.918975276816622e+03
-1.148034111586179e+03  7.760917303897359e+01 -2.918975276816622e+03
-1.147684247494402e+03  7.502190144108694e+01 -2.918975276816622e+03
-1.147678844910693e+03  7.286283169921492e+01 -2.918975276816622e+03
-1.147911035380290e+03  7.120503374552241e+01 -2.918975276816622e+03
-1.147939860040375e+03  6.933041537143905e+01 -2.918975276816622e+03
-1.147856253053261e+03  6.787304586881956e+01 -2.918975276816622e+03
-1.147856505334464e+03  6.659159193381163e+01 -2.918975276816622e+03
-1.147900548259093e+03  6.380241838845166e+01 -2.918975276816622e+03
-1.147950906092032e+03  6.026576950169184e+01 -2.918975276816622e+03
-1.147991264106252e+03  5.683500861937301e+01 -2.918975276816622e+03
-1.148015895640645e+03  5.414318385985398e+01 -2.918975276816622e+03
-1.147942334325926e+03  5.218729197890008e+01 -2.918975276816622e+03
-1.148004804074774e+03  5.044146813394072e+01 -2.918975276816622e+03
-1.148118435181806e+03  4.855559582510509e+01 -2.918975276816622e+03
-1.148101301920728e+03  4.596977440358074e+01 -2.918975276816622e+03
-1.148137081445363e+03  4.290698410256341e+01 -2.918975276816622e+03
-1.148229068207884e+03  4.047941232632082e+01 -2.918975276816622e+03
-1.148251048507974e+03  3.902147358225382e+01 -2.918975276816622e+03
-1.148217304934710e+03  3.692213242617794e+01 -2.918975276816622e+03
-1.148246752039042e+03  3.356317101132699e+01 -2.918975276816622e+03
-1.148383332285436e+03  3.038139344198456e+01 -2.918975276816622e+03
-1.148478369253495e+03  2.763260781842837e+01 -2.918975276816622e+03
-1.148433771730942e+03  2.472568744487480e+01 -2.918975276816622e+03
-1.148378434028526e+03  2.308860366000027e+01 -2.918975276816622e+03
-1.148332457603667e+03  2.204163442058552e+01 -2.918975276816622e+03
-1.148377803738837e+03  2.066455645386669e+01 -2.918975276816622e+03
-1.148420019024890e+03  1.903111635297621e+01 -2.918975276816622e+03
-1.148370193705881e+03  1.696618993746275e+01 -2.918975276816622e+03
-1.148386749928851e+03  1.495113333759878e+01 -2.918975276816622e+03
-1.148430748930187e+03  1.232297783147315e+01 -2.918975276816622e+03
-1.148418120514568e+03  9.206342738900204e+00 -2.918975276816622e+03
-1.148413358215384e+03  6.917064949367979e+00 -2.918975276816622e+03
-1.148452010443579e+03  5.712369858899343e+00 -2.918975276816622e+03
 1.145804598430095e+03 -3.917110183056559e-01  2.918975276816622e+03
1.145851248017675e+03 1.471114525078793e+00 2.918975276816622e+03
 1.145693875348852e+03 -2.204087288795130e+00  2.918975276816622e+03
 1.145687965065983e+03 -3.986977173773869e+00  2.918975276816622e+03
 1.145714177517731e+03 -6.598573313467679e+00  2.918975276816622e+03
 1.145661144971001e+03 -9.216218063744492e+00  2.918975276816622e+03
 1.145579803348932e+03 -1.073270772228999e+01  2.918975276816622e+03
 1.145540997890814e+03 -1.259766114018217e+01  2.918975276816622e+03
 1.145498841710923e+03 -1.522397494357060e+01  2.918975276816622e+03
 1.145442908300584e+03 -1.814907098986327e+01  2.918975276816622e+03
 1.145404928270333e+03 -2.041092484169134e+01  2.918975276816622e+03
 1.145356325639546e+03 -2.270123710646966e+01  2.918975276816622e+03
 1.145297347659583e+03 -2.500765944850165e+01  2.918975276816622e+03
 1.145264021860856e+03 -2.698190327626840e+01  2.918975276816622e+03
 1.145261256248014e+03 -2.878956653200531e+01  2.918975276816622e+03
 1.145238396751307e+03 -2.997270418441903e+01  2.918975276816622e+03
 1.145199650282097e+03 -3.104863396041030e+01  2.918975276816622e+03
 1.145186999604346e+03 -3.262397914792405e+01  2.918975276816622e+03
 1.145176213144438e+03 -3.449408000620215e+01  2.918975276816622e+03
 1.145150557278278e+03 -3.683008845716162e+01  2.918975276816622e+03
 1.145133509206895e+03 -3.868277332286358e+01  2.918975276816622e+03
 1.145102869646742e+03 -4.072062029212661e+01  2.918975276816622e+03
 1.145073348555714e+03 -4.338975077358032e+01  2.918975276816622e+03
 1.145055528901571e+03 -4.512955686852598e+01  2.918975276816622e+03
 1.145050943217874e+03 -4.661907324358766e+01  2.918975276816622e+03
 1.145027204046590e+03 -4.916007098024068e+01  2.918975276816622e+03
 1.145003874766779e+03 -5.248788163806032e+01  2.918975276816622e+03
 1.144980804797100e+03 -5.534067616458204e+01  2.918975276816622e+03
 1.144967894591345e+03 -5.749599018420778e+01  2.918975276816622e+03
 1.144952873149964e+03 -5.951371934828172e+01  2.918975276816622e+03
 1.144937132785942e+03 -6.137863392699224e+01  2.918975276816622e+03
 1.144939252616579e+03 -6.304610464371743e+01  2.918975276816622e+03
 1.144941155022715e+03 -6.419922401386671e+01  2.918975276816622e+03
 1.144898112645991e+03 -6.502837903220336e+01  2.918975276816622e+03
 1.144877482859930e+03 -6.615537169698422e+01  2.918975276816622e+03
 1.144941572596121e+03 -6.781211651061925e+01  2.918975276816622e+03
 1.144939477519926e+03 -6.948111337070526e+01  2.918975276816622e+03
 1.144915905697066e+03 -7.146389432295406e+01  2.918975276816622e+03
 1.144916775275747e+03 -7.383359501194082e+01  2.918975276816622e+03
 1.144916595692829e+03 -7.687130560931620e+01  2.918975276816622e+03
 1.144908993385555e+03 -7.971440520344646e+01  2.918975276816622e+03
 1.144908086673134e+03 -8.150121513987443e+01  2.918975276816622e+03
 1.144926077791610e+03 -8.314078039674976e+01  2.918975276816622e+03
 1.144965632181485e+03 -8.451432345696391e+01  2.918975276816622e+03
 1.144919708758438e+03 -8.506543391944957e+01  2.918975276816622e+03
 1.144872424318977e+03 -8.562345470033667e+01  2.918975276816622e+03
 1.144912157057355e+03 -8.671172327411560e+01  2.918975276816622e+03
 1.144925375302610e+03 -8.808840253426722e+01  2.918975276816622e+03
 1.144920908491602e+03 -8.956142795641426e+01  2.918975276816622e+03
 1.144918081470816e+03 -9.133811924863933e+01  2.918975276816622e+03
 1.144920899020169e+03 -9.359718979538059e+01  2.918975276816622e+03
 1.144916800554727e+03 -9.636637155572325e+01  2.918975276816622e+03
 1.144902863576471e+03 -9.869538223701021e+01  2.918975276816622e+03
 1.144896910500859e+03 -1.005600995350822e+02  2.918975276816622e+03
 1.144921185996524e+03 -1.022667358369042e+02  2.918975276816622e+03
 1.144949787066898e+03 -1.034633337073852e+02  2.918975276816622e+03
 1.144909569234139e+03 -1.041807540069337e+02  2.918975276816622e+03
 1.144866161697901e+03 -1.048814051887325e+02  2.918975276816622e+03
 1.144892353219606e+03 -1.059388126664732e+02  2.918975276816622e+03
 1.144901642065475e+03 -1.069357845568571e+02  2.918975276816622e+03
 1.144878814528348e+03 -1.087927005397250e+02  2.918975276816622e+03
 1.144870344491416e+03 -1.101315947672240e+02  2.918975276816622e+03
 1.144864706019636e+03 -1.112988689591097e+02  2.918975276816622e+03
 1.144851294359850e+03 -1.134932409190002e+02  2.918975276816622e+03
 1.144839624748352e+03 -1.158052986293101e+02  2.918975276816622e+03
 1.144829697185145e+03 -1.182350420900394e+02  2.918975276816622e+03
 1.144828230541501e+03 -1.206191515073735e+02  2.918975276816622e+03
 1.144828736079160e+03 -1.229583343810548e+02  2.918975276816622e+03
 1.144822752878559e+03 -1.252982247544784e+02  2.918975276816622e+03
 1.144790848347029e+03 -1.275969265987524e+02  2.918975276816622e+03
 1.144784448447267e+03 -1.294622438182708e+02  2.918975276816622e+03
 1.144823389907385e+03 -1.313406579868406e+02  2.918975276816622e+03
 1.144856246764687e+03 -1.336243652000678e+02  2.918975276816622e+03
 1.144837842901783e+03 -1.363697897034370e+02  2.918975276816622e+03
 1.144798808488120e+03 -1.386327263566704e+02  2.918975276816622e+03
 1.144811004898598e+03 -1.411486103339014e+02  2.918975276816622e+03
 1.144825935640227e+03 -1.439024712405653e+02  2.918975276816622e+03
 1.144817911296001e+03 -1.458119135405800e+02  2.918975276816622e+03
 1.144806579105728e+03 -1.478154156827231e+02  2.918975276816622e+03
 1.144804293905438e+03 -1.495311814470350e+02  2.918975276816622e+03
 1.144816138191648e+03 -1.514393635480413e+02  2.918975276816622e+03
 1.144834845890639e+03 -1.538070012775079e+02  2.918975276816622e+03
 1.144842626507511e+03 -1.568340335315659e+02  2.918975276816622e+03
 1.144800274441023e+03 -1.595600674559550e+02  2.918975276816622e+03
 1.144789304141410e+03 -1.612984809254584e+02  2.918975276816622e+03
 1.144839620697225e+03 -1.630419899489167e+02  2.918975276816622e+03
 1.144848513301591e+03 -1.645419383518628e+02  2.918975276816622e+03
 1.144816536202612e+03 -1.653857696074958e+02  2.918975276816622e+03
 1.144811969357229e+03 -1.663936026259160e+02  2.918975276816622e+03
 1.144829158247007e+03 -1.679195728468589e+02  2.918975276816622e+03
 1.144823921605552e+03 -1.694135395349516e+02  2.918975276816622e+03
 1.144830748900424e+03 -1.713799514438770e+02  2.918975276816622e+03
 1.144857664879841e+03 -1.738247141740007e+02  2.918975276816622e+03
 1.144854049782840e+03 -1.767896671779539e+02  2.918975276816622e+03
 1.144812686823014e+03 -1.793957449620483e+02  2.918975276816622e+03
 1.144814672692460e+03 -1.809089065533483e+02  2.918975276816622e+03
 1.144827213441299e+03 -1.836214364558539e+02  2.918975276816622e+03
 1.144561397180134e+03 -1.865994913086171e+02  2.918975276816622e+03
 1.144547818904379e+03 -1.883126711148483e+02  2.918975276816622e+03
 1.144867327888695e+03 -1.896906082225537e+02  2.918975276816622e+03
 1.144900301761192e+03 -1.914440056388356e+02  2.918975276816622e+03
 1.144804237520921e+03 -1.937909250757419e+02  2.918975276816622e+03
 1.144886952276188e+03 -1.968550028063642e+02  2.918975276816622e+03
 1.144939650024869e+03 -2.008238425132816e+02  2.918975276816622e+03
 1.144825338859009e+03 -2.048392364547140e+02  2.918975276816622e+03
 1.144827483529132e+03 -2.076166902022870e+02  2.918975276816622e+03
 1.144936773611961e+03 -2.093112835408903e+02  2.918975276816622e+03
 1.144972778961473e+03 -2.113262795198341e+02  2.918975276816622e+03
 1.144903022913367e+03 -2.136476478022930e+02  2.918975276816622e+03
 1.144849415116988e+03 -2.158834343017319e+02  2.918975276816622e+03
 1.144855903338047e+03 -2.178082557999560e+02  2.918975276816622e+03
 1.144922495171296e+03 -2.199283045250823e+02  2.918975276816622e+03
 1.145005242851024e+03 -2.224689636953053e+02  2.918975276816622e+03
 1.144968035631526e+03 -2.244354169999743e+02  2.918975276816622e+03
 1.144822287053101e+03 -2.269918788477067e+02  2.918975276816622e+03
 1.144832361501702e+03 -2.295189940998095e+02  2.918975276816622e+03
 1.144921502000034e+03 -2.315353391259774e+02  2.918975276816622e+03
 1.144929989545139e+03 -2.335306935280504e+02  2.918975276816622e+03
 1.144933965204095e+03 -2.354926919312738e+02  2.918975276816622e+03
 1.144942860346259e+03 -2.378626057644857e+02  2.918975276816622e+03
 1.144952405702597e+03 -2.401671194634199e+02  2.918975276816622e+03
 1.144966531223337e+03 -2.431873693835232e+02  2.918975276816622e+03
 1.144979729043791e+03 -2.464818360287285e+02  2.918975276816622e+03
 1.144988166854964e+03 -2.484671316464103e+02  2.918975276816622e+03
 1.144994538745389e+03 -2.501065965437315e+02  2.918975276816622e+03
 1.145004625220711e+03 -2.524649920914389e+02  2.918975276816622e+03
 1.145017381481300e+03 -2.554078459708910e+02  2.918975276816622e+03
 1.145032807527155e+03 -2.589351581820878e+02  2.918975276816622e+03
 1.145043971117675e+03 -2.619838540085051e+02  2.918975276816622e+03
 1.145050872252860e+03 -2.645539334501429e+02  2.918975276816622e+03
 1.145060914069326e+03 -2.674385540017500e+02  2.918975276816622e+03
 1.145065921267725e+03 -2.695286603821585e+02  2.918975276816622e+03
 1.145066373552113e+03 -2.713833966203485e+02  2.918975276816622e+03
 1.145055442188163e+03 -2.730686764676960e+02  2.918975276816622e+03
 1.145070224475003e+03 -2.746136775135328e+02  2.918975276816622e+03
 1.145137782797920e+03 -2.771989005499468e+02  2.918975276816622e+03
 1.145153918690590e+03 -2.797525436739496e+02  2.918975276816622e+03
 1.145106573801401e+03 -2.821372476232457e+02  2.918975276816622e+03
 1.144905578117389e+03 -2.850360659505753e+02  2.918975276816622e+03
 1.144908482204442e+03 -2.876575553417975e+02  2.918975276816622e+03
 1.145108951512840e+03 -2.896832213383277e+02  2.918975276816622e+03
 1.145110547326510e+03 -2.919630014442841e+02  2.918975276816622e+03
 1.145087359776460e+03 -2.940932884257911e+02  2.918975276816622e+03
 1.145084290805996e+03 -2.969035560532722e+02  2.918975276816622e+03
 1.145091411264088e+03 -2.988775597094908e+02  2.918975276816622e+03
 1.145087922144408e+03 -3.008279611552755e+02  2.918975276816622e+03
 1.145070182776794e+03 -3.031677230651246e+02  2.918975276816622e+03
 1.145060883085970e+03 -3.048226292802116e+02  2.918975276816622e+03
 1.145059488106655e+03 -3.071039490576998e+02  2.918975276816622e+03
 1.145063777311010e+03 -3.091593607355110e+02  2.918975276816622e+03
 1.145050911108691e+03 -3.112194169405996e+02  2.918975276816622e+03
 1.145044174932752e+03 -3.130389845938407e+02  2.918975276816622e+03
 1.145034929903042e+03 -3.143246813977095e+02  2.918975276816622e+03
 1.145029878383923e+03 -3.164597680249245e+02  2.918975276816622e+03
 1.145017836232905e+03 -3.185359378624575e+02  2.918975276816622e+03
 1.145020117403841e+03 -3.203295905192866e+02  2.918975276816622e+03
 1.144993439928287e+03 -3.225012737362299e+02  2.918975276816622e+03
 1.144941490719631e+03 -3.247908353494230e+02  2.918975276816622e+03
 1.144972539217057e+03 -3.263271873004815e+02  2.918975276816622e+03
 1.145065009432368e+03 -3.277689910337966e+02  2.918975276816622e+03
 1.145014472375971e+03 -3.303636670543669e+02  2.918975276816622e+03
 1.144967711047226e+03 -3.330883126229696e+02  2.918975276816622e+03
 1.145002256180730e+03 -3.360562223627881e+02  2.918975276816622e+03
 1.144973645648519e+03 -3.379449228620828e+02  2.918975276816622e+03
 1.144855778222614e+03 -3.394325005101842e+02  2.918975276816622e+03
 1.144859056761140e+03 -3.418759738803398e+02  2.918975276816622e+03
 1.144924765165471e+03 -3.440944411951772e+02  2.918975276816622e+03
 1.144923550149297e+03 -3.469071683578410e+02  2.918975276816622e+03
 1.144904960671494e+03 -3.504765722539988e+02  2.918975276816622e+03
 1.144908983939826e+03 -3.526526091275562e+02  2.918975276816622e+03
 1.144928392731550e+03 -3.550701452742827e+02  2.918975276816622e+03
 1.144923791433317e+03 -3.582640867651414e+02  2.918975276816622e+03
 1.144943101212225e+03 -3.596452972026655e+02  2.918975276816622e+03
 1.144910684339061e+03 -3.607756092574099e+02  2.918975276816622e+03
 1.144922394605625e+03 -3.630547476145970e+02  2.918975276816622e+03
 1.144930810843386e+03 -3.656179805799529e+02  2.918975276816622e+03
 1.144935003525689e+03 -3.677421794018118e+02  2.918975276816622e+03
 1.144936824839895e+03 -3.699872939295713e+02  2.918975276816622e+03
 1.144951211664462e+03 -3.715460378512525e+02  2.918975276816622e+03
 1.144963190283770e+03 -3.734847010701097e+02  2.918975276816622e+03
 1.144959700920059e+03 -3.765668251534455e+02  2.918975276816622e+03
 1.144965848287321e+03 -3.791235661891149e+02  2.918975276816622e+03
 1.144983978840321e+03 -3.816377030652915e+02  2.918975276816622e+03
 1.145004680226484e+03 -3.831875382188085e+02  2.918975276816622e+03
 1.145040594660207e+03 -3.849330995433510e+02  2.918975276816622e+03
1.145081141159739e+03 3.830895980858037e+02 2.918975276816622e+03
1.145077823316521e+03 3.856109571000195e+02 2.918975276816622e+03
1.145070479274927e+03 3.800770415094673e+02 2.918975276816622e+03
1.145088502316302e+03 3.783400348192196e+02 2.918975276816622e+03
1.145110625758694e+03 3.771334645844933e+02 2.918975276816622e+03
1.145141077464522e+03 3.750371110916150e+02 2.918975276816622e+03
1.145142440192586e+03 3.732598795463538e+02 2.918975276816622e+03
1.145106034276861e+03 3.720436115674284e+02 2.918975276816622e+03
1.145134357922661e+03 3.692508220994316e+02 2.918975276816622e+03
1.145399599861224e+03 3.662997279860990e+02 2.918975276816622e+03
1.145455289147373e+03 3.640115675041843e+02 2.918975276816622e+03
1.145281636699145e+03 3.613180454771773e+02 2.918975276816622e+03
1.145284997411303e+03 3.590650618556622e+02 2.918975276816622e+03
1.145328876234324e+03 3.576506160980587e+02 2.918975276816622e+03
1.145345636765628e+03 3.562810148666912e+02 2.918975276816622e+03
1.145360099523591e+03 3.545889302020992e+02 2.918975276816622e+03
1.145383907370114e+03 3.527205538203382e+02 2.918975276816622e+03
1.145403952809981e+03 3.510588836340277e+02 2.918975276816622e+03
1.145429015796016e+03 3.492516227121181e+02 2.918975276816622e+03
1.145449925594826e+03 3.474363048383556e+02 2.918975276816622e+03
1.145476298738556e+03 3.457050218656212e+02 2.918975276816622e+03
1.145491915212991e+03 3.440913288018000e+02 2.918975276816622e+03
1.145511764083764e+03 3.425456611029684e+02 2.918975276816622e+03
1.145531605895844e+03 3.407348709162100e+02 2.918975276816622e+03
1.145576290664460e+03 3.390834710682382e+02 2.918975276816622e+03
1.145609644171452e+03 3.364245603360545e+02 2.918975276816622e+03
1.145683480319933e+03 3.330804029539089e+02 2.918975276816622e+03
1.145778774729380e+03 3.301770876168204e+02 2.918975276816622e+03
1.145777206503053e+03 3.288288481233570e+02 2.918975276816622e+03
1.145687518130665e+03 3.274719025654410e+02 2.918975276816622e+03
1.145693013998058e+03 3.248069044433865e+02 2.918975276816622e+03
1.145699566549365e+03 3.224794088975843e+02 2.918975276816622e+03
1.145693074025790e+03 3.203986041659045e+02 2.918975276816622e+03
1.145712474501403e+03 3.189927850029907e+02 2.918975276816622e+03
1.145713279946185e+03 3.173880839350230e+02 2.918975276816622e+03
1.145720670424418e+03 3.148299158022756e+02 2.918975276816622e+03
1.145736898612403e+03 3.126829237546401e+02 2.918975276816622e+03
1.145741293664136e+03 3.117632892052856e+02 2.918975276816622e+03
1.145700358405337e+03 3.107083374059284e+02 2.918975276816622e+03
1.145682280051192e+03 3.087845818818470e+02 2.918975276816622e+03
1.145658343983102e+03 3.071739793946218e+02 2.918975276816622e+03
1.145637518910032e+03 3.054174509929134e+02 2.918975276816622e+03
1.145610330838215e+03 3.032176253390167e+02 2.918975276816622e+03
1.145588896168090e+03 3.019872615572046e+02 2.918975276816622e+03
1.145554193885886e+03 3.003829534482566e+02 2.918975276816622e+03
1.145528260147456e+03 2.982069329197778e+02 2.918975276816622e+03
1.145518856871967e+03 2.963948204763861e+02 2.918975276816622e+03
1.145493925653743e+03 2.945198756477909e+02 2.918975276816622e+03
1.145466837675940e+03 2.928672338788244e+02 2.918975276816622e+03
1.145440956352866e+03 2.907604925937849e+02 2.918975276816622e+03
1.145414169595969e+03 2.883223020424438e+02 2.918975276816622e+03
1.145386934208654e+03 2.860188071026575e+02 2.918975276816622e+03
1.145359243483568e+03 2.838391040424321e+02 2.918975276816622e+03
1.145336290686614e+03 2.819771792957284e+02 2.918975276816622e+03
1.145304203544075e+03 2.792944112640751e+02 2.918975276816622e+03
1.145268469149864e+03 2.763375198070823e+02 2.918975276816622e+03
1.145236104774456e+03 2.732424216158255e+02 2.918975276816622e+03
1.145192812782816e+03 2.700339829078875e+02 2.918975276816622e+03
1.145145454885539e+03 2.677258123226588e+02 2.918975276816622e+03
1.145147580311659e+03 2.659222427018472e+02 2.918975276816622e+03
1.145140517751671e+03 2.638336366680525e+02 2.918975276816622e+03
1.145095189590379e+03 2.604016513869460e+02 2.918975276816622e+03
1.145084260289973e+03 2.581828590843807e+02 2.918975276816622e+03
1.145077512377706e+03 2.567971546757552e+02 2.918975276816622e+03
1.145060952700895e+03 2.544776033126172e+02 2.918975276816622e+03
1.145005130066308e+03 2.522364366907812e+02 2.918975276816622e+03
1.144993670034790e+03 2.506976275892918e+02 2.918975276816622e+03
1.145030638591445e+03 2.494010691846400e+02 2.918975276816622e+03
1.145023766606518e+03 2.478214285761811e+02 2.918975276816622e+03
1.144990355558041e+03 2.464589033621442e+02 2.918975276816622e+03
1.144982949644779e+03 2.451930517466126e+02 2.918975276816622e+03
1.145009735321534e+03 2.436940730450823e+02 2.918975276816622e+03
1.145021798893272e+03 2.416171876278776e+02 2.918975276816622e+03
1.145028849399833e+03 2.391737206634797e+02 2.918975276816622e+03
1.145035899906395e+03 2.367302536990819e+02 2.918975276816622e+03
1.144996712386386e+03 2.347292735336574e+02 2.918975276816622e+03
1.144747717050675e+03 2.326438557732708e+02 2.918975276816622e+03
1.144747124570075e+03 2.299400717156573e+02 2.918975276816622e+03
1.145192194311345e+03 2.279573733106402e+02 2.918975276816622e+03
1.145237604765552e+03 2.268497690154149e+02 2.918975276816622e+03
1.145005028708458e+03 2.249980231094989e+02 2.918975276816622e+03
1.144787445885705e+03 2.226921216393052e+02 2.918975276816622e+03
1.144802963524748e+03 2.209797707694125e+02 2.918975276816622e+03
1.145026765381098e+03 2.191204731124984e+02 2.918975276816622e+03
1.145085381873909e+03 2.168732306685795e+02 2.918975276816622e+03
1.145094331210756e+03 2.143096397052659e+02 2.918975276816622e+03
1.145019372365068e+03 2.120765238969692e+02 2.918975276816622e+03
1.144986612931737e+03 2.099829745637726e+02 2.918975276816622e+03
1.145025442498685e+03 2.081673102526825e+02 2.918975276816622e+03
1.145051422327054e+03 2.069562972188527e+02 2.918975276816622e+03
1.145018128906994e+03 2.061644895595914e+02 2.918975276816622e+03
1.144996084234846e+03 2.053482187429656e+02 2.918975276816622e+03
1.145024806311879e+03 2.043066462428155e+02 2.918975276816622e+03
1.145020813320119e+03 2.032260580257148e+02 2.918975276816622e+03
1.144970547331553e+03 2.017492948285404e+02 2.918975276816622e+03
1.144966772360550e+03 2.006439203321942e+02 2.918975276816622e+03
1.144995345904837e+03 1.990402266790874e+02 2.918975276816622e+03
1.144984462071601e+03 1.966085236978358e+02 2.918975276816622e+03
1.144955856677655e+03 1.938154218907061e+02 2.918975276816622e+03
1.144925559840635e+03 1.911599308580922e+02 2.918975276816622e+03
1.144911293121253e+03 1.890034494258720e+02 2.918975276816622e+03
1.144920730427447e+03 1.871207414714758e+02 2.918975276816622e+03
1.144922927036749e+03 1.849614191096607e+02 2.918975276816622e+03
1.144895315145699e+03 1.825167702084739e+02 2.918975276816622e+03
1.144895323571740e+03 1.808980979246031e+02 2.918975276816622e+03
1.144906510963181e+03 1.791762586303288e+02 2.918975276816622e+03
1.144902393225049e+03 1.767903370542060e+02 2.918975276816622e+03
1.144952028193884e+03 1.740882385022090e+02 2.918975276816622e+03
1.144941518627989e+03 1.717973062836072e+02 2.918975276816622e+03
1.144908882498847e+03 1.699366956313431e+02 2.918975276816622e+03
1.144936744066851e+03 1.683036761041227e+02 2.918975276816622e+03
1.144851751002516e+03 1.670177054492696e+02 2.918975276816622e+03
1.144791050083435e+03 1.647362453616711e+02 2.918975276816622e+03
1.144836222960648e+03 1.616368598369355e+02 2.918975276816622e+03
1.144881395837862e+03 1.585374743121999e+02 2.918975276816622e+03
1.145115477713059e+03 1.557260127545621e+02 2.918975276816622e+03
1.145298064012277e+03 1.527842702239395e+02 2.918975276816622e+03
1.145306616474772e+03 1.493157322385573e+02 2.918975276816622e+03
1.145416728887758e+03 1.467920830640875e+02 2.918975276816622e+03
1.145536692561574e+03 1.455404040581626e+02 2.918975276816622e+03
1.145533946710383e+03 1.450178442815993e+02 2.918975276816622e+03
1.145442182593218e+03 1.444522958577608e+02 2.918975276816622e+03
1.145373411588526e+03 1.428635362488180e+02 2.918975276816622e+03
1.145306442438307e+03 1.411173674433122e+02 2.918975276816622e+03
1.145247972419001e+03 1.393010204451437e+02 2.918975276816622e+03
1.145210839481995e+03 1.371023102994528e+02 2.918975276816622e+03
1.145164583924149e+03 1.344496615011554e+02 2.918975276816622e+03
1.145109328366422e+03 1.320799290822999e+02 2.918975276816622e+03
1.145090178674685e+03 1.300860988879736e+02 2.918975276816622e+03
1.145099995611247e+03 1.283486551061608e+02 2.918975276816622e+03
1.145136242455301e+03 1.271342715451009e+02 2.918975276816622e+03
1.145116213796684e+03 1.263928313801857e+02 2.918975276816622e+03
1.145076216185663e+03 1.256487283143173e+02 2.918975276816622e+03
1.145178087591766e+03 1.249877798261438e+02 2.918975276816622e+03
1.145185628253642e+03 1.243218783472895e+02 2.918975276816622e+03
1.145106291732825e+03 1.227670855198897e+02 2.918975276816622e+03
1.145076128562548e+03 1.212025748588702e+02 2.918975276816622e+03
1.145048965050020e+03 1.193908141465370e+02 2.918975276816622e+03
1.145055197348867e+03 1.171106227327184e+02 2.918975276816622e+03
1.145033977176911e+03 1.141917477167223e+02 2.918975276816622e+03
1.145015734667104e+03 1.114731053574764e+02 2.918975276816622e+03
1.145076940332841e+03 1.099295330494494e+02 2.918975276816622e+03
1.145095845222718e+03 1.080898906613721e+02 2.918975276816622e+03
1.145007879666855e+03 1.059907615762528e+02 2.918975276816622e+03
1.145028497613737e+03 1.035443769724136e+02 2.918975276816622e+03
1.145133059955441e+03 1.012577953514263e+02 2.918975276816622e+03
1.145187360467120e+03 9.931668939048218e+01 2.918975276816622e+03
1.145231589883986e+03 9.684126341271038e+01 2.918975276816622e+03
1.145267483075256e+03 9.468255367033187e+01 2.918975276816622e+03
1.145309525723510e+03 9.248369113603223e+01 2.918975276816622e+03
1.145366054054343e+03 8.992795957441814e+01 2.918975276816622e+03
1.145422582385176e+03 8.737222801280404e+01 2.918975276816622e+03
1.145479110716009e+03 8.481649645118996e+01 2.918975276816622e+03
1.145528248596868e+03 8.196017488258775e+01 2.918975276816622e+03
1.145583519104451e+03 7.927654808737697e+01 2.918975276816622e+03
1.145652312688731e+03 7.706620607254563e+01 2.918975276816622e+03
1.145709190197269e+03 7.457481266639081e+01 2.918975276816622e+03
1.145754151630064e+03 7.180236786891246e+01 2.918975276816622e+03
1.145810080613505e+03 6.894087838616767e+01 2.918975276816622e+03
1.145876977147592e+03 6.599034421815644e+01 2.918975276816622e+03
1.145925809085659e+03 6.363593166414987e+01 2.918975276816622e+03
1.145964696970808e+03 6.148141183636246e+01 2.918975276816622e+03
1.146011705399057e+03 5.893066312078955e+01 2.918975276816622e+03
1.146022680287257e+03 5.741218732680754e+01 2.918975276816622e+03
1.146045196559483e+03 5.610220809905086e+01 2.918975276816622e+03
1.146051113792784e+03 5.407751185926586e+01 2.918975276816622e+03
1.146066935830956e+03 5.188738506853521e+01 2.918975276816622e+03
1.146116786469377e+03 5.001499181230686e+01 2.918975276816622e+03
1.146120893836719e+03 4.857580547614094e+01 2.918975276816622e+03
1.146114529196111e+03 4.741343504016540e+01 2.918975276816622e+03
1.146115035905960e+03 4.560698478420336e+01 2.918975276816622e+03
1.146126421451773e+03 4.333333013895774e+01 2.918975276816622e+03
1.146132630088136e+03 4.226944771786648e+01 2.918975276816622e+03
1.146106339391739e+03 4.117882950339524e+01 2.918975276816622e+03
1.146084217129905e+03 3.928321248043681e+01 2.918975276816622e+03
1.146107139151160e+03 3.717218374902564e+01 2.918975276816622e+03
1.146096087748969e+03 3.497881719356963e+01 2.918975276816622e+03
1.146065456554160e+03 3.268162426314677e+01 2.918975276816622e+03
1.146062000996408e+03 3.032872970391814e+01 2.918975276816622e+03
1.146049131927810e+03 2.819445211195650e+01 2.918975276816622e+03
1.146027648646677e+03 2.543627870702705e+01 2.918975276816622e+03
1.146010284724700e+03 2.219078286384973e+01 2.918975276816622e+03
1.145988009844149e+03 1.913153986283035e+01 2.918975276816622e+03
1.145969373213799e+03 1.637299084967449e+01 2.918975276816622e+03
1.145962605853067e+03 1.408407332421118e+01 2.918975276816622e+03
1.145944190811680e+03 1.184652061768881e+01 2.918975276816622e+03
1.145903992116400e+03 1.021445570773559e+01 2.918975276816622e+03
1.145878804724635e+03 8.792762145290835e+00 2.918975276816622e+03
1.145810855938211e+03 6.188644213331339e+00 2.918975276816622e+03
1.145783754033012e+03 3.647035123763236e+00 2.918975276816622e+03
-1.157244233946621e+03 -6.158873106736495e-01 -2.918975276816622e+03
-1.157181533262333e+03 -4.119645450175861e+00 -2.918975276816622e+03
-1.157274175320832e+03  2.745527589850758e+00 -2.918975276816622e+03
-1.157271357384965e+03  5.964599251397360e+00 -2.918975276816622e+03
-1.157091113168874e+03 -6.997248198081169e+00 -2.918975276816622e+03
-1.156972973666244e+03 -9.248695554389577e+00 -2.918975276816622e+03
-1.157133178439919e+03 -1.042051730080716e+01 -2.918975276816622e+03
-1.157312115681670e+03 -1.215572814160896e+01 -2.918975276816622e+03
-1.157401117185620e+03 -1.438636449376709e+01 -2.918975276816622e+03
-1.157517926941041e+03 -1.582304330322025e+01 -2.918975276816622e+03
-1.157449297267032e+03 -1.788292749172804e+01 -2.918975276816622e+03
-1.157337095982547e+03 -2.021238540907670e+01 -2.918975276816622e+03
-1.157118651974952e+03 -2.169444257881866e+01 -2.918975276816622e+03
-1.156959685870539e+03 -2.388262997448883e+01 -2.918975276816622e+03
-1.157004390432397e+03 -2.710205457163758e+01 -2.918975276816622e+03
-1.157041632075177e+03 -2.955899116522492e+01 -2.918975276816622e+03
-1.157033460758904e+03 -3.177573352730717e+01 -2.918975276816622e+03
-1.157025976250752e+03 -3.365962869454145e+01 -2.918975276816622e+03
-1.157002441161681e+03 -3.522822641149240e+01 -2.918975276816622e+03
-1.157011817285754e+03 -3.660982777363197e+01 -2.918975276816622e+03
-1.156992990044164e+03 -3.887993352142737e+01 -2.918975276816622e+03
-1.156945604827846e+03 -4.099448461800517e+01 -2.918975276816622e+03
-1.156913335953959e+03 -4.249828724144915e+01 -2.918975276816622e+03
-1.156924194097483e+03 -4.442025745020489e+01 -2.918975276816622e+03
-1.156928104052085e+03 -4.546362937004446e+01 -2.918975276816622e+03
-1.156926020896817e+03 -4.653229251513620e+01 -2.918975276816622e+03
-1.156911802153734e+03 -4.857583252407014e+01 -2.918975276816622e+03
-1.156890700485698e+03 -5.007204818636461e+01 -2.918975276816622e+03
-1.156862427952272e+03 -5.123354650767576e+01 -2.918975276816622e+03
-1.156834593429668e+03 -5.358135834406618e+01 -2.918975276816622e+03
-1.156829331979405e+03 -5.563634878488879e+01 -2.918975276816622e+03
-1.156823837954648e+03 -5.739983297365752e+01 -2.918975276816622e+03
-1.156810909014790e+03 -5.958328357031331e+01 -2.918975276816622e+03
-1.156784170861166e+03 -6.097139269939798e+01 -2.918975276816622e+03
-1.156775861439558e+03 -6.247169683845305e+01 -2.918975276816622e+03
-1.156758388583634e+03 -6.423588368392801e+01 -2.918975276816622e+03
-1.156734020592136e+03 -6.534390949033627e+01 -2.918975276816622e+03
-1.156734224228469e+03 -6.659652139809019e+01 -2.918975276816622e+03
-1.156747775265895e+03 -6.867648914344241e+01 -2.918975276816622e+03
-1.156718313021527e+03 -7.017576596175208e+01 -2.918975276816622e+03
-1.156691940223571e+03 -7.120483724352398e+01 -2.918975276816622e+03
-1.156682874205773e+03 -7.264550629527484e+01 -2.918975276816622e+03
-1.156667629413403e+03 -7.429996511525160e+01 -2.918975276816622e+03
-1.156650798946626e+03 -7.577462813551737e+01 -2.918975276816622e+03
-1.156650441191424e+03 -7.657247274822167e+01 -2.918975276816622e+03
-1.156650061073246e+03 -7.775972989069859e+01 -2.918975276816622e+03
-1.156634208964230e+03 -7.952998235919482e+01 -2.918975276816622e+03
-1.156614786768469e+03 -8.085156628094531e+01 -2.918975276816622e+03
-1.156605532033910e+03 -8.236391325903494e+01 -2.918975276816622e+03
-1.156597034455640e+03 -8.413510784029147e+01 -2.918975276816622e+03
-1.156588364932598e+03 -8.539014635961435e+01 -2.918975276816622e+03
-1.156580574272825e+03 -8.666752291574234e+01 -2.918975276816622e+03
-1.156569994504340e+03 -8.857467050610552e+01 -2.918975276816622e+03
-1.156561991604746e+03 -9.008541819030796e+01 -2.918975276816622e+03
-1.156552205362668e+03 -9.119347463538202e+01 -2.918975276816622e+03
-1.156539411861693e+03 -9.361498616175464e+01 -2.918975276816622e+03
-1.156530791299712e+03 -9.582032558452502e+01 -2.918975276816622e+03
-1.156523695005231e+03 -9.767463669962724e+01 -2.918975276816622e+03
-1.156512485586310e+03 -1.000692581546376e+02 -2.918975276816622e+03
-1.156499580140556e+03 -1.012836397377609e+02 -2.918975276816622e+03
-1.156488445729321e+03 -1.024806853396034e+02 -2.918975276816622e+03
-1.156478973311645e+03 -1.044216406878270e+02 -2.918975276816622e+03
-1.156472184122596e+03 -1.059150821307980e+02 -2.918975276816622e+03
-1.156465774972906e+03 -1.068543025655863e+02 -2.918975276816622e+03
-1.156461905823345e+03 -1.083370625451577e+02 -2.918975276816622e+03
-1.156452003231972e+03 -1.101832536166714e+02 -2.918975276816622e+03
-1.156447690552112e+03 -1.118491026204385e+02 -2.918975276816622e+03
-1.156456460602171e+03 -1.131721474187313e+02 -2.918975276816622e+03
-1.156462468922064e+03 -1.146721821739665e+02 -2.918975276816622e+03
-1.156449984856775e+03 -1.170598810168729e+02 -2.918975276816622e+03
-1.156431105948764e+03 -1.193338216137220e+02 -2.918975276816622e+03
-1.156428789571937e+03 -1.208151382493432e+02 -2.918975276816622e+03
-1.156424942746819e+03 -1.223234862382118e+02 -2.918975276816622e+03
-1.156431668417118e+03 -1.242189864082878e+02 -2.918975276816622e+03
-1.156427721002657e+03 -1.254686490122050e+02 -2.918975276816622e+03
-1.156431821315153e+03 -1.266101405365683e+02 -2.918975276816622e+03
-1.156439778496530e+03 -1.285681651906890e+02 -2.918975276816622e+03
-1.156455945293038e+03 -1.307269761217022e+02 -2.918975276816622e+03
-1.156448094610076e+03 -1.320194041040843e+02 -2.918975276816622e+03
-1.156443612925972e+03 -1.328525397186968e+02 -2.918975276816622e+03
-1.156462317837568e+03 -1.342227234362331e+02 -2.918975276816622e+03
-1.156485774357776e+03 -1.356762848452736e+02 -2.918975276816622e+03
-1.156473346440487e+03 -1.373443486424683e+02 -2.918975276816622e+03
-1.156473651611913e+03 -1.394577747303834e+02 -2.918975276816622e+03
-1.156493706922271e+03 -1.408680414676454e+02 -2.918975276816622e+03
-1.156527987384834e+03 -1.424159698895443e+02 -2.918975276816622e+03
-1.156542309231882e+03 -1.442455550657234e+02 -2.918975276816622e+03
-1.156537800420876e+03 -1.454055698434686e+02 -2.918975276816622e+03
-1.156544745754052e+03 -1.467463306372027e+02 -2.918975276816622e+03
-1.156670457113930e+03 -1.496481874414815e+02 -2.918975276816622e+03
-1.156705371339144e+03 -1.533228571830397e+02 -2.918975276816622e+03
-1.156611295541922e+03 -1.556184923302947e+02 -2.918975276816622e+03
-1.156607862589069e+03 -1.574114973407322e+02 -2.918975276816622e+03
-1.156632220513293e+03 -1.595252978984784e+02 -2.918975276816622e+03
-1.156658501936076e+03 -1.607443056043255e+02 -2.918975276816622e+03
-1.156675218935367e+03 -1.622120282474621e+02 -2.918975276816622e+03
-1.156685542657378e+03 -1.638970923860162e+02 -2.918975276816622e+03
-1.156688724010112e+03 -1.651828091914142e+02 -2.918975276816622e+03
-1.156707250316719e+03 -1.666905569259696e+02 -2.918975276816622e+03
-1.156708203229390e+03 -1.687584276241780e+02 -2.918975276816622e+03
-1.156718698106114e+03 -1.711274975738694e+02 -2.918975276816622e+03
-1.156733959575431e+03 -1.726230060071566e+02 -2.918975276816622e+03
-1.156766123483080e+03 -1.750731340383833e+02 -2.918975276816622e+03
-1.156832504219828e+03 -1.783789510231290e+02 -2.918975276816622e+03
-1.156983841505243e+03 -1.810049644388912e+02 -2.918975276816622e+03
-1.156853022035792e+03 -1.834011479330397e+02 -2.918975276816622e+03
-1.156648927929369e+03 -1.854817457594679e+02 -2.918975276816622e+03
-1.156800066935224e+03 -1.867120437977902e+02 -2.918975276816622e+03
-1.156890386843840e+03 -1.881717359402058e+02 -2.918975276816622e+03
-1.156813224799350e+03 -1.904423762749327e+02 -2.918975276816622e+03
-1.156923670107319e+03 -1.931955319044403e+02 -2.918975276816622e+03
-1.156981433162127e+03 -1.961212835114545e+02 -2.918975276816622e+03
-1.156813870525274e+03 -1.979349942433134e+02 -2.918975276816622e+03
-1.156754984845971e+03 -1.994245567935308e+02 -2.918975276816622e+03
-1.156807265378058e+03 -2.006252604643249e+02 -2.918975276816622e+03
-1.156810720464159e+03 -2.020380525815834e+02 -2.918975276816622e+03
-1.156607510969070e+03 -2.038586995237096e+02 -2.918975276816622e+03
-1.156605780230995e+03 -2.051031908759157e+02 -2.918975276816622e+03
-1.156860425827017e+03 -2.064838205382144e+02 -2.918975276816622e+03
-1.156787790422233e+03 -2.085447851931393e+02 -2.918975276816622e+03
-1.156636261744324e+03 -2.111079235149028e+02 -2.918975276816622e+03
-1.156607944265259e+03 -2.138171184874138e+02 -2.918975276816622e+03
-1.156645539378950e+03 -2.151575831725934e+02 -2.918975276816622e+03
-1.156684498263028e+03 -2.166923540198835e+02 -2.918975276816622e+03
-1.156577792619349e+03 -2.195235387704454e+02 -2.918975276816622e+03
-1.156480799727822e+03 -2.208262390227430e+02 -2.918975276816622e+03
-1.156303233820891e+03 -2.220794633893657e+02 -2.918975276816622e+03
-1.156149280363027e+03 -2.243669671764633e+02 -2.918975276816622e+03
-1.156489414937106e+03 -2.253506078054640e+02 -2.918975276816622e+03
-1.156926637644274e+03 -2.260907866096270e+02 -2.918975276816622e+03
-1.156773001802771e+03 -2.284740309776361e+02 -2.918975276816622e+03
-1.156504014360228e+03 -2.314165549659680e+02 -2.918975276816622e+03
-1.156508547888470e+03 -2.341575876980913e+02 -2.918975276816622e+03
-1.156513081416711e+03 -2.368986204302147e+02 -2.918975276816622e+03
-1.156517614944953e+03 -2.396396531623380e+02 -2.918975276816622e+03
-1.156484667147230e+03 -2.425687603820414e+02 -2.918975276816622e+03
-1.156538244778667e+03 -2.454646172285147e+02 -2.918975276816622e+03
-1.156590607967195e+03 -2.479747967611717e+02 -2.918975276816622e+03
-1.156741060100095e+03 -2.497530029077386e+02 -2.918975276816622e+03
-1.156725773229563e+03 -2.510493188646874e+02 -2.918975276816622e+03
-1.156548350489175e+03 -2.532159687357463e+02 -2.918975276816622e+03
-1.156655068990058e+03 -2.555756214242826e+02 -2.918975276816622e+03
-1.156759133625127e+03 -2.584480017683600e+02 -2.918975276816622e+03
-1.156752660060673e+03 -2.615537055765051e+02 -2.918975276816622e+03
-1.156695530127798e+03 -2.637884048400105e+02 -2.918975276816622e+03
-1.156711141782487e+03 -2.658834982310593e+02 -2.918975276816622e+03
-1.156678397289390e+03 -2.676131118432854e+02 -2.918975276816622e+03
-1.156663607874999e+03 -2.689170584421672e+02 -2.918975276816622e+03
-1.156692749114287e+03 -2.698794632968439e+02 -2.918975276816622e+03
-1.156781433421913e+03 -2.709870422130430e+02 -2.918975276816622e+03
-1.156718529279677e+03 -2.724901406444042e+02 -2.918975276816622e+03
-1.156656842181784e+03 -2.752178150803717e+02 -2.918975276816622e+03
-1.156682701969561e+03 -2.783119786810738e+02 -2.918975276816622e+03
-1.156730728858031e+03 -2.807075880198123e+02 -2.918975276816622e+03
-1.156817459276632e+03 -2.839937690239008e+02 -2.918975276816622e+03
-1.156734271924807e+03 -2.863958379875504e+02 -2.918975276816622e+03
-1.156689263305417e+03 -2.879966579128845e+02 -2.918975276816622e+03
-1.156715170151566e+03 -2.912657131138403e+02 -2.918975276816622e+03
-1.156722646428223e+03 -2.940793374605369e+02 -2.918975276816622e+03
-1.156682929020299e+03 -2.964307043994348e+02 -2.918975276816622e+03
-1.156680654867781e+03 -2.995209811544368e+02 -2.918975276816622e+03
-1.156670331909761e+03 -3.014474331022801e+02 -2.918975276816622e+03
-1.156659507332528e+03 -3.028859743008348e+02 -2.918975276816622e+03
-1.156653456223215e+03 -3.047086288640915e+02 -2.918975276816622e+03
-1.156652709290105e+03 -3.066637766612274e+02 -2.918975276816622e+03
-1.156642886795742e+03 -3.086924843412216e+02 -2.918975276816622e+03
-1.156625752929606e+03 -3.109458473398400e+02 -2.918975276816622e+03
-1.156618461147515e+03 -3.137745997012718e+02 -2.918975276816622e+03
-1.156630036448651e+03 -3.164753020369135e+02 -2.918975276816622e+03
-1.156634165598475e+03 -3.183487626197750e+02 -2.918975276816622e+03
-1.156574249615059e+03 -3.195227865581572e+02 -2.918975276816622e+03
-1.156568893266546e+03 -3.210163911077469e+02 -2.918975276816622e+03
-1.156593082842789e+03 -3.227700046078162e+02 -2.918975276816622e+03
-1.156591962712501e+03 -3.240066196638837e+02 -2.918975276816622e+03
-1.156561781391325e+03 -3.252897064390156e+02 -2.918975276816622e+03
-1.156546260840718e+03 -3.265749448127947e+02 -2.918975276816622e+03
-1.156543619984142e+03 -3.279069302179971e+02 -2.918975276816622e+03
-1.156544296591825e+03 -3.293759897644656e+02 -2.918975276816622e+03
-1.156513309599894e+03 -3.305783097590145e+02 -2.918975276816622e+03
-1.156489720836842e+03 -3.329287756731291e+02 -2.918975276816622e+03
-1.156512171331906e+03 -3.349041234256918e+02 -2.918975276816622e+03
-1.156525695060737e+03 -3.358625433138988e+02 -2.918975276816622e+03
-1.156507784186217e+03 -3.374877398788458e+02 -2.918975276816622e+03
-1.156485503944529e+03 -3.399017594110855e+02 -2.918975276816622e+03
-1.156495752564817e+03 -3.420594664691207e+02 -2.918975276816622e+03
-1.156483748476014e+03 -3.434381255988366e+02 -2.918975276816622e+03
-1.156472818683823e+03 -3.452179710247302e+02 -2.918975276816622e+03
-1.156434988084973e+03 -3.474377910180426e+02 -2.918975276816622e+03
-1.156456593653226e+03 -3.485733430985142e+02 -2.918975276816622e+03
-1.156510319625943e+03 -3.497794089196430e+02 -2.918975276816622e+03
-1.156536729836022e+03 -3.521402563942695e+02 -2.918975276816622e+03
-1.156567193122592e+03 -3.554436181065267e+02 -2.918975276816622e+03
-1.156589739579802e+03 -3.581360832662330e+02 -2.918975276816622e+03
-1.156619088540550e+03 -3.604938754441513e+02 -2.918975276816622e+03
-1.156640271021583e+03 -3.625931717867608e+02 -2.918975276816622e+03
-1.156653576587047e+03 -3.638266292304338e+02 -2.918975276816622e+03
-1.156659011917842e+03 -3.659856895943772e+02 -2.918975276816622e+03
-1.156676512724530e+03 -3.691562247159221e+02 -2.918975276816622e+03
-1.156706741896348e+03 -3.718175351419540e+02 -2.918975276816622e+03
-1.156726800539679e+03 -3.733608946660605e+02 -2.918975276816622e+03
-1.156737318552417e+03 -3.754806984263441e+02 -2.918975276816622e+03
-1.156744127671927e+03 -3.772044037387145e+02 -2.918975276816622e+03
-1.156750486418043e+03 -3.787503322176974e+02 -2.918975276816622e+03
-1.156744987567190e+03 -3.800806184492074e+02 -2.918975276816622e+03
-1.156754901863499e+03 -3.813976859761683e+02 -2.918975276816622e+03
-1.156768446458309e+03 -3.843235363965417e+02 -2.918975276816622e+03
-1.156774192497616e+03 -3.862612113484645e+02 -2.918975276816622e+03
-1.156773003690620e+03  3.828316711391755e+02 -2.918975276816622e+03
-1.156768953933545e+03  3.848632072785780e+02 -2.918975276816622e+03
-1.156791928591146e+03  3.805029422919708e+02 -2.918975276816622e+03
-1.156805542820337e+03  3.781341678687110e+02 -2.918975276816622e+03
-1.156810309899674e+03  3.770614043082321e+02 -2.918975276816622e+03
-1.156744889522091e+03  3.750727415278830e+02 -2.918975276816622e+03
-1.156663110902645e+03  3.715392616517774e+02 -2.918975276816622e+03
-1.156772686751801e+03  3.681576388781588e+02 -2.918975276816622e+03
-1.157022183102979e+03  3.655317649602521e+02 -2.918975276816622e+03
-1.156985554868555e+03  3.622036350304023e+02 -2.918975276816622e+03
-1.156746418937981e+03  3.583173818243837e+02 -2.918975276816622e+03
-1.156727894587770e+03  3.558496734422104e+02 -2.918975276816622e+03
-1.156856408954411e+03  3.542205058103206e+02 -2.918975276816622e+03
-1.156855884360159e+03  3.516552595415731e+02 -2.918975276816622e+03
-1.156716276779071e+03  3.485898059737545e+02 -2.918975276816622e+03
-1.156682197567817e+03  3.452130251580113e+02 -2.918975276816622e+03
-1.156721217237168e+03  3.420395718193688e+02 -2.918975276816622e+03
-1.156727807417291e+03  3.393807732057520e+02 -2.918975276816622e+03
-1.156725583275232e+03  3.367271315799359e+02 -2.918975276816622e+03
-1.156715931113377e+03  3.341232622732665e+02 -2.918975276816622e+03
-1.156707665253911e+03  3.315640082979427e+02 -2.918975276816622e+03
-1.156699399394445e+03  3.290047543226190e+02 -2.918975276816622e+03
-1.156683457475759e+03  3.271219162362955e+02 -2.918975276816622e+03
-1.156672207578117e+03  3.248346612301136e+02 -2.918975276816622e+03
-1.156684405336227e+03  3.226000323579328e+02 -2.918975276816622e+03
-1.156686114819622e+03  3.210183664467617e+02 -2.918975276816622e+03
-1.156678470701971e+03  3.186485443377425e+02 -2.918975276816622e+03
-1.156679585189469e+03  3.160922446270557e+02 -2.918975276816622e+03
-1.156677244032967e+03  3.136571275307001e+02 -2.918975276816622e+03
-1.156675914054767e+03  3.114825902254489e+02 -2.918975276816622e+03
-1.156672694342589e+03  3.091212668240814e+02 -2.918975276816622e+03
-1.156657938333673e+03  3.064846574873506e+02 -2.918975276816622e+03
-1.156634546940300e+03  3.040201281024767e+02 -2.918975276816622e+03
-1.156648305430196e+03  3.027443662494451e+02 -2.918975276816622e+03
-1.156680645925606e+03  3.014611812919707e+02 -2.918975276816622e+03
-1.156694418543261e+03  2.989818056982116e+02 -2.918975276816622e+03
-1.156698730950480e+03  2.965734035045916e+02 -2.918975276816622e+03
-1.156709612858852e+03  2.948417030534850e+02 -2.918975276816622e+03
-1.156718076899896e+03  2.930098967793752e+02 -2.918975276816622e+03
-1.156736161253018e+03  2.909649164139103e+02 -2.918975276816622e+03
-1.156745504970990e+03  2.890609907869421e+02 -2.918975276816622e+03
-1.156763217468443e+03  2.872179523638923e+02 -2.918975276816622e+03
-1.156769204139731e+03  2.854860158894925e+02 -2.918975276816622e+03
-1.156793999478278e+03  2.832165218805286e+02 -2.918975276816622e+03
-1.156817458201029e+03  2.799986998011427e+02 -2.918975276816622e+03
-1.156830900347166e+03  2.778597298874849e+02 -2.918975276816622e+03
-1.156805924010791e+03  2.765107088724641e+02 -2.918975276816622e+03
-1.156823630436039e+03  2.746434632132746e+02 -2.918975276816622e+03
-1.156833121194970e+03  2.728186799004832e+02 -2.918975276816622e+03
-1.156815604611034e+03  2.715219834388075e+02 -2.918975276816622e+03
-1.156781647811650e+03  2.704684117013010e+02 -2.918975276816622e+03
-1.156803770339376e+03  2.678563432271364e+02 -2.918975276816622e+03
-1.156823077032497e+03  2.655132926435660e+02 -2.918975276816622e+03
-1.156848395519071e+03  2.637330559314356e+02 -2.918975276816622e+03
-1.156875406541604e+03  2.616818579706620e+02 -2.918975276816622e+03
-1.156887653649107e+03  2.604083462836504e+02 -2.918975276816622e+03
-1.156905570584609e+03  2.588668027524699e+02 -2.918975276816622e+03
-1.156930598654372e+03  2.572646029927603e+02 -2.918975276816622e+03
-1.156978487473594e+03  2.560235052936589e+02 -2.918975276816622e+03
-1.157032026264287e+03  2.546675253043849e+02 -2.918975276816622e+03
-1.157087292570920e+03  2.528670714018602e+02 -2.918975276816622e+03
-1.157138391980635e+03  2.511727761965555e+02 -2.918975276816622e+03
-1.157234422884120e+03  2.505004914632080e+02 -2.918975276816622e+03
-1.157159164822373e+03  2.488254097635644e+02 -2.918975276816622e+03
-1.157029114820483e+03  2.466716216378448e+02 -2.918975276816622e+03
-1.156931069059684e+03  2.451550184594238e+02 -2.918975276816622e+03
-1.156882892777763e+03  2.437291972447626e+02 -2.918975276816622e+03
-1.156818434964575e+03  2.420047053281299e+02 -2.918975276816622e+03
-1.156773404612140e+03  2.404772987140075e+02 -2.918975276816622e+03
-1.156737212640609e+03  2.392926186254101e+02 -2.918975276816622e+03
-1.156723347396243e+03  2.369820643747809e+02 -2.918975276816622e+03
-1.156684310924320e+03  2.348504056903450e+02 -2.918975276816622e+03
-1.156630276318506e+03  2.329770817783661e+02 -2.918975276816622e+03
-1.156590235408855e+03  2.307544319974696e+02 -2.918975276816622e+03
-1.156569210459618e+03  2.294960805395980e+02 -2.918975276816622e+03
-1.156543129004057e+03  2.280910538898214e+02 -2.918975276816622e+03
-1.156499511206131e+03  2.263459586154372e+02 -2.918975276816622e+03
-1.156479690776552e+03  2.252939297819308e+02 -2.918975276816622e+03
-1.156473200755655e+03  2.240922068275123e+02 -2.918975276816622e+03
-1.156431825605659e+03  2.220028160529207e+02 -2.918975276816622e+03
-1.156356427375936e+03  2.202049253835924e+02 -2.918975276816622e+03
-1.156330760080067e+03  2.190258458569038e+02 -2.918975276816622e+03
-1.156327034950908e+03  2.168860781856471e+02 -2.918975276816622e+03
-1.156276691280340e+03  2.149029305694960e+02 -2.918975276816622e+03
-1.156212812846123e+03  2.131907658559111e+02 -2.918975276816622e+03
-1.156179364817171e+03  2.110100072753603e+02 -2.918975276816622e+03
-1.156148560521725e+03  2.096081290193113e+02 -2.918975276816622e+03
-1.156064887849659e+03  2.081249592599708e+02 -2.918975276816622e+03
-1.156007742865634e+03  2.062125027807955e+02 -2.918975276816622e+03
-1.156080093443294e+03  2.049225723143351e+02 -2.918975276816622e+03
-1.156059899808753e+03  2.039618207107764e+02 -2.918975276816622e+03
-1.155968400105071e+03  2.021793096584092e+02 -2.918975276816622e+03
-1.156252006025958e+03  2.004287420368379e+02 -2.918975276816622e+03
-1.156291803483830e+03  1.989561538293866e+02 -2.918975276816622e+03
-1.155978835298761e+03  1.964967204713231e+02 -2.918975276816622e+03
-1.155936661990959e+03  1.938167922473741e+02 -2.918975276816622e+03
-1.155943930951358e+03  1.914148749546356e+02 -2.918975276816622e+03
-1.156117571372193e+03  1.901468787857817e+02 -2.918975276816622e+03
-1.156159234444222e+03  1.886623146586966e+02 -2.918975276816622e+03
-1.156019717441485e+03  1.865812063531380e+02 -2.918975276816622e+03
-1.156004271511224e+03  1.852440176842411e+02 -2.918975276816622e+03
-1.156036757902782e+03  1.838817496109850e+02 -2.918975276816622e+03
-1.156047103487253e+03  1.820255380524029e+02 -2.918975276816622e+03
-1.156020519494720e+03  1.805270258026452e+02 -2.918975276816622e+03
-1.155989849360392e+03  1.795021758699253e+02 -2.918975276816622e+03
-1.155995901507516e+03  1.770978789328617e+02 -2.918975276816622e+03
-1.156024628212636e+03  1.748785607253692e+02 -2.918975276816622e+03
-1.156023080395540e+03  1.731544154575252e+02 -2.918975276816622e+03
-1.156019067987343e+03  1.710255005617607e+02 -2.918975276816622e+03
-1.156028989411357e+03  1.696293869805586e+02 -2.918975276816622e+03
-1.156037839104268e+03  1.681288733445753e+02 -2.918975276816622e+03
-1.156027745531447e+03  1.664296183879343e+02 -2.918975276816622e+03
-1.156025839758208e+03  1.651858482386177e+02 -2.918975276816622e+03
-1.156033642883084e+03  1.639397465493092e+02 -2.918975276816622e+03
-1.156041556219544e+03  1.620702716433377e+02 -2.918975276816622e+03
-1.156043774742792e+03  1.604804463468395e+02 -2.918975276816622e+03
-1.156047163286707e+03  1.593288634794854e+02 -2.918975276816622e+03
-1.156049596044224e+03  1.571279673516093e+02 -2.918975276816622e+03
-1.156058495764516e+03  1.550740767702018e+02 -2.918975276816622e+03
-1.156067859706913e+03  1.531946349920817e+02 -2.918975276816622e+03
-1.156077281380598e+03  1.510394243993991e+02 -2.918975276816622e+03
-1.156066129656922e+03  1.497527778874232e+02 -2.918975276816622e+03
-1.156077184533417e+03  1.482217659633351e+02 -2.918975276816622e+03
-1.156099099315868e+03  1.463565710070659e+02 -2.918975276816622e+03
-1.156105749558364e+03  1.452017438748483e+02 -2.918975276816622e+03
-1.156097202175716e+03  1.440712322660562e+02 -2.918975276816622e+03
-1.156111499459484e+03  1.421008191692899e+02 -2.918975276816622e+03
-1.156123636415806e+03  1.404553456043596e+02 -2.918975276816622e+03
-1.156141560766780e+03  1.392899954079808e+02 -2.918975276816622e+03
-1.156149183266037e+03  1.370136999156454e+02 -2.918975276816622e+03
-1.156165224455216e+03  1.349281206263765e+02 -2.918975276816622e+03
-1.156167299623000e+03  1.331043769252359e+02 -2.918975276816622e+03
-1.156189433686326e+03  1.307698864359711e+02 -2.918975276816622e+03
-1.156216302656333e+03  1.294562856062318e+02 -2.918975276816622e+03
-1.156251702608449e+03  1.281555030597405e+02 -2.918975276816622e+03
-1.156270861439658e+03  1.264723442258930e+02 -2.918975276816622e+03
-1.156290861623648e+03  1.251486633147424e+02 -2.918975276816622e+03
-1.156290741802445e+03  1.237898906089073e+02 -2.918975276816622e+03
-1.156311509001722e+03  1.220580405558275e+02 -2.918975276816622e+03
-1.156349359999730e+03  1.205204827559884e+02 -2.918975276816622e+03
-1.156373364159410e+03  1.194239276313906e+02 -2.918975276816622e+03
-1.156411397779726e+03  1.170646507394793e+02 -2.918975276816622e+03
-1.156452918755387e+03  1.148641954031158e+02 -2.918975276816622e+03
-1.156475832190785e+03  1.131186537679159e+02 -2.918975276816622e+03
-1.156478867554881e+03  1.111808986998954e+02 -2.918975276816622e+03
-1.156514935792897e+03  1.100513072164802e+02 -2.918975276816622e+03
-1.156576047286411e+03  1.085470268679029e+02 -2.918975276816622e+03
-1.156582181747102e+03  1.068357441316815e+02 -2.918975276816622e+03
-1.156538677003827e+03  1.054474170649149e+02 -2.918975276816622e+03
-1.156544276957893e+03  1.040124283265638e+02 -2.918975276816622e+03
-1.156562158950361e+03  1.022019430798824e+02 -2.918975276816622e+03
-1.156571667879138e+03  1.007200691460343e+02 -2.918975276816622e+03
-1.156547290297402e+03  9.929212240729781e+01 -2.918975276816622e+03
-1.156560225396494e+03  9.760136069781831e+01 -2.918975276816622e+03
-1.156589227195049e+03  9.607002095146578e+01 -2.918975276816622e+03
-1.156600192140638e+03  9.317832445926224e+01 -2.918975276816622e+03
-1.156599310184868e+03  9.056648224391651e+01 -2.918975276816622e+03
-1.156608753714593e+03  8.901646232763100e+01 -2.918975276816622e+03
-1.156616317419872e+03  8.747577236534950e+01 -2.918975276816622e+03
-1.156615156649152e+03  8.670238633298922e+01 -2.918975276816622e+03
-1.156605352155718e+03  8.582581568512390e+01 -2.918975276816622e+03
-1.156625902392877e+03  8.389581035395622e+01 -2.918975276816622e+03
-1.156650451232413e+03  8.090851791420135e+01 -2.918975276816622e+03
-1.156672341919135e+03  7.774417943031575e+01 -2.918975276816622e+03
-1.156675722978074e+03  7.495276848764081e+01 -2.918975276816622e+03
-1.156687480561025e+03  7.261079863226432e+01 -2.918975276816622e+03
-1.156704643309985e+03  7.039694485607389e+01 -2.918975276816622e+03
-1.156695567269320e+03  6.818637812659942e+01 -2.918975276816622e+03
-1.156702091592134e+03  6.532220960552705e+01 -2.918975276816622e+03
-1.156780810118701e+03  6.308978856411665e+01 -2.918975276816622e+03
-1.156845298771517e+03  6.164874981658873e+01 -2.918975276816622e+03
-1.156862231141930e+03  5.938913203685517e+01 -2.918975276816622e+03
-1.156776504831314e+03  5.729699595413045e+01 -2.918975276816622e+03
-1.156785997801189e+03  5.494002869665373e+01 -2.918975276816622e+03
-1.156935956597331e+03  5.224745453651240e+01 -2.918975276816622e+03
-1.156974181088169e+03  5.031484040989048e+01 -2.918975276816622e+03
-1.156913483669544e+03  4.880788478285915e+01 -2.918975276816622e+03
-1.156932362628502e+03  4.726127355850517e+01 -2.918975276816622e+03
-1.156975760379059e+03  4.540196595449715e+01 -2.918975276816622e+03
-1.157005671096129e+03  4.316956117845643e+01 -2.918975276816622e+03
-1.157049782872056e+03  4.186726622334794e+01 -2.918975276816622e+03
-1.157074343837455e+03  4.028409205931562e+01 -2.918975276816622e+03
-1.157051521396903e+03  3.753917606790076e+01 -2.918975276816622e+03
-1.157033726102320e+03  3.456364169000443e+01 -2.918975276816622e+03
-1.157120759782184e+03  3.144578089828409e+01 -2.918975276816622e+03
-1.157200893690049e+03  2.933893009627120e+01 -2.918975276816622e+03
-1.157217019679188e+03  2.749799495269313e+01 -2.918975276816622e+03
-1.157176037521599e+03  2.491196547784256e+01 -2.918975276816622e+03
-1.157184827881724e+03  2.247489812341935e+01 -2.918975276816622e+03
-1.157243390759562e+03  2.018679288942352e+01 -2.918975276816622e+03
-1.157202999057566e+03  1.813171368258963e+01 -2.918975276816622e+03
-1.157215541480387e+03  1.654206024986484e+01 -2.918975276816622e+03
-1.157449638264941e+03  1.528373924306736e+01 -2.918975276816622e+03
-1.157446589565281e+03  1.400555209528935e+01 -2.918975276816622e+03
-1.157276475819304e+03  1.263057404386859e+01 -2.918975276816622e+03
-1.157263456099612e+03  1.085910050278054e+01 -2.918975276816622e+03
-1.157267784311225e+03  8.669123555707289e+00 -2.918975276816622e+03
 1.154545497943634e+03 -1.801454821361863e+00  2.918975276816622e+03
 1.154523076241341e+03 -3.408831877296792e-01  2.918975276816622e+03
 1.154529716186592e+03 -3.308293901829134e+00  2.918975276816622e+03
 1.154457964717094e+03 -5.754926853124584e+00  2.918975276816622e+03
 1.154404183090246e+03 -8.122424977954891e+00  2.918975276816622e+03
 1.154358612741171e+03 -1.050499837446540e+01  2.918975276816622e+03
 1.154321253669869e+03 -1.290264704265611e+01  2.918975276816622e+03
 1.154283894598567e+03 -1.530029571084682e+01  2.918975276816622e+03
 1.154239032868055e+03 -1.766733258175944e+01  2.918975276816622e+03
 1.154186668478330e+03 -2.000375765539398e+01  2.918975276816622e+03
 1.154133565542025e+03 -2.252488026684123e+01  2.918975276816622e+03
 1.154079724059140e+03 -2.523070041610119e+01  2.918975276816622e+03
 1.154063147669333e+03 -2.665541987519733e+01  2.918975276816622e+03
 1.154055080786673e+03 -2.848256868427984e+01  2.918975276816622e+03
 1.154019167301303e+03 -3.138444769874623e+01  2.918975276816622e+03
 1.153984162799155e+03 -3.367752687844625e+01  2.918975276816622e+03
 1.153950670308113e+03 -3.632647108491307e+01  2.918975276816622e+03
 1.153920545742516e+03 -3.909669473618722e+01  2.918975276816622e+03
 1.153892277091258e+03 -4.163233280550195e+01  2.918975276816622e+03
 1.153873461255652e+03 -4.438137688639355e+01  2.918975276816622e+03
 1.153830110550083e+03 -4.743762571818399e+01  2.918975276816622e+03
 1.153820288978928e+03 -5.001984502822359e+01  2.918975276816622e+03
 1.153795398706721e+03 -5.185729325926987e+01  2.918975276816622e+03
 1.153770565418055e+03 -5.343952567998536e+01  2.918975276816622e+03
 1.153746149469926e+03 -5.540186728977700e+01  2.918975276816622e+03
 1.153741444096393e+03 -5.769120398620179e+01  2.918975276816622e+03
 1.153743006049427e+03 -5.967296680100510e+01  2.918975276816622e+03
 1.153726689895708e+03 -6.117429034584703e+01  2.918975276816622e+03
 1.153716913084261e+03 -6.257631030464005e+01  2.918975276816622e+03
 1.153708628942574e+03 -6.433801927422195e+01  2.918975276816622e+03
 1.153725198128784e+03 -6.582544827027149e+01  2.918975276816622e+03
 1.153718881055764e+03 -6.782051268408524e+01  2.918975276816622e+03
 1.153704070767548e+03 -7.009023438797051e+01  2.918975276816622e+03
 1.153701719021288e+03 -7.143465262207071e+01  2.918975276816622e+03
 1.153713358822273e+03 -7.323907644557453e+01  2.918975276816622e+03
 1.153706851476363e+03 -7.630353297862632e+01  2.918975276816622e+03
 1.153688115902564e+03 -7.942291803600348e+01  2.918975276816622e+03
 1.153682851642921e+03 -8.129409438053747e+01  2.918975276816622e+03
 1.153716250308822e+03 -8.331559542929247e+01  2.918975276816622e+03
 1.153723136651074e+03 -8.541659224326308e+01  2.918975276816622e+03
 1.153684581188433e+03 -8.748799986210328e+01  2.918975276816622e+03
 1.153676985270067e+03 -8.980878969956892e+01  2.918975276816622e+03
 1.153686285438156e+03 -9.151399513729029e+01  2.918975276816622e+03
 1.153674554954292e+03 -9.350673076274838e+01  2.918975276816622e+03
 1.153668056295407e+03 -9.602196630374870e+01  2.918975276816622e+03
 1.153679079007751e+03 -9.762118103938057e+01  2.918975276816622e+03
 1.153685628889631e+03 -9.915765324045093e+01  2.918975276816622e+03
 1.153663666889125e+03 -1.020650979888226e+02  2.918975276816622e+03
 1.153600966564754e+03 -1.044102835515369e+02  2.918975276816622e+03
 1.153599661786560e+03 -1.056066112515875e+02  2.918975276816622e+03
 1.153670295913094e+03 -1.075211069521559e+02  2.918975276816622e+03
 1.153660904499024e+03 -1.097415064456406e+02  2.918975276816622e+03
 1.153620535093275e+03 -1.113629737594937e+02  2.918975276816622e+03
 1.153618072982122e+03 -1.134261017893076e+02  2.918975276816622e+03
 1.153633642008953e+03 -1.159406964899240e+02  2.918975276816622e+03
 1.153615445920924e+03 -1.188262383249672e+02  2.918975276816622e+03
 1.153578714492412e+03 -1.215541996693448e+02  2.918975276816622e+03
 1.153555122758593e+03 -1.238233339972039e+02  2.918975276816622e+03
 1.153577548861721e+03 -1.250164776726659e+02  2.918975276816622e+03
 1.153614134251621e+03 -1.270324060000778e+02  2.918975276816622e+03
 1.153700391370098e+03 -1.310554294258530e+02  2.918975276816622e+03
 1.153679291392987e+03 -1.343753015246492e+02  2.918975276816622e+03
 1.153469304041537e+03 -1.368837025024505e+02  2.918975276816622e+03
 1.153259316690087e+03 -1.393921034802519e+02  2.918975276816622e+03
 1.153049329338637e+03 -1.419005044580532e+02  2.918975276816622e+03
 1.153334203597735e+03 -1.442760107945627e+02  2.918975276816622e+03
 1.153710772279678e+03 -1.471341230159393e+02  2.918975276816622e+03
 1.153598127036460e+03 -1.497869645049732e+02  2.918975276816622e+03
 1.153555979210250e+03 -1.514814877053644e+02  2.918975276816622e+03
 1.153762214478702e+03 -1.533176056855254e+02  2.918975276816622e+03
 1.153809372491542e+03 -1.560950082058039e+02  2.918975276816622e+03
 1.153613504533288e+03 -1.590851918000641e+02  2.918975276816622e+03
 1.153544107729119e+03 -1.609799273101596e+02  2.918975276816622e+03
 1.153638726892700e+03 -1.620204840454668e+02  2.918975276816622e+03
 1.153648978266851e+03 -1.630364621846941e+02  2.918975276816622e+03
 1.153624570949078e+03 -1.646297965063460e+02  2.918975276816622e+03
 1.153632034497944e+03 -1.660416811400965e+02  2.918975276816622e+03
 1.153628871438149e+03 -1.675778494499852e+02  2.918975276816622e+03
 1.153625732863136e+03 -1.696047310306453e+02  2.918975276816622e+03
 1.153636627053766e+03 -1.713177304439692e+02  2.918975276816622e+03
 1.153649452538683e+03 -1.732234756197736e+02  2.918975276816622e+03
 1.153649614027906e+03 -1.761330653787934e+02  2.918975276816622e+03
 1.153571286263975e+03 -1.792789724135417e+02  2.918975276816622e+03
 1.153564489095064e+03 -1.822685423776006e+02  2.918975276816622e+03
 1.153848351711317e+03 -1.850766647273021e+02  2.918975276816622e+03
 1.153850565855098e+03 -1.872129142010869e+02  2.918975276816622e+03
 1.153612566039867e+03 -1.897762897075451e+02  2.918975276816622e+03
 1.153608084302386e+03 -1.928162725162094e+02  2.918975276816622e+03
 1.153644866209307e+03 -1.960555028422031e+02  2.918975276816622e+03
 1.153643609079674e+03 -1.994117562525019e+02  2.918975276816622e+03
 1.153656564731681e+03 -2.022751360817510e+02  2.918975276816622e+03
 1.153659532567513e+03 -2.048553859230967e+02  2.918975276816622e+03
 1.153662500403345e+03 -2.074356357644424e+02  2.918975276816622e+03
 1.153661942311903e+03 -2.098982606441585e+02  2.918975276816622e+03
 1.153664204456599e+03 -2.127676195292809e+02  2.918975276816622e+03
 1.153672812764706e+03 -2.161613373814390e+02  2.918975276816622e+03
 1.153684361517047e+03 -2.191461498134904e+02  2.918975276816622e+03
 1.153691441874302e+03 -2.219084594864047e+02  2.918975276816622e+03
 1.153690037965910e+03 -2.237489847158731e+02  2.918975276816622e+03
 1.153690426268200e+03 -2.249155316472200e+02  2.918975276816622e+03
 1.153698380650056e+03 -2.272621413872597e+02  2.918975276816622e+03
 1.153719481145750e+03 -2.296111764039560e+02  2.918975276816622e+03
 1.153723060782833e+03 -2.311363830980805e+02  2.918975276816622e+03
 1.153668243773268e+03 -2.332122161680181e+02  2.918975276816622e+03
 1.153658397766976e+03 -2.358305363898595e+02  2.918975276816622e+03
 1.153725950880714e+03 -2.383603177909619e+02  2.918975276816622e+03
 1.153765609074615e+03 -2.401694841243896e+02  2.918975276816622e+03
 1.153769536482578e+03 -2.426563483552111e+02  2.918975276816622e+03
 1.153774814211532e+03 -2.461245012089295e+02  2.918975276816622e+03
 1.153787554816884e+03 -2.489310560754326e+02  2.918975276816622e+03
 1.153798572111541e+03 -2.514930372968920e+02  2.918975276816622e+03
 1.153808993071359e+03 -2.541109167074856e+02  2.918975276816622e+03
 1.153818697181340e+03 -2.563488395951774e+02  2.918975276816622e+03
 1.153827808935137e+03 -2.590328174799491e+02  2.918975276816622e+03
 1.153834264238345e+03 -2.611278764806918e+02  2.918975276816622e+03
 1.153839939434864e+03 -2.625260051849676e+02  2.918975276816622e+03
 1.153847019134094e+03 -2.646980321859214e+02  2.918975276816622e+03
 1.153855755139256e+03 -2.671687414202664e+02  2.918975276816622e+03
 1.153863145706636e+03 -2.700369267058593e+02  2.918975276816622e+03
 1.153862102985436e+03 -2.719181107423758e+02  2.918975276816622e+03
 1.153867653067319e+03 -2.733165151838210e+02  2.918975276816622e+03
 1.153886512418216e+03 -2.759025965404439e+02  2.918975276816622e+03
 1.153888915990512e+03 -2.784685170657762e+02  2.918975276816622e+03
 1.153874913783646e+03 -2.798052087493729e+02  2.918975276816622e+03
 1.153881447398710e+03 -2.818140263487855e+02  2.918975276816622e+03
 1.153897259387565e+03 -2.847882883640259e+02  2.918975276816622e+03
 1.153900019388872e+03 -2.874336251472380e+02  2.918975276816622e+03
 1.153899649930270e+03 -2.900811247655387e+02  2.918975276816622e+03
 1.153899732153782e+03 -2.932637950328261e+02  2.918975276816622e+03
 1.153901777538928e+03 -2.958385007689254e+02  2.918975276816622e+03
 1.153916061198851e+03 -2.970306938202724e+02  2.918975276816622e+03
 1.153912060716903e+03 -2.976665808971366e+02  2.918975276816622e+03
 1.153897961836423e+03 -2.983122337144412e+02  2.918975276816622e+03
 1.153896054903394e+03 -2.999066230447630e+02  2.918975276816622e+03
 1.153887427379217e+03 -3.021230546777566e+02  2.918975276816622e+03
 1.153886714574589e+03 -3.035122567894180e+02  2.918975276816622e+03
 1.153883645772072e+03 -3.055962759850364e+02  2.918975276816622e+03
 1.153876136438615e+03 -3.084109089356975e+02  2.918975276816622e+03
 1.153893439666652e+03 -3.097474158217182e+02  2.918975276816622e+03
 1.153903287972713e+03 -3.105985279501086e+02  2.918975276816622e+03
 1.153857860988813e+03 -3.113630931720618e+02  2.918975276816622e+03
 1.153833610417024e+03 -3.125082543668840e+02  2.918975276816622e+03
 1.153854934695527e+03 -3.139737087476035e+02  2.918975276816622e+03
 1.153847584500223e+03 -3.161101067197242e+02  2.918975276816622e+03
 1.153818858661131e+03 -3.195498046740928e+02  2.918975276816622e+03
 1.153802092595654e+03 -3.225741573645165e+02  2.918975276816622e+03
 1.153794427028579e+03 -3.248989565503239e+02  2.918975276816622e+03
 1.153787206285127e+03 -3.273049692302127e+02  2.918975276816622e+03
 1.153780781766005e+03 -3.299966986761059e+02  2.918975276816622e+03
 1.153771374860222e+03 -3.318705123035879e+02  2.918975276816622e+03
 1.153725460075729e+03 -3.335584440820961e+02  2.918975276816622e+03
 1.153710952097021e+03 -3.366719470371477e+02  2.918975276816622e+03
 1.153742034739120e+03 -3.390684751447110e+02  2.918975276816622e+03
 1.153776178825766e+03 -3.417148982544302e+02  2.918975276816622e+03
 1.153619088338248e+03 -3.452509079431057e+02  2.918975276816622e+03
 1.153445197176594e+03 -3.486633895808795e+02  2.918975276816622e+03
 1.153845969328427e+03 -3.510528162020771e+02  2.918975276816622e+03
 1.153977020924012e+03 -3.531405305896176e+02  2.918975276816622e+03
 1.153675509349483e+03 -3.560147783433953e+02  2.918975276816622e+03
 1.153667154576024e+03 -3.586774872752935e+02  2.918975276816622e+03
 1.153712740453858e+03 -3.616396735623203e+02  2.918975276816622e+03
 1.153722592346251e+03 -3.639073857396806e+02  2.918975276816622e+03
 1.153710205395309e+03 -3.653023655080282e+02  2.918975276816622e+03
 1.153705653194398e+03 -3.663545873009574e+02  2.918975276816622e+03
 1.153708136330820e+03 -3.677825730823384e+02  2.918975276816622e+03
 1.153733031105049e+03 -3.698605261903827e+02  2.918975276816622e+03
 1.153753492441123e+03 -3.726189485584248e+02  2.918975276816622e+03
 1.153757546511456e+03 -3.751667425924778e+02  2.918975276816622e+03
 1.153785327790270e+03 -3.774036030475422e+02  2.918975276816622e+03
 1.153815213125694e+03 -3.801443414608194e+02  2.918975276816622e+03
 1.153755072451943e+03 -3.824494080294141e+02  2.918975276816622e+03
 1.153775348448467e+03 -3.836150581699064e+02  2.918975276816622e+03
 1.153895827335571e+03 -3.851159525504540e+02  2.918975276816622e+03
1.153885135239610e+03 3.845982585439192e+02 2.918975276816622e+03
1.153932706232156e+03 3.857913896693743e+02 2.918975276816622e+03
1.153833064886198e+03 3.827680111458214e+02 2.918975276816622e+03
1.153862334523061e+03 3.813193772392153e+02 2.918975276816622e+03
1.153887556178647e+03 3.799676085212499e+02 2.918975276816622e+03
1.153893980189304e+03 3.776980973870648e+02 2.918975276816622e+03
1.153907249913695e+03 3.749536549887689e+02 2.918975276816622e+03
1.153925023299517e+03 3.728308904831565e+02 2.918975276816622e+03
1.153937373055716e+03 3.715903557066215e+02 2.918975276816622e+03
1.153965872235682e+03 3.692087445923782e+02 2.918975276816622e+03
1.153987712669298e+03 3.670407970689131e+02 2.918975276816622e+03
1.153995102542461e+03 3.656743295067623e+02 2.918975276816622e+03
1.154014833567499e+03 3.636947214798072e+02 2.918975276816622e+03
1.154049689098780e+03 3.609385133578479e+02 2.918975276816622e+03
1.154077777840035e+03 3.585707945440315e+02 2.918975276816622e+03
1.154095702607569e+03 3.568433291134406e+02 2.918975276816622e+03
1.154122004735877e+03 3.545344641566765e+02 2.918975276816622e+03
1.154141095990676e+03 3.527104128660361e+02 2.918975276816622e+03
1.154156571269712e+03 3.513463277150218e+02 2.918975276816622e+03
1.154178281103000e+03 3.491676281144031e+02 2.918975276816622e+03
1.154205078589675e+03 3.465299850222811e+02 2.918975276816622e+03
1.154230049174558e+03 3.441418700085368e+02 2.918975276816622e+03
1.154245748115801e+03 3.424892034001412e+02 2.918975276816622e+03
1.154257686197651e+03 3.408332562472472e+02 2.918975276816622e+03
1.154268589921874e+03 3.385684277419081e+02 2.918975276816622e+03
1.154274775406014e+03 3.361839187555923e+02 2.918975276816622e+03
1.154280960890154e+03 3.337994097692763e+02 2.918975276816622e+03
1.154352486033102e+03 3.325934447615928e+02 2.918975276816622e+03
1.154415454624940e+03 3.314081723297685e+02 2.918975276816622e+03
1.154404527006863e+03 3.290650484951707e+02 2.918975276816622e+03
1.154390579071434e+03 3.272503434185403e+02 2.918975276816622e+03
1.154385236634348e+03 3.253764129259452e+02 2.918975276816622e+03
1.154391520012959e+03 3.229148382594176e+02 2.918975276816622e+03
1.154412562530412e+03 3.204925782367429e+02 2.918975276816622e+03
1.154411705432565e+03 3.177956600911435e+02 2.918975276816622e+03
1.154324938499245e+03 3.150284193279155e+02 2.918975276816622e+03
1.154318341775750e+03 3.125271167825684e+02 2.918975276816622e+03
1.154419117886777e+03 3.098493196618362e+02 2.918975276816622e+03
1.154419805555008e+03 3.067492969459221e+02 2.918975276816622e+03
1.154342453237076e+03 3.034258312789444e+02 2.918975276816622e+03
1.154297171608458e+03 3.007618532115129e+02 2.918975276816622e+03
1.154281971832791e+03 2.985280534731878e+02 2.918975276816622e+03
1.154264783220764e+03 2.960649444644231e+02 2.918975276816622e+03
1.154247774891383e+03 2.942935985625230e+02 2.918975276816622e+03
1.154222853460337e+03 2.923203966287013e+02 2.918975276816622e+03
1.154189838644981e+03 2.894535755560941e+02 2.918975276816622e+03
1.154178547719128e+03 2.879064500125705e+02 2.918975276816622e+03
1.154165237268441e+03 2.862792086165171e+02 2.918975276816622e+03
1.154128183403414e+03 2.832521558388501e+02 2.918975276816622e+03
1.154092768534474e+03 2.807797690405449e+02 2.918975276816622e+03
1.154066557018365e+03 2.783669862366007e+02 2.918975276816622e+03
1.154034074849623e+03 2.758919913017273e+02 2.918975276816622e+03
1.154004945722522e+03 2.729336691754222e+02 2.918975276816622e+03
1.153974551383933e+03 2.696494633692530e+02 2.918975276816622e+03
1.153942891658780e+03 2.663558551759373e+02 2.918975276816622e+03
1.153902735592562e+03 2.641184353332620e+02 2.918975276816622e+03
1.153885855336341e+03 2.622508059328562e+02 2.918975276816622e+03
1.153856906396297e+03 2.592931229957795e+02 2.918975276816622e+03
1.153839584022560e+03 2.570853804201469e+02 2.918975276816622e+03
1.153808871115059e+03 2.554511293352686e+02 2.918975276816622e+03
1.153796144699580e+03 2.538907379190359e+02 2.918975276816622e+03
1.153793379538050e+03 2.527890105337434e+02 2.918975276816622e+03
1.153802689466563e+03 2.514993069980246e+02 2.918975276816622e+03
1.153787046638231e+03 2.497131802804911e+02 2.918975276816622e+03
1.153754644519311e+03 2.486147624014216e+02 2.918975276816622e+03
1.153735072146031e+03 2.474414285129615e+02 2.918975276816622e+03
1.153725470336209e+03 2.461164420349580e+02 2.918975276816622e+03
1.153718628041762e+03 2.444837598729400e+02 2.918975276816622e+03
1.153711433892037e+03 2.425739313421426e+02 2.918975276816622e+03
1.153708307007905e+03 2.409779999937887e+02 2.918975276816622e+03
1.153703035579395e+03 2.391733543056588e+02 2.918975276816622e+03
1.153700682441364e+03 2.371178262290505e+02 2.918975276816622e+03
1.153684772087728e+03 2.345316696566841e+02 2.918975276816622e+03
1.153712844127101e+03 2.329899503809304e+02 2.918975276816622e+03
1.153741421464831e+03 2.314116512832148e+02 2.918975276816622e+03
1.153759647779860e+03 2.292914540737834e+02 2.918975276816622e+03
1.153711396169588e+03 2.275883430245829e+02 2.918975276816622e+03
1.153604636413779e+03 2.258848912119055e+02 2.918975276816622e+03
1.153688895855696e+03 2.248432358913443e+02 2.918975276816622e+03
1.153843669980054e+03 2.228600516110637e+02 2.918975276816622e+03
1.153797921662120e+03 2.197040203715200e+02 2.918975276816622e+03
1.153747353267707e+03 2.169043242855818e+02 2.918975276816622e+03
1.153727396839158e+03 2.144089615844825e+02 2.918975276816622e+03
1.153707440410610e+03 2.119135988833832e+02 2.918975276816622e+03
1.153722563039965e+03 2.101258079838636e+02 2.918975276816622e+03
1.153754635745763e+03 2.080938710606986e+02 2.918975276816622e+03
1.153768579470101e+03 2.051102163123086e+02 2.918975276816622e+03
1.153743448567368e+03 2.022684548701010e+02 2.918975276816622e+03
1.153719631560054e+03 1.996085328830791e+02 2.918975276816622e+03
1.153736203075232e+03 1.969885570450607e+02 2.918975276816622e+03
1.153742378287558e+03 1.940525595982750e+02 2.918975276816622e+03
1.153713169317349e+03 1.924242549974473e+02 2.918975276816622e+03
1.153687594802080e+03 1.911733046126769e+02 2.918975276816622e+03
1.153695177554842e+03 1.887305303179391e+02 2.918975276816622e+03
1.153699665573289e+03 1.858545121311807e+02 2.918975276816622e+03
1.153692936899812e+03 1.830625595591674e+02 2.918975276816622e+03
1.153690650601216e+03 1.804662016955344e+02 2.918975276816622e+03
1.153696393701695e+03 1.774935927048156e+02 2.918975276816622e+03
1.153700756484012e+03 1.746708797178215e+02 2.918975276816622e+03
1.153703738948167e+03 1.719980627345522e+02 2.918975276816622e+03
1.153706721412322e+03 1.693252457512829e+02 2.918975276816622e+03
1.153723595540366e+03 1.671294228393993e+02 2.918975276816622e+03
1.153735034463432e+03 1.650732438152518e+02 2.918975276816622e+03
1.153727146517630e+03 1.626797146074546e+02 2.918975276816622e+03
1.153719258571827e+03 1.602861853996574e+02 2.918975276816622e+03
1.153731003157052e+03 1.583750322539257e+02 2.918975276816622e+03
1.153745168001291e+03 1.563479492088649e+02 2.918975276816622e+03
1.153742120573518e+03 1.537225602024093e+02 2.918975276816622e+03
1.153739073145744e+03 1.510971711959537e+02 2.918975276816622e+03
1.153762508324008e+03 1.491296003799241e+02 2.918975276816622e+03
1.153776808229726e+03 1.467417478257730e+02 2.918975276816622e+03
1.153743007173791e+03 1.433391827597796e+02 2.918975276816622e+03
1.153725634692932e+03 1.404993196895143e+02 2.918975276816622e+03
1.153767023500263e+03 1.391040763473603e+02 2.918975276816622e+03
1.153804261001783e+03 1.375957737663403e+02 2.918975276816622e+03
1.153700525245936e+03 1.348165358725366e+02 2.918975276816622e+03
1.153489817168578e+03 1.318247270539038e+02 2.918975276816622e+03
1.153465953830260e+03 1.292503772366352e+02 2.918975276816622e+03
1.153618266112783e+03 1.275376978960851e+02 2.918975276816622e+03
1.153660839846022e+03 1.263890758474473e+02 2.918975276816622e+03
1.153674347627725e+03 1.252388010647582e+02 2.918975276816622e+03
1.153739636394912e+03 1.229230693341113e+02 2.918975276816622e+03
1.153367063790159e+03 1.211165841594585e+02 2.918975276816622e+03
1.153320916623884e+03 1.199017044952373e+02 2.918975276816622e+03
1.153817754488101e+03 1.175401961317842e+02 2.918975276816622e+03
1.154033533406608e+03 1.147078899866638e+02 2.918975276816622e+03
1.153964164222011e+03 1.121628465241251e+02 2.918975276816622e+03
1.153675120330092e+03 1.105651098693229e+02 2.918975276816622e+03
1.153313166182720e+03 1.084358086344617e+02 2.918975276816622e+03
1.153593004826276e+03 1.062579997073665e+02 2.918975276816622e+03
1.153954346083783e+03 1.050152766302194e+02 2.918975276816622e+03
1.153877517159081e+03 1.028827559580148e+02 2.918975276816622e+03
1.154106105315943e+03 1.003796283258012e+02 2.918975276816622e+03
1.154220567461506e+03 9.796953732042090e+01 2.918975276816622e+03
1.154098010500358e+03 9.505553894451100e+01 2.918975276816622e+03
1.154039521128523e+03 9.248197090597586e+01 2.918975276816622e+03
1.154123749615600e+03 8.950289516088020e+01 2.918975276816622e+03
1.154225704470495e+03 8.676002235785838e+01 2.918975276816622e+03
1.154283040200507e+03 8.430232662668477e+01 2.918975276816622e+03
1.154331924425733e+03 8.131459840410186e+01 2.918975276816622e+03
1.154391728639166e+03 7.909279750882934e+01 2.918975276816622e+03
1.154466952466840e+03 7.695248441105061e+01 2.918975276816622e+03
1.154521919638865e+03 7.429466320620671e+01 2.918975276816622e+03
1.154576886810890e+03 7.163684200136279e+01 2.918975276816622e+03
1.154631853982915e+03 6.897902079651888e+01 2.918975276816622e+03
1.154663906499244e+03 6.685313912603441e+01 2.918975276816622e+03
1.154690061459044e+03 6.422939609165792e+01 2.918975276816622e+03
1.154848318633779e+03 6.078993755398029e+01 2.918975276816622e+03
1.154936539027197e+03 5.720032639464730e+01 2.918975276816622e+03
1.154936119199818e+03 5.477690935659579e+01 2.918975276816622e+03
1.154859311737904e+03 5.292796939075755e+01 2.918975276816622e+03
1.154881230806045e+03 5.078616035425816e+01 2.918975276816622e+03
1.154918532020955e+03 4.880254415365967e+01 2.918975276816622e+03
1.154712210680216e+03 4.753689366120906e+01 2.918975276816622e+03
1.154630742729026e+03 4.605663889822738e+01 2.918975276816622e+03
1.154678091102651e+03 4.369437435984724e+01 2.918975276816622e+03
1.154749219327086e+03 4.238998427912333e+01 2.918975276816622e+03
1.154869396679577e+03 4.134448145363633e+01 2.918975276816622e+03
1.154870137821406e+03 3.988396988086708e+01 2.918975276816622e+03
1.154867112551987e+03 3.731432024187058e+01 2.918975276816622e+03
1.154875885115056e+03 3.485404995254265e+01 2.918975276816622e+03
1.154796102522025e+03 3.306282144255906e+01 2.918975276816622e+03
1.154784767411879e+03 3.108768475813289e+01 2.918975276816622e+03
1.154835102495144e+03 2.935496025149156e+01 2.918975276816622e+03
1.154841274515264e+03 2.698455100989680e+01 2.918975276816622e+03
1.154804127072406e+03 2.388201070076588e+01 2.918975276816622e+03
1.154818186102040e+03 2.073334368198355e+01 2.918975276816622e+03
1.154832245131675e+03 1.758467666320121e+01 2.918975276816622e+03
1.154770365302669e+03 1.527171590407861e+01 2.918975276816622e+03
1.154712671338937e+03 1.397758193172470e+01 2.918975276816622e+03
1.154733781478263e+03 1.248964321892787e+01 2.918975276816622e+03
1.154687485290091e+03 1.090421851080280e+01 2.918975276816622e+03
1.154635761190906e+03 9.049693232863149e+00 2.918975276816622e+03
1.154644694887353e+03 6.646628112885280e+00 2.918975276816622e+03
1.154644792354285e+03 4.897607709121115e+00 2.918975276816622e+03
1.154626084131813e+03 3.408406915788786e+00 2.918975276816622e+03
1.154570739364357e+03 1.671213610273611e+00 2.918975276816622e+03

CELLS 1361 5603
3 6 1373 7
3 6 1374 361
3 7 1375 8
3 8 1376 9
3 9 1377 10
3 10 1378 11
3 11 1379 12
4 12 1380 1381 13
3 13 1382 14
3 14 1383 15
3 15 1384 16
3 16 1385 17
3 17 1386 18
3 18 1387 19
4 19 1388 1389 20
3 20 1390 21
3 21 1391 22
4 22 1392 1393 23
3 23 1394 24
4 24 1395 1396 25
4 25 1397 1398 26
3 26 1399 27
3 27 1400 28
3 28 1401 29
3 29 1402 30
3 30 1403 31
3 31 1404 32
3 32 1405 33
3 33 1406 34
3 34 1407 35
3 35 1408 36
3 36 1409 37
3 37 1410 38
3 38 1411 39
3 39 1412 40
3 40 1413 41
3 41 1414 42
3 42 1415 43
3 43 1416 44
3 44 1417 45
3 45 1418 46
3 46 1419 47
3 47 1420 48
3 48 1421 49
3 49 1422 50
3 50 1423 51
3 51 1424 52
3 52 1425 53
3 53 1426 54
3 54 1427 55
3 55 1428 56
3 56 1429 57
3 57 1430 58
3 58 1431 59
3 59 1432 60
3 60 1433 61
3 61 1434 62
3 62 1435 63
3 63 1436 64
3 64 1437 65
3 65 1438 66
3 66 1439 67
3 67 1440 68
4 68 1441 1442 69
3 69 1443 70
3 70 1444 71
3 71 1445 72
3 72 1446 73
3 73 1447 74
3 74 1448 75
3 75 1449 76
3 76 1450 77
3 77 1451 78
3 78 1452 79
3 79 1453 80
3 80 1454 81
3 81 1455 82
3 82 1456 83
3 83 1457 84
3 84 1458 85
3 85 1459 86
3 86 1460 87
3 87 1461 88
3 88 1462 89
3 89 1463 90
3 90 1464 91
5 91 1465 1466 1467 92
3 92 1468 93
3 93 1469 94
3 94 1470 95
3 95 1471 96
3 96 1472 97
3 97 1473 98
4 98 1474 1475 99
3 99 1476 100
3 100 1477 101
3 101 1478 102
3 102 1479 103
3 103 1480 104
3 104 1481 105
3 105 1482 106
3 106 1483 107
3 107 1484 108
3 108 1485 109
3 109 1486 110
3 110 1487 111
3 111 1488 112
3 112 1489 113
3 113 1490 114
3 114 1491 115
3 115 1492 116
3 116 1493 117
3 117 1494 118
3 118 1495 119
4 119 1496 1497 120
3 120 1498 121
3 121 1499 122
3 122 1500 123
3 123 1501 124
3 124 1502 125
3 125 1503 126
3 126 1504 127
3 127 1505 128
3 128 1506 129
3 129 1507 130
3 130 1508 131
3 131 1509 132
3 132 1510 133
3 133 1511 134
3 134 1512 135
3 135 1513 136
3 136 1514 137
3 137 1515 138
3 138 1516 139
3 139 1517 140
3 140 1518 141
3 141 1519 142
3 142 1520 143
4 143 1521 1522 144
3 144 1523 145
3 145 1524 146
3 146 1525 147
3 147 1526 148
3 148 1527 149
3 149 1528 150
3 150 1529 151
5 151 1530 1531 1532 152
3 152 1533 153
3 153 1534 154
3 154 1535 155
3 155 1536 156
3 156 1537 157
3 157 1538 158
3 158 1539 159
3 159 1540 160
4 160 1541 1542 161
3 161 1543 162
3 162 1544 163
3 163 1545 164
3 164 1546 165
3 165 1547 166
3 166 1548 167
4 167 1549 1550 168
3 168 1551 169
3 169 1552 170
4 170 1553 1554 171
3 171 1555 172
3 172 1556 173
3 173 1557 174
5 174 1558 1559 1560 175
3 175 1561 176
3 176 1562 177
3 177 1563 178
3 178 1564 179
3 179 1565 180
3 180 1566 181
3 181 1567 182
3 182 1568 183
3 183 1569 184
3 184 1570 1365
4 185 1571 1572 186
3 185 1573 1366
3 186 1574 187
3 187 1575 188
3 188 1576 189
4 189 1577 1578 190
5 190 1579 1580 1581 191
3 191 1582 192
3 192 1583 193
3 193 1584 194
3 194 1585 195
3 195 1586 196
3 196 1587 197
3 197 1588 198
3 198 1589 199
3 199 1590 200
3 200 1591 201
5 201 1592 1593 1594 202
3 202 1595 203
3 203 1596 204
3 204 1597 205
3 205 1598 206
3 206 1599 207
3 207 1600 208
3 208 1601 209
3 209 1602 210
3 210 1603 211
3 211 1604 212
3 212 1605 213
3 213 1606 214
3 214 1607 215
5 215 1608 1609 1610 216
4 216 1611 1612 217
3 217 1613 218
3 218 1614 219
3 219 1615 220
3 220 1616 221
3 221 1617 222
3 222 1618 223
3 223 1619 224
3 224 1620 225
3 225 1621 226
3 226 1622 227
3 227 1623 228
3 228 1624 229
3 229 1625 230
3 230 1626 231
3 231 1627 232
3 232 1628 233
3 233 1629 234
3 234 1630 235
3 235 1631 236
4 236 1632 1633 237
3 237 1634 238
3 238 1635 239
3 239 1636 240
3 240 1637 241
3 241 1638 242
3 242 1639 243
3 243 1640 244
3 244 1641 245
3 245 1642 246
3 246 1643 247
3 247 1644 248
3 248 1645 249
3 249 1646 250
3 250 1647 251
3 251 1648 252
3 252 1649 253
3 253 1650 254
3 254 1651 255
3 255 1652 256
3 256 1653 257
3 257 1654 258
3 258 1655 259
3 259 1656 260
3 260 1657 261
3 261 1658 262
3 262 1659 263
3 263 1660 264
3 264 1661 265
4 265 1662 1663 266
3 266 1664 267
3 267 1665 268
3 268 1666 269
3 269 1667 270
3 270 1668 271
3 271 1669 272
3 272 1670 273
3 273 1671 274
3 274 1672 275
3 275 1673 276
3 276 1674 277
3 277 1675 278
3 278 1676 279
3 279 1677 280
3 280 1678 281
3 281 1679 282
3 282 1680 283
3 283 1681 284
3 284 1682 285
3 285 1683 286
3 286 1684 287
3 287 1685 288
3 288 1686 289
4 289 1687 1688 290
3 290 1689 291
3 291 1690 292
3 292 1691 293
3 293 1692 294
3 294 1693 295
3 295 1694 296
3 296 1695 297
3 297 1696 298
3 298 1697 299
3 299 1698 300
3 300 1699 301
3 301 1700 302
3 302 1701 303
3 303 1702 304
3 304 1703 305
3 305 1704 306
3 306 1705 307
3 307 1706 308
4 308 1707 1708 309
3 309 1709 310
3 310 1710 311
3 311 1711 312
3 312 1712 313
3 313 1713 314
3 314 1714 315
3 315 1715 316
3 316 1716 317
3 317 1717 318
3 318 1718 319
3 319 1719 320
3 320 1720 321
3 321 1721 322
3 322 1722 323
3 323 1723 324
3 324 1724 325
3 325 1725 326
3 326 1726 327
3 327 1727 328
3 328 1728 329
3 329 1729 330
3 330 1730 331
3 331 1731 332
3 332 1732 333
3 333 1733 334
3 334 1734 335
3 335 1735 336
3 336 1736 337
3 337 1737 338
3 338 1738 339
4 339 1739 1740 340
3 340 1741 341
3 341 1742 342
3 342 1743 343
3 343 1744 344
3 344 1745 345
3 345 1746 346
3 346 1747 347
3 347 1748 348
3 348 1749 349
3 349 1750 350
3 350 1751 351
4 351 1752 1753 352
3 352 1754 353
3 353 1755 354
3 354 1756 355
3 355 1757 356
3 356 1758 357
3 357 1759 358
4 358 1760 1761 359
3 359 1762 360
3 360 1763 361
3 363 1764 364
3 363 1765 692
3 364 1766 365
3 365 1767 366
3 366 1768 367
3 367 1769 368
3 368 1770 369
3 369 1771 370
3 370 1772 371
4 371 1773 1774 372
3 372 1775 373
3 373 1776 374
3 374 1777 375
3 375 1778 376
3 376 1779 377
3 377 1780 378
3 378 1781 379
4 379 1782 1783 380
3 380 1784 381
3 381 1785 382
3 382 1786 383
3 383 1787 384
3 384 1788 385
3 385 1789 386
3 386 1790 387
3 387 1791 388
3 388 1792 389
3 389 1793 390
3 390 1794 391
3 391 1795 392
3 392 1796 393
3 393 1797 394
3 394 1798 395
3 395 1799 396
3 396 1800 397
4 397 1801 1802 398
3 398 1803 399
3 399 1804 400
3 400 1805 401
3 401 1806 402
3 402 1807 403
3 403 1808 404
3 404 1809 405
3 405 1810 406
3 406 1811 407
3 407 1812 408
4 408 1813 1814 409
3 409 1815 410
3 410 1816 411
3 411 1817 412
3 412 1818 413
3 413 1819 414
3 414 1820 415
3 415 1821 416
3 416 1822 417
3 417 1823 418
3 418 1824 419
3 419 1825 420
4 420 1826 1827 421
4 421 1828 1829 422
3 422 1830 423
4 423 1831 1832 424
3 424 1833 425
3 425 1834 426
4 426 1835 1836 427
3 427 1837 428
3 428 1838 429
3 429 1839 430
3 430 1840 431
3 431 1841 432
3 432 1842 433
3 433 1843 434
4 434 1844 1845 435
3 435 1846 436
3 436 1847 437
3 437 1848 438
3 438 1849 439
3 439 1850 440
3 440 1851 441
3 441 1852 442
3 442 1853 443
3 443 1854 444
4 444 1855 1856 445
3 445 1857 446
3 446 1858 447
3 447 1859 448
3 448 1860 449
3 449 1861 450
3 450 1862 451
3 451 1863 452
4 452 1864 1865 453
3 453 1866 454
3 454 1867 455
3 455 1868 456
3 456 1869 457
3 457 1870 458
4 458 1871 1872 459
3 459 1873 460
3 460 1874 461
4 461 1875 1876 462
3 462 1877 463
3 463 1878 464
3 464 1879 465
3 465 1880 466
3 466 1881 467
3 467 1882 468
3 468 1883 469
3 469 1884 470
3 470 1885 471
3 471 1886 472
3 472 1887 473
4 473 1888 1889 474
4 474 1890 1891 475
4 475 1892 1893 476
3 476 1894 477
3 477 1895 478
3 478 1896 479
3 479 1897 480
3 480 1898 481
3 481 1899 482
4 482 1900 1901 483
3 483 1902 484
3 484 1903 485
3 485 1904 486
3 486 1905 487
3 487 1906 488
3 488 1907 489
3 489 1908 490
3 490 1909 491
3 491 1910 492
4 492 1911 1912 493
3 493 1913 494
3 494 1914 495
3 495 1915 496
3 496 1916 497
3 497 1917 498
3 498 1918 499
3 499 1919 500
3 500 1920 501
3 501 1921 502
3 502 1922 503
3 503 1923 504
3 504 1924 505
3 505 1925 506
3 506 1926 507
3 507 1927 508
3 508 1928 509
3 509 1929 510
3 510 1930 511
3 511 1931 512
3 512 1932 513
3 513 1933 514
3 514 1934 515
3 515 1935 516
3 516 1936 517
3 517 1937 518
4 518 1938 1939 519
3 519 1940 520
3 520 1941 521
3 521 1942 522
3 522 1943 523
3 523 1944 524
4 524 1945 1946 525
3 525 1947 526
3 526 1948 1367
3 527 1949 528
3 527 1950 1368
3 528 1951 529
3 529 1952 530
3 530 1953 531
3 531 1954 532
3 532 1955 533
3 533 1956 534
3 534 1957 535
3 535 1958 536
3 536 1959 537
3 537 1960 538
3 538 1961 539
3 539 1962 540
3 540 1963 541
3 541 1964 542
3 542 1965 543
3 543 1966 544
3 544 1967 545
3 545 1968 546
3 546 1969 547
3 547 1970 548
3 548 1971 549
3 549 1972 550
3 550 1973 551
3 551 1974 552
3 552 1975 553
3 553 1976 554
3 554 1977 555
3 555 1978 556
3 556 1979 557
3 557 1980 558
3 558 1981 559
3 559 1982 560
3 560 1983 561
3 561 1984 562
3 562 1985 563
3 563 1986 564
3 564 1987 565
3 565 1988 566
3 566 1989 567
4 567 1990 1991 568
3 568 1992 569
3 569 1993 570
3 570 1994 571
3 571 1995 572
3 572 1996 573
3 573 1997 574
4 574 1998 1999 575
3 575 2000 576
3 576 2001 577
3 577 2002 578
3 578 2003 579
3 579 2004 580
3 580 2005 581
4 581 2006 2007 582
3 582 2008 583
3 583 2009 584
3 584 2010 585
3 585 2011 586
4 586 2012 2013 587
3 587 2014 588
3 588 2015 589
3 589 2016 590
3 590 2017 591
3 591 2018 592
3 592 2019 593
3 593 2020 594
5 594 2021 2022 2023 595
3 595 2024 596
3 596 2025 597
3 597 2026 598
3 598 2027 599
3 599 2028 600
3 600 2029 601
3 601 2030 602
3 602 2031 603
4 603 2032 2033 604
3 604 2034 605
3 605 2035 606
3 606 2036 607
3 607 2037 608
3 608 2038 609
3 609 2039 610
3 610 2040 611
3 611 2041 612
3 612 2042 613
3 613 2043 614
3 614 2044 615
4 615 2045 2046 616
3 616 2047 617
4 617 2048 2049 618
3 618 2050 619
3 619 2051 620
3 620 2052 621
3 621 2053 622
4 622 2054 2055 623
3 623 2056 624
3 624 2057 625
3 625 2058 626
3 626 2059 627
3 627 2060 628
5 628 2061 2062 2063 629
3 629 2064 630
3 630 2065 631
3 631 2066 632
3 632 2067 633
3 633 2068 634
3 634 2069 635
3 635 2070 636
3 636 2071 637
3 637 2072 638
4 638 2073 2074 639
3 639 2075 640
3 640 2076 641
3 641 2077 642
3 642 2078 643
3 643 2079 644
3 644 2080 645
3 645 2081 646
3 646 2082 647
3 647 2083 648
3 648 2084 649
3 649 2085 650
4 650 2086 2087 651
3 651 2088 652
3 652 2089 653
3 653 2090 654
3 654 2091 655
3 655 2092 656
3 656 2093 657
3 657 2094 658
4 658 2095 2096 659
3 659 2097 660
6 660 2098 2099 2100 2101 661
3 661 2102 662
4 662 2103 2104 663
4 663 2105 2106 664
4 664 2107 2108 665
3 665 2109 666
4 666 2110 2111 667
3 667 2112 668
3 668 2113 669
3 669 2114 670
3 670 2115 671
3 671 2116 672
3 672 2117 673
3 673 2118 674
3 674 2119 675
3 675 2120 676
3 676 2121 677
3 677 2122 678
3 678 2123 679
3 679 2124 680
3 680 2125 681
4 681 2126 2127 682
3 682 2128 683
3 683 2129 684
3 684 2130 685
3 685 2131 686
4 686 2132 2133 687
3 687 2134 688
3 688 2135 689
3 689 2136 690
3 690 2137 691
3 691 2138 692
4 693 2139 2140 694
4 693 2141 2142 1064
4 694 2143 2144 695
3 695 2145 696
3 696 2146 697
3 697 2147 698
3 698 2148 699
4 699 2149 2150 700
3 700 2151 701
3 701 2152 702
3 702 2153 703
4 703 2154 2155 704
3 704 2156 705
3 705 2157 706
3 706 2158 707
3 707 2159 708
3 708 2160 709
3 709 2161 710
3 710 2162 711
3 711 2163 712
3 712 2164 713
3 713 2165 714
3 714 2166 715
3 715 2167 716
3 716 2168 717
3 717 2169 718
3 718 2170 719
3 719 2171 720
3 720 2172 721
3 721 2173 722
3 722 2174 723
3 723 2175 724
3 724 2176 725
3 725 2177 726
3 726 2178 727
3 727 2179 728
3 728 2180 729
3 729 2181 730
3 730 2182 731
3 731 2183 732
3 732 2184 733
3 733 2185 734
3 734 2186 735
3 735 2187 736
3 736 2188 737
3 737 2189 738
3 738 2190 739
3 739 2191 740
3 740 2192 741
3 741 2193 742
3 742 2194 743
3 743 2195 744
3 744 2196 745
3 745 2197 746
3 746 2198 747
3 747 2199 748
3 748 2200 749
3 749 2201 750
3 750 2202 751
3 751 2203 752
3 752 2204 753
3 753 2205 754
3 754 2206 755
4 755 2207 2208 756
3 756 2209 757
3 757 2210 758
3 758 2211 759
3 759 2212 760
3 760 2213 761
3 761 2214 762
3 762 2215 763
3 763 2216 764
3 764 2217 765
3 765 2218 766
3 766 2219 767
3 767 2220 768
3 768 2221 769
3 769 2222 770
3 770 2223 771
3 771 2224 772
3 772 2225 773
3 773 2226 774
3 774 2227 775
3 775 2228 776
3 776 2229 777
3 777 2230 778
3 778 2231 779
3 779 2232 780
3 780 2233 781
3 781 2234 782
3 782 2235 783
3 783 2236 784
3 784 2237 785
3 785 2238 786
3 786 2239 787
3 787 2240 788
3 788 2241 789
4 789 2242 2243 790
3 790 2244 791
3 791 2245 792
3 792 2246 793
3 793 2247 794
3 794 2248 795
3 795 2249 796
3 796 2250 797
3 797 2251 798
3 798 2252 799
3 799 2253 800
3 800 2254 801
3 801 2255 802
3 802 2256 803
3 803 2257 804
3 804 2258 805
4 805 2259 2260 806
3 806 2261 807
3 807 2262 808
3 808 2263 809
3 809 2264 810
3 810 2265 811
3 811 2266 812
3 812 2267 813
3 813 2268 814
3 814 2269 815
6 815 2270 2271 2272 2273 816
3 816 2274 817
3 817 2275 818
3 818 2276 819
3 819 2277 820
3 820 2278 821
3 821 2279 822
3 822 2280 823
3 823 2281 824
4 824 2282 2283 825
3 825 2284 826
3 826 2285 827
3 827 2286 828
3 828 2287 829
3 829 2288 830
3 830 2289 831
3 831 2290 832
3 832 2291 833
3 833 2292 834
3 834 2293 835
3 835 2294 836
3 836 2295 837
3 837 2296 838
3 838 2297 839
4 839 2298 2299 840
3 840 2300 841
3 841 2301 842
3 842 2302 843
3 843 2303 844
3 844 2304 845
4 845 2305 2306 846
3 846 2307 847
3 847 2308 848
3 848 2309 849
3 849 2310 850
3 850 2311 851
3 851 2312 852
3 852 2313 853
3 853 2314 854
3 854 2315 855
3 855 2316 856
3 856 2317 857
3 857 2318 858
3 858 2319 859
3 859 2320 860
3 860 2321 861
3 861 2322 862
3 862 2323 863
3 863 2324 864
4 864 2325 2326 865
3 865 2327 866
4 866 2328 2329 867
3 867 2330 868
3 868 2331 869
3 869 2332 870
3 870 2333 871
3 871 2334 872
3 872 2335 873
3 873 2336 874
3 874 2337 875
3 875 2338 876
3 876 2339 877
3 877 2340 878
3 878 2341 879
3 879 2342 880
3 880 2343 881
3 881 2344 882
3 882 2345 1369
3 883 2346 884
3 883 2347 1370
3 884 2348 885
3 885 2349 886
3 886 2350 887
3 887 2351 888
3 888 2352 889
4 889 2353 2354 890
3 890 2355 891
3 891 2356 892
3 892 2357 893
3 893 2358 894
4 894 2359 2360 895
3 895 2361 896
4 896 2362 2363 897
3 897 2364 898
5 898 2365 2366 2367 899
3 899 2368 900
3 900 2369 901
3 901 2370 902
3 902 2371 903
3 903 2372 904
4 904 2373 2374 905
3 905 2375 906
3 906 2376 907
4 907 2377 2378 908
3 908 2379 909
4 909 2380 2381 910
3 910 2382 911
3 911 2383 912
3 912 2384 913
3 913 2385 914
3 914 2386 915
3 915 2387 916
3 916 2388 917
3 917 2389 918
3 918 2390 919
3 919 2391 920
3 920 2392 921
3 921 2393 922
3 922 2394 923
3 923 2395 924
3 924 2396 925
3 925 2397 926
3 926 2398 927
3 927 2399 928
3 928 2400 929
3 929 2401 930
3 930 2402 931
3 931 2403 932
3 932 2404 933
3 933 2405 934
3 934 2406 935
3 935 2407 936
3 936 2408 937
3 937 2409 938
3 938 2410 939
3 939 2411 940
3 940 2412 941
3 941 2413 942
3 942 2414 943
3 943 2415 944
3 944 2416 945
3 945 2417 946
3 946 2418 947
3 947 2419 948
3 948 2420 949
3 949 2421 950
3 950 2422 951
3 951 2423 952
3 952 2424 953
3 953 2425 954
3 954 2426 955
3 955 2427 956
3 956 2428 957
3 957 2429 958
3 958 2430 959
3 959 2431 960
3 960 2432 961
3 961 2433 962
3 962 2434 963
3 963 2435 964
3 964 2436 965
3 965 2437 966
3 966 2438 967
3 967 2439 968
3 968 2440 969
4 969 2441 2442 970
3 970 2443 971
3 971 2444 972
3 972 2445 973
3 973 2446 974
3 974 2447 975
3 975 2448 976
3 976 2449 977
3 977 2450 978
3 978 2451 979
3 979 2452 980
3 980 2453 981
3 981 2454 982
3 982 2455 983
3 983 2456 984
3 984 2457 985
3 985 2458 986
3 986 2459 987
3 987 2460 988
3 988 2461 989
3 989 2462 990
3 990 2463 991
3 991 2464 992
3 992 2465 993
3 993 2466 994
3 994 2467 995
3 995 2468 996
3 996 2469 997
3 997 2470 998
3 998 2471 999
3 999 2472 1000
3 1000 2473 1001
3 1001 2474 1002
3 1002 2475 1003
3 1003 2476 1004
3 1004 2477 1005
3 1005 2478 1006
3 1006 2479 1007
3 1007 2480 1008
3 1008 2481 1009
3 1009 2482 1010
3 1010 2483 1011
3 1011 2484 1012
3 1012 2485 1013
3 1013 2486 1014
3 1014 2487 1015
3 1015 2488 1016
3 1016 2489 1017
3 1017 2490 1018
3 1018 2491 1019
3 1019 2492 1020
3 1020 2493 1021
3 1021 2494 1022
3 1022 2495 1023
3 1023 2496 1024
3 1024 2497 1025
3 1025 2498 1026
3 1026 2499 1027
3 1027 2500 1028
3 1028 2501 1029
3 1029 2502 1030
3 1030 2503 1031
3 1031 2504 1032
3 1032 2505 1033
3 1033 2506 1034
3 1034 2507 1035
3 1035 2508 1036
4 1036 2509 2510 1037
3 1037 2511 1038
3 1038 2512 1039
3 1039 2513 1040
3 1040 2514 1041
3 1041 2515 1042
4 1042 2516 2517 1043
3 1043 2518 1044
3 1044 2519 1045
3 1045 2520 1046
3 1046 2521 1047
3 1047 2522 1048
3 1048 2523 1049
3 1049 2524 1050
3 1050 2525 1051
3 1051 2526 1052
3 1052 2527 1053
3 1053 2528 1054
4 1054 2529 2530 1055
3 1055 2531 1056
4 1056 2532 2533 1057
4 1057 2534 2535 1058
3 1058 2536 1059
3 1059 2537 1060
3 1060 2538 1061
3 1061 2539 1062
3 1062 2540 1063
4 1063 2541 2542 1064
3 1066 2543 1067
3 1066 2544 1364
3 1067 2545 1068
4 1068 2546 2547 1069
5 1069 2548 2549 2550 1070
4 1070 2551 2552 1071
4 1071 2553 2554 1072
3 1072 2555 1073
3 1073 2556 1074
4 1074 2557 2558 1075
3 1075 2559 1076
4 1076 2560 2561 1077
3 1077 2562 1078
3 1078 2563 1079
3 1079 2564 1080
3 1080 2565 1081
3 1081 2566 1082
3 1082 2567 1083
3 1083 2568 1084
3 1084 2569 1085
3 1085 2570 1086
3 1086 2571 1087
3 1087 2572 1088
3 1088 2573 1089
3 1089 2574 1090
3 1090 2575 1091
3 1091 2576 1092
3 1092 2577 1093
3 1093 2578 1094
3 1094 2579 1095
3 1095 2580 1096
3 1096 2581 1097
3 1097 2582 1098
3 1098 2583 1099
3 1099 2584 1100
3 1100 2585 1101
3 1101 2586 1102
3 1102 2587 1103
3 1103 2588 1104
3 1104 2589 1105
3 1105 2590 1106
3 1106 2591 1107
3 1107 2592 1108
3 1108 2593 1109
3 1109 2594 1110
3 1110 2595 1111
3 1111 2596 1112
3 1112 2597 1113
3 1113 2598 1114
4 1114 2599 2600 1115
3 1115 2601 1116
3 1116 2602 1117
3 1117 2603 1118
6 1118 2604 2605 2606 2607 1119
3 1119 2608 1120
3 1120 2609 1121
3 1121 2610 1122
3 1122 2611 1123
3 1123 2612 1124
3 1124 2613 1125
3 1125 2614 1126
3 1126 2615 1127
3 1127 2616 1128
3 1128 2617 1129
3 1129 2618 1130
3 1130 2619 1131
3 1131 2620 1132
3 1132 2621 1133
3 1133 2622 1134
3 1134 2623 1135
3 1135 2624 1136
3 1136 2625 1137
3 1137 2626 1138
3 1138 2627 1139
3 1139 2628 1140
3 1140 2629 1141
3 1141 2630 1142
3 1142 2631 1143
3 1143 2632 1144
5 1144 2633 2634 2635 1145
3 1145 2636 1146
4 1146 2637 2638 1147
3 1147 2639 1148
3 1148 2640 1149
3 1149 2641 1150
3 1150 2642 1151
3 1151 2643 1152
3 1152 2644 1153
3 1153 2645 1154
3 1154 2646 1155
4 1155 2647 2648 1156
3 1156 2649 1157
3 1157 2650 1158
3 1158 2651 1159
4 1159 2652 2653 1160
3 1160 2654 1161
3 1161 2655 1162
3 1162 2656 1163
3 1163 2657 1164
4 1164 2658 2659 1165
3 1165 2660 1166
3 1166 2661 1167
3 1167 2662 1168
3 1168 2663 1169
3 1169 2664 1170
3 1170 2665 1171
3 1171 2666 1172
3 1172 2667 1173
3 1173 2668 1174
4 1174 2669 2670 1175
3 1175 2671 1176
3 1176 2672 1177
3 1177 2673 1178
3 1178 2674 1179
3 1179 2675 1180
4 1180 2676 2677 1181
3 1181 2678 1182
3 1182 2679 1183
3 1183 2680 1184
3 1184 2681 1185
3 1185 2682 1186
3 1186 2683 1187
3 1187 2684 1188
3 1188 2685 1189
3 1189 2686 1190
3 1190 2687 1191
4 1191 2688 2689 1192
3 1192 2690 1193
3 1193 2691 1194
3 1194 2692 1195
3 1195 2693 1196
3 1196 2694 1197
3 1197 2695 1198
3 1198 2696 1199
3 1199 2697 1200
3 1200 2698 1201
3 1201 2699 1202
3 1202 2700 1203
3 1203 2701 1204
3 1204 2702 1205
3 1205 2703 1206
3 1206 2704 1207
3 1207 2705 1208
3 1208 2706 1209
3 1209 2707 1210
3 1210 2708 1211
3 1211 2709 1212
3 1212 2710 1213
4 1213 2711 2712 1214
3 1214 2713 1215
3 1215 2714 1216
3 1216 2715 1371
3 1217 2716 1218
3 1217 2717 1372
3 1218 2718 1219
3 1219 2719 1220
4 1220 2720 2721 1221
3 1221 2722 1222
3 1222 2723 1223
3 1223 2724 1224
3 1224 2725 1225
3 1225 2726 1226
3 1226 2727 1227
3 1227 2728 1228
3 1228 2729 1229
3 1229 2730 1230
3 1230 2731 1231
3 1231 2732 1232
3 1232 2733 1233
3 1233 2734 1234
4 1234 2735 2736 1235
3 1235 2737 1236
3 1236 2738 1237
3 1237 2739 1238
5 1238 2740 2741 2742 1239
3 1239 2743 1240
4 1240 2744 2745 1241
3 1241 2746 1242
4 1242 2747 2748 1243
3 1243 2749 1244
3 1244 2750 1245
3 1245 2751 1246
3 1246 2752 1247
3 1247 2753 1248
4 1248 2754 2755 1249
3 1249 2756 1250
4 1250 2757 2758 1251
3 1251 2759 1252
4 1252 2760 2761 1253
3 1253 2762 1254
4 1254 2763 2764 1255
3 1255 2765 1256
3 1256 2766 1257
3 1257 2767 1258
3 1258 2768 1259
3 1259 2769 1260
3 1260 2770 1261
3 1261 2771 1262
3 1262 2772 1263
3 1263 2773 1264
3 1264 2774 1265
3 1265 2775 1266
3 1266 2776 1267
3 1267 2777 1268
3 1268 2778 1269
3 1269 2779 1270
3 1270 2780 1271
3 1271 2781 1272
3 1272 2782 1273
3 1273 2783 1274
3 1274 2784 1275
3 1275 2785 1276
3 1276 2786 1277
3 1277 2787 1278
3 1278 2788 1279
3 1279 2789 1280
3 1280 2790 1281
3 1281 2791 1282
3 1282 2792 1283
3 1283 2793 1284
3 1284 2794 1285
3 1285 2795 1286
3 1286 2796 1287
5 1287 2797 2798 2799 1288
3 1288 2800 1289
4 1289 2801 2802 1290
3 1290 2803 1291
4 1291 2804 2805 1292
3 1292 2806 1293
3 1293 2807 1294
3 1294 2808 1295
3 1295 2809 1296
3 1296 2810 1297
3 1297 2811 1298
4 1298 2812 2813 1299
5 1299 2814 2815 2816 1300
3 1300 2817 1301
5 1301 2818 2819 2820 1302
3 1302 2821 1303
5 1303 2822 2823 2824 1304
3 1304 2825 1305
3 1305 2826 1306
3 1306 2827 1307
3 1307 2828 1308
3 1308 2829 1309
3 1309 2830 1310
4 1310 2831 2832 1311
3 1311 2833 1312
3 1312 2834 1313
3 1313 2835 1314
3 1314 2836 1315
3 1315 2837 1316
3 1316 2838 1317
3 1317 2839 1318
3 1318 2840 1319
3 1319 2841 1320
3 1320 2842 1321
3 1321 2843 1322
3 1322 2844 1323
3 1323 2845 1324
3 1324 2846 1325
3 1325 2847 1326
3 1326 2848 1327
4 1327 2849 2850 1328
3 1328 2851 1329
3 1329 2852 1330
3 1330 2853 1331
3 1331 2854 1332
3 1332 2855 1333
3 1333 2856 1334
6 1334 2857 2858 2859 2860 1335
3 1335 2861 1336
3 1336 2862 1337
3 1337 2863 1338
3 1338 2864 1339
3 1339 2865 1340
3 1340 2866 1341
3 1341 2867 1342
3 1342 2868 1343
3 1343 2869 1344
3 1344 2870 1345
3 1345 2871 1346
3 1346 2872 1347
3 1347 2873 1348
3 1348 2874 1349
3 1349 2875 1350
3 1350 2876 1351
3 1351 2877 1352
3 1352 2878 1353
3 1353 2879 1354
3 1354 2880 1355
5 1355 2881 2882 2883 1356
3 1356 2884 1357
3 1357 2885 1358
3 1358 2886 1359
3 1359 2887 1360
4 1360 2888 2889 1361
3 1361 2890 1362
3 1362 2891 1363
3 1363 2892 1364

CELL_TYPES 1361
4
4
4
4
4
4
4
4
4
4
4
4
4
4
4
4
4
4
4
4
4
4
4
4
4
4
4
4
4
4
4
4
4
4
4
4
4
4
4
4
4
4
4
4
4
4
4
4
4
4
4
4
4
4
4
4
4
4
4
4
4
4
4
4
4
4
4
4
4
4
4
4
4
4
4
4
4
4
4
4
4
4
4
4
4
4
4
4
4
4
4
4
4
4
4
4
4
4
4
4
4
4
4
4
4
4
4
4
4
4
4
4
4
4
4
4
4
4
4
4
4
4
4
4
4
4
4
4
4
4
4
4
4
4
4
4
4
4
4
4
4
4
4
4
4
4
4
4
4
4
4
4
4
4
4
4
4
4
4
4
4
4
4
4
4
4
4
4
4
4
4
4
4
4
4
4
4
4
4
4
4
4
4
4
4
4
4
4
4
4
4
4
4
4
4
4
4
4
4
4
4
4
4
4
4
4
4
4
4
4
4
4
4
4
4
4
4
4
4
4
4
4
4
4
4
4
4
4
4
4
4
4
4
4
4
4
4
4
4
4
4
4
4
4
4
4
4
4
4
4
4
4
4
4
4
4
4
4
4
4
4
4
4
4
4
4
4
4
4
4
4
4
4
4
4
4
4
4
4
4
4
4
4
4
4
4
4
4
4
4
4
4
4
4
4
4
4
4
4
4
4
4
4
4
4
4
4
4
4
4
4
4
4
4
4
4
4
4
4
4
4
4
4
4
4
4
4
4
4
4
4
4
4
4
4
4
4
4
4
4
4
4
4
4
4
4
4
4
4
4
4
4
4
4
4
4
4
4
4
4
4
4
4
4
4
4
4
4
4
4
4
4
4
4
4
4
4
4
4
4
4
4
4
4
4
4
4
4
4
4
4
4
4
4
4
4
4
4
4
4
4
4
4
4
4
4
4
4
4
4
4
4
4
4
4
4
4
4
4
4
4
4
4
4
4
4
4
4
4
4
4
4
4
4
4
4
4
4
4
4
4
4
4
4
4
4
4
4
4
4
4
4
4
4
4
4
4
4
4
4
4
4
4
4
4
4
4
4
4
4
4
4
4
4
4
4
4
4
4
4
4
4
4
4
4
4
4
4
4
4
4
4
4
4
4
4
4
4
4
4
4
4
4
4
4
4
4
4
4
4
4
4
4
4
4
4
4
4
4
4
4
4
4
4
4
4
4
4
4
4
4
4
4
4
4
4
4
4
4
4
4
4
4
4
4
4
4
4
4
4
4
4
4
4
4
4
4
4
4
4
4
4
4
4
4
4
4
4
4
4
4
4
4
4
4
4
4
4
4
4
4
4
4
4
4
4
4
4
4
4
4
4
4
4
4
4
4
4
4
4
4
4
4
4
4
4
4
4
4
4
4
4
4
4
4
4
4
4
4
4
4
4
4
4
4
4
4
4
4
4
4
4
4
4
4
4
4
4
4
4
4
4
4
4
4
4
4
4
4
4
4
4
4
4
4
4
4
4
4
4
4
4
4
4
4
4
4
4
4
4
4
4
4
4
4
4
4
4
4
4
4
4
4
4
4
4
4
4
4
4
4
4
4
4
4
4
4
4
4
4
4
4
4
4
4
4
4
4
4
4
4
4
4
4
4
4
4
4
4
4
4
4
4
4
4
4
4
4
4
4
4
4
4
4
4
4
4
4
4
4
4
4
4
4
4
4
4
4
4
4
4
4
4
4
4
4
4
4
4
4
4
4
4
4
4
4
4
4
4
4
4
4
4
4
4
4
4
4
4
4
4
4
4
4
4
4
4
4
4
4
4
4
4
4
4
4
4
4
4
4
4
4
4
4
4
4
4
4
4
4
4
4
4
4
4
4
4
4
4
4
4
4
4
4
4
4
4
4
4
4
4
4
4
4
4
4
4
4
4
4
4
4
4
4
4
4
4
4
4
4
4
4
4
4
4
4
4
4
4
4
4
4
4
4
4
4
4
4
4
4
4
4
4
4
4
4
4
4
4
4
4
4
4
4
4
4
4
4
4
4
4
4
4
4
4
4
4
4
4
4
4
4
4
4
4
4
4
4
4
4
4
4
4
4
4
4
4
4
4
4
4
4
4
4
4
4
4
4
4
4
4
4
4
4
4
4
4
4
4
4
4
4
4
4
4
4
4
4
4
4
4
4
4
4
4
4
4
4
4
4
4
4
4
4
4
4
4
4
4
4
4
4
4
4
4
4
4
4
4
4
4
4
4
4
4
4
4
4
4
4
4
4
4
4
4
4
4
4
4
4
4
4
4
4
4
4
4
4
4
4
4
4
4
4
4
4
4
4
4
4
4
4
4
4
4
4
4
4
4
4
4
4
4
4
4
4
4
4
4
4
4
4
4
4
4
4
4
4
4
4
4
4
4
4
4
4
4
4
4
4
4
4
4
4
4
4
4
4
4
4
4
4
4
4
4
4
4
4
4
4
4
4
4
4
4
4
4
4
4
4
4
4
4
4
4
4
4
4
4
4
4
4
4
4
4
4
4
4
4
4
4
4
4
4
4
4
4
4
4
4
4
4
4
4
4
4
4
4
4
4
4
4
4
4
4
4
4
4
4
4
4
4
4
4
4
4
4
4
4
4
4
4
4
4
4
4
4
4
4
4
4
4
4
4
4
4
4
4
4
4
4
4
4
4
4
4
4
4
4
4
4
4
4
4
4
4
4
4
4
4
4
4
4
4
4
4
4
4
4
4
4
4
4
4
4
4
4
4
4
4
4
4
4
4
4
4
4
4
4
4
4
4
4
4
4
4
4
4
4
4
4
4
4
4
4
4
4
4
4
4
4
4
4
4
4
4
4
4
4
4
4
4
4
4
4
4
4
4
4
4
4
4
4
4
4
4
4
4
4
4
4
4
4
4
4
4
4
4
4
4
4
4
4
4
4
4
4
4
4
4
4
4
4
4
4
4
4
4
4
4
4
4
4
4
4
4
4
4
4
4
4
4
4
4
4
4
4
4
4
4
4
4
4
4
4
4
4
4
4
4
4
4
4
4
4
4
4
4
4
4
4
4
4
4
4
4
4
4
4
4
4
4
4
4
4
4
4
4
4
4
4

POINT_DATA 2893
VECTORS PK_force double
0.000000000000000e+00 0.000000000000000e+00 0.000000000000000e+00
0.000000000000000e+00 0.000000000000000e+00 0.000000000000000e+00
0.000000000000000e+00 0.000000000000000e+00 0.000000000000000e+00
0.000000000000000e+00 0.000000000000000e+00 0.000000000000000e+00
0.000000000000000e+00 0.000000000000000e+00 0.000000000000000e+00
0.000000000000000e+00 0.000000000000000e+00 0.000000000000000e+00
0.000000000000000e+00 0.000000000000000e+00 0.000000000000000e+00
0.000000000000000e+00 0.000000000000000e+00 0.000000000000000e+00
0.000000000000000e+00 0.000000000000000e+00 0.000000000000000e+00
0.000000000000000e+00 0.000000000000000e+00 0.000000000000000e+00
0.000000000000000e+00 0.000000000000000e+00 0.000000000000000e+00
0.000000000000000e+00 0.000000000000000e+00 0.000000000000000e+00
0.000000000000000e+00 0.000000000000000e+00 0.000000000000000e+00
0.000000000000000e+00 0.000000000000000e+00 0.000000000000000e+00
0.000000000000000e+00 0.000000000000000e+00 0.000000000000000e+00
0.000000000000000e+00 0.000000000000000e+00 0.000000000000000e+00
0.000000000000000e+00 0.000000000000000e+00 0.000000000000000e+00
0.000000000000000e+00 0.000000000000000e+00 0.000000000000000e+00
0.000000000000000e+00 0.000000000000000e+00 0.000000000000000e+00
0.000000000000000e+00 0.000000000000000e+00 0.000000000000000e+00
0.000000000000000e+00 0.000000000000000e+00 0.000000000000000e+00
0.000000000000000e+00 0.000000000000000e+00 0.000000000000000e+00
0.000000000000000e+00 0.000000000000000e+00 0.000000000000000e+00
0.000000000000000e+00 0.000000000000000e+00 0.000000000000000e+00
0.000000000000000e+00 0.000000000000000e+00 0.000000000000000e+00
0.000000000000000e+00 0.000000000000000e+00 0.000000000000000e+00
0.000000000000000e+00 0.000000000000000e+00 0.000000000000000e+00
0.000000000000000e+00 0.000000000000000e+00 0.000000000000000e+00
0.000000000000000e+00 0.000000000000000e+00 0.000000000000000e+00
0.000000000000000e+00 0.000000000000000e+00 0.000000000000000e+00
0.000000000000000e+00 0.000000000000000e+00 0.000000000000000e+00
0.000000000000000e+00 0.000000000000000e+00 0.000000000000000e+00
0.000000000000000e+00 0.000000000000000e+00 0.000000000000000e+00
0.000000000000000e+00 0.000000000000000e+00 0.000000000000000e+00
0.000000000000000e+00 0.000000000000000e+00 0.000000000000000e+00
0.000000000000000e+00 0.000000000000000e+00 0.000000000000000e+00
0.000000000000000e+00 0.000000000000000e+00 0.000000000000000e+00
0.000000000000000e+00 0.000000000000000e+00 0.000000000000000e+00
0.000000000000000e+00 0.000000000000000e+00 0.000000000000000e+00
0.000000000000000e+00 0.000000000000000e+00 0.000000000000000e+00
0.000000000000000e+00 0.000000000000000e+00 0.000000000000000e+00
0.000000000000000e+00 0.000000000000000e+00 0.000000000000000e+00
0.000000000000000e+00 0.000000000000000e+00 0.000000000000000e+00
0.000000000000000e+00 0.000000000000000e+00 0.000000000000000e+00
0.000000000000000e+00 0.000000000000000e+00 0.000000000000000e+00
0.000000000000000e+00 0.000000000000000e+00 0.000000000000000e+00
0.000000000000000e+00 0.000000000000000e+00 0.000000000000000e+00
0.000000000000000e+00 0.000000000000000e+00 0.000000000000000e+00
0.000000000000000e+00 0.000000000000000e+00 0.000000000000000e+00
0.000000000000000e+00 0.000000000000000e+00 0.000000000000000e+00
0.000000000000000e+00 0.000000000000000e+00 0.000000000000000e+00
0.000000000000000e+00 0.000000000000000e+00 0.000000000000000e+00
0.000000000000000e+00 0.000000000000000e+00 0.000000000000000e+00
0.000000000000000e+00 0.000000000000000e+00 0.000000000000000e+00
0.000000000000000e+00 0.000000000000000e+00 0.000000000000000e+00
0.000000000000000e+00 0.000000000000000e+00 0.000000000000000e+00
0.000000000000000e+00 0.000000000000000e+00 0.000000000000000e+00
0.000000000000000e+00 0.000000000000000e+00 0.000000000000000e+00
0.000000000000000e+00 0.000000000000000e+00 0.000000000000000e+00
0.000000000000000e+00 0.000000000000000e+00 0.000000000000000e+00
0.000000000000000e+00 0.000000000000000e+00 0.000000000000000e+00
0.000000000000000e+00 0.000000000000000e+00 0.000000000000000e+00
0.000000000000000e+00 0.000000000000000e+00 0.000000000000000e+00
0.000000000000000e+00 0.000000000000000e+00 0.000000000000000e+00
0.000000000000000e+00 0.000000000000000e+00 0.000000000000000e+00
0.000000000000000e+00 0.000000000000000e+00 0.000000000000000e+00
0.000000000000000e+00 0.000000000000000e+00 0.000000000000000e+00
0.000000000000000e+00 0.000000000000000e+00 0.000000000000000e+00
0.000000000000000e+00 0.000000000000000e+00 0.000000000000000e+00
0.000000000000000e+00 0.000000000000000e+00 0.000000000000000e+00
0.000000000000000e+00 0.000000000000000e+00 0.000000000000000e+00
0.000000000000000e+00 0.000000000000000e+00 0.000000000000000e+00
0.000000000000000e+00 0.000000000000000e+00 0.000000000000000e+00
0.000000000000000e+00 0.000000000000000e+00 0.000000000000000e+00
0.000000000000000e+00 0.000000000000000e+00 0.000000000000000e+00
0.000000000000000e+00 0.000000000000000e+00 0.000000000000000e+00
0.000000000000000e+00 0.000000000000000e+00 0.000000000000000e+00
0.000000000000000e+00 0.000000000000000e+00 0.000000000000000e+00
0.000000000000000e+00 0.000000000000000e+00 0.000000000000000e+00
0.000000000000000e+00 0.000000000000000e+00 0.000000000000000e+00
0.000000000000000e+00 0.000000000000000e+00 0.000000000000000e+00
0.000000000000000e+00 0.000000000000000e+00 0.000000000000000e+00
0.000000000000000e+00 0.000000000000000e+00 0.000000000000000e+00
0.000000000000000e+00 0.000000000000000e+00 0.000000000000000e+00
0.000000000000000e+00 0.000000000000000e+00 0.000000000000000e+00
0.000000000000000e+00 0.000000000000000e+00 0.000000000000000e+00
0.000000000000000e+00 0.000000000000000e+00 0.000000000000000e+00
0.000000000000000e+00 0.000000000000000e+00 0.000000000000000e+00
0.000000000000000e+00 0.000000000000000e+00 0.000000000000000e+00
0.000000000000000e+00 0.000000000000000e+00 0.000000000000000e+00
0.000000000000000e+00 0.000000000000000e+00 0.000000000000000e+00
0.000000000000000e+00 0.000000000000000e+00 0.000000000000000e+00
0.000000000000000e+00 0.000000000000000e+00 0.000000000000000e+00
0.000000000000000e+00 0.000000000000000e+00 0.000000000000000e+00
0.000000000000000e+00 0.000000000000000e+00 0.000000000000000e+00
0.000000000000000e+00 0.000000000000000e+00 0.000000000000000e+00
0.000000000000000e+00 0.000000000000000e+00 0.000000000000000e+00
0.000000000000000e+00 0.000000000000000e+00 0.000000000000000e+00
0.000000000000000e+00 0.000000000000000e+00 0.000000000000000e+00
0.000000000000000e+00 0.000000000000000e+00 0.000000000000000e+00
0.000000000000000e+00 0.000000000000000e+00 0.000000000000000e+00
0.000000000000000e+00 0.000000000000000e+00 0.000000000000000e+00
0.000000000000000e+00 0.000000000000000e+00 0.000000000000000e+00
0.000000000000000e+00 0.000000000000000e+00 0.000000000000000e+00
0.000000000000000e+00 0.000000000000000e+00 0.000000000000000e+00
0.000000000000000e+00 0.000000000000000e+00 0.000000000000000e+00
0.000000000000000e+00 0.000000000000000e+00 0.000000000000000e+00
0.000000000000000e+00 0.000000000000000e+00 0.000000000000000e+00
0.000000000000000e+00 0.000000000000000e+00 0.000000000000000e+00
0.000000000000000e+00 0.000000000000000e+00 0.000000000000000e+00
0.000000000000000e+00 0.000000000000000e+00 0.000000000000000e+00
0.000000000000000e+00 0.000000000000000e+00 0.000000000000000e+00
0.000000000000000e+00 0.000000000000000e+00 0.000000000000000e+00
0.000000000000000e+00 0.000000000000000e+00 0.000000000000000e+00
0.000000000000000e+00 0.000000000000000e+00 0.000000000000000e+00
0.000000000000000e+00 0.000000000000000e+00 0.000000000000000e+00
0.000000000000000e+00 0.000000000000000e+00 0.000000000000000e+00
0.000000000000000e+00 0.000000000000000e+00 0.000000000000000e+00
0.000000000000000e+00 0.000000000000000e+00 0.000000000000000e+00
0.000000000000000e+00 0.000000000000000e+00 0.000000000000000e+00
0.000000000000000e+00 0.000000000000000e+00 0.000000000000000e+00
0.000000000000000e+00 0.000000000000000e+00 0.000000000000000e+00
0.000000000000000e+00 0.000000000000000e+00 0.000000000000000e+00
0.000000000000000e+00 0.000000000000000e+00 0.000000000000000e+00
0.000000000000000e+00 0.000000000000000e+00 0.000000000000000e+00
0.000000000000000e+00 0.000000000000000e+00 0.000000000000000e+00
0.000000000000000e+00 0.000000000000000e+00 0.000000000000000e+00
0.000000000000000e+00 0.000000000000000e+00 0.000000000000000e+00
0.000000000000000e+00 0.000000000000000e+00 0.000000000000000e+00
0.000000000000000e+00 0.000000000000000e+00 0.000000000000000e+00
0.000000000000000e+00 0.000000000000000e+00 0.000000000000000e+00
0.000000000000000e+00 0.000000000000000e+00 0.000000000000000e+00
0.000000000000000e+00 0.000000000000000e+00 0.000000000000000e+00
0.000000000000000e+00 0.000000000000000e+00 0.000000000000000e+00
0.000000000000000e+00 0.000000000000000e+00 0.000000000000000e+00
0.000000000000000e+00 0.000000000000000e+00 0.000000000000000e+00
0.000000000000000e+00 0.000000000000000e+00 0.000000000000000e+00
0.000000000000000e+00 0.000000000000000e+00 0.000000000000000e+00
0.000000000000000e+00 0.000000000000000e+00 0.000000000000000e+00
0.000000000000000e+00 0.000000000000000e+00 0.000000000000000e+00
0.000000000000000e+00 0.000000000000000e+00 0.000000000000000e+00
0.000000000000000e+00 0.000000000000000e+00 0.000000000000000e+00
0.000000000000000e+00 0.000000000000000e+00 0.000000000000000e+00
0.000000000000000e+00 0.000000000000000e+00 0.000000000000000e+00
0.000000000000000e+00 0.000000000000000e+00 0.000000000000000e+00
0.000000000000000e+00 0.000000000000000e+00 0.000000000000000e+00
0.000000000000000e+00 0.000000000000000e+00 0.000000000000000e+00
0.000000000000000e+00 0.000000000000000e+00 0.000000000000000e+00
0.000000000000000e+00 0.000000000000000e+00 0.000000000000000e+00
0.000000000000000e+00 0.000000000000000e+00 0.000000000000000e+00
0.000000000000000e+00 0.000000000000000e+00 0.000000000000000e+00
0.000000000000000e+00 0.000000000000000e+00 0.000000000000000e+00
0.000000000000000e+00 0.000000000000000e+00 0.000000000000000e+00
0.000000000000000e+00 0.000000000000000e+00 0.000000000000000e+00
0.000000000000000e+00 0.000000000000000e+00 0.000000000000000e+00
0.000000000000000e+00 0.000000000000000e+00 0.000000000000000e+00
0.000000000000000e+00 0.000000000000000e+00 0.000000000000000e+00
0.000000000000000e+00 0.000000000000000e+00 0.000000000000000e+00
0.000000000000000e+00 0.000000000000000e+00 0.000000000000000e+00
0.000000000000000e+00 0.000000000000000e+00 0.000000000000000e+00
0.000000000000000e+00 0.000000000000000e+00 0.000000000000000e+00
0.000000000000000e+00 0.000000000000000e+00 0.000000000000000e+00
0.000000000000000e+00 0.000000000000000e+00 0.000000000000000e+00
0.000000000000000e+00 0.000000000000000e+00 0.000000000000000e+00
0.000000000000000e+00 0.000000000000000e+00 0.000000000000000e+00
0.000000000000000e+00 0.000000000000000e+00 0.000000000000000e+00
0.000000000000000e+00 0.000000000000000e+00 0.000000000000000e+00
0.000000000000000e+00 0.000000000000000e+00 0.000000000000000e+00
0.000000000000000e+00 0.000000000000000e+00 0.000000000000000e+00
0.000000000000000e+00 0.000000000000000e+00 0.000000000000000e+00
0.000000000000000e+00 0.000000000000000e+00 0.000000000000000e+00
0.000000000000000e+00 0.000000000000000e+00 0.000000000000000e+00
0.000000000000000e+00 0.000000000000000e+00 0.000000000000000e+00
0.000000000000000e+00 0.000000000000000e+00 0.000000000000000e+00
0.000000000000000e+00 0.000000000000000e+00 0.000000000000000e+00
0.000000000000000e+00 0.000000000000000e+00 0.000000000000000e+00
0.000000000000000e+00 0.000000000000000e+00 0.000000000000000e+00
0.000000000000000e+00 0.000000000000000e+00 0.000000000000000e+00
0.000000000000000e+00 0.000000000000000e+00 0.000000000000000e+00
0.000000000000000e+00 0.000000000000000e+00 0.000000000000000e+00
0.000000000000000e+00 0.000000000000000e+00 0.000000000000000e+00
0.000000000000000e+00 0.000000000000000e+00 0.000000000000000e+00
0.000000000000000e+00 0.000000000000000e+00 0.000000000000000e+00
0.000000000000000e+00 0.000000000000000e+00 0.000000000000000e+00
0.000000000000000e+00 0.000000000000000e+00 0.000000000000000e+00
0.000000000000000e+00 0.000000000000000e+00 0.000000000000000e+00
0.000000000000000e+00 0.000000000000000e+00 0.000000000000000e+00
0.000000000000000e+00 0.000000000000000e+00 0.000000000000000e+00
0.000000000000000e+00 0.000000000000000e+00 0.000000000000000e+00
0.000000000000000e+00 0.000000000000000e+00 0.000000000000000e+00
0.000000000000000e+00 0.000000000000000e+00 0.000000000000000e+00
0.000000000000000e+00 0.000000000000000e+00 0.000000000000000e+00
0.000000000000000e+00 0.000000000000000e+00 0.000000000000000e+00
0.000000000000000e+00 0.000000000000000e+00 0.000000000000000e+00
0.000000000000000e+00 0.000000000000000e+00 0.000000000000000e+00
0.000000000000000e+00 0.000000000000000e+00 0.000000000000000e+00
0.000000000000000e+00 0.000000000000000e+00 0.000000000000000e+00
0.000000000000000e+00 0.000000000000000e+00 0.000000000000000e+00
0.000000000000000e+00 0.000000000000000e+00 0.000000000000000e+00
0.000000000000000e+00 0.000000000000000e+00 0.000000000000000e+00
0.000000000000000e+00 0.000000000000000e+00 0.000000000000000e+00
0.000000000000000e+00 0.000000000000000e+00 0.000000000000000e+00
0.000000000000000e+00 0.000000000000000e+00 0.000000000000000e+00
0.000000000000000e+00 0.000000000000000e+00 0.000000000000000e+00
0.000000000000000e+00 0.000000000000000e+00 0.000000000000000e+00
0.000000000000000e+00 0.000000000000000e+00 0.000000000000000e+00
0.000000000000000e+00 0.000000000000000e+00 0.000000000000000e+00
0.000000000000000e+00 0.000000000000000e+00 0.000000000000000e+00
0.000000000000000e+00 0.000000000000000e+00 0.000000000000000e+00
0.000000000000000e+00 0.000000000000000e+00 0.000000000000000e+00
0.000000000000000e+00 0.000000000000000e+00 0.000000000000000e+00
0.000000000000000e+00 0.000000000000000e+00 0.000000000000000e+00
0.000000000000000e+00 0.000000000000000e+00 0.000000000000000e+00
0.000000000000000e+00 0.000000000000000e+00 0.000000000000000e+00
0.000000000000000e+00 0.000000000000000e+00 0.000000000000000e+00
0.000000000000000e+00 0.000000000000000e+00 0.000000000000000e+00
0.000000000000000e+00 0.000000000000000e+00 0.000000000000000e+00
0.000000000000000e+00 0.000000000000000e+00 0.000000000000000e+00
0.000000000000000e+00 0.000000000000000e+00 0.000000000000000e+00
0.000000000000000e+00 0.000000000000000e+00 0.000000000000000e+00
0.000000000000000e+00 0.000000000000000e+00 0.000000000000000e+00
0.000000000000000e+00 0.000000000000000e+00 0.000000000000000e+00
0.000000000000000e+00 0.000000000000000e+00 0.000000000000000e+00
0.000000000000000e+00 0.000000000000000e+00 0.000000000000000e+00
0.000000000000000e+00 0.000000000000000e+00 0.000000000000000e+00
0.000000000000000e+00 0.000000000000000e+00 0.000000000000000e+00
0.000000000000000e+00 0.000000000000000e+00 0.000000000000000e+00
0.000000000000000e+00 0.000000000000000e+00 0.000000000000000e+00
0.000000000000000e+00 0.000000000000000e+00 0.000000000000000e+00
0.000000000000000e+00 0.000000000000000e+00 0.000000000000000e+00
0.000000000000000e+00 0.000000000000000e+00 0.000000000000000e+00
0.000000000000000e+00 0.000000000000000e+00 0.000000000000000e+00
0.000000000000000e+00 0.000000000000000e+00 0.000000000000000e+00
0.000000000000000e+00 0.000000000000000e+00 0.000000000000000e+00
0.000000000000000e+00 0.000000000000000e+00 0.000000000000000e+00
0.000000000000000e+00 0.000000000000000e+00 0.000000000000000e+00
0.000000000000000e+00 0.000000000000000e+00 0.000000000000000e+00
0.000000000000000e+00 0.000000000000000e+00 0.000000000000000e+00
0.000000000000000e+00 0.000000000000000e+00 0.000000000000000e+00
0.000000000000000e+00 0.000000000000000e+00 0.000000000000000e+00
0.000000000000000e+00 0.000000000000000e+00 0.000000000000000e+00
0.000000000000000e+00 0.000000000000000e+00 0.000000000000000e+00
0.000000000000000e+00 0.000000000000000e+00 0.000000000000000e+00
0.000000000000000e+00 0.000000000000000e+00 0.000000000000000e+00
0.000000000000000e+00 0.000000000000000e+00 0.000000000000000e+00
0.000000000000000e+00 0.000000000000000e+00 0.000000000000000e+00
0.000000000000000e+00 0.000000000000000e+00 0.000000000000000e+00
0.000000000000000e+00 0.000000000000000e+00 0.000000000000000e+00
0.000000000000000e+00 0.000000000000000e+00 0.000000000000000e+00
0.000000000000000e+00 0.000000000000000e+00 0.000000000000000e+00
0.000000000000000e+00 0.000000000000000e+00 0.000000000000000e+00
0.000000000000000e+00 0.000000000000000e+00 0.000000000000000e+00
0.000000000000000e+00 0.000000000000000e+00 0.000000000000000e+00
0.000000000000000e+00 0.000000000000000e+00 0.000000000000000e+00
0.000000000000000e+00 0.000000000000000e+00 0.000000000000000e+00
0.000000000000000e+00 0.000000000000000e+00 0.000000000000000e+00
0.000000000000000e+00 0.000000000000000e+00 0.000000000000000e+00
0.000000000000000e+00 0.000000000000000e+00 0.000000000000000e+00
0.000000000000000e+00 0.000000000000000e+00 0.000000000000000e+00
0.000000000000000e+00 0.000000000000000e+00 0.000000000000000e+00
0.000000000000000e+00 0.000000000000000e+00 0.000000000000000e+00
0.000000000000000e+00 0.000000000000000e+00 0.000000000000000e+00
0.000000000000000e+00 0.000000000000000e+00 0.000000000000000e+00
0.000000000000000e+00 0.000000000000000e+00 0.000000000000000e+00
0.000000000000000e+00 0.000000000000000e+00 0.000000000000000e+00
0.000000000000000e+00 0.000000000000000e+00 0.000000000000000e+00
0.000000000000000e+00 0.000000000000000e+00 0.000000000000000e+00
0.000000000000000e+00 0.000000000000000e+00 0.000000000000000e+00
0.000000000000000e+00 0.000000000000000e+00 0.000000000000000e+00
0.000000000000000e+00 0.000000000000000e+00 0.000000000000000e+00
0.000000000000000e+00 0.000000000000000e+00 0.000000000000000e+00
0.000000000000000e+00 0.000000000000000e+00 0.000000000000000e+00
0.000000000000000e+00 0.000000000000000e+00 0.000000000000000e+00
0.000000000000000e+00 0.000000000000000e+00 0.000000000000000e+00
0.000000000000000e+00 0.000000000000000e+00 0.000000000000000e+00
0.000000000000000e+00 0.000000000000000e+00 0.000000000000000e+00
0.000000000000000e+00 0.000000000000000e+00 0.000000000000000e+00
0.000000000000000e+00 0.000000000000000e+00 0.000000000000000e+00
0.000000000000000e+00 0.000000000000000e+00 0.000000000000000e+00
0.000000000000000e+00 0.000000000000000e+00 0.000000000000000e+00
0.000000000000000e+00 0.000000000000000e+00 0.000000000000000e+00
0.000000000000000e+00 0.000000000000000e+00 0.000000000000000e+00
0.000000000000000e+00 0.000000000000000e+00 0.000000000000000e+00
0.000000000000000e+00 0.000000000000000e+00 0.000000000000000e+00
0.000000000000000e+00 0.000000000000000e+00 0.000000000000000e+00
0.000000000000000e+00 0.000000000000000e+00 0.000000000000000e+00
0.000000000000000e+00 0.000000000000000e+00 0.000000000000000e+00
0.000000000000000e+00 0.000000000000000e+00 0.000000000000000e+00
0.000000000000000e+00 0.000000000000000e+00 0.000000000000000e+00
0.000000000000000e+00 0.000000000000000e+00 0.000000000000000e+00
0.000000000000000e+00 0.000000000000000e+00 0.000000000000000e+00
0.000000000000000e+00 0.000000000000000e+00 0.000000000000000e+00
0.000000000000000e+00 0.000000000000000e+00 0.000000000000000e+00
0.000000000000000e+00 0.000000000000000e+00 0.000000000000000e+00
0.000000000000000e+00 0.000000000000000e+00 0.000000000000000e+00
0.000000000000000e+00 0.000000000000000e+00 0.000000000000000e+00
0.000000000000000e+00 0.000000000000000e+00 0.000000000000000e+00
0.000000000000000e+00 0.000000000000000e+00 0.000000000000000e+00
0.000000000000000e+00 0.000000000000000e+00 0.000000000000000e+00
0.000000000000000e+00 0.000000000000000e+00 0.000000000000000e+00
0.000000000000000e+00 0.000000000000000e+00 0.000000000000000e+00
0.000000000000000e+00 0.000000000000000e+00 0.000000000000000e+00
0.000000000000000e+00 0.000000000000000e+00 0.000000000000000e+00
0.000000000000000e+00 0.000000000000000e+00 0.000000000000000e+00
0.000000000000000e+00 0.000000000000000e+00 0.000000000000000e+00
0.000000000000000e+00 0.000000000000000e+00 0.000000000000000e+00
0.000000000000000e+00 0.000000000000000e+00 0.000000000000000e+00
0.000000000000000e+00 0.000000000000000e+00 0.000000000000000e+00
0.000000000000000e+00 0.000000000000000e+00 0.000000000000000e+00
0.000000000000000e+00 0.000000000000000e+00 0.000000000000000e+00
0.000000000000000e+00 0.000000000000000e+00 0.000000000000000e+00
0.000000000000000e+00 0.000000000000000e+00 0.000000000000000e+00
0.000000000000000e+00 0.000000000000000e+00 0.000000000000000e+00
0.000000000000000e+00 0.000000000000000e+00 0.000000000000000e+00
0.000000000000000e+00 0.000000000000000e+00 0.000000000000000e+00
0.000000000000000e+00 0.000000000000000e+00 0.000000000000000e+00
0.000000000000000e+00 0.000000000000000e+00 0.000000000000000e+00
0.000000000000000e+00 0.000000000000000e+00 0.000000000000000e+00
0.000000000000000e+00 0.000000000000000e+00 0.000000000000000e+00
0.000000000000000e+00 0.000000000000000e+00 0.000000000000000e+00
0.000000000000000e+00 0.000000000000000e+00 0.000000000000000e+00
0.000000000000000e+00 0.000000000000000e+00 0.000000000000000e+00
0.000000000000000e+00 0.000000000000000e+00 0.000000000000000e+00
0.000000000000000e+00 0.000000000000000e+00 0.000000000000000e+00
0.000000000000000e+00 0.000000000000000e+00 0.000000000000000e+00
0.000000000000000e+00 0.000000000000000e+00 0.000000000000000e+00
0.000000000000000e+00 0.000000000000000e+00 0.000000000000000e+00
0.000000000000000e+00 0.000000000000000e+00 0.000000000000000e+00
0.000000000000000e+00 0.000000000000000e+00 0.000000000000000e+00
0.000000000000000e+00 0.000000000000000e+00 0.000000000000000e+00
0.000000000000000e+00 0.000000000000000e+00 0.000000000000000e+00
0.000000000000000e+00 0.000000000000000e+00 0.000000000000000e+00
0.000000000000000e+00 0.000000000000000e+00 0.000000000000000e+00
0.000000000000000e+00 0.000000000000000e+00 0.000000000000000e+00
0.000000000000000e+00 0.000000000000000e+00 0.000000000000000e+00
0.000000000000000e+00 0.000000000000000e+00 0.000000000000000e+00
0.000000000000000e+00 0.000000000000000e+00 0.000000000000000e+00
0.000000000000000e+00 0.000000000000000e+00 0.000000000000000e+00
0.000000000000000e+00 0.000000000000000e+00 0.000000000000000e+00
0.000000000000000e+00 0.000000000000000e+00 0.000000000000000e+00
0.000000000000000e+00 0.000000000000000e+00 0.000000000000000e+00
0.000000000000000e+00 0.000000000000000e+00 0.000000000000000e+00
0.000000000000000e+00 0.000000000000000e+00 0.000000000000000e+00
0.000000000000000e+00 0.000000000000000e+00 0.000000000000000e+00
0.000000000000000e+00 0.000000000000000e+00 0.000000000000000e+00
0.000000000000000e+00 0.000000000000000e+00 0.000000000000000e+00
0.000000000000000e+00 0.000000000000000e+00 0.000000000000000e+00
0.000000000000000e+00 0.000000000000000e+00 0.000000000000000e+00
0.000000000000000e+00 0.000000000000000e+00 0.000000000000000e+00
0.000000000000000e+00 0.000000000000000e+00 0.000000000000000e+00
0.000000000000000e+00 0.000000000000000e+00 0.000000000000000e+00
0.000000000000000e+00 0.000000000000000e+00 0.000000000000000e+00
0.000000000000000e+00 0.000000000000000e+00 0.000000000000000e+00
0.000000000000000e+00 0.000000000000000e+00 0.000000000000000e+00
0.000000000000000e+00 0.000000000000000e+00 0.000000000000000e+00
0.000000000000000e+00 0.000000000000000e+00 0.000000000000000e+00
0.000000000000000e+00 0.000000000000000e+00 0.000000000000000e+00
0.000000000000000e+00 0.000000000000000e+00 0.000000000000000e+00
0.000000000000000e+00 0.000000000000000e+00 0.000000000000000e+00
0.000000000000000e+00 0.000000000000000e+00 0.000000000000000e+00
0.000000000000000e+00 0.000000000000000e+00 0.000000000000000e+00
0.000000000000000e+00 0.000000000000000e+00 0.000000000000000e+00
0.000000000000000e+00 0.000000000000000e+00 0.000000000000000e+00
0.000000000000000e+00 0.000000000000000e+00 0.000000000000000e+00
0.000000000000000e+00 0.000000000000000e+00 0.000000000000000e+00
0.000000000000000e+00 0.000000000000000e+00 0.000000000000000e+00
0.000000000000000e+00 0.000000000000000e+00 0.000000000000000e+00
0.000000000000000e+00 0.000000000000000e+00 0.000000000000000e+00
0.000000000000000e+00 0.000000000000000e+00 0.000000000000000e+00
0.000000000000000e+00 0.000000000000000e+00 0.000000000000000e+00
0.000000000000000e+00 0.000000000000000e+00 0.000000000000000e+00
0.000000000000000e+00 0.000000000000000e+00 0.000000000000000e+00
0.000000000000000e+00 0.000000000000000e+00 0.000000000000000e+00
0.000000000000000e+00 0.000000000000000e+00 0.000000000000000e+00
0.000000000000000e+00 0.000000000000000e+00 0.000000000000000e+00
0.000000000000000e+00 0.000000000000000e+00 0.000000000000000e+00
0.000000000000000e+00 0.000000000000000e+00 0.000000000000000e+00
0.000000000000000e+00 0.000000000000000e+00 0.000000000000000e+00
0.000000000000000e+00 0.000000000000000e+00 0.000000000000000e+00
0.000000000000000e+00 0.000000000000000e+00 0.000000000000000e+00
0.000000000000000e+00 0.000000000000000e+00 0.000000000000000e+00
0.000000000000000e+00 0.000000000000000e+00 0.000000000000000e+00
0.000000000000000e+00 0.000000000000000e+00 0.000000000000000e+00
0.000000000000000e+00 0.000000000000000e+00 0.000000000000000e+00
0.000000000000000e+00 0.000000000000000e+00 0.000000000000000e+00
0.000000000000000e+00 0.000000000000000e+00 0.000000000000000e+00
0.000000000000000e+00 0.000000000000000e+00 0.000000000000000e+00
0.000000000000000e+00 0.000000000000000e+00 0.000000000000000e+00
0.000000000000000e+00 0.000000000000000e+00 0.000000000000000e+00
0.000000000000000e+00 0.000000000000000e+00 0.000000000000000e+00
0.000000000000000e+00 0.000000000000000e+00 0.000000000000000e+00
0.000000000000000e+00 0.000000000000000e+00 0.000000000000000e+00
0.000000000000000e+00 0.000000000000000e+00 0.000000000000000e+00
0.000000000000000e+00 0.000000000000000e+00 0.000000000000000e+00
0.000000000000000e+00 0.000000000000000e+00 0.000000000000000e+00
0.000000000000000e+00 0.000000000000000e+00 0.000000000000000e+00
0.000000000000000e+00 0.000000000000000e+00 0.000000000000000e+00
0.000000000000000e+00 0.000000000000000e+00 0.000000000000000e+00
0.000000000000000e+00 0.000000000000000e+00 0.000000000000000e+00
0.000000000000000e+00 0.000000000000000e+00 0.000000000000000e+00
0.000000000000000e+00 0.000000000000000e+00 0.000000000000000e+00
0.000000000000000e+00 0.000000000000000e+00 0.000000000000000e+00
0.000000000000000e+00 0.000000000000000e+00 0.000000000000000e+00
0.000000000000000e+00 0.000000000000000e+00 0.000000000000000e+00
0.000000000000000e+00 0.000000000000000e+00 0.000000000000000e+00
0.000000000000000e+00 0.000000000000000e+00 0.000000000000000e+00
0.000000000000000e+00 0.000000000000000e+00 0.000000000000000e+00
0.000000000000000e+00 0.000000000000000e+00 0.000000000000000e+00
0.000000000000000e+00 0.000000000000000e+00 0.000000000000000e+00
0.000000000000000e+00 0.000000000000000e+00 0.000000000000000e+00
0.000000000000000e+00 0.000000000000000e+00 0.000000000000000e+00
0.000000000000000e+00 0.000000000000000e+00 0.000000000000000e+00
0.000000000000000e+00 0.000000000000000e+00 0.000000000000000e+00
0.000000000000000e+00 0.000000000000000e+00 0.000000000000000e+00
0.000000000000000e+00 0.000000000000000e+00 0.000000000000000e+00
0.000000000000000e+00 0.000000000000000e+00 0.000000000000000e+00
0.000000000000000e+00 0.000000000000000e+00 0.000000000000000e+00
0.000000000000000e+00 0.000000000000000e+00 0.000000000000000e+00
0.000000000000000e+00 0.000000000000000e+00 0.000000000000000e+00
0.000000000000000e+00 0.000000000000000e+00 0.000000000000000e+00
0.000000000000000e+00 0.000000000000000e+00 0.000000000000000e+00
0.000000000000000e+00 0.000000000000000e+00 0.000000000000000e+00
0.000000000000000e+00 0.000000000000000e+00 0.000000000000000e+00
0.000000000000000e+00 0.000000000000000e+00 0.000000000000000e+00
0.000000000000000e+00 0.000000000000000e+00 0.000000000000000e+00
0.000000000000000e+00 0.000000000000000e+00 0.000000000000000e+00
0.000000000000000e+00 0.000000000000000e+00 0.000000000000000e+00
0.000000000000000e+00 0.000000000000000e+00 0.000000000000000e+00
0.000000000000000e+00 0.000000000000000e+00 0.000000000000000e+00
0.000000000000000e+00 0.000000000000000e+00 0.000000000000000e+00
0.000000000000000e+00 0.000000000000000e+00 0.000000000000000e+00
0.000000000000000e+00 0.000000000000000e+00 0.000000000000000e+00
0.000000000000000e+00 0.000000000000000e+00 0.000000000000000e+00
0.000000000000000e+00 0.000000000000000e+00 0.000000000000000e+00
0.000000000000000e+00 0.000000000000000e+00 0.000000000000000e+00
0.000000000000000e+00 0.000000000000000e+00 0.000000000000000e+00
0.000000000000000e+00 0.000000000000000e+00 0.000000000000000e+00
0.000000000000000e+00 0.000000000000000e+00 0.000000000000000e+00
0.000000000000000e+00 0.000000000000000e+00 0.000000000000000e+00
0.000000000000000e+00 0.000000000000000e+00 0.000000000000000e+00
0.000000000000000e+00 0.000000000000000e+00 0.000000000000000e+00
0.000000000000000e+00 0.000000000000000e+00 0.000000000000000e+00
0.000000000000000e+00 0.000000000000000e+00 0.000000000000000e+00
0.000000000000000e+00 0.000000000000000e+00 0.000000000000000e+00
0.000000000000000e+00 0.000000000000000e+00 0.000000000000000e+00
0.000000000000000e+00 0.000000000000000e+00 0.000000000000000e+00
0.000000000000000e+00 0.000000000000000e+00 0.000000000000000e+00
0.000000000000000e+00 0.000000000000000e+00 0.000000000000000e+00
0.000000000000000e+00 0.000000000000000e+00 0.000000000000000e+00
0.000000000000000e+00 0.000000000000000e+00 0.000000000000000e+00
0.000000000000000e+00 0.000000000000000e+00 0.000000000000000e+00
0.000000000000000e+00 0.000000000000000e+00 0.000000000000000e+00
0.000000000000000e+00 0.000000000000000e+00 0.000000000000000e+00
0.000000000000000e+00 0.000000000000000e+00 0.000000000000000e+00
0.000000000000000e+00 0.000000000000000e+00 0.000000000000000e+00
0.000000000000000e+00 0.000000000000000e+00 0.000000000000000e+00
0.000000000000000e+00 0.000000000000000e+00 0.000000000000000e+00
0.000000000000000e+00 0.000000000000000e+00 0.000000000000000e+00
0.000000000000000e+00 0.000000000000000e+00 0.000000000000000e+00
0.000000000000000e+00 0.000000000000000e+00 0.000000000000000e+00
0.000000000000000e+00 0.000000000000000e+00 0.000000000000000e+00
0.000000000000000e+00 0.000000000000000e+00 0.000000000000000e+00
0.000000000000000e+00 0.000000000000000e+00 0.000000000000000e+00
0.000000000000000e+00 0.000000000000000e+00 0.000000000000000e+00
0.000000000000000e+00 0.000000000000000e+00 0.000000000000000e+00
0.000000000000000e+00 0.000000000000000e+00 0.000000000000000e+00
0.000000000000000e+00 0.000000000000000e+00 0.000000000000000e+00
0.000000000000000e+00 0.000000000000000e+00 0.000000000000000e+00
0.000000000000000e+00 0.000000000000000e+00 0.000000000000000e+00
0.000000000000000e+00 0.000000000000000e+00 0.000000000000000e+00
0.000000000000000e+00 0.000000000000000e+00 0.000000000000000e+00
0.000000000000000e+00 0.000000000000000e+00 0.000000000000000e+00
0.000000000000000e+00 0.000000000000000e+00 0.000000000000000e+00
0.000000000000000e+00 0.000000000000000e+00 0.000000000000000e+00
0.000000000000000e+00 0.000000000000000e+00 0.000000000000000e+00
0.000000000000000e+00 0.000000000000000e+00 0.000000000000000e+00
0.000000000000000e+00 0.000000000000000e+00 0.000000000000000e+00
0.000000000000000e+00 0.000000000000000e+00 0.000000000000000e+00
0.000000000000000e+00 0.000000000000000e+00 0.000000000000000e+00
0.000000000000000e+00 0.000000000000000e+00 0.000000000000000e+00
0.000000000000000e+00 0.000000000000000e+00 0.000000000000000e+00
0.000000000000000e+00 0.000000000000000e+00 0.000000000000000e+00
0.000000000000000e+00 0.000000000000000e+00 0.000000000000000e+00
0.000000000000000e+00 0.000000000000000e+00 0.000000000000000e+00
0.000000000000000e+00 0.000000000000000e+00 0.000000000000000e+00
0.000000000000000e+00 0.000000000000000e+00 0.000000000000000e+00
0.000000000000000e+00 0.000000000000000e+00 0.000000000000000e+00
0.000000000000000e+00 0.000000000000000e+00 0.000000000000000e+00
0.000000000000000e+00 0.000000000000000e+00 0.000000000000000e+00
0.000000000000000e+00 0.000000000000000e+00 0.000000000000000e+00
0.000000000000000e+00 0.000000000000000e+00 0.000000000000000e+00
0.000000000000000e+00 0.000000000000000e+00 0.000000000000000e+00
0.000000000000000e+00 0.000000000000000e+00 0.000000000000000e+00
0.000000000000000e+00 0.000000000000000e+00 0.000000000000000e+00
0.000000000000000e+00 0.000000000000000e+00 0.000000000000000e+00
0.000000000000000e+00 0.000000000000000e+00 0.000000000000000e+00
0.000000000000000e+00 0.000000000000000e+00 0.000000000000000e+00
0.000000000000000e+00 0.000000000000000e+00 0.000000000000000e+00
0.000000000000000e+00 0.000000000000000e+00 0.000000000000000e+00
0.000000000000000e+00 0.000000000000000e+00 0.000000000000000e+00
0.000000000000000e+00 0.000000000000000e+00 0.000000000000000e+00
0.000000000000000e+00 0.000000000000000e+00 0.000000000000000e+00
0.000000000000000e+00 0.000000000000000e+00 0.000000000000000e+00
0.000000000000000e+00 0.000000000000000e+00 0.000000000000000e+00
0.000000000000000e+00 0.000000000000000e+00 0.000000000000000e+00
0.000000000000000e+00 0.000000000000000e+00 0.000000000000000e+00
0.000000000000000e+00 0.000000000000000e+00 0.000000000000000e+00
0.000000000000000e+00 0.000000000000000e+00 0.000000000000000e+00
0.000000000000000e+00 0.000000000000000e+00 0.000000000000000e+00
0.000000000000000e+00 0.000000000000000e+00 0.000000000000000e+00
0.000000000000000e+00 0.000000000000000e+00 0.000000000000000e+00
0.000000000000000e+00 0.000000000000000e+00 0.000000000000000e+00
0.000000000000000e+00 0.000000000000000e+00 0.000000000000000e+00
0.000000000000000e+00 0.000000000000000e+00 0.000000000000000e+00
0.000000000000000e+00 0.000000000000000e+00 0.000000000000000e+00
0.000000000000000e+00 0.000000000000000e+00 0.000000000000000e+00
0.000000000000000e+00 0.000000000000000e+00 0.000000000000000e+00
0.000000000000000e+00 0.000000000000000e+00 0.000000000000000e+00
0.000000000000000e+00 0.000000000000000e+00 0.000000000000000e+00
0.000000000000000e+00 0.000000000000000e+00 0.000000000000000e+00
0.000000000000000e+00 0.000000000000000e+00 0.000000000000000e+00
0.000000000000000e+00 0.000000000000000e+00 0.000000000000000e+00
0.000000000000000e+00 0.000000000000000e+00 0.000000000000000e+00
0.000000000000000e+00 0.000000000000000e+00 0.000000000000000e+00
0.000000000000000e+00 0.000000000000000e+00 0.000000000000000e+00
0.000000000000000e+00 0.000000000000000e+00 0.000000000000000e+00
0.000000000000000e+00 0.000000000000000e+00 0.000000000000000e+00
0.000000000000000e+00 0.000000000000000e+00 0.000000000000000e+00
0.000000000000000e+00 0.000000000000000e+00 0.000000000000000e+00
0.000000000000000e+00 0.000000000000000e+00 0.000000000000000e+00
0.000000000000000e+00 0.000000000000000e+00 0.000000000000000e+00
0.000000000000000e+00 0.000000000000000e+00 0.000000000000000e+00
0.000000000000000e+00 0.000000000000000e+00 0.000000000000000e+00
0.000000000000000e+00 0.000000000000000e+00 0.000000000000000e+00
0.000000000000000e+00 0.000000000000000e+00 0.000000000000000e+00
0.000000000000000e+00 0.000000000000000e+00 0.000000000000000e+00
0.000000000000000e+00 0.000000000000000e+00 0.000000000000000e+00
0.000000000000000e+00 0.000000000000000e+00 0.000000000000000e+00
0.000000000000000e+00 0.000000000000000e+00 0.000000000000000e+00
0.000000000000000e+00 0.000000000000000e+00 0.000000000000000e+00
0.000000000000000e+00 0.000000000000000e+00 0.000000000000000e+00
0.000000000000000e+00 0.000000000000000e+00 0.000000000000000e+00
0.000000000000000e+00 0.000000000000000e+00 0.000000000000000e+00
0.000000000000000e+00 0.000000000000000e+00 0.000000000000000e+00
0.000000000000000e+00 0.000000000000000e+00 0.000000000000000e+00
0.000000000000000e+00 0.000000000000000e+00 0.000000000000000e+00
0.000000000000000e+00 0.000000000000000e+00 0.000000000000000e+00
0.000000000000000e+00 0.000000000000000e+00 0.000000000000000e+00
0.000000000000000e+00 0.000000000000000e+00 0.000000000000000e+00
0.000000000000000e+00 0.000000000000000e+00 0.000000000000000e+00
0.000000000000000e+00 0.000000000000000e+00 0.000000000000000e+00
0.000000000000000e+00 0.000000000000000e+00 0.000000000000000e+00
0.000000000000000e+00 0.000000000000000e+00 0.000000000000000e+00
0.000000000000000e+00 0.000000000000000e+00 0.000000000000000e+00
0.000000000000000e+00 0.000000000000000e+00 0.000000000000000e+00
0.000000000000000e+00 0.000000000000000e+00 0.000000000000000e+00
0.000000000000000e+00 0.000000000000000e+00 0.000000000000000e+00
0.000000000000000e+00 0.000000000000000e+00 0.000000000000000e+00
0.000000000000000e+00 0.000000000000000e+00 0.000000000000000e+00
0.000000000000000e+00 0.000000000000000e+00 0.000000000000000e+00
0.000000000000000e+00 0.000000000000000e+00 0.000000000000000e+00
0.000000000000000e+00 0.000000000000000e+00 0.000000000000000e+00
0.000000000000000e+00 0.000000000000000e+00 0.000000000000000e+00
0.000000000000000e+00 0.000000000000000e+00 0.000000000000000e+00
0.000000000000000e+00 0.000000000000000e+00 0.000000000000000e+00
0.000000000000000e+00 0.000000000000000e+00 0.000000000000000e+00
0.000000000000000e+00 0.000000000000000e+00 0.000000000000000e+00
0.000000000000000e+00 0.000000000000000e+00 0.000000000000000e+00
0.000000000000000e+00 0.000000000000000e+00 0.000000000000000e+00
0.000000000000000e+00 0.000000000000000e+00 0.000000000000000e+00
0.000000000000000e+00 0.000000000000000e+00 0.000000000000000e+00
0.000000000000000e+00 0.000000000000000e+00 0.000000000000000e+00
0.000000000000000e+00 0.000000000000000e+00 0.000000000000000e+00
0.000000000000000e+00 0.000000000000000e+00 0.000000000000000e+00
0.000000000000000e+00 0.000000000000000e+00 0.000000000000000e+00
0.000000000000000e+00 0.000000000000000e+00 0.000000000000000e+00
0.000000000000000e+00 0.000000000000000e+00 0.000000000000000e+00
0.000000000000000e+00 0.000000000000000e+00 0.000000000000000e+00
0.000000000000000e+00 0.000000000000000e+00 0.000000000000000e+00
0.000000000000000e+00 0.000000000000000e+00 0.000000000000000e+00
0.000000000000000e+00 0.000000000000000e+00 0.000000000000000e+00
0.000000000000000e+00 0.000000000000000e+00 0.000000000000000e+00
0.000000000000000e+00 0.000000000000000e+00 0.000000000000000e+00
0.000000000000000e+00 0.000000000000000e+00 0.000000000000000e+00
0.000000000000000e+00 0.000000000000000e+00 0.000000000000000e+00
0.000000000000000e+00 0.000000000000000e+00 0.000000000000000e+00
0.000000000000000e+00 0.000000000000000e+00 0.000000000000000e+00
0.000000000000000e+00 0.000000000000000e+00 0.000000000000000e+00
0.000000000000000e+00 0.000000000000000e+00 0.000000000000000e+00
0.000000000000000e+00 0.000000000000000e+00 0.000000000000000e+00
0.000000000000000e+00 0.000000000000000e+00 0.000000000000000e+00
0.000000000000000e+00 0.000000000000000e+00 0.000000000000000e+00
0.000000000000000e+00 0.000000000000000e+00 0.000000000000000e+00
0.000000000000000e+00 0.000000000000000e+00 0.000000000000000e+00
0.000000000000000e+00 0.000000000000000e+00 0.000000000000000e+00
0.000000000000000e+00 0.000000000000000e+00 0.000000000000000e+00
0.000000000000000e+00 0.000000000000000e+00 0.000000000000000e+00
0.000000000000000e+00 0.000000000000000e+00 0.000000000000000e+00
0.000000000000000e+00 0.000000000000000e+00 0.000000000000000e+00
0.000000000000000e+00 0.000000000000000e+00 0.000000000000000e+00
0.000000000000000e+00 0.000000000000000e+00 0.000000000000000e+00
0.000000000000000e+00 0.000000000000000e+00 0.000000000000000e+00
0.000000000000000e+00 0.000000000000000e+00 0.000000000000000e+00
0.000000000000000e+00 0.000000000000000e+00 0.000000000000000e+00
0.000000000000000e+00 0.000000000000000e+00 0.000000000000000e+00
0.000000000000000e+00 0.000000000000000e+00 0.000000000000000e+00
0.000000000000000e+00 0.000000000000000e+00 0.000000000000000e+00
0.000000000000000e+00 0.000000000000000e+00 0.000000000000000e+00
0.000000000000000e+00 0.000000000000000e+00 0.000000000000000e+00
0.000000000000000e+00 0.000000000000000e+00 0.000000000000000e+00
0.000000000000000e+00 0.000000000000000e+00 0.000000000000000e+00
0.000000000000000e+00 0.000000000000000e+00 0.000000000000000e+00
0.000000000000000e+00 0.000000000000000e+00 0.000000000000000e+00
0.000000000000000e+00 0.000000000000000e+00 0.000000000000000e+00
0.000000000000000e+00 0.000000000000000e+00 0.000000000000000e+00
0.000000000000000e+00 0.000000000000000e+00 0.000000000000000e+00
0.000000000000000e+00 0.000000000000000e+00 0.000000000000000e+00
0.000000000000000e+00 0.000000000000000e+00 0.000000000000000e+00
0.000000000000000e+00 0.000000000000000e+00 0.000000000000000e+00
0.000000000000000e+00 0.000000000000000e+00 0.000000000000000e+00
0.000000000000000e+00 0.000000000000000e+00 0.000000000000000e+00
0.000000000000000e+00 0.000000000000000e+00 0.000000000000000e+00
0.000000000000000e+00 0.000000000000000e+00 0.000000000000000e+00
0.000000000000000e+00 0.000000000000000e+00 0.000000000000000e+00
0.000000000000000e+00 0.000000000000000e+00 0.000000000000000e+00
0.000000000000000e+00 0.000000000000000e+00 0.000000000000000e+00
0.000000000000000e+00 0.000000000000000e+00 0.000000000000000e+00
0.000000000000000e+00 0.000000000000000e+00 0.000000000000000e+00
0.000000000000000e+00 0.000000000000000e+00 0.000000000000000e+00
0.000000000000000e+00 0.000000000000000e+00 0.000000000000000e+00
0.000000000000000e+00 0.000000000000000e+00 0.000000000000000e+00
0.000000000000000e+00 0.000000000000000e+00 0.000000000000000e+00
0.000000000000000e+00 0.000000000000000e+00 0.000000000000000e+00
0.000000000000000e+00 0.000000000000000e+00 0.000000000000000e+00
0.000000000000000e+00 0.000000000000000e+00 0.000000000000000e+00
0.000000000000000e+00 0.000000000000000e+00 0.000000000000000e+00
0.000000000000000e+00 0.000000000000000e+00 0.000000000000000e+00
0.000000000000000e+00 0.000000000000000e+00 0.000000000000000e+00
0.000000000000000e+00 0.000000000000000e+00 0.000000000000000e+00
0.000000000000000e+00 0.000000000000000e+00 0.000000000000000e+00
0.000000000000000e+00 0.000000000000000e+00 0.000000000000000e+00
0.000000000000000e+00 0.000000000000000e+00 0.000000000000000e+00
0.000000000000000e+00 0.000000000000000e+00 0.000000000000000e+00
0.000000000000000e+00 0.000000000000000e+00 0.000000000000000e+00
0.000000000000000e+00 0.000000000000000e+00 0.000000000000000e+00
0.000000000000000e+00 0.000000000000000e+00 0.000000000000000e+00
0.000000000000000e+00 0.000000000000000e+00 0.000000000000000e+00
0.000000000000000e+00 0.000000000000000e+00 0.000000000000000e+00
0.000000000000000e+00 0.000000000000000e+00 0.000000000000000e+00
0.000000000000000e+00 0.000000000000000e+00 0.000000000000000e+00
0.000000000000000e+00 0.000000000000000e+00 0.000000000000000e+00
0.000000000000000e+00 0.000000000000000e+00 0.000000000000000e+00
0.000000000000000e+00 0.000000000000000e+00 0.000000000000000e+00
0.000000000000000e+00 0.000000000000000e+00 0.000000000000000e+00
0.000000000000000e+00 0.000000000000000e+00 0.000000000000000e+00
0.000000000000000e+00 0.000000000000000e+00 0.000000000000000e+00
0.000000000000000e+00 0.000000000000000e+00 0.000000000000000e+00
0.000000000000000e+00 0.000000000000000e+00 0.000000000000000e+00
0.000000000000000e+00 0.000000000000000e+00 0.000000000000000e+00
0.000000000000000e+00 0.000000000000000e+00 0.000000000000000e+00
0.000000000000000e+00 0.000000000000000e+00 0.000000000000000e+00
0.000000000000000e+00 0.000000000000000e+00 0.000000000000000e+00
0.000000000000000e+00 0.000000000000000e+00 0.000000000000000e+00
0.000000000000000e+00 0.000000000000000e+00 0.000000000000000e+00
0.000000000000000e+00 0.000000000000000e+00 0.000000000000000e+00
0.000000000000000e+00 0.000000000000000e+00 0.000000000000000e+00
0.000000000000000e+00 0.000000000000000e+00 0.000000000000000e+00
0.000000000000000e+00 0.000000000000000e+00 0.000000000000000e+00
0.000000000000000e+00 0.000000000000000e+00 0.000000000000000e+00
0.000000000000000e+00 0.000000000000000e+00 0.000000000000000e+00
0.000000000000000e+00 0.000000000000000e+00 0.000000000000000e+00
0.000000000000000e+00 0.000000000000000e+00 0.000000000000000e+00
0.000000000000000e+00 0.000000000000000e+00 0.000000000000000e+00
0.000000000000000e+00 0.000000000000000e+00 0.000000000000000e+00
0.000000000000000e+00 0.000000000000000e+00 0.000000000000000e+00
0.000000000000000e+00 0.000000000000000e+00 0.000000000000000e+00
0.000000000000000e+00 0.000000000000000e+00 0.000000000000000e+00
0.000000000000000e+00 0.000000000000000e+00 0.000000000000000e+00
0.000000000000000e+00 0.000000000000000e+00 0.000000000000000e+00
0.000000000000000e+00 0.000000000000000e+00 0.000000000000000e+00
0.000000000000000e+00 0.000000000000000e+00 0.000000000000000e+00
0.000000000000000e+00 0.000000000000000e+00 0.000000000000000e+00
0.000000000000000e+00 0.000000000000000e+00 0.000000000000000e+00
0.000000000000000e+00 0.000000000000000e+00 0.000000000000000e+00
0.000000000000000e+00 0.000000000000000e+00 0.000000000000000e+00
0.000000000000000e+00 0.000000000000000e+00 0.000000000000000e+00
0.000000000000000e+00 0.000000000000000e+00 0.000000000000000e+00
0.000000000000000e+00 0.000000000000000e+00 0.000000000000000e+00
0.000000000000000e+00 0.000000000000000e+00 0.000000000000000e+00
0.000000000000000e+00 0.000000000000000e+00 0.000000000000000e+00
0.000000000000000e+00 0.000000000000000e+00 0.000000000000000e+00
0.000000000000000e+00 0.000000000000000e+00 0.000000000000000e+00
0.000000000000000e+00 0.000000000000000e+00 0.000000000000000e+00
0.000000000000000e+00 0.000000000000000e+00 0.000000000000000e+00
0.000000000000000e+00 0.000000000000000e+00 0.000000000000000e+00
0.000000000000000e+00 0.000000000000000e+00 0.000000000000000e+00
0.000000000000000e+00 0.000000000000000e+00 0.000000000000000e+00
0.000000000000000e+00 0.000000000000000e+00 0.000000000000000e+00
0.000000000000000e+00 0.000000000000000e+00 0.000000000000000e+00
0.000000000000000e+00 0.000000000000000e+00 0.000000000000000e+00
0.000000000000000e+00 0.000000000000000e+00 0.000000000000000e+00
0.000000000000000e+00 0.000000000000000e+00 0.000000000000000e+00
0.000000000000000e+00 0.000000000000000e+00 0.000000000000000e+00
0.000000000000000e+00 0.000000000000000e+00 0.000000000000000e+00
0.000000000000000e+00 0.000000000000000e+00 0.000000000000000e+00
0.000000000000000e+00 0.000000000000000e+00 0.000000000000000e+00
0.000000000000000e+00 0.000000000000000e+00 0.000000000000000e+00
0.000000000000000e+00 0.000000000000000e+00 0.000000000000000e+00
0.000000000000000e+00 0.000000000000000e+00 0.000000000000000e+00
0.000000000000000e+00 0.000000000000000e+00 0.000000000000000e+00
0.000000000000000e+00 0.000000000000000e+00 0.000000000000000e+00
0.000000000000000e+00 0.000000000000000e+00 0.000000000000000e+00
0.000000000000000e+00 0.000000000000000e+00 0.000000000000000e+00
0.000000000000000e+00 0.000000000000000e+00 0.000000000000000e+00
0.000000000000000e+00 0.000000000000000e+00 0.000000000000000e+00
0.000000000000000e+00 0.000000000000000e+00 0.000000000000000e+00
0.000000000000000e+00 0.000000000000000e+00 0.000000000000000e+00
0.000000000000000e+00 0.000000000000000e+00 0.000000000000000e+00
0.000000000000000e+00 0.000000000000000e+00 0.000000000000000e+00
0.000000000000000e+00 0.000000000000000e+00 0.000000000000000e+00
0.000000000000000e+00 0.000000000000000e+00 0.000000000000000e+00
0.000000000000000e+00 0.000000000000000e+00 0.000000000000000e+00
0.000000000000000e+00 0.000000000000000e+00 0.000000000000000e+00
0.000000000000000e+00 0.000000000000000e+00 0.000000000000000e+00
0.000000000000000e+00 0.000000000000000e+00 0.000000000000000e+00
0.000000000000000e+00 0.000000000000000e+00 0.000000000000000e+00
0.000000000000000e+00 0.000000000000000e+00 0.000000000000000e+00
0.000000000000000e+00 0.000000000000000e+00 0.000000000000000e+00
0.000000000000000e+00 0.000000000000000e+00 0.000000000000000e+00
0.000000000000000e+00 0.000000000000000e+00 0.000000000000000e+00
0.000000000000000e+00 0.000000000000000e+00 0.000000000000000e+00
0.000000000000000e+00 0.000000000000000e+00 0.000000000000000e+00
0.000000000000000e+00 0.000000000000000e+00 0.000000000000000e+00
0.000000000000000e+00 0.000000000000000e+00 0.000000000000000e+00
0.000000000000000e+00 0.000000000000000e+00 0.000000000000000e+00
0.000000000000000e+00 0.000000000000000e+00 0.000000000000000e+00
0.000000000000000e+00 0.000000000000000e+00 0.000000000000000e+00
0.000000000000000e+00 0.000000000000000e+00 0.000000000000000e+00
0.000000000000000e+00 0.000000000000000e+00 0.000000000000000e+00
0.000000000000000e+00 0.000000000000000e+00 0.000000000000000e+00
0.000000000000000e+00 0.000000000000000e+00 0.000000000000000e+00
0.000000000000000e+00 0.000000000000000e+00 0.000000000000000e+00
0.000000000000000e+00 0.000000000000000e+00 0.000000000000000e+00
0.000000000000000e+00 0.000000000000000e+00 0.000000000000000e+00
0.000000000000000e+00 0.000000000000000e+00 0.000000000000000e+00
0.000000000000000e+00 0.000000000000000e+00 0.000000000000000e+00
0.000000000000000e+00 0.000000000000000e+00 0.000000000000000e+00
0.000000000000000e+00 0.000000000000000e+00 0.000000000000000e+00
0.000000000000000e+00 0.000000000000000e+00 0.000000000000000e+00
0.000000000000000e+00 0.000000000000000e+00 0.000000000000000e+00
0.000000000000000e+00 0.000000000000000e+00 0.000000000000000e+00
0.000000000000000e+00 0.000000000000000e+00 0.000000000000000e+00
0.000000000000000e+00 0.000000000000000e+00 0.000000000000000e+00
0.000000000000000e+00 0.000000000000000e+00 0.000000000000000e+00
0.000000000000000e+00 0.000000000000000e+00 0.000000000000000e+00
0.000000000000000e+00 0.000000000000000e+00 0.000000000000000e+00
0.000000000000000e+00 0.000000000000000e+00 0.000000000000000e+00
0.000000000000000e+00 0.000000000000000e+00 0.000000000000000e+00
0.000000000000000e+00 0.000000000000000e+00 0.000000000000000e+00
0.000000000000000e+00 0.000000000000000e+00 0.000000000000000e+00
0.000000000000000e+00 0.000000000000000e+00 0.000000000000000e+00
0.000000000000000e+00 0.000000000000000e+00 0.000000000000000e+00
0.000000000000000e+00 0.000000000000000e+00 0.000000000000000e+00
0.000000000000000e+00 0.000000000000000e+00 0.000000000000000e+00
0.000000000000000e+00 0.000000000000000e+00 0.000000000000000e+00
0.000000000000000e+00 0.000000000000000e+00 0.000000000000000e+00
0.000000000000000e+00 0.000000000000000e+00 0.000000000000000e+00
0.000000000000000e+00 0.000000000000000e+00 0.000000000000000e+00
0.000000000000000e+00 0.000000000000000e+00 0.000000000000000e+00
0.000000000000000e+00 0.000000000000000e+00 0.000000000000000e+00
0.000000000000000e+00 0.000000000000000e+00 0.000000000000000e+00
0.000000000000000e+00 0.000000000000000e+00 0.000000000000000e+00
0.000000000000000e+00 0.000000000000000e+00 0.000000000000000e+00
0.000000000000000e+00 0.000000000000000e+00 0.000000000000000e+00
0.000000000000000e+00 0.000000000000000e+00 0.000000000000000e+00
0.000000000000000e+00 0.000000000000000e+00 0.000000000000000e+00
0.000000000000000e+00 0.000000000000000e+00 0.000000000000000e+00
0.000000000000000e+00 0.000000000000000e+00 0.000000000000000e+00
0.000000000000000e+00 0.000000000000000e+00 0.000000000000000e+00
0.000000000000000e+00 0.000000000000000e+00 0.000000000000000e+00
0.000000000000000e+00 0.000000000000000e+00 0.000000000000000e+00
0.000000000000000e+00 0.000000000000000e+00 0.000000000000000e+00
0.000000000000000e+00 0.000000000000000e+00 0.000000000000000e+00
0.000000000000000e+00 0.000000000000000e+00 0.000000000000000e+00
0.000000000000000e+00 0.000000000000000e+00 0.000000000000000e+00
0.000000000000000e+00 0.000000000000000e+00 0.000000000000000e+00
0.000000000000000e+00 0.000000000000000e+00 0.000000000000000e+00
0.000000000000000e+00 0.000000000000000e+00 0.000000000000000e+00
0.000000000000000e+00 0.000000000000000e+00 0.000000000000000e+00
0.000000000000000e+00 0.000000000000000e+00 0.000000000000000e+00
0.000000000000000e+00 0.000000000000000e+00 0.000000000000000e+00
0.000000000000000e+00 0.000000000000000e+00 0.000000000000000e+00
0.000000000000000e+00 0.000000000000000e+00 0.000000000000000e+00
0.000000000000000e+00 0.000000000000000e+00 0.000000000000000e+00
0.000000000000000e+00 0.000000000000000e+00 0.000000000000000e+00
0.000000000000000e+00 0.000000000000000e+00 0.000000000000000e+00
0.000000000000000e+00 0.000000000000000e+00 0.000000000000000e+00
0.000000000000000e+00 0.000000000000000e+00 0.000000000000000e+00
0.000000000000000e+00 0.000000000000000e+00 0.000000000000000e+00
0.000000000000000e+00 0.000000000000000e+00 0.000000000000000e+00
0.000000000000000e+00 0.000000000000000e+00 0.000000000000000e+00
0.000000000000000e+00 0.000000000000000e+00 0.000000000000000e+00
0.000000000000000e+00 0.000000000000000e+00 0.000000000000000e+00
0.000000000000000e+00 0.000000000000000e+00 0.000000000000000e+00
0.000000000000000e+00 0.000000000000000e+00 0.000000000000000e+00
0.000000000000000e+00 0.000000000000000e+00 0.000000000000000e+00
0.000000000000000e+00 0.000000000000000e+00 0.000000000000000e+00
0.000000000000000e+00 0.000000000000000e+00 0.000000000000000e+00
0.000000000000000e+00 0.000000000000000e+00 0.000000000000000e+00
0.000000000000000e+00 0.000000000000000e+00 0.000000000000000e+00
0.000000000000000e+00 0.000000000000000e+00 0.000000000000000e+00
0.000000000000000e+00 0.000000000000000e+00 0.000000000000000e+00
0.000000000000000e+00 0.000000000000000e+00 0.000000000000000e+00
0.000000000000000e+00 0.000000000000000e+00 0.000000000000000e+00
0.000000000000000e+00 0.000000000000000e+00 0.000000000000000e+00
0.000000000000000e+00 0.000000000000000e+00 0.000000000000000e+00
0.000000000000000e+00 0.000000000000000e+00 0.000000000000000e+00
0.000000000000000e+00 0.000000000000000e+00 0.000000000000000e+00
0.000000000000000e+00 0.000000000000000e+00 0.000000000000000e+00
0.000000000000000e+00 0.000000000000000e+00 0.000000000000000e+00
0.000000000000000e+00 0.000000000000000e+00 0.000000000000000e+00
0.000000000000000e+00 0.000000000000000e+00 0.000000000000000e+00
0.000000000000000e+00 0.000000000000000e+00 0.000000000000000e+00
0.000000000000000e+00 0.000000000000000e+00 0.000000000000000e+00
0.000000000000000e+00 0.000000000000000e+00 0.000000000000000e+00
0.000000000000000e+00 0.000000000000000e+00 0.000000000000000e+00
0.000000000000000e+00 0.000000000000000e+00 0.000000000000000e+00
0.000000000000000e+00 0.000000000000000e+00 0.000000000000000e+00
0.000000000000000e+00 0.000000000000000e+00 0.000000000000000e+00
0.000000000000000e+00 0.000000000000000e+00 0.000000000000000e+00
0.000000000000000e+00 0.000000000000000e+00 0.000000000000000e+00
0.000000000000000e+00 0.000000000000000e+00 0.000000000000000e+00
0.000000000000000e+00 0.000000000000000e+00 0.000000000000000e+00
0.000000000000000e+00 0.000000000000000e+00 0.000000000000000e+00
0.000000000000000e+00 0.000000000000000e+00 0.000000000000000e+00
0.000000000000000e+00 0.000000000000000e+00 0.000000000000000e+00
0.000000000000000e+00 0.000000000000000e+00 0.000000000000000e+00
0.000000000000000e+00 0.000000000000000e+00 0.000000000000000e+00
0.000000000000000e+00 0.000000000000000e+00 0.000000000000000e+00
0.000000000000000e+00 0.000000000000000e+00 0.000000000000000e+00
0.000000000000000e+00 0.000000000000000e+00 0.000000000000000e+00
0.000000000000000e+00 0.000000000000000e+00 0.000000000000000e+00
0.000000000000000e+00 0.000000000000000e+00 0.000000000000000e+00
0.000000000000000e+00 0.000000000000000e+00 0.000000000000000e+00
0.000000000000000e+00 0.000000000000000e+00 0.000000000000000e+00
0.000000000000000e+00 0.000000000000000e+00 0.000000000000000e+00
0.000000000000000e+00 0.000000000000000e+00 0.000000000000000e+00
0.000000000000000e+00 0.000000000000000e+00 0.000000000000000e+00
0.000000000000000e+00 0.000000000000000e+00 0.000000000000000e+00
0.000000000000000e+00 0.000000000000000e+00 0.000000000000000e+00
0.000000000000000e+00 0.000000000000000e+00 0.000000000000000e+00
0.000000000000000e+00 0.000000000000000e+00 0.000000000000000e+00
0.000000000000000e+00 0.000000000000000e+00 0.000000000000000e+00
0.000000000000000e+00 0.000000000000000e+00 0.000000000000000e+00
0.000000000000000e+00 0.000000000000000e+00 0.000000000000000e+00
0.000000000000000e+00 0.000000000000000e+00 0.000000000000000e+00
0.000000000000000e+00 0.000000000000000e+00 0.000000000000000e+00
0.000000000000000e+00 0.000000000000000e+00 0.000000000000000e+00
0.000000000000000e+00 0.000000000000000e+00 0.000000000000000e+00
0.000000000000000e+00 0.000000000000000e+00 0.000000000000000e+00
0.000000000000000e+00 0.000000000000000e+00 0.000000000000000e+00
0.000000000000000e+00 0.000000000000000e+00 0.000000000000000e+00
0.000000000000000e+00 0.000000000000000e+00 0.000000000000000e+00
0.000000000000000e+00 0.000000000000000e+00 0.000000000000000e+00
0.000000000000000e+00 0.000000000000000e+00 0.000000000000000e+00
0.000000000000000e+00 0.000000000000000e+00 0.000000000000000e+00
0.000000000000000e+00 0.000000000000000e+00 0.000000000000000e+00
0.000000000000000e+00 0.000000000000000e+00 0.000000000000000e+00
0.000000000000000e+00 0.000000000000000e+00 0.000000000000000e+00
0.000000000000000e+00 0.000000000000000e+00 0.000000000000000e+00
0.000000000000000e+00 0.000000000000000e+00 0.000000000000000e+00
0.000000000000000e+00 0.000000000000000e+00 0.000000000000000e+00
0.000000000000000e+00 0.000000000000000e+00 0.000000000000000e+00
0.000000000000000e+00 0.000000000000000e+00 0.000000000000000e+00
0.000000000000000e+00 0.000000000000000e+00 0.000000000000000e+00
0.000000000000000e+00 0.000000000000000e+00 0.000000000000000e+00
0.000000000000000e+00 0.000000000000000e+00 0.000000000000000e+00
0.000000000000000e+00 0.000000000000000e+00 0.000000000000000e+00
0.000000000000000e+00 0.000000000000000e+00 0.000000000000000e+00
0.000000000000000e+00 0.000000000000000e+00 0.000000000000000e+00
0.000000000000000e+00 0.000000000000000e+00 0.000000000000000e+00
0.000000000000000e+00 0.000000000000000e+00 0.000000000000000e+00
0.000000000000000e+00 0.000000000000000e+00 0.000000000000000e+00
0.000000000000000e+00 0.000000000000000e+00 0.000000000000000e+00
0.000000000000000e+00 0.000000000000000e+00 0.000000000000000e+00
0.000000000000000e+00 0.000000000000000e+00 0.000000000000000e+00
0.000000000000000e+00 0.000000000000000e+00 0.000000000000000e+00
0.000000000000000e+00 0.000000000000000e+00 0.000000000000000e+00
0.000000000000000e+00 0.000000000000000e+00 0.000000000000000e+00
0.000000000000000e+00 0.000000000000000e+00 0.000000000000000e+00
0.000000000000000e+00 0.000000000000000e+00 0.000000000000000e+00
0.000000000000000e+00 0.000000000000000e+00 0.000000000000000e+00
0.000000000000000e+00 0.000000000000000e+00 0.000000000000000e+00
0.000000000000000e+00 0.000000000000000e+00 0.000000000000000e+00
0.000000000000000e+00 0.000000000000000e+00 0.000000000000000e+00
0.000000000000000e+00 0.000000000000000e+00 0.000000000000000e+00
0.000000000000000e+00 0.000000000000000e+00 0.000000000000000e+00
0.000000000000000e+00 0.000000000000000e+00 0.000000000000000e+00
0.000000000000000e+00 0.000000000000000e+00 0.000000000000000e+00
0.000000000000000e+00 0.000000000000000e+00 0.000000000000000e+00
0.000000000000000e+00 0.000000000000000e+00 0.000000000000000e+00
0.000000000000000e+00 0.000000000000000e+00 0.000000000000000e+00
0.000000000000000e+00 0.000000000000000e+00 0.000000000000000e+00
0.000000000000000e+00 0.000000000000000e+00 0.000000000000000e+00
0.000000000000000e+00 0.000000000000000e+00 0.000000000000000e+00
0.000000000000000e+00 0.000000000000000e+00 0.000000000000000e+00
0.000000000000000e+00 0.000000000000000e+00 0.000000000000000e+00
0.000000000000000e+00 0.000000000000000e+00 0.000000000000000e+00
0.000000000000000e+00 0.000000000000000e+00 0.000000000000000e+00
0.000000000000000e+00 0.000000000000000e+00 0.000000000000000e+00
0.000000000000000e+00 0.000000000000000e+00 0.000000000000000e+00
0.000000000000000e+00 0.000000000000000e+00 0.000000000000000e+00
0.000000000000000e+00 0.000000000000000e+00 0.000000000000000e+00
0.000000000000000e+00 0.000000000000000e+00 0.000000000000000e+00
0.000000000000000e+00 0.000000000000000e+00 0.000000000000000e+00
0.000000000000000e+00 0.000000000000000e+00 0.000000000000000e+00
0.000000000000000e+00 0.000000000000000e+00 0.000000000000000e+00
0.000000000000000e+00 0.000000000000000e+00 0.000000000000000e+00
0.000000000000000e+00 0.000000000000000e+00 0.000000000000000e+00
0.000000000000000e+00 0.000000000000000e+00 0.000000000000000e+00
0.000000000000000e+00 0.000000000000000e+00 0.000000000000000e+00
0.000000000000000e+00 0.000000000000000e+00 0.000000000000000e+00
0.000000000000000e+00 0.000000000000000e+00 0.000000000000000e+00
0.000000000000000e+00 0.000000000000000e+00 0.000000000000000e+00
0.000000000000000e+00 0.000000000000000e+00 0.000000000000000e+00
0.000000000000000e+00 0.000000000000000e+00 0.000000000000000e+00
0.000000000000000e+00 0.000000000000000e+00 0.000000000000000e+00
0.000000000000000e+00 0.000000000000000e+00 0.000000000000000e+00
0.000000000000000e+00 0.000000000000000e+00 0.000000000000000e+00
0.000000000000000e+00 0.000000000000000e+00 0.000000000000000e+00
0.000000000000000e+00 0.000000000000000e+00 0.000000000000000e+00
0.000000000000000e+00 0.000000000000000e+00 0.000000000000000e+00
0.000000000000000e+00 0.000000000000000e+00 0.000000000000000e+00
0.000000000000000e+00 0.000000000000000e+00 0.000000000000000e+00
0.000000000000000e+00 0.000000000000000e+00 0.000000000000000e+00
0.000000000000000e+00 0.000000000000000e+00 0.000000000000000e+00
0.000000000000000e+00 0.000000000000000e+00 0.000000000000000e+00
0.000000000000000e+00 0.000000000000000e+00 0.000000000000000e+00
0.000000000000000e+00 0.000000000000000e+00 0.000000000000000e+00
0.000000000000000e+00 0.000000000000000e+00 0.000000000000000e+00
0.000000000000000e+00 0.000000000000000e+00 0.000000000000000e+00
0.000000000000000e+00 0.000000000000000e+00 0.000000000000000e+00
0.000000000000000e+00 0.000000000000000e+00 0.000000000000000e+00
0.000000000000000e+00 0.000000000000000e+00 0.000000000000000e+00
0.000000000000000e+00 0.000000000000000e+00 0.000000000000000e+00
0.000000000000000e+00 0.000000000000000e+00 0.000000000000000e+00
0.000000000000000e+00 0.000000000000000e+00 0.000000000000000e+00
0.000000000000000e+00 0.000000000000000e+00 0.000000000000000e+00
0.000000000000000e+00 0.000000000000000e+00 0.000000000000000e+00
0.000000000000000e+00 0.000000000000000e+00 0.000000000000000e+00
0.000000000000000e+00 0.000000000000000e+00 0.000000000000000e+00
0.000000000000000e+00 0.000000000000000e+00 0.000000000000000e+00
0.000000000000000e+00 0.000000000000000e+00 0.000000000000000e+00
0.000000000000000e+00 0.000000000000000e+00 0.000000000000000e+00
0.000000000000000e+00 0.000000000000000e+00 0.000000000000000e+00
0.000000000000000e+00 0.000000000000000e+00 0.000000000000000e+00
0.000000000000000e+00 0.000000000000000e+00 0.000000000000000e+00
0.000000000000000e+00 0.000000000000000e+00 0.000000000000000e+00
0.000000000000000e+00 0.000000000000000e+00 0.000000000000000e+00
0.000000000000000e+00 0.000000000000000e+00 0.000000000000000e+00
0.000000000000000e+00 0.000000000000000e+00 0.000000000000000e+00
0.000000000000000e+00 0.000000000000000e+00 0.000000000000000e+00
0.000000000000000e+00 0.000000000000000e+00 0.000000000000000e+00
0.000000000000000e+00 0.000000000000000e+00 0.000000000000000e+00
0.000000000000000e+00 0.000000000000000e+00 0.000000000000000e+00
0.000000000000000e+00 0.000000000000000e+00 0.000000000000000e+00
0.000000000000000e+00 0.000000000000000e+00 0.000000000000000e+00
0.000000000000000e+00 0.000000000000000e+00 0.000000000000000e+00
0.000000000000000e+00 0.000000000000000e+00 0.000000000000000e+00
0.000000000000000e+00 0.000000000000000e+00 0.000000000000000e+00
0.000000000000000e+00 0.000000000000000e+00 0.000000000000000e+00
0.000000000000000e+00 0.000000000000000e+00 0.000000000000000e+00
0.000000000000000e+00 0.000000000000000e+00 0.000000000000000e+00
0.000000000000000e+00 0.000000000000000e+00 0.000000000000000e+00
0.000000000000000e+00 0.000000000000000e+00 0.000000000000000e+00
0.000000000000000e+00 0.000000000000000e+00 0.000000000000000e+00
0.000000000000000e+00 0.000000000000000e+00 0.000000000000000e+00
0.000000000000000e+00 0.000000000000000e+00 0.000000000000000e+00
0.000000000000000e+00 0.000000000000000e+00 0.000000000000000e+00
0.000000000000000e+00 0.000000000000000e+00 0.000000000000000e+00
0.000000000000000e+00 0.000000000000000e+00 0.000000000000000e+00
0.000000000000000e+00 0.000000000000000e+00 0.000000000000000e+00
0.000000000000000e+00 0.000000000000000e+00 0.000000000000000e+00
0.000000000000000e+00 0.000000000000000e+00 0.000000000000000e+00
0.000000000000000e+00 0.000000000000000e+00 0.000000000000000e+00
0.000000000000000e+00 0.000000000000000e+00 0.000000000000000e+00
0.000000000000000e+00 0.000000000000000e+00 0.000000000000000e+00
0.000000000000000e+00 0.000000000000000e+00 0.000000000000000e+00
0.000000000000000e+00 0.000000000000000e+00 0.000000000000000e+00
0.000000000000000e+00 0.000000000000000e+00 0.000000000000000e+00
0.000000000000000e+00 0.000000000000000e+00 0.000000000000000e+00
0.000000000000000e+00 0.000000000000000e+00 0.000000000000000e+00
0.000000000000000e+00 0.000000000000000e+00 0.000000000000000e+00
0.000000000000000e+00 0.000000000000000e+00 0.000000000000000e+00
0.000000000000000e+00 0.000000000000000e+00 0.000000000000000e+00
0.000000000000000e+00 0.000000000000000e+00 0.000000000000000e+00
0.000000000000000e+00 0.000000000000000e+00 0.000000000000000e+00
0.000000000000000e+00 0.000000000000000e+00 0.000000000000000e+00
0.000000000000000e+00 0.000000000000000e+00 0.000000000000000e+00
0.000000000000000e+00 0.000000000000000e+00 0.000000000000000e+00
0.000000000000000e+00 0.000000000000000e+00 0.000000000000000e+00
0.000000000000000e+00 0.000000000000000e+00 0.000000000000000e+00
0.000000000000000e+00 0.000000000000000e+00 0.000000000000000e+00
0.000000000000000e+00 0.000000000000000e+00 0.000000000000000e+00
0.000000000000000e+00 0.000000000000000e+00 0.000000000000000e+00
0.000000000000000e+00 0.000000000000000e+00 0.000000000000000e+00
0.000000000000000e+00 0.000000000000000e+00 0.000000000000000e+00
0.000000000000000e+00 0.000000000000000e+00 0.000000000000000e+00
0.000000000000000e+00 0.000000000000000e+00 0.000000000000000e+00
0.000000000000000e+00 0.000000000000000e+00 0.000000000000000e+00
0.000000000000000e+00 0.000000000000000e+00 0.000000000000000e+00
0.000000000000000e+00 0.000000000000000e+00 0.000000000000000e+00
0.000000000000000e+00 0.000000000000000e+00 0.000000000000000e+00
0.000000000000000e+00 0.000000000000000e+00 0.000000000000000e+00
0.000000000000000e+00 0.000000000000000e+00 0.000000000000000e+00
0.000000000000000e+00 0.000000000000000e+00 0.000000000000000e+00
0.000000000000000e+00 0.000000000000000e+00 0.000000000000000e+00
0.000000000000000e+00 0.000000000000000e+00 0.000000000000000e+00
0.000000000000000e+00 0.000000000000000e+00 0.000000000000000e+00
0.000000000000000e+00 0.000000000000000e+00 0.000000000000000e+00
0.000000000000000e+00 0.000000000000000e+00 0.000000000000000e+00
0.000000000000000e+00 0.000000000000000e+00 0.000000000000000e+00
0.000000000000000e+00 0.000000000000000e+00 0.000000000000000e+00
0.000000000000000e+00 0.000000000000000e+00 0.000000000000000e+00
0.000000000000000e+00 0.000000000000000e+00 0.000000000000000e+00
0.000000000000000e+00 0.000000000000000e+00 0.000000000000000e+00
0.000000000000000e+00 0.000000000000000e+00 0.000000000000000e+00
0.000000000000000e+00 0.000000000000000e+00 0.000000000000000e+00
0.000000000000000e+00 0.000000000000000e+00 0.000000000000000e+00
0.000000000000000e+00 0.000000000000000e+00 0.000000000000000e+00
0.000000000000000e+00 0.000000000000000e+00 0.000000000000000e+00
0.000000000000000e+00 0.000000000000000e+00 0.000000000000000e+00
0.000000000000000e+00 0.000000000000000e+00 0.000000000000000e+00
0.000000000000000e+00 0.000000000000000e+00 0.000000000000000e+00
0.000000000000000e+00 0.000000000000000e+00 0.000000000000000e+00
0.000000000000000e+00 0.000000000000000e+00 0.000000000000000e+00
0.000000000000000e+00 0.000000000000000e+00 0.000000000000000e+00
0.000000000000000e+00 0.000000000000000e+00 0.000000000000000e+00
0.000000000000000e+00 0.000000000000000e+00 0.000000000000000e+00
0.000000000000000e+00 0.000000000000000e+00 0.000000000000000e+00
0.000000000000000e+00 0.000000000000000e+00 0.000000000000000e+00
0.000000000000000e+00 0.000000000000000e+00 0.000000000000000e+00
0.000000000000000e+00 0.000000000000000e+00 0.000000000000000e+00
0.000000000000000e+00 0.000000000000000e+00 0.000000000000000e+00
0.000000000000000e+00 0.000000000000000e+00 0.000000000000000e+00
0.000000000000000e+00 0.000000000000000e+00 0.000000000000000e+00
0.000000000000000e+00 0.000000000000000e+00 0.000000000000000e+00
0.000000000000000e+00 0.000000000000000e+00 0.000000000000000e+00
0.000000000000000e+00 0.000000000000000e+00 0.000000000000000e+00
0.000000000000000e+00 0.000000000000000e+00 0.000000000000000e+00
0.000000000000000e+00 0.000000000000000e+00 0.000000000000000e+00
0.000000000000000e+00 0.000000000000000e+00 0.000000000000000e+00
0.000000000000000e+00 0.000000000000000e+00 0.000000000000000e+00
0.000000000000000e+00 0.000000000000000e+00 0.000000000000000e+00
0.000000000000000e+00 0.000000000000000e+00 0.000000000000000e+00
0.000000000000000e+00 0.000000000000000e+00 0.000000000000000e+00
0.000000000000000e+00 0.000000000000000e+00 0.000000000000000e+00
0.000000000000000e+00 0.000000000000000e+00 0.000000000000000e+00
0.000000000000000e+00 0.000000000000000e+00 0.000000000000000e+00
0.000000000000000e+00 0.000000000000000e+00 0.000000000000000e+00
0.000000000000000e+00 0.000000000000000e+00 0.000000000000000e+00
0.000000000000000e+00 0.000000000000000e+00 0.000000000000000e+00
0.000000000000000e+00 0.000000000000000e+00 0.000000000000000e+00
0.000000000000000e+00 0.000000000000000e+00 0.000000000000000e+00
0.000000000000000e+00 0.000000000000000e+00 0.000000000000000e+00
0.000000000000000e+00 0.000000000000000e+00 0.000000000000000e+00
0.000000000000000e+00 0.000000000000000e+00 0.000000000000000e+00
0.000000000000000e+00 0.000000000000000e+00 0.000000000000000e+00
0.000000000000000e+00 0.000000000000000e+00 0.000000000000000e+00
0.000000000000000e+00 0.000000000000000e+00 0.000000000000000e+00
0.000000000000000e+00 0.000000000000000e+00 0.000000000000000e+00
0.000000000000000e+00 0.000000000000000e+00 0.000000000000000e+00
0.000000000000000e+00 0.000000000000000e+00 0.000000000000000e+00
0.000000000000000e+00 0.000000000000000e+00 0.000000000000000e+00
0.000000000000000e+00 0.000000000000000e+00 0.000000000000000e+00
0.000000000000000e+00 0.000000000000000e+00 0.000000000000000e+00
0.000000000000000e+00 0.000000000000000e+00 0.000000000000000e+00
0.000000000000000e+00 0.000000000000000e+00 0.000000000000000e+00
0.000000000000000e+00 0.000000000000000e+00 0.000000000000000e+00
0.000000000000000e+00 0.000000000000000e+00 0.000000000000000e+00
0.000000000000000e+00 0.000000000000000e+00 0.000000000000000e+00
0.000000000000000e+00 0.000000000000000e+00 0.000000000000000e+00
0.000000000000000e+00 0.000000000000000e+00 0.000000000000000e+00
0.000000000000000e+00 0.000000000000000e+00 0.000000000000000e+00
0.000000000000000e+00 0.000000000000000e+00 0.000000000000000e+00
0.000000000000000e+00 0.000000000000000e+00 0.000000000000000e+00
0.000000000000000e+00 0.000000000000000e+00 0.000000000000000e+00
0.000000000000000e+00 0.000000000000000e+00 0.000000000000000e+00
0.000000000000000e+00 0.000000000000000e+00 0.000000000000000e+00
0.000000000000000e+00 0.000000000000000e+00 0.000000000000000e+00
0.000000000000000e+00 0.000000000000000e+00 0.000000000000000e+00
0.000000000000000e+00 0.000000000000000e+00 0.000000000000000e+00
0.000000000000000e+00 0.000000000000000e+00 0.000000000000000e+00
0.000000000000000e+00 0.000000000000000e+00 0.000000000000000e+00
0.000000000000000e+00 0.000000000000000e+00 0.000000000000000e+00
0.000000000000000e+00 0.000000000000000e+00 0.000000000000000e+00
0.000000000000000e+00 0.000000000000000e+00 0.000000000000000e+00
0.000000000000000e+00 0.000000000000000e+00 0.000000000000000e+00
0.000000000000000e+00 0.000000000000000e+00 0.000000000000000e+00
0.000000000000000e+00 0.000000000000000e+00 0.000000000000000e+00
0.000000000000000e+00 0.000000000000000e+00 0.000000000000000e+00
0.000000000000000e+00 0.000000000000000e+00 0.000000000000000e+00
0.000000000000000e+00 0.000000000000000e+00 0.000000000000000e+00
0.000000000000000e+00 0.000000000000000e+00 0.000000000000000e+00
0.000000000000000e+00 0.000000000000000e+00 0.000000000000000e+00
0.000000000000000e+00 0.000000000000000e+00 0.000000000000000e+00
0.000000000000000e+00 0.000000000000000e+00 0.000000000000000e+00
0.000000000000000e+00 0.000000000000000e+00 0.000000000000000e+00
0.000000000000000e+00 0.000000000000000e+00 0.000000000000000e+00
0.000000000000000e+00 0.000000000000000e+00 0.000000000000000e+00
0.000000000000000e+00 0.000000000000000e+00 0.000000000000000e+00
0.000000000000000e+00 0.000000000000000e+00 0.000000000000000e+00
0.000000000000000e+00 0.000000000000000e+00 0.000000000000000e+00
0.000000000000000e+00 0.000000000000000e+00 0.000000000000000e+00
0.000000000000000e+00 0.000000000000000e+00 0.000000000000000e+00
0.000000000000000e+00 0.000000000000000e+00 0.000000000000000e+00
0.000000000000000e+00 0.000000000000000e+00 0.000000000000000e+00
0.000000000000000e+00 0.000000000000000e+00 0.000000000000000e+00
0.000000000000000e+00 0.000000000000000e+00 0.000000000000000e+00
0.000000000000000e+00 0.000000000000000e+00 0.000000000000000e+00
0.000000000000000e+00 0.000000000000000e+00 0.000000000000000e+00
0.000000000000000e+00 0.000000000000000e+00 0.000000000000000e+00
0.000000000000000e+00 0.000000000000000e+00 0.000000000000000e+00
0.000000000000000e+00 0.000000000000000e+00 0.000000000000000e+00
0.000000000000000e+00 0.000000000000000e+00 0.000000000000000e+00
0.000000000000000e+00 0.000000000000000e+00 0.000000000000000e+00
0.000000000000000e+00 0.000000000000000e+00 0.000000000000000e+00
0.000000000000000e+00 0.000000000000000e+00 0.000000000000000e+00
0.000000000000000e+00 0.000000000000000e+00 0.000000000000000e+00
0.000000000000000e+00 0.000000000000000e+00 0.000000000000000e+00
0.000000000000000e+00 0.000000000000000e+00 0.000000000000000e+00
0.000000000000000e+00 0.000000000000000e+00 0.000000000000000e+00
0.000000000000000e+00 0.000000000000000e+00 0.000000000000000e+00
0.000000000000000e+00 0.000000000000000e+00 0.000000000000000e+00
0.000000000000000e+00 0.000000000000000e+00 0.000000000000000e+00
0.000000000000000e+00 0.000000000000000e+00 0.000000000000000e+00
0.000000000000000e+00 0.000000000000000e+00 0.000000000000000e+00
0.000000000000000e+00 0.000000000000000e+00 0.000000000000000e+00
0.000000000000000e+00 0.000000000000000e+00 0.000000000000000e+00
0.000000000000000e+00 0.000000000000000e+00 0.000000000000000e+00
0.000000000000000e+00 0.000000000000000e+00 0.000000000000000e+00
0.000000000000000e+00 0.000000000000000e+00 0.000000000000000e+00
0.000000000000000e+00 0.000000000000000e+00 0.000000000000000e+00
0.000000000000000e+00 0.000000000000000e+00 0.000000000000000e+00
0.000000000000000e+00 0.000000000000000e+00 0.000000000000000e+00
0.000000000000000e+00 0.000000000000000e+00 0.000000000000000e+00
0.000000000000000e+00 0.000000000000000e+00 0.000000000000000e+00
0.000000000000000e+00 0.000000000000000e+00 0.000000000000000e+00
0.000000000000000e+00 0.000000000000000e+00 0.000000000000000e+00
0.000000000000000e+00 0.000000000000000e+00 0.000000000000000e+00
0.000000000000000e+00 0.000000000000000e+00 0.000000000000000e+00
0.000000000000000e+00 0.000000000000000e+00 0.000000000000000e+00
0.000000000000000e+00 0.000000000000000e+00 0.000000000000000e+00
0.000000000000000e+00 0.000000000000000e+00 0.000000000000000e+00
0.000000000000000e+00 0.000000000000000e+00 0.000000000000000e+00
0.000000000000000e+00 0.000000000000000e+00 0.000000000000000e+00
0.000000000000000e+00 0.000000000000000e+00 0.000000000000000e+00
0.000000000000000e+00 0.000000000000000e+00 0.000000000000000e+00
0.000000000000000e+00 0.000000000000000e+00 0.000000000000000e+00
0.000000000000000e+00 0.000000000000000e+00 0.000000000000000e+00
0.000000000000000e+00 0.000000000000000e+00 0.000000000000000e+00
0.000000000000000e+00 0.000000000000000e+00 0.000000000000000e+00
0.000000000000000e+00 0.000000000000000e+00 0.000000000000000e+00
0.000000000000000e+00 0.000000000000000e+00 0.000000000000000e+00
0.000000000000000e+00 0.000000000000000e+00 0.000000000000000e+00
0.000000000000000e+00 0.000000000000000e+00 0.000000000000000e+00
0.000000000000000e+00 0.000000000000000e+00 0.000000000000000e+00
0.000000000000000e+00 0.000000000000000e+00 0.000000000000000e+00
0.000000000000000e+00 0.000000000000000e+00 0.000000000000000e+00
0.000000000000000e+00 0.000000000000000e+00 0.000000000000000e+00
0.000000000000000e+00 0.000000000000000e+00 0.000000000000000e+00
0.000000000000000e+00 0.000000000000000e+00 0.000000000000000e+00
0.000000000000000e+00 0.000000000000000e+00 0.000000000000000e+00
0.000000000000000e+00 0.000000000000000e+00 0.000000000000000e+00
0.000000000000000e+00 0.000000000000000e+00 0.000000000000000e+00
0.000000000000000e+00 0.000000000000000e+00 0.000000000000000e+00
0.000000000000000e+00 0.000000000000000e+00 0.000000000000000e+00
0.000000000000000e+00 0.000000000000000e+00 0.000000000000000e+00
0.000000000000000e+00 0.000000000000000e+00 0.000000000000000e+00
0.000000000000000e+00 0.000000000000000e+00 0.000000000000000e+00
0.000000000000000e+00 0.000000000000000e+00 0.000000000000000e+00
0.000000000000000e+00 0.000000000000000e+00 0.000000000000000e+00
0.000000000000000e+00 0.000000000000000e+00 0.000000000000000e+00
0.000000000000000e+00 0.000000000000000e+00 0.000000000000000e+00
0.000000000000000e+00 0.000000000000000e+00 0.000000000000000e+00
0.000000000000000e+00 0.000000000000000e+00 0.000000000000000e+00
0.000000000000000e+00 0.000000000000000e+00 0.000000000000000e+00
0.000000000000000e+00 0.000000000000000e+00 0.000000000000000e+00
0.000000000000000e+00 0.000000000000000e+00 0.000000000000000e+00
0.000000000000000e+00 0.000000000000000e+00 0.000000000000000e+00
0.000000000000000e+00 0.000000000000000e+00 0.000000000000000e+00
0.000000000000000e+00 0.000000000000000e+00 0.000000000000000e+00
0.000000000000000e+00 0.000000000000000e+00 0.000000000000000e+00
0.000000000000000e+00 0.000000000000000e+00 0.000000000000000e+00
0.000000000000000e+00 0.000000000000000e+00 0.000000000000000e+00
0.000000000000000e+00 0.000000000000000e+00 0.000000000000000e+00
0.000000000000000e+00 0.000000000000000e+00 0.000000000000000e+00
0.000000000000000e+00 0.000000000000000e+00 0.000000000000000e+00
0.000000000000000e+00 0.000000000000000e+00 0.000000000000000e+00
0.000000000000000e+00 0.000000000000000e+00 0.000000000000000e+00
0.000000000000000e+00 0.000000000000000e+00 0.000000000000000e+00
0.000000000000000e+00 0.000000000000000e+00 0.000000000000000e+00
0.000000000000000e+00 0.000000000000000e+00 0.000000000000000e+00
0.000000000000000e+00 0.000000000000000e+00 0.000000000000000e+00
0.000000000000000e+00 0.000000000000000e+00 0.000000000000000e+00
0.000000000000000e+00 0.000000000000000e+00 0.000000000000000e+00
0.000000000000000e+00 0.000000000000000e+00 0.000000000000000e+00
0.000000000000000e+00 0.000000000000000e+00 0.000000000000000e+00
0.000000000000000e+00 0.000000000000000e+00 0.000000000000000e+00
0.000000000000000e+00 0.000000000000000e+00 0.000000000000000e+00
0.000000000000000e+00 0.000000000000000e+00 0.000000000000000e+00
0.000000000000000e+00 0.000000000000000e+00 0.000000000000000e+00
0.000000000000000e+00 0.000000000000000e+00 0.000000000000000e+00
0.000000000000000e+00 0.000000000000000e+00 0.000000000000000e+00
0.000000000000000e+00 0.000000000000000e+00 0.000000000000000e+00
0.000000000000000e+00 0.000000000000000e+00 0.000000000000000e+00
0.000000000000000e+00 0.000000000000000e+00 0.000000000000000e+00
0.000000000000000e+00 0.000000000000000e+00 0.000000000000000e+00
0.000000000000000e+00 0.000000000000000e+00 0.000000000000000e+00
0.000000000000000e+00 0.000000000000000e+00 0.000000000000000e+00
0.000000000000000e+00 0.000000000000000e+00 0.000000000000000e+00
0.000000000000000e+00 0.000000000000000e+00 0.000000000000000e+00
0.000000000000000e+00 0.000000000000000e+00 0.000000000000000e+00
0.000000000000000e+00 0.000000000000000e+00 0.000000000000000e+00
0.000000000000000e+00 0.000000000000000e+00 0.000000000000000e+00
0.000000000000000e+00 0.000000000000000e+00 0.000000000000000e+00
0.000000000000000e+00 0.000000000000000e+00 0.000000000000000e+00
0.000000000000000e+00 0.000000000000000e+00 0.000000000000000e+00
0.000000000000000e+00 0.000000000000000e+00 0.000000000000000e+00
0.000000000000000e+00 0.000000000000000e+00 0.000000000000000e+00
0.000000000000000e+00 0.000000000000000e+00 0.000000000000000e+00
0.000000000000000e+00 0.000000000000000e+00 0.000000000000000e+00
0.000000000000000e+00 0.000000000000000e+00 0.000000000000000e+00
0.000000000000000e+00 0.000000000000000e+00 0.000000000000000e+00
0.000000000000000e+00 0.000000000000000e+00 0.000000000000000e+00
0.000000000000000e+00 0.000000000000000e+00 0.000000000000000e+00
0.000000000000000e+00 0.000000000000000e+00 0.000000000000000e+00
0.000000000000000e+00 0.000000000000000e+00 0.000000000000000e+00
0.000000000000000e+00 0.000000000000000e+00 0.000000000000000e+00
0.000000000000000e+00 0.000000000000000e+00 0.000000000000000e+00
0.000000000000000e+00 0.000000000000000e+00 0.000000000000000e+00
0.000000000000000e+00 0.000000000000000e+00 0.000000000000000e+00
0.000000000000000e+00 0.000000000000000e+00 0.000000000000000e+00
0.000000000000000e+00 0.000000000000000e+00 0.000000000000000e+00
0.000000000000000e+00 0.000000000000000e+00 0.000000000000000e+00
0.000000000000000e+00 0.000000000000000e+00 0.000000000000000e+00
0.000000000000000e+00 0.000000000000000e+00 0.000000000000000e+00
0.000000000000000e+00 0.000000000000000e+00 0.000000000000000e+00
0.000000000000000e+00 0.000000000000000e+00 0.000000000000000e+00
0.000000000000000e+00 0.000000000000000e+00 0.000000000000000e+00
0.000000000000000e+00 0.000000000000000e+00 0.000000000000000e+00
0.000000000000000e+00 0.000000000000000e+00 0.000000000000000e+00
0.000000000000000e+00 0.000000000000000e+00 0.000000000000000e+00
0.000000000000000e+00 0.000000000000000e+00 0.000000000000000e+00
0.000000000000000e+00 0.000000000000000e+00 0.000000000000000e+00
0.000000000000000e+00 0.000000000000000e+00 0.000000000000000e+00
0.000000000000000e+00 0.000000000000000e+00 0.000000000000000e+00
0.000000000000000e+00 0.000000000000000e+00 0.000000000000000e+00
0.000000000000000e+00 0.000000000000000e+00 0.000000000000000e+00
0.000000000000000e+00 0.000000000000000e+00 0.000000000000000e+00
0.000000000000000e+00 0.000000000000000e+00 0.000000000000000e+00
0.000000000000000e+00 0.000000000000000e+00 0.000000000000000e+00
0.000000000000000e+00 0.000000000000000e+00 0.000000000000000e+00
0.000000000000000e+00 0.000000000000000e+00 0.000000000000000e+00
0.000000000000000e+00 0.000000000000000e+00 0.000000000000000e+00
0.000000000000000e+00 0.000000000000000e+00 0.000000000000000e+00
0.000000000000000e+00 0.000000000000000e+00 0.000000000000000e+00
0.000000000000000e+00 0.000000000000000e+00 0.000000000000000e+00
0.000000000000000e+00 0.000000000000000e+00 0.000000000000000e+00
0.000000000000000e+00 0.000000000000000e+00 0.000000000000000e+00
0.000000000000000e+00 0.000000000000000e+00 0.000000000000000e+00
0.000000000000000e+00 0.000000000000000e+00 0.000000000000000e+00
0.000000000000000e+00 0.000000000000000e+00 0.000000000000000e+00
0.000000000000000e+00 0.000000000000000e+00 0.000000000000000e+00
0.000000000000000e+00 0.000000000000000e+00 0.000000000000000e+00
0.000000000000000e+00 0.000000000000000e+00 0.000000000000000e+00
0.000000000000000e+00 0.000000000000000e+00 0.000000000000000e+00
0.000000000000000e+00 0.000000000000000e+00 0.000000000000000e+00
0.000000000000000e+00 0.000000000000000e+00 0.000000000000000e+00
0.000000000000000e+00 0.000000000000000e+00 0.000000000000000e+00
0.000000000000000e+00 0.000000000000000e+00 0.000000000000000e+00
0.000000000000000e+00 0.000000000000000e+00 0.000000000000000e+00
0.000000000000000e+00 0.000000000000000e+00 0.000000000000000e+00
0.000000000000000e+00 0.000000000000000e+00 0.000000000000000e+00
0.000000000000000e+00 0.000000000000000e+00 0.000000000000000e+00
0.000000000000000e+00 0.000000000000000e+00 0.000000000000000e+00
0.000000000000000e+00 0.000000000000000e+00 0.000000000000000e+00
0.000000000000000e+00 0.000000000000000e+00 0.000000000000000e+00
0.000000000000000e+00 0.000000000000000e+00 0.000000000000000e+00
0.000000000000000e+00 0.000000000000000e+00 0.000000000000000e+00
0.000000000000000e+00 0.000000000000000e+00 0.000000000000000e+00
0.000000000000000e+00 0.000000000000000e+00 0.000000000000000e+00
0.000000000000000e+00 0.000000000000000e+00 0.000000000000000e+00
0.000000000000000e+00 0.000000000000000e+00 0.000000000000000e+00
0.000000000000000e+00 0.000000000000000e+00 0.000000000000000e+00
0.000000000000000e+00 0.000000000000000e+00 0.000000000000000e+00
0.000000000000000e+00 0.000000000000000e+00 0.000000000000000e+00
0.000000000000000e+00 0.000000000000000e+00 0.000000000000000e+00
0.000000000000000e+00 0.000000000000000e+00 0.000000000000000e+00
0.000000000000000e+00 0.000000000000000e+00 0.000000000000000e+00
0.000000000000000e+00 0.000000000000000e+00 0.000000000000000e+00
0.000000000000000e+00 0.000000000000000e+00 0.000000000000000e+00
0.000000000000000e+00 0.000000000000000e+00 0.000000000000000e+00
0.000000000000000e+00 0.000000000000000e+00 0.000000000000000e+00
0.000000000000000e+00 0.000000000000000e+00 0.000000000000000e+00
0.000000000000000e+00 0.000000000000000e+00 0.000000000000000e+00
0.000000000000000e+00 0.000000000000000e+00 0.000000000000000e+00
0.000000000000000e+00 0.000000000000000e+00 0.000000000000000e+00
0.000000000000000e+00 0.000000000000000e+00 0.000000000000000e+00
0.000000000000000e+00 0.000000000000000e+00 0.000000000000000e+00
0.000000000000000e+00 0.000000000000000e+00 0.000000000000000e+00
0.000000000000000e+00 0.000000000000000e+00 0.000000000000000e+00
0.000000000000000e+00 0.000000000000000e+00 0.000000000000000e+00
0.000000000000000e+00 0.000000000000000e+00 0.000000000000000e+00
0.000000000000000e+00 0.000000000000000e+00 0.000000000000000e+00
0.000000000000000e+00 0.000000000000000e+00 0.000000000000000e+00
0.000000000000000e+00 0.000000000000000e+00 0.000000000000000e+00
0.000000000000000e+00 0.000000000000000e+00 0.000000000000000e+00
0.000000000000000e+00 0.000000000000000e+00 0.000000000000000e+00
0.000000000000000e+00 0.000000000000000e+00 0.000000000000000e+00
0.000000000000000e+00 0.000000000000000e+00 0.000000000000000e+00
0.000000000000000e+00 0.000000000000000e+00 0.000000000000000e+00
0.000000000000000e+00 0.000000000000000e+00 0.000000000000000e+00
0.000000000000000e+00 0.000000000000000e+00 0.000000000000000e+00
0.000000000000000e+00 0.000000000000000e+00 0.000000000000000e+00
0.000000000000000e+00 0.000000000000000e+00 0.000000000000000e+00
0.000000000000000e+00 0.000000000000000e+00 0.000000000000000e+00
0.000000000000000e+00 0.000000000000000e+00 0.000000000000000e+00
0.000000000000000e+00 0.000000000000000e+00 0.000000000000000e+00
0.000000000000000e+00 0.000000000000000e+00 0.000000000000000e+00
0.000000000000000e+00 0.000000000000000e+00 0.000000000000000e+00
0.000000000000000e+00 0.000000000000000e+00 0.000000000000000e+00
0.000000000000000e+00 0.000000000000000e+00 0.000000000000000e+00
0.000000000000000e+00 0.000000000000000e+00 0.000000000000000e+00
0.000000000000000e+00 0.000000000000000e+00 0.000000000000000e+00
0.000000000000000e+00 0.000000000000000e+00 0.000000000000000e+00
0.000000000000000e+00 0.000000000000000e+00 0.000000000000000e+00
0.000000000000000e+00 0.000000000000000e+00 0.000000000000000e+00
0.000000000000000e+00 0.000000000000000e+00 0.000000000000000e+00
0.000000000000000e+00 0.000000000000000e+00 0.000000000000000e+00
0.000000000000000e+00 0.000000000000000e+00 0.000000000000000e+00
0.000000000000000e+00 0.000000000000000e+00 0.000000000000000e+00
0.000000000000000e+00 0.000000000000000e+00 0.000000000000000e+00
0.000000000000000e+00 0.000000000000000e+00 0.000000000000000e+00
0.000000000000000e+00 0.000000000000000e+00 0.000000000000000e+00
0.000000000000000e+00 0.000000000000000e+00 0.000000000000000e+00
0.000000000000000e+00 0.000000000000000e+00 0.000000000000000e+00
0.000000000000000e+00 0.000000000000000e+00 0.000000000000000e+00
0.000000000000000e+00 0.000000000000000e+00 0.000000000000000e+00
0.000000000000000e+00 0.000000000000000e+00 0.000000000000000e+00
0.000000000000000e+00 0.000000000000000e+00 0.000000000000000e+00
0.000000000000000e+00 0.000000000000000e+00 0.000000000000000e+00
0.000000000000000e+00 0.000000000000000e+00 0.000000000000000e+00
0.000000000000000e+00 0.000000000000000e+00 0.000000000000000e+00
0.000000000000000e+00 0.000000000000000e+00 0.000000000000000e+00
0.000000000000000e+00 0.000000000000000e+00 0.000000000000000e+00
0.000000000000000e+00 0.000000000000000e+00 0.000000000000000e+00
0.000000000000000e+00 0.000000000000000e+00 0.000000000000000e+00
0.000000000000000e+00 0.000000000000000e+00 0.000000000000000e+00
0.000000000000000e+00 0.000000000000000e+00 0.000000000000000e+00
0.000000000000000e+00 0.000000000000000e+00 0.000000000000000e+00
0.000000000000000e+00 0.000000000000000e+00 0.000000000000000e+00
0.000000000000000e+00 0.000000000000000e+00 0.000000000000000e+00
0.000000000000000e+00 0.000000000000000e+00 0.000000000000000e+00
0.000000000000000e+00 0.000000000000000e+00 0.000000000000000e+00
0.000000000000000e+00 0.000000000000000e+00 0.000000000000000e+00
0.000000000000000e+00 0.000000000000000e+00 0.000000000000000e+00
0.000000000000000e+00 0.000000000000000e+00 0.000000000000000e+00
0.000000000000000e+00 0.000000000000000e+00 0.000000000000000e+00
0.000000000000000e+00 0.000000000000000e+00 0.000000000000000e+00
0.000000000000000e+00 0.000000000000000e+00 0.000000000000000e+00
0.000000000000000e+00 0.000000000000000e+00 0.000000000000000e+00
0.000000000000000e+00 0.000000000000000e+00 0.000000000000000e+00
6.923714459989138e-03 3.852512142420523e-05 3.147121575487525e-19
7.036522775010648e-03 7.408595089388321e-05 3.192678618282277e-19
7.080523109427185e-03 8.364125437934046e-04 3.140106865651863e-19
 7.508279140976574e-03 -1.744145067121974e-04  3.315938127258929e-19
 6.689221274638415e-03 -1.446479307009639e-03  3.234355726743860e-19
5.782872355156510e-03 1.278033259168985e-03 2.753118179971872e-19
5.820659780031124e-03 2.629277846357412e-03 2.579578852798432e-19
 6.014813009874787e-03 -1.168342282825241e-03  2.640024180712508e-19
 6.149072964063405e-03 -1.194421494450144e-03  2.929117107226152e-19
 6.088044503117240e-03 -8.546865121547279e-04  3.019689193989882e-19
7.144392187421791e-03 8.204793836335023e-05 3.266872937816778e-19
6.927975759263494e-03 2.735490629229849e-04 3.126295185304755e-19
 6.842864905860738e-03 -1.334264111827640e-04  3.106467084039460e-19
6.887866899068447e-03 1.274764031905693e-04 3.127162360634897e-19
 6.908002293269377e-03 -1.407594730664414e-04  3.137321301688691e-19
6.888602824110642e-03 5.542703595492548e-05 3.133256964074123e-19
6.879237465043574e-03 5.535168045730210e-05 3.128976220698240e-19
6.856066977962230e-03 1.083206291029902e-04 3.116658523135610e-19
6.853843183469922e-03 5.128761688300734e-05 3.111177889786663e-19
 6.971012461925855e-03 -1.305007097446006e-04  3.159717441265678e-19
 7.018976796789715e-03 -1.313986251874933e-04  3.214341391784060e-19
6.888833276377276e-03 7.414525810450652e-04 3.134595507558346e-19
6.836608766801320e-03 2.322922327663980e-04 3.092805870595788e-19
6.640281725925196e-03 2.256214917260458e-04 3.015416770689028e-19
 6.714404902286749e-03 -2.142389201684874e-04  3.055515245287379e-19
 6.980665903172274e-03 -2.227346052132286e-04  3.182617836649299e-19
6.885762007885723e-03 2.222991905794601e-04 3.150335937809297e-19
7.056716217176104e-03 1.029319925419621e-03 3.125755043418494e-19
 6.906726500640639e-03 -1.334219670327835e-03  3.091945467918165e-19
6.665970948841371e-03 2.371692634855816e-04 3.062695239222894e-19
 6.844968427621650e-03 -2.287200600114158e-04  3.133862380976417e-19
6.966664799087530e-03 3.677503443807203e-04 3.132811276626989e-19
 6.829950556071275e-03 -8.621782418415636e-04  3.115474293954574e-19
6.840927285038723e-03 4.009841192774785e-04 3.107565438197067e-19
 6.728753081438479e-03 -6.536246185730867e-04  3.073514196909561e-19
6.862707370972151e-03 5.960914240669509e-04 3.088310499326652e-19
 6.761609020894749e-03 -6.050223420949333e-04  3.105939602738372e-19
6.743397368219783e-03 1.217338859069504e-03 3.034885060784330e-19
 7.042422456829279e-03 -6.296217576661227e-04  3.186796271090050e-19
6.754673221100383e-03 5.011311509702580e-04 3.045170046853427e-19
 6.736812417228293e-03 -4.837631987983770e-04  3.075747396521500e-19
6.742208933523555e-03 7.173540109644741e-04 3.041866254074291e-19
 6.871732828778624e-03 -3.281636613874357e-04  3.128254378991307e-19
6.905854622351108e-03 6.364154119360360e-04 3.090799638297683e-19
 6.907709021038756e-03 -5.270092291609458e-04  3.142143575760694e-19
6.902861884378986e-03 5.458805610475882e-04 3.113481539830178e-19
 6.841496568700143e-03 -7.526158432282721e-04  3.117903966002452e-19
6.722806722479868e-03 4.680159591009252e-04 3.030200538881496e-19
 6.785854009077997e-03 -2.749269236442300e-04  3.088250026315133e-19
6.721638045618510e-03 1.083109907719755e-03 3.012550923383875e-19
 6.904149673095005e-03 -1.937904781330264e-04  3.123313091134926e-19
6.959076205061629e-03 3.866462324375583e-04 3.120098245451085e-19
 6.810174469764786e-03 -7.179529428305789e-04  3.109533777729957e-19
6.816718060544284e-03 4.716998402981210e-04 3.073658784205339e-19
 6.889556791599550e-03 -5.320343835606496e-04  3.121819859073293e-19
6.819558553829429e-03 3.323827686861130e-04 3.070332502421095e-19
 6.870456079666225e-03 -4.576150235159636e-04  3.119237601536843e-19
6.817549449402837e-03 2.135430815317072e-04 3.079992829520699e-19
 6.660026852034948e-03 -4.146965623254482e-04  3.052556663340100e-19
6.691873682922688e-03 4.502514989103911e-04 3.015641197996028e-19
 6.973498161569865e-03 -1.941606390249299e-04  3.112075504331387e-19
 5.817024199583692e-03 -3.295478706227409e-03  2.769619188890763e-19
 6.595573187666294e-03 -5.918299764211194e-05  3.027539770291994e-19
6.868438750637845e-03 1.392136142502132e-04 3.094393215598527e-19
 6.845250401510598e-03 -1.268828392409399e-04  3.087120517584408e-19
6.845039226391225e-03 9.736810929626294e-05 3.082483546883891e-19
 6.856160245429979e-03 -1.153328724424028e-04  3.096946639220586e-19
6.822330175862787e-03 1.658853245174657e-04 3.077056789829019e-19
 6.846260171708840e-03 -3.478602780617829e-06  3.078490799238548e-19
 6.875516455310343e-03 -3.493467975181614e-06  3.084335050334792e-19
 6.836320783092247e-03 -8.865035132647593e-04  3.111522787579653e-19
 6.813408215182917e-03 -5.977815973032144e-05  3.083650924899902e-19
6.898177198585616e-03 1.012016889896102e-04 3.093827448317425e-19
 6.925572776288411e-03 -3.917445754383593e-04  3.117950280084897e-19
 6.826304551794370e-03 -1.308637574991778e-05  3.071376693622314e-19
 6.804858868914417e-03 -1.743745586513788e-05  3.064849674623681e-19
6.918741339558644e-03 1.600421659339275e-04 3.077761359004010e-19
 6.872872321097036e-03 -5.453842858876951e-04  3.093449322940150e-19
 6.723941077737314e-03 -1.224711756592934e-05  3.049064007724327e-19
6.901321870584216e-03 2.296707797021933e-04 3.081085542098260e-19
 6.915486946435574e-03 -1.173751543441725e-04  3.084212216115164e-19
 6.845710526795828e-03 -1.884061180122620e-04  3.077988251175282e-19
 6.848049608312107e-03 -7.024820480903137e-05  3.079615130139357e-19
6.787754340632985e-03 1.905200015800073e-04 3.043976046688517e-19
6.845923455151663e-03 4.876779323360689e-05 3.055213448834543e-19
6.996917489455157e-03 2.469557675495721e-05 3.094668061331505e-19
 2.059251017375730e-03 -6.453860693061191e-03  1.255564334340932e-19
6.656287297150764e-03 8.521203046973167e-05 3.004008620729554e-19
 6.878812982657734e-03 -3.099909732433395e-05  3.067479544024255e-19
 6.881379516931750e-03 -1.852897965298167e-04  3.079970171087157e-19
6.806751493722615e-03 2.268693107550890e-05 3.051286437279816e-19
6.835664408180802e-03 2.869734750801882e-04 3.027257077140657e-19
 6.780647650936450e-03 -1.187582352260268e-04  3.011563960754037e-19
 6.798951351575419e-03 -1.190788115629626e-04  3.030221184785335e-19
 6.868500598911134e-03 -1.202969173103903e-04  3.058081478526105e-19
 6.897566210999222e-03 -3.192889068481975e-05  3.062262623646516e-19
6.854619821855454e-03 5.050574181655695e-05 3.031754850879907e-19
 6.857931514357971e-03 -1.265842364051023e-04  3.035524084696251e-19
 6.839676324433712e-03 -3.172064207740349e-05  3.035984481382211e-19
 6.853652023746160e-03 -4.381621950932329e-05  3.038391339925941e-19
6.842201337932650e-03 1.143889901952978e-04 3.017141591063360e-19
6.810552548628067e-03 3.264206819239084e-05 3.009130014441980e-19
6.785947011958261e-03 3.252413714345592e-05 2.989143771474903e-19
 7.076534810300706e-03 -5.206244519704849e-05  3.330058196406335e-19
 6.862888006712644e-03 -4.049229783061998e-04  2.639988782779309e-19
 6.834826021863673e-03  1.340595435857093e-04 -8.553479412394369e-20
6.791639082334170e-03 2.958066848283268e-04 2.198057217042982e-19
6.894082931290092e-03 3.138068603544152e-04 2.793984469933018e-19
 6.793672740508230e-03 -7.095196526425766e-05  2.983755358187478e-19
 6.914813861407030e-03 -4.756167877525217e-05  3.005787688330115e-19
 6.726222845739273e-03 -7.046618606489727e-05  2.981061478939705e-19
6.933353200351980e-03 1.240031109299507e-03 2.953506554075473e-19
 6.951838408468940e-03 -5.276275068308474e-04  3.024185135001141e-19
6.696294502862557e-03 3.965784848379640e-04 2.917837632303541e-19
 6.885199909747225e-03 -9.229447431854903e-05  3.009429066925022e-19
6.926746856749251e-03 7.951608806541805e-04 2.969484795894491e-19
 6.992751042430231e-03 -2.133645932983933e-04  3.028369615368790e-19
6.879519292987090e-03 2.586679751919508e-04 2.970399748066963e-19
 6.859972750921118e-03 -3.301582981362125e-05  2.965158074933198e-19
6.888248903774229e-03 3.057439604591556e-04 2.952153797288921e-19
 6.870802092520582e-03 -1.340936900316332e-04  2.960786210111256e-19
6.803468154707356e-03 2.836381215330269e-04 2.915441494073873e-19
6.826254706477300e-03 3.090543890415035e-05 2.930731821231749e-19
6.724772293039675e-03 1.845722860554090e-04 2.883409125178322e-19
6.638114594857158e-03 1.821938249327325e-04 2.843801211055077e-19
6.552047346828619e-03 2.263231268982875e-04 2.800801042586291e-19
6.444683371465515e-03 1.719266179365293e-04 2.763346952964800e-19
6.315125319977658e-03 2.568848270714293e-04 2.681872827959817e-19
5.892451058856597e-03 3.931240615112235e-03 2.358302006709832e-19
 6.590258749022862e-03 -6.848763563359522e-04  2.804475872712705e-19
 6.486734680992112e-03 -1.426726517126239e-04  2.782458044950024e-19
 6.609811266098916e-03 -4.538480336583441e-04  2.851487873345482e-19
6.773293425993969e-03 2.517034649347599e-04 2.847221169108248e-19
 6.846223524270318e-03 -4.725433335954444e-04  2.906332889769877e-19
6.931252406118567e-03 9.666425876321551e-05 2.899521081870596e-19
 6.960845764299482e-03 -4.952255652387583e-04  2.967075040614879e-19
4.451990066936511e-03 4.874294795768893e-03 1.424053669926695e-19
7.073619959441806e-03 7.837506284401269e-05 2.941290382946224e-19
 6.978838923753567e-03 -4.045050758555024e-05  2.900088840199966e-19
6.914534234606210e-03 6.075005062626583e-05 2.863627429991046e-19
6.907518822729060e-03 2.480233679998427e-06 2.857326445222554e-19
 6.868393740286385e-03 -1.504162759144614e-05  2.837930558945212e-19
6.813853032743167e-03 2.641100991144156e-05 2.806505099906718e-19
6.832292180875952e-03 4.298491435106630e-04 2.773406776198437e-19
 6.837345673754058e-03 -2.297256818289213e-05  2.790141398930972e-19
 6.783053198050296e-03 -1.853034827328427e-04  2.781098240066886e-19
6.801482349483171e-03 1.131003501346098e-05 2.766552790367806e-19
 6.821799346955899e-03 -1.887115593613105e-05  2.751093294601625e-19
 6.829333925965868e-03 -3.220691428036683e-05  2.736780877162201e-19
 6.842841075420389e-03 -3.227061355314657e-05  2.725087925169591e-19
 6.846419666853893e-03 -5.972516666354796e-06  2.697830446734330e-19
6.834990117079762e-03 1.082506453166625e-05 2.668865510731037e-19
 6.858679002259981e-03 -1.192751543708402e-05  2.654917478724683e-19
 6.880313971754271e-03 -1.161247193876665e-04  2.655027967545764e-19
 6.943139733243845e-03 -5.247264700878593e-06  2.629960700603865e-19
6.807190225688496e-03 4.316649470442919e-04 2.477124528072170e-19
 6.824681996755841e-03 -2.631756742644613e-05  2.490734792935969e-19
 6.740478226869091e-03 -7.904203984919668e-05  2.443495050788794e-19
 6.832811634766234e-03 -8.012478511752589e-05  2.441293060701606e-19
 6.899224969099068e-03 -8.090357932799131e-05  2.430439541489354e-19
6.920358439923867e-03 7.188501903048309e-05 2.340873351083177e-19
6.891965024472317e-03 5.758318023925811e-05 2.259718943743921e-19
6.868306878145213e-03 2.609344711758144e-05 2.182924834745631e-19
6.864308013139593e-03 6.552421416172043e-05 2.114348809217403e-19
6.874525913083486e-03 3.860687716019881e-05 2.055598884315380e-19
6.858398789680109e-03 7.878380482422602e-05 1.907409419136422e-19
6.842668802648908e-03 5.643823619938366e-05 1.744078162679298e-19
6.835647956892776e-03 8.154298537310210e-05 1.512190420822922e-19
6.784003507378786e-03 1.443178098570966e-04 1.219475734548468e-19
6.692190893700062e-03 1.423646570751210e-04 9.637660514334595e-20
6.526972410371522e-03 2.357609497213501e-04 5.218274154048571e-20
 3.494159941185248e-03 -6.071259045625757e-03  2.883886972755627e-19
 6.647954306971332e-03 -3.384402938094252e-04  3.817670835178688e-20
 6.834639460684062e-03  1.317831090882489e-04 -3.993259007675034e-20
 6.856131878916896e-03 -4.808253127201831e-04 -4.257890889875958e-20
 6.825965953661661e-03 -1.138284838401140e-05 -1.382020670817849e-19
 6.843062741038938e-03 -5.895426513366821e-05 -2.279428822012759e-19
 6.852952568648843e-03 -5.903946784787752e-05 -3.172753010237395e-19
 6.873784318315072e-03 -4.562541463041005e-05 -4.865466643846357e-19
 6.882711973246395e-03 -8.816028076179647e-05 -6.295795916751250e-19
 6.883275190135793e-03 -4.980417293790698e-05 -1.043904577009723e-18
 6.887481370938838e-03 -4.983460690289258e-05 -1.304986569996528e-18
 6.890332167575997e-03 -4.463926829175793e-05 -1.276689015840565e-18
 6.881630607774554e-03 -4.841294512239994e-05 -1.838763570915004e-18
 6.852690208472951e-03 -2.094794602489567e-05 -3.024711174005684e-18
 6.857416286419737e-03 -9.958674310438542e-05 -4.588077752731855e-18
 6.897445375039999e-03 -1.001680650481944e-04 -6.629563976223438e-18
 6.919788914020100e-03 -1.004925488163536e-04 -9.838382561054315e-18
 6.902984580358558e-03  8.930318079459312e-05 -1.480547186052467e-17
 6.923051616772648e-03 -4.256654351200031e-05 -2.164929067183488e-17
 6.906421774232339e-03 -4.253413571536534e-04 -2.671430320822656e-17
 6.845832228603039e-03 -8.722904533264285e-05 -3.403446964901740e-17
 6.897971582742915e-03  1.457978210707763e-04 -4.627781203829406e-17
 6.940928646533666e-03 -4.135828205583299e-05 -6.428104218497418e-17
 6.866102087103127e-03 -2.166313939097170e-04 -8.427535918806041e-17
 6.879676607175444e-03  1.615801264850534e-06 -1.189105033158064e-16
6.864566066062022e-03 3.140955677580731e-05 2.449130276727763e-16
 6.935751255215777e-03 -8.355257084554118e-05 -6.509478892332435e-15
6.917232105188155e-03 4.040559899584758e-05 1.763847859012270e-16
 6.905937295692822e-03  4.033962267233219e-05 -1.313424162425570e-16
 6.901162157423277e-03 -8.313588808040571e-05 -6.507739704139202e-15
 6.885800829796757e-03  3.055605256623013e-06 -8.207836469996928e-17
 6.878089288278938e-03  5.864535396303985e-05 -6.376721857641178e-17
 6.881582785116547e-03  2.253102444902695e-06 -4.595289456819498e-17
 6.876364341057923e-03  3.851939014285911e-06 -2.793450044067695e-17
 6.864565134185820e-03  3.845329442274593e-06 -1.735808930084210e-17
 6.838707797181223e-03  1.642836594349339e-05 -1.093480630900607e-17
 6.813732617771369e-03  1.636836902609057e-05 -7.020805336296508e-18
 6.802025429109417e-03  1.634024529493958e-05 -4.656145272276828e-18
 6.834845771359180e-03  4.159576223755114e-05 -3.563920457052610e-18
 6.852564538869069e-03 -3.437819536313238e-05 -2.486696221259888e-18
 6.873618255975692e-03  1.606761302077036e-04 -1.694689112861678e-18
 6.857397259186768e-03 -1.444276699024030e-04 -1.328861660017257e-18
 6.845225676818289e-03  1.447609966998088e-04 -1.048350637271167e-18
 6.864326482046124e-03 -8.326614208140967e-05 -7.697766117565166e-19
 6.863701260026047e-03  1.596570403921097e-04 -6.003819415086992e-19
 6.865369708105643e-03 -1.031963051781392e-05 -4.550205575115897e-19
 6.871716016650637e-03  2.708160986872136e-04 -3.546265557391020e-19
 6.881885288456898e-03 -4.527001102310346e-05 -2.825489731770699e-19
 6.844204492613581e-03  6.928274458246648e-05 -1.929139978982524e-19
 6.822187283898035e-03  6.905986803786525e-05 -1.110740365391583e-19
 6.787805183700293e-03  6.871182375181569e-05 -4.716547547433302e-20
 6.785999449262468e-03  5.830003666807557e-05 -3.151976868203005e-21
 6.741960039046632e-03 -1.350144453069076e-05  2.582455817257791e-20
6.654800414469855e-03 1.311005861129369e-04 4.810720093184596e-20
 4.950227469679193e-03  4.834240257388382e-03 -1.786484133721762e-20
 6.731215483141408e-03 -1.814852634056025e-04  8.396396877938710e-20
 6.689176859963249e-03 -7.536631848335718e-05  9.969582126843175e-20
 6.798257403567532e-03 -1.302450538955473e-04  1.206327872420588e-19
 6.853141254465102e-03 -9.754429373795813e-06  1.461175553698325e-19
 6.840250410935634e-03 -3.050782301374453e-05  1.685956501586536e-19
 6.858717080052650e-03 -4.991826595779961e-05  1.849585892314215e-19
 6.865175160729884e-03 -3.766364701145799e-05  1.953569822640941e-19
 6.867639465140477e-03 -1.284304223904865e-06  2.027979946351830e-19
 6.866150615504441e-03 -2.345013626633579e-05  2.101510818623120e-19
 6.861732073980387e-03 -4.830951412560404e-05  2.177423871806392e-19
 6.875354080854350e-03 -4.840541885146653e-05  2.248589903439979e-19
 6.894089536269964e-03 -4.853732443132475e-05  2.320642951647766e-19
 6.918371098524270e-03 -4.375614363924570e-05  2.392039974462757e-19
 6.850519655848034e-03 -4.332700830816974e-05  2.422732485130476e-19
6.834527508479120e-03 6.550507321895000e-04 2.376301648036803e-19
 6.891104317264672e-03 -3.025422871944232e-05  2.470286344804617e-19
 6.832444233378079e-03 -1.697184449587774e-05  2.497554298559732e-19
 6.843815895607912e-03 -2.128893606429095e-04  2.559529856590889e-19
6.838468043071957e-03 4.059448978594422e-05 2.563199758466312e-19
6.717447988965366e-03 1.207634014941027e-05 2.546744955877925e-19
7.200892580948925e-03 6.325506115887904e-04 2.648425979096287e-19
 6.700251680757434e-03 -3.061106513702343e-03  2.648742298942221e-19
 6.497798748713197e-03 -2.173953406685752e-04  2.574198655380401e-19
6.739590937729163e-03 7.116848752257647e-05 2.663404125182857e-19
6.563384622294232e-03 3.173778300909850e-03 2.368330902813568e-19
 7.233076402705378e-03 -9.553506438651898e-04  2.776643899956947e-19
 6.695806562445909e-03 -1.373782301377751e-04  2.678347975585438e-19
6.825959412850442e-03 1.603593609885927e-04 2.712671381776745e-19
6.880061576854992e-03 5.344809457640867e-05 2.735429425566719e-19
 6.814759060714369e-03 -5.303683276989694e-05  2.740183689792855e-19
6.679838039905028e-03 5.653196469673044e-05 2.704614992362957e-19
6.793212049657943e-03 2.195238041826865e-04 2.719464692999874e-19
 6.807895357728443e-03 -4.175867546925286e-04  2.772705004685122e-19
 6.771251521198956e-03 -3.459759868439459e-05  2.772855588480382e-19
 6.809064886995830e-03 -3.479080545727115e-05  2.809121489513399e-19
6.444752777467837e-03 3.812120320603174e-04 2.662220866893840e-19
6.803336670078796e-03 8.600422679500838e-04 2.733048037189157e-19
 6.745954840969565e-03 -1.410607559469761e-04  2.756574278306042e-19
 6.524547658943490e-03 -4.835787615343723e-04  2.766605994781959e-19
6.894915159571043e-03 3.447680532030265e-04 2.843237071915572e-19
 6.577823012332818e-03 -2.516337624097435e-03  2.837405551043627e-19
6.766175634733330e-03 1.066811449435991e-04 2.854106911963035e-19
 6.257261522065992e-03 -7.814284982648682e-05  2.706495449272948e-19
6.523349628482371e-03 9.531256731135936e-04 2.681656774090077e-19
 6.567214805687703e-03 -1.923066320549007e-04  2.713047686833555e-19
 7.092237068308634e-03 -3.522278212356258e-04  2.895231555521603e-19
 7.367376465309246e-03 -1.311828120348944e-03  3.056422124160991e-19
 6.861607831732236e-03 -1.663515978722833e-03  3.220878331604607e-19
5.582922058064124e-03 4.310370476608092e-03 2.142666831431415e-19
7.221946835097358e-03 4.400112745796513e-04 3.028094584642522e-19
-8.684896857650212e-04  6.874375115625272e-03 -6.035605553876136e-20
6.635720767723985e-03 1.131160766124442e-04 2.751653013199683e-19
 6.491062145380052e-03 -1.244498006499405e-03  2.895714324157212e-19
6.881550568109161e-03 6.499331323496392e-04 2.944725778536978e-19
 6.774675925852768e-03 -4.509484855425260e-06  2.914487698401728e-19
6.670113439762870e-03 1.189623780719873e-03 2.818707174576577e-19
 6.773779889258653e-03 -4.680836218872822e-05  2.913027260910939e-19
6.975596097313389e-03 1.237431597894970e-03 2.928106699822421e-19
 6.855674352458448e-03 -6.029878447129712e-04  2.989729096505888e-19
6.716291356510618e-03 5.613608618901190e-04 2.901047365084640e-19
 7.007712598210784e-03 -1.890991966916104e-05  3.002642867899629e-19
6.732165815771186e-03 9.494747832996274e-05 2.910778304760616e-19
 6.756337862071958e-03 -8.605536094490191e-06  2.937003577057732e-19
 6.817387961515847e-03 -1.121877945711901e-05  2.971573341532180e-19
 6.844988121679984e-03 -1.126419862815790e-05  2.990224713432113e-19
6.881112799993867e-03 2.194566115610270e-04 2.974023362059608e-19
 7.183125286626298e-03 -4.340513851517453e-04  3.148193031976968e-19
6.219886611869304e-03 6.944673666045184e-04 2.803957845160943e-19
5.901600419463074e-03 4.144565666921887e-03 2.457837144548128e-19
 7.320547799190345e-03 -2.004575059519845e-03  2.891489011964961e-19
 4.526033388812072e-03 -2.416081338928416e-03  2.684406623850695e-19
5.996180968434188e-03 1.315867135304189e-03 2.697892144048023e-19
7.239242441602217e-03 6.321747225291375e-04 3.121483994103211e-19
6.587662803653437e-03 2.570269468213947e-04 2.853894662779232e-19
 6.705544011969171e-03 -8.394157437317158e-04  2.965903493359633e-19
 6.253456544268714e-03 -4.893779144674288e-04  2.884363058774169e-19
6.822073250740745e-03 5.346658684356807e-05 3.038114393616931e-19
6.892759189136417e-03 2.806035363687164e-05 3.039062484795594e-19
6.854716241903495e-03 2.163324909617255e-05 3.021218644091172e-19
 6.917968248601298e-03 -6.245479170076580e-05  3.047627166428652e-19
 6.775430765491495e-03 -2.925562387362474e-04  3.030091124285027e-19
6.800318931848522e-03 2.092554024692991e-04 3.018687914138427e-19
 6.937718750855741e-03 -1.381639072273504e-05  3.063401562632392e-19
 6.826604834887237e-03 -2.092173061435027e-05  3.027960787060111e-19
 6.823435016959576e-03 -8.427739019122813e-06  3.029911823113830e-19
 6.826321880571635e-03 -2.377771816657794e-05  3.034635336553377e-19
 6.810676948838624e-03 -2.056707065519467e-05  3.032491941227921e-19
 6.812483193562021e-03 -2.798088448564220e-06  3.032862979073255e-19
 6.778819977645977e-03 -9.246112462378637e-06  3.020553583139236e-19
 6.935209646076542e-03 -9.459423402487896e-06  3.055011238324528e-19
 6.721443346169043e-03 -9.579119694540957e-04  3.087699084186418e-19
6.621269202615949e-03 9.082050382205195e-04 2.971189820501004e-19
7.355602066094969e-03 3.596066618118513e-04 3.199520497542487e-19
 6.940471451891654e-03 -1.015345549412702e-04  3.060702500915919e-19
 6.733400277216081e-03 -2.303907804905535e-04  3.025720999425632e-19
6.769781754391655e-03 2.364487237061308e-05 3.038620135151097e-19
6.821329978031697e-03 9.138153812073995e-06 3.054767517227704e-19
6.805281866250964e-03 1.750406371978733e-05 3.042633817933564e-19
 6.814006933231847e-03 -2.374699696136669e-04  3.054544636342823e-19
 6.791000380022093e-03 -3.728766829350009e-05  3.041605900640994e-19
 6.744292984627418e-03 -1.510636238599448e-04  3.039130969900628e-19
6.723698408902451e-03 2.329177116350113e-04 3.015701043765363e-19
 6.826206859755871e-03 -4.968171750195234e-05  3.054905540665403e-19
 6.808373470934745e-03 -2.330439432046311e-04  3.065433515010324e-19
 6.810604821153268e-03 -5.485014340091371e-05  3.062651587660706e-19
 6.828638268754304e-03 -7.161923106676058e-05  3.068989129984663e-19
 6.828672389968453e-03 -5.493453544821246e-05  3.066529256496952e-19
 6.827147223602290e-03 -1.160723942671707e-04  3.070522483376597e-19
 6.821425415773177e-03 -8.188053846552360e-05  3.070808741329831e-19
 6.820287390977356e-03 -8.186687825854496e-05  3.070532388773008e-19
 6.879126708605648e-03 -2.238221779740910e-05  3.089314599734431e-19
 6.826179645586879e-03 -1.714355303922601e-04  3.083270459968965e-19
6.800577075155927e-03 8.930099152108040e-05 3.055320485917268e-19
 6.828035492137648e-03 -3.335043116098431e-04  3.078609836972093e-19
 6.769507375941007e-03 -5.264463844083317e-05  3.078337205448867e-19
 6.657158643082425e-03 -1.498748133466247e-04  3.044546793849370e-19
6.910549567963067e-03 7.413792621390551e-04 3.077210425061317e-19
 6.809928457547947e-03 -4.102558115263632e-04  3.078396253857189e-19
6.864924446411192e-03 6.620596929090860e-04 3.075751110934386e-19
 6.810733558005562e-03 -6.401020081385475e-04  3.100847464505693e-19
6.738415896216808e-03 5.288727716791625e-04 3.028759366469273e-19
 6.797289953087546e-03 -3.690107573243339e-04  3.080976030109380e-19
6.885100021208102e-03 6.658808128789738e-04 3.081331178845717e-19
 6.879449570608462e-03 -6.133523952979178e-04  3.114935822488795e-19
6.779052869642814e-03 3.587377860122479e-04 3.055484103587919e-19
 6.901339189208467e-03 -3.521269055305183e-04  3.119005509450233e-19
6.823884529789081e-03 1.148700007813835e-04 3.082825465507582e-19
 6.833617763938379e-03 -2.345208444177965e-04  3.090743639011616e-19
 6.919712072885428e-03 -5.250313176204392e-05  3.135741071838260e-19
6.809955191783936e-03 5.018535061657308e-05 3.098006029892903e-19
7.226558947964846e-03 6.764382849449757e-04 3.126792814085239e-19
 4.564211541839510e-03 -5.042279749540185e-03  2.295856463174276e-19
6.578460272756418e-03 1.024683245747150e-03 3.051024637137433e-19
6.733007641824398e-03 7.583672670805119e-04 2.978491800982160e-19
 6.821705599507275e-03 -9.814617036368733e-04  3.035310274346767e-19
 6.401566983277930e-03 -8.656318330703423e-04  3.059065547540452e-19
6.876429613951563e-03 4.207974818259369e-04 3.146204542239000e-19
7.195723452574681e-03 3.123815626521938e-04 3.206225748870073e-19
 6.900254252356477e-03 -9.883800253565607e-05  3.108332273960789e-19
 6.812745417281874e-03 -1.128887165758340e-04  3.100786453032359e-19
 6.867633433385520e-03 -8.078792351574621e-05  3.123013695406571e-19
 6.896274040825387e-03 -8.112483946004350e-05  3.135785699176813e-19
 6.706801051405453e-03 -3.058260886364816e-05  3.082672173342458e-19
6.901797103169329e-03 5.497340840909775e-04 3.076420547413559e-19
 6.759281664834240e-03 -1.239036465104846e-03  3.090563482960322e-19
6.725926756223917e-03 1.613295939509715e-04 3.101446732315300e-19
 6.869672238347272e-03 -4.553414600827372e-05  3.119840423663840e-19
 6.857212137373130e-03 -1.119354504983076e-04  3.112827575239673e-19
 6.785684522369375e-03 -5.382655101168164e-04  3.134784264372202e-19
6.766364255301557e-03 4.743787644723967e-04 3.093276666800604e-19
 6.881461130145511e-03 -4.767963678931719e-05  3.124176943023049e-19
 6.776876448867586e-03 -6.913385830211885e-05  3.084029009614676e-19
 6.986710581912523e-03 -6.328840293775736e-04  3.202338438370332e-19
7.164957805499039e-03 1.099236739430626e-04 3.258348532534072e-19
6.963965250441182e-03 1.068400772650465e-04 3.169330818045586e-19
6.772363849510914e-03 1.218534724960841e-03 3.036935671215178e-19
7.135564425740686e-03 1.069284932455461e-04 3.183150598525509e-19
 6.808908050850319e-03 -7.724797180424994e-04  3.125728863160758e-19
6.742700835327992e-03 9.676092601598330e-05 3.105946336493747e-19
6.904060563001309e-03 2.465675845842719e-04 3.121435220465951e-19
 6.858371659159444e-03 -3.225410769060684e-04  3.131576064030692e-19
6.894319908845666e-03 2.793536446663817e-05 3.145856720721548e-19
6.870905617653762e-03 2.784049118445487e-05 3.123546501982851e-19
 7.047845116732581e-03 -1.496334681771042e-05  3.175567732972656e-19
 6.910436481625906e-03 -5.411875510839755e-04  3.163578474549573e-19
-6.759798707328879e-03  9.772987335609433e-04 -3.327400405122687e-19
-6.912416837872874e-03 -1.359693159569105e-04 -3.201619972941421e-19
-6.954867416969114e-03  1.993139823218529e-04 -3.129418161165093e-19
-6.907414237680132e-03 -4.554889968666600e-04 -3.109005563868601e-19
-7.005231830326616e-03  1.734463777384540e-05 -3.227867656454958e-19
-6.857384092400922e-03  6.769605017152461e-04 -3.105195464218703e-19
-6.983592647331228e-03  2.271452005846890e-04 -3.188224128117015e-19
-6.862669772360564e-03  4.298966340498405e-05 -3.175223931371551e-19
-6.854754602371585e-03  1.411449486538522e-04 -3.149517899395130e-19
-6.868374945309533e-03  1.153306558632167e-04 -3.131749889213136e-19
-6.863876709892669e-03  1.152551235218717e-04 -3.144716475504880e-19
-6.841540653715026e-03  1.747442434513595e-04 -3.152498190754373e-19
-6.824275242442598e-03  1.747086868526279e-04 -3.137121714969761e-19
-6.858477983149142e-03  3.283647026690521e-05 -3.134356215609107e-19
-6.743343995512087e-03 -8.217696046646672e-06 -3.114780528395135e-19
-6.696896278031612e-03  7.947913161237506e-04 -3.126361462604211e-19
-6.919099120610834e-03  1.164118142325272e-04 -3.165709790567963e-19
-6.825443965438749e-03 -1.984621502509884e-05 -3.128672529172003e-19
-6.817527241796714e-03  7.487539969621885e-05 -3.131181837411522e-19
-6.851988503298237e-03  7.525388013897286e-05 -3.145983384165692e-19
-6.835338668831068e-03  4.213069982170914e-05 -3.145772180100213e-19
-6.832278758225808e-03  1.333944326273823e-04 -3.136607805181422e-19
-6.812245587941507e-03  1.605616090129294e-05 -3.130945764102596e-19
-6.865893722710569e-03  2.384193503406784e-04 -3.151617387810858e-19
-6.858505475706596e-03 -6.520982544609622e-05 -3.142881140489411e-19
-6.835968842773535e-03  1.569448068598058e-04 -3.136300957684205e-19
-6.847107152403621e-03 -3.896573068143519e-05 -3.137237008458867e-19
-6.868927895378275e-03  2.308086219252730e-04 -3.152623962266805e-19
-6.839157916425563e-03 -1.225827805225025e-04 -3.129674289754357e-19
-6.841691337136377e-03  2.832991080077221e-04 -3.144936844452610e-19
-6.858135952605210e-03 -1.367465798310272e-04 -3.130469192149409e-19
-6.816638107282189e-03  1.830316192597266e-04 -3.137007997206080e-19
-6.529548819938094e-03 -2.645545062058741e-04 -3.022191144323764e-19
-6.757702703419208e-03  1.243539877582351e-03 -3.110810373415345e-19
-7.062117213513961e-03 -3.791211931137883e-04 -3.172732221153729e-19
-6.728500463895867e-03 -1.692543819512934e-04 -3.096938217630762e-19
-6.840514889696231e-03  2.058043476618552e-04 -3.145220845813611e-19
-6.881767687314515e-03 -2.525314059946710e-06 -3.136484612707416e-19
-6.847742624286168e-03 -2.512828318788309e-06 -3.128735713170363e-19
-6.856469321028577e-03  2.273471265770360e-06 -3.132215668223090e-19
-6.856624308467740e-03  4.838592357642327e-05 -3.128208685478098e-19
-6.900878504246048e-03 -5.268306227859665e-05 -3.137400015018413e-19
-6.899612208980160e-03 -9.747827213294665e-05 -3.147517513706688e-19
-6.326153296654658e-03 -3.296274332218067e-04 -2.947361455661999e-19
-1.850227187517603e-03  6.619829626682086e-03 -1.068776667055973e-19
-7.437664384530426e-03 -3.637259550014381e-04 -3.306047417993190e-19
-6.850446783873136e-03 -1.672690570957268e-04 -3.115641881996520e-19
-6.825991085309139e-03  1.909393967906923e-06 -3.121313600996851e-19
-6.896394796378208e-03  4.513860171608392e-05 -3.144099371743533e-19
-6.897321682048316e-03 -8.602451246724565e-06 -3.138511150925947e-19
-6.895559555963113e-03 -8.600253494548097e-06 -3.140090662950306e-19
-6.893379064808110e-03  2.315346267466700e-05 -3.139269810774851e-19
-6.888533910475218e-03  8.423491892400990e-05 -3.132665390415720e-19
-6.933689965513381e-03 -1.461042647175780e-05 -3.138717458779045e-19
-6.914230661044404e-03 -2.836945738526652e-04 -3.142609305951399e-19
-6.543312224863118e-03 -6.689941451116389e-05 -3.033493395607041e-19
-5.130697770834958e-03  4.629936948716027e-03 -2.481204554815247e-19
-7.330907986000642e-03 -4.083468364063105e-05 -3.264583732736447e-19
-6.855738472023465e-03 -3.786012529236550e-04 -3.100315650600475e-19
-6.769285977860433e-03  1.529727048231173e-04 -3.101919557442240e-19
-6.906346124441378e-03  5.191380755058088e-05 -3.134409351212703e-19
-6.886889013289041e-03 -1.048789327499140e-04 -3.121302970379882e-19
-6.868405019429885e-03  4.197862216769431e-05 -3.119119302996581e-19
-6.863609627371756e-03  4.194931347800799e-05 -3.115657222101830e-19
-6.852915736258721e-03  2.799997416503605e-05 -3.109005622783020e-19
-6.853838739015085e-03  2.800374541428632e-05 -3.107003220768342e-19
-6.866488748500573e-03 -2.053736269616140e-05 -3.109047996898229e-19
-6.874639901024954e-03  1.757875072189827e-05 -3.113762794582270e-19
-6.837979870761675e-03  1.748500944341191e-05 -3.103418314350740e-19
-6.818652540434818e-03  1.746587545300135e-04 -3.085567490853177e-19
-6.863127354118588e-03 -2.097720269971060e-04 -3.082424722065825e-19
-6.856951309266405e-03 -9.865444632710190e-05 -3.098916660854880e-19
-6.954377400423084e-03 -1.000561650570989e-04 -3.144008247848623e-19
-6.973383038368874e-03  1.514737587280537e-04 -3.150638070955668e-19
-7.000373408362814e-03  4.461321136306144e-05 -3.138245207381879e-19
-6.961463807882258e-03 -6.149026161663821e-05 -3.127248053128688e-19
-6.965112058889918e-03  1.139289219706491e-05 -3.133199363504257e-19
-6.936015544992818e-03  4.493268722400585e-05 -3.116266540817303e-19
-6.886499919835071e-03  3.317262455570891e-05 -3.089733053216106e-19
-6.867571510585402e-03 -2.361143052983824e-05 -3.076853539393141e-19
-6.843986718930124e-03 -5.407721030952398e-05 -3.067086396244488e-19
-6.865660261097771e-03 -5.424846205884582e-05 -3.077079789746645e-19
-6.874548034009712e-03  5.867613211546912e-06 -3.082999447583302e-19
-6.839546029967915e-03  3.159291160453812e-04 -3.057783143290629e-19
-6.898231378566727e-03 -2.403317723287514e-04 -3.050968581520389e-19
-6.774772054317794e-03 -1.564755646346770e-04 -3.038040857295434e-19
-6.727470062686843e-03  1.276768720965655e-04 -3.035486078158867e-19
-6.988193412110143e-03  6.138568598837100e-04 -3.116062589718356e-19
-6.969548002480666e-03 -1.418531399171174e-04 -3.080959864177412e-19
-6.792246473960077e-03 -1.262608054442131e-05 -3.033299701664730e-19
-6.861298905028590e-03  6.114692413663028e-05 -3.053018030032322e-19
-6.877997966202247e-03 -7.572434306562568e-05 -3.048249257894522e-19
-6.914101102329386e-03 -7.612182592026887e-05 -3.068360655950167e-19
-6.922749677080323e-03  6.782659769588452e-05 -3.070984601186694e-19
-6.949880329412011e-03  1.954956688084620e-04 -3.061352798730979e-19
-6.943280965435062e-03 -2.808255734466551e-04 -3.047193594395905e-19
-6.869405834915031e-03  4.573775478330133e-05 -3.068225312436403e-19
-6.528395423010262e-03  1.798209619806832e-03 -2.834316507709647e-19
-6.731557521084701e-03 -2.011901998433062e-03 -2.826950898774523e-19
-5.941013412929650e-03 -8.298437755530721e-04 -2.675777937094203e-19
-6.872955920950628e-03  2.813242238207846e-04 -3.094133316542146e-19
-6.909907030814126e-03  2.828367087575754e-04 -3.012176644867003e-19
-6.925958602211901e-03 -4.789690146662962e-04 -3.006261263607586e-19
-7.057727871752508e-03  2.650581015544225e-04 -3.091846684901262e-19
-6.706413551542891e-03  1.255377425036909e-04 -2.926878561313724e-19
-6.921608350989116e-03 -3.163656456588232e-04 -2.963411443645531e-19
-6.840837467810200e-03 -5.675932561471832e-04 -2.961528796793889e-19
-6.976173363357994e-03  2.096307976678969e-04 -3.056953699235996e-19
-6.911680099812800e-03  2.076928047917168e-04 -2.993127730483414e-19
-6.801116620330372e-03  1.184848725189646e-04 -2.924534996796937e-19
-6.828235583985881e-03 -2.026486066689510e-04 -2.913145970942147e-19
-6.922678967768274e-03 -2.254673231263897e-04 -2.956834037861376e-19
-7.021317726950800e-03 -2.286799258041883e-04 -3.020228931771856e-19
-6.814974722941174e-03  7.692999365028131e-04 -2.988405331121447e-19
-6.682828887669168e-03  2.412835763061227e-04 -2.842551630765926e-19
-6.736282274122710e-03 -7.803562523547402e-04 -2.806227167939256e-19
-6.800276595806225e-03 -5.995496744164430e-05 -2.899747118904270e-19
-6.916688490867235e-03  3.653331961887963e-05 -2.925215680295255e-19
-6.902536489848250e-03 -3.873736684985931e-05 -2.900172498209179e-19
-6.882076373767276e-03 -9.852497828767083e-06 -2.883525538622198e-19
-6.876497649203630e-03 -4.418365840301372e-05 -2.868241621442704e-19
-6.872169255430218e-03 -2.364723292773193e-05 -2.852990940768785e-19
-6.868896702562096e-03 -3.202043433444541e-05 -2.832530604615282e-19
-6.873661197193537e-03 -1.984219267022539e-05 -2.827106393932556e-19
-6.869040718235067e-03 -2.937777327614014e-05 -2.809550535486416e-19
-6.869241809990553e-03 -2.937863331296955e-05 -2.795753202044200e-19
-6.871820424374927e-03 -3.005263232341957e-05 -2.772310281273994e-19
-6.877962620999916e-03 -3.007949408135700e-05 -2.750945944987485e-19
-6.878466850891610e-03 -1.846994642852387e-05 -2.723396060186314e-19
-6.878215549247408e-03 -1.846927163746848e-05 -2.700469740613212e-19
-6.879686408478067e-03 -2.834850506801222e-05 -2.671411391071399e-19
-6.872061415585026e-03  2.219189632710327e-05 -2.652727235766298e-19
-6.835383594203570e-03 -1.020306469170749e-05 -2.611984557074131e-19
-6.904527501572559e-03  2.788677474474294e-04 -2.625793418522494e-19
-6.907917296864976e-03 -1.566219557684969e-04 -2.571127609926340e-19
-7.004741037271518e-03 -2.048401576645738e-04 -2.586464802092431e-19
-7.064681859792104e-03  1.402591629483731e-04 -2.602507634193273e-19
-6.896448243985063e-03  1.369191249111092e-04 -2.513902357452009e-19
-6.477517511507668e-03  6.730952454552285e-04 -2.301522553806052e-19
-6.544377945342392e-03 -1.289012069434761e-03 -2.078114632945423e-19
-6.740677619291837e-03 -1.228519692856476e-04 -2.297139141937973e-19
-6.999940966660953e-03  1.116396628876587e-04 -2.323324684300263e-19
-6.947187500237744e-03  3.282509106123072e-05 -2.221277917090113e-19
-6.888800389398170e-03 -5.485398361523502e-06 -2.111540902838368e-19
-6.861104340254144e-03 -3.102980391291953e-04 -2.006855285400615e-19
-6.891459104975567e-03  3.449349294540805e-05 -1.983975816863350e-19
-6.886365172672179e-03  1.151936250948233e-04 -1.897046173574156e-19
-6.865629840404440e-03  4.198189007780168e-06 -1.790213900104589e-19
-6.868704210876027e-03  4.200068921002943e-06 -1.681506668392159e-19
-6.864051621025150e-03 -3.741881188734427e-05 -1.567144007248448e-19
-6.888464462147853e-03  1.073767290160352e-04 -1.463738002453591e-19
-6.833104587089209e-03 -1.126588384217794e-04 -1.286347805597695e-19
-6.846696612731621e-03  2.280063330611753e-04 -1.248969222565898e-19
-6.859564985619735e-03 -6.892745276710423e-05 -1.020306563610031e-19
-6.914668277687572e-03  3.423111406160545e-04 -9.226500242580800e-20
-6.872039355314388e-03 -1.640778784299496e-04 -6.232676888287970e-20
-6.764642181930231e-03  4.093547350599918e-04 -4.417023294153468e-20
-6.835028741700531e-03 -2.193734418873906e-05 -1.176890580352165e-21
-7.006438061374905e-03 -1.054364526153121e-03  3.372920560214827e-20
-6.896459004688111e-03 -3.587865945923784e-04  4.882049154398217e-20
-6.931205788835900e-03  6.061012909261226e-04  7.965709383771491e-20
-6.900855194657013e-03 -3.442384973233703e-04  1.770871762691918e-19
-6.996391450440079e-03  1.556889736039138e-04  2.524309053321337e-19
-6.529620273010913e-03 -1.326445965413664e-04  3.473988468678735e-19
-6.725480452643543e-03  7.129111947081220e-04  3.824162999914434e-19
-6.690509227901204e-03 -6.713529279604609e-04  5.673970399571876e-19
-6.762485481874943e-03  4.414440830480392e-04  6.686508473314800e-19
-6.925475479659628e-03 -2.250825221068741e-04  8.077725823117955e-19
-6.893779045347720e-03  3.204741508312777e-04  1.211588783523575e-18
-6.790690442925352e-03 -1.197524733033742e-03  1.822547236560297e-18
-6.848575064412459e-03  2.246931104712673e-04  2.328542096998031e-18
-6.761938527520310e-03 -3.208066359710910e-04  3.380419182369485e-18
-6.381911279662325e-03  1.918512716648762e-03  3.748177526282292e-18
-6.988823316082726e-03 -5.256143849667991e-05  4.891143967314865e-18
-6.845001779992966e-03 -2.247519567265827e-05  6.658108515802658e-18
-6.854631344113872e-03 -2.250681382920753e-05  9.783024003342965e-18
-6.851065808929305e-03  1.255153354897547e-07  1.348581077214728e-17
-6.869931120701975e-03 -8.996835487924917e-06  2.021620403058457e-17
-6.829780929770177e-03 -5.487056118547287e-04  2.763599670928140e-17
-6.858307956579054e-03  2.198775561633700e-06  3.868834409213108e-17
-6.828171620165793e-03  1.533000317370210e-05  7.248459874123934e-17
-6.797931609285414e-03 -4.902289151347297e-05  1.372723092149112e-16
-6.816225967097702e-03 -4.915482021912742e-05  1.362079231138678e-16
-6.857458319214015e-03 -2.725519425916290e-04 -1.255090218818393e-15
-6.871279111111764e-03 -1.148291299508163e-04  6.276866257305344e-15
-6.871245902961337e-03  3.789874513048541e-05  5.913560468895871e-18
-6.871021543035297e-03 -1.148248256108330e-04  6.558609910917808e-15
-6.827080223397123e-03  5.550569011625797e-06  1.375970470795501e-16
-6.824510120634425e-03 -2.761334912211747e-04  8.903852483954767e-17
-6.811433430170414e-03 -2.843278522335294e-05  6.804913757489949e-17
-6.827395667006722e-03 -1.373888536769921e-04  4.476962908278642e-17
-6.667711347289762e-03  4.164432002745383e-04  3.047020123484792e-17
-6.825530322278416e-03  8.866318770814855e-05  2.435521824407413e-17
-6.648020434821392e-03 -1.291233413527511e-04  1.565880011297147e-17
-6.861625893170855e-03 -1.622518092279733e-03  1.112869968963899e-17
-7.100741500875586e-03  9.119914281608322e-04  5.736031607343273e-18
-6.900916763700522e-03  1.423040255997781e-05  4.606067241014835e-18
-6.853377659957465e-03 -4.754776443355518e-05  3.490289003561198e-18
-6.705470428189178e-03 -4.817676368713741e-04  3.109988755161713e-18
-6.801161765305340e-03  1.686335697288082e-04  2.369129699216326e-18
-6.876353353909018e-03 -2.873639290830384e-04  2.095885557622752e-18
-6.875919892809315e-03  7.812202278111365e-05  1.584757940858829e-18
-6.882875353672023e-03 -3.400251937547324e-04  1.413314577090104e-18
-6.873804951448374e-03  3.878933724625977e-05  1.080099382864972e-18
-6.893364920884443e-03 -2.921768345284996e-04  9.397757137173550e-19
-6.879504171951075e-03  7.118344926930636e-06  7.305775824081806e-19
-6.898131133241645e-03 -2.173971454978460e-04  6.389360640388289e-19
-6.871773266032942e-03 -2.107838928623869e-05  5.132556795654236e-19
-6.948355846806390e-03 -1.460001837711469e-04  4.255123842978439e-19
-6.900325806749676e-03 -2.255573312641876e-04  3.553668436933853e-19
-6.931942025532220e-03 -2.074692530497634e-05  2.347201647844682e-19
-7.038519487246000e-03 -3.126992957189040e-04  1.493793488560843e-19
-7.060342996873727e-03 -1.391321330333252e-04  6.214668460389281e-20
 3.069414531017532e-03  5.969240827869575e-03 -3.899316854531741e-19
-7.057794802912631e-03  3.152503479123748e-04 -7.430556146492363e-21
-6.894926637977064e-03 -3.558745260394581e-04 -1.012055450245716e-20
-6.931153576020947e-03  4.035579420740524e-04 -7.810707163947107e-20
-6.900428326682453e-03 -3.540991773442499e-04 -6.687585596359672e-20
-6.838508228466947e-03  6.535022734875616e-04 -1.194301229991020e-19
-7.032941990728430e-03 -1.982870901872404e-04 -1.086464986736940e-19
-7.043130824721889e-03  1.487935295133076e-04 -1.413192899171546e-19
-6.856327990180419e-03 -3.611756614739041e-04 -1.364490748945337e-19
-6.139256525830251e-03  2.851277084663185e-03 -2.206660759902459e-19
-7.128921393584251e-03  1.009551467519357e-05 -1.675675588152980e-19
-6.973348714852559e-03  1.221085996473521e-04 -1.761590842666229e-19
-6.974544645097548e-03  7.680779050744867e-05 -1.828380463029811e-19
-6.943111768259688e-03  8.581126466019295e-05 -1.901637008632411e-19
-6.903225532577745e-03  8.531830293918930e-05 -1.982239110631476e-19
-6.865739007263734e-03  4.126589049303171e-04 -2.092963426243953e-19
-6.894969662642371e-03  1.256636353433864e-04 -2.087699179935412e-19
-6.900533857821156e-03 -9.119061954287538e-06 -2.141588085791489e-19
-6.880088646393678e-03  6.403849592713525e-05 -2.211389647288055e-19
-6.891717744676324e-03  1.315292359050147e-04 -2.282383842240190e-19
-6.896914297838972e-03  9.702999047331839e-05 -2.311242383840541e-19
-6.875223036252683e-03  7.553344343343701e-05 -2.349009860805014e-19
-6.875558379575387e-03  7.553712762459167e-05 -2.402124991563050e-19
-6.877056523465070e-03  8.778338883376820e-05 -2.453473443058425e-19
-6.874097945651587e-03  8.691421213223611e-05 -2.496404714074441e-19
-6.873069507614586e-03  8.162175452683710e-05 -2.516573401623850e-19
-6.866163482632095e-03  8.235562613026674e-05 -2.563737078699695e-19
-6.868294767891568e-03  8.415118834435335e-05 -2.606561951284911e-19
-6.872753143915096e-03  6.561461233382863e-05 -2.643479120518435e-19
-6.830103504506624e-03  1.401366702418293e-04 -2.672255978496826e-19
-6.859180736054697e-03  1.407332624320223e-04 -2.689802460415299e-19
-6.834735621145364e-03 -2.715478598784422e-04 -2.687979627802650e-19
-6.846172071211531e-03  1.563541775872559e-04 -2.748738894609121e-19
-6.845027590523977e-03  4.280144439619316e-05 -2.754820515449642e-19
-6.861254826872542e-03 -4.652323656756797e-05 -2.775283537993551e-19
-6.871865601772103e-03  4.905943246634533e-05 -2.796756051335310e-19
-6.832470421980537e-03  4.877818349052345e-05 -2.802973079344886e-19
-6.878702131598051e-03  3.024185992923717e-04 -2.853554690960076e-19
-6.932727796845431e-03 -5.468781233068193e-04 -2.824980249635718e-19
-6.729055238010794e-03 -7.103155025304568e-06 -2.806918352573802e-19
-6.790842461891370e-03  7.114357182152595e-05 -2.854978002244656e-19
-6.935864644877977e-03  2.860458380740732e-04 -2.883803100599267e-19
-6.958307901407649e-03 -1.972125795761796e-04 -2.866102848411342e-19
-6.850056560181905e-03 -6.839482197785562e-05 -2.865702691163016e-19
-6.949494919968311e-03 -2.005243379449562e-05 -2.910772280044372e-19
-7.032491584202334e-03 -2.029191668265985e-05 -2.946464194431796e-19
-7.050732330960695e-03 -2.034454948129437e-05 -2.982475413607163e-19
-6.565743248605442e-03  3.598874514280069e-04 -2.878690182210276e-19
-6.398791488271965e-03  1.010556065492130e-03 -2.781957679346057e-19
-6.593970790234616e-03 -9.704506257005348e-04 -2.731332934493635e-19
-5.666262010973491e-03 -2.318273218904014e-03 -2.386576076611844e-19
-5.870741414552768e-03  2.179333819906142e-03 -2.951626730140343e-19
-7.169262646271288e-03  2.082282811924529e-04 -3.071243097741834e-19
-6.731976618302938e-03  1.233637339368448e-03 -2.558403073359816e-19
-6.642993033187961e-03 -1.756233629993512e-03 -2.673351845887164e-19
-6.666592415620176e-03 -1.738896786415957e-04 -2.935439888153706e-19
-7.104128910104185e-03 -1.853022678140683e-04 -3.084008345412165e-19
-7.063762826443346e-03  9.987050727304958e-05 -3.089450833888260e-19
-6.961823594978836e-03  4.792498374161343e-04 -2.970079043064733e-19
-6.904928650136018e-03 -1.159694976316554e-04 -2.984412178266480e-19
-6.866656524447801e-03 -2.264057594827408e-04 -2.990182122375781e-19
-6.648501159244805e-03 -8.591438799748985e-05 -2.943130664996787e-19
-6.416309652036586e-03  2.824491453361369e-03 -3.227661119507125e-19
-7.215694904964581e-03 -2.027757195952919e-04 -3.114379540978847e-19
-6.792517109883153e-03 -1.792956238360334e-04 -2.989751213533181e-19
-6.764883271000423e-03  1.111594491542314e-04 -2.997795709272137e-19
-7.040511058109429e-03  3.708041312819661e-04 -3.203835174093613e-19
-7.003098587271427e-03 -6.142025010291989e-04 -3.018474876399892e-19
-6.841285998734364e-03  3.062027578945660e-05 -3.041859720257841e-19
-6.914403859595396e-03  3.094753722321541e-05 -3.067940409967965e-19
-6.874459218481419e-03  1.009582173425099e-04 -3.042181815395700e-19
-6.828271627074192e-03  4.517406628718031e-05 -2.994037260444621e-19
-6.843024578761916e-03  4.527166797233156e-05 -2.998164968854053e-19
-6.841242925031251e-03 -1.409180453266999e-04 -3.016270858358006e-19
-6.840569872779897e-03  7.257361817238773e-05 -3.018886155278200e-19
-6.850613508843071e-03  8.321509030770735e-05 -2.999795247035949e-19
-6.838958133267533e-03 -1.712881502457461e-04 -3.021564049709972e-19
-6.795651264492597e-03  1.172826157537213e-05 -2.995155045072171e-19
-6.860481232616823e-03  1.184014825031921e-05 -3.008407573651811e-19
-6.909435645366414e-03 -2.366750437023685e-04 -3.095965073966102e-19
-6.916570713887698e-03  5.503163119426194e-04 -3.268917580558478e-19
-6.969746423480923e-03 -1.910208682609082e-04 -3.087026990544537e-19
-6.457279564471830e-03  1.987397782069621e-05 -2.929009460352632e-19
-6.697512478372974e-03  7.622889109268912e-04 -2.845271160220951e-19
-6.584369408064214e-03 -9.596576754479069e-05 -2.948691016530017e-19
-6.554036397547816e-03 -9.552367044243417e-05 -2.964489985405894e-19
-6.590677455802241e-03 -9.605770598344327e-05 -2.955022805841095e-19
-6.898541692779843e-03 -1.156321263152284e-03 -2.969040347785923e-19
-7.300093411133250e-03  1.256206563320976e-04 -3.309297604832545e-19
-7.200346862494859e-03 -1.508117547711774e-04 -3.215302472039093e-19
-7.448807021437206e-03 -7.361896141262353e-04 -3.257650756920562e-19
-6.601535432432467e-03 -6.046091844542789e-04 -3.101927720673650e-19
-7.804261251497210e-04  6.548629461569344e-03 -9.036174921559029e-20
-7.603164525616458e-03  5.666598371107872e-04 -3.237175152650240e-19
-7.379787110623458e-03  1.940758343424086e-04 -3.311798835498273e-19
-7.173319285624556e-03  3.992247338263926e-04 -3.123262373971229e-19
-7.097041989979418e-03  1.198584604959409e-04 -3.135826340730868e-19
-7.023246116600867e-03  1.186121581932921e-04 -3.121176771190421e-19
-6.991145646403013e-03  1.246245016287167e-04 -3.157467412914772e-19
-6.976920109060863e-03  2.355707160348273e-04 -3.247835938882200e-19
-6.959127864745877e-03 -4.974846926725102e-05 -3.108573316404624e-19
-7.055725611989291e-03 -1.763968206112511e-05 -3.174135563692536e-19
-6.709013214111614e-03 -3.572912856830459e-04 -3.094705809377780e-19
-5.964295925252129e-03  3.757283589985309e-03 -2.701491145573082e-19
-7.763060938121421e-03 -1.757956788635920e-04 -3.413608580701149e-19
-2.931349321606398e-04 -6.448888391912422e-03 -2.346569177443609e-20
-6.385926538005974e-03  7.664978756755063e-04 -3.158311765011259e-19
-7.126827752437040e-03 -9.298540015400215e-07 -3.193253604922421e-19
-6.960964001618224e-03  3.138106572917073e-04 -3.150123140073031e-19
-6.929443166356895e-03 -1.893979619398910e-05 -3.114856844381945e-19
-6.858342161814853e-03 -1.874546044393167e-05 -3.103307710602715e-19
-6.811282505751596e-03  9.318837880920437e-05 -3.060946919439984e-19
-6.963806164274012e-03 -4.515138943972229e-05 -3.122560209479066e-19
-6.816036213960060e-03 -6.222273203668915e-04 -3.128677408218623e-19
-6.814023351979497e-03  1.996184859258290e-04 -3.179883201482639e-19
-6.827267334853297e-03  4.093737228023099e-04 -2.997625964959529e-19
-6.658529740865832e-03 -3.043991846410613e-04 -3.000993823182666e-19
-6.718611014062309e-03 -3.074297025619454e-04 -3.077634248133194e-19
-6.819580519504368e-03 -1.218481474935388e-04 -3.113391074715683e-19
-6.828549376240902e-03 -1.220083976108819e-04 -3.109402249464389e-19
-6.825198545427438e-03 -1.021077225992037e-04 -3.107179070971521e-19
-6.825280481765474e-03 -1.509633166861228e-04 -3.111510417047312e-19
-6.842858112499925e-03 -1.513521032630622e-04 -3.118478377788247e-19
-6.860420992412166e-03 -1.517405635775056e-04 -3.124231660841670e-19
-6.861104408705195e-03 -1.517556795556033e-04 -3.125713750663469e-19
-6.839651591023958e-03 -9.044848904902279e-05 -3.116006912797991e-19
-6.848611595398201e-03 -2.131527771862684e-04 -3.121786970268098e-19
-6.866918758268816e-03 -2.137225602078220e-04 -3.137366549046636e-19
-6.890404561071597e-03 -1.117434193403661e-04 -3.148213635824513e-19
-6.868195212157964e-03 -1.113832447574463e-04 -3.132594033766192e-19
-6.861668064691945e-03 -1.555724439856802e-04 -3.132419794757960e-19
-6.884808753670309e-03 -1.560971055557146e-04 -3.143848824526418e-19
-6.897207358866572e-03 -1.206903437687781e-04 -3.148086711704069e-19
-6.908721587371928e-03 -1.273226723774306e-04 -3.153553206165616e-19
-6.889661389389977e-03 -1.269714069063282e-04 -3.150982375200653e-19
-6.975549478011604e-03  3.595163166576096e-04 -3.214240416142503e-19
-6.920198865160945e-03 -2.273198584447972e-04 -3.143813152868600e-19
-6.899894113287139e-03  2.098337461921585e-04 -3.147949695922560e-19
-6.945232361040330e-03 -2.533383755942096e-04 -3.143587363131491e-19
-6.914213531227377e-03 -5.293246749647973e-05 -3.194540516662012e-19
-6.988780493520572e-03  6.934264719190338e-06 -3.212814309914799e-19
-7.031734762390803e-03  1.078518268494716e-04 -3.212025615254217e-19
-7.020548638843339e-03 -2.956959257387349e-05 -3.186350747498890e-19
-6.994699780354393e-03 -4.469898151480088e-05 -3.190456696340991e-19
-6.835263600669603e-03 -2.640210228822902e-05 -3.162307265351627e-19
-6.963673753530849e-03  2.209006776844536e-04 -3.233346783849018e-19
-6.984232390126211e-03 -3.410038887051302e-05 -3.169299743754234e-19
-6.929161975643128e-03 -1.153245235718189e-04 -3.178612781128992e-19
-6.935930934677241e-03  1.788738564703942e-04 -3.226928774506442e-19
-6.927874717767567e-03  1.017456183552235e-05 -3.154981248292297e-19
-6.900881748377981e-03  1.013491885013835e-05 -3.158648757107907e-19
-6.901901401558116e-03  8.028153020289207e-05 -3.200987207781728e-19
-6.889062275064303e-03  3.957391408851860e-05 -3.148923214035122e-19
-6.888613994484288e-03  3.347145770610214e-05 -3.155728769716660e-19
-6.885146532249453e-03  6.506376930268161e-05 -3.148644688479371e-19
-6.905661648142106e-03  2.041711986101648e-05 -3.169642958957426e-19
-6.934046305474605e-03  2.050104128382865e-05 -3.153085357736348e-19
-6.912476120670121e-03  9.505488956783811e-05 -3.120242663557743e-19
-6.959521719576688e-03  3.249759642071508e-04 -3.153005232938698e-19
-6.898688713439005e-03  1.567542090824510e-07 -3.142339028256987e-19
-6.788042295278608e-03  2.678658849659885e-04 -3.204656582619363e-19
-6.933310017096309e-03 -3.451112890044891e-04 -3.154097531157320e-19
-6.790036890021980e-03 -1.215095170369943e-04 -3.251232574319819e-19
-6.878236535837232e-03 -1.230878731695794e-04 -3.244187242483946e-19
-6.784458073414807e-03  5.939031419117954e-06 -3.260030710209062e-19
-6.830487464191317e-03  5.979324983477324e-06 -3.272791268404362e-19
-7.160526888151767e-03 -3.757321186136435e-04 -3.254429613101775e-19
-6.409362905119557e-03 -3.363165226415147e-04 -3.234003542747649e-19
-1.406610395697233e-03  6.690818899384460e-03 -7.550512418653793e-20
-6.795336933421781e-03 -1.622777561321072e-04 -3.240706860959045e-19
-6.093520062867759e-03  1.455390908724049e-03 -3.354493061491149e-19
-6.515618143000821e-03 -9.119578814419125e-05 -3.092808801761783e-19
-6.172116426236150e-03 -2.972877877969838e-04 -3.127430436365007e-19
-6.868868799602855e-03 -3.308477463940062e-04 -3.285738182790708e-19
-5.983807724179767e-03 -3.061283080687234e-03 -1.396138880580350e-19
-7.193038999864594e-03  1.298481994642398e-05 -3.382198456914872e-19
-7.048920368051584e-03  2.160168505559413e-04 -3.365894799267508e-19
-6.901730736028247e-03 -2.544103709816181e-05 -3.286390079062417e-19
-6.837891615775946e-03 -2.520571446840830e-05 -3.275227080925453e-19
-6.886521111457006e-03 -3.018121013210867e-05 -3.275921968029412e-19
-6.751855853815002e-03 -1.714304462103918e-04 -3.320822950542433e-19
-6.826576962775305e-03  3.423261840427850e-04 -3.153704807555653e-19
-6.840299323088157e-03 -1.966351501657595e-04 -3.265808736604032e-19
-6.918701874885779e-03  1.525067179414383e-05 -3.300284056690828e-19
-6.888139869047073e-03 -2.137095092416004e-04 -3.250792137797016e-19
-6.989179414416984e-03  3.619764661184126e-04 -3.410868321202908e-19
-6.736626330286262e-03 -1.407783120723218e-03 -3.452922269917621e-19
-6.733827667132577e-03  2.926411658260270e-04 -3.358882481325228e-19
-6.772263937527960e-03 -3.035169048888563e-04 -3.141360519342523e-19
-6.904665109080254e-03  6.546878235105607e-04 -3.653525523497174e-19
-6.940511255202235e-03 -4.959293479867760e-04 -3.198248666978574e-19
-6.903110584929211e-03  1.441432907359471e-04 -3.376367957206609e-19
-6.845011249257745e-03 -4.681769434111130e-04 -3.535790551693626e-19
-6.825113212343703e-03  1.751611568671214e-04 -3.156576190036707e-19
-6.820830112048227e-03 -3.151876714129806e-04 -3.459767862685949e-19
-6.777283312452444e-03  2.783444583186355e-04 -2.978334409127122e-19
-6.898636078038838e-03 -1.667868902872750e-04 -3.184380462483896e-19
-6.968105919176966e-03  8.491224258889472e-05 -3.351279589707066e-19
-6.773543950145191e-03 -5.347209336612166e-04 -3.054749361372641e-19
-6.779268137470741e-03  2.673488128289465e-04 -3.440532671097927e-19
-6.878371953305241e-03 -1.076850514331092e-04 -3.202218131745455e-19
-6.853525864778528e-03 -2.674425991679683e-04 -3.258707086590193e-19
-6.794008081998376e-03 -1.439242612276931e-04 -3.211798559197188e-19
-6.895210784477570e-03  7.539153540772087e-05 -3.302186610883478e-19
-6.893576225284339e-03 -1.575624211347588e-04 -3.392172899674708e-19
-6.856720290714552e-03  8.031099306604031e-05 -3.333869163680816e-19
-6.874775898610830e-03 -1.348657559398591e-04 -3.375433512960767e-19
-6.888487153866603e-03  4.470508193129954e-05 -3.300430388231030e-19
-6.871733754106843e-03 -1.658674607885752e-04 -3.266263873083185e-19
-6.834398640921011e-03  3.386406752923563e-05 -3.296081472514490e-19
-6.887839496553108e-03 -7.234565788446755e-05 -3.321102239280954e-19
-6.908341291966318e-03  2.895265387471783e-05 -3.294851010781153e-19
-6.883031578881885e-03 -1.401596101553202e-04 -3.360971799897667e-19
-6.869086193727650e-03  3.638431830411674e-05 -3.282320791763993e-19
-6.872888388219825e-03 -8.233784658779745e-05 -3.272051610325156e-19
-6.909478247365698e-03  1.396079600336514e-04 -3.350261789335459e-19
-6.906634620627162e-03 -1.401917017901779e-04 -3.294019205959197e-19
-6.882410544160237e-03  1.408846183614479e-05 -3.284801856726331e-19
-6.870021479146071e-03 -1.420024780138465e-04 -3.243667720152489e-19
-6.856839152958133e-03  2.608737889991212e-05 -3.350720756747326e-19
-6.863040227921945e-03 -9.856949781657056e-05 -3.316212209635977e-19
-6.861524108604794e-03  2.260961369710428e-04 -3.543747299223613e-19
-6.882952144613254e-03 -8.934184180738435e-05 -3.301327087313716e-19
-6.899010238294493e-03  3.960599549029066e-05 -3.324857009359523e-19
-6.881893734554463e-03 -1.222348267876472e-04 -3.405190372793520e-19
-6.850314682773774e-03  1.247693015917135e-04 -3.249596678732622e-19
-6.900084191608947e-03 -5.227627804438396e-05 -3.337644009411540e-19
-6.889834229837580e-03 -8.836725138883606e-06 -3.322340258893116e-19
-6.850472578763362e-03 -2.344642256549580e-05 -3.274660237718385e-19
-6.863689767458305e-03  2.746134778003138e-04 -3.317399014895394e-19
-6.874258072712218e-03 -3.594200619049313e-05 -3.250313816055007e-19
-6.866516666712193e-03 -3.590153030794217e-05 -3.254074475199898e-19
-6.874917749888025e-03 -8.043531948119286e-05 -3.297152639198827e-19
-6.916777294287640e-03  1.779164012272595e-04 -3.348188506775595e-19
-6.918857464708501e-03 -8.853734840285872e-05 -3.327014983099812e-19
-6.972290840065855e-03  1.847744313481066e-04 -3.066737800795096e-19
-6.865221620683824e-03 -3.696953571098510e-04 -3.875348256089700e-19
-6.849609607993381e-03  2.914300613112241e-04 -3.544152593318729e-19
-6.906405942758378e-03 -1.134127330272825e-04 -3.559532122991666e-19
-6.994584742252681e-03  2.949526514047389e-04 -3.472786513207917e-19
-6.763695927114414e-03 -7.397841766753466e-04 -2.105477566762664e-19
-6.690526115737687e-03  6.428630912192150e-04 -2.007691013968871e-19
-6.875860145275182e-03 -1.581397714190443e-04 -3.237394753308645e-19
-6.946775220449417e-03  6.226502984222211e-04 -3.099663942420404e-19
-6.938144948886561e-03 -3.442201242209822e-04 -3.134417103007220e-19
-6.972005625003656e-03  4.254916103385208e-04 -4.021150012340986e-19
-6.892805024529426e-03 -5.688520858121135e-04 -3.054496101834779e-19
-6.876102583860416e-03  4.564417846733002e-04 -2.688094703148100e-19
-6.813206509513858e-03 -5.320885679571707e-04 -4.603559484327071e-19
-6.802089798817803e-03  8.678471363901152e-04 -1.422950368117946e-19
-6.981520544795759e-03 -3.516630941088535e-04 -2.664659622868368e-19
-6.651487405833291e-03  5.784675207548320e-04 -3.215743291946360e-19
-6.621614161781837e-03 -5.361629500732853e-04 -3.680185200155888e-19
-6.810534135439437e-03  4.895853573272038e-04 -3.953033389780688e-19
-6.981663203404496e-03 -2.728904037911134e-04 -3.947851661027517e-19
-7.006946643009317e-03  5.396754092968484e-04 -3.450265820075584e-19
-6.903030490500793e-03 -1.036408655004852e-03 -5.394362393801150e-19
-6.826396680014481e-03  3.582139739257255e-04 -3.406173317943908e-19
-6.754636829762930e-03 -6.699705272234475e-04 -5.254985148771965e-19
-6.749005091166009e-03  4.751069373864064e-04 -3.235225961457323e-19
-6.923888939817819e-03 -3.356979814428493e-04 -3.759421616941437e-19
-6.849104384175918e-03  1.887931637419068e-04 -3.043144449908796e-19
-6.815845341812041e-03 -1.719427266700157e-04 -3.323606524544434e-19
-6.784701786161767e-03  6.149732678133453e-04 -3.773422293405806e-19
-6.887715871266841e-03 -3.210162955867851e-05 -3.395809686400274e-19
-6.675476268793978e-03  3.847080335944832e-04 -3.870887233873133e-19
-6.562778092292690e-03  3.782132320064422e-04 -3.798032240958613e-19
-6.723301543404408e-03 -1.281676140746395e-03 -3.334666090417862e-19
-6.402633667645230e-03  1.536757408068158e-05 -3.311491546974513e-19
-6.063772754069401e-03  3.873099903157652e-03  2.191352250206648e-19
-7.150850482624814e-03 -3.405477147301096e-04 -3.474631979372830e-19
-6.696585310673914e-03 -1.202055720469627e-04 -5.329390019241124e-19
-6.575750461192865e-03  4.969608524233676e-04 -6.360797948142289e-19
-6.653834867050842e-03 -3.906637080561616e-04 -1.935443245949486e-19
-6.402095492516377e-03 -1.030520976060918e-03 -4.956744256118539e-19
-6.571363064924265e-03  2.743938404556684e-04 -3.169485577874185e-19
-7.040387843434157e-03  3.429172511845987e-04 -2.921232570301212e-19
-7.229376702782900e-03 -7.572450397696820e-05 -3.535966651468341e-19
-6.119531486851997e-03 -1.637277338626303e-03 -2.948116762545531e-19
-5.701125695508983e-03  2.049782016768867e-03 -2.195280726906363e-19
-7.304278026148333e-03  5.546994587329984e-04 -4.875748085074288e-19
-6.656268837345838e-03 -7.565910998898685e-04 -3.158046975529003e-19
-6.877386271087319e-03 -7.188491183928364e-05 -2.875472734455808e-19
-6.764035383466828e-03 -7.070012764332259e-05 -2.857258716651835e-19
 1.778472896598987e-03  6.512709317644294e-03 -7.028937100727110e-20
-6.747354365011469e-03 -5.573761221009409e-05 -3.400103296465556e-19
-6.930290248411057e-03 -5.075550367524520e-04 -5.019461352004835e-19
-7.529025849538119e-03 -1.136486645862133e-03 -1.294599870936470e-19
-7.434562161849889e-03 -1.052242334549235e-03 -5.050536442617341e-19
-5.861664603565428e-03  1.141002159379618e-04 -3.235018578870160e-19
 1.349053907980984e-03  6.067773383631646e-03 -1.299095437499121e-18
-8.314962480082009e-03  1.205557192057538e-03 -1.837483042691111e-19
-6.064168098831988e-03 -1.046388760094351e-03 -2.981214715870571e-19
-6.745305614747139e-03  1.115639121882447e-05 -3.461786912188518e-19
-6.867920859544827e-03  1.135919057566372e-05 -3.504837631797294e-19
-6.821009037076079e-03  1.128160081559338e-05 -3.540863877492313e-19
-6.858800244264797e-03  1.134410554348994e-05 -3.594156027673594e-19
-6.975329723423709e-03 -1.575995261069201e-04 -3.062261478902313e-19
-6.948276103982663e-03  4.613537457050045e-04 -1.971505076463523e-19
-6.574991321799001e-03 -2.042097579956399e-04 -5.202006182753908e-19
-6.952196868652292e-03  2.146456846716017e-03 -1.989661892072423e-19
-7.044442780028502e-03 -2.060944778767781e-03 -8.147444307398433e-19
-6.851670159120472e-03  1.148979166163248e-04 -3.705281313505326e-19
-6.872544966785273e-03  6.372715549018475e-04 -5.235134805648443e-19
-6.621257075002237e-03  7.356478710639143e-05 -3.708886850710490e-19
-6.719051339918013e-03 -1.717720850872145e-04 -4.312926037614663e-19
-6.741920038375369e-03 -1.723567217894097e-04 -4.352271120703738e-19
-6.945507361212397e-03  3.138133527467846e-04 -2.568340450313821e-19
-6.742048493686838e-03 -6.897548561998887e-04 -3.795700862677681e-19
-6.617616500611591e-03  7.447583421075004e-04  4.639172082130468e-20
-6.551119259687519e-03 -5.267112753784449e-04 -4.163358708989945e-19
-7.032972761120949e-03  1.227299159928851e-03 -7.325042570219328e-19
-6.856662760015858e-03 -1.570514454307018e-03  6.542191423575316e-19
-6.926649760180750e-03  4.429267706841299e-04 -1.856478866870438e-19
-6.847067646391159e-03 -5.667184069430503e-04 -5.665612611170310e-19
-6.703257990214009e-03  7.948901648468119e-04  1.419946902732778e-20
-6.585600292143333e-03 -1.862070759319543e-04 -2.771705834362031e-19
-6.729768432578562e-03 -4.932601166536520e-04 -4.225687037892768e-20
-6.844176922416709e-03 -1.093072627588203e-04 -4.031936606412320e-19
-6.826115033268076e-03  1.566147088449870e-04 -3.573602424022480e-19
-6.821147344398452e-03 -3.264113174423773e-04 -1.699849854393521e-19
-6.834880302384762e-03 -5.029827903366576e-06 -4.207429863659642e-19
-6.850232334657484e-03 -5.041125552613159e-06 -4.279101921991939e-19
-6.843362604333574e-03 -1.648572844407605e-04 -3.730162702013182e-19
-6.836091718623882e-03 -1.059589463129536e-05 -4.022515875821680e-19
-6.840097591880504e-03 -3.943072800183347e-05 -5.240054158851223e-19
-6.838437165973555e-03  2.106894183967420e-05 -4.285429913583238e-19
-6.839088516072168e-03 -1.099486351668489e-04 -5.129121878222438e-19
-6.833061022667216e-03 -1.761384017576004e-05 -3.496652667670578e-19
-6.809399044087453e-03 -1.755284579746258e-05 -3.632058927247023e-19
-6.760955161226430e-03  8.000288064154445e-05 -5.042515690386370e-19
-6.982428732563044e-03 -1.319108394476816e-04 -6.177441474374969e-19
-6.613325267962598e-03 -5.501693203549938e-04 -7.677042781733668e-19
-6.710540167389475e-03  3.217008797300320e-04 -7.559992141644008e-19
-6.787910971608017e-03 -1.545137515323827e-04 -5.290284727368975e-19
-6.838155952125655e-03  3.186070541239406e-04 -4.830861190166057e-19
-6.707238189718521e-03 -3.629207508694662e-04 -3.829563021404821e-19
-6.696304564734527e-03  5.608103014480373e-04 -3.392317932845888e-19
-6.794774270963118e-03 -2.562865403934862e-04 -5.689355892832910e-19
-6.974066655978576e-03  4.764521550830481e-04 -4.736939855967480e-19
-6.911844183662236e-03 -6.889811238665364e-04 -1.903322083433602e-19
-6.879841784368131e-03  1.785889546694746e-04 -6.085801013392409e-19
-6.734301536777827e-03 -4.760453088966775e-04 -5.908000228600124e-19
-6.839689541840774e-03  3.585569966873917e-04 -6.261577597663228e-19
-6.878640789605111e-03 -3.743441095294362e-04 -2.709390090808173e-19
-6.882490124945820e-03  1.436277540047581e-04 -9.480475009605955e-19
-6.908088005871447e-03 -1.948430517012680e-04 -1.175570562183751e-18
-6.892881486041409e-03  8.216188092396057e-05 -1.001380779429479e-18
-7.007248236125799e-03 -1.194188708361773e-04 -7.713273564068232e-19
-6.858385742308606e-03 -1.168819276136071e-04 -9.129634903518968e-19
-3.664811506903975e-03  5.791313342682391e-03  2.770904174402065e-18
-7.070715611903777e-03  7.909832664985349e-05 -1.468471619904026e-18
-6.889629373448135e-03  7.707256020309619e-05 -1.734717174361078e-18
-6.885257623262825e-03  5.597291458615446e-05 -2.238280374412887e-18
-6.874556719951591e-03  6.383286362741685e-05 -2.951022022266716e-18
-6.864616995445826e-03  9.236180782321990e-05 -3.764346852787893e-18
-6.826669507014079e-03 -6.317224213069052e-05 -4.757791793262084e-18
-6.850322439581730e-03  1.201874492187836e-04 -5.580152524513593e-18
-6.876969256010137e-03 -5.977246816944958e-05 -7.132079858962165e-18
-6.889800245146533e-03  1.006420042970271e-04 -1.202326775853656e-17
-6.838337041322766e-03  1.861317844433168e-05 -1.845764568096025e-17
-6.846309342649715e-03  1.516912752747291e-04 -2.433075700337809e-17
-6.821614042820615e-03 -3.955673966222906e-05 -3.495660399090990e-17
-6.834326981682319e-03  2.339114502079600e-04 -4.897982799910829e-17
-6.863547346433981e-03 -4.882828730498939e-05 -6.486801563201335e-17
-6.787408678991658e-03  8.350017937858815e-05 -8.629713629814638e-17
-6.852431107597782e-03  4.557828542196013e-05 -1.181876836027086e-16
-6.837922547987363e-03  2.316728822803987e-05  3.372360592862492e-16
-6.873790707926680e-03 -2.185835609134955e-05 -6.264338772237433e-15
-6.844159548162724e-03  1.195975767053013e-04  9.128173323155339e-16
-6.866672255792116e-03 -2.183571972111737e-05 -6.620356053828659e-15
-6.813384548795175e-03  3.756244790860179e-05 -1.373875940664006e-16
-6.796165433334162e-03  4.434033718842702e-05 -8.559380292503794e-17
-6.940644660061269e-03  1.571198527388601e-05 -6.669653279110482e-17
-6.929917886814896e-03 -3.151133346853509e-04 -4.485150403758776e-17
-7.214769805888611e-03 -5.291516085189649e-05 -2.447355779797997e-17
-6.862775410258165e-03  6.520638375443411e-04 -1.384144565353684e-17
-6.397335551229334e-03  6.078402570712307e-04 -9.042454774972408e-18
-6.413233737878787e-03 -5.135709840911045e-04 -5.577465787661944e-18
-7.046635298092086e-03 -2.928515993549708e-04 -3.586382945581706e-18
-6.698165404762545e-03  6.649932137438904e-04 -2.790158190143583e-18
-6.859366073487137e-03  4.602444560302460e-04 -2.407314785391302e-18
-6.655710943554326e-03 -3.031158961280436e-04 -1.906357228728941e-18
-6.920064846830438e-03 -3.151551614996994e-04 -1.524812865239973e-18
-6.999161522867417e-03  1.355936954485894e-04 -1.175310122909309e-18
-6.865016552328056e-03  1.701584143960043e-05 -1.037576625850688e-18
-6.818440152222570e-03  1.690039573994605e-05 -9.146917764080086e-19
-6.811131555227324e-03 -2.838771690219879e-05 -8.199645937265370e-19
-6.809491801691754e-03 -2.199324600459990e-05 -7.441841458397961e-19
-6.807405457214160e-03 -2.198650754471444e-05 -6.858687971422042e-19
-6.822341776409105e-03 -2.203474875742520e-05 -6.385377246096190e-19
-6.829741926389177e-03 -1.337050116399651e-04 -6.082934349544447e-19
-6.836549210941318e-03  2.269688611419391e-06 -5.800330052755237e-19
-6.850649279821701e-03  1.448140240236712e-04 -5.521125384137077e-19
-6.833050406361283e-03 -6.580143963866235e-05 -5.355510397311752e-19
-6.817205883943155e-03  1.163612810374668e-05 -5.161491493315244e-19
-6.830240649480276e-03 -6.566691319993293e-06 -4.965739549580655e-19
-6.835180403474116e-03 -6.571440470329119e-06 -4.810368165646479e-19
-6.846063077778037e-03 -1.140320098845026e-06 -4.679928042639213e-19
-6.861676861217920e-03 -1.495279217504961e-05 -4.562281728558837e-19
-6.917524293322321e-03 -6.565575274046196e-05 -4.463684187991743e-19
-6.870236459446392e-03 -6.520693345238415e-05 -4.374635128336518e-19
-5.915466834192589e-03  3.461683348121583e-03 -4.253163320368370e-19
-6.965571453371891e-03  3.869286791959049e-05 -4.293562156149578e-19
-6.872161002774408e-03  3.817398468775916e-05 -4.204813737652536e-19
-6.868391610672025e-03 -1.512650503767126e-05 -4.127740166584482e-19
-6.895773629304046e-03  1.648144192968894e-04 -4.123424189589770e-19
-6.880459055272499e-03 -2.706897418743847e-05 -4.035606899930433e-19
-6.887463158789208e-03  2.047720968306394e-04 -4.018647706353209e-19
-6.848984694154810e-03 -8.339768059380008e-05 -3.970480734076106e-19
-6.879369138434575e-03  3.024315230642316e-04 -3.880033635679656e-19
-6.859098600741349e-03 -1.717584096227280e-04 -3.859633066309501e-19
-6.792287394742393e-03  2.724524094200171e-04 -3.919059693573457e-19
-6.754285751467374e-03 -9.210219859778692e-05 -3.789121175664661e-19
-6.831122589647700e-03  1.579874095999676e-03 -3.887764177708502e-19
-6.822613223889987e-03 -3.786460833607868e-04 -3.639869545782117e-19
-6.773092816665357e-03  8.113562430863008e-04 -3.829623926729276e-19
-6.777670245423044e-03 -4.394191636926445e-04 -3.717397069349925e-19
-6.656097112607970e-03  2.267653378596030e-03 -3.703642946398492e-19
-7.014121782077964e-03 -7.086959278335696e-04 -3.676249375527697e-19
-6.918654373588412e-03  4.498005065991882e-04 -3.839962407541709e-19
-6.691386549095401e-03 -9.996030539911700e-04 -3.524174472788537e-19
-6.760474801309774e-03  6.878432578120977e-04 -3.585880051092736e-19
-6.605855125513136e-03 -6.743145743227869e-04 -3.478998827923277e-19
-6.483885324394052e-03  1.751823068515891e-03 -2.998668062155061e-19
-6.809957750365794e-03 -5.011457643627569e-04 -3.687856201408805e-19
-6.585685339856846e-03  1.641342204666312e-03 -3.368173599211818e-19
-6.711576503362859e-03 -5.251195306948765e-04 -3.544599799481493e-19
-6.393019258608030e-03  1.329854275682076e-03 -3.497423264619247e-19
-6.405795211212311e-03 -3.130442442606492e-04 -3.494391136768472e-19
-6.121912819135497e-03  1.516385994084205e-03 -3.463469794488429e-19
-7.194852402181372e-03 -5.149624003681693e-04 -3.347005064383858e-19
-6.286960580131827e-03 -2.570273150519398e-04 -3.393896827014152e-19
-6.430989961585178e-03 -6.490289197907973e-04 -3.214553923185271e-19
-6.541999461209118e-03 -2.197806494290011e-04 -3.424917547324943e-19
-6.777572546249743e-03 -2.307605362893351e-04 -3.492359637799697e-19
-6.814004744963347e-03 -2.670725933829604e-04 -3.434211467225512e-19
-6.900963267356197e-03 -2.175955172065180e-05 -3.514182950926024e-19
-6.855131182091006e-03 -3.094284759881294e-04 -3.573015340593544e-19
-6.881882336400983e-03  9.412503370758341e-05 -3.509737451197800e-19
-6.865185330550052e-03 -6.940285679304296e-04 -3.491554628304792e-19
-6.886095582604672e-03  3.246460734146891e-05 -3.508573966797551e-19
-6.862918005542009e-03 -3.351271996011018e-04 -3.493863115011884e-19
-6.895592220816457e-03  5.485121364251320e-04 -3.517808893364760e-19
-6.960251738786759e-03 -3.264348784680212e-04 -3.493217955220467e-19
-6.917241541948602e-03  7.932085140637698e-05 -3.492104924062193e-19
-6.807573601259286e-03 -4.685510216080416e-04 -3.532838597422171e-19
-6.839104746449878e-03  1.771383062805056e-04 -3.485036076544547e-19
-6.878762726948331e-03 -3.331124291231925e-04 -3.487992482607729e-19
-6.816549109085908e-03 -1.751163727765502e-04 -3.457806480776377e-19
-6.831883239632096e-03 -1.280819659964604e-04 -3.456142862322623e-19
-6.882804708260047e-03  4.090849298863682e-05 -3.442049472915103e-19
-6.833828510968793e-03 -7.930169589981380e-04 -3.304659094685263e-19
-6.818547357825765e-03 -2.706794875655452e-05 -3.437890793768710e-19
-6.922245201492995e-03 -2.029636746669274e-04 -3.441613879732196e-19
-7.127954576656472e-03 -3.583220321019490e-05 -3.468005713256808e-19
-7.012872183624535e-03 -5.398738047782869e-04 -3.439507397403332e-19
-6.881262259274064e-03  1.967523759004081e-04 -3.468517666784752e-19
-7.529711022001399e-03  8.268702075690075e-04 -3.514434715055407e-19
-7.391518184389521e-03 -9.611646106007162e-04 -3.398985266690736e-19
-6.537476233690769e-03 -1.213107707526886e-04 -3.405082518999293e-19
-6.197791062927449e-03  3.865812273868651e-03 -2.780273075997638e-19
-7.016311263195959e-03 -1.911830442222129e-03 -3.310737589923445e-19
-6.865800805382019e-03 -2.126528851703371e-04 -3.431892463787196e-19
-7.190831659764252e-03  2.176172790327627e-05 -3.486657148127539e-19
-6.539378213984689e-03  1.979022400783236e-05 -3.372540747478141e-19
-2.652417586609004e-03  6.726482871911789e-03 -1.134804158684896e-19
-6.945950129231147e-03 -6.288863728457466e-04 -3.273623677172572e-19
-6.577249012210852e-03 -1.107551075768059e-04 -3.346412059631053e-19
-6.696676972136843e-03 -4.246814557467374e-05 -3.367154589805394e-19
-6.851668079683310e-03  3.657167499479074e-04 -3.372195080099121e-19
-6.847465483549373e-03 -1.549049879207578e-04 -3.344839345132016e-19
-6.912443241318453e-03 -3.579624390871186e-06 -3.377467751212687e-19
-6.835160433507033e-03 -3.004285623171630e-04 -3.357887055625081e-19
-6.897703443979452e-03  1.474017290136342e-04 -3.383083301060704e-19
-6.900494313565707e-03 -1.060910985490384e-04 -3.360362476602806e-19
-6.844093069641444e-03  3.534791989607794e-05 -3.363770089857020e-19
-6.812219266903978e-03 -7.671119711560291e-05 -3.354631145328886e-19
-6.850745515320894e-03  2.869921994196459e-04 -3.386581269879030e-19
-6.894484494461232e-03 -7.693395874900926e-05 -3.353718431712747e-19
-6.854798378796521e-03  1.274941463146375e-05 -3.362845867626310e-19
-6.842127053729552e-03 -3.858567912139296e-05 -3.355601445632524e-19
-6.870391000206078e-03  1.103254681054738e-04 -3.358495698634025e-19
-6.869286853433676e-03 -1.773840990167550e-05 -3.355499895476462e-19
-6.863054351045679e-03  8.974430213521223e-05 -3.350340665885527e-19
-6.889179276351107e-03 -1.743637672077919e-05 -3.358793554168776e-19
-6.874560420725151e-03  2.046152000481220e-05 -3.357383882918994e-19
-6.879510434396142e-03  5.238754319711530e-05 -3.359107928375765e-19
-6.873063264755669e-03  2.574307351684878e-05 -3.349601248303265e-19
-6.936202671631714e-03  3.665763970761136e-05 -3.363924244430288e-19
-6.824967466139965e-03 -2.626422832434265e-04 -3.318854949030159e-19
-6.861788390832726e-03  1.643053626887052e-04 -3.340441585142478e-19
-6.884837438858463e-03 -4.554520974417571e-05 -3.343035695418451e-19
-6.936672034924573e-03  1.955900502871933e-04 -3.349855442643051e-19
-6.875429402522691e-03 -1.921390484861596e-04 -3.340669472707189e-19
-6.895893268717991e-03  1.898206562854638e-04 -3.350798124988292e-19
-6.770318887926667e-03 -3.818310433857368e-04 -3.312835687832497e-19
-6.800459730415784e-03  3.549712386915771e-04 -3.354434476072924e-19
-6.846812916639605e-03 -1.481346542500191e-04 -3.311852948298213e-19
-6.913049681299428e-03  5.800163664087708e-04 -3.264568787693132e-19
-6.936359401890423e-03 -2.595142536432774e-04 -3.314703264212735e-19
-6.975596813655712e-03  4.394329240262553e-04 -3.393591973000473e-19
-6.729106225494684e-03 -1.260051283535323e-03 -3.223518887801917e-19
-6.813795950613108e-03  4.882952764144760e-04 -3.352400770498077e-19
-6.724056025527590e-03 -6.445164006335699e-04 -3.208520071620001e-19
-6.867022428563969e-03  7.465393494582669e-04 -3.368051524707449e-19
-6.867544966126902e-03 -8.378578179520303e-04 -3.203024100334276e-19
-6.850454889928751e-03  6.212276780139857e-04 -3.337565574587322e-19
-6.675736181450133e-03 -9.134431474739541e-04 -3.211409613245753e-19
-6.568925287611565e-03  8.598912382464531e-04 -3.298368777574228e-19
-6.779269708873836e-03 -1.866667695739602e-04 -3.277848205128635e-19
-6.766368062427742e-03  1.220129642735319e-03 -3.303160555882051e-19
-6.840085244810517e-03 -3.581235834294856e-04 -3.256436290032044e-19
-6.760604368538401e-03  6.796137904383747e-04 -3.315806134676470e-19
-6.744270322099968e-03 -4.933937497255145e-04 -3.255879119958789e-19
-6.718812848186199e-03  5.952649117521876e-04 -3.318005602793970e-19
-6.690944218688680e-03 -8.975622786331581e-04 -3.165074370277867e-19
-6.596500811501807e-03  3.957710800323274e-04 -3.296347433851303e-19
-6.809476527784747e-03 -3.747288694946874e-04 -3.208734722962047e-19
-6.854271611969447e-03  3.480027596456129e-04 -3.251745593388247e-19
-6.874568931640105e-03 -8.683126112203408e-04 -3.281057625436116e-19
-6.760726650089331e-03  1.439788890284908e-04 -3.292526248789981e-19
-6.802518975713170e-03 -1.026846890152369e-04 -3.286120079449400e-19
-6.803288746520362e-03  2.924363815148148e-04 -3.260404740852528e-19
-6.810426237524608e-03 -9.427419415564500e-05 -3.285094720509236e-19
-6.865949512366960e-03  2.971591962460414e-04 -3.347740203743119e-19
-6.868400936249275e-03 -1.272848447139326e-04 -3.309411046639031e-19
-6.960230732070254e-03  2.843470439584669e-04 -3.326639417655839e-19
-6.845886002283660e-03 -1.077528933514893e-03 -3.205755988494138e-19
-6.769072114754717e-03  1.541718209165621e-04 -3.278037945076876e-19
-6.885265973716881e-03  2.456948471230550e-05 -3.307293749507266e-19
-6.850099753924176e-03  7.823731166122935e-05 -3.301514472833495e-19
-6.844153735154816e-03  8.289889107054571e-06 -3.292951843959768e-19
-6.860380627546599e-03  8.309543712092005e-06 -3.298802719611221e-19
-6.862325927660355e-03  7.300644861288238e-05 -3.289999692564251e-19
-6.892523129025558e-03  3.858287667551343e-05 -3.297543330997845e-19
-6.934336020527344e-03 -1.189214713989436e-04 -3.301187858072699e-19
-6.965111457570021e-03  8.228258677334970e-05 -3.327722741214725e-19
-6.742310659909725e-03  1.213639601929185e-03 -3.033828445571955e-19
-6.841397835277063e-03  5.126578633243438e-05 -3.271327595462045e-19
-6.847066523547690e-03  5.130826445878581e-05 -3.276403309241615e-19
-6.872892152961010e-03 -6.727180424855543e-04 -3.447675834992145e-19
-6.953034790662670e-03  5.169281082440284e-04 -3.274463877129663e-19
-6.792243909455103e-03  2.421538566268663e-04 -3.279032984615856e-19
-6.971103675434753e-03 -8.840564159934560e-05 -3.297100640393311e-19
-6.655349919221080e-03 -4.017018448701069e-04 -3.332335269562028e-19
-6.778690118601189e-03  7.190232792988527e-04 -3.428869457743868e-19
-6.922360975725505e-03 -1.643283948572334e-04 -3.313079348306767e-19
-6.830994835759884e-03  3.785201172570796e-04 -3.331223621491476e-19
-6.875295267443542e-03 -3.757486933050262e-04 -3.271269647316488e-19
-6.742546252023964e-03  1.953746860258813e-04 -3.259725265419586e-19
-6.879040975154791e-03 -2.977322462396719e-04 -3.225024589982490e-19
-7.000804636521906e-03  1.954243085969068e-04 -3.367986421300720e-19
-6.858127185657715e-03  1.914415318112150e-04 -3.324891187524277e-19
-6.859654814960058e-03  4.584250623559771e-04 -3.236683355678473e-19
-6.806441694697551e-03 -1.078652307955736e-04 -3.272559853392183e-19
-6.875824428854554e-03 -1.089647751638010e-04 -3.307321262057671e-19
-6.886777480384505e-03  1.762635311914598e-04 -3.285061439337172e-19
-6.974460356924674e-03  1.785077293651362e-04 -3.268586236841085e-19
-6.758440671265376e-03 -5.168694245671038e-04 -3.470899203064376e-19
-6.102435573110371e-03  7.393093657647083e-04 -2.984735463746164e-19
-7.132247286609000e-03  1.868665397208781e-03 -3.807987287023817e-19
-6.942038493196788e-03 -1.539785647872809e-03 -2.903805034044232e-19
-6.209928861667327e-03 -1.393829379510727e-04 -3.070366549154958e-19
-6.832350113751045e-03  1.350327324144020e-05 -3.285254732284799e-19
-6.874963908109116e-03  1.358749399996273e-05 -3.281285026536855e-19
6.902552202789042e-03 8.227683832535491e-04 3.267620673814403e-19
 6.781250141454381e-03 -3.710628491426721e-05  3.313144588574033e-19
 6.861728617606288e-03 -2.437450111573972e-04  3.314280309211461e-19
 6.830968766762343e-03 -1.551767282826686e-04  3.320561880523582e-19
 6.882260339815908e-03 -1.563419010080442e-04  3.331924917780066e-19
 6.888196567125689e-03 -1.073287467445865e-04  3.332435394055484e-19
 6.874380042526893e-03 -1.071134639408652e-04  3.327854836835930e-19
 6.860402464948235e-03 -1.068956716828448e-04  3.323253644188737e-19
 6.864161431174183e-03 -1.538408521504795e-04  3.327419469639122e-19
 6.883221272820874e-03 -1.542680248372206e-04  3.334523713992749e-19
 6.913987792489387e-03 -1.375772722738726e-04  3.340376503244244e-19
 6.900392867362627e-03 -1.373067550598070e-04  3.338780830154839e-19
6.794810108457237e-03 9.788122482994187e-04 3.256234360795630e-19
 6.891772059222765e-03 -7.228575186938190e-05  3.325895231356235e-19
 6.869738350850502e-03 -1.048684986487406e-04  3.327379946867022e-19
 6.877544264212936e-03 -1.049876581236862e-04  3.332132339454213e-19
 6.888322601767557e-03 -7.331309433093623e-05  3.322840725713962e-19
 6.886377793675316e-03 -7.677302791469072e-05  3.327063085855616e-19
 6.879699116182147e-03 -7.669857044096813e-05  3.328573768123948e-19
 6.870736843758942e-03 -2.171541938942987e-05  3.327402399717418e-19
 6.880006007746797e-03 -1.689144636549987e-04  3.339595198268551e-19
6.928690459410324e-03 1.984483204622345e-04 3.317656255965759e-19
 6.854371634493798e-03 -4.436474720784759e-04  3.345007820772947e-19
6.870955020503107e-03 2.641058762147480e-04 3.317305412334549e-19
 6.936460280127074e-03 -3.055746557174574e-04  3.345027160406884e-19
6.924528402723684e-03 3.119972888105324e-04 3.334025405475151e-19
 6.877295390082042e-03 -3.584440129731528e-04  3.306581321865201e-19
6.892975708899757e-03 3.539805176041193e-04 3.329016549749099e-19
 6.937718165484214e-03 -3.498187667103347e-04  3.356022739899757e-19
6.883214958419930e-03 2.315159519126190e-04 3.311824466394486e-19
 6.966907552044795e-03 -2.061692195646723e-04  3.394628619954475e-19
6.873500858355759e-03 4.381213979981049e-05 3.322647607915761e-19
 6.833114834029918e-03 -2.053157976923646e-04  3.355360692250794e-19
6.828492335126427e-03 2.754105927247257e-04 3.308837913002464e-19
 6.900617437700413e-03 -5.548497156144650e-05  3.331827318868867e-19
6.870715415249140e-03 1.394635160752495e-05 3.313816457797142e-19
 6.891290461556720e-03 -1.170000113907261e-04  3.334203566075316e-19
6.826819121987153e-03 2.116610602751156e-04 3.325177566364428e-19
6.851956779398888e-03 7.589456321424006e-05 3.316505080980372e-19
 6.895820268044465e-03 -1.024331142099501e-04  3.346294364227980e-19
 6.867186945864514e-03 -1.391503360588884e-04  3.336734557023450e-19
6.900705142209785e-03 1.689308972701416e-04 3.345580443805268e-19
 6.933670503544430e-03 -1.032817180493913e-04  3.363512397847865e-19
6.885951194639456e-03 3.197710789449963e-06 3.358049676871662e-19
 6.860563387860017e-03 -3.587822909100986e-05  3.350414970514789e-19
6.859822930081287e-03 4.902394411190873e-04 3.300219526526570e-19
 6.880233028977154e-03 -6.171261161127339e-05  3.310830848718978e-19
 6.908571990741044e-03 -4.445231004119420e-05  3.380947694161476e-19
 6.753553048897048e-03 -4.891439737321630e-04  3.338384993354826e-19
6.666137485364693e-03 7.151769288462928e-04 3.291551545571641e-19
6.911109184386542e-03 9.450758068305087e-05 3.343894362983044e-19
 6.878671616707631e-03 -2.561728174827988e-04  3.416297548172740e-19
 6.825463101228490e-03 -9.167667673043605e-05  3.351212013159962e-19
6.894951095047100e-03 4.980120660272989e-05 3.357775706163000e-19
6.862536753451111e-03 3.579303412710133e-05 3.354712266184795e-19
 6.870895538747500e-03 -1.075249558917044e-04  3.376573477102746e-19
 6.957092722569671e-03 -7.233149560488044e-05  3.388970539035358e-19
 6.851658803376368e-03 -7.123532032493977e-05  3.380969868148369e-19
5.943713252084477e-03 3.472476791437692e-03 2.053646957108286e-19
6.890858778199979e-03 8.320421695025312e-06 3.333932638239272e-19
6.558680327295177e-03 2.663695178092023e-04 3.270811026443323e-19
 6.578450118754554e-03 -5.507059394843258e-04  3.542876934524857e-19
 6.957832456010804e-03 -5.824654121094695e-04  3.587044350527776e-19
 7.543502650717215e-03 -6.314939901151393e-04  3.662726931550664e-19
 7.661253301925942e-03 -6.413513245675087e-04  3.692312360319832e-19
6.836029689718220e-03 2.376825897415787e-03 3.804496763112882e-19
 6.553014464856607e-03 -5.017841816385510e-05  3.296693341016922e-19
 6.671754493139822e-03 -7.235662109119322e-04  3.595976676815917e-19
6.410444803343421e-03 4.709971559030568e-04 3.258120235728044e-19
6.673803659543281e-03 9.404465370264823e-04 3.343159090415634e-19
 6.452063023546662e-03 -3.822193174764989e-04  3.112101150635949e-19
 6.861579417861004e-03 -5.076405111971556e-04  3.382371611600374e-19
6.578937888781522e-03 2.591435091374020e-04 3.360840797462260e-19
7.274261035917982e-03 1.223825112941324e-03 3.033744706159203e-19
 7.159701740099711e-03 -7.135961134217099e-04  3.287888501188225e-19
6.829234164267916e-03 2.430977989836596e-04 3.403479260086444e-19
 6.893851960043001e-03 -4.598940866785417e-04  3.539491343388207e-19
6.848719498420725e-03 1.515823303532231e-04 3.401816799078756e-19
 6.834387026090564e-03 -2.096185684973318e-04  3.371828799224809e-19
6.836315296754139e-03 3.296996190369303e-04 3.397071222422648e-19
 6.866095174499570e-03 -1.617136420774080e-04  3.365943514112545e-19
6.819603217472758e-03 9.849559382883289e-05 3.385924002083377e-19
 7.014594037607734e-03 -5.474983461153095e-04  3.467871994629011e-19
6.978618083682456e-03 4.125955046374798e-04 3.416666339390925e-19
6.529816556832315e-03 1.051327754460151e-03 3.491077355154434e-19
 6.490828650304493e-03 -1.219201718546572e-03  3.472310097200419e-19
 6.880942929975379e-03 -2.345819328369499e-04  3.464596311888412e-19
6.981473750132313e-03 2.373647793155733e-04 3.455483475941509e-19
 6.886650322557176e-03 -4.916394118261250e-05  3.416416337110967e-19
6.898277928935767e-03 5.030031030113384e-05 3.455751539426201e-19
6.880736132878880e-03 7.914309272802471e-06 3.478431826415213e-19
6.873741016879046e-03 7.906263402367580e-06 3.479289444395506e-19
6.879692591100238e-03 7.913108977918935e-06 3.481825385810882e-19
 6.892149145834262e-03 -1.200326954458618e-05  3.440432659698718e-19
6.897550331394110e-03 1.749592659878387e-05 3.490884017939101e-19
6.889404503917739e-03 1.747526436469124e-05 3.504848996303202e-19
6.878419596537703e-03 3.869036156716549e-05 3.519374188186725e-19
 6.876723669069817e-03 -7.660565451425053e-07  3.496344582365741e-19
 6.870754025795064e-03 -2.326097528170375e-05  3.535668681560854e-19
6.872211875620466e-03 1.397808811353919e-05 3.521460521679137e-19
6.851062041258660e-03 2.803114029509585e-05 3.520950016284050e-19
6.851299909622531e-03 1.260853017880341e-04 3.520080062764489e-19
 6.942593802493125e-03 -1.075832121580190e-04  3.532894647351183e-19
 6.942963509727226e-03 -2.237795610763595e-04  3.639559895282902e-19
6.979715031755426e-03 1.863803264544728e-04 3.566190774788392e-19
6.893978322903708e-03 1.840908868839153e-04 3.540642399985737e-19
6.896193835508030e-03 7.452273553334013e-05 3.570983078339139e-19
 6.822848366101734e-03 -6.863732562263322e-06  3.554907697290273e-19
6.862701866870546e-03 3.253273117990920e-05 3.583128084832669e-19
6.863413443362147e-03 2.951475507516568e-05 3.628972397214356e-19
6.862177366945677e-03 2.950943957246612e-05 3.641647200410994e-19
6.861841173715257e-03 2.521339702981515e-05 3.631127912254133e-19
6.864852917235210e-03 3.650803608743231e-05 3.660407733347028e-19
6.861014649215087e-03 1.662379012624431e-05 3.670421499888841e-19
6.858937884346259e-03 4.692565947929382e-05 3.702163275699811e-19
6.864751430619338e-03 2.237558529489604e-05 3.712979520248917e-19
6.860085610174510e-03 2.236037710208830e-05 3.729271650120468e-19
6.859638422243648e-03 2.574121329396767e-05 3.763997585060905e-19
6.869119592912529e-03 1.016095954968335e-05 3.782905710572522e-19
 6.846637020169340e-03 -5.572990252799346e-05  3.795747770522097e-19
6.854567324435791e-03 6.018982407841641e-05 3.817745480152968e-19
6.844757444344875e-03 4.348591612403667e-05 3.842296417338132e-19
 6.874497987078771e-03 -5.376326819027705e-05  3.886300451867713e-19
 6.808486386556042e-03 -1.210821969816622e-04  3.908082641890180e-19
6.855954848616275e-03 5.337851626562304e-05 3.929502381151143e-19
6.820335918655521e-03 1.519692031581972e-05 3.978988170987596e-19
 6.810129034829474e-03 -9.503535853941129e-07  4.044785021393996e-19
 6.822951738738072e-03 -9.521429938725225e-07  4.102536434434746e-19
6.836580005695441e-03 9.817764169718717e-07 4.160187305808144e-19
6.801320107207262e-03 1.689848611345809e-05 4.230700704047019e-19
6.954890569384648e-03 1.825589217942042e-04 4.264574972887812e-19
 6.872159094638041e-03 -7.112513000341281e-04  4.356846486283750e-19
6.757624972776015e-03 3.345399882826212e-05 4.299954380285431e-19
 6.842239229537373e-03 -2.663361391382589e-05  4.368389283547650e-19
 6.838633823269969e-03 -2.661957976574846e-05  4.448942922106296e-19
6.846742245820510e-03 8.774387931524195e-05 4.492127858807664e-19
 6.847406867856932e-03 -2.532985408383462e-05  4.590999619363655e-19
 6.773411995888764e-03 -5.621566622870516e-06  4.728479206738909e-19
6.911071126872725e-03 3.859142926508482e-04 4.779903162584881e-19
 7.169503339035207e-03 -1.130118105998870e-04  4.915169038929197e-19
 6.674365704595966e-03 -1.039754492517861e-03  4.877183397289197e-19
6.697639739448295e-03 9.514591587279054e-05 4.953907951112552e-19
6.923298562850472e-03 1.046248379329628e-04 5.083320575458021e-19
 6.846391550934680e-03 -6.852947698458751e-05  5.272628492236037e-19
 6.869699281658032e-03 -4.771750575472463e-05  5.582657243445661e-19
 6.876149246272380e-03 -2.267274678572158e-05  5.932256652116315e-19
 6.873783982234170e-03 -2.266494779377143e-05  6.243635481319688e-19
 6.863910027457672e-03 -1.869926609011994e-05  6.612571001431159e-19
 6.852390061739514e-03 -1.436879572085980e-05  7.130845154672858e-19
 6.970257628777517e-03 -1.043064169997861e-04  7.603525870982013e-19
 6.929585610726346e-03 -2.170963999330631e-04  8.037160808858952e-19
6.949291832337899e-03 9.398186521968997e-05 9.052435599013734e-19
6.823771542187949e-03 7.566628081823506e-05 9.953181020631951e-19
6.657028124437596e-03 8.902141134969958e-05 1.028360502382299e-18
 7.042560439657519e-03 -9.089478723611589e-04  1.395958268184202e-18
7.369751166446417e-03 4.209965666099083e-05 1.746854405669382e-18
5.226712700988306e-03 4.943460180575140e-03 1.518719174479337e-18
 6.415224571163903e-03 -9.892122214242582e-04  2.394240811409056e-18
 6.811877450805176e-03 -2.449351924249386e-04  3.251325795444246e-18
7.026588104878646e-03 1.666624065705109e-04 4.262463359202320e-18
6.906926099143440e-03 5.004449913183618e-05 6.047953167851305e-18
 6.931529646127092e-03 -9.007636655456316e-06  8.219151945203218e-18
 6.881871126851482e-03 -1.253620719759962e-04  1.001123966939136e-17
6.888371567510368e-03 1.102107672975309e-04 1.164937175523927e-17
 6.923190689810423e-03 -3.009842529973028e-05  1.453123952704736e-17
6.903290007644249e-03 1.874376556447852e-04 2.024544584828397e-17
 6.886824770707358e-03 -3.598256868629710e-05  3.274404676550992e-17
6.878780979957345e-03 1.019213916095933e-04 5.056206054073150e-17
6.870074769185664e-03 7.491210684986224e-05 7.441783765630032e-17
6.928008666266782e-03 7.554382490740583e-05 1.260314186519902e-16
 6.581603707501882e-03 -5.286939052764566e-04 -1.857194925378504e-16
 5.980149742122374e-03  2.469176270959605e-03 -1.296054092810770e-15
6.948330256008909e-03 1.374385427381105e-04 6.309012424337410e-15
 6.796606000992354e-03 -6.736167695362121e-04 -1.879469610054069e-15
6.989609835926692e-03 1.382550562180363e-04 6.656723455901136e-15
6.793924902102956e-03 4.004788287983174e-05 1.091505182617660e-16
6.896989950016113e-03 6.994983300550306e-04 1.367965891450494e-16
6.944934185407898e-03 1.965812396486364e-05 1.032607969378748e-16
6.871445922096214e-03 1.945011027436978e-05 6.642055654392239e-17
6.894220442810373e-03 4.307678427203870e-05 4.095263847780883e-17
6.906721953169489e-03 1.038633478689797e-04 2.823534430400862e-17
6.902876116077552e-03 4.397310196374572e-05 2.285916424962381e-17
6.894665600950168e-03 9.947188562747208e-05 1.531007636065334e-17
 6.918594058205922e-03 -2.726344134305343e-05  1.114486601417266e-17
6.901382293836201e-03 7.619942354872962e-05 9.074474044137283e-18
6.923147959481402e-03 6.337782210753672e-05 6.599137813656434e-18
6.904251675531866e-03 1.039872160487775e-04 4.856717702453440e-18
6.891135158582230e-03 3.312569995200837e-05 3.783724187471437e-18
6.876730106713458e-03 9.995080940502699e-05 3.151290501833811e-18
6.876835634548606e-03 6.214405523639698e-05 2.563221411508699e-18
6.878766366372305e-03 9.773916962330024e-05 2.165494988857468e-18
6.882517311302296e-03 6.652247973563949e-05 1.956016422706022e-18
6.872993971950635e-03 6.982709864450694e-05 1.661444794823339e-18
6.873518751098783e-03 6.983243020823212e-05 1.398541090102261e-18
6.877095326123910e-03 7.442358885713211e-05 1.220290721143498e-18
6.889066428856949e-03 4.873701236492883e-05 1.119386050626975e-18
6.893417781126684e-03 5.020107018090967e-05 1.033496765490283e-18
6.928213610845815e-03 1.797198318631125e-05 9.352883667878683e-19
6.990383572261383e-03 1.813325383470828e-05 8.516740925328441e-19
6.725270398305236e-03 1.744554272006385e-05 7.789681388828669e-19
 1.358378186141123e-03  6.779984836061029e-03 -3.300766739624285e-19
 7.043964676681466e-03 -3.285091235987318e-05  7.307779872435609e-19
 6.790729266054379e-03 -3.166989929936388e-05  6.800168010148063e-19
 6.842019787849894e-03 -9.025760408654445e-05  6.501796893670340e-19
6.881228321258258e-03 1.756492030671573e-05 6.184354007277407e-19
6.873945163820700e-03 1.754632942816912e-05 5.862730770809155e-19
6.835438135671476e-03 1.026964398526505e-04 5.531609619491807e-19
 6.854298801874706e-03 -8.540490732857809e-05  5.347993575447431e-19
 6.997221609937588e-03 -3.771404863102722e-04  5.254751268461764e-19
6.979233782335181e-03 3.457911924223808e-04 4.869135396642761e-19
6.804020159879273e-03 1.862157810413732e-04 4.698661510792677e-19
 6.719929197877610e-03 -1.564036315941387e-04  4.618471248786112e-19
 6.856001202642335e-03 -1.595706524178431e-04  4.510040572442745e-19
 6.893466424365007e-03 -4.543257650294043e-05  4.386104785875049e-19
 6.889406696109508e-03 -4.807718147199822e-05  4.308731395994601e-19
 6.868556138841754e-03 -4.793167750195096e-05  4.230641808093315e-19
 6.877459524178556e-03 -1.072027183283529e-04  4.194685474881064e-19
 6.864539037416966e-03 -7.905323809502200e-05  4.136079934464591e-19
 6.858463357888827e-03 -7.898326950168907e-05  4.073358277544776e-19
6.856040658363451e-03 3.145091608064443e-04 3.975244944440108e-19
 6.859577592752429e-03 -8.396743662221331e-05  4.003773180489869e-19
 6.857132441378941e-03 -8.393750575690732e-05  3.953401128824143e-19
 6.867588843603327e-03 -1.209554619721016e-04  3.919462717880175e-19
 6.877516092209882e-03 -4.410350204875923e-05  3.875733253887450e-19
 6.881671705589953e-03 -1.560807883582580e-04  3.857697194943589e-19
 6.875676286344761e-03 -2.119060296546972e-05  3.805976078357892e-19
 6.861389991974570e-03 -1.244147494428098e-04  3.776895454444922e-19
 6.872603623382355e-03 -2.554624161814076e-05  3.735512649957023e-19
 6.785196578104116e-03 -7.682060350112903e-04  3.762984107876458e-19
6.863316332774399e-03 6.981387093756044e-05 3.696429735936534e-19
 6.869147872456029e-03 -2.238051156524791e-04  3.700091566939817e-19
6.972144943006138e-03 2.332683192262972e-04 3.658137082035331e-19
 6.869879365221230e-03 -4.967723199644517e-04  3.696353293321166e-19
6.951887854657737e-03 4.214451869984826e-04 3.624943819879264e-19
 6.815382645910279e-03 -9.464301752736802e-04  3.688368359930941e-19
6.833958958059032e-03 4.192297864040842e-04 3.579316045493294e-19
 6.812181653773365e-03 -5.914354599546698e-04  3.645848972743203e-19
6.731149653111152e-03 1.088572352009254e-03 3.479367504926759e-19
 6.900051418460361e-03 -4.540592519151917e-04  3.655312361570624e-19
6.858513642119282e-03 8.626764774353798e-04 3.522111925732070e-19
 6.988489876010806e-03 -3.289125065287161e-04  3.644222225736143e-19
6.976310774977502e-03 5.173719601987536e-04 3.564447880396023e-19
 6.970782585209890e-03 -4.097499327699497e-04  3.627774362084724e-19
6.908737164203607e-03 3.756886969543358e-04 3.550095955203399e-19
 6.979055447734100e-03 -3.043811164899739e-04  3.601650671105559e-19
6.947296854803277e-03 1.705003626885902e-04 3.559034374252931e-19
 6.878265463436934e-03 -3.897432506638354e-04  3.566538735744222e-19
6.811847372469973e-03 1.653427177137334e-04 3.502610938510001e-19
 6.945738257036965e-03 -1.800527332813027e-04  3.534727027901278e-19
 7.059365603380423e-03 -2.108180370591722e-04  3.570822208038234e-19
 6.182104120249787e-03 -7.061525272680424e-04  3.475724270717045e-19
6.038277075790446e-03 2.546934030407628e-03 3.058929091984549e-19
 6.818338637640448e-03 -2.192616481265797e-05  3.460976943067490e-19
 6.746491246841392e-03 -1.764424581596642e-04  3.476807418022083e-19
 6.892038371680954e-03 -5.511842877938994e-05  3.500805934484189e-19
 6.966900899315244e-03 -5.571713480438983e-05  3.513113370385620e-19
 6.955640552127033e-03 -5.562708123662751e-05  3.515500010547129e-19
6.915596413517408e-03 3.213927702451454e-04 3.475387913563267e-19
6.890204624812878e-03 3.220047962141992e-05 3.470121774802091e-19
6.830628619585546e-03 3.192205887099114e-05 3.451773539973544e-19
 6.878773419793338e-03 -1.635840232103755e-04  3.469514317507506e-19
6.906770524412369e-03 4.368576645404810e-05 3.463095385797038e-19
6.867273336070778e-03 4.343594420508480e-05 3.443199738989453e-19
 6.878015925718933e-03 -8.927600783104485e-06  3.434301945352002e-19
 5.794792552834193e-04 -6.842037162175356e-03  6.653152191841577e-20
6.830735594253527e-03 8.336507251348484e-06 3.437793871043031e-19
6.915862052010986e-03 3.509040856693807e-05 3.438750334333080e-19
 6.880748104902294e-03 -6.426335567676324e-06  3.426421978016786e-19
 6.885606177511650e-03 -3.199388139406692e-05  3.425941439873558e-19
6.888629788235891e-03 1.330887888676398e-05 3.419439503847347e-19
6.880211997707019e-03 1.329261565908492e-05 3.414157628047254e-19
6.874576447930010e-03 7.670999535669588e-06 3.405860849061689e-19
6.874362291256442e-03 7.670760568839282e-06 3.403794234660469e-19
6.854624307116000e-03 7.648735929456300e-06 3.399296813129311e-19
6.837780916236749e-03 1.223913283281090e-04 3.380438088519759e-19
 6.825304596602935e-03 -2.249299175778092e-05  3.378581070004672e-19
 6.845689114815841e-03 -2.256016953624627e-05  3.388045530547275e-19
 6.875039413343859e-03 -2.265689430706568e-05  3.402443987534255e-19
6.907159073099836e-03 1.516868766203083e-04 3.400113717929713e-19
 6.938227794904101e-03 -8.053567692213766e-06  3.413116810253996e-19
 6.993590143527535e-03 -8.117829696203635e-06  3.438037413236687e-19
 7.021180431561635e-03 -8.149855201692738e-06  3.457976424796457e-19
7.031171214530076e-03 2.679746398065354e-04 3.440726143359250e-19
 7.012373289723744e-03 -4.313088084199817e-05  3.451195168959632e-19
 7.086794975786819e-03 -9.822963561043665e-05  3.477449834323922e-19
6.940438577850267e-03 3.421717237188170e-05 3.450436432759714e-19
6.843650922633522e-03 1.083551041473142e-03 3.336427380299110e-19
6.916874817685353e-03 8.722175411002289e-06 3.400197702674296e-19
 6.967179151034520e-03 -4.906867425399843e-04  3.444121386247574e-19
 7.410939865764831e-03 -5.219400654211537e-04  3.577327852618733e-19
7.245946995463436e-03 5.475263662626845e-04 3.500649992003874e-19
7.397676297558609e-03 8.260597751064074e-04 3.438396313922144e-19
 7.100258183288036e-03 -3.899137912266352e-04  3.452475412259130e-19
6.705655333021210e-03 4.403282564121587e-04 3.341457236065996e-19
7.303816217788982e-03 1.023199747077745e-04 3.419371894410285e-19
 1.853346061925113e-03 -5.796907567204028e-03  1.150139925251175e-19
5.894303413578342e-03 1.895503629415002e-03 3.235961121959278e-19
7.043529461636505e-03 8.125138954211402e-04 3.318839239502826e-19
6.192461525819126e-03 2.736677910868291e-04 3.163145186667258e-19
 6.662883038028687e-03 -9.343440263495982e-04  3.287030019802268e-19
 7.016181226654579e-03 -1.729299461304214e-03  3.427905042737427e-19
 7.643805394084452e-03 -1.063681383542425e-03  3.671421480665425e-19
6.225453332064571e-03 4.629855960675910e-03 2.620708687339302e-19
 8.716612136712971e-03 -1.940547210491728e-03  3.671796336047801e-19
6.646483407983764e-03 2.266078194811205e-04 3.312810862254457e-19
6.498411771409909e-03 1.198242323280792e-03 3.158210140866188e-19
 6.443862175784856e-03 -2.710159939875354e-04  3.214575718071704e-19
 6.790721898885576e-03 -2.856042222993759e-04  3.330590136073451e-19
7.011488313677390e-03 1.751419388091379e-05 3.382704010288589e-19
6.997691476798236e-03 3.059788102532166e-04 3.349216564192700e-19
6.899451080169205e-03 1.607803363606713e-04 3.324820361623425e-19
6.849217805298000e-03 1.598840850752644e-04 3.315740756265144e-19
6.874766042003127e-03 5.880394041445806e-05 3.330678748049205e-19
6.838060977524633e-03 4.023289125049564e-04 3.304313959092479e-19
6.831430101389860e-03 1.412827894048001e-04 3.302382105998568e-19
6.801581739178563e-03 1.406654867595578e-04 3.300432327687257e-19
6.806056324809096e-03 1.407580269641605e-04 3.300794522812950e-19
6.817105689840726e-03 1.409865420905179e-04 3.300016120945514e-19
6.868680500639822e-03 3.937724194667869e-05 3.313239486192751e-19
6.910307666483841e-03 8.165556937764332e-05 3.329374309152345e-19
6.642943397071367e-03 5.629728045372698e-04 3.231742776195721e-19
 6.502314199630229e-03 -1.593596506176304e-04  3.231642350217387e-19
6.820236670289065e-03 7.336793090635570e-04 3.247918800537637e-19
 6.687669072745673e-03 -5.953005771910662e-04  3.303291051613214e-19
6.569914177529409e-03 1.304076360462648e-03 3.169045232065829e-19
 7.134449456777409e-03 -6.276126759177408e-04  3.342075570405752e-19
 1.399978300342442e-03 -6.338111209926877e-03  8.989166528342845e-20
7.067268215348930e-03 7.458965681441679e-05 3.419484524596934e-19
7.070995247483505e-03 2.500836321556256e-04 3.390857252412881e-19
6.705964185491706e-03 6.551863444927142e-04 3.279276488864491e-19
7.225409150671425e-03 9.080590153362384e-04 3.298574966760807e-19
 6.869777124195564e-03 -6.756954067225185e-04  3.323521159949709e-19
6.724000207304627e-03 2.961361371114871e-04 3.277370520431873e-19
 6.855090502069925e-03 -6.641660240159353e-04  3.320733145970286e-19
 6.825110153178943e-03 -7.124055149026414e-05  3.329958016697234e-19
 6.841581385188696e-03 -1.067469894234152e-07  3.331054808704637e-19
6.877905936604485e-03 4.111784958853087e-04 3.292561459457046e-19
 6.810142643015463e-03 -1.968656227361000e-04  3.302136440468433e-19
6.847265251205023e-03 3.057354255228512e-05 3.312524034380846e-19
6.776706518297852e-03 3.025849262449199e-05 3.291029980793015e-19
6.719364463144154e-03 3.000245613416197e-05 3.267409543602101e-19
 6.713973766412430e-03 -6.263721340605475e-04  3.298255061403816e-19
6.562917941423098e-03 1.325017613972418e-04 3.271312595747640e-19
6.982039698178418e-03 7.409183996561234e-05 3.320922158830805e-19
 6.880816595896735e-03 -5.921040049045002e-04  3.332597494601437e-19
6.848915568304080e-03 2.546170396046999e-05 3.323150494917134e-19
6.849178216157462e-03 2.546268038685778e-05 3.307456710005886e-19
 6.837103332107608e-03 -5.456543324830598e-05  3.304132078006467e-19
 6.847838054292256e-03 -1.042675077681143e-04  3.303331127838220e-19
 6.832572606837486e-03 -3.522097893388465e-04  3.324022123238780e-19

VECTORS velocity double
0.000000000000000e+00 0.000000000000000e+00 0.000000000000000e+00
0.000000000000000e+00 0.000000000000000e+00 0.000000000000000e+00
0.000000000000000e+00 0.000000000000000e+00 0.000000000000000e+00
0.000000000000000e+00 0.000000000000000e+00 0.000000000000000e+00
0.000000000000000e+00 0.000000000000000e+00 0.000000000000000e+00
0.000000000000000e+00 0.000000000000000e+00 0.000000000000000e+00
0.000000000000000e+00 0.000000000000000e+00 0.000000000000000e+00
0.000000000000000e+00 0.000000000000000e+00 0.000000000000000e+00
0.000000000000000e+00 0.000000000000000e+00 0.000000000000000e+00
0.000000000000000e+00 0.000000000000000e+00 0.000000000000000e+00
0.000000000000000e+00 0.000000000000000e+00 0.000000000000000e+00
0.000000000000000e+00 0.000000000000000e+00 0.000000000000000e+00
0.000000000000000e+00 0.000000000000000e+00 0.000000000000000e+00
0.000000000000000e+00 0.000000000000000e+00 0.000000000000000e+00
0.000000000000000e+00 0.000000000000000e+00 0.000000000000000e+00
0.000000000000000e+00 0.000000000000000e+00 0.000000000000000e+00
0.000000000000000e+00 0.000000000000000e+00 0.000000000000000e+00
0.000000000000000e+00 0.000000000000000e+00 0.000000000000000e+00
0.000000000000000e+00 0.000000000000000e+00 0.000000000000000e+00
0.000000000000000e+00 0.000000000000000e+00 0.000000000000000e+00
0.000000000000000e+00 0.000000000000000e+00 0.000000000000000e+00
0.000000000000000e+00 0.000000000000000e+00 0.000000000000000e+00
0.000000000000000e+00 0.000000000000000e+00 0.000000000000000e+00
0.000000000000000e+00 0.000000000000000e+00 0.000000000000000e+00
0.000000000000000e+00 0.000000000000000e+00 0.000000000000000e+00
0.000000000000000e+00 0.000000000000000e+00 0.000000000000000e+00
0.000000000000000e+00 0.000000000000000e+00 0.000000000000000e+00
0.000000000000000e+00 0.000000000000000e+00 0.000000000000000e+00
0.000000000000000e+00 0.000000000000000e+00 0.000000000000000e+00
0.000000000000000e+00 0.000000000000000e+00 0.000000000000000e+00
0.000000000000000e+00 0.000000000000000e+00 0.000000000000000e+00
0.000000000000000e+00 0.000000000000000e+00 0.000000000000000e+00
0.000000000000000e+00 0.000000000000000e+00 0.000000000000000e+00
0.000000000000000e+00 0.000000000000000e+00 0.000000000000000e+00
0.000000000000000e+00 0.000000000000000e+00 0.000000000000000e+00
0.000000000000000e+00 0.000000000000000e+00 0.000000000000000e+00
0.000000000000000e+00 0.000000000000000e+00 0.000000000000000e+00
0.000000000000000e+00 0.000000000000000e+00 0.000000000000000e+00
0.000000000000000e+00 0.000000000000000e+00 0.000000000000000e+00
0.000000000000000e+00 0.000000000000000e+00 0.000000000000000e+00
0.000000000000000e+00 0.000000000000000e+00 0.000000000000000e+00
0.000000000000000e+00 0.000000000000000e+00 0.000000000000000e+00
0.000000000000000e+00 0.000000000000000e+00 0.000000000000000e+00
0.000000000000000e+00 0.000000000000000e+00 0.000000000000000e+00
0.000000000000000e+00 0.000000000000000e+00 0.000000000000000e+00
0.000000000000000e+00 0.000000000000000e+00 0.000000000000000e+00
0.000000000000000e+00 0.000000000000000e+00 0.000000000000000e+00
0.000000000000000e+00 0.000000000000000e+00 0.000000000000000e+00
0.000000000000000e+00 0.000000000000000e+00 0.000000000000000e+00
0.000000000000000e+00 0.000000000000000e+00 0.000000000000000e+00
0.000000000000000e+00 0.000000000000000e+00 0.000000000000000e+00
0.000000000000000e+00 0.000000000000000e+00 0.000000000000000e+00
0.000000000000000e+00 0.000000000000000e+00 0.000000000000000e+00
0.000000000000000e+00 0.000000000000000e+00 0.000000000000000e+00
0.000000000000000e+00 0.000000000000000e+00 0.000000000000000e+00
0.000000000000000e+00 0.000000000000000e+00 0.000000000000000e+00
0.000000000000000e+00 0.000000000000000e+00 0.000000000000000e+00
0.000000000000000e+00 0.000000000000000e+00 0.000000000000000e+00
0.000000000000000e+00 0.000000000000000e+00 0.000000000000000e+00
0.000000000000000e+00 0.000000000000000e+00 0.000000000000000e+00
0.000000000000000e+00 0.000000000000000e+00 0.000000000000000e+00
0.000000000000000e+00 0.000000000000000e+00 0.000000000000000e+00
0.000000000000000e+00 0.000000000000000e+00 0.000000000000000e+00
0.000000000000000e+00 0.000000000000000e+00 0.000000000000000e+00
0.000000000000000e+00 0.000000000000000e+00 0.000000000000000e+00
0.000000000000000e+00 0.000000000000000e+00 0.000000000000000e+00
0.000000000000000e+00 0.000000000000000e+00 0.000000000000000e+00
0.000000000000000e+00 0.000000000000000e+00 0.000000000000000e+00
0.000000000000000e+00 0.000000000000000e+00 0.000000000000000e+00
0.000000000000000e+00 0.000000000000000e+00 0.000000000000000e+00
0.000000000000000e+00 0.000000000000000e+00 0.000000000000000e+00
0.000000000000000e+00 0.000000000000000e+00 0.000000000000000e+00
0.000000000000000e+00 0.000000000000000e+00 0.000000000000000e+00
0.000000000000000e+00 0.000000000000000e+00 0.000000000000000e+00
0.000000000000000e+00 0.000000000000000e+00 0.000000000000000e+00
0.000000000000000e+00 0.000000000000000e+00 0.000000000000000e+00
0.000000000000000e+00 0.000000000000000e+00 0.000000000000000e+00
0.000000000000000e+00 0.000000000000000e+00 0.000000000000000e+00
0.000000000000000e+00 0.000000000000000e+00 0.000000000000000e+00
0.000000000000000e+00 0.000000000000000e+00 0.000000000000000e+00
0.000000000000000e+00 0.000000000000000e+00 0.000000000000000e+00
0.000000000000000e+00 0.000000000000000e+00 0.000000000000000e+00
0.000000000000000e+00 0.000000000000000e+00 0.000000000000000e+00
0.000000000000000e+00 0.000000000000000e+00 0.000000000000000e+00
0.000000000000000e+00 0.000000000000000e+00 0.000000000000000e+00
0.000000000000000e+00 0.000000000000000e+00 0.000000000000000e+00
0.000000000000000e+00 0.000000000000000e+00 0.000000000000000e+00
0.000000000000000e+00 0.000000000000000e+00 0.000000000000000e+00
0.000000000000000e+00 0.000000000000000e+00 0.000000000000000e+00
0.000000000000000e+00 0.000000000000000e+00 0.000000000000000e+00
0.000000000000000e+00 0.000000000000000e+00 0.000000000000000e+00
0.000000000000000e+00 0.000000000000000e+00 0.000000000000000e+00
0.000000000000000e+00 0.000000000000000e+00 0.000000000000000e+00
0.000000000000000e+00 0.000000000000000e+00 0.000000000000000e+00
0.000000000000000e+00 0.000000000000000e+00 0.000000000000000e+00
0.000000000000000e+00 0.000000000000000e+00 0.000000000000000e+00
0.000000000000000e+00 0.000000000000000e+00 0.000000000000000e+00
0.000000000000000e+00 0.000000000000000e+00 0.000000000000000e+00
0.000000000000000e+00 0.000000000000000e+00 0.000000000000000e+00
0.000000000000000e+00 0.000000000000000e+00 0.000000000000000e+00
0.000000000000000e+00 0.000000000000000e+00 0.000000000000000e+00
0.000000000000000e+00 0.000000000000000e+00 0.000000000000000e+00
0.000000000000000e+00 0.000000000000000e+00 0.000000000000000e+00
0.000000000000000e+00 0.000000000000000e+00 0.000000000000000e+00
0.000000000000000e+00 0.000000000000000e+00 0.000000000000000e+00
0.000000000000000e+00 0.000000000000000e+00 0.000000000000000e+00
0.000000000000000e+00 0.000000000000000e+00 0.000000000000000e+00
0.000000000000000e+00 0.000000000000000e+00 0.000000000000000e+00
0.000000000000000e+00 0.000000000000000e+00 0.000000000000000e+00
0.000000000000000e+00 0.000000000000000e+00 0.000000000000000e+00
0.000000000000000e+00 0.000000000000000e+00 0.000000000000000e+00
0.000000000000000e+00 0.000000000000000e+00 0.000000000000000e+00
0.000000000000000e+00 0.000000000000000e+00 0.000000000000000e+00
0.000000000000000e+00 0.000000000000000e+00 0.000000000000000e+00
0.000000000000000e+00 0.000000000000000e+00 0.000000000000000e+00
0.000000000000000e+00 0.000000000000000e+00 0.000000000000000e+00
0.000000000000000e+00 0.000000000000000e+00 0.000000000000000e+00
0.000000000000000e+00 0.000000000000000e+00 0.000000000000000e+00
0.000000000000000e+00 0.000000000000000e+00 0.000000000000000e+00
0.000000000000000e+00 0.000000000000000e+00 0.000000000000000e+00
0.000000000000000e+00 0.000000000000000e+00 0.000000000000000e+00
0.000000000000000e+00 0.000000000000000e+00 0.000000000000000e+00
0.000000000000000e+00 0.000000000000000e+00 0.000000000000000e+00
0.000000000000000e+00 0.000000000000000e+00 0.000000000000000e+00
0.000000000000000e+00 0.000000000000000e+00 0.000000000000000e+00
0.000000000000000e+00 0.000000000000000e+00 0.000000000000000e+00
0.000000000000000e+00 0.000000000000000e+00 0.000000000000000e+00
0.000000000000000e+00 0.000000000000000e+00 0.000000000000000e+00
0.000000000000000e+00 0.000000000000000e+00 0.000000000000000e+00
0.000000000000000e+00 0.000000000000000e+00 0.000000000000000e+00
0.000000000000000e+00 0.000000000000000e+00 0.000000000000000e+00
0.000000000000000e+00 0.000000000000000e+00 0.000000000000000e+00
0.000000000000000e+00 0.000000000000000e+00 0.000000000000000e+00
0.000000000000000e+00 0.000000000000000e+00 0.000000000000000e+00
0.000000000000000e+00 0.000000000000000e+00 0.000000000000000e+00
0.000000000000000e+00 0.000000000000000e+00 0.000000000000000e+00
0.000000000000000e+00 0.000000000000000e+00 0.000000000000000e+00
0.000000000000000e+00 0.000000000000000e+00 0.000000000000000e+00
0.000000000000000e+00 0.000000000000000e+00 0.000000000000000e+00
0.000000000000000e+00 0.000000000000000e+00 0.000000000000000e+00
0.000000000000000e+00 0.000000000000000e+00 0.000000000000000e+00
0.000000000000000e+00 0.000000000000000e+00 0.000000000000000e+00
0.000000000000000e+00 0.000000000000000e+00 0.000000000000000e+00
0.000000000000000e+00 0.000000000000000e+00 0.000000000000000e+00
0.000000000000000e+00 0.000000000000000e+00 0.000000000000000e+00
0.000000000000000e+00 0.000000000000000e+00 0.000000000000000e+00
0.000000000000000e+00 0.000000000000000e+00 0.000000000000000e+00
0.000000000000000e+00 0.000000000000000e+00 0.000000000000000e+00
0.000000000000000e+00 0.000000000000000e+00 0.000000000000000e+00
0.000000000000000e+00 0.000000000000000e+00 0.000000000000000e+00
0.000000000000000e+00 0.000000000000000e+00 0.000000000000000e+00
0.000000000000000e+00 0.000000000000000e+00 0.000000000000000e+00
0.000000000000000e+00 0.000000000000000e+00 0.000000000000000e+00
0.000000000000000e+00 0.000000000000000e+00 0.000000000000000e+00
0.000000000000000e+00 0.000000000000000e+00 0.000000000000000e+00
0.000000000000000e+00 0.000000000000000e+00 0.000000000000000e+00
0.000000000000000e+00 0.000000000000000e+00 0.000000000000000e+00
0.000000000000000e+00 0.000000000000000e+00 0.000000000000000e+00
0.000000000000000e+00 0.000000000000000e+00 0.000000000000000e+00
0.000000000000000e+00 0.000000000000000e+00 0.000000000000000e+00
0.000000000000000e+00 0.000000000000000e+00 0.000000000000000e+00
0.000000000000000e+00 0.000000000000000e+00 0.000000000000000e+00
0.000000000000000e+00 0.000000000000000e+00 0.000000000000000e+00
0.000000000000000e+00 0.000000000000000e+00 0.000000000000000e+00
0.000000000000000e+00 0.000000000000000e+00 0.000000000000000e+00
0.000000000000000e+00 0.000000000000000e+00 0.000000000000000e+00
0.000000000000000e+00 0.000000000000000e+00 0.000000000000000e+00
0.000000000000000e+00 0.000000000000000e+00 0.000000000000000e+00
0.000000000000000e+00 0.000000000000000e+00 0.000000000000000e+00
0.000000000000000e+00 0.000000000000000e+00 0.000000000000000e+00
0.000000000000000e+00 0.000000000000000e+00 0.000000000000000e+00
0.000000000000000e+00 0.000000000000000e+00 0.000000000000000e+00
0.000000000000000e+00 0.000000000000000e+00 0.000000000000000e+00
0.000000000000000e+00 0.000000000000000e+00 0.000000000000000e+00
0.000000000000000e+00 0.000000000000000e+00 0.000000000000000e+00
0.000000000000000e+00 0.000000000000000e+00 0.000000000000000e+00
0.000000000000000e+00 0.000000000000000e+00 0.000000000000000e+00
0.000000000000000e+00 0.000000000000000e+00 0.000000000000000e+00
0.000000000000000e+00 0.000000000000000e+00 0.000000000000000e+00
0.000000000000000e+00 0.000000000000000e+00 0.000000000000000e+00
0.000000000000000e+00 0.000000000000000e+00 0.000000000000000e+00
0.000000000000000e+00 0.000000000000000e+00 0.000000000000000e+00
0.000000000000000e+00 0.000000000000000e+00 0.000000000000000e+00
0.000000000000000e+00 0.000000000000000e+00 0.000000000000000e+00
0.000000000000000e+00 0.000000000000000e+00 0.000000000000000e+00
0.000000000000000e+00 0.000000000000000e+00 0.000000000000000e+00
0.000000000000000e+00 0.000000000000000e+00 0.000000000000000e+00
0.000000000000000e+00 0.000000000000000e+00 0.000000000000000e+00
0.000000000000000e+00 0.000000000000000e+00 0.000000000000000e+00
0.000000000000000e+00 0.000000000000000e+00 0.000000000000000e+00
0.000000000000000e+00 0.000000000000000e+00 0.000000000000000e+00
0.000000000000000e+00 0.000000000000000e+00 0.000000000000000e+00
0.000000000000000e+00 0.000000000000000e+00 0.000000000000000e+00
0.000000000000000e+00 0.000000000000000e+00 0.000000000000000e+00
0.000000000000000e+00 0.000000000000000e+00 0.000000000000000e+00
0.000000000000000e+00 0.000000000000000e+00 0.000000000000000e+00
0.000000000000000e+00 0.000000000000000e+00 0.000000000000000e+00
0.000000000000000e+00 0.000000000000000e+00 0.000000000000000e+00
0.000000000000000e+00 0.000000000000000e+00 0.000000000000000e+00
0.000000000000000e+00 0.000000000000000e+00 0.000000000000000e+00
0.000000000000000e+00 0.000000000000000e+00 0.000000000000000e+00
0.000000000000000e+00 0.000000000000000e+00 0.000000000000000e+00
0.000000000000000e+00 0.000000000000000e+00 0.000000000000000e+00
0.000000000000000e+00 0.000000000000000e+00 0.000000000000000e+00
0.000000000000000e+00 0.000000000000000e+00 0.000000000000000e+00
0.000000000000000e+00 0.000000000000000e+00 0.000000000000000e+00
0.000000000000000e+00 0.000000000000000e+00 0.000000000000000e+00
0.000000000000000e+00 0.000000000000000e+00 0.000000000000000e+00
0.000000000000000e+00 0.000000000000000e+00 0.000000000000000e+00
0.000000000000000e+00 0.000000000000000e+00 0.000000000000000e+00
0.000000000000000e+00 0.000000000000000e+00 0.000000000000000e+00
0.000000000000000e+00 0.000000000000000e+00 0.000000000000000e+00
0.000000000000000e+00 0.000000000000000e+00 0.000000000000000e+00
0.000000000000000e+00 0.000000000000000e+00 0.000000000000000e+00
0.000000000000000e+00 0.000000000000000e+00 0.000000000000000e+00
0.000000000000000e+00 0.000000000000000e+00 0.000000000000000e+00
0.000000000000000e+00 0.000000000000000e+00 0.000000000000000e+00
0.000000000000000e+00 0.000000000000000e+00 0.000000000000000e+00
0.000000000000000e+00 0.000000000000000e+00 0.000000000000000e+00
0.000000000000000e+00 0.000000000000000e+00 0.000000000000000e+00
0.000000000000000e+00 0.000000000000000e+00 0.000000000000000e+00
0.000000000000000e+00 0.000000000000000e+00 0.000000000000000e+00
0.000000000000000e+00 0.000000000000000e+00 0.000000000000000e+00
0.000000000000000e+00 0.000000000000000e+00 0.000000000000000e+00
0.000000000000000e+00 0.000000000000000e+00 0.000000000000000e+00
0.000000000000000e+00 0.000000000000000e+00 0.000000000000000e+00
0.000000000000000e+00 0.000000000000000e+00 0.000000000000000e+00
0.000000000000000e+00 0.000000000000000e+00 0.000000000000000e+00
0.000000000000000e+00 0.000000000000000e+00 0.000000000000000e+00
0.000000000000000e+00 0.000000000000000e+00 0.000000000000000e+00
0.000000000000000e+00 0.000000000000000e+00 0.000000000000000e+00
0.000000000000000e+00 0.000000000000000e+00 0.000000000000000e+00
0.000000000000000e+00 0.000000000000000e+00 0.000000000000000e+00
0.000000000000000e+00 0.000000000000000e+00 0.000000000000000e+00
0.000000000000000e+00 0.000000000000000e+00 0.000000000000000e+00
0.000000000000000e+00 0.000000000000000e+00 0.000000000000000e+00
0.000000000000000e+00 0.000000000000000e+00 0.000000000000000e+00
0.000000000000000e+00 0.000000000000000e+00 0.000000000000000e+00
0.000000000000000e+00 0.000000000000000e+00 0.000000000000000e+00
0.000000000000000e+00 0.000000000000000e+00 0.000000000000000e+00
0.000000000000000e+00 0.000000000000000e+00 0.000000000000000e+00
0.000000000000000e+00 0.000000000000000e+00 0.000000000000000e+00
0.000000000000000e+00 0.000000000000000e+00 0.000000000000000e+00
0.000000000000000e+00 0.000000000000000e+00 0.000000000000000e+00
0.000000000000000e+00 0.000000000000000e+00 0.000000000000000e+00
0.000000000000000e+00 0.000000000000000e+00 0.000000000000000e+00
0.000000000000000e+00 0.000000000000000e+00 0.000000000000000e+00
0.000000000000000e+00 0.000000000000000e+00 0.000000000000000e+00
0.000000000000000e+00 0.000000000000000e+00 0.000000000000000e+00
0.000000000000000e+00 0.000000000000000e+00 0.000000000000000e+00
0.000000000000000e+00 0.000000000000000e+00 0.000000000000000e+00
0.000000000000000e+00 0.000000000000000e+00 0.000000000000000e+00
0.000000000000000e+00 0.000000000000000e+00 0.000000000000000e+00
0.000000000000000e+00 0.000000000000000e+00 0.000000000000000e+00
0.000000000000000e+00 0.000000000000000e+00 0.000000000000000e+00
0.000000000000000e+00 0.000000000000000e+00 0.000000000000000e+00
0.000000000000000e+00 0.000000000000000e+00 0.000000000000000e+00
0.000000000000000e+00 0.000000000000000e+00 0.000000000000000e+00
0.000000000000000e+00 0.000000000000000e+00 0.000000000000000e+00
0.000000000000000e+00 0.000000000000000e+00 0.000000000000000e+00
0.000000000000000e+00 0.000000000000000e+00 0.000000000000000e+00
0.000000000000000e+00 0.000000000000000e+00 0.000000000000000e+00
0.000000000000000e+00 0.000000000000000e+00 0.000000000000000e+00
0.000000000000000e+00 0.000000000000000e+00 0.000000000000000e+00
0.000000000000000e+00 0.000000000000000e+00 0.000000000000000e+00
0.000000000000000e+00 0.000000000000000e+00 0.000000000000000e+00
0.000000000000000e+00 0.000000000000000e+00 0.000000000000000e+00
0.000000000000000e+00 0.000000000000000e+00 0.000000000000000e+00
0.000000000000000e+00 0.000000000000000e+00 0.000000000000000e+00
0.000000000000000e+00 0.000000000000000e+00 0.000000000000000e+00
0.000000000000000e+00 0.000000000000000e+00 0.000000000000000e+00
0.000000000000000e+00 0.000000000000000e+00 0.000000000000000e+00
0.000000000000000e+00 0.000000000000000e+00 0.000000000000000e+00
0.000000000000000e+00 0.000000000000000e+00 0.000000000000000e+00
0.000000000000000e+00 0.000000000000000e+00 0.000000000000000e+00
0.000000000000000e+00 0.000000000000000e+00 0.000000000000000e+00
0.000000000000000e+00 0.000000000000000e+00 0.000000000000000e+00
0.000000000000000e+00 0.000000000000000e+00 0.000000000000000e+00
0.000000000000000e+00 0.000000000000000e+00 0.000000000000000e+00
0.000000000000000e+00 0.000000000000000e+00 0.000000000000000e+00
0.000000000000000e+00 0.000000000000000e+00 0.000000000000000e+00
0.000000000000000e+00 0.000000000000000e+00 0.000000000000000e+00
0.000000000000000e+00 0.000000000000000e+00 0.000000000000000e+00
0.000000000000000e+00 0.000000000000000e+00 0.000000000000000e+00
0.000000000000000e+00 0.000000000000000e+00 0.000000000000000e+00
0.000000000000000e+00 0.000000000000000e+00 0.000000000000000e+00
0.000000000000000e+00 0.000000000000000e+00 0.000000000000000e+00
0.000000000000000e+00 0.000000000000000e+00 0.000000000000000e+00
0.000000000000000e+00 0.000000000000000e+00 0.000000000000000e+00
0.000000000000000e+00 0.000000000000000e+00 0.000000000000000e+00
0.000000000000000e+00 0.000000000000000e+00 0.000000000000000e+00
0.000000000000000e+00 0.000000000000000e+00 0.000000000000000e+00
0.000000000000000e+00 0.000000000000000e+00 0.000000000000000e+00
0.000000000000000e+00 0.000000000000000e+00 0.000000000000000e+00
0.000000000000000e+00 0.000000000000000e+00 0.000000000000000e+00
0.000000000000000e+00 0.000000000000000e+00 0.000000000000000e+00
0.000000000000000e+00 0.000000000000000e+00 0.000000000000000e+00
0.000000000000000e+00 0.000000000000000e+00 0.000000000000000e+00
0.000000000000000e+00 0.000000000000000e+00 0.000000000000000e+00
0.000000000000000e+00 0.000000000000000e+00 0.000000000000000e+00
0.000000000000000e+00 0.000000000000000e+00 0.000000000000000e+00
0.000000000000000e+00 0.000000000000000e+00 0.000000000000000e+00
0.000000000000000e+00 0.000000000000000e+00 0.000000000000000e+00
0.000000000000000e+00 0.000000000000000e+00 0.000000000000000e+00
0.000000000000000e+00 0.000000000000000e+00 0.000000000000000e+00
0.000000000000000e+00 0.000000000000000e+00 0.000000000000000e+00
0.000000000000000e+00 0.000000000000000e+00 0.000000000000000e+00
0.000000000000000e+00 0.000000000000000e+00 0.000000000000000e+00
0.000000000000000e+00 0.000000000000000e+00 0.000000000000000e+00
0.000000000000000e+00 0.000000000000000e+00 0.000000000000000e+00
0.000000000000000e+00 0.000000000000000e+00 0.000000000000000e+00
0.000000000000000e+00 0.000000000000000e+00 0.000000000000000e+00
0.000000000000000e+00 0.000000000000000e+00 0.000000000000000e+00
0.000000000000000e+00 0.000000000000000e+00 0.000000000000000e+00
0.000000000000000e+00 0.000000000000000e+00 0.000000000000000e+00
0.000000000000000e+00 0.000000000000000e+00 0.000000000000000e+00
0.000000000000000e+00 0.000000000000000e+00 0.000000000000000e+00
0.000000000000000e+00 0.000000000000000e+00 0.000000000000000e+00
0.000000000000000e+00 0.000000000000000e+00 0.000000000000000e+00
0.000000000000000e+00 0.000000000000000e+00 0.000000000000000e+00
0.000000000000000e+00 0.000000000000000e+00 0.000000000000000e+00
0.000000000000000e+00 0.000000000000000e+00 0.000000000000000e+00
0.000000000000000e+00 0.000000000000000e+00 0.000000000000000e+00
0.000000000000000e+00 0.000000000000000e+00 0.000000000000000e+00
0.000000000000000e+00 0.000000000000000e+00 0.000000000000000e+00
0.000000000000000e+00 0.000000000000000e+00 0.000000000000000e+00
0.000000000000000e+00 0.000000000000000e+00 0.000000000000000e+00
0.000000000000000e+00 0.000000000000000e+00 0.000000000000000e+00
0.000000000000000e+00 0.000000000000000e+00 0.000000000000000e+00
0.000000000000000e+00 0.000000000000000e+00 0.000000000000000e+00
0.000000000000000e+00 0.000000000000000e+00 0.000000000000000e+00
0.000000000000000e+00 0.000000000000000e+00 0.000000000000000e+00
0.000000000000000e+00 0.000000000000000e+00 0.000000000000000e+00
0.000000000000000e+00 0.000000000000000e+00 0.000000000000000e+00
0.000000000000000e+00 0.000000000000000e+00 0.000000000000000e+00
0.000000000000000e+00 0.000000000000000e+00 0.000000000000000e+00
0.000000000000000e+00 0.000000000000000e+00 0.000000000000000e+00
0.000000000000000e+00 0.000000000000000e+00 0.000000000000000e+00
0.000000000000000e+00 0.000000000000000e+00 0.000000000000000e+00
0.000000000000000e+00 0.000000000000000e+00 0.000000000000000e+00
0.000000000000000e+00 0.000000000000000e+00 0.000000000000000e+00
0.000000000000000e+00 0.000000000000000e+00 0.000000000000000e+00
0.000000000000000e+00 0.000000000000000e+00 0.000000000000000e+00
0.000000000000000e+00 0.000000000000000e+00 0.000000000000000e+00
0.000000000000000e+00 0.000000000000000e+00 0.000000000000000e+00
0.000000000000000e+00 0.000000000000000e+00 0.000000000000000e+00
0.000000000000000e+00 0.000000000000000e+00 0.000000000000000e+00
0.000000000000000e+00 0.000000000000000e+00 0.000000000000000e+00
0.000000000000000e+00 0.000000000000000e+00 0.000000000000000e+00
0.000000000000000e+00 0.000000000000000e+00 0.000000000000000e+00
0.000000000000000e+00 0.000000000000000e+00 0.000000000000000e+00
0.000000000000000e+00 0.000000000000000e+00 0.000000000000000e+00
0.000000000000000e+00 0.000000000000000e+00 0.000000000000000e+00
0.000000000000000e+00 0.000000000000000e+00 0.000000000000000e+00
0.000000000000000e+00 0.000000000000000e+00 0.000000000000000e+00
0.000000000000000e+00 0.000000000000000e+00 0.000000000000000e+00
0.000000000000000e+00 0.000000000000000e+00 0.000000000000000e+00
0.000000000000000e+00 0.000000000000000e+00 0.000000000000000e+00
0.000000000000000e+00 0.000000000000000e+00 0.000000000000000e+00
0.000000000000000e+00 0.000000000000000e+00 0.000000000000000e+00
0.000000000000000e+00 0.000000000000000e+00 0.000000000000000e+00
0.000000000000000e+00 0.000000000000000e+00 0.000000000000000e+00
0.000000000000000e+00 0.000000000000000e+00 0.000000000000000e+00
0.000000000000000e+00 0.000000000000000e+00 0.000000000000000e+00
0.000000000000000e+00 0.000000000000000e+00 0.000000000000000e+00
0.000000000000000e+00 0.000000000000000e+00 0.000000000000000e+00
0.000000000000000e+00 0.000000000000000e+00 0.000000000000000e+00
0.000000000000000e+00 0.000000000000000e+00 0.000000000000000e+00
0.000000000000000e+00 0.000000000000000e+00 0.000000000000000e+00
0.000000000000000e+00 0.000000000000000e+00 0.000000000000000e+00
0.000000000000000e+00 0.000000000000000e+00 0.000000000000000e+00
0.000000000000000e+00 0.000000000000000e+00 0.000000000000000e+00
0.000000000000000e+00 0.000000000000000e+00 0.000000000000000e+00
0.000000000000000e+00 0.000000000000000e+00 0.000000000000000e+00
0.000000000000000e+00 0.000000000000000e+00 0.000000000000000e+00
0.000000000000000e+00 0.000000000000000e+00 0.000000000000000e+00
0.000000000000000e+00 0.000000000000000e+00 0.000000000000000e+00
0.000000000000000e+00 0.000000000000000e+00 0.000000000000000e+00
0.000000000000000e+00 0.000000000000000e+00 0.000000000000000e+00
0.000000000000000e+00 0.000000000000000e+00 0.000000000000000e+00
0.000000000000000e+00 0.000000000000000e+00 0.000000000000000e+00
0.000000000000000e+00 0.000000000000000e+00 0.000000000000000e+00
0.000000000000000e+00 0.000000000000000e+00 0.000000000000000e+00
0.000000000000000e+00 0.000000000000000e+00 0.000000000000000e+00
0.000000000000000e+00 0.000000000000000e+00 0.000000000000000e+00
0.000000000000000e+00 0.000000000000000e+00 0.000000000000000e+00
0.000000000000000e+00 0.000000000000000e+00 0.000000000000000e+00
0.000000000000000e+00 0.000000000000000e+00 0.000000000000000e+00
0.000000000000000e+00 0.000000000000000e+00 0.000000000000000e+00
0.000000000000000e+00 0.000000000000000e+00 0.000000000000000e+00
0.000000000000000e+00 0.000000000000000e+00 0.000000000000000e+00
0.000000000000000e+00 0.000000000000000e+00 0.000000000000000e+00
0.000000000000000e+00 0.000000000000000e+00 0.000000000000000e+00
0.000000000000000e+00 0.000000000000000e+00 0.000000000000000e+00
0.000000000000000e+00 0.000000000000000e+00 0.000000000000000e+00
0.000000000000000e+00 0.000000000000000e+00 0.000000000000000e+00
0.000000000000000e+00 0.000000000000000e+00 0.000000000000000e+00
0.000000000000000e+00 0.000000000000000e+00 0.000000000000000e+00
0.000000000000000e+00 0.000000000000000e+00 0.000000000000000e+00
0.000000000000000e+00 0.000000000000000e+00 0.000000000000000e+00
0.000000000000000e+00 0.000000000000000e+00 0.000000000000000e+00
0.000000000000000e+00 0.000000000000000e+00 0.000000000000000e+00
0.000000000000000e+00 0.000000000000000e+00 0.000000000000000e+00
0.000000000000000e+00 0.000000000000000e+00 0.000000000000000e+00
0.000000000000000e+00 0.000000000000000e+00 0.000000000000000e+00
0.000000000000000e+00 0.000000000000000e+00 0.000000000000000e+00
0.000000000000000e+00 0.000000000000000e+00 0.000000000000000e+00
0.000000000000000e+00 0.000000000000000e+00 0.000000000000000e+00
0.000000000000000e+00 0.000000000000000e+00 0.000000000000000e+00
0.000000000000000e+00 0.000000000000000e+00 0.000000000000000e+00
0.000000000000000e+00 0.000000000000000e+00 0.000000000000000e+00
0.000000000000000e+00 0.000000000000000e+00 0.000000000000000e+00
0.000000000000000e+00 0.000000000000000e+00 0.000000000000000e+00
0.000000000000000e+00 0.000000000000000e+00 0.000000000000000e+00
0.000000000000000e+00 0.000000000000000e+00 0.000000000000000e+00
0.000000000000000e+00 0.000000000000000e+00 0.000000000000000e+00
0.000000000000000e+00 0.000000000000000e+00 0.000000000000000e+00
0.000000000000000e+00 0.000000000000000e+00 0.000000000000000e+00
0.000000000000000e+00 0.000000000000000e+00 0.000000000000000e+00
0.000000000000000e+00 0.000000000000000e+00 0.000000000000000e+00
0.000000000000000e+00 0.000000000000000e+00 0.000000000000000e+00
0.000000000000000e+00 0.000000000000000e+00 0.000000000000000e+00
0.000000000000000e+00 0.000000000000000e+00 0.000000000000000e+00
0.000000000000000e+00 0.000000000000000e+00 0.000000000000000e+00
0.000000000000000e+00 0.000000000000000e+00 0.000000000000000e+00
0.000000000000000e+00 0.000000000000000e+00 0.000000000000000e+00
0.000000000000000e+00 0.000000000000000e+00 0.000000000000000e+00
0.000000000000000e+00 0.000000000000000e+00 0.000000000000000e+00
0.000000000000000e+00 0.000000000000000e+00 0.000000000000000e+00
0.000000000000000e+00 0.000000000000000e+00 0.000000000000000e+00
0.000000000000000e+00 0.000000000000000e+00 0.000000000000000e+00
0.000000000000000e+00 0.000000000000000e+00 0.000000000000000e+00
0.000000000000000e+00 0.000000000000000e+00 0.000000000000000e+00
0.000000000000000e+00 0.000000000000000e+00 0.000000000000000e+00
0.000000000000000e+00 0.000000000000000e+00 0.000000000000000e+00
0.000000000000000e+00 0.000000000000000e+00 0.000000000000000e+00
0.000000000000000e+00 0.000000000000000e+00 0.000000000000000e+00
0.000000000000000e+00 0.000000000000000e+00 0.000000000000000e+00
0.000000000000000e+00 0.000000000000000e+00 0.000000000000000e+00
0.000000000000000e+00 0.000000000000000e+00 0.000000000000000e+00
0.000000000000000e+00 0.000000000000000e+00 0.000000000000000e+00
0.000000000000000e+00 0.000000000000000e+00 0.000000000000000e+00
0.000000000000000e+00 0.000000000000000e+00 0.000000000000000e+00
0.000000000000000e+00 0.000000000000000e+00 0.000000000000000e+00
0.000000000000000e+00 0.000000000000000e+00 0.000000000000000e+00
0.000000000000000e+00 0.000000000000000e+00 0.000000000000000e+00
0.000000000000000e+00 0.000000000000000e+00 0.000000000000000e+00
0.000000000000000e+00 0.000000000000000e+00 0.000000000000000e+00
0.000000000000000e+00 0.000000000000000e+00 0.000000000000000e+00
0.000000000000000e+00 0.000000000000000e+00 0.000000000000000e+00
0.000000000000000e+00 0.000000000000000e+00 0.000000000000000e+00
0.000000000000000e+00 0.000000000000000e+00 0.000000000000000e+00
0.000000000000000e+00 0.000000000000000e+00 0.000000000000000e+00
0.000000000000000e+00 0.000000000000000e+00 0.000000000000000e+00
0.000000000000000e+00 0.000000000000000e+00 0.000000000000000e+00
0.000000000000000e+00 0.000000000000000e+00 0.000000000000000e+00
0.000000000000000e+00 0.000000000000000e+00 0.000000000000000e+00
0.000000000000000e+00 0.000000000000000e+00 0.000000000000000e+00
0.000000000000000e+00 0.000000000000000e+00 0.000000000000000e+00
0.000000000000000e+00 0.000000000000000e+00 0.000000000000000e+00
0.000000000000000e+00 0.000000000000000e+00 0.000000000000000e+00
0.000000000000000e+00 0.000000000000000e+00 0.000000000000000e+00
0.000000000000000e+00 0.000000000000000e+00 0.000000000000000e+00
0.000000000000000e+00 0.000000000000000e+00 0.000000000000000e+00
0.000000000000000e+00 0.000000000000000e+00 0.000000000000000e+00
0.000000000000000e+00 0.000000000000000e+00 0.000000000000000e+00
0.000000000000000e+00 0.000000000000000e+00 0.000000000000000e+00
0.000000000000000e+00 0.000000000000000e+00 0.000000000000000e+00
0.000000000000000e+00 0.000000000000000e+00 0.000000000000000e+00
0.000000000000000e+00 0.000000000000000e+00 0.000000000000000e+00
0.000000000000000e+00 0.000000000000000e+00 0.000000000000000e+00
0.000000000000000e+00 0.000000000000000e+00 0.000000000000000e+00
0.000000000000000e+00 0.000000000000000e+00 0.000000000000000e+00
0.000000000000000e+00 0.000000000000000e+00 0.000000000000000e+00
0.000000000000000e+00 0.000000000000000e+00 0.000000000000000e+00
0.000000000000000e+00 0.000000000000000e+00 0.000000000000000e+00
0.000000000000000e+00 0.000000000000000e+00 0.000000000000000e+00
0.000000000000000e+00 0.000000000000000e+00 0.000000000000000e+00
0.000000000000000e+00 0.000000000000000e+00 0.000000000000000e+00
0.000000000000000e+00 0.000000000000000e+00 0.000000000000000e+00
0.000000000000000e+00 0.000000000000000e+00 0.000000000000000e+00
0.000000000000000e+00 0.000000000000000e+00 0.000000000000000e+00
0.000000000000000e+00 0.000000000000000e+00 0.000000000000000e+00
0.000000000000000e+00 0.000000000000000e+00 0.000000000000000e+00
0.000000000000000e+00 0.000000000000000e+00 0.000000000000000e+00
0.000000000000000e+00 0.000000000000000e+00 0.000000000000000e+00
0.000000000000000e+00 0.000000000000000e+00 0.000000000000000e+00
0.000000000000000e+00 0.000000000000000e+00 0.000000000000000e+00
0.000000000000000e+00 0.000000000000000e+00 0.000000000000000e+00
0.000000000000000e+00 0.000000000000000e+00 0.000000000000000e+00
0.000000000000000e+00 0.000000000000000e+00 0.000000000000000e+00
0.000000000000000e+00 0.000000000000000e+00 0.000000000000000e+00
0.000000000000000e+00 0.000000000000000e+00 0.000000000000000e+00
0.000000000000000e+00 0.000000000000000e+00 0.000000000000000e+00
0.000000000000000e+00 0.000000000000000e+00 0.000000000000000e+00
0.000000000000000e+00 0.000000000000000e+00 0.000000000000000e+00
0.000000000000000e+00 0.000000000000000e+00 0.000000000000000e+00
0.000000000000000e+00 0.000000000000000e+00 0.000000000000000e+00
0.000000000000000e+00 0.000000000000000e+00 0.000000000000000e+00
0.000000000000000e+00 0.000000000000000e+00 0.000000000000000e+00
0.000000000000000e+00 0.000000000000000e+00 0.000000000000000e+00
0.000000000000000e+00 0.000000000000000e+00 0.000000000000000e+00
0.000000000000000e+00 0.000000000000000e+00 0.000000000000000e+00
0.000000000000000e+00 0.000000000000000e+00 0.000000000000000e+00
0.000000000000000e+00 0.000000000000000e+00 0.000000000000000e+00
0.000000000000000e+00 0.000000000000000e+00 0.000000000000000e+00
0.000000000000000e+00 0.000000000000000e+00 0.000000000000000e+00
0.000000000000000e+00 0.000000000000000e+00 0.000000000000000e+00
0.000000000000000e+00 0.000000000000000e+00 0.000000000000000e+00
0.000000000000000e+00 0.000000000000000e+00 0.000000000000000e+00
0.000000000000000e+00 0.000000000000000e+00 0.000000000000000e+00
0.000000000000000e+00 0.000000000000000e+00 0.000000000000000e+00
0.000000000000000e+00 0.000000000000000e+00 0.000000000000000e+00
0.000000000000000e+00 0.000000000000000e+00 0.000000000000000e+00
0.000000000000000e+00 0.000000000000000e+00 0.000000000000000e+00
0.000000000000000e+00 0.000000000000000e+00 0.000000000000000e+00
0.000000000000000e+00 0.000000000000000e+00 0.000000000000000e+00
0.000000000000000e+00 0.000000000000000e+00 0.000000000000000e+00
0.000000000000000e+00 0.000000000000000e+00 0.000000000000000e+00
0.000000000000000e+00 0.000000000000000e+00 0.000000000000000e+00
0.000000000000000e+00 0.000000000000000e+00 0.000000000000000e+00
0.000000000000000e+00 0.000000000000000e+00 0.000000000000000e+00
0.000000000000000e+00 0.000000000000000e+00 0.000000000000000e+00
0.000000000000000e+00 0.000000000000000e+00 0.000000000000000e+00
0.000000000000000e+00 0.000000000000000e+00 0.000000000000000e+00
0.000000000000000e+00 0.000000000000000e+00 0.000000000000000e+00
0.000000000000000e+00 0.000000000000000e+00 0.000000000000000e+00
0.000000000000000e+00 0.000000000000000e+00 0.000000000000000e+00
0.000000000000000e+00 0.000000000000000e+00 0.000000000000000e+00
0.000000000000000e+00 0.000000000000000e+00 0.000000000000000e+00
0.000000000000000e+00 0.000000000000000e+00 0.000000000000000e+00
0.000000000000000e+00 0.000000000000000e+00 0.000000000000000e+00
0.000000000000000e+00 0.000000000000000e+00 0.000000000000000e+00
0.000000000000000e+00 0.000000000000000e+00 0.000000000000000e+00
0.000000000000000e+00 0.000000000000000e+00 0.000000000000000e+00
0.000000000000000e+00 0.000000000000000e+00 0.000000000000000e+00
0.000000000000000e+00 0.000000000000000e+00 0.000000000000000e+00
0.000000000000000e+00 0.000000000000000e+00 0.000000000000000e+00
0.000000000000000e+00 0.000000000000000e+00 0.000000000000000e+00
0.000000000000000e+00 0.000000000000000e+00 0.000000000000000e+00
0.000000000000000e+00 0.000000000000000e+00 0.000000000000000e+00
0.000000000000000e+00 0.000000000000000e+00 0.000000000000000e+00
0.000000000000000e+00 0.000000000000000e+00 0.000000000000000e+00
0.000000000000000e+00 0.000000000000000e+00 0.000000000000000e+00
0.000000000000000e+00 0.000000000000000e+00 0.000000000000000e+00
0.000000000000000e+00 0.000000000000000e+00 0.000000000000000e+00
0.000000000000000e+00 0.000000000000000e+00 0.000000000000000e+00
0.000000000000000e+00 0.000000000000000e+00 0.000000000000000e+00
0.000000000000000e+00 0.000000000000000e+00 0.000000000000000e+00
0.000000000000000e+00 0.000000000000000e+00 0.000000000000000e+00
0.000000000000000e+00 0.000000000000000e+00 0.000000000000000e+00
0.000000000000000e+00 0.000000000000000e+00 0.000000000000000e+00
0.000000000000000e+00 0.000000000000000e+00 0.000000000000000e+00
0.000000000000000e+00 0.000000000000000e+00 0.000000000000000e+00
0.000000000000000e+00 0.000000000000000e+00 0.000000000000000e+00
0.000000000000000e+00 0.000000000000000e+00 0.000000000000000e+00
0.000000000000000e+00 0.000000000000000e+00 0.000000000000000e+00
0.000000000000000e+00 0.000000000000000e+00 0.000000000000000e+00
0.000000000000000e+00 0.000000000000000e+00 0.000000000000000e+00
0.000000000000000e+00 0.000000000000000e+00 0.000000000000000e+00
0.000000000000000e+00 0.000000000000000e+00 0.000000000000000e+00
0.000000000000000e+00 0.000000000000000e+00 0.000000000000000e+00
0.000000000000000e+00 0.000000000000000e+00 0.000000000000000e+00
0.000000000000000e+00 0.000000000000000e+00 0.000000000000000e+00
0.000000000000000e+00 0.000000000000000e+00 0.000000000000000e+00
0.000000000000000e+00 0.000000000000000e+00 0.000000000000000e+00
0.000000000000000e+00 0.000000000000000e+00 0.000000000000000e+00
0.000000000000000e+00 0.000000000000000e+00 0.000000000000000e+00
0.000000000000000e+00 0.000000000000000e+00 0.000000000000000e+00
0.000000000000000e+00 0.000000000000000e+00 0.000000000000000e+00
0.000000000000000e+00 0.000000000000000e+00 0.000000000000000e+00
0.000000000000000e+00 0.000000000000000e+00 0.000000000000000e+00
0.000000000000000e+00 0.000000000000000e+00 0.000000000000000e+00
0.000000000000000e+00 0.000000000000000e+00 0.000000000000000e+00
0.000000000000000e+00 0.000000000000000e+00 0.000000000000000e+00
0.000000000000000e+00 0.000000000000000e+00 0.000000000000000e+00
0.000000000000000e+00 0.000000000000000e+00 0.000000000000000e+00
0.000000000000000e+00 0.000000000000000e+00 0.000000000000000e+00
0.000000000000000e+00 0.000000000000000e+00 0.000000000000000e+00
0.000000000000000e+00 0.000000000000000e+00 0.000000000000000e+00
0.000000000000000e+00 0.000000000000000e+00 0.000000000000000e+00
0.000000000000000e+00 0.000000000000000e+00 0.000000000000000e+00
0.000000000000000e+00 0.000000000000000e+00 0.000000000000000e+00
0.000000000000000e+00 0.000000000000000e+00 0.000000000000000e+00
0.000000000000000e+00 0.000000000000000e+00 0.000000000000000e+00
0.000000000000000e+00 0.000000000000000e+00 0.000000000000000e+00
0.000000000000000e+00 0.000000000000000e+00 0.000000000000000e+00
0.000000000000000e+00 0.000000000000000e+00 0.000000000000000e+00
0.000000000000000e+00 0.000000000000000e+00 0.000000000000000e+00
0.000000000000000e+00 0.000000000000000e+00 0.000000000000000e+00
0.000000000000000e+00 0.000000000000000e+00 0.000000000000000e+00
0.000000000000000e+00 0.000000000000000e+00 0.000000000000000e+00
0.000000000000000e+00 0.000000000000000e+00 0.000000000000000e+00
0.000000000000000e+00 0.000000000000000e+00 0.000000000000000e+00
0.000000000000000e+00 0.000000000000000e+00 0.000000000000000e+00
0.000000000000000e+00 0.000000000000000e+00 0.000000000000000e+00
0.000000000000000e+00 0.000000000000000e+00 0.000000000000000e+00
0.000000000000000e+00 0.000000000000000e+00 0.000000000000000e+00
0.000000000000000e+00 0.000000000000000e+00 0.000000000000000e+00
0.000000000000000e+00 0.000000000000000e+00 0.000000000000000e+00
0.000000000000000e+00 0.000000000000000e+00 0.000000000000000e+00
0.000000000000000e+00 0.000000000000000e+00 0.000000000000000e+00
0.000000000000000e+00 0.000000000000000e+00 0.000000000000000e+00
0.000000000000000e+00 0.000000000000000e+00 0.000000000000000e+00
0.000000000000000e+00 0.000000000000000e+00 0.000000000000000e+00
0.000000000000000e+00 0.000000000000000e+00 0.000000000000000e+00
0.000000000000000e+00 0.000000000000000e+00 0.000000000000000e+00
0.000000000000000e+00 0.000000000000000e+00 0.000000000000000e+00
0.000000000000000e+00 0.000000000000000e+00 0.000000000000000e+00
0.000000000000000e+00 0.000000000000000e+00 0.000000000000000e+00
0.000000000000000e+00 0.000000000000000e+00 0.000000000000000e+00
0.000000000000000e+00 0.000000000000000e+00 0.000000000000000e+00
0.000000000000000e+00 0.000000000000000e+00 0.000000000000000e+00
0.000000000000000e+00 0.000000000000000e+00 0.000000000000000e+00
0.000000000000000e+00 0.000000000000000e+00 0.000000000000000e+00
0.000000000000000e+00 0.000000000000000e+00 0.000000000000000e+00
0.000000000000000e+00 0.000000000000000e+00 0.000000000000000e+00
0.000000000000000e+00 0.000000000000000e+00 0.000000000000000e+00
0.000000000000000e+00 0.000000000000000e+00 0.000000000000000e+00
0.000000000000000e+00 0.000000000000000e+00 0.000000000000000e+00
0.000000000000000e+00 0.000000000000000e+00 0.000000000000000e+00
0.000000000000000e+00 0.000000000000000e+00 0.000000000000000e+00
0.000000000000000e+00 0.000000000000000e+00 0.000000000000000e+00
0.000000000000000e+00 0.000000000000000e+00 0.000000000000000e+00
0.000000000000000e+00 0.000000000000000e+00 0.000000000000000e+00
0.000000000000000e+00 0.000000000000000e+00 0.000000000000000e+00
0.000000000000000e+00 0.000000000000000e+00 0.000000000000000e+00
0.000000000000000e+00 0.000000000000000e+00 0.000000000000000e+00
0.000000000000000e+00 0.000000000000000e+00 0.000000000000000e+00
0.000000000000000e+00 0.000000000000000e+00 0.000000000000000e+00
0.000000000000000e+00 0.000000000000000e+00 0.000000000000000e+00
0.000000000000000e+00 0.000000000000000e+00 0.000000000000000e+00
0.000000000000000e+00 0.000000000000000e+00 0.000000000000000e+00
0.000000000000000e+00 0.000000000000000e+00 0.000000000000000e+00
0.000000000000000e+00 0.000000000000000e+00 0.000000000000000e+00
0.000000000000000e+00 0.000000000000000e+00 0.000000000000000e+00
0.000000000000000e+00 0.000000000000000e+00 0.000000000000000e+00
0.000000000000000e+00 0.000000000000000e+00 0.000000000000000e+00
0.000000000000000e+00 0.000000000000000e+00 0.000000000000000e+00
0.000000000000000e+00 0.000000000000000e+00 0.000000000000000e+00
0.000000000000000e+00 0.000000000000000e+00 0.000000000000000e+00
0.000000000000000e+00 0.000000000000000e+00 0.000000000000000e+00
0.000000000000000e+00 0.000000000000000e+00 0.000000000000000e+00
0.000000000000000e+00 0.000000000000000e+00 0.000000000000000e+00
0.000000000000000e+00 0.000000000000000e+00 0.000000000000000e+00
0.000000000000000e+00 0.000000000000000e+00 0.000000000000000e+00
0.000000000000000e+00 0.000000000000000e+00 0.000000000000000e+00
0.000000000000000e+00 0.000000000000000e+00 0.000000000000000e+00
0.000000000000000e+00 0.000000000000000e+00 0.000000000000000e+00
0.000000000000000e+00 0.000000000000000e+00 0.000000000000000e+00
0.000000000000000e+00 0.000000000000000e+00 0.000000000000000e+00
0.000000000000000e+00 0.000000000000000e+00 0.000000000000000e+00
0.000000000000000e+00 0.000000000000000e+00 0.000000000000000e+00
0.000000000000000e+00 0.000000000000000e+00 0.000000000000000e+00
0.000000000000000e+00 0.000000000000000e+00 0.000000000000000e+00
0.000000000000000e+00 0.000000000000000e+00 0.000000000000000e+00
0.000000000000000e+00 0.000000000000000e+00 0.000000000000000e+00
0.000000000000000e+00 0.000000000000000e+00 0.000000000000000e+00
0.000000000000000e+00 0.000000000000000e+00 0.000000000000000e+00
0.000000000000000e+00 0.000000000000000e+00 0.000000000000000e+00
0.000000000000000e+00 0.000000000000000e+00 0.000000000000000e+00
0.000000000000000e+00 0.000000000000000e+00 0.000000000000000e+00
0.000000000000000e+00 0.000000000000000e+00 0.000000000000000e+00
0.000000000000000e+00 0.000000000000000e+00 0.000000000000000e+00
0.000000000000000e+00 0.000000000000000e+00 0.000000000000000e+00
0.000000000000000e+00 0.000000000000000e+00 0.000000000000000e+00
0.000000000000000e+00 0.000000000000000e+00 0.000000000000000e+00
0.000000000000000e+00 0.000000000000000e+00 0.000000000000000e+00
0.000000000000000e+00 0.000000000000000e+00 0.000000000000000e+00
0.000000000000000e+00 0.000000000000000e+00 0.000000000000000e+00
0.000000000000000e+00 0.000000000000000e+00 0.000000000000000e+00
0.000000000000000e+00 0.000000000000000e+00 0.000000000000000e+00
0.000000000000000e+00 0.000000000000000e+00 0.000000000000000e+00
0.000000000000000e+00 0.000000000000000e+00 0.000000000000000e+00
0.000000000000000e+00 0.000000000000000e+00 0.000000000000000e+00
0.000000000000000e+00 0.000000000000000e+00 0.000000000000000e+00
0.000000000000000e+00 0.000000000000000e+00 0.000000000000000e+00
0.000000000000000e+00 0.000000000000000e+00 0.000000000000000e+00
0.000000000000000e+00 0.000000000000000e+00 0.000000000000000e+00
0.000000000000000e+00 0.000000000000000e+00 0.000000000000000e+00
0.000000000000000e+00 0.000000000000000e+00 0.000000000000000e+00
0.000000000000000e+00 0.000000000000000e+00 0.000000000000000e+00
0.000000000000000e+00 0.000000000000000e+00 0.000000000000000e+00
0.000000000000000e+00 0.000000000000000e+00 0.000000000000000e+00
0.000000000000000e+00 0.000000000000000e+00 0.000000000000000e+00
0.000000000000000e+00 0.000000000000000e+00 0.000000000000000e+00
0.000000000000000e+00 0.000000000000000e+00 0.000000000000000e+00
0.000000000000000e+00 0.000000000000000e+00 0.000000000000000e+00
0.000000000000000e+00 0.000000000000000e+00 0.000000000000000e+00
0.000000000000000e+00 0.000000000000000e+00 0.000000000000000e+00
0.000000000000000e+00 0.000000000000000e+00 0.000000000000000e+00
0.000000000000000e+00 0.000000000000000e+00 0.000000000000000e+00
0.000000000000000e+00 0.000000000000000e+00 0.000000000000000e+00
0.000000000000000e+00 0.000000000000000e+00 0.000000000000000e+00
0.000000000000000e+00 0.000000000000000e+00 0.000000000000000e+00
0.000000000000000e+00 0.000000000000000e+00 0.000000000000000e+00
0.000000000000000e+00 0.000000000000000e+00 0.000000000000000e+00
0.000000000000000e+00 0.000000000000000e+00 0.000000000000000e+00
0.000000000000000e+00 0.000000000000000e+00 0.000000000000000e+00
0.000000000000000e+00 0.000000000000000e+00 0.000000000000000e+00
0.000000000000000e+00 0.000000000000000e+00 0.000000000000000e+00
0.000000000000000e+00 0.000000000000000e+00 0.000000000000000e+00
0.000000000000000e+00 0.000000000000000e+00 0.000000000000000e+00
0.000000000000000e+00 0.000000000000000e+00 0.000000000000000e+00
0.000000000000000e+00 0.000000000000000e+00 0.000000000000000e+00
0.000000000000000e+00 0.000000000000000e+00 0.000000000000000e+00
0.000000000000000e+00 0.000000000000000e+00 0.000000000000000e+00
0.000000000000000e+00 0.000000000000000e+00 0.000000000000000e+00
0.000000000000000e+00 0.000000000000000e+00 0.000000000000000e+00
0.000000000000000e+00 0.000000000000000e+00 0.000000000000000e+00
0.000000000000000e+00 0.000000000000000e+00 0.000000000000000e+00
0.000000000000000e+00 0.000000000000000e+00 0.000000000000000e+00
0.000000000000000e+00 0.000000000000000e+00 0.000000000000000e+00
0.000000000000000e+00 0.000000000000000e+00 0.000000000000000e+00
0.000000000000000e+00 0.000000000000000e+00 0.000000000000000e+00
0.000000000000000e+00 0.000000000000000e+00 0.000000000000000e+00
0.000000000000000e+00 0.000000000000000e+00 0.000000000000000e+00
0.000000000000000e+00 0.000000000000000e+00 0.000000000000000e+00
0.000000000000000e+00 0.000000000000000e+00 0.000000000000000e+00
0.000000000000000e+00 0.000000000000000e+00 0.000000000000000e+00
0.000000000000000e+00 0.000000000000000e+00 0.000000000000000e+00
0.000000000000000e+00 0.000000000000000e+00 0.000000000000000e+00
0.000000000000000e+00 0.000000000000000e+00 0.000000000000000e+00
0.000000000000000e+00 0.000000000000000e+00 0.000000000000000e+00
0.000000000000000e+00 0.000000000000000e+00 0.000000000000000e+00
0.000000000000000e+00 0.000000000000000e+00 0.000000000000000e+00
0.000000000000000e+00 0.000000000000000e+00 0.000000000000000e+00
0.000000000000000e+00 0.000000000000000e+00 0.000000000000000e+00
0.000000000000000e+00 0.000000000000000e+00 0.000000000000000e+00
0.000000000000000e+00 0.000000000000000e+00 0.000000000000000e+00
0.000000000000000e+00 0.000000000000000e+00 0.000000000000000e+00
0.000000000000000e+00 0.000000000000000e+00 0.000000000000000e+00
0.000000000000000e+00 0.000000000000000e+00 0.000000000000000e+00
0.000000000000000e+00 0.000000000000000e+00 0.000000000000000e+00
0.000000000000000e+00 0.000000000000000e+00 0.000000000000000e+00
0.000000000000000e+00 0.000000000000000e+00 0.000000000000000e+00
0.000000000000000e+00 0.000000000000000e+00 0.000000000000000e+00
0.000000000000000e+00 0.000000000000000e+00 0.000000000000000e+00
0.000000000000000e+00 0.000000000000000e+00 0.000000000000000e+00
0.000000000000000e+00 0.000000000000000e+00 0.000000000000000e+00
0.000000000000000e+00 0.000000000000000e+00 0.000000000000000e+00
0.000000000000000e+00 0.000000000000000e+00 0.000000000000000e+00
0.000000000000000e+00 0.000000000000000e+00 0.000000000000000e+00
0.000000000000000e+00 0.000000000000000e+00 0.000000000000000e+00
0.000000000000000e+00 0.000000000000000e+00 0.000000000000000e+00
0.000000000000000e+00 0.000000000000000e+00 0.000000000000000e+00
0.000000000000000e+00 0.000000000000000e+00 0.000000000000000e+00
0.000000000000000e+00 0.000000000000000e+00 0.000000000000000e+00
0.000000000000000e+00 0.000000000000000e+00 0.000000000000000e+00
0.000000000000000e+00 0.000000000000000e+00 0.000000000000000e+00
0.000000000000000e+00 0.000000000000000e+00 0.000000000000000e+00
0.000000000000000e+00 0.000000000000000e+00 0.000000000000000e+00
0.000000000000000e+00 0.000000000000000e+00 0.000000000000000e+00
0.000000000000000e+00 0.000000000000000e+00 0.000000000000000e+00
0.000000000000000e+00 0.000000000000000e+00 0.000000000000000e+00
0.000000000000000e+00 0.000000000000000e+00 0.000000000000000e+00
0.000000000000000e+00 0.000000000000000e+00 0.000000000000000e+00
0.000000000000000e+00 0.000000000000000e+00 0.000000000000000e+00
0.000000000000000e+00 0.000000000000000e+00 0.000000000000000e+00
0.000000000000000e+00 0.000000000000000e+00 0.000000000000000e+00
0.000000000000000e+00 0.000000000000000e+00 0.000000000000000e+00
0.000000000000000e+00 0.000000000000000e+00 0.000000000000000e+00
0.000000000000000e+00 0.000000000000000e+00 0.000000000000000e+00
0.000000000000000e+00 0.000000000000000e+00 0.000000000000000e+00
0.000000000000000e+00 0.000000000000000e+00 0.000000000000000e+00
0.000000000000000e+00 0.000000000000000e+00 0.000000000000000e+00
0.000000000000000e+00 0.000000000000000e+00 0.000000000000000e+00
0.000000000000000e+00 0.000000000000000e+00 0.000000000000000e+00
0.000000000000000e+00 0.000000000000000e+00 0.000000000000000e+00
0.000000000000000e+00 0.000000000000000e+00 0.000000000000000e+00
0.000000000000000e+00 0.000000000000000e+00 0.000000000000000e+00
0.000000000000000e+00 0.000000000000000e+00 0.000000000000000e+00
0.000000000000000e+00 0.000000000000000e+00 0.000000000000000e+00
0.000000000000000e+00 0.000000000000000e+00 0.000000000000000e+00
0.000000000000000e+00 0.000000000000000e+00 0.000000000000000e+00
0.000000000000000e+00 0.000000000000000e+00 0.000000000000000e+00
0.000000000000000e+00 0.000000000000000e+00 0.000000000000000e+00
0.000000000000000e+00 0.000000000000000e+00 0.000000000000000e+00
0.000000000000000e+00 0.000000000000000e+00 0.000000000000000e+00
0.000000000000000e+00 0.000000000000000e+00 0.000000000000000e+00
0.000000000000000e+00 0.000000000000000e+00 0.000000000000000e+00
0.000000000000000e+00 0.000000000000000e+00 0.000000000000000e+00
0.000000000000000e+00 0.000000000000000e+00 0.000000000000000e+00
0.000000000000000e+00 0.000000000000000e+00 0.000000000000000e+00
0.000000000000000e+00 0.000000000000000e+00 0.000000000000000e+00
0.000000000000000e+00 0.000000000000000e+00 0.000000000000000e+00
0.000000000000000e+00 0.000000000000000e+00 0.000000000000000e+00
0.000000000000000e+00 0.000000000000000e+00 0.000000000000000e+00
0.000000000000000e+00 0.000000000000000e+00 0.000000000000000e+00
0.000000000000000e+00 0.000000000000000e+00 0.000000000000000e+00
0.000000000000000e+00 0.000000000000000e+00 0.000000000000000e+00
0.000000000000000e+00 0.000000000000000e+00 0.000000000000000e+00
0.000000000000000e+00 0.000000000000000e+00 0.000000000000000e+00
0.000000000000000e+00 0.000000000000000e+00 0.000000000000000e+00
0.000000000000000e+00 0.000000000000000e+00 0.000000000000000e+00
0.000000000000000e+00 0.000000000000000e+00 0.000000000000000e+00
0.000000000000000e+00 0.000000000000000e+00 0.000000000000000e+00
0.000000000000000e+00 0.000000000000000e+00 0.000000000000000e+00
0.000000000000000e+00 0.000000000000000e+00 0.000000000000000e+00
0.000000000000000e+00 0.000000000000000e+00 0.000000000000000e+00
0.000000000000000e+00 0.000000000000000e+00 0.000000000000000e+00
0.000000000000000e+00 0.000000000000000e+00 0.000000000000000e+00
0.000000000000000e+00 0.000000000000000e+00 0.000000000000000e+00
0.000000000000000e+00 0.000000000000000e+00 0.000000000000000e+00
0.000000000000000e+00 0.000000000000000e+00 0.000000000000000e+00
0.000000000000000e+00 0.000000000000000e+00 0.000000000000000e+00
0.000000000000000e+00 0.000000000000000e+00 0.000000000000000e+00
0.000000000000000e+00 0.000000000000000e+00 0.000000000000000e+00
0.000000000000000e+00 0.000000000000000e+00 0.000000000000000e+00
0.000000000000000e+00 0.000000000000000e+00 0.000000000000000e+00
0.000000000000000e+00 0.000000000000000e+00 0.000000000000000e+00
0.000000000000000e+00 0.000000000000000e+00 0.000000000000000e+00
0.000000000000000e+00 0.000000000000000e+00 0.000000000000000e+00
0.000000000000000e+00 0.000000000000000e+00 0.000000000000000e+00
0.000000000000000e+00 0.000000000000000e+00 0.000000000000000e+00
0.000000000000000e+00 0.000000000000000e+00 0.000000000000000e+00
0.000000000000000e+00 0.000000000000000e+00 0.000000000000000e+00
0.000000000000000e+00 0.000000000000000e+00 0.000000000000000e+00
0.000000000000000e+00 0.000000000000000e+00 0.000000000000000e+00
0.000000000000000e+00 0.000000000000000e+00 0.000000000000000e+00
0.000000000000000e+00 0.000000000000000e+00 0.000000000000000e+00
0.000000000000000e+00 0.000000000000000e+00 0.000000000000000e+00
0.000000000000000e+00 0.000000000000000e+00 0.000000000000000e+00
0.000000000000000e+00 0.000000000000000e+00 0.000000000000000e+00
0.000000000000000e+00 0.000000000000000e+00 0.000000000000000e+00
0.000000000000000e+00 0.000000000000000e+00 0.000000000000000e+00
0.000000000000000e+00 0.000000000000000e+00 0.000000000000000e+00
0.000000000000000e+00 0.000000000000000e+00 0.000000000000000e+00
0.000000000000000e+00 0.000000000000000e+00 0.000000000000000e+00
0.000000000000000e+00 0.000000000000000e+00 0.000000000000000e+00
0.000000000000000e+00 0.000000000000000e+00 0.000000000000000e+00
0.000000000000000e+00 0.000000000000000e+00 0.000000000000000e+00
0.000000000000000e+00 0.000000000000000e+00 0.000000000000000e+00
0.000000000000000e+00 0.000000000000000e+00 0.000000000000000e+00
0.000000000000000e+00 0.000000000000000e+00 0.000000000000000e+00
0.000000000000000e+00 0.000000000000000e+00 0.000000000000000e+00
0.000000000000000e+00 0.000000000000000e+00 0.000000000000000e+00
0.000000000000000e+00 0.000000000000000e+00 0.000000000000000e+00
0.000000000000000e+00 0.000000000000000e+00 0.000000000000000e+00
0.000000000000000e+00 0.000000000000000e+00 0.000000000000000e+00
0.000000000000000e+00 0.000000000000000e+00 0.000000000000000e+00
0.000000000000000e+00 0.000000000000000e+00 0.000000000000000e+00
0.000000000000000e+00 0.000000000000000e+00 0.000000000000000e+00
0.000000000000000e+00 0.000000000000000e+00 0.000000000000000e+00
0.000000000000000e+00 0.000000000000000e+00 0.000000000000000e+00
0.000000000000000e+00 0.000000000000000e+00 0.000000000000000e+00
0.000000000000000e+00 0.000000000000000e+00 0.000000000000000e+00
0.000000000000000e+00 0.000000000000000e+00 0.000000000000000e+00
0.000000000000000e+00 0.000000000000000e+00 0.000000000000000e+00
0.000000000000000e+00 0.000000000000000e+00 0.000000000000000e+00
0.000000000000000e+00 0.000000000000000e+00 0.000000000000000e+00
0.000000000000000e+00 0.000000000000000e+00 0.000000000000000e+00
0.000000000000000e+00 0.000000000000000e+00 0.000000000000000e+00
0.000000000000000e+00 0.000000000000000e+00 0.000000000000000e+00
0.000000000000000e+00 0.000000000000000e+00 0.000000000000000e+00
0.000000000000000e+00 0.000000000000000e+00 0.000000000000000e+00
0.000000000000000e+00 0.000000000000000e+00 0.000000000000000e+00
0.000000000000000e+00 0.000000000000000e+00 0.000000000000000e+00
0.000000000000000e+00 0.000000000000000e+00 0.000000000000000e+00
0.000000000000000e+00 0.000000000000000e+00 0.000000000000000e+00
0.000000000000000e+00 0.000000000000000e+00 0.000000000000000e+00
0.000000000000000e+00 0.000000000000000e+00 0.000000000000000e+00
0.000000000000000e+00 0.000000000000000e+00 0.000000000000000e+00
0.000000000000000e+00 0.000000000000000e+00 0.000000000000000e+00
0.000000000000000e+00 0.000000000000000e+00 0.000000000000000e+00
0.000000000000000e+00 0.000000000000000e+00 0.000000000000000e+00
0.000000000000000e+00 0.000000000000000e+00 0.000000000000000e+00
0.000000000000000e+00 0.000000000000000e+00 0.000000000000000e+00
0.000000000000000e+00 0.000000000000000e+00 0.000000000000000e+00
0.000000000000000e+00 0.000000000000000e+00 0.000000000000000e+00
0.000000000000000e+00 0.000000000000000e+00 0.000000000000000e+00
0.000000000000000e+00 0.000000000000000e+00 0.000000000000000e+00
0.000000000000000e+00 0.000000000000000e+00 0.000000000000000e+00
0.000000000000000e+00 0.000000000000000e+00 0.000000000000000e+00
0.000000000000000e+00 0.000000000000000e+00 0.000000000000000e+00
0.000000000000000e+00 0.000000000000000e+00 0.000000000000000e+00
0.000000000000000e+00 0.000000000000000e+00 0.000000000000000e+00
0.000000000000000e+00 0.000000000000000e+00 0.000000000000000e+00
0.000000000000000e+00 0.000000000000000e+00 0.000000000000000e+00
0.000000000000000e+00 0.000000000000000e+00 0.000000000000000e+00
0.000000000000000e+00 0.000000000000000e+00 0.000000000000000e+00
0.000000000000000e+00 0.000000000000000e+00 0.000000000000000e+00
0.000000000000000e+00 0.000000000000000e+00 0.000000000000000e+00
0.000000000000000e+00 0.000000000000000e+00 0.000000000000000e+00
0.000000000000000e+00 0.000000000000000e+00 0.000000000000000e+00
0.000000000000000e+00 0.000000000000000e+00 0.000000000000000e+00
0.000000000000000e+00 0.000000000000000e+00 0.000000000000000e+00
0.000000000000000e+00 0.000000000000000e+00 0.000000000000000e+00
0.000000000000000e+00 0.000000000000000e+00 0.000000000000000e+00
0.000000000000000e+00 0.000000000000000e+00 0.000000000000000e+00
0.000000000000000e+00 0.000000000000000e+00 0.000000000000000e+00
0.000000000000000e+00 0.000000000000000e+00 0.000000000000000e+00
0.000000000000000e+00 0.000000000000000e+00 0.000000000000000e+00
0.000000000000000e+00 0.000000000000000e+00 0.000000000000000e+00
0.000000000000000e+00 0.000000000000000e+00 0.000000000000000e+00
0.000000000000000e+00 0.000000000000000e+00 0.000000000000000e+00
0.000000000000000e+00 0.000000000000000e+00 0.000000000000000e+00
0.000000000000000e+00 0.000000000000000e+00 0.000000000000000e+00
0.000000000000000e+00 0.000000000000000e+00 0.000000000000000e+00
0.000000000000000e+00 0.000000000000000e+00 0.000000000000000e+00
0.000000000000000e+00 0.000000000000000e+00 0.000000000000000e+00
0.000000000000000e+00 0.000000000000000e+00 0.000000000000000e+00
0.000000000000000e+00 0.000000000000000e+00 0.000000000000000e+00
0.000000000000000e+00 0.000000000000000e+00 0.000000000000000e+00
0.000000000000000e+00 0.000000000000000e+00 0.000000000000000e+00
0.000000000000000e+00 0.000000000000000e+00 0.000000000000000e+00
0.000000000000000e+00 0.000000000000000e+00 0.000000000000000e+00
0.000000000000000e+00 0.000000000000000e+00 0.000000000000000e+00
0.000000000000000e+00 0.000000000000000e+00 0.000000000000000e+00
0.000000000000000e+00 0.000000000000000e+00 0.000000000000000e+00
0.000000000000000e+00 0.000000000000000e+00 0.000000000000000e+00
0.000000000000000e+00 0.000000000000000e+00 0.000000000000000e+00
0.000000000000000e+00 0.000000000000000e+00 0.000000000000000e+00
0.000000000000000e+00 0.000000000000000e+00 0.000000000000000e+00
0.000000000000000e+00 0.000000000000000e+00 0.000000000000000e+00
0.000000000000000e+00 0.000000000000000e+00 0.000000000000000e+00
0.000000000000000e+00 0.000000000000000e+00 0.000000000000000e+00
0.000000000000000e+00 0.000000000000000e+00 0.000000000000000e+00
0.000000000000000e+00 0.000000000000000e+00 0.000000000000000e+00
0.000000000000000e+00 0.000000000000000e+00 0.000000000000000e+00
0.000000000000000e+00 0.000000000000000e+00 0.000000000000000e+00
0.000000000000000e+00 0.000000000000000e+00 0.000000000000000e+00
0.000000000000000e+00 0.000000000000000e+00 0.000000000000000e+00
0.000000000000000e+00 0.000000000000000e+00 0.000000000000000e+00
0.000000000000000e+00 0.000000000000000e+00 0.000000000000000e+00
0.000000000000000e+00 0.000000000000000e+00 0.000000000000000e+00
0.000000000000000e+00 0.000000000000000e+00 0.000000000000000e+00
0.000000000000000e+00 0.000000000000000e+00 0.000000000000000e+00
0.000000000000000e+00 0.000000000000000e+00 0.000000000000000e+00
0.000000000000000e+00 0.000000000000000e+00 0.000000000000000e+00
0.000000000000000e+00 0.000000000000000e+00 0.000000000000000e+00
0.000000000000000e+00 0.000000000000000e+00 0.000000000000000e+00
0.000000000000000e+00 0.000000000000000e+00 0.000000000000000e+00
0.000000000000000e+00 0.000000000000000e+00 0.000000000000000e+00
0.000000000000000e+00 0.000000000000000e+00 0.000000000000000e+00
0.000000000000000e+00 0.000000000000000e+00 0.000000000000000e+00
0.000000000000000e+00 0.000000000000000e+00 0.000000000000000e+00
0.000000000000000e+00 0.000000000000000e+00 0.000000000000000e+00
0.000000000000000e+00 0.000000000000000e+00 0.000000000000000e+00
0.000000000000000e+00 0.000000000000000e+00 0.000000000000000e+00
0.000000000000000e+00 0.000000000000000e+00 0.000000000000000e+00
0.000000000000000e+00 0.000000000000000e+00 0.000000000000000e+00
0.000000000000000e+00 0.000000000000000e+00 0.000000000000000e+00
0.000000000000000e+00 0.000000000000000e+00 0.000000000000000e+00
0.000000000000000e+00 0.000000000000000e+00 0.000000000000000e+00
0.000000000000000e+00 0.000000000000000e+00 0.000000000000000e+00
0.000000000000000e+00 0.000000000000000e+00 0.000000000000000e+00
0.000000000000000e+00 0.000000000000000e+00 0.000000000000000e+00
0.000000000000000e+00 0.000000000000000e+00 0.000000000000000e+00
0.000000000000000e+00 0.000000000000000e+00 0.000000000000000e+00
0.000000000000000e+00 0.000000000000000e+00 0.000000000000000e+00
0.000000000000000e+00 0.000000000000000e+00 0.000000000000000e+00
0.000000000000000e+00 0.000000000000000e+00 0.000000000000000e+00
0.000000000000000e+00 0.000000000000000e+00 0.000000000000000e+00
0.000000000000000e+00 0.000000000000000e+00 0.000000000000000e+00
0.000000000000000e+00 0.000000000000000e+00 0.000000000000000e+00
0.000000000000000e+00 0.000000000000000e+00 0.000000000000000e+00
0.000000000000000e+00 0.000000000000000e+00 0.000000000000000e+00
0.000000000000000e+00 0.000000000000000e+00 0.000000000000000e+00
0.000000000000000e+00 0.000000000000000e+00 0.000000000000000e+00
0.000000000000000e+00 0.000000000000000e+00 0.000000000000000e+00
0.000000000000000e+00 0.000000000000000e+00 0.000000000000000e+00
0.000000000000000e+00 0.000000000000000e+00 0.000000000000000e+00
0.000000000000000e+00 0.000000000000000e+00 0.000000000000000e+00
0.000000000000000e+00 0.000000000000000e+00 0.000000000000000e+00
0.000000000000000e+00 0.000000000000000e+00 0.000000000000000e+00
0.000000000000000e+00 0.000000000000000e+00 0.000000000000000e+00
0.000000000000000e+00 0.000000000000000e+00 0.000000000000000e+00
0.000000000000000e+00 0.000000000000000e+00 0.000000000000000e+00
0.000000000000000e+00 0.000000000000000e+00 0.000000000000000e+00
0.000000000000000e+00 0.000000000000000e+00 0.000000000000000e+00
0.000000000000000e+00 0.000000000000000e+00 0.000000000000000e+00
0.000000000000000e+00 0.000000000000000e+00 0.000000000000000e+00
0.000000000000000e+00 0.000000000000000e+00 0.000000000000000e+00
0.000000000000000e+00 0.000000000000000e+00 0.000000000000000e+00
0.000000000000000e+00 0.000000000000000e+00 0.000000000000000e+00
0.000000000000000e+00 0.000000000000000e+00 0.000000000000000e+00
0.000000000000000e+00 0.000000000000000e+00 0.000000000000000e+00
0.000000000000000e+00 0.000000000000000e+00 0.000000000000000e+00
0.000000000000000e+00 0.000000000000000e+00 0.000000000000000e+00
0.000000000000000e+00 0.000000000000000e+00 0.000000000000000e+00
0.000000000000000e+00 0.000000000000000e+00 0.000000000000000e+00
0.000000000000000e+00 0.000000000000000e+00 0.000000000000000e+00
0.000000000000000e+00 0.000000000000000e+00 0.000000000000000e+00
0.000000000000000e+00 0.000000000000000e+00 0.000000000000000e+00
0.000000000000000e+00 0.000000000000000e+00 0.000000000000000e+00
0.000000000000000e+00 0.000000000000000e+00 0.000000000000000e+00
0.000000000000000e+00 0.000000000000000e+00 0.000000000000000e+00
0.000000000000000e+00 0.000000000000000e+00 0.000000000000000e+00
0.000000000000000e+00 0.000000000000000e+00 0.000000000000000e+00
0.000000000000000e+00 0.000000000000000e+00 0.000000000000000e+00
0.000000000000000e+00 0.000000000000000e+00 0.000000000000000e+00
0.000000000000000e+00 0.000000000000000e+00 0.000000000000000e+00
0.000000000000000e+00 0.000000000000000e+00 0.000000000000000e+00
0.000000000000000e+00 0.000000000000000e+00 0.000000000000000e+00
0.000000000000000e+00 0.000000000000000e+00 0.000000000000000e+00
0.000000000000000e+00 0.000000000000000e+00 0.000000000000000e+00
0.000000000000000e+00 0.000000000000000e+00 0.000000000000000e+00
0.000000000000000e+00 0.000000000000000e+00 0.000000000000000e+00
0.000000000000000e+00 0.000000000000000e+00 0.000000000000000e+00
0.000000000000000e+00 0.000000000000000e+00 0.000000000000000e+00
0.000000000000000e+00 0.000000000000000e+00 0.000000000000000e+00
0.000000000000000e+00 0.000000000000000e+00 0.000000000000000e+00
0.000000000000000e+00 0.000000000000000e+00 0.000000000000000e+00
0.000000000000000e+00 0.000000000000000e+00 0.000000000000000e+00
0.000000000000000e+00 0.000000000000000e+00 0.000000000000000e+00
0.000000000000000e+00 0.000000000000000e+00 0.000000000000000e+00
0.000000000000000e+00 0.000000000000000e+00 0.000000000000000e+00
0.000000000000000e+00 0.000000000000000e+00 0.000000000000000e+00
0.000000000000000e+00 0.000000000000000e+00 0.000000000000000e+00
0.000000000000000e+00 0.000000000000000e+00 0.000000000000000e+00
0.000000000000000e+00 0.000000000000000e+00 0.000000000000000e+00
0.000000000000000e+00 0.000000000000000e+00 0.000000000000000e+00
0.000000000000000e+00 0.000000000000000e+00 0.000000000000000e+00
0.000000000000000e+00 0.000000000000000e+00 0.000000000000000e+00
0.000000000000000e+00 0.000000000000000e+00 0.000000000000000e+00
0.000000000000000e+00 0.000000000000000e+00 0.000000000000000e+00
0.000000000000000e+00 0.000000000000000e+00 0.000000000000000e+00
0.000000000000000e+00 0.000000000000000e+00 0.000000000000000e+00
0.000000000000000e+00 0.000000000000000e+00 0.000000000000000e+00
0.000000000000000e+00 0.000000000000000e+00 0.000000000000000e+00
0.000000000000000e+00 0.000000000000000e+00 0.000000000000000e+00
0.000000000000000e+00 0.000000000000000e+00 0.000000000000000e+00
0.000000000000000e+00 0.000000000000000e+00 0.000000000000000e+00
0.000000000000000e+00 0.000000000000000e+00 0.000000000000000e+00
0.000000000000000e+00 0.000000000000000e+00 0.000000000000000e+00
0.000000000000000e+00 0.000000000000000e+00 0.000000000000000e+00
0.000000000000000e+00 0.000000000000000e+00 0.000000000000000e+00
0.000000000000000e+00 0.000000000000000e+00 0.000000000000000e+00
0.000000000000000e+00 0.000000000000000e+00 0.000000000000000e+00
0.000000000000000e+00 0.000000000000000e+00 0.000000000000000e+00
0.000000000000000e+00 0.000000000000000e+00 0.000000000000000e+00
0.000000000000000e+00 0.000000000000000e+00 0.000000000000000e+00
0.000000000000000e+00 0.000000000000000e+00 0.000000000000000e+00
0.000000000000000e+00 0.000000000000000e+00 0.000000000000000e+00
0.000000000000000e+00 0.000000000000000e+00 0.000000000000000e+00
0.000000000000000e+00 0.000000000000000e+00 0.000000000000000e+00
0.000000000000000e+00 0.000000000000000e+00 0.000000000000000e+00
0.000000000000000e+00 0.000000000000000e+00 0.000000000000000e+00
0.000000000000000e+00 0.000000000000000e+00 0.000000000000000e+00
0.000000000000000e+00 0.000000000000000e+00 0.000000000000000e+00
0.000000000000000e+00 0.000000000000000e+00 0.000000000000000e+00
0.000000000000000e+00 0.000000000000000e+00 0.000000000000000e+00
0.000000000000000e+00 0.000000000000000e+00 0.000000000000000e+00
0.000000000000000e+00 0.000000000000000e+00 0.000000000000000e+00
0.000000000000000e+00 0.000000000000000e+00 0.000000000000000e+00
0.000000000000000e+00 0.000000000000000e+00 0.000000000000000e+00
0.000000000000000e+00 0.000000000000000e+00 0.000000000000000e+00
0.000000000000000e+00 0.000000000000000e+00 0.000000000000000e+00
0.000000000000000e+00 0.000000000000000e+00 0.000000000000000e+00
0.000000000000000e+00 0.000000000000000e+00 0.000000000000000e+00
0.000000000000000e+00 0.000000000000000e+00 0.000000000000000e+00
0.000000000000000e+00 0.000000000000000e+00 0.000000000000000e+00
0.000000000000000e+00 0.000000000000000e+00 0.000000000000000e+00
0.000000000000000e+00 0.000000000000000e+00 0.000000000000000e+00
0.000000000000000e+00 0.000000000000000e+00 0.000000000000000e+00
0.000000000000000e+00 0.000000000000000e+00 0.000000000000000e+00
0.000000000000000e+00 0.000000000000000e+00 0.000000000000000e+00
0.000000000000000e+00 0.000000000000000e+00 0.000000000000000e+00
0.000000000000000e+00 0.000000000000000e+00 0.000000000000000e+00
0.000000000000000e+00 0.000000000000000e+00 0.000000000000000e+00
0.000000000000000e+00 0.000000000000000e+00 0.000000000000000e+00
0.000000000000000e+00 0.000000000000000e+00 0.000000000000000e+00
0.000000000000000e+00 0.000000000000000e+00 0.000000000000000e+00
0.000000000000000e+00 0.000000000000000e+00 0.000000000000000e+00
0.000000000000000e+00 0.000000000000000e+00 0.000000000000000e+00
0.000000000000000e+00 0.000000000000000e+00 0.000000000000000e+00
0.000000000000000e+00 0.000000000000000e+00 0.000000000000000e+00
0.000000000000000e+00 0.000000000000000e+00 0.000000000000000e+00
0.000000000000000e+00 0.000000000000000e+00 0.000000000000000e+00
0.000000000000000e+00 0.000000000000000e+00 0.000000000000000e+00
0.000000000000000e+00 0.000000000000000e+00 0.000000000000000e+00
0.000000000000000e+00 0.000000000000000e+00 0.000000000000000e+00
0.000000000000000e+00 0.000000000000000e+00 0.000000000000000e+00
0.000000000000000e+00 0.000000000000000e+00 0.000000000000000e+00
0.000000000000000e+00 0.000000000000000e+00 0.000000000000000e+00
0.000000000000000e+00 0.000000000000000e+00 0.000000000000000e+00
0.000000000000000e+00 0.000000000000000e+00 0.000000000000000e+00
0.000000000000000e+00 0.000000000000000e+00 0.000000000000000e+00
0.000000000000000e+00 0.000000000000000e+00 0.000000000000000e+00
0.000000000000000e+00 0.000000000000000e+00 0.000000000000000e+00
0.000000000000000e+00 0.000000000000000e+00 0.000000000000000e+00
0.000000000000000e+00 0.000000000000000e+00 0.000000000000000e+00
0.000000000000000e+00 0.000000000000000e+00 0.000000000000000e+00
0.000000000000000e+00 0.000000000000000e+00 0.000000000000000e+00
0.000000000000000e+00 0.000000000000000e+00 0.000000000000000e+00
0.000000000000000e+00 0.000000000000000e+00 0.000000000000000e+00
0.000000000000000e+00 0.000000000000000e+00 0.000000000000000e+00
0.000000000000000e+00 0.000000000000000e+00 0.000000000000000e+00
0.000000000000000e+00 0.000000000000000e+00 0.000000000000000e+00
0.000000000000000e+00 0.000000000000000e+00 0.000000000000000e+00
0.000000000000000e+00 0.000000000000000e+00 0.000000000000000e+00
0.000000000000000e+00 0.000000000000000e+00 0.000000000000000e+00
0.000000000000000e+00 0.000000000000000e+00 0.000000000000000e+00
0.000000000000000e+00 0.000000000000000e+00 0.000000000000000e+00
0.000000000000000e+00 0.000000000000000e+00 0.000000000000000e+00
0.000000000000000e+00 0.000000000000000e+00 0.000000000000000e+00
0.000000000000000e+00 0.000000000000000e+00 0.000000000000000e+00
0.000000000000000e+00 0.000000000000000e+00 0.000000000000000e+00
0.000000000000000e+00 0.000000000000000e+00 0.000000000000000e+00
0.000000000000000e+00 0.000000000000000e+00 0.000000000000000e+00
0.000000000000000e+00 0.000000000000000e+00 0.000000000000000e+00
0.000000000000000e+00 0.000000000000000e+00 0.000000000000000e+00
0.000000000000000e+00 0.000000000000000e+00 0.000000000000000e+00
0.000000000000000e+00 0.000000000000000e+00 0.000000000000000e+00
0.000000000000000e+00 0.000000000000000e+00 0.000000000000000e+00
0.000000000000000e+00 0.000000000000000e+00 0.000000000000000e+00
0.000000000000000e+00 0.000000000000000e+00 0.000000000000000e+00
0.000000000000000e+00 0.000000000000000e+00 0.000000000000000e+00
0.000000000000000e+00 0.000000000000000e+00 0.000000000000000e+00
0.000000000000000e+00 0.000000000000000e+00 0.000000000000000e+00
0.000000000000000e+00 0.000000000000000e+00 0.000000000000000e+00
0.000000000000000e+00 0.000000000000000e+00 0.000000000000000e+00
0.000000000000000e+00 0.000000000000000e+00 0.000000000000000e+00
0.000000000000000e+00 0.000000000000000e+00 0.000000000000000e+00
0.000000000000000e+00 0.000000000000000e+00 0.000000000000000e+00
0.000000000000000e+00 0.000000000000000e+00 0.000000000000000e+00
0.000000000000000e+00 0.000000000000000e+00 0.000000000000000e+00
0.000000000000000e+00 0.000000000000000e+00 0.000000000000000e+00
0.000000000000000e+00 0.000000000000000e+00 0.000000000000000e+00
0.000000000000000e+00 0.000000000000000e+00 0.000000000000000e+00
0.000000000000000e+00 0.000000000000000e+00 0.000000000000000e+00
0.000000000000000e+00 0.000000000000000e+00 0.000000000000000e+00
0.000000000000000e+00 0.000000000000000e+00 0.000000000000000e+00
0.000000000000000e+00 0.000000000000000e+00 0.000000000000000e+00
0.000000000000000e+00 0.000000000000000e+00 0.000000000000000e+00
0.000000000000000e+00 0.000000000000000e+00 0.000000000000000e+00
0.000000000000000e+00 0.000000000000000e+00 0.000000000000000e+00
0.000000000000000e+00 0.000000000000000e+00 0.000000000000000e+00
0.000000000000000e+00 0.000000000000000e+00 0.000000000000000e+00
0.000000000000000e+00 0.000000000000000e+00 0.000000000000000e+00
0.000000000000000e+00 0.000000000000000e+00 0.000000000000000e+00
0.000000000000000e+00 0.000000000000000e+00 0.000000000000000e+00
0.000000000000000e+00 0.000000000000000e+00 0.000000000000000e+00
0.000000000000000e+00 0.000000000000000e+00 0.000000000000000e+00
0.000000000000000e+00 0.000000000000000e+00 0.000000000000000e+00
0.000000000000000e+00 0.000000000000000e+00 0.000000000000000e+00
0.000000000000000e+00 0.000000000000000e+00 0.000000000000000e+00
0.000000000000000e+00 0.000000000000000e+00 0.000000000000000e+00
0.000000000000000e+00 0.000000000000000e+00 0.000000000000000e+00
0.000000000000000e+00 0.000000000000000e+00 0.000000000000000e+00
0.000000000000000e+00 0.000000000000000e+00 0.000000000000000e+00
0.000000000000000e+00 0.000000000000000e+00 0.000000000000000e+00
0.000000000000000e+00 0.000000000000000e+00 0.000000000000000e+00
0.000000000000000e+00 0.000000000000000e+00 0.000000000000000e+00
0.000000000000000e+00 0.000000000000000e+00 0.000000000000000e+00
0.000000000000000e+00 0.000000000000000e+00 0.000000000000000e+00
0.000000000000000e+00 0.000000000000000e+00 0.000000000000000e+00
0.000000000000000e+00 0.000000000000000e+00 0.000000000000000e+00
0.000000000000000e+00 0.000000000000000e+00 0.000000000000000e+00
0.000000000000000e+00 0.000000000000000e+00 0.000000000000000e+00
0.000000000000000e+00 0.000000000000000e+00 0.000000000000000e+00
0.000000000000000e+00 0.000000000000000e+00 0.000000000000000e+00
0.000000000000000e+00 0.000000000000000e+00 0.000000000000000e+00
0.000000000000000e+00 0.000000000000000e+00 0.000000000000000e+00
0.000000000000000e+00 0.000000000000000e+00 0.000000000000000e+00
0.000000000000000e+00 0.000000000000000e+00 0.000000000000000e+00
0.000000000000000e+00 0.000000000000000e+00 0.000000000000000e+00
0.000000000000000e+00 0.000000000000000e+00 0.000000000000000e+00
0.000000000000000e+00 0.000000000000000e+00 0.000000000000000e+00
0.000000000000000e+00 0.000000000000000e+00 0.000000000000000e+00
0.000000000000000e+00 0.000000000000000e+00 0.000000000000000e+00
0.000000000000000e+00 0.000000000000000e+00 0.000000000000000e+00
0.000000000000000e+00 0.000000000000000e+00 0.000000000000000e+00
0.000000000000000e+00 0.000000000000000e+00 0.000000000000000e+00
0.000000000000000e+00 0.000000000000000e+00 0.000000000000000e+00
0.000000000000000e+00 0.000000000000000e+00 0.000000000000000e+00
0.000000000000000e+00 0.000000000000000e+00 0.000000000000000e+00
0.000000000000000e+00 0.000000000000000e+00 0.000000000000000e+00
0.000000000000000e+00 0.000000000000000e+00 0.000000000000000e+00
0.000000000000000e+00 0.000000000000000e+00 0.000000000000000e+00
0.000000000000000e+00 0.000000000000000e+00 0.000000000000000e+00
0.000000000000000e+00 0.000000000000000e+00 0.000000000000000e+00
0.000000000000000e+00 0.000000000000000e+00 0.000000000000000e+00
0.000000000000000e+00 0.000000000000000e+00 0.000000000000000e+00
0.000000000000000e+00 0.000000000000000e+00 0.000000000000000e+00
0.000000000000000e+00 0.000000000000000e+00 0.000000000000000e+00
0.000000000000000e+00 0.000000000000000e+00 0.000000000000000e+00
0.000000000000000e+00 0.000000000000000e+00 0.000000000000000e+00
0.000000000000000e+00 0.000000000000000e+00 0.000000000000000e+00
0.000000000000000e+00 0.000000000000000e+00 0.000000000000000e+00
0.000000000000000e+00 0.000000000000000e+00 0.000000000000000e+00
0.000000000000000e+00 0.000000000000000e+00 0.000000000000000e+00
0.000000000000000e+00 0.000000000000000e+00 0.000000000000000e+00
0.000000000000000e+00 0.000000000000000e+00 0.000000000000000e+00
0.000000000000000e+00 0.000000000000000e+00 0.000000000000000e+00
0.000000000000000e+00 0.000000000000000e+00 0.000000000000000e+00
0.000000000000000e+00 0.000000000000000e+00 0.000000000000000e+00
0.000000000000000e+00 0.000000000000000e+00 0.000000000000000e+00
0.000000000000000e+00 0.000000000000000e+00 0.000000000000000e+00
0.000000000000000e+00 0.000000000000000e+00 0.000000000000000e+00
0.000000000000000e+00 0.000000000000000e+00 0.000000000000000e+00
0.000000000000000e+00 0.000000000000000e+00 0.000000000000000e+00
0.000000000000000e+00 0.000000000000000e+00 0.000000000000000e+00
0.000000000000000e+00 0.000000000000000e+00 0.000000000000000e+00
0.000000000000000e+00 0.000000000000000e+00 0.000000000000000e+00
0.000000000000000e+00 0.000000000000000e+00 0.000000000000000e+00
0.000000000000000e+00 0.000000000000000e+00 0.000000000000000e+00
0.000000000000000e+00 0.000000000000000e+00 0.000000000000000e+00
0.000000000000000e+00 0.000000000000000e+00 0.000000000000000e+00
0.000000000000000e+00 0.000000000000000e+00 0.000000000000000e+00
0.000000000000000e+00 0.000000000000000e+00 0.000000000000000e+00
0.000000000000000e+00 0.000000000000000e+00 0.000000000000000e+00
0.000000000000000e+00 0.000000000000000e+00 0.000000000000000e+00
0.000000000000000e+00 0.000000000000000e+00 0.000000000000000e+00
0.000000000000000e+00 0.000000000000000e+00 0.000000000000000e+00
0.000000000000000e+00 0.000000000000000e+00 0.000000000000000e+00
0.000000000000000e+00 0.000000000000000e+00 0.000000000000000e+00
0.000000000000000e+00 0.000000000000000e+00 0.000000000000000e+00
0.000000000000000e+00 0.000000000000000e+00 0.000000000000000e+00
0.000000000000000e+00 0.000000000000000e+00 0.000000000000000e+00
0.000000000000000e+00 0.000000000000000e+00 0.000000000000000e+00
0.000000000000000e+00 0.000000000000000e+00 0.000000000000000e+00
0.000000000000000e+00 0.000000000000000e+00 0.000000000000000e+00
0.000000000000000e+00 0.000000000000000e+00 0.000000000000000e+00
0.000000000000000e+00 0.000000000000000e+00 0.000000000000000e+00
0.000000000000000e+00 0.000000000000000e+00 0.000000000000000e+00
0.000000000000000e+00 0.000000000000000e+00 0.000000000000000e+00
0.000000000000000e+00 0.000000000000000e+00 0.000000000000000e+00
0.000000000000000e+00 0.000000000000000e+00 0.000000000000000e+00
0.000000000000000e+00 0.000000000000000e+00 0.000000000000000e+00
0.000000000000000e+00 0.000000000000000e+00 0.000000000000000e+00
0.000000000000000e+00 0.000000000000000e+00 0.000000000000000e+00
0.000000000000000e+00 0.000000000000000e+00 0.000000000000000e+00
0.000000000000000e+00 0.000000000000000e+00 0.000000000000000e+00
0.000000000000000e+00 0.000000000000000e+00 0.000000000000000e+00
0.000000000000000e+00 0.000000000000000e+00 0.000000000000000e+00
0.000000000000000e+00 0.000000000000000e+00 0.000000000000000e+00
0.000000000000000e+00 0.000000000000000e+00 0.000000000000000e+00
0.000000000000000e+00 0.000000000000000e+00 0.000000000000000e+00
0.000000000000000e+00 0.000000000000000e+00 0.000000000000000e+00
0.000000000000000e+00 0.000000000000000e+00 0.000000000000000e+00
0.000000000000000e+00 0.000000000000000e+00 0.000000000000000e+00
0.000000000000000e+00 0.000000000000000e+00 0.000000000000000e+00
0.000000000000000e+00 0.000000000000000e+00 0.000000000000000e+00
0.000000000000000e+00 0.000000000000000e+00 0.000000000000000e+00
0.000000000000000e+00 0.000000000000000e+00 0.000000000000000e+00
0.000000000000000e+00 0.000000000000000e+00 0.000000000000000e+00
0.000000000000000e+00 0.000000000000000e+00 0.000000000000000e+00
0.000000000000000e+00 0.000000000000000e+00 0.000000000000000e+00
0.000000000000000e+00 0.000000000000000e+00 0.000000000000000e+00
0.000000000000000e+00 0.000000000000000e+00 0.000000000000000e+00
0.000000000000000e+00 0.000000000000000e+00 0.000000000000000e+00
0.000000000000000e+00 0.000000000000000e+00 0.000000000000000e+00
0.000000000000000e+00 0.000000000000000e+00 0.000000000000000e+00
0.000000000000000e+00 0.000000000000000e+00 0.000000000000000e+00
0.000000000000000e+00 0.000000000000000e+00 0.000000000000000e+00
0.000000000000000e+00 0.000000000000000e+00 0.000000000000000e+00
0.000000000000000e+00 0.000000000000000e+00 0.000000000000000e+00
0.000000000000000e+00 0.000000000000000e+00 0.000000000000000e+00
0.000000000000000e+00 0.000000000000000e+00 0.000000000000000e+00
0.000000000000000e+00 0.000000000000000e+00 0.000000000000000e+00
0.000000000000000e+00 0.000000000000000e+00 0.000000000000000e+00
0.000000000000000e+00 0.000000000000000e+00 0.000000000000000e+00
0.000000000000000e+00 0.000000000000000e+00 0.000000000000000e+00
0.000000000000000e+00 0.000000000000000e+00 0.000000000000000e+00
0.000000000000000e+00 0.000000000000000e+00 0.000000000000000e+00
0.000000000000000e+00 0.000000000000000e+00 0.000000000000000e+00
0.000000000000000e+00 0.000000000000000e+00 0.000000000000000e+00
0.000000000000000e+00 0.000000000000000e+00 0.000000000000000e+00
0.000000000000000e+00 0.000000000000000e+00 0.000000000000000e+00
0.000000000000000e+00 0.000000000000000e+00 0.000000000000000e+00
0.000000000000000e+00 0.000000000000000e+00 0.000000000000000e+00
0.000000000000000e+00 0.000000000000000e+00 0.000000000000000e+00
0.000000000000000e+00 0.000000000000000e+00 0.000000000000000e+00
0.000000000000000e+00 0.000000000000000e+00 0.000000000000000e+00
0.000000000000000e+00 0.000000000000000e+00 0.000000000000000e+00
0.000000000000000e+00 0.000000000000000e+00 0.000000000000000e+00
0.000000000000000e+00 0.000000000000000e+00 0.000000000000000e+00
0.000000000000000e+00 0.000000000000000e+00 0.000000000000000e+00
0.000000000000000e+00 0.000000000000000e+00 0.000000000000000e+00
0.000000000000000e+00 0.000000000000000e+00 0.000000000000000e+00
0.000000000000000e+00 0.000000000000000e+00 0.000000000000000e+00
0.000000000000000e+00 0.000000000000000e+00 0.000000000000000e+00
0.000000000000000e+00 0.000000000000000e+00 0.000000000000000e+00
0.000000000000000e+00 0.000000000000000e+00 0.000000000000000e+00
0.000000000000000e+00 0.000000000000000e+00 0.000000000000000e+00
0.000000000000000e+00 0.000000000000000e+00 0.000000000000000e+00
0.000000000000000e+00 0.000000000000000e+00 0.000000000000000e+00
0.000000000000000e+00 0.000000000000000e+00 0.000000000000000e+00
0.000000000000000e+00 0.000000000000000e+00 0.000000000000000e+00
0.000000000000000e+00 0.000000000000000e+00 0.000000000000000e+00
0.000000000000000e+00 0.000000000000000e+00 0.000000000000000e+00
0.000000000000000e+00 0.000000000000000e+00 0.000000000000000e+00
0.000000000000000e+00 0.000000000000000e+00 0.000000000000000e+00
0.000000000000000e+00 0.000000000000000e+00 0.000000000000000e+00
0.000000000000000e+00 0.000000000000000e+00 0.000000000000000e+00
0.000000000000000e+00 0.000000000000000e+00 0.000000000000000e+00
0.000000000000000e+00 0.000000000000000e+00 0.000000000000000e+00
0.000000000000000e+00 0.000000000000000e+00 0.000000000000000e+00
0.000000000000000e+00 0.000000000000000e+00 0.000000000000000e+00
0.000000000000000e+00 0.000000000000000e+00 0.000000000000000e+00
0.000000000000000e+00 0.000000000000000e+00 0.000000000000000e+00
0.000000000000000e+00 0.000000000000000e+00 0.000000000000000e+00
0.000000000000000e+00 0.000000000000000e+00 0.000000000000000e+00
0.000000000000000e+00 0.000000000000000e+00 0.000000000000000e+00
0.000000000000000e+00 0.000000000000000e+00 0.000000000000000e+00
0.000000000000000e+00 0.000000000000000e+00 0.000000000000000e+00
0.000000000000000e+00 0.000000000000000e+00 0.000000000000000e+00
0.000000000000000e+00 0.000000000000000e+00 0.000000000000000e+00
0.000000000000000e+00 0.000000000000000e+00 0.000000000000000e+00
0.000000000000000e+00 0.000000000000000e+00 0.000000000000000e+00
0.000000000000000e+00 0.000000000000000e+00 0.000000000000000e+00
0.000000000000000e+00 0.000000000000000e+00 0.000000000000000e+00
0.000000000000000e+00 0.000000000000000e+00 0.000000000000000e+00
0.000000000000000e+00 0.000000000000000e+00 0.000000000000000e+00
0.000000000000000e+00 0.000000000000000e+00 0.000000000000000e+00
0.000000000000000e+00 0.000000000000000e+00 0.000000000000000e+00
0.000000000000000e+00 0.000000000000000e+00 0.000000000000000e+00
0.000000000000000e+00 0.000000000000000e+00 0.000000000000000e+00
0.000000000000000e+00 0.000000000000000e+00 0.000000000000000e+00
0.000000000000000e+00 0.000000000000000e+00 0.000000000000000e+00
0.000000000000000e+00 0.000000000000000e+00 0.000000000000000e+00
0.000000000000000e+00 0.000000000000000e+00 0.000000000000000e+00
0.000000000000000e+00 0.000000000000000e+00 0.000000000000000e+00
0.000000000000000e+00 0.000000000000000e+00 0.000000000000000e+00
0.000000000000000e+00 0.000000000000000e+00 0.000000000000000e+00
0.000000000000000e+00 0.000000000000000e+00 0.000000000000000e+00
0.000000000000000e+00 0.000000000000000e+00 0.000000000000000e+00
0.000000000000000e+00 0.000000000000000e+00 0.000000000000000e+00
0.000000000000000e+00 0.000000000000000e+00 0.000000000000000e+00
0.000000000000000e+00 0.000000000000000e+00 0.000000000000000e+00
0.000000000000000e+00 0.000000000000000e+00 0.000000000000000e+00
0.000000000000000e+00 0.000000000000000e+00 0.000000000000000e+00
0.000000000000000e+00 0.000000000000000e+00 0.000000000000000e+00
0.000000000000000e+00 0.000000000000000e+00 0.000000000000000e+00
0.000000000000000e+00 0.000000000000000e+00 0.000000000000000e+00
0.000000000000000e+00 0.000000000000000e+00 0.000000000000000e+00
0.000000000000000e+00 0.000000000000000e+00 0.000000000000000e+00
0.000000000000000e+00 0.000000000000000e+00 0.000000000000000e+00
0.000000000000000e+00 0.000000000000000e+00 0.000000000000000e+00
0.000000000000000e+00 0.000000000000000e+00 0.000000000000000e+00
0.000000000000000e+00 0.000000000000000e+00 0.000000000000000e+00
0.000000000000000e+00 0.000000000000000e+00 0.000000000000000e+00
0.000000000000000e+00 0.000000000000000e+00 0.000000000000000e+00
0.000000000000000e+00 0.000000000000000e+00 0.000000000000000e+00
0.000000000000000e+00 0.000000000000000e+00 0.000000000000000e+00
0.000000000000000e+00 0.000000000000000e+00 0.000000000000000e+00
0.000000000000000e+00 0.000000000000000e+00 0.000000000000000e+00
0.000000000000000e+00 0.000000000000000e+00 0.000000000000000e+00
0.000000000000000e+00 0.000000000000000e+00 0.000000000000000e+00
0.000000000000000e+00 0.000000000000000e+00 0.000000000000000e+00
0.000000000000000e+00 0.000000000000000e+00 0.000000000000000e+00
0.000000000000000e+00 0.000000000000000e+00 0.000000000000000e+00
0.000000000000000e+00 0.000000000000000e+00 0.000000000000000e+00
0.000000000000000e+00 0.000000000000000e+00 0.000000000000000e+00
0.000000000000000e+00 0.000000000000000e+00 0.000000000000000e+00
0.000000000000000e+00 0.000000000000000e+00 0.000000000000000e+00
0.000000000000000e+00 0.000000000000000e+00 0.000000000000000e+00
0.000000000000000e+00 0.000000000000000e+00 0.000000000000000e+00
0.000000000000000e+00 0.000000000000000e+00 0.000000000000000e+00
0.000000000000000e+00 0.000000000000000e+00 0.000000000000000e+00
0.000000000000000e+00 0.000000000000000e+00 0.000000000000000e+00
0.000000000000000e+00 0.000000000000000e+00 0.000000000000000e+00
0.000000000000000e+00 0.000000000000000e+00 0.000000000000000e+00
0.000000000000000e+00 0.000000000000000e+00 0.000000000000000e+00
0.000000000000000e+00 0.000000000000000e+00 0.000000000000000e+00
0.000000000000000e+00 0.000000000000000e+00 0.000000000000000e+00
0.000000000000000e+00 0.000000000000000e+00 0.000000000000000e+00
0.000000000000000e+00 0.000000000000000e+00 0.000000000000000e+00
0.000000000000000e+00 0.000000000000000e+00 0.000000000000000e+00
0.000000000000000e+00 0.000000000000000e+00 0.000000000000000e+00
0.000000000000000e+00 0.000000000000000e+00 0.000000000000000e+00
0.000000000000000e+00 0.000000000000000e+00 0.000000000000000e+00
0.000000000000000e+00 0.000000000000000e+00 0.000000000000000e+00
0.000000000000000e+00 0.000000000000000e+00 0.000000000000000e+00
0.000000000000000e+00 0.000000000000000e+00 0.000000000000000e+00
0.000000000000000e+00 0.000000000000000e+00 0.000000000000000e+00
0.000000000000000e+00 0.000000000000000e+00 0.000000000000000e+00
0.000000000000000e+00 0.000000000000000e+00 0.000000000000000e+00
0.000000000000000e+00 0.000000000000000e+00 0.000000000000000e+00
0.000000000000000e+00 0.000000000000000e+00 0.000000000000000e+00
0.000000000000000e+00 0.000000000000000e+00 0.000000000000000e+00
 8.484890860011701e+00 -3.528354343855383e-02 -1.506362284068139e-16
 4.761388767812489e+00  6.968793976177602e-02 -8.545061097818144e-17
-1.563232536979123e+01 -2.704716600844710e+00  3.059858574230092e-16
-1.656145737252587e+01  2.310051568952436e-01  2.923573951021328e-16
 2.268717017103258e+01 -6.895239959935033e+00 -3.328991696798259e-16
 3.134708475156874e+01  7.732710746392708e+00 -6.373095591581677e-16
-2.609919214048452e+01 -1.498956113466888e+01  6.184785517629015e-16
-2.950152111536695e+01  4.724657144980608e+00  4.764706231071350e-16
 1.386014555230979e+00 -8.666521984446933e-01 -1.576124580276683e-17
 3.199543854547203e+01 -5.172564891229206e+00 -5.162507692830262e-16
 1.177459926257179e+01  2.073975544425168e-01 -2.116739736581628e-16
-1.693933235053738e+00 -9.195488066684331e-02  3.109036550764152e-17
-2.554796315336423e+00  8.078680724569352e-02  4.463559281310207e-17
 9.809073589041905e-01  2.309508822683476e-02 -1.769371015388249e-17
-2.605580952245897e+00  9.617933226815492e-02  4.538121334773861e-17
 2.144699345852340e+00  1.337835738196338e-02 -3.830494091068521e-17
 6.102117738730821e-01  6.195624514669166e-03 -1.092310419332521e-17
 7.948007793260476e-01  1.566919111450607e-02 -1.430542320538161e-17
-3.463049600168436e+00 -3.526294265051898e-02  6.199141243527758e-17
-3.634901740978479e+00  1.203167479425923e-01  6.345120147139790e-17
 1.375071125784314e+01 -1.990645461898392e-01 -2.426649933786940e-16
 1.585047356677886e+01  2.297605958914736e+00 -3.056851508254180e-16
-7.777480109509423e+00 -3.885567250749289e-01  1.424018150643620e-16
-8.784554098492464e+00 -2.138663138570207e-01  1.585290174609699e-16
-9.006392471621917e+00  3.006715680697220e-01  1.571902061099415e-16
 8.663742918322820e+00 -3.166212839374464e-01 -1.509284710438604e-16
 1.769452091075067e+01  5.170320123185773e-01 -3.202074224919928e-16
-1.841968357568831e+01 -3.800355655850359e+00  3.668475148225625e-16
-1.540868286653915e+01  4.395615890409020e+00  2.290525352826196e-16
 1.300908987026791e+01  8.934849872946170e-01 -2.406925057091829e-16
 7.158254674208118e+00 -4.254340504886898e-01 -1.230185002809124e-16
-7.376360755443796e+00 -5.996952437182553e-01  1.374327892496383e-16
 6.175896033380838e+00 -1.146156442286516e+00 -9.813109571045066e-17
 3.647174882460735e+00  3.184225457227570e-01 -6.817750351779015e-17
-2.560806187973092e+00  3.305376995390708e-01  4.217644599813014e-17
-1.070957042379724e+01 -1.386850386275614e+00  2.048389644587429e-16
 6.056739985103140e+00 -8.574023080686139e-01 -9.897741552258414e-17
 1.478988277422826e+01  3.795412283008941e+00 -3.022000884130705e-16
-1.307321055608069e+01  2.067319626940225e+00  2.114124179312915e-16
-3.759269652378931e+00 -3.722177722066924e-01  7.072509009117435e-17
-1.923426757510315e+00  1.607667253233996e-01  3.257785380012316e-17
 5.724338827208375e+00  9.584100487071214e-01 -1.117187527318204e-16
 7.282676759245610e-01 -5.159316344170548e-02 -1.243029099821435e-17
-4.577425164423635e+00 -6.537032595287621e-01  8.817730447133838e-17
 1.932169816085662e+00 -1.946384032555220e-01 -3.238542777256305e-17
 3.227536607460686e+00  3.453312214402206e-01 -6.098601672611677e-17
-9.601883394383933e+00  1.656185861582506e+00  1.538602604614322e-16
-2.300476706061086e-01  2.597287185962395e-02  3.827110886074963e-18
 1.488923639853581e+00 -1.217368924743397e-01 -2.524636988108043e-17
 6.419271538237759e+00  1.590087617354653e+00 -1.305761667458186e-16
-2.793864182520555e+00  1.515236269759032e-01  4.816329553936337e-17
-3.445960903692657e+00 -3.220539104233585e-01  6.463397170878006e-17
 4.067119877416850e+00 -6.513370040950542e-01 -6.568699851461717e-17
 3.277072671533905e+00  3.424345923665568e-01 -6.183780826359061e-17
-5.994534578446510e+00  7.413410993012178e-01  9.906288283756295e-17
 4.910411810077390e-01  4.589792723169923e-02 -9.210248092444827e-18
-3.715681654221983e+00  3.836735255008865e-01  6.218288122032782e-17
 5.026573367469872e-01  3.285968852897209e-02 -9.283008262632346e-18
 8.638621668358480e+00 -9.369744605045099e-01 -1.441075048844676e-16
-1.688936749363684e+00 -1.098348944056699e-01  3.118515772514827e-17
-2.026473121104435e+01  3.695821493110302e-01  3.568377421982216e-16
-1.127775907039477e+01  1.031108399803568e+01  9.475853424074817e-17
 1.989984360079489e+01  2.290568343550319e-01 -3.564949300539040e-16
-1.090802948591607e+00 -3.031504992441482e-02  1.972361576013294e-17
-2.925194684881490e+00  7.855856163337226e-02  5.125016806043457e-17
-5.348129527894524e-01 -1.045526419683681e-02  9.625058483035319e-18
 9.522942205482812e-01 -2.353414283036512e-02 -1.670540682983632e-17
 2.918052449961187e+00  1.092690719070887e-01 -5.305292412587841e-17
-2.095167461665734e+00 -1.406767881726670e-02  3.743054447753937e-17
-8.427437872664646e+00  6.681779045964423e-02  1.492897810343230e-16
-3.048085360716263e+01  6.044424027484451e+00  4.803388877915329e-16
 7.523561780488563e+00 -3.233237494442828e-02 -1.335585529096218e-16
-6.532801612821083e-01 -1.693674092072191e-02  1.179991858146283e-17
-2.646211410987666e+01  2.252083248355890e+00  4.477855473619911e-16
 5.231095462205547e+00  1.374278085333483e-02 -9.323478568015581e-17
 1.639876615971824e+00 -1.062809564817134e-02 -2.907436067537169e-17
-9.265175798625158e+00 -3.656213536753616e-01  1.686414818265720e-16
-5.607188457842311e+00  5.985958436243157e-01  9.363625226334040e-17
 1.080705753337764e+01  3.636387784983396e-02 -1.926981055588743e-16
-5.916555740747984e+00 -2.824839010196871e-01  1.081945864063597e-16
-5.822820559933416e+00  1.231628220216267e-01  1.023585843224091e-16
 3.198881086210960e+00 -1.037104082038883e-01 -5.586231792334080e-17
 3.520633039040684e+00 -4.146552436437263e-02 -6.222782129782860e-17
 1.234243296391789e+01  4.884181766434341e-01 -2.246666363187234e-16
-3.475127586864467e+00 -1.979733887433135e-02  6.204745115701638e-17
-1.980526866772928e+01 -7.803803363617258e-01  3.604765049990128e-16
 1.203168081120657e+00  1.871795950840012e+01 -2.137320455372831e-16
 1.924291065607038e+01  1.068313747423668e+00 -3.534270845779862e-16
-1.528358697895974e+00  6.693830135218598e-03  2.713018944427627e-17
 1.080163921336941e+00 -3.713369713801069e-02 -1.884127019217715e-17
 6.983403135921638e+00  1.387059214276829e-02 -1.244205042033609e-16
-1.153262155053759e+01 -6.813838239693872e-01  2.122377283495120e-16
-7.455778735868107e+00  8.350037084833607e-02  1.318265402021436e-16
-1.541336699872361e+00  3.098210530937974e-02  2.711159526861377e-17
 2.539888286586152e+00 -5.055570895795470e-02 -4.468090019788294e-17
 3.029148699961325e+00 -1.258139554618693e-02 -5.377804514441098e-17
-1.270106690733014e+00 -1.451984173639956e-02  2.275224970186855e-17
-2.928307687923767e+00  6.802581484794160e-02  5.141378777950711e-17
 4.259516998223037e+00 -8.832836017658495e-03 -7.571243170435029e-17
 3.012839090817139e+00 -2.813052191821652e-02 -5.332803456260658e-17
 1.299620890286874e+00  3.006981703318151e-02 -2.343726040105192e-17
-1.804448204492924e+00 -1.053078770871436e-02  3.222050824153021e-17
-2.010795127220308e+00 -7.514801986391284e-03  3.586170970876576e-17
-2.884549317041035e+01 -1.477580840056915e-02  5.134917751038734e-16
 6.562248156415149e+00 -4.741759428939415e-01 -1.119110481321443e-16
 1.084173844578932e+01  2.928679284273726e-01 -1.959507797095763e-16
 2.406229631389308e+01  1.162250749086570e+00 -4.401589696624697e-16
-1.035192943779610e+01 -5.597312687614937e-01  1.899759680246216e-16
-3.340429869821011e+00  4.793217987566698e-02  5.895444840736521e-17
 9.734178428590294e-01 -6.187067923459731e-03 -1.725956177993031e-17
 1.378054468274882e+01 -4.143060535324202e-01 -2.409843864834719e-16
-1.659010259473414e+01 -4.267139179117478e+00  3.390839700464510e-16
-9.681816655019317e+00  1.144576457824662e+00  1.605393689490767e-16
 1.492825894545701e+01  1.424572209904494e+00 -2.803031369007474e-16
 3.231633869087247e+00 -9.313060451990705e-02 -5.655389637879216e-17
-2.120563434215082e+00 -4.074763166437224e-01  4.192462693627776e-17
-1.550535256352083e+00  1.183621418008820e-01  2.637749641362425e-17
 1.790628557510985e+00  8.617289876603698e-02 -3.275176635289571e-17
-4.050059905868193e-01  5.678554341376062e-03  7.149219635312172e-18
 8.872753437841068e-01  4.678231321178921e-02 -1.627079439554942e-17
-3.378639458084099e-01  1.439120887295576e-02  5.864827429323586e-18
 1.829271620446105e+00  1.020538560201594e-01 -3.360263681104751e-17
-2.032401558385825e+00  5.815900457981706e-03  3.610925386287122e-17
 7.722117532192464e-01  1.641454550833023e-02 -1.391108276477965e-17
-2.028399174833839e+00 -5.400028089820055e-02  3.665261613988861e-17
-2.414227843755050e+00 -7.998427139635240e-02  4.378587358217808e-17
-3.384487858900485e+00 -9.351323376700103e-02  6.119181311822832e-17
 1.510359704912790e+01  1.826511575718220e-01 -2.706631999829364e-16
-2.088397365574584e+01 -2.495895173766074e+01  6.280993845349907e-16
-1.513881126075068e+01  2.104628332406669e+00  2.477889130427104e-16
-1.319286397683890e+00  7.174287628081566e-02  2.274114316331389e-17
 2.286299751844254e+00 -2.449514797215809e-01 -3.817064380981704e-17
-1.544625545156714e+00 -7.433711650403196e-02  2.825224093673806e-17
-2.040363681248586e+00  1.798517907535783e-01  3.446279372681121e-17
-2.138293867358092e+00 -1.039302217991449e-01  3.912133527827762e-17
 8.129975030835979e+00 -7.750564470873404e-01 -1.367191800209054e-16
 1.072660795354064e+01  3.070700232609012e+01 -5.063960776179895e-16
-9.400816514172364e+00  9.620052090520133e-02  1.663103181562101e-16
-1.716862401451107e+00  2.353385219035825e-02  3.031181263331445e-17
 2.283622648230802e+00  2.607774803486182e-02 -4.090772841415910e-17
-5.750252915008783e-01  3.097585214180208e-04  1.023007828790782e-17
 1.062881446244976e+00 -3.646212719048346e-03 -1.887777967568876e-17
 2.756860089126439e+00  1.999266381905527e-03 -4.908215553973159e-17
-1.988268123239253e+01 -1.879227947968669e+00  3.731444128141757e-16
-4.462876036529820e+00  2.128942456421298e-02  7.920346148165023e-17
 2.467333162971262e+00 -1.005825029898113e-01 -4.287568803959482e-17
 9.084324719004347e-01  6.503947506206240e-03 -1.623346514450635e-17
-1.303563105512555e+00  3.817442541949322e-03  2.315923756492756e-17
-7.679438176518116e-01  3.741455918765256e-03  1.362803417080237e-17
 2.943668705257068e-01 -1.360989088067801e-03 -5.224625930277461e-18
 5.447799047393479e-01 -2.576246998477345e-04 -9.692361256645327e-18
-4.559531684647435e-01 -7.953260608216929e-04  8.122402162196022e-18
-3.693771751782651e+00  1.000981772874995e-04  6.573404594120600e-17
 7.807911394078975e-01 -1.545451808589560e-02 -1.373632012787643e-17
 4.865708158037064e+00 -1.997617392681209e-02 -8.638583277389919e-17
 3.113634564885258e+00  2.690320878906480e-01 -5.817504813919307e-17
-1.183831026167820e+01  1.301329578592808e-01  2.093397834857861e-16
-2.998271342898425e+00  3.719694340474538e-02  5.297562993382675e-17
 8.595862119027121e-02 -2.236219826609449e-03 -1.506759854855911e-18
 3.074385944241282e+00 -2.772143956301023e-02 -5.442753741919308e-17
 2.965850126212467e+00  3.890541169846647e-02 -5.318057976173279e-17
-1.404530175973057e+00 -1.242026156327897e-02  2.512290355475078e-17
-1.845651200524041e-02 -2.976201441754302e-05  3.287614412123780e-19
 2.030077671974918e+00  2.363725897559457e-02 -3.637051798632923e-17
 4.751800663258690e-01  2.314524239057715e-03 -8.480176994346150e-18
 1.638394861672121e-01  2.157549478494866e-03 -2.937887122454668e-18
-1.940898182245976e-01 -1.670808783826027e-03  3.471226787325742e-18
 6.745684691070056e-01  7.238881867156009e-03 -1.207912744471813e-17
 5.488294305601835e-02 -1.742817552261409e-03 -9.588006231711962e-19
-8.664417141663362e-02  3.373531242323670e-03  1.507274575029424e-18
-7.388198162479048e+00 -3.177902427035658e-01  1.347469785466970e-16
-4.717798135333452e-01  1.852194139652253e+01 -1.819103415229148e-16
 5.737003439536736e+00 -2.658414198641567e-01 -9.936539553452051e-17
 1.559477365588279e+00  5.916498120198744e-02 -2.836065862497970e-17
-1.026831066902132e+01  1.055295710571924e+00  1.718940568258274e-16
 1.635502530743536e+00  9.444771802336506e-03 -2.920276003775874e-17
-1.482841785195040e+00  1.237332186985738e-02  2.626180697790273e-17
 4.079445140434769e-01 -3.995520564985065e-03 -7.218806718853425e-18
 3.506452847999691e-02 -2.735368849371509e-04 -6.212046194891892e-19
-1.215948937537893e-01  2.455025514899129e-03  2.138701746575240e-18
 7.384502001919800e-01 -5.536711499306751e-03 -1.308471446835001e-17
 3.027015819313404e-01 -2.170604792466289e-03 -5.364633545856729e-18
 3.800680858835759e-01 -2.441973447950572e-03 -6.738674590842515e-18
 4.541030278690747e-01 -3.328722591983736e-03 -8.047103636360681e-18
-1.087107490194070e+00  1.180935972296301e-03  1.933424084864187e-17
-1.991614216566870e+00  2.966916755427503e-02  3.513831074906794e-17
 6.726197119333608e-01 -1.068301605942092e-02 -1.186030599388208e-17
 4.090917589204154e+00 -4.888778425573968e-02 -7.230045409932800e-17
 3.972743009356730e+00  7.827544000154656e-02 -7.150395242451335e-17
-4.132314033916925e+00  1.966279276907241e-02  7.333742937261503e-17
-1.557730679395467e+01  1.353222114435397e+00  2.633128902333024e-16
 6.184666156380956e+00 -8.012907073620112e-02 -1.092402145026521e-16
 2.531105739076235e+00  7.349879688676447e-02 -4.579921927444235e-17
-3.334839870595488e+00  2.377373562032357e-02  5.910318694316183e-17
 1.253552158740226e+01 -5.617083430086417e-01 -2.173132096415821e-16
 2.467739653582588e+00  3.915516163755284e-03 -4.395660127605692e-17
-1.036287921306736e+00 -7.233406638251616e-03  1.851630031741665e-17
-2.463574830474811e+01  4.060934562667645e-01  4.342500653734469e-16
 3.024678147163820e+00  1.553198426348528e-02 -5.398734109198282e-17
-5.436786885908407e-01 -5.504723783748877e-03  9.731969827792474e-18
 2.251861322495371e+00 -3.124623007008421e-02 -3.975351467997455e-17
-2.088805603332752e-01  6.952035392696500e-04  3.710135738278906e-18
-1.048966268707770e+00 -1.239842792980672e-02  1.879499541435027e-17
-3.429053364565551e-01  2.670838440714652e-04  6.099665292182939e-18
 1.083884976690611e-01  6.777466695455334e-05 -1.929598964866214e-18
 2.492859119252701e-01  1.939743211314454e-04 -4.438333179360547e-18
-1.924597445215840e-01 -5.329703243711281e-04  3.430526804333056e-18
-5.109128476320951e-01 -1.231305355576096e-03  9.104954777740975e-18
-3.970954709820743e-01 -6.896697215599980e-04  7.073873686269740e-18
-3.876348116731045e+00 -3.462059111677072e-02  6.933995261152302e-17
 8.385673726460291e-01 -7.615361252867293e-03 -1.484506160794097e-17
-6.823236278762137e-01 -2.379457157932175e-02  1.238724344137104e-17
-2.609355359859864e-03 -8.212887632546017e-04  5.487501687976231e-20
 1.649265384213508e-01  6.965291151909169e-03 -3.006630324278916e-18
-4.225298071688106e-01  8.288444009418305e-03  7.434261179144692e-18
 2.487647096481512e+00  8.089030865037156e-02 -4.510176602680504e-17
 6.250810160150815e-01 -4.496776590249587e-03 -1.107785954901480e-17
-4.414166742103991e-02 -4.492243398491327e-03  8.317098527577932e-19
-7.859131195671197e-01  1.266347842234514e-02  1.385614879117373e-17
 1.392076702622655e+00  1.032588228234766e-02 -2.487976014043599e-17
-2.422706662378615e-01 -2.104511476506417e-03  4.333118587135975e-18
-1.342999448892666e+00 -1.413917157755575e-02  2.404555202818695e-17
-2.940751207669312e+00 -2.747031276241962e-02  5.261642306709714e-17
 1.369307801612210e+00 -1.566787430260644e-02 -2.420748398084821e-17
 9.947741746356057e+00  4.411975841748458e-03 -1.770772619171410e-16
-1.299613804929670e+01 -2.980981566844596e+01  5.375668051960256e-16
-1.118270957434498e+01  4.948722958103312e-01  1.939250230312158e-16
 2.593914461917154e+00 -9.058476498089760e-03 -4.606872936105756e-17
 7.962710947318806e-01 -1.989166949073617e-02 -1.396621428012532e-17
 8.454551106551703e-01  1.112034668072413e-03 -1.505730794304158e-17
-8.218321861317628e-01  3.700814003324189e-03  1.458745955179913e-17
-2.745278270839323e-01  2.113100082543591e-03  4.863838786116198e-18
 1.167441263543855e+00 -6.911733274150941e-03 -2.070499431993847e-17
 3.414132232044545e-01  2.785073493860203e-04 -6.078717113292215e-18
-1.360235438428376e+00  4.359026019055219e-03  2.416222477426870e-17
-5.220548580604643e-01  3.439304979463441e-03  9.255251320208240e-18
 5.654402857032895e-02 -3.762590806475039e-04 -1.002402510059582e-18
 5.068665700374229e-01 -3.598640072002269e-03 -8.983320505382550e-18
-5.249380852203180e-01  1.098240500652079e-02  9.229059174438977e-18
 1.039551067903405e+01 -7.346726780907693e-03 -1.849250278002034e-16
 2.048609571704554e+01  2.927962391639303e+00 -3.946582601039547e-16
-5.566531377890063e+00  6.839135269206299e-02  9.836036956509529e-17
-2.045851856471319e+00  5.562658779818600e-04  3.640265873481075e-17
 1.118636003620193e+00 -4.907476189749239e-02 -1.940323664712833e-17
 3.633432657475539e+00  3.898897011621133e-02 -6.506186575179991e-17
 8.345584249573516e+00 -8.958640010700288e-02 -1.475991589926770e-16
-1.990916082870550e+01 -2.915831764008252e+00  3.842663775908496e-16
-2.473607260106792e+01  1.679285545033901e+01  2.676674288040220e-16
 2.627285241051742e+01 -8.665305246230925e-02 -4.666664193977775e-16
 1.987703816404066e+01 -3.916855000409369e-01 -3.497111780877558e-16
-1.633659271625501e+01 -1.222289947926349e+01  4.163150062865588e-16
-2.129600733954017e+01  4.469097123962455e+00  3.330695039919474e-16
 1.062478645007566e+01 -1.261102876844729e-01 -1.877850111905140e-16
 9.199957194556360e+00  3.096017485134900e-01 -1.669052578798147e-16
-2.963144154275604e+00 -2.368172801945532e-02  5.297600594137426e-17
-1.142423943558422e+00  1.094276048481774e-02  2.021836391287673e-17
 1.010354808345792e+01  7.118219119288545e-02 -1.805360612503404e-16
-7.996468674923396e+00 -3.453938294638744e-01  1.458554947370772e-16
-5.965545169514038e+00  5.065757546075305e-01  1.009591104051223e-16
 3.748077153754788e+00 -6.401371319543279e-02 -6.604378617021058e-17
 4.858215681612931e+00  2.583166525815668e-02 -8.672315411853431e-17
 2.512302520797194e+01  1.580154815900046e+00 -4.633297180746336e-16
-2.612041891596254e+01 -4.203902284283606e+00  5.080375809770260e-16
-1.451638883578694e+01  4.037204949486696e-01  2.541883736759492e-16
 1.295876046316745e+01 -1.389602443536019e+00 -2.163389399186208e-16
-7.080306489547524e+00 -6.134968298407474e-01  1.323059567380225e-16
-1.887718716143766e+01  1.173143247751274e+01  2.154058561973737e-16
 1.070137366943878e+01  4.163832609456886e-01 -1.947218962547314e-16
 3.160948393438559e+01 -1.585888047440740e+00 -5.462340481790331e-16
-1.425659783298454e+01 -2.506834410761022e+00  2.794699772256025e-16
-1.854689960480140e+01  8.240553624112233e-01  3.215973325136306e-16
-2.876782041790285e+01  9.111241857812644e-01  5.025962098170530e-16
-1.256837903246266e+01  2.328323670423245e+00  1.997466170726723e-16
 2.587420503187570e+01 -8.391873542890259e+00 -3.742388902865515e-16
 1.746480084157928e+01  2.007304906966571e+01 -5.170502509885723e-16
 3.244345993771659e+00  2.840922646337163e-01 -6.065595177258865e-17
 5.552100488904980e+00 -1.128603855635815e+01  1.715369522822407e-17
-2.248209786550244e+01  2.180185217477561e-01  3.978556880217939e-16
 1.124526210139784e+01 -3.281489947009585e+00 -1.664067357969479e-16
 1.039120432911368e+01  1.371208166242787e+00 -1.990125419028679e-16
-1.507648069710583e+00  1.131560246660637e-02  2.671413208734011e-17
 1.063063063066161e+01  2.767461048333751e+00 -2.176194097009927e-16
-1.375456478047477e+00  1.767521124840414e-02  2.429628235803502e-17
-2.695136886216255e+01 -7.207230594370937e+00  5.536834338247032e-16
 2.678811426301812e+00 -3.452069474346253e-01 -4.412576876879290e-17
 1.089255686486658e+01  1.231104855381032e+00 -2.064951976865867e-16
-2.502467265896327e+01  5.476659054067731e-01  4.397168322368254e-16
-2.267984825183984e+00 -3.446063560775508e-02  4.071556583596237e-17
-3.108929955271378e+00  7.441009235178918e-03  5.525066334161098e-17
-9.872384445914061e-01  3.230354030048585e-03  1.753589502777616e-17
 3.044524606468217e+00  2.534345944721839e-03 -5.420698649601225e-17
-8.899218856574812e+00 -4.695166039651706e-01  1.631963274771651e-16
 6.813362830892332e+00 -4.946398346160858e-01 -1.161696742369339e-16
 3.076546104129327e+01  2.477291587722452e+00 -5.729613487286144e-16
-1.988146812297785e+01 -2.017119698701901e+01  5.610661621298604e-16
-2.850933307057251e+01  9.723735107213557e+00  4.074497432851907e-16
 2.450848604748303e+01 -1.857038248358835e+01 -2.453538100239395e-16
 2.588617747420414e+01  8.150389610137390e+00 -5.444176987416342e-16
-2.688710713737972e+01 -2.016980325127242e+00  4.992118836744675e-16
-1.618784657005259e+01 -7.996617412586242e-01  2.962982731720655e-16
-1.923299458944602e+01  2.905758592788325e+00  3.124184667261394e-16
 3.062354515003396e+01 -2.653325298324368e+00 -5.177205614688058e-16
 5.540544923181733e+00  8.905693774193356e-02 -9.951563358449997e-17
-2.371310004444295e-01 -7.712173910980004e-04  4.227952976929630e-18
-2.541423635129676e+00 -1.143183666657924e-02  4.534512308210554e-17
-6.851962560288094e+00  4.405587429717153e-02  1.214861889751032e-16
 8.538287053715406e+00 -5.072024765940555e-01 -1.467376817451073e-16
 6.475099081409317e+00  2.864862405204316e-01 -1.181756539767520e-16
-8.652546198285098e+00  5.926516249754912e-02  1.533734527075963e-16
-4.463822658322236e-01  1.364224042291300e-03  7.929887982599754e-18
-1.156250137790287e+00  8.517188272747753e-04  2.056809935374788e-17
-5.593835330365940e-01  1.965297464968956e-03  9.934704500320623e-18
 1.639038142392343e+00 -5.835982810480590e-03 -2.910867618971153e-17
-5.677757230981183e-01  2.572132885054797e-04  1.010160348853517e-17
 6.365295550947526e-01  2.494436886292516e-02 -1.158409704491335e-17
-1.257079524832929e+01  1.440127538203217e-01  2.222326177005413e-16
 8.382761922866649e+00 -1.747331826867772e+00 -1.312280479598440e-16
 2.331715857520124e+01  4.266198894469469e+00 -4.587902944117090e-16
-2.989962305522554e+01 -1.346542595646064e+00  5.459346938420684e-16
-8.527027119779643e+00  1.610804951868901e-01  1.500935754182642e-16
 4.757122696296230e+00 -2.154977706933287e-01 -8.244451162547139e-17
 3.178555192374749e+00  2.831177583862342e-02 -5.685707437051674e-17
-8.758344690114938e-01 -9.812225538415550e-04  1.559660089027103e-17
-2.139900195304016e+00 -8.312653657128596e-03  3.816748603320174e-17
-2.166368208933334e+01  1.124905906756422e+00  3.739730658673422e-16
-1.308706985970275e+00  5.801834450036848e-03  2.323039015818533e-17
 2.063023918845858e+00 -7.124328533893461e-02 -3.598197260710316e-17
 6.395945989539572e+00  3.736576851471003e-01 -1.176626853358899e-16
-4.597642635781151e+00  3.583731479606738e-02  8.145231956749409e-17
-8.672208613659380e-01  3.188999676013966e-02  1.510557155450998e-17
 1.121129443546480e+00 -4.612626180149818e-03 -1.990444271919283e-17
-5.315013803693988e-01  5.645688772443376e-03  9.400693664682662e-18
-1.539798118681091e+00  1.089404782931140e-02  2.729061189442074e-17
-8.678750833728587e-01  1.562931768749628e-02  1.528428677885317e-17
-1.273112134868653e-03 -5.341411099483817e-04  2.814465625569793e-20
 4.496961229730015e-01 -4.314870813926897e-03 -7.958545201681103e-18
-4.993897607662504e+00 -1.247133570576729e-02  8.900050337524903e-17
 2.860318648113182e+00 -9.478859962195606e-02 -4.992886381568167e-17
-2.695992998069661e+00 -5.722592309958587e-02  4.856638687600314e-17
-5.574040859926223e+00  3.368387947553557e-01  9.573580979027054e-17
 9.865431298938629e+00  1.732955083884911e-02 -1.757451727724943e-16
 1.427908146672089e+01 -5.735436971305112e-01 -2.482203342947387e-16
-1.892080433055551e+01 -2.957047498155585e+00  3.671008714054181e-16
-1.380961867849635e+00  1.078258432337781e-01  2.346799233754875e-17
 2.497814320856069e+00  3.554294435823060e-01 -4.810349375584973e-17
 1.036163079491565e+00 -1.551963640653888e-01 -1.684517168420519e-17
 4.706844709320906e-02  4.589215243792154e-02 -1.309164338856020e-18
-4.712597398475087e-01  1.963587293277893e-02  8.184877748298660e-18
-9.313816068639379e-01 -1.688660175762889e-01  1.831008363210187e-17
-2.870919154451347e+00  3.874567920105749e-01  4.711045309875145e-17
 3.760492419264671e+00  3.420241599486072e-01 -7.043662226277673e-17
-1.203460670556753e+00  1.009835919645476e-01  2.037944843951288e-17
 1.028409160659564e-01  8.923380845293457e-03 -1.921861271046626e-18
-3.648836785829475e+00  1.609749859614147e-01  6.328144362700622e-17
 4.362145986470987e+00 -2.823348612239892e-02 -7.733950237081592e-17
 7.255648739318257e+00 -1.066173988275597e-02 -1.290133786764429e-16
-2.309567629197302e+01 -4.252773219903222e+00  4.547108090539487e-16
 2.364629360319267e+00 -4.806444932931544e+00  7.303075553859828e-18
 2.480277578249062e+01  5.895759446710072e+00 -5.019717674258217e-16
-2.180948798574157e+01 -2.962600356735326e+00  4.185654964418581e-16
-2.344288572376560e+01  4.213009089393968e+00  3.739069772207189e-16
 2.419687327396369e+01 -4.008050064140837e+00 -3.894309645857447e-16
 1.491098144443246e+01  1.221110594471973e+00 -2.779051690370244e-16
-2.803851961196239e+01 -1.436781227046261e+00  5.137413072180371e-16
-5.354357534419623e+00  1.040609754799291e-01  9.421799051903285e-17
-2.478258556236640e-01  3.760535876842773e-03  4.371718577360350e-18
 3.885592794323379e-01 -4.963168466221651e-03 -6.863881116436566e-18
 9.440170756758453e-01 -1.046266906587037e-02 -1.669240980330243e-17
 1.191443614395098e+01 -1.901098500839012e-01 -2.100782935873541e-16
-1.696114915193963e+01 -2.056743538618089e+00  3.229761738591825e-16
-7.594888867795985e+00  1.903071302248695e+00  1.156067406366215e-16
 1.432556383665787e+01  7.651924387948992e-01 -2.628025709589506e-16
-3.772142140364667e+00  3.380217620804296e-02  6.678246388903013e-17
-5.189446988215645e+00  5.834062565614968e-02  9.175297060838061e-17
 8.158962818030286e+00 -8.853713262840587e-01 -1.361016069627358e-16
 1.262746326618013e+01  1.341825594612919e+00 -2.385075419313156e-16
-5.401737352872053e+00  7.590494544263816e-02  9.535046388282734e-17
-6.281899307138336e+00  1.947678352207054e-02  1.115937746138750e-16
 7.011213780000528e+00 -7.931710388235189e-01 -1.166233682194771e-16
 1.011253891034939e+01  4.272458464256142e-02 -1.804036721678837e-16
 1.050972427653932e+01  3.553216186662750e-01 -1.906838805016164e-16
 3.054425570945694e+01  8.001817696082309e+00 -6.257872348147699e-16
-1.897692762717909e+01 -3.039032933458624e-01  3.408395595634595e-16
 3.811805390161720e+00 -5.934131295181512e-01 -6.173851946080021e-17
 1.139076519105119e+01  2.856761907206114e-01 -2.056474730669898e-16
-9.084053420987498e+00 -4.547963948785342e-01  1.663344342117231e-16
-7.269694019376713e-01  4.820715576009407e-02  1.244197664007245e-17
 4.611857069435623e+00  6.911505698009143e-03 -8.214451098310187e-17
-8.304264854441320e-01 -8.209873719290290e-03  1.486278334950416e-17
-1.200410231833508e+01 -8.325884249875186e-02  2.144827741188788e-16
 1.556469184942217e+01 -1.653513668759978e+00 -2.600030054304794e-16
-1.573655087623582e+01  3.071621084274601e+00  2.484909033130074e-16
-1.223266133771947e+01 -3.719998733262214e-01  2.215169637152252e-16
 1.163782196818392e+01 -3.094964436115292e-01 -2.039289604901608e-16
 6.953735879880953e+00  6.934785198459334e-01 -1.308752645617826e-16
-6.619986102437410e+00  6.599752797697242e-03  1.177427392328559e-16
-1.782504742789873e+01  2.294856704299203e+00  2.936391625287992e-16
 7.976406569912906e+00 -2.280897206792043e-01 -1.396061304821808e-16
 1.944541560910875e+00 -8.062796650536755e-04 -3.459715237433688e-17
-4.375699075518044e-01  1.004974959977186e-02  7.683820934154774e-18
 7.452717347451826e-01 -1.190409996747597e-02 -1.314068920642739e-17
-1.418264836235545e+00  2.399593363221675e-02  2.499316504231295e-17
-1.306248218477050e+00  3.542856545155481e-02  2.288222955109729e-17
 2.824185365230131e+00 -7.789067481816113e-02 -4.945944899982689e-17
 5.530031197561308e+00 -1.505127245859153e-02 -9.825885531322113e-17
-6.294104806086339e+00 -7.687801727795815e-02  1.128009965954063e-16
-1.957551096168616e+01  3.277228649823861e+00  3.146972341481273e-16
 9.790424864221587e+00 -1.092510404373346e-01 -1.731097741388813e-16
 5.704054282935078e-01  2.157683690825521e-03 -1.017321443061915e-17
-1.122179814651758e+00  1.168716763234315e-02  1.985044698406320e-17
 8.674125863085579e-01 -1.036421751658240e-02 -1.533015308925714e-17
-2.136048809420936e+00  5.478087977180258e-03  3.795725120882070e-17
 1.123026731668064e+00 -2.444215245586839e-02 -1.973446604765850e-17
 2.678452883514238e-01 -2.385732392077861e-03 -4.742113861659946e-18
 5.129015514039195e+00 -2.488635417921635e-01 -8.871996672156992e-17
-7.603941372610130e-01 -1.426096636141789e-02  1.367864695319308e-17
 5.945237594510283e-01 -1.562307468450265e-02 -1.041973806915231e-17
-1.626528548119878e-01 -3.665033702576096e-03  2.932258460503793e-18
 7.798522855687123e-01 -3.739670966831742e-02 -1.349416406628391e-17
-2.771328759600293e-01 -1.234519856302244e-02  5.058752571191838e-18
-7.127056169709311e-03  3.630762578866574e-03  8.952969742717949e-20
 2.753146073336849e+00  8.763122983093903e-02 -4.989589749714159e-17
 1.807005640329340e+00 -6.662589483763549e-02 -3.147326398703050e-17
-2.141141416902888e+01 -1.682918845522019e+00  3.983330353950633e-16
 1.780054194481775e+01 -4.573670642092187e+00 -2.697890728016893e-16
 1.744983791068140e+01  1.432167601940465e+00 -3.252556823765461e-16
-1.086610628590852e+01 -3.128735313635495e-01  1.965899847689260e-16
-2.325462123287608e+00  1.029734238478388e-01  4.032635780737683e-17
 3.822109560751152e+00 -6.830197447495960e-03 -6.794882101217852e-17
-4.319227168287548e-01 -2.223489550554513e-03  7.709425510620580e-18
-3.974200479016675e-01 -1.738165386044599e-04  7.074349717645051e-18
 9.355316881105604e-01 -8.910591049414064e-03 -1.655734926175086e-17
 3.953245356267473e+00  3.510661010185923e-02 -7.071342438129858e-17
 6.001314611352853e+00  6.381399554745044e-02 -1.074562177698029e-16
-3.025809424568965e+01 -3.652364701101535e+00  5.760056007967212e-16
-2.599435200149000e-01 -4.620887580878185e+00  5.210394626755547e-17
 3.028652676937476e+01  3.446743314220847e+00 -5.743989063823819e-16
-1.247158768363111e+01 -3.091602166334207e-01  2.251232883978979e-16
-4.236084756504905e+00  1.035614503611854e-02  7.527977563235176e-17
 9.987145762350520e-01 -9.683428593599141e-03 -1.767382345434846e-17
 7.839678308881868e-01  1.160502052087013e-03 -1.396356644516704e-17
-1.131761789939341e+00 -1.738062070704518e-03  2.015890901853880e-17
-1.383750554875333e+00  4.391139477084850e-03  2.458037435932129e-17
 1.057151525965404e+00 -1.784887163968960e-02 -1.862988175414537e-17
 3.987787120204229e+00 -1.937304182313891e-03 -7.094752350830913e-17
 4.856201286947414e+00  2.568640092281433e-01 -8.906107894855608e-17
-2.663619724929703e+01 -1.204787175487591e+00  4.864016534688905e-16
-7.430910073414747e+00  1.206514788023675e+01  8.276897121023035e-18
 2.707148044678574e+01  1.068513870261978e+00 -4.927478784414154e-16
-1.047939604548779e+01 -7.725043843236027e-01  1.944305548693099e-16
-1.003722731407656e+01  3.516232535974804e-01  1.750116316962617e-16
 1.333941249749419e+00 -9.356363680714536e-03 -2.364294248992108e-17
-6.986100701248579e+00 -1.982862931678997e-01  1.263633122343473e-16
-1.789509400350082e+00  1.036223858101744e-02  3.173998614613813e-17
 4.135921401991244e-01 -2.788732335889583e-03 -7.331712262112726e-18
 2.909876372247004e-01 -1.334114786671046e-03 -5.164764560108734e-18
 1.117452514735729e+00 -3.709249293424459e-03 -1.984828924731995e-17
 3.015177170054055e-01  1.536751972187301e-03 -5.381656987394983e-18
-4.624584305091098e-01  7.763250923558802e-06  8.229919651377767e-18
-2.685484706203023e+00  1.419607195554592e-02  4.764554421859066e-17
 2.918523472912136e+00 -9.849928222267075e-02 -5.092656220023538e-17
 8.696621071700884e+00  3.654095545962062e-01 -1.585211961086411e-16
-1.517248895458466e+00 -3.213242147630074e-02  2.733140288565135e-17
-5.467113742865554e+00 -5.801452825588287e-02  9.788988866683870e-17
-3.938622650921092e+00  1.023935841395909e-01  6.904043135139904e-17
 8.743040522149260e+00 -5.622823087220941e-02 -1.550151105212991e-16
-9.618043357129882e-01 -8.113570333492812e-03  1.719981942126669e-17
-4.376618968197591e+00  1.033414177362313e-02  7.778097561861645e-17
-1.284301369542334e+00  8.680343950051626e-03  2.276648747638773e-17
 1.156677602388444e+00 -6.594165297837897e-03 -2.051670503430666e-17
 3.646506416907882e+00  1.412907651209318e-02 -6.503910253017652e-17
 1.008133011730365e+00  8.735979045965471e-03 -1.803068850191878e-17
-1.278681189682747e+00 -9.780574309257583e-03  2.285614888028430e-17
-3.570443543746750e+00 -8.642838415269402e-03  6.362910386338826e-17
 3.861755264522058e+00 -2.423479696067475e-01 -6.623450404609806e-17
 1.064666360667604e+01  5.001364709705767e-01 -1.946087992347906e-16
-6.671847661369009e+00 -1.787628541350641e-01  1.205702109887458e-16
-1.603767867836327e+01  2.911535691359597e-01  2.824181253654140e-16
 2.509543933379914e+01 -3.052145012583107e+00 -4.152435966208087e-16
 7.136942630932906e+00  2.360089530157601e-01 -1.294353136503069e-16
-5.013670885727240e+00 -3.561110404290625e-03  8.926084305361232e-17
 4.178290124571039e+00 -5.755323473116919e-02 -7.376631823142535e-17
 2.684310246083464e+00  3.435289592521050e-02 -4.812346631396489e-17
-3.489851607349093e+00 -3.959059433332714e-02  6.251285116497493e-17
-3.799514987904351e+00  4.008805864465066e-02  6.720501119725730e-17
 5.526067134982530e+00 -2.262213661570780e-01 -9.601861403909190e-17
 6.126583743182727e-01  5.408691812094941e-02 -1.145871001193165e-17
-1.222778350708858e+01 -1.571522836261586e-01  2.192226759621026e-16
 1.531173254074035e+01 -5.899110175544057e+00 -2.118793309692414e-16
 2.758722025837744e+01  1.086118470930488e+01 -6.025422190552317e-16
-3.165527731712624e+01 -4.780401907489823e+00  6.124603126631791e-16
-1.757758049212560e+01  8.124398764265504e-01  3.044664875667246e-16
 1.322923138155678e+01 -6.525333763696892e-01 -2.287254094365845e-16
-1.522523465672820e-01  1.112336628028427e-02  2.595223571719686e-18
-7.607004874333697e+00  3.697038326404957e-01  1.315771531277883e-16
 6.324039345907087e+00 -1.360317794230272e-01 -1.111461466278913e-16
 1.719229920884361e+01  8.802321260918196e-01 -3.150015374963106e-16
-1.733940239755261e+01 -1.850106824285198e+00  3.275845243867681e-16
-1.294942868392048e+01  3.142268808698182e-01  2.272219630168245e-16
 2.681818244979530e+00 -1.190768871861508e-01 -4.650268289165035e-17
 8.508562141066795e+00 -1.779678217551498e-01 -1.495914579626848e-16
 9.978417602227289e+00  3.567307295072649e-01 -1.812431225764801e-16
 1.054374393485168e+00  6.024705649158467e-02 -1.938286665352459e-17
-1.383909734597856e+01 -3.419880631908596e-01  2.497970482601406e-16
-1.896039181764006e+01  2.934943123256945e+00  3.072673147567359e-16
 1.114241668890869e+01 -4.601222587097828e-01 -1.935650070792915e-16
 1.616630422192704e+01  2.559407381974743e+00 -3.139956485848215e-16
-8.018226614157788e+00  5.549940292352190e-03  1.426368834689041e-16
-1.730822810055815e+00  1.373997782217984e-02  3.066088322383268e-17
 6.668119946445378e-02  1.150526544861045e-03 -1.198492718819462e-18
-7.394910703248689e-02 -2.565136474947020e-04  1.318648150939502e-18
 3.642785880365763e-02  4.040105563298953e-04 -6.524282548670332e-19
-2.062299456755917e-01 -6.490113242629001e-04  3.676776238993268e-18
-2.075112083039709e-02 -9.114721947591445e-05  3.702274506295654e-19
-2.170067067236703e-01 -5.493838124879298e-04  3.867537870340839e-18
 1.516046829883496e-01  6.276483849774982e-04 -2.704435033878442e-18
-5.271456756064010e-02 -2.266030676072212e-04  9.404468741878649e-19
-3.571727922301002e-02 -1.471730027532216e-04  6.371437376847163e-19
-3.225180222316532e-01 -1.387665848533768e-03  5.753850679523884e-18
-4.440392735429948e-01 -1.184822898316943e-03  7.914382165744897e-18
 1.237616661503495e-01  2.846496410067124e-04 -2.205411145706872e-18
-4.402138496651128e-01 -2.037979396035848e-03  7.855070058832779e-18
-1.656035907488216e+00  8.855674719818215e-03  2.938014555943270e-17
-1.661389905041864e+00 -9.245860639056965e-03  2.966141299878863e-17
 1.364507632378771e+01 -8.463054111641940e-01 -2.341349289926540e-16
 4.465245850739311e+00  1.219745234722517e-01 -8.071762016751483e-17
-7.308244041397352e+00 -2.602964439958365e-01  1.327333717145394e-16
-6.898803224302102e+00  6.093434711095896e-02  1.221463542863532e-16
-9.759472728742153e+00  3.204521105914870e-01  1.703889297022441e-16
 1.247885251867315e+01 -1.682799589613231e+00 -2.047859114150868e-16
 2.088642683322433e+01  5.506667077089509e+00 -4.282778835304126e-16
-1.830824818080867e+01 -1.542770564008525e-02  3.259756293225866e-16
-4.389903734783708e+00  8.578817761863064e-02  7.724213109153443e-17
 2.292305035383461e+00 -8.546060750535331e-03 -4.070649479476438e-17
 1.043688720722862e+00 -1.065683731510926e-03 -1.856273623780691e-17
-1.670885979272708e+01 -1.199452171796293e+00  3.096780264195057e-16
-1.907661116361023e+00  1.163266750183089e-02  3.382958367184776e-17
 2.771850779738256e+00 -6.318645167404081e-02 -4.867917313322178e-17
 1.833147185831377e+00 -4.239496938635384e-03 -3.257948154300983e-17
 5.392513747879776e-01  7.798610443963093e-04 -9.604634250775262e-18
-2.610489601950923e+00 -2.470255850900767e-02  4.671058618780537e-17
 6.164269557515717e-01 -1.471488386270248e-02 -1.081886289514571e-17
-1.811254454767743e+00 -5.360784734176648e-02  3.278423465148553e-17
 2.326741664991856e+00 -1.073540528296300e-01 -4.030411959972210e-17
-8.271143166836845e-01 -1.614867749340305e-02  1.488540767597191e-17
 3.218705618382830e+00 -2.478918381882531e-01 -5.473370743262255e-17
-2.687324254303856e+00 -1.057017261026022e-01  4.891018749712553e-17
-2.415051103640963e+00  2.179717014248651e-01  4.073913508864331e-17
 1.037420401198543e+01  1.125470280937459e-02 -1.847369731785550e-16
 3.085812997551632e+01  6.514165383561699e+00 -6.160879146761983e-16
-1.580819781976036e+01 -9.748861820004620e-01  2.913423382706031e-16
-7.542418272846168e-01  5.456821746910781e-02  1.286196441252492e-17
 5.799957457798017e+00  4.546261162896068e-01 -1.078882795846805e-16
-5.333987075581023e+00  1.610563312846486e-01  9.326986731982163e-17
-2.900334151600541e+01 -1.628173168755549e+00  5.328779465626925e-16
 1.334561238374854e+01 -1.843618626629065e+00 -2.185585799327698e-16
 7.128146516308962e+00  9.604022389675437e-01 -1.367216541299678e-16
-7.865136161906000e+00  8.544269684116919e-01  1.311905531735943e-16
-8.566952317420886e-01 -2.988910296303017e-02  1.555301322700093e-17
 3.570122229709404e+00 -2.738284673643447e-01 -6.072109564146923e-17
 2.488393244317645e+00  6.839021342793724e-01 -5.131077201482007e-17
-3.212940551532203e+00  1.840370747601307e-01  5.528719556820557e-17
-3.145686750840826e+00 -2.724324123822064e-01  5.878039210527152e-17
-2.874460389068163e+01  1.363452757202751e+01  3.714546962419086e-16
 1.322930067227077e+01  3.803331557208895e-01 -2.393389709448989e-16
-2.081410348407376e-01 -9.803666087555129e-04  3.714190905312377e-18
-2.001996879998010e-01 -4.192615899491912e-04  3.567100012272972e-18
-5.097660219518722e-01  5.490092586730937e-04  9.066253532091359e-18
 3.010714668265074e+00 -8.724857247971103e-03 -5.348961410237245e-17
-1.380431434713125e+01 -1.683699625985797e+00  2.629636424575307e-16
-2.195082896209218e+00  9.336826346232421e-03  3.896818602950588e-17
 1.691783951516772e+00 -5.983084110381220e-03 -3.004583943284556e-17
 1.549837230849835e+00  8.919993496740917e-03 -2.767285192895748e-17
 3.520416654242189e+00  3.400214871279750e-02 -6.299937339161560e-17
 1.186578944939769e+01  6.320004397346092e-01 -2.176594522247792e-16
-1.225627182607936e+00 -1.867599921445580e-02  2.200338680768970e-17
-1.849904506176398e+00  1.639440414015331e-02  3.275281078404739e-17
-6.184510066711848e+00 -1.257478602316663e-01  1.113527474302970e-16
 4.180495516774632e+00 -1.518822571176230e-02 -7.424085089488505e-17
 5.764678320187619e+00  3.008591815116320e-01 -1.056805458528582e-16
-1.644651856797387e+00  7.683455548438907e-03  2.918959690585558e-17
-3.507977193234093e+00 -1.025351670694086e-01  6.348215020692792e-17
-1.668883561640967e+01  1.464221763848109e+00  2.819533903299878e-16
 1.334209329276242e+01 -1.704557200934494e-01 -2.356870945801429e-16
 1.258345164631235e+01  6.611355651607913e-02 -2.246168249062006e-16
-1.604140819816244e+01 -5.085222877500203e+00  3.377248115331285e-16
-1.639588011600738e+01  2.887900290377858e+00  2.621121179874292e-16
 1.184946809644706e+01  1.485452785588456e-01 -2.124016681228815e-16
 9.666554557524014e+00  1.213333426677058e-02 -1.721525346297517e-16
-8.813754396380611e+00 -8.824079120522794e-01  1.659176936531435e-16
-1.682704699782840e+00  8.607848136380861e-02  2.906131220675426e-17
 1.609656295204153e+00  9.515348810634418e-02 -2.962342137129333e-17
 5.660664316859437e-02 -2.952885491581296e-03 -9.770428999179420e-19
 6.846169203689126e-01  5.115660734106775e-02 -1.270919030083522e-17
-7.717703571875376e-01  1.124870322108474e-02  1.361899776789437e-17
 1.462415556199820e+00  8.792568541645532e-02 -2.692883373042818e-17
-1.629947240628372e+00  1.272002321799796e-02  2.887616181546596e-17
 1.564321767153742e+00  6.860525689215309e-02 -2.854386594425486e-17
-9.203372893671313e-01  1.267854134617178e-03  1.636547313654181e-17
 5.090866641675380e+00  1.124571297152892e-01 -9.175350064952014e-17
-5.362969132172374e+00 -2.053900550100148e-01  9.755074106716356e-17
 6.166086268205119e-01 -8.770904149879979e-03 -1.088316817772069e-17
 1.751674528595357e-04  2.224947524372906e-03 -2.597784324980164e-20
-1.476429518487050e+01 -5.676453888834894e-01  2.685805944696029e-16
-2.267426447469174e+01 -2.331522186225455e+01  6.430710180492789e-16
 1.548922186586141e+01 -4.367789927632516e-01 -2.711614338338372e-16
-7.491808428168004e-01 -4.603018880042442e-02  1.380551022720452e-17
-2.238267146845400e+00  1.689783111748734e-01  3.809644301833873e-17
 1.370084284199079e+00  1.182873823585644e-01 -2.559764405375684e-17
-9.394470496725241e+00  1.370784021797808e+00  1.531015007619863e-16
 9.259478122373388e-01  7.258337819265638e-02 -1.722411366918345e-17
-5.479783039047533e-01 -1.016512822011644e-02  9.856370564716049e-18
-1.339197286282428e+01 -1.188546575116128e+00  2.505380159100395e-16
-2.468996834585944e+01  1.871329938124111e+01  2.471150857193524e-16
 1.331579985399994e+01  3.540572325135257e-01 -2.406083514940028e-16
-2.889640185765838e+00  5.504473826772279e-02  5.085902925139372e-17
 1.476561570836376e-01  1.501946886463381e-04 -2.629260703463265e-18
-8.387724573085437e-01  1.058247873152528e-02  1.481822527715493e-17
-4.168932285537293e+00  5.879982323439313e-02  7.358697607644787e-17
-2.187185177377830e+01  1.855892887334641e+00  3.701670667702719e-16
 2.262068221443858e+00 -4.033683950302049e-02 -3.984175592027738e-17
 2.660554680553529e+00  1.796555106487236e-02 -4.753233371096636e-17
-2.462123621049791e+00  2.306651673809553e-02  4.357942668612673e-17
-1.558737652565839e+00  3.229443537733172e-02  2.740778225883955e-17
 1.315795528515040e+00 -1.829182526696688e-02 -2.322820908956056e-17
 2.927599020610994e-01 -3.214387525947346e-03 -5.176985009695629e-18
-3.905663167751703e-01  4.231851806985255e-03  6.907112751375186e-18
-4.875591345709452e-01  6.326165087336521e-03  8.611697332446547e-18
 5.309446305820740e-03 -7.511121901869524e-05 -9.371622175667472e-20
 6.639002374375660e-02 -7.670167295190589e-04 -1.173608849548842e-18
-3.372087017878114e-02  4.041468071231451e-04  5.959506323199652e-19
 4.813804323342734e-01 -6.141609341599268e-03 -8.503636201189638e-18
-7.840322278019731e-01  6.346140874919100e-03  1.388758442911251e-17
-2.138618222608319e+00  5.671139874998624e-02  3.747657328883643e-17
 7.646453694417056e+00 -1.389350457728218e-01 -1.346502573917897e-16
 3.016833756719764e+00  1.797638440289626e-01 -5.553516348350640e-17
-2.569329839501886e+00  8.165349400716525e-02  4.488532930520672e-17
 1.592292238879245e+00 -8.674954584007971e-03 -2.824760773962535e-17
-2.545240071530156e+00 -3.498339120367955e-02  4.565502475020119e-17
-1.329677234949946e+00  2.585992407363184e-03  2.363662236337187e-17
-3.533477160094181e+00  3.849959068865288e-02  6.248687163782121e-17
 4.900712416875538e+00 -3.048005555869812e-01 -8.408230824528896e-17
 1.790097559626580e+01  2.023992669681360e+00 -3.393650032368174e-16
-9.737076077517402e+00  6.250936645910067e-02  1.726406225688732e-16
-7.026654550072627e+00  5.655360389814459e-02  1.244666316334132e-16
 7.640933054572750e+00 -4.244975079064915e-01 -1.316179605059153e-16
 9.474159005631487e+00  3.859891500020017e-01 -1.725698590408357e-16
-4.996331551527596e+00 -4.469834243061269e-02  8.937493903246857e-17
-6.991246601816696e-01 -3.134632194537389e-04  1.244497799425953e-17
-3.124569290769198e+00 -1.314525552562484e-02  5.574050037599598e-17
-7.661753020552435e+00  2.788905389846175e-02  1.360634843732139e-16
-2.483524283429660e+01  1.223224756337361e+00  4.294045807766633e-16
 1.858059656083616e+01 -3.692543897623646e+00 -2.927243323877976e-16
 2.601741508404609e+01  4.131244983248592e+00 -5.054579775563839e-16
-2.417815447563696e+01 -1.388352859892418e+01  5.729273125196558e-16
-2.151326904799846e+01  1.214348055751385e+01  2.580844332961209e-16
 5.840608978711876e+00  2.469295375960315e-01 -1.064777149889339e-16
 1.909949038384237e+01 -4.872530536724354e+00 -2.898347328750265e-16
 1.831797378761630e+01  6.854190851494320e+00 -3.964145150805944e-16
-1.975451807371604e+01 -9.804598373923699e-01  3.616290818199448e-16
-4.319708284893349e+00 -6.684972586220649e-02  7.756121831290248e-17
-1.024076353482767e+01  1.428859987110818e-01  1.807785009915506e-16
 5.353480099300677e+00 -5.091309241506143e-01 -9.004042894085702e-17
 7.760451303564126e+00  1.890915754192590e-01 -1.400493351966147e-16
-5.273718493562904e-02 -1.718020477726885e-03  9.561732482805181e-19
-2.283344091168077e+01 -8.673243406490209e-01  4.152597602846566e-16
 1.863088827548177e+01 -1.296989225141755e+01 -1.982979494111284e-16
 2.051563897999374e+01  1.167922245261315e+00 -3.771002444053560e-16
-2.074265507419339e+01 -6.952822086757999e-01  3.762840620667365e-16
-9.971257100143669e+00  1.613361539204302e-01  1.757927438724585e-16
 1.076480958319168e+01 -8.032992832334906e-01 -1.833190189272737e-16
 1.420682183975207e+00  2.678420390139137e-01 -2.803471380249817e-17
-8.620440073780314e+00 -2.045509801867972e-02  1.536211826473193e-16
-8.067151159045924e-01  5.483031078756464e-03  1.430012161966874e-17
-4.193107392783672e-01  6.960745596063038e-03  7.390615644878477e-18
 1.125422004226982e+00 -9.988563621298458e-03 -1.992559815767511e-17
 4.027267610671711e+00 -1.470079245176424e-02 -7.151898573161059e-17
 4.358672422553833e-01  1.053071183588797e-02 -7.864976766050379e-18
-2.627709984854072e+00  3.682067555077330e-02  4.638491456189428e-17
 3.682561046028926e+00 -5.845053937434833e-02 -6.493500846006300e-17
 1.579244459856634e+00  5.454510907012848e-02 -2.866497013730911e-17
-2.772805992157066e+00  1.723223629564248e-02  4.916833518330026e-17
 4.689007161596816e+00 -6.777515037377978e-03 -8.337683918863779e-17
-4.949954523860379e+00 -2.433976469136646e-01  9.059116768072325e-17
-5.258410368643452e+00  5.660629795529076e-01  8.776359348139984e-17
 7.671413833893019e+00  3.382267413898151e-01 -1.399971168523331e-16
-2.428244518323106e+01 -2.196151543847385e-01  4.343915431155858e-16
 1.975985636101521e+01 -2.995349496694919e+00 -3.208740864035211e-16
 1.037040219364894e+01 -8.610569306323104e-02 -1.836689725828860e-16
 7.152194784717852e+00  9.154630290071758e-02 -1.282224426472478e-16
 1.214894400812186e+01  4.769991714196891e-01 -2.211059436119042e-16
 2.979932852148433e+00  7.473340027643468e-01 -6.071004510141293e-17
-1.308645870930060e+01  4.569881663643092e-01  2.281937554224839e-16
 3.584952741178164e+00  5.496337166357278e-02 -6.436323898701713e-17
 1.226661710478142e+01  1.451131745299941e+00 -2.332089350570558e-16
-3.030096995163829e+01 -4.359671267391924e+00  5.840359431231003e-16
-6.876028544253186e+00 -3.160633858132884e+01  4.471107766550610e-16
 3.008241982120613e+01 -7.920728513893589e-01 -5.272142835048205e-16
-4.076209428632538e+00  1.207642159923935e-01  7.130020058429295e-17
 1.784539261985419e+00 -1.607106645694030e-01 -3.010676112928428e-17
 2.773359386550904e+00 -6.078394727107308e-02 -4.873070548936459e-17
-2.633320964000680e+00  4.117970848272182e-02  4.643998114951061e-17
-2.745367644102040e+00  4.696910230479349e-02  4.837450155621378e-17
 3.878981595806031e+00 -1.745320315635836e-01 -6.723785130040288e-17
 2.852219719675647e+00  3.917801411609895e-02 -5.116119202525336e-17
 1.013731408234180e+01 -6.731069125332374e-02 -1.797140034643906e-16
-2.444430787823952e+01 -2.363206911956091e+00  4.592967094426605e-16
-1.702069111515367e+01  1.703077583297044e+01  1.279184665200197e-16
 3.144546347461731e+01 -1.680457909006983e-02 -5.594368710965636e-16
-6.677021765662967e+00  2.692571669321939e+01 -1.578263905374366e-16
-2.287881169473195e+01  4.597022858684227e+00  3.599230050434559e-16
 7.393929180828017e+00  1.875844299108997e-01 -1.335111514286461e-16
 4.239614250618882e+00 -2.729805614434366e-01 -7.264421666756096e-17
 5.718408432939563e+00  1.066502053960037e-02 -1.018754784402977e-16
-2.977750570540201e+00 -1.892585437507112e-02  5.318707967228959e-17
 4.421730705479798e-01 -5.226566439283462e-03 -7.815296163852742e-18
 1.230349451354120e+01 -7.106964358285212e-03 -2.188823395358210e-16
-1.259839739839344e+01 -1.558581508736604e+00  2.402173684123795e-16
-1.105680275458035e+01  4.199285079393317e-01  1.924543811910034e-16
 1.419010806950885e+01 -1.138687212411801e+00 -2.408303022098579e-16
 8.798557645440898e+00  4.717928750363253e-01 -1.614283289984115e-16
-8.348133208138334e+00 -4.330893316553306e-01  1.530148240036663e-16
-2.568547722277651e+00 -5.243942436258586e-02  4.624916663087442e-17
 3.993543689338068e-01  7.223601571535371e-03 -7.181207247463758e-18
 2.165963156183151e+00  2.892673874588954e-02 -3.884310973606272e-17
 1.504339917074768e+00  3.261814826287223e-02 -2.710666288991070e-17
 3.631588169253871e-01  8.152808902800904e-03 -6.546611488540716e-18
-1.797347473679290e-01 -4.157836961410442e-03  3.241314489012855e-18
-1.054773697304216e+00 -2.179621240030600e-02  1.899490428730103e-17
 1.060266653133783e+00  1.078819015600893e-02 -1.897955455917205e-17
 3.736404030902087e+00  1.197140557201467e-01 -6.772378510547636e-17
-3.148089671061699e+00 -1.012215155572559e-01  5.706402517473573e-17
-2.516053248447035e+00 -4.146633649520886e-02  4.520222035715707e-17
 1.244080024975861e+00  1.818446855514921e-02 -2.232672684621843e-17
 8.344307129212520e-01  1.890035640788125e-02 -1.504388417799161e-17
-9.226780939897882e-01 -2.138268669584224e-02  1.663985663404961e-17
-1.726338258899674e+00 -2.867073969149155e-02  3.101682999409526e-17
-2.663798303343737e-02  1.788831176037698e-03  4.556750923052862e-19
-5.733197607798419e+00 -8.906768258072806e-02  1.029442283196848e-16
-6.098059033051750e+00  4.852349369553286e-01  1.035366218155693e-16
-2.580208044540778e+00 -1.100833804452842e-01  4.704894666199090e-17
 8.097043455290084e-01 -4.639029830013303e-02 -1.393301120356346e-17
 3.570052935765677e+00  1.766719429835111e-01 -6.534859053671737e-17
-1.054756657297936e+01 -4.834347846087939e-02  1.882032404279690e-16
-4.602775046329527e+00  3.277622988554387e-03  8.187819591524582e-17
 3.916550436413739e+00 -9.605240056854250e-02 -6.871278340463343e-17
-5.571124165054688e-01 -7.455497302747575e-04  9.922140241615362e-18
-1.307702451102394e+00 -8.252486718046834e-03  2.335691630445084e-17
-2.512683927914977e+01 -2.598005430745980e-01  4.498314334416830e-16
 1.858367702329024e+00 -8.129417296240980e-02 -3.223660192238508e-17
 5.168878428249013e+00  4.364550950803779e-02 -9.243479904709221e-17
-5.078150758547308e+00 -1.143371876001954e-01  9.154652325955379e-17
-2.265161468341933e+00  7.161966270602030e-02  3.957538428636735e-17
 2.604837222261712e+00 -5.829028876087391e-03 -4.629629437837608e-17
-2.117409751438252e+00 -8.638980870000740e-04  3.769070850724813e-17
-1.606668813720545e+00  2.181517442325912e-02  2.836844505189855e-17
 1.765122100899117e-01 -7.899743147932404e-04 -3.133128630485639e-18
-7.009613809021222e-01  3.096826952893681e-03  1.244262514604744e-17
 6.258988684569033e-02 -1.028670383212499e-03 -1.103292478757321e-18
 7.262056552083158e-01 -1.198884055070364e-03 -1.291137778574818e-17
-2.489226349748242e+00  7.189609622139293e-03  4.422488152335313e-17
-5.679956382223687e+00  6.879843244551694e-02  1.003747202139740e-16
 2.861045665985586e+00 -1.830885423985314e-01 -4.903455210816205e-17
-2.415467667922169e+00 -2.227747748401453e-02  4.321502142070668e-17
 3.685529368156478e+00 -1.803636683454597e-01 -6.373522018540885e-17
 1.280354524922109e+01  8.928078050709952e-01 -2.370276362241597e-16
 2.186871478657973e+00  3.073641700974428e-02 -3.923379207459150e-17
 3.007110133553792e+00  7.227025658462612e-02 -5.425766247447672e-17
 3.031389695053689e+00  1.323792385199925e-03 -5.396079708242723e-17
 1.240417378597165e-01  8.274282919745295e-04 -2.215972212114486e-18
 8.910146365051146e+00  1.149916458354392e+00 -1.703816568487651e-16
-3.203377253284875e+01 -1.393042926190453e-01  5.715104944905225e-16
 2.300491343243855e+00  1.762841238738634e+01 -2.220655209319916e-16
 1.343386286077884e+01  1.239531184801832e+00 -2.518073467363908e-16
-1.407926903867407e+01  5.067789332914304e+00  1.984876925149648e-16
 2.540198503255786e+01  8.769904709941895e-01 -4.610693827505134e-16
 7.550137051725195e+00  3.514834548002295e-01 -1.379750597790883e-16
 2.391489321630461e+01  1.781317765196400e+00 -4.438964444384681e-16
-5.906580315400011e+00 -4.889080422120932e+00  1.553481676088402e-16
-1.664899961918032e+01  4.162880223152577e-01  2.920115996614558e-16
-1.120620752675016e+00  2.449772875820292e-02  1.969107776400621e-17
 4.273392310988656e+00  2.920074318952722e-03 -7.608011636438880e-17
-1.833332249271373e-01 -3.138863457195028e-03  3.294884106569788e-18
 4.325006978458709e+00  6.610835794107353e-03 -7.703658215259690e-17
-6.904733743334138e+00 -2.653087129098652e-01  1.256039238732766e-16
 8.016484058210869e+00 -5.913356848683990e-01 -1.365871368773547e-16
 2.922453004990619e+00  1.071141787983273e-01 -5.310909652489656e-17
-2.022110540999106e+00  2.111202861151511e-02  3.576895085374780e-17
-6.725630481692036e+00 -2.869322575523275e-01  1.226387417597429e-16
 6.516777958978088e+00 -5.713892975547736e-01 -1.101030198616466e-16
 6.582028168233111e+00  2.109354251362329e+00 -1.388078913026043e-16
-4.380035934510547e+00  3.608115370418010e-01  7.424075668850054e-17
 4.659859107968615e-01  9.448551792554013e-03 -8.389855572145716e-18
 6.608275073478737e+00 -1.037709489348788e+00 -1.069400495355593e-16
-1.044318601406898e+00 -7.342662004619623e-02  1.933932705824824e-17
-1.763775109489152e+00  5.843536765995932e-02  3.078807980672668e-17
 7.670193409503913e-01  7.509466807603064e-02 -1.442159469195447e-17
 1.344519220419547e-01  1.928567583741666e-03 -2.412547658369944e-18
 2.687747160564102e+00  1.640983907360148e-01 -4.951771814980139e-17
-8.635843559514020e+00  5.994880141339884e-01  1.475256156603112e-16
 1.544811046841461e+00  5.603743496294267e-02 -2.806751958316271e-17
 5.629633115184105e+00 -1.691307199388264e-01 -9.844827986714430e-17
-1.249276350260051e+01 -1.417048321687931e+00  2.368832851243744e-16
-3.761466064752955e+00  2.390794519164920e-01  6.448332095385579e-17
 6.011463901115073e+00  1.182350167511059e-01 -1.081959927054856e-16
 8.532067977506269e+00  4.020463375148770e-01 -1.559692071358989e-16
-6.423699843531949e+00 -1.510120443737663e-01  1.158689950308095e-16
 8.946425229976392e-01 -2.113473222167523e-02 -1.570407920583851e-17
 7.085169393682560e-02  4.560631107806297e-03 -1.307749236461902e-18
-5.451529019548462e+00  1.119565581241963e-01  9.586614875796196e-17
-4.400885771882624e-01 -1.157749475158075e-02  7.950855736364551e-18
 1.996229657563274e+00 -2.631721798709467e-02 -3.525488808879758e-17
 1.332626731567712e+00  4.142894296628346e-02 -2.414134961449409e-17
-5.872553167344161e+00  7.521445650987302e-02  1.037362873097939e-16
-4.853968285873545e-01 -5.724521329121711e-03  8.697032944550186e-18
 7.824104138753869e-01 -9.776825501747110e-03 -1.382347329960516e-17
-6.527638713289697e-01 -1.621062974065020e-02  1.178327005814846e-17
-6.542668225780665e-01  6.877404611088291e-03  1.157279570940955e-17
-6.415203820581838e-01 -9.960446802904132e-03  1.151896040573899e-17
 2.567498702891405e+00 -9.318933346425214e-02 -4.473421527324788e-17
-6.594761031394935e-01 -1.450759499752665e-02  1.188522416346023e-17
-3.610112801000590e-01  1.383905493278657e-03  6.410407235591745e-18
-1.839963342222292e-02  3.616183846791933e-05  3.270718860076784e-19
 2.677993147737858e-02  2.419361424312588e-04 -4.790666282471189e-19
 3.021741602207419e-01  5.583829525569225e-03 -5.434921448610611e-18
-6.841539792322685e+00  3.951554821973687e-01  1.176932821638413e-16
-2.669498792446955e-01 -3.690399799034486e-03  4.788609047387639e-18
-2.692849963814780e-01  8.666965225827615e-04  4.783342733209412e-18
-2.523303804771402e-01 -4.780130352170027e-03  4.539634216132459e-18
-3.780350063755010e+00  1.133553652608245e-01  6.611115355001827e-17
 7.038581232358139e-01  8.088952917295561e-03 -1.260910593284978e-17
-1.656039738909570e+00 -3.531060361458862e-04  2.947483046027317e-17
-3.226413826427653e+00 -2.364649537941700e-02  5.766084180679100e-17
 1.142838046424897e+01 -6.747686050030332e-01 -1.964486602853755e-16
 4.217820339247531e+00  8.527250275175568e-03 -7.514875853399050e-17
 3.449674408888019e-01  3.154852094492052e-03 -6.171522057712522e-18
-2.431119343225438e+00 -3.878092168014854e-02  4.366312853474756e-17
 2.751803668116896e-01 -1.934939355645612e-02 -4.698354864096769e-18
-1.755602104605556e+00 -3.093124570714227e-02  3.156084090785168e-17
 2.768027198781986e+00 -1.290072805735260e-01 -4.793484291666767e-17
-4.553514948131134e+00 -3.613875060545406e-01  8.474835547523743e-17
-1.987771294747099e+00  1.259828392295649e-01  3.408033337505180e-17
-1.026606031818909e+00 -2.334835075231518e-02  1.850957473496479e-17
 5.824896285260810e+00 -4.117189615982631e-01 -9.943071481933332e-17
-2.088133156564509e+00 -3.708338018131830e-01  4.097100288219056e-17
-1.247537129193739e+01  1.830053359949140e+00  2.032109798412569e-16
-3.785065020670270e-01 -1.383767711588386e-02  6.878151794160053e-18
 1.185635216726741e+01 -1.592704871752917e+00 -1.946334656169367e-16
-1.233901587931295e+00 -6.842653715307499e-02  2.266180840144725e-17
-3.132897625022120e+00  2.415886183613664e-01  5.327141499912656e-17
-5.685400220729722e+00 -7.186031325960486e-01  1.085618648070207e-16
 2.194135057498320e+00 -2.172286529347451e-01 -3.681530512802713e-17
 8.155116536850454e-01  8.195733433103680e-02 -1.535508451687206e-17
-6.137667013741870e+00  1.165718152542500e+00  9.724977525207250e-17
-8.385114544456346e+00 -6.928872317724029e-01  1.563422800515270e-16
 5.973178931756910e+00 -6.466470008204733e-01 -9.965578113229311e-17
 7.900446333749039e+00  8.310096493257459e-01 -1.491361887673837e-16
-1.633917475416322e+01  1.923537675896120e+00  2.710114539739403e-16
-3.719563224449821e+00 -2.011186395826167e-01  6.826048541878191e-17
 6.914834159143376e-01 -1.415787269991599e-01 -1.085110222916229e-17
 4.944924646698769e+00  1.256677846241669e+00 -1.009127408251078e-16
-4.071037856260512e-01  4.282004728879468e-02  6.804937042312542e-18
 2.831160113272364e+00  3.782154807135282e-01 -5.426989804750299e-17
-4.214355960638606e+00  4.715003436169044e-01  7.015499663502695e-17
 4.640105723064153e+00  3.699861962525800e-01 -8.637769000115066e-17
-1.242455791218277e+00  5.335227850753509e-02  2.156280759247295e-17
-3.056122198681436e+00 -1.415174171692167e-01  5.584138005385331e-17
 1.258652443268464e+00 -1.390285277342683e-01 -2.097075402036306e-17
-1.452669822912005e+00 -2.461650799449810e-02  2.610491797523067e-17
-8.976054183082615e+00  7.684673465748765e-01  1.518438683886160e-16
 2.206388663903954e+01 -1.089558862070058e+00 -3.814583600013248e-16
 1.458104061386029e+01  3.724540925293804e+00 -2.977553156065215e-16
-2.858630069035128e+01 -5.546223314709742e-01  5.144258627399320e-16
 1.958938754328155e+01 -1.965113485076624e+01 -1.467082465759958e-16
 1.867783015039925e+01  1.837720133361127e+00 -3.512761740294587e-16
-1.530168069596668e+01 -4.363577400820504e-01  2.767950777534262e-16
 6.205271436786476e+00 -5.492771870728680e-01 -1.047865835710010e-16
 1.992708465611959e+01  1.309084608018397e+00 -3.680766101351867e-16
-1.544117163443679e+01 -3.357891063675231e+00  3.092951789607747e-16
-1.788704408445127e+01  1.154979166215202e+00  3.064542945280981e-16
 2.504792162819103e+01 -1.549248045436973e+00 -4.298396827464575e-16
 1.884456406197971e+01 -2.522073671904484e-01 -3.327701570106132e-16
-1.864408365826299e+01 -7.436623751900511e+00  4.082023157083089e-16
-2.692152039444036e+01  1.376695661527152e+01  3.376500904898589e-16
 2.945002373123720e+01 -2.103713483448875e+00 -5.024834097445812e-16
 4.999367021003295e+00  6.901686549093874e-01 -9.606093181642842e-17
-5.448971087132190e+00 -2.480292490709849e-01  9.951935069522426e-17
-2.636580164205171e+01  7.852331319916614e-01  4.611429053081772e-16
 1.804352720626865e+01  2.602033361278311e+01 -5.884555651603860e-16
 1.656650946353314e+01  5.157597088356599e-01 -3.001200408029313e-16
 6.411877567359226e+00  5.088537533067398e-01 -1.193352971196765e-16
 3.201234291486643e+01  5.856605418408113e+00 -6.298723204955562e-16
-1.610851315089243e+01 -2.449635744608945e+00  3.118393238379572e-16
-2.935993344913237e+01 -1.381345205096762e+00  5.366878577027508e-16
-5.989500022342753e-01 -5.062088239563834e+00  6.267014748490313e-17
 3.208029973885278e+01 -2.984019316057941e+00 -5.402474861545510e-16
 5.643365599237184e+00  8.461588948509549e-01 -1.091243977461476e-16
-1.314714288887348e+01 -4.751937782120486e-01  2.388515336344328e-16
-4.363398741499166e+00  3.604077853270644e-02  7.728157954851256e-17
 1.331121778352347e-01  7.018633110042622e-03 -2.441003891545560e-18
 6.096165726662093e+00 -6.125944044805279e-02 -1.078591223797118e-16
-5.763718462641048e+00 -2.016214019981879e-01  1.046438319172255e-16
-1.321032889102620e+00  9.185205031450279e-02  2.256560959231831e-17
-1.248333972115139e+01 -1.077466304421870e+00  2.332264958651394e-16
 2.023907251921904e+01 -9.386599195199686e+00 -2.637345406850441e-16
 1.270306827651057e+01  5.822326829196283e+00 -2.858885458233563e-16
-1.909111633100948e+01  7.156729144802596e-01  3.323959086176978e-16
 2.903937655718028e+00 -3.525074584823424e-01 -4.805714841057742e-17
 8.946196328779591e+00 -7.823142515644273e-02 -1.584044356082946e-16
 7.893815158014125e+00  2.347512021860020e-01 -1.428918401455354e-16
-8.970402426038943e+00 -2.323338855073773e-01  1.620261577204419e-16
 5.041984769494478e+00 -4.006149796072140e-01 -8.561195988324033e-17
-4.021460208870593e+00 -6.334064030656249e-01  7.807470207217738e-17
-1.331064775627922e+01  2.279220709350263e+00  2.134606895308428e-16
-1.969597587912707e+01 -3.006441891529159e+00  3.814034832640896e-16
 2.308406246368033e+01 -5.965135461978486e+00 -3.495188272780832e-16
-4.889845658690303e+00 -1.425550934679824e+00  1.016676543160788e-16
-6.581726290449695e+00  6.573151692932241e-01  1.103759957194130e-16
-3.529315311198015e+00 -4.574161360072671e-01  6.750816050836627e-17
-1.304301086081370e+00  2.794716264715165e-01  2.034012420408410e-17
 1.054525495447553e+01  3.848834388785873e-01 -1.916199282657558e-16
-3.131972069821838e+00 -3.254522419326320e-01  5.908108237135257e-17
-8.061731020469484e+00 -1.330150028126258e-01  1.448348007256696e-16
 1.656915672605859e+00 -5.054088527015526e-02 -2.896750159667015e-17
 5.152222391681404e+00  3.491918613577152e-01 -9.527776277674503e-17
-3.294308353318812e+00 -6.062230792076887e-03  5.868843396354966e-17
 1.951352152863212e+00 -5.288073516484707e-03 -3.467230618965660e-17
 6.277671887318497e+00  2.093618274721326e-01 -1.138697760976994e-16
-1.208605300866089e+00  1.860038073630491e-03  2.148946178623349e-17
-9.220294394706667e-01 -7.620051640902939e-03  1.648690696561886e-17
 1.487796507758150e+00 -8.119458808270825e-03 -2.639368909164212e-17
 5.685317601486123e-01  1.053833425131008e-02 -1.022597839755445e-17
-8.591862779843674e-01 -5.561267257615764e-03  1.534738468936064e-17
-7.129426658696996e-01  1.523861847625227e-03  1.267200804110316e-17
 1.640725941514938e+00 -2.165259831589358e-02 -2.897620267608022e-17
 1.896124678917846e+01  2.864451490179968e-01 -3.403811242613261e-16
-1.539191221371057e+01 -1.750386782142948e+00  2.919020263021629e-16
-5.047180127939831e+00  3.924506971795124e-01  8.578830250893108e-17
 4.390183326233116e+00  1.542267921869631e-01 -7.971317335125683e-17
 1.514171576472705e+01 -1.128932693444183e+00 -2.578655203724930e-16
-2.356955474169777e+00 -2.150560380940632e-01  4.415445681860415e-17
-6.317278184196494e+00  8.746253449250254e-01  1.034370430572738e-16
 9.482773313370159e-01  3.940615479435571e-02 -1.728061018291950e-17
 1.227640098429143e+01 -1.368742255945805e+00 -2.044098698817631e-16
-5.132014246504268e+00 -6.849720867234134e-01  9.836815456872445e-17
-3.328212159070536e+00  1.387544186332524e-01  5.780385415928806e-17
 5.397111203006763e+00  5.547614283490990e-01 -1.017480040149350e-16
 7.090839230899682e+00 -5.536819859772303e-01 -1.205010610902277e-16
 5.087933546149188e-01  4.531068039381024e-02 -9.520135446402183e-18
-2.923564254691905e+00  9.526819802857951e-02  5.104946713573634e-17
 4.666789593852527e+00  1.971614483995323e-01 -8.507684982285509e-17
 3.876494479988358e-01 -1.219331392589316e-02 -6.773402462766737e-18
 3.091263677571924e+00  1.798149729289100e-01 -5.686025806916188e-17
-2.596727804692664e+01  3.632159990980607e-02  4.617454964958758e-16
 1.092623306240317e+00 -7.124183019533977e+00  5.375385745067909e-17
 2.657126556612192e+01 -9.480705869516715e-01 -4.631262852281533e-16
-3.259495185035844e+00 -4.239516285149138e-02  5.844219977566632e-17
-6.141167909852992e-02  5.795045813672675e-04  1.086939881508660e-18
-2.653989054252376e+00  2.321801644146273e-02  4.699234432866686e-17
 6.477451056536211e-01 -9.837389563179319e-03 -1.142632120818678e-17
 1.215189661057948e+00  1.879828907663336e-02 -2.181889514542705e-17
 2.068880750101576e+00 -4.716222327312683e-02 -3.633362610397425e-17
-6.471647303427828e-01 -8.857853581753741e-03  1.160807957045982e-17
-1.161233861012137e+00  1.993349177409417e-02  2.046073233850877e-17
-5.043090253194322e-01 -2.480149831325446e-03  9.000263305676131e-18
 3.007417947465547e+00 -8.460399890600490e-02 -5.265131441055237e-17
 2.868101439974405e-01  2.209638944176903e-04 -5.106398959364330e-18
-5.140605327714207e-02  7.289569125622512e-03  8.399342688036155e-19
 2.182289252418933e+00  2.550742975309520e-02 -3.909851995184201e-17
-1.649641642477605e+01  2.972856747566485e-01  2.905189055858472e-16
 1.034525124665132e+00 -6.908865656110472e-03 -1.833962253001863e-17
 1.085659592959990e+00 -4.003138185406990e-03 -1.927947668558447e-17
 1.805685698771067e+01  9.038846019567442e-02 -3.222720190982558e-16
-4.123303334205472e+00  9.901500700060384e-02  7.236175805828540e-17
-1.153165235912553e+00 -5.456797863689950e-03  2.057801753350028e-17
 1.107361161800612e+00 -5.621841258440625e-03 -1.964905041221862e-17
 1.620031736240595e+00 -1.117132116244615e-02 -2.871561589109167e-17
 1.643945880120929e+01 -1.637959458951115e-01 -2.908768351844541e-16
-1.971134295622547e+00 -1.002355805441833e-01  3.610857022153829e-17
-1.217623370581440e+01 -1.696975813800204e-01  2.184341841306437e-16
-1.465999896463916e+01  1.628724837339963e+00  2.441576126206780e-16
 2.076144720304342e+01 -1.968191191177768e+00 -3.492522686285594e-16
 1.318137341997947e+01  1.315915047158617e+00 -2.480988123984872e-16
-1.025684218370054e+01 -4.875670942441414e-01  1.875423162387495e-16
-2.536159390490437e+01  3.311532511141231e+00  4.173150223375160e-16
 1.978056535478939e+01 -1.621968938366869e+00 -3.353536139764374e-16
 1.180252563894952e+01  5.486314565664184e-01 -2.156770112208485e-16
-7.707741012040180e+00 -4.016747923038986e-01  1.412955080089168e-16
-6.343813179291349e+00  1.821083248576839e-01  1.110246258186446e-16
 2.024986672395723e+00 -9.492456132076008e-03 -3.593952178840627e-17
 1.085295016009174e+00 -1.138340005920651e-03 -1.930242336652197e-17
 1.584042811246630e+00  7.795482459788770e-03 -2.827002708944084e-17
 2.975335465098602e-01  1.337303491976509e-03 -5.308704679144106e-18
 9.321854758114900e-01  2.749197108864045e-03 -1.661759949549696e-17
 2.300420684366934e+00  1.118901764830300e-02 -4.105369321288176e-17
 8.407016624726031e-01  1.960861675110922e-02 -1.516276030857074e-17
-1.838132603958883e+00  5.549884754413268e-04  3.270605998579941e-17
 2.645800939789619e+00 -7.756500991998930e-02 -4.628823146122291e-17
 2.072937708338216e+00  2.786670978178465e-02 -3.717671953144874e-17
-2.698105065306786e-01  1.937067561701298e-03  4.781697138047607e-18
 7.827530031006807e-01  7.115988240592591e-04 -1.393733481069127e-17
 2.141770456546313e-01  1.617163134225649e-04 -3.813197589222833e-18
 4.522360253943166e-01 -1.972702037117409e-05 -8.047876845583692e-18
 1.254480028361637e+00  1.739340830486037e-03 -2.234283959202484e-17
 1.797008856649349e+00  5.563134213630450e-02 -3.255150798321189e-17
-1.963902437185335e+01  5.445845153135500e-02  3.489403242148094e-16
-2.114292928375360e+01  2.371928170865888e+01  1.325566436184149e-16
 1.844783311256352e+01 -3.698374178920965e-01 -3.245012505017772e-16
-8.814360185367259e-01 -8.506870689754538e-03  1.577361036246214e-17
-1.296033126842610e+00 -7.692114583965411e-03  2.314348912922018e-17
 6.457047590525595e-01 -2.453427878400560e-02 -1.123900560995440e-17
-1.048477945730871e+00 -9.359421515703086e-03  1.875508035118562e-17
 1.395629540585137e+00 -6.012174737082163e-02 -2.421916327709310e-17
-1.228769273532653e+00 -2.975356031878411e-02  2.217312197486026e-17
 2.573045400083170e+00 -1.639596621545067e-01 -4.410578619014152e-17
-1.462718543665908e+00 -6.128813894862712e-02  2.666053463698681e-17
 1.202451695482252e+00 -5.450090544830014e-02 -2.083908525814776e-17
-1.513661662745914e+00 -6.833633468346025e-02  2.763954585927750e-17
 9.713270875854796e+00 -3.752079217989512e+00 -1.343079905405984e-16
-1.168196790238001e+00 -1.170307553767427e-01  2.199190388505746e-17
 2.471728786181455e+00 -4.031980404780141e-01 -3.984464873934135e-17
-1.880270387747947e+00 -2.346698597188892e-01  3.587280198762751e-17
 6.107953371415744e+00 -3.653720113886357e+00 -7.115766919760653e-17
-1.725753497265945e+00 -1.527749804998961e-01  3.228154946747249e-17
 3.792913165214371e-01 -6.442514553903568e-02 -6.087996450256215e-18
-5.258688625118209e-01 -2.089306512696144e-01  1.150515023017497e-17
-6.731109507847545e-01  1.396499313195214e-01  1.054395997154806e-17
-2.758714606607412e+00 -6.050213067243176e-01  5.531099129092337e-17
 3.430858023772420e+00 -1.162165096283482e+00 -4.911538681412085e-17
 3.947654004361713e-01  2.650716328174810e-02 -7.297672664987978e-18
-1.242728383323139e+01  4.541561424680866e+00  1.744954459678891e-16
 3.027238071964937e+00  3.314784753318904e-01 -5.727913340504826e-17
 7.479125321492543e+00 -1.898961628755728e+00 -1.135888156047829e-16
 4.067434758488101e+00  1.519813364569968e-01 -7.394640637488158e-17
-2.513109483112826e+01  8.556149848237695e+00  3.593264784558149e-16
 3.225028226992657e+01  4.296972539979093e+00 -6.180820744152837e-16
 8.425072852914479e+00  3.264825736913236e-01 -1.532887110527110e-16
 5.718175171473352e+00  6.027566022729564e-01 -1.079548531695420e-16
-7.144904006224075e+00 -1.569357280848152e-01  1.287645471233125e-16
 2.782890639852769e+00  9.344074027771621e-02 -5.048492815524585e-17
-1.983186291587647e+00 -8.680097761063200e-02  3.618501421152241e-17
 2.563519382349602e-01 -7.965850966489959e-03 -4.480242338129000e-18
-7.488769143958440e+00 -4.365324509293478e-01  1.377567921634996e-16
 2.870154756280651e+00 -8.670190013830452e-02 -5.018699702035079e-17
 5.062812819382239e+00  7.161685876135364e-01 -9.745716520748340e-17
-3.624850666792012e+00  7.073991977389514e-02  6.378171451606996e-17
-3.439553223051104e+00 -2.290294190613832e-01  6.356414654955543e-17
 2.706951844838428e+00 -3.728222896363645e-01 -4.434282366474644e-17
 2.396828030640663e+00  1.685965695388815e-01 -4.438668233602177e-17
-1.586162014080238e+00  3.483108212688334e-02  2.786976842062998e-17
-8.724360566896067e+00 -8.502898938266905e-01  1.639968228549386e-16
 3.321895533560880e+00 -1.464684197409871e-01 -5.761218371543026e-17
 4.577720941885387e+00  2.678624683998617e-01 -8.421819421916209e-17
-1.035930617717813e+01 -2.362941752903858e-01  1.867840471529852e-16
-8.028412382300001e+00 -1.754344103834783e-01  1.446776998254037e-16
 5.341962920123283e+00 -9.986185055301321e-02 -9.404055806685075e-17
 6.972699870228483e+00  1.103145171137301e+00 -1.354219274198226e-16
-5.865864252955047e+00  6.042963687206454e-02  1.037691588846089e-16
 8.133275980348336e-01  3.223561412658712e-02 -1.480534400137046e-17
 1.750490218395557e+01 -2.352530669801604e-01 -3.091034751256665e-16
-7.364531153078888e+00 -6.690055046193948e-01  1.379344051286236e-16
-2.061605847337650e+01  6.979405423383005e-01  3.597162666904425e-16
 2.542183547991584e+01 -4.144997040644967e+00 -4.098235478028729e-16
 1.067670778320343e+01  2.171671396382752e+00 -2.123178852998659e-16
-2.512627897226452e+01 -1.541313478132815e+00  4.629885420949235e-16
 1.495215308240707e+01 -1.456180340694434e+01 -1.164741595754226e-16
 1.881964732368031e+01  7.671925466099658e+00 -4.137443201954588e-16
-1.794745958340365e+01 -1.668730085350729e-01  3.211110113352937e-16
-1.366402572052295e+00  1.367258469466011e-01  2.291195527302528e-17
-3.059862471583601e+01  1.583890902422474e+00  5.282651225314982e-16
-1.263857661735587e+00  2.702559191556939e+01 -2.551862846444238e-16
 1.814548242854660e+01  2.767274123738458e+00 -3.513532408816185e-16
-1.676592692852360e+01 -8.893440542140393e-02  2.992834375230194e-16
-1.185292939648684e+01 -1.586278178090814e-01  2.125668604960193e-16
 7.116083669631289e+00 -5.126357133665598e-01 -1.213720515417859e-16
 5.592191967749033e+00  1.761258537310286e-01 -1.013293558412449e-16
 9.955166404680634e+00 -1.138334408454173e-01 -1.759944638713791e-16
-1.045700848455810e+01 -6.153635617422685e-01  1.924175766080238e-16
-2.256724828138958e+00  6.410683569056339e-02  3.950243579994417e-17
 8.255859469557567e+00  2.164610019771794e-01 -1.491469254040372e-16
 2.747674464533187e-01 -1.488992422599935e-03 -4.874515605476280e-18
-3.151143179226570e+00 -6.409556973939604e-02  5.673691038278757e-17
 9.657409240843094e-01 -5.511284386439911e-02 -1.662024723155132e-17
 3.593114852816840e+00  6.525094941951448e-02 -6.461419463357657e-17
-1.756552803617812e+00  8.385060745461730e-03  3.117379899572218e-17
-3.914740028840860e+00 -3.845530286345283e-02  7.006258275073719e-17
 5.545457727570444e-01 -1.222664641746497e-02 -9.743179160439338e-18
 5.480114814811100e-01  3.271438654582513e-03 -9.786130846697631e-18
-1.411074800658702e+00  2.601144548951631e-02  2.484450111415842e-17
 8.389013116297659e-01  4.872357791708841e-03 -1.497931122396480e-17
-8.551695815701829e-01  2.628358010368283e-03  1.519175736242542e-17
-5.422761886084294e-01  4.664286352749352e-03  9.602527807323223e-18
 9.238286528365756e-02 -2.498191626904220e-04 -1.641496500751473e-18
 4.329421934229091e+00 -4.614316950447378e-02 -7.657312339026789e-17
-1.071036772582258e+01 -6.135341991145263e-01  1.969076104483477e-16
-2.005911443589489e+00  6.540350004846991e-02  3.502558966816706e-17
 1.398778279150435e+00  2.197068665272576e-02 -2.511866880811018e-17
 8.624627173532385e+00 -3.745388986868646e-01 -1.496372773612219e-16
-4.692931663118722e+00 -1.945302060502098e-01  8.551504407450140e-17
 5.560151301337585e-01 -2.688142981544561e-02 -9.618755554718185e-18
-4.289317431147914e+00 -4.141879672135674e-01  8.058915104951245e-17
 2.705253761605201e+00 -1.868695838694574e-01 -4.622320053096537e-17
-1.234667426644100e+00 -4.991669083324363e-02  2.248525548674972e-17
 2.653295397908167e+00 -3.561842914231188e-01 -4.355889242417549e-17
-1.539139383468467e+00 -7.279683115773249e-02  2.813878228326463e-17
 1.762805769154039e+00 -2.060425497930994e-01 -2.925421907768987e-17
-7.486644543091674e+00 -2.244708337878460e+00  1.562973329352452e-16
 2.361320971301459e-01 -1.112752580545655e-02 -4.087921063096936e-18
-1.422057345658324e+00 -2.798388830023444e-01  2.818244963121052e-17
 5.279415042966882e+00 -8.696936155519197e-01 -8.501770223737150e-17
-4.335248756675538e+00 -7.631010011411086e-01  8.499150842910551e-17
-1.901738399524119e+00  2.451295150684355e-01  3.132508655754589e-17
 3.303951404401085e+00  5.972779718732457e-01 -6.493457050881406e-17
 9.746878425373129e-01 -2.371209177024660e-02 -1.710209968554217e-17
-3.830749715871727e-01 -5.043111615755846e-02  7.335437467510210e-18
 1.320786299963631e+00 -3.551169921048393e-01 -1.985626962581649e-17
 4.189259882502141e+00  3.596317568771047e-01 -7.824796238291265e-17
-8.137235176637782e+00  1.190256163787705e+00  1.325823567154341e-16
-4.479856742593216e+00 -6.237282904361334e-01  8.613297599153023e-17
 9.415030583397744e+00 -1.139568336975003e+00 -1.558430491890378e-16
 1.209781103594489e+01  2.269242366955353e+00 -2.386106191456300e-16
-1.039445189632178e+01  1.105219752142844e+00  1.736259389576383e-16
-1.251490931240769e+00 -1.229854989886641e-01  2.353540526065973e-17
 3.235604972021807e+00 -2.457620241385429e-01 -5.505633452102765e-17
 1.462423630526992e+01  2.748811848540029e+00 -2.884987727092279e-16
-7.187863840947714e+00  2.862975245604269e-01  1.249750079669799e-16
-4.727380517805171e+00 -1.458132952860260e-01  8.562755397708151e-17
 4.832418657742817e+00 -2.733481789271138e-01 -8.319010109327502e-17
 1.047104859959110e+00  1.840031226154449e-02 -1.882353653900997e-17
-3.836258090629055e+00  2.397848066879387e-01  6.580708694897821e-17
 3.342179909832261e-01  1.110050048116444e-02 -6.061861420522574e-18
 9.044439171146010e+00 -6.093241920237086e-01 -1.546959989272264e-16
 1.083194030120753e+01  2.581003982664029e+00 -2.192861770978326e-16
-1.200333686437525e+01  4.847177762860516e-01  2.086333985400434e-16
 6.164757983910858e-01  4.496846956745324e-04 -1.097554254287019e-17
 6.536110236636147e-01 -8.568355731945544e-03 -1.154375107623430e-17
 1.543299862880056e+00 -1.582339432508334e-03 -2.744860401143987e-17
-1.144993403727480e+00  4.521366235976225e-04  2.037187787576435e-17
-1.437888690042368e+00  1.877942150331040e-02  2.539599270798650e-17
 2.607866753108091e+00 -2.036446766102860e-02 -4.620086213216097e-17
-2.855533578416188e+00 -6.503337597906837e-02  5.148582054315042e-17
-7.475726278587164e+00  3.829178554734726e-02  1.326460323103206e-16
 1.134136824735820e+01 -2.941884357398793e+00 -1.716063833056081e-16
 1.414777590346478e+01 -4.134937121277079e-01 -2.475280505982503e-16
 9.575050583776434e+00  1.172141875139209e-01 -1.716037798754561e-16
-8.201955839717156e+00 -1.136359404722046e+00  1.576392678953093e-16
-1.128442112501689e+01  1.081021061007685e+00  1.897126357689648e-16
 8.575989250552682e+00 -3.061905662098652e-01 -1.494739616929595e-16
 1.955160918396649e+01  2.628412812886705e-01 -3.506448061281185e-16
-1.264964004618555e+01 -1.112454084721238e+00  2.365454952853350e-16
-4.928378264112912e+00  7.577379726371295e-01  7.992088763868726e-17
 2.789589320796602e+00  1.441122539028417e-01 -5.112477056293452e-17
-2.574972270716484e+00  1.937871928174170e-01  4.383361010434102e-17
 1.684620816400024e+01  1.607171011247887e+00 -3.163114674840164e-16
 4.558369450816289e+00 -1.778881256482343e-01 -7.929388593396240e-17
-2.830315363820129e+00 -1.757301870375551e-01  5.217440186101091e-17
-6.992009136740741e+00  1.497891442603802e-01  1.228921139155390e-16
-2.722258933234007e+00  1.073446036847507e-01  4.734291813851218e-17
 1.773886627632189e+01 -1.651320728912065e+00 -2.987175644209030e-16
 9.325386316101786e+00  1.607572638185391e-01 -1.676080957088790e-16
-5.775387904370480e+00 -1.137792638525525e-01  1.039489574919836e-16
-7.992258569388586e+00  2.643972803354058e-01  1.395151887457825e-16
 1.258604282019702e+01 -3.118252039659630e-01 -2.207797544644219e-16
-4.478168621534344e+00 -5.604317186038792e-01  8.545258468574100e-17
-2.915377664854395e+01  3.859460085528903e+00  4.791716810003012e-16
 2.872859907565470e+01 -1.012054859589359e+01 -4.072747289559913e-16
 2.221986516152014e+01  6.869628736369194e+00 -4.660119450873341e-16
-2.589526363523403e+01  8.520771807286791e-02  4.599616270279022e-16
-3.449787527941163e+00  7.765788962820263e-04  6.138510505010595e-17
 6.133870068510580e-01 -2.920092775192103e-03 -1.088595056833054e-17
-2.226383020992752e+01 -4.034728676912637e+00  4.376667873300983e-16
 9.448478137684122e+00 -9.256105955857029e-02 -1.671959077604386e-16
-6.678632911882032e+00  3.231751251973101e-01  1.155337321945254e-16
 1.487081501640712e+00 -3.825864182431172e-02 -2.607129552590040e-17
 1.008587206087333e+00 -2.111131226190794e-02 -1.773210135556360e-17
 1.441205636576997e+00 -2.313257450086141e-02 -2.541029463637222e-17
 1.263013072499973e-01 -1.949736213648808e-03 -2.227649588554356e-18
-1.199129637316962e+00  1.923511794692720e-02  2.114230842201823e-17
-1.331609336176530e+00  2.944476294239209e-02  2.339504229614306e-17
 9.876693378158302e-01 -2.286863659648546e-02 -1.734178706637935e-17
 1.378217706608179e-01  7.185159696507042e-06 -2.452776632929202e-18
 9.116485159924830e+00 -1.348872495391545e-01 -1.608528104680434e-16
 3.137759844852100e+01  7.800930375021350e+00 -6.385535188954648e-16
-2.974078565894367e+00  4.779646357297526e-02  5.243618438926547e-17
-8.173202715351962e-01  1.267231635630818e-02  1.441498571825871e-17
 1.005168604216203e+00 -1.560824770271002e-02 -1.772780524863074e-17
 8.100429170556117e-01 -8.215602544177419e-03 -1.433126763441737e-17
 2.200807823467670e-02 -9.468785158340064e-06 -3.915627177615335e-19
 1.255532637403711e+00 -1.337702400159920e-02 -2.220625687866345e-17
-1.282720662783492e+00 -1.309353195691126e-03  2.284099740854603e-17
 2.474105943945575e+00 -7.966594976840549e-02 -4.321112781439202e-17
-2.885162274901593e+00 -1.509264084178927e-01  5.289561824270818e-17
-1.498110865451577e-01  1.434841976890596e-02  2.518642160775227e-18
 1.965911854578685e+00  1.229060359232147e-01 -3.624856134711083e-17
 2.938940443547273e+00 -1.689440806772857e-01 -5.056611183326989e-17
 1.085544596268716e+00  5.607168151039477e-02 -1.989467713436684e-17
-2.399610820973337e+00  1.883237456092901e-01  4.076897881406295e-17
 2.187260399848833e+00  1.639360714267002e-01 -4.060929146155168e-17
 7.239815844360727e-01 -3.128704315822489e-02 -1.256265289148704e-17
 4.370189709976781e+00  2.131478473914941e-01 -7.996275554212062e-17
-7.024910250904435e+00  3.404470768302496e-01  1.215186874744539e-16
-3.814480784105920e-01 -5.570230582518162e-03  6.845555658866234e-18
 2.623644655953898e+00 -1.182953872169304e-01 -4.547544410500257e-17
 4.320508049589093e+00  2.602564664479573e-01 -7.956263508186864e-17
-2.342044654145941e+00  3.522854783796990e-02  4.131751777839579e-17
-6.240625436464126e-01 -3.459807154764266e-03  1.114148563779634e-17
 1.769916325590497e+00 -4.032018551540995e-02 -3.108349698414244e-17
 9.724088243062139e+00  4.194735196341640e-01 -1.773616876291096e-16
-3.142255551669409e+00 -3.661880606504525e-02  5.629643068764474e-17
-9.788269741928849e+00  1.803112664111592e-01  1.723413031679854e-16
 3.293664754793038e+00 -8.316955939758539e-02 -5.776015612203902e-17
 3.066688832462721e+00  1.052631040816644e-01 -5.565692600788828e-17
-3.575893859332212e+00  8.495216254396233e-02  6.276444407568123e-17
 1.225269784690102e+00  2.995182075593247e-03 -2.183591177926738e-17
 3.325850306225785e+00 -3.715924305928757e-02 -5.880567569049358e-17
-3.143694082056235e+00 -3.361263308266565e-01  5.939936162327614e-17
-3.993832854592438e+00  6.084439285034204e-02  7.044986563046786e-17
-3.509606758551620e+00 -3.256980508281126e-03  6.249110297794956e-17
 1.110501628890506e+01 -1.173899194557607e+00 -1.855656236390504e-16
 1.605195353085888e+01  2.488319173930195e+00 -3.112302360700834e-16
-8.236133532486310e+00 -8.812907580188435e-02  1.474773148666455e-16
-7.281933412445086e+00  3.520748034826428e-01  1.259732505678851e-16
 7.612476020592656e+00 -1.014534701616217e-01 -1.344306937252817e-16
 2.299443836377996e+00  2.159506951720034e-02 -4.114322743438233e-17
-2.959823372778636e+00 -2.281290461388287e-02  5.290798183061414e-17
-1.259463764255986e+00  2.398811878762381e-02  2.216719081865234e-17
-8.619083700448888e-01  4.767729659781401e-02  1.484882066555083e-17
 2.265563717227059e+01  1.456997067308661e-01 -4.046810996606137e-16
 2.154191017822336e+01  2.320004273468603e+01 -6.217359988394526e-16
-4.593494397231909e+00  9.718618999483958e-02  8.074815932046644e-17
-1.134977590613313e+01 -6.717582334002553e-01  2.088848725709534e-16
-1.797796898106888e+01  1.513693611259587e+00  3.043867509416455e-16
-5.747868382568107e-01  1.293847260710512e-01  8.899636358964246e-18
 1.463911704439036e+01 -1.425666052497673e+00 -2.458723491898158e-16
 2.792959350179041e+01 -5.699260761855438e-01 -4.911846485945513e-16
 1.946174032560392e+01  9.251443432414412e+00 -4.414001043768460e-16
-2.161323994129326e+01  6.611618413223999e-01  3.778401882239248e-16
 5.531565201277792e+00 -8.713465232653096e-01 -8.948803204746209e-17
 2.527713185469428e+01  2.277032154702799e+00 -4.732323912027724e-16
-1.775424799234963e+01 -3.112436926115502e+00  3.479371798192285e-16
-1.536366210599996e+01  1.137209598268317e+00  2.617302781116015e-16
 7.716605308988759e+00 -6.718565840082498e-01 -1.304231138390824e-16
 2.767427461562436e+01  1.158264988776060e+00 -5.043974798463726e-16
-2.456709336204587e+01 -5.727390149887507e+00  4.960475843319912e-16
-1.157067598498999e+01  1.886031931669141e+00  1.865356882147654e-16
 4.770727022541792e+00  2.869515930665585e-01 -8.784910146663179e-17
-4.961735062803575e+00  5.110665745955330e-01  8.304897069760187e-17
 1.278825768668579e+00  4.823823296309030e-02 -2.325386030900559e-17
 2.810315721889125e+00 -1.381184149857193e-01 -4.859380400168614e-17
 1.378838286630565e-01  1.466207217687257e-02 -2.604454670688869e-18
-2.551778110496622e+00  9.555638722290928e-02  4.443012817484531e-17
-4.462004728718959e+00 -1.203790381075962e-01  8.064354750574686e-17
 6.802992226998796e+00 -6.885388887686082e-01 -1.139928746431719e-16
 1.548971003861554e+01  9.813423491734733e-01 -2.857408030794077e-16
-1.849865894369783e+01 -3.908811639555781e+00  3.693673215437719e-16
-2.044355693041950e+01  5.143613656334440e+00  3.109687197417175e-16
 1.446856415996088e+01 -3.775533991582324e-01 -2.536061339349377e-16
 4.010059828113008e+00  1.746330022619997e-01 -7.315808866537369e-17
-1.846812049414050e+00  2.677512622912212e-02  3.259111868051567e-17
 1.097115913330095e+00  1.012500551863864e-02 -1.962851711341680e-17
-4.521341327158049e-01 -1.326800697136820e-03  8.059898612532623e-18
-1.273424434246634e-01 -7.877330445316232e-05  2.267020047513202e-18
-1.141056526197444e-02  1.835189201709187e-04  2.011790296874755e-19
 6.019859495690834e-01 -1.429102858921799e-03 -1.069837452902002e-17
 7.213256803063987e-01  1.606660916508174e-03 -1.285335876874612e-17
 5.133321899211548e-01  1.461856708762634e-03 -9.150378691215123e-18
-7.153463647864793e-02 -6.969117176901126e-04  1.280204686973967e-18
-5.886494341821665e-01  3.427305045313552e-04  1.047219741518904e-17
 1.009072908851411e+00 -4.896514834342658e-03 -1.790734617773666e-17
 1.351684132516205e+00  3.062522872038844e-03 -2.408629782857496e-17
 1.026054963968438e+00  2.777772164260422e-03 -1.828841260638550e-17
-2.973966760017840e+00 -7.286885158247247e-02  5.367398693344799e-17
-1.018357540555046e+01  1.799894488474804e-01  1.793795455535002e-16
 7.242987058922818e+00 -2.990971160861815e-01 -1.258244802468174e-16
 7.467591084578646e+00  1.816208734571357e-01 -1.347607795123100e-16
-1.935854923844679e+00 -6.768543820708571e-02  3.514629082983159e-17
-1.231990176725157e+01 -1.212526492444693e-01  2.204931746265421e-16
-6.446686578508813e-01  8.628571659102254e-04  1.146378221113864e-17
 5.942079795659937e-01  3.360168288282974e-03 -1.060916430365733e-17
-7.290475287525931e-02 -3.188965606331444e-04  1.300703589267756e-18
-1.156376353335871e-01 -4.891916814673920e-04  2.062935927023902e-18
 3.039584380704410e-02  9.051443381076636e-05 -5.418603003511268e-19
-3.492334349075357e-01 -2.094169070021110e-03  6.236542366191925e-18
-5.957867096778461e-02 -1.419865793755282e-04  1.061732375947282e-18
 6.553469214218489e-01  5.817298587947644e-03 -1.172245086009759e-17
-4.511404402607912e-01 -1.524371132125736e-03  8.044244633817416e-18
 4.207513705623472e-02  1.113652865653830e-04 -7.499214843557608e-19
-2.797476322876622e-01 -1.126871616766929e-03  4.990021011227770e-18
-7.328236557927332e-01 -1.470333825271908e-03  1.305657824602989e-17
 3.484746370940666e+00 -4.624980767863596e-02 -6.154001844866633e-17
 1.219095160398728e+00  1.328944310111635e-02 -2.183179676937666e-17
-1.529259969352851e+00 -1.128541398591196e-02  2.733095885116393e-17
-3.415330000256499e+00  3.027863667564686e-02  6.046876931517893e-17
 1.177913174840224e+01 -2.956423036735096e-01 -2.065860828462010e-16
 6.298438767700139e-01  6.704996689356928e-03 -1.127771449681967e-17
-1.664816227524048e+00 -3.243366991304874e-03  2.966071504690205e-17
-9.657324044184317e-01  8.984457967363523e-05  1.718543698360723e-17
-4.255561954669822e-01  3.715217260083378e-05  7.572898403153104e-18
-1.874886797053507e-01 -5.543008823486923e-05  3.337154218297611e-18
 4.345054577171985e+00 -1.284199207662879e-03 -7.731223449619397e-17
-1.299477455152649e+01 -5.422110167209572e-01  2.368285350996234e-16
-2.121093057529155e+01  3.140315624030997e+00  3.452082084063672e-16
 1.297352054732360e+01  2.265009581035150e-01 -2.332064885629606e-16
-1.291577526048180e+00  5.820588700429100e-03  2.292535828962926e-17
 1.350065614724863e+00 -5.351020065075556e-03 -2.397104824436069e-17
 1.275723967594724e+00  2.800264401426445e-02 -2.299074673994774e-17
-6.298605243858961e-01  2.864216411640786e-03  1.117969057072777e-17
 4.561478062494023e+00 -2.923952233803810e-02 -8.087651777868373e-17
-3.171261647423151e-02 -1.553146475698572e-02  7.239440049318796e-19
-2.359585581282007e+01  2.271074587148905e-01  4.175829537430649e-16
 2.714693236985619e+01 -5.809533589866232e+00 -4.234211963564435e-16
 1.112029226636037e+01  3.208804773379563e-01 -2.011957959831844e-16
-8.834761359015701e+00 -1.758132763407281e-01  1.590315344161946e-16
-1.482494481277104e+00  1.812305088603598e-02  2.619654992212830e-17
 6.367684734785926e-01 -4.490382542891557e-03 -1.128591750082135e-17
 6.670152775510186e-01 -2.407715177682414e-03 -1.184559411282998e-17
 9.589259833906386e-02 -3.170992465254296e-04 -1.703265101794568e-18
 1.663867161325921e-01 -4.530235616739921e-04 -2.956395452089483e-18
-8.892161391367644e-01  1.048783987180681e-03  1.581388602861000e-17
-1.376405438202319e+01  1.973813254881541e-01  2.429197447119327e-16
 5.325900128471123e+00 -2.005209909567117e-01 -9.272046540480652e-17
 3.695114019428306e+00  6.318793137003809e-02 -6.640819470771866e-17
-5.238799172791990e-01 -5.779749655085455e-03  9.382452862637073e-18
-9.142724701238082e+00 -2.252611335932815e-01  1.650201682135250e-16
 1.341640689640551e+00 -1.180148883864215e-01 -2.266353633045093e-17
 2.398700758069467e+01 -6.773414366387530e-01 -4.199179754298222e-16
-3.100259663346229e+00 -6.259276147856063e+00  1.194846074357949e-16
-2.181048067085385e+01  4.877999091872060e+00  3.380238513952169e-16
 1.827955191308502e+01 -5.019201066595749e-01 -3.201493841698213e-16
 5.550858150667568e+00  1.658404222956616e-01 -1.004880921918379e-16
-1.801751924315381e+00 -1.052496027502991e-02  3.217246484805247e-17
-4.530150350007435e+00  1.771755560088534e-03  8.060122506952980e-17
 2.950167342775959e+00 -7.034187883755126e-02 -5.177900972215922e-17
 4.674488635213524e+00  1.118581494125388e-01 -8.433740303696201e-17
 3.243149581077405e+00 -2.897213091468650e-02 -5.741803723518944e-17
-6.317721616299163e-01 -2.663325905939393e-02  1.151678627187737e-17
-7.927697220976941e-01  9.700357746046133e-03  1.400861520123696e-17
 3.957628161187501e+00  7.379368662330905e-02 -7.118891728099475e-17
 5.543426929668879e-01  1.123645295378286e-02 -9.980639937411851e-18
-7.743893882419687e+00 -2.995860724141451e-02  1.381196426946778e-16
 1.421414597210677e+01 -2.009443271315123e+00 -2.323113832025954e-16
 1.930057566706061e+00  2.020904147289555e+00 -5.511173254851289e-17
-1.460286772491279e+01  8.431503486746211e-02  2.590091437441016e-16
-1.049748329187348e+01  1.436626071389169e+00  1.720544260034442e-16
-2.021201776748227e+01 -7.293433385588896e-01  3.671907037790465e-16
 1.094746570300414e+01  1.022021750722172e-01 -1.958733010280705e-16
-1.975325544436508e+01 -2.952437426467113e+00  3.818679652447827e-16
-8.335268792129545e+00 -6.172692732104554e-02  1.489702725773968e-16
 1.392762799910809e+00 -4.084088202617554e-03 -2.474391284570085e-17
 1.210448917077401e+00  7.288851067493056e-03 -2.161627265115351e-17
 1.554542545065627e+00  2.640794215176119e-02 -2.793627098518073e-17
 1.147710094988768e+00  5.704999494584702e-03 -2.048348696113849e-17
-1.326326987377409e-01 -2.976332006948767e-03  2.390937812510476e-18
-2.568530109636439e+00  2.802153895437866e-02  4.542214598955819e-17
 2.238134145402399e+00  2.810409351059739e-02 -4.011902621838499e-17
 1.382981143727177e+00  1.193135788685604e-02 -2.473438949863723e-17
 2.514352147688219e-01  3.441583901178854e-03 -4.509950611815098e-18
-3.329669707679947e-01  3.359274391840001e-04  5.922092871956854e-18
 5.533186849342484e-01  8.812930682575821e-03 -9.937515663820377e-18
-1.944497750808344e-02 -1.142008437395584e-05  3.461639013697261e-19
 7.613600150318581e-01  1.176868987841670e-02 -1.367022868758375e-17
-3.587425556812929e-01 -3.134111456733854e-03  6.416453549627639e-18
 1.395314023846828e-01  1.412226286726532e-03 -2.497637857444127e-18
 1.672195782096025e-01  1.705821402375826e-03 -2.993398553003252e-18
-1.676713190876568e-01 -1.971509284028372e-03  3.004167704899878e-18
-1.009834279524646e+00 -6.352273832753733e-03  1.803647291491457e-17
-7.167399766338229e-01 -6.065675360410843e-03  1.281756545795453e-17
-4.815193829823672e+00  1.355032188203373e-01  8.429987162398469e-17
 6.483729499105212e+00 -1.049768789612119e-01 -1.143071012100350e-16
 3.066283682193355e+01  2.239079762763412e+00 -5.686874883662865e-16
-6.631278050019340e+00  3.144037508909323e+01 -2.050269296752057e-16
-2.781168101185482e+01 -7.240240746194480e-01  5.023811229326115e-16
 9.589516227182340e-01 -7.453213829853970e-02 -1.629989735853126e-17
 3.033763771685188e+00 -5.571350650597896e-02 -5.341700904450123e-17
 1.856362167233488e+00  3.670952309191460e-04 -3.303995088360540e-17
 1.397831766489631e+00  6.764693489967799e-03 -2.494558845025841e-17
-2.232897007671832e+00 -4.456732584262459e-02  4.019497882322894e-17
-6.129903309267974e+00  6.634526568599526e-02  1.084072678981825e-16
 8.082926340857908e+00 -5.578055340664090e-01 -1.381140666617131e-16
 9.823459486520346e+00  6.245546685155207e-01 -1.812372517473832e-16
-9.274019902665813e+00 -2.988289208006755e-01  1.681126052306253e-16
-5.889056431297194e+00  1.291685044121263e-01  1.034756244559469e-16
 1.818485875552416e+00 -5.209817105263014e-02 -3.182683554361135e-17
 4.523412157319873e+00 -1.652083221974062e-02 -8.032976951133033e-17
 3.284133715670253e-01 -2.255484566510001e-03 -5.821333407027510e-18
-9.097879629401926e-01  6.879741715453217e-03  1.612007518556351e-17
-2.426998184776249e+00  4.473513993326346e-02  4.273169041977936e-17
 1.708325481822287e-01 -2.472748400603381e-03 -3.014762379677142e-18
 2.859999456639589e+00 -2.654776393476157e-02 -5.062433323487661e-17
-6.091255630892926e+00 -5.001194602763115e-01  1.135397055494212e-16
-3.041456559909005e+00  2.987634607089248e-02  5.381937885994998e-17
-3.388302289472989e-01  4.843193431923426e-03  5.980126043365232e-18
 9.591487760540396e-01 -1.935022789522757e-02 -1.687038001734672e-17
-3.466948759511154e-01  7.715997006291574e-04  6.161920981794359e-18
 1.227328716364006e+00 -3.332290473797140e-02 -2.149939774963125e-17
 2.888908736795847e-01 -2.894470085264308e-04 -5.138183734776595e-18
-1.249543747370693e-01  2.634126351041569e-03  2.196647458066045e-18
-2.505621393208508e+00 -1.175370179591705e-02  4.471128652233520e-17
 7.472729758555320e+00 -1.260468692663454e+00 -1.200352819233691e-16
 1.813661100141233e+00  4.230445436038998e-02 -3.271092558975537e-17
 1.122925089900151e+00 -4.950630516554669e-02 -1.947513214695753e-17
-3.385439961296794e+00 -2.204438078405760e-01  6.251292245297340e-17
 4.463001378815347e+00 -4.474771691772066e-01 -7.482676782301689e-17
-8.009272268028891e-01 -1.181302459193344e-01  1.546720075044940e-17
 9.173402788838946e+00 -1.893801928585124e+00 -1.437935181572586e-16
-1.366467348824052e+00 -1.233675577717615e-01  2.558547330579756e-17
-6.920965466758352e-01  7.404265686354428e-02  1.155592220905045e-17
 1.049869034362174e+01  2.707923623469356e+00 -2.146596493586593e-16
 1.150696881016629e+00 -9.523916339830919e-02 -1.949947577883529e-17
 1.320055398950400e+00  2.158227474779690e-01 -2.570946074071303e-17
-1.297960242146270e-01  4.792033624453170e-02  1.817511030062313e-18
 1.930206656132951e+00  1.591375948410276e-01 -3.598541085662905e-17
 2.290676221393197e-01  1.973690257718283e-02 -4.279321084766998e-18
 1.649158045832644e+00  1.183132588306870e-01 -3.056436040029737e-17
-6.426240933921016e-01  6.980019835444827e-02  1.071909058126243e-17
 4.028142309394199e+00  1.328938181925977e-01 -7.305103304014527e-17
 1.103348155654278e+00 -9.845273303645921e-02 -1.862382957794346e-17
-1.369896504082167e+00 -3.940360477284084e-02  2.478380009079190e-17
-1.373119628333874e+01  4.650204870063411e-01  2.395851004621347e-16
-7.475359422912667e+00  1.430028315655257e-01  1.315636357478988e-16
 2.755705907612213e+01 -5.176890485822415e+00 -4.372200683841679e-16
-1.137842161061270e+01 -6.387136811622602e+00  2.681180957088730e-16
-1.659311075668012e+01  4.997763874247503e-01  2.901591780710590e-16
-1.203188881381787e+00  3.046325227527580e-02  2.109918251017916e-17
 1.405376918259234e+00 -1.842200167850721e-02 -2.482107927990651e-17
 2.485575815050861e+00 -2.210498008924618e-02 -4.400666589282272e-17
 6.339653231347353e+00 -1.010111901219680e-03 -1.128113129328469e-16
 9.388614997694397e+00  6.290887226642012e-01 -1.735452611513587e-16
-3.091104996219951e+00 -3.467115295873463e-02  5.536613411460391e-17
-2.678905959906650e+00  1.167574700190874e-04  4.767312743065601e-17
 2.415817011599233e-01 -6.335932298287937e-03 -4.234135138485927e-18
 4.264166285559675e+00  2.202418139010142e-02 -7.611221599626367e-17
-1.497846543527388e+00 -1.434376685840744e-02  2.680334293194363e-17
-1.076041019488795e+01 -2.372764710206651e-01  1.939322644882504e-16
 1.005296319911914e+01  3.038225829205714e+01 -4.910711388109419e-16
 1.389190609709500e+01  3.852548151799596e-01 -2.511813931381556e-16
 2.028702517133760e-01  5.001756344223200e-04 -3.615457230265367e-18
-5.835433946055703e-01  7.421396303384611e-04  1.037722557369324e-17
 1.010205261461119e+00 -5.993305986651805e-03 -1.791622859295600e-17
 1.085165848149198e+00  1.807091011163426e-03 -1.933038790381600e-17
-4.287682634243443e-02 -2.217155597524491e-04  7.653223163218992e-19
-3.043261648647773e-01  1.133634087375660e-04  5.414682349074657e-18
 3.978486891121789e-01  6.692226063981878e-05 -7.080879594684420e-18
 1.861386408940906e+00  6.945402391566147e-03 -3.319695297858062e-17
-1.682137680743858e+00 -4.081676180277397e-02  3.035502394817296e-17
-3.272475820984620e+00  7.967463203435762e-03  5.815574799434120e-17
-1.926792145284779e-01  4.946670202384340e-04  3.423873934435526e-18
 3.346156474295778e+00 -5.762692955954023e-03 -5.948963632702736e-17
 1.211598539413831e+00  3.400011355464919e-02 -2.191118009643791e-17
-2.049596825345702e+00  2.272759703827066e-03  3.645166857338140e-17
 1.729045086614946e+00 -2.917864053927165e-03 -3.074043979894992e-17
 5.710804636848910e+00  6.453001109629580e-03 -1.016968828438968e-16
 4.154035132840004e+00  1.955810360491980e-01 -7.593553439321101e-17
-1.497585791183497e+00  1.906036930795624e-02  2.645548716062555e-17
 3.286676188401283e+00 -4.791071244301238e-02 -5.799805809337048e-17
 1.096895502659172e+01 -3.191753058499015e-02 -1.948776979163852e-16
-8.187454499711096e+00 -1.904872498479954e+00  1.652773919300860e-16
-1.467660947761030e+01 -8.596716131510626e-03  2.612761006758737e-16
-6.890638648437455e+00  5.777219442275859e-01  1.166912510926007e-16
 1.630800017842471e+01 -1.132941681149857e+00 -2.785797518528189e-16
 2.271715937244740e+01  2.104971733575259e+00 -4.259067689269158e-16
-1.452317830377625e+01 -2.122606067869390e+00  2.802662880397132e-16
-1.063726954170393e+01  1.089213258313194e+00  1.781116295225601e-16
 7.051714564720307e+00  6.638883941885277e-01 -1.323148843095681e-16
-2.146719068260626e+01 -1.831606470331626e+00  4.008533563031460e-16
-2.233754162154786e+00  2.429348527400500e+01 -2.098544162150852e-16
 1.725023004709331e+01  8.177710093917824e+00 -3.910114209889886e-16
-1.912407011763134e+01 -1.900623606889632e+00  3.598638568811303e-16
-1.922151489163620e+01 -1.008668584008957e+00  3.524334890300071e-16
-2.560335966257688e+01  3.944847127854066e+00  4.151104547991903e-16
 8.580277336751577e+00 -2.289037736605933e+00 -1.291772389413638e-16
 2.801889069086954e+01 -5.293959485419844e+00 -4.442360714230472e-16
 1.525918718415318e+01  1.451675709230140e+01 -4.207098433582637e-16
-2.855503320777849e+01  1.201515212486830e+01  3.847195542868226e-16
 1.737061500312103e+01  7.269662529590849e-01 -3.166001285600286e-16
-1.808220373042850e+01 -4.365976698947965e+00  3.666532091658520e-16
-1.893513887616970e+01  6.442389675741199e-01  3.303540615940860e-16
 5.600259328580612e+00 -3.713223618003856e-01 -9.584809260658144e-17
 1.461600340207704e+01  5.216560508360968e-02 -2.606451977867662e-16
 2.969580380024898e+00  1.383304919341284e-01 -5.426852066153748e-17
-4.483260269072717e+00 -8.836431030627651e-02  8.069287551260847e-17
-1.505165065505880e+00 -3.744132722742916e-02  2.717090380223984e-17
 2.765212306843587e+00  4.725681937013516e-03 -4.925880613874135e-17
-2.083739230894493e+00 -1.537665270222246e-01  3.866252037168771e-17
-3.876560139884739e+00 -1.078436718494826e-01  7.009606636968923e-17
-1.575021171232522e+00 -3.295502398335168e-02  2.836798139577229e-17
-1.182209820589665e+00 -2.309742515173106e-02  2.127615160240506e-17
-1.418796441863370e+00 -2.477617047550730e-02  2.550374124478581e-17
-4.308518442615823e+00 -6.002972990113867e-03  7.673690344074272e-17
 6.009122132648343e+00  2.823734387285238e-02 -1.072296247431228e-16
-5.759349587063837e+00 -5.758345582865776e-01  1.084109868039383e-16
-5.858440959843835e+00  1.850184562175865e-01  1.023569476525879e-16
-1.864162287766779e+01 -3.198698836368475e+00  3.646153841890702e-16
 7.257894796884933e+00 -1.025591580509439e+00 -1.186253145262496e-16
 9.164916908776796e-01  4.326101809171861e-01 -2.075497532812417e-17
-2.624249691538505e+01  1.802575936942335e+00  4.484957228600377e-16
-2.741836990847322e+00 -1.116733907460048e+01  1.635346129137289e-16
 1.951938506755313e+01  9.118335148908271e-01 -3.567394989555052e-16
 1.219042058220731e+01  4.037816713438197e-01 -2.210917855111206e-16
 2.464935419060072e+01  2.559974746172560e+00 -4.649674712378273e-16
-2.395446242133989e+01 -3.872365166523291e+00  4.660853780890905e-16
-2.782196565619104e+00  4.311397669088184e-01  4.508270212642312e-17
-1.032419479416379e+00 -3.134016616061813e-02  1.869514497058084e-17
-1.640228038767604e+01  2.197361665279601e+00  2.693210519957754e-16
 9.553632142717989e+00 -1.939152807067819e-02 -1.698190390610473e-16
 1.031669169679630e+01 -6.398811605960467e-02 -1.829403802978131e-16
-7.883205614817939e+00 -6.437396842837443e-01  1.469052387514999e-16
-2.773009904420519e+00  1.132464835495322e-01  4.818545253408556e-17
 3.772686115482539e+00  2.431729086724819e-02 -6.738930097764057e-17
-1.709582848273776e+00 -1.332821697536758e-02  3.056100863719796e-17
-9.512398223545510e+00  3.430829066973356e-02  1.689319679612547e-16
-1.477397331521992e+01  1.842039324499058e+00  2.439941932537341e-16
 1.980321338701181e+01  7.841529583615768e-01 -3.604786911819244e-16
-1.105204877822901e+01 -2.321946624659052e-01  1.990701071822700e-16
 7.660786295794826e+00 -8.846938221630394e-01 -1.272429226398249e-16
 8.470534063141667e+00 -6.091522704173474e-03 -1.506806694904903e-16
-2.102459326439218e+00 -2.426968585619093e-02  3.766513385967943e-17
-8.390158356406797e+00  7.574135621066723e-02  1.485346611187743e-16
-6.088394547701271e+00  7.256830756400913e-02  1.076046304852761e-16
 2.798164367700514e+00 -1.796989000917170e-01 -4.795033174884719e-17
VECTORS SF_force double
0.000000000000000e+00 0.000000000000000e+00 0.000000000000000e+00
0.000000000000000e+00 0.000000000000000e+00 0.000000000000000e+00
0.000000000000000e+00 0.000000000000000e+00 0.000000000000000e+00
0.000000000000000e+00 0.000000000000000e+00 0.000000000000000e+00
0.000000000000000e+00 0.000000000000000e+00 0.000000000000000e+00
0.000000000000000e+00 0.000000000000000e+00 0.000000000000000e+00
0.000000000000000e+00 0.000000000000000e+00 0.000000000000000e+00
0.000000000000000e+00 0.000000000000000e+00 0.000000000000000e+00
0.000000000000000e+00 0.000000000000000e+00 0.000000000000000e+00
0.000000000000000e+00 0.000000000000000e+00 0.000000000000000e+00
0.000000000000000e+00 0.000000000000000e+00 0.000000000000000e+00
0.000000000000000e+00 0.000000000000000e+00 0.000000000000000e+00
0.000000000000000e+00 0.000000000000000e+00 0.000000000000000e+00
0.000000000000000e+00 0.000000000000000e+00 0.000000000000000e+00
0.000000000000000e+00 0.000000000000000e+00 0.000000000000000e+00
0.000000000000000e+00 0.000000000000000e+00 0.000000000000000e+00
0.000000000000000e+00 0.000000000000000e+00 0.000000000000000e+00
0.000000000000000e+00 0.000000000000000e+00 0.000000000000000e+00
0.000000000000000e+00 0.000000000000000e+00 0.000000000000000e+00
0.000000000000000e+00 0.000000000000000e+00 0.000000000000000e+00
0.000000000000000e+00 0.000000000000000e+00 0.000000000000000e+00
0.000000000000000e+00 0.000000000000000e+00 0.000000000000000e+00
0.000000000000000e+00 0.000000000000000e+00 0.000000000000000e+00
0.000000000000000e+00 0.000000000000000e+00 0.000000000000000e+00
0.000000000000000e+00 0.000000000000000e+00 0.000000000000000e+00
0.000000000000000e+00 0.000000000000000e+00 0.000000000000000e+00
0.000000000000000e+00 0.000000000000000e+00 0.000000000000000e+00
0.000000000000000e+00 0.000000000000000e+00 0.000000000000000e+00
0.000000000000000e+00 0.000000000000000e+00 0.000000000000000e+00
0.000000000000000e+00 0.000000000000000e+00 0.000000000000000e+00
0.000000000000000e+00 0.000000000000000e+00 0.000000000000000e+00
0.000000000000000e+00 0.000000000000000e+00 0.000000000000000e+00
0.000000000000000e+00 0.000000000000000e+00 0.000000000000000e+00
0.000000000000000e+00 0.000000000000000e+00 0.000000000000000e+00
0.000000000000000e+00 0.000000000000000e+00 0.000000000000000e+00
0.000000000000000e+00 0.000000000000000e+00 0.000000000000000e+00
0.000000000000000e+00 0.000000000000000e+00 0.000000000000000e+00
0.000000000000000e+00 0.000000000000000e+00 0.000000000000000e+00
0.000000000000000e+00 0.000000000000000e+00 0.000000000000000e+00
0.000000000000000e+00 0.000000000000000e+00 0.000000000000000e+00
0.000000000000000e+00 0.000000000000000e+00 0.000000000000000e+00
0.000000000000000e+00 0.000000000000000e+00 0.000000000000000e+00
0.000000000000000e+00 0.000000000000000e+00 0.000000000000000e+00
0.000000000000000e+00 0.000000000000000e+00 0.000000000000000e+00
0.000000000000000e+00 0.000000000000000e+00 0.000000000000000e+00
0.000000000000000e+00 0.000000000000000e+00 0.000000000000000e+00
0.000000000000000e+00 0.000000000000000e+00 0.000000000000000e+00
0.000000000000000e+00 0.000000000000000e+00 0.000000000000000e+00
0.000000000000000e+00 0.000000000000000e+00 0.000000000000000e+00
0.000000000000000e+00 0.000000000000000e+00 0.000000000000000e+00
0.000000000000000e+00 0.000000000000000e+00 0.000000000000000e+00
0.000000000000000e+00 0.000000000000000e+00 0.000000000000000e+00
0.000000000000000e+00 0.000000000000000e+00 0.000000000000000e+00
0.000000000000000e+00 0.000000000000000e+00 0.000000000000000e+00
0.000000000000000e+00 0.000000000000000e+00 0.000000000000000e+00
0.000000000000000e+00 0.000000000000000e+00 0.000000000000000e+00
0.000000000000000e+00 0.000000000000000e+00 0.000000000000000e+00
0.000000000000000e+00 0.000000000000000e+00 0.000000000000000e+00
0.000000000000000e+00 0.000000000000000e+00 0.000000000000000e+00
0.000000000000000e+00 0.000000000000000e+00 0.000000000000000e+00
0.000000000000000e+00 0.000000000000000e+00 0.000000000000000e+00
0.000000000000000e+00 0.000000000000000e+00 0.000000000000000e+00
0.000000000000000e+00 0.000000000000000e+00 0.000000000000000e+00
0.000000000000000e+00 0.000000000000000e+00 0.000000000000000e+00
0.000000000000000e+00 0.000000000000000e+00 0.000000000000000e+00
0.000000000000000e+00 0.000000000000000e+00 0.000000000000000e+00
0.000000000000000e+00 0.000000000000000e+00 0.000000000000000e+00
0.000000000000000e+00 0.000000000000000e+00 0.000000000000000e+00
0.000000000000000e+00 0.000000000000000e+00 0.000000000000000e+00
0.000000000000000e+00 0.000000000000000e+00 0.000000000000000e+00
0.000000000000000e+00 0.000000000000000e+00 0.000000000000000e+00
0.000000000000000e+00 0.000000000000000e+00 0.000000000000000e+00
0.000000000000000e+00 0.000000000000000e+00 0.000000000000000e+00
0.000000000000000e+00 0.000000000000000e+00 0.000000000000000e+00
0.000000000000000e+00 0.000000000000000e+00 0.000000000000000e+00
0.000000000000000e+00 0.000000000000000e+00 0.000000000000000e+00
0.000000000000000e+00 0.000000000000000e+00 0.000000000000000e+00
0.000000000000000e+00 0.000000000000000e+00 0.000000000000000e+00
0.000000000000000e+00 0.000000000000000e+00 0.000000000000000e+00
0.000000000000000e+00 0.000000000000000e+00 0.000000000000000e+00
0.000000000000000e+00 0.000000000000000e+00 0.000000000000000e+00
0.000000000000000e+00 0.000000000000000e+00 0.000000000000000e+00
0.000000000000000e+00 0.000000000000000e+00 0.000000000000000e+00
0.000000000000000e+00 0.000000000000000e+00 0.000000000000000e+00
0.000000000000000e+00 0.000000000000000e+00 0.000000000000000e+00
0.000000000000000e+00 0.000000000000000e+00 0.000000000000000e+00
0.000000000000000e+00 0.000000000000000e+00 0.000000000000000e+00
0.000000000000000e+00 0.000000000000000e+00 0.000000000000000e+00
0.000000000000000e+00 0.000000000000000e+00 0.000000000000000e+00
0.000000000000000e+00 0.000000000000000e+00 0.000000000000000e+00
0.000000000000000e+00 0.000000000000000e+00 0.000000000000000e+00
0.000000000000000e+00 0.000000000000000e+00 0.000000000000000e+00
0.000000000000000e+00 0.000000000000000e+00 0.000000000000000e+00
0.000000000000000e+00 0.000000000000000e+00 0.000000000000000e+00
0.000000000000000e+00 0.000000000000000e+00 0.000000000000000e+00
0.000000000000000e+00 0.000000000000000e+00 0.000000000000000e+00
0.000000000000000e+00 0.000000000000000e+00 0.000000000000000e+00
0.000000000000000e+00 0.000000000000000e+00 0.000000000000000e+00
0.000000000000000e+00 0.000000000000000e+00 0.000000000000000e+00
0.000000000000000e+00 0.000000000000000e+00 0.000000000000000e+00
0.000000000000000e+00 0.000000000000000e+00 0.000000000000000e+00
0.000000000000000e+00 0.000000000000000e+00 0.000000000000000e+00
0.000000000000000e+00 0.000000000000000e+00 0.000000000000000e+00
0.000000000000000e+00 0.000000000000000e+00 0.000000000000000e+00
0.000000000000000e+00 0.000000000000000e+00 0.000000000000000e+00
0.000000000000000e+00 0.000000000000000e+00 0.000000000000000e+00
0.000000000000000e+00 0.000000000000000e+00 0.000000000000000e+00
0.000000000000000e+00 0.000000000000000e+00 0.000000000000000e+00
0.000000000000000e+00 0.000000000000000e+00 0.000000000000000e+00
0.000000000000000e+00 0.000000000000000e+00 0.000000000000000e+00
0.000000000000000e+00 0.000000000000000e+00 0.000000000000000e+00
0.000000000000000e+00 0.000000000000000e+00 0.000000000000000e+00
0.000000000000000e+00 0.000000000000000e+00 0.000000000000000e+00
0.000000000000000e+00 0.000000000000000e+00 0.000000000000000e+00
0.000000000000000e+00 0.000000000000000e+00 0.000000000000000e+00
0.000000000000000e+00 0.000000000000000e+00 0.000000000000000e+00
0.000000000000000e+00 0.000000000000000e+00 0.000000000000000e+00
0.000000000000000e+00 0.000000000000000e+00 0.000000000000000e+00
0.000000000000000e+00 0.000000000000000e+00 0.000000000000000e+00
0.000000000000000e+00 0.000000000000000e+00 0.000000000000000e+00
0.000000000000000e+00 0.000000000000000e+00 0.000000000000000e+00
0.000000000000000e+00 0.000000000000000e+00 0.000000000000000e+00
0.000000000000000e+00 0.000000000000000e+00 0.000000000000000e+00
0.000000000000000e+00 0.000000000000000e+00 0.000000000000000e+00
0.000000000000000e+00 0.000000000000000e+00 0.000000000000000e+00
0.000000000000000e+00 0.000000000000000e+00 0.000000000000000e+00
0.000000000000000e+00 0.000000000000000e+00 0.000000000000000e+00
0.000000000000000e+00 0.000000000000000e+00 0.000000000000000e+00
0.000000000000000e+00 0.000000000000000e+00 0.000000000000000e+00
0.000000000000000e+00 0.000000000000000e+00 0.000000000000000e+00
0.000000000000000e+00 0.000000000000000e+00 0.000000000000000e+00
0.000000000000000e+00 0.000000000000000e+00 0.000000000000000e+00
0.000000000000000e+00 0.000000000000000e+00 0.000000000000000e+00
0.000000000000000e+00 0.000000000000000e+00 0.000000000000000e+00
0.000000000000000e+00 0.000000000000000e+00 0.000000000000000e+00
0.000000000000000e+00 0.000000000000000e+00 0.000000000000000e+00
0.000000000000000e+00 0.000000000000000e+00 0.000000000000000e+00
0.000000000000000e+00 0.000000000000000e+00 0.000000000000000e+00
0.000000000000000e+00 0.000000000000000e+00 0.000000000000000e+00
0.000000000000000e+00 0.000000000000000e+00 0.000000000000000e+00
0.000000000000000e+00 0.000000000000000e+00 0.000000000000000e+00
0.000000000000000e+00 0.000000000000000e+00 0.000000000000000e+00
0.000000000000000e+00 0.000000000000000e+00 0.000000000000000e+00
0.000000000000000e+00 0.000000000000000e+00 0.000000000000000e+00
0.000000000000000e+00 0.000000000000000e+00 0.000000000000000e+00
0.000000000000000e+00 0.000000000000000e+00 0.000000000000000e+00
0.000000000000000e+00 0.000000000000000e+00 0.000000000000000e+00
0.000000000000000e+00 0.000000000000000e+00 0.000000000000000e+00
0.000000000000000e+00 0.000000000000000e+00 0.000000000000000e+00
0.000000000000000e+00 0.000000000000000e+00 0.000000000000000e+00
0.000000000000000e+00 0.000000000000000e+00 0.000000000000000e+00
0.000000000000000e+00 0.000000000000000e+00 0.000000000000000e+00
0.000000000000000e+00 0.000000000000000e+00 0.000000000000000e+00
0.000000000000000e+00 0.000000000000000e+00 0.000000000000000e+00
0.000000000000000e+00 0.000000000000000e+00 0.000000000000000e+00
0.000000000000000e+00 0.000000000000000e+00 0.000000000000000e+00
0.000000000000000e+00 0.000000000000000e+00 0.000000000000000e+00
0.000000000000000e+00 0.000000000000000e+00 0.000000000000000e+00
0.000000000000000e+00 0.000000000000000e+00 0.000000000000000e+00
0.000000000000000e+00 0.000000000000000e+00 0.000000000000000e+00
0.000000000000000e+00 0.000000000000000e+00 0.000000000000000e+00
0.000000000000000e+00 0.000000000000000e+00 0.000000000000000e+00
0.000000000000000e+00 0.000000000000000e+00 0.000000000000000e+00
0.000000000000000e+00 0.000000000000000e+00 0.000000000000000e+00
0.000000000000000e+00 0.000000000000000e+00 0.000000000000000e+00
0.000000000000000e+00 0.000000000000000e+00 0.000000000000000e+00
0.000000000000000e+00 0.000000000000000e+00 0.000000000000000e+00
0.000000000000000e+00 0.000000000000000e+00 0.000000000000000e+00
0.000000000000000e+00 0.000000000000000e+00 0.000000000000000e+00
0.000000000000000e+00 0.000000000000000e+00 0.000000000000000e+00
0.000000000000000e+00 0.000000000000000e+00 0.000000000000000e+00
0.000000000000000e+00 0.000000000000000e+00 0.000000000000000e+00
0.000000000000000e+00 0.000000000000000e+00 0.000000000000000e+00
0.000000000000000e+00 0.000000000000000e+00 0.000000000000000e+00
0.000000000000000e+00 0.000000000000000e+00 0.000000000000000e+00
0.000000000000000e+00 0.000000000000000e+00 0.000000000000000e+00
0.000000000000000e+00 0.000000000000000e+00 0.000000000000000e+00
0.000000000000000e+00 0.000000000000000e+00 0.000000000000000e+00
0.000000000000000e+00 0.000000000000000e+00 0.000000000000000e+00
0.000000000000000e+00 0.000000000000000e+00 0.000000000000000e+00
0.000000000000000e+00 0.000000000000000e+00 0.000000000000000e+00
0.000000000000000e+00 0.000000000000000e+00 0.000000000000000e+00
0.000000000000000e+00 0.000000000000000e+00 0.000000000000000e+00
0.000000000000000e+00 0.000000000000000e+00 0.000000000000000e+00
0.000000000000000e+00 0.000000000000000e+00 0.000000000000000e+00
0.000000000000000e+00 0.000000000000000e+00 0.000000000000000e+00
0.000000000000000e+00 0.000000000000000e+00 0.000000000000000e+00
0.000000000000000e+00 0.000000000000000e+00 0.000000000000000e+00
0.000000000000000e+00 0.000000000000000e+00 0.000000000000000e+00
0.000000000000000e+00 0.000000000000000e+00 0.000000000000000e+00
0.000000000000000e+00 0.000000000000000e+00 0.000000000000000e+00
0.000000000000000e+00 0.000000000000000e+00 0.000000000000000e+00
0.000000000000000e+00 0.000000000000000e+00 0.000000000000000e+00
0.000000000000000e+00 0.000000000000000e+00 0.000000000000000e+00
0.000000000000000e+00 0.000000000000000e+00 0.000000000000000e+00
0.000000000000000e+00 0.000000000000000e+00 0.000000000000000e+00
0.000000000000000e+00 0.000000000000000e+00 0.000000000000000e+00
0.000000000000000e+00 0.000000000000000e+00 0.000000000000000e+00
0.000000000000000e+00 0.000000000000000e+00 0.000000000000000e+00
0.000000000000000e+00 0.000000000000000e+00 0.000000000000000e+00
0.000000000000000e+00 0.000000000000000e+00 0.000000000000000e+00
0.000000000000000e+00 0.000000000000000e+00 0.000000000000000e+00
0.000000000000000e+00 0.000000000000000e+00 0.000000000000000e+00
0.000000000000000e+00 0.000000000000000e+00 0.000000000000000e+00
0.000000000000000e+00 0.000000000000000e+00 0.000000000000000e+00
0.000000000000000e+00 0.000000000000000e+00 0.000000000000000e+00
0.000000000000000e+00 0.000000000000000e+00 0.000000000000000e+00
0.000000000000000e+00 0.000000000000000e+00 0.000000000000000e+00
0.000000000000000e+00 0.000000000000000e+00 0.000000000000000e+00
0.000000000000000e+00 0.000000000000000e+00 0.000000000000000e+00
0.000000000000000e+00 0.000000000000000e+00 0.000000000000000e+00
0.000000000000000e+00 0.000000000000000e+00 0.000000000000000e+00
0.000000000000000e+00 0.000000000000000e+00 0.000000000000000e+00
0.000000000000000e+00 0.000000000000000e+00 0.000000000000000e+00
0.000000000000000e+00 0.000000000000000e+00 0.000000000000000e+00
0.000000000000000e+00 0.000000000000000e+00 0.000000000000000e+00
0.000000000000000e+00 0.000000000000000e+00 0.000000000000000e+00
0.000000000000000e+00 0.000000000000000e+00 0.000000000000000e+00
0.000000000000000e+00 0.000000000000000e+00 0.000000000000000e+00
0.000000000000000e+00 0.000000000000000e+00 0.000000000000000e+00
0.000000000000000e+00 0.000000000000000e+00 0.000000000000000e+00
0.000000000000000e+00 0.000000000000000e+00 0.000000000000000e+00
0.000000000000000e+00 0.000000000000000e+00 0.000000000000000e+00
0.000000000000000e+00 0.000000000000000e+00 0.000000000000000e+00
0.000000000000000e+00 0.000000000000000e+00 0.000000000000000e+00
0.000000000000000e+00 0.000000000000000e+00 0.000000000000000e+00
0.000000000000000e+00 0.000000000000000e+00 0.000000000000000e+00
0.000000000000000e+00 0.000000000000000e+00 0.000000000000000e+00
0.000000000000000e+00 0.000000000000000e+00 0.000000000000000e+00
0.000000000000000e+00 0.000000000000000e+00 0.000000000000000e+00
0.000000000000000e+00 0.000000000000000e+00 0.000000000000000e+00
0.000000000000000e+00 0.000000000000000e+00 0.000000000000000e+00
0.000000000000000e+00 0.000000000000000e+00 0.000000000000000e+00
0.000000000000000e+00 0.000000000000000e+00 0.000000000000000e+00
0.000000000000000e+00 0.000000000000000e+00 0.000000000000000e+00
0.000000000000000e+00 0.000000000000000e+00 0.000000000000000e+00
0.000000000000000e+00 0.000000000000000e+00 0.000000000000000e+00
0.000000000000000e+00 0.000000000000000e+00 0.000000000000000e+00
0.000000000000000e+00 0.000000000000000e+00 0.000000000000000e+00
0.000000000000000e+00 0.000000000000000e+00 0.000000000000000e+00
0.000000000000000e+00 0.000000000000000e+00 0.000000000000000e+00
0.000000000000000e+00 0.000000000000000e+00 0.000000000000000e+00
0.000000000000000e+00 0.000000000000000e+00 0.000000000000000e+00
0.000000000000000e+00 0.000000000000000e+00 0.000000000000000e+00
0.000000000000000e+00 0.000000000000000e+00 0.000000000000000e+00
0.000000000000000e+00 0.000000000000000e+00 0.000000000000000e+00
0.000000000000000e+00 0.000000000000000e+00 0.000000000000000e+00
0.000000000000000e+00 0.000000000000000e+00 0.000000000000000e+00
0.000000000000000e+00 0.000000000000000e+00 0.000000000000000e+00
0.000000000000000e+00 0.000000000000000e+00 0.000000000000000e+00
0.000000000000000e+00 0.000000000000000e+00 0.000000000000000e+00
0.000000000000000e+00 0.000000000000000e+00 0.000000000000000e+00
0.000000000000000e+00 0.000000000000000e+00 0.000000000000000e+00
0.000000000000000e+00 0.000000000000000e+00 0.000000000000000e+00
0.000000000000000e+00 0.000000000000000e+00 0.000000000000000e+00
0.000000000000000e+00 0.000000000000000e+00 0.000000000000000e+00
0.000000000000000e+00 0.000000000000000e+00 0.000000000000000e+00
0.000000000000000e+00 0.000000000000000e+00 0.000000000000000e+00
0.000000000000000e+00 0.000000000000000e+00 0.000000000000000e+00
0.000000000000000e+00 0.000000000000000e+00 0.000000000000000e+00
0.000000000000000e+00 0.000000000000000e+00 0.000000000000000e+00
0.000000000000000e+00 0.000000000000000e+00 0.000000000000000e+00
0.000000000000000e+00 0.000000000000000e+00 0.000000000000000e+00
0.000000000000000e+00 0.000000000000000e+00 0.000000000000000e+00
0.000000000000000e+00 0.000000000000000e+00 0.000000000000000e+00
0.000000000000000e+00 0.000000000000000e+00 0.000000000000000e+00
0.000000000000000e+00 0.000000000000000e+00 0.000000000000000e+00
0.000000000000000e+00 0.000000000000000e+00 0.000000000000000e+00
0.000000000000000e+00 0.000000000000000e+00 0.000000000000000e+00
0.000000000000000e+00 0.000000000000000e+00 0.000000000000000e+00
0.000000000000000e+00 0.000000000000000e+00 0.000000000000000e+00
0.000000000000000e+00 0.000000000000000e+00 0.000000000000000e+00
0.000000000000000e+00 0.000000000000000e+00 0.000000000000000e+00
0.000000000000000e+00 0.000000000000000e+00 0.000000000000000e+00
0.000000000000000e+00 0.000000000000000e+00 0.000000000000000e+00
0.000000000000000e+00 0.000000000000000e+00 0.000000000000000e+00
0.000000000000000e+00 0.000000000000000e+00 0.000000000000000e+00
0.000000000000000e+00 0.000000000000000e+00 0.000000000000000e+00
0.000000000000000e+00 0.000000000000000e+00 0.000000000000000e+00
0.000000000000000e+00 0.000000000000000e+00 0.000000000000000e+00
0.000000000000000e+00 0.000000000000000e+00 0.000000000000000e+00
0.000000000000000e+00 0.000000000000000e+00 0.000000000000000e+00
0.000000000000000e+00 0.000000000000000e+00 0.000000000000000e+00
0.000000000000000e+00 0.000000000000000e+00 0.000000000000000e+00
0.000000000000000e+00 0.000000000000000e+00 0.000000000000000e+00
0.000000000000000e+00 0.000000000000000e+00 0.000000000000000e+00
0.000000000000000e+00 0.000000000000000e+00 0.000000000000000e+00
0.000000000000000e+00 0.000000000000000e+00 0.000000000000000e+00
0.000000000000000e+00 0.000000000000000e+00 0.000000000000000e+00
0.000000000000000e+00 0.000000000000000e+00 0.000000000000000e+00
0.000000000000000e+00 0.000000000000000e+00 0.000000000000000e+00
0.000000000000000e+00 0.000000000000000e+00 0.000000000000000e+00
0.000000000000000e+00 0.000000000000000e+00 0.000000000000000e+00
0.000000000000000e+00 0.000000000000000e+00 0.000000000000000e+00
0.000000000000000e+00 0.000000000000000e+00 0.000000000000000e+00
0.000000000000000e+00 0.000000000000000e+00 0.000000000000000e+00
0.000000000000000e+00 0.000000000000000e+00 0.000000000000000e+00
0.000000000000000e+00 0.000000000000000e+00 0.000000000000000e+00
0.000000000000000e+00 0.000000000000000e+00 0.000000000000000e+00
0.000000000000000e+00 0.000000000000000e+00 0.000000000000000e+00
0.000000000000000e+00 0.000000000000000e+00 0.000000000000000e+00
0.000000000000000e+00 0.000000000000000e+00 0.000000000000000e+00
0.000000000000000e+00 0.000000000000000e+00 0.000000000000000e+00
0.000000000000000e+00 0.000000000000000e+00 0.000000000000000e+00
0.000000000000000e+00 0.000000000000000e+00 0.000000000000000e+00
0.000000000000000e+00 0.000000000000000e+00 0.000000000000000e+00
0.000000000000000e+00 0.000000000000000e+00 0.000000000000000e+00
0.000000000000000e+00 0.000000000000000e+00 0.000000000000000e+00
0.000000000000000e+00 0.000000000000000e+00 0.000000000000000e+00
0.000000000000000e+00 0.000000000000000e+00 0.000000000000000e+00
0.000000000000000e+00 0.000000000000000e+00 0.000000000000000e+00
0.000000000000000e+00 0.000000000000000e+00 0.000000000000000e+00
0.000000000000000e+00 0.000000000000000e+00 0.000000000000000e+00
0.000000000000000e+00 0.000000000000000e+00 0.000000000000000e+00
0.000000000000000e+00 0.000000000000000e+00 0.000000000000000e+00
0.000000000000000e+00 0.000000000000000e+00 0.000000000000000e+00
0.000000000000000e+00 0.000000000000000e+00 0.000000000000000e+00
0.000000000000000e+00 0.000000000000000e+00 0.000000000000000e+00
0.000000000000000e+00 0.000000000000000e+00 0.000000000000000e+00
0.000000000000000e+00 0.000000000000000e+00 0.000000000000000e+00
0.000000000000000e+00 0.000000000000000e+00 0.000000000000000e+00
0.000000000000000e+00 0.000000000000000e+00 0.000000000000000e+00
0.000000000000000e+00 0.000000000000000e+00 0.000000000000000e+00
0.000000000000000e+00 0.000000000000000e+00 0.000000000000000e+00
0.000000000000000e+00 0.000000000000000e+00 0.000000000000000e+00
0.000000000000000e+00 0.000000000000000e+00 0.000000000000000e+00
0.000000000000000e+00 0.000000000000000e+00 0.000000000000000e+00
0.000000000000000e+00 0.000000000000000e+00 0.000000000000000e+00
0.000000000000000e+00 0.000000000000000e+00 0.000000000000000e+00
0.000000000000000e+00 0.000000000000000e+00 0.000000000000000e+00
0.000000000000000e+00 0.000000000000000e+00 0.000000000000000e+00
0.000000000000000e+00 0.000000000000000e+00 0.000000000000000e+00
0.000000000000000e+00 0.000000000000000e+00 0.000000000000000e+00
0.000000000000000e+00 0.000000000000000e+00 0.000000000000000e+00
0.000000000000000e+00 0.000000000000000e+00 0.000000000000000e+00
0.000000000000000e+00 0.000000000000000e+00 0.000000000000000e+00
0.000000000000000e+00 0.000000000000000e+00 0.000000000000000e+00
0.000000000000000e+00 0.000000000000000e+00 0.000000000000000e+00
0.000000000000000e+00 0.000000000000000e+00 0.000000000000000e+00
0.000000000000000e+00 0.000000000000000e+00 0.000000000000000e+00
0.000000000000000e+00 0.000000000000000e+00 0.000000000000000e+00
0.000000000000000e+00 0.000000000000000e+00 0.000000000000000e+00
0.000000000000000e+00 0.000000000000000e+00 0.000000000000000e+00
0.000000000000000e+00 0.000000000000000e+00 0.000000000000000e+00
0.000000000000000e+00 0.000000000000000e+00 0.000000000000000e+00
0.000000000000000e+00 0.000000000000000e+00 0.000000000000000e+00
0.000000000000000e+00 0.000000000000000e+00 0.000000000000000e+00
0.000000000000000e+00 0.000000000000000e+00 0.000000000000000e+00
0.000000000000000e+00 0.000000000000000e+00 0.000000000000000e+00
0.000000000000000e+00 0.000000000000000e+00 0.000000000000000e+00
0.000000000000000e+00 0.000000000000000e+00 0.000000000000000e+00
0.000000000000000e+00 0.000000000000000e+00 0.000000000000000e+00
0.000000000000000e+00 0.000000000000000e+00 0.000000000000000e+00
0.000000000000000e+00 0.000000000000000e+00 0.000000000000000e+00
0.000000000000000e+00 0.000000000000000e+00 0.000000000000000e+00
0.000000000000000e+00 0.000000000000000e+00 0.000000000000000e+00
0.000000000000000e+00 0.000000000000000e+00 0.000000000000000e+00
0.000000000000000e+00 0.000000000000000e+00 0.000000000000000e+00
0.000000000000000e+00 0.000000000000000e+00 0.000000000000000e+00
0.000000000000000e+00 0.000000000000000e+00 0.000000000000000e+00
0.000000000000000e+00 0.000000000000000e+00 0.000000000000000e+00
0.000000000000000e+00 0.000000000000000e+00 0.000000000000000e+00
0.000000000000000e+00 0.000000000000000e+00 0.000000000000000e+00
0.000000000000000e+00 0.000000000000000e+00 0.000000000000000e+00
0.000000000000000e+00 0.000000000000000e+00 0.000000000000000e+00
0.000000000000000e+00 0.000000000000000e+00 0.000000000000000e+00
0.000000000000000e+00 0.000000000000000e+00 0.000000000000000e+00
0.000000000000000e+00 0.000000000000000e+00 0.000000000000000e+00
0.000000000000000e+00 0.000000000000000e+00 0.000000000000000e+00
0.000000000000000e+00 0.000000000000000e+00 0.000000000000000e+00
0.000000000000000e+00 0.000000000000000e+00 0.000000000000000e+00
0.000000000000000e+00 0.000000000000000e+00 0.000000000000000e+00
0.000000000000000e+00 0.000000000000000e+00 0.000000000000000e+00
0.000000000000000e+00 0.000000000000000e+00 0.000000000000000e+00
0.000000000000000e+00 0.000000000000000e+00 0.000000000000000e+00
0.000000000000000e+00 0.000000000000000e+00 0.000000000000000e+00
0.000000000000000e+00 0.000000000000000e+00 0.000000000000000e+00
0.000000000000000e+00 0.000000000000000e+00 0.000000000000000e+00
0.000000000000000e+00 0.000000000000000e+00 0.000000000000000e+00
0.000000000000000e+00 0.000000000000000e+00 0.000000000000000e+00
0.000000000000000e+00 0.000000000000000e+00 0.000000000000000e+00
0.000000000000000e+00 0.000000000000000e+00 0.000000000000000e+00
0.000000000000000e+00 0.000000000000000e+00 0.000000000000000e+00
0.000000000000000e+00 0.000000000000000e+00 0.000000000000000e+00
0.000000000000000e+00 0.000000000000000e+00 0.000000000000000e+00
0.000000000000000e+00 0.000000000000000e+00 0.000000000000000e+00
0.000000000000000e+00 0.000000000000000e+00 0.000000000000000e+00
0.000000000000000e+00 0.000000000000000e+00 0.000000000000000e+00
0.000000000000000e+00 0.000000000000000e+00 0.000000000000000e+00
0.000000000000000e+00 0.000000000000000e+00 0.000000000000000e+00
0.000000000000000e+00 0.000000000000000e+00 0.000000000000000e+00
0.000000000000000e+00 0.000000000000000e+00 0.000000000000000e+00
0.000000000000000e+00 0.000000000000000e+00 0.000000000000000e+00
0.000000000000000e+00 0.000000000000000e+00 0.000000000000000e+00
0.000000000000000e+00 0.000000000000000e+00 0.000000000000000e+00
0.000000000000000e+00 0.000000000000000e+00 0.000000000000000e+00
0.000000000000000e+00 0.000000000000000e+00 0.000000000000000e+00
0.000000000000000e+00 0.000000000000000e+00 0.000000000000000e+00
0.000000000000000e+00 0.000000000000000e+00 0.000000000000000e+00
0.000000000000000e+00 0.000000000000000e+00 0.000000000000000e+00
0.000000000000000e+00 0.000000000000000e+00 0.000000000000000e+00
0.000000000000000e+00 0.000000000000000e+00 0.000000000000000e+00
0.000000000000000e+00 0.000000000000000e+00 0.000000000000000e+00
0.000000000000000e+00 0.000000000000000e+00 0.000000000000000e+00
0.000000000000000e+00 0.000000000000000e+00 0.000000000000000e+00
0.000000000000000e+00 0.000000000000000e+00 0.000000000000000e+00
0.000000000000000e+00 0.000000000000000e+00 0.000000000000000e+00
0.000000000000000e+00 0.000000000000000e+00 0.000000000000000e+00
0.000000000000000e+00 0.000000000000000e+00 0.000000000000000e+00
0.000000000000000e+00 0.000000000000000e+00 0.000000000000000e+00
0.000000000000000e+00 0.000000000000000e+00 0.000000000000000e+00
0.000000000000000e+00 0.000000000000000e+00 0.000000000000000e+00
0.000000000000000e+00 0.000000000000000e+00 0.000000000000000e+00
0.000000000000000e+00 0.000000000000000e+00 0.000000000000000e+00
0.000000000000000e+00 0.000000000000000e+00 0.000000000000000e+00
0.000000000000000e+00 0.000000000000000e+00 0.000000000000000e+00
0.000000000000000e+00 0.000000000000000e+00 0.000000000000000e+00
0.000000000000000e+00 0.000000000000000e+00 0.000000000000000e+00
0.000000000000000e+00 0.000000000000000e+00 0.000000000000000e+00
0.000000000000000e+00 0.000000000000000e+00 0.000000000000000e+00
0.000000000000000e+00 0.000000000000000e+00 0.000000000000000e+00
0.000000000000000e+00 0.000000000000000e+00 0.000000000000000e+00
0.000000000000000e+00 0.000000000000000e+00 0.000000000000000e+00
0.000000000000000e+00 0.000000000000000e+00 0.000000000000000e+00
0.000000000000000e+00 0.000000000000000e+00 0.000000000000000e+00
0.000000000000000e+00 0.000000000000000e+00 0.000000000000000e+00
0.000000000000000e+00 0.000000000000000e+00 0.000000000000000e+00
0.000000000000000e+00 0.000000000000000e+00 0.000000000000000e+00
0.000000000000000e+00 0.000000000000000e+00 0.000000000000000e+00
0.000000000000000e+00 0.000000000000000e+00 0.000000000000000e+00
0.000000000000000e+00 0.000000000000000e+00 0.000000000000000e+00
0.000000000000000e+00 0.000000000000000e+00 0.000000000000000e+00
0.000000000000000e+00 0.000000000000000e+00 0.000000000000000e+00
0.000000000000000e+00 0.000000000000000e+00 0.000000000000000e+00
0.000000000000000e+00 0.000000000000000e+00 0.000000000000000e+00
0.000000000000000e+00 0.000000000000000e+00 0.000000000000000e+00
0.000000000000000e+00 0.000000000000000e+00 0.000000000000000e+00
0.000000000000000e+00 0.000000000000000e+00 0.000000000000000e+00
0.000000000000000e+00 0.000000000000000e+00 0.000000000000000e+00
0.000000000000000e+00 0.000000000000000e+00 0.000000000000000e+00
0.000000000000000e+00 0.000000000000000e+00 0.000000000000000e+00
0.000000000000000e+00 0.000000000000000e+00 0.000000000000000e+00
0.000000000000000e+00 0.000000000000000e+00 0.000000000000000e+00
0.000000000000000e+00 0.000000000000000e+00 0.000000000000000e+00
0.000000000000000e+00 0.000000000000000e+00 0.000000000000000e+00
0.000000000000000e+00 0.000000000000000e+00 0.000000000000000e+00
0.000000000000000e+00 0.000000000000000e+00 0.000000000000000e+00
0.000000000000000e+00 0.000000000000000e+00 0.000000000000000e+00
0.000000000000000e+00 0.000000000000000e+00 0.000000000000000e+00
0.000000000000000e+00 0.000000000000000e+00 0.000000000000000e+00
0.000000000000000e+00 0.000000000000000e+00 0.000000000000000e+00
0.000000000000000e+00 0.000000000000000e+00 0.000000000000000e+00
0.000000000000000e+00 0.000000000000000e+00 0.000000000000000e+00
0.000000000000000e+00 0.000000000000000e+00 0.000000000000000e+00
0.000000000000000e+00 0.000000000000000e+00 0.000000000000000e+00
0.000000000000000e+00 0.000000000000000e+00 0.000000000000000e+00
0.000000000000000e+00 0.000000000000000e+00 0.000000000000000e+00
0.000000000000000e+00 0.000000000000000e+00 0.000000000000000e+00
0.000000000000000e+00 0.000000000000000e+00 0.000000000000000e+00
0.000000000000000e+00 0.000000000000000e+00 0.000000000000000e+00
0.000000000000000e+00 0.000000000000000e+00 0.000000000000000e+00
0.000000000000000e+00 0.000000000000000e+00 0.000000000000000e+00
0.000000000000000e+00 0.000000000000000e+00 0.000000000000000e+00
0.000000000000000e+00 0.000000000000000e+00 0.000000000000000e+00
0.000000000000000e+00 0.000000000000000e+00 0.000000000000000e+00
0.000000000000000e+00 0.000000000000000e+00 0.000000000000000e+00
0.000000000000000e+00 0.000000000000000e+00 0.000000000000000e+00
0.000000000000000e+00 0.000000000000000e+00 0.000000000000000e+00
0.000000000000000e+00 0.000000000000000e+00 0.000000000000000e+00
0.000000000000000e+00 0.000000000000000e+00 0.000000000000000e+00
0.000000000000000e+00 0.000000000000000e+00 0.000000000000000e+00
0.000000000000000e+00 0.000000000000000e+00 0.000000000000000e+00
0.000000000000000e+00 0.000000000000000e+00 0.000000000000000e+00
0.000000000000000e+00 0.000000000000000e+00 0.000000000000000e+00
0.000000000000000e+00 0.000000000000000e+00 0.000000000000000e+00
0.000000000000000e+00 0.000000000000000e+00 0.000000000000000e+00
0.000000000000000e+00 0.000000000000000e+00 0.000000000000000e+00
0.000000000000000e+00 0.000000000000000e+00 0.000000000000000e+00
0.000000000000000e+00 0.000000000000000e+00 0.000000000000000e+00
0.000000000000000e+00 0.000000000000000e+00 0.000000000000000e+00
0.000000000000000e+00 0.000000000000000e+00 0.000000000000000e+00
0.000000000000000e+00 0.000000000000000e+00 0.000000000000000e+00
0.000000000000000e+00 0.000000000000000e+00 0.000000000000000e+00
0.000000000000000e+00 0.000000000000000e+00 0.000000000000000e+00
0.000000000000000e+00 0.000000000000000e+00 0.000000000000000e+00
0.000000000000000e+00 0.000000000000000e+00 0.000000000000000e+00
0.000000000000000e+00 0.000000000000000e+00 0.000000000000000e+00
0.000000000000000e+00 0.000000000000000e+00 0.000000000000000e+00
0.000000000000000e+00 0.000000000000000e+00 0.000000000000000e+00
0.000000000000000e+00 0.000000000000000e+00 0.000000000000000e+00
0.000000000000000e+00 0.000000000000000e+00 0.000000000000000e+00
0.000000000000000e+00 0.000000000000000e+00 0.000000000000000e+00
0.000000000000000e+00 0.000000000000000e+00 0.000000000000000e+00
0.000000000000000e+00 0.000000000000000e+00 0.000000000000000e+00
0.000000000000000e+00 0.000000000000000e+00 0.000000000000000e+00
0.000000000000000e+00 0.000000000000000e+00 0.000000000000000e+00
0.000000000000000e+00 0.000000000000000e+00 0.000000000000000e+00
0.000000000000000e+00 0.000000000000000e+00 0.000000000000000e+00
0.000000000000000e+00 0.000000000000000e+00 0.000000000000000e+00
0.000000000000000e+00 0.000000000000000e+00 0.000000000000000e+00
0.000000000000000e+00 0.000000000000000e+00 0.000000000000000e+00
0.000000000000000e+00 0.000000000000000e+00 0.000000000000000e+00
0.000000000000000e+00 0.000000000000000e+00 0.000000000000000e+00
0.000000000000000e+00 0.000000000000000e+00 0.000000000000000e+00
0.000000000000000e+00 0.000000000000000e+00 0.000000000000000e+00
0.000000000000000e+00 0.000000000000000e+00 0.000000000000000e+00
0.000000000000000e+00 0.000000000000000e+00 0.000000000000000e+00
0.000000000000000e+00 0.000000000000000e+00 0.000000000000000e+00
0.000000000000000e+00 0.000000000000000e+00 0.000000000000000e+00
0.000000000000000e+00 0.000000000000000e+00 0.000000000000000e+00
0.000000000000000e+00 0.000000000000000e+00 0.000000000000000e+00
0.000000000000000e+00 0.000000000000000e+00 0.000000000000000e+00
0.000000000000000e+00 0.000000000000000e+00 0.000000000000000e+00
0.000000000000000e+00 0.000000000000000e+00 0.000000000000000e+00
0.000000000000000e+00 0.000000000000000e+00 0.000000000000000e+00
0.000000000000000e+00 0.000000000000000e+00 0.000000000000000e+00
0.000000000000000e+00 0.000000000000000e+00 0.000000000000000e+00
0.000000000000000e+00 0.000000000000000e+00 0.000000000000000e+00
0.000000000000000e+00 0.000000000000000e+00 0.000000000000000e+00
0.000000000000000e+00 0.000000000000000e+00 0.000000000000000e+00
0.000000000000000e+00 0.000000000000000e+00 0.000000000000000e+00
0.000000000000000e+00 0.000000000000000e+00 0.000000000000000e+00
0.000000000000000e+00 0.000000000000000e+00 0.000000000000000e+00
0.000000000000000e+00 0.000000000000000e+00 0.000000000000000e+00
0.000000000000000e+00 0.000000000000000e+00 0.000000000000000e+00
0.000000000000000e+00 0.000000000000000e+00 0.000000000000000e+00
0.000000000000000e+00 0.000000000000000e+00 0.000000000000000e+00
0.000000000000000e+00 0.000000000000000e+00 0.000000000000000e+00
0.000000000000000e+00 0.000000000000000e+00 0.000000000000000e+00
0.000000000000000e+00 0.000000000000000e+00 0.000000000000000e+00
0.000000000000000e+00 0.000000000000000e+00 0.000000000000000e+00
0.000000000000000e+00 0.000000000000000e+00 0.000000000000000e+00
0.000000000000000e+00 0.000000000000000e+00 0.000000000000000e+00
0.000000000000000e+00 0.000000000000000e+00 0.000000000000000e+00
0.000000000000000e+00 0.000000000000000e+00 0.000000000000000e+00
0.000000000000000e+00 0.000000000000000e+00 0.000000000000000e+00
0.000000000000000e+00 0.000000000000000e+00 0.000000000000000e+00
0.000000000000000e+00 0.000000000000000e+00 0.000000000000000e+00
0.000000000000000e+00 0.000000000000000e+00 0.000000000000000e+00
0.000000000000000e+00 0.000000000000000e+00 0.000000000000000e+00
0.000000000000000e+00 0.000000000000000e+00 0.000000000000000e+00
0.000000000000000e+00 0.000000000000000e+00 0.000000000000000e+00
0.000000000000000e+00 0.000000000000000e+00 0.000000000000000e+00
0.000000000000000e+00 0.000000000000000e+00 0.000000000000000e+00
0.000000000000000e+00 0.000000000000000e+00 0.000000000000000e+00
0.000000000000000e+00 0.000000000000000e+00 0.000000000000000e+00
0.000000000000000e+00 0.000000000000000e+00 0.000000000000000e+00
0.000000000000000e+00 0.000000000000000e+00 0.000000000000000e+00
0.000000000000000e+00 0.000000000000000e+00 0.000000000000000e+00
0.000000000000000e+00 0.000000000000000e+00 0.000000000000000e+00
0.000000000000000e+00 0.000000000000000e+00 0.000000000000000e+00
0.000000000000000e+00 0.000000000000000e+00 0.000000000000000e+00
0.000000000000000e+00 0.000000000000000e+00 0.000000000000000e+00
0.000000000000000e+00 0.000000000000000e+00 0.000000000000000e+00
0.000000000000000e+00 0.000000000000000e+00 0.000000000000000e+00
0.000000000000000e+00 0.000000000000000e+00 0.000000000000000e+00
0.000000000000000e+00 0.000000000000000e+00 0.000000000000000e+00
0.000000000000000e+00 0.000000000000000e+00 0.000000000000000e+00
0.000000000000000e+00 0.000000000000000e+00 0.000000000000000e+00
0.000000000000000e+00 0.000000000000000e+00 0.000000000000000e+00
0.000000000000000e+00 0.000000000000000e+00 0.000000000000000e+00
0.000000000000000e+00 0.000000000000000e+00 0.000000000000000e+00
0.000000000000000e+00 0.000000000000000e+00 0.000000000000000e+00
0.000000000000000e+00 0.000000000000000e+00 0.000000000000000e+00
0.000000000000000e+00 0.000000000000000e+00 0.000000000000000e+00
0.000000000000000e+00 0.000000000000000e+00 0.000000000000000e+00
0.000000000000000e+00 0.000000000000000e+00 0.000000000000000e+00
0.000000000000000e+00 0.000000000000000e+00 0.000000000000000e+00
0.000000000000000e+00 0.000000000000000e+00 0.000000000000000e+00
0.000000000000000e+00 0.000000000000000e+00 0.000000000000000e+00
0.000000000000000e+00 0.000000000000000e+00 0.000000000000000e+00
0.000000000000000e+00 0.000000000000000e+00 0.000000000000000e+00
0.000000000000000e+00 0.000000000000000e+00 0.000000000000000e+00
0.000000000000000e+00 0.000000000000000e+00 0.000000000000000e+00
0.000000000000000e+00 0.000000000000000e+00 0.000000000000000e+00
0.000000000000000e+00 0.000000000000000e+00 0.000000000000000e+00
0.000000000000000e+00 0.000000000000000e+00 0.000000000000000e+00
0.000000000000000e+00 0.000000000000000e+00 0.000000000000000e+00
0.000000000000000e+00 0.000000000000000e+00 0.000000000000000e+00
0.000000000000000e+00 0.000000000000000e+00 0.000000000000000e+00
0.000000000000000e+00 0.000000000000000e+00 0.000000000000000e+00
0.000000000000000e+00 0.000000000000000e+00 0.000000000000000e+00
0.000000000000000e+00 0.000000000000000e+00 0.000000000000000e+00
0.000000000000000e+00 0.000000000000000e+00 0.000000000000000e+00
0.000000000000000e+00 0.000000000000000e+00 0.000000000000000e+00
0.000000000000000e+00 0.000000000000000e+00 0.000000000000000e+00
0.000000000000000e+00 0.000000000000000e+00 0.000000000000000e+00
0.000000000000000e+00 0.000000000000000e+00 0.000000000000000e+00
0.000000000000000e+00 0.000000000000000e+00 0.000000000000000e+00
0.000000000000000e+00 0.000000000000000e+00 0.000000000000000e+00
0.000000000000000e+00 0.000000000000000e+00 0.000000000000000e+00
0.000000000000000e+00 0.000000000000000e+00 0.000000000000000e+00
0.000000000000000e+00 0.000000000000000e+00 0.000000000000000e+00
0.000000000000000e+00 0.000000000000000e+00 0.000000000000000e+00
0.000000000000000e+00 0.000000000000000e+00 0.000000000000000e+00
0.000000000000000e+00 0.000000000000000e+00 0.000000000000000e+00
0.000000000000000e+00 0.000000000000000e+00 0.000000000000000e+00
0.000000000000000e+00 0.000000000000000e+00 0.000000000000000e+00
0.000000000000000e+00 0.000000000000000e+00 0.000000000000000e+00
0.000000000000000e+00 0.000000000000000e+00 0.000000000000000e+00
0.000000000000000e+00 0.000000000000000e+00 0.000000000000000e+00
0.000000000000000e+00 0.000000000000000e+00 0.000000000000000e+00
0.000000000000000e+00 0.000000000000000e+00 0.000000000000000e+00
0.000000000000000e+00 0.000000000000000e+00 0.000000000000000e+00
0.000000000000000e+00 0.000000000000000e+00 0.000000000000000e+00
0.000000000000000e+00 0.000000000000000e+00 0.000000000000000e+00
0.000000000000000e+00 0.000000000000000e+00 0.000000000000000e+00
0.000000000000000e+00 0.000000000000000e+00 0.000000000000000e+00
0.000000000000000e+00 0.000000000000000e+00 0.000000000000000e+00
0.000000000000000e+00 0.000000000000000e+00 0.000000000000000e+00
0.000000000000000e+00 0.000000000000000e+00 0.000000000000000e+00
0.000000000000000e+00 0.000000000000000e+00 0.000000000000000e+00
0.000000000000000e+00 0.000000000000000e+00 0.000000000000000e+00
0.000000000000000e+00 0.000000000000000e+00 0.000000000000000e+00
0.000000000000000e+00 0.000000000000000e+00 0.000000000000000e+00
0.000000000000000e+00 0.000000000000000e+00 0.000000000000000e+00
0.000000000000000e+00 0.000000000000000e+00 0.000000000000000e+00
0.000000000000000e+00 0.000000000000000e+00 0.000000000000000e+00
0.000000000000000e+00 0.000000000000000e+00 0.000000000000000e+00
0.000000000000000e+00 0.000000000000000e+00 0.000000000000000e+00
0.000000000000000e+00 0.000000000000000e+00 0.000000000000000e+00
0.000000000000000e+00 0.000000000000000e+00 0.000000000000000e+00
0.000000000000000e+00 0.000000000000000e+00 0.000000000000000e+00
0.000000000000000e+00 0.000000000000000e+00 0.000000000000000e+00
0.000000000000000e+00 0.000000000000000e+00 0.000000000000000e+00
0.000000000000000e+00 0.000000000000000e+00 0.000000000000000e+00
0.000000000000000e+00 0.000000000000000e+00 0.000000000000000e+00
0.000000000000000e+00 0.000000000000000e+00 0.000000000000000e+00
0.000000000000000e+00 0.000000000000000e+00 0.000000000000000e+00
0.000000000000000e+00 0.000000000000000e+00 0.000000000000000e+00
0.000000000000000e+00 0.000000000000000e+00 0.000000000000000e+00
0.000000000000000e+00 0.000000000000000e+00 0.000000000000000e+00
0.000000000000000e+00 0.000000000000000e+00 0.000000000000000e+00
0.000000000000000e+00 0.000000000000000e+00 0.000000000000000e+00
0.000000000000000e+00 0.000000000000000e+00 0.000000000000000e+00
0.000000000000000e+00 0.000000000000000e+00 0.000000000000000e+00
0.000000000000000e+00 0.000000000000000e+00 0.000000000000000e+00
0.000000000000000e+00 0.000000000000000e+00 0.000000000000000e+00
0.000000000000000e+00 0.000000000000000e+00 0.000000000000000e+00
0.000000000000000e+00 0.000000000000000e+00 0.000000000000000e+00
0.000000000000000e+00 0.000000000000000e+00 0.000000000000000e+00
0.000000000000000e+00 0.000000000000000e+00 0.000000000000000e+00
0.000000000000000e+00 0.000000000000000e+00 0.000000000000000e+00
0.000000000000000e+00 0.000000000000000e+00 0.000000000000000e+00
0.000000000000000e+00 0.000000000000000e+00 0.000000000000000e+00
0.000000000000000e+00 0.000000000000000e+00 0.000000000000000e+00
0.000000000000000e+00 0.000000000000000e+00 0.000000000000000e+00
0.000000000000000e+00 0.000000000000000e+00 0.000000000000000e+00
0.000000000000000e+00 0.000000000000000e+00 0.000000000000000e+00
0.000000000000000e+00 0.000000000000000e+00 0.000000000000000e+00
0.000000000000000e+00 0.000000000000000e+00 0.000000000000000e+00
0.000000000000000e+00 0.000000000000000e+00 0.000000000000000e+00
0.000000000000000e+00 0.000000000000000e+00 0.000000000000000e+00
0.000000000000000e+00 0.000000000000000e+00 0.000000000000000e+00
0.000000000000000e+00 0.000000000000000e+00 0.000000000000000e+00
0.000000000000000e+00 0.000000000000000e+00 0.000000000000000e+00
0.000000000000000e+00 0.000000000000000e+00 0.000000000000000e+00
0.000000000000000e+00 0.000000000000000e+00 0.000000000000000e+00
0.000000000000000e+00 0.000000000000000e+00 0.000000000000000e+00
0.000000000000000e+00 0.000000000000000e+00 0.000000000000000e+00
0.000000000000000e+00 0.000000000000000e+00 0.000000000000000e+00
0.000000000000000e+00 0.000000000000000e+00 0.000000000000000e+00
0.000000000000000e+00 0.000000000000000e+00 0.000000000000000e+00
0.000000000000000e+00 0.000000000000000e+00 0.000000000000000e+00
0.000000000000000e+00 0.000000000000000e+00 0.000000000000000e+00
0.000000000000000e+00 0.000000000000000e+00 0.000000000000000e+00
0.000000000000000e+00 0.000000000000000e+00 0.000000000000000e+00
0.000000000000000e+00 0.000000000000000e+00 0.000000000000000e+00
0.000000000000000e+00 0.000000000000000e+00 0.000000000000000e+00
0.000000000000000e+00 0.000000000000000e+00 0.000000000000000e+00
0.000000000000000e+00 0.000000000000000e+00 0.000000000000000e+00
0.000000000000000e+00 0.000000000000000e+00 0.000000000000000e+00
0.000000000000000e+00 0.000000000000000e+00 0.000000000000000e+00
0.000000000000000e+00 0.000000000000000e+00 0.000000000000000e+00
0.000000000000000e+00 0.000000000000000e+00 0.000000000000000e+00
0.000000000000000e+00 0.000000000000000e+00 0.000000000000000e+00
0.000000000000000e+00 0.000000000000000e+00 0.000000000000000e+00
0.000000000000000e+00 0.000000000000000e+00 0.000000000000000e+00
0.000000000000000e+00 0.000000000000000e+00 0.000000000000000e+00
0.000000000000000e+00 0.000000000000000e+00 0.000000000000000e+00
0.000000000000000e+00 0.000000000000000e+00 0.000000000000000e+00
0.000000000000000e+00 0.000000000000000e+00 0.000000000000000e+00
0.000000000000000e+00 0.000000000000000e+00 0.000000000000000e+00
0.000000000000000e+00 0.000000000000000e+00 0.000000000000000e+00
0.000000000000000e+00 0.000000000000000e+00 0.000000000000000e+00
0.000000000000000e+00 0.000000000000000e+00 0.000000000000000e+00
0.000000000000000e+00 0.000000000000000e+00 0.000000000000000e+00
0.000000000000000e+00 0.000000000000000e+00 0.000000000000000e+00
0.000000000000000e+00 0.000000000000000e+00 0.000000000000000e+00
0.000000000000000e+00 0.000000000000000e+00 0.000000000000000e+00
0.000000000000000e+00 0.000000000000000e+00 0.000000000000000e+00
0.000000000000000e+00 0.000000000000000e+00 0.000000000000000e+00
0.000000000000000e+00 0.000000000000000e+00 0.000000000000000e+00
0.000000000000000e+00 0.000000000000000e+00 0.000000000000000e+00
0.000000000000000e+00 0.000000000000000e+00 0.000000000000000e+00
0.000000000000000e+00 0.000000000000000e+00 0.000000000000000e+00
0.000000000000000e+00 0.000000000000000e+00 0.000000000000000e+00
0.000000000000000e+00 0.000000000000000e+00 0.000000000000000e+00
0.000000000000000e+00 0.000000000000000e+00 0.000000000000000e+00
0.000000000000000e+00 0.000000000000000e+00 0.000000000000000e+00
0.000000000000000e+00 0.000000000000000e+00 0.000000000000000e+00
0.000000000000000e+00 0.000000000000000e+00 0.000000000000000e+00
0.000000000000000e+00 0.000000000000000e+00 0.000000000000000e+00
0.000000000000000e+00 0.000000000000000e+00 0.000000000000000e+00
0.000000000000000e+00 0.000000000000000e+00 0.000000000000000e+00
0.000000000000000e+00 0.000000000000000e+00 0.000000000000000e+00
0.000000000000000e+00 0.000000000000000e+00 0.000000000000000e+00
0.000000000000000e+00 0.000000000000000e+00 0.000000000000000e+00
0.000000000000000e+00 0.000000000000000e+00 0.000000000000000e+00
0.000000000000000e+00 0.000000000000000e+00 0.000000000000000e+00
0.000000000000000e+00 0.000000000000000e+00 0.000000000000000e+00
0.000000000000000e+00 0.000000000000000e+00 0.000000000000000e+00
0.000000000000000e+00 0.000000000000000e+00 0.000000000000000e+00
0.000000000000000e+00 0.000000000000000e+00 0.000000000000000e+00
0.000000000000000e+00 0.000000000000000e+00 0.000000000000000e+00
0.000000000000000e+00 0.000000000000000e+00 0.000000000000000e+00
0.000000000000000e+00 0.000000000000000e+00 0.000000000000000e+00
0.000000000000000e+00 0.000000000000000e+00 0.000000000000000e+00
0.000000000000000e+00 0.000000000000000e+00 0.000000000000000e+00
0.000000000000000e+00 0.000000000000000e+00 0.000000000000000e+00
0.000000000000000e+00 0.000000000000000e+00 0.000000000000000e+00
0.000000000000000e+00 0.000000000000000e+00 0.000000000000000e+00
0.000000000000000e+00 0.000000000000000e+00 0.000000000000000e+00
0.000000000000000e+00 0.000000000000000e+00 0.000000000000000e+00
0.000000000000000e+00 0.000000000000000e+00 0.000000000000000e+00
0.000000000000000e+00 0.000000000000000e+00 0.000000000000000e+00
0.000000000000000e+00 0.000000000000000e+00 0.000000000000000e+00
0.000000000000000e+00 0.000000000000000e+00 0.000000000000000e+00
0.000000000000000e+00 0.000000000000000e+00 0.000000000000000e+00
0.000000000000000e+00 0.000000000000000e+00 0.000000000000000e+00
0.000000000000000e+00 0.000000000000000e+00 0.000000000000000e+00
0.000000000000000e+00 0.000000000000000e+00 0.000000000000000e+00
0.000000000000000e+00 0.000000000000000e+00 0.000000000000000e+00
0.000000000000000e+00 0.000000000000000e+00 0.000000000000000e+00
0.000000000000000e+00 0.000000000000000e+00 0.000000000000000e+00
0.000000000000000e+00 0.000000000000000e+00 0.000000000000000e+00
0.000000000000000e+00 0.000000000000000e+00 0.000000000000000e+00
0.000000000000000e+00 0.000000000000000e+00 0.000000000000000e+00
0.000000000000000e+00 0.000000000000000e+00 0.000000000000000e+00
0.000000000000000e+00 0.000000000000000e+00 0.000000000000000e+00
0.000000000000000e+00 0.000000000000000e+00 0.000000000000000e+00
0.000000000000000e+00 0.000000000000000e+00 0.000000000000000e+00
0.000000000000000e+00 0.000000000000000e+00 0.000000000000000e+00
0.000000000000000e+00 0.000000000000000e+00 0.000000000000000e+00
0.000000000000000e+00 0.000000000000000e+00 0.000000000000000e+00
0.000000000000000e+00 0.000000000000000e+00 0.000000000000000e+00
0.000000000000000e+00 0.000000000000000e+00 0.000000000000000e+00
0.000000000000000e+00 0.000000000000000e+00 0.000000000000000e+00
0.000000000000000e+00 0.000000000000000e+00 0.000000000000000e+00
0.000000000000000e+00 0.000000000000000e+00 0.000000000000000e+00
0.000000000000000e+00 0.000000000000000e+00 0.000000000000000e+00
0.000000000000000e+00 0.000000000000000e+00 0.000000000000000e+00
0.000000000000000e+00 0.000000000000000e+00 0.000000000000000e+00
0.000000000000000e+00 0.000000000000000e+00 0.000000000000000e+00
0.000000000000000e+00 0.000000000000000e+00 0.000000000000000e+00
0.000000000000000e+00 0.000000000000000e+00 0.000000000000000e+00
0.000000000000000e+00 0.000000000000000e+00 0.000000000000000e+00
0.000000000000000e+00 0.000000000000000e+00 0.000000000000000e+00
0.000000000000000e+00 0.000000000000000e+00 0.000000000000000e+00
0.000000000000000e+00 0.000000000000000e+00 0.000000000000000e+00
0.000000000000000e+00 0.000000000000000e+00 0.000000000000000e+00
0.000000000000000e+00 0.000000000000000e+00 0.000000000000000e+00
0.000000000000000e+00 0.000000000000000e+00 0.000000000000000e+00
0.000000000000000e+00 0.000000000000000e+00 0.000000000000000e+00
0.000000000000000e+00 0.000000000000000e+00 0.000000000000000e+00
0.000000000000000e+00 0.000000000000000e+00 0.000000000000000e+00
0.000000000000000e+00 0.000000000000000e+00 0.000000000000000e+00
0.000000000000000e+00 0.000000000000000e+00 0.000000000000000e+00
0.000000000000000e+00 0.000000000000000e+00 0.000000000000000e+00
0.000000000000000e+00 0.000000000000000e+00 0.000000000000000e+00
0.000000000000000e+00 0.000000000000000e+00 0.000000000000000e+00
0.000000000000000e+00 0.000000000000000e+00 0.000000000000000e+00
0.000000000000000e+00 0.000000000000000e+00 0.000000000000000e+00
0.000000000000000e+00 0.000000000000000e+00 0.000000000000000e+00
0.000000000000000e+00 0.000000000000000e+00 0.000000000000000e+00
0.000000000000000e+00 0.000000000000000e+00 0.000000000000000e+00
0.000000000000000e+00 0.000000000000000e+00 0.000000000000000e+00
0.000000000000000e+00 0.000000000000000e+00 0.000000000000000e+00
0.000000000000000e+00 0.000000000000000e+00 0.000000000000000e+00
0.000000000000000e+00 0.000000000000000e+00 0.000000000000000e+00
0.000000000000000e+00 0.000000000000000e+00 0.000000000000000e+00
0.000000000000000e+00 0.000000000000000e+00 0.000000000000000e+00
0.000000000000000e+00 0.000000000000000e+00 0.000000000000000e+00
0.000000000000000e+00 0.000000000000000e+00 0.000000000000000e+00
0.000000000000000e+00 0.000000000000000e+00 0.000000000000000e+00
0.000000000000000e+00 0.000000000000000e+00 0.000000000000000e+00
0.000000000000000e+00 0.000000000000000e+00 0.000000000000000e+00
0.000000000000000e+00 0.000000000000000e+00 0.000000000000000e+00
0.000000000000000e+00 0.000000000000000e+00 0.000000000000000e+00
0.000000000000000e+00 0.000000000000000e+00 0.000000000000000e+00
0.000000000000000e+00 0.000000000000000e+00 0.000000000000000e+00
0.000000000000000e+00 0.000000000000000e+00 0.000000000000000e+00
0.000000000000000e+00 0.000000000000000e+00 0.000000000000000e+00
0.000000000000000e+00 0.000000000000000e+00 0.000000000000000e+00
0.000000000000000e+00 0.000000000000000e+00 0.000000000000000e+00
0.000000000000000e+00 0.000000000000000e+00 0.000000000000000e+00
0.000000000000000e+00 0.000000000000000e+00 0.000000000000000e+00
0.000000000000000e+00 0.000000000000000e+00 0.000000000000000e+00
0.000000000000000e+00 0.000000000000000e+00 0.000000000000000e+00
0.000000000000000e+00 0.000000000000000e+00 0.000000000000000e+00
0.000000000000000e+00 0.000000000000000e+00 0.000000000000000e+00
0.000000000000000e+00 0.000000000000000e+00 0.000000000000000e+00
0.000000000000000e+00 0.000000000000000e+00 0.000000000000000e+00
0.000000000000000e+00 0.000000000000000e+00 0.000000000000000e+00
0.000000000000000e+00 0.000000000000000e+00 0.000000000000000e+00
0.000000000000000e+00 0.000000000000000e+00 0.000000000000000e+00
0.000000000000000e+00 0.000000000000000e+00 0.000000000000000e+00
0.000000000000000e+00 0.000000000000000e+00 0.000000000000000e+00
0.000000000000000e+00 0.000000000000000e+00 0.000000000000000e+00
0.000000000000000e+00 0.000000000000000e+00 0.000000000000000e+00
0.000000000000000e+00 0.000000000000000e+00 0.000000000000000e+00
0.000000000000000e+00 0.000000000000000e+00 0.000000000000000e+00
0.000000000000000e+00 0.000000000000000e+00 0.000000000000000e+00
0.000000000000000e+00 0.000000000000000e+00 0.000000000000000e+00
0.000000000000000e+00 0.000000000000000e+00 0.000000000000000e+00
0.000000000000000e+00 0.000000000000000e+00 0.000000000000000e+00
0.000000000000000e+00 0.000000000000000e+00 0.000000000000000e+00
0.000000000000000e+00 0.000000000000000e+00 0.000000000000000e+00
0.000000000000000e+00 0.000000000000000e+00 0.000000000000000e+00
0.000000000000000e+00 0.000000000000000e+00 0.000000000000000e+00
0.000000000000000e+00 0.000000000000000e+00 0.000000000000000e+00
0.000000000000000e+00 0.000000000000000e+00 0.000000000000000e+00
0.000000000000000e+00 0.000000000000000e+00 0.000000000000000e+00
0.000000000000000e+00 0.000000000000000e+00 0.000000000000000e+00
0.000000000000000e+00 0.000000000000000e+00 0.000000000000000e+00
0.000000000000000e+00 0.000000000000000e+00 0.000000000000000e+00
0.000000000000000e+00 0.000000000000000e+00 0.000000000000000e+00
0.000000000000000e+00 0.000000000000000e+00 0.000000000000000e+00
0.000000000000000e+00 0.000000000000000e+00 0.000000000000000e+00
0.000000000000000e+00 0.000000000000000e+00 0.000000000000000e+00
0.000000000000000e+00 0.000000000000000e+00 0.000000000000000e+00
0.000000000000000e+00 0.000000000000000e+00 0.000000000000000e+00
0.000000000000000e+00 0.000000000000000e+00 0.000000000000000e+00
0.000000000000000e+00 0.000000000000000e+00 0.000000000000000e+00
0.000000000000000e+00 0.000000000000000e+00 0.000000000000000e+00
0.000000000000000e+00 0.000000000000000e+00 0.000000000000000e+00
0.000000000000000e+00 0.000000000000000e+00 0.000000000000000e+00
0.000000000000000e+00 0.000000000000000e+00 0.000000000000000e+00
0.000000000000000e+00 0.000000000000000e+00 0.000000000000000e+00
0.000000000000000e+00 0.000000000000000e+00 0.000000000000000e+00
0.000000000000000e+00 0.000000000000000e+00 0.000000000000000e+00
0.000000000000000e+00 0.000000000000000e+00 0.000000000000000e+00
0.000000000000000e+00 0.000000000000000e+00 0.000000000000000e+00
0.000000000000000e+00 0.000000000000000e+00 0.000000000000000e+00
0.000000000000000e+00 0.000000000000000e+00 0.000000000000000e+00
0.000000000000000e+00 0.000000000000000e+00 0.000000000000000e+00
0.000000000000000e+00 0.000000000000000e+00 0.000000000000000e+00
0.000000000000000e+00 0.000000000000000e+00 0.000000000000000e+00
0.000000000000000e+00 0.000000000000000e+00 0.000000000000000e+00
0.000000000000000e+00 0.000000000000000e+00 0.000000000000000e+00
0.000000000000000e+00 0.000000000000000e+00 0.000000000000000e+00
0.000000000000000e+00 0.000000000000000e+00 0.000000000000000e+00
0.000000000000000e+00 0.000000000000000e+00 0.000000000000000e+00
0.000000000000000e+00 0.000000000000000e+00 0.000000000000000e+00
0.000000000000000e+00 0.000000000000000e+00 0.000000000000000e+00
0.000000000000000e+00 0.000000000000000e+00 0.000000000000000e+00
0.000000000000000e+00 0.000000000000000e+00 0.000000000000000e+00
0.000000000000000e+00 0.000000000000000e+00 0.000000000000000e+00
0.000000000000000e+00 0.000000000000000e+00 0.000000000000000e+00
0.000000000000000e+00 0.000000000000000e+00 0.000000000000000e+00
0.000000000000000e+00 0.000000000000000e+00 0.000000000000000e+00
0.000000000000000e+00 0.000000000000000e+00 0.000000000000000e+00
0.000000000000000e+00 0.000000000000000e+00 0.000000000000000e+00
0.000000000000000e+00 0.000000000000000e+00 0.000000000000000e+00
0.000000000000000e+00 0.000000000000000e+00 0.000000000000000e+00
0.000000000000000e+00 0.000000000000000e+00 0.000000000000000e+00
0.000000000000000e+00 0.000000000000000e+00 0.000000000000000e+00
0.000000000000000e+00 0.000000000000000e+00 0.000000000000000e+00
0.000000000000000e+00 0.000000000000000e+00 0.000000000000000e+00
0.000000000000000e+00 0.000000000000000e+00 0.000000000000000e+00
0.000000000000000e+00 0.000000000000000e+00 0.000000000000000e+00
0.000000000000000e+00 0.000000000000000e+00 0.000000000000000e+00
0.000000000000000e+00 0.000000000000000e+00 0.000000000000000e+00
0.000000000000000e+00 0.000000000000000e+00 0.000000000000000e+00
0.000000000000000e+00 0.000000000000000e+00 0.000000000000000e+00
0.000000000000000e+00 0.000000000000000e+00 0.000000000000000e+00
0.000000000000000e+00 0.000000000000000e+00 0.000000000000000e+00
0.000000000000000e+00 0.000000000000000e+00 0.000000000000000e+00
0.000000000000000e+00 0.000000000000000e+00 0.000000000000000e+00
0.000000000000000e+00 0.000000000000000e+00 0.000000000000000e+00
0.000000000000000e+00 0.000000000000000e+00 0.000000000000000e+00
0.000000000000000e+00 0.000000000000000e+00 0.000000000000000e+00
0.000000000000000e+00 0.000000000000000e+00 0.000000000000000e+00
0.000000000000000e+00 0.000000000000000e+00 0.000000000000000e+00
0.000000000000000e+00 0.000000000000000e+00 0.000000000000000e+00
0.000000000000000e+00 0.000000000000000e+00 0.000000000000000e+00
0.000000000000000e+00 0.000000000000000e+00 0.000000000000000e+00
0.000000000000000e+00 0.000000000000000e+00 0.000000000000000e+00
0.000000000000000e+00 0.000000000000000e+00 0.000000000000000e+00
0.000000000000000e+00 0.000000000000000e+00 0.000000000000000e+00
0.000000000000000e+00 0.000000000000000e+00 0.000000000000000e+00
0.000000000000000e+00 0.000000000000000e+00 0.000000000000000e+00
0.000000000000000e+00 0.000000000000000e+00 0.000000000000000e+00
0.000000000000000e+00 0.000000000000000e+00 0.000000000000000e+00
0.000000000000000e+00 0.000000000000000e+00 0.000000000000000e+00
0.000000000000000e+00 0.000000000000000e+00 0.000000000000000e+00
0.000000000000000e+00 0.000000000000000e+00 0.000000000000000e+00
0.000000000000000e+00 0.000000000000000e+00 0.000000000000000e+00
0.000000000000000e+00 0.000000000000000e+00 0.000000000000000e+00
0.000000000000000e+00 0.000000000000000e+00 0.000000000000000e+00
0.000000000000000e+00 0.000000000000000e+00 0.000000000000000e+00
0.000000000000000e+00 0.000000000000000e+00 0.000000000000000e+00
0.000000000000000e+00 0.000000000000000e+00 0.000000000000000e+00
0.000000000000000e+00 0.000000000000000e+00 0.000000000000000e+00
0.000000000000000e+00 0.000000000000000e+00 0.000000000000000e+00
0.000000000000000e+00 0.000000000000000e+00 0.000000000000000e+00
0.000000000000000e+00 0.000000000000000e+00 0.000000000000000e+00
0.000000000000000e+00 0.000000000000000e+00 0.000000000000000e+00
0.000000000000000e+00 0.000000000000000e+00 0.000000000000000e+00
0.000000000000000e+00 0.000000000000000e+00 0.000000000000000e+00
0.000000000000000e+00 0.000000000000000e+00 0.000000000000000e+00
0.000000000000000e+00 0.000000000000000e+00 0.000000000000000e+00
0.000000000000000e+00 0.000000000000000e+00 0.000000000000000e+00
0.000000000000000e+00 0.000000000000000e+00 0.000000000000000e+00
0.000000000000000e+00 0.000000000000000e+00 0.000000000000000e+00
0.000000000000000e+00 0.000000000000000e+00 0.000000000000000e+00
0.000000000000000e+00 0.000000000000000e+00 0.000000000000000e+00
0.000000000000000e+00 0.000000000000000e+00 0.000000000000000e+00
0.000000000000000e+00 0.000000000000000e+00 0.000000000000000e+00
0.000000000000000e+00 0.000000000000000e+00 0.000000000000000e+00
0.000000000000000e+00 0.000000000000000e+00 0.000000000000000e+00
0.000000000000000e+00 0.000000000000000e+00 0.000000000000000e+00
0.000000000000000e+00 0.000000000000000e+00 0.000000000000000e+00
0.000000000000000e+00 0.000000000000000e+00 0.000000000000000e+00
0.000000000000000e+00 0.000000000000000e+00 0.000000000000000e+00
0.000000000000000e+00 0.000000000000000e+00 0.000000000000000e+00
0.000000000000000e+00 0.000000000000000e+00 0.000000000000000e+00
0.000000000000000e+00 0.000000000000000e+00 0.000000000000000e+00
0.000000000000000e+00 0.000000000000000e+00 0.000000000000000e+00
0.000000000000000e+00 0.000000000000000e+00 0.000000000000000e+00
0.000000000000000e+00 0.000000000000000e+00 0.000000000000000e+00
0.000000000000000e+00 0.000000000000000e+00 0.000000000000000e+00
0.000000000000000e+00 0.000000000000000e+00 0.000000000000000e+00
0.000000000000000e+00 0.000000000000000e+00 0.000000000000000e+00
0.000000000000000e+00 0.000000000000000e+00 0.000000000000000e+00
0.000000000000000e+00 0.000000000000000e+00 0.000000000000000e+00
0.000000000000000e+00 0.000000000000000e+00 0.000000000000000e+00
0.000000000000000e+00 0.000000000000000e+00 0.000000000000000e+00
0.000000000000000e+00 0.000000000000000e+00 0.000000000000000e+00
0.000000000000000e+00 0.000000000000000e+00 0.000000000000000e+00
0.000000000000000e+00 0.000000000000000e+00 0.000000000000000e+00
0.000000000000000e+00 0.000000000000000e+00 0.000000000000000e+00
0.000000000000000e+00 0.000000000000000e+00 0.000000000000000e+00
0.000000000000000e+00 0.000000000000000e+00 0.000000000000000e+00
0.000000000000000e+00 0.000000000000000e+00 0.000000000000000e+00
0.000000000000000e+00 0.000000000000000e+00 0.000000000000000e+00
0.000000000000000e+00 0.000000000000000e+00 0.000000000000000e+00
0.000000000000000e+00 0.000000000000000e+00 0.000000000000000e+00
0.000000000000000e+00 0.000000000000000e+00 0.000000000000000e+00
0.000000000000000e+00 0.000000000000000e+00 0.000000000000000e+00
0.000000000000000e+00 0.000000000000000e+00 0.000000000000000e+00
0.000000000000000e+00 0.000000000000000e+00 0.000000000000000e+00
0.000000000000000e+00 0.000000000000000e+00 0.000000000000000e+00
0.000000000000000e+00 0.000000000000000e+00 0.000000000000000e+00
0.000000000000000e+00 0.000000000000000e+00 0.000000000000000e+00
0.000000000000000e+00 0.000000000000000e+00 0.000000000000000e+00
0.000000000000000e+00 0.000000000000000e+00 0.000000000000000e+00
0.000000000000000e+00 0.000000000000000e+00 0.000000000000000e+00
0.000000000000000e+00 0.000000000000000e+00 0.000000000000000e+00
0.000000000000000e+00 0.000000000000000e+00 0.000000000000000e+00
0.000000000000000e+00 0.000000000000000e+00 0.000000000000000e+00
0.000000000000000e+00 0.000000000000000e+00 0.000000000000000e+00
0.000000000000000e+00 0.000000000000000e+00 0.000000000000000e+00
0.000000000000000e+00 0.000000000000000e+00 0.000000000000000e+00
0.000000000000000e+00 0.000000000000000e+00 0.000000000000000e+00
0.000000000000000e+00 0.000000000000000e+00 0.000000000000000e+00
0.000000000000000e+00 0.000000000000000e+00 0.000000000000000e+00
0.000000000000000e+00 0.000000000000000e+00 0.000000000000000e+00
0.000000000000000e+00 0.000000000000000e+00 0.000000000000000e+00
0.000000000000000e+00 0.000000000000000e+00 0.000000000000000e+00
0.000000000000000e+00 0.000000000000000e+00 0.000000000000000e+00
0.000000000000000e+00 0.000000000000000e+00 0.000000000000000e+00
0.000000000000000e+00 0.000000000000000e+00 0.000000000000000e+00
0.000000000000000e+00 0.000000000000000e+00 0.000000000000000e+00
0.000000000000000e+00 0.000000000000000e+00 0.000000000000000e+00
0.000000000000000e+00 0.000000000000000e+00 0.000000000000000e+00
0.000000000000000e+00 0.000000000000000e+00 0.000000000000000e+00
0.000000000000000e+00 0.000000000000000e+00 0.000000000000000e+00
0.000000000000000e+00 0.000000000000000e+00 0.000000000000000e+00
0.000000000000000e+00 0.000000000000000e+00 0.000000000000000e+00
0.000000000000000e+00 0.000000000000000e+00 0.000000000000000e+00
0.000000000000000e+00 0.000000000000000e+00 0.000000000000000e+00
0.000000000000000e+00 0.000000000000000e+00 0.000000000000000e+00
0.000000000000000e+00 0.000000000000000e+00 0.000000000000000e+00
0.000000000000000e+00 0.000000000000000e+00 0.000000000000000e+00
0.000000000000000e+00 0.000000000000000e+00 0.000000000000000e+00
0.000000000000000e+00 0.000000000000000e+00 0.000000000000000e+00
0.000000000000000e+00 0.000000000000000e+00 0.000000000000000e+00
0.000000000000000e+00 0.000000000000000e+00 0.000000000000000e+00
0.000000000000000e+00 0.000000000000000e+00 0.000000000000000e+00
0.000000000000000e+00 0.000000000000000e+00 0.000000000000000e+00
0.000000000000000e+00 0.000000000000000e+00 0.000000000000000e+00
0.000000000000000e+00 0.000000000000000e+00 0.000000000000000e+00
0.000000000000000e+00 0.000000000000000e+00 0.000000000000000e+00
0.000000000000000e+00 0.000000000000000e+00 0.000000000000000e+00
0.000000000000000e+00 0.000000000000000e+00 0.000000000000000e+00
0.000000000000000e+00 0.000000000000000e+00 0.000000000000000e+00
0.000000000000000e+00 0.000000000000000e+00 0.000000000000000e+00
0.000000000000000e+00 0.000000000000000e+00 0.000000000000000e+00
0.000000000000000e+00 0.000000000000000e+00 0.000000000000000e+00
0.000000000000000e+00 0.000000000000000e+00 0.000000000000000e+00
0.000000000000000e+00 0.000000000000000e+00 0.000000000000000e+00
0.000000000000000e+00 0.000000000000000e+00 0.000000000000000e+00
0.000000000000000e+00 0.000000000000000e+00 0.000000000000000e+00
0.000000000000000e+00 0.000000000000000e+00 0.000000000000000e+00
0.000000000000000e+00 0.000000000000000e+00 0.000000000000000e+00
0.000000000000000e+00 0.000000000000000e+00 0.000000000000000e+00
0.000000000000000e+00 0.000000000000000e+00 0.000000000000000e+00
0.000000000000000e+00 0.000000000000000e+00 0.000000000000000e+00
0.000000000000000e+00 0.000000000000000e+00 0.000000000000000e+00
0.000000000000000e+00 0.000000000000000e+00 0.000000000000000e+00
0.000000000000000e+00 0.000000000000000e+00 0.000000000000000e+00
0.000000000000000e+00 0.000000000000000e+00 0.000000000000000e+00
0.000000000000000e+00 0.000000000000000e+00 0.000000000000000e+00
0.000000000000000e+00 0.000000000000000e+00 0.000000000000000e+00
0.000000000000000e+00 0.000000000000000e+00 0.000000000000000e+00
0.000000000000000e+00 0.000000000000000e+00 0.000000000000000e+00
0.000000000000000e+00 0.000000000000000e+00 0.000000000000000e+00
0.000000000000000e+00 0.000000000000000e+00 0.000000000000000e+00
0.000000000000000e+00 0.000000000000000e+00 0.000000000000000e+00
0.000000000000000e+00 0.000000000000000e+00 0.000000000000000e+00
0.000000000000000e+00 0.000000000000000e+00 0.000000000000000e+00
0.000000000000000e+00 0.000000000000000e+00 0.000000000000000e+00
0.000000000000000e+00 0.000000000000000e+00 0.000000000000000e+00
0.000000000000000e+00 0.000000000000000e+00 0.000000000000000e+00
0.000000000000000e+00 0.000000000000000e+00 0.000000000000000e+00
0.000000000000000e+00 0.000000000000000e+00 0.000000000000000e+00
0.000000000000000e+00 0.000000000000000e+00 0.000000000000000e+00
0.000000000000000e+00 0.000000000000000e+00 0.000000000000000e+00
0.000000000000000e+00 0.000000000000000e+00 0.000000000000000e+00
0.000000000000000e+00 0.000000000000000e+00 0.000000000000000e+00
0.000000000000000e+00 0.000000000000000e+00 0.000000000000000e+00
0.000000000000000e+00 0.000000000000000e+00 0.000000000000000e+00
0.000000000000000e+00 0.000000000000000e+00 0.000000000000000e+00
0.000000000000000e+00 0.000000000000000e+00 0.000000000000000e+00
0.000000000000000e+00 0.000000000000000e+00 0.000000000000000e+00
0.000000000000000e+00 0.000000000000000e+00 0.000000000000000e+00
0.000000000000000e+00 0.000000000000000e+00 0.000000000000000e+00
0.000000000000000e+00 0.000000000000000e+00 0.000000000000000e+00
0.000000000000000e+00 0.000000000000000e+00 0.000000000000000e+00
0.000000000000000e+00 0.000000000000000e+00 0.000000000000000e+00
0.000000000000000e+00 0.000000000000000e+00 0.000000000000000e+00
0.000000000000000e+00 0.000000000000000e+00 0.000000000000000e+00
0.000000000000000e+00 0.000000000000000e+00 0.000000000000000e+00
0.000000000000000e+00 0.000000000000000e+00 0.000000000000000e+00
0.000000000000000e+00 0.000000000000000e+00 0.000000000000000e+00
0.000000000000000e+00 0.000000000000000e+00 0.000000000000000e+00
0.000000000000000e+00 0.000000000000000e+00 0.000000000000000e+00
0.000000000000000e+00 0.000000000000000e+00 0.000000000000000e+00
0.000000000000000e+00 0.000000000000000e+00 0.000000000000000e+00
0.000000000000000e+00 0.000000000000000e+00 0.000000000000000e+00
0.000000000000000e+00 0.000000000000000e+00 0.000000000000000e+00
0.000000000000000e+00 0.000000000000000e+00 0.000000000000000e+00
0.000000000000000e+00 0.000000000000000e+00 0.000000000000000e+00
0.000000000000000e+00 0.000000000000000e+00 0.000000000000000e+00
0.000000000000000e+00 0.000000000000000e+00 0.000000000000000e+00
0.000000000000000e+00 0.000000000000000e+00 0.000000000000000e+00
0.000000000000000e+00 0.000000000000000e+00 0.000000000000000e+00
0.000000000000000e+00 0.000000000000000e+00 0.000000000000000e+00
0.000000000000000e+00 0.000000000000000e+00 0.000000000000000e+00
0.000000000000000e+00 0.000000000000000e+00 0.000000000000000e+00
0.000000000000000e+00 0.000000000000000e+00 0.000000000000000e+00
0.000000000000000e+00 0.000000000000000e+00 0.000000000000000e+00
0.000000000000000e+00 0.000000000000000e+00 0.000000000000000e+00
0.000000000000000e+00 0.000000000000000e+00 0.000000000000000e+00
0.000000000000000e+00 0.000000000000000e+00 0.000000000000000e+00
0.000000000000000e+00 0.000000000000000e+00 0.000000000000000e+00
0.000000000000000e+00 0.000000000000000e+00 0.000000000000000e+00
0.000000000000000e+00 0.000000000000000e+00 0.000000000000000e+00
0.000000000000000e+00 0.000000000000000e+00 0.000000000000000e+00
0.000000000000000e+00 0.000000000000000e+00 0.000000000000000e+00
0.000000000000000e+00 0.000000000000000e+00 0.000000000000000e+00
0.000000000000000e+00 0.000000000000000e+00 0.000000000000000e+00
0.000000000000000e+00 0.000000000000000e+00 0.000000000000000e+00
0.000000000000000e+00 0.000000000000000e+00 0.000000000000000e+00
0.000000000000000e+00 0.000000000000000e+00 0.000000000000000e+00
0.000000000000000e+00 0.000000000000000e+00 0.000000000000000e+00
0.000000000000000e+00 0.000000000000000e+00 0.000000000000000e+00
0.000000000000000e+00 0.000000000000000e+00 0.000000000000000e+00
0.000000000000000e+00 0.000000000000000e+00 0.000000000000000e+00
0.000000000000000e+00 0.000000000000000e+00 0.000000000000000e+00
0.000000000000000e+00 0.000000000000000e+00 0.000000000000000e+00
0.000000000000000e+00 0.000000000000000e+00 0.000000000000000e+00
0.000000000000000e+00 0.000000000000000e+00 0.000000000000000e+00
0.000000000000000e+00 0.000000000000000e+00 0.000000000000000e+00
0.000000000000000e+00 0.000000000000000e+00 0.000000000000000e+00
0.000000000000000e+00 0.000000000000000e+00 0.000000000000000e+00
0.000000000000000e+00 0.000000000000000e+00 0.000000000000000e+00
0.000000000000000e+00 0.000000000000000e+00 0.000000000000000e+00
0.000000000000000e+00 0.000000000000000e+00 0.000000000000000e+00
0.000000000000000e+00 0.000000000000000e+00 0.000000000000000e+00
0.000000000000000e+00 0.000000000000000e+00 0.000000000000000e+00
0.000000000000000e+00 0.000000000000000e+00 0.000000000000000e+00
0.000000000000000e+00 0.000000000000000e+00 0.000000000000000e+00
0.000000000000000e+00 0.000000000000000e+00 0.000000000000000e+00
0.000000000000000e+00 0.000000000000000e+00 0.000000000000000e+00
0.000000000000000e+00 0.000000000000000e+00 0.000000000000000e+00
0.000000000000000e+00 0.000000000000000e+00 0.000000000000000e+00
0.000000000000000e+00 0.000000000000000e+00 0.000000000000000e+00
0.000000000000000e+00 0.000000000000000e+00 0.000000000000000e+00
0.000000000000000e+00 0.000000000000000e+00 0.000000000000000e+00
0.000000000000000e+00 0.000000000000000e+00 0.000000000000000e+00
0.000000000000000e+00 0.000000000000000e+00 0.000000000000000e+00
0.000000000000000e+00 0.000000000000000e+00 0.000000000000000e+00
0.000000000000000e+00 0.000000000000000e+00 0.000000000000000e+00
0.000000000000000e+00 0.000000000000000e+00 0.000000000000000e+00
0.000000000000000e+00 0.000000000000000e+00 0.000000000000000e+00
0.000000000000000e+00 0.000000000000000e+00 0.000000000000000e+00
0.000000000000000e+00 0.000000000000000e+00 0.000000000000000e+00
0.000000000000000e+00 0.000000000000000e+00 0.000000000000000e+00
0.000000000000000e+00 0.000000000000000e+00 0.000000000000000e+00
0.000000000000000e+00 0.000000000000000e+00 0.000000000000000e+00
0.000000000000000e+00 0.000000000000000e+00 0.000000000000000e+00
0.000000000000000e+00 0.000000000000000e+00 0.000000000000000e+00
0.000000000000000e+00 0.000000000000000e+00 0.000000000000000e+00
0.000000000000000e+00 0.000000000000000e+00 0.000000000000000e+00
0.000000000000000e+00 0.000000000000000e+00 0.000000000000000e+00
0.000000000000000e+00 0.000000000000000e+00 0.000000000000000e+00
0.000000000000000e+00 0.000000000000000e+00 0.000000000000000e+00
0.000000000000000e+00 0.000000000000000e+00 0.000000000000000e+00
0.000000000000000e+00 0.000000000000000e+00 0.000000000000000e+00
0.000000000000000e+00 0.000000000000000e+00 0.000000000000000e+00
0.000000000000000e+00 0.000000000000000e+00 0.000000000000000e+00
0.000000000000000e+00 0.000000000000000e+00 0.000000000000000e+00
0.000000000000000e+00 0.000000000000000e+00 0.000000000000000e+00
0.000000000000000e+00 0.000000000000000e+00 0.000000000000000e+00
0.000000000000000e+00 0.000000000000000e+00 0.000000000000000e+00
0.000000000000000e+00 0.000000000000000e+00 0.000000000000000e+00
0.000000000000000e+00 0.000000000000000e+00 0.000000000000000e+00
0.000000000000000e+00 0.000000000000000e+00 0.000000000000000e+00
0.000000000000000e+00 0.000000000000000e+00 0.000000000000000e+00
0.000000000000000e+00 0.000000000000000e+00 0.000000000000000e+00
0.000000000000000e+00 0.000000000000000e+00 0.000000000000000e+00
0.000000000000000e+00 0.000000000000000e+00 0.000000000000000e+00
0.000000000000000e+00 0.000000000000000e+00 0.000000000000000e+00
0.000000000000000e+00 0.000000000000000e+00 0.000000000000000e+00
0.000000000000000e+00 0.000000000000000e+00 0.000000000000000e+00
0.000000000000000e+00 0.000000000000000e+00 0.000000000000000e+00
0.000000000000000e+00 0.000000000000000e+00 0.000000000000000e+00
0.000000000000000e+00 0.000000000000000e+00 0.000000000000000e+00
0.000000000000000e+00 0.000000000000000e+00 0.000000000000000e+00
0.000000000000000e+00 0.000000000000000e+00 0.000000000000000e+00
0.000000000000000e+00 0.000000000000000e+00 0.000000000000000e+00
0.000000000000000e+00 0.000000000000000e+00 0.000000000000000e+00
0.000000000000000e+00 0.000000000000000e+00 0.000000000000000e+00
0.000000000000000e+00 0.000000000000000e+00 0.000000000000000e+00
0.000000000000000e+00 0.000000000000000e+00 0.000000000000000e+00
0.000000000000000e+00 0.000000000000000e+00 0.000000000000000e+00
0.000000000000000e+00 0.000000000000000e+00 0.000000000000000e+00
0.000000000000000e+00 0.000000000000000e+00 0.000000000000000e+00
0.000000000000000e+00 0.000000000000000e+00 0.000000000000000e+00
0.000000000000000e+00 0.000000000000000e+00 0.000000000000000e+00
0.000000000000000e+00 0.000000000000000e+00 0.000000000000000e+00
0.000000000000000e+00 0.000000000000000e+00 0.000000000000000e+00
0.000000000000000e+00 0.000000000000000e+00 0.000000000000000e+00
0.000000000000000e+00 0.000000000000000e+00 0.000000000000000e+00
0.000000000000000e+00 0.000000000000000e+00 0.000000000000000e+00
0.000000000000000e+00 0.000000000000000e+00 0.000000000000000e+00
0.000000000000000e+00 0.000000000000000e+00 0.000000000000000e+00
0.000000000000000e+00 0.000000000000000e+00 0.000000000000000e+00
0.000000000000000e+00 0.000000000000000e+00 0.000000000000000e+00
0.000000000000000e+00 0.000000000000000e+00 0.000000000000000e+00
0.000000000000000e+00 0.000000000000000e+00 0.000000000000000e+00
0.000000000000000e+00 0.000000000000000e+00 0.000000000000000e+00
0.000000000000000e+00 0.000000000000000e+00 0.000000000000000e+00
0.000000000000000e+00 0.000000000000000e+00 0.000000000000000e+00
0.000000000000000e+00 0.000000000000000e+00 0.000000000000000e+00
0.000000000000000e+00 0.000000000000000e+00 0.000000000000000e+00
0.000000000000000e+00 0.000000000000000e+00 0.000000000000000e+00
0.000000000000000e+00 0.000000000000000e+00 0.000000000000000e+00
0.000000000000000e+00 0.000000000000000e+00 0.000000000000000e+00
0.000000000000000e+00 0.000000000000000e+00 0.000000000000000e+00
0.000000000000000e+00 0.000000000000000e+00 0.000000000000000e+00
0.000000000000000e+00 0.000000000000000e+00 0.000000000000000e+00
0.000000000000000e+00 0.000000000000000e+00 0.000000000000000e+00
0.000000000000000e+00 0.000000000000000e+00 0.000000000000000e+00
0.000000000000000e+00 0.000000000000000e+00 0.000000000000000e+00
0.000000000000000e+00 0.000000000000000e+00 0.000000000000000e+00
0.000000000000000e+00 0.000000000000000e+00 0.000000000000000e+00
0.000000000000000e+00 0.000000000000000e+00 0.000000000000000e+00
0.000000000000000e+00 0.000000000000000e+00 0.000000000000000e+00
0.000000000000000e+00 0.000000000000000e+00 0.000000000000000e+00
0.000000000000000e+00 0.000000000000000e+00 0.000000000000000e+00
0.000000000000000e+00 0.000000000000000e+00 0.000000000000000e+00
0.000000000000000e+00 0.000000000000000e+00 0.000000000000000e+00
0.000000000000000e+00 0.000000000000000e+00 0.000000000000000e+00
0.000000000000000e+00 0.000000000000000e+00 0.000000000000000e+00
0.000000000000000e+00 0.000000000000000e+00 0.000000000000000e+00
0.000000000000000e+00 0.000000000000000e+00 0.000000000000000e+00
0.000000000000000e+00 0.000000000000000e+00 0.000000000000000e+00
0.000000000000000e+00 0.000000000000000e+00 0.000000000000000e+00
0.000000000000000e+00 0.000000000000000e+00 0.000000000000000e+00
0.000000000000000e+00 0.000000000000000e+00 0.000000000000000e+00
0.000000000000000e+00 0.000000000000000e+00 0.000000000000000e+00
0.000000000000000e+00 0.000000000000000e+00 0.000000000000000e+00
0.000000000000000e+00 0.000000000000000e+00 0.000000000000000e+00
0.000000000000000e+00 0.000000000000000e+00 0.000000000000000e+00
0.000000000000000e+00 0.000000000000000e+00 0.000000000000000e+00
0.000000000000000e+00 0.000000000000000e+00 0.000000000000000e+00
0.000000000000000e+00 0.000000000000000e+00 0.000000000000000e+00
0.000000000000000e+00 0.000000000000000e+00 0.000000000000000e+00
0.000000000000000e+00 0.000000000000000e+00 0.000000000000000e+00
0.000000000000000e+00 0.000000000000000e+00 0.000000000000000e+00
0.000000000000000e+00 0.000000000000000e+00 0.000000000000000e+00
0.000000000000000e+00 0.000000000000000e+00 0.000000000000000e+00
0.000000000000000e+00 0.000000000000000e+00 0.000000000000000e+00
0.000000000000000e+00 0.000000000000000e+00 0.000000000000000e+00
0.000000000000000e+00 0.000000000000000e+00 0.000000000000000e+00
0.000000000000000e+00 0.000000000000000e+00 0.000000000000000e+00
0.000000000000000e+00 0.000000000000000e+00 0.000000000000000e+00
0.000000000000000e+00 0.000000000000000e+00 0.000000000000000e+00
0.000000000000000e+00 0.000000000000000e+00 0.000000000000000e+00
0.000000000000000e+00 0.000000000000000e+00 0.000000000000000e+00
0.000000000000000e+00 0.000000000000000e+00 0.000000000000000e+00
0.000000000000000e+00 0.000000000000000e+00 0.000000000000000e+00
0.000000000000000e+00 0.000000000000000e+00 0.000000000000000e+00
0.000000000000000e+00 0.000000000000000e+00 0.000000000000000e+00
0.000000000000000e+00 0.000000000000000e+00 0.000000000000000e+00
0.000000000000000e+00 0.000000000000000e+00 0.000000000000000e+00
0.000000000000000e+00 0.000000000000000e+00 0.000000000000000e+00
0.000000000000000e+00 0.000000000000000e+00 0.000000000000000e+00
0.000000000000000e+00 0.000000000000000e+00 0.000000000000000e+00
0.000000000000000e+00 0.000000000000000e+00 0.000000000000000e+00
0.000000000000000e+00 0.000000000000000e+00 0.000000000000000e+00
0.000000000000000e+00 0.000000000000000e+00 0.000000000000000e+00
0.000000000000000e+00 0.000000000000000e+00 0.000000000000000e+00
0.000000000000000e+00 0.000000000000000e+00 0.000000000000000e+00
0.000000000000000e+00 0.000000000000000e+00 0.000000000000000e+00
0.000000000000000e+00 0.000000000000000e+00 0.000000000000000e+00
0.000000000000000e+00 0.000000000000000e+00 0.000000000000000e+00
0.000000000000000e+00 0.000000000000000e+00 0.000000000000000e+00
0.000000000000000e+00 0.000000000000000e+00 0.000000000000000e+00
0.000000000000000e+00 0.000000000000000e+00 0.000000000000000e+00
0.000000000000000e+00 0.000000000000000e+00 0.000000000000000e+00
0.000000000000000e+00 0.000000000000000e+00 0.000000000000000e+00
0.000000000000000e+00 0.000000000000000e+00 0.000000000000000e+00
0.000000000000000e+00 0.000000000000000e+00 0.000000000000000e+00
0.000000000000000e+00 0.000000000000000e+00 0.000000000000000e+00
0.000000000000000e+00 0.000000000000000e+00 0.000000000000000e+00
0.000000000000000e+00 0.000000000000000e+00 0.000000000000000e+00
0.000000000000000e+00 0.000000000000000e+00 0.000000000000000e+00
0.000000000000000e+00 0.000000000000000e+00 0.000000000000000e+00
0.000000000000000e+00 0.000000000000000e+00 0.000000000000000e+00
0.000000000000000e+00 0.000000000000000e+00 0.000000000000000e+00
0.000000000000000e+00 0.000000000000000e+00 0.000000000000000e+00
0.000000000000000e+00 0.000000000000000e+00 0.000000000000000e+00
0.000000000000000e+00 0.000000000000000e+00 0.000000000000000e+00
0.000000000000000e+00 0.000000000000000e+00 0.000000000000000e+00
0.000000000000000e+00 0.000000000000000e+00 0.000000000000000e+00
0.000000000000000e+00 0.000000000000000e+00 0.000000000000000e+00
0.000000000000000e+00 0.000000000000000e+00 0.000000000000000e+00
0.000000000000000e+00 0.000000000000000e+00 0.000000000000000e+00
0.000000000000000e+00 0.000000000000000e+00 0.000000000000000e+00
0.000000000000000e+00 0.000000000000000e+00 0.000000000000000e+00
0.000000000000000e+00 0.000000000000000e+00 0.000000000000000e+00
0.000000000000000e+00 0.000000000000000e+00 0.000000000000000e+00
0.000000000000000e+00 0.000000000000000e+00 0.000000000000000e+00
0.000000000000000e+00 0.000000000000000e+00 0.000000000000000e+00
0.000000000000000e+00 0.000000000000000e+00 0.000000000000000e+00
0.000000000000000e+00 0.000000000000000e+00 0.000000000000000e+00
0.000000000000000e+00 0.000000000000000e+00 0.000000000000000e+00
0.000000000000000e+00 0.000000000000000e+00 0.000000000000000e+00
0.000000000000000e+00 0.000000000000000e+00 0.000000000000000e+00
0.000000000000000e+00 0.000000000000000e+00 0.000000000000000e+00
0.000000000000000e+00 0.000000000000000e+00 0.000000000000000e+00
0.000000000000000e+00 0.000000000000000e+00 0.000000000000000e+00
0.000000000000000e+00 0.000000000000000e+00 0.000000000000000e+00
0.000000000000000e+00 0.000000000000000e+00 0.000000000000000e+00
0.000000000000000e+00 0.000000000000000e+00 0.000000000000000e+00
0.000000000000000e+00 0.000000000000000e+00 0.000000000000000e+00
0.000000000000000e+00 0.000000000000000e+00 0.000000000000000e+00
0.000000000000000e+00 0.000000000000000e+00 0.000000000000000e+00
0.000000000000000e+00 0.000000000000000e+00 0.000000000000000e+00
0.000000000000000e+00 0.000000000000000e+00 0.000000000000000e+00
0.000000000000000e+00 0.000000000000000e+00 0.000000000000000e+00
0.000000000000000e+00 0.000000000000000e+00 0.000000000000000e+00
0.000000000000000e+00 0.000000000000000e+00 0.000000000000000e+00
0.000000000000000e+00 0.000000000000000e+00 0.000000000000000e+00
0.000000000000000e+00 0.000000000000000e+00 0.000000000000000e+00
0.000000000000000e+00 0.000000000000000e+00 0.000000000000000e+00
0.000000000000000e+00 0.000000000000000e+00 0.000000000000000e+00
0.000000000000000e+00 0.000000000000000e+00 0.000000000000000e+00
0.000000000000000e+00 0.000000000000000e+00 0.000000000000000e+00
0.000000000000000e+00 0.000000000000000e+00 0.000000000000000e+00
0.000000000000000e+00 0.000000000000000e+00 0.000000000000000e+00
0.000000000000000e+00 0.000000000000000e+00 0.000000000000000e+00
0.000000000000000e+00 0.000000000000000e+00 0.000000000000000e+00
0.000000000000000e+00 0.000000000000000e+00 0.000000000000000e+00
0.000000000000000e+00 0.000000000000000e+00 0.000000000000000e+00
0.000000000000000e+00 0.000000000000000e+00 0.000000000000000e+00
0.000000000000000e+00 0.000000000000000e+00 0.000000000000000e+00
0.000000000000000e+00 0.000000000000000e+00 0.000000000000000e+00
0.000000000000000e+00 0.000000000000000e+00 0.000000000000000e+00
0.000000000000000e+00 0.000000000000000e+00 0.000000000000000e+00
0.000000000000000e+00 0.000000000000000e+00 0.000000000000000e+00
0.000000000000000e+00 0.000000000000000e+00 0.000000000000000e+00
0.000000000000000e+00 0.000000000000000e+00 0.000000000000000e+00
0.000000000000000e+00 0.000000000000000e+00 0.000000000000000e+00
0.000000000000000e+00 0.000000000000000e+00 0.000000000000000e+00
0.000000000000000e+00 0.000000000000000e+00 0.000000000000000e+00
0.000000000000000e+00 0.000000000000000e+00 0.000000000000000e+00
0.000000000000000e+00 0.000000000000000e+00 0.000000000000000e+00
0.000000000000000e+00 0.000000000000000e+00 0.000000000000000e+00
0.000000000000000e+00 0.000000000000000e+00 0.000000000000000e+00
0.000000000000000e+00 0.000000000000000e+00 0.000000000000000e+00
0.000000000000000e+00 0.000000000000000e+00 0.000000000000000e+00
0.000000000000000e+00 0.000000000000000e+00 0.000000000000000e+00
0.000000000000000e+00 0.000000000000000e+00 0.000000000000000e+00
0.000000000000000e+00 0.000000000000000e+00 0.000000000000000e+00
0.000000000000000e+00 0.000000000000000e+00 0.000000000000000e+00
0.000000000000000e+00 0.000000000000000e+00 0.000000000000000e+00
0.000000000000000e+00 0.000000000000000e+00 0.000000000000000e+00
0.000000000000000e+00 0.000000000000000e+00 0.000000000000000e+00
0.000000000000000e+00 0.000000000000000e+00 0.000000000000000e+00
0.000000000000000e+00 0.000000000000000e+00 0.000000000000000e+00
0.000000000000000e+00 0.000000000000000e+00 0.000000000000000e+00
0.000000000000000e+00 0.000000000000000e+00 0.000000000000000e+00
0.000000000000000e+00 0.000000000000000e+00 0.000000000000000e+00
0.000000000000000e+00 0.000000000000000e+00 0.000000000000000e+00
0.000000000000000e+00 0.000000000000000e+00 0.000000000000000e+00
0.000000000000000e+00 0.000000000000000e+00 0.000000000000000e+00
0.000000000000000e+00 0.000000000000000e+00 0.000000000000000e+00
0.000000000000000e+00 0.000000000000000e+00 0.000000000000000e+00
0.000000000000000e+00 0.000000000000000e+00 0.000000000000000e+00
0.000000000000000e+00 0.000000000000000e+00 0.000000000000000e+00
0.000000000000000e+00 0.000000000000000e+00 0.000000000000000e+00
0.000000000000000e+00 0.000000000000000e+00 0.000000000000000e+00
0.000000000000000e+00 0.000000000000000e+00 0.000000000000000e+00
0.000000000000000e+00 0.000000000000000e+00 0.000000000000000e+00
0.000000000000000e+00 0.000000000000000e+00 0.000000000000000e+00
0.000000000000000e+00 0.000000000000000e+00 0.000000000000000e+00
0.000000000000000e+00 0.000000000000000e+00 0.000000000000000e+00
0.000000000000000e+00 0.000000000000000e+00 0.000000000000000e+00
0.000000000000000e+00 0.000000000000000e+00 0.000000000000000e+00
0.000000000000000e+00 0.000000000000000e+00 0.000000000000000e+00
0.000000000000000e+00 0.000000000000000e+00 0.000000000000000e+00
0.000000000000000e+00 0.000000000000000e+00 0.000000000000000e+00
0.000000000000000e+00 0.000000000000000e+00 0.000000000000000e+00
0.000000000000000e+00 0.000000000000000e+00 0.000000000000000e+00
0.000000000000000e+00 0.000000000000000e+00 0.000000000000000e+00
0.000000000000000e+00 0.000000000000000e+00 0.000000000000000e+00
0.000000000000000e+00 0.000000000000000e+00 0.000000000000000e+00
0.000000000000000e+00 0.000000000000000e+00 0.000000000000000e+00
0.000000000000000e+00 0.000000000000000e+00 0.000000000000000e+00
0.000000000000000e+00 0.000000000000000e+00 0.000000000000000e+00
0.000000000000000e+00 0.000000000000000e+00 0.000000000000000e+00
0.000000000000000e+00 0.000000000000000e+00 0.000000000000000e+00
0.000000000000000e+00 0.000000000000000e+00 0.000000000000000e+00
0.000000000000000e+00 0.000000000000000e+00 0.000000000000000e+00
0.000000000000000e+00 0.000000000000000e+00 0.000000000000000e+00
0.000000000000000e+00 0.000000000000000e+00 0.000000000000000e+00
0.000000000000000e+00 0.000000000000000e+00 0.000000000000000e+00
0.000000000000000e+00 0.000000000000000e+00 0.000000000000000e+00
0.000000000000000e+00 0.000000000000000e+00 0.000000000000000e+00
0.000000000000000e+00 0.000000000000000e+00 0.000000000000000e+00
0.000000000000000e+00 0.000000000000000e+00 0.000000000000000e+00
0.000000000000000e+00 0.000000000000000e+00 0.000000000000000e+00
0.000000000000000e+00 0.000000000000000e+00 0.000000000000000e+00
0.000000000000000e+00 0.000000000000000e+00 0.000000000000000e+00
0.000000000000000e+00 0.000000000000000e+00 0.000000000000000e+00
0.000000000000000e+00 0.000000000000000e+00 0.000000000000000e+00
0.000000000000000e+00 0.000000000000000e+00 0.000000000000000e+00
0.000000000000000e+00 0.000000000000000e+00 0.000000000000000e+00
0.000000000000000e+00 0.000000000000000e+00 0.000000000000000e+00
0.000000000000000e+00 0.000000000000000e+00 0.000000000000000e+00
0.000000000000000e+00 0.000000000000000e+00 0.000000000000000e+00
0.000000000000000e+00 0.000000000000000e+00 0.000000000000000e+00
0.000000000000000e+00 0.000000000000000e+00 0.000000000000000e+00
0.000000000000000e+00 0.000000000000000e+00 0.000000000000000e+00
0.000000000000000e+00 0.000000000000000e+00 0.000000000000000e+00
0.000000000000000e+00 0.000000000000000e+00 0.000000000000000e+00
0.000000000000000e+00 0.000000000000000e+00 0.000000000000000e+00
0.000000000000000e+00 0.000000000000000e+00 0.000000000000000e+00
-1.099982972051037e-01 -6.120555347525236e-04  1.963839557760563e-18
-1.099939034785376e-01 -1.158100839334686e-03  1.969371783297213e-18
-1.092404494916931e-01 -1.290442539800902e-02  2.076652388585002e-18
-1.099703331554300e-01  2.554569569157708e-03  1.930805981541681e-18
-1.075150230059629e-01  2.324908230505458e-02  1.674482207996062e-18
-1.074082312662464e-01 -2.373756213802194e-02  2.155352424348611e-18
-1.002469360159861e-01 -4.528301910657824e-02  2.249280376570768e-18
-1.079817429720087e-01  2.097482263874922e-02  1.706155238413277e-18
-1.079817429720087e-01  2.097482263874922e-02  1.706155238413277e-18
-1.089317854501637e-01  1.529268186550157e-02  1.781444309849390e-18
-1.099927468859658e-01 -1.263183470359297e-03  1.970430886213023e-18
-1.099143528366773e-01 -4.339935540342565e-03  2.000648280417050e-18
-1.099790951743069e-01  2.144440402683882e-03  1.935175840316617e-18
-1.099811660570809e-01 -2.035463761583073e-03  1.978159690993854e-18
-1.099771714778887e-01  2.240926978505510e-03  1.934150241328436e-18
-1.099964394046433e-01 -8.850527106100185e-04  1.966611442795167e-18
-1.099964394046433e-01 -8.850527106100185e-04  1.966611442795167e-18
-1.099862736952215e-01 -1.737699237427970e-03  1.975191165190831e-18
-1.099969203514088e-01 -8.231119035375417e-04  1.965983582525210e-18
-1.099807299613411e-01  2.058892219254352e-03  1.936083909809459e-18
-1.099807299613411e-01  2.058892219254352e-03  1.936083909809459e-18
-1.093683380815292e-01 -1.177143259269062e-02  2.067287229101449e-18
-1.099365583060644e-01 -3.735391253566983e-03  1.994831980299490e-18
-1.099365583060644e-01 -3.735391253566983e-03  1.994831980299490e-18
-1.099440483470210e-01  3.508024097384383e-03  1.920541813107660e-18
-1.099440483470210e-01  3.508024097384383e-03  1.920541813107660e-18
-1.099427210411076e-01 -3.549378829758009e-03  1.993030443439122e-18
-1.088481532583489e-01 -1.587701269908543e-02  2.100213263827246e-18
-1.080032627564565e-01  2.086373010656841e-02  1.707679644058669e-18
-1.099304430414085e-01 -3.911226498115209e-03  1.996529795132197e-18
-1.099386429011911e-01  3.673526513353251e-03  1.918745139549488e-18
-1.098470629963155e-01 -5.798512833773292e-03  2.014437129272110e-18
-1.091338985375982e-01  1.377650862828298e-02  1.800619282559491e-18
-1.098115180601616e-01 -6.436652959632729e-03  2.020361222708838e-18
-1.094846645458833e-01  1.063523527127357e-02  1.839137024694138e-18
-1.095873816795947e-01 -9.518706666914819e-03  2.048039430677332e-18
-1.095622692641487e-01  9.803527614594207e-03  1.849063587262672e-18
-1.082502793786798e-01 -1.954167378802794e-02  2.127226446390928e-18
-1.095629974543598e-01  9.795386098357039e-03  1.849160197397851e-18
-1.096985130786041e-01 -8.138564267932304e-03  2.035836684701806e-18
-1.097174835081799e-01  7.878693586641786e-03  1.871602780281441e-18
-1.093826136332891e-01 -1.163803397273393e-02  2.066170657213366e-18
-1.098747813341276e-01  5.247135101898295e-03  1.901440390186516e-18
-1.095358550191354e-01 -1.009437790192519e-02  2.053037265106047e-18
-1.096812573298864e-01  8.367902397564303e-03  1.865931649409919e-18
-1.096576514950089e-01 -8.671762715797355e-03  2.040587924436316e-18
-1.093403901798154e-01  1.202826152549325e-02  1.822256651537813e-18
-1.097344124685392e-01 -7.639287937002519e-03  2.031345674240574e-18
-1.099098316836707e-01  4.452965221860462e-03  1.910223959984360e-18
-1.085991260748021e-01 -1.749942329875953e-02  2.112451207581869e-18
-1.099566937443480e-01  3.086341007015235e-03  1.925099493605189e-18
-1.098306118525811e-01 -6.102188139314428e-03  2.017264514993591e-18
-1.093937714571715e-01  1.153268253165983e-02  1.828298529175802e-18
-1.097375858501569e-01 -7.593566472967384e-03  2.030932376918148e-18
-1.096734705225824e-01  8.469348471528030e-03  1.864750752327989e-18
-1.098695769834264e-01 -5.355002659463449e-03  2.010280886601951e-18
-1.097568075946739e-01  7.310484705247379e-03  1.878140739150339e-18
-1.099460790313696e-01 -3.443792332264457e-03  1.992005339976204e-18
-1.097873766382914e-01  6.836075693105891e-03  1.883559132006096e-18
-1.097518547007406e-01 -7.384469496683837e-03  2.029037912662433e-18
-1.099573880626308e-01  3.061504604590942e-03  1.925367034839799e-18
-9.570833275364243e-02  5.422098340603922e-02  1.146143038820601e-18
-1.099955718197175e-01  9.870055994257679e-04  1.947361284016220e-18
-1.099774120789427e-01 -2.229087799606985e-03  1.980082301127590e-18
-1.099811080018740e-01  2.038598214473312e-03  1.936299151018579e-18
-1.099888729925047e-01 -1.564550363074119e-03  1.973458381002595e-18
-1.099844398123766e-01  1.850134902547692e-03  1.938294836627499e-18
-1.099674972105816e-01 -2.673865598837550e-03  1.984475784530243e-18
-1.099999858007470e-01  5.589128179142674e-05  1.957006697440280e-18
-1.099999858007470e-01  5.589128179142674e-05  1.957006697440280e-18
-1.090866372929262e-01  1.414586738667857e-02  1.795983185270272e-18
-1.099957665554049e-01  9.650595260321740e-04  1.947590237501806e-18
-1.099881641508943e-01 -1.613612938678824e-03  1.973949866461905e-18
-1.098244436151493e-01  6.212212538444783e-03  1.890628750356849e-18
-1.099997978708522e-01  2.108752512330540e-04  1.955410949018870e-18
-1.099996388492268e-01  2.818741555944270e-04  1.954678631088919e-18
-1.099705826804237e-01 -2.543805206383650e-03  1.983194370861327e-18
-1.096552960708945e-01  8.701496630142948e-03  1.862042078283960e-18
-1.099998175341539e-01  2.003558154356851e-04  1.955519382332185e-18
-1.099391376022861e-01 -3.658691469025240e-03  1.994089819529126e-18
-1.099841592518034e-01  1.866738780303580e-03  1.938119244905205e-18
-1.099583640000610e-01  3.026249565058277e-03  1.925746635534557e-18
-1.099942128454466e-01  1.128335282851379e-03  1.945884988291865e-18
-1.099566952942298e-01 -3.086285789069304e-03  1.988521019177926e-18
-1.099972090741963e-01 -7.835788967765190e-04  1.965582533408356e-18
-1.099993148534523e-01 -3.882418975284595e-04  1.961558064209448e-18
-3.343717224270519e-02  1.047948257902631e-01 -4.816744006658829e-19
-1.099909874637673e-01 -1.408075546734643e-03  1.971888288645889e-18
-1.099988830668889e-01  4.957055948977213e-04  1.952468140680701e-18
-1.099601453866003e-01  2.960815184650178e-03  1.926450651921191e-18
-1.099993890146683e-01 -3.666284216818168e-04  1.961337313383985e-18
-1.099031920271243e-01 -4.613933489871655e-03  2.003264889893740e-18
-1.099831326093076e-01  1.926276574997610e-03  1.937489245365269e-18
-1.099831326093076e-01  1.926276574997610e-03  1.937489245365269e-18
-1.099831326093076e-01  1.926276574997610e-03  1.937489245365269e-18
-1.099988214944989e-01  5.091854488263137e-04  1.952328544324302e-18
-1.099970142064850e-01 -8.104724907414465e-04  1.965855387413303e-18
-1.099812662509522e-01  2.030042816568776e-03  1.936389870855229e-18
-1.099988170441861e-01  5.101459394988709e-04  1.952318596432937e-18
-1.099977521098554e-01  7.032288238852170e-04  1.950315788160648e-18
-1.099846309007054e-01 -1.838740230572570e-03  1.976200089202074e-18
-1.099987365855305e-01 -5.272092440465816e-04  1.962975612244603e-18
-1.099987365855305e-01 -5.272092440465816e-04  1.962975612244603e-18
-1.099970231778508e-01  8.092539844076576e-04  1.949213445937671e-18
-1.098090315552153e-01  6.478934241498106e-03  1.887614005759658e-18
-1.099788467088992e-01 -2.157145470376949e-03  1.979368650780711e-18
-1.098958133425049e-01 -4.786461092421086e-03  2.004906235841168e-18
-1.098862214684197e-01 -5.001832803418552e-03  2.006948403092327e-18
-1.099940014431766e-01  1.148758685878228e-03  1.945671383089440e-18
-1.099973980398371e-01  7.565873813152428e-04  1.949761247268370e-18
-1.099939640453076e-01  1.152333979142849e-03  1.945633982710260e-18
-1.082818069399658e-01 -1.936621506169689e-02  2.125984742277542e-18
-1.096845381468701e-01  8.324787775536307e-03  1.866433022540671e-18
-1.098075972454488e-01 -6.503198227121236e-03  2.020975175583557e-18
-1.099901185094737e-01  1.474391492060463e-03  1.942256522862042e-18
-1.092822926213139e-01 -1.254513927501212e-02  2.073705502593490e-18
-1.099488308568432e-01  3.354786612173065e-03  1.922201383068474e-18
-1.099223267200740e-01 -4.133048323602246e-03  1.998664494187895e-18
-1.099987260429158e-01  5.294043213597916e-04  1.952119104079180e-18
-1.098918018933062e-01 -4.877691733009656e-03  2.005772209008209e-18
-1.099790569247979e-01  2.146401158213978e-03  1.935155013570193e-18
-1.099045303124802e-01 -4.581944651895322e-03  2.002960032588437e-18
-1.099988726445559e-01 -4.980129784515593e-04  1.962678052554437e-18
-1.099585909545824e-01 -3.017991928875434e-03  1.987853060110842e-18
-1.099585909545824e-01 -3.017991928875434e-03  1.987853060110842e-18
-1.099344340926811e-01 -3.797393938200445e-03  1.995431232449284e-18
-1.099608786325705e-01 -2.933457065141743e-03  1.987025207053719e-18
-1.099091056066339e-01 -4.470850562223760e-03  2.001900003991443e-18
-9.150445577770580e-02 -6.104862465957615e-02  2.255683382185471e-18
-1.094107743452623e-01  1.137024437600248e-02  1.830270108891394e-18
-1.099734028960625e-01  2.418812820419267e-03  1.932255462514695e-18
-1.097416115124316e-01  7.535164407925717e-03  1.875561804414993e-18
-1.099241262102157e-01 -4.084908434773279e-03  1.998201898391607e-18
-1.097389068772759e-01  7.574451622427116e-03  1.875110010349114e-18
-1.099893043356455e-01 -1.533926908519659e-03  1.973151412397390e-18
-1.097226680241806e-01  7.806159212787529e-03  1.872440309269674e-18
-7.418368702380562e-02 -8.122056746633811e-02  2.154699025697724e-18
-1.099932485809782e-01 -1.218715144350440e-03  1.969982918578544e-18
-1.099981522919582e-01  6.375675298276139e-04  1.950997555822093e-18
-1.099957547333533e-01 -9.664060429814469e-04  1.967435134189630e-18
-1.099999929090616e-01 -3.949691549372473e-05  1.957986903016515e-18
-1.099997362208744e-01  2.408969447524293e-04  1.955101389889086e-18
-1.099991736913705e-01 -4.263651200946987e-04  1.961947254324609e-18
-1.097829423883229e-01 -6.906921207173974e-03  2.024684519950637e-18
-1.099993791266237e-01  3.695832209803615e-04  1.953772830230746e-18
-1.099589761512150e-01  3.003924728824848e-03  1.925986909076868e-18
-1.099998479163462e-01 -1.829163213962902e-04  1.959457904993666e-18
-1.099995791189990e-01  3.042920357060502e-04  1.954447232543895e-18
-1.099987768013771e-01  5.187506151833266e-04  1.952229470347322e-18
-1.099987768013771e-01  5.187506151833266e-04  1.952229470347322e-18
-1.099999581447295e-01  9.595914584354206e-05  1.956594522520837e-18
-1.099998620419396e-01 -1.742146783947554e-04  1.959368750154669e-18
-1.099998336661176e-01  1.912940835541319e-04  1.955612775422936e-18
-1.099843359970025e-01  1.856296123566916e-03  1.938229684801304e-18
-1.099999685864771e-01  8.313226788421659e-05  1.956726499855584e-18
-1.097794977144660e-01 -6.961456856109967e-03  2.025183551851972e-18
-1.099991821295917e-01  4.241825324499477e-04  1.953208336342596e-18
-1.099924377198634e-01  1.289823415007462e-03  1.944194165920788e-18
-1.099924377198634e-01  1.289823415007462e-03  1.944194165920788e-18
-1.099924377198634e-01  1.289823415007462e-03  1.944194165920788e-18
-1.099940660053342e-01 -1.142560113999046e-03  1.969215000348105e-18
-1.099961607612876e-01 -9.190308900658698e-04  1.966955597454881e-18
-1.099992061809479e-01 -4.178989844777606e-04  1.961860846047435e-18
-1.099949887839393e-01 -1.049972581066973e-03  1.968280119027643e-18
-1.099982654123190e-01 -6.177428922809229e-04  1.963897427502587e-18
-1.099927431500171e-01 -1.263508739306825e-03  1.970434161747632e-18
-1.099962585809132e-01 -9.072475962061533e-04  1.966836269207926e-18
-1.099921741741311e-01 -1.312105349251174e-03  1.970923348656462e-18
-1.099751181283175e-01 -2.339528299151289e-03  1.981176213552830e-18
-1.099751181283175e-01 -2.339528299151289e-03  1.981176213552830e-18
-1.099283100699091e-01 -3.970723507603981e-03  1.997103146518998e-18
-5.486941840668872e-02  9.533806649870585e-02 -3.097248518979742e-21
-1.098577318812961e-01  5.592740463958071e-03  1.897586005289450e-18
-1.099795576936483e-01 -2.120587067158743e-03  1.979005679289971e-18
-1.097304864455142e-01  7.695475581843266e-03  1.873716681503207e-18
-1.099998470549409e-01  1.834336106846775e-04  1.955693777196267e-18
-1.099959180476416e-01  9.476354026848191e-04  1.947771960024571e-18
-1.099959180476416e-01  9.476354026848191e-04  1.947771960024571e-18
-1.099975769064262e-01  7.301196578606509e-04  1.950036376656210e-18
-1.099909773109451e-01  1.408868405170754e-03  1.942945032173767e-18
-1.099971207005328e-01  7.958879269990494e-04  1.949352512854493e-18
-1.099971207005328e-01  7.958879269990494e-04  1.949352512854493e-18
-1.099976916437440e-01  7.126240577871226e-04  1.950218179478749e-18
-1.099972780078931e-01  7.738416208788113e-04  1.949581830113205e-18
-1.099994860506271e-01  3.362567439143408e-04  1.954117150516225e-18
-1.099884021889119e-01  1.597305208805949e-03  1.940963085101827e-18
-1.099884021889119e-01  1.597305208805949e-03  1.940963085101827e-18
-1.099884021889119e-01  1.597305208805949e-03  1.940963085101827e-18
-1.099907961776144e-01 -1.422939286977304e-03  1.972037604012044e-18
-1.099979208203832e-01  6.763247686160025e-04  1.950595219960152e-18
-1.097919831848973e-01  6.761688274916571e-03  1.884405414696907e-18
-1.099910714785544e-01  1.401497413287709e-03  1.943022442262629e-18
-1.099754372792631e-01 -2.324477411118377e-03  1.981027250817622e-18
-1.099980472756279e-01  6.554353886188165e-04  1.950812101173030e-18
-1.099452907360276e-01  3.468867966686993e-03  1.920966237920617e-18
-1.099999969660909e-01 -2.583524551807935e-05  1.957846606520087e-18
-1.099988485281952e-01 -5.033115050346957e-04  1.962732063810870e-18
-1.099920191703705e-01  1.325035405107041e-03  1.943824926926536e-18
-1.099981234074942e-01 -6.425315786881596e-04  1.964149595105153e-18
-1.099981234074942e-01 -6.425315786881596e-04  1.964149595105153e-18
-1.099920191703695e-01  1.325035405181660e-03  1.943824926925753e-18
-1.099999891695071e-01 -4.881299262684909e-05  1.958082555774961e-18
-1.099960017438342e-01 -9.378701244514433e-04  1.967146333839171e-18
-1.099999941041303e-01 -3.601515282084926e-05  1.957951150437549e-18
-1.099999827414763e-01 -6.161878633491399e-05  1.958214016258857e-18
-1.099999827414763e-01 -6.161878633491399e-05  1.958214016258857e-18
-1.099996826039984e-01 -2.642480265396726e-04  1.960290616788109e-18
-1.099996826039984e-01 -2.642480265396726e-04  1.960290616788109e-18
-1.099996826039984e-01 -2.642480265396726e-04  1.960290616788109e-18
-1.099979629984389e-01 -6.694297528513414e-04  1.964423109402859e-18
-1.099986157505066e-01  5.518450618736014e-04  1.951886570837498e-18
-1.099699588426012e-01 -2.570632637413096e-03  1.983458911031323e-18
-1.099756106389671e-01  2.316260906337457e-03  1.933348435596181e-18
-1.099754107865969e-01 -2.325730491523906e-03  1.981039654294983e-18
-1.099919080015877e-01  1.334231677852179e-03  1.943728460183727e-18
-1.099702528135031e-01 -2.558025827497822e-03  1.983334612201998e-18
-1.099998757311177e-01  1.653455127420668e-04  1.955880136158510e-18
-1.099146751176535e-01 -4.331765665476982e-03  2.000570073295089e-18
-1.099976201206689e-01  7.235798428273983e-04  1.950104339928946e-18
-1.099943644860772e-01 -1.113454670798345e-03  1.968921264313256e-18
-1.099943644860772e-01 -1.113454670798345e-03  1.968921264313256e-18
-1.099943644860772e-01 -1.113454670798345e-03  1.968921264313256e-18
-1.099959407232166e-01 -9.449996902372228e-04  1.967218501602973e-18
-1.099997794284431e-01  2.202854825213936e-04  1.955313934106179e-18
-1.099786609295300e-01 -2.166596443137046e-03  1.979462449927069e-18
-7.869825845093313e-02 -7.685430447795398e-02  2.190179443352187e-18
-1.099600403445106e-01  2.964713718643402e-03  1.926408726551353e-18
-1.099930187918195e-01  1.239280865008509e-03  1.944723813129950e-18
-1.099798177108428e-01  2.107058682075526e-03  1.935572782315685e-18
-1.099998885740357e-01  1.565685142593180e-04  1.955970545184533e-18
-1.099989059563615e-01  4.906000442991359e-04  1.952521005703868e-18
-1.099970867440634e-01  8.005671857558477e-04  1.949303830874731e-18
-1.099983446326579e-01  6.034716852947227e-04  1.951351301170805e-18
-1.099999980765381e-01  2.057089089727500e-05  1.957369820088173e-18
-1.099993584611223e-01  3.756835655917700e-04  1.953709783638697e-18
-1.099972738837531e-01  7.744276225263030e-04  1.949575735765164e-18
-1.099972738837531e-01  7.744276225263030e-04  1.949575735765164e-18
-1.099972738837531e-01  7.744276225263030e-04  1.949575735765164e-18
-1.099978000134183e-01  6.956954850853273e-04  1.950394042981214e-18
-1.099978000134183e-01  6.956954850853273e-04  1.950394042981214e-18
-1.094982169591900e-01 -1.049478359748726e-02  2.056481473998961e-18
-1.099989398899922e-01  4.829317527512030e-04  1.952600398503287e-18
-1.099996606353698e-01  2.732400106220543e-04  1.954767731502374e-18
-1.099468187024165e-01  3.420096083136996e-03  1.921494543291177e-18
-1.099980619376578e-01 -6.529701058303137e-04  1.964255753250459e-18
-1.099998222442382e-01 -1.977529668972829e-04  1.959609889270675e-18
-1.095780353984569e-01 -9.625702998454938e-03  2.048972450893700e-18
-1.000527240330053e-01  4.571052847621878e-02  1.310898496613049e-18
-1.099384870959981e-01  3.678186379588221e-03  1.918694488377459e-18
-1.099938675393815e-01 -1.161509246164130e-03  1.969406163859056e-18
-9.902965920453866e-02 -4.788660144375313e-02  2.254368346398088e-18
-1.090528804304567e-01  1.440379359128885e-02  1.792732343580838e-18
-1.099768550823151e-01  2.256401161894986e-03  1.933985619078794e-18
-1.099696580002845e-01 -2.583470398587630e-03  1.983585460515917e-18
-1.099966808808979e-01 -8.545145907692195e-04  1.966301972065423e-18
-1.099966688275799e-01  8.560647380015436e-04  1.948726176363748e-18
-1.099960609122657e-01 -9.309048206144878e-04  1.967075820845360e-18
-1.099426100813395e-01 -3.552814166612786e-03  1.993063765615915e-18
-1.097936488068312e-01  6.734588456775854e-03  1.884713497212852e-18
-1.099985641528603e-01  5.620358609491495e-04  1.951780945837359e-18
-1.099985641528603e-01  5.620358609491495e-04  1.951780945837359e-18
-1.098080688120417e-01 -6.495230848079874e-03  2.020901705748254e-18
-1.091314579454054e-01 -1.379582859817205e-02  2.083871598069341e-18
-1.099759593695476e-01  2.299643613154202e-03  1.933525378323714e-18
-1.096991073931910e-01  8.130549620847652e-03  1.868688026136030e-18
-1.098627395578168e-01 -5.493492227285954e-03  2.011582136457322e-18
-1.027389913486557e-01  3.930266729702676e-02  1.424542273613928e-18
-1.099863299365890e-01 -1.734135830815189e-03  1.975155553364590e-18
-1.099914232693367e-01  1.373611002261492e-03  1.943315225542190e-18
-1.088443260554098e-01 -1.590322877731346e-02  2.100414514865932e-18
-1.099528686826083e-01  3.219731116882960e-03  1.923660887146758e-18
-1.098645930266014e-01  5.456299029486213e-03  1.899109993728351e-18
-1.082966223104540e-01  1.928319465614538e-02  1.729139754843704e-18
-1.069031695186839e-01  2.591741396936572e-02  1.636177406822563e-18
-8.706930417164087e-02 -6.722303378356420e-02  2.240194379677688e-18
-1.097964014547449e-01 -6.689561090864788e-03  2.022690743857818e-18
 1.378750183662500e-02 -1.091325102483444e-01  8.759318565672859e-19
-1.099840213341663e-01 -1.874846971242798e-03  1.976560224882233e-18
-1.080323687976284e-01  2.071249120635022e-02  1.709751545539233e-18
-1.095126580300980e-01 -1.034300397286675e-02  2.055178989575930e-18
-1.099999756309070e-01  7.322021446247741e-05  1.956828467967758e-18
-1.082911550192839e-01 -1.931387440648122e-02  2.125613321281324e-18
-1.099973737753900e-01  7.601069116007062e-04  1.949724653558454e-18
-1.083090243653517e-01 -1.921341304988707e-02  2.124899123665664e-18
-1.095769725431952e-01  9.637794782405278e-03  1.851028094296749e-18
-1.096177744802955e-01 -9.162069525331804e-03  2.044915989745970e-18
-1.099995995142002e-01  2.968277538928326e-04  1.954524288284900e-18
-1.099890615655746e-01 -1.551236901364713e-03  1.973324945902649e-18
-1.099999107732025e-01  1.401067000902171e-04  1.956140079405667e-18
-1.099998510580585e-01  1.810171397465698e-04  1.955718676797573e-18
-1.099998510580585e-01  1.810171397465698e-04  1.955718676797573e-18
-1.099441000364014e-01 -3.506403739688258e-03  1.992613430866457e-18
-1.097997231466809e-01  6.634817021753343e-03  1.885846712586956e-18
-1.093206964042564e-01 -1.220595500926976e-02  2.070903948606097e-18
-9.001905667838669e-02 -6.321842638608877e-02  2.251542857877824e-18
-1.060943051615949e-01  2.905165076683775e-02  1.589579556224526e-18
-9.703925896099001e-02  5.180137276464641e-02  1.194689078631467e-18
-1.074432574154785e-01 -2.357851640691487e-02  2.154341619344546e-18
-1.095829621790034e-01 -9.569451398853847e-03  2.048482164079102e-18
-1.099163700592894e-01 -4.288542058704310e-03  2.000156129945612e-18
-1.091481150872513e-01  1.366341732144926e-02  1.802034255113556e-18
-1.096647089579460e-01  8.582051571095243e-03  1.863436846427874e-18
-1.099966218817451e-01 -8.620757532471332e-04  1.966378610302827e-18
-1.099990884985586e-01 -4.478051877784825e-04  1.962166027123786e-18
-1.099994521975318e-01 -3.471544941984241e-04  1.961138350267837e-18
-1.099955176006868e-01  9.930295851181114e-04  1.947298424859248e-18
-1.098975997941303e-01  4.745267061935638e-03  1.907002983697400e-18
-1.099479585725338e-01 -3.383253719766253e-03  1.991416776401750e-18
-1.099997818690799e-01  2.190633578986424e-04  1.955326534426760e-18
-1.099994834108098e-01  3.371191998513664e-04  1.954108242116081e-18
-1.099999160968567e-01  1.358627410806347e-04  1.956183779283557e-18
-1.099993326931811e-01  3.831540875232035e-04  1.953632568168428e-18
-1.099994984386787e-01  3.321795283228148e-04  1.954159262885449e-18
-1.099999907215669e-01  4.518025140539905e-05  1.957116836958347e-18
-1.099998976772446e-01  1.500366476950071e-04  1.956037819743101e-18
-1.099998976772446e-01  1.500366476950071e-04  1.956037819743101e-18
-1.088996420932367e-01  1.551992113268867e-02  1.778537479550080e-18
-1.089795962148308e-01 -1.494816406293276e-02  2.093008865716389e-18
-1.098687787908657e-01 -5.371354298847115e-03  2.010434688967798e-18
-1.099882309127923e-01  1.609055833154424e-03  1.940839303642457e-18
-1.099356656546991e-01  3.761571089073372e-03  1.917787529865329e-18
-1.099993290605498e-01 -3.841955606327362e-04  1.961516742400011e-18
-1.099999012945992e-01 -1.473607083340448e-04  1.959093533915474e-18
-1.099996361301510e-01 -2.829332682786158e-04  1.960481773801611e-18
-1.099332610208650e-01  3.831203638323017e-03  1.917029287389877e-18
-1.099983418805515e-01  6.039731196221317e-04  1.951346100138232e-18
-1.099724166981398e-01  2.463242897205578e-03  1.931781409047478e-18
-1.099340582282139e-01 -3.808259638677850e-03  1.995536184617952e-18
-1.099970867366276e-01  8.005682074337729e-04  1.949303820245032e-18
-1.099356171540697e-01  3.762988301037142e-03  1.917772105400682e-18
-1.099964328141612e-01  8.858714125809559e-04  1.948415723470048e-18
-1.099939505212591e-01  1.153624170484133e-03  1.945620485786343e-18
-1.099964407379198e-01  8.848869923487975e-04  1.948425979043055e-18
-1.099841054623210e-01  1.869905252403313e-03  1.938085753306669e-18
-1.099920763210239e-01  1.320282768947580e-03  1.943874775600627e-18
-1.099920763210239e-01  1.320282768947580e-03  1.943874775600627e-18
-1.099994177642626e-01  3.578987610313919e-04  1.953893571414965e-18
-1.099653260315659e-01  2.761715186497780e-03  1.928588527831724e-18
-1.099905173972661e-01 -1.444327761150665e-03  1.972252401585515e-18
-1.098690221552965e-01  5.366374068110964e-03  1.900112761667696e-18
-1.099966738858150e-01  8.554145530579347e-04  1.948732946795179e-18
-1.099721338395328e-01  2.475839005227375e-03  1.931646954807043e-18
-1.093723910345648e-01 -1.173371549775174e-02  2.066971826786302e-18
-1.098009295063738e-01  6.614822713894747e-03  1.886073615446575e-18
-1.094919940266982e-01 -1.055950965042526e-02  2.057035766173098e-18
-1.095173772806140e-01  1.029291375537476e-02  1.843236416050064e-18
-1.096627525640931e-01 -8.607014585000627e-03  2.040013440522654e-18
-1.098382625887215e-01  5.962891202344909e-03  1.893436361632539e-18
-1.094891404113961e-01 -1.058905718057642e-02  2.057288572823412e-18
-1.095653940508525e-01  9.768542699980398e-03  1.849478653858083e-18
-1.098463021039095e-01 -5.812909262716121e-03  2.014571506361696e-18
-1.098570950044508e-01  5.605236585817800e-03  1.897446278193670e-18
-1.099844181036105e-01 -1.851424967457977e-03  1.976326633287432e-18
-1.099352796579813e-01  3.772835342466908e-03  1.917664924481667e-18
-1.099968338002572e-01  8.345980580683860e-04  1.948949674587409e-18
-1.099970131706016e-01 -8.106130682625477e-04  1.965856813361482e-18
-1.095212448635281e-01 -1.025167905969789e-02  2.054393472212486e-18
-7.381957483425439e-02  8.155164235801657e-02  4.757938895058015e-19
-1.086893785287885e-01 -1.692982560529378e-02  2.108204948275796e-18
-1.093088135433754e-01 -1.231191624969565e-02  2.071781192175014e-18
-1.088789000768394e-01  1.566477315691286e-02  1.776680048698017e-18
-1.090079122469332e-01  1.474025330734980e-02  1.788475079758726e-18
-1.097946166173063e-01 -6.718791696328720e-03  2.022959314399065e-18
-1.098964926428870e-01 -4.770839002921517e-03  2.004757813507219e-18
-1.099887172854650e-01  1.575458630997809e-03  1.941193158271591e-18
-1.099849016316157e-01  1.822474439807581e-03  1.938587256458133e-18
-1.099923897960220e-01  1.293903767629402e-03  1.944151388917950e-18
-1.099923897960220e-01  1.293903767629402e-03  1.944151388917950e-18
-1.099988564000435e-01  5.015881602789115e-04  1.952407224890053e-18
-1.096527172837354e-01 -8.733933380391681e-03  2.041138895254843e-18
-1.081971902457054e-01  1.983350758021756e-02  1.721715977262770e-18
-1.099683700028215e-01 -2.637726089358375e-03  1.984119996577809e-18
-1.099975837006467e-01  7.290953429806647e-04  1.950047022030756e-18
-1.099853473546045e-01  1.795373857146952e-03  1.938873637272367e-18
-1.096555510725641e-01  8.698282530029092e-03  1.862079640053926e-18
-1.097306574054733e-01 -7.693037460105277e-03  2.031831105238329e-18
-1.099973597101413e-01  7.621396182546643e-04  1.949703517928129e-18
-1.099942766375743e-01  1.122099361332876e-03  1.945950195377143e-18
-1.095514583599280e-01  9.923606764321078e-03  1.847637424684234e-18
-1.099870568129266e-01 -1.687404406175587e-03  1.974688340584087e-18
-1.099870568129266e-01 -1.687404406175587e-03  1.974688340584087e-18
-1.082615332081811e-01 -1.947923066791471e-02  2.126785141335595e-18
-1.099876513413866e-01 -1.648196713230592e-03  1.974296076125238e-18
-1.092988450034218e-01  1.240010003660867e-02  1.817696799943611e-18
-1.099886752696991e-01 -1.578389184139098e-03  1.973597051148612e-18
-1.099299173897549e-01 -3.925972832509068e-03  1.996671953762974e-18
-1.098785574018371e-01  5.167458107339918e-03  1.902326241990375e-18
-1.099990970095390e-01 -4.457096430961904e-04  1.962144647626476e-18
-1.099990970095390e-01 -4.457096430961904e-04  1.962144647626476e-18
-1.099997520831741e-01  2.335415170198543e-04  1.955177246525567e-18
-1.096642196939418e-01  8.588301282487975e-03  1.863363925877088e-18
 1.088681053792016e-01 -1.573961979029334e-02 -1.775718922208830e-18
 1.099787255338857e-01  2.163314573091760e-03 -1.979429879616138e-18
 1.099548567210604e-01 -3.151108289315738e-03 -1.924401341286973e-18
 1.097616177399136e-01  7.237905160818332e-03 -2.027705762281911e-18
 1.099996628321649e-01 -2.723541994441133e-04 -1.954776871985027e-18
 1.094678768709681e-01 -1.080666152715494e-02 -1.837076925489042e-18
 1.099418609937378e-01 -3.575919634662522e-03 -1.919805284565792e-18
 1.099978417994702e-01 -6.890569342676308e-04 -1.950462995311907e-18
 1.099766884327041e-01 -2.264509080541593e-03 -1.933899347431462e-18
 1.099844956917121e-01 -1.846810071365235e-03 -1.938329992499511e-18
 1.099844956917121e-01 -1.846810071365235e-03 -1.938329992499511e-18
 1.099641368698527e-01 -2.808665602779088e-03 -1.928084966809008e-18
 1.099639699221294e-01 -2.815194303229880e-03 -1.928014915749689e-18
 1.099987392973685e-01 -5.266431329530378e-04 -1.952147710165795e-18
 1.099999183207530e-01  1.340500936208377e-04 -1.958957075185378e-18
 1.092334096929457e-01 -1.296388085617165e-02 -1.810739657424084e-18
 1.099844344127482e-01 -1.850455864866421e-03 -1.938291442763441e-18
 1.099995349994039e-01  3.198435787200437e-04 -1.960859214090656e-18
 1.099933664203786e-01 -1.208032910256185e-03 -1.945051060978416e-18
 1.099933664203786e-01 -1.208032910256185e-03 -1.945051060978416e-18
 1.099979105711496e-01 -6.779896616418622e-04 -1.950577931391784e-18
 1.099790404090556e-01 -2.147247238501074e-03 -1.935146026485264e-18
 1.099996944630696e-01 -2.592644041662923e-04 -1.954911927786036e-18
 1.099337388472537e-01 -3.817468148361684e-03 -1.917178918050078e-18
 1.099950283523519e-01  1.045819183815159e-03 -1.968238148546791e-18
 1.099710209066519e-01 -2.524789248361696e-03 -1.931124202872895e-18
 1.099982188375067e-01  6.259812903841056e-04 -1.963981245195982e-18
 1.099379529333534e-01 -3.694117597435554e-03 -1.918521294840002e-18
 1.099823350774609e-01  1.971286612606682e-03 -1.977521098213967e-18
 1.099058179571792e-01 -4.550953654269962e-03 -1.909145735387088e-18
 1.099781398076077e-01  2.192889522575878e-03 -1.979723327780555e-18
 1.099603685736876e-01 -2.952514714392367e-03 -1.926539908118212e-18
 1.099098237082537e-01  4.453162069869843e-03 -2.001731040633138e-18
 1.081835570346966e-01 -1.990773687088679e-02 -1.720710679014340e-18
 1.098418345948438e-01  5.896725603154315e-03 -2.015353184158754e-18
 1.099652143667940e-01  2.766157852505613e-03 -1.985383427981267e-18
 1.099502492670745e-01 -3.307973111754096e-03 -1.922707617081280e-18
 1.099999925938340e-01  4.036528701823171e-05 -1.957995819608623e-18
 1.099999925938340e-01  4.036528701823171e-05 -1.957995819608623e-18
 1.099999939529920e-01 -3.647384882479494e-05 -1.957206349589138e-18
 1.099972611778490e-01 -7.762302313099404e-04 -1.949556988498028e-18
 1.099967946388728e-01  8.397435165450533e-04 -1.966152229102537e-18
 1.099890234979830e-01  1.553933705175325e-03 -1.973351977123929e-18
 1.098509792533052e-01  5.723841113258692e-03 -2.013739598934538e-18
 2.960994412912760e-02 -1.059398471240632e-01  5.615491684811898e-19
 1.098687014281305e-01  5.372936487270341e-03 -2.010449568616928e-18
 1.099672235456854e-01  2.685096954146701e-03 -1.984586312432748e-18
 1.099999956964946e-01 -3.076964584742966e-05 -1.957264989230264e-18
 1.099976438620849e-01 -7.199616586054273e-04 -1.950141937964262e-18
 1.099999144449475e-01  1.371936738313065e-04 -1.958989305355488e-18
 1.099999144449475e-01  1.371936738313065e-04 -1.958989305355488e-18
 1.099993795217049e-01 -3.694656138952980e-04 -1.953774045631763e-18
 1.099917767269587e-01 -1.345010203232633e-03 -1.943615378562359e-18
 1.099997557929527e-01  2.317875982222772e-04 -1.959958400163838e-18
 1.099075239884107e-01  4.509564362202511e-03 -2.002269627439705e-18
 1.099942511895537e-01  1.124591147616981e-03 -1.969033671320223e-18
 8.166486537657582e-02 -7.369429939300379e-02 -6.961415375249268e-19
 1.099982935426544e-01  6.127133946301273e-04 -1.963846251854173e-18
 1.098326497608110e-01  6.065397474109732e-03 -2.016922771281468e-18
 1.099719237849777e-01 -2.485151711865906e-03 -1.931547531958002e-18
 1.099968924840140e-01 -8.268275879438236e-04 -1.949030557692603e-18
 1.099872468488154e-01  1.674971825935678e-03 -1.974563982253848e-18
 1.099979455523060e-01 -6.722903181306778e-04 -1.950637112607357e-18
 1.099979455523060e-01 -6.722903181306778e-04 -1.950637112607357e-18
 1.099990818328939e-01 -4.494395623752696e-04 -1.952947044635896e-18
 1.099990818328939e-01 -4.494395623752696e-04 -1.952947044635896e-18
 1.099995079834670e-01  3.290036399388379e-04 -1.960952849611269e-18
 1.099996403859372e-01 -2.812738246194614e-04 -1.954684826619198e-18
 1.099996403859372e-01 -2.812738246194614e-04 -1.954684826619198e-18
 1.099639311215456e-01 -2.816709480211844e-03 -1.927998657353947e-18
 1.099486536523151e-01  3.360589240473299e-03 -1.991196276884201e-18
 1.099886167449275e-01  1.582462175659742e-03 -1.973637858138762e-18
 1.099886167449275e-01  1.582462175659742e-03 -1.973637858138762e-18
 1.099740583975515e-01 -2.388823888835463e-03 -1.932575253323502e-18
 1.099977662528075e-01 -7.010131187343075e-04 -1.950338805416877e-18
 1.099957090957874e-01  9.715865966794649e-04 -1.967487550322006e-18
 1.099998528454893e-01 -1.799276816461441e-04 -1.955729902393250e-18
 1.099976919049481e-01 -7.125837382667968e-04 -1.950218598395611e-18
 1.099987238030422e-01 -5.298695140931374e-04 -1.952114284531614e-18
 1.099993498747119e-01  3.781892920795718e-04 -1.961455400585376e-18
 1.099965663770954e-01  8.691290175720209e-04 -1.966450092260067e-18
 1.099965663770954e-01  8.691290175720209e-04 -1.966450092260067e-18
 1.099999599320513e-01 -9.388794942937811e-05 -1.956615835119107e-18
 1.098828362825786e-01 -5.075656656627141e-03 -1.903345616334432e-18
 1.099333017539722e-01  3.830034656502501e-03 -1.995746452654370e-18
 1.099706713108819e-01  2.539970754537437e-03 -1.983156550546280e-18
 1.099801953892132e-01 -2.087252296780306e-03 -1.935783006966611e-18
 1.095780484406566e-01 -9.625554526209843e-03 -1.851173005361324e-18
 1.099772230030958e-01  2.238396865449733e-03 -1.980174583567174e-18
 1.099998099482812e-01  2.044782187458350e-04 -1.959678769969105e-18
 1.099956320930893e-01 -9.802654955066120e-04 -1.947431608772049e-18
 1.099933339256552e-01  1.210987993024556e-03 -1.969905043716053e-18
 1.099933339256552e-01  1.210987993024556e-03 -1.969905043716053e-18
 1.099947207256357e-01 -1.077688493638466e-03 -1.946414403986283e-18
 1.099565064677114e-01 -3.093005886846095e-03 -1.925027681574947e-18
 1.099101384124004e-01  4.445387965850455e-03 -2.001656765074132e-18
 1.099975618546956e-01 -7.323837944323923e-04 -1.950012845611932e-18
 1.060505363600121e-01 -2.921102082696994e-02 -1.587163168717777e-18
 1.053934352534345e-01  3.149958421122469e-02 -2.199248683046163e-18
 1.089423659731907e-01  1.521712509521103e-02 -2.095109786057361e-18
 1.099079667993188e-01 -4.498759166676321e-03 -1.909720255995453e-18
 1.099079667993188e-01 -4.498759166676321e-03 -1.909720255995453e-18
 1.097379021920016e-01  7.588993510250449e-03 -2.030891021067931e-18
 1.099225081682384e-01 -4.128219713568954e-03 -1.913786195275225e-18
 1.099807328915448e-01 -2.058735689350615e-03 -1.936085570243828e-18
 1.098852778020457e-01  5.022521514855063e-03 -2.007144178417947e-18
 1.096233106835398e-01  9.095589853331532e-03 -2.044331458606889e-18
 1.099503699928312e-01 -3.303957996018454e-03 -1.922751019395731e-18
 1.099503699928312e-01 -3.303957996018454e-03 -1.922751019395731e-18
 1.099833110423359e-01 -1.916061628631769e-03 -1.937597375656962e-18
 1.099515887645313e-01  3.263146971148185e-03 -1.990247326787896e-18
 1.099417043461858e-01  3.580732530614329e-03 -1.993334498026628e-18
 1.099417043461858e-01  3.580732530614329e-03 -1.993334498026628e-18
 1.093057769114601e-01 -1.233884653369429e-02 -1.818449519006627e-18
 1.099283735902639e-01 -3.968964575213804e-03 -1.915526866150454e-18
 1.092692589236643e-01  1.265816156766609e-02 -2.074634815395906e-18
 1.099957250153535e-01  9.697826285599370e-04 -1.967469298512577e-18
 1.099984656111214e-01 -5.810018923164734e-04 -1.951584323087088e-18
 1.099982678112978e-01  6.173155707792563e-04 -1.963893079622082e-18
 1.099998872761682e-01  1.574777133662946e-04 -1.959197232992261e-18
 1.099977294138211e-01  7.067699793499179e-04 -1.964802609748592e-18
 1.099993487739015e-01  3.785093360877111e-04 -1.961458669331061e-18
 1.099988048124024e-01  5.127766013789708e-04 -1.962828536262730e-18
 1.099995416860710e-01  3.175355952461930e-04 -1.960835619396105e-18
 1.099989939899950e-01  4.704478599847178e-04 -1.962396990462647e-18
 1.099989939899950e-01  4.704478599847178e-04 -1.962396990462647e-18
 1.099989480916749e-01  4.810600013987876e-04 -1.962505209545231e-18
 1.099989480916749e-01  4.810600013987876e-04 -1.962505209545231e-18
 1.099996034405389e-01  2.953691319225114e-04 -1.960608966032317e-18
 1.099996034405389e-01  2.953691319225114e-04 -1.960608966032317e-18
 1.099990661433894e-01  4.532632592380503e-04 -1.962221708988370e-18
 1.099994264463360e-01 -3.552203218384796e-04 -1.953921245912522e-18
 1.099998774544735e-01  1.641950082654665e-04 -1.959266075968374e-18
 1.099103891918466e-01 -4.439183224054027e-03 -1.910375486528225e-18
 1.099717377771446e-01  2.493369261634540e-03 -1.982696716174966e-18
 1.099529964899707e-01  3.215363568311296e-03 -1.989781421835481e-18
 1.099783273712252e-01 -2.183462531744373e-03 -1.934761238144437e-18
 1.099783273712252e-01 -2.183462531744373e-03 -1.934761238144437e-18
 1.094108867949238e-01 -1.136916227117425e-02 -1.830283228301267e-18
 1.079264103209299e-01  2.125770343283079e-02 -2.139094391399061e-18
 1.099817353378577e-01  2.004468027522760e-03 -1.977851352116734e-18
 1.099860128856050e-01 -1.754129279002155e-03 -1.939309254247856e-18
 1.099987721388557e-01 -5.197383418769029e-04 -1.952219238839229e-18
 1.099999651268136e-01  8.759052293094251e-05 -1.958480552943656e-18
 1.098876774095396e-01  4.969743809985360e-03 -2.006644610550754e-18
 1.099986221354940e-01 -5.505708789443249e-04 -1.951899776232688e-18
 1.099846131984802e-01 -1.839798788083814e-03 -1.938404122061334e-18
 1.099999794351390e-01 -6.726268605437097e-05 -1.956889747108797e-18
 1.099999794351390e-01 -6.726268605437097e-05 -1.956889747108797e-18
 1.099983655489609e-01  5.996470270975568e-04 -1.963713281112529e-18
 1.099866383820600e-01 -1.714461260536532e-03 -1.939727960182869e-18
 1.099850524999857e-01  1.813346788488875e-03 -1.975946683671471e-18
 1.099390556709126e-01 -3.661152576429458e-03 -1.918879622985847e-18
 1.099944470838955e-01  1.105264994487690e-03 -1.968838588290943e-18
 1.098654558899192e-01 -5.438897140060362e-03 -1.899304147502592e-18
 1.099686595057037e-01  2.625628785365986e-03 -1.984000853223012e-18
 1.097991453466746e-01 -6.644372140371857e-03 -1.885738254573915e-18
 1.099994334389131e-01  3.530483225613120e-04 -1.961198573381210e-18
 1.087752457275377e-01  1.636905363525026e-02 -2.103971329223886e-18
 1.098514398629173e-01  5.714994317039083e-03 -2.013656898414652e-18
 1.095818293719542e-01 -9.582414700681172e-03 -1.851683537579662e-18
 1.098633951408842e-01  5.480365691983099e-03 -2.011458932958274e-18
 1.099727749338145e-01 -2.447197040803489e-03 -1.931952649624158e-18
 1.099773101526481e-01  2.234110916709712e-03 -1.980132097931071e-18
 1.093871619266992e-01 -1.159520614831934e-02 -1.827538497248781e-18
 1.094503559970040e-01  1.098269421084916e-02 -2.060642835394542e-18
 1.097663767193392e-01 -7.165371023752597e-03 -1.879802023499926e-18
 1.099419498758066e-01  3.573185904141024e-03 -1.993261328673568e-18
 1.098813327801131e-01 -5.108102041460136e-03 -1.902985495171939e-18
 1.083284632715027e-01  1.910350871527541e-02 -2.124115835075159e-18
 1.099408450183200e-01 -3.607020468151228e-03 -1.919467654305282e-18
 1.098764124992918e-01  5.212866417375730e-03 -2.008942134507060e-18
 1.053429778148768e-01 -3.166791791536515e-02 -1.549327595337993e-18
 1.099968892104675e-01  8.272629691120478e-04 -1.966025679025828e-18
 1.099994070487209e-01  3.611771445439899e-04 -1.961281624429164e-18
 1.099994070487209e-01  3.611771445439899e-04 -1.961281624429164e-18
 1.099999999815393e-01 -2.015261170540944e-06 -1.957560506344656e-18
 1.099999056728039e-01  1.440554552349503e-04 -1.959059651555959e-18
 1.096467096604436e-01  8.809032900286012e-03 -2.041803602717615e-18
 1.099999943468499e-01 -3.526603075875025e-05 -1.957218766490172e-18
 1.099997227722620e-01 -2.469615869385813e-04 -1.955038838559637e-18
 1.099971398420587e-01  7.932380263879111e-04 -1.965680545387756e-18
 1.099971398420587e-01  7.932380263879111e-04 -1.965680545387756e-18
 1.099132197826209e-01  4.368537171318542e-03 -2.000921987736683e-18
 1.099846432008325e-01  1.838004348605065e-03 -1.976192747177617e-18
 1.099983268631699e-01 -6.067019887573015e-04 -1.951317794746968e-18
 1.099846432008327e-01  1.838004348597400e-03 -1.976192747177540e-18
 1.099999636447212e-01 -8.943243224151551e-05 -1.956661680011041e-18
 1.099100657679855e-01  4.447183701742585e-03 -2.001673922814067e-18
 1.099990416618214e-01  4.591660710493021e-04 -1.962281922556702e-18
 1.099777349501695e-01  2.213100817902398e-03 -1.979923786576804e-18
 1.097860795316872e-01 -6.856875459126553e-03 -1.883322338406929e-18
 1.099907205632833e-01 -1.428772189558095e-03 -1.942735958888762e-18
 1.099792573301930e-01  2.136107932458558e-03 -1.979159805216664e-18
 1.070479347490984e-01  2.531283599189769e-02 -2.165125884645290e-18
 1.091038020136886e-01 -1.401286502317696e-02 -1.797655202920078e-18
 1.099997661259165e-01 -2.268308700242619e-04 -1.955246445893013e-18
 1.099973527321377e-01  7.631460683365899e-04 -1.965375150083227e-18
 1.097171852668179e-01  7.882845750532677e-03 -2.033541563693017e-18
 1.099662025171799e-01 -2.726592002941508e-03 -1.928965003890526e-18
 1.099040726527947e-01  4.592909135738499e-03 -2.003064544076821e-18
 1.099929008559558e-01 -1.249704481783738e-03 -1.944614615444814e-18
 1.098660165880549e-01  5.427559218762241e-03 -2.010963017408391e-18
 1.099982486109631e-01 -6.207274125474748e-04 -1.951172296021197e-18
 1.099013250237768e-01  4.658192569879938e-03 -2.003686410311155e-18
 1.099999411148042e-01 -1.138188891562466e-04 -1.956410717078398e-18
 1.099454136434871e-01  3.464970239764318e-03 -1.992211093911364e-18
 1.099994825161219e-01  3.374110035353589e-04 -1.961038778996284e-18
 1.099757248674535e-01  2.310830992974142e-03 -1.980892156803441e-18
 1.099412795293198e-01  3.593752280819373e-03 -1.993460711107411e-18
 1.099995073285283e-01  3.292225401948533e-04 -1.960955087076463e-18
 1.098916044254448e-01  4.882138547960803e-03 -2.005814384240289e-18
 1.099786479532832e-01  2.167255030617756e-03 -1.979468985746397e-18
-5.030205060097880e-02 -9.782486240898323e-02  1.900299917175961e-18
 1.098904312975642e-01 -4.908473208161491e-03 -1.905198527885776e-18
 1.098537720032329e-01  5.669989123592359e-03 -2.013235989619882e-18
 1.098140222629771e-01 -6.393787173990519e-03 -1.888577676544553e-18
 1.098554547767176e-01  5.637291530555775e-03 -2.012929980690978e-18
 1.095011476704555e-01 -1.046416068555086e-02 -1.841188090779474e-18
 1.099563063147728e-01  3.100113161126040e-03 -1.988656168049289e-18
 1.099754611657328e-01 -2.323347021933137e-03 -1.933272968278117e-18
 1.098476951390477e-01  5.786525091864121e-03 -2.014325209312763e-18
 9.976534998189775e-02 -4.633438186691809e-02 -1.299374465620098e-18
 1.099998897010662e-01 -1.557746872824545e-04 -1.955978721525198e-18
 1.099831394179294e-01 -1.925887789110342e-03 -1.937493361166571e-18
 1.099933303657863e-01 -1.211311290679069e-03 -1.945016735176035e-18
 1.099915997302699e-01 -1.359407509180569e-03 -1.943464301606669e-18
 1.099915997302699e-01 -1.359407509180569e-03 -1.943464301606669e-18
 1.098018492005277e-01 -6.599538782711702e-03 -1.886247019341783e-18
 1.099817354476648e-01 -2.004462002582853e-03 -1.936661054341335e-18
 1.099999039500656e-01  1.453649760662221e-04 -1.959073075748608e-18
 1.099952353758237e-01 -1.023813760933323e-03 -1.946977106107668e-18
 1.099799721791506e-01 -2.098980579515572e-03 -1.935658530832738e-18
 1.099891156989500e-01 -1.547393861597178e-03 -1.941488603825263e-18
 1.099933621358169e-01 -1.208422963608701e-03 -1.945046977073028e-18
 1.099933621358169e-01 -1.208422963608701e-03 -1.945046977073028e-18
 1.099910395644821e-01 -1.403999830650563e-03 -1.942996162884296e-18
 1.099912085444235e-01 -1.390698722609616e-03 -1.943135834137129e-18
 1.099922441904453e-01 -1.306222779388758e-03 -1.944022224322346e-18
 1.099920882218717e-01 -1.319290942868037e-03 -1.943885178043073e-18
 1.099917446317110e-01 -1.347632320921562e-03 -1.943587866082430e-18
 1.099949872892321e-01 -1.050129154724159e-03 -1.946702309999272e-18
 1.099768540710365e-01 -2.256450451009661e-03 -1.933985094654138e-18
 1.099768540710365e-01 -2.256450451009661e-03 -1.933985094654138e-18
 1.099132842002343e-01  4.366916110762882e-03 -2.000906478316629e-18
 1.099713241567462e-01 -2.511545980419212e-03 -1.931265669337260e-18
 1.099978496141249e-01 -6.878083078112743e-04 -1.950475963566259e-18
 1.099974713981184e-01  7.458458420238493e-04 -1.965199508345218e-18
 1.099971968791987e-01 -7.852889396426390e-04 -1.949462769289500e-18
 1.099971968791987e-01 -7.852889396426390e-04 -1.949462769289500e-18
 1.098938456839757e-01 -4.831426371834929e-03 -1.906050919219136e-18
 1.096593452754574e-01  8.650317552433649e-03 -2.040397726016664e-18
 1.099999387146418e-01  1.161153519814292e-04 -1.958773165163791e-18
 1.099939639759467e-01 -1.152340599855058e-03 -1.945633913450485e-18
 1.099065715462011e-01 -4.532717833673105e-03 -1.909346512834726e-18
 1.099558467082442e-01  3.116372037004723e-03 -1.988815042846144e-18
 1.099945173774058e-01  1.098247199635975e-03 -1.968767733955070e-18
 1.099995420820407e-01  3.173983951966129e-04 -1.960834216762190e-18
 1.099995420820407e-01  3.173983951966129e-04 -1.960834216762190e-18
 1.099995420820407e-01  3.173983951966129e-04 -1.960834216762190e-18
 1.098351264316955e-01 -6.020382191638634e-03 -1.892789850947159e-18
 1.086533491464167e-01 -1.715953726843471e-02 -1.757307942603481e-18
 1.088277247258759e-01  1.601643939797223e-02 -2.101282272405177e-18
 1.018085472533961e-01  4.165356774818862e-02 -2.239779817066361e-18
 1.031238146892578e-01 -3.828157316432478e-02 -1.441882035273016e-18
 1.099536319888907e-01 -3.193557961197315e-03 -1.923943390759268e-18
 1.081983127588198e-01 -1.982738298779088e-02 -1.721798881684916e-18
 1.063463048306178e-01  2.811518182180639e-02 -2.181432628701573e-18
 1.099625991947687e-01  2.868236100915749e-03 -1.986385704795887e-18
 1.099625991947687e-01  2.868236100915749e-03 -1.986385704795887e-18
 1.099890074138165e-01 -1.555071742181910e-03 -1.941407789328294e-18
 1.097402829917580e-01 -7.554487996468759e-03 -1.875339618952318e-18
 1.099844889933584e-01  1.847208940469334e-03 -1.976284576709310e-18
 1.099402561707046e-01  3.624923877790310e-03 -1.993762776055272e-18
 1.099908168303773e-01  1.421341966705660e-03 -1.972021559667066e-18
 1.006770447399725e-01 -4.431853632990949e-02 -1.336311241942563e-18
 1.099565908650553e-01  3.090004099475727e-03 -1.988557365024867e-18
 1.099616986825525e-01  2.902554538239115e-03 -1.986722288583421e-18
 1.099851527195617e-01 -1.807257938043101e-03 -1.938748068895550e-18
 1.098477556801470e-01 -5.785375703846736e-03 -1.895429209778984e-18
 1.095793618141711e-01  9.610591261670444e-03 -2.048840788437744e-18
 1.099988982098951e-01 -4.923338390393951e-04 -1.952503053735139e-18
 1.099988982098951e-01 -4.923338390393951e-04 -1.952503053735139e-18
 1.099881396170282e-01 -1.615284366616288e-03 -1.940773683006762e-18
 1.099975928385181e-01 -7.277154193185847e-04 -1.950061362864420e-18
 1.099975928385181e-01 -7.277154193185847e-04 -1.950061362864420e-18
 1.099766714517614e-01  2.265333615886489e-03 -1.980441533378647e-18
 1.099938098807807e-01 -1.166956687538369e-03 -1.945480996151857e-18
 1.099918855352792e-01 -1.336082480221398e-03 -1.943709044046969e-18
 1.099655147663812e-01  2.754189928949792e-03 -1.985265807883320e-18
 1.099998361800310e-01 -1.898430042619048e-04 -1.955627729473618e-18
 1.099998361800310e-01 -1.898430042619048e-04 -1.955627729473618e-18
 1.099355236421781e-01  3.765719256666649e-03 -1.995125176435993e-18
 1.096534628676726e-01 -8.724567675699528e-03 -1.861772407633860e-18
 1.099587099145111e-01  3.013654581457346e-03 -1.987810612475587e-18
 1.099994790092324e-01 -3.385523554138446e-04 -1.954093438631981e-18
 1.092943648430436e-01 -1.243952625929104e-02 -1.817211980029912e-18
 1.099883185215893e-01  1.603056079289514e-03 -1.973844145777344e-18
 1.099883185215893e-01  1.603056079289514e-03 -1.973844145777344e-18
 1.099883185215893e-01  1.603056079289514e-03 -1.973844145777344e-18
 1.084865450549604e-01  1.818432132464641e-02 -2.117484772454378e-18
 1.099837171083767e-01 -1.892609580574292e-03 -1.937845563360862e-18
 1.099758796627490e-01  2.303452279616460e-03 -1.980819097971097e-18
 1.094666637180795e-01  1.081894331405974e-02 -2.059250569765146e-18
 1.095415409534748e-01  1.003248750500786e-02 -2.052502551744732e-18
 1.301702510986383e-02 -1.092270893931039e-01  8.906151753324102e-19
 1.096957615464879e-01 -8.175567181302926e-03 -1.868165943722793e-18
 1.099619816951548e-01 -2.891812869874089e-03 -1.927192304940101e-18
 1.098300387979668e-01 -6.112493569487488e-03 -1.891752899490246e-18
 1.099843161586774e-01 -1.857471159405686e-03 -1.938217258688257e-18
 1.099843161586774e-01 -1.857471159405686e-03 -1.938217258688257e-18
 1.099825269238216e-01 -1.960553863271360e-03 -1.937126279784504e-18
 1.099373520799343e-01 -3.711956041292421e-03 -1.918327318406252e-18
 1.099971894206132e-01  7.863329865078127e-04 -1.965610480920909e-18
 1.099996562372668e-01  2.750048782454537e-04 -1.960400670304287e-18
 1.098443433599346e-01  5.849806135652079e-03 -2.014915750142026e-18
 9.307163526217775e-02 -5.863165279628470e-02 -1.053901836078822e-18
 1.099718066878981e-01  2.490328050578594e-03 -1.982666695185210e-18
 4.994904624875575e-03  1.098865366083959e-01 -1.217934530948397e-18
 1.092160744783650e-01 -1.310912184458429e-02 -1.808938858208392e-18
 1.099999990637327e-01  1.435195894328080e-05 -1.957728657252118e-18
 1.098883913305140e-01 -4.953932861043442e-03 -1.904695142819588e-18
 1.099995891207730e-01  3.006547206397390e-04 -1.960663018698967e-18
 1.099995891207730e-01  3.006547206397390e-04 -1.960663018698967e-18
 1.099897063961303e-01 -1.504821216283518e-03 -1.941936534451368e-18
 1.099976879464568e-01  7.131945273576245e-04 -1.964867881684302e-18
 1.095444952206049e-01  1.000017834154954e-02 -2.052223161534753e-18
 1.099528287330079e-01 -3.221095094804578e-03 -1.923646161818314e-18
 1.098027851433453e-01 -6.583948265614429e-03 -1.886423862460240e-18
 1.098852340936049e-01  5.023477699122807e-03 -2.007153225020102e-18
 1.098850221965953e-01  5.028110664422336e-03 -2.007197056095486e-18
 1.099824457912345e-01  1.965099940992329e-03 -1.977459502694236e-18
 1.099824457912345e-01  1.965099940992329e-03 -1.977459502694236e-18
 1.099876923143115e-01  1.645460231143057e-03 -1.974268688927947e-18
 1.099731029142185e-01  2.432413496639243e-03 -1.982094712075753e-18
 1.099731029142185e-01  2.432413496639243e-03 -1.982094712075753e-18
 1.099731029142185e-01  2.432413496639243e-03 -1.982094712075753e-18
 1.099731029142185e-01  2.432413496639243e-03 -1.982094712075753e-18
 1.099903829824992e-01  1.454527883225266e-03 -1.972354812063305e-18
 1.099467616937660e-01  3.421928265491077e-03 -1.991792843424352e-18
 1.099467616937660e-01  3.421928265491077e-03 -1.991792843424352e-18
 1.099855378951667e-01  1.783663059761470e-03 -1.975650332328296e-18
 1.099855378951667e-01  1.783663059761470e-03 -1.975650332328296e-18
 1.099717381081299e-01  2.493354663258987e-03 -1.982696572072240e-18
 1.099717381081299e-01  2.493354663258987e-03 -1.982696572072240e-18
 1.099831631263750e-01  1.924533376459355e-03 -1.977055461814828e-18
 1.099813246741821e-01  2.026875159468323e-03 -1.978074269007639e-18
 1.099813246741821e-01  2.026875159468323e-03 -1.978074269007639e-18
 1.098541928280625e-01 -5.661829924572165e-03 -1.896813154506042e-18
 1.099407007772031e-01  3.611414212937418e-03 -1.993631881459572e-18
 1.099491691473972e-01 -3.343681174539432e-03 -1.922321507689808e-18
 1.099268931668997e-01  4.009757931964871e-03 -1.997478995570017e-18
 1.099967766883064e-01  8.420915524918353e-04 -1.966176034867176e-18
 1.099999458547448e-01 -1.091418945494970e-04 -1.956458855851860e-18
 1.099870635199839e-01 -1.686967175423711e-03 -1.940018017756064e-18
 1.099990243243022e-01  4.633008757744463e-04 -1.962324097631362e-18
 1.099977540168908e-01  7.029304656191415e-04 -1.964763597980767e-18
 1.099991794136034e-01  4.248862598678282e-04 -1.961932161406965e-18
 1.099446965354374e-01 -3.487650173182703e-03 -1.920762683063624e-18
 1.099986888987688e-01  5.370666176568642e-04 -1.963076044534739e-18
 1.099847680892231e-01  1.830515872573375e-03 -1.976118028344624e-18
 1.099634379666266e-01 -2.835896782289509e-03 -1.927792738515258e-18
 1.099998813703174e-01 -1.615503513699607e-04 -1.955919230419220e-18
 1.099998813703174e-01 -1.615503513699607e-04 -1.955919230419220e-18
 1.099925593238172e-01 -1.279411347640370e-03 -1.944303310217993e-18
 1.099981851124006e-01 -6.318797179824410e-04 -1.951056580101503e-18
 1.099987015041870e-01 -5.344786176249066e-04 -1.952066530832453e-18
 1.099950888220827e-01 -1.039439763558641e-03 -1.946813946508537e-18
 1.099995192290613e-01 -3.252220399993329e-04 -1.954231118540174e-18
 1.099995192290613e-01 -3.252220399993329e-04 -1.954231118540174e-18
 1.099896012116818e-01 -1.512489766948145e-03 -1.941855870996325e-18
 1.098802716831775e-01 -5.130876614284963e-03 -1.902732611223825e-18
 1.099999999716030e-01 -2.499455144428834e-06 -1.957555531250639e-18
 1.099144536331791e-01 -4.337381989131553e-03 -1.911493788817325e-18
 1.098639828472011e-01  5.468571381067955e-03 -2.011348209633107e-18
 1.099823909990229e-01  1.968164154233612e-03 -1.977490011279385e-18
 1.099823909990229e-01  1.968164154233612e-03 -1.977490011279385e-18
 1.099999578533209e-01 -9.629261449082883e-05 -1.956591091065659e-18
 1.099999578533209e-01 -9.629261449082883e-05 -1.956591091065659e-18
 1.098488759207683e-01  5.764066181405102e-03 -2.014115465585683e-18
 1.098488759207683e-01  5.764066181405102e-03 -2.014115465585683e-18
 2.263060115440180e-02 -1.076469037705700e-01  7.032942888960233e-19
 1.099686474419966e-01  2.626133998448250e-03 -1.984005829415847e-18
 1.069906449813213e-01 -2.555390159018447e-02 -1.641469094667128e-18
 1.099892269865993e-01  1.539463182505294e-03 -1.973206919082880e-18
 1.098726222004183e-01  5.292153701859934e-03 -2.009689329662643e-18
 1.098726222004183e-01  5.292153701859934e-03 -2.009689329662643e-18
 9.792862470780242e-02  5.009974513745908e-02 -2.257513371648108e-18
 1.099998207708430e-01 -1.985708498000904e-04 -1.955537779806407e-18
 1.099483836875107e-01 -3.369410112155559e-03 -1.922043174006779e-18
 1.099992526709528e-01  4.054772889592964e-04 -1.961734044983522e-18
 1.099992526709528e-01  4.054772889592964e-04 -1.961734044983522e-18
 1.099989435961751e-01  4.820868443230146e-04 -1.962515679980473e-18
 1.099645609264406e-01  2.792013655963640e-03 -1.985637458218584e-18
 1.098619555913907e-01 -5.509148176920154e-03 -1.898520051631431e-18
 1.099545780554623e-01  3.160817085061046e-03 -1.989249122379747e-18
 1.099997327671631e-01 -2.424688694804079e-04 -1.955085177470631e-18
 1.099470954444901e-01  3.411187963178222e-03 -1.991688430211982e-18
 1.098527693015840e-01 -5.689382811247466e-03 -1.896504725252901e-18
 1.076740414120778e-01  2.250112899367757e-02 -2.147378931566211e-18
 1.098962722645971e-01 -4.775912723816517e-03 -1.906664485682689e-18
 1.098896919875058e-01  4.924996943254444e-03 -2.006220704568337e-18
 1.095088325401261e-01 -1.038342889890393e-02 -1.842154341982350e-18
 1.097202563585618e-01  7.839983712447410e-03 -2.033155825563160e-18
 1.099760271370091e-01 -2.296400478967103e-03 -1.933559906352160e-18
 1.097436024352865e-01  7.506112477557758e-03 -2.030140891194077e-18
 1.099637920357369e-01 -2.822134143011673e-03 -1.927940445716433e-18
 1.098827448767329e-01  5.077635114381103e-03 -2.007665374204557e-18
 1.099073452738926e-01 -4.513917904138902e-03 -1.909553444688420e-18
 1.099678656364171e-01  2.658670226048652e-03 -1.984326214172099e-18
 1.099918336975628e-01 -1.340343182789616e-03 -1.943664344361873e-18
 1.096588376774763e-01  8.656749922741260e-03 -2.040454782973319e-18
 1.099145627265771e-01 -4.334616548819171e-03 -1.911524144159078e-18
 1.099865220950043e-01  1.721905178893101e-03 -1.975033307547352e-18
 1.099163434220746e-01  4.289224722549232e-03 -2.000162670027615e-18
 1.099753264040867e-01  2.329717217723258e-03 -1.981079114770996e-18
 1.099934253318967e-01 -1.202656957085975e-03 -1.945107345345047e-18
 1.099712783956347e-01  2.513548891466140e-03 -1.982895879298862e-18
 1.099924554188794e-01 -1.288313209512853e-03 -1.944209997708732e-18
 1.099788396108702e-01  2.157507322457694e-03 -1.979372242361495e-18
 1.099976835920022e-01 -7.138658093415159e-04 -1.950205277642269e-18
 1.099679695743149e-01  2.654367665287648e-03 -1.984283856622150e-18
 1.099986496936135e-01 -5.450372296175094e-04 -1.951957122898914e-18
 1.099939328370236e-01  1.155309068740151e-03 -1.969343621337802e-18
 1.099990339799158e-01 -4.610026955497080e-04 -1.952827386042256e-18
 1.099772011001325e-01  2.239472746204051e-03 -1.980185248061727e-18
 1.099984569354145e-01 -5.826421094780164e-04 -1.951567316057043e-18
 1.099921071041744e-01  1.317715744683855e-03 -1.970979799841552e-18
 1.099775529335474e-01 -2.222127527559586e-03 -1.934350187316065e-18
 1.099773462467276e-01  2.232333426564897e-03 -1.980114477202743e-18
 1.099997695337506e-01 -2.251722045811289e-04 -1.955263548724367e-18
 1.099765091240753e-01  2.273200581153385e-03 -1.980519474774115e-18
 1.099992038939158e-01 -4.185005432760206e-04 -1.953267104039361e-18
 1.099886564887579e-01  1.579697375444184e-03 -1.973610158109790e-18
 1.099403302389640e-01 -3.622676765527662e-03 -1.919297630424534e-18
 1.099907345158517e-01  1.427697679270352e-03 -1.972085397419647e-18
 1.099981874072300e-01 -6.314801056836657e-04 -1.951060726811933e-18
 1.099826526179294e-01  1.953489985597536e-03 -1.977343895347866e-18
 1.099817589809858e-01 -2.003170349296922e-03 -1.936674744413147e-18
 1.099968432184267e-01  8.333558548580777e-04 -1.966087462730268e-18
 1.099999095252687e-01  1.410830701219612e-04 -1.959029179937912e-18
 1.099993557254368e-01  3.764837165053587e-04 -1.961437980536565e-18
 1.099120633183011e-01 -4.397537619364776e-03 -1.910833173064975e-18
 1.099984964885148e-01  5.751263045286379e-04 -1.963463669821364e-18
 1.099984964885148e-01  5.751263045286379e-04 -1.963463669821364e-18
 1.099924720508899e-01  1.286892433016178e-03 -1.970669596173524e-18
 1.099636276275773e-01 -2.828533009086557e-03 -1.927871773852723e-18
 1.099909947948483e-01  1.407502767183943e-03 -1.971882534009411e-18
 1.099613929371048e-01 -2.914114502143652e-03 -1.926952686118281e-18
 1.098408530706816e-01  5.914980701988106e-03 -2.015523281274445e-18
 1.099005715658502e-01 -4.675935147048057e-03 -1.907768230159179e-18
 1.099851715999180e-01  1.806108561675340e-03 -1.975874433045766e-18
 1.099023292099680e-01 -4.634440011887913e-03 -1.908225856972621e-18
 1.093478774703997e-01  1.196000387618667e-02 -2.068860609555461e-18
 1.094957050881006e-01 -1.052095847628310e-02 -1.840507656867561e-18
 1.099709183810199e-01  2.529250963236520e-03 -1.983050805492678e-18
 1.095607847583966e-01 -9.820104028178853e-03 -1.848866852084187e-18
 1.098648712892570e-01  5.450693221504300e-03 -2.011180328924373e-18
 1.097957236181314e-01 -6.700677217330473e-03 -1.885098846621182e-18
 1.096273013296160e-01  9.047364433112270e-03 -2.043906978240194e-18
 1.097584447886223e-01 -7.285862857816499e-03 -1.878422855507506e-18
 1.096660769698171e-01  8.564552647401616e-03 -2.039636321304388e-18
 1.091154925466341e-01 -1.392154037114467e-02 -1.798801577522810e-18
 1.098607193524349e-01  5.533745871062513e-03 -2.011959776059568e-18
 1.095863547651207e-01 -9.530521984292490e-03 -1.852297251158896e-18
 1.096411612129284e-01  8.877824501566175e-03 -2.042411670188785e-18
 1.097168751828352e-01 -7.887160459514625e-03 -1.871504960363300e-18
 1.099160686615250e-01  4.296260000847462e-03 -2.000230065264688e-18
 1.096751795554133e-01 -8.447188259286181e-03 -1.865008854736435e-18
 1.087807922265455e-01  1.633215364136358e-02 -2.103690901757359e-18
 1.098488636545156e-01 -5.764299941155158e-03 -1.895665473309946e-18
 1.094628692802208e-01  1.085726710278734e-02 -2.059576806224519e-18
 1.097284464977032e-01 -7.724508346856953e-03 -1.873382077084830e-18
 1.098709389736447e-01  5.326984986800423e-03 -2.010017253433934e-18
 1.099582342535148e-01 -3.030960218996941e-03 -1.925695926282027e-18
 1.099650148591648e-01  2.774077688823678e-03 -1.985461250946142e-18
 1.095508953014366e-01 -9.929820675805274e-03 -1.847563558703574e-18
 1.099988052987313e-01  5.126722654643417e-04 -1.962827472903911e-18
 1.098177865044957e-01 -6.328804567449389e-03 -1.889312338388410e-18
 1.098177865044957e-01 -6.328804567449389e-03 -1.889312338388410e-18
 1.080541473529202e-01  2.059857373298880e-02 -2.134595306030693e-18
 1.099996831496902e-01 -2.640207713579956e-04 -1.954862856505914e-18
 9.270336554603406e-02 -5.921221171716481e-02 -1.041383005180458e-18
 1.098754724994509e-01  5.232642069009433e-03 -2.009128593725226e-18
 1.099822825938470e-01  1.974212614472560e-03 -1.977550227811691e-18
 1.096872042224225e-01 -8.289585627071190e-03 -1.866842157822880e-18
 1.098108946808216e-01  6.447279224407390e-03 -2.020459309940231e-18
 1.086020514066728e-01  1.748125940149528e-02 -2.112316639906005e-18
 1.099042292211543e-01 -4.589161067553976e-03 -1.908724894642580e-18
 1.098697504320458e-01 -5.351442796099902e-03 -1.900279135616979e-18
 1.099939660998596e-01  1.152137848919263e-03 -1.969311630158000e-18
 1.062624526644572e-01  2.843046172213831e-02 -2.183179765825986e-18
 1.035127858917473e-01 -3.721697404315993e-02 -1.459742611034475e-18
 1.096841724217591e-01 -8.329605041883863e-03 -1.866377018364322e-18
 1.092962152401525e-01  1.242325779247224e-02 -2.072700984246188e-18
 1.099939916425772e-01  1.149696713316566e-03 -1.969287002939606e-18
 1.099939916425772e-01  1.149696713316566e-03 -1.969287002939606e-18
-2.897748193969278e-02 -1.061145868409935e-01  1.605977688100885e-18
 1.099962470727667e-01  9.086417923593302e-04 -1.966850389265736e-18
 1.097061786557736e-01  8.034573090552556e-03 -2.034904631220820e-18
 1.087678357576676e-01  1.641821867904707e-02 -2.104344612935869e-18
 1.089145300548847e-01  1.541509464530035e-02 -2.096648477897706e-18
 1.099791661133979e-01 -2.140799150224803e-03 -1.935214515308612e-18
-2.387347727429686e-02 -1.073781033676493e-01  1.528128010114938e-18
 1.088617547856212e-01 -1.578348329727105e-02 -1.775155224220969e-18
 1.083980900705323e-01  1.870438635883907e-02 -2.121254089795113e-18
 1.099998495452143e-01 -1.819341369581881e-04 -1.955709228061475e-18
 1.099998495452143e-01 -1.819341369581881e-04 -1.955709228061475e-18
 1.099998495452143e-01 -1.819341369581881e-04 -1.955709228061475e-18
 1.099998495452143e-01 -1.819341369581881e-04 -1.955709228061475e-18
 1.099719342414086e-01  2.484688955033444e-03 -1.982611025493876e-18
 1.097583184304109e-01 -7.287766141176804e-03 -1.878401051267289e-18
 1.099469834771913e-01  3.414794908365691e-03 -1.991723497671839e-18
 1.051045392795430e-01 -3.245051344485896e-02 -1.537043412411004e-18
 1.055745215325715e-01  3.088722070968113e-02 -2.196179516866750e-18
 1.099845366880400e-01 -1.844366969219329e-03 -1.938355824065108e-18
 1.095301200649433e-01 -1.015641662000250e-02 -1.844865647577787e-18
 1.099932113792155e-01 -1.222068118878705e-03 -1.944904095165973e-18
 1.099640714964316e-01  2.811223919871411e-03 -1.985826126710871e-18
 1.099640714964316e-01  2.811223919871411e-03 -1.985826126710871e-18
 1.098878928634972e-01 -4.964977544815963e-03 -1.904572791890886e-18
 1.094288166564230e-01  1.119527066108359e-02 -2.062443662939053e-18
 1.093099373184593e-01 -1.230193494676623e-02 -1.818902811558652e-18
 1.096461838929570e-01  8.815574723851638e-03 -2.041861460918714e-18
 1.083624201124827e-01 -1.890994202438944e-02 -1.734145740416535e-18
 1.072232921983533e-01  2.455943016738208e-02 -2.160505608472640e-18
 1.097757922044189e-01 -7.019647134450547e-03 -1.881466843313368e-18
 1.096251446628305e-01  9.073458968521433e-03 -2.044136709654111e-18
 1.092346605699455e-01 -1.295333664230002e-02 -1.810870256239516e-18
 1.099560555527921e-01  3.108994575623316e-03 -1.988742958748319e-18
 1.097057144698021e-01  8.040908696796399e-03 -2.034961466530366e-18
 1.099859739558652e-01  1.756568524054666e-03 -1.975379706036860e-18
 1.099710592914233e-01 -2.523116787273848e-03 -1.931142069905808e-18
 1.098742716663730e-01  5.257796666288741e-03 -2.009365677817295e-18
 1.099999702143597e-01  8.094961361073626e-05 -1.958412410551795e-18
 1.099999702143597e-01  8.094961361073626e-05 -1.958412410551795e-18
 1.099680955771764e-01  2.649142338372521e-03 -1.984232410657531e-18
 1.099998678639234e-01  1.704990303402733e-04 -1.959330676829844e-18
 1.099981723338841e-01  6.341003115430347e-04 -1.964063837601545e-18
 1.099994779268902e-01 -3.389038381997381e-04 -1.954089808012471e-18
 1.099857877855643e-01  1.768186977892577e-03 -1.975495768306814e-18
 1.099996345415318e-01  2.835502237985671e-04 -1.960488084524081e-18
 1.099996345415318e-01  2.835502237985671e-04 -1.960488084524081e-18
 1.099922996188422e-01 -1.301546986786845e-03 -1.944071252807189e-18
 1.099803756896623e-01  2.077730290656247e-03 -1.978579898694858e-18
 1.096213233316293e-01  9.119510459578175e-03 -2.044541866848553e-18
 1.098738159568740e-01 -5.267311180758860e-03 -1.901215908265846e-18
 1.099715123940180e-01  2.503290189391555e-03 -1.982794639142096e-18
 1.098807964833143e-01 -5.119625395711906e-03 -1.902857552851855e-18
 1.098393256782004e-01  5.943276416101341e-03 -2.015786827686790e-18
 1.096162512395295e-01 -9.180275823323676e-03 -1.856427946652335e-18
 1.099218370160167e-01  4.146051980405001e-03 -1.998789387169848e-18
 1.097441931934351e-01 -7.497470261492028e-03 -1.875995042169390e-18
 1.094575401122351e-01  1.091086213726481e-02 -2.060032636833064e-18
 1.099629579030164e-01 -2.854450773691266e-03 -1.927593559689156e-18
 1.097261894151193e-01  7.756504137646413e-03 -2.032403689076472e-18
 1.098491614658823e-01 -5.758621817977255e-03 -1.895729113871411e-18
 1.098374690534360e-01  5.977490437923557e-03 -2.016105323479691e-18
 1.099760554647666e-01 -2.295043444153359e-03 -1.933574353518134e-18
 1.099562721839469e-01  3.101323493245338e-03 -1.988667996373376e-18
 1.099921863215248e-01 -1.311086652717899e-03 -1.943971219944327e-18
 1.099840294815118e-01  1.874368963123341e-03 -1.976555458514183e-18
 1.099840294815118e-01  1.874368963123341e-03 -1.976555458514183e-18
 5.882112646332226e-02 -9.295200418272766e-02 -9.174403362519394e-20
 1.099931177604997e-01 -1.230465491103705e-03 -1.944816149160167e-18
 1.099931177604997e-01 -1.230465491103705e-03 -1.944816149160167e-18
 1.099963654000322e-01 -8.942028755063215e-04 -1.948328921000231e-18
 1.099952583022835e-01 -1.021347645949977e-03 -1.947002852546954e-18
 1.099900446632229e-01 -1.479890192619870e-03 -1.942198711529193e-18
 1.099952905561354e-01  1.017868101144845e-03 -1.967955627555278e-18
 1.099830738319359e-01 -1.929629622209233e-03 -1.937453748009793e-18
 1.099958452366031e-01  9.560495202782193e-04 -1.967330335294369e-18
 1.099882662052162e-01 -1.606641581204872e-03 -1.940864737274993e-18
 1.099995925255762e-01 -2.994064247067705e-04 -1.954497669008143e-18
 1.099730094961567e-01 -2.436633406607876e-03 -1.932065361444727e-18
 1.099981506529139e-01  6.378502479605012e-04 -1.964101980997264e-18
 1.099356286235710e-01 -3.762653204885615e-03 -1.917775752505365e-18
 1.099972164955523e-01  7.825364084629623e-04 -1.965571954291524e-18
 1.099916769938626e-01 -1.353141558657948e-03 -1.943530056969842e-18
 1.099975668163413e-01 -7.316382196849092e-04 -1.950020594420020e-18
 1.099993686633525e-01 -3.726844024398002e-04 -1.953740780511429e-18
 1.099994438374009e-01  3.497934568295213e-04 -1.961165315871712e-18
 1.099832093405635e-01 -1.921890514509454e-03 -1.937535676067680e-18
 1.099994438374010e-01  3.497934568067141e-04 -1.961165315871478e-18
 1.099983283907666e-01 -6.064249640719427e-04 -1.951320668260380e-18
 1.099976589056127e-01 -7.176595881391979e-04 -1.950165858619548e-18
 1.099997181464387e-01 -2.490134614719205e-04 -1.955017673972151e-18
 1.098864552036799e-01  4.996695184782195e-03 -2.006899775524953e-18
 1.099970415757616e-01  8.067493911536217e-04 -1.965817620986458e-18
 1.095068092630219e-01 -1.040474531317878e-02 -1.841899316939798e-18
 1.095068092630219e-01 -1.040474531317878e-02 -1.841899316939798e-18
 1.096489840541957e-01  8.780677415934761e-03 -2.041552735966458e-18
 1.099051292849320e-01  4.567554801242753e-03 -2.002822841529662e-18
 1.094618673703110e-01 -1.086736360873296e-02 -1.836346287419574e-18
 1.097532208474964e-01 -7.364136989534330e-03 -1.877525650975184e-18
 1.098861019535663e-01  5.004457757879329e-03 -2.006973246636462e-18
 1.098861019535663e-01  5.004457757879329e-03 -2.006973246636462e-18
 1.099793639093388e-01 -2.130613549470297e-03 -1.935322688670936e-18
 1.099996621029726e-01 -2.726485500051801e-04 -1.954773834663093e-18
 1.099996621029726e-01 -2.726485500051801e-04 -1.954773834663093e-18
 1.099990446127847e-01  4.584585854289596e-04 -1.962274705914875e-18
 1.099994262686872e-01  3.552753293118066e-04 -1.961221327463841e-18
 1.099994262686872e-01  3.552753293118066e-04 -1.961221327463841e-18
 1.099994262686872e-01  3.552753293118066e-04 -1.961221327463841e-18
 1.099789270826887e-01  2.153043831557486e-03 -1.979327938279305e-18
 1.099999939379246e-01 -3.651926224674002e-05 -1.957205882714583e-18
 1.099754317090270e-01 -2.324740934619726e-03 -1.933258122114414e-18
 1.099948999547758e-01  1.059237432698693e-03 -1.968373731191578e-18
 1.099998397618552e-01 -1.877561347934827e-04 -1.955649235042138e-18
 1.099999491625705e-01  1.057555287485396e-04 -1.958666907676855e-18
 1.099999491625705e-01  1.057555287485396e-04 -1.958666907676855e-18
 1.099999984740704e-01  1.832223976142738e-05 -1.957769439951491e-18
 1.099997388168149e-01  2.397086407746729e-04 -1.960039483887954e-18
 1.099950457543986e-01  1.043987302465711e-03 -1.968219636321576e-18
 1.099950457543986e-01  1.043987302465711e-03 -1.968219636321576e-18
 9.493879046505954e-02 -5.555741233203254e-02 -1.118716794123879e-18
 1.099983029252277e-01 -6.110266522934919e-04 -1.951272934395924e-18
 1.099983029252277e-01 -6.110266522934919e-04 -1.951272934395924e-18
 1.099997332353958e-01  2.422563553805441e-04 -1.960065561402007e-18
 1.099685948344128e-01 -2.628336003013176e-03 -1.930017122735009e-18
 1.099991487317915e-01  4.327566073341222e-04 -1.962012480348667e-18
 1.099514154856994e-01 -3.268980374838266e-03 -1.923129007539685e-18
 1.099918460141868e-01  1.339332069122923e-03 -1.971197253314801e-18
 1.098938571798638e-01 -4.831164883510260e-03 -1.906053810499721e-18
 1.099655284800304e-01  2.753642334724771e-03 -1.985260425602329e-18
 1.099116130398057e-01 -4.408777493590044e-03 -1.910709674197498e-18
 1.099897745303640e-01  1.499832910581341e-03 -1.972809476629833e-18
 1.071711216238616e-01 -2.478609872253834e-02 -1.652569787345676e-18
 1.098309845977843e-01  6.095475558249315e-03 -2.017202179107155e-18
 1.092191489490702e-01 -1.308348206101056e-02 -1.809257011543971e-18
 1.097695411914347e-01  7.116728646076942e-03 -2.026601724884162e-18
 1.041231448887418e-01 -3.547352108937088e-02 -1.488518023202075e-18
 1.094427806231442e-01  1.105792790147807e-02 -2.061281021421435e-18
 1.097682684057892e-01 -7.136333175699824e-03 -1.880134041656909e-18
 1.087927700166878e-01  1.625217499585969e-02 -2.103082309291972e-18
 1.094350223196121e-01 -1.113444609785071e-02 -1.833124372168210e-18
 1.094313411671234e-01  1.117056714605869e-02 -2.062234769975513e-18
 1.061923587209920e-01 -2.869116500374471e-02 -1.595028396538116e-18
 1.097033513326893e-01  8.073085307147987e-03 -2.035250014669111e-18
 1.067350158550160e-01 -2.660143587157381e-02 -1.626156835237076e-18
 1.096648481882165e-01  8.580272248325995e-03 -2.039775966859077e-18
 1.076946514652777e-01 -2.240227769161670e-02 -1.686379520481295e-18
 1.098688854140080e-01  5.369172923603169e-03 -2.010414173615599e-18
 1.067732559381465e-01 -2.644752949458653e-02 -1.628418695244560e-18
 1.097193240152449e-01  7.853020924311534e-03 -2.033273186017552e-18
 1.099081887743955e-01  4.493332875694968e-03 -2.002114685471860e-18
 1.094440535554384e-01  1.104532214805441e-02 -2.061174155232900e-18
 1.099379769452114e-01  3.693402928752820e-03 -1.994425811891019e-18
 1.099362969788475e-01  3.743074482107897e-03 -1.994906272052103e-18
 1.099156050527514e-01  4.308104674625296e-03 -2.000343514513785e-18
 1.099994531856442e-01  3.468412594164442e-04 -1.961135149478881e-18
 1.098881106677687e-01  4.960154621398634e-03 -2.006553795468500e-18
 1.099897127909151e-01 -1.504353738972309e-03 -1.941941451413744e-18
 1.094421730613581e-01  1.106393942534439e-02 -2.061331975358638e-18
 1.099987775540514e-01 -5.185909894069612e-04 -1.952231123838923e-18
 1.098690852495115e-01  5.365082146205184e-03 -2.010375698675056e-18
 1.096536326095806e-01 -8.722434036613623e-03 -1.861797350760106e-18
 1.098792213497309e-01  5.153320829989467e-03 -2.008380312071959e-18
 1.099927684946180e-01 -1.261300475431981e-03 -1.944493115294679e-18
 1.097403716663282e-01  7.553199754813172e-03 -2.030567200475001e-18
 1.099631217154287e-01 -2.848133177679334e-03 -1.927661385930455e-18
 1.098712460154352e-01  5.320648364219762e-03 -2.009957611113747e-18
 1.099637195923096e-01  2.824955472902796e-03 -1.985960950876370e-18
 1.099806739399561e-01  2.061882565282810e-03 -1.978422376793418e-18
 1.099980571143035e-01 -6.537821337316004e-04 -1.950829262857384e-18
 1.092667700620632e-01  1.267962776283979e-02 -2.074811080492247e-18
 1.099991332686101e-01  4.366693881157662e-04 -1.962052407564040e-18
 1.099527474275282e-01  3.223869280562678e-03 -1.989864382575726e-18
 1.099986101381434e-01  5.529626359035811e-04 -1.963237968708376e-18
 1.096754884060670e-01  8.443177298305996e-03 -2.038556721419061e-18
 1.099550633954754e-01 -3.143888308599656e-03 -1.924479201983762e-18
 1.093426837390089e-01 -1.200739408660534e-02 -1.822511873513547e-18
 1.090816136476253e-01  1.418455371276028e-02 -2.086978568673574e-18
 1.099810665817509e-01  2.040831580614822e-03 -1.978213073102274e-18
 9.333261460128253e-02 -5.821531629810511e-02 -1.062823981001252e-18
 1.061305797049881e-01  2.891885287287764e-02 -2.185850970863763e-18
 1.099472757368567e-01  3.405371939094619e-03 -1.991631881195041e-18
 1.099994962811370e-01 -3.328932202601488e-04 -1.954151891564028e-18
 1.099994962811370e-01 -3.328932202601488e-04 -1.954151891564028e-18
 4.035181689805544e-02 -1.023314754756608e-01  3.333100213194954e-19
 1.095518910460765e-01  9.918828974659746e-03 -2.051518943878187e-18
 1.099844077317034e-01  1.852041010988195e-03 -1.976332778330455e-18
 1.099977881407661e-01  6.975701678744075e-04 -1.964709130143747e-18
 1.098436373645310e-01 -5.863047887350314e-03 -1.894557865970680e-18
 1.099718636902296e-01  2.487809578227781e-03 -1.982641833221178e-18
 1.099999852505995e-01  5.696374153857251e-05 -1.958166232017459e-18
 1.098938991168287e-01  4.830210854634833e-03 -2.005321682825597e-18
 1.099748921171154e-01 -2.350128470701326e-03 -1.932987671722026e-18
 1.099870018006140e-01  1.690986372411434e-03 -1.974724164976213e-18
 1.099985329331220e-01 -5.681131584918357e-04 -1.951717948220332e-18
 1.099930263255047e-01  1.238612028357722e-03 -1.970183396532482e-18
 1.099036046598363e-01 -4.604094131789715e-03 -1.908560348018656e-18
 1.099931521427928e-01  1.227388158813808e-03 -1.970070314418952e-18
 1.099998097377261e-01 -2.045914564119702e-04 -1.955475723913108e-18
 1.099982508689128e-01  6.203271553732418e-04 -1.963923721049811e-18
 1.099858202896997e-01 -1.766163979322526e-03 -1.939182174600054e-18
 1.099996332529867e-01  2.840496583280866e-04 -1.960493193101244e-18
 1.099905965787714e-01 -1.438285175447215e-03 -1.942636009962264e-18
 1.099996476793347e-01  2.784069363202493e-04 -1.960435472916527e-18
 1.099995127568721e-01 -3.274038037412310e-04 -1.954208586529969e-18
 1.099968107776534e-01 -8.376268531185159e-04 -1.948918145103848e-18
 1.099992284248516e-01 -4.120023510707872e-04 -1.953334307160927e-18
 1.099984638308476e-01 -5.813388458202818e-04 -1.951580829330148e-18
 1.099186404058743e-01  4.229951692874479e-03 -1.999594538746564e-18
 1.099684786493774e-01 -2.633192651780154e-03 -1.929965154781915e-18
 1.099975931641724e-01  7.276661935023695e-04 -1.965014886032987e-18
 1.099562986337275e-01 -3.100385584165542e-03 -1.924948159212166e-18
 1.099570720626935e-01  3.072833122640777e-03 -1.988389502961579e-18
 1.099583493435517e-01 -3.026782060439236e-03 -1.925740903507894e-18
 1.098254771117596e-01  6.193914527527020e-03 -2.018115591473041e-18
 1.098504501065121e-01 -5.733987390695394e-03 -1.896005156559903e-18
 1.099742636670261e-01  2.379355142759023e-03 -1.981570213745026e-18
 1.096148603010676e-01 -9.196869096459252e-03 -1.856232703389626e-18
 1.099230929236608e-01  4.112619857971878e-03 -1.998468234631411e-18
 1.097823819734640e-01 -6.915823033625746e-03 -1.882650871033729e-18
 1.081207574559563e-01  2.024603188652646e-02 -2.132158472865610e-18
 1.097186281426361e-01 -7.862737341276691e-03 -1.871787095041637e-18
 1.094981338520669e-01  1.049565066657659e-02 -2.056488903828483e-18
 1.093556790141449e-01 -1.188845941891863e-02 -1.823965150440830e-18
 1.091903732399220e-01  1.332150110635013e-02 -2.080046523343132e-18
 1.095504718404211e-01 -9.934491408273355e-03 -1.847508032630317e-18
 1.089844979667120e-01  1.491238421392459e-02 -2.092728473287374e-18
 1.090694857148335e-01 -1.427750979343729e-02 -1.794325374571451e-18
 1.099583241927046e-01  3.027695614167868e-03 -1.987948014606329e-18
 1.082540699647699e-01 -1.952066433456292e-02 -1.725942570414190e-18
 1.098495425303952e-01  5.751348177849295e-03 -2.013996655832708e-18
 1.094483804858666e-01 -1.100236379242855e-02 -1.834719194377387e-18
 1.097068154794521e-01  8.025872996590962e-03 -2.034826573952849e-18
 1.095708089930452e-01 -9.707616422664383e-03 -1.850201014580224e-18
 1.090234297907183e-01  1.462503868946277e-02 -2.090468940655704e-18
 1.098025518774821e-01 -6.587837368424895e-03 -1.886379752097378e-18
 1.098338177982073e-01  6.044209449562070e-03 -2.016725858644995e-18
 1.098584966229106e-01 -5.577698428018107e-03 -1.897754166233637e-18
 1.091329080997784e-01  1.378435234914145e-02 -2.083779491006419e-18
 1.099750640523880e-01 -2.342068887357059e-03 -1.933073540806340e-18
 1.099874697326214e-01  1.660271609000981e-03 -1.974416909348206e-18
 1.098985186190291e-01 -4.723939599833240e-03 -1.907238467207933e-18
 1.099894625057312e-01  1.522543168621004e-03 -1.973037263430665e-18
 1.098971201740030e-01 -4.756361788247876e-03 -1.906880454002662e-18
 1.099811160448449e-01  2.038164254994362e-03 -1.978186547555245e-18
 1.099083210466596e-01 -4.490096291213061e-03 -1.909815568147853e-18
 1.086622283161863e-01  1.710322008748527e-02 -2.109503343171848e-18
 1.099714802649638e-01 -2.504701246184553e-03 -1.931338774626968e-18
 1.099992996595746e-01 -3.925231242579389e-04 -1.953535716847050e-18
 1.099928261176659e-01 -1.256265357674161e-03 -1.944545874771397e-18
 1.099999193099207e-01 -1.332359219490218e-04 -1.956210826076194e-18
 1.099999193099207e-01 -1.332359219490218e-04 -1.956210826076194e-18
 1.099937754839835e-01 -1.170194333854121e-03 -1.945447118380072e-18
 1.099982766034132e-01 -6.157469276869179e-04 -1.951223966852914e-18
 1.099838274803612e-01  1.886184712614700e-03 -1.976673266196453e-18
 1.099923250250477e-01 -1.299398162313613e-03 -1.944093783331779e-18
 1.082600993349492e-01 -1.948719815640193e-02 -1.726393723071924e-18
 1.099969117677456e-01 -8.242581869505495e-04 -1.949057300531425e-18
 1.099969117677456e-01 -8.242581869505495e-04 -1.949057300531425e-18
 1.094768299892896e-01  1.071558190189115e-02 -2.058369489726316e-18
 1.096972540273111e-01 -8.155517081555999e-03 -1.868398511690608e-18
 1.099301598500179e-01 -3.919177892041469e-03 -1.916070194857021e-18
 1.099911556242270e-01  1.394877932669223e-03 -1.971755680571651e-18
 1.098001777196830e-01  6.627289998633819e-03 -2.022118134145519e-18
 1.093863636449086e-01 -1.160273452871290e-02 -1.827446939498395e-18
 1.099690189648150e-01  2.610530198278016e-03 -1.983852117729234e-18
 1.098315100567068e-01 -6.086000218819100e-03 -1.892051291848345e-18
 1.098360907769667e-01  6.002762933339922e-03 -2.016340461115481e-18
 1.099538493282474e-01 -3.186066211024495e-03 -1.924024233583859e-18
 1.098971157227442e-01  4.756464634760739e-03 -2.004621210545458e-18
 1.099571678157024e-01 -3.069404820062709e-03 -1.925281943438938e-18
 1.099571678157024e-01 -3.069404820062709e-03 -1.925281943438938e-18
 1.097551821240663e-01 -7.334848117923802e-03 -1.877861486747226e-18
 1.099861896847318e-01  1.743008500889904e-03 -1.975244220877321e-18
 1.099861896847318e-01  1.743008500889904e-03 -1.975244220877321e-18
 1.099639884170094e-01 -2.814471784152475e-03 -1.928022668509189e-18
 1.099639884170094e-01 -2.814471784152475e-03 -1.928022668509189e-18
 1.096797188597049e-01  8.388043327024338e-03 -2.038065525861495e-18
 1.092015276873057e-01 -1.322975248289099e-02 -1.807440544722516e-18
 1.064083995951982e-01 -2.787924847603681e-02 -1.607215248973609e-18
 1.073900341209979e-01  2.381975170926158e-02 -2.155873052429937e-18
 1.099723022422514e-01  2.468347532028378e-03 -1.982449672322837e-18
 1.099997851678360e-01 -2.174006207075843e-04 -1.955343677152674e-18
 1.099997851678360e-01 -2.174006207075843e-04 -1.955343677152674e-18
-1.092267846378165e-01 -1.301958208561288e-02  2.077592399342235e-18
-1.099983532474004e-01  6.018993770406553e-04  1.951367609376560e-18
-1.099306643940915e-01  3.905000111855976e-03  1.916224845361674e-18
-1.099716284394049e-01  2.498187019706197e-03  1.931408342878530e-18
-1.099716284394049e-01  2.498187019706197e-03  1.931408342878530e-18
-1.099866492805208e-01  1.713761956540761e-03  1.939735339228497e-18
-1.099866492805208e-01  1.713761956540761e-03  1.939735339228497e-18
-1.099866492805208e-01  1.713761956540761e-03  1.939735339228497e-18
-1.099723835728157e-01  2.464721346008222e-03  1.931765629018453e-18
-1.099723835728157e-01  2.464721346008222e-03  1.931765629018453e-18
-1.099782294241247e-01  2.188390443806885e-03  1.934708862552677e-18
-1.099782294241247e-01  2.188390443806885e-03  1.934708862552677e-18
-1.088761427076366e-01 -1.568392645692739e-02  2.098727478468888e-18
-1.099939497899446e-01  1.153693896624010e-03  1.945619756360971e-18
-1.099871856523075e-01  1.678985492734205e-03  1.940102200136565e-18
-1.099871856523075e-01  1.678985492734205e-03  1.940102200136565e-18
-1.099937703745058e-01  1.170674506622591e-03  1.945442093850058e-18
-1.099931646956441e-01  1.226262711197690e-03  1.944860166463832e-18
-1.099931646956441e-01  1.226262711197690e-03  1.944860166463832e-18
-1.099994505992491e-01  3.476605576211724e-04  1.953999349573508e-18
-1.099668622933466e-01  2.699851358151219e-03  1.929251495805529e-18
-1.099549091808483e-01 -3.149277223646375e-03  1.989136447267037e-18
-1.097703103162480e-01  7.104855598432950e-03  1.880493800560716e-18
-1.099188284786228e-01 -4.225061642991169e-03  1.999547642239328e-18
-1.098934164997147e-01  4.841178577598701e-03  1.905943081001737e-18
-1.098885132409654e-01 -4.951227897211879e-03  2.006469240890548e-18
-1.098508970354531e-01  5.725418806188385e-03  1.896101149286611e-18
-1.098552395399617e-01 -5.641484345240377e-03  2.012969229943918e-18
-1.098604311740870e-01  5.539464075491520e-03  1.898181437962201e-18
-1.099378310451211e-01 -3.697743243436723e-03  1.994467810581539e-18
-1.099518667573054e-01  3.253766522620099e-03  1.923293355260995e-18
-1.099977654894820e-01 -7.011328838976515e-04  1.964745332650033e-18
-1.099503777977510e-01  3.303698250715402e-03  1.922753827082222e-18
-1.099106396510123e-01 -4.432977724427455e-03  2.001538174490798e-18
-1.099964443707930e-01  8.844352904466362e-04  1.948430684767324e-18
-1.099997733902210e-01 -2.232803170748795e-04  1.959871304104880e-18
-1.099841496261587e-01  1.867305816065256e-03  1.938113247518911e-18
-1.099471682661307e-01 -3.408840016649201e-03  1.991665601862296e-18
-1.099932529359547e-01 -1.218322029290450e-03  1.969978956966112e-18
-1.099878661195551e-01  1.633801232340998e-03  1.940578561724315e-18
-1.099774243764554e-01  2.228480989598020e-03  1.934282619974850e-18
-1.099670542969196e-01 -2.692019550133136e-03  1.984654427608052e-18
-1.099877985643570e-01  1.638342749974948e-03  1.940530697055097e-18
-1.099999881392238e-01 -5.108199854596579e-05  1.958105850651394e-18
-1.099984958324472e-01  5.752517701573287e-04  1.951643941327960e-18
-1.097201703654286e-01 -7.841187090058219e-03  2.033166659480575e-18
-1.099955753589814e-01  9.866110918770035e-04  1.947365400423393e-18
-1.099977230090785e-01  7.077660757647361e-04  1.950268651662803e-18
-1.097126131364557e-01  7.946226700161889e-03  1.870822227998452e-18
-1.093723584176662e-01 -1.173401952263263e-02  2.066974370074892e-18
-1.099897165327676e-01 -1.504080131306609e-03  1.972852083143482e-18
-1.099237976863546e-01  4.093739391967186e-03  1.914163416567040e-18
-1.099900789552353e-01  1.477339304657488e-03  1.942225531243608e-18
-1.099971307852999e-01 -7.944929210420744e-04  1.965693277798634e-18
-1.099985038281098e-01 -5.737208182483895e-04  1.963449359577254e-18
-1.099865328783444e-01  1.721216256270037e-03  1.939656677491133e-18
-1.099940553431546e-01  1.143586099522002e-03  1.945725488749598e-18
-1.099940553431546e-01  1.143586099522002e-03  1.945725488749598e-18
-9.497872245842151e-02 -5.548911857442057e-02  2.260390196608928e-18
-1.099999198125890e-01 -1.328202693915589e-04  1.958944465737183e-18
-1.099093929563598e-01 -4.463780904620097e-03  2.001832479558907e-18
-1.096165756455013e-01  9.176401459944358e-03  1.856473527519843e-18
-1.096165756455013e-01  9.176401459944358e-03  1.856473527519843e-18
-1.096165756455013e-01  9.176401459944358e-03  1.856473527519843e-18
-1.096165756455013e-01  9.176401459944358e-03  1.856473527519843e-18
-1.038990023590587e-01 -3.612474648758496e-02  2.220175329266901e-18
-1.099967752557933e-01  8.422786513079315e-04  1.948869717413445e-18
-1.093587482778723e-01  1.186019287772877e-02  1.824310200092308e-18
-1.097042880246289e-01 -8.060346705274007e-03  2.035135799712817e-18
-1.089238464559551e-01 -1.534912613927834e-02  2.096136471932856e-18
-1.098074916749799e-01  6.504980557171646e-03  1.887318985322370e-18
-1.097001882334368e-01  8.115953520597165e-03  1.868857230605204e-18
-1.099147632718718e-01 -4.329528252402323e-03  2.000548653498004e-18
-1.084755202518665e-01 -1.824997276948232e-02  2.117963117678858e-18
-1.094576785577976e-01  1.090947316499799e-02  1.835839082110879e-18
-1.099303745129486e-01 -3.913152110872442e-03  1.996548360558070e-18
-1.097560460699367e-01  7.321908978803578e-03  1.878009806648584e-18
-1.099730671963072e-01 -2.434027821631741e-03  1.982110663035773e-18
-1.099482968773763e-01  3.372241652714659e-03  1.922012536066259e-18
-1.098722977290689e-01 -5.298885895620644e-03  2.009752726153214e-18
-1.099695030975919e-01  2.590055688333878e-03  1.930426602688884e-18
-1.099885287659128e-01 -1.588565362190227e-03  1.973699000471736e-18
-1.096664626653935e-01  8.559612518088946e-03  1.863698608861974e-18
-1.098082496916932e-01 -6.492172182461004e-03  2.020873498039306e-18
-1.086014041616082e-01 -1.748527992704143e-02  2.112346430847463e-18
-1.081093842170411e-01  2.030667486843069e-02  1.715291742245637e-18
-1.099361328500398e-01  3.747891937925768e-03  1.917936392472505e-18
-1.099364779201662e-01 -3.737756346896972e-03  1.994854850211338e-18
-1.099971969980060e-01  7.852722978758897e-04  1.949462942391927e-18
-1.099970758117736e-01 -8.020678642623411e-04  1.965770129268988e-18
-1.099999272356780e-01 -1.265233003150605e-04  1.958879898770155e-18
-1.099999272356780e-01 -1.265233003150605e-04  1.958879898770155e-18
-1.099999272356780e-01 -1.265233003150605e-04  1.958879898770155e-18
-1.099998331787061e-01  1.915741548195559e-04  1.955609889118357e-18
-1.099996461291953e-01 -2.790187301438102e-04  1.960441731289236e-18
-1.099996461291953e-01 -2.790187301438102e-04  1.960441731289236e-18
-1.099982598742626e-01 -6.187282393235325e-04  1.963907453029184e-18
-1.099999993174707e-01  1.225383242049304e-05  1.957455296926550e-18
-1.099993696148210e-01  3.724034666365838e-04  1.953743683957268e-18
-1.099997724568277e-01 -2.237396837727700e-04  1.959876007319979e-18
-1.099990792897751e-01 -4.500615532794949e-04  1.962189046578349e-18
-1.099813776124669e-01 -2.024000608680932e-03  1.978045676142466e-18
-1.099867952560458e-01  1.704367714032551e-03  1.939834459466201e-18
-1.099429079619361e-01  3.543584184579313e-03  1.920156151616810e-18
-1.099608027805332e-01 -2.936299007364663e-03  1.987053057100180e-18
-1.099608027805332e-01 -2.936299007364663e-03  1.987053057100180e-18
-1.099935778076127e-01 -1.188629917436004e-03  1.969679662781777e-18
-1.099999443389200e-01  1.106590912319478e-04  1.956443240231191e-18
-1.099987640350524e-01 -5.214506312375305e-04  1.962916933086916e-18
-1.099989829209438e-01 -4.730289186598372e-04  1.962423312915937e-18
-1.099989829209438e-01 -4.730289186598372e-04  1.962423312915937e-18
-1.099992574260769e-01 -4.041852442012829e-04  1.961720854316103e-18
-1.099984445074105e-01 -5.849837177946886e-04  1.963564026096000e-18
-1.099996771177441e-01 -2.665220291534013e-04  1.960313883704442e-18
-1.099974257277575e-01 -7.525511719649636e-04  1.965267590415960e-18
-1.099994156697023e-01 -3.585419417705105e-04  1.961254702098609e-18
-1.099994156697023e-01 -3.585419417705105e-04  1.961254702098609e-18
-1.099992255138053e-01 -4.127788305780672e-04  1.961808582377379e-18
-1.099998796546631e-01 -1.627143497100125e-04  1.959250901894597e-18
-1.099963561283743e-01  8.953426605514933e-04  1.948317045122732e-18
-1.099957594359158e-01 -9.658706518524906e-04  1.967429716927980e-18
-1.099977801140376e-01 -6.988347328247934e-04  1.964721980244024e-18
-1.099966361849318e-01  8.602488010548977e-04  1.948682605720965e-18
-1.099826092173888e-01  1.955931935196713e-03  1.937175232928647e-18
-1.099966661961508e-01 -8.564027863894945e-04  1.966321111256903e-18
-1.099997269383472e-01 -2.450989372050639e-04  1.960094655834133e-18
-1.099999989289185e-01  1.535050111984610e-05  1.957423472865846e-18
-1.099999989289185e-01  1.535050111984610e-05  1.957423472865846e-18
-1.099999988657465e-01 -1.579670020146818e-05  1.957743497920311e-18
-1.099996604764946e-01 -2.733039624289076e-04  1.960383269454281e-18
-1.099621240218333e-01 -2.886395781408044e-03  1.986563832646860e-18
-1.094155459068420e-01  1.132423568757383e-02  1.830827747081390e-18
-1.099986520846801e-01 -5.445544540835346e-04  1.963152324183285e-18
-1.099991666615034e-01  4.281749347578946e-04  1.953167040586126e-18
-1.099991666615034e-01  4.281749347578946e-04  1.953167040586126e-18
-1.099909681876804e-01 -1.409580482501407e-03  1.971903408273232e-18
-1.099992473876507e-01  4.069080367839816e-04  1.953386986855234e-18
-1.099999621154437e-01  9.129403554966549e-05  1.956642525497998e-18
-1.098289041376605e-01 -6.132847293105802e-03  2.017549135837153e-18
-1.099863368356961e-01  1.733698204640731e-03  1.939524941193185e-18
-1.086890499029056e-01  1.693193524685432e-02  1.760281808241028e-18
-1.099889022816723e-01 -1.562489959230714e-03  1.973437732337265e-18
-1.099874416730126e-01 -1.662129425047110e-03  1.974435498378979e-18
-1.099944898753349e-01  1.100998212892766e-03  1.946170796832231e-18
-1.099973464517387e-01  7.640507680342680e-04  1.949683645609320e-18
-1.099994020335264e-01  3.627013462860690e-04  1.953843946648899e-18
-1.099994020335264e-01  3.627013462860690e-04  1.953843946648899e-18
-1.099995918063623e-01  2.996705418287084e-04  1.954494942501391e-18
-1.099997581657293e-01  2.306587979065086e-04  1.955206973663572e-18
-1.099876855746582e-01  1.645910668929429e-03  1.940450928650579e-18
-1.099460571544680e-01  3.444490700587201e-03  1.921230344804593e-18
-1.099899420345136e-01 -1.487498317412228e-03  1.972685724101974e-18
-1.099932379487049e-01 -1.219674366188565e-03  1.969992585020488e-18
-1.099901659454186e-01 -1.470848496359033e-03  1.972518638000702e-18
-1.090951122950735e-01  1.408035771297279e-02  1.796807096142365e-18
-1.099982052518284e-01 -6.283640478271557e-04  1.964005485389770e-18
-7.991707892805068e-02 -7.558611311350573e-02  2.198839602032183e-18
-1.087151381924823e-01  1.676361320805944e-02  1.762475528275314e-18
-1.099289587594151e-01  3.952723879908879e-03  1.915704147177990e-18
-1.099690710058206e-01 -2.608337040480331e-03  1.983830509961347e-18
-1.099971127215750e-01 -7.969899102846944e-04  1.965718611990484e-18
-1.099999071192552e-01  1.429466865250749e-04  1.956110834550385e-18
-1.099817537394145e-01  2.003458111055140e-03  1.936671694485601e-18
-1.099859235143930e-01 -1.759724036900331e-03  1.975411230118876e-18
-1.099989604832422e-01  4.782181574206367e-04  1.952649195464442e-18
-1.099594749004179e-01 -2.985612102119884e-03  1.987536100024147e-18
-1.099984985873930e-01  5.747247334716035e-04  1.951649405465995e-18
-1.099879274527185e-01 -1.629667038229436e-03  1.974110604176412e-18
-1.099934610945285e-01 -1.199381693378015e-03  1.969788056325215e-18
-1.099934610945285e-01 -1.199381693378015e-03  1.969788056325215e-18
-1.096468068814665e-01  8.807822699075717e-03  1.860798541298757e-18
-1.016740687466042e-01 -4.198075445380602e-02  2.240748336168865e-18
-1.099784874718271e-01 -2.175383508519587e-03  1.979549646945055e-18
-1.094636860924531e-01  1.084902885298312e-02  1.836567036704380e-18
-1.099784874718267e-01 -2.175383508538298e-03  1.979549646945239e-18
-1.099980889633670e-01 -6.484014244029508e-04  1.964209292663196e-18
-1.094385874247391e-01 -1.109935054305938e-02  2.061632001048572e-18
-1.099995593356169e-01 -3.113614781322693e-04  1.960772496680361e-18
-1.099995593356169e-01 -3.113614781322693e-04  1.960772496680361e-18
-1.099978528311785e-01 -6.872936274814827e-04  1.964604693667436e-18
-1.099875643145890e-01 -1.653993997604841e-03  1.974354092370523e-18
-1.099977681576253e-01 -7.007141651744195e-04  1.964741077950053e-18
-1.099885535929924e-01 -1.586845462356500e-03  1.973681770953234e-18
-1.099991459500322e-01  4.334631050997583e-04  1.953112337971567e-18
-1.099932956884925e-01 -1.214456085583575e-03  1.969939996631318e-18
-1.099953910415880e-01 -1.006950648300878e-03  1.967845242951798e-18
-1.099875257201096e-01 -1.656558471102728e-03  1.974379754569316e-18
-1.099987291223134e-01 -5.287641023075894e-04  1.962991455031549e-18
-1.099883827708213e-01 -1.598641754510780e-03  1.973799933585563e-18
-1.099955088456321e-01 -9.939988885465411e-04  1.967714264788815e-18
-1.099888976961919e-01 -1.562812713215804e-03  1.973440966913121e-18
-1.099948622319140e-01 -1.063147488467765e-03  1.968413234270870e-18
-1.099943234412203e-01 -1.117501994707273e-03  1.968962118653954e-18
-1.099943234412203e-01 -1.117501994707273e-03  1.968962118653954e-18
-1.099935592613960e-01 -1.190344912089014e-03  1.969696953676780e-18
-1.099972473978256e-01 -7.781805070248772e-04  1.965527748929436e-18
-1.099970832301212e-01 -8.010498522299261e-04  1.965759801583512e-18
-1.099996299077708e-01 -2.853421690272581e-04  1.960506413647039e-18
-1.099996299077708e-01 -2.853421690272581e-04  1.960506413647039e-18
-1.099996299077708e-01 -2.853421690272581e-04  1.960506413647039e-18
-2.160919732376055e-02 -1.078565834384844e-01  1.492748656373937e-18
-1.099988037660124e-01  5.130010197482381e-04  1.952289025219603e-18
-1.099988037660124e-01  5.130010197482381e-04  1.952289025219603e-18
-1.099904301537132e-01  1.450956443556601e-03  1.942502855553119e-18
-1.099996416387864e-01 -2.807834370476571e-04  1.960459783099423e-18
-1.099996416387864e-01 -2.807834370476571e-04  1.960459783099423e-18
-1.099875872720655e-01 -1.652466662214073e-03  1.974338808109899e-18
-1.099914620872999e-01  1.370499141929934e-03  1.943347889588604e-18
-1.098405690020441e-01  5.920253483353288e-03  1.893915494082377e-18
-1.098652352290788e-01 -5.443352648794253e-03  2.011111383949650e-18
-1.099588262351885e-01 -3.009407413358044e-03  1.987769044431450e-18
-1.099702182262993e-01  2.559512309032277e-03  1.930753151384051e-18
-1.099702182262993e-01  2.559512309032277e-03  1.930753151384051e-18
-1.099976110451311e-01  7.249581808776194e-04  1.950090016496170e-18
-1.099973216879173e-01  7.676076372745036e-04  1.949646659368245e-18
-1.099973216879173e-01  7.676076372745036e-04  1.949646659368245e-18
-1.099866389968353e-01  1.714421820849360e-03  1.939728376351985e-18
-1.099927064987198e-01  1.266695340817974e-03  1.944436581721677e-18
-1.099927064987198e-01  1.266695340817974e-03  1.944436581721677e-18
-1.098844426039835e-01 -5.040761213529935e-03  2.007316721350093e-18
-1.099917597396925e-01  1.346398665227793e-03  1.943600810311083e-18
-1.099917597396925e-01  1.346398665227793e-03  1.943600810311083e-18
-1.099829429445505e-01  1.937075438827448e-03  1.937374915651744e-18
-1.099977383144833e-01  7.053833698196236e-04  1.950293405478756e-18
-1.099717182568792e-01  2.494230067485391e-03  1.931450597534244e-18
-1.099994775853086e-01  3.390146887148665e-04  1.954088662984842e-18
-1.099819209693625e-01  1.994256725918059e-03  1.936769211431689e-18
-1.099992400769346e-01  4.088795627986860e-04  1.953366600038720e-18
-1.093016994368434e-01  1.237491414992057e-02  1.818006373827646e-18
-1.099943095790578e-01 -1.118865597983335e-03  1.968975882488542e-18
-1.099416620208499e-01  3.582031838660144e-03  1.919738942930222e-18
-1.099384855739475e-01 -3.678231872365809e-03  1.994278986452927e-18
-1.097135293536872e-01  7.933566458887016e-03  1.870968612556985e-18
-1.097984214553259e-01 -6.656323754039653e-03  2.022385190615998e-18
-1.089544784029356e-01  1.513015650759108e-02  1.783518047024810e-18
-1.097936052858221e-01 -6.735297940036579e-03  2.023110912206794e-18
-1.095877523355173e-01  9.514438399048508e-03  1.852487375586860e-18
-1.085891514965113e-01 -1.756121229493254e-02  2.112908557552576e-18
-1.097626029003394e-01  7.222949850468367e-03  1.879143262361487e-18
-1.091400319204161e-01 -1.372783422140958e-02  2.083325564661246e-18
-1.098783713155357e-01  5.171413447523745e-03  1.902282290679143e-18
-1.096987480285730e-01 -8.135396792020782e-03  2.035808321252425e-18
-1.098104543857401e-01  6.454774015970812e-03  1.887887564266633e-18
-1.098377219667491e-01 -5.972841296659361e-03  2.016062056136195e-18
-1.098955313995020e-01  4.792930045497734e-03  1.906476454306219e-18
-1.099668879964004e-01 -2.698804251348311e-03  1.984721178432239e-18
-1.098238357520970e-01  6.222949517421733e-03  1.890507614150197e-18
-1.099676099839654e-01 -2.669223560221933e-03  1.984430096206673e-18
-1.099630591838548e-01  2.850546426215747e-03  1.927635477854461e-18
-1.099509818969347e-01  3.283531620056711e-03  1.922971782551848e-18
-1.092893389960833e-01  1.248360451949486e-02  1.816669650976984e-18
-1.013528474057693e-01 -4.275044236897217e-02  2.242940082964715e-18
-1.099994312419771e-01  3.537321607048952e-04  1.953936621571718e-18
-1.099623997921151e-01  2.875870643653512e-03  1.927363546057293e-18
-1.099964824511131e-01  8.796865247989588e-04  1.948480154293983e-18
-1.099964824511131e-01  8.796865247989588e-04  1.948480154293983e-18
-1.099964824511131e-01  8.796865247989588e-04  1.948480154293983e-18
-1.098814032414187e-01 -5.106586109790276e-03  2.007938959164540e-18
-1.099987987980813e-01 -5.140651507391885e-04  1.962841668607293e-18
-1.099987987980813e-01 -5.140651507391885e-04  1.962841668607293e-18
-1.099689087421974e-01  2.615169220189802e-03  1.930157993008873e-18
-1.099977997120296e-01 -6.957431366358776e-04  1.964690563985918e-18
-1.099977997120296e-01 -6.957431366358776e-04  1.964690563985918e-18
-1.099999073372231e-01  1.427788579571464e-04  1.956112562806952e-18
-9.283101473915993e-03  1.096075911012779e-01 -9.609743172455246e-19
-1.099999180789481e-01 -1.342483693094993e-04  1.958959108092845e-18
-1.099985840806729e-01 -5.581220718613271e-04  1.963290516314796e-18
-1.099999520246792e-01  1.027354283809992e-04  1.956524789765797e-18
-1.099988125778139e-01  5.111080814637279e-04  1.952308631289346e-18
-1.099997947048312e-01 -2.125203400820891e-04  1.959761128568986e-18
-1.099997947048312e-01 -2.125203400820891e-04  1.959761128568986e-18
-1.099999315183357e-01 -1.227434780880090e-04  1.958841138684876e-18
-1.099999315183357e-01 -1.227434780880090e-04  1.958841138684876e-18
-1.099999315183357e-01 -1.227434780880090e-04  1.958841138684876e-18
-1.099823831084043e-01 -1.968605038129379e-03  1.977494400778283e-18
-1.099994026766047e-01  3.625062622109420e-04  1.953845962511248e-18
-1.099994026766047e-01  3.625062622109420e-04  1.953845962511248e-18
-1.099994026766047e-01  3.625062622109420e-04  1.953845962511248e-18
-1.099734843218972e-01 -2.415107886078348e-03  1.981923690818475e-18
-1.099999258959798e-01  1.276827275680440e-04  1.956268000337919e-18
-1.099999258959798e-01  1.276827275680440e-04  1.956268000337919e-18
-1.099999258959798e-01  1.276827275680440e-04  1.956268000337919e-18
-1.099201965031024e-01 -4.189319839703419e-03  1.999204753821975e-18
-1.099979193598777e-01  6.765622645518793e-04  1.950592753784249e-18
-1.099894346121484e-01  1.524556886415319e-03  1.941728920890013e-18
-1.099986631915638e-01 -5.423062500854393e-04  1.963129422364155e-18
-1.086466415137432e-01 -1.720195592902535e-02  2.110240432333675e-18
-1.099999125435240e-01 -1.387098303335482e-04  1.959004849474671e-18
-1.097282025238068e-01  7.727973272106793e-03  1.873342134430088e-18
-1.097282025238068e-01  7.727973272106793e-03  1.873342134430088e-18
-1.096873002656512e-01 -8.288314691953510e-03  2.037175770526948e-18
-1.093205514127919e-01 -1.220725353235070e-02  2.070914710162974e-18
-1.098345104110648e-01  6.031610295904405e-03  1.892663523432739e-18
-1.097636086220510e-01 -7.207650259632189e-03  2.027430334285410e-18
-1.099892075524775e-01 -1.540851056395352e-03  1.973220833129545e-18
-3.349804089836525e-02  1.047753847808320e-01 -4.803914210221107e-19
-1.047184509390290e-01 -3.367559996392240e-02  2.209594303395474e-18
-1.092753380621434e-01 -1.260557382288638e-02  2.074202680942616e-18
-1.098927375190197e-01 -4.856566747798510e-03  2.005571808034893e-18
-1.089341312637823e-01  1.527596300745086e-02  1.781657836593910e-18
-1.068037198032426e-01  2.632423666871264e-02  1.630227625059651e-18
-1.089501808847698e-01  1.516107137295716e-02  1.783123928551637e-18
-8.826629022834639e-02 -6.564344605004592e-02  2.245266484230627e-18
-1.073713806884647e-01  2.390369446451220e-02  1.665200019476899e-18
-1.099361221635732e-01 -3.748205388698125e-03  1.994955879207073e-18
-1.081763895543413e-01 -1.994664741221824e-02  2.130072445701054e-18
-1.099028407053334e-01  4.622294332696815e-03  1.908359752084293e-18
-1.099028407053334e-01  4.622294332696815e-03  1.908359752084293e-18
-1.099996568211344e-01 -2.747712368914850e-04  1.960398280114871e-18
-1.098949941248058e-01 -4.805233221067578e-03  2.005084533687480e-18
-1.099701446175800e-01 -2.562672977284528e-03  1.983380434502368e-18
-1.099700419347864e-01 -2.567075546470636e-03  1.983423841938630e-18
-1.099959762047763e-01 -9.408606476288391e-04  1.967176605880448e-18
-1.098100962868932e-01 -6.460863213472441e-03  2.020584672120886e-18
-1.099764831762478e-01 -2.274455579792757e-03  1.980531907656688e-18
-1.099764831762478e-01 -2.274455579792757e-03  1.980531907656688e-18
-1.099764831762478e-01 -2.274455579792757e-03  1.980531907656688e-18
-1.099764831762478e-01 -2.274455579792757e-03  1.980531907656688e-18
-1.099981924265992e-01 -6.306051703054235e-04  1.964028283868847e-18
-1.099923211874244e-01 -1.299722971422746e-03  1.970798740499356e-18
-1.096070975732855e-01 -9.288926825001483e-03  2.046029394120325e-18
-1.099669791738540e-01  2.695086524981852e-03  1.929302532763465e-18
-1.093690035727739e-01 -1.176524787237941e-02  2.067235526557511e-18
-1.095667743236471e-01  9.753048975112009e-03  1.849662409853509e-18
-1.078950474363660e-01 -2.141631944812889e-02  2.140165973393761e-18
-1.095768313910731e-01  9.639399477784281e-03  1.851009094664283e-18
-2.372520914201000e-02  1.074109605727826e-01 -6.813902034150238e-19
-1.099938739508221e-01 -1.160901929809517e-03  1.969400038003365e-18
-1.099312670574676e-01 -3.887997317348739e-03  1.996305788087012e-18
-1.094787162388447e-01 -1.069629331565307e-02  2.058204874570544e-18
-1.091414645075649e-01 -1.371643995882016e-02  2.083233987349513e-18
-1.094717468271050e-01  1.076738810585895e-02  1.837549316111652e-18
-1.098934732106395e-01 -4.839891083734634e-03  2.005413564154370e-18
-1.094873214488331e-01  1.060784813050516e-02  1.839465700373827e-18
-1.099940081294957e-01  1.148118290240353e-03  1.945678081913006e-18
-1.099999999866105e-01  1.716294548591783e-06  1.957563578208337e-18
-1.098039581440597e-01 -6.564356472461041e-03  2.021538792187284e-18
-1.099540677250403e-01  3.178520208715140e-03  1.924105652647785e-18
-1.099989034879257e-01 -4.911531878951162e-04  1.962608119592992e-18
-1.099989034879257e-01 -4.911531878951162e-04  1.962608119592992e-18
-1.099989034879257e-01 -4.911531878951162e-04  1.962608119592992e-18
-1.095243970645755e-01  1.021794733012347e-02  1.844131594265456e-18
-1.099775880677655e-01 -2.220387983403520e-03  1.979996045607524e-18
-1.099938069848205e-01 -1.167229620085658e-03  1.969463860982407e-18
-1.095949814104039e-01  9.430803234783423e-03  1.853475346528177e-18
-1.099992398671668e-01 -4.089359919015692e-04  1.961769354041161e-18
-1.099992398671668e-01 -4.089359919015692e-04  1.961769354041161e-18
-1.099964970585977e-01  8.778580966609758e-04  1.948499200686496e-18
-1.099872509388018e-01  1.674703234908833e-03  1.940147360631141e-18
-1.098541412287725e-01  5.662830995965756e-03  1.896801950590217e-18

TENSORS stress double
0.000000000000000e+00 0.000000000000000e+00 0.000000000000000e+00
0.000000000000000e+00 0.000000000000000e+00 0.000000000000000e+00
0.000000000000000e+00 0.000000000000000e+00 0.000000000000000e+00

0.000000000000000e+00 0.000000000000000e+00 0.000000000000000e+00
0.000000000000000e+00 0.000000000000000e+00 0.000000000000000e+00
0.000000000000000e+00 0.000000000000000e+00 0.000000000000000e+00

0.000000000000000e+00 0.000000000000000e+00 0.000000000000000e+00
0.000000000000000e+00 0.000000000000000e+00 0.000000000000000e+00
0.000000000000000e+00 0.000000000000000e+00 0.000000000000000e+00

0.000000000000000e+00 0.000000000000000e+00 0.000000000000000e+00
0.000000000000000e+00 0.000000000000000e+00 0.000000000000000e+00
0.000000000000000e+00 0.000000000000000e+00 0.000000000000000e+00

0.000000000000000e+00 0.000000000000000e+00 0.000000000000000e+00
0.000000000000000e+00 0.000000000000000e+00 0.000000000000000e+00
0.000000000000000e+00 0.000000000000000e+00 0.000000000000000e+00

0.000000000000000e+00 0.000000000000000e+00 0.000000000000000e+00
0.000000000000000e+00 0.000000000000000e+00 0.000000000000000e+00
0.000000000000000e+00 0.000000000000000e+00 0.000000000000000e+00

0.000000000000000e+00 0.000000000000000e+00 0.000000000000000e+00
0.000000000000000e+00 0.000000000000000e+00 0.000000000000000e+00
0.000000000000000e+00 0.000000000000000e+00 0.000000000000000e+00

0.000000000000000e+00 0.000000000000000e+00 0.000000000000000e+00
0.000000000000000e+00 0.000000000000000e+00 0.000000000000000e+00
0.000000000000000e+00 0.000000000000000e+00 0.000000000000000e+00

0.000000000000000e+00 0.000000000000000e+00 0.000000000000000e+00
0.000000000000000e+00 0.000000000000000e+00 0.000000000000000e+00
0.000000000000000e+00 0.000000000000000e+00 0.000000000000000e+00

0.000000000000000e+00 0.000000000000000e+00 0.000000000000000e+00
0.000000000000000e+00 0.000000000000000e+00 0.000000000000000e+00
0.000000000000000e+00 0.000000000000000e+00 0.000000000000000e+00

0.000000000000000e+00 0.000000000000000e+00 0.000000000000000e+00
0.000000000000000e+00 0.000000000000000e+00 0.000000000000000e+00
0.000000000000000e+00 0.000000000000000e+00 0.000000000000000e+00

0.000000000000000e+00 0.000000000000000e+00 0.000000000000000e+00
0.000000000000000e+00 0.000000000000000e+00 0.000000000000000e+00
0.000000000000000e+00 0.000000000000000e+00 0.000000000000000e+00

0.000000000000000e+00 0.000000000000000e+00 0.000000000000000e+00
0.000000000000000e+00 0.000000000000000e+00 0.000000000000000e+00
0.000000000000000e+00 0.000000000000000e+00 0.000000000000000e+00

0.000000000000000e+00 0.000000000000000e+00 0.000000000000000e+00
0.000000000000000e+00 0.000000000000000e+00 0.000000000000000e+00
0.000000000000000e+00 0.000000000000000e+00 0.000000000000000e+00

0.000000000000000e+00 0.000000000000000e+00 0.000000000000000e+00
0.000000000000000e+00 0.000000000000000e+00 0.000000000000000e+00
0.000000000000000e+00 0.000000000000000e+00 0.000000000000000e+00

0.000000000000000e+00 0.000000000000000e+00 0.000000000000000e+00
0.000000000000000e+00 0.000000000000000e+00 0.000000000000000e+00
0.000000000000000e+00 0.000000000000000e+00 0.000000000000000e+00

0.000000000000000e+00 0.000000000000000e+00 0.000000000000000e+00
0.000000000000000e+00 0.000000000000000e+00 0.000000000000000e+00
0.000000000000000e+00 0.000000000000000e+00 0.000000000000000e+00

0.000000000000000e+00 0.000000000000000e+00 0.000000000000000e+00
0.000000000000000e+00 0.000000000000000e+00 0.000000000000000e+00
0.000000000000000e+00 0.000000000000000e+00 0.000000000000000e+00

0.000000000000000e+00 0.000000000000000e+00 0.000000000000000e+00
0.000000000000000e+00 0.000000000000000e+00 0.000000000000000e+00
0.000000000000000e+00 0.000000000000000e+00 0.000000000000000e+00

0.000000000000000e+00 0.000000000000000e+00 0.000000000000000e+00
0.000000000000000e+00 0.000000000000000e+00 0.000000000000000e+00
0.000000000000000e+00 0.000000000000000e+00 0.000000000000000e+00

0.000000000000000e+00 0.000000000000000e+00 0.000000000000000e+00
0.000000000000000e+00 0.000000000000000e+00 0.000000000000000e+00
0.000000000000000e+00 0.000000000000000e+00 0.000000000000000e+00

0.000000000000000e+00 0.000000000000000e+00 0.000000000000000e+00
0.000000000000000e+00 0.000000000000000e+00 0.000000000000000e+00
0.000000000000000e+00 0.000000000000000e+00 0.000000000000000e+00

0.000000000000000e+00 0.000000000000000e+00 0.000000000000000e+00
0.000000000000000e+00 0.000000000000000e+00 0.000000000000000e+00
0.000000000000000e+00 0.000000000000000e+00 0.000000000000000e+00

0.000000000000000e+00 0.000000000000000e+00 0.000000000000000e+00
0.000000000000000e+00 0.000000000000000e+00 0.000000000000000e+00
0.000000000000000e+00 0.000000000000000e+00 0.000000000000000e+00

0.000000000000000e+00 0.000000000000000e+00 0.000000000000000e+00
0.000000000000000e+00 0.000000000000000e+00 0.000000000000000e+00
0.000000000000000e+00 0.000000000000000e+00 0.000000000000000e+00

0.000000000000000e+00 0.000000000000000e+00 0.000000000000000e+00
0.000000000000000e+00 0.000000000000000e+00 0.000000000000000e+00
0.000000000000000e+00 0.000000000000000e+00 0.000000000000000e+00

0.000000000000000e+00 0.000000000000000e+00 0.000000000000000e+00
0.000000000000000e+00 0.000000000000000e+00 0.000000000000000e+00
0.000000000000000e+00 0.000000000000000e+00 0.000000000000000e+00

0.000000000000000e+00 0.000000000000000e+00 0.000000000000000e+00
0.000000000000000e+00 0.000000000000000e+00 0.000000000000000e+00
0.000000000000000e+00 0.000000000000000e+00 0.000000000000000e+00

0.000000000000000e+00 0.000000000000000e+00 0.000000000000000e+00
0.000000000000000e+00 0.000000000000000e+00 0.000000000000000e+00
0.000000000000000e+00 0.000000000000000e+00 0.000000000000000e+00

0.000000000000000e+00 0.000000000000000e+00 0.000000000000000e+00
0.000000000000000e+00 0.000000000000000e+00 0.000000000000000e+00
0.000000000000000e+00 0.000000000000000e+00 0.000000000000000e+00

0.000000000000000e+00 0.000000000000000e+00 0.000000000000000e+00
0.000000000000000e+00 0.000000000000000e+00 0.000000000000000e+00
0.000000000000000e+00 0.000000000000000e+00 0.000000000000000e+00

0.000000000000000e+00 0.000000000000000e+00 0.000000000000000e+00
0.000000000000000e+00 0.000000000000000e+00 0.000000000000000e+00
0.000000000000000e+00 0.000000000000000e+00 0.000000000000000e+00

0.000000000000000e+00 0.000000000000000e+00 0.000000000000000e+00
0.000000000000000e+00 0.000000000000000e+00 0.000000000000000e+00
0.000000000000000e+00 0.000000000000000e+00 0.000000000000000e+00

0.000000000000000e+00 0.000000000000000e+00 0.000000000000000e+00
0.000000000000000e+00 0.000000000000000e+00 0.000000000000000e+00
0.000000000000000e+00 0.000000000000000e+00 0.000000000000000e+00

0.000000000000000e+00 0.000000000000000e+00 0.000000000000000e+00
0.000000000000000e+00 0.000000000000000e+00 0.000000000000000e+00
0.000000000000000e+00 0.000000000000000e+00 0.000000000000000e+00

0.000000000000000e+00 0.000000000000000e+00 0.000000000000000e+00
0.000000000000000e+00 0.000000000000000e+00 0.000000000000000e+00
0.000000000000000e+00 0.000000000000000e+00 0.000000000000000e+00

0.000000000000000e+00 0.000000000000000e+00 0.000000000000000e+00
0.000000000000000e+00 0.000000000000000e+00 0.000000000000000e+00
0.000000000000000e+00 0.000000000000000e+00 0.000000000000000e+00

0.000000000000000e+00 0.000000000000000e+00 0.000000000000000e+00
0.000000000000000e+00 0.000000000000000e+00 0.000000000000000e+00
0.000000000000000e+00 0.000000000000000e+00 0.000000000000000e+00

0.000000000000000e+00 0.000000000000000e+00 0.000000000000000e+00
0.000000000000000e+00 0.000000000000000e+00 0.000000000000000e+00
0.000000000000000e+00 0.000000000000000e+00 0.000000000000000e+00

0.000000000000000e+00 0.000000000000000e+00 0.000000000000000e+00
0.000000000000000e+00 0.000000000000000e+00 0.000000000000000e+00
0.000000000000000e+00 0.000000000000000e+00 0.000000000000000e+00

0.000000000000000e+00 0.000000000000000e+00 0.000000000000000e+00
0.000000000000000e+00 0.000000000000000e+00 0.000000000000000e+00
0.000000000000000e+00 0.000000000000000e+00 0.000000000000000e+00

0.000000000000000e+00 0.000000000000000e+00 0.000000000000000e+00
0.000000000000000e+00 0.000000000000000e+00 0.000000000000000e+00
0.000000000000000e+00 0.000000000000000e+00 0.000000000000000e+00

0.000000000000000e+00 0.000000000000000e+00 0.000000000000000e+00
0.000000000000000e+00 0.000000000000000e+00 0.000000000000000e+00
0.000000000000000e+00 0.000000000000000e+00 0.000000000000000e+00

0.000000000000000e+00 0.000000000000000e+00 0.000000000000000e+00
0.000000000000000e+00 0.000000000000000e+00 0.000000000000000e+00
0.000000000000000e+00 0.000000000000000e+00 0.000000000000000e+00

0.000000000000000e+00 0.000000000000000e+00 0.000000000000000e+00
0.000000000000000e+00 0.000000000000000e+00 0.000000000000000e+00
0.000000000000000e+00 0.000000000000000e+00 0.000000000000000e+00

0.000000000000000e+00 0.000000000000000e+00 0.000000000000000e+00
0.000000000000000e+00 0.000000000000000e+00 0.000000000000000e+00
0.000000000000000e+00 0.000000000000000e+00 0.000000000000000e+00

0.000000000000000e+00 0.000000000000000e+00 0.000000000000000e+00
0.000000000000000e+00 0.000000000000000e+00 0.000000000000000e+00
0.000000000000000e+00 0.000000000000000e+00 0.000000000000000e+00

0.000000000000000e+00 0.000000000000000e+00 0.000000000000000e+00
0.000000000000000e+00 0.000000000000000e+00 0.000000000000000e+00
0.000000000000000e+00 0.000000000000000e+00 0.000000000000000e+00

0.000000000000000e+00 0.000000000000000e+00 0.000000000000000e+00
0.000000000000000e+00 0.000000000000000e+00 0.000000000000000e+00
0.000000000000000e+00 0.000000000000000e+00 0.000000000000000e+00

0.000000000000000e+00 0.000000000000000e+00 0.000000000000000e+00
0.000000000000000e+00 0.000000000000000e+00 0.000000000000000e+00
0.000000000000000e+00 0.000000000000000e+00 0.000000000000000e+00

0.000000000000000e+00 0.000000000000000e+00 0.000000000000000e+00
0.000000000000000e+00 0.000000000000000e+00 0.000000000000000e+00
0.000000000000000e+00 0.000000000000000e+00 0.000000000000000e+00

0.000000000000000e+00 0.000000000000000e+00 0.000000000000000e+00
0.000000000000000e+00 0.000000000000000e+00 0.000000000000000e+00
0.000000000000000e+00 0.000000000000000e+00 0.000000000000000e+00

0.000000000000000e+00 0.000000000000000e+00 0.000000000000000e+00
0.000000000000000e+00 0.000000000000000e+00 0.000000000000000e+00
0.000000000000000e+00 0.000000000000000e+00 0.000000000000000e+00

0.000000000000000e+00 0.000000000000000e+00 0.000000000000000e+00
0.000000000000000e+00 0.000000000000000e+00 0.000000000000000e+00
0.000000000000000e+00 0.000000000000000e+00 0.000000000000000e+00

0.000000000000000e+00 0.000000000000000e+00 0.000000000000000e+00
0.000000000000000e+00 0.000000000000000e+00 0.000000000000000e+00
0.000000000000000e+00 0.000000000000000e+00 0.000000000000000e+00

0.000000000000000e+00 0.000000000000000e+00 0.000000000000000e+00
0.000000000000000e+00 0.000000000000000e+00 0.000000000000000e+00
0.000000000000000e+00 0.000000000000000e+00 0.000000000000000e+00

0.000000000000000e+00 0.000000000000000e+00 0.000000000000000e+00
0.000000000000000e+00 0.000000000000000e+00 0.000000000000000e+00
0.000000000000000e+00 0.000000000000000e+00 0.000000000000000e+00

0.000000000000000e+00 0.000000000000000e+00 0.000000000000000e+00
0.000000000000000e+00 0.000000000000000e+00 0.000000000000000e+00
0.000000000000000e+00 0.000000000000000e+00 0.000000000000000e+00

0.000000000000000e+00 0.000000000000000e+00 0.000000000000000e+00
0.000000000000000e+00 0.000000000000000e+00 0.000000000000000e+00
0.000000000000000e+00 0.000000000000000e+00 0.000000000000000e+00

0.000000000000000e+00 0.000000000000000e+00 0.000000000000000e+00
0.000000000000000e+00 0.000000000000000e+00 0.000000000000000e+00
0.000000000000000e+00 0.000000000000000e+00 0.000000000000000e+00

0.000000000000000e+00 0.000000000000000e+00 0.000000000000000e+00
0.000000000000000e+00 0.000000000000000e+00 0.000000000000000e+00
0.000000000000000e+00 0.000000000000000e+00 0.000000000000000e+00

0.000000000000000e+00 0.000000000000000e+00 0.000000000000000e+00
0.000000000000000e+00 0.000000000000000e+00 0.000000000000000e+00
0.000000000000000e+00 0.000000000000000e+00 0.000000000000000e+00

0.000000000000000e+00 0.000000000000000e+00 0.000000000000000e+00
0.000000000000000e+00 0.000000000000000e+00 0.000000000000000e+00
0.000000000000000e+00 0.000000000000000e+00 0.000000000000000e+00

0.000000000000000e+00 0.000000000000000e+00 0.000000000000000e+00
0.000000000000000e+00 0.000000000000000e+00 0.000000000000000e+00
0.000000000000000e+00 0.000000000000000e+00 0.000000000000000e+00

0.000000000000000e+00 0.000000000000000e+00 0.000000000000000e+00
0.000000000000000e+00 0.000000000000000e+00 0.000000000000000e+00
0.000000000000000e+00 0.000000000000000e+00 0.000000000000000e+00

0.000000000000000e+00 0.000000000000000e+00 0.000000000000000e+00
0.000000000000000e+00 0.000000000000000e+00 0.000000000000000e+00
0.000000000000000e+00 0.000000000000000e+00 0.000000000000000e+00

0.000000000000000e+00 0.000000000000000e+00 0.000000000000000e+00
0.000000000000000e+00 0.000000000000000e+00 0.000000000000000e+00
0.000000000000000e+00 0.000000000000000e+00 0.000000000000000e+00

0.000000000000000e+00 0.000000000000000e+00 0.000000000000000e+00
0.000000000000000e+00 0.000000000000000e+00 0.000000000000000e+00
0.000000000000000e+00 0.000000000000000e+00 0.000000000000000e+00

0.000000000000000e+00 0.000000000000000e+00 0.000000000000000e+00
0.000000000000000e+00 0.000000000000000e+00 0.000000000000000e+00
0.000000000000000e+00 0.000000000000000e+00 0.000000000000000e+00

0.000000000000000e+00 0.000000000000000e+00 0.000000000000000e+00
0.000000000000000e+00 0.000000000000000e+00 0.000000000000000e+00
0.000000000000000e+00 0.000000000000000e+00 0.000000000000000e+00

0.000000000000000e+00 0.000000000000000e+00 0.000000000000000e+00
0.000000000000000e+00 0.000000000000000e+00 0.000000000000000e+00
0.000000000000000e+00 0.000000000000000e+00 0.000000000000000e+00

0.000000000000000e+00 0.000000000000000e+00 0.000000000000000e+00
0.000000000000000e+00 0.000000000000000e+00 0.000000000000000e+00
0.000000000000000e+00 0.000000000000000e+00 0.000000000000000e+00

0.000000000000000e+00 0.000000000000000e+00 0.000000000000000e+00
0.000000000000000e+00 0.000000000000000e+00 0.000000000000000e+00
0.000000000000000e+00 0.000000000000000e+00 0.000000000000000e+00

0.000000000000000e+00 0.000000000000000e+00 0.000000000000000e+00
0.000000000000000e+00 0.000000000000000e+00 0.000000000000000e+00
0.000000000000000e+00 0.000000000000000e+00 0.000000000000000e+00

0.000000000000000e+00 0.000000000000000e+00 0.000000000000000e+00
0.000000000000000e+00 0.000000000000000e+00 0.000000000000000e+00
0.000000000000000e+00 0.000000000000000e+00 0.000000000000000e+00

0.000000000000000e+00 0.000000000000000e+00 0.000000000000000e+00
0.000000000000000e+00 0.000000000000000e+00 0.000000000000000e+00
0.000000000000000e+00 0.000000000000000e+00 0.000000000000000e+00

0.000000000000000e+00 0.000000000000000e+00 0.000000000000000e+00
0.000000000000000e+00 0.000000000000000e+00 0.000000000000000e+00
0.000000000000000e+00 0.000000000000000e+00 0.000000000000000e+00

0.000000000000000e+00 0.000000000000000e+00 0.000000000000000e+00
0.000000000000000e+00 0.000000000000000e+00 0.000000000000000e+00
0.000000000000000e+00 0.000000000000000e+00 0.000000000000000e+00

0.000000000000000e+00 0.000000000000000e+00 0.000000000000000e+00
0.000000000000000e+00 0.000000000000000e+00 0.000000000000000e+00
0.000000000000000e+00 0.000000000000000e+00 0.000000000000000e+00

0.000000000000000e+00 0.000000000000000e+00 0.000000000000000e+00
0.000000000000000e+00 0.000000000000000e+00 0.000000000000000e+00
0.000000000000000e+00 0.000000000000000e+00 0.000000000000000e+00

0.000000000000000e+00 0.000000000000000e+00 0.000000000000000e+00
0.000000000000000e+00 0.000000000000000e+00 0.000000000000000e+00
0.000000000000000e+00 0.000000000000000e+00 0.000000000000000e+00

0.000000000000000e+00 0.000000000000000e+00 0.000000000000000e+00
0.000000000000000e+00 0.000000000000000e+00 0.000000000000000e+00
0.000000000000000e+00 0.000000000000000e+00 0.000000000000000e+00

0.000000000000000e+00 0.000000000000000e+00 0.000000000000000e+00
0.000000000000000e+00 0.000000000000000e+00 0.000000000000000e+00
0.000000000000000e+00 0.000000000000000e+00 0.000000000000000e+00

0.000000000000000e+00 0.000000000000000e+00 0.000000000000000e+00
0.000000000000000e+00 0.000000000000000e+00 0.000000000000000e+00
0.000000000000000e+00 0.000000000000000e+00 0.000000000000000e+00

0.000000000000000e+00 0.000000000000000e+00 0.000000000000000e+00
0.000000000000000e+00 0.000000000000000e+00 0.000000000000000e+00
0.000000000000000e+00 0.000000000000000e+00 0.000000000000000e+00

0.000000000000000e+00 0.000000000000000e+00 0.000000000000000e+00
0.000000000000000e+00 0.000000000000000e+00 0.000000000000000e+00
0.000000000000000e+00 0.000000000000000e+00 0.000000000000000e+00

0.000000000000000e+00 0.000000000000000e+00 0.000000000000000e+00
0.000000000000000e+00 0.000000000000000e+00 0.000000000000000e+00
0.000000000000000e+00 0.000000000000000e+00 0.000000000000000e+00

0.000000000000000e+00 0.000000000000000e+00 0.000000000000000e+00
0.000000000000000e+00 0.000000000000000e+00 0.000000000000000e+00
0.000000000000000e+00 0.000000000000000e+00 0.000000000000000e+00

0.000000000000000e+00 0.000000000000000e+00 0.000000000000000e+00
0.000000000000000e+00 0.000000000000000e+00 0.000000000000000e+00
0.000000000000000e+00 0.000000000000000e+00 0.000000000000000e+00

0.000000000000000e+00 0.000000000000000e+00 0.000000000000000e+00
0.000000000000000e+00 0.000000000000000e+00 0.000000000000000e+00
0.000000000000000e+00 0.000000000000000e+00 0.000000000000000e+00

0.000000000000000e+00 0.000000000000000e+00 0.000000000000000e+00
0.000000000000000e+00 0.000000000000000e+00 0.000000000000000e+00
0.000000000000000e+00 0.000000000000000e+00 0.000000000000000e+00

0.000000000000000e+00 0.000000000000000e+00 0.000000000000000e+00
0.000000000000000e+00 0.000000000000000e+00 0.000000000000000e+00
0.000000000000000e+00 0.000000000000000e+00 0.000000000000000e+00

0.000000000000000e+00 0.000000000000000e+00 0.000000000000000e+00
0.000000000000000e+00 0.000000000000000e+00 0.000000000000000e+00
0.000000000000000e+00 0.000000000000000e+00 0.000000000000000e+00

0.000000000000000e+00 0.000000000000000e+00 0.000000000000000e+00
0.000000000000000e+00 0.000000000000000e+00 0.000000000000000e+00
0.000000000000000e+00 0.000000000000000e+00 0.000000000000000e+00

0.000000000000000e+00 0.000000000000000e+00 0.000000000000000e+00
0.000000000000000e+00 0.000000000000000e+00 0.000000000000000e+00
0.000000000000000e+00 0.000000000000000e+00 0.000000000000000e+00

0.000000000000000e+00 0.000000000000000e+00 0.000000000000000e+00
0.000000000000000e+00 0.000000000000000e+00 0.000000000000000e+00
0.000000000000000e+00 0.000000000000000e+00 0.000000000000000e+00

0.000000000000000e+00 0.000000000000000e+00 0.000000000000000e+00
0.000000000000000e+00 0.000000000000000e+00 0.000000000000000e+00
0.000000000000000e+00 0.000000000000000e+00 0.000000000000000e+00

0.000000000000000e+00 0.000000000000000e+00 0.000000000000000e+00
0.000000000000000e+00 0.000000000000000e+00 0.000000000000000e+00
0.000000000000000e+00 0.000000000000000e+00 0.000000000000000e+00

0.000000000000000e+00 0.000000000000000e+00 0.000000000000000e+00
0.000000000000000e+00 0.000000000000000e+00 0.000000000000000e+00
0.000000000000000e+00 0.000000000000000e+00 0.000000000000000e+00

0.000000000000000e+00 0.000000000000000e+00 0.000000000000000e+00
0.000000000000000e+00 0.000000000000000e+00 0.000000000000000e+00
0.000000000000000e+00 0.000000000000000e+00 0.000000000000000e+00

0.000000000000000e+00 0.000000000000000e+00 0.000000000000000e+00
0.000000000000000e+00 0.000000000000000e+00 0.000000000000000e+00
0.000000000000000e+00 0.000000000000000e+00 0.000000000000000e+00

0.000000000000000e+00 0.000000000000000e+00 0.000000000000000e+00
0.000000000000000e+00 0.000000000000000e+00 0.000000000000000e+00
0.000000000000000e+00 0.000000000000000e+00 0.000000000000000e+00

0.000000000000000e+00 0.000000000000000e+00 0.000000000000000e+00
0.000000000000000e+00 0.000000000000000e+00 0.000000000000000e+00
0.000000000000000e+00 0.000000000000000e+00 0.000000000000000e+00

0.000000000000000e+00 0.000000000000000e+00 0.000000000000000e+00
0.000000000000000e+00 0.000000000000000e+00 0.000000000000000e+00
0.000000000000000e+00 0.000000000000000e+00 0.000000000000000e+00

0.000000000000000e+00 0.000000000000000e+00 0.000000000000000e+00
0.000000000000000e+00 0.000000000000000e+00 0.000000000000000e+00
0.000000000000000e+00 0.000000000000000e+00 0.000000000000000e+00

0.000000000000000e+00 0.000000000000000e+00 0.000000000000000e+00
0.000000000000000e+00 0.000000000000000e+00 0.000000000000000e+00
0.000000000000000e+00 0.000000000000000e+00 0.000000000000000e+00

0.000000000000000e+00 0.000000000000000e+00 0.000000000000000e+00
0.000000000000000e+00 0.000000000000000e+00 0.000000000000000e+00
0.000000000000000e+00 0.000000000000000e+00 0.000000000000000e+00

0.000000000000000e+00 0.000000000000000e+00 0.000000000000000e+00
0.000000000000000e+00 0.000000000000000e+00 0.000000000000000e+00
0.000000000000000e+00 0.000000000000000e+00 0.000000000000000e+00

0.000000000000000e+00 0.000000000000000e+00 0.000000000000000e+00
0.000000000000000e+00 0.000000000000000e+00 0.000000000000000e+00
0.000000000000000e+00 0.000000000000000e+00 0.000000000000000e+00

0.000000000000000e+00 0.000000000000000e+00 0.000000000000000e+00
0.000000000000000e+00 0.000000000000000e+00 0.000000000000000e+00
0.000000000000000e+00 0.000000000000000e+00 0.000000000000000e+00

0.000000000000000e+00 0.000000000000000e+00 0.000000000000000e+00
0.000000000000000e+00 0.000000000000000e+00 0.000000000000000e+00
0.000000000000000e+00 0.000000000000000e+00 0.000000000000000e+00

0.000000000000000e+00 0.000000000000000e+00 0.000000000000000e+00
0.000000000000000e+00 0.000000000000000e+00 0.000000000000000e+00
0.000000000000000e+00 0.000000000000000e+00 0.000000000000000e+00

0.000000000000000e+00 0.000000000000000e+00 0.000000000000000e+00
0.000000000000000e+00 0.000000000000000e+00 0.000000000000000e+00
0.000000000000000e+00 0.000000000000000e+00 0.000000000000000e+00

0.000000000000000e+00 0.000000000000000e+00 0.000000000000000e+00
0.000000000000000e+00 0.000000000000000e+00 0.000000000000000e+00
0.000000000000000e+00 0.000000000000000e+00 0.000000000000000e+00

0.000000000000000e+00 0.000000000000000e+00 0.000000000000000e+00
0.000000000000000e+00 0.000000000000000e+00 0.000000000000000e+00
0.000000000000000e+00 0.000000000000000e+00 0.000000000000000e+00

0.000000000000000e+00 0.000000000000000e+00 0.000000000000000e+00
0.000000000000000e+00 0.000000000000000e+00 0.000000000000000e+00
0.000000000000000e+00 0.000000000000000e+00 0.000000000000000e+00

0.000000000000000e+00 0.000000000000000e+00 0.000000000000000e+00
0.000000000000000e+00 0.000000000000000e+00 0.000000000000000e+00
0.000000000000000e+00 0.000000000000000e+00 0.000000000000000e+00

0.000000000000000e+00 0.000000000000000e+00 0.000000000000000e+00
0.000000000000000e+00 0.000000000000000e+00 0.000000000000000e+00
0.000000000000000e+00 0.000000000000000e+00 0.000000000000000e+00

0.000000000000000e+00 0.000000000000000e+00 0.000000000000000e+00
0.000000000000000e+00 0.000000000000000e+00 0.000000000000000e+00
0.000000000000000e+00 0.000000000000000e+00 0.000000000000000e+00

0.000000000000000e+00 0.000000000000000e+00 0.000000000000000e+00
0.000000000000000e+00 0.000000000000000e+00 0.000000000000000e+00
0.000000000000000e+00 0.000000000000000e+00 0.000000000000000e+00

0.000000000000000e+00 0.000000000000000e+00 0.000000000000000e+00
0.000000000000000e+00 0.000000000000000e+00 0.000000000000000e+00
0.000000000000000e+00 0.000000000000000e+00 0.000000000000000e+00

0.000000000000000e+00 0.000000000000000e+00 0.000000000000000e+00
0.000000000000000e+00 0.000000000000000e+00 0.000000000000000e+00
0.000000000000000e+00 0.000000000000000e+00 0.000000000000000e+00

0.000000000000000e+00 0.000000000000000e+00 0.000000000000000e+00
0.000000000000000e+00 0.000000000000000e+00 0.000000000000000e+00
0.000000000000000e+00 0.000000000000000e+00 0.000000000000000e+00

0.000000000000000e+00 0.000000000000000e+00 0.000000000000000e+00
0.000000000000000e+00 0.000000000000000e+00 0.000000000000000e+00
0.000000000000000e+00 0.000000000000000e+00 0.000000000000000e+00

0.000000000000000e+00 0.000000000000000e+00 0.000000000000000e+00
0.000000000000000e+00 0.000000000000000e+00 0.000000000000000e+00
0.000000000000000e+00 0.000000000000000e+00 0.000000000000000e+00

0.000000000000000e+00 0.000000000000000e+00 0.000000000000000e+00
0.000000000000000e+00 0.000000000000000e+00 0.000000000000000e+00
0.000000000000000e+00 0.000000000000000e+00 0.000000000000000e+00

0.000000000000000e+00 0.000000000000000e+00 0.000000000000000e+00
0.000000000000000e+00 0.000000000000000e+00 0.000000000000000e+00
0.000000000000000e+00 0.000000000000000e+00 0.000000000000000e+00

0.000000000000000e+00 0.000000000000000e+00 0.000000000000000e+00
0.000000000000000e+00 0.000000000000000e+00 0.000000000000000e+00
0.000000000000000e+00 0.000000000000000e+00 0.000000000000000e+00

0.000000000000000e+00 0.000000000000000e+00 0.000000000000000e+00
0.000000000000000e+00 0.000000000000000e+00 0.000000000000000e+00
0.000000000000000e+00 0.000000000000000e+00 0.000000000000000e+00

0.000000000000000e+00 0.000000000000000e+00 0.000000000000000e+00
0.000000000000000e+00 0.000000000000000e+00 0.000000000000000e+00
0.000000000000000e+00 0.000000000000000e+00 0.000000000000000e+00

0.000000000000000e+00 0.000000000000000e+00 0.000000000000000e+00
0.000000000000000e+00 0.000000000000000e+00 0.000000000000000e+00
0.000000000000000e+00 0.000000000000000e+00 0.000000000000000e+00

0.000000000000000e+00 0.000000000000000e+00 0.000000000000000e+00
0.000000000000000e+00 0.000000000000000e+00 0.000000000000000e+00
0.000000000000000e+00 0.000000000000000e+00 0.000000000000000e+00

0.000000000000000e+00 0.000000000000000e+00 0.000000000000000e+00
0.000000000000000e+00 0.000000000000000e+00 0.000000000000000e+00
0.000000000000000e+00 0.000000000000000e+00 0.000000000000000e+00

0.000000000000000e+00 0.000000000000000e+00 0.000000000000000e+00
0.000000000000000e+00 0.000000000000000e+00 0.000000000000000e+00
0.000000000000000e+00 0.000000000000000e+00 0.000000000000000e+00

0.000000000000000e+00 0.000000000000000e+00 0.000000000000000e+00
0.000000000000000e+00 0.000000000000000e+00 0.000000000000000e+00
0.000000000000000e+00 0.000000000000000e+00 0.000000000000000e+00

0.000000000000000e+00 0.000000000000000e+00 0.000000000000000e+00
0.000000000000000e+00 0.000000000000000e+00 0.000000000000000e+00
0.000000000000000e+00 0.000000000000000e+00 0.000000000000000e+00

0.000000000000000e+00 0.000000000000000e+00 0.000000000000000e+00
0.000000000000000e+00 0.000000000000000e+00 0.000000000000000e+00
0.000000000000000e+00 0.000000000000000e+00 0.000000000000000e+00

0.000000000000000e+00 0.000000000000000e+00 0.000000000000000e+00
0.000000000000000e+00 0.000000000000000e+00 0.000000000000000e+00
0.000000000000000e+00 0.000000000000000e+00 0.000000000000000e+00

0.000000000000000e+00 0.000000000000000e+00 0.000000000000000e+00
0.000000000000000e+00 0.000000000000000e+00 0.000000000000000e+00
0.000000000000000e+00 0.000000000000000e+00 0.000000000000000e+00

0.000000000000000e+00 0.000000000000000e+00 0.000000000000000e+00
0.000000000000000e+00 0.000000000000000e+00 0.000000000000000e+00
0.000000000000000e+00 0.000000000000000e+00 0.000000000000000e+00

0.000000000000000e+00 0.000000000000000e+00 0.000000000000000e+00
0.000000000000000e+00 0.000000000000000e+00 0.000000000000000e+00
0.000000000000000e+00 0.000000000000000e+00 0.000000000000000e+00

0.000000000000000e+00 0.000000000000000e+00 0.000000000000000e+00
0.000000000000000e+00 0.000000000000000e+00 0.000000000000000e+00
0.000000000000000e+00 0.000000000000000e+00 0.000000000000000e+00

0.000000000000000e+00 0.000000000000000e+00 0.000000000000000e+00
0.000000000000000e+00 0.000000000000000e+00 0.000000000000000e+00
0.000000000000000e+00 0.000000000000000e+00 0.000000000000000e+00

0.000000000000000e+00 0.000000000000000e+00 0.000000000000000e+00
0.000000000000000e+00 0.000000000000000e+00 0.000000000000000e+00
0.000000000000000e+00 0.000000000000000e+00 0.000000000000000e+00

0.000000000000000e+00 0.000000000000000e+00 0.000000000000000e+00
0.000000000000000e+00 0.000000000000000e+00 0.000000000000000e+00
0.000000000000000e+00 0.000000000000000e+00 0.000000000000000e+00

0.000000000000000e+00 0.000000000000000e+00 0.000000000000000e+00
0.000000000000000e+00 0.000000000000000e+00 0.000000000000000e+00
0.000000000000000e+00 0.000000000000000e+00 0.000000000000000e+00

0.000000000000000e+00 0.000000000000000e+00 0.000000000000000e+00
0.000000000000000e+00 0.000000000000000e+00 0.000000000000000e+00
0.000000000000000e+00 0.000000000000000e+00 0.000000000000000e+00

0.000000000000000e+00 0.000000000000000e+00 0.000000000000000e+00
0.000000000000000e+00 0.000000000000000e+00 0.000000000000000e+00
0.000000000000000e+00 0.000000000000000e+00 0.000000000000000e+00

0.000000000000000e+00 0.000000000000000e+00 0.000000000000000e+00
0.000000000000000e+00 0.000000000000000e+00 0.000000000000000e+00
0.000000000000000e+00 0.000000000000000e+00 0.000000000000000e+00

0.000000000000000e+00 0.000000000000000e+00 0.000000000000000e+00
0.000000000000000e+00 0.000000000000000e+00 0.000000000000000e+00
0.000000000000000e+00 0.000000000000000e+00 0.000000000000000e+00

0.000000000000000e+00 0.000000000000000e+00 0.000000000000000e+00
0.000000000000000e+00 0.000000000000000e+00 0.000000000000000e+00
0.000000000000000e+00 0.000000000000000e+00 0.000000000000000e+00

0.000000000000000e+00 0.000000000000000e+00 0.000000000000000e+00
0.000000000000000e+00 0.000000000000000e+00 0.000000000000000e+00
0.000000000000000e+00 0.000000000000000e+00 0.000000000000000e+00

0.000000000000000e+00 0.000000000000000e+00 0.000000000000000e+00
0.000000000000000e+00 0.000000000000000e+00 0.000000000000000e+00
0.000000000000000e+00 0.000000000000000e+00 0.000000000000000e+00

0.000000000000000e+00 0.000000000000000e+00 0.000000000000000e+00
0.000000000000000e+00 0.000000000000000e+00 0.000000000000000e+00
0.000000000000000e+00 0.000000000000000e+00 0.000000000000000e+00

0.000000000000000e+00 0.000000000000000e+00 0.000000000000000e+00
0.000000000000000e+00 0.000000000000000e+00 0.000000000000000e+00
0.000000000000000e+00 0.000000000000000e+00 0.000000000000000e+00

0.000000000000000e+00 0.000000000000000e+00 0.000000000000000e+00
0.000000000000000e+00 0.000000000000000e+00 0.000000000000000e+00
0.000000000000000e+00 0.000000000000000e+00 0.000000000000000e+00

0.000000000000000e+00 0.000000000000000e+00 0.000000000000000e+00
0.000000000000000e+00 0.000000000000000e+00 0.000000000000000e+00
0.000000000000000e+00 0.000000000000000e+00 0.000000000000000e+00

0.000000000000000e+00 0.000000000000000e+00 0.000000000000000e+00
0.000000000000000e+00 0.000000000000000e+00 0.000000000000000e+00
0.000000000000000e+00 0.000000000000000e+00 0.000000000000000e+00

0.000000000000000e+00 0.000000000000000e+00 0.000000000000000e+00
0.000000000000000e+00 0.000000000000000e+00 0.000000000000000e+00
0.000000000000000e+00 0.000000000000000e+00 0.000000000000000e+00

0.000000000000000e+00 0.000000000000000e+00 0.000000000000000e+00
0.000000000000000e+00 0.000000000000000e+00 0.000000000000000e+00
0.000000000000000e+00 0.000000000000000e+00 0.000000000000000e+00

0.000000000000000e+00 0.000000000000000e+00 0.000000000000000e+00
0.000000000000000e+00 0.000000000000000e+00 0.000000000000000e+00
0.000000000000000e+00 0.000000000000000e+00 0.000000000000000e+00

0.000000000000000e+00 0.000000000000000e+00 0.000000000000000e+00
0.000000000000000e+00 0.000000000000000e+00 0.000000000000000e+00
0.000000000000000e+00 0.000000000000000e+00 0.000000000000000e+00

0.000000000000000e+00 0.000000000000000e+00 0.000000000000000e+00
0.000000000000000e+00 0.000000000000000e+00 0.000000000000000e+00
0.000000000000000e+00 0.000000000000000e+00 0.000000000000000e+00

0.000000000000000e+00 0.000000000000000e+00 0.000000000000000e+00
0.000000000000000e+00 0.000000000000000e+00 0.000000000000000e+00
0.000000000000000e+00 0.000000000000000e+00 0.000000000000000e+00

0.000000000000000e+00 0.000000000000000e+00 0.000000000000000e+00
0.000000000000000e+00 0.000000000000000e+00 0.000000000000000e+00
0.000000000000000e+00 0.000000000000000e+00 0.000000000000000e+00

0.000000000000000e+00 0.000000000000000e+00 0.000000000000000e+00
0.000000000000000e+00 0.000000000000000e+00 0.000000000000000e+00
0.000000000000000e+00 0.000000000000000e+00 0.000000000000000e+00

0.000000000000000e+00 0.000000000000000e+00 0.000000000000000e+00
0.000000000000000e+00 0.000000000000000e+00 0.000000000000000e+00
0.000000000000000e+00 0.000000000000000e+00 0.000000000000000e+00

0.000000000000000e+00 0.000000000000000e+00 0.000000000000000e+00
0.000000000000000e+00 0.000000000000000e+00 0.000000000000000e+00
0.000000000000000e+00 0.000000000000000e+00 0.000000000000000e+00

0.000000000000000e+00 0.000000000000000e+00 0.000000000000000e+00
0.000000000000000e+00 0.000000000000000e+00 0.000000000000000e+00
0.000000000000000e+00 0.000000000000000e+00 0.000000000000000e+00

0.000000000000000e+00 0.000000000000000e+00 0.000000000000000e+00
0.000000000000000e+00 0.000000000000000e+00 0.000000000000000e+00
0.000000000000000e+00 0.000000000000000e+00 0.000000000000000e+00

0.000000000000000e+00 0.000000000000000e+00 0.000000000000000e+00
0.000000000000000e+00 0.000000000000000e+00 0.000000000000000e+00
0.000000000000000e+00 0.000000000000000e+00 0.000000000000000e+00

0.000000000000000e+00 0.000000000000000e+00 0.000000000000000e+00
0.000000000000000e+00 0.000000000000000e+00 0.000000000000000e+00
0.000000000000000e+00 0.000000000000000e+00 0.000000000000000e+00

0.000000000000000e+00 0.000000000000000e+00 0.000000000000000e+00
0.000000000000000e+00 0.000000000000000e+00 0.000000000000000e+00
0.000000000000000e+00 0.000000000000000e+00 0.000000000000000e+00

0.000000000000000e+00 0.000000000000000e+00 0.000000000000000e+00
0.000000000000000e+00 0.000000000000000e+00 0.000000000000000e+00
0.000000000000000e+00 0.000000000000000e+00 0.000000000000000e+00

0.000000000000000e+00 0.000000000000000e+00 0.000000000000000e+00
0.000000000000000e+00 0.000000000000000e+00 0.000000000000000e+00
0.000000000000000e+00 0.000000000000000e+00 0.000000000000000e+00

0.000000000000000e+00 0.000000000000000e+00 0.000000000000000e+00
0.000000000000000e+00 0.000000000000000e+00 0.000000000000000e+00
0.000000000000000e+00 0.000000000000000e+00 0.000000000000000e+00

0.000000000000000e+00 0.000000000000000e+00 0.000000000000000e+00
0.000000000000000e+00 0.000000000000000e+00 0.000000000000000e+00
0.000000000000000e+00 0.000000000000000e+00 0.000000000000000e+00

0.000000000000000e+00 0.000000000000000e+00 0.000000000000000e+00
0.000000000000000e+00 0.000000000000000e+00 0.000000000000000e+00
0.000000000000000e+00 0.000000000000000e+00 0.000000000000000e+00

0.000000000000000e+00 0.000000000000000e+00 0.000000000000000e+00
0.000000000000000e+00 0.000000000000000e+00 0.000000000000000e+00
0.000000000000000e+00 0.000000000000000e+00 0.000000000000000e+00

0.000000000000000e+00 0.000000000000000e+00 0.000000000000000e+00
0.000000000000000e+00 0.000000000000000e+00 0.000000000000000e+00
0.000000000000000e+00 0.000000000000000e+00 0.000000000000000e+00

0.000000000000000e+00 0.000000000000000e+00 0.000000000000000e+00
0.000000000000000e+00 0.000000000000000e+00 0.000000000000000e+00
0.000000000000000e+00 0.000000000000000e+00 0.000000000000000e+00

0.000000000000000e+00 0.000000000000000e+00 0.000000000000000e+00
0.000000000000000e+00 0.000000000000000e+00 0.000000000000000e+00
0.000000000000000e+00 0.000000000000000e+00 0.000000000000000e+00

0.000000000000000e+00 0.000000000000000e+00 0.000000000000000e+00
0.000000000000000e+00 0.000000000000000e+00 0.000000000000000e+00
0.000000000000000e+00 0.000000000000000e+00 0.000000000000000e+00

0.000000000000000e+00 0.000000000000000e+00 0.000000000000000e+00
0.000000000000000e+00 0.000000000000000e+00 0.000000000000000e+00
0.000000000000000e+00 0.000000000000000e+00 0.000000000000000e+00

0.000000000000000e+00 0.000000000000000e+00 0.000000000000000e+00
0.000000000000000e+00 0.000000000000000e+00 0.000000000000000e+00
0.000000000000000e+00 0.000000000000000e+00 0.000000000000000e+00

0.000000000000000e+00 0.000000000000000e+00 0.000000000000000e+00
0.000000000000000e+00 0.000000000000000e+00 0.000000000000000e+00
0.000000000000000e+00 0.000000000000000e+00 0.000000000000000e+00

0.000000000000000e+00 0.000000000000000e+00 0.000000000000000e+00
0.000000000000000e+00 0.000000000000000e+00 0.000000000000000e+00
0.000000000000000e+00 0.000000000000000e+00 0.000000000000000e+00

0.000000000000000e+00 0.000000000000000e+00 0.000000000000000e+00
0.000000000000000e+00 0.000000000000000e+00 0.000000000000000e+00
0.000000000000000e+00 0.000000000000000e+00 0.000000000000000e+00

0.000000000000000e+00 0.000000000000000e+00 0.000000000000000e+00
0.000000000000000e+00 0.000000000000000e+00 0.000000000000000e+00
0.000000000000000e+00 0.000000000000000e+00 0.000000000000000e+00

0.000000000000000e+00 0.000000000000000e+00 0.000000000000000e+00
0.000000000000000e+00 0.000000000000000e+00 0.000000000000000e+00
0.000000000000000e+00 0.000000000000000e+00 0.000000000000000e+00

0.000000000000000e+00 0.000000000000000e+00 0.000000000000000e+00
0.000000000000000e+00 0.000000000000000e+00 0.000000000000000e+00
0.000000000000000e+00 0.000000000000000e+00 0.000000000000000e+00

0.000000000000000e+00 0.000000000000000e+00 0.000000000000000e+00
0.000000000000000e+00 0.000000000000000e+00 0.000000000000000e+00
0.000000000000000e+00 0.000000000000000e+00 0.000000000000000e+00

0.000000000000000e+00 0.000000000000000e+00 0.000000000000000e+00
0.000000000000000e+00 0.000000000000000e+00 0.000000000000000e+00
0.000000000000000e+00 0.000000000000000e+00 0.000000000000000e+00

0.000000000000000e+00 0.000000000000000e+00 0.000000000000000e+00
0.000000000000000e+00 0.000000000000000e+00 0.000000000000000e+00
0.000000000000000e+00 0.000000000000000e+00 0.000000000000000e+00

0.000000000000000e+00 0.000000000000000e+00 0.000000000000000e+00
0.000000000000000e+00 0.000000000000000e+00 0.000000000000000e+00
0.000000000000000e+00 0.000000000000000e+00 0.000000000000000e+00

0.000000000000000e+00 0.000000000000000e+00 0.000000000000000e+00
0.000000000000000e+00 0.000000000000000e+00 0.000000000000000e+00
0.000000000000000e+00 0.000000000000000e+00 0.000000000000000e+00

0.000000000000000e+00 0.000000000000000e+00 0.000000000000000e+00
0.000000000000000e+00 0.000000000000000e+00 0.000000000000000e+00
0.000000000000000e+00 0.000000000000000e+00 0.000000000000000e+00

0.000000000000000e+00 0.000000000000000e+00 0.000000000000000e+00
0.000000000000000e+00 0.000000000000000e+00 0.000000000000000e+00
0.000000000000000e+00 0.000000000000000e+00 0.000000000000000e+00

0.000000000000000e+00 0.000000000000000e+00 0.000000000000000e+00
0.000000000000000e+00 0.000000000000000e+00 0.000000000000000e+00
0.000000000000000e+00 0.000000000000000e+00 0.000000000000000e+00

0.000000000000000e+00 0.000000000000000e+00 0.000000000000000e+00
0.000000000000000e+00 0.000000000000000e+00 0.000000000000000e+00
0.000000000000000e+00 0.000000000000000e+00 0.000000000000000e+00

0.000000000000000e+00 0.000000000000000e+00 0.000000000000000e+00
0.000000000000000e+00 0.000000000000000e+00 0.000000000000000e+00
0.000000000000000e+00 0.000000000000000e+00 0.000000000000000e+00

0.000000000000000e+00 0.000000000000000e+00 0.000000000000000e+00
0.000000000000000e+00 0.000000000000000e+00 0.000000000000000e+00
0.000000000000000e+00 0.000000000000000e+00 0.000000000000000e+00

0.000000000000000e+00 0.000000000000000e+00 0.000000000000000e+00
0.000000000000000e+00 0.000000000000000e+00 0.000000000000000e+00
0.000000000000000e+00 0.000000000000000e+00 0.000000000000000e+00

0.000000000000000e+00 0.000000000000000e+00 0.000000000000000e+00
0.000000000000000e+00 0.000000000000000e+00 0.000000000000000e+00
0.000000000000000e+00 0.000000000000000e+00 0.000000000000000e+00

0.000000000000000e+00 0.000000000000000e+00 0.000000000000000e+00
0.000000000000000e+00 0.000000000000000e+00 0.000000000000000e+00
0.000000000000000e+00 0.000000000000000e+00 0.000000000000000e+00

0.000000000000000e+00 0.000000000000000e+00 0.000000000000000e+00
0.000000000000000e+00 0.000000000000000e+00 0.000000000000000e+00
0.000000000000000e+00 0.000000000000000e+00 0.000000000000000e+00

0.000000000000000e+00 0.000000000000000e+00 0.000000000000000e+00
0.000000000000000e+00 0.000000000000000e+00 0.000000000000000e+00
0.000000000000000e+00 0.000000000000000e+00 0.000000000000000e+00

0.000000000000000e+00 0.000000000000000e+00 0.000000000000000e+00
0.000000000000000e+00 0.000000000000000e+00 0.000000000000000e+00
0.000000000000000e+00 0.000000000000000e+00 0.000000000000000e+00

0.000000000000000e+00 0.000000000000000e+00 0.000000000000000e+00
0.000000000000000e+00 0.000000000000000e+00 0.000000000000000e+00
0.000000000000000e+00 0.000000000000000e+00 0.000000000000000e+00

0.000000000000000e+00 0.000000000000000e+00 0.000000000000000e+00
0.000000000000000e+00 0.000000000000000e+00 0.000000000000000e+00
0.000000000000000e+00 0.000000000000000e+00 0.000000000000000e+00

0.000000000000000e+00 0.000000000000000e+00 0.000000000000000e+00
0.000000000000000e+00 0.000000000000000e+00 0.000000000000000e+00
0.000000000000000e+00 0.000000000000000e+00 0.000000000000000e+00

0.000000000000000e+00 0.000000000000000e+00 0.000000000000000e+00
0.000000000000000e+00 0.000000000000000e+00 0.000000000000000e+00
0.000000000000000e+00 0.000000000000000e+00 0.000000000000000e+00

0.000000000000000e+00 0.000000000000000e+00 0.000000000000000e+00
0.000000000000000e+00 0.000000000000000e+00 0.000000000000000e+00
0.000000000000000e+00 0.000000000000000e+00 0.000000000000000e+00

0.000000000000000e+00 0.000000000000000e+00 0.000000000000000e+00
0.000000000000000e+00 0.000000000000000e+00 0.000000000000000e+00
0.000000000000000e+00 0.000000000000000e+00 0.000000000000000e+00

0.000000000000000e+00 0.000000000000000e+00 0.000000000000000e+00
0.000000000000000e+00 0.000000000000000e+00 0.000000000000000e+00
0.000000000000000e+00 0.000000000000000e+00 0.000000000000000e+00

0.000000000000000e+00 0.000000000000000e+00 0.000000000000000e+00
0.000000000000000e+00 0.000000000000000e+00 0.000000000000000e+00
0.000000000000000e+00 0.000000000000000e+00 0.000000000000000e+00

0.000000000000000e+00 0.000000000000000e+00 0.000000000000000e+00
0.000000000000000e+00 0.000000000000000e+00 0.000000000000000e+00
0.000000000000000e+00 0.000000000000000e+00 0.000000000000000e+00

0.000000000000000e+00 0.000000000000000e+00 0.000000000000000e+00
0.000000000000000e+00 0.000000000000000e+00 0.000000000000000e+00
0.000000000000000e+00 0.000000000000000e+00 0.000000000000000e+00

0.000000000000000e+00 0.000000000000000e+00 0.000000000000000e+00
0.000000000000000e+00 0.000000000000000e+00 0.000000000000000e+00
0.000000000000000e+00 0.000000000000000e+00 0.000000000000000e+00

0.000000000000000e+00 0.000000000000000e+00 0.000000000000000e+00
0.000000000000000e+00 0.000000000000000e+00 0.000000000000000e+00
0.000000000000000e+00 0.000000000000000e+00 0.000000000000000e+00

0.000000000000000e+00 0.000000000000000e+00 0.000000000000000e+00
0.000000000000000e+00 0.000000000000000e+00 0.000000000000000e+00
0.000000000000000e+00 0.000000000000000e+00 0.000000000000000e+00

0.000000000000000e+00 0.000000000000000e+00 0.000000000000000e+00
0.000000000000000e+00 0.000000000000000e+00 0.000000000000000e+00
0.000000000000000e+00 0.000000000000000e+00 0.000000000000000e+00

0.000000000000000e+00 0.000000000000000e+00 0.000000000000000e+00
0.000000000000000e+00 0.000000000000000e+00 0.000000000000000e+00
0.000000000000000e+00 0.000000000000000e+00 0.000000000000000e+00

0.000000000000000e+00 0.000000000000000e+00 0.000000000000000e+00
0.000000000000000e+00 0.000000000000000e+00 0.000000000000000e+00
0.000000000000000e+00 0.000000000000000e+00 0.000000000000000e+00

0.000000000000000e+00 0.000000000000000e+00 0.000000000000000e+00
0.000000000000000e+00 0.000000000000000e+00 0.000000000000000e+00
0.000000000000000e+00 0.000000000000000e+00 0.000000000000000e+00

0.000000000000000e+00 0.000000000000000e+00 0.000000000000000e+00
0.000000000000000e+00 0.000000000000000e+00 0.000000000000000e+00
0.000000000000000e+00 0.000000000000000e+00 0.000000000000000e+00

0.000000000000000e+00 0.000000000000000e+00 0.000000000000000e+00
0.000000000000000e+00 0.000000000000000e+00 0.000000000000000e+00
0.000000000000000e+00 0.000000000000000e+00 0.000000000000000e+00

0.000000000000000e+00 0.000000000000000e+00 0.000000000000000e+00
0.000000000000000e+00 0.000000000000000e+00 0.000000000000000e+00
0.000000000000000e+00 0.000000000000000e+00 0.000000000000000e+00

0.000000000000000e+00 0.000000000000000e+00 0.000000000000000e+00
0.000000000000000e+00 0.000000000000000e+00 0.000000000000000e+00
0.000000000000000e+00 0.000000000000000e+00 0.000000000000000e+00

0.000000000000000e+00 0.000000000000000e+00 0.000000000000000e+00
0.000000000000000e+00 0.000000000000000e+00 0.000000000000000e+00
0.000000000000000e+00 0.000000000000000e+00 0.000000000000000e+00

0.000000000000000e+00 0.000000000000000e+00 0.000000000000000e+00
0.000000000000000e+00 0.000000000000000e+00 0.000000000000000e+00
0.000000000000000e+00 0.000000000000000e+00 0.000000000000000e+00

0.000000000000000e+00 0.000000000000000e+00 0.000000000000000e+00
0.000000000000000e+00 0.000000000000000e+00 0.000000000000000e+00
0.000000000000000e+00 0.000000000000000e+00 0.000000000000000e+00

0.000000000000000e+00 0.000000000000000e+00 0.000000000000000e+00
0.000000000000000e+00 0.000000000000000e+00 0.000000000000000e+00
0.000000000000000e+00 0.000000000000000e+00 0.000000000000000e+00

0.000000000000000e+00 0.000000000000000e+00 0.000000000000000e+00
0.000000000000000e+00 0.000000000000000e+00 0.000000000000000e+00
0.000000000000000e+00 0.000000000000000e+00 0.000000000000000e+00

0.000000000000000e+00 0.000000000000000e+00 0.000000000000000e+00
0.000000000000000e+00 0.000000000000000e+00 0.000000000000000e+00
0.000000000000000e+00 0.000000000000000e+00 0.000000000000000e+00

0.000000000000000e+00 0.000000000000000e+00 0.000000000000000e+00
0.000000000000000e+00 0.000000000000000e+00 0.000000000000000e+00
0.000000000000000e+00 0.000000000000000e+00 0.000000000000000e+00

0.000000000000000e+00 0.000000000000000e+00 0.000000000000000e+00
0.000000000000000e+00 0.000000000000000e+00 0.000000000000000e+00
0.000000000000000e+00 0.000000000000000e+00 0.000000000000000e+00

0.000000000000000e+00 0.000000000000000e+00 0.000000000000000e+00
0.000000000000000e+00 0.000000000000000e+00 0.000000000000000e+00
0.000000000000000e+00 0.000000000000000e+00 0.000000000000000e+00

0.000000000000000e+00 0.000000000000000e+00 0.000000000000000e+00
0.000000000000000e+00 0.000000000000000e+00 0.000000000000000e+00
0.000000000000000e+00 0.000000000000000e+00 0.000000000000000e+00

0.000000000000000e+00 0.000000000000000e+00 0.000000000000000e+00
0.000000000000000e+00 0.000000000000000e+00 0.000000000000000e+00
0.000000000000000e+00 0.000000000000000e+00 0.000000000000000e+00

0.000000000000000e+00 0.000000000000000e+00 0.000000000000000e+00
0.000000000000000e+00 0.000000000000000e+00 0.000000000000000e+00
0.000000000000000e+00 0.000000000000000e+00 0.000000000000000e+00

0.000000000000000e+00 0.000000000000000e+00 0.000000000000000e+00
0.000000000000000e+00 0.000000000000000e+00 0.000000000000000e+00
0.000000000000000e+00 0.000000000000000e+00 0.000000000000000e+00

0.000000000000000e+00 0.000000000000000e+00 0.000000000000000e+00
0.000000000000000e+00 0.000000000000000e+00 0.000000000000000e+00
0.000000000000000e+00 0.000000000000000e+00 0.000000000000000e+00

0.000000000000000e+00 0.000000000000000e+00 0.000000000000000e+00
0.000000000000000e+00 0.000000000000000e+00 0.000000000000000e+00
0.000000000000000e+00 0.000000000000000e+00 0.000000000000000e+00

0.000000000000000e+00 0.000000000000000e+00 0.000000000000000e+00
0.000000000000000e+00 0.000000000000000e+00 0.000000000000000e+00
0.000000000000000e+00 0.000000000000000e+00 0.000000000000000e+00

0.000000000000000e+00 0.000000000000000e+00 0.000000000000000e+00
0.000000000000000e+00 0.000000000000000e+00 0.000000000000000e+00
0.000000000000000e+00 0.000000000000000e+00 0.000000000000000e+00

0.000000000000000e+00 0.000000000000000e+00 0.000000000000000e+00
0.000000000000000e+00 0.000000000000000e+00 0.000000000000000e+00
0.000000000000000e+00 0.000000000000000e+00 0.000000000000000e+00

0.000000000000000e+00 0.000000000000000e+00 0.000000000000000e+00
0.000000000000000e+00 0.000000000000000e+00 0.000000000000000e+00
0.000000000000000e+00 0.000000000000000e+00 0.000000000000000e+00

0.000000000000000e+00 0.000000000000000e+00 0.000000000000000e+00
0.000000000000000e+00 0.000000000000000e+00 0.000000000000000e+00
0.000000000000000e+00 0.000000000000000e+00 0.000000000000000e+00

0.000000000000000e+00 0.000000000000000e+00 0.000000000000000e+00
0.000000000000000e+00 0.000000000000000e+00 0.000000000000000e+00
0.000000000000000e+00 0.000000000000000e+00 0.000000000000000e+00

0.000000000000000e+00 0.000000000000000e+00 0.000000000000000e+00
0.000000000000000e+00 0.000000000000000e+00 0.000000000000000e+00
0.000000000000000e+00 0.000000000000000e+00 0.000000000000000e+00

0.000000000000000e+00 0.000000000000000e+00 0.000000000000000e+00
0.000000000000000e+00 0.000000000000000e+00 0.000000000000000e+00
0.000000000000000e+00 0.000000000000000e+00 0.000000000000000e+00

0.000000000000000e+00 0.000000000000000e+00 0.000000000000000e+00
0.000000000000000e+00 0.000000000000000e+00 0.000000000000000e+00
0.000000000000000e+00 0.000000000000000e+00 0.000000000000000e+00

0.000000000000000e+00 0.000000000000000e+00 0.000000000000000e+00
0.000000000000000e+00 0.000000000000000e+00 0.000000000000000e+00
0.000000000000000e+00 0.000000000000000e+00 0.000000000000000e+00

0.000000000000000e+00 0.000000000000000e+00 0.000000000000000e+00
0.000000000000000e+00 0.000000000000000e+00 0.000000000000000e+00
0.000000000000000e+00 0.000000000000000e+00 0.000000000000000e+00

0.000000000000000e+00 0.000000000000000e+00 0.000000000000000e+00
0.000000000000000e+00 0.000000000000000e+00 0.000000000000000e+00
0.000000000000000e+00 0.000000000000000e+00 0.000000000000000e+00

0.000000000000000e+00 0.000000000000000e+00 0.000000000000000e+00
0.000000000000000e+00 0.000000000000000e+00 0.000000000000000e+00
0.000000000000000e+00 0.000000000000000e+00 0.000000000000000e+00

0.000000000000000e+00 0.000000000000000e+00 0.000000000000000e+00
0.000000000000000e+00 0.000000000000000e+00 0.000000000000000e+00
0.000000000000000e+00 0.000000000000000e+00 0.000000000000000e+00

0.000000000000000e+00 0.000000000000000e+00 0.000000000000000e+00
0.000000000000000e+00 0.000000000000000e+00 0.000000000000000e+00
0.000000000000000e+00 0.000000000000000e+00 0.000000000000000e+00

0.000000000000000e+00 0.000000000000000e+00 0.000000000000000e+00
0.000000000000000e+00 0.000000000000000e+00 0.000000000000000e+00
0.000000000000000e+00 0.000000000000000e+00 0.000000000000000e+00

0.000000000000000e+00 0.000000000000000e+00 0.000000000000000e+00
0.000000000000000e+00 0.000000000000000e+00 0.000000000000000e+00
0.000000000000000e+00 0.000000000000000e+00 0.000000000000000e+00

0.000000000000000e+00 0.000000000000000e+00 0.000000000000000e+00
0.000000000000000e+00 0.000000000000000e+00 0.000000000000000e+00
0.000000000000000e+00 0.000000000000000e+00 0.000000000000000e+00

0.000000000000000e+00 0.000000000000000e+00 0.000000000000000e+00
0.000000000000000e+00 0.000000000000000e+00 0.000000000000000e+00
0.000000000000000e+00 0.000000000000000e+00 0.000000000000000e+00

0.000000000000000e+00 0.000000000000000e+00 0.000000000000000e+00
0.000000000000000e+00 0.000000000000000e+00 0.000000000000000e+00
0.000000000000000e+00 0.000000000000000e+00 0.000000000000000e+00

0.000000000000000e+00 0.000000000000000e+00 0.000000000000000e+00
0.000000000000000e+00 0.000000000000000e+00 0.000000000000000e+00
0.000000000000000e+00 0.000000000000000e+00 0.000000000000000e+00

0.000000000000000e+00 0.000000000000000e+00 0.000000000000000e+00
0.000000000000000e+00 0.000000000000000e+00 0.000000000000000e+00
0.000000000000000e+00 0.000000000000000e+00 0.000000000000000e+00

0.000000000000000e+00 0.000000000000000e+00 0.000000000000000e+00
0.000000000000000e+00 0.000000000000000e+00 0.000000000000000e+00
0.000000000000000e+00 0.000000000000000e+00 0.000000000000000e+00

0.000000000000000e+00 0.000000000000000e+00 0.000000000000000e+00
0.000000000000000e+00 0.000000000000000e+00 0.000000000000000e+00
0.000000000000000e+00 0.000000000000000e+00 0.000000000000000e+00

0.000000000000000e+00 0.000000000000000e+00 0.000000000000000e+00
0.000000000000000e+00 0.000000000000000e+00 0.000000000000000e+00
0.000000000000000e+00 0.000000000000000e+00 0.000000000000000e+00

0.000000000000000e+00 0.000000000000000e+00 0.000000000000000e+00
0.000000000000000e+00 0.000000000000000e+00 0.000000000000000e+00
0.000000000000000e+00 0.000000000000000e+00 0.000000000000000e+00

0.000000000000000e+00 0.000000000000000e+00 0.000000000000000e+00
0.000000000000000e+00 0.000000000000000e+00 0.000000000000000e+00
0.000000000000000e+00 0.000000000000000e+00 0.000000000000000e+00

0.000000000000000e+00 0.000000000000000e+00 0.000000000000000e+00
0.000000000000000e+00 0.000000000000000e+00 0.000000000000000e+00
0.000000000000000e+00 0.000000000000000e+00 0.000000000000000e+00

0.000000000000000e+00 0.000000000000000e+00 0.000000000000000e+00
0.000000000000000e+00 0.000000000000000e+00 0.000000000000000e+00
0.000000000000000e+00 0.000000000000000e+00 0.000000000000000e+00

0.000000000000000e+00 0.000000000000000e+00 0.000000000000000e+00
0.000000000000000e+00 0.000000000000000e+00 0.000000000000000e+00
0.000000000000000e+00 0.000000000000000e+00 0.000000000000000e+00

0.000000000000000e+00 0.000000000000000e+00 0.000000000000000e+00
0.000000000000000e+00 0.000000000000000e+00 0.000000000000000e+00
0.000000000000000e+00 0.000000000000000e+00 0.000000000000000e+00

0.000000000000000e+00 0.000000000000000e+00 0.000000000000000e+00
0.000000000000000e+00 0.000000000000000e+00 0.000000000000000e+00
0.000000000000000e+00 0.000000000000000e+00 0.000000000000000e+00

0.000000000000000e+00 0.000000000000000e+00 0.000000000000000e+00
0.000000000000000e+00 0.000000000000000e+00 0.000000000000000e+00
0.000000000000000e+00 0.000000000000000e+00 0.000000000000000e+00

0.000000000000000e+00 0.000000000000000e+00 0.000000000000000e+00
0.000000000000000e+00 0.000000000000000e+00 0.000000000000000e+00
0.000000000000000e+00 0.000000000000000e+00 0.000000000000000e+00

0.000000000000000e+00 0.000000000000000e+00 0.000000000000000e+00
0.000000000000000e+00 0.000000000000000e+00 0.000000000000000e+00
0.000000000000000e+00 0.000000000000000e+00 0.000000000000000e+00

0.000000000000000e+00 0.000000000000000e+00 0.000000000000000e+00
0.000000000000000e+00 0.000000000000000e+00 0.000000000000000e+00
0.000000000000000e+00 0.000000000000000e+00 0.000000000000000e+00

0.000000000000000e+00 0.000000000000000e+00 0.000000000000000e+00
0.000000000000000e+00 0.000000000000000e+00 0.000000000000000e+00
0.000000000000000e+00 0.000000000000000e+00 0.000000000000000e+00

0.000000000000000e+00 0.000000000000000e+00 0.000000000000000e+00
0.000000000000000e+00 0.000000000000000e+00 0.000000000000000e+00
0.000000000000000e+00 0.000000000000000e+00 0.000000000000000e+00

0.000000000000000e+00 0.000000000000000e+00 0.000000000000000e+00
0.000000000000000e+00 0.000000000000000e+00 0.000000000000000e+00
0.000000000000000e+00 0.000000000000000e+00 0.000000000000000e+00

0.000000000000000e+00 0.000000000000000e+00 0.000000000000000e+00
0.000000000000000e+00 0.000000000000000e+00 0.000000000000000e+00
0.000000000000000e+00 0.000000000000000e+00 0.000000000000000e+00

0.000000000000000e+00 0.000000000000000e+00 0.000000000000000e+00
0.000000000000000e+00 0.000000000000000e+00 0.000000000000000e+00
0.000000000000000e+00 0.000000000000000e+00 0.000000000000000e+00

0.000000000000000e+00 0.000000000000000e+00 0.000000000000000e+00
0.000000000000000e+00 0.000000000000000e+00 0.000000000000000e+00
0.000000000000000e+00 0.000000000000000e+00 0.000000000000000e+00

0.000000000000000e+00 0.000000000000000e+00 0.000000000000000e+00
0.000000000000000e+00 0.000000000000000e+00 0.000000000000000e+00
0.000000000000000e+00 0.000000000000000e+00 0.000000000000000e+00

0.000000000000000e+00 0.000000000000000e+00 0.000000000000000e+00
0.000000000000000e+00 0.000000000000000e+00 0.000000000000000e+00
0.000000000000000e+00 0.000000000000000e+00 0.000000000000000e+00

0.000000000000000e+00 0.000000000000000e+00 0.000000000000000e+00
0.000000000000000e+00 0.000000000000000e+00 0.000000000000000e+00
0.000000000000000e+00 0.000000000000000e+00 0.000000000000000e+00

0.000000000000000e+00 0.000000000000000e+00 0.000000000000000e+00
0.000000000000000e+00 0.000000000000000e+00 0.000000000000000e+00
0.000000000000000e+00 0.000000000000000e+00 0.000000000000000e+00

0.000000000000000e+00 0.000000000000000e+00 0.000000000000000e+00
0.000000000000000e+00 0.000000000000000e+00 0.000000000000000e+00
0.000000000000000e+00 0.000000000000000e+00 0.000000000000000e+00

0.000000000000000e+00 0.000000000000000e+00 0.000000000000000e+00
0.000000000000000e+00 0.000000000000000e+00 0.000000000000000e+00
0.000000000000000e+00 0.000000000000000e+00 0.000000000000000e+00

0.000000000000000e+00 0.000000000000000e+00 0.000000000000000e+00
0.000000000000000e+00 0.000000000000000e+00 0.000000000000000e+00
0.000000000000000e+00 0.000000000000000e+00 0.000000000000000e+00

0.000000000000000e+00 0.000000000000000e+00 0.000000000000000e+00
0.000000000000000e+00 0.000000000000000e+00 0.000000000000000e+00
0.000000000000000e+00 0.000000000000000e+00 0.000000000000000e+00

0.000000000000000e+00 0.000000000000000e+00 0.000000000000000e+00
0.000000000000000e+00 0.000000000000000e+00 0.000000000000000e+00
0.000000000000000e+00 0.000000000000000e+00 0.000000000000000e+00

0.000000000000000e+00 0.000000000000000e+00 0.000000000000000e+00
0.000000000000000e+00 0.000000000000000e+00 0.000000000000000e+00
0.000000000000000e+00 0.000000000000000e+00 0.000000000000000e+00

0.000000000000000e+00 0.000000000000000e+00 0.000000000000000e+00
0.000000000000000e+00 0.000000000000000e+00 0.000000000000000e+00
0.000000000000000e+00 0.000000000000000e+00 0.000000000000000e+00

0.000000000000000e+00 0.000000000000000e+00 0.000000000000000e+00
0.000000000000000e+00 0.000000000000000e+00 0.000000000000000e+00
0.000000000000000e+00 0.000000000000000e+00 0.000000000000000e+00

0.000000000000000e+00 0.000000000000000e+00 0.000000000000000e+00
0.000000000000000e+00 0.000000000000000e+00 0.000000000000000e+00
0.000000000000000e+00 0.000000000000000e+00 0.000000000000000e+00

0.000000000000000e+00 0.000000000000000e+00 0.000000000000000e+00
0.000000000000000e+00 0.000000000000000e+00 0.000000000000000e+00
0.000000000000000e+00 0.000000000000000e+00 0.000000000000000e+00

0.000000000000000e+00 0.000000000000000e+00 0.000000000000000e+00
0.000000000000000e+00 0.000000000000000e+00 0.000000000000000e+00
0.000000000000000e+00 0.000000000000000e+00 0.000000000000000e+00

0.000000000000000e+00 0.000000000000000e+00 0.000000000000000e+00
0.000000000000000e+00 0.000000000000000e+00 0.000000000000000e+00
0.000000000000000e+00 0.000000000000000e+00 0.000000000000000e+00

0.000000000000000e+00 0.000000000000000e+00 0.000000000000000e+00
0.000000000000000e+00 0.000000000000000e+00 0.000000000000000e+00
0.000000000000000e+00 0.000000000000000e+00 0.000000000000000e+00

0.000000000000000e+00 0.000000000000000e+00 0.000000000000000e+00
0.000000000000000e+00 0.000000000000000e+00 0.000000000000000e+00
0.000000000000000e+00 0.000000000000000e+00 0.000000000000000e+00

0.000000000000000e+00 0.000000000000000e+00 0.000000000000000e+00
0.000000000000000e+00 0.000000000000000e+00 0.000000000000000e+00
0.000000000000000e+00 0.000000000000000e+00 0.000000000000000e+00

0.000000000000000e+00 0.000000000000000e+00 0.000000000000000e+00
0.000000000000000e+00 0.000000000000000e+00 0.000000000000000e+00
0.000000000000000e+00 0.000000000000000e+00 0.000000000000000e+00

0.000000000000000e+00 0.000000000000000e+00 0.000000000000000e+00
0.000000000000000e+00 0.000000000000000e+00 0.000000000000000e+00
0.000000000000000e+00 0.000000000000000e+00 0.000000000000000e+00

0.000000000000000e+00 0.000000000000000e+00 0.000000000000000e+00
0.000000000000000e+00 0.000000000000000e+00 0.000000000000000e+00
0.000000000000000e+00 0.000000000000000e+00 0.000000000000000e+00

0.000000000000000e+00 0.000000000000000e+00 0.000000000000000e+00
0.000000000000000e+00 0.000000000000000e+00 0.000000000000000e+00
0.000000000000000e+00 0.000000000000000e+00 0.000000000000000e+00

0.000000000000000e+00 0.000000000000000e+00 0.000000000000000e+00
0.000000000000000e+00 0.000000000000000e+00 0.000000000000000e+00
0.000000000000000e+00 0.000000000000000e+00 0.000000000000000e+00

0.000000000000000e+00 0.000000000000000e+00 0.000000000000000e+00
0.000000000000000e+00 0.000000000000000e+00 0.000000000000000e+00
0.000000000000000e+00 0.000000000000000e+00 0.000000000000000e+00

0.000000000000000e+00 0.000000000000000e+00 0.000000000000000e+00
0.000000000000000e+00 0.000000000000000e+00 0.000000000000000e+00
0.000000000000000e+00 0.000000000000000e+00 0.000000000000000e+00

0.000000000000000e+00 0.000000000000000e+00 0.000000000000000e+00
0.000000000000000e+00 0.000000000000000e+00 0.000000000000000e+00
0.000000000000000e+00 0.000000000000000e+00 0.000000000000000e+00

0.000000000000000e+00 0.000000000000000e+00 0.000000000000000e+00
0.000000000000000e+00 0.000000000000000e+00 0.000000000000000e+00
0.000000000000000e+00 0.000000000000000e+00 0.000000000000000e+00

0.000000000000000e+00 0.000000000000000e+00 0.000000000000000e+00
0.000000000000000e+00 0.000000000000000e+00 0.000000000000000e+00
0.000000000000000e+00 0.000000000000000e+00 0.000000000000000e+00

0.000000000000000e+00 0.000000000000000e+00 0.000000000000000e+00
0.000000000000000e+00 0.000000000000000e+00 0.000000000000000e+00
0.000000000000000e+00 0.000000000000000e+00 0.000000000000000e+00

0.000000000000000e+00 0.000000000000000e+00 0.000000000000000e+00
0.000000000000000e+00 0.000000000000000e+00 0.000000000000000e+00
0.000000000000000e+00 0.000000000000000e+00 0.000000000000000e+00

0.000000000000000e+00 0.000000000000000e+00 0.000000000000000e+00
0.000000000000000e+00 0.000000000000000e+00 0.000000000000000e+00
0.000000000000000e+00 0.000000000000000e+00 0.000000000000000e+00

0.000000000000000e+00 0.000000000000000e+00 0.000000000000000e+00
0.000000000000000e+00 0.000000000000000e+00 0.000000000000000e+00
0.000000000000000e+00 0.000000000000000e+00 0.000000000000000e+00

0.000000000000000e+00 0.000000000000000e+00 0.000000000000000e+00
0.000000000000000e+00 0.000000000000000e+00 0.000000000000000e+00
0.000000000000000e+00 0.000000000000000e+00 0.000000000000000e+00

0.000000000000000e+00 0.000000000000000e+00 0.000000000000000e+00
0.000000000000000e+00 0.000000000000000e+00 0.000000000000000e+00
0.000000000000000e+00 0.000000000000000e+00 0.000000000000000e+00

0.000000000000000e+00 0.000000000000000e+00 0.000000000000000e+00
0.000000000000000e+00 0.000000000000000e+00 0.000000000000000e+00
0.000000000000000e+00 0.000000000000000e+00 0.000000000000000e+00

0.000000000000000e+00 0.000000000000000e+00 0.000000000000000e+00
0.000000000000000e+00 0.000000000000000e+00 0.000000000000000e+00
0.000000000000000e+00 0.000000000000000e+00 0.000000000000000e+00

0.000000000000000e+00 0.000000000000000e+00 0.000000000000000e+00
0.000000000000000e+00 0.000000000000000e+00 0.000000000000000e+00
0.000000000000000e+00 0.000000000000000e+00 0.000000000000000e+00

0.000000000000000e+00 0.000000000000000e+00 0.000000000000000e+00
0.000000000000000e+00 0.000000000000000e+00 0.000000000000000e+00
0.000000000000000e+00 0.000000000000000e+00 0.000000000000000e+00

0.000000000000000e+00 0.000000000000000e+00 0.000000000000000e+00
0.000000000000000e+00 0.000000000000000e+00 0.000000000000000e+00
0.000000000000000e+00 0.000000000000000e+00 0.000000000000000e+00

0.000000000000000e+00 0.000000000000000e+00 0.000000000000000e+00
0.000000000000000e+00 0.000000000000000e+00 0.000000000000000e+00
0.000000000000000e+00 0.000000000000000e+00 0.000000000000000e+00

0.000000000000000e+00 0.000000000000000e+00 0.000000000000000e+00
0.000000000000000e+00 0.000000000000000e+00 0.000000000000000e+00
0.000000000000000e+00 0.000000000000000e+00 0.000000000000000e+00

0.000000000000000e+00 0.000000000000000e+00 0.000000000000000e+00
0.000000000000000e+00 0.000000000000000e+00 0.000000000000000e+00
0.000000000000000e+00 0.000000000000000e+00 0.000000000000000e+00

0.000000000000000e+00 0.000000000000000e+00 0.000000000000000e+00
0.000000000000000e+00 0.000000000000000e+00 0.000000000000000e+00
0.000000000000000e+00 0.000000000000000e+00 0.000000000000000e+00

0.000000000000000e+00 0.000000000000000e+00 0.000000000000000e+00
0.000000000000000e+00 0.000000000000000e+00 0.000000000000000e+00
0.000000000000000e+00 0.000000000000000e+00 0.000000000000000e+00

0.000000000000000e+00 0.000000000000000e+00 0.000000000000000e+00
0.000000000000000e+00 0.000000000000000e+00 0.000000000000000e+00
0.000000000000000e+00 0.000000000000000e+00 0.000000000000000e+00

0.000000000000000e+00 0.000000000000000e+00 0.000000000000000e+00
0.000000000000000e+00 0.000000000000000e+00 0.000000000000000e+00
0.000000000000000e+00 0.000000000000000e+00 0.000000000000000e+00

0.000000000000000e+00 0.000000000000000e+00 0.000000000000000e+00
0.000000000000000e+00 0.000000000000000e+00 0.000000000000000e+00
0.000000000000000e+00 0.000000000000000e+00 0.000000000000000e+00

0.000000000000000e+00 0.000000000000000e+00 0.000000000000000e+00
0.000000000000000e+00 0.000000000000000e+00 0.000000000000000e+00
0.000000000000000e+00 0.000000000000000e+00 0.000000000000000e+00

0.000000000000000e+00 0.000000000000000e+00 0.000000000000000e+00
0.000000000000000e+00 0.000000000000000e+00 0.000000000000000e+00
0.000000000000000e+00 0.000000000000000e+00 0.000000000000000e+00

0.000000000000000e+00 0.000000000000000e+00 0.000000000000000e+00
0.000000000000000e+00 0.000000000000000e+00 0.000000000000000e+00
0.000000000000000e+00 0.000000000000000e+00 0.000000000000000e+00

0.000000000000000e+00 0.000000000000000e+00 0.000000000000000e+00
0.000000000000000e+00 0.000000000000000e+00 0.000000000000000e+00
0.000000000000000e+00 0.000000000000000e+00 0.000000000000000e+00

0.000000000000000e+00 0.000000000000000e+00 0.000000000000000e+00
0.000000000000000e+00 0.000000000000000e+00 0.000000000000000e+00
0.000000000000000e+00 0.000000000000000e+00 0.000000000000000e+00

0.000000000000000e+00 0.000000000000000e+00 0.000000000000000e+00
0.000000000000000e+00 0.000000000000000e+00 0.000000000000000e+00
0.000000000000000e+00 0.000000000000000e+00 0.000000000000000e+00

0.000000000000000e+00 0.000000000000000e+00 0.000000000000000e+00
0.000000000000000e+00 0.000000000000000e+00 0.000000000000000e+00
0.000000000000000e+00 0.000000000000000e+00 0.000000000000000e+00

0.000000000000000e+00 0.000000000000000e+00 0.000000000000000e+00
0.000000000000000e+00 0.000000000000000e+00 0.000000000000000e+00
0.000000000000000e+00 0.000000000000000e+00 0.000000000000000e+00

0.000000000000000e+00 0.000000000000000e+00 0.000000000000000e+00
0.000000000000000e+00 0.000000000000000e+00 0.000000000000000e+00
0.000000000000000e+00 0.000000000000000e+00 0.000000000000000e+00

0.000000000000000e+00 0.000000000000000e+00 0.000000000000000e+00
0.000000000000000e+00 0.000000000000000e+00 0.000000000000000e+00
0.000000000000000e+00 0.000000000000000e+00 0.000000000000000e+00

0.000000000000000e+00 0.000000000000000e+00 0.000000000000000e+00
0.000000000000000e+00 0.000000000000000e+00 0.000000000000000e+00
0.000000000000000e+00 0.000000000000000e+00 0.000000000000000e+00

0.000000000000000e+00 0.000000000000000e+00 0.000000000000000e+00
0.000000000000000e+00 0.000000000000000e+00 0.000000000000000e+00
0.000000000000000e+00 0.000000000000000e+00 0.000000000000000e+00

0.000000000000000e+00 0.000000000000000e+00 0.000000000000000e+00
0.000000000000000e+00 0.000000000000000e+00 0.000000000000000e+00
0.000000000000000e+00 0.000000000000000e+00 0.000000000000000e+00

0.000000000000000e+00 0.000000000000000e+00 0.000000000000000e+00
0.000000000000000e+00 0.000000000000000e+00 0.000000000000000e+00
0.000000000000000e+00 0.000000000000000e+00 0.000000000000000e+00

0.000000000000000e+00 0.000000000000000e+00 0.000000000000000e+00
0.000000000000000e+00 0.000000000000000e+00 0.000000000000000e+00
0.000000000000000e+00 0.000000000000000e+00 0.000000000000000e+00

0.000000000000000e+00 0.000000000000000e+00 0.000000000000000e+00
0.000000000000000e+00 0.000000000000000e+00 0.000000000000000e+00
0.000000000000000e+00 0.000000000000000e+00 0.000000000000000e+00

0.000000000000000e+00 0.000000000000000e+00 0.000000000000000e+00
0.000000000000000e+00 0.000000000000000e+00 0.000000000000000e+00
0.000000000000000e+00 0.000000000000000e+00 0.000000000000000e+00

0.000000000000000e+00 0.000000000000000e+00 0.000000000000000e+00
0.000000000000000e+00 0.000000000000000e+00 0.000000000000000e+00
0.000000000000000e+00 0.000000000000000e+00 0.000000000000000e+00

0.000000000000000e+00 0.000000000000000e+00 0.000000000000000e+00
0.000000000000000e+00 0.000000000000000e+00 0.000000000000000e+00
0.000000000000000e+00 0.000000000000000e+00 0.000000000000000e+00

0.000000000000000e+00 0.000000000000000e+00 0.000000000000000e+00
0.000000000000000e+00 0.000000000000000e+00 0.000000000000000e+00
0.000000000000000e+00 0.000000000000000e+00 0.000000000000000e+00

0.000000000000000e+00 0.000000000000000e+00 0.000000000000000e+00
0.000000000000000e+00 0.000000000000000e+00 0.000000000000000e+00
0.000000000000000e+00 0.000000000000000e+00 0.000000000000000e+00

0.000000000000000e+00 0.000000000000000e+00 0.000000000000000e+00
0.000000000000000e+00 0.000000000000000e+00 0.000000000000000e+00
0.000000000000000e+00 0.000000000000000e+00 0.000000000000000e+00

0.000000000000000e+00 0.000000000000000e+00 0.000000000000000e+00
0.000000000000000e+00 0.000000000000000e+00 0.000000000000000e+00
0.000000000000000e+00 0.000000000000000e+00 0.000000000000000e+00

0.000000000000000e+00 0.000000000000000e+00 0.000000000000000e+00
0.000000000000000e+00 0.000000000000000e+00 0.000000000000000e+00
0.000000000000000e+00 0.000000000000000e+00 0.000000000000000e+00

0.000000000000000e+00 0.000000000000000e+00 0.000000000000000e+00
0.000000000000000e+00 0.000000000000000e+00 0.000000000000000e+00
0.000000000000000e+00 0.000000000000000e+00 0.000000000000000e+00

0.000000000000000e+00 0.000000000000000e+00 0.000000000000000e+00
0.000000000000000e+00 0.000000000000000e+00 0.000000000000000e+00
0.000000000000000e+00 0.000000000000000e+00 0.000000000000000e+00

0.000000000000000e+00 0.000000000000000e+00 0.000000000000000e+00
0.000000000000000e+00 0.000000000000000e+00 0.000000000000000e+00
0.000000000000000e+00 0.000000000000000e+00 0.000000000000000e+00

0.000000000000000e+00 0.000000000000000e+00 0.000000000000000e+00
0.000000000000000e+00 0.000000000000000e+00 0.000000000000000e+00
0.000000000000000e+00 0.000000000000000e+00 0.000000000000000e+00

0.000000000000000e+00 0.000000000000000e+00 0.000000000000000e+00
0.000000000000000e+00 0.000000000000000e+00 0.000000000000000e+00
0.000000000000000e+00 0.000000000000000e+00 0.000000000000000e+00

0.000000000000000e+00 0.000000000000000e+00 0.000000000000000e+00
0.000000000000000e+00 0.000000000000000e+00 0.000000000000000e+00
0.000000000000000e+00 0.000000000000000e+00 0.000000000000000e+00

0.000000000000000e+00 0.000000000000000e+00 0.000000000000000e+00
0.000000000000000e+00 0.000000000000000e+00 0.000000000000000e+00
0.000000000000000e+00 0.000000000000000e+00 0.000000000000000e+00

0.000000000000000e+00 0.000000000000000e+00 0.000000000000000e+00
0.000000000000000e+00 0.000000000000000e+00 0.000000000000000e+00
0.000000000000000e+00 0.000000000000000e+00 0.000000000000000e+00

0.000000000000000e+00 0.000000000000000e+00 0.000000000000000e+00
0.000000000000000e+00 0.000000000000000e+00 0.000000000000000e+00
0.000000000000000e+00 0.000000000000000e+00 0.000000000000000e+00

0.000000000000000e+00 0.000000000000000e+00 0.000000000000000e+00
0.000000000000000e+00 0.000000000000000e+00 0.000000000000000e+00
0.000000000000000e+00 0.000000000000000e+00 0.000000000000000e+00

0.000000000000000e+00 0.000000000000000e+00 0.000000000000000e+00
0.000000000000000e+00 0.000000000000000e+00 0.000000000000000e+00
0.000000000000000e+00 0.000000000000000e+00 0.000000000000000e+00

0.000000000000000e+00 0.000000000000000e+00 0.000000000000000e+00
0.000000000000000e+00 0.000000000000000e+00 0.000000000000000e+00
0.000000000000000e+00 0.000000000000000e+00 0.000000000000000e+00

0.000000000000000e+00 0.000000000000000e+00 0.000000000000000e+00
0.000000000000000e+00 0.000000000000000e+00 0.000000000000000e+00
0.000000000000000e+00 0.000000000000000e+00 0.000000000000000e+00

0.000000000000000e+00 0.000000000000000e+00 0.000000000000000e+00
0.000000000000000e+00 0.000000000000000e+00 0.000000000000000e+00
0.000000000000000e+00 0.000000000000000e+00 0.000000000000000e+00

0.000000000000000e+00 0.000000000000000e+00 0.000000000000000e+00
0.000000000000000e+00 0.000000000000000e+00 0.000000000000000e+00
0.000000000000000e+00 0.000000000000000e+00 0.000000000000000e+00

0.000000000000000e+00 0.000000000000000e+00 0.000000000000000e+00
0.000000000000000e+00 0.000000000000000e+00 0.000000000000000e+00
0.000000000000000e+00 0.000000000000000e+00 0.000000000000000e+00

0.000000000000000e+00 0.000000000000000e+00 0.000000000000000e+00
0.000000000000000e+00 0.000000000000000e+00 0.000000000000000e+00
0.000000000000000e+00 0.000000000000000e+00 0.000000000000000e+00

0.000000000000000e+00 0.000000000000000e+00 0.000000000000000e+00
0.000000000000000e+00 0.000000000000000e+00 0.000000000000000e+00
0.000000000000000e+00 0.000000000000000e+00 0.000000000000000e+00

0.000000000000000e+00 0.000000000000000e+00 0.000000000000000e+00
0.000000000000000e+00 0.000000000000000e+00 0.000000000000000e+00
0.000000000000000e+00 0.000000000000000e+00 0.000000000000000e+00

0.000000000000000e+00 0.000000000000000e+00 0.000000000000000e+00
0.000000000000000e+00 0.000000000000000e+00 0.000000000000000e+00
0.000000000000000e+00 0.000000000000000e+00 0.000000000000000e+00

0.000000000000000e+00 0.000000000000000e+00 0.000000000000000e+00
0.000000000000000e+00 0.000000000000000e+00 0.000000000000000e+00
0.000000000000000e+00 0.000000000000000e+00 0.000000000000000e+00

0.000000000000000e+00 0.000000000000000e+00 0.000000000000000e+00
0.000000000000000e+00 0.000000000000000e+00 0.000000000000000e+00
0.000000000000000e+00 0.000000000000000e+00 0.000000000000000e+00

0.000000000000000e+00 0.000000000000000e+00 0.000000000000000e+00
0.000000000000000e+00 0.000000000000000e+00 0.000000000000000e+00
0.000000000000000e+00 0.000000000000000e+00 0.000000000000000e+00

0.000000000000000e+00 0.000000000000000e+00 0.000000000000000e+00
0.000000000000000e+00 0.000000000000000e+00 0.000000000000000e+00
0.000000000000000e+00 0.000000000000000e+00 0.000000000000000e+00

0.000000000000000e+00 0.000000000000000e+00 0.000000000000000e+00
0.000000000000000e+00 0.000000000000000e+00 0.000000000000000e+00
0.000000000000000e+00 0.000000000000000e+00 0.000000000000000e+00

0.000000000000000e+00 0.000000000000000e+00 0.000000000000000e+00
0.000000000000000e+00 0.000000000000000e+00 0.000000000000000e+00
0.000000000000000e+00 0.000000000000000e+00 0.000000000000000e+00

0.000000000000000e+00 0.000000000000000e+00 0.000000000000000e+00
0.000000000000000e+00 0.000000000000000e+00 0.000000000000000e+00
0.000000000000000e+00 0.000000000000000e+00 0.000000000000000e+00

0.000000000000000e+00 0.000000000000000e+00 0.000000000000000e+00
0.000000000000000e+00 0.000000000000000e+00 0.000000000000000e+00
0.000000000000000e+00 0.000000000000000e+00 0.000000000000000e+00

0.000000000000000e+00 0.000000000000000e+00 0.000000000000000e+00
0.000000000000000e+00 0.000000000000000e+00 0.000000000000000e+00
0.000000000000000e+00 0.000000000000000e+00 0.000000000000000e+00

0.000000000000000e+00 0.000000000000000e+00 0.000000000000000e+00
0.000000000000000e+00 0.000000000000000e+00 0.000000000000000e+00
0.000000000000000e+00 0.000000000000000e+00 0.000000000000000e+00

0.000000000000000e+00 0.000000000000000e+00 0.000000000000000e+00
0.000000000000000e+00 0.000000000000000e+00 0.000000000000000e+00
0.000000000000000e+00 0.000000000000000e+00 0.000000000000000e+00

0.000000000000000e+00 0.000000000000000e+00 0.000000000000000e+00
0.000000000000000e+00 0.000000000000000e+00 0.000000000000000e+00
0.000000000000000e+00 0.000000000000000e+00 0.000000000000000e+00

0.000000000000000e+00 0.000000000000000e+00 0.000000000000000e+00
0.000000000000000e+00 0.000000000000000e+00 0.000000000000000e+00
0.000000000000000e+00 0.000000000000000e+00 0.000000000000000e+00

0.000000000000000e+00 0.000000000000000e+00 0.000000000000000e+00
0.000000000000000e+00 0.000000000000000e+00 0.000000000000000e+00
0.000000000000000e+00 0.000000000000000e+00 0.000000000000000e+00

0.000000000000000e+00 0.000000000000000e+00 0.000000000000000e+00
0.000000000000000e+00 0.000000000000000e+00 0.000000000000000e+00
0.000000000000000e+00 0.000000000000000e+00 0.000000000000000e+00

0.000000000000000e+00 0.000000000000000e+00 0.000000000000000e+00
0.000000000000000e+00 0.000000000000000e+00 0.000000000000000e+00
0.000000000000000e+00 0.000000000000000e+00 0.000000000000000e+00

0.000000000000000e+00 0.000000000000000e+00 0.000000000000000e+00
0.000000000000000e+00 0.000000000000000e+00 0.000000000000000e+00
0.000000000000000e+00 0.000000000000000e+00 0.000000000000000e+00

0.000000000000000e+00 0.000000000000000e+00 0.000000000000000e+00
0.000000000000000e+00 0.000000000000000e+00 0.000000000000000e+00
0.000000000000000e+00 0.000000000000000e+00 0.000000000000000e+00

0.000000000000000e+00 0.000000000000000e+00 0.000000000000000e+00
0.000000000000000e+00 0.000000000000000e+00 0.000000000000000e+00
0.000000000000000e+00 0.000000000000000e+00 0.000000000000000e+00

0.000000000000000e+00 0.000000000000000e+00 0.000000000000000e+00
0.000000000000000e+00 0.000000000000000e+00 0.000000000000000e+00
0.000000000000000e+00 0.000000000000000e+00 0.000000000000000e+00

0.000000000000000e+00 0.000000000000000e+00 0.000000000000000e+00
0.000000000000000e+00 0.000000000000000e+00 0.000000000000000e+00
0.000000000000000e+00 0.000000000000000e+00 0.000000000000000e+00

0.000000000000000e+00 0.000000000000000e+00 0.000000000000000e+00
0.000000000000000e+00 0.000000000000000e+00 0.000000000000000e+00
0.000000000000000e+00 0.000000000000000e+00 0.000000000000000e+00

0.000000000000000e+00 0.000000000000000e+00 0.000000000000000e+00
0.000000000000000e+00 0.000000000000000e+00 0.000000000000000e+00
0.000000000000000e+00 0.000000000000000e+00 0.000000000000000e+00

0.000000000000000e+00 0.000000000000000e+00 0.000000000000000e+00
0.000000000000000e+00 0.000000000000000e+00 0.000000000000000e+00
0.000000000000000e+00 0.000000000000000e+00 0.000000000000000e+00

0.000000000000000e+00 0.000000000000000e+00 0.000000000000000e+00
0.000000000000000e+00 0.000000000000000e+00 0.000000000000000e+00
0.000000000000000e+00 0.000000000000000e+00 0.000000000000000e+00

0.000000000000000e+00 0.000000000000000e+00 0.000000000000000e+00
0.000000000000000e+00 0.000000000000000e+00 0.000000000000000e+00
0.000000000000000e+00 0.000000000000000e+00 0.000000000000000e+00

0.000000000000000e+00 0.000000000000000e+00 0.000000000000000e+00
0.000000000000000e+00 0.000000000000000e+00 0.000000000000000e+00
0.000000000000000e+00 0.000000000000000e+00 0.000000000000000e+00

0.000000000000000e+00 0.000000000000000e+00 0.000000000000000e+00
0.000000000000000e+00 0.000000000000000e+00 0.000000000000000e+00
0.000000000000000e+00 0.000000000000000e+00 0.000000000000000e+00

0.000000000000000e+00 0.000000000000000e+00 0.000000000000000e+00
0.000000000000000e+00 0.000000000000000e+00 0.000000000000000e+00
0.000000000000000e+00 0.000000000000000e+00 0.000000000000000e+00

0.000000000000000e+00 0.000000000000000e+00 0.000000000000000e+00
0.000000000000000e+00 0.000000000000000e+00 0.000000000000000e+00
0.000000000000000e+00 0.000000000000000e+00 0.000000000000000e+00

0.000000000000000e+00 0.000000000000000e+00 0.000000000000000e+00
0.000000000000000e+00 0.000000000000000e+00 0.000000000000000e+00
0.000000000000000e+00 0.000000000000000e+00 0.000000000000000e+00

0.000000000000000e+00 0.000000000000000e+00 0.000000000000000e+00
0.000000000000000e+00 0.000000000000000e+00 0.000000000000000e+00
0.000000000000000e+00 0.000000000000000e+00 0.000000000000000e+00

0.000000000000000e+00 0.000000000000000e+00 0.000000000000000e+00
0.000000000000000e+00 0.000000000000000e+00 0.000000000000000e+00
0.000000000000000e+00 0.000000000000000e+00 0.000000000000000e+00

0.000000000000000e+00 0.000000000000000e+00 0.000000000000000e+00
0.000000000000000e+00 0.000000000000000e+00 0.000000000000000e+00
0.000000000000000e+00 0.000000000000000e+00 0.000000000000000e+00

0.000000000000000e+00 0.000000000000000e+00 0.000000000000000e+00
0.000000000000000e+00 0.000000000000000e+00 0.000000000000000e+00
0.000000000000000e+00 0.000000000000000e+00 0.000000000000000e+00

0.000000000000000e+00 0.000000000000000e+00 0.000000000000000e+00
0.000000000000000e+00 0.000000000000000e+00 0.000000000000000e+00
0.000000000000000e+00 0.000000000000000e+00 0.000000000000000e+00

0.000000000000000e+00 0.000000000000000e+00 0.000000000000000e+00
0.000000000000000e+00 0.000000000000000e+00 0.000000000000000e+00
0.000000000000000e+00 0.000000000000000e+00 0.000000000000000e+00

0.000000000000000e+00 0.000000000000000e+00 0.000000000000000e+00
0.000000000000000e+00 0.000000000000000e+00 0.000000000000000e+00
0.000000000000000e+00 0.000000000000000e+00 0.000000000000000e+00

0.000000000000000e+00 0.000000000000000e+00 0.000000000000000e+00
0.000000000000000e+00 0.000000000000000e+00 0.000000000000000e+00
0.000000000000000e+00 0.000000000000000e+00 0.000000000000000e+00

0.000000000000000e+00 0.000000000000000e+00 0.000000000000000e+00
0.000000000000000e+00 0.000000000000000e+00 0.000000000000000e+00
0.000000000000000e+00 0.000000000000000e+00 0.000000000000000e+00

0.000000000000000e+00 0.000000000000000e+00 0.000000000000000e+00
0.000000000000000e+00 0.000000000000000e+00 0.000000000000000e+00
0.000000000000000e+00 0.000000000000000e+00 0.000000000000000e+00

0.000000000000000e+00 0.000000000000000e+00 0.000000000000000e+00
0.000000000000000e+00 0.000000000000000e+00 0.000000000000000e+00
0.000000000000000e+00 0.000000000000000e+00 0.000000000000000e+00

0.000000000000000e+00 0.000000000000000e+00 0.000000000000000e+00
0.000000000000000e+00 0.000000000000000e+00 0.000000000000000e+00
0.000000000000000e+00 0.000000000000000e+00 0.000000000000000e+00

0.000000000000000e+00 0.000000000000000e+00 0.000000000000000e+00
0.000000000000000e+00 0.000000000000000e+00 0.000000000000000e+00
0.000000000000000e+00 0.000000000000000e+00 0.000000000000000e+00

0.000000000000000e+00 0.000000000000000e+00 0.000000000000000e+00
0.000000000000000e+00 0.000000000000000e+00 0.000000000000000e+00
0.000000000000000e+00 0.000000000000000e+00 0.000000000000000e+00

0.000000000000000e+00 0.000000000000000e+00 0.000000000000000e+00
0.000000000000000e+00 0.000000000000000e+00 0.000000000000000e+00
0.000000000000000e+00 0.000000000000000e+00 0.000000000000000e+00

0.000000000000000e+00 0.000000000000000e+00 0.000000000000000e+00
0.000000000000000e+00 0.000000000000000e+00 0.000000000000000e+00
0.000000000000000e+00 0.000000000000000e+00 0.000000000000000e+00

0.000000000000000e+00 0.000000000000000e+00 0.000000000000000e+00
0.000000000000000e+00 0.000000000000000e+00 0.000000000000000e+00
0.000000000000000e+00 0.000000000000000e+00 0.000000000000000e+00

0.000000000000000e+00 0.000000000000000e+00 0.000000000000000e+00
0.000000000000000e+00 0.000000000000000e+00 0.000000000000000e+00
0.000000000000000e+00 0.000000000000000e+00 0.000000000000000e+00

0.000000000000000e+00 0.000000000000000e+00 0.000000000000000e+00
0.000000000000000e+00 0.000000000000000e+00 0.000000000000000e+00
0.000000000000000e+00 0.000000000000000e+00 0.000000000000000e+00

0.000000000000000e+00 0.000000000000000e+00 0.000000000000000e+00
0.000000000000000e+00 0.000000000000000e+00 0.000000000000000e+00
0.000000000000000e+00 0.000000000000000e+00 0.000000000000000e+00

0.000000000000000e+00 0.000000000000000e+00 0.000000000000000e+00
0.000000000000000e+00 0.000000000000000e+00 0.000000000000000e+00
0.000000000000000e+00 0.000000000000000e+00 0.000000000000000e+00

0.000000000000000e+00 0.000000000000000e+00 0.000000000000000e+00
0.000000000000000e+00 0.000000000000000e+00 0.000000000000000e+00
0.000000000000000e+00 0.000000000000000e+00 0.000000000000000e+00

0.000000000000000e+00 0.000000000000000e+00 0.000000000000000e+00
0.000000000000000e+00 0.000000000000000e+00 0.000000000000000e+00
0.000000000000000e+00 0.000000000000000e+00 0.000000000000000e+00

0.000000000000000e+00 0.000000000000000e+00 0.000000000000000e+00
0.000000000000000e+00 0.000000000000000e+00 0.000000000000000e+00
0.000000000000000e+00 0.000000000000000e+00 0.000000000000000e+00

0.000000000000000e+00 0.000000000000000e+00 0.000000000000000e+00
0.000000000000000e+00 0.000000000000000e+00 0.000000000000000e+00
0.000000000000000e+00 0.000000000000000e+00 0.000000000000000e+00

0.000000000000000e+00 0.000000000000000e+00 0.000000000000000e+00
0.000000000000000e+00 0.000000000000000e+00 0.000000000000000e+00
0.000000000000000e+00 0.000000000000000e+00 0.000000000000000e+00

0.000000000000000e+00 0.000000000000000e+00 0.000000000000000e+00
0.000000000000000e+00 0.000000000000000e+00 0.000000000000000e+00
0.000000000000000e+00 0.000000000000000e+00 0.000000000000000e+00

0.000000000000000e+00 0.000000000000000e+00 0.000000000000000e+00
0.000000000000000e+00 0.000000000000000e+00 0.000000000000000e+00
0.000000000000000e+00 0.000000000000000e+00 0.000000000000000e+00

0.000000000000000e+00 0.000000000000000e+00 0.000000000000000e+00
0.000000000000000e+00 0.000000000000000e+00 0.000000000000000e+00
0.000000000000000e+00 0.000000000000000e+00 0.000000000000000e+00

0.000000000000000e+00 0.000000000000000e+00 0.000000000000000e+00
0.000000000000000e+00 0.000000000000000e+00 0.000000000000000e+00
0.000000000000000e+00 0.000000000000000e+00 0.000000000000000e+00

0.000000000000000e+00 0.000000000000000e+00 0.000000000000000e+00
0.000000000000000e+00 0.000000000000000e+00 0.000000000000000e+00
0.000000000000000e+00 0.000000000000000e+00 0.000000000000000e+00

0.000000000000000e+00 0.000000000000000e+00 0.000000000000000e+00
0.000000000000000e+00 0.000000000000000e+00 0.000000000000000e+00
0.000000000000000e+00 0.000000000000000e+00 0.000000000000000e+00

0.000000000000000e+00 0.000000000000000e+00 0.000000000000000e+00
0.000000000000000e+00 0.000000000000000e+00 0.000000000000000e+00
0.000000000000000e+00 0.000000000000000e+00 0.000000000000000e+00

0.000000000000000e+00 0.000000000000000e+00 0.000000000000000e+00
0.000000000000000e+00 0.000000000000000e+00 0.000000000000000e+00
0.000000000000000e+00 0.000000000000000e+00 0.000000000000000e+00

0.000000000000000e+00 0.000000000000000e+00 0.000000000000000e+00
0.000000000000000e+00 0.000000000000000e+00 0.000000000000000e+00
0.000000000000000e+00 0.000000000000000e+00 0.000000000000000e+00

0.000000000000000e+00 0.000000000000000e+00 0.000000000000000e+00
0.000000000000000e+00 0.000000000000000e+00 0.000000000000000e+00
0.000000000000000e+00 0.000000000000000e+00 0.000000000000000e+00

0.000000000000000e+00 0.000000000000000e+00 0.000000000000000e+00
0.000000000000000e+00 0.000000000000000e+00 0.000000000000000e+00
0.000000000000000e+00 0.000000000000000e+00 0.000000000000000e+00

0.000000000000000e+00 0.000000000000000e+00 0.000000000000000e+00
0.000000000000000e+00 0.000000000000000e+00 0.000000000000000e+00
0.000000000000000e+00 0.000000000000000e+00 0.000000000000000e+00

0.000000000000000e+00 0.000000000000000e+00 0.000000000000000e+00
0.000000000000000e+00 0.000000000000000e+00 0.000000000000000e+00
0.000000000000000e+00 0.000000000000000e+00 0.000000000000000e+00

0.000000000000000e+00 0.000000000000000e+00 0.000000000000000e+00
0.000000000000000e+00 0.000000000000000e+00 0.000000000000000e+00
0.000000000000000e+00 0.000000000000000e+00 0.000000000000000e+00

0.000000000000000e+00 0.000000000000000e+00 0.000000000000000e+00
0.000000000000000e+00 0.000000000000000e+00 0.000000000000000e+00
0.000000000000000e+00 0.000000000000000e+00 0.000000000000000e+00

0.000000000000000e+00 0.000000000000000e+00 0.000000000000000e+00
0.000000000000000e+00 0.000000000000000e+00 0.000000000000000e+00
0.000000000000000e+00 0.000000000000000e+00 0.000000000000000e+00

0.000000000000000e+00 0.000000000000000e+00 0.000000000000000e+00
0.000000000000000e+00 0.000000000000000e+00 0.000000000000000e+00
0.000000000000000e+00 0.000000000000000e+00 0.000000000000000e+00

0.000000000000000e+00 0.000000000000000e+00 0.000000000000000e+00
0.000000000000000e+00 0.000000000000000e+00 0.000000000000000e+00
0.000000000000000e+00 0.000000000000000e+00 0.000000000000000e+00

0.000000000000000e+00 0.000000000000000e+00 0.000000000000000e+00
0.000000000000000e+00 0.000000000000000e+00 0.000000000000000e+00
0.000000000000000e+00 0.000000000000000e+00 0.000000000000000e+00

0.000000000000000e+00 0.000000000000000e+00 0.000000000000000e+00
0.000000000000000e+00 0.000000000000000e+00 0.000000000000000e+00
0.000000000000000e+00 0.000000000000000e+00 0.000000000000000e+00

0.000000000000000e+00 0.000000000000000e+00 0.000000000000000e+00
0.000000000000000e+00 0.000000000000000e+00 0.000000000000000e+00
0.000000000000000e+00 0.000000000000000e+00 0.000000000000000e+00

0.000000000000000e+00 0.000000000000000e+00 0.000000000000000e+00
0.000000000000000e+00 0.000000000000000e+00 0.000000000000000e+00
0.000000000000000e+00 0.000000000000000e+00 0.000000000000000e+00

0.000000000000000e+00 0.000000000000000e+00 0.000000000000000e+00
0.000000000000000e+00 0.000000000000000e+00 0.000000000000000e+00
0.000000000000000e+00 0.000000000000000e+00 0.000000000000000e+00

0.000000000000000e+00 0.000000000000000e+00 0.000000000000000e+00
0.000000000000000e+00 0.000000000000000e+00 0.000000000000000e+00
0.000000000000000e+00 0.000000000000000e+00 0.000000000000000e+00

0.000000000000000e+00 0.000000000000000e+00 0.000000000000000e+00
0.000000000000000e+00 0.000000000000000e+00 0.000000000000000e+00
0.000000000000000e+00 0.000000000000000e+00 0.000000000000000e+00

0.000000000000000e+00 0.000000000000000e+00 0.000000000000000e+00
0.000000000000000e+00 0.000000000000000e+00 0.000000000000000e+00
0.000000000000000e+00 0.000000000000000e+00 0.000000000000000e+00

0.000000000000000e+00 0.000000000000000e+00 0.000000000000000e+00
0.000000000000000e+00 0.000000000000000e+00 0.000000000000000e+00
0.000000000000000e+00 0.000000000000000e+00 0.000000000000000e+00

0.000000000000000e+00 0.000000000000000e+00 0.000000000000000e+00
0.000000000000000e+00 0.000000000000000e+00 0.000000000000000e+00
0.000000000000000e+00 0.000000000000000e+00 0.000000000000000e+00

0.000000000000000e+00 0.000000000000000e+00 0.000000000000000e+00
0.000000000000000e+00 0.000000000000000e+00 0.000000000000000e+00
0.000000000000000e+00 0.000000000000000e+00 0.000000000000000e+00

0.000000000000000e+00 0.000000000000000e+00 0.000000000000000e+00
0.000000000000000e+00 0.000000000000000e+00 0.000000000000000e+00
0.000000000000000e+00 0.000000000000000e+00 0.000000000000000e+00

0.000000000000000e+00 0.000000000000000e+00 0.000000000000000e+00
0.000000000000000e+00 0.000000000000000e+00 0.000000000000000e+00
0.000000000000000e+00 0.000000000000000e+00 0.000000000000000e+00

0.000000000000000e+00 0.000000000000000e+00 0.000000000000000e+00
0.000000000000000e+00 0.000000000000000e+00 0.000000000000000e+00
0.000000000000000e+00 0.000000000000000e+00 0.000000000000000e+00

0.000000000000000e+00 0.000000000000000e+00 0.000000000000000e+00
0.000000000000000e+00 0.000000000000000e+00 0.000000000000000e+00
0.000000000000000e+00 0.000000000000000e+00 0.000000000000000e+00

0.000000000000000e+00 0.000000000000000e+00 0.000000000000000e+00
0.000000000000000e+00 0.000000000000000e+00 0.000000000000000e+00
0.000000000000000e+00 0.000000000000000e+00 0.000000000000000e+00

0.000000000000000e+00 0.000000000000000e+00 0.000000000000000e+00
0.000000000000000e+00 0.000000000000000e+00 0.000000000000000e+00
0.000000000000000e+00 0.000000000000000e+00 0.000000000000000e+00

0.000000000000000e+00 0.000000000000000e+00 0.000000000000000e+00
0.000000000000000e+00 0.000000000000000e+00 0.000000000000000e+00
0.000000000000000e+00 0.000000000000000e+00 0.000000000000000e+00

0.000000000000000e+00 0.000000000000000e+00 0.000000000000000e+00
0.000000000000000e+00 0.000000000000000e+00 0.000000000000000e+00
0.000000000000000e+00 0.000000000000000e+00 0.000000000000000e+00

0.000000000000000e+00 0.000000000000000e+00 0.000000000000000e+00
0.000000000000000e+00 0.000000000000000e+00 0.000000000000000e+00
0.000000000000000e+00 0.000000000000000e+00 0.000000000000000e+00

0.000000000000000e+00 0.000000000000000e+00 0.000000000000000e+00
0.000000000000000e+00 0.000000000000000e+00 0.000000000000000e+00
0.000000000000000e+00 0.000000000000000e+00 0.000000000000000e+00

0.000000000000000e+00 0.000000000000000e+00 0.000000000000000e+00
0.000000000000000e+00 0.000000000000000e+00 0.000000000000000e+00
0.000000000000000e+00 0.000000000000000e+00 0.000000000000000e+00

0.000000000000000e+00 0.000000000000000e+00 0.000000000000000e+00
0.000000000000000e+00 0.000000000000000e+00 0.000000000000000e+00
0.000000000000000e+00 0.000000000000000e+00 0.000000000000000e+00

0.000000000000000e+00 0.000000000000000e+00 0.000000000000000e+00
0.000000000000000e+00 0.000000000000000e+00 0.000000000000000e+00
0.000000000000000e+00 0.000000000000000e+00 0.000000000000000e+00

0.000000000000000e+00 0.000000000000000e+00 0.000000000000000e+00
0.000000000000000e+00 0.000000000000000e+00 0.000000000000000e+00
0.000000000000000e+00 0.000000000000000e+00 0.000000000000000e+00

0.000000000000000e+00 0.000000000000000e+00 0.000000000000000e+00
0.000000000000000e+00 0.000000000000000e+00 0.000000000000000e+00
0.000000000000000e+00 0.000000000000000e+00 0.000000000000000e+00

0.000000000000000e+00 0.000000000000000e+00 0.000000000000000e+00
0.000000000000000e+00 0.000000000000000e+00 0.000000000000000e+00
0.000000000000000e+00 0.000000000000000e+00 0.000000000000000e+00

0.000000000000000e+00 0.000000000000000e+00 0.000000000000000e+00
0.000000000000000e+00 0.000000000000000e+00 0.000000000000000e+00
0.000000000000000e+00 0.000000000000000e+00 0.000000000000000e+00

0.000000000000000e+00 0.000000000000000e+00 0.000000000000000e+00
0.000000000000000e+00 0.000000000000000e+00 0.000000000000000e+00
0.000000000000000e+00 0.000000000000000e+00 0.000000000000000e+00

0.000000000000000e+00 0.000000000000000e+00 0.000000000000000e+00
0.000000000000000e+00 0.000000000000000e+00 0.000000000000000e+00
0.000000000000000e+00 0.000000000000000e+00 0.000000000000000e+00

0.000000000000000e+00 0.000000000000000e+00 0.000000000000000e+00
0.000000000000000e+00 0.000000000000000e+00 0.000000000000000e+00
0.000000000000000e+00 0.000000000000000e+00 0.000000000000000e+00

0.000000000000000e+00 0.000000000000000e+00 0.000000000000000e+00
0.000000000000000e+00 0.000000000000000e+00 0.000000000000000e+00
0.000000000000000e+00 0.000000000000000e+00 0.000000000000000e+00

0.000000000000000e+00 0.000000000000000e+00 0.000000000000000e+00
0.000000000000000e+00 0.000000000000000e+00 0.000000000000000e+00
0.000000000000000e+00 0.000000000000000e+00 0.000000000000000e+00

0.000000000000000e+00 0.000000000000000e+00 0.000000000000000e+00
0.000000000000000e+00 0.000000000000000e+00 0.000000000000000e+00
0.000000000000000e+00 0.000000000000000e+00 0.000000000000000e+00

0.000000000000000e+00 0.000000000000000e+00 0.000000000000000e+00
0.000000000000000e+00 0.000000000000000e+00 0.000000000000000e+00
0.000000000000000e+00 0.000000000000000e+00 0.000000000000000e+00

0.000000000000000e+00 0.000000000000000e+00 0.000000000000000e+00
0.000000000000000e+00 0.000000000000000e+00 0.000000000000000e+00
0.000000000000000e+00 0.000000000000000e+00 0.000000000000000e+00

0.000000000000000e+00 0.000000000000000e+00 0.000000000000000e+00
0.000000000000000e+00 0.000000000000000e+00 0.000000000000000e+00
0.000000000000000e+00 0.000000000000000e+00 0.000000000000000e+00

0.000000000000000e+00 0.000000000000000e+00 0.000000000000000e+00
0.000000000000000e+00 0.000000000000000e+00 0.000000000000000e+00
0.000000000000000e+00 0.000000000000000e+00 0.000000000000000e+00

0.000000000000000e+00 0.000000000000000e+00 0.000000000000000e+00
0.000000000000000e+00 0.000000000000000e+00 0.000000000000000e+00
0.000000000000000e+00 0.000000000000000e+00 0.000000000000000e+00

0.000000000000000e+00 0.000000000000000e+00 0.000000000000000e+00
0.000000000000000e+00 0.000000000000000e+00 0.000000000000000e+00
0.000000000000000e+00 0.000000000000000e+00 0.000000000000000e+00

0.000000000000000e+00 0.000000000000000e+00 0.000000000000000e+00
0.000000000000000e+00 0.000000000000000e+00 0.000000000000000e+00
0.000000000000000e+00 0.000000000000000e+00 0.000000000000000e+00

0.000000000000000e+00 0.000000000000000e+00 0.000000000000000e+00
0.000000000000000e+00 0.000000000000000e+00 0.000000000000000e+00
0.000000000000000e+00 0.000000000000000e+00 0.000000000000000e+00

0.000000000000000e+00 0.000000000000000e+00 0.000000000000000e+00
0.000000000000000e+00 0.000000000000000e+00 0.000000000000000e+00
0.000000000000000e+00 0.000000000000000e+00 0.000000000000000e+00

0.000000000000000e+00 0.000000000000000e+00 0.000000000000000e+00
0.000000000000000e+00 0.000000000000000e+00 0.000000000000000e+00
0.000000000000000e+00 0.000000000000000e+00 0.000000000000000e+00

0.000000000000000e+00 0.000000000000000e+00 0.000000000000000e+00
0.000000000000000e+00 0.000000000000000e+00 0.000000000000000e+00
0.000000000000000e+00 0.000000000000000e+00 0.000000000000000e+00

0.000000000000000e+00 0.000000000000000e+00 0.000000000000000e+00
0.000000000000000e+00 0.000000000000000e+00 0.000000000000000e+00
0.000000000000000e+00 0.000000000000000e+00 0.000000000000000e+00

0.000000000000000e+00 0.000000000000000e+00 0.000000000000000e+00
0.000000000000000e+00 0.000000000000000e+00 0.000000000000000e+00
0.000000000000000e+00 0.000000000000000e+00 0.000000000000000e+00

0.000000000000000e+00 0.000000000000000e+00 0.000000000000000e+00
0.000000000000000e+00 0.000000000000000e+00 0.000000000000000e+00
0.000000000000000e+00 0.000000000000000e+00 0.000000000000000e+00

0.000000000000000e+00 0.000000000000000e+00 0.000000000000000e+00
0.000000000000000e+00 0.000000000000000e+00 0.000000000000000e+00
0.000000000000000e+00 0.000000000000000e+00 0.000000000000000e+00

0.000000000000000e+00 0.000000000000000e+00 0.000000000000000e+00
0.000000000000000e+00 0.000000000000000e+00 0.000000000000000e+00
0.000000000000000e+00 0.000000000000000e+00 0.000000000000000e+00

0.000000000000000e+00 0.000000000000000e+00 0.000000000000000e+00
0.000000000000000e+00 0.000000000000000e+00 0.000000000000000e+00
0.000000000000000e+00 0.000000000000000e+00 0.000000000000000e+00

0.000000000000000e+00 0.000000000000000e+00 0.000000000000000e+00
0.000000000000000e+00 0.000000000000000e+00 0.000000000000000e+00
0.000000000000000e+00 0.000000000000000e+00 0.000000000000000e+00

0.000000000000000e+00 0.000000000000000e+00 0.000000000000000e+00
0.000000000000000e+00 0.000000000000000e+00 0.000000000000000e+00
0.000000000000000e+00 0.000000000000000e+00 0.000000000000000e+00

0.000000000000000e+00 0.000000000000000e+00 0.000000000000000e+00
0.000000000000000e+00 0.000000000000000e+00 0.000000000000000e+00
0.000000000000000e+00 0.000000000000000e+00 0.000000000000000e+00

0.000000000000000e+00 0.000000000000000e+00 0.000000000000000e+00
0.000000000000000e+00 0.000000000000000e+00 0.000000000000000e+00
0.000000000000000e+00 0.000000000000000e+00 0.000000000000000e+00

0.000000000000000e+00 0.000000000000000e+00 0.000000000000000e+00
0.000000000000000e+00 0.000000000000000e+00 0.000000000000000e+00
0.000000000000000e+00 0.000000000000000e+00 0.000000000000000e+00

0.000000000000000e+00 0.000000000000000e+00 0.000000000000000e+00
0.000000000000000e+00 0.000000000000000e+00 0.000000000000000e+00
0.000000000000000e+00 0.000000000000000e+00 0.000000000000000e+00

0.000000000000000e+00 0.000000000000000e+00 0.000000000000000e+00
0.000000000000000e+00 0.000000000000000e+00 0.000000000000000e+00
0.000000000000000e+00 0.000000000000000e+00 0.000000000000000e+00

0.000000000000000e+00 0.000000000000000e+00 0.000000000000000e+00
0.000000000000000e+00 0.000000000000000e+00 0.000000000000000e+00
0.000000000000000e+00 0.000000000000000e+00 0.000000000000000e+00

0.000000000000000e+00 0.000000000000000e+00 0.000000000000000e+00
0.000000000000000e+00 0.000000000000000e+00 0.000000000000000e+00
0.000000000000000e+00 0.000000000000000e+00 0.000000000000000e+00

0.000000000000000e+00 0.000000000000000e+00 0.000000000000000e+00
0.000000000000000e+00 0.000000000000000e+00 0.000000000000000e+00
0.000000000000000e+00 0.000000000000000e+00 0.000000000000000e+00

0.000000000000000e+00 0.000000000000000e+00 0.000000000000000e+00
0.000000000000000e+00 0.000000000000000e+00 0.000000000000000e+00
0.000000000000000e+00 0.000000000000000e+00 0.000000000000000e+00

0.000000000000000e+00 0.000000000000000e+00 0.000000000000000e+00
0.000000000000000e+00 0.000000000000000e+00 0.000000000000000e+00
0.000000000000000e+00 0.000000000000000e+00 0.000000000000000e+00

0.000000000000000e+00 0.000000000000000e+00 0.000000000000000e+00
0.000000000000000e+00 0.000000000000000e+00 0.000000000000000e+00
0.000000000000000e+00 0.000000000000000e+00 0.000000000000000e+00

0.000000000000000e+00 0.000000000000000e+00 0.000000000000000e+00
0.000000000000000e+00 0.000000000000000e+00 0.000000000000000e+00
0.000000000000000e+00 0.000000000000000e+00 0.000000000000000e+00

0.000000000000000e+00 0.000000000000000e+00 0.000000000000000e+00
0.000000000000000e+00 0.000000000000000e+00 0.000000000000000e+00
0.000000000000000e+00 0.000000000000000e+00 0.000000000000000e+00

0.000000000000000e+00 0.000000000000000e+00 0.000000000000000e+00
0.000000000000000e+00 0.000000000000000e+00 0.000000000000000e+00
0.000000000000000e+00 0.000000000000000e+00 0.000000000000000e+00

0.000000000000000e+00 0.000000000000000e+00 0.000000000000000e+00
0.000000000000000e+00 0.000000000000000e+00 0.000000000000000e+00
0.000000000000000e+00 0.000000000000000e+00 0.000000000000000e+00

0.000000000000000e+00 0.000000000000000e+00 0.000000000000000e+00
0.000000000000000e+00 0.000000000000000e+00 0.000000000000000e+00
0.000000000000000e+00 0.000000000000000e+00 0.000000000000000e+00

0.000000000000000e+00 0.000000000000000e+00 0.000000000000000e+00
0.000000000000000e+00 0.000000000000000e+00 0.000000000000000e+00
0.000000000000000e+00 0.000000000000000e+00 0.000000000000000e+00

0.000000000000000e+00 0.000000000000000e+00 0.000000000000000e+00
0.000000000000000e+00 0.000000000000000e+00 0.000000000000000e+00
0.000000000000000e+00 0.000000000000000e+00 0.000000000000000e+00

0.000000000000000e+00 0.000000000000000e+00 0.000000000000000e+00
0.000000000000000e+00 0.000000000000000e+00 0.000000000000000e+00
0.000000000000000e+00 0.000000000000000e+00 0.000000000000000e+00

0.000000000000000e+00 0.000000000000000e+00 0.000000000000000e+00
0.000000000000000e+00 0.000000000000000e+00 0.000000000000000e+00
0.000000000000000e+00 0.000000000000000e+00 0.000000000000000e+00

0.000000000000000e+00 0.000000000000000e+00 0.000000000000000e+00
0.000000000000000e+00 0.000000000000000e+00 0.000000000000000e+00
0.000000000000000e+00 0.000000000000000e+00 0.000000000000000e+00

0.000000000000000e+00 0.000000000000000e+00 0.000000000000000e+00
0.000000000000000e+00 0.000000000000000e+00 0.000000000000000e+00
0.000000000000000e+00 0.000000000000000e+00 0.000000000000000e+00

0.000000000000000e+00 0.000000000000000e+00 0.000000000000000e+00
0.000000000000000e+00 0.000000000000000e+00 0.000000000000000e+00
0.000000000000000e+00 0.000000000000000e+00 0.000000000000000e+00

0.000000000000000e+00 0.000000000000000e+00 0.000000000000000e+00
0.000000000000000e+00 0.000000000000000e+00 0.000000000000000e+00
0.000000000000000e+00 0.000000000000000e+00 0.000000000000000e+00

0.000000000000000e+00 0.000000000000000e+00 0.000000000000000e+00
0.000000000000000e+00 0.000000000000000e+00 0.000000000000000e+00
0.000000000000000e+00 0.000000000000000e+00 0.000000000000000e+00

0.000000000000000e+00 0.000000000000000e+00 0.000000000000000e+00
0.000000000000000e+00 0.000000000000000e+00 0.000000000000000e+00
0.000000000000000e+00 0.000000000000000e+00 0.000000000000000e+00

0.000000000000000e+00 0.000000000000000e+00 0.000000000000000e+00
0.000000000000000e+00 0.000000000000000e+00 0.000000000000000e+00
0.000000000000000e+00 0.000000000000000e+00 0.000000000000000e+00

0.000000000000000e+00 0.000000000000000e+00 0.000000000000000e+00
0.000000000000000e+00 0.000000000000000e+00 0.000000000000000e+00
0.000000000000000e+00 0.000000000000000e+00 0.000000000000000e+00

0.000000000000000e+00 0.000000000000000e+00 0.000000000000000e+00
0.000000000000000e+00 0.000000000000000e+00 0.000000000000000e+00
0.000000000000000e+00 0.000000000000000e+00 0.000000000000000e+00

0.000000000000000e+00 0.000000000000000e+00 0.000000000000000e+00
0.000000000000000e+00 0.000000000000000e+00 0.000000000000000e+00
0.000000000000000e+00 0.000000000000000e+00 0.000000000000000e+00

0.000000000000000e+00 0.000000000000000e+00 0.000000000000000e+00
0.000000000000000e+00 0.000000000000000e+00 0.000000000000000e+00
0.000000000000000e+00 0.000000000000000e+00 0.000000000000000e+00

0.000000000000000e+00 0.000000000000000e+00 0.000000000000000e+00
0.000000000000000e+00 0.000000000000000e+00 0.000000000000000e+00
0.000000000000000e+00 0.000000000000000e+00 0.000000000000000e+00

0.000000000000000e+00 0.000000000000000e+00 0.000000000000000e+00
0.000000000000000e+00 0.000000000000000e+00 0.000000000000000e+00
0.000000000000000e+00 0.000000000000000e+00 0.000000000000000e+00

0.000000000000000e+00 0.000000000000000e+00 0.000000000000000e+00
0.000000000000000e+00 0.000000000000000e+00 0.000000000000000e+00
0.000000000000000e+00 0.000000000000000e+00 0.000000000000000e+00

0.000000000000000e+00 0.000000000000000e+00 0.000000000000000e+00
0.000000000000000e+00 0.000000000000000e+00 0.000000000000000e+00
0.000000000000000e+00 0.000000000000000e+00 0.000000000000000e+00

0.000000000000000e+00 0.000000000000000e+00 0.000000000000000e+00
0.000000000000000e+00 0.000000000000000e+00 0.000000000000000e+00
0.000000000000000e+00 0.000000000000000e+00 0.000000000000000e+00

0.000000000000000e+00 0.000000000000000e+00 0.000000000000000e+00
0.000000000000000e+00 0.000000000000000e+00 0.000000000000000e+00
0.000000000000000e+00 0.000000000000000e+00 0.000000000000000e+00

0.000000000000000e+00 0.000000000000000e+00 0.000000000000000e+00
0.000000000000000e+00 0.000000000000000e+00 0.000000000000000e+00
0.000000000000000e+00 0.000000000000000e+00 0.000000000000000e+00

0.000000000000000e+00 0.000000000000000e+00 0.000000000000000e+00
0.000000000000000e+00 0.000000000000000e+00 0.000000000000000e+00
0.000000000000000e+00 0.000000000000000e+00 0.000000000000000e+00

0.000000000000000e+00 0.000000000000000e+00 0.000000000000000e+00
0.000000000000000e+00 0.000000000000000e+00 0.000000000000000e+00
0.000000000000000e+00 0.000000000000000e+00 0.000000000000000e+00

0.000000000000000e+00 0.000000000000000e+00 0.000000000000000e+00
0.000000000000000e+00 0.000000000000000e+00 0.000000000000000e+00
0.000000000000000e+00 0.000000000000000e+00 0.000000000000000e+00

0.000000000000000e+00 0.000000000000000e+00 0.000000000000000e+00
0.000000000000000e+00 0.000000000000000e+00 0.000000000000000e+00
0.000000000000000e+00 0.000000000000000e+00 0.000000000000000e+00

0.000000000000000e+00 0.000000000000000e+00 0.000000000000000e+00
0.000000000000000e+00 0.000000000000000e+00 0.000000000000000e+00
0.000000000000000e+00 0.000000000000000e+00 0.000000000000000e+00

0.000000000000000e+00 0.000000000000000e+00 0.000000000000000e+00
0.000000000000000e+00 0.000000000000000e+00 0.000000000000000e+00
0.000000000000000e+00 0.000000000000000e+00 0.000000000000000e+00

0.000000000000000e+00 0.000000000000000e+00 0.000000000000000e+00
0.000000000000000e+00 0.000000000000000e+00 0.000000000000000e+00
0.000000000000000e+00 0.000000000000000e+00 0.000000000000000e+00

0.000000000000000e+00 0.000000000000000e+00 0.000000000000000e+00
0.000000000000000e+00 0.000000000000000e+00 0.000000000000000e+00
0.000000000000000e+00 0.000000000000000e+00 0.000000000000000e+00

0.000000000000000e+00 0.000000000000000e+00 0.000000000000000e+00
0.000000000000000e+00 0.000000000000000e+00 0.000000000000000e+00
0.000000000000000e+00 0.000000000000000e+00 0.000000000000000e+00

0.000000000000000e+00 0.000000000000000e+00 0.000000000000000e+00
0.000000000000000e+00 0.000000000000000e+00 0.000000000000000e+00
0.000000000000000e+00 0.000000000000000e+00 0.000000000000000e+00

0.000000000000000e+00 0.000000000000000e+00 0.000000000000000e+00
0.000000000000000e+00 0.000000000000000e+00 0.000000000000000e+00
0.000000000000000e+00 0.000000000000000e+00 0.000000000000000e+00

0.000000000000000e+00 0.000000000000000e+00 0.000000000000000e+00
0.000000000000000e+00 0.000000000000000e+00 0.000000000000000e+00
0.000000000000000e+00 0.000000000000000e+00 0.000000000000000e+00

0.000000000000000e+00 0.000000000000000e+00 0.000000000000000e+00
0.000000000000000e+00 0.000000000000000e+00 0.000000000000000e+00
0.000000000000000e+00 0.000000000000000e+00 0.000000000000000e+00

0.000000000000000e+00 0.000000000000000e+00 0.000000000000000e+00
0.000000000000000e+00 0.000000000000000e+00 0.000000000000000e+00
0.000000000000000e+00 0.000000000000000e+00 0.000000000000000e+00

0.000000000000000e+00 0.000000000000000e+00 0.000000000000000e+00
0.000000000000000e+00 0.000000000000000e+00 0.000000000000000e+00
0.000000000000000e+00 0.000000000000000e+00 0.000000000000000e+00

0.000000000000000e+00 0.000000000000000e+00 0.000000000000000e+00
0.000000000000000e+00 0.000000000000000e+00 0.000000000000000e+00
0.000000000000000e+00 0.000000000000000e+00 0.000000000000000e+00

0.000000000000000e+00 0.000000000000000e+00 0.000000000000000e+00
0.000000000000000e+00 0.000000000000000e+00 0.000000000000000e+00
0.000000000000000e+00 0.000000000000000e+00 0.000000000000000e+00

0.000000000000000e+00 0.000000000000000e+00 0.000000000000000e+00
0.000000000000000e+00 0.000000000000000e+00 0.000000000000000e+00
0.000000000000000e+00 0.000000000000000e+00 0.000000000000000e+00

0.000000000000000e+00 0.000000000000000e+00 0.000000000000000e+00
0.000000000000000e+00 0.000000000000000e+00 0.000000000000000e+00
0.000000000000000e+00 0.000000000000000e+00 0.000000000000000e+00

0.000000000000000e+00 0.000000000000000e+00 0.000000000000000e+00
0.000000000000000e+00 0.000000000000000e+00 0.000000000000000e+00
0.000000000000000e+00 0.000000000000000e+00 0.000000000000000e+00

0.000000000000000e+00 0.000000000000000e+00 0.000000000000000e+00
0.000000000000000e+00 0.000000000000000e+00 0.000000000000000e+00
0.000000000000000e+00 0.000000000000000e+00 0.000000000000000e+00

0.000000000000000e+00 0.000000000000000e+00 0.000000000000000e+00
0.000000000000000e+00 0.000000000000000e+00 0.000000000000000e+00
0.000000000000000e+00 0.000000000000000e+00 0.000000000000000e+00

0.000000000000000e+00 0.000000000000000e+00 0.000000000000000e+00
0.000000000000000e+00 0.000000000000000e+00 0.000000000000000e+00
0.000000000000000e+00 0.000000000000000e+00 0.000000000000000e+00

0.000000000000000e+00 0.000000000000000e+00 0.000000000000000e+00
0.000000000000000e+00 0.000000000000000e+00 0.000000000000000e+00
0.000000000000000e+00 0.000000000000000e+00 0.000000000000000e+00

0.000000000000000e+00 0.000000000000000e+00 0.000000000000000e+00
0.000000000000000e+00 0.000000000000000e+00 0.000000000000000e+00
0.000000000000000e+00 0.000000000000000e+00 0.000000000000000e+00

0.000000000000000e+00 0.000000000000000e+00 0.000000000000000e+00
0.000000000000000e+00 0.000000000000000e+00 0.000000000000000e+00
0.000000000000000e+00 0.000000000000000e+00 0.000000000000000e+00

0.000000000000000e+00 0.000000000000000e+00 0.000000000000000e+00
0.000000000000000e+00 0.000000000000000e+00 0.000000000000000e+00
0.000000000000000e+00 0.000000000000000e+00 0.000000000000000e+00

0.000000000000000e+00 0.000000000000000e+00 0.000000000000000e+00
0.000000000000000e+00 0.000000000000000e+00 0.000000000000000e+00
0.000000000000000e+00 0.000000000000000e+00 0.000000000000000e+00

0.000000000000000e+00 0.000000000000000e+00 0.000000000000000e+00
0.000000000000000e+00 0.000000000000000e+00 0.000000000000000e+00
0.000000000000000e+00 0.000000000000000e+00 0.000000000000000e+00

0.000000000000000e+00 0.000000000000000e+00 0.000000000000000e+00
0.000000000000000e+00 0.000000000000000e+00 0.000000000000000e+00
0.000000000000000e+00 0.000000000000000e+00 0.000000000000000e+00

0.000000000000000e+00 0.000000000000000e+00 0.000000000000000e+00
0.000000000000000e+00 0.000000000000000e+00 0.000000000000000e+00
0.000000000000000e+00 0.000000000000000e+00 0.000000000000000e+00

0.000000000000000e+00 0.000000000000000e+00 0.000000000000000e+00
0.000000000000000e+00 0.000000000000000e+00 0.000000000000000e+00
0.000000000000000e+00 0.000000000000000e+00 0.000000000000000e+00

0.000000000000000e+00 0.000000000000000e+00 0.000000000000000e+00
0.000000000000000e+00 0.000000000000000e+00 0.000000000000000e+00
0.000000000000000e+00 0.000000000000000e+00 0.000000000000000e+00

0.000000000000000e+00 0.000000000000000e+00 0.000000000000000e+00
0.000000000000000e+00 0.000000000000000e+00 0.000000000000000e+00
0.000000000000000e+00 0.000000000000000e+00 0.000000000000000e+00

0.000000000000000e+00 0.000000000000000e+00 0.000000000000000e+00
0.000000000000000e+00 0.000000000000000e+00 0.000000000000000e+00
0.000000000000000e+00 0.000000000000000e+00 0.000000000000000e+00

0.000000000000000e+00 0.000000000000000e+00 0.000000000000000e+00
0.000000000000000e+00 0.000000000000000e+00 0.000000000000000e+00
0.000000000000000e+00 0.000000000000000e+00 0.000000000000000e+00

0.000000000000000e+00 0.000000000000000e+00 0.000000000000000e+00
0.000000000000000e+00 0.000000000000000e+00 0.000000000000000e+00
0.000000000000000e+00 0.000000000000000e+00 0.000000000000000e+00

0.000000000000000e+00 0.000000000000000e+00 0.000000000000000e+00
0.000000000000000e+00 0.000000000000000e+00 0.000000000000000e+00
0.000000000000000e+00 0.000000000000000e+00 0.000000000000000e+00

0.000000000000000e+00 0.000000000000000e+00 0.000000000000000e+00
0.000000000000000e+00 0.000000000000000e+00 0.000000000000000e+00
0.000000000000000e+00 0.000000000000000e+00 0.000000000000000e+00

0.000000000000000e+00 0.000000000000000e+00 0.000000000000000e+00
0.000000000000000e+00 0.000000000000000e+00 0.000000000000000e+00
0.000000000000000e+00 0.000000000000000e+00 0.000000000000000e+00

0.000000000000000e+00 0.000000000000000e+00 0.000000000000000e+00
0.000000000000000e+00 0.000000000000000e+00 0.000000000000000e+00
0.000000000000000e+00 0.000000000000000e+00 0.000000000000000e+00

0.000000000000000e+00 0.000000000000000e+00 0.000000000000000e+00
0.000000000000000e+00 0.000000000000000e+00 0.000000000000000e+00
0.000000000000000e+00 0.000000000000000e+00 0.000000000000000e+00

0.000000000000000e+00 0.000000000000000e+00 0.000000000000000e+00
0.000000000000000e+00 0.000000000000000e+00 0.000000000000000e+00
0.000000000000000e+00 0.000000000000000e+00 0.000000000000000e+00

0.000000000000000e+00 0.000000000000000e+00 0.000000000000000e+00
0.000000000000000e+00 0.000000000000000e+00 0.000000000000000e+00
0.000000000000000e+00 0.000000000000000e+00 0.000000000000000e+00

0.000000000000000e+00 0.000000000000000e+00 0.000000000000000e+00
0.000000000000000e+00 0.000000000000000e+00 0.000000000000000e+00
0.000000000000000e+00 0.000000000000000e+00 0.000000000000000e+00

0.000000000000000e+00 0.000000000000000e+00 0.000000000000000e+00
0.000000000000000e+00 0.000000000000000e+00 0.000000000000000e+00
0.000000000000000e+00 0.000000000000000e+00 0.000000000000000e+00

0.000000000000000e+00 0.000000000000000e+00 0.000000000000000e+00
0.000000000000000e+00 0.000000000000000e+00 0.000000000000000e+00
0.000000000000000e+00 0.000000000000000e+00 0.000000000000000e+00

0.000000000000000e+00 0.000000000000000e+00 0.000000000000000e+00
0.000000000000000e+00 0.000000000000000e+00 0.000000000000000e+00
0.000000000000000e+00 0.000000000000000e+00 0.000000000000000e+00

0.000000000000000e+00 0.000000000000000e+00 0.000000000000000e+00
0.000000000000000e+00 0.000000000000000e+00 0.000000000000000e+00
0.000000000000000e+00 0.000000000000000e+00 0.000000000000000e+00

0.000000000000000e+00 0.000000000000000e+00 0.000000000000000e+00
0.000000000000000e+00 0.000000000000000e+00 0.000000000000000e+00
0.000000000000000e+00 0.000000000000000e+00 0.000000000000000e+00

0.000000000000000e+00 0.000000000000000e+00 0.000000000000000e+00
0.000000000000000e+00 0.000000000000000e+00 0.000000000000000e+00
0.000000000000000e+00 0.000000000000000e+00 0.000000000000000e+00

0.000000000000000e+00 0.000000000000000e+00 0.000000000000000e+00
0.000000000000000e+00 0.000000000000000e+00 0.000000000000000e+00
0.000000000000000e+00 0.000000000000000e+00 0.000000000000000e+00

0.000000000000000e+00 0.000000000000000e+00 0.000000000000000e+00
0.000000000000000e+00 0.000000000000000e+00 0.000000000000000e+00
0.000000000000000e+00 0.000000000000000e+00 0.000000000000000e+00

0.000000000000000e+00 0.000000000000000e+00 0.000000000000000e+00
0.000000000000000e+00 0.000000000000000e+00 0.000000000000000e+00
0.000000000000000e+00 0.000000000000000e+00 0.000000000000000e+00

0.000000000000000e+00 0.000000000000000e+00 0.000000000000000e+00
0.000000000000000e+00 0.000000000000000e+00 0.000000000000000e+00
0.000000000000000e+00 0.000000000000000e+00 0.000000000000000e+00

0.000000000000000e+00 0.000000000000000e+00 0.000000000000000e+00
0.000000000000000e+00 0.000000000000000e+00 0.000000000000000e+00
0.000000000000000e+00 0.000000000000000e+00 0.000000000000000e+00

0.000000000000000e+00 0.000000000000000e+00 0.000000000000000e+00
0.000000000000000e+00 0.000000000000000e+00 0.000000000000000e+00
0.000000000000000e+00 0.000000000000000e+00 0.000000000000000e+00

0.000000000000000e+00 0.000000000000000e+00 0.000000000000000e+00
0.000000000000000e+00 0.000000000000000e+00 0.000000000000000e+00
0.000000000000000e+00 0.000000000000000e+00 0.000000000000000e+00

0.000000000000000e+00 0.000000000000000e+00 0.000000000000000e+00
0.000000000000000e+00 0.000000000000000e+00 0.000000000000000e+00
0.000000000000000e+00 0.000000000000000e+00 0.000000000000000e+00

0.000000000000000e+00 0.000000000000000e+00 0.000000000000000e+00
0.000000000000000e+00 0.000000000000000e+00 0.000000000000000e+00
0.000000000000000e+00 0.000000000000000e+00 0.000000000000000e+00

0.000000000000000e+00 0.000000000000000e+00 0.000000000000000e+00
0.000000000000000e+00 0.000000000000000e+00 0.000000000000000e+00
0.000000000000000e+00 0.000000000000000e+00 0.000000000000000e+00

0.000000000000000e+00 0.000000000000000e+00 0.000000000000000e+00
0.000000000000000e+00 0.000000000000000e+00 0.000000000000000e+00
0.000000000000000e+00 0.000000000000000e+00 0.000000000000000e+00

0.000000000000000e+00 0.000000000000000e+00 0.000000000000000e+00
0.000000000000000e+00 0.000000000000000e+00 0.000000000000000e+00
0.000000000000000e+00 0.000000000000000e+00 0.000000000000000e+00

0.000000000000000e+00 0.000000000000000e+00 0.000000000000000e+00
0.000000000000000e+00 0.000000000000000e+00 0.000000000000000e+00
0.000000000000000e+00 0.000000000000000e+00 0.000000000000000e+00

0.000000000000000e+00 0.000000000000000e+00 0.000000000000000e+00
0.000000000000000e+00 0.000000000000000e+00 0.000000000000000e+00
0.000000000000000e+00 0.000000000000000e+00 0.000000000000000e+00

0.000000000000000e+00 0.000000000000000e+00 0.000000000000000e+00
0.000000000000000e+00 0.000000000000000e+00 0.000000000000000e+00
0.000000000000000e+00 0.000000000000000e+00 0.000000000000000e+00

0.000000000000000e+00 0.000000000000000e+00 0.000000000000000e+00
0.000000000000000e+00 0.000000000000000e+00 0.000000000000000e+00
0.000000000000000e+00 0.000000000000000e+00 0.000000000000000e+00

0.000000000000000e+00 0.000000000000000e+00 0.000000000000000e+00
0.000000000000000e+00 0.000000000000000e+00 0.000000000000000e+00
0.000000000000000e+00 0.000000000000000e+00 0.000000000000000e+00

0.000000000000000e+00 0.000000000000000e+00 0.000000000000000e+00
0.000000000000000e+00 0.000000000000000e+00 0.000000000000000e+00
0.000000000000000e+00 0.000000000000000e+00 0.000000000000000e+00

0.000000000000000e+00 0.000000000000000e+00 0.000000000000000e+00
0.000000000000000e+00 0.000000000000000e+00 0.000000000000000e+00
0.000000000000000e+00 0.000000000000000e+00 0.000000000000000e+00

0.000000000000000e+00 0.000000000000000e+00 0.000000000000000e+00
0.000000000000000e+00 0.000000000000000e+00 0.000000000000000e+00
0.000000000000000e+00 0.000000000000000e+00 0.000000000000000e+00

0.000000000000000e+00 0.000000000000000e+00 0.000000000000000e+00
0.000000000000000e+00 0.000000000000000e+00 0.000000000000000e+00
0.000000000000000e+00 0.000000000000000e+00 0.000000000000000e+00

0.000000000000000e+00 0.000000000000000e+00 0.000000000000000e+00
0.000000000000000e+00 0.000000000000000e+00 0.000000000000000e+00
0.000000000000000e+00 0.000000000000000e+00 0.000000000000000e+00

0.000000000000000e+00 0.000000000000000e+00 0.000000000000000e+00
0.000000000000000e+00 0.000000000000000e+00 0.000000000000000e+00
0.000000000000000e+00 0.000000000000000e+00 0.000000000000000e+00

0.000000000000000e+00 0.000000000000000e+00 0.000000000000000e+00
0.000000000000000e+00 0.000000000000000e+00 0.000000000000000e+00
0.000000000000000e+00 0.000000000000000e+00 0.000000000000000e+00

0.000000000000000e+00 0.000000000000000e+00 0.000000000000000e+00
0.000000000000000e+00 0.000000000000000e+00 0.000000000000000e+00
0.000000000000000e+00 0.000000000000000e+00 0.000000000000000e+00

0.000000000000000e+00 0.000000000000000e+00 0.000000000000000e+00
0.000000000000000e+00 0.000000000000000e+00 0.000000000000000e+00
0.000000000000000e+00 0.000000000000000e+00 0.000000000000000e+00

0.000000000000000e+00 0.000000000000000e+00 0.000000000000000e+00
0.000000000000000e+00 0.000000000000000e+00 0.000000000000000e+00
0.000000000000000e+00 0.000000000000000e+00 0.000000000000000e+00

0.000000000000000e+00 0.000000000000000e+00 0.000000000000000e+00
0.000000000000000e+00 0.000000000000000e+00 0.000000000000000e+00
0.000000000000000e+00 0.000000000000000e+00 0.000000000000000e+00

0.000000000000000e+00 0.000000000000000e+00 0.000000000000000e+00
0.000000000000000e+00 0.000000000000000e+00 0.000000000000000e+00
0.000000000000000e+00 0.000000000000000e+00 0.000000000000000e+00

0.000000000000000e+00 0.000000000000000e+00 0.000000000000000e+00
0.000000000000000e+00 0.000000000000000e+00 0.000000000000000e+00
0.000000000000000e+00 0.000000000000000e+00 0.000000000000000e+00

0.000000000000000e+00 0.000000000000000e+00 0.000000000000000e+00
0.000000000000000e+00 0.000000000000000e+00 0.000000000000000e+00
0.000000000000000e+00 0.000000000000000e+00 0.000000000000000e+00

0.000000000000000e+00 0.000000000000000e+00 0.000000000000000e+00
0.000000000000000e+00 0.000000000000000e+00 0.000000000000000e+00
0.000000000000000e+00 0.000000000000000e+00 0.000000000000000e+00

0.000000000000000e+00 0.000000000000000e+00 0.000000000000000e+00
0.000000000000000e+00 0.000000000000000e+00 0.000000000000000e+00
0.000000000000000e+00 0.000000000000000e+00 0.000000000000000e+00

0.000000000000000e+00 0.000000000000000e+00 0.000000000000000e+00
0.000000000000000e+00 0.000000000000000e+00 0.000000000000000e+00
0.000000000000000e+00 0.000000000000000e+00 0.000000000000000e+00

0.000000000000000e+00 0.000000000000000e+00 0.000000000000000e+00
0.000000000000000e+00 0.000000000000000e+00 0.000000000000000e+00
0.000000000000000e+00 0.000000000000000e+00 0.000000000000000e+00

0.000000000000000e+00 0.000000000000000e+00 0.000000000000000e+00
0.000000000000000e+00 0.000000000000000e+00 0.000000000000000e+00
0.000000000000000e+00 0.000000000000000e+00 0.000000000000000e+00

0.000000000000000e+00 0.000000000000000e+00 0.000000000000000e+00
0.000000000000000e+00 0.000000000000000e+00 0.000000000000000e+00
0.000000000000000e+00 0.000000000000000e+00 0.000000000000000e+00

0.000000000000000e+00 0.000000000000000e+00 0.000000000000000e+00
0.000000000000000e+00 0.000000000000000e+00 0.000000000000000e+00
0.000000000000000e+00 0.000000000000000e+00 0.000000000000000e+00

0.000000000000000e+00 0.000000000000000e+00 0.000000000000000e+00
0.000000000000000e+00 0.000000000000000e+00 0.000000000000000e+00
0.000000000000000e+00 0.000000000000000e+00 0.000000000000000e+00

0.000000000000000e+00 0.000000000000000e+00 0.000000000000000e+00
0.000000000000000e+00 0.000000000000000e+00 0.000000000000000e+00
0.000000000000000e+00 0.000000000000000e+00 0.000000000000000e+00

0.000000000000000e+00 0.000000000000000e+00 0.000000000000000e+00
0.000000000000000e+00 0.000000000000000e+00 0.000000000000000e+00
0.000000000000000e+00 0.000000000000000e+00 0.000000000000000e+00

0.000000000000000e+00 0.000000000000000e+00 0.000000000000000e+00
0.000000000000000e+00 0.000000000000000e+00 0.000000000000000e+00
0.000000000000000e+00 0.000000000000000e+00 0.000000000000000e+00

0.000000000000000e+00 0.000000000000000e+00 0.000000000000000e+00
0.000000000000000e+00 0.000000000000000e+00 0.000000000000000e+00
0.000000000000000e+00 0.000000000000000e+00 0.000000000000000e+00

0.000000000000000e+00 0.000000000000000e+00 0.000000000000000e+00
0.000000000000000e+00 0.000000000000000e+00 0.000000000000000e+00
0.000000000000000e+00 0.000000000000000e+00 0.000000000000000e+00

0.000000000000000e+00 0.000000000000000e+00 0.000000000000000e+00
0.000000000000000e+00 0.000000000000000e+00 0.000000000000000e+00
0.000000000000000e+00 0.000000000000000e+00 0.000000000000000e+00

0.000000000000000e+00 0.000000000000000e+00 0.000000000000000e+00
0.000000000000000e+00 0.000000000000000e+00 0.000000000000000e+00
0.000000000000000e+00 0.000000000000000e+00 0.000000000000000e+00

0.000000000000000e+00 0.000000000000000e+00 0.000000000000000e+00
0.000000000000000e+00 0.000000000000000e+00 0.000000000000000e+00
0.000000000000000e+00 0.000000000000000e+00 0.000000000000000e+00

0.000000000000000e+00 0.000000000000000e+00 0.000000000000000e+00
0.000000000000000e+00 0.000000000000000e+00 0.000000000000000e+00
0.000000000000000e+00 0.000000000000000e+00 0.000000000000000e+00

0.000000000000000e+00 0.000000000000000e+00 0.000000000000000e+00
0.000000000000000e+00 0.000000000000000e+00 0.000000000000000e+00
0.000000000000000e+00 0.000000000000000e+00 0.000000000000000e+00

0.000000000000000e+00 0.000000000000000e+00 0.000000000000000e+00
0.000000000000000e+00 0.000000000000000e+00 0.000000000000000e+00
0.000000000000000e+00 0.000000000000000e+00 0.000000000000000e+00

0.000000000000000e+00 0.000000000000000e+00 0.000000000000000e+00
0.000000000000000e+00 0.000000000000000e+00 0.000000000000000e+00
0.000000000000000e+00 0.000000000000000e+00 0.000000000000000e+00

0.000000000000000e+00 0.000000000000000e+00 0.000000000000000e+00
0.000000000000000e+00 0.000000000000000e+00 0.000000000000000e+00
0.000000000000000e+00 0.000000000000000e+00 0.000000000000000e+00

0.000000000000000e+00 0.000000000000000e+00 0.000000000000000e+00
0.000000000000000e+00 0.000000000000000e+00 0.000000000000000e+00
0.000000000000000e+00 0.000000000000000e+00 0.000000000000000e+00

0.000000000000000e+00 0.000000000000000e+00 0.000000000000000e+00
0.000000000000000e+00 0.000000000000000e+00 0.000000000000000e+00
0.000000000000000e+00 0.000000000000000e+00 0.000000000000000e+00

0.000000000000000e+00 0.000000000000000e+00 0.000000000000000e+00
0.000000000000000e+00 0.000000000000000e+00 0.000000000000000e+00
0.000000000000000e+00 0.000000000000000e+00 0.000000000000000e+00

0.000000000000000e+00 0.000000000000000e+00 0.000000000000000e+00
0.000000000000000e+00 0.000000000000000e+00 0.000000000000000e+00
0.000000000000000e+00 0.000000000000000e+00 0.000000000000000e+00

0.000000000000000e+00 0.000000000000000e+00 0.000000000000000e+00
0.000000000000000e+00 0.000000000000000e+00 0.000000000000000e+00
0.000000000000000e+00 0.000000000000000e+00 0.000000000000000e+00

0.000000000000000e+00 0.000000000000000e+00 0.000000000000000e+00
0.000000000000000e+00 0.000000000000000e+00 0.000000000000000e+00
0.000000000000000e+00 0.000000000000000e+00 0.000000000000000e+00

0.000000000000000e+00 0.000000000000000e+00 0.000000000000000e+00
0.000000000000000e+00 0.000000000000000e+00 0.000000000000000e+00
0.000000000000000e+00 0.000000000000000e+00 0.000000000000000e+00

0.000000000000000e+00 0.000000000000000e+00 0.000000000000000e+00
0.000000000000000e+00 0.000000000000000e+00 0.000000000000000e+00
0.000000000000000e+00 0.000000000000000e+00 0.000000000000000e+00

0.000000000000000e+00 0.000000000000000e+00 0.000000000000000e+00
0.000000000000000e+00 0.000000000000000e+00 0.000000000000000e+00
0.000000000000000e+00 0.000000000000000e+00 0.000000000000000e+00

0.000000000000000e+00 0.000000000000000e+00 0.000000000000000e+00
0.000000000000000e+00 0.000000000000000e+00 0.000000000000000e+00
0.000000000000000e+00 0.000000000000000e+00 0.000000000000000e+00

0.000000000000000e+00 0.000000000000000e+00 0.000000000000000e+00
0.000000000000000e+00 0.000000000000000e+00 0.000000000000000e+00
0.000000000000000e+00 0.000000000000000e+00 0.000000000000000e+00

0.000000000000000e+00 0.000000000000000e+00 0.000000000000000e+00
0.000000000000000e+00 0.000000000000000e+00 0.000000000000000e+00
0.000000000000000e+00 0.000000000000000e+00 0.000000000000000e+00

0.000000000000000e+00 0.000000000000000e+00 0.000000000000000e+00
0.000000000000000e+00 0.000000000000000e+00 0.000000000000000e+00
0.000000000000000e+00 0.000000000000000e+00 0.000000000000000e+00

0.000000000000000e+00 0.000000000000000e+00 0.000000000000000e+00
0.000000000000000e+00 0.000000000000000e+00 0.000000000000000e+00
0.000000000000000e+00 0.000000000000000e+00 0.000000000000000e+00

0.000000000000000e+00 0.000000000000000e+00 0.000000000000000e+00
0.000000000000000e+00 0.000000000000000e+00 0.000000000000000e+00
0.000000000000000e+00 0.000000000000000e+00 0.000000000000000e+00

0.000000000000000e+00 0.000000000000000e+00 0.000000000000000e+00
0.000000000000000e+00 0.000000000000000e+00 0.000000000000000e+00
0.000000000000000e+00 0.000000000000000e+00 0.000000000000000e+00

0.000000000000000e+00 0.000000000000000e+00 0.000000000000000e+00
0.000000000000000e+00 0.000000000000000e+00 0.000000000000000e+00
0.000000000000000e+00 0.000000000000000e+00 0.000000000000000e+00

0.000000000000000e+00 0.000000000000000e+00 0.000000000000000e+00
0.000000000000000e+00 0.000000000000000e+00 0.000000000000000e+00
0.000000000000000e+00 0.000000000000000e+00 0.000000000000000e+00

0.000000000000000e+00 0.000000000000000e+00 0.000000000000000e+00
0.000000000000000e+00 0.000000000000000e+00 0.000000000000000e+00
0.000000000000000e+00 0.000000000000000e+00 0.000000000000000e+00

0.000000000000000e+00 0.000000000000000e+00 0.000000000000000e+00
0.000000000000000e+00 0.000000000000000e+00 0.000000000000000e+00
0.000000000000000e+00 0.000000000000000e+00 0.000000000000000e+00

0.000000000000000e+00 0.000000000000000e+00 0.000000000000000e+00
0.000000000000000e+00 0.000000000000000e+00 0.000000000000000e+00
0.000000000000000e+00 0.000000000000000e+00 0.000000000000000e+00

0.000000000000000e+00 0.000000000000000e+00 0.000000000000000e+00
0.000000000000000e+00 0.000000000000000e+00 0.000000000000000e+00
0.000000000000000e+00 0.000000000000000e+00 0.000000000000000e+00

0.000000000000000e+00 0.000000000000000e+00 0.000000000000000e+00
0.000000000000000e+00 0.000000000000000e+00 0.000000000000000e+00
0.000000000000000e+00 0.000000000000000e+00 0.000000000000000e+00

0.000000000000000e+00 0.000000000000000e+00 0.000000000000000e+00
0.000000000000000e+00 0.000000000000000e+00 0.000000000000000e+00
0.000000000000000e+00 0.000000000000000e+00 0.000000000000000e+00

0.000000000000000e+00 0.000000000000000e+00 0.000000000000000e+00
0.000000000000000e+00 0.000000000000000e+00 0.000000000000000e+00
0.000000000000000e+00 0.000000000000000e+00 0.000000000000000e+00

0.000000000000000e+00 0.000000000000000e+00 0.000000000000000e+00
0.000000000000000e+00 0.000000000000000e+00 0.000000000000000e+00
0.000000000000000e+00 0.000000000000000e+00 0.000000000000000e+00

0.000000000000000e+00 0.000000000000000e+00 0.000000000000000e+00
0.000000000000000e+00 0.000000000000000e+00 0.000000000000000e+00
0.000000000000000e+00 0.000000000000000e+00 0.000000000000000e+00

0.000000000000000e+00 0.000000000000000e+00 0.000000000000000e+00
0.000000000000000e+00 0.000000000000000e+00 0.000000000000000e+00
0.000000000000000e+00 0.000000000000000e+00 0.000000000000000e+00

0.000000000000000e+00 0.000000000000000e+00 0.000000000000000e+00
0.000000000000000e+00 0.000000000000000e+00 0.000000000000000e+00
0.000000000000000e+00 0.000000000000000e+00 0.000000000000000e+00

0.000000000000000e+00 0.000000000000000e+00 0.000000000000000e+00
0.000000000000000e+00 0.000000000000000e+00 0.000000000000000e+00
0.000000000000000e+00 0.000000000000000e+00 0.000000000000000e+00

0.000000000000000e+00 0.000000000000000e+00 0.000000000000000e+00
0.000000000000000e+00 0.000000000000000e+00 0.000000000000000e+00
0.000000000000000e+00 0.000000000000000e+00 0.000000000000000e+00

0.000000000000000e+00 0.000000000000000e+00 0.000000000000000e+00
0.000000000000000e+00 0.000000000000000e+00 0.000000000000000e+00
0.000000000000000e+00 0.000000000000000e+00 0.000000000000000e+00

0.000000000000000e+00 0.000000000000000e+00 0.000000000000000e+00
0.000000000000000e+00 0.000000000000000e+00 0.000000000000000e+00
0.000000000000000e+00 0.000000000000000e+00 0.000000000000000e+00

0.000000000000000e+00 0.000000000000000e+00 0.000000000000000e+00
0.000000000000000e+00 0.000000000000000e+00 0.000000000000000e+00
0.000000000000000e+00 0.000000000000000e+00 0.000000000000000e+00

0.000000000000000e+00 0.000000000000000e+00 0.000000000000000e+00
0.000000000000000e+00 0.000000000000000e+00 0.000000000000000e+00
0.000000000000000e+00 0.000000000000000e+00 0.000000000000000e+00

0.000000000000000e+00 0.000000000000000e+00 0.000000000000000e+00
0.000000000000000e+00 0.000000000000000e+00 0.000000000000000e+00
0.000000000000000e+00 0.000000000000000e+00 0.000000000000000e+00

0.000000000000000e+00 0.000000000000000e+00 0.000000000000000e+00
0.000000000000000e+00 0.000000000000000e+00 0.000000000000000e+00
0.000000000000000e+00 0.000000000000000e+00 0.000000000000000e+00

0.000000000000000e+00 0.000000000000000e+00 0.000000000000000e+00
0.000000000000000e+00 0.000000000000000e+00 0.000000000000000e+00
0.000000000000000e+00 0.000000000000000e+00 0.000000000000000e+00

0.000000000000000e+00 0.000000000000000e+00 0.000000000000000e+00
0.000000000000000e+00 0.000000000000000e+00 0.000000000000000e+00
0.000000000000000e+00 0.000000000000000e+00 0.000000000000000e+00

0.000000000000000e+00 0.000000000000000e+00 0.000000000000000e+00
0.000000000000000e+00 0.000000000000000e+00 0.000000000000000e+00
0.000000000000000e+00 0.000000000000000e+00 0.000000000000000e+00

0.000000000000000e+00 0.000000000000000e+00 0.000000000000000e+00
0.000000000000000e+00 0.000000000000000e+00 0.000000000000000e+00
0.000000000000000e+00 0.000000000000000e+00 0.000000000000000e+00

0.000000000000000e+00 0.000000000000000e+00 0.000000000000000e+00
0.000000000000000e+00 0.000000000000000e+00 0.000000000000000e+00
0.000000000000000e+00 0.000000000000000e+00 0.000000000000000e+00

0.000000000000000e+00 0.000000000000000e+00 0.000000000000000e+00
0.000000000000000e+00 0.000000000000000e+00 0.000000000000000e+00
0.000000000000000e+00 0.000000000000000e+00 0.000000000000000e+00

0.000000000000000e+00 0.000000000000000e+00 0.000000000000000e+00
0.000000000000000e+00 0.000000000000000e+00 0.000000000000000e+00
0.000000000000000e+00 0.000000000000000e+00 0.000000000000000e+00

0.000000000000000e+00 0.000000000000000e+00 0.000000000000000e+00
0.000000000000000e+00 0.000000000000000e+00 0.000000000000000e+00
0.000000000000000e+00 0.000000000000000e+00 0.000000000000000e+00

0.000000000000000e+00 0.000000000000000e+00 0.000000000000000e+00
0.000000000000000e+00 0.000000000000000e+00 0.000000000000000e+00
0.000000000000000e+00 0.000000000000000e+00 0.000000000000000e+00

0.000000000000000e+00 0.000000000000000e+00 0.000000000000000e+00
0.000000000000000e+00 0.000000000000000e+00 0.000000000000000e+00
0.000000000000000e+00 0.000000000000000e+00 0.000000000000000e+00

0.000000000000000e+00 0.000000000000000e+00 0.000000000000000e+00
0.000000000000000e+00 0.000000000000000e+00 0.000000000000000e+00
0.000000000000000e+00 0.000000000000000e+00 0.000000000000000e+00

0.000000000000000e+00 0.000000000000000e+00 0.000000000000000e+00
0.000000000000000e+00 0.000000000000000e+00 0.000000000000000e+00
0.000000000000000e+00 0.000000000000000e+00 0.000000000000000e+00

0.000000000000000e+00 0.000000000000000e+00 0.000000000000000e+00
0.000000000000000e+00 0.000000000000000e+00 0.000000000000000e+00
0.000000000000000e+00 0.000000000000000e+00 0.000000000000000e+00

0.000000000000000e+00 0.000000000000000e+00 0.000000000000000e+00
0.000000000000000e+00 0.000000000000000e+00 0.000000000000000e+00
0.000000000000000e+00 0.000000000000000e+00 0.000000000000000e+00

0.000000000000000e+00 0.000000000000000e+00 0.000000000000000e+00
0.000000000000000e+00 0.000000000000000e+00 0.000000000000000e+00
0.000000000000000e+00 0.000000000000000e+00 0.000000000000000e+00

0.000000000000000e+00 0.000000000000000e+00 0.000000000000000e+00
0.000000000000000e+00 0.000000000000000e+00 0.000000000000000e+00
0.000000000000000e+00 0.000000000000000e+00 0.000000000000000e+00

0.000000000000000e+00 0.000000000000000e+00 0.000000000000000e+00
0.000000000000000e+00 0.000000000000000e+00 0.000000000000000e+00
0.000000000000000e+00 0.000000000000000e+00 0.000000000000000e+00

0.000000000000000e+00 0.000000000000000e+00 0.000000000000000e+00
0.000000000000000e+00 0.000000000000000e+00 0.000000000000000e+00
0.000000000000000e+00 0.000000000000000e+00 0.000000000000000e+00

0.000000000000000e+00 0.000000000000000e+00 0.000000000000000e+00
0.000000000000000e+00 0.000000000000000e+00 0.000000000000000e+00
0.000000000000000e+00 0.000000000000000e+00 0.000000000000000e+00

0.000000000000000e+00 0.000000000000000e+00 0.000000000000000e+00
0.000000000000000e+00 0.000000000000000e+00 0.000000000000000e+00
0.000000000000000e+00 0.000000000000000e+00 0.000000000000000e+00

0.000000000000000e+00 0.000000000000000e+00 0.000000000000000e+00
0.000000000000000e+00 0.000000000000000e+00 0.000000000000000e+00
0.000000000000000e+00 0.000000000000000e+00 0.000000000000000e+00

0.000000000000000e+00 0.000000000000000e+00 0.000000000000000e+00
0.000000000000000e+00 0.000000000000000e+00 0.000000000000000e+00
0.000000000000000e+00 0.000000000000000e+00 0.000000000000000e+00

0.000000000000000e+00 0.000000000000000e+00 0.000000000000000e+00
0.000000000000000e+00 0.000000000000000e+00 0.000000000000000e+00
0.000000000000000e+00 0.000000000000000e+00 0.000000000000000e+00

0.000000000000000e+00 0.000000000000000e+00 0.000000000000000e+00
0.000000000000000e+00 0.000000000000000e+00 0.000000000000000e+00
0.000000000000000e+00 0.000000000000000e+00 0.000000000000000e+00

0.000000000000000e+00 0.000000000000000e+00 0.000000000000000e+00
0.000000000000000e+00 0.000000000000000e+00 0.000000000000000e+00
0.000000000000000e+00 0.000000000000000e+00 0.000000000000000e+00

0.000000000000000e+00 0.000000000000000e+00 0.000000000000000e+00
0.000000000000000e+00 0.000000000000000e+00 0.000000000000000e+00
0.000000000000000e+00 0.000000000000000e+00 0.000000000000000e+00

0.000000000000000e+00 0.000000000000000e+00 0.000000000000000e+00
0.000000000000000e+00 0.000000000000000e+00 0.000000000000000e+00
0.000000000000000e+00 0.000000000000000e+00 0.000000000000000e+00

0.000000000000000e+00 0.000000000000000e+00 0.000000000000000e+00
0.000000000000000e+00 0.000000000000000e+00 0.000000000000000e+00
0.000000000000000e+00 0.000000000000000e+00 0.000000000000000e+00

0.000000000000000e+00 0.000000000000000e+00 0.000000000000000e+00
0.000000000000000e+00 0.000000000000000e+00 0.000000000000000e+00
0.000000000000000e+00 0.000000000000000e+00 0.000000000000000e+00

0.000000000000000e+00 0.000000000000000e+00 0.000000000000000e+00
0.000000000000000e+00 0.000000000000000e+00 0.000000000000000e+00
0.000000000000000e+00 0.000000000000000e+00 0.000000000000000e+00

0.000000000000000e+00 0.000000000000000e+00 0.000000000000000e+00
0.000000000000000e+00 0.000000000000000e+00 0.000000000000000e+00
0.000000000000000e+00 0.000000000000000e+00 0.000000000000000e+00

0.000000000000000e+00 0.000000000000000e+00 0.000000000000000e+00
0.000000000000000e+00 0.000000000000000e+00 0.000000000000000e+00
0.000000000000000e+00 0.000000000000000e+00 0.000000000000000e+00

0.000000000000000e+00 0.000000000000000e+00 0.000000000000000e+00
0.000000000000000e+00 0.000000000000000e+00 0.000000000000000e+00
0.000000000000000e+00 0.000000000000000e+00 0.000000000000000e+00

0.000000000000000e+00 0.000000000000000e+00 0.000000000000000e+00
0.000000000000000e+00 0.000000000000000e+00 0.000000000000000e+00
0.000000000000000e+00 0.000000000000000e+00 0.000000000000000e+00

0.000000000000000e+00 0.000000000000000e+00 0.000000000000000e+00
0.000000000000000e+00 0.000000000000000e+00 0.000000000000000e+00
0.000000000000000e+00 0.000000000000000e+00 0.000000000000000e+00

0.000000000000000e+00 0.000000000000000e+00 0.000000000000000e+00
0.000000000000000e+00 0.000000000000000e+00 0.000000000000000e+00
0.000000000000000e+00 0.000000000000000e+00 0.000000000000000e+00

0.000000000000000e+00 0.000000000000000e+00 0.000000000000000e+00
0.000000000000000e+00 0.000000000000000e+00 0.000000000000000e+00
0.000000000000000e+00 0.000000000000000e+00 0.000000000000000e+00

0.000000000000000e+00 0.000000000000000e+00 0.000000000000000e+00
0.000000000000000e+00 0.000000000000000e+00 0.000000000000000e+00
0.000000000000000e+00 0.000000000000000e+00 0.000000000000000e+00

0.000000000000000e+00 0.000000000000000e+00 0.000000000000000e+00
0.000000000000000e+00 0.000000000000000e+00 0.000000000000000e+00
0.000000000000000e+00 0.000000000000000e+00 0.000000000000000e+00

0.000000000000000e+00 0.000000000000000e+00 0.000000000000000e+00
0.000000000000000e+00 0.000000000000000e+00 0.000000000000000e+00
0.000000000000000e+00 0.000000000000000e+00 0.000000000000000e+00

0.000000000000000e+00 0.000000000000000e+00 0.000000000000000e+00
0.000000000000000e+00 0.000000000000000e+00 0.000000000000000e+00
0.000000000000000e+00 0.000000000000000e+00 0.000000000000000e+00

0.000000000000000e+00 0.000000000000000e+00 0.000000000000000e+00
0.000000000000000e+00 0.000000000000000e+00 0.000000000000000e+00
0.000000000000000e+00 0.000000000000000e+00 0.000000000000000e+00

0.000000000000000e+00 0.000000000000000e+00 0.000000000000000e+00
0.000000000000000e+00 0.000000000000000e+00 0.000000000000000e+00
0.000000000000000e+00 0.000000000000000e+00 0.000000000000000e+00

0.000000000000000e+00 0.000000000000000e+00 0.000000000000000e+00
0.000000000000000e+00 0.000000000000000e+00 0.000000000000000e+00
0.000000000000000e+00 0.000000000000000e+00 0.000000000000000e+00

0.000000000000000e+00 0.000000000000000e+00 0.000000000000000e+00
0.000000000000000e+00 0.000000000000000e+00 0.000000000000000e+00
0.000000000000000e+00 0.000000000000000e+00 0.000000000000000e+00

0.000000000000000e+00 0.000000000000000e+00 0.000000000000000e+00
0.000000000000000e+00 0.000000000000000e+00 0.000000000000000e+00
0.000000000000000e+00 0.000000000000000e+00 0.000000000000000e+00

0.000000000000000e+00 0.000000000000000e+00 0.000000000000000e+00
0.000000000000000e+00 0.000000000000000e+00 0.000000000000000e+00
0.000000000000000e+00 0.000000000000000e+00 0.000000000000000e+00

0.000000000000000e+00 0.000000000000000e+00 0.000000000000000e+00
0.000000000000000e+00 0.000000000000000e+00 0.000000000000000e+00
0.000000000000000e+00 0.000000000000000e+00 0.000000000000000e+00

0.000000000000000e+00 0.000000000000000e+00 0.000000000000000e+00
0.000000000000000e+00 0.000000000000000e+00 0.000000000000000e+00
0.000000000000000e+00 0.000000000000000e+00 0.000000000000000e+00

0.000000000000000e+00 0.000000000000000e+00 0.000000000000000e+00
0.000000000000000e+00 0.000000000000000e+00 0.000000000000000e+00
0.000000000000000e+00 0.000000000000000e+00 0.000000000000000e+00

0.000000000000000e+00 0.000000000000000e+00 0.000000000000000e+00
0.000000000000000e+00 0.000000000000000e+00 0.000000000000000e+00
0.000000000000000e+00 0.000000000000000e+00 0.000000000000000e+00

0.000000000000000e+00 0.000000000000000e+00 0.000000000000000e+00
0.000000000000000e+00 0.000000000000000e+00 0.000000000000000e+00
0.000000000000000e+00 0.000000000000000e+00 0.000000000000000e+00

0.000000000000000e+00 0.000000000000000e+00 0.000000000000000e+00
0.000000000000000e+00 0.000000000000000e+00 0.000000000000000e+00
0.000000000000000e+00 0.000000000000000e+00 0.000000000000000e+00

0.000000000000000e+00 0.000000000000000e+00 0.000000000000000e+00
0.000000000000000e+00 0.000000000000000e+00 0.000000000000000e+00
0.000000000000000e+00 0.000000000000000e+00 0.000000000000000e+00

0.000000000000000e+00 0.000000000000000e+00 0.000000000000000e+00
0.000000000000000e+00 0.000000000000000e+00 0.000000000000000e+00
0.000000000000000e+00 0.000000000000000e+00 0.000000000000000e+00

0.000000000000000e+00 0.000000000000000e+00 0.000000000000000e+00
0.000000000000000e+00 0.000000000000000e+00 0.000000000000000e+00
0.000000000000000e+00 0.000000000000000e+00 0.000000000000000e+00

0.000000000000000e+00 0.000000000000000e+00 0.000000000000000e+00
0.000000000000000e+00 0.000000000000000e+00 0.000000000000000e+00
0.000000000000000e+00 0.000000000000000e+00 0.000000000000000e+00

0.000000000000000e+00 0.000000000000000e+00 0.000000000000000e+00
0.000000000000000e+00 0.000000000000000e+00 0.000000000000000e+00
0.000000000000000e+00 0.000000000000000e+00 0.000000000000000e+00

0.000000000000000e+00 0.000000000000000e+00 0.000000000000000e+00
0.000000000000000e+00 0.000000000000000e+00 0.000000000000000e+00
0.000000000000000e+00 0.000000000000000e+00 0.000000000000000e+00

0.000000000000000e+00 0.000000000000000e+00 0.000000000000000e+00
0.000000000000000e+00 0.000000000000000e+00 0.000000000000000e+00
0.000000000000000e+00 0.000000000000000e+00 0.000000000000000e+00

0.000000000000000e+00 0.000000000000000e+00 0.000000000000000e+00
0.000000000000000e+00 0.000000000000000e+00 0.000000000000000e+00
0.000000000000000e+00 0.000000000000000e+00 0.000000000000000e+00

0.000000000000000e+00 0.000000000000000e+00 0.000000000000000e+00
0.000000000000000e+00 0.000000000000000e+00 0.000000000000000e+00
0.000000000000000e+00 0.000000000000000e+00 0.000000000000000e+00

0.000000000000000e+00 0.000000000000000e+00 0.000000000000000e+00
0.000000000000000e+00 0.000000000000000e+00 0.000000000000000e+00
0.000000000000000e+00 0.000000000000000e+00 0.000000000000000e+00

0.000000000000000e+00 0.000000000000000e+00 0.000000000000000e+00
0.000000000000000e+00 0.000000000000000e+00 0.000000000000000e+00
0.000000000000000e+00 0.000000000000000e+00 0.000000000000000e+00

0.000000000000000e+00 0.000000000000000e+00 0.000000000000000e+00
0.000000000000000e+00 0.000000000000000e+00 0.000000000000000e+00
0.000000000000000e+00 0.000000000000000e+00 0.000000000000000e+00

0.000000000000000e+00 0.000000000000000e+00 0.000000000000000e+00
0.000000000000000e+00 0.000000000000000e+00 0.000000000000000e+00
0.000000000000000e+00 0.000000000000000e+00 0.000000000000000e+00

0.000000000000000e+00 0.000000000000000e+00 0.000000000000000e+00
0.000000000000000e+00 0.000000000000000e+00 0.000000000000000e+00
0.000000000000000e+00 0.000000000000000e+00 0.000000000000000e+00

0.000000000000000e+00 0.000000000000000e+00 0.000000000000000e+00
0.000000000000000e+00 0.000000000000000e+00 0.000000000000000e+00
0.000000000000000e+00 0.000000000000000e+00 0.000000000000000e+00

0.000000000000000e+00 0.000000000000000e+00 0.000000000000000e+00
0.000000000000000e+00 0.000000000000000e+00 0.000000000000000e+00
0.000000000000000e+00 0.000000000000000e+00 0.000000000000000e+00

0.000000000000000e+00 0.000000000000000e+00 0.000000000000000e+00
0.000000000000000e+00 0.000000000000000e+00 0.000000000000000e+00
0.000000000000000e+00 0.000000000000000e+00 0.000000000000000e+00

0.000000000000000e+00 0.000000000000000e+00 0.000000000000000e+00
0.000000000000000e+00 0.000000000000000e+00 0.000000000000000e+00
0.000000000000000e+00 0.000000000000000e+00 0.000000000000000e+00

0.000000000000000e+00 0.000000000000000e+00 0.000000000000000e+00
0.000000000000000e+00 0.000000000000000e+00 0.000000000000000e+00
0.000000000000000e+00 0.000000000000000e+00 0.000000000000000e+00

0.000000000000000e+00 0.000000000000000e+00 0.000000000000000e+00
0.000000000000000e+00 0.000000000000000e+00 0.000000000000000e+00
0.000000000000000e+00 0.000000000000000e+00 0.000000000000000e+00

0.000000000000000e+00 0.000000000000000e+00 0.000000000000000e+00
0.000000000000000e+00 0.000000000000000e+00 0.000000000000000e+00
0.000000000000000e+00 0.000000000000000e+00 0.000000000000000e+00

0.000000000000000e+00 0.000000000000000e+00 0.000000000000000e+00
0.000000000000000e+00 0.000000000000000e+00 0.000000000000000e+00
0.000000000000000e+00 0.000000000000000e+00 0.000000000000000e+00

0.000000000000000e+00 0.000000000000000e+00 0.000000000000000e+00
0.000000000000000e+00 0.000000000000000e+00 0.000000000000000e+00
0.000000000000000e+00 0.000000000000000e+00 0.000000000000000e+00

0.000000000000000e+00 0.000000000000000e+00 0.000000000000000e+00
0.000000000000000e+00 0.000000000000000e+00 0.000000000000000e+00
0.000000000000000e+00 0.000000000000000e+00 0.000000000000000e+00

0.000000000000000e+00 0.000000000000000e+00 0.000000000000000e+00
0.000000000000000e+00 0.000000000000000e+00 0.000000000000000e+00
0.000000000000000e+00 0.000000000000000e+00 0.000000000000000e+00

0.000000000000000e+00 0.000000000000000e+00 0.000000000000000e+00
0.000000000000000e+00 0.000000000000000e+00 0.000000000000000e+00
0.000000000000000e+00 0.000000000000000e+00 0.000000000000000e+00

0.000000000000000e+00 0.000000000000000e+00 0.000000000000000e+00
0.000000000000000e+00 0.000000000000000e+00 0.000000000000000e+00
0.000000000000000e+00 0.000000000000000e+00 0.000000000000000e+00

0.000000000000000e+00 0.000000000000000e+00 0.000000000000000e+00
0.000000000000000e+00 0.000000000000000e+00 0.000000000000000e+00
0.000000000000000e+00 0.000000000000000e+00 0.000000000000000e+00

0.000000000000000e+00 0.000000000000000e+00 0.000000000000000e+00
0.000000000000000e+00 0.000000000000000e+00 0.000000000000000e+00
0.000000000000000e+00 0.000000000000000e+00 0.000000000000000e+00

0.000000000000000e+00 0.000000000000000e+00 0.000000000000000e+00
0.000000000000000e+00 0.000000000000000e+00 0.000000000000000e+00
0.000000000000000e+00 0.000000000000000e+00 0.000000000000000e+00

0.000000000000000e+00 0.000000000000000e+00 0.000000000000000e+00
0.000000000000000e+00 0.000000000000000e+00 0.000000000000000e+00
0.000000000000000e+00 0.000000000000000e+00 0.000000000000000e+00

0.000000000000000e+00 0.000000000000000e+00 0.000000000000000e+00
0.000000000000000e+00 0.000000000000000e+00 0.000000000000000e+00
0.000000000000000e+00 0.000000000000000e+00 0.000000000000000e+00

0.000000000000000e+00 0.000000000000000e+00 0.000000000000000e+00
0.000000000000000e+00 0.000000000000000e+00 0.000000000000000e+00
0.000000000000000e+00 0.000000000000000e+00 0.000000000000000e+00

0.000000000000000e+00 0.000000000000000e+00 0.000000000000000e+00
0.000000000000000e+00 0.000000000000000e+00 0.000000000000000e+00
0.000000000000000e+00 0.000000000000000e+00 0.000000000000000e+00

0.000000000000000e+00 0.000000000000000e+00 0.000000000000000e+00
0.000000000000000e+00 0.000000000000000e+00 0.000000000000000e+00
0.000000000000000e+00 0.000000000000000e+00 0.000000000000000e+00

0.000000000000000e+00 0.000000000000000e+00 0.000000000000000e+00
0.000000000000000e+00 0.000000000000000e+00 0.000000000000000e+00
0.000000000000000e+00 0.000000000000000e+00 0.000000000000000e+00

0.000000000000000e+00 0.000000000000000e+00 0.000000000000000e+00
0.000000000000000e+00 0.000000000000000e+00 0.000000000000000e+00
0.000000000000000e+00 0.000000000000000e+00 0.000000000000000e+00

0.000000000000000e+00 0.000000000000000e+00 0.000000000000000e+00
0.000000000000000e+00 0.000000000000000e+00 0.000000000000000e+00
0.000000000000000e+00 0.000000000000000e+00 0.000000000000000e+00

0.000000000000000e+00 0.000000000000000e+00 0.000000000000000e+00
0.000000000000000e+00 0.000000000000000e+00 0.000000000000000e+00
0.000000000000000e+00 0.000000000000000e+00 0.000000000000000e+00

0.000000000000000e+00 0.000000000000000e+00 0.000000000000000e+00
0.000000000000000e+00 0.000000000000000e+00 0.000000000000000e+00
0.000000000000000e+00 0.000000000000000e+00 0.000000000000000e+00

0.000000000000000e+00 0.000000000000000e+00 0.000000000000000e+00
0.000000000000000e+00 0.000000000000000e+00 0.000000000000000e+00
0.000000000000000e+00 0.000000000000000e+00 0.000000000000000e+00

0.000000000000000e+00 0.000000000000000e+00 0.000000000000000e+00
0.000000000000000e+00 0.000000000000000e+00 0.000000000000000e+00
0.000000000000000e+00 0.000000000000000e+00 0.000000000000000e+00

0.000000000000000e+00 0.000000000000000e+00 0.000000000000000e+00
0.000000000000000e+00 0.000000000000000e+00 0.000000000000000e+00
0.000000000000000e+00 0.000000000000000e+00 0.000000000000000e+00

0.000000000000000e+00 0.000000000000000e+00 0.000000000000000e+00
0.000000000000000e+00 0.000000000000000e+00 0.000000000000000e+00
0.000000000000000e+00 0.000000000000000e+00 0.000000000000000e+00

0.000000000000000e+00 0.000000000000000e+00 0.000000000000000e+00
0.000000000000000e+00 0.000000000000000e+00 0.000000000000000e+00
0.000000000000000e+00 0.000000000000000e+00 0.000000000000000e+00

0.000000000000000e+00 0.000000000000000e+00 0.000000000000000e+00
0.000000000000000e+00 0.000000000000000e+00 0.000000000000000e+00
0.000000000000000e+00 0.000000000000000e+00 0.000000000000000e+00

0.000000000000000e+00 0.000000000000000e+00 0.000000000000000e+00
0.000000000000000e+00 0.000000000000000e+00 0.000000000000000e+00
0.000000000000000e+00 0.000000000000000e+00 0.000000000000000e+00

0.000000000000000e+00 0.000000000000000e+00 0.000000000000000e+00
0.000000000000000e+00 0.000000000000000e+00 0.000000000000000e+00
0.000000000000000e+00 0.000000000000000e+00 0.000000000000000e+00

0.000000000000000e+00 0.000000000000000e+00 0.000000000000000e+00
0.000000000000000e+00 0.000000000000000e+00 0.000000000000000e+00
0.000000000000000e+00 0.000000000000000e+00 0.000000000000000e+00

0.000000000000000e+00 0.000000000000000e+00 0.000000000000000e+00
0.000000000000000e+00 0.000000000000000e+00 0.000000000000000e+00
0.000000000000000e+00 0.000000000000000e+00 0.000000000000000e+00

0.000000000000000e+00 0.000000000000000e+00 0.000000000000000e+00
0.000000000000000e+00 0.000000000000000e+00 0.000000000000000e+00
0.000000000000000e+00 0.000000000000000e+00 0.000000000000000e+00

0.000000000000000e+00 0.000000000000000e+00 0.000000000000000e+00
0.000000000000000e+00 0.000000000000000e+00 0.000000000000000e+00
0.000000000000000e+00 0.000000000000000e+00 0.000000000000000e+00

0.000000000000000e+00 0.000000000000000e+00 0.000000000000000e+00
0.000000000000000e+00 0.000000000000000e+00 0.000000000000000e+00
0.000000000000000e+00 0.000000000000000e+00 0.000000000000000e+00

0.000000000000000e+00 0.000000000000000e+00 0.000000000000000e+00
0.000000000000000e+00 0.000000000000000e+00 0.000000000000000e+00
0.000000000000000e+00 0.000000000000000e+00 0.000000000000000e+00

0.000000000000000e+00 0.000000000000000e+00 0.000000000000000e+00
0.000000000000000e+00 0.000000000000000e+00 0.000000000000000e+00
0.000000000000000e+00 0.000000000000000e+00 0.000000000000000e+00

0.000000000000000e+00 0.000000000000000e+00 0.000000000000000e+00
0.000000000000000e+00 0.000000000000000e+00 0.000000000000000e+00
0.000000000000000e+00 0.000000000000000e+00 0.000000000000000e+00

0.000000000000000e+00 0.000000000000000e+00 0.000000000000000e+00
0.000000000000000e+00 0.000000000000000e+00 0.000000000000000e+00
0.000000000000000e+00 0.000000000000000e+00 0.000000000000000e+00

0.000000000000000e+00 0.000000000000000e+00 0.000000000000000e+00
0.000000000000000e+00 0.000000000000000e+00 0.000000000000000e+00
0.000000000000000e+00 0.000000000000000e+00 0.000000000000000e+00

0.000000000000000e+00 0.000000000000000e+00 0.000000000000000e+00
0.000000000000000e+00 0.000000000000000e+00 0.000000000000000e+00
0.000000000000000e+00 0.000000000000000e+00 0.000000000000000e+00

0.000000000000000e+00 0.000000000000000e+00 0.000000000000000e+00
0.000000000000000e+00 0.000000000000000e+00 0.000000000000000e+00
0.000000000000000e+00 0.000000000000000e+00 0.000000000000000e+00

0.000000000000000e+00 0.000000000000000e+00 0.000000000000000e+00
0.000000000000000e+00 0.000000000000000e+00 0.000000000000000e+00
0.000000000000000e+00 0.000000000000000e+00 0.000000000000000e+00

0.000000000000000e+00 0.000000000000000e+00 0.000000000000000e+00
0.000000000000000e+00 0.000000000000000e+00 0.000000000000000e+00
0.000000000000000e+00 0.000000000000000e+00 0.000000000000000e+00

0.000000000000000e+00 0.000000000000000e+00 0.000000000000000e+00
0.000000000000000e+00 0.000000000000000e+00 0.000000000000000e+00
0.000000000000000e+00 0.000000000000000e+00 0.000000000000000e+00

0.000000000000000e+00 0.000000000000000e+00 0.000000000000000e+00
0.000000000000000e+00 0.000000000000000e+00 0.000000000000000e+00
0.000000000000000e+00 0.000000000000000e+00 0.000000000000000e+00

0.000000000000000e+00 0.000000000000000e+00 0.000000000000000e+00
0.000000000000000e+00 0.000000000000000e+00 0.000000000000000e+00
0.000000000000000e+00 0.000000000000000e+00 0.000000000000000e+00

0.000000000000000e+00 0.000000000000000e+00 0.000000000000000e+00
0.000000000000000e+00 0.000000000000000e+00 0.000000000000000e+00
0.000000000000000e+00 0.000000000000000e+00 0.000000000000000e+00

0.000000000000000e+00 0.000000000000000e+00 0.000000000000000e+00
0.000000000000000e+00 0.000000000000000e+00 0.000000000000000e+00
0.000000000000000e+00 0.000000000000000e+00 0.000000000000000e+00

0.000000000000000e+00 0.000000000000000e+00 0.000000000000000e+00
0.000000000000000e+00 0.000000000000000e+00 0.000000000000000e+00
0.000000000000000e+00 0.000000000000000e+00 0.000000000000000e+00

0.000000000000000e+00 0.000000000000000e+00 0.000000000000000e+00
0.000000000000000e+00 0.000000000000000e+00 0.000000000000000e+00
0.000000000000000e+00 0.000000000000000e+00 0.000000000000000e+00

0.000000000000000e+00 0.000000000000000e+00 0.000000000000000e+00
0.000000000000000e+00 0.000000000000000e+00 0.000000000000000e+00
0.000000000000000e+00 0.000000000000000e+00 0.000000000000000e+00

0.000000000000000e+00 0.000000000000000e+00 0.000000000000000e+00
0.000000000000000e+00 0.000000000000000e+00 0.000000000000000e+00
0.000000000000000e+00 0.000000000000000e+00 0.000000000000000e+00

0.000000000000000e+00 0.000000000000000e+00 0.000000000000000e+00
0.000000000000000e+00 0.000000000000000e+00 0.000000000000000e+00
0.000000000000000e+00 0.000000000000000e+00 0.000000000000000e+00

0.000000000000000e+00 0.000000000000000e+00 0.000000000000000e+00
0.000000000000000e+00 0.000000000000000e+00 0.000000000000000e+00
0.000000000000000e+00 0.000000000000000e+00 0.000000000000000e+00

0.000000000000000e+00 0.000000000000000e+00 0.000000000000000e+00
0.000000000000000e+00 0.000000000000000e+00 0.000000000000000e+00
0.000000000000000e+00 0.000000000000000e+00 0.000000000000000e+00

0.000000000000000e+00 0.000000000000000e+00 0.000000000000000e+00
0.000000000000000e+00 0.000000000000000e+00 0.000000000000000e+00
0.000000000000000e+00 0.000000000000000e+00 0.000000000000000e+00

0.000000000000000e+00 0.000000000000000e+00 0.000000000000000e+00
0.000000000000000e+00 0.000000000000000e+00 0.000000000000000e+00
0.000000000000000e+00 0.000000000000000e+00 0.000000000000000e+00

0.000000000000000e+00 0.000000000000000e+00 0.000000000000000e+00
0.000000000000000e+00 0.000000000000000e+00 0.000000000000000e+00
0.000000000000000e+00 0.000000000000000e+00 0.000000000000000e+00

0.000000000000000e+00 0.000000000000000e+00 0.000000000000000e+00
0.000000000000000e+00 0.000000000000000e+00 0.000000000000000e+00
0.000000000000000e+00 0.000000000000000e+00 0.000000000000000e+00

0.000000000000000e+00 0.000000000000000e+00 0.000000000000000e+00
0.000000000000000e+00 0.000000000000000e+00 0.000000000000000e+00
0.000000000000000e+00 0.000000000000000e+00 0.000000000000000e+00

0.000000000000000e+00 0.000000000000000e+00 0.000000000000000e+00
0.000000000000000e+00 0.000000000000000e+00 0.000000000000000e+00
0.000000000000000e+00 0.000000000000000e+00 0.000000000000000e+00

0.000000000000000e+00 0.000000000000000e+00 0.000000000000000e+00
0.000000000000000e+00 0.000000000000000e+00 0.000000000000000e+00
0.000000000000000e+00 0.000000000000000e+00 0.000000000000000e+00

0.000000000000000e+00 0.000000000000000e+00 0.000000000000000e+00
0.000000000000000e+00 0.000000000000000e+00 0.000000000000000e+00
0.000000000000000e+00 0.000000000000000e+00 0.000000000000000e+00

0.000000000000000e+00 0.000000000000000e+00 0.000000000000000e+00
0.000000000000000e+00 0.000000000000000e+00 0.000000000000000e+00
0.000000000000000e+00 0.000000000000000e+00 0.000000000000000e+00

0.000000000000000e+00 0.000000000000000e+00 0.000000000000000e+00
0.000000000000000e+00 0.000000000000000e+00 0.000000000000000e+00
0.000000000000000e+00 0.000000000000000e+00 0.000000000000000e+00

0.000000000000000e+00 0.000000000000000e+00 0.000000000000000e+00
0.000000000000000e+00 0.000000000000000e+00 0.000000000000000e+00
0.000000000000000e+00 0.000000000000000e+00 0.000000000000000e+00

0.000000000000000e+00 0.000000000000000e+00 0.000000000000000e+00
0.000000000000000e+00 0.000000000000000e+00 0.000000000000000e+00
0.000000000000000e+00 0.000000000000000e+00 0.000000000000000e+00

0.000000000000000e+00 0.000000000000000e+00 0.000000000000000e+00
0.000000000000000e+00 0.000000000000000e+00 0.000000000000000e+00
0.000000000000000e+00 0.000000000000000e+00 0.000000000000000e+00

0.000000000000000e+00 0.000000000000000e+00 0.000000000000000e+00
0.000000000000000e+00 0.000000000000000e+00 0.000000000000000e+00
0.000000000000000e+00 0.000000000000000e+00 0.000000000000000e+00

0.000000000000000e+00 0.000000000000000e+00 0.000000000000000e+00
0.000000000000000e+00 0.000000000000000e+00 0.000000000000000e+00
0.000000000000000e+00 0.000000000000000e+00 0.000000000000000e+00

0.000000000000000e+00 0.000000000000000e+00 0.000000000000000e+00
0.000000000000000e+00 0.000000000000000e+00 0.000000000000000e+00
0.000000000000000e+00 0.000000000000000e+00 0.000000000000000e+00

0.000000000000000e+00 0.000000000000000e+00 0.000000000000000e+00
0.000000000000000e+00 0.000000000000000e+00 0.000000000000000e+00
0.000000000000000e+00 0.000000000000000e+00 0.000000000000000e+00

0.000000000000000e+00 0.000000000000000e+00 0.000000000000000e+00
0.000000000000000e+00 0.000000000000000e+00 0.000000000000000e+00
0.000000000000000e+00 0.000000000000000e+00 0.000000000000000e+00

0.000000000000000e+00 0.000000000000000e+00 0.000000000000000e+00
0.000000000000000e+00 0.000000000000000e+00 0.000000000000000e+00
0.000000000000000e+00 0.000000000000000e+00 0.000000000000000e+00

0.000000000000000e+00 0.000000000000000e+00 0.000000000000000e+00
0.000000000000000e+00 0.000000000000000e+00 0.000000000000000e+00
0.000000000000000e+00 0.000000000000000e+00 0.000000000000000e+00

0.000000000000000e+00 0.000000000000000e+00 0.000000000000000e+00
0.000000000000000e+00 0.000000000000000e+00 0.000000000000000e+00
0.000000000000000e+00 0.000000000000000e+00 0.000000000000000e+00

0.000000000000000e+00 0.000000000000000e+00 0.000000000000000e+00
0.000000000000000e+00 0.000000000000000e+00 0.000000000000000e+00
0.000000000000000e+00 0.000000000000000e+00 0.000000000000000e+00

0.000000000000000e+00 0.000000000000000e+00 0.000000000000000e+00
0.000000000000000e+00 0.000000000000000e+00 0.000000000000000e+00
0.000000000000000e+00 0.000000000000000e+00 0.000000000000000e+00

0.000000000000000e+00 0.000000000000000e+00 0.000000000000000e+00
0.000000000000000e+00 0.000000000000000e+00 0.000000000000000e+00
0.000000000000000e+00 0.000000000000000e+00 0.000000000000000e+00

0.000000000000000e+00 0.000000000000000e+00 0.000000000000000e+00
0.000000000000000e+00 0.000000000000000e+00 0.000000000000000e+00
0.000000000000000e+00 0.000000000000000e+00 0.000000000000000e+00

0.000000000000000e+00 0.000000000000000e+00 0.000000000000000e+00
0.000000000000000e+00 0.000000000000000e+00 0.000000000000000e+00
0.000000000000000e+00 0.000000000000000e+00 0.000000000000000e+00

0.000000000000000e+00 0.000000000000000e+00 0.000000000000000e+00
0.000000000000000e+00 0.000000000000000e+00 0.000000000000000e+00
0.000000000000000e+00 0.000000000000000e+00 0.000000000000000e+00

0.000000000000000e+00 0.000000000000000e+00 0.000000000000000e+00
0.000000000000000e+00 0.000000000000000e+00 0.000000000000000e+00
0.000000000000000e+00 0.000000000000000e+00 0.000000000000000e+00

0.000000000000000e+00 0.000000000000000e+00 0.000000000000000e+00
0.000000000000000e+00 0.000000000000000e+00 0.000000000000000e+00
0.000000000000000e+00 0.000000000000000e+00 0.000000000000000e+00

0.000000000000000e+00 0.000000000000000e+00 0.000000000000000e+00
0.000000000000000e+00 0.000000000000000e+00 0.000000000000000e+00
0.000000000000000e+00 0.000000000000000e+00 0.000000000000000e+00

0.000000000000000e+00 0.000000000000000e+00 0.000000000000000e+00
0.000000000000000e+00 0.000000000000000e+00 0.000000000000000e+00
0.000000000000000e+00 0.000000000000000e+00 0.000000000000000e+00

0.000000000000000e+00 0.000000000000000e+00 0.000000000000000e+00
0.000000000000000e+00 0.000000000000000e+00 0.000000000000000e+00
0.000000000000000e+00 0.000000000000000e+00 0.000000000000000e+00

0.000000000000000e+00 0.000000000000000e+00 0.000000000000000e+00
0.000000000000000e+00 0.000000000000000e+00 0.000000000000000e+00
0.000000000000000e+00 0.000000000000000e+00 0.000000000000000e+00

0.000000000000000e+00 0.000000000000000e+00 0.000000000000000e+00
0.000000000000000e+00 0.000000000000000e+00 0.000000000000000e+00
0.000000000000000e+00 0.000000000000000e+00 0.000000000000000e+00

0.000000000000000e+00 0.000000000000000e+00 0.000000000000000e+00
0.000000000000000e+00 0.000000000000000e+00 0.000000000000000e+00
0.000000000000000e+00 0.000000000000000e+00 0.000000000000000e+00

0.000000000000000e+00 0.000000000000000e+00 0.000000000000000e+00
0.000000000000000e+00 0.000000000000000e+00 0.000000000000000e+00
0.000000000000000e+00 0.000000000000000e+00 0.000000000000000e+00

0.000000000000000e+00 0.000000000000000e+00 0.000000000000000e+00
0.000000000000000e+00 0.000000000000000e+00 0.000000000000000e+00
0.000000000000000e+00 0.000000000000000e+00 0.000000000000000e+00

0.000000000000000e+00 0.000000000000000e+00 0.000000000000000e+00
0.000000000000000e+00 0.000000000000000e+00 0.000000000000000e+00
0.000000000000000e+00 0.000000000000000e+00 0.000000000000000e+00

0.000000000000000e+00 0.000000000000000e+00 0.000000000000000e+00
0.000000000000000e+00 0.000000000000000e+00 0.000000000000000e+00
0.000000000000000e+00 0.000000000000000e+00 0.000000000000000e+00

0.000000000000000e+00 0.000000000000000e+00 0.000000000000000e+00
0.000000000000000e+00 0.000000000000000e+00 0.000000000000000e+00
0.000000000000000e+00 0.000000000000000e+00 0.000000000000000e+00

0.000000000000000e+00 0.000000000000000e+00 0.000000000000000e+00
0.000000000000000e+00 0.000000000000000e+00 0.000000000000000e+00
0.000000000000000e+00 0.000000000000000e+00 0.000000000000000e+00

0.000000000000000e+00 0.000000000000000e+00 0.000000000000000e+00
0.000000000000000e+00 0.000000000000000e+00 0.000000000000000e+00
0.000000000000000e+00 0.000000000000000e+00 0.000000000000000e+00

0.000000000000000e+00 0.000000000000000e+00 0.000000000000000e+00
0.000000000000000e+00 0.000000000000000e+00 0.000000000000000e+00
0.000000000000000e+00 0.000000000000000e+00 0.000000000000000e+00

0.000000000000000e+00 0.000000000000000e+00 0.000000000000000e+00
0.000000000000000e+00 0.000000000000000e+00 0.000000000000000e+00
0.000000000000000e+00 0.000000000000000e+00 0.000000000000000e+00

0.000000000000000e+00 0.000000000000000e+00 0.000000000000000e+00
0.000000000000000e+00 0.000000000000000e+00 0.000000000000000e+00
0.000000000000000e+00 0.000000000000000e+00 0.000000000000000e+00

0.000000000000000e+00 0.000000000000000e+00 0.000000000000000e+00
0.000000000000000e+00 0.000000000000000e+00 0.000000000000000e+00
0.000000000000000e+00 0.000000000000000e+00 0.000000000000000e+00

0.000000000000000e+00 0.000000000000000e+00 0.000000000000000e+00
0.000000000000000e+00 0.000000000000000e+00 0.000000000000000e+00
0.000000000000000e+00 0.000000000000000e+00 0.000000000000000e+00

0.000000000000000e+00 0.000000000000000e+00 0.000000000000000e+00
0.000000000000000e+00 0.000000000000000e+00 0.000000000000000e+00
0.000000000000000e+00 0.000000000000000e+00 0.000000000000000e+00

0.000000000000000e+00 0.000000000000000e+00 0.000000000000000e+00
0.000000000000000e+00 0.000000000000000e+00 0.000000000000000e+00
0.000000000000000e+00 0.000000000000000e+00 0.000000000000000e+00

0.000000000000000e+00 0.000000000000000e+00 0.000000000000000e+00
0.000000000000000e+00 0.000000000000000e+00 0.000000000000000e+00
0.000000000000000e+00 0.000000000000000e+00 0.000000000000000e+00

0.000000000000000e+00 0.000000000000000e+00 0.000000000000000e+00
0.000000000000000e+00 0.000000000000000e+00 0.000000000000000e+00
0.000000000000000e+00 0.000000000000000e+00 0.000000000000000e+00

0.000000000000000e+00 0.000000000000000e+00 0.000000000000000e+00
0.000000000000000e+00 0.000000000000000e+00 0.000000000000000e+00
0.000000000000000e+00 0.000000000000000e+00 0.000000000000000e+00

0.000000000000000e+00 0.000000000000000e+00 0.000000000000000e+00
0.000000000000000e+00 0.000000000000000e+00 0.000000000000000e+00
0.000000000000000e+00 0.000000000000000e+00 0.000000000000000e+00

0.000000000000000e+00 0.000000000000000e+00 0.000000000000000e+00
0.000000000000000e+00 0.000000000000000e+00 0.000000000000000e+00
0.000000000000000e+00 0.000000000000000e+00 0.000000000000000e+00

0.000000000000000e+00 0.000000000000000e+00 0.000000000000000e+00
0.000000000000000e+00 0.000000000000000e+00 0.000000000000000e+00
0.000000000000000e+00 0.000000000000000e+00 0.000000000000000e+00

0.000000000000000e+00 0.000000000000000e+00 0.000000000000000e+00
0.000000000000000e+00 0.000000000000000e+00 0.000000000000000e+00
0.000000000000000e+00 0.000000000000000e+00 0.000000000000000e+00

0.000000000000000e+00 0.000000000000000e+00 0.000000000000000e+00
0.000000000000000e+00 0.000000000000000e+00 0.000000000000000e+00
0.000000000000000e+00 0.000000000000000e+00 0.000000000000000e+00

0.000000000000000e+00 0.000000000000000e+00 0.000000000000000e+00
0.000000000000000e+00 0.000000000000000e+00 0.000000000000000e+00
0.000000000000000e+00 0.000000000000000e+00 0.000000000000000e+00

0.000000000000000e+00 0.000000000000000e+00 0.000000000000000e+00
0.000000000000000e+00 0.000000000000000e+00 0.000000000000000e+00
0.000000000000000e+00 0.000000000000000e+00 0.000000000000000e+00

0.000000000000000e+00 0.000000000000000e+00 0.000000000000000e+00
0.000000000000000e+00 0.000000000000000e+00 0.000000000000000e+00
0.000000000000000e+00 0.000000000000000e+00 0.000000000000000e+00

0.000000000000000e+00 0.000000000000000e+00 0.000000000000000e+00
0.000000000000000e+00 0.000000000000000e+00 0.000000000000000e+00
0.000000000000000e+00 0.000000000000000e+00 0.000000000000000e+00

0.000000000000000e+00 0.000000000000000e+00 0.000000000000000e+00
0.000000000000000e+00 0.000000000000000e+00 0.000000000000000e+00
0.000000000000000e+00 0.000000000000000e+00 0.000000000000000e+00

0.000000000000000e+00 0.000000000000000e+00 0.000000000000000e+00
0.000000000000000e+00 0.000000000000000e+00 0.000000000000000e+00
0.000000000000000e+00 0.000000000000000e+00 0.000000000000000e+00

0.000000000000000e+00 0.000000000000000e+00 0.000000000000000e+00
0.000000000000000e+00 0.000000000000000e+00 0.000000000000000e+00
0.000000000000000e+00 0.000000000000000e+00 0.000000000000000e+00

0.000000000000000e+00 0.000000000000000e+00 0.000000000000000e+00
0.000000000000000e+00 0.000000000000000e+00 0.000000000000000e+00
0.000000000000000e+00 0.000000000000000e+00 0.000000000000000e+00

0.000000000000000e+00 0.000000000000000e+00 0.000000000000000e+00
0.000000000000000e+00 0.000000000000000e+00 0.000000000000000e+00
0.000000000000000e+00 0.000000000000000e+00 0.000000000000000e+00

0.000000000000000e+00 0.000000000000000e+00 0.000000000000000e+00
0.000000000000000e+00 0.000000000000000e+00 0.000000000000000e+00
0.000000000000000e+00 0.000000000000000e+00 0.000000000000000e+00

0.000000000000000e+00 0.000000000000000e+00 0.000000000000000e+00
0.000000000000000e+00 0.000000000000000e+00 0.000000000000000e+00
0.000000000000000e+00 0.000000000000000e+00 0.000000000000000e+00

0.000000000000000e+00 0.000000000000000e+00 0.000000000000000e+00
0.000000000000000e+00 0.000000000000000e+00 0.000000000000000e+00
0.000000000000000e+00 0.000000000000000e+00 0.000000000000000e+00

0.000000000000000e+00 0.000000000000000e+00 0.000000000000000e+00
0.000000000000000e+00 0.000000000000000e+00 0.000000000000000e+00
0.000000000000000e+00 0.000000000000000e+00 0.000000000000000e+00

0.000000000000000e+00 0.000000000000000e+00 0.000000000000000e+00
0.000000000000000e+00 0.000000000000000e+00 0.000000000000000e+00
0.000000000000000e+00 0.000000000000000e+00 0.000000000000000e+00

0.000000000000000e+00 0.000000000000000e+00 0.000000000000000e+00
0.000000000000000e+00 0.000000000000000e+00 0.000000000000000e+00
0.000000000000000e+00 0.000000000000000e+00 0.000000000000000e+00

0.000000000000000e+00 0.000000000000000e+00 0.000000000000000e+00
0.000000000000000e+00 0.000000000000000e+00 0.000000000000000e+00
0.000000000000000e+00 0.000000000000000e+00 0.000000000000000e+00

0.000000000000000e+00 0.000000000000000e+00 0.000000000000000e+00
0.000000000000000e+00 0.000000000000000e+00 0.000000000000000e+00
0.000000000000000e+00 0.000000000000000e+00 0.000000000000000e+00

0.000000000000000e+00 0.000000000000000e+00 0.000000000000000e+00
0.000000000000000e+00 0.000000000000000e+00 0.000000000000000e+00
0.000000000000000e+00 0.000000000000000e+00 0.000000000000000e+00

0.000000000000000e+00 0.000000000000000e+00 0.000000000000000e+00
0.000000000000000e+00 0.000000000000000e+00 0.000000000000000e+00
0.000000000000000e+00 0.000000000000000e+00 0.000000000000000e+00

0.000000000000000e+00 0.000000000000000e+00 0.000000000000000e+00
0.000000000000000e+00 0.000000000000000e+00 0.000000000000000e+00
0.000000000000000e+00 0.000000000000000e+00 0.000000000000000e+00

0.000000000000000e+00 0.000000000000000e+00 0.000000000000000e+00
0.000000000000000e+00 0.000000000000000e+00 0.000000000000000e+00
0.000000000000000e+00 0.000000000000000e+00 0.000000000000000e+00

0.000000000000000e+00 0.000000000000000e+00 0.000000000000000e+00
0.000000000000000e+00 0.000000000000000e+00 0.000000000000000e+00
0.000000000000000e+00 0.000000000000000e+00 0.000000000000000e+00

0.000000000000000e+00 0.000000000000000e+00 0.000000000000000e+00
0.000000000000000e+00 0.000000000000000e+00 0.000000000000000e+00
0.000000000000000e+00 0.000000000000000e+00 0.000000000000000e+00

0.000000000000000e+00 0.000000000000000e+00 0.000000000000000e+00
0.000000000000000e+00 0.000000000000000e+00 0.000000000000000e+00
0.000000000000000e+00 0.000000000000000e+00 0.000000000000000e+00

0.000000000000000e+00 0.000000000000000e+00 0.000000000000000e+00
0.000000000000000e+00 0.000000000000000e+00 0.000000000000000e+00
0.000000000000000e+00 0.000000000000000e+00 0.000000000000000e+00

0.000000000000000e+00 0.000000000000000e+00 0.000000000000000e+00
0.000000000000000e+00 0.000000000000000e+00 0.000000000000000e+00
0.000000000000000e+00 0.000000000000000e+00 0.000000000000000e+00

0.000000000000000e+00 0.000000000000000e+00 0.000000000000000e+00
0.000000000000000e+00 0.000000000000000e+00 0.000000000000000e+00
0.000000000000000e+00 0.000000000000000e+00 0.000000000000000e+00

0.000000000000000e+00 0.000000000000000e+00 0.000000000000000e+00
0.000000000000000e+00 0.000000000000000e+00 0.000000000000000e+00
0.000000000000000e+00 0.000000000000000e+00 0.000000000000000e+00

0.000000000000000e+00 0.000000000000000e+00 0.000000000000000e+00
0.000000000000000e+00 0.000000000000000e+00 0.000000000000000e+00
0.000000000000000e+00 0.000000000000000e+00 0.000000000000000e+00

0.000000000000000e+00 0.000000000000000e+00 0.000000000000000e+00
0.000000000000000e+00 0.000000000000000e+00 0.000000000000000e+00
0.000000000000000e+00 0.000000000000000e+00 0.000000000000000e+00

0.000000000000000e+00 0.000000000000000e+00 0.000000000000000e+00
0.000000000000000e+00 0.000000000000000e+00 0.000000000000000e+00
0.000000000000000e+00 0.000000000000000e+00 0.000000000000000e+00

0.000000000000000e+00 0.000000000000000e+00 0.000000000000000e+00
0.000000000000000e+00 0.000000000000000e+00 0.000000000000000e+00
0.000000000000000e+00 0.000000000000000e+00 0.000000000000000e+00

0.000000000000000e+00 0.000000000000000e+00 0.000000000000000e+00
0.000000000000000e+00 0.000000000000000e+00 0.000000000000000e+00
0.000000000000000e+00 0.000000000000000e+00 0.000000000000000e+00

0.000000000000000e+00 0.000000000000000e+00 0.000000000000000e+00
0.000000000000000e+00 0.000000000000000e+00 0.000000000000000e+00
0.000000000000000e+00 0.000000000000000e+00 0.000000000000000e+00

0.000000000000000e+00 0.000000000000000e+00 0.000000000000000e+00
0.000000000000000e+00 0.000000000000000e+00 0.000000000000000e+00
0.000000000000000e+00 0.000000000000000e+00 0.000000000000000e+00

0.000000000000000e+00 0.000000000000000e+00 0.000000000000000e+00
0.000000000000000e+00 0.000000000000000e+00 0.000000000000000e+00
0.000000000000000e+00 0.000000000000000e+00 0.000000000000000e+00

0.000000000000000e+00 0.000000000000000e+00 0.000000000000000e+00
0.000000000000000e+00 0.000000000000000e+00 0.000000000000000e+00
0.000000000000000e+00 0.000000000000000e+00 0.000000000000000e+00

0.000000000000000e+00 0.000000000000000e+00 0.000000000000000e+00
0.000000000000000e+00 0.000000000000000e+00 0.000000000000000e+00
0.000000000000000e+00 0.000000000000000e+00 0.000000000000000e+00

0.000000000000000e+00 0.000000000000000e+00 0.000000000000000e+00
0.000000000000000e+00 0.000000000000000e+00 0.000000000000000e+00
0.000000000000000e+00 0.000000000000000e+00 0.000000000000000e+00

0.000000000000000e+00 0.000000000000000e+00 0.000000000000000e+00
0.000000000000000e+00 0.000000000000000e+00 0.000000000000000e+00
0.000000000000000e+00 0.000000000000000e+00 0.000000000000000e+00

0.000000000000000e+00 0.000000000000000e+00 0.000000000000000e+00
0.000000000000000e+00 0.000000000000000e+00 0.000000000000000e+00
0.000000000000000e+00 0.000000000000000e+00 0.000000000000000e+00

0.000000000000000e+00 0.000000000000000e+00 0.000000000000000e+00
0.000000000000000e+00 0.000000000000000e+00 0.000000000000000e+00
0.000000000000000e+00 0.000000000000000e+00 0.000000000000000e+00

0.000000000000000e+00 0.000000000000000e+00 0.000000000000000e+00
0.000000000000000e+00 0.000000000000000e+00 0.000000000000000e+00
0.000000000000000e+00 0.000000000000000e+00 0.000000000000000e+00

0.000000000000000e+00 0.000000000000000e+00 0.000000000000000e+00
0.000000000000000e+00 0.000000000000000e+00 0.000000000000000e+00
0.000000000000000e+00 0.000000000000000e+00 0.000000000000000e+00

0.000000000000000e+00 0.000000000000000e+00 0.000000000000000e+00
0.000000000000000e+00 0.000000000000000e+00 0.000000000000000e+00
0.000000000000000e+00 0.000000000000000e+00 0.000000000000000e+00

0.000000000000000e+00 0.000000000000000e+00 0.000000000000000e+00
0.000000000000000e+00 0.000000000000000e+00 0.000000000000000e+00
0.000000000000000e+00 0.000000000000000e+00 0.000000000000000e+00

0.000000000000000e+00 0.000000000000000e+00 0.000000000000000e+00
0.000000000000000e+00 0.000000000000000e+00 0.000000000000000e+00
0.000000000000000e+00 0.000000000000000e+00 0.000000000000000e+00

0.000000000000000e+00 0.000000000000000e+00 0.000000000000000e+00
0.000000000000000e+00 0.000000000000000e+00 0.000000000000000e+00
0.000000000000000e+00 0.000000000000000e+00 0.000000000000000e+00

0.000000000000000e+00 0.000000000000000e+00 0.000000000000000e+00
0.000000000000000e+00 0.000000000000000e+00 0.000000000000000e+00
0.000000000000000e+00 0.000000000000000e+00 0.000000000000000e+00

0.000000000000000e+00 0.000000000000000e+00 0.000000000000000e+00
0.000000000000000e+00 0.000000000000000e+00 0.000000000000000e+00
0.000000000000000e+00 0.000000000000000e+00 0.000000000000000e+00

0.000000000000000e+00 0.000000000000000e+00 0.000000000000000e+00
0.000000000000000e+00 0.000000000000000e+00 0.000000000000000e+00
0.000000000000000e+00 0.000000000000000e+00 0.000000000000000e+00

0.000000000000000e+00 0.000000000000000e+00 0.000000000000000e+00
0.000000000000000e+00 0.000000000000000e+00 0.000000000000000e+00
0.000000000000000e+00 0.000000000000000e+00 0.000000000000000e+00

0.000000000000000e+00 0.000000000000000e+00 0.000000000000000e+00
0.000000000000000e+00 0.000000000000000e+00 0.000000000000000e+00
0.000000000000000e+00 0.000000000000000e+00 0.000000000000000e+00

0.000000000000000e+00 0.000000000000000e+00 0.000000000000000e+00
0.000000000000000e+00 0.000000000000000e+00 0.000000000000000e+00
0.000000000000000e+00 0.000000000000000e+00 0.000000000000000e+00

0.000000000000000e+00 0.000000000000000e+00 0.000000000000000e+00
0.000000000000000e+00 0.000000000000000e+00 0.000000000000000e+00
0.000000000000000e+00 0.000000000000000e+00 0.000000000000000e+00

0.000000000000000e+00 0.000000000000000e+00 0.000000000000000e+00
0.000000000000000e+00 0.000000000000000e+00 0.000000000000000e+00
0.000000000000000e+00 0.000000000000000e+00 0.000000000000000e+00

0.000000000000000e+00 0.000000000000000e+00 0.000000000000000e+00
0.000000000000000e+00 0.000000000000000e+00 0.000000000000000e+00
0.000000000000000e+00 0.000000000000000e+00 0.000000000000000e+00

0.000000000000000e+00 0.000000000000000e+00 0.000000000000000e+00
0.000000000000000e+00 0.000000000000000e+00 0.000000000000000e+00
0.000000000000000e+00 0.000000000000000e+00 0.000000000000000e+00

0.000000000000000e+00 0.000000000000000e+00 0.000000000000000e+00
0.000000000000000e+00 0.000000000000000e+00 0.000000000000000e+00
0.000000000000000e+00 0.000000000000000e+00 0.000000000000000e+00

0.000000000000000e+00 0.000000000000000e+00 0.000000000000000e+00
0.000000000000000e+00 0.000000000000000e+00 0.000000000000000e+00
0.000000000000000e+00 0.000000000000000e+00 0.000000000000000e+00

0.000000000000000e+00 0.000000000000000e+00 0.000000000000000e+00
0.000000000000000e+00 0.000000000000000e+00 0.000000000000000e+00
0.000000000000000e+00 0.000000000000000e+00 0.000000000000000e+00

0.000000000000000e+00 0.000000000000000e+00 0.000000000000000e+00
0.000000000000000e+00 0.000000000000000e+00 0.000000000000000e+00
0.000000000000000e+00 0.000000000000000e+00 0.000000000000000e+00

0.000000000000000e+00 0.000000000000000e+00 0.000000000000000e+00
0.000000000000000e+00 0.000000000000000e+00 0.000000000000000e+00
0.000000000000000e+00 0.000000000000000e+00 0.000000000000000e+00

0.000000000000000e+00 0.000000000000000e+00 0.000000000000000e+00
0.000000000000000e+00 0.000000000000000e+00 0.000000000000000e+00
0.000000000000000e+00 0.000000000000000e+00 0.000000000000000e+00

0.000000000000000e+00 0.000000000000000e+00 0.000000000000000e+00
0.000000000000000e+00 0.000000000000000e+00 0.000000000000000e+00
0.000000000000000e+00 0.000000000000000e+00 0.000000000000000e+00

0.000000000000000e+00 0.000000000000000e+00 0.000000000000000e+00
0.000000000000000e+00 0.000000000000000e+00 0.000000000000000e+00
0.000000000000000e+00 0.000000000000000e+00 0.000000000000000e+00

0.000000000000000e+00 0.000000000000000e+00 0.000000000000000e+00
0.000000000000000e+00 0.000000000000000e+00 0.000000000000000e+00
0.000000000000000e+00 0.000000000000000e+00 0.000000000000000e+00

0.000000000000000e+00 0.000000000000000e+00 0.000000000000000e+00
0.000000000000000e+00 0.000000000000000e+00 0.000000000000000e+00
0.000000000000000e+00 0.000000000000000e+00 0.000000000000000e+00

0.000000000000000e+00 0.000000000000000e+00 0.000000000000000e+00
0.000000000000000e+00 0.000000000000000e+00 0.000000000000000e+00
0.000000000000000e+00 0.000000000000000e+00 0.000000000000000e+00

0.000000000000000e+00 0.000000000000000e+00 0.000000000000000e+00
0.000000000000000e+00 0.000000000000000e+00 0.000000000000000e+00
0.000000000000000e+00 0.000000000000000e+00 0.000000000000000e+00

0.000000000000000e+00 0.000000000000000e+00 0.000000000000000e+00
0.000000000000000e+00 0.000000000000000e+00 0.000000000000000e+00
0.000000000000000e+00 0.000000000000000e+00 0.000000000000000e+00

0.000000000000000e+00 0.000000000000000e+00 0.000000000000000e+00
0.000000000000000e+00 0.000000000000000e+00 0.000000000000000e+00
0.000000000000000e+00 0.000000000000000e+00 0.000000000000000e+00

0.000000000000000e+00 0.000000000000000e+00 0.000000000000000e+00
0.000000000000000e+00 0.000000000000000e+00 0.000000000000000e+00
0.000000000000000e+00 0.000000000000000e+00 0.000000000000000e+00

0.000000000000000e+00 0.000000000000000e+00 0.000000000000000e+00
0.000000000000000e+00 0.000000000000000e+00 0.000000000000000e+00
0.000000000000000e+00 0.000000000000000e+00 0.000000000000000e+00

0.000000000000000e+00 0.000000000000000e+00 0.000000000000000e+00
0.000000000000000e+00 0.000000000000000e+00 0.000000000000000e+00
0.000000000000000e+00 0.000000000000000e+00 0.000000000000000e+00

0.000000000000000e+00 0.000000000000000e+00 0.000000000000000e+00
0.000000000000000e+00 0.000000000000000e+00 0.000000000000000e+00
0.000000000000000e+00 0.000000000000000e+00 0.000000000000000e+00

0.000000000000000e+00 0.000000000000000e+00 0.000000000000000e+00
0.000000000000000e+00 0.000000000000000e+00 0.000000000000000e+00
0.000000000000000e+00 0.000000000000000e+00 0.000000000000000e+00

0.000000000000000e+00 0.000000000000000e+00 0.000000000000000e+00
0.000000000000000e+00 0.000000000000000e+00 0.000000000000000e+00
0.000000000000000e+00 0.000000000000000e+00 0.000000000000000e+00

0.000000000000000e+00 0.000000000000000e+00 0.000000000000000e+00
0.000000000000000e+00 0.000000000000000e+00 0.000000000000000e+00
0.000000000000000e+00 0.000000000000000e+00 0.000000000000000e+00

0.000000000000000e+00 0.000000000000000e+00 0.000000000000000e+00
0.000000000000000e+00 0.000000000000000e+00 0.000000000000000e+00
0.000000000000000e+00 0.000000000000000e+00 0.000000000000000e+00

0.000000000000000e+00 0.000000000000000e+00 0.000000000000000e+00
0.000000000000000e+00 0.000000000000000e+00 0.000000000000000e+00
0.000000000000000e+00 0.000000000000000e+00 0.000000000000000e+00

0.000000000000000e+00 0.000000000000000e+00 0.000000000000000e+00
0.000000000000000e+00 0.000000000000000e+00 0.000000000000000e+00
0.000000000000000e+00 0.000000000000000e+00 0.000000000000000e+00

0.000000000000000e+00 0.000000000000000e+00 0.000000000000000e+00
0.000000000000000e+00 0.000000000000000e+00 0.000000000000000e+00
0.000000000000000e+00 0.000000000000000e+00 0.000000000000000e+00

0.000000000000000e+00 0.000000000000000e+00 0.000000000000000e+00
0.000000000000000e+00 0.000000000000000e+00 0.000000000000000e+00
0.000000000000000e+00 0.000000000000000e+00 0.000000000000000e+00

0.000000000000000e+00 0.000000000000000e+00 0.000000000000000e+00
0.000000000000000e+00 0.000000000000000e+00 0.000000000000000e+00
0.000000000000000e+00 0.000000000000000e+00 0.000000000000000e+00

0.000000000000000e+00 0.000000000000000e+00 0.000000000000000e+00
0.000000000000000e+00 0.000000000000000e+00 0.000000000000000e+00
0.000000000000000e+00 0.000000000000000e+00 0.000000000000000e+00

0.000000000000000e+00 0.000000000000000e+00 0.000000000000000e+00
0.000000000000000e+00 0.000000000000000e+00 0.000000000000000e+00
0.000000000000000e+00 0.000000000000000e+00 0.000000000000000e+00

0.000000000000000e+00 0.000000000000000e+00 0.000000000000000e+00
0.000000000000000e+00 0.000000000000000e+00 0.000000000000000e+00
0.000000000000000e+00 0.000000000000000e+00 0.000000000000000e+00

0.000000000000000e+00 0.000000000000000e+00 0.000000000000000e+00
0.000000000000000e+00 0.000000000000000e+00 0.000000000000000e+00
0.000000000000000e+00 0.000000000000000e+00 0.000000000000000e+00

0.000000000000000e+00 0.000000000000000e+00 0.000000000000000e+00
0.000000000000000e+00 0.000000000000000e+00 0.000000000000000e+00
0.000000000000000e+00 0.000000000000000e+00 0.000000000000000e+00

0.000000000000000e+00 0.000000000000000e+00 0.000000000000000e+00
0.000000000000000e+00 0.000000000000000e+00 0.000000000000000e+00
0.000000000000000e+00 0.000000000000000e+00 0.000000000000000e+00

0.000000000000000e+00 0.000000000000000e+00 0.000000000000000e+00
0.000000000000000e+00 0.000000000000000e+00 0.000000000000000e+00
0.000000000000000e+00 0.000000000000000e+00 0.000000000000000e+00

0.000000000000000e+00 0.000000000000000e+00 0.000000000000000e+00
0.000000000000000e+00 0.000000000000000e+00 0.000000000000000e+00
0.000000000000000e+00 0.000000000000000e+00 0.000000000000000e+00

0.000000000000000e+00 0.000000000000000e+00 0.000000000000000e+00
0.000000000000000e+00 0.000000000000000e+00 0.000000000000000e+00
0.000000000000000e+00 0.000000000000000e+00 0.000000000000000e+00

0.000000000000000e+00 0.000000000000000e+00 0.000000000000000e+00
0.000000000000000e+00 0.000000000000000e+00 0.000000000000000e+00
0.000000000000000e+00 0.000000000000000e+00 0.000000000000000e+00

0.000000000000000e+00 0.000000000000000e+00 0.000000000000000e+00
0.000000000000000e+00 0.000000000000000e+00 0.000000000000000e+00
0.000000000000000e+00 0.000000000000000e+00 0.000000000000000e+00

0.000000000000000e+00 0.000000000000000e+00 0.000000000000000e+00
0.000000000000000e+00 0.000000000000000e+00 0.000000000000000e+00
0.000000000000000e+00 0.000000000000000e+00 0.000000000000000e+00

0.000000000000000e+00 0.000000000000000e+00 0.000000000000000e+00
0.000000000000000e+00 0.000000000000000e+00 0.000000000000000e+00
0.000000000000000e+00 0.000000000000000e+00 0.000000000000000e+00

0.000000000000000e+00 0.000000000000000e+00 0.000000000000000e+00
0.000000000000000e+00 0.000000000000000e+00 0.000000000000000e+00
0.000000000000000e+00 0.000000000000000e+00 0.000000000000000e+00

0.000000000000000e+00 0.000000000000000e+00 0.000000000000000e+00
0.000000000000000e+00 0.000000000000000e+00 0.000000000000000e+00
0.000000000000000e+00 0.000000000000000e+00 0.000000000000000e+00

0.000000000000000e+00 0.000000000000000e+00 0.000000000000000e+00
0.000000000000000e+00 0.000000000000000e+00 0.000000000000000e+00
0.000000000000000e+00 0.000000000000000e+00 0.000000000000000e+00

0.000000000000000e+00 0.000000000000000e+00 0.000000000000000e+00
0.000000000000000e+00 0.000000000000000e+00 0.000000000000000e+00
0.000000000000000e+00 0.000000000000000e+00 0.000000000000000e+00

0.000000000000000e+00 0.000000000000000e+00 0.000000000000000e+00
0.000000000000000e+00 0.000000000000000e+00 0.000000000000000e+00
0.000000000000000e+00 0.000000000000000e+00 0.000000000000000e+00

0.000000000000000e+00 0.000000000000000e+00 0.000000000000000e+00
0.000000000000000e+00 0.000000000000000e+00 0.000000000000000e+00
0.000000000000000e+00 0.000000000000000e+00 0.000000000000000e+00

0.000000000000000e+00 0.000000000000000e+00 0.000000000000000e+00
0.000000000000000e+00 0.000000000000000e+00 0.000000000000000e+00
0.000000000000000e+00 0.000000000000000e+00 0.000000000000000e+00

0.000000000000000e+00 0.000000000000000e+00 0.000000000000000e+00
0.000000000000000e+00 0.000000000000000e+00 0.000000000000000e+00
0.000000000000000e+00 0.000000000000000e+00 0.000000000000000e+00

0.000000000000000e+00 0.000000000000000e+00 0.000000000000000e+00
0.000000000000000e+00 0.000000000000000e+00 0.000000000000000e+00
0.000000000000000e+00 0.000000000000000e+00 0.000000000000000e+00

0.000000000000000e+00 0.000000000000000e+00 0.000000000000000e+00
0.000000000000000e+00 0.000000000000000e+00 0.000000000000000e+00
0.000000000000000e+00 0.000000000000000e+00 0.000000000000000e+00

0.000000000000000e+00 0.000000000000000e+00 0.000000000000000e+00
0.000000000000000e+00 0.000000000000000e+00 0.000000000000000e+00
0.000000000000000e+00 0.000000000000000e+00 0.000000000000000e+00

0.000000000000000e+00 0.000000000000000e+00 0.000000000000000e+00
0.000000000000000e+00 0.000000000000000e+00 0.000000000000000e+00
0.000000000000000e+00 0.000000000000000e+00 0.000000000000000e+00

0.000000000000000e+00 0.000000000000000e+00 0.000000000000000e+00
0.000000000000000e+00 0.000000000000000e+00 0.000000000000000e+00
0.000000000000000e+00 0.000000000000000e+00 0.000000000000000e+00

0.000000000000000e+00 0.000000000000000e+00 0.000000000000000e+00
0.000000000000000e+00 0.000000000000000e+00 0.000000000000000e+00
0.000000000000000e+00 0.000000000000000e+00 0.000000000000000e+00

0.000000000000000e+00 0.000000000000000e+00 0.000000000000000e+00
0.000000000000000e+00 0.000000000000000e+00 0.000000000000000e+00
0.000000000000000e+00 0.000000000000000e+00 0.000000000000000e+00

0.000000000000000e+00 0.000000000000000e+00 0.000000000000000e+00
0.000000000000000e+00 0.000000000000000e+00 0.000000000000000e+00
0.000000000000000e+00 0.000000000000000e+00 0.000000000000000e+00

0.000000000000000e+00 0.000000000000000e+00 0.000000000000000e+00
0.000000000000000e+00 0.000000000000000e+00 0.000000000000000e+00
0.000000000000000e+00 0.000000000000000e+00 0.000000000000000e+00

0.000000000000000e+00 0.000000000000000e+00 0.000000000000000e+00
0.000000000000000e+00 0.000000000000000e+00 0.000000000000000e+00
0.000000000000000e+00 0.000000000000000e+00 0.000000000000000e+00

0.000000000000000e+00 0.000000000000000e+00 0.000000000000000e+00
0.000000000000000e+00 0.000000000000000e+00 0.000000000000000e+00
0.000000000000000e+00 0.000000000000000e+00 0.000000000000000e+00

0.000000000000000e+00 0.000000000000000e+00 0.000000000000000e+00
0.000000000000000e+00 0.000000000000000e+00 0.000000000000000e+00
0.000000000000000e+00 0.000000000000000e+00 0.000000000000000e+00

0.000000000000000e+00 0.000000000000000e+00 0.000000000000000e+00
0.000000000000000e+00 0.000000000000000e+00 0.000000000000000e+00
0.000000000000000e+00 0.000000000000000e+00 0.000000000000000e+00

0.000000000000000e+00 0.000000000000000e+00 0.000000000000000e+00
0.000000000000000e+00 0.000000000000000e+00 0.000000000000000e+00
0.000000000000000e+00 0.000000000000000e+00 0.000000000000000e+00

0.000000000000000e+00 0.000000000000000e+00 0.000000000000000e+00
0.000000000000000e+00 0.000000000000000e+00 0.000000000000000e+00
0.000000000000000e+00 0.000000000000000e+00 0.000000000000000e+00

0.000000000000000e+00 0.000000000000000e+00 0.000000000000000e+00
0.000000000000000e+00 0.000000000000000e+00 0.000000000000000e+00
0.000000000000000e+00 0.000000000000000e+00 0.000000000000000e+00

0.000000000000000e+00 0.000000000000000e+00 0.000000000000000e+00
0.000000000000000e+00 0.000000000000000e+00 0.000000000000000e+00
0.000000000000000e+00 0.000000000000000e+00 0.000000000000000e+00

0.000000000000000e+00 0.000000000000000e+00 0.000000000000000e+00
0.000000000000000e+00 0.000000000000000e+00 0.000000000000000e+00
0.000000000000000e+00 0.000000000000000e+00 0.000000000000000e+00

0.000000000000000e+00 0.000000000000000e+00 0.000000000000000e+00
0.000000000000000e+00 0.000000000000000e+00 0.000000000000000e+00
0.000000000000000e+00 0.000000000000000e+00 0.000000000000000e+00

0.000000000000000e+00 0.000000000000000e+00 0.000000000000000e+00
0.000000000000000e+00 0.000000000000000e+00 0.000000000000000e+00
0.000000000000000e+00 0.000000000000000e+00 0.000000000000000e+00

0.000000000000000e+00 0.000000000000000e+00 0.000000000000000e+00
0.000000000000000e+00 0.000000000000000e+00 0.000000000000000e+00
0.000000000000000e+00 0.000000000000000e+00 0.000000000000000e+00

0.000000000000000e+00 0.000000000000000e+00 0.000000000000000e+00
0.000000000000000e+00 0.000000000000000e+00 0.000000000000000e+00
0.000000000000000e+00 0.000000000000000e+00 0.000000000000000e+00

0.000000000000000e+00 0.000000000000000e+00 0.000000000000000e+00
0.000000000000000e+00 0.000000000000000e+00 0.000000000000000e+00
0.000000000000000e+00 0.000000000000000e+00 0.000000000000000e+00

0.000000000000000e+00 0.000000000000000e+00 0.000000000000000e+00
0.000000000000000e+00 0.000000000000000e+00 0.000000000000000e+00
0.000000000000000e+00 0.000000000000000e+00 0.000000000000000e+00

0.000000000000000e+00 0.000000000000000e+00 0.000000000000000e+00
0.000000000000000e+00 0.000000000000000e+00 0.000000000000000e+00
0.000000000000000e+00 0.000000000000000e+00 0.000000000000000e+00

0.000000000000000e+00 0.000000000000000e+00 0.000000000000000e+00
0.000000000000000e+00 0.000000000000000e+00 0.000000000000000e+00
0.000000000000000e+00 0.000000000000000e+00 0.000000000000000e+00

0.000000000000000e+00 0.000000000000000e+00 0.000000000000000e+00
0.000000000000000e+00 0.000000000000000e+00 0.000000000000000e+00
0.000000000000000e+00 0.000000000000000e+00 0.000000000000000e+00

0.000000000000000e+00 0.000000000000000e+00 0.000000000000000e+00
0.000000000000000e+00 0.000000000000000e+00 0.000000000000000e+00
0.000000000000000e+00 0.000000000000000e+00 0.000000000000000e+00

0.000000000000000e+00 0.000000000000000e+00 0.000000000000000e+00
0.000000000000000e+00 0.000000000000000e+00 0.000000000000000e+00
0.000000000000000e+00 0.000000000000000e+00 0.000000000000000e+00

0.000000000000000e+00 0.000000000000000e+00 0.000000000000000e+00
0.000000000000000e+00 0.000000000000000e+00 0.000000000000000e+00
0.000000000000000e+00 0.000000000000000e+00 0.000000000000000e+00

0.000000000000000e+00 0.000000000000000e+00 0.000000000000000e+00
0.000000000000000e+00 0.000000000000000e+00 0.000000000000000e+00
0.000000000000000e+00 0.000000000000000e+00 0.000000000000000e+00

0.000000000000000e+00 0.000000000000000e+00 0.000000000000000e+00
0.000000000000000e+00 0.000000000000000e+00 0.000000000000000e+00
0.000000000000000e+00 0.000000000000000e+00 0.000000000000000e+00

0.000000000000000e+00 0.000000000000000e+00 0.000000000000000e+00
0.000000000000000e+00 0.000000000000000e+00 0.000000000000000e+00
0.000000000000000e+00 0.000000000000000e+00 0.000000000000000e+00

0.000000000000000e+00 0.000000000000000e+00 0.000000000000000e+00
0.000000000000000e+00 0.000000000000000e+00 0.000000000000000e+00
0.000000000000000e+00 0.000000000000000e+00 0.000000000000000e+00

0.000000000000000e+00 0.000000000000000e+00 0.000000000000000e+00
0.000000000000000e+00 0.000000000000000e+00 0.000000000000000e+00
0.000000000000000e+00 0.000000000000000e+00 0.000000000000000e+00

0.000000000000000e+00 0.000000000000000e+00 0.000000000000000e+00
0.000000000000000e+00 0.000000000000000e+00 0.000000000000000e+00
0.000000000000000e+00 0.000000000000000e+00 0.000000000000000e+00

0.000000000000000e+00 0.000000000000000e+00 0.000000000000000e+00
0.000000000000000e+00 0.000000000000000e+00 0.000000000000000e+00
0.000000000000000e+00 0.000000000000000e+00 0.000000000000000e+00

0.000000000000000e+00 0.000000000000000e+00 0.000000000000000e+00
0.000000000000000e+00 0.000000000000000e+00 0.000000000000000e+00
0.000000000000000e+00 0.000000000000000e+00 0.000000000000000e+00

0.000000000000000e+00 0.000000000000000e+00 0.000000000000000e+00
0.000000000000000e+00 0.000000000000000e+00 0.000000000000000e+00
0.000000000000000e+00 0.000000000000000e+00 0.000000000000000e+00

0.000000000000000e+00 0.000000000000000e+00 0.000000000000000e+00
0.000000000000000e+00 0.000000000000000e+00 0.000000000000000e+00
0.000000000000000e+00 0.000000000000000e+00 0.000000000000000e+00

0.000000000000000e+00 0.000000000000000e+00 0.000000000000000e+00
0.000000000000000e+00 0.000000000000000e+00 0.000000000000000e+00
0.000000000000000e+00 0.000000000000000e+00 0.000000000000000e+00

0.000000000000000e+00 0.000000000000000e+00 0.000000000000000e+00
0.000000000000000e+00 0.000000000000000e+00 0.000000000000000e+00
0.000000000000000e+00 0.000000000000000e+00 0.000000000000000e+00

0.000000000000000e+00 0.000000000000000e+00 0.000000000000000e+00
0.000000000000000e+00 0.000000000000000e+00 0.000000000000000e+00
0.000000000000000e+00 0.000000000000000e+00 0.000000000000000e+00

0.000000000000000e+00 0.000000000000000e+00 0.000000000000000e+00
0.000000000000000e+00 0.000000000000000e+00 0.000000000000000e+00
0.000000000000000e+00 0.000000000000000e+00 0.000000000000000e+00

0.000000000000000e+00 0.000000000000000e+00 0.000000000000000e+00
0.000000000000000e+00 0.000000000000000e+00 0.000000000000000e+00
0.000000000000000e+00 0.000000000000000e+00 0.000000000000000e+00

0.000000000000000e+00 0.000000000000000e+00 0.000000000000000e+00
0.000000000000000e+00 0.000000000000000e+00 0.000000000000000e+00
0.000000000000000e+00 0.000000000000000e+00 0.000000000000000e+00

0.000000000000000e+00 0.000000000000000e+00 0.000000000000000e+00
0.000000000000000e+00 0.000000000000000e+00 0.000000000000000e+00
0.000000000000000e+00 0.000000000000000e+00 0.000000000000000e+00

0.000000000000000e+00 0.000000000000000e+00 0.000000000000000e+00
0.000000000000000e+00 0.000000000000000e+00 0.000000000000000e+00
0.000000000000000e+00 0.000000000000000e+00 0.000000000000000e+00

0.000000000000000e+00 0.000000000000000e+00 0.000000000000000e+00
0.000000000000000e+00 0.000000000000000e+00 0.000000000000000e+00
0.000000000000000e+00 0.000000000000000e+00 0.000000000000000e+00

0.000000000000000e+00 0.000000000000000e+00 0.000000000000000e+00
0.000000000000000e+00 0.000000000000000e+00 0.000000000000000e+00
0.000000000000000e+00 0.000000000000000e+00 0.000000000000000e+00

0.000000000000000e+00 0.000000000000000e+00 0.000000000000000e+00
0.000000000000000e+00 0.000000000000000e+00 0.000000000000000e+00
0.000000000000000e+00 0.000000000000000e+00 0.000000000000000e+00

0.000000000000000e+00 0.000000000000000e+00 0.000000000000000e+00
0.000000000000000e+00 0.000000000000000e+00 0.000000000000000e+00
0.000000000000000e+00 0.000000000000000e+00 0.000000000000000e+00

0.000000000000000e+00 0.000000000000000e+00 0.000000000000000e+00
0.000000000000000e+00 0.000000000000000e+00 0.000000000000000e+00
0.000000000000000e+00 0.000000000000000e+00 0.000000000000000e+00

0.000000000000000e+00 0.000000000000000e+00 0.000000000000000e+00
0.000000000000000e+00 0.000000000000000e+00 0.000000000000000e+00
0.000000000000000e+00 0.000000000000000e+00 0.000000000000000e+00

0.000000000000000e+00 0.000000000000000e+00 0.000000000000000e+00
0.000000000000000e+00 0.000000000000000e+00 0.000000000000000e+00
0.000000000000000e+00 0.000000000000000e+00 0.000000000000000e+00

0.000000000000000e+00 0.000000000000000e+00 0.000000000000000e+00
0.000000000000000e+00 0.000000000000000e+00 0.000000000000000e+00
0.000000000000000e+00 0.000000000000000e+00 0.000000000000000e+00

0.000000000000000e+00 0.000000000000000e+00 0.000000000000000e+00
0.000000000000000e+00 0.000000000000000e+00 0.000000000000000e+00
0.000000000000000e+00 0.000000000000000e+00 0.000000000000000e+00

0.000000000000000e+00 0.000000000000000e+00 0.000000000000000e+00
0.000000000000000e+00 0.000000000000000e+00 0.000000000000000e+00
0.000000000000000e+00 0.000000000000000e+00 0.000000000000000e+00

0.000000000000000e+00 0.000000000000000e+00 0.000000000000000e+00
0.000000000000000e+00 0.000000000000000e+00 0.000000000000000e+00
0.000000000000000e+00 0.000000000000000e+00 0.000000000000000e+00

0.000000000000000e+00 0.000000000000000e+00 0.000000000000000e+00
0.000000000000000e+00 0.000000000000000e+00 0.000000000000000e+00
0.000000000000000e+00 0.000000000000000e+00 0.000000000000000e+00

0.000000000000000e+00 0.000000000000000e+00 0.000000000000000e+00
0.000000000000000e+00 0.000000000000000e+00 0.000000000000000e+00
0.000000000000000e+00 0.000000000000000e+00 0.000000000000000e+00

0.000000000000000e+00 0.000000000000000e+00 0.000000000000000e+00
0.000000000000000e+00 0.000000000000000e+00 0.000000000000000e+00
0.000000000000000e+00 0.000000000000000e+00 0.000000000000000e+00

0.000000000000000e+00 0.000000000000000e+00 0.000000000000000e+00
0.000000000000000e+00 0.000000000000000e+00 0.000000000000000e+00
0.000000000000000e+00 0.000000000000000e+00 0.000000000000000e+00

0.000000000000000e+00 0.000000000000000e+00 0.000000000000000e+00
0.000000000000000e+00 0.000000000000000e+00 0.000000000000000e+00
0.000000000000000e+00 0.000000000000000e+00 0.000000000000000e+00

0.000000000000000e+00 0.000000000000000e+00 0.000000000000000e+00
0.000000000000000e+00 0.000000000000000e+00 0.000000000000000e+00
0.000000000000000e+00 0.000000000000000e+00 0.000000000000000e+00

0.000000000000000e+00 0.000000000000000e+00 0.000000000000000e+00
0.000000000000000e+00 0.000000000000000e+00 0.000000000000000e+00
0.000000000000000e+00 0.000000000000000e+00 0.000000000000000e+00

0.000000000000000e+00 0.000000000000000e+00 0.000000000000000e+00
0.000000000000000e+00 0.000000000000000e+00 0.000000000000000e+00
0.000000000000000e+00 0.000000000000000e+00 0.000000000000000e+00

0.000000000000000e+00 0.000000000000000e+00 0.000000000000000e+00
0.000000000000000e+00 0.000000000000000e+00 0.000000000000000e+00
0.000000000000000e+00 0.000000000000000e+00 0.000000000000000e+00

0.000000000000000e+00 0.000000000000000e+00 0.000000000000000e+00
0.000000000000000e+00 0.000000000000000e+00 0.000000000000000e+00
0.000000000000000e+00 0.000000000000000e+00 0.000000000000000e+00

0.000000000000000e+00 0.000000000000000e+00 0.000000000000000e+00
0.000000000000000e+00 0.000000000000000e+00 0.000000000000000e+00
0.000000000000000e+00 0.000000000000000e+00 0.000000000000000e+00

0.000000000000000e+00 0.000000000000000e+00 0.000000000000000e+00
0.000000000000000e+00 0.000000000000000e+00 0.000000000000000e+00
0.000000000000000e+00 0.000000000000000e+00 0.000000000000000e+00

0.000000000000000e+00 0.000000000000000e+00 0.000000000000000e+00
0.000000000000000e+00 0.000000000000000e+00 0.000000000000000e+00
0.000000000000000e+00 0.000000000000000e+00 0.000000000000000e+00

0.000000000000000e+00 0.000000000000000e+00 0.000000000000000e+00
0.000000000000000e+00 0.000000000000000e+00 0.000000000000000e+00
0.000000000000000e+00 0.000000000000000e+00 0.000000000000000e+00

0.000000000000000e+00 0.000000000000000e+00 0.000000000000000e+00
0.000000000000000e+00 0.000000000000000e+00 0.000000000000000e+00
0.000000000000000e+00 0.000000000000000e+00 0.000000000000000e+00

0.000000000000000e+00 0.000000000000000e+00 0.000000000000000e+00
0.000000000000000e+00 0.000000000000000e+00 0.000000000000000e+00
0.000000000000000e+00 0.000000000000000e+00 0.000000000000000e+00

0.000000000000000e+00 0.000000000000000e+00 0.000000000000000e+00
0.000000000000000e+00 0.000000000000000e+00 0.000000000000000e+00
0.000000000000000e+00 0.000000000000000e+00 0.000000000000000e+00

0.000000000000000e+00 0.000000000000000e+00 0.000000000000000e+00
0.000000000000000e+00 0.000000000000000e+00 0.000000000000000e+00
0.000000000000000e+00 0.000000000000000e+00 0.000000000000000e+00

0.000000000000000e+00 0.000000000000000e+00 0.000000000000000e+00
0.000000000000000e+00 0.000000000000000e+00 0.000000000000000e+00
0.000000000000000e+00 0.000000000000000e+00 0.000000000000000e+00

0.000000000000000e+00 0.000000000000000e+00 0.000000000000000e+00
0.000000000000000e+00 0.000000000000000e+00 0.000000000000000e+00
0.000000000000000e+00 0.000000000000000e+00 0.000000000000000e+00

0.000000000000000e+00 0.000000000000000e+00 0.000000000000000e+00
0.000000000000000e+00 0.000000000000000e+00 0.000000000000000e+00
0.000000000000000e+00 0.000000000000000e+00 0.000000000000000e+00

0.000000000000000e+00 0.000000000000000e+00 0.000000000000000e+00
0.000000000000000e+00 0.000000000000000e+00 0.000000000000000e+00
0.000000000000000e+00 0.000000000000000e+00 0.000000000000000e+00

0.000000000000000e+00 0.000000000000000e+00 0.000000000000000e+00
0.000000000000000e+00 0.000000000000000e+00 0.000000000000000e+00
0.000000000000000e+00 0.000000000000000e+00 0.000000000000000e+00

0.000000000000000e+00 0.000000000000000e+00 0.000000000000000e+00
0.000000000000000e+00 0.000000000000000e+00 0.000000000000000e+00
0.000000000000000e+00 0.000000000000000e+00 0.000000000000000e+00

0.000000000000000e+00 0.000000000000000e+00 0.000000000000000e+00
0.000000000000000e+00 0.000000000000000e+00 0.000000000000000e+00
0.000000000000000e+00 0.000000000000000e+00 0.000000000000000e+00

0.000000000000000e+00 0.000000000000000e+00 0.000000000000000e+00
0.000000000000000e+00 0.000000000000000e+00 0.000000000000000e+00
0.000000000000000e+00 0.000000000000000e+00 0.000000000000000e+00

0.000000000000000e+00 0.000000000000000e+00 0.000000000000000e+00
0.000000000000000e+00 0.000000000000000e+00 0.000000000000000e+00
0.000000000000000e+00 0.000000000000000e+00 0.000000000000000e+00

0.000000000000000e+00 0.000000000000000e+00 0.000000000000000e+00
0.000000000000000e+00 0.000000000000000e+00 0.000000000000000e+00
0.000000000000000e+00 0.000000000000000e+00 0.000000000000000e+00

0.000000000000000e+00 0.000000000000000e+00 0.000000000000000e+00
0.000000000000000e+00 0.000000000000000e+00 0.000000000000000e+00
0.000000000000000e+00 0.000000000000000e+00 0.000000000000000e+00

0.000000000000000e+00 0.000000000000000e+00 0.000000000000000e+00
0.000000000000000e+00 0.000000000000000e+00 0.000000000000000e+00
0.000000000000000e+00 0.000000000000000e+00 0.000000000000000e+00

0.000000000000000e+00 0.000000000000000e+00 0.000000000000000e+00
0.000000000000000e+00 0.000000000000000e+00 0.000000000000000e+00
0.000000000000000e+00 0.000000000000000e+00 0.000000000000000e+00

0.000000000000000e+00 0.000000000000000e+00 0.000000000000000e+00
0.000000000000000e+00 0.000000000000000e+00 0.000000000000000e+00
0.000000000000000e+00 0.000000000000000e+00 0.000000000000000e+00

0.000000000000000e+00 0.000000000000000e+00 0.000000000000000e+00
0.000000000000000e+00 0.000000000000000e+00 0.000000000000000e+00
0.000000000000000e+00 0.000000000000000e+00 0.000000000000000e+00

0.000000000000000e+00 0.000000000000000e+00 0.000000000000000e+00
0.000000000000000e+00 0.000000000000000e+00 0.000000000000000e+00
0.000000000000000e+00 0.000000000000000e+00 0.000000000000000e+00

0.000000000000000e+00 0.000000000000000e+00 0.000000000000000e+00
0.000000000000000e+00 0.000000000000000e+00 0.000000000000000e+00
0.000000000000000e+00 0.000000000000000e+00 0.000000000000000e+00

0.000000000000000e+00 0.000000000000000e+00 0.000000000000000e+00
0.000000000000000e+00 0.000000000000000e+00 0.000000000000000e+00
0.000000000000000e+00 0.000000000000000e+00 0.000000000000000e+00

0.000000000000000e+00 0.000000000000000e+00 0.000000000000000e+00
0.000000000000000e+00 0.000000000000000e+00 0.000000000000000e+00
0.000000000000000e+00 0.000000000000000e+00 0.000000000000000e+00

0.000000000000000e+00 0.000000000000000e+00 0.000000000000000e+00
0.000000000000000e+00 0.000000000000000e+00 0.000000000000000e+00
0.000000000000000e+00 0.000000000000000e+00 0.000000000000000e+00

0.000000000000000e+00 0.000000000000000e+00 0.000000000000000e+00
0.000000000000000e+00 0.000000000000000e+00 0.000000000000000e+00
0.000000000000000e+00 0.000000000000000e+00 0.000000000000000e+00

0.000000000000000e+00 0.000000000000000e+00 0.000000000000000e+00
0.000000000000000e+00 0.000000000000000e+00 0.000000000000000e+00
0.000000000000000e+00 0.000000000000000e+00 0.000000000000000e+00

0.000000000000000e+00 0.000000000000000e+00 0.000000000000000e+00
0.000000000000000e+00 0.000000000000000e+00 0.000000000000000e+00
0.000000000000000e+00 0.000000000000000e+00 0.000000000000000e+00

0.000000000000000e+00 0.000000000000000e+00 0.000000000000000e+00
0.000000000000000e+00 0.000000000000000e+00 0.000000000000000e+00
0.000000000000000e+00 0.000000000000000e+00 0.000000000000000e+00

0.000000000000000e+00 0.000000000000000e+00 0.000000000000000e+00
0.000000000000000e+00 0.000000000000000e+00 0.000000000000000e+00
0.000000000000000e+00 0.000000000000000e+00 0.000000000000000e+00

0.000000000000000e+00 0.000000000000000e+00 0.000000000000000e+00
0.000000000000000e+00 0.000000000000000e+00 0.000000000000000e+00
0.000000000000000e+00 0.000000000000000e+00 0.000000000000000e+00

0.000000000000000e+00 0.000000000000000e+00 0.000000000000000e+00
0.000000000000000e+00 0.000000000000000e+00 0.000000000000000e+00
0.000000000000000e+00 0.000000000000000e+00 0.000000000000000e+00

0.000000000000000e+00 0.000000000000000e+00 0.000000000000000e+00
0.000000000000000e+00 0.000000000000000e+00 0.000000000000000e+00
0.000000000000000e+00 0.000000000000000e+00 0.000000000000000e+00

0.000000000000000e+00 0.000000000000000e+00 0.000000000000000e+00
0.000000000000000e+00 0.000000000000000e+00 0.000000000000000e+00
0.000000000000000e+00 0.000000000000000e+00 0.000000000000000e+00

0.000000000000000e+00 0.000000000000000e+00 0.000000000000000e+00
0.000000000000000e+00 0.000000000000000e+00 0.000000000000000e+00
0.000000000000000e+00 0.000000000000000e+00 0.000000000000000e+00

0.000000000000000e+00 0.000000000000000e+00 0.000000000000000e+00
0.000000000000000e+00 0.000000000000000e+00 0.000000000000000e+00
0.000000000000000e+00 0.000000000000000e+00 0.000000000000000e+00

0.000000000000000e+00 0.000000000000000e+00 0.000000000000000e+00
0.000000000000000e+00 0.000000000000000e+00 0.000000000000000e+00
0.000000000000000e+00 0.000000000000000e+00 0.000000000000000e+00

0.000000000000000e+00 0.000000000000000e+00 0.000000000000000e+00
0.000000000000000e+00 0.000000000000000e+00 0.000000000000000e+00
0.000000000000000e+00 0.000000000000000e+00 0.000000000000000e+00

0.000000000000000e+00 0.000000000000000e+00 0.000000000000000e+00
0.000000000000000e+00 0.000000000000000e+00 0.000000000000000e+00
0.000000000000000e+00 0.000000000000000e+00 0.000000000000000e+00

0.000000000000000e+00 0.000000000000000e+00 0.000000000000000e+00
0.000000000000000e+00 0.000000000000000e+00 0.000000000000000e+00
0.000000000000000e+00 0.000000000000000e+00 0.000000000000000e+00

0.000000000000000e+00 0.000000000000000e+00 0.000000000000000e+00
0.000000000000000e+00 0.000000000000000e+00 0.000000000000000e+00
0.000000000000000e+00 0.000000000000000e+00 0.000000000000000e+00

0.000000000000000e+00 0.000000000000000e+00 0.000000000000000e+00
0.000000000000000e+00 0.000000000000000e+00 0.000000000000000e+00
0.000000000000000e+00 0.000000000000000e+00 0.000000000000000e+00

0.000000000000000e+00 0.000000000000000e+00 0.000000000000000e+00
0.000000000000000e+00 0.000000000000000e+00 0.000000000000000e+00
0.000000000000000e+00 0.000000000000000e+00 0.000000000000000e+00

0.000000000000000e+00 0.000000000000000e+00 0.000000000000000e+00
0.000000000000000e+00 0.000000000000000e+00 0.000000000000000e+00
0.000000000000000e+00 0.000000000000000e+00 0.000000000000000e+00

0.000000000000000e+00 0.000000000000000e+00 0.000000000000000e+00
0.000000000000000e+00 0.000000000000000e+00 0.000000000000000e+00
0.000000000000000e+00 0.000000000000000e+00 0.000000000000000e+00

0.000000000000000e+00 0.000000000000000e+00 0.000000000000000e+00
0.000000000000000e+00 0.000000000000000e+00 0.000000000000000e+00
0.000000000000000e+00 0.000000000000000e+00 0.000000000000000e+00

0.000000000000000e+00 0.000000000000000e+00 0.000000000000000e+00
0.000000000000000e+00 0.000000000000000e+00 0.000000000000000e+00
0.000000000000000e+00 0.000000000000000e+00 0.000000000000000e+00

0.000000000000000e+00 0.000000000000000e+00 0.000000000000000e+00
0.000000000000000e+00 0.000000000000000e+00 0.000000000000000e+00
0.000000000000000e+00 0.000000000000000e+00 0.000000000000000e+00

0.000000000000000e+00 0.000000000000000e+00 0.000000000000000e+00
0.000000000000000e+00 0.000000000000000e+00 0.000000000000000e+00
0.000000000000000e+00 0.000000000000000e+00 0.000000000000000e+00

0.000000000000000e+00 0.000000000000000e+00 0.000000000000000e+00
0.000000000000000e+00 0.000000000000000e+00 0.000000000000000e+00
0.000000000000000e+00 0.000000000000000e+00 0.000000000000000e+00

0.000000000000000e+00 0.000000000000000e+00 0.000000000000000e+00
0.000000000000000e+00 0.000000000000000e+00 0.000000000000000e+00
0.000000000000000e+00 0.000000000000000e+00 0.000000000000000e+00

0.000000000000000e+00 0.000000000000000e+00 0.000000000000000e+00
0.000000000000000e+00 0.000000000000000e+00 0.000000000000000e+00
0.000000000000000e+00 0.000000000000000e+00 0.000000000000000e+00

0.000000000000000e+00 0.000000000000000e+00 0.000000000000000e+00
0.000000000000000e+00 0.000000000000000e+00 0.000000000000000e+00
0.000000000000000e+00 0.000000000000000e+00 0.000000000000000e+00

0.000000000000000e+00 0.000000000000000e+00 0.000000000000000e+00
0.000000000000000e+00 0.000000000000000e+00 0.000000000000000e+00
0.000000000000000e+00 0.000000000000000e+00 0.000000000000000e+00

0.000000000000000e+00 0.000000000000000e+00 0.000000000000000e+00
0.000000000000000e+00 0.000000000000000e+00 0.000000000000000e+00
0.000000000000000e+00 0.000000000000000e+00 0.000000000000000e+00

0.000000000000000e+00 0.000000000000000e+00 0.000000000000000e+00
0.000000000000000e+00 0.000000000000000e+00 0.000000000000000e+00
0.000000000000000e+00 0.000000000000000e+00 0.000000000000000e+00

0.000000000000000e+00 0.000000000000000e+00 0.000000000000000e+00
0.000000000000000e+00 0.000000000000000e+00 0.000000000000000e+00
0.000000000000000e+00 0.000000000000000e+00 0.000000000000000e+00

0.000000000000000e+00 0.000000000000000e+00 0.000000000000000e+00
0.000000000000000e+00 0.000000000000000e+00 0.000000000000000e+00
0.000000000000000e+00 0.000000000000000e+00 0.000000000000000e+00

0.000000000000000e+00 0.000000000000000e+00 0.000000000000000e+00
0.000000000000000e+00 0.000000000000000e+00 0.000000000000000e+00
0.000000000000000e+00 0.000000000000000e+00 0.000000000000000e+00

0.000000000000000e+00 0.000000000000000e+00 0.000000000000000e+00
0.000000000000000e+00 0.000000000000000e+00 0.000000000000000e+00
0.000000000000000e+00 0.000000000000000e+00 0.000000000000000e+00

0.000000000000000e+00 0.000000000000000e+00 0.000000000000000e+00
0.000000000000000e+00 0.000000000000000e+00 0.000000000000000e+00
0.000000000000000e+00 0.000000000000000e+00 0.000000000000000e+00

0.000000000000000e+00 0.000000000000000e+00 0.000000000000000e+00
0.000000000000000e+00 0.000000000000000e+00 0.000000000000000e+00
0.000000000000000e+00 0.000000000000000e+00 0.000000000000000e+00

0.000000000000000e+00 0.000000000000000e+00 0.000000000000000e+00
0.000000000000000e+00 0.000000000000000e+00 0.000000000000000e+00
0.000000000000000e+00 0.000000000000000e+00 0.000000000000000e+00

0.000000000000000e+00 0.000000000000000e+00 0.000000000000000e+00
0.000000000000000e+00 0.000000000000000e+00 0.000000000000000e+00
0.000000000000000e+00 0.000000000000000e+00 0.000000000000000e+00

0.000000000000000e+00 0.000000000000000e+00 0.000000000000000e+00
0.000000000000000e+00 0.000000000000000e+00 0.000000000000000e+00
0.000000000000000e+00 0.000000000000000e+00 0.000000000000000e+00

0.000000000000000e+00 0.000000000000000e+00 0.000000000000000e+00
0.000000000000000e+00 0.000000000000000e+00 0.000000000000000e+00
0.000000000000000e+00 0.000000000000000e+00 0.000000000000000e+00

0.000000000000000e+00 0.000000000000000e+00 0.000000000000000e+00
0.000000000000000e+00 0.000000000000000e+00 0.000000000000000e+00
0.000000000000000e+00 0.000000000000000e+00 0.000000000000000e+00

0.000000000000000e+00 0.000000000000000e+00 0.000000000000000e+00
0.000000000000000e+00 0.000000000000000e+00 0.000000000000000e+00
0.000000000000000e+00 0.000000000000000e+00 0.000000000000000e+00

0.000000000000000e+00 0.000000000000000e+00 0.000000000000000e+00
0.000000000000000e+00 0.000000000000000e+00 0.000000000000000e+00
0.000000000000000e+00 0.000000000000000e+00 0.000000000000000e+00

0.000000000000000e+00 0.000000000000000e+00 0.000000000000000e+00
0.000000000000000e+00 0.000000000000000e+00 0.000000000000000e+00
0.000000000000000e+00 0.000000000000000e+00 0.000000000000000e+00

0.000000000000000e+00 0.000000000000000e+00 0.000000000000000e+00
0.000000000000000e+00 0.000000000000000e+00 0.000000000000000e+00
0.000000000000000e+00 0.000000000000000e+00 0.000000000000000e+00

0.000000000000000e+00 0.000000000000000e+00 0.000000000000000e+00
0.000000000000000e+00 0.000000000000000e+00 0.000000000000000e+00
0.000000000000000e+00 0.000000000000000e+00 0.000000000000000e+00

0.000000000000000e+00 0.000000000000000e+00 0.000000000000000e+00
0.000000000000000e+00 0.000000000000000e+00 0.000000000000000e+00
0.000000000000000e+00 0.000000000000000e+00 0.000000000000000e+00

0.000000000000000e+00 0.000000000000000e+00 0.000000000000000e+00
0.000000000000000e+00 0.000000000000000e+00 0.000000000000000e+00
0.000000000000000e+00 0.000000000000000e+00 0.000000000000000e+00

0.000000000000000e+00 0.000000000000000e+00 0.000000000000000e+00
0.000000000000000e+00 0.000000000000000e+00 0.000000000000000e+00
0.000000000000000e+00 0.000000000000000e+00 0.000000000000000e+00

0.000000000000000e+00 0.000000000000000e+00 0.000000000000000e+00
0.000000000000000e+00 0.000000000000000e+00 0.000000000000000e+00
0.000000000000000e+00 0.000000000000000e+00 0.000000000000000e+00

0.000000000000000e+00 0.000000000000000e+00 0.000000000000000e+00
0.000000000000000e+00 0.000000000000000e+00 0.000000000000000e+00
0.000000000000000e+00 0.000000000000000e+00 0.000000000000000e+00

0.000000000000000e+00 0.000000000000000e+00 0.000000000000000e+00
0.000000000000000e+00 0.000000000000000e+00 0.000000000000000e+00
0.000000000000000e+00 0.000000000000000e+00 0.000000000000000e+00

0.000000000000000e+00 0.000000000000000e+00 0.000000000000000e+00
0.000000000000000e+00 0.000000000000000e+00 0.000000000000000e+00
0.000000000000000e+00 0.000000000000000e+00 0.000000000000000e+00

0.000000000000000e+00 0.000000000000000e+00 0.000000000000000e+00
0.000000000000000e+00 0.000000000000000e+00 0.000000000000000e+00
0.000000000000000e+00 0.000000000000000e+00 0.000000000000000e+00

0.000000000000000e+00 0.000000000000000e+00 0.000000000000000e+00
0.000000000000000e+00 0.000000000000000e+00 0.000000000000000e+00
0.000000000000000e+00 0.000000000000000e+00 0.000000000000000e+00

0.000000000000000e+00 0.000000000000000e+00 0.000000000000000e+00
0.000000000000000e+00 0.000000000000000e+00 0.000000000000000e+00
0.000000000000000e+00 0.000000000000000e+00 0.000000000000000e+00

0.000000000000000e+00 0.000000000000000e+00 0.000000000000000e+00
0.000000000000000e+00 0.000000000000000e+00 0.000000000000000e+00
0.000000000000000e+00 0.000000000000000e+00 0.000000000000000e+00

0.000000000000000e+00 0.000000000000000e+00 0.000000000000000e+00
0.000000000000000e+00 0.000000000000000e+00 0.000000000000000e+00
0.000000000000000e+00 0.000000000000000e+00 0.000000000000000e+00

0.000000000000000e+00 0.000000000000000e+00 0.000000000000000e+00
0.000000000000000e+00 0.000000000000000e+00 0.000000000000000e+00
0.000000000000000e+00 0.000000000000000e+00 0.000000000000000e+00

0.000000000000000e+00 0.000000000000000e+00 0.000000000000000e+00
0.000000000000000e+00 0.000000000000000e+00 0.000000000000000e+00
0.000000000000000e+00 0.000000000000000e+00 0.000000000000000e+00

0.000000000000000e+00 0.000000000000000e+00 0.000000000000000e+00
0.000000000000000e+00 0.000000000000000e+00 0.000000000000000e+00
0.000000000000000e+00 0.000000000000000e+00 0.000000000000000e+00

0.000000000000000e+00 0.000000000000000e+00 0.000000000000000e+00
0.000000000000000e+00 0.000000000000000e+00 0.000000000000000e+00
0.000000000000000e+00 0.000000000000000e+00 0.000000000000000e+00

0.000000000000000e+00 0.000000000000000e+00 0.000000000000000e+00
0.000000000000000e+00 0.000000000000000e+00 0.000000000000000e+00
0.000000000000000e+00 0.000000000000000e+00 0.000000000000000e+00

0.000000000000000e+00 0.000000000000000e+00 0.000000000000000e+00
0.000000000000000e+00 0.000000000000000e+00 0.000000000000000e+00
0.000000000000000e+00 0.000000000000000e+00 0.000000000000000e+00

0.000000000000000e+00 0.000000000000000e+00 0.000000000000000e+00
0.000000000000000e+00 0.000000000000000e+00 0.000000000000000e+00
0.000000000000000e+00 0.000000000000000e+00 0.000000000000000e+00

0.000000000000000e+00 0.000000000000000e+00 0.000000000000000e+00
0.000000000000000e+00 0.000000000000000e+00 0.000000000000000e+00
0.000000000000000e+00 0.000000000000000e+00 0.000000000000000e+00

0.000000000000000e+00 0.000000000000000e+00 0.000000000000000e+00
0.000000000000000e+00 0.000000000000000e+00 0.000000000000000e+00
0.000000000000000e+00 0.000000000000000e+00 0.000000000000000e+00

0.000000000000000e+00 0.000000000000000e+00 0.000000000000000e+00
0.000000000000000e+00 0.000000000000000e+00 0.000000000000000e+00
0.000000000000000e+00 0.000000000000000e+00 0.000000000000000e+00

0.000000000000000e+00 0.000000000000000e+00 0.000000000000000e+00
0.000000000000000e+00 0.000000000000000e+00 0.000000000000000e+00
0.000000000000000e+00 0.000000000000000e+00 0.000000000000000e+00

0.000000000000000e+00 0.000000000000000e+00 0.000000000000000e+00
0.000000000000000e+00 0.000000000000000e+00 0.000000000000000e+00
0.000000000000000e+00 0.000000000000000e+00 0.000000000000000e+00

0.000000000000000e+00 0.000000000000000e+00 0.000000000000000e+00
0.000000000000000e+00 0.000000000000000e+00 0.000000000000000e+00
0.000000000000000e+00 0.000000000000000e+00 0.000000000000000e+00

0.000000000000000e+00 0.000000000000000e+00 0.000000000000000e+00
0.000000000000000e+00 0.000000000000000e+00 0.000000000000000e+00
0.000000000000000e+00 0.000000000000000e+00 0.000000000000000e+00

0.000000000000000e+00 0.000000000000000e+00 0.000000000000000e+00
0.000000000000000e+00 0.000000000000000e+00 0.000000000000000e+00
0.000000000000000e+00 0.000000000000000e+00 0.000000000000000e+00

0.000000000000000e+00 0.000000000000000e+00 0.000000000000000e+00
0.000000000000000e+00 0.000000000000000e+00 0.000000000000000e+00
0.000000000000000e+00 0.000000000000000e+00 0.000000000000000e+00

0.000000000000000e+00 0.000000000000000e+00 0.000000000000000e+00
0.000000000000000e+00 0.000000000000000e+00 0.000000000000000e+00
0.000000000000000e+00 0.000000000000000e+00 0.000000000000000e+00

0.000000000000000e+00 0.000000000000000e+00 0.000000000000000e+00
0.000000000000000e+00 0.000000000000000e+00 0.000000000000000e+00
0.000000000000000e+00 0.000000000000000e+00 0.000000000000000e+00

0.000000000000000e+00 0.000000000000000e+00 0.000000000000000e+00
0.000000000000000e+00 0.000000000000000e+00 0.000000000000000e+00
0.000000000000000e+00 0.000000000000000e+00 0.000000000000000e+00

0.000000000000000e+00 0.000000000000000e+00 0.000000000000000e+00
0.000000000000000e+00 0.000000000000000e+00 0.000000000000000e+00
0.000000000000000e+00 0.000000000000000e+00 0.000000000000000e+00

0.000000000000000e+00 0.000000000000000e+00 0.000000000000000e+00
0.000000000000000e+00 0.000000000000000e+00 0.000000000000000e+00
0.000000000000000e+00 0.000000000000000e+00 0.000000000000000e+00

0.000000000000000e+00 0.000000000000000e+00 0.000000000000000e+00
0.000000000000000e+00 0.000000000000000e+00 0.000000000000000e+00
0.000000000000000e+00 0.000000000000000e+00 0.000000000000000e+00

0.000000000000000e+00 0.000000000000000e+00 0.000000000000000e+00
0.000000000000000e+00 0.000000000000000e+00 0.000000000000000e+00
0.000000000000000e+00 0.000000000000000e+00 0.000000000000000e+00

0.000000000000000e+00 0.000000000000000e+00 0.000000000000000e+00
0.000000000000000e+00 0.000000000000000e+00 0.000000000000000e+00
0.000000000000000e+00 0.000000000000000e+00 0.000000000000000e+00

0.000000000000000e+00 0.000000000000000e+00 0.000000000000000e+00
0.000000000000000e+00 0.000000000000000e+00 0.000000000000000e+00
0.000000000000000e+00 0.000000000000000e+00 0.000000000000000e+00

0.000000000000000e+00 0.000000000000000e+00 0.000000000000000e+00
0.000000000000000e+00 0.000000000000000e+00 0.000000000000000e+00
0.000000000000000e+00 0.000000000000000e+00 0.000000000000000e+00

0.000000000000000e+00 0.000000000000000e+00 0.000000000000000e+00
0.000000000000000e+00 0.000000000000000e+00 0.000000000000000e+00
0.000000000000000e+00 0.000000000000000e+00 0.000000000000000e+00

0.000000000000000e+00 0.000000000000000e+00 0.000000000000000e+00
0.000000000000000e+00 0.000000000000000e+00 0.000000000000000e+00
0.000000000000000e+00 0.000000000000000e+00 0.000000000000000e+00

0.000000000000000e+00 0.000000000000000e+00 0.000000000000000e+00
0.000000000000000e+00 0.000000000000000e+00 0.000000000000000e+00
0.000000000000000e+00 0.000000000000000e+00 0.000000000000000e+00

0.000000000000000e+00 0.000000000000000e+00 0.000000000000000e+00
0.000000000000000e+00 0.000000000000000e+00 0.000000000000000e+00
0.000000000000000e+00 0.000000000000000e+00 0.000000000000000e+00

0.000000000000000e+00 0.000000000000000e+00 0.000000000000000e+00
0.000000000000000e+00 0.000000000000000e+00 0.000000000000000e+00
0.000000000000000e+00 0.000000000000000e+00 0.000000000000000e+00

0.000000000000000e+00 0.000000000000000e+00 0.000000000000000e+00
0.000000000000000e+00 0.000000000000000e+00 0.000000000000000e+00
0.000000000000000e+00 0.000000000000000e+00 0.000000000000000e+00

0.000000000000000e+00 0.000000000000000e+00 0.000000000000000e+00
0.000000000000000e+00 0.000000000000000e+00 0.000000000000000e+00
0.000000000000000e+00 0.000000000000000e+00 0.000000000000000e+00

0.000000000000000e+00 0.000000000000000e+00 0.000000000000000e+00
0.000000000000000e+00 0.000000000000000e+00 0.000000000000000e+00
0.000000000000000e+00 0.000000000000000e+00 0.000000000000000e+00

0.000000000000000e+00 0.000000000000000e+00 0.000000000000000e+00
0.000000000000000e+00 0.000000000000000e+00 0.000000000000000e+00
0.000000000000000e+00 0.000000000000000e+00 0.000000000000000e+00

0.000000000000000e+00 0.000000000000000e+00 0.000000000000000e+00
0.000000000000000e+00 0.000000000000000e+00 0.000000000000000e+00
0.000000000000000e+00 0.000000000000000e+00 0.000000000000000e+00

0.000000000000000e+00 0.000000000000000e+00 0.000000000000000e+00
0.000000000000000e+00 0.000000000000000e+00 0.000000000000000e+00
0.000000000000000e+00 0.000000000000000e+00 0.000000000000000e+00

0.000000000000000e+00 0.000000000000000e+00 0.000000000000000e+00
0.000000000000000e+00 0.000000000000000e+00 0.000000000000000e+00
0.000000000000000e+00 0.000000000000000e+00 0.000000000000000e+00

0.000000000000000e+00 0.000000000000000e+00 0.000000000000000e+00
0.000000000000000e+00 0.000000000000000e+00 0.000000000000000e+00
0.000000000000000e+00 0.000000000000000e+00 0.000000000000000e+00

0.000000000000000e+00 0.000000000000000e+00 0.000000000000000e+00
0.000000000000000e+00 0.000000000000000e+00 0.000000000000000e+00
0.000000000000000e+00 0.000000000000000e+00 0.000000000000000e+00

0.000000000000000e+00 0.000000000000000e+00 0.000000000000000e+00
0.000000000000000e+00 0.000000000000000e+00 0.000000000000000e+00
0.000000000000000e+00 0.000000000000000e+00 0.000000000000000e+00

0.000000000000000e+00 0.000000000000000e+00 0.000000000000000e+00
0.000000000000000e+00 0.000000000000000e+00 0.000000000000000e+00
0.000000000000000e+00 0.000000000000000e+00 0.000000000000000e+00

0.000000000000000e+00 0.000000000000000e+00 0.000000000000000e+00
0.000000000000000e+00 0.000000000000000e+00 0.000000000000000e+00
0.000000000000000e+00 0.000000000000000e+00 0.000000000000000e+00

0.000000000000000e+00 0.000000000000000e+00 0.000000000000000e+00
0.000000000000000e+00 0.000000000000000e+00 0.000000000000000e+00
0.000000000000000e+00 0.000000000000000e+00 0.000000000000000e+00

0.000000000000000e+00 0.000000000000000e+00 0.000000000000000e+00
0.000000000000000e+00 0.000000000000000e+00 0.000000000000000e+00
0.000000000000000e+00 0.000000000000000e+00 0.000000000000000e+00

0.000000000000000e+00 0.000000000000000e+00 0.000000000000000e+00
0.000000000000000e+00 0.000000000000000e+00 0.000000000000000e+00
0.000000000000000e+00 0.000000000000000e+00 0.000000000000000e+00

0.000000000000000e+00 0.000000000000000e+00 0.000000000000000e+00
0.000000000000000e+00 0.000000000000000e+00 0.000000000000000e+00
0.000000000000000e+00 0.000000000000000e+00 0.000000000000000e+00

0.000000000000000e+00 0.000000000000000e+00 0.000000000000000e+00
0.000000000000000e+00 0.000000000000000e+00 0.000000000000000e+00
0.000000000000000e+00 0.000000000000000e+00 0.000000000000000e+00

0.000000000000000e+00 0.000000000000000e+00 0.000000000000000e+00
0.000000000000000e+00 0.000000000000000e+00 0.000000000000000e+00
0.000000000000000e+00 0.000000000000000e+00 0.000000000000000e+00

0.000000000000000e+00 0.000000000000000e+00 0.000000000000000e+00
0.000000000000000e+00 0.000000000000000e+00 0.000000000000000e+00
0.000000000000000e+00 0.000000000000000e+00 0.000000000000000e+00

0.000000000000000e+00 0.000000000000000e+00 0.000000000000000e+00
0.000000000000000e+00 0.000000000000000e+00 0.000000000000000e+00
0.000000000000000e+00 0.000000000000000e+00 0.000000000000000e+00

0.000000000000000e+00 0.000000000000000e+00 0.000000000000000e+00
0.000000000000000e+00 0.000000000000000e+00 0.000000000000000e+00
0.000000000000000e+00 0.000000000000000e+00 0.000000000000000e+00

0.000000000000000e+00 0.000000000000000e+00 0.000000000000000e+00
0.000000000000000e+00 0.000000000000000e+00 0.000000000000000e+00
0.000000000000000e+00 0.000000000000000e+00 0.000000000000000e+00

0.000000000000000e+00 0.000000000000000e+00 0.000000000000000e+00
0.000000000000000e+00 0.000000000000000e+00 0.000000000000000e+00
0.000000000000000e+00 0.000000000000000e+00 0.000000000000000e+00

0.000000000000000e+00 0.000000000000000e+00 0.000000000000000e+00
0.000000000000000e+00 0.000000000000000e+00 0.000000000000000e+00
0.000000000000000e+00 0.000000000000000e+00 0.000000000000000e+00

0.000000000000000e+00 0.000000000000000e+00 0.000000000000000e+00
0.000000000000000e+00 0.000000000000000e+00 0.000000000000000e+00
0.000000000000000e+00 0.000000000000000e+00 0.000000000000000e+00

0.000000000000000e+00 0.000000000000000e+00 0.000000000000000e+00
0.000000000000000e+00 0.000000000000000e+00 0.000000000000000e+00
0.000000000000000e+00 0.000000000000000e+00 0.000000000000000e+00

0.000000000000000e+00 0.000000000000000e+00 0.000000000000000e+00
0.000000000000000e+00 0.000000000000000e+00 0.000000000000000e+00
0.000000000000000e+00 0.000000000000000e+00 0.000000000000000e+00

0.000000000000000e+00 0.000000000000000e+00 0.000000000000000e+00
0.000000000000000e+00 0.000000000000000e+00 0.000000000000000e+00
0.000000000000000e+00 0.000000000000000e+00 0.000000000000000e+00

0.000000000000000e+00 0.000000000000000e+00 0.000000000000000e+00
0.000000000000000e+00 0.000000000000000e+00 0.000000000000000e+00
0.000000000000000e+00 0.000000000000000e+00 0.000000000000000e+00

0.000000000000000e+00 0.000000000000000e+00 0.000000000000000e+00
0.000000000000000e+00 0.000000000000000e+00 0.000000000000000e+00
0.000000000000000e+00 0.000000000000000e+00 0.000000000000000e+00

0.000000000000000e+00 0.000000000000000e+00 0.000000000000000e+00
0.000000000000000e+00 0.000000000000000e+00 0.000000000000000e+00
0.000000000000000e+00 0.000000000000000e+00 0.000000000000000e+00

0.000000000000000e+00 0.000000000000000e+00 0.000000000000000e+00
0.000000000000000e+00 0.000000000000000e+00 0.000000000000000e+00
0.000000000000000e+00 0.000000000000000e+00 0.000000000000000e+00

0.000000000000000e+00 0.000000000000000e+00 0.000000000000000e+00
0.000000000000000e+00 0.000000000000000e+00 0.000000000000000e+00
0.000000000000000e+00 0.000000000000000e+00 0.000000000000000e+00

0.000000000000000e+00 0.000000000000000e+00 0.000000000000000e+00
0.000000000000000e+00 0.000000000000000e+00 0.000000000000000e+00
0.000000000000000e+00 0.000000000000000e+00 0.000000000000000e+00

0.000000000000000e+00 0.000000000000000e+00 0.000000000000000e+00
0.000000000000000e+00 0.000000000000000e+00 0.000000000000000e+00
0.000000000000000e+00 0.000000000000000e+00 0.000000000000000e+00

0.000000000000000e+00 0.000000000000000e+00 0.000000000000000e+00
0.000000000000000e+00 0.000000000000000e+00 0.000000000000000e+00
0.000000000000000e+00 0.000000000000000e+00 0.000000000000000e+00

0.000000000000000e+00 0.000000000000000e+00 0.000000000000000e+00
0.000000000000000e+00 0.000000000000000e+00 0.000000000000000e+00
0.000000000000000e+00 0.000000000000000e+00 0.000000000000000e+00

0.000000000000000e+00 0.000000000000000e+00 0.000000000000000e+00
0.000000000000000e+00 0.000000000000000e+00 0.000000000000000e+00
0.000000000000000e+00 0.000000000000000e+00 0.000000000000000e+00

0.000000000000000e+00 0.000000000000000e+00 0.000000000000000e+00
0.000000000000000e+00 0.000000000000000e+00 0.000000000000000e+00
0.000000000000000e+00 0.000000000000000e+00 0.000000000000000e+00

0.000000000000000e+00 0.000000000000000e+00 0.000000000000000e+00
0.000000000000000e+00 0.000000000000000e+00 0.000000000000000e+00
0.000000000000000e+00 0.000000000000000e+00 0.000000000000000e+00

0.000000000000000e+00 0.000000000000000e+00 0.000000000000000e+00
0.000000000000000e+00 0.000000000000000e+00 0.000000000000000e+00
0.000000000000000e+00 0.000000000000000e+00 0.000000000000000e+00

0.000000000000000e+00 0.000000000000000e+00 0.000000000000000e+00
0.000000000000000e+00 0.000000000000000e+00 0.000000000000000e+00
0.000000000000000e+00 0.000000000000000e+00 0.000000000000000e+00

0.000000000000000e+00 0.000000000000000e+00 0.000000000000000e+00
0.000000000000000e+00 0.000000000000000e+00 0.000000000000000e+00
0.000000000000000e+00 0.000000000000000e+00 0.000000000000000e+00

0.000000000000000e+00 0.000000000000000e+00 0.000000000000000e+00
0.000000000000000e+00 0.000000000000000e+00 0.000000000000000e+00
0.000000000000000e+00 0.000000000000000e+00 0.000000000000000e+00

0.000000000000000e+00 0.000000000000000e+00 0.000000000000000e+00
0.000000000000000e+00 0.000000000000000e+00 0.000000000000000e+00
0.000000000000000e+00 0.000000000000000e+00 0.000000000000000e+00

0.000000000000000e+00 0.000000000000000e+00 0.000000000000000e+00
0.000000000000000e+00 0.000000000000000e+00 0.000000000000000e+00
0.000000000000000e+00 0.000000000000000e+00 0.000000000000000e+00

0.000000000000000e+00 0.000000000000000e+00 0.000000000000000e+00
0.000000000000000e+00 0.000000000000000e+00 0.000000000000000e+00
0.000000000000000e+00 0.000000000000000e+00 0.000000000000000e+00

0.000000000000000e+00 0.000000000000000e+00 0.000000000000000e+00
0.000000000000000e+00 0.000000000000000e+00 0.000000000000000e+00
0.000000000000000e+00 0.000000000000000e+00 0.000000000000000e+00

0.000000000000000e+00 0.000000000000000e+00 0.000000000000000e+00
0.000000000000000e+00 0.000000000000000e+00 0.000000000000000e+00
0.000000000000000e+00 0.000000000000000e+00 0.000000000000000e+00

0.000000000000000e+00 0.000000000000000e+00 0.000000000000000e+00
0.000000000000000e+00 0.000000000000000e+00 0.000000000000000e+00
0.000000000000000e+00 0.000000000000000e+00 0.000000000000000e+00

0.000000000000000e+00 0.000000000000000e+00 0.000000000000000e+00
0.000000000000000e+00 0.000000000000000e+00 0.000000000000000e+00
0.000000000000000e+00 0.000000000000000e+00 0.000000000000000e+00

0.000000000000000e+00 0.000000000000000e+00 0.000000000000000e+00
0.000000000000000e+00 0.000000000000000e+00 0.000000000000000e+00
0.000000000000000e+00 0.000000000000000e+00 0.000000000000000e+00

0.000000000000000e+00 0.000000000000000e+00 0.000000000000000e+00
0.000000000000000e+00 0.000000000000000e+00 0.000000000000000e+00
0.000000000000000e+00 0.000000000000000e+00 0.000000000000000e+00

0.000000000000000e+00 0.000000000000000e+00 0.000000000000000e+00
0.000000000000000e+00 0.000000000000000e+00 0.000000000000000e+00
0.000000000000000e+00 0.000000000000000e+00 0.000000000000000e+00

0.000000000000000e+00 0.000000000000000e+00 0.000000000000000e+00
0.000000000000000e+00 0.000000000000000e+00 0.000000000000000e+00
0.000000000000000e+00 0.000000000000000e+00 0.000000000000000e+00

0.000000000000000e+00 0.000000000000000e+00 0.000000000000000e+00
0.000000000000000e+00 0.000000000000000e+00 0.000000000000000e+00
0.000000000000000e+00 0.000000000000000e+00 0.000000000000000e+00

0.000000000000000e+00 0.000000000000000e+00 0.000000000000000e+00
0.000000000000000e+00 0.000000000000000e+00 0.000000000000000e+00
0.000000000000000e+00 0.000000000000000e+00 0.000000000000000e+00

0.000000000000000e+00 0.000000000000000e+00 0.000000000000000e+00
0.000000000000000e+00 0.000000000000000e+00 0.000000000000000e+00
0.000000000000000e+00 0.000000000000000e+00 0.000000000000000e+00

0.000000000000000e+00 0.000000000000000e+00 0.000000000000000e+00
0.000000000000000e+00 0.000000000000000e+00 0.000000000000000e+00
0.000000000000000e+00 0.000000000000000e+00 0.000000000000000e+00

0.000000000000000e+00 0.000000000000000e+00 0.000000000000000e+00
0.000000000000000e+00 0.000000000000000e+00 0.000000000000000e+00
0.000000000000000e+00 0.000000000000000e+00 0.000000000000000e+00

0.000000000000000e+00 0.000000000000000e+00 0.000000000000000e+00
0.000000000000000e+00 0.000000000000000e+00 0.000000000000000e+00
0.000000000000000e+00 0.000000000000000e+00 0.000000000000000e+00

0.000000000000000e+00 0.000000000000000e+00 0.000000000000000e+00
0.000000000000000e+00 0.000000000000000e+00 0.000000000000000e+00
0.000000000000000e+00 0.000000000000000e+00 0.000000000000000e+00

0.000000000000000e+00 0.000000000000000e+00 0.000000000000000e+00
0.000000000000000e+00 0.000000000000000e+00 0.000000000000000e+00
0.000000000000000e+00 0.000000000000000e+00 0.000000000000000e+00

0.000000000000000e+00 0.000000000000000e+00 0.000000000000000e+00
0.000000000000000e+00 0.000000000000000e+00 0.000000000000000e+00
0.000000000000000e+00 0.000000000000000e+00 0.000000000000000e+00

0.000000000000000e+00 0.000000000000000e+00 0.000000000000000e+00
0.000000000000000e+00 0.000000000000000e+00 0.000000000000000e+00
0.000000000000000e+00 0.000000000000000e+00 0.000000000000000e+00

0.000000000000000e+00 0.000000000000000e+00 0.000000000000000e+00
0.000000000000000e+00 0.000000000000000e+00 0.000000000000000e+00
0.000000000000000e+00 0.000000000000000e+00 0.000000000000000e+00

0.000000000000000e+00 0.000000000000000e+00 0.000000000000000e+00
0.000000000000000e+00 0.000000000000000e+00 0.000000000000000e+00
0.000000000000000e+00 0.000000000000000e+00 0.000000000000000e+00

0.000000000000000e+00 0.000000000000000e+00 0.000000000000000e+00
0.000000000000000e+00 0.000000000000000e+00 0.000000000000000e+00
0.000000000000000e+00 0.000000000000000e+00 0.000000000000000e+00

0.000000000000000e+00 0.000000000000000e+00 0.000000000000000e+00
0.000000000000000e+00 0.000000000000000e+00 0.000000000000000e+00
0.000000000000000e+00 0.000000000000000e+00 0.000000000000000e+00

0.000000000000000e+00 0.000000000000000e+00 0.000000000000000e+00
0.000000000000000e+00 0.000000000000000e+00 0.000000000000000e+00
0.000000000000000e+00 0.000000000000000e+00 0.000000000000000e+00

0.000000000000000e+00 0.000000000000000e+00 0.000000000000000e+00
0.000000000000000e+00 0.000000000000000e+00 0.000000000000000e+00
0.000000000000000e+00 0.000000000000000e+00 0.000000000000000e+00

0.000000000000000e+00 0.000000000000000e+00 0.000000000000000e+00
0.000000000000000e+00 0.000000000000000e+00 0.000000000000000e+00
0.000000000000000e+00 0.000000000000000e+00 0.000000000000000e+00

0.000000000000000e+00 0.000000000000000e+00 0.000000000000000e+00
0.000000000000000e+00 0.000000000000000e+00 0.000000000000000e+00
0.000000000000000e+00 0.000000000000000e+00 0.000000000000000e+00

0.000000000000000e+00 0.000000000000000e+00 0.000000000000000e+00
0.000000000000000e+00 0.000000000000000e+00 0.000000000000000e+00
0.000000000000000e+00 0.000000000000000e+00 0.000000000000000e+00

0.000000000000000e+00 0.000000000000000e+00 0.000000000000000e+00
0.000000000000000e+00 0.000000000000000e+00 0.000000000000000e+00
0.000000000000000e+00 0.000000000000000e+00 0.000000000000000e+00

0.000000000000000e+00 0.000000000000000e+00 0.000000000000000e+00
0.000000000000000e+00 0.000000000000000e+00 0.000000000000000e+00
0.000000000000000e+00 0.000000000000000e+00 0.000000000000000e+00

0.000000000000000e+00 0.000000000000000e+00 0.000000000000000e+00
0.000000000000000e+00 0.000000000000000e+00 0.000000000000000e+00
0.000000000000000e+00 0.000000000000000e+00 0.000000000000000e+00

0.000000000000000e+00 0.000000000000000e+00 0.000000000000000e+00
0.000000000000000e+00 0.000000000000000e+00 0.000000000000000e+00
0.000000000000000e+00 0.000000000000000e+00 0.000000000000000e+00

0.000000000000000e+00 0.000000000000000e+00 0.000000000000000e+00
0.000000000000000e+00 0.000000000000000e+00 0.000000000000000e+00
0.000000000000000e+00 0.000000000000000e+00 0.000000000000000e+00

0.000000000000000e+00 0.000000000000000e+00 0.000000000000000e+00
0.000000000000000e+00 0.000000000000000e+00 0.000000000000000e+00
0.000000000000000e+00 0.000000000000000e+00 0.000000000000000e+00

0.000000000000000e+00 0.000000000000000e+00 0.000000000000000e+00
0.000000000000000e+00 0.000000000000000e+00 0.000000000000000e+00
0.000000000000000e+00 0.000000000000000e+00 0.000000000000000e+00

0.000000000000000e+00 0.000000000000000e+00 0.000000000000000e+00
0.000000000000000e+00 0.000000000000000e+00 0.000000000000000e+00
0.000000000000000e+00 0.000000000000000e+00 0.000000000000000e+00

0.000000000000000e+00 0.000000000000000e+00 0.000000000000000e+00
0.000000000000000e+00 0.000000000000000e+00 0.000000000000000e+00
0.000000000000000e+00 0.000000000000000e+00 0.000000000000000e+00

0.000000000000000e+00 0.000000000000000e+00 0.000000000000000e+00
0.000000000000000e+00 0.000000000000000e+00 0.000000000000000e+00
0.000000000000000e+00 0.000000000000000e+00 0.000000000000000e+00

0.000000000000000e+00 0.000000000000000e+00 0.000000000000000e+00
0.000000000000000e+00 0.000000000000000e+00 0.000000000000000e+00
0.000000000000000e+00 0.000000000000000e+00 0.000000000000000e+00

0.000000000000000e+00 0.000000000000000e+00 0.000000000000000e+00
0.000000000000000e+00 0.000000000000000e+00 0.000000000000000e+00
0.000000000000000e+00 0.000000000000000e+00 0.000000000000000e+00

0.000000000000000e+00 0.000000000000000e+00 0.000000000000000e+00
0.000000000000000e+00 0.000000000000000e+00 0.000000000000000e+00
0.000000000000000e+00 0.000000000000000e+00 0.000000000000000e+00

0.000000000000000e+00 0.000000000000000e+00 0.000000000000000e+00
0.000000000000000e+00 0.000000000000000e+00 0.000000000000000e+00
0.000000000000000e+00 0.000000000000000e+00 0.000000000000000e+00

0.000000000000000e+00 0.000000000000000e+00 0.000000000000000e+00
0.000000000000000e+00 0.000000000000000e+00 0.000000000000000e+00
0.000000000000000e+00 0.000000000000000e+00 0.000000000000000e+00

0.000000000000000e+00 0.000000000000000e+00 0.000000000000000e+00
0.000000000000000e+00 0.000000000000000e+00 0.000000000000000e+00
0.000000000000000e+00 0.000000000000000e+00 0.000000000000000e+00

0.000000000000000e+00 0.000000000000000e+00 0.000000000000000e+00
0.000000000000000e+00 0.000000000000000e+00 0.000000000000000e+00
0.000000000000000e+00 0.000000000000000e+00 0.000000000000000e+00

0.000000000000000e+00 0.000000000000000e+00 0.000000000000000e+00
0.000000000000000e+00 0.000000000000000e+00 0.000000000000000e+00
0.000000000000000e+00 0.000000000000000e+00 0.000000000000000e+00

0.000000000000000e+00 0.000000000000000e+00 0.000000000000000e+00
0.000000000000000e+00 0.000000000000000e+00 0.000000000000000e+00
0.000000000000000e+00 0.000000000000000e+00 0.000000000000000e+00

0.000000000000000e+00 0.000000000000000e+00 0.000000000000000e+00
0.000000000000000e+00 0.000000000000000e+00 0.000000000000000e+00
0.000000000000000e+00 0.000000000000000e+00 0.000000000000000e+00

0.000000000000000e+00 0.000000000000000e+00 0.000000000000000e+00
0.000000000000000e+00 0.000000000000000e+00 0.000000000000000e+00
0.000000000000000e+00 0.000000000000000e+00 0.000000000000000e+00

0.000000000000000e+00 0.000000000000000e+00 0.000000000000000e+00
0.000000000000000e+00 0.000000000000000e+00 0.000000000000000e+00
0.000000000000000e+00 0.000000000000000e+00 0.000000000000000e+00

0.000000000000000e+00 0.000000000000000e+00 0.000000000000000e+00
0.000000000000000e+00 0.000000000000000e+00 0.000000000000000e+00
0.000000000000000e+00 0.000000000000000e+00 0.000000000000000e+00

0.000000000000000e+00 0.000000000000000e+00 0.000000000000000e+00
0.000000000000000e+00 0.000000000000000e+00 0.000000000000000e+00
0.000000000000000e+00 0.000000000000000e+00 0.000000000000000e+00

0.000000000000000e+00 0.000000000000000e+00 0.000000000000000e+00
0.000000000000000e+00 0.000000000000000e+00 0.000000000000000e+00
0.000000000000000e+00 0.000000000000000e+00 0.000000000000000e+00

0.000000000000000e+00 0.000000000000000e+00 0.000000000000000e+00
0.000000000000000e+00 0.000000000000000e+00 0.000000000000000e+00
0.000000000000000e+00 0.000000000000000e+00 0.000000000000000e+00

0.000000000000000e+00 0.000000000000000e+00 0.000000000000000e+00
0.000000000000000e+00 0.000000000000000e+00 0.000000000000000e+00
0.000000000000000e+00 0.000000000000000e+00 0.000000000000000e+00

0.000000000000000e+00 0.000000000000000e+00 0.000000000000000e+00
0.000000000000000e+00 0.000000000000000e+00 0.000000000000000e+00
0.000000000000000e+00 0.000000000000000e+00 0.000000000000000e+00

0.000000000000000e+00 0.000000000000000e+00 0.000000000000000e+00
0.000000000000000e+00 0.000000000000000e+00 0.000000000000000e+00
0.000000000000000e+00 0.000000000000000e+00 0.000000000000000e+00

0.000000000000000e+00 0.000000000000000e+00 0.000000000000000e+00
0.000000000000000e+00 0.000000000000000e+00 0.000000000000000e+00
0.000000000000000e+00 0.000000000000000e+00 0.000000000000000e+00

0.000000000000000e+00 0.000000000000000e+00 0.000000000000000e+00
0.000000000000000e+00 0.000000000000000e+00 0.000000000000000e+00
0.000000000000000e+00 0.000000000000000e+00 0.000000000000000e+00

0.000000000000000e+00 0.000000000000000e+00 0.000000000000000e+00
0.000000000000000e+00 0.000000000000000e+00 0.000000000000000e+00
0.000000000000000e+00 0.000000000000000e+00 0.000000000000000e+00

0.000000000000000e+00 0.000000000000000e+00 0.000000000000000e+00
0.000000000000000e+00 0.000000000000000e+00 0.000000000000000e+00
0.000000000000000e+00 0.000000000000000e+00 0.000000000000000e+00

0.000000000000000e+00 0.000000000000000e+00 0.000000000000000e+00
0.000000000000000e+00 0.000000000000000e+00 0.000000000000000e+00
0.000000000000000e+00 0.000000000000000e+00 0.000000000000000e+00

0.000000000000000e+00 0.000000000000000e+00 0.000000000000000e+00
0.000000000000000e+00 0.000000000000000e+00 0.000000000000000e+00
0.000000000000000e+00 0.000000000000000e+00 0.000000000000000e+00

0.000000000000000e+00 0.000000000000000e+00 0.000000000000000e+00
0.000000000000000e+00 0.000000000000000e+00 0.000000000000000e+00
0.000000000000000e+00 0.000000000000000e+00 0.000000000000000e+00

0.000000000000000e+00 0.000000000000000e+00 0.000000000000000e+00
0.000000000000000e+00 0.000000000000000e+00 0.000000000000000e+00
0.000000000000000e+00 0.000000000000000e+00 0.000000000000000e+00

0.000000000000000e+00 0.000000000000000e+00 0.000000000000000e+00
0.000000000000000e+00 0.000000000000000e+00 0.000000000000000e+00
0.000000000000000e+00 0.000000000000000e+00 0.000000000000000e+00

0.000000000000000e+00 0.000000000000000e+00 0.000000000000000e+00
0.000000000000000e+00 0.000000000000000e+00 0.000000000000000e+00
0.000000000000000e+00 0.000000000000000e+00 0.000000000000000e+00

0.000000000000000e+00 0.000000000000000e+00 0.000000000000000e+00
0.000000000000000e+00 0.000000000000000e+00 0.000000000000000e+00
0.000000000000000e+00 0.000000000000000e+00 0.000000000000000e+00

0.000000000000000e+00 0.000000000000000e+00 0.000000000000000e+00
0.000000000000000e+00 0.000000000000000e+00 0.000000000000000e+00
0.000000000000000e+00 0.000000000000000e+00 0.000000000000000e+00

0.000000000000000e+00 0.000000000000000e+00 0.000000000000000e+00
0.000000000000000e+00 0.000000000000000e+00 0.000000000000000e+00
0.000000000000000e+00 0.000000000000000e+00 0.000000000000000e+00

0.000000000000000e+00 0.000000000000000e+00 0.000000000000000e+00
0.000000000000000e+00 0.000000000000000e+00 0.000000000000000e+00
0.000000000000000e+00 0.000000000000000e+00 0.000000000000000e+00

0.000000000000000e+00 0.000000000000000e+00 0.000000000000000e+00
0.000000000000000e+00 0.000000000000000e+00 0.000000000000000e+00
0.000000000000000e+00 0.000000000000000e+00 0.000000000000000e+00

0.000000000000000e+00 0.000000000000000e+00 0.000000000000000e+00
0.000000000000000e+00 0.000000000000000e+00 0.000000000000000e+00
0.000000000000000e+00 0.000000000000000e+00 0.000000000000000e+00

0.000000000000000e+00 0.000000000000000e+00 0.000000000000000e+00
0.000000000000000e+00 0.000000000000000e+00 0.000000000000000e+00
0.000000000000000e+00 0.000000000000000e+00 0.000000000000000e+00

0.000000000000000e+00 0.000000000000000e+00 0.000000000000000e+00
0.000000000000000e+00 0.000000000000000e+00 0.000000000000000e+00
0.000000000000000e+00 0.000000000000000e+00 0.000000000000000e+00

0.000000000000000e+00 0.000000000000000e+00 0.000000000000000e+00
0.000000000000000e+00 0.000000000000000e+00 0.000000000000000e+00
0.000000000000000e+00 0.000000000000000e+00 0.000000000000000e+00

0.000000000000000e+00 0.000000000000000e+00 0.000000000000000e+00
0.000000000000000e+00 0.000000000000000e+00 0.000000000000000e+00
0.000000000000000e+00 0.000000000000000e+00 0.000000000000000e+00

0.000000000000000e+00 0.000000000000000e+00 0.000000000000000e+00
0.000000000000000e+00 0.000000000000000e+00 0.000000000000000e+00
0.000000000000000e+00 0.000000000000000e+00 0.000000000000000e+00

0.000000000000000e+00 0.000000000000000e+00 0.000000000000000e+00
0.000000000000000e+00 0.000000000000000e+00 0.000000000000000e+00
0.000000000000000e+00 0.000000000000000e+00 0.000000000000000e+00

0.000000000000000e+00 0.000000000000000e+00 0.000000000000000e+00
0.000000000000000e+00 0.000000000000000e+00 0.000000000000000e+00
0.000000000000000e+00 0.000000000000000e+00 0.000000000000000e+00

0.000000000000000e+00 0.000000000000000e+00 0.000000000000000e+00
0.000000000000000e+00 0.000000000000000e+00 0.000000000000000e+00
0.000000000000000e+00 0.000000000000000e+00 0.000000000000000e+00

0.000000000000000e+00 0.000000000000000e+00 0.000000000000000e+00
0.000000000000000e+00 0.000000000000000e+00 0.000000000000000e+00
0.000000000000000e+00 0.000000000000000e+00 0.000000000000000e+00

0.000000000000000e+00 0.000000000000000e+00 0.000000000000000e+00
0.000000000000000e+00 0.000000000000000e+00 0.000000000000000e+00
0.000000000000000e+00 0.000000000000000e+00 0.000000000000000e+00

0.000000000000000e+00 0.000000000000000e+00 0.000000000000000e+00
0.000000000000000e+00 0.000000000000000e+00 0.000000000000000e+00
0.000000000000000e+00 0.000000000000000e+00 0.000000000000000e+00

0.000000000000000e+00 0.000000000000000e+00 0.000000000000000e+00
0.000000000000000e+00 0.000000000000000e+00 0.000000000000000e+00
0.000000000000000e+00 0.000000000000000e+00 0.000000000000000e+00

0.000000000000000e+00 0.000000000000000e+00 0.000000000000000e+00
0.000000000000000e+00 0.000000000000000e+00 0.000000000000000e+00
0.000000000000000e+00 0.000000000000000e+00 0.000000000000000e+00

0.000000000000000e+00 0.000000000000000e+00 0.000000000000000e+00
0.000000000000000e+00 0.000000000000000e+00 0.000000000000000e+00
0.000000000000000e+00 0.000000000000000e+00 0.000000000000000e+00

0.000000000000000e+00 0.000000000000000e+00 0.000000000000000e+00
0.000000000000000e+00 0.000000000000000e+00 0.000000000000000e+00
0.000000000000000e+00 0.000000000000000e+00 0.000000000000000e+00

0.000000000000000e+00 0.000000000000000e+00 0.000000000000000e+00
0.000000000000000e+00 0.000000000000000e+00 0.000000000000000e+00
0.000000000000000e+00 0.000000000000000e+00 0.000000000000000e+00

0.000000000000000e+00 0.000000000000000e+00 0.000000000000000e+00
0.000000000000000e+00 0.000000000000000e+00 0.000000000000000e+00
0.000000000000000e+00 0.000000000000000e+00 0.000000000000000e+00

0.000000000000000e+00 0.000000000000000e+00 0.000000000000000e+00
0.000000000000000e+00 0.000000000000000e+00 0.000000000000000e+00
0.000000000000000e+00 0.000000000000000e+00 0.000000000000000e+00

0.000000000000000e+00 0.000000000000000e+00 0.000000000000000e+00
0.000000000000000e+00 0.000000000000000e+00 0.000000000000000e+00
0.000000000000000e+00 0.000000000000000e+00 0.000000000000000e+00

0.000000000000000e+00 0.000000000000000e+00 0.000000000000000e+00
0.000000000000000e+00 0.000000000000000e+00 0.000000000000000e+00
0.000000000000000e+00 0.000000000000000e+00 0.000000000000000e+00

0.000000000000000e+00 0.000000000000000e+00 0.000000000000000e+00
0.000000000000000e+00 0.000000000000000e+00 0.000000000000000e+00
0.000000000000000e+00 0.000000000000000e+00 0.000000000000000e+00

0.000000000000000e+00 0.000000000000000e+00 0.000000000000000e+00
0.000000000000000e+00 0.000000000000000e+00 0.000000000000000e+00
0.000000000000000e+00 0.000000000000000e+00 0.000000000000000e+00

0.000000000000000e+00 0.000000000000000e+00 0.000000000000000e+00
0.000000000000000e+00 0.000000000000000e+00 0.000000000000000e+00
0.000000000000000e+00 0.000000000000000e+00 0.000000000000000e+00

0.000000000000000e+00 0.000000000000000e+00 0.000000000000000e+00
0.000000000000000e+00 0.000000000000000e+00 0.000000000000000e+00
0.000000000000000e+00 0.000000000000000e+00 0.000000000000000e+00

0.000000000000000e+00 0.000000000000000e+00 0.000000000000000e+00
0.000000000000000e+00 0.000000000000000e+00 0.000000000000000e+00
0.000000000000000e+00 0.000000000000000e+00 0.000000000000000e+00

0.000000000000000e+00 0.000000000000000e+00 0.000000000000000e+00
0.000000000000000e+00 0.000000000000000e+00 0.000000000000000e+00
0.000000000000000e+00 0.000000000000000e+00 0.000000000000000e+00

0.000000000000000e+00 0.000000000000000e+00 0.000000000000000e+00
0.000000000000000e+00 0.000000000000000e+00 0.000000000000000e+00
0.000000000000000e+00 0.000000000000000e+00 0.000000000000000e+00

0.000000000000000e+00 0.000000000000000e+00 0.000000000000000e+00
0.000000000000000e+00 0.000000000000000e+00 0.000000000000000e+00
0.000000000000000e+00 0.000000000000000e+00 0.000000000000000e+00

0.000000000000000e+00 0.000000000000000e+00 0.000000000000000e+00
0.000000000000000e+00 0.000000000000000e+00 0.000000000000000e+00
0.000000000000000e+00 0.000000000000000e+00 0.000000000000000e+00

0.000000000000000e+00 0.000000000000000e+00 0.000000000000000e+00
0.000000000000000e+00 0.000000000000000e+00 0.000000000000000e+00
0.000000000000000e+00 0.000000000000000e+00 0.000000000000000e+00

0.000000000000000e+00 0.000000000000000e+00 0.000000000000000e+00
0.000000000000000e+00 0.000000000000000e+00 0.000000000000000e+00
0.000000000000000e+00 0.000000000000000e+00 0.000000000000000e+00

0.000000000000000e+00 0.000000000000000e+00 0.000000000000000e+00
0.000000000000000e+00 0.000000000000000e+00 0.000000000000000e+00
0.000000000000000e+00 0.000000000000000e+00 0.000000000000000e+00

0.000000000000000e+00 0.000000000000000e+00 0.000000000000000e+00
0.000000000000000e+00 0.000000000000000e+00 0.000000000000000e+00
0.000000000000000e+00 0.000000000000000e+00 0.000000000000000e+00

0.000000000000000e+00 0.000000000000000e+00 0.000000000000000e+00
0.000000000000000e+00 0.000000000000000e+00 0.000000000000000e+00
0.000000000000000e+00 0.000000000000000e+00 0.000000000000000e+00

0.000000000000000e+00 0.000000000000000e+00 0.000000000000000e+00
0.000000000000000e+00 0.000000000000000e+00 0.000000000000000e+00
0.000000000000000e+00 0.000000000000000e+00 0.000000000000000e+00

0.000000000000000e+00 0.000000000000000e+00 0.000000000000000e+00
0.000000000000000e+00 0.000000000000000e+00 0.000000000000000e+00
0.000000000000000e+00 0.000000000000000e+00 0.000000000000000e+00

0.000000000000000e+00 0.000000000000000e+00 0.000000000000000e+00
0.000000000000000e+00 0.000000000000000e+00 0.000000000000000e+00
0.000000000000000e+00 0.000000000000000e+00 0.000000000000000e+00

0.000000000000000e+00 0.000000000000000e+00 0.000000000000000e+00
0.000000000000000e+00 0.000000000000000e+00 0.000000000000000e+00
0.000000000000000e+00 0.000000000000000e+00 0.000000000000000e+00

0.000000000000000e+00 0.000000000000000e+00 0.000000000000000e+00
0.000000000000000e+00 0.000000000000000e+00 0.000000000000000e+00
0.000000000000000e+00 0.000000000000000e+00 0.000000000000000e+00

0.000000000000000e+00 0.000000000000000e+00 0.000000000000000e+00
0.000000000000000e+00 0.000000000000000e+00 0.000000000000000e+00
0.000000000000000e+00 0.000000000000000e+00 0.000000000000000e+00

0.000000000000000e+00 0.000000000000000e+00 0.000000000000000e+00
0.000000000000000e+00 0.000000000000000e+00 0.000000000000000e+00
0.000000000000000e+00 0.000000000000000e+00 0.000000000000000e+00

0.000000000000000e+00 0.000000000000000e+00 0.000000000000000e+00
0.000000000000000e+00 0.000000000000000e+00 0.000000000000000e+00
0.000000000000000e+00 0.000000000000000e+00 0.000000000000000e+00

0.000000000000000e+00 0.000000000000000e+00 0.000000000000000e+00
0.000000000000000e+00 0.000000000000000e+00 0.000000000000000e+00
0.000000000000000e+00 0.000000000000000e+00 0.000000000000000e+00

0.000000000000000e+00 0.000000000000000e+00 0.000000000000000e+00
0.000000000000000e+00 0.000000000000000e+00 0.000000000000000e+00
0.000000000000000e+00 0.000000000000000e+00 0.000000000000000e+00

0.000000000000000e+00 0.000000000000000e+00 0.000000000000000e+00
0.000000000000000e+00 0.000000000000000e+00 0.000000000000000e+00
0.000000000000000e+00 0.000000000000000e+00 0.000000000000000e+00

0.000000000000000e+00 0.000000000000000e+00 0.000000000000000e+00
0.000000000000000e+00 0.000000000000000e+00 0.000000000000000e+00
0.000000000000000e+00 0.000000000000000e+00 0.000000000000000e+00

0.000000000000000e+00 0.000000000000000e+00 0.000000000000000e+00
0.000000000000000e+00 0.000000000000000e+00 0.000000000000000e+00
0.000000000000000e+00 0.000000000000000e+00 0.000000000000000e+00

0.000000000000000e+00 0.000000000000000e+00 0.000000000000000e+00
0.000000000000000e+00 0.000000000000000e+00 0.000000000000000e+00
0.000000000000000e+00 0.000000000000000e+00 0.000000000000000e+00

0.000000000000000e+00 0.000000000000000e+00 0.000000000000000e+00
0.000000000000000e+00 0.000000000000000e+00 0.000000000000000e+00
0.000000000000000e+00 0.000000000000000e+00 0.000000000000000e+00

0.000000000000000e+00 0.000000000000000e+00 0.000000000000000e+00
0.000000000000000e+00 0.000000000000000e+00 0.000000000000000e+00
0.000000000000000e+00 0.000000000000000e+00 0.000000000000000e+00

0.000000000000000e+00 0.000000000000000e+00 0.000000000000000e+00
0.000000000000000e+00 0.000000000000000e+00 0.000000000000000e+00
0.000000000000000e+00 0.000000000000000e+00 0.000000000000000e+00

0.000000000000000e+00 0.000000000000000e+00 0.000000000000000e+00
0.000000000000000e+00 0.000000000000000e+00 0.000000000000000e+00
0.000000000000000e+00 0.000000000000000e+00 0.000000000000000e+00

0.000000000000000e+00 0.000000000000000e+00 0.000000000000000e+00
0.000000000000000e+00 0.000000000000000e+00 0.000000000000000e+00
0.000000000000000e+00 0.000000000000000e+00 0.000000000000000e+00

0.000000000000000e+00 0.000000000000000e+00 0.000000000000000e+00
0.000000000000000e+00 0.000000000000000e+00 0.000000000000000e+00
0.000000000000000e+00 0.000000000000000e+00 0.000000000000000e+00

0.000000000000000e+00 0.000000000000000e+00 0.000000000000000e+00
0.000000000000000e+00 0.000000000000000e+00 0.000000000000000e+00
0.000000000000000e+00 0.000000000000000e+00 0.000000000000000e+00

0.000000000000000e+00 0.000000000000000e+00 0.000000000000000e+00
0.000000000000000e+00 0.000000000000000e+00 0.000000000000000e+00
0.000000000000000e+00 0.000000000000000e+00 0.000000000000000e+00

0.000000000000000e+00 0.000000000000000e+00 0.000000000000000e+00
0.000000000000000e+00 0.000000000000000e+00 0.000000000000000e+00
0.000000000000000e+00 0.000000000000000e+00 0.000000000000000e+00

0.000000000000000e+00 0.000000000000000e+00 0.000000000000000e+00
0.000000000000000e+00 0.000000000000000e+00 0.000000000000000e+00
0.000000000000000e+00 0.000000000000000e+00 0.000000000000000e+00

0.000000000000000e+00 0.000000000000000e+00 0.000000000000000e+00
0.000000000000000e+00 0.000000000000000e+00 0.000000000000000e+00
0.000000000000000e+00 0.000000000000000e+00 0.000000000000000e+00

0.000000000000000e+00 0.000000000000000e+00 0.000000000000000e+00
0.000000000000000e+00 0.000000000000000e+00 0.000000000000000e+00
0.000000000000000e+00 0.000000000000000e+00 0.000000000000000e+00

0.000000000000000e+00 0.000000000000000e+00 0.000000000000000e+00
0.000000000000000e+00 0.000000000000000e+00 0.000000000000000e+00
0.000000000000000e+00 0.000000000000000e+00 0.000000000000000e+00

0.000000000000000e+00 0.000000000000000e+00 0.000000000000000e+00
0.000000000000000e+00 0.000000000000000e+00 0.000000000000000e+00
0.000000000000000e+00 0.000000000000000e+00 0.000000000000000e+00

0.000000000000000e+00 0.000000000000000e+00 0.000000000000000e+00
0.000000000000000e+00 0.000000000000000e+00 0.000000000000000e+00
0.000000000000000e+00 0.000000000000000e+00 0.000000000000000e+00

0.000000000000000e+00 0.000000000000000e+00 0.000000000000000e+00
0.000000000000000e+00 0.000000000000000e+00 0.000000000000000e+00
0.000000000000000e+00 0.000000000000000e+00 0.000000000000000e+00

0.000000000000000e+00 0.000000000000000e+00 0.000000000000000e+00
0.000000000000000e+00 0.000000000000000e+00 0.000000000000000e+00
0.000000000000000e+00 0.000000000000000e+00 0.000000000000000e+00

0.000000000000000e+00 0.000000000000000e+00 0.000000000000000e+00
0.000000000000000e+00 0.000000000000000e+00 0.000000000000000e+00
0.000000000000000e+00 0.000000000000000e+00 0.000000000000000e+00

0.000000000000000e+00 0.000000000000000e+00 0.000000000000000e+00
0.000000000000000e+00 0.000000000000000e+00 0.000000000000000e+00
0.000000000000000e+00 0.000000000000000e+00 0.000000000000000e+00

0.000000000000000e+00 0.000000000000000e+00 0.000000000000000e+00
0.000000000000000e+00 0.000000000000000e+00 0.000000000000000e+00
0.000000000000000e+00 0.000000000000000e+00 0.000000000000000e+00

0.000000000000000e+00 0.000000000000000e+00 0.000000000000000e+00
0.000000000000000e+00 0.000000000000000e+00 0.000000000000000e+00
0.000000000000000e+00 0.000000000000000e+00 0.000000000000000e+00

0.000000000000000e+00 0.000000000000000e+00 0.000000000000000e+00
0.000000000000000e+00 0.000000000000000e+00 0.000000000000000e+00
0.000000000000000e+00 0.000000000000000e+00 0.000000000000000e+00

0.000000000000000e+00 0.000000000000000e+00 0.000000000000000e+00
0.000000000000000e+00 0.000000000000000e+00 0.000000000000000e+00
0.000000000000000e+00 0.000000000000000e+00 0.000000000000000e+00

0.000000000000000e+00 0.000000000000000e+00 0.000000000000000e+00
0.000000000000000e+00 0.000000000000000e+00 0.000000000000000e+00
0.000000000000000e+00 0.000000000000000e+00 0.000000000000000e+00

0.000000000000000e+00 0.000000000000000e+00 0.000000000000000e+00
0.000000000000000e+00 0.000000000000000e+00 0.000000000000000e+00
0.000000000000000e+00 0.000000000000000e+00 0.000000000000000e+00

0.000000000000000e+00 0.000000000000000e+00 0.000000000000000e+00
0.000000000000000e+00 0.000000000000000e+00 0.000000000000000e+00
0.000000000000000e+00 0.000000000000000e+00 0.000000000000000e+00

0.000000000000000e+00 0.000000000000000e+00 0.000000000000000e+00
0.000000000000000e+00 0.000000000000000e+00 0.000000000000000e+00
0.000000000000000e+00 0.000000000000000e+00 0.000000000000000e+00

0.000000000000000e+00 0.000000000000000e+00 0.000000000000000e+00
0.000000000000000e+00 0.000000000000000e+00 0.000000000000000e+00
0.000000000000000e+00 0.000000000000000e+00 0.000000000000000e+00

0.000000000000000e+00 0.000000000000000e+00 0.000000000000000e+00
0.000000000000000e+00 0.000000000000000e+00 0.000000000000000e+00
0.000000000000000e+00 0.000000000000000e+00 0.000000000000000e+00

0.000000000000000e+00 0.000000000000000e+00 0.000000000000000e+00
0.000000000000000e+00 0.000000000000000e+00 0.000000000000000e+00
0.000000000000000e+00 0.000000000000000e+00 0.000000000000000e+00

0.000000000000000e+00 0.000000000000000e+00 0.000000000000000e+00
0.000000000000000e+00 0.000000000000000e+00 0.000000000000000e+00
0.000000000000000e+00 0.000000000000000e+00 0.000000000000000e+00

0.000000000000000e+00 0.000000000000000e+00 0.000000000000000e+00
0.000000000000000e+00 0.000000000000000e+00 0.000000000000000e+00
0.000000000000000e+00 0.000000000000000e+00 0.000000000000000e+00

0.000000000000000e+00 0.000000000000000e+00 0.000000000000000e+00
0.000000000000000e+00 0.000000000000000e+00 0.000000000000000e+00
0.000000000000000e+00 0.000000000000000e+00 0.000000000000000e+00

0.000000000000000e+00 0.000000000000000e+00 0.000000000000000e+00
0.000000000000000e+00 0.000000000000000e+00 0.000000000000000e+00
0.000000000000000e+00 0.000000000000000e+00 0.000000000000000e+00

0.000000000000000e+00 0.000000000000000e+00 0.000000000000000e+00
0.000000000000000e+00 0.000000000000000e+00 0.000000000000000e+00
0.000000000000000e+00 0.000000000000000e+00 0.000000000000000e+00

0.000000000000000e+00 0.000000000000000e+00 0.000000000000000e+00
0.000000000000000e+00 0.000000000000000e+00 0.000000000000000e+00
0.000000000000000e+00 0.000000000000000e+00 0.000000000000000e+00

0.000000000000000e+00 0.000000000000000e+00 0.000000000000000e+00
0.000000000000000e+00 0.000000000000000e+00 0.000000000000000e+00
0.000000000000000e+00 0.000000000000000e+00 0.000000000000000e+00

0.000000000000000e+00 0.000000000000000e+00 0.000000000000000e+00
0.000000000000000e+00 0.000000000000000e+00 0.000000000000000e+00
0.000000000000000e+00 0.000000000000000e+00 0.000000000000000e+00

0.000000000000000e+00 0.000000000000000e+00 0.000000000000000e+00
0.000000000000000e+00 0.000000000000000e+00 0.000000000000000e+00
0.000000000000000e+00 0.000000000000000e+00 0.000000000000000e+00

0.000000000000000e+00 0.000000000000000e+00 0.000000000000000e+00
0.000000000000000e+00 0.000000000000000e+00 0.000000000000000e+00
0.000000000000000e+00 0.000000000000000e+00 0.000000000000000e+00

0.000000000000000e+00 0.000000000000000e+00 0.000000000000000e+00
0.000000000000000e+00 0.000000000000000e+00 0.000000000000000e+00
0.000000000000000e+00 0.000000000000000e+00 0.000000000000000e+00

0.000000000000000e+00 0.000000000000000e+00 0.000000000000000e+00
0.000000000000000e+00 0.000000000000000e+00 0.000000000000000e+00
0.000000000000000e+00 0.000000000000000e+00 0.000000000000000e+00

0.000000000000000e+00 0.000000000000000e+00 0.000000000000000e+00
0.000000000000000e+00 0.000000000000000e+00 0.000000000000000e+00
0.000000000000000e+00 0.000000000000000e+00 0.000000000000000e+00

0.000000000000000e+00 0.000000000000000e+00 0.000000000000000e+00
0.000000000000000e+00 0.000000000000000e+00 0.000000000000000e+00
0.000000000000000e+00 0.000000000000000e+00 0.000000000000000e+00

0.000000000000000e+00 0.000000000000000e+00 0.000000000000000e+00
0.000000000000000e+00 0.000000000000000e+00 0.000000000000000e+00
0.000000000000000e+00 0.000000000000000e+00 0.000000000000000e+00

 1.120766235856237e-17 -7.613075414716248e-20 -1.016145410295679e+00
-7.613075414716248e-20  1.286474961892568e-17  4.163818901917886e-01
-1.016145410295679e+00  4.163818901917886e-01  8.540050442309567e-18

 1.146373017870301e-17 -6.820837091039345e-20 -1.026902365788688e+00
-6.820837091039345e-20  1.411762380573205e-17  4.130670697544495e-01
-1.026902365788688e+00  4.130670697544495e-01  9.276828533507807e-18

 1.148509853359851e-17 -7.858779261402415e-20 -1.026051091869914e+00
-7.858779261402415e-20  1.103816061253186e-17  3.935758782877489e-01
-1.026051091869914e+00  3.935758782877489e-01  9.436060463088747e-18

 1.216288571013620e-17 -3.161728915289081e-20 -1.055139589935886e+00
-3.161728915289081e-20  1.670882598490783e-17  3.701091702194277e-01
-1.055139589935886e+00  3.701091702194277e-01  1.145168093574870e-17

 1.162147769896960e-17  6.940330327708777e-20 -1.036527229161281e+00
 6.940330327708777e-20  1.252246848119618e-17  4.672077367644469e-01
-1.036527229161281e+00  4.672077367644469e-01  9.329560291068596e-18

 9.769714734215419e-18  5.302843564462052e-19 -9.689023027098236e-01
 5.302843564462052e-19  9.251097682464606e-18  5.288872224105050e-01
-9.689023027098236e-01  5.288872224105050e-01  4.120737897683059e-18

 1.001489789938016e-17 -3.846273145266729e-19 -9.454273574806372e-01
-3.846273145266729e-19  1.506101360642808e-17  3.980788996197790e-01
-9.454273574806372e-01  3.980788996197790e-01  5.872400571807809e-18

 8.744166120094380e-18 -3.553505238952763e-20 -8.952861367393935e-01
-3.553505238952763e-20  1.345696916133896e-17  3.616328692190317e-01
-8.952861367393935e-01  3.616328692190317e-01  2.843346463266114e-18

 1.017822415988863e-17 -1.618930252986929e-19 -9.583018639730930e-01
-1.618930252986929e-19  1.311892949371050e-17  4.442379105020050e-01
-9.583018639730930e-01  4.442379105020050e-01  6.140761849759538e-18

 1.042166813024535e-17 -2.849561503378881e-19 -9.711918768406070e-01
-2.849561503378881e-19  9.953097766579513e-18  4.891250562676125e-01
-9.711918768406070e-01  4.891250562676125e-01  6.273402711525593e-18

 1.198000071033152e-17 -9.367496228523775e-20 -1.041138896261543e+00
-9.367496228523775e-20  1.340524614931064e-17  4.167766364777748e-01
-1.041138896261543e+00  4.167766364777748e-01  1.083810707615682e-17

 1.121115112165664e-17 -3.869658568110283e-20 -1.008973093655535e+00
-3.869658568110283e-20  1.327769593763146e-17  4.021053163285997e-01
-1.008973093655535e+00  4.021053163285997e-01  8.813721546406665e-18

 1.101709353725458e-17 -2.262275733287926e-20 -1.002099780189272e+00
-2.262275733287926e-20  1.417044597468064e-17  4.075121596324664e-01
-1.002099780189272e+00  4.075121596324664e-01  8.248767660522774e-18

 1.112841434696522e-17 -2.534168366514752e-20 -1.009517697076354e+00
-2.534168366514752e-20  1.461772164555975e-17  4.116508160980613e-01
-1.009517697076354e+00  4.116508160980613e-01  8.478017773282693e-18

 1.114294062689634e-17 -3.528590514734687e-20 -1.011553282297752e+00
-3.528590514734687e-20  1.415816120374533e-17  4.112197186534678e-01
-1.011553282297752e+00  4.112197186534678e-01  8.485394377682337e-18

 1.113488904186077e-17 -5.045578424452167e-20 -1.012029374245011e+00
-5.045578424452167e-20  1.434408077691234e-17  4.160439813299462e-01
-1.012029374245011e+00  4.160439813299462e-01  8.467868709495449e-18

 1.111004325729478e-17 -5.518773579730102e-20 -1.011111925250487e+00
-5.518773579730102e-20  1.465961170338415e-17  4.162724090877840e-01
-1.011111925250487e+00  4.162724090877840e-01  8.408011332578409e-18

 1.104995897008706e-17 -4.823090942100442e-20 -1.008715883059020e+00
-4.823090942100442e-20  1.350840550253021e-17  4.164959648790744e-01
-1.008715883059020e+00  4.164959648790744e-01  8.263536142367644e-18

 1.100111421086646e-17 -4.327988604338154e-20 -1.007139670603624e+00
-4.327988604338154e-20  1.361222055455028e-17  4.143262398095588e-01
-1.007139670603624e+00  4.143262398095588e-01  8.153992221353440e-18

 1.123188716862238e-17 -4.115453209189947e-20 -1.017946116895942e+00
-4.115453209189947e-20  1.271025798228637e-17  4.101059503122105e-01
-1.017946116895942e+00  4.101059503122105e-01  8.778795693492229e-18

 1.151313776663462e-17 -3.723295000989159e-20 -1.030940130574734e+00
-3.723295000989159e-20  1.136988802804592e-17  4.233026749437642e-01
-1.030940130574734e+00  4.233026749437642e-01  9.419215437405421e-18

 1.127523717784465e-17 -2.427167457432590e-20 -1.020826387213361e+00
-2.427167457432590e-20  1.486348896403549e-17  4.235584023316179e-01
-1.020826387213361e+00  4.235584023316179e-01  8.818842711130406e-18

 1.095234409509857e-17 -5.237709939007187e-20 -1.004111522104954e+00
-5.237709939007187e-20  1.313533355785120e-17  4.116974625756323e-01
-1.004111522104954e+00  4.116974625756323e-01  8.144934916413755e-18

 1.053306689296051e-17 -4.647757174760838e-20 -9.849348349273210e-01
-4.647757174760838e-20  1.349650695448120e-17  4.166035858428841e-01
-9.849348349273210e-01  4.166035858428841e-01  7.052881743916200e-18

 1.067411490784347e-17 -3.896100842649122e-20 -9.922908077614246e-01
-3.896100842649122e-20  1.416325382712561e-17  4.150407136986019e-01
-9.922908077614246e-01  4.150407136986019e-01  7.444569769247547e-18

 1.136685829362130e-17 -5.059270621127728e-20 -1.023791473468954e+00
-5.059270621127728e-20  1.477323615863381e-17  4.179046862718030e-01
-1.023791473468954e+00  4.179046862718030e-01  9.202550183260421e-18

 1.122414273552878e-17 -1.281414233830603e-20 -1.020182863067937e+00
-1.281414233830603e-20  1.184656907718089e-17  4.300646275018619e-01
-1.020182863067937e+00  4.300646275018619e-01  8.748710450244325e-18

 1.129795534995355e-17 -6.715872174749484e-20 -1.019779742458430e+00
-6.715872174749484e-20  1.505898719362075e-17  3.823958480061834e-01
-1.019779742458430e+00  3.823958480061834e-01  9.378342320489685e-18

 1.116046403050767e-17 -5.737687292846188e-20 -1.014184352009592e+00
-5.737687292846188e-20  1.537853600929232e-17  3.915232841672475e-01
-1.014184352009592e+00  3.915232841672475e-01  8.913373883799095e-18

 1.075436676268781e-17 -5.241220359460695e-20 -9.993222821013356e-01
-5.241220359460695e-20  1.315895482723036e-17  4.364632576238624e-01
-9.993222821013356e-01  4.364632576238624e-01  7.524870829337514e-18

 1.105165824188439e-17 -3.656307471444509e-20 -1.011184267847601e+00
-3.656307471444509e-20  1.185920237516652e-17  4.223498111219310e-01
-1.011184267847601e+00  4.223498111219310e-01  8.344454098160714e-18

 1.114674653402485e-17 -3.652088012835533e-20 -1.015871478815911e+00
-3.652088012835533e-20  1.406212518171888e-17  4.057110245133089e-01
-1.015871478815911e+00  4.057110245133089e-01  8.825454454796487e-18

 1.106721089800107e-17 -3.221496144845795e-20 -1.012464313527669e+00
-3.221496144845795e-20  1.570986131534451e-17  4.177039326137558e-01
-1.012464313527669e+00  4.177039326137558e-01  8.453845205767492e-18

 1.101725369570480e-17 -3.944490843602556e-20 -1.011279960393229e+00
-3.944490843602556e-20  1.405223064785284e-17  4.217625041265122e-01
-1.011279960393229e+00  4.217625041265122e-01  8.394402329737803e-18

 1.074442934417025e-17 -4.431642283939078e-20 -9.993033157668997e-01
-4.431642283939078e-20  1.431121072039364e-17  4.189192455279089e-01
-9.993033157668997e-01  4.189192455279089e-01  7.668085158691775e-18

 1.091864534174736e-17 -4.478713179023159e-20 -1.006960684532285e+00
-4.478713179023159e-20  1.573306217827100e-17  4.073188914944236e-01
-1.006960684532285e+00  4.073188914944236e-01  8.246790798141366e-18

 1.088328099695979e-17 -3.549721819932531e-20 -1.006336757366914e+00
-3.549721819932531e-20  1.374717564162151e-17  4.256292991186537e-01
-1.006336757366914e+00  4.256292991186537e-01  8.044958444894005e-18

 1.104947968916432e-17 -2.980441015835622e-20 -1.013262113033611e+00
-2.980441015835622e-20  1.251406691059451e-17  4.252488263246005e-01
-1.013262113033611e+00  4.252488263246005e-01  8.487142875214199e-18

 1.135333060493201e-17 -5.431418939497527e-20 -1.024736471494132e+00
-5.431418939497527e-20  1.257615191083296e-17  4.027954140190544e-01
-1.024736471494132e+00  4.027954140190544e-01  9.511295554006197e-18

 1.069855053503683e-17 -3.880466495394318e-20 -9.983233762604165e-01
-3.880466495394318e-20  1.354802035427152e-17  4.147355594016557e-01
-9.983233762604165e-01  4.147355594016557e-01  7.696501160193801e-18

 1.070683959502444e-17 -4.741764094198616e-20 -9.993241615504093e-01
-4.741764094198616e-20  1.354379437545196e-17  4.201712195467950e-01
-9.993241615504093e-01  4.201712195467950e-01  7.704324972310531e-18

 1.082325985777995e-17 -4.784346232091236e-20 -1.004605427862373e+00
-4.784346232091236e-20  1.166441141557259e-17  4.242528090177834e-01
-1.004605427862373e+00  4.242528090177834e-01  7.938834527632381e-18

 1.097366196159066e-17 -3.894761856232642e-20 -1.011841058473487e+00
-3.894761856232642e-20  1.256228858439209e-17  4.175151140630012e-01
-1.011841058473487e+00  4.175151140630012e-01  8.460816635777030e-18

 1.101490754495675e-17 -3.278874029465893e-20 -1.014174444669284e+00
-3.278874029465893e-20  1.159362866930153e-17  4.107760377049700e-01
-1.014174444669284e+00  4.107760377049700e-01  8.620952539207277e-18

 1.103685502912519e-17 -3.539882608688966e-20 -1.015793685510319e+00
-3.539882608688966e-20  1.285938425100311e-17  4.150038704500453e-01
-1.015793685510319e+00  4.150038704500453e-01  8.672779371563048e-18

 1.105565088231836e-17 -5.065557670028613e-20 -1.016936539037742e+00
-5.065557670028613e-20  1.365821342330185e-17  4.176375130825838e-01
-1.016936539037742e+00  4.176375130825838e-01  8.741995025217441e-18

 1.092053339941426e-17 -3.488430941190321e-20 -1.010015720180548e+00
-3.488430941190321e-20  1.269453246664180e-17  4.137316567898642e-01
-1.010015720180548e+00  4.137316567898642e-01  8.355794236765365e-18

 1.060839025938005e-17 -3.035548246749318e-20 -9.984892242494776e-01
-3.035548246749318e-20  1.114594357756555e-17  4.216517883068992e-01
-9.984892242494776e-01  4.216517883068992e-01  7.541321087649328e-18

 1.074466763892537e-17 -4.987456229647760e-20 -1.004476637508125e+00
-4.987456229647760e-20  1.405191289653119e-17  4.218645856774934e-01
-1.004476637508125e+00  4.218645856774934e-01  7.957127351970194e-18

 1.078317281544487e-17 -5.612723222724352e-20 -1.006243773116943e+00
-5.612723222724352e-20  1.270657402584872e-17  4.216413302083252e-01
-1.006243773116943e+00  4.216413302083252e-01  8.065492256053536e-18

 1.091796559643984e-17 -5.189829030514187e-20 -1.012486465972855e+00
-5.189829030514187e-20  1.121870695615562e-17  4.133342612392117e-01
-1.012486465972855e+00  4.133342612392117e-01  8.523670168862744e-18

 1.102285081616053e-17 -5.503808165899338e-20 -1.017640584083399e+00
-5.503808165899338e-20  1.300983850918685e-17  4.100473294641013e-01
-1.017640584083399e+00  4.100473294641013e-01  8.869452647072373e-18

 1.083249473121632e-17 -4.242895281700923e-20 -1.009706623322806e+00
-4.242895281700923e-20  1.296613501573159e-17  4.199600918949015e-01
-1.009706623322806e+00  4.199600918949015e-01  8.230658499358972e-18

 1.078660270972517e-17 -4.705974809032561e-20 -1.008650615332897e+00
-4.705974809032561e-20  1.304880126459904e-17  4.210216821773062e-01
-1.008650615332897e+00  4.210216821773062e-01  8.191007538524653e-18

 1.091029694952189e-17 -4.846612919252544e-20 -1.012911647287917e+00
-4.846612919252544e-20  1.339407187688947e-17  4.134496823460488e-01
-1.012911647287917e+00  4.134496823460488e-01  8.547243525846921e-18

 1.072412935104757e-17 -5.150702467989581e-20 -1.006208374066547e+00
-5.150702467989581e-20  1.267647085473337e-17  4.178327138685065e-01
-1.006208374066547e+00  4.178327138685065e-01  8.107568661982531e-18

 1.085097460148182e-17 -4.403561192179719e-20 -1.011026253504508e+00
-4.403561192179719e-20  1.166699148571121e-17  4.149171517645892e-01
-1.011026253504508e+00  4.149171517645892e-01  8.445117758962652e-18

 1.073676354631748e-17 -3.721106325351062e-20 -1.007265789166600e+00
-3.721106325351062e-20  1.235170758446012e-17  4.209762215371706e-01
-1.007265789166600e+00  4.209762215371706e-01  8.197458943350063e-18

 1.045342192769131e-17 -4.565607260017336e-20 -9.953796568342841e-01
-4.565607260017336e-20  1.155339028953054e-17  4.291033933165674e-01
-9.953796568342841e-01  4.291033933165674e-01  7.388206419818040e-18

 1.042975498314718e-17 -4.598897939526776e-20 -9.948202765425839e-01
-4.598897939526776e-20  1.367548851747955e-17  4.215212462301244e-01
-9.948202765425839e-01  4.215212462301244e-01  7.421061198976141e-18

 1.083495923495653e-17 -3.680011902621890e-20 -1.011726710881923e+00
-3.680011902621890e-20  1.264426994384424e-17  3.985638398035775e-01
-1.011726710881923e+00  3.985638398035775e-01  8.736537238948654e-18

 1.043057717435634e-17 -5.266786469188121e-20 -9.956117844380038e-01
-5.266786469188121e-20  1.262682745144980e-17  4.270355830758812e-01
-9.956117844380038e-01  4.270355830758812e-01  7.406397510646219e-18

 1.034822844732044e-17 -6.218454888227872e-20 -9.935755788556812e-01
-6.218454888227872e-20  1.169066373935667e-17  4.409380092680053e-01
-9.935755788556812e-01  4.409380092680053e-01  7.078524373780624e-18

 1.076368561823509e-17 -6.139779380667195e-20 -1.011348683480847e+00
-6.139779380667195e-20  1.312272265618704e-17  4.185475359789639e-01
-1.011348683480847e+00  4.185475359789639e-01  8.416099392041321e-18

 1.065397595281596e-17 -3.911565543464683e-20 -1.007860348732963e+00
-3.911565543464683e-20  1.272478730576258e-17  4.170510570471052e-01
-1.007860348732963e+00  4.170510570471052e-01  8.159751317752499e-18

 1.067037073208209e-17 -6.958651613380568e-20 -1.009134807731277e+00
-6.958651613380568e-20  1.303848871063102e-17  4.193932669393163e-01
-1.009134807731277e+00  4.193932669393163e-01  8.181594565232982e-18

 1.069561284021282e-17 -6.709178925116867e-20 -1.011186102038646e+00
-6.709178925116867e-20  1.198791456377591e-17  4.207342203500111e-01
-1.011186102038646e+00  4.207342203500111e-01  8.302546299742282e-18

 1.063364923381585e-17 -5.465133712044425e-20 -1.009349380346858e+00
-5.465133712044425e-20  1.277531918037675e-17  4.239148944047936e-01
-1.009349380346858e+00  4.239148944047936e-01  8.117258128616407e-18

 1.060261075001097e-17 -6.727693723210513e-20 -1.008355968210586e+00
-6.727693723210513e-20  1.314553756560948e-17  4.179415515721944e-01
-1.008355968210586e+00  4.179415515721944e-01  8.154988546075432e-18

 1.062939426051006e-17 -6.705390097084669e-20 -1.009983465946748e+00
-6.705390097084669e-20  1.320076643578500e-17  4.150829988990365e-01
-1.009983465946748e+00  4.150829988990365e-01  8.269592331731443e-18

 1.068821696289305e-17 -5.873314457105835e-20 -1.013215644718332e+00
-5.873314457105835e-20  1.113857587833546e-17  4.171799351100213e-01
-1.013215644718332e+00  4.171799351100213e-01  8.446309690521306e-18

 1.058087132048884e-17 -6.223079403005804e-20 -1.010111222893299e+00
-6.223079403005804e-20  1.025980811749236e-17  4.273062604511618e-01
-1.010111222893299e+00  4.273062604511618e-01  8.104797509404700e-18

 1.067576765782412e-17 -6.403350648879256e-20 -1.014663356618367e+00
-6.403350648879256e-20  1.165944207786595e-17  4.186473931483309e-01
-1.014663356618367e+00  4.186473931483309e-01  8.477945011982609e-18

 1.071947684089729e-17 -6.084848313831536e-20 -1.016192766260443e+00
-6.084848313831536e-20  1.122079752211777e-17  4.139757224036926e-01
-1.016192766260443e+00  4.139757224036926e-01  8.660134295420471e-18

 1.051763907172353e-17 -8.434779806394511e-20 -1.008812389306511e+00
-8.434779806394511e-20  1.248526304735896e-17  4.226024116553914e-01
-1.008812389306511e+00  4.226024116553914e-01  8.051064542724825e-18

 1.047116930099881e-17 -7.537982936216006e-20 -1.007357661194751e+00
-7.537982936216006e-20  1.195805934749366e-17  4.242425864274752e-01
-1.007357661194751e+00  4.242425864274752e-01  7.998266937260688e-18

 1.057628830133552e-17 -7.230452375050471e-20 -1.012263286458366e+00
-7.230452375050471e-20  1.240295927512225e-17  4.102845747082849e-01
-1.012263286458366e+00  4.102845747082849e-01  8.441504683125959e-18

 1.058218342348833e-17 -8.982745591723359e-20 -1.013006541639911e+00
-8.982745591723359e-20  1.289475311893623e-17  4.166397490270118e-01
-1.013006541639911e+00  4.166397490270118e-01  8.405854566513631e-18

 1.035382697209210e-17 -7.723259618072960e-20 -1.004985513225040e+00
-7.723259618072960e-20  1.226732766194461e-17  4.358389454874358e-01
-1.004985513225040e+00  4.358389454874358e-01  7.710843325869981e-18

 1.060648449062701e-17 -9.729042604507113e-20 -1.015008643085254e+00
-9.729042604507113e-20  1.240451109134924e-17  4.180378269524770e-01
-1.015008643085254e+00  4.180378269524770e-01  8.518656812953434e-18

 1.054446037194010e-17 -9.639291985731147e-20 -1.013292198366521e+00
-9.639291985731147e-20  1.426499862246940e-17  4.128641216923478e-01
-1.013292198366521e+00  4.128641216923478e-01  8.480876173500006e-18

 1.048531063461090e-17 -8.170067892158947e-20 -1.010828487131157e+00
-8.170067892158947e-20  1.272028760443172e-17  4.218278848887986e-01
-1.010828487131157e+00  4.218278848887986e-01  8.228102170056566e-18

 1.050572526275564e-17 -9.451696501726654e-20 -1.012555416627624e+00
-9.451696501726654e-20  1.279469308699117e-17  4.247982045548669e-01
-1.012555416627624e+00  4.247982045548669e-01  8.378837283916680e-18

 1.036418982308682e-17 -8.495364966136145e-20 -1.006417067139650e+00
-8.495364966136145e-20  1.285329285001106e-17  4.254182925233025e-01
-1.006417067139650e+00  4.254182925233025e-01  8.025318519376774e-18

 1.038741058402945e-17 -7.198947329750509e-20 -1.007747887043967e+00
-7.198947329750509e-20  1.084792748905742e-17  4.169201306017820e-01
-1.007747887043967e+00  4.169201306017820e-01  8.200709325536591e-18

 1.059634819703419e-17 -5.959869747093039e-20 -1.016653717344978e+00
-5.959869747093039e-20  1.059210288230164e-17  4.030689001936058e-01
-1.016653717344978e+00  4.030689001936058e-01  8.934819820981762e-18

 1.026011559230331e-17 -7.238183068753757e-20 -1.003106185737519e+00
-7.238183068753757e-20  1.072705064588780e-17  4.227891541491716e-01
-1.003106185737519e+00  4.227891541491716e-01  7.867216026335914e-18

 1.008536234962194e-17 -7.271883100471254e-20 -9.973186620678687e-01
-7.271883100471254e-20  1.150049148753135e-17  4.355847534758209e-01
-9.973186620678687e-01  4.355847534758209e-01  7.314683798581698e-18

 1.039004302068954e-17 -5.396559031803221e-20 -1.011212300332511e+00
-5.396559031803221e-20  1.133385561937355e-17  4.165582975453980e-01
-1.011212300332511e+00  4.165582975453980e-01  8.355745009641032e-18

 1.042992027743457e-17 -1.014348860329401e-19 -1.014232984245190e+00
-1.014348860329401e-19  1.211542951891121e-17  4.208217603476887e-01
-1.014232984245190e+00  4.208217603476887e-01  8.453416491874765e-18

 1.028846552728951e-17 -8.683151649313111e-20 -1.009594748539510e+00
-8.683151649313111e-20  1.390783180267116e-17  4.277470521594613e-01
-1.009594748539510e+00  4.277470521594613e-01  8.137389240763643e-18

 1.023172685376581e-17 -6.240805483240831e-20 -1.007085432867994e+00
-6.240805483240831e-20  1.126038372815140e-17  4.166288329980599e-01
-1.007085432867994e+00  4.166288329980599e-01  8.139959600727901e-18

 1.003275294600419e-17 -8.904807836871563e-20 -9.997246688256656e-01
-8.904807836871563e-20  1.290308152036589e-17  4.155228059196600e-01
-9.997246688256656e-01  4.155228059196600e-01  7.742075274450491e-18

 1.012729852673149e-17 -9.361901270540066e-20 -1.004642131645558e+00
-9.361901270540066e-20  1.306768945782324e-17  4.204875490371299e-01
-1.004642131645558e+00  4.204875490371299e-01  7.981234478501978e-18

 1.027552119855000e-17 -9.840028286477502e-20 -1.011859962476424e+00
-9.840028286477502e-20  1.348329986289319e-17  4.194904344570236e-01
-1.011859962476424e+00  4.194904344570236e-01  8.391800840884478e-18

 1.026788604047872e-17 -7.340395627471307e-20 -1.014406410260723e+00
-7.340395627471307e-20  1.191632957374454e-17  4.184506292933085e-01
-1.014406410260723e+00  4.184506292933085e-01  8.544280357006733e-18

 1.010968531349287e-17 -6.808840845453253e-20 -1.008235860014124e+00
-6.808840845453253e-20  1.128175784862953e-17  4.160753122919847e-01
-1.008235860014124e+00  4.160753122919847e-01  8.240598719990036e-18

 1.008304125907786e-17 -7.998033111358433e-20 -1.008023293236039e+00
-7.998033111358433e-20  1.152124565866790e-17  4.148738869081811e-01
-1.008023293236039e+00  4.148738869081811e-01  8.270441037745235e-18

 1.008753704894938e-17 -4.721051655980600e-20 -1.008632050158184e+00
-4.721051655980600e-20  9.011739360701574e-18  4.196832951776833e-01
-1.008632050158184e+00  4.196832951776833e-01  8.249565901071253e-18

 1.009494647946243e-17 -7.185031017396972e-20 -1.010084568750298e+00
-7.185031017396972e-20  1.142546237800266e-17  4.194741077555427e-01
-1.010084568750298e+00  4.194741077555427e-01  8.378223902103811e-18

 1.000074842437781e-17 -5.423154730987640e-20 -1.008143139125050e+00
-5.423154730987640e-20  8.780547505689241e-18  4.181752035246014e-01
-1.008143139125050e+00  4.181752035246014e-01  8.270748403203598e-18

 9.988432487426841e-18 -9.426640732123713e-20 -1.003020067938670e+00
-9.426640732123713e-20  1.032443464152479e-17  4.156138971961294e-01
-1.003020067938670e+00  4.156138971961294e-01  8.032627852886401e-18

 9.866278629701305e-18 -9.173754911429351e-20 -9.986575341710989e-01
-9.173754911429351e-20  1.030696213041170e-17  4.128327608393139e-01
-9.986575341710989e-01  4.128327608393139e-01  7.776234765015658e-18

 1.368944931046688e-17 -1.034386450385811e-18 -1.020046741007590e+00
-1.034386450385811e-18  1.445182676757315e-17  3.934665824619819e-01
-1.020046741007590e+00  3.934665824619819e-01  9.334722668120938e-18

 4.605832031836353e-18  1.424570535802838e-18 -1.011271821974464e+00
 1.424570535802838e-18  8.643767994954548e-18  4.174491966700352e-01
-1.011271821974464e+00  4.174491966700352e-01  8.472074348331409e-18

-4.194761580951953e-17  1.411153187965649e-17 -1.013149270847341e+00
 1.411153187965649e-17  8.598323075249218e-18  4.282077603429373e-01
-1.013149270847341e+00  4.282077603429373e-01  8.487935121061025e-18

-8.619551893481653e-19  2.841330167182004e-18 -1.005588867176592e+00
 2.841330167182004e-18  1.288391645695055e-17  4.224991942381171e-01
-1.005588867176592e+00  4.224991942381171e-01  8.088957287743388e-18

 7.077950903483096e-18  7.023762757233766e-19 -1.008063178701378e+00
 7.023762757233766e-19  1.296128138833458e-17  4.067688831094517e-01
-1.008063178701378e+00  4.067688831094517e-01  8.453241249086805e-18

 9.754409517860392e-18 -9.707309131892281e-20 -9.992646766265749e-01
-9.707309131892281e-20  1.334275623775592e-17  4.123283383434018e-01
-9.992646766265749e-01  4.123283383434018e-01  7.844281380042764e-18

 9.573411660621547e-18  3.146413928341046e-20 -1.014310849544903e+00
 3.146413928341046e-20  1.238162017568415e-17  4.149206411868612e-01
-1.014310849544903e+00  4.149206411868612e-01  8.643127015254572e-18

 9.596037245050890e-18 -4.722256130778958e-20 -1.002726217590352e+00
-4.722256130778958e-20  1.119523691146014e-17  4.314134681960946e-01
-1.002726217590352e+00  4.314134681960946e-01  7.694505541584502e-18

 9.957360040486037e-18 -6.645017106349736e-20 -1.018446305938104e+00
-6.645017106349736e-20  1.189919799062497e-17  3.971676211005332e-01
-1.018446305938104e+00  3.971676211005332e-01  9.058339499342634e-18

 9.746951286249707e-18 -5.424961002021715e-20 -1.011518165021213e+00
-5.424961002021715e-20  1.048503297505173e-17  3.990503064045157e-01
-1.011518165021213e+00  3.990503064045157e-01  8.583793138339897e-18

 9.399063378421436e-18 -2.860613784913196e-20 -9.984914304718679e-01
-2.860613784913196e-20  8.087160547161095e-18  4.276811866403252e-01
-9.984914304718679e-01  4.276811866403252e-01  7.393262145895257e-18

 9.671290880168926e-18 -3.731493536045371e-20 -1.011832347711088e+00
-3.731493536045371e-20  9.161694093769489e-18  4.162863232115005e-01
-1.011832347711088e+00  4.162863232115005e-01  8.364705091211728e-18

 9.747201955645815e-18 -7.957939493898994e-20 -1.016163296807995e+00
-7.957939493898994e-20  1.197202827021150e-17  4.070172128522012e-01
-1.016163296807995e+00  4.070172128522012e-01  8.728297949862689e-18

 9.749378148721022e-18 -6.130793199312541e-20 -1.018137010895986e+00
-6.130793199312541e-20  1.263293185565932e-17  4.058234965323369e-01
-1.018137010895986e+00  4.058234965323369e-01  8.833351070157123e-18

 9.503547444062256e-18 -3.876674821185332e-20 -1.010175698583899e+00
-3.876674821185332e-20  1.030229514230725e-17  4.136959760911855e-01
-1.010175698583899e+00  4.136959760911855e-01  8.264112836133570e-18

 9.364124191831622e-18 -8.998469064205038e-20 -1.007081443277827e+00
-8.998469064205038e-20  1.221855828762563e-17  4.130577065505747e-01
-1.007081443277827e+00  4.130577065505747e-01  8.083740976098405e-18

 9.384703946589214e-18 -7.498405603036854e-20 -1.010360268706798e+00
-7.498405603036854e-20  8.986398242195364e-18  4.119488315120395e-01
-1.010360268706798e+00  4.119488315120395e-01  8.303171952304307e-18

 9.303895707522679e-18 -1.405299892330187e-19 -1.008266311638675e+00
-1.405299892330187e-19  1.437672175996771e-17  4.127699337109959e-01
-1.008266311638675e+00  4.127699337109959e-01  8.161931074565603e-18

 9.139752861211403e-18 -9.069905645560963e-20 -1.003123548564185e+00
-9.069905645560963e-20  9.084117047695054e-18  4.160362324229747e-01
-1.003123548564185e+00  4.160362324229747e-01  7.863868601879915e-18

 9.116841993985430e-18 -9.240363194548244e-20 -1.002728377146468e+00
-9.240363194548244e-20  9.390739212109482e-18  4.120631240761196e-01
-1.002728377146468e+00  4.120631240761196e-01  7.999884274004294e-18

 8.911864463654509e-18 -1.330546990641809e-19 -9.947943405147787e-01
-1.330546990641809e-19  9.703888321149850e-18  4.175367265847111e-01
-9.947943405147787e-01  4.175367265847111e-01  7.639880674903054e-18

 8.702368785044882e-18 -1.383330806711780e-19 -9.852371896212636e-01
-1.383330806711780e-19  9.432701170834343e-18  4.178063410100812e-01
-9.852371896212636e-01  4.178063410100812e-01  7.293561062771274e-18

 8.488674682873756e-18 -1.075133302335586e-19 -9.768805778626874e-01
-1.075133302335586e-19  7.043464912530865e-18  4.197612242702092e-01
-9.768805778626874e-01  4.197612242702092e-01  6.909737061107392e-18

 8.225842039404645e-18 -1.602709261994562e-19 -9.670047154662401e-01
-1.602709261994562e-19  1.074807734633684e-17  4.238041071355376e-01
-9.670047154662401e-01  4.238041071355376e-01  6.322113663753163e-18

 7.794566412318151e-18 -1.407552607300714e-19 -9.506876886538532e-01
-1.407552607300714e-19  9.044039568828284e-18  4.201156216189375e-01
-9.506876886538532e-01  4.201156216189375e-01  5.356290791077709e-18

 9.081219264824465e-18 -1.513771861480532e-19 -1.003648395667684e+00
-1.513771861480532e-19  1.249782207048515e-17  3.637539754174922e-01
-1.003648395667684e+00  3.637539754174922e-01  9.426409028401026e-18

 8.240346262862577e-18 -1.542712790337149e-19 -9.723306709984666e-01
-1.542712790337149e-19  1.051043071440364e-17  3.983361356458329e-01
-9.723306709984666e-01  3.983361356458329e-01  6.895017208702660e-18

 8.096093239286060e-18 -1.644822612514766e-19 -9.723173778453669e-01
-1.644822612514766e-19  9.107422568353143e-18  4.249859577862678e-01
-9.723173778453669e-01  4.249859577862678e-01  6.410947141040176e-18

 8.291212843622860e-18 -1.805122694930417e-19 -9.877622314402064e-01
-1.805122694930417e-19  7.732468786241959e-18  4.251373570830070e-01
-9.877622314402064e-01  4.251373570830070e-01  7.036388005632962e-18

 8.480984097389754e-18 -1.822604342906790e-19 -1.000213237166310e+00
-1.822604342906790e-19  8.755760552100051e-18  4.170907278386004e-01
-1.000213237166310e+00  4.170907278386004e-01  7.659295337996748e-18

 8.525622696818672e-18 -1.836358075720262e-19 -1.007171666156511e+00
-1.836358075720262e-19  9.198346546329019e-18  4.127365900103981e-01
-1.007171666156511e+00  4.127365900103981e-01  7.946745769736152e-18

 8.588654685662047e-18 -2.176928226786568e-19 -1.014902887655483e+00
-2.176928226786568e-19  1.046126017449717e-17  4.126569680618452e-01
-1.014902887655483e+00  4.126569680618452e-01  8.210546735700207e-18

 8.669138060243845e-18 -1.936407807090135e-19 -1.023901857034438e+00
-1.936407807090135e-19  6.013062322317017e-18  4.192172745256193e-01
-1.023901857034438e+00  4.192172745256193e-01  8.564805468817517e-18

 7.997883438844786e-18 -2.106877836506165e-19 -9.996724103174716e-01
-2.106877836506165e-19  6.317821969861327e-18  4.504117055114987e-01
-9.996724103174716e-01  4.504117055114987e-01  6.588566154247407e-18

 8.691135187025784e-18 -2.728754669875140e-19 -1.030828750247211e+00
-2.728754669875140e-19  1.164450780775501e-17  4.126601323552822e-01
-1.030828750247211e+00  4.126601323552822e-01  8.975450766466832e-18

 8.367941862210160e-18 -2.196737123148757e-19 -1.020584460917418e+00
-2.196737123148757e-19  6.781645749304455e-18  4.133711739435781e-01
-1.020584460917418e+00  4.133711739435781e-01  8.313392002636114e-18

 8.198492672749093e-18 -2.355143467977283e-19 -1.015033738131943e+00
-2.355143467977283e-19  5.273454721432005e-18  4.162069394111677e-01
-1.015033738131943e+00  4.162069394111677e-01  7.993025783286007e-18

 8.102301359587867e-18 -2.635486085029047e-19 -1.014203230381535e+00
-2.635486085029047e-19  8.701333404261845e-18  4.161815666676058e-01
-1.014203230381535e+00  4.161815666676058e-01  7.971674054814717e-18

 7.955614976457428e-18 -2.986960859334248e-19 -1.011587218822185e+00
-2.986960859334248e-19  9.856245967285457e-18  4.192399871023114e-01
-1.011587218822185e+00  4.192399871023114e-01  7.805807168355196e-18

 7.751068373134238e-18 -2.952530661804498e-19 -1.006569046995069e+00
-2.952530661804498e-19  8.737547419742830e-18  4.211256659591260e-01
-1.006569046995069e+00  4.211256659591260e-01  7.537849024795098e-18

 7.715055142521445e-18 -3.083785242648780e-19 -1.007033995498053e+00
-3.083785242648780e-19  9.433016385607521e-18  4.157411710203838e-01
-1.007033995498053e+00  4.157411710203838e-01  7.675649082943916e-18

 7.593659966698366e-18 -3.429988056659315e-19 -1.005297699050376e+00
-3.429988056659315e-19  1.173732943380009e-17  4.143670996067885e-01
-1.005297699050376e+00  4.143670996067885e-01  7.580205768231219e-18

 7.437582321725698e-18 -3.496988035112577e-19 -1.002673610342985e+00
-3.496988035112577e-19  8.747344633364093e-18  4.198744108160238e-01
-1.002673610342985e+00  4.198744108160238e-01  7.365343594948474e-18

 7.364921193249224e-18 -3.374880103001702e-19 -1.004550390437857e+00
-3.374880103001702e-19  7.730825596543993e-18  4.200380073911905e-01
-1.004550390437857e+00  4.200380073911905e-01  7.448043943485845e-18

 7.186548336934986e-18 -3.895273850685877e-19 -1.005034724556716e+00
-3.895273850685877e-19  8.994631381105053e-18  4.169309512605445e-01
-1.005034724556716e+00  4.169309512605445e-01  7.437897186868384e-18

 6.981905289600750e-18 -3.818399229964191e-19 -1.005960772417893e+00
-3.818399229964191e-19  5.984438399683752e-18  4.170630841404037e-01
-1.005960772417893e+00  4.170630841404037e-01  7.406307604351031e-18

 6.825640356964987e-18 -4.161003302287308e-19 -1.007811049445512e+00
-4.161003302287308e-19  5.652129669256395e-18  4.176466377083864e-01
-1.007811049445512e+00  4.176466377083864e-01  7.411407111404888e-18

 6.575962653075004e-18 -4.950179125086528e-19 -1.008548351177200e+00
-4.950179125086528e-19  7.459041923687696e-18  4.182434830498079e-01
-1.008548351177200e+00  4.182434830498079e-01  7.341837007226686e-18

 6.313648760826667e-18 -5.159737785802174e-19 -1.007137986065691e+00
-5.159737785802174e-19  5.729510853950389e-18  4.180175141229834e-01
-1.007137986065691e+00  4.180175141229834e-01  7.164478088598047e-18

 6.145095943633953e-18 -5.711731951880473e-19 -1.008061346035655e+00
-5.711731951880473e-19  7.131597540165641e-18  4.150194174172983e-01
-1.008061346035655e+00  4.150194174172983e-01  7.177399798975360e-18

 5.953635238940591e-18 -5.855132774604263e-19 -1.011544644881463e+00
-5.855132774604263e-19  4.440887623865412e-18  4.166660503251367e-01
-1.011544644881463e+00  4.166660503251367e-01  7.288559787446071e-18

 5.696951013151133e-18 -7.106482365277286e-19 -1.018797577505486e+00
-7.106482365277286e-19  6.405383760315003e-18  4.172263337128174e-01
-1.018797577505486e+00  4.172263337128174e-01  7.644826942786923e-18

 5.002275259769744e-18 -7.660223050014856e-19 -1.005070066304150e+00
-7.660223050014856e-19  2.110090929178646e-18  4.171789183543006e-01
-1.005070066304150e+00  4.171789183543006e-01  6.749484586543248e-18

 4.642956848120401e-18 -8.633655486056445e-19 -1.000131988229218e+00
-8.633655486056445e-19  4.514688175500326e-18  4.078749752464533e-01
-1.000131988229218e+00  4.078749752464533e-01  6.518714918100348e-18

 4.154681346848588e-18 -9.249242373603066e-19 -9.968109886638298e-01
-9.249242373603066e-19  3.196989707461622e-18  4.183832943663748e-01
-9.968109886638298e-01  4.183832943663748e-01  6.086880124951616e-18

 3.933947946613170e-18 -1.010161478568784e-18 -1.006435781012255e+00
-1.010161478568784e-18  7.981723099087177e-19  4.171345138630408e-01
-1.006435781012255e+00  4.171345138630408e-01  6.467107922711183e-18

 3.664221509149141e-18 -1.096051150046637e-18 -1.014021278081899e+00
-1.096051150046637e-18 -1.659052677915360e-18  4.173839535035215e-01
-1.014021278081899e+00  4.173839535035215e-01  6.701656734769025e-18

 3.000040543526227e-18 -1.295627661132059e-18 -1.015317051123198e+00
-1.295627661132059e-18  1.338616099244574e-19  4.155467465745881e-01
-1.015317051123198e+00  4.155467465745881e-01  6.535768205932111e-18

 2.266524707026093e-18 -1.505429050560145e-18 -1.011575555618387e+00
-1.505429050560145e-18  2.763760552508221e-18  4.146020681065885e-01
-1.011575555618387e+00  4.146020681065885e-01  6.094245632345061e-18

 1.514231355735004e-18 -1.678222158759701e-18 -1.009764762203069e+00
-1.678222158759701e-18 -1.661938898876024e-18  4.160938336009382e-01
-1.009764762203069e+00  4.160938336009382e-01  5.767679047961614e-18

 9.239272638624675e-19 -1.786871293966218e-18 -1.009582804914254e+00
-1.786871293966218e-18 -8.384761229955640e-18  4.165036230291877e-01
-1.009582804914254e+00  4.165036230291877e-01  5.578647799638044e-18

 2.856678704423570e-19 -1.946366256577732e-18 -1.010335116886130e+00
-1.946366256577732e-18 -1.163276984083918e-17  4.158634353748522e-01
-1.010335116886130e+00  4.158634353748522e-01  5.423629977990352e-18

-9.700536329793768e-19 -2.435484919043886e-18 -1.008361607390931e+00
-2.435484919043886e-18 -5.603443707775150e-18  4.155080663282342e-01
-1.008361607390931e+00  4.155080663282342e-01  4.945175186488044e-18

-2.503217956129857e-18 -2.921852359789449e-18 -1.006226055324881e+00
-2.921852359789449e-18 -8.224975248573919e-18  4.149043783762725e-01
-1.006226055324881e+00  4.149043783762725e-01  4.392551926160818e-18

-4.564897483484981e-18 -3.593044356986561e-18 -1.005145912453720e+00
-3.593044356986561e-18 -1.554132563975273e-17  4.143467641762318e-01
-1.005145912453720e+00  4.143467641762318e-01  3.748899986153602e-18

-6.918755318310909e-18 -4.415984807678543e-18 -1.000207078536937e+00
-4.415984807678543e-18 -2.401664640314366e-17  4.156110730217601e-01
-1.000207078536937e+00  4.156110730217601e-01  2.822899676115400e-18

-9.060251656305851e-18 -5.222374339041165e-18 -9.919798431110997e-01
-5.222374339041165e-18 -2.763060648642091e-17  4.191822272374731e-01
-9.919798431110997e-01  4.191822272374731e-01  1.744277108565588e-18

-1.230927260328431e-17 -6.513158387938811e-18 -9.729981294947941e-01
-6.513158387938811e-18 -2.753055973604593e-17  4.178349544312974e-01
-9.729981294947941e-01  4.178349544312974e-01 -2.350594643534266e-19

-1.335866016138380e-17 -7.297377979418960e-18 -1.004176159455306e+00
-7.297377979418960e-18 -3.008249857999731e-17  3.799065921411263e-01
-1.004176159455306e+00  3.799065921411263e-01  1.566542346604113e-18

-1.629447639300315e-17 -8.284515497884810e-18 -9.882274576995745e-01
-8.284515497884810e-18 -3.342791596743549e-17  4.198905577760346e-01
-9.882274576995745e-01  4.198905577760346e-01 -8.808260572831597e-19

-2.136387991127452e-17 -1.067135810377359e-17 -1.005864589381920e+00
-1.067135810377359e-17 -3.785316444070517e-17  4.156351088203150e-01
-1.005864589381920e+00  4.156351088203150e-01 -1.794689996453946e-18

-2.511556772884313e-17 -1.231246325493260e-17 -1.006915933318828e+00
-1.231246325493260e-17 -4.947758672213250e-17  4.102639204355444e-01
-1.006915933318828e+00  4.102639204355444e-01 -2.985839612463711e-18

-3.083193756153137e-17 -1.497651557344389e-17 -1.007094710762082e+00
-1.497651557344389e-17 -5.839717316162671e-17  4.196936057486679e-01
-1.007094710762082e+00  4.196936057486679e-01 -5.015713573207161e-18

-3.910819666982139e-17 -1.898350312450634e-17 -1.008344966999489e+00
-1.898350312450634e-17 -7.101362324819715e-17  4.184938796147903e-01
-1.008344966999489e+00  4.184938796147903e-01 -7.703282855699203e-18

-4.697475399046560e-17 -2.295653238474390e-17 -1.010630853257151e+00
-2.295653238474390e-17 -8.353816500660796e-17  4.205338642120886e-01
-1.010630853257151e+00  4.205338642120886e-01 -1.020297036113127e-17

-6.173346844160124e-17 -3.028552693647063e-17 -1.013368636875845e+00
-3.028552693647063e-17 -1.022743565677147e-16  4.212532123913532e-01
-1.013368636875845e+00  4.212532123913532e-01 -1.464947530108062e-17

-7.404386785558550e-17 -3.824117787585440e-17 -1.014771135835115e+00
-3.824117787585440e-17 -1.192028786510870e-16  4.218697343635530e-01
-1.014771135835115e+00  4.218697343635530e-01 -1.900586618856251e-17

-1.210465074523669e-16 -3.631249242630264e-17 -1.015371500171010e+00
-3.631249242630264e-17 -1.485907968992895e-16  4.228748985406416e-01
-1.015371500171010e+00  4.228748985406416e-01 -2.250946522732361e-17

-1.433901209664246e-16 -4.868321840528213e-17 -1.015986345194598e+00
-4.868321840528213e-17 -1.795279980927877e-16  4.231235705151918e-01
-1.015986345194598e+00  4.231235705151918e-01 -2.934074688012921e-17

-1.275413756430682e-16 -7.094082120814149e-17 -1.016544519623386e+00
-7.094082120814149e-17 -2.165271148233467e-16  4.235440588237145e-01
-1.016544519623386e+00  4.235440588237145e-01 -3.658833128139279e-17

-1.774759716911317e-16 -9.434214924857799e-17 -1.015699755954716e+00
-9.434214924857799e-17 -2.679763509210631e-16  4.237645193479664e-01
-1.015699755954716e+00  4.237645193479664e-01 -4.965599818084285e-17

-2.772635544606455e-16 -1.502916020534099e-16 -1.012635722556073e+00
-1.502916020534099e-16 -3.541180348740038e-16  4.241004517659066e-01
-1.012635722556073e+00  4.241004517659066e-01 -7.892387017026774e-17

-4.167449534711080e-16 -2.234017721519278e-16 -1.012484846965526e+00
-2.234017721519278e-16 -5.018232581897833e-16  4.227878788177766e-01
-1.012484846965526e+00  4.227878788177766e-01 -1.186747584600883e-16

-5.977747256003964e-16 -3.104925181031574e-16 -1.016904140474332e+00
-3.104925181031574e-16 -6.436489263490916e-16  4.226734743925880e-01
-1.016904140474332e+00  4.226734743925880e-01 -1.697450663388547e-16

-8.897576884181845e-16 -4.334532100393718e-16 -1.020556179617229e+00
-4.334532100393718e-16 -8.280752131266037e-16  4.246625578076044e-01
-1.020556179617229e+00  4.246625578076044e-01 -2.528302007995858e-16

-1.330311465430908e-15 -5.846638595499193e-16 -1.017868079982335e+00
-5.846638595499193e-16 -1.009478703768748e-15  4.232971773809540e-01
-1.017868079982335e+00  4.232971773809540e-01 -3.820438823148001e-16

-2.024873388111225e-15 -7.516567649457328e-16 -1.016565723298328e+00
-7.516567649457328e-16 -1.239338855991757e-15  4.172339295732233e-01
-1.016565723298328e+00  4.172339295732233e-01 -5.983185673281399e-16

-2.641198355938136e-15 -8.384116633397453e-16 -1.017873615586185e+00
-8.384116633397453e-16 -1.409133277006112e-15  4.202125284774136e-01
-1.017873615586185e+00  4.202125284774136e-01 -8.051476158893112e-16

-3.351297130950715e-15 -8.820008616547675e-16 -1.014501511252763e+00
-8.820008616547675e-16 -1.568362701790895e-15  4.285613214385026e-01
-1.014501511252763e+00  4.285613214385026e-01 -1.061786712334346e-15

-4.705902325849581e-15 -8.047226051447517e-16 -1.017667852606537e+00
-8.047226051447517e-16 -1.848388723196774e-15  4.237363111570618e-01
-1.017667852606537e+00  4.237363111570618e-01 -1.620948397696243e-15

-6.937082048955745e-15 -5.201546116340781e-16 -1.018721045198004e+00
-5.201546116340781e-16 -2.286480355190022e-15  4.174993315084124e-01
-1.018721045198004e+00  4.174993315084124e-01 -2.651392384901535e-15

-9.546230597678570e-15  4.210916807865099e-17 -1.014016254557888e+00
 4.210916807865099e-17 -2.850959221241771e-15  4.232320894444475e-01
-1.014016254557888e+00  4.232320894444475e-01 -4.016234302680736e-15

-1.407137808410751e-14  1.255189247575361e-15 -1.015534770690485e+00
 1.255189247575361e-15 -3.441431360063580e-15  4.238909590480864e-01
-1.015534770690485e+00  4.238909590480864e-01 -6.543823082155776e-15

 1.360838586346224e-14  2.360020049583984e-14 -1.012255766649856e+00
 2.360020049583984e-14  2.819951446792065e-14  4.211299939826986e-01
-1.012255766649856e+00  4.211299939826986e-01 -2.583734379478777e-15

-6.431710366167572e-13 -1.560524440790650e-13 -1.016243282442557e+00
-1.560524440790650e-13 -2.856563333330192e-13  4.141386945650938e-01
-1.016243282442557e+00  4.141386945650938e-01 -2.130347868254479e-13

 1.766990026215835e-14  3.417642137595823e-15 -1.016417938005402e+00
 3.417642137595823e-15  2.237092369774517e-14  4.181097832845274e-01
-1.016417938005402e+00  4.181097832845274e-01 -4.299307764957427e-15

-8.071821074330872e-15 -1.142815969537860e-14 -1.013766117088292e+00
-1.142815969537860e-14 -9.689270807188157e-16  4.157085975637625e-01
-1.013766117088292e+00  4.157085975637625e-01 -8.183782735018356e-15

-6.464362976794499e-13 -1.504225545568486e-13 -1.014357710453736e+00
-1.504225545568486e-13 -3.255665823210073e-13  4.175856192506693e-01
-1.014357710453736e+00  4.175856192506693e-01 -1.586351515463010e-13

-4.293101864728533e-15 -8.527401554168188e-15 -1.012200865632009e+00
-8.527401554168188e-15  3.229467164000267e-16  4.169279075785052e-01
-1.012200865632009e+00  4.169279075785052e-01 -4.355726577037808e-15

-3.296292765289779e-15 -6.618116417481672e-15 -1.011105561499289e+00
-6.618116417481672e-15  1.020939209783328e-15  4.164788975897344e-01
-1.011105561499289e+00  4.164788975897344e-01 -3.143069861991078e-15

-2.689808406359671e-15 -4.298255069568328e-15 -1.011477238639227e+00
-4.298255069568328e-15  1.267695033160978e-15  4.164931606271355e-01
-1.011477238639227e+00  4.164931606271355e-01 -1.996361789649335e-15

-1.949769068774847e-15 -2.083966151205786e-15 -1.011188588628427e+00
-2.083966151205786e-15  1.038039283938886e-15  4.170057551679031e-01
-1.011188588628427e+00  4.170057551679031e-01 -1.082267794299086e-15

-1.386323994753700e-15 -1.008208150660469e-15 -1.009956371463120e+00
-1.008208150660469e-15  6.580150216727912e-16  4.171612413563736e-01
-1.009956371463120e+00  4.171612413563736e-01 -6.384819940287711e-16

-9.668014991958488e-16 -4.876517122882886e-16 -1.006682104959996e+00
-4.876517122882886e-16  3.698598634432160e-16  4.165042878466979e-01
-1.006682104959996e+00  4.165042878466979e-01 -3.956979068770598e-16

-6.730593199769648e-16 -2.373362038999500e-16 -1.003058187236357e+00
-2.373362038999500e-16  1.895198502274310e-16  4.150741638435723e-01
-1.003058187236357e+00  4.150741638435723e-01 -2.551402587754187e-16

-4.770907242514298e-16 -1.180481408404554e-16 -1.001069304270724e+00
-1.180481408404554e-16  8.786906508013101e-17  4.139012156068413e-01
-1.001069304270724e+00  4.139012156068413e-01 -1.717046614771496e-16

-3.803104407646256e-16 -7.354202720257915e-17 -1.003196886605876e+00
-7.354202720257915e-17  4.627265301021758e-17  4.111964424246428e-01
-1.003196886605876e+00  4.111964424246428e-01 -1.330464993345180e-16

-2.812206503803761e-16 -3.718432970103073e-17 -1.006003332147494e+00
-3.718432970103073e-17  1.073511423576083e-17  4.126266807389972e-01
-1.006003332147494e+00  4.126266807389972e-01 -9.492206068371449e-17

-2.033901382196943e-16 -1.678608312044567e-17 -1.007207202586549e+00
-1.678608312044567e-17 -9.122182022838901e-18  4.102785185160894e-01
-1.007207202586549e+00  4.102785185160894e-01 -6.617708207850677e-17

-1.678731350180065e-16 -9.576197284075389e-18 -1.006574346012040e+00
-9.576197284075389e-18 -1.569117589810540e-17  4.123994851297927e-01
-1.006574346012040e+00  4.123994851297927e-01 -5.341767956533378e-17

-1.380118543148381e-16 -4.843600900019157e-18 -1.005931326468424e+00
-4.843600900019157e-18 -1.920584952530840e-17  4.136458634840224e-01
-1.005931326468424e+00  4.136458634840224e-01 -4.281354151805310e-17

-1.096388212945456e-16 -1.393263307438690e-18 -1.007592638822898e+00
-1.393263307438690e-18 -2.094130153471206e-17  4.130156576304901e-01
-1.007592638822898e+00  4.130156576304901e-01 -3.272863071725567e-17

-9.091432227740283e-17  3.331426653303574e-19 -1.008931156385174e+00
 3.331426653303574e-19 -2.099541187093258e-17  4.151930689703676e-01
-1.008931156385174e+00  4.151930689703676e-01 -2.613219623607146e-17

-7.565896538183832e-17  1.256356732311361e-18 -1.008193233126421e+00
 1.256356732311361e-18 -1.999847781013619e-17  4.139499648311024e-01
-1.008193233126421e+00  4.139499648311024e-01 -2.081979377874961e-17

-6.399617024112564e-17  1.811244138113701e-18 -1.008696411381224e+00
 1.811244138113701e-18 -1.903276678243603e-17  4.125562482626557e-01
-1.008696411381224e+00  4.125562482626557e-01 -1.672877402372545e-17

-5.685013711151338e-17  1.996238091338550e-18 -1.008156829509912e+00
 1.996238091338550e-18 -1.771357443270806e-17  4.106545168092949e-01
-1.008156829509912e+00  4.106545168092949e-01 -1.421043488193591e-17

-4.655860448062959e-17  2.153448845006780e-18 -1.006079028156850e+00
 2.153448845006780e-18 -1.620760949478140e-17  4.143288224451032e-01
-1.006079028156850e+00  4.143288224451032e-01 -1.073795405859316e-17

-3.731625315084708e-17  2.133262906009371e-18 -1.002939954374074e+00
 2.133262906009371e-18 -1.388779169202614e-17  4.131646552948341e-01
-1.002939954374074e+00  4.131646552948341e-01 -7.645823501589111e-18

-3.001098469343887e-17  2.011500290932103e-18 -9.993312000448011e-01
 2.011500290932103e-18 -1.171524108740868e-17  4.135866255696186e-01
-9.993312000448011e-01  4.135866255696186e-01 -5.263926172173779e-18

-2.501031685960987e-17  1.870278871138615e-18 -9.985791845571740e-01
 1.870278871138615e-18 -9.907162533277356e-18  4.126534063847794e-01
-9.985791845571740e-01  4.126534063847794e-01 -3.540243368751608e-18

-2.178970143226383e-17  1.753653764068828e-18 -9.964529604680894e-01
 1.753653764068828e-18 -8.825951895361139e-18  4.175629203604990e-01
-9.964529604680894e-01  4.175629203604990e-01 -2.573739122736191e-18

-1.873802830271347e-17  1.620730775811401e-18 -9.881836787163539e-01
 1.620730775811401e-18 -7.932962632595815e-18  4.199063090570852e-01
-9.881836787163539e-01  4.199063090570852e-01 -1.959036296024638e-18

-1.644529239966113e-17  1.544872898482931e-18 -1.003675588370792e+00
 1.544872898482931e-18 -6.029274636004450e-18  3.956901835159223e-01
-1.003675588370792e+00  3.956901835159223e-01 -5.434177024682173e-21

-1.524173281326222e-17  1.460308032169737e-18 -9.902193557970276e-01
 1.460308032169737e-18 -5.866677230918440e-18  4.083790116120561e-01
-9.902193557970276e-01  4.083790116120561e-01 -5.387177348545014e-19

-1.324808906440300e-17  1.337500173780268e-18 -9.909721632666829e-01
 1.337500173780268e-18 -5.497199304262260e-18  4.182332139284223e-01
-9.909721632666829e-01  4.182332139284223e-01  4.485180300759130e-20

-1.117070921861210e-17  1.218755016743799e-18 -1.001878596232494e+00
 1.218755016743799e-18 -4.228581750793908e-18  4.157958830961292e-01
-1.001878596232494e+00  4.157958830961292e-01  1.293294824441002e-18

-8.129994510222487e-18  1.030556590853255e-18 -1.006879335871911e+00
 1.030556590853255e-18 -2.516832012354832e-18  4.140474339770366e-01
-1.006879335871911e+00  4.140474339770366e-01  2.499687392602780e-18

-5.511822035141795e-18  8.562420761119998e-19 -1.005742145431050e+00
 8.562420761119998e-19 -1.012341931239188e-18  4.145674981676170e-01
-1.005742145431050e+00  4.145674981676170e-01  3.246447242773769e-18

-3.688887677735981e-18  7.305798746824913e-19 -1.008280161586154e+00
 7.305798746824913e-19  1.637868451856946e-19  4.153577890253201e-01
-1.008280161586154e+00  4.153577890253201e-01  3.930649576516890e-18

-2.498835971865018e-18  6.469629384096583e-19 -1.010001102919548e+00
 6.469629384096583e-19  8.881371989024062e-19  4.171004969541150e-01
-1.010001102919548e+00  4.171004969541150e-01  4.361761948806363e-18

-1.583810486587957e-18  5.801772644798531e-19 -1.010138734592805e+00
 5.801772644798531e-19  1.618522246731273e-18  4.168806860376201e-01
-1.010138734592805e+00  4.168806860376201e-01  4.656536131998122e-18

-7.370067982887088e-19  5.144248568379743e-19 -1.009675828227439e+00
 5.144248568379743e-19  2.178945047794173e-18  4.163600863860515e-01
-1.009675828227439e+00  4.163600863860515e-01  4.906485569033304e-18

 1.235349366953055e-19  4.530751642835208e-19 -1.009583349115488e+00
 4.530751642835208e-19  2.636684523325060e-18  4.170321377316634e-01
-1.009583349115488e+00  4.170321377316634e-01  5.170388338286859e-18

 9.186325806822234e-19  3.937922643456923e-19 -1.011195802029552e+00
 3.937922643456923e-19  3.179734074299379e-18  4.171814423078927e-01
-1.011195802029552e+00  4.171814423078927e-01  5.513668633551197e-18

 1.720299384193327e-18  3.351189707565857e-19 -1.012944997161267e+00
 3.351189707565857e-19  3.746612486399436e-18  4.165752533279143e-01
-1.012944997161267e+00  4.165752533279143e-01  5.876934252192848e-18

 2.501517883158565e-18  2.834606397494638e-19 -1.015324266719524e+00
 2.834606397494638e-19  4.561372694498576e-18  4.159905055187977e-01
-1.015324266719524e+00  4.159905055187977e-01  6.252398904214895e-18

 2.955361756105466e-18  2.451160498839601e-19 -1.011582991586352e+00
 2.451160498839601e-19  4.641072751729826e-18  4.226779094734012e-01
-1.011582991586352e+00  4.226779094734012e-01  6.171526405816342e-18

 3.286146824236612e-18  2.241790962889886e-19 -1.010299128386684e+00
 2.241790962889886e-19  5.167867291228390e-18  4.175063263528618e-01
-1.010299128386684e+00  4.175063263528618e-01  6.295603049926555e-18

 3.574540436438590e-18  2.014464494309379e-19 -1.009712814663466e+00
 2.014464494309379e-19  5.573566445563303e-18  4.115765281376013e-01
-1.009712814663466e+00  4.115765281376013e-01  6.447786914426937e-18

 4.011293975913593e-18  1.686378895688751e-19 -1.005487455972773e+00
 1.686378895688751e-19  5.882694847242530e-18  4.156503380685456e-01
-1.005487455972773e+00  4.156503380685456e-01  6.362922504144104e-18

 4.477953520877524e-18  1.396705200141484e-19 -1.008848837596387e+00
 1.396705200141484e-19  6.154905522164700e-18  4.186273270073902e-01
-1.008848837596387e+00  4.186273270073902e-01  6.648051597680663e-18

 4.735438343376490e-18  1.277704188551441e-19 -1.009198503018268e+00
 1.277704188551441e-19  6.266490265229320e-18  4.208897912799182e-01
-1.009198503018268e+00  4.208897912799182e-01  6.773334301748342e-18

 4.792342167253989e-18  1.161529859384494e-19 -9.982178798557703e-01
 1.161529859384494e-19  6.187298792841918e-18  4.253771643226940e-01
-9.982178798557703e-01  4.253771643226940e-01  6.152508171866125e-18

 5.739926944886535e-18  1.168592126765294e-19 -1.024890580436427e+00
 1.168592126765294e-19  8.418664229018028e-18  3.723795779115811e-01
-1.024890580436427e+00  3.723795779115811e-01  8.457883074337526e-18

 6.243954828073760e-18  1.131046839344275e-19 -1.039605089745381e+00
 1.131046839344275e-19  8.802410847534808e-18  3.711300580050179e-01
-1.039605089745381e+00  3.711300580050179e-01  9.456247244027814e-18

 5.122029141694822e-18  3.290305784190941e-20 -9.891108264631373e-01
 3.290305784190941e-20  5.731490464495009e-18  4.515248868739133e-01
-9.891108264631373e-01  4.515248868739133e-01  5.418363996461815e-18

 5.869832749896751e-18  9.569644534881983e-20 -1.010977559188049e+00
 9.569644534881983e-20  6.352333930109086e-18  4.431097154720717e-01
-1.010977559188049e+00  4.431097154720717e-01  6.929292878203383e-18

 6.670618099748839e-18  1.063392944512772e-20 -1.030950329196666e+00
 1.063392944512772e-20  9.259876423491010e-18  3.708740367610333e-01
-1.030950329196666e+00  3.708740367610333e-01  9.260438450212925e-18

 6.655604762067716e-18  1.873478878260451e-20 -1.024868352189148e+00
 1.873478878260451e-20  9.553397899460511e-18  3.592860168450992e-01
-1.024868352189148e+00  3.592860168450992e-01  8.998738202212410e-18

 6.198887726390446e-18 -1.470547679239256e-21 -9.985118672724230e-01
-1.470547679239256e-21  7.230663684028969e-18  4.298147381160460e-01
-9.985118672724230e-01  4.298147381160460e-01  6.679480299048354e-18

 6.602611385402545e-18  1.795472313067011e-21 -1.008334747639677e+00
 1.795472313067011e-21  7.850189899028522e-18  4.214790383523324e-01
-1.008334747639677e+00  4.214790383523324e-01  7.371110658053767e-18

 6.785223963025386e-18 -9.522413893416970e-21 -1.007498888186676e+00
-9.522413893416970e-21  8.577212239535190e-18  4.098574445318656e-01
-1.007498888186676e+00  4.098574445318656e-01  7.556188517890298e-18

 6.884521164777527e-18 -2.017376757105624e-20 -1.002616944926717e+00
-2.017376757105624e-20  8.415547650354032e-18  4.140744839695514e-01
-1.002616944926717e+00  4.140744839695514e-01  7.364531163249675e-18

 6.807359726433838e-18 -2.743849674040030e-20 -9.928407263646339e-01
-2.743849674040030e-20  7.986065098442809e-18  4.233179154132571e-01
-9.928407263646339e-01  4.233179154132571e-01  6.745097433500341e-18

 7.031994515568489e-18 -3.296980526095101e-20 -9.953679382307075e-01
-3.296980526095101e-20  8.855666300152357e-18  4.050521443851823e-01
-9.953679382307075e-01  4.050521443851823e-01  7.262075136138291e-18

 7.217620032173910e-18 -3.706345251830783e-20 -9.970094283560866e-01
-3.706345251830783e-20  9.003353906690348e-18  4.032509922699278e-01
-9.970094283560866e-01  4.032509922699278e-01  7.478412184307250e-18

 7.401462646500098e-18 -4.468973065668101e-20 -9.974291721405949e-01
-4.468973065668101e-20  8.717103947342341e-18  4.135549483312401e-01
-9.974291721405949e-01  4.135549483312401e-01  7.543991234176278e-18

 7.696013367572220e-18 -3.061578920167639e-20 -1.001796844645751e+00
-3.061578920167639e-20  8.696608001519674e-18  4.137818391590766e-01
-1.001796844645751e+00  4.137818391590766e-01  8.000328882821386e-18

 7.139115070606200e-18 -9.809384945328522e-21 -9.719596801495557e-01
-9.809384945328522e-21  8.444158468692709e-18  4.306318280366013e-01
-9.719596801495557e-01  4.306318280366013e-01  5.993198822095711e-18

 7.773104835107794e-18 -3.858303994380829e-20 -9.930616358401704e-01
-3.858303994380829e-20  9.905440841838551e-18  3.892734147529491e-01
-9.930616358401704e-01  3.892734147529491e-01  7.986719162769568e-18

 7.561556806771311e-18 -1.780628287959853e-20 -9.805620724137322e-01
-1.780628287959853e-20  9.954620896862467e-18  3.889803173861716e-01
-9.805620724137322e-01  3.889803173861716e-01  7.170089868067012e-18

 7.529067964421858e-18 -1.545532957823884e-20 -9.769970905943488e-01
-1.545532957823884e-20  8.523879139868313e-18  4.225850212330491e-01
-9.769970905943488e-01  4.225850212330491e-01  6.541087695373148e-18

 8.265683321594272e-18 -6.045788381224289e-21 -1.003971963801287e+00
-6.045788381224289e-21  9.865554550228667e-18  3.992347384584464e-01
-1.003971963801287e+00  3.992347384584464e-01  8.400809661371461e-18

 8.592888482660405e-18 -3.052913297333415e-22 -1.015305188690879e+00
-3.052913297333415e-22  9.979255006054565e-18  3.918559016635853e-01
-1.015305188690879e+00  3.918559016635853e-01  9.142624700175065e-18

 8.283765552256172e-18  3.763321017689054e-21 -1.001765089280172e+00
 3.763321017689054e-21  9.138290631571611e-18  4.219039574671597e-01
-1.001765089280172e+00  4.219039574671597e-01  7.889313749541173e-18

 7.380128535115729e-18  3.972730281130400e-20 -9.628059863237560e-01
 3.972730281130400e-20  7.844626200853582e-18  4.532529573236113e-01
-9.628059863237560e-01  4.532529573236113e-01  4.983669298864163e-18

 7.823173457532414e-18 -1.768365934762220e-20 -9.769383273905083e-01
-1.768365934762220e-20  9.530082769606346e-18  4.127475310038658e-01
-9.769383273905083e-01  4.127475310038658e-01  6.435389601562973e-18

 7.501285615983184e-18  5.381227238480388e-21 -9.612833230032867e-01
 5.381227238480388e-21  1.033352131034616e-17  3.900146381823028e-01
-9.612833230032867e-01  3.900146381823028e-01  5.468809186184412e-18

 8.482591139628817e-18  1.416120401139115e-19 -1.004328053852716e+00
 1.416120401139115e-19  1.172061097642503e-17  3.615347138020256e-01
-1.004328053852716e+00  3.615347138020256e-01  7.899994545185335e-18

 9.504167687926463e-18  1.078782214528927e-19 -1.051000285717881e+00
 1.078782214528927e-19  1.224078007982102e-17  3.681886232254890e-01
-1.051000285717881e+00  3.681886232254890e-01  1.031839282516780e-17

 1.003575044058341e-17 -1.392341962474697e-19 -1.075664924908009e+00
-1.392341962474697e-19  8.690728412395649e-18  4.929725136159104e-01
-1.075664924908009e+00  4.929725136159104e-01  1.061313777462272e-17

 9.671701636544114e-18  1.854823654086714e-19 -1.065327127749343e+00
 1.854823654086714e-19  8.652788008049831e-18  4.764506360182206e-01
-1.065327127749343e+00  4.764506360182206e-01  9.445261518109998e-18

 9.503380585763422e-18 -8.658077723563661e-20 -1.041412418983324e+00
-8.658077723563661e-20  1.161562495220436e-17  3.996927793996706e-01
-1.041412418983324e+00  3.996927793996706e-01  9.584208982302929e-18

 8.783394485546946e-18 -1.639765568532511e-19 -1.001903825548683e+00
-1.639765568532511e-19  1.163914846550453e-17  3.907060989799280e-01
-1.001903825548683e+00  3.907060989799280e-01  7.756654554732007e-18

 8.025108524708400e-18 -1.236601532572602e-19 -9.662356700841970e-01
-1.236601532572602e-19  1.131771713775516e-17  3.856573220645441e-01
-9.662356700841970e-01  3.856573220645441e-01  5.760004480356077e-18

 8.634607166564885e-18 -4.088785451695713e-20 -9.918198151822968e-01
-4.088785451695713e-20  9.925359091543371e-18  4.352873387785841e-01
-9.918198151822968e-01  4.352873387785841e-01  6.850140743398530e-18

 9.357359207409746e-18 -1.912697304165842e-20 -1.019662518122346e+00
-1.912697304165842e-20  1.012580393865765e-17  4.247340087406306e-01
-1.019662518122346e+00  4.247340087406306e-01  8.669969296024245e-18

 8.982460107023783e-18 -3.530518778314090e-20 -9.983664883005634e-01
-3.530518778314090e-20  1.072733254966281e-17  4.145307503338324e-01
-9.983664883005634e-01  4.145307503338324e-01  7.521771611937948e-18

 9.051987218562150e-18 -3.466664569866630e-20 -9.983087704264886e-01
-3.466664569866630e-20  1.086331622982324e-17  4.142966745742481e-01
-9.983087704264886e-01  4.142966745742481e-01  7.600337863940639e-18

 9.017500341799482e-18 -4.188234230337201e-20 -9.955331153274249e-01
-4.188234230337201e-20  1.118709762985069e-17  4.097659955540698e-01
-9.955331153274249e-01  4.097659955540698e-01  7.451697697862812e-18

 9.621890496335040e-18 -4.245378976606569e-20 -1.018182587633382e+00
-4.245378976606569e-20  1.177039506458558e-17  3.887287022796609e-01
-1.018182587633382e+00  3.887287022796609e-01  9.167283931510431e-18

 9.382276091536283e-18 -4.066550605577641e-20 -1.009105936349750e+00
-4.066550605577641e-20  1.064950909502236e-17  4.122776832632192e-01
-1.009105936349750e+00  4.122776832632192e-01  8.277534008678240e-18

 9.232885220004781e-18 -3.844912073032037e-20 -1.001265170617848e+00
-3.844912073032037e-20  1.028987637941184e-17  4.263371099140492e-01
-1.001265170617848e+00  4.263371099140492e-01  7.605242421169922e-18

 9.616346370266103e-18 -6.648783215701505e-20 -1.013830684159561e+00
-6.648783215701505e-20  1.162120698855999e-17  3.960878757345774e-01
-1.013830684159561e+00  3.960878757345774e-01  8.807864207680193e-18

 9.128237573223710e-18 -6.210173756137009e-20 -9.935091061648073e-01
-6.210173756137009e-20  1.087802534409884e-17  4.142373751937942e-01
-9.935091061648073e-01  4.142373751937942e-01  7.255294477120170e-18

 9.267567800185229e-18 -6.883204538727548e-20 -9.977028179602371e-01
-6.883204538727548e-20  1.081849596510444e-17  4.169391433869592e-01
-9.977028179602371e-01  4.169391433869592e-01  7.471541592443985e-18

 9.495537109066589e-18 -7.941220529429110e-20 -1.004631694686421e+00
-7.941220529429110e-20  1.117351144026230e-17  4.170922283689697e-01
-1.004631694686421e+00  4.170922283689697e-01  7.861506991026548e-18

 9.612079908130566e-18 -8.393656293450305e-20 -1.008638075937517e+00
-8.393656293450305e-20  1.127193571235289e-17  4.186754028290647e-01
-1.008638075937517e+00  4.186754028290647e-01  8.057705401454933e-18

 9.610090879480081e-18 -8.656533157932924e-20 -1.006285233290581e+00
-8.656533157932924e-20  1.146909892516481e-17  4.069126773369482e-01
-1.006285233290581e+00  4.069126773369482e-01  7.935046179886450e-18

 1.048276898340890e-17 -8.891192615175242e-20 -1.042065699325737e+00
-8.891192615175242e-20  1.180969273236535e-17  4.084142040956508e-01
-1.042065699325737e+00  4.084142040956508e-01  1.004409075922179e-17

 8.888397693456682e-18  2.881081778889680e-19 -9.814926311439817e-01
 2.881081778889680e-19  8.082042252792539e-18  4.854665125781707e-01
-9.814926311439817e-01  4.854665125781707e-01  5.237562493025597e-18

 9.981559518881701e-18 -3.634290422218007e-19 -1.000809775523986e+00
-3.634290422218007e-19  1.467848698964658e-17  3.339852622367047e-01
-1.000809775523986e+00  3.339852622367047e-01  9.239044886525472e-18

 1.011147325934471e-17  8.720628818951198e-20 -1.013797116353290e+00
 8.720628818951198e-20  1.545648006931316e-17  2.830280673334207e-01
-1.013797116353290e+00  2.830280673334207e-01  9.749035041236820e-18

 7.464860948316068e-18 -4.652285919662205e-19 -8.986301676129937e-01
-4.652285919662205e-19  5.769940080111380e-18  5.608431691544922e-01
-8.986301676129937e-01  5.608431691544922e-01  8.419502542940526e-19

 9.389983279314835e-18 -1.744381224092389e-19 -9.850305094097170e-01
-1.744381224092389e-19  7.918439171754561e-18  5.148171604601792e-01
-9.850305094097170e-01  5.148171604601792e-01  6.202665944833804e-18

 1.078865183394921e-17 -1.847618743341155e-19 -1.037187028276692e+00
-1.847618743341155e-19  1.249972531536901e-17  3.862702400672305e-01
-1.037187028276692e+00  3.862702400672305e-01  1.082558137233232e-17

 9.183461246294520e-18 -1.279211516565092e-19 -9.693595518465088e-01
-1.279211516565092e-19  1.170120340695184e-17  3.996085623602567e-01
-9.693595518465088e-01  3.996085623602567e-01  6.330657528296151e-18

 9.664571016045649e-18 -8.440629893011736e-20 -9.901947073877231e-01
-8.440629893011736e-20  1.150496868444939e-17  4.036365516752863e-01
-9.901947073877231e-01  4.036365516752863e-01  7.502872176257160e-18

 9.119482128226673e-18 -1.508657238115763e-19 -9.676989025982431e-01
-1.508657238115763e-19  9.798966280872923e-18  4.588505045230791e-01
-9.676989025982431e-01  4.588505045230791e-01  5.501879998813296e-18

 1.014556345685142e-17 -1.215347443490057e-19 -1.011157741814556e+00
-1.215347443490057e-19  1.153933426297862e-17  4.274475817926134e-01
-1.011157741814556e+00  4.274475817926134e-01  8.445043114565913e-18

 1.014681616655788e-17 -1.097449903517516e-19 -1.010591124339291e+00
-1.097449903517516e-19  1.163027877149577e-17  4.127784654848357e-01
-1.010591124339291e+00  4.127784654848357e-01  8.424672336272366e-18

 1.005595861928917e-17 -1.105141496188587e-19 -1.005836655489806e+00
-1.105141496188587e-19  1.223440809053921e-17  4.119305398390904e-01
-1.005836655489806e+00  4.119305398390904e-01  8.106600616866147e-18

 1.019896537749627e-17 -1.108547483893097e-19 -1.011013584480956e+00
-1.108547483893097e-19  1.265728646453363e-17  4.085745058433415e-01
-1.011013584480956e+00  4.085745058433415e-01  8.455308054524657e-18

 1.006195193247673e-17 -1.135977793030530e-19 -1.004943220147346e+00
-1.135977793030530e-19  1.207124381856626e-17  4.245506548659922e-01
-1.004943220147346e+00  4.245506548659922e-01  7.874451702742657e-18

 1.011263323935725e-17 -1.115071011437000e-19 -1.006584847246376e+00
-1.115071011437000e-19  1.222189334689685e-17  4.231647521227042e-01
-1.006584847246376e+00  4.231647521227042e-01  8.001946263044890e-18

 1.032744381365189e-17 -1.165046891652810e-19 -1.013865171755380e+00
-1.165046891652810e-19  1.261876815338026e-17  4.097328646485308e-01
-1.013865171755380e+00  4.097328646485308e-01  8.604088131826433e-18

 1.013191170626463e-17 -1.148437005753902e-19 -1.005162174561712e+00
-1.148437005753902e-19  1.211864875380629e-17  4.162179941803399e-01
-1.005162174561712e+00  4.162179941803399e-01  8.022416645749462e-18

 1.015927026850030e-17 -1.179511965601434e-19 -1.005236081679105e+00
-1.179511965601434e-19  1.231427861765490e-17  4.169663499309473e-01
-1.005236081679105e+00  4.169663499309473e-01  8.043489272178753e-18

 1.018596756277407e-17 -1.169659269529361e-19 -1.005999921493895e+00
-1.169659269529361e-19  1.175311043064156e-17  4.177221095823359e-01
-1.005999921493895e+00  4.177221095823359e-01  8.073592735011065e-18

 1.018685776316475e-17 -1.159895154871626e-19 -1.004950842731836e+00
-1.159895154871626e-19  1.129929395708353e-17  4.189431099098741e-01
-1.004950842731836e+00  4.189431099098741e-01  8.010328096252914e-18

 1.019645209407002e-17 -1.183842554032099e-19 -1.005167407898379e+00
-1.183842554032099e-19  1.184065584936541e-17  4.189736076721466e-01
-1.005167407898379e+00  4.189736076721466e-01  8.004891676730377e-18

 1.014599007227918e-17 -1.197897662477254e-19 -1.001407454082137e+00
-1.197897662477254e-19  1.243889002366504e-17  4.189927323889849e-01
-1.001407454082137e+00  4.189927323889849e-01  7.773592557188262e-18

 1.033408257906127e-17 -1.029027626013139e-19 -1.009381335814548e+00
-1.029027626013139e-19  1.297886623366220e-17  4.024549665615864e-01
-1.009381335814548e+00  4.024549665615864e-01  8.324696251088726e-18

 1.043179003901845e-17 -1.363040880259854e-19 -1.014336464613737e+00
-1.363040880259854e-19  1.193978130504791e-17  4.393424562249785e-01
-1.014336464613737e+00  4.393424562249785e-01  8.217354034180448e-18

 1.025814879376604e-17 -1.080391565462076e-19 -1.007206173318516e+00
-1.080391565462076e-19  1.234385053517291e-17  4.475808242827556e-01
-1.007206173318516e+00  4.475808242827556e-01  7.619900935135239e-18

 1.125426872950916e-17 -1.544224992541640e-19 -1.043666312829080e+00
-1.544224992541640e-19  1.443844334133660e-17  3.785535469264620e-01
-1.043666312829080e+00  3.785535469264620e-01  1.088262757926807e-17

 1.040309943787774e-17 -1.328850569756603e-19 -1.008702506359696e+00
-1.328850569756603e-19  1.256025314495980e-17  4.001152290354905e-01
-1.008702506359696e+00  4.001152290354905e-01  8.356945479080741e-18

 1.018370794729671e-17 -1.265872253663548e-19 -9.990275650749857e-01
-1.265872253663548e-19  1.232051239351566e-17  4.229213238529802e-01
-9.990275650749857e-01  4.229213238529802e-01  7.529170480004083e-18

 1.030664288526695e-17 -1.236246069716268e-19 -1.003865080287843e+00
-1.236246069716268e-19  1.260722106232525e-17  4.249966297590023e-01
-1.003865080287843e+00  4.249966297590023e-01  7.873912406585463e-18

 1.041326496883619e-17 -1.237106969986624e-19 -1.006733000790345e+00
-1.237106969986624e-19  1.215347353807332e-17  4.199674149363381e-01
-1.006733000790345e+00  4.199674149363381e-01  8.102065431533457e-18

 1.035251176147479e-17 -1.245529557833215e-19 -1.003760308049400e+00
-1.245529557833215e-19  1.186794510601373e-17  4.179296684275236e-01
-1.003760308049400e+00  4.179296684275236e-01  7.984291173339237e-18

 1.038799872369082e-17 -1.267659270543674e-19 -1.004067198886256e+00
-1.267659270543674e-19  1.212575043513148e-17  4.159696408633912e-01
-1.004067198886256e+00  4.159696408633912e-01  8.061326619841939e-18

 1.035053904755372e-17 -1.283235578972620e-19 -1.002492163963706e+00
-1.283235578972620e-19  1.271466395345623e-17  4.184891400618559e-01
-1.002492163963706e+00  4.184891400618559e-01  7.919628992149619e-18

 1.031706184381936e-17 -1.306097665622469e-19 -1.000761683186282e+00
-1.306097665622469e-19  1.216590306168420e-17  4.242474681444154e-01
-1.000761683186282e+00  4.242474681444154e-01  7.726464699588190e-18

 1.029265745532276e-17 -1.303601605279412e-19 -9.988817680988979e-01
-1.303601605279412e-19  1.213162920874731e-17  4.245335483184989e-01
-9.988817680988979e-01  4.245335483184989e-01  7.633815260132719e-18

 1.044113561095447e-17 -1.308966463860516e-19 -1.004873977792888e+00
-1.308966463860516e-19  1.286475209444604e-17  4.157671907779357e-01
-1.004873977792888e+00  4.157671907779357e-01  8.080595291460068e-18

 1.048018097306647e-17 -1.331640715751779e-19 -1.005555614961271e+00
-1.331640715751779e-19  1.231964893581412e-17  4.196698775727245e-01
-1.005555614961271e+00  4.196698775727245e-01  8.036985487491046e-18

 1.049404498385515e-17 -1.386013340483974e-19 -1.006363369639343e+00
-1.386013340483974e-19  1.285032202924055e-17  4.213668402120587e-01
-1.006363369639343e+00  4.213668402120587e-01  8.092206112792239e-18

 1.053347475058413e-17 -1.395544721242835e-19 -1.007399232316394e+00
-1.395544721242835e-19  1.249834438163783e-17  4.196314244783638e-01
-1.007399232316394e+00  4.196314244783638e-01  8.136817849850924e-18

 1.052678036107156e-17 -1.386269000998781e-19 -1.006704110037711e+00
-1.386269000998781e-19  1.215716988670772e-17  4.184508177006696e-01
-1.006704110037711e+00  4.184508177006696e-01  8.126158048821752e-18

 1.054464546912923e-17 -1.387364990041540e-19 -1.006829166678213e+00
-1.387364990041540e-19  1.211901162953086e-17  4.188148087660297e-01
-1.006829166678213e+00  4.188148087660297e-01  8.135852433397498e-18

 1.057084614018082e-17 -1.426560575864847e-19 -1.006610120963213e+00
-1.426560575864847e-19  1.253985431786550e-17  4.196418860027975e-01
-1.006610120963213e+00  4.196418860027975e-01  8.146428050182154e-18

 1.057410557035214e-17 -1.412330894246156e-19 -1.006248023484051e+00
-1.412330894246156e-19  1.231658745467718e-17  4.192355752404019e-01
-1.006248023484051e+00  4.192355752404019e-01  8.141314360803410e-18

 1.071073010549694e-17 -1.445649699447893e-19 -1.010520685746882e+00
-1.445649699447893e-19  1.316464585678788e-17  4.153059930030644e-01
-1.010520685746882e+00  4.153059930030644e-01  8.422362298823376e-18

 1.064593625837460e-17 -1.412974331911185e-19 -1.007966780321831e+00
-1.412974331911185e-19  1.241251248479861e-17  4.207467512244797e-01
-1.007966780321831e+00  4.207467512244797e-01  8.264394369948239e-18

 1.055757420966274e-17 -1.364221210334242e-19 -1.002677543048411e+00
-1.364221210334242e-19  1.265428242231986e-17  4.168578658999179e-01
-1.002677543048411e+00  4.168578658999179e-01  8.015388740789957e-18

 1.063975706140208e-17 -1.363439790384659e-19 -1.005226011749716e+00
-1.363439790384659e-19  1.299167916959596e-17  4.144775296769782e-01
-1.005226011749716e+00  4.144775296769782e-01  8.207925252022984e-18

 1.068156532885022e-17 -1.458876591910277e-19 -1.005952609522628e+00
-1.458876591910277e-19  1.252509289247513e-17  4.286338716577989e-01
-1.005952609522628e+00  4.286338716577989e-01  8.100034722958909e-18

 1.045575207311024e-17 -1.341920246549349e-19 -9.973035045167088e-01
-1.341920246549349e-19  1.217062865008093e-17  4.351678940410312e-01
-9.973035045167088e-01  4.351678940410312e-01  7.467825013770690e-18

 1.090148640306395e-17 -1.318572049628335e-19 -1.013349593539301e+00
-1.318572049628335e-19  1.377736688655260e-17  4.064196046790940e-01
-1.013349593539301e+00  4.064196046790940e-01  8.816003741312898e-18

 1.065049207092118e-17 -1.260427343966093e-19 -1.003359247329481e+00
-1.260427343966093e-19  1.242085930178528e-17  4.139417104701536e-01
-1.003359247329481e+00  4.139417104701536e-01  8.137933236873356e-18

 1.089324495647039e-17 -1.265636906549085e-19 -1.012102496913629e+00
-1.265636906549085e-19  1.340027522803926e-17  4.146279427489508e-01
-1.012102496913629e+00  4.146279427489508e-01  8.690412741787697e-18

 1.077713519923960e-17 -1.220531835189545e-19 -1.007816279370952e+00
-1.220531835189545e-19  1.233116894428004e-17  4.180768003598265e-01
-1.007816279370952e+00  4.180768003598265e-01  8.367212411677949e-18

 1.059028370398395e-17 -1.214237612867844e-19 -9.999748751044000e-01
-1.214237612867844e-19  1.286946798820980e-17  4.203320070373674e-01
-9.999748751044000e-01  4.203320070373674e-01  7.824168268849051e-18

 1.067943167384932e-17 -1.168897798629497e-19 -1.003232835464209e+00
-1.168897798629497e-19  1.243514748045250e-17  4.166289840428443e-01
-1.003232835464209e+00  4.166289840428443e-01  8.083183846046660e-18

 1.092358442101709e-17 -1.164530980289334e-19 -1.012700841528547e+00
-1.164530980289334e-19  1.351201622463775e-17  4.116958930731784e-01
-1.012700841528547e+00  4.116958930731784e-01  8.705194081022739e-18

 1.089718127560014e-17 -1.156559041770097e-19 -1.012006924060141e+00
-1.156559041770097e-19  1.337207467831541e-17  4.125290965772683e-01
-1.012006924060141e+00  4.125290965772683e-01  8.634462861828639e-18

 1.068918482164323e-17 -1.151735529780859e-19 -1.003460251421344e+00
-1.151735529780859e-19  1.253244421598701e-17  4.206635957419694e-01
-1.003460251421344e+00  4.206635957419694e-01  7.972203766693661e-18

 1.091253793090428e-17 -1.166552228239651e-19 -1.012295495418074e+00
-1.166552228239651e-19  1.288126920835007e-17  4.123344175293155e-01
-1.012295495418074e+00  4.123344175293155e-01  8.623314018772455e-18

 1.078063791279322e-17 -1.123362723923355e-19 -1.006161889214265e+00
-1.123362723923355e-19  1.272704202002223e-17  4.182960634555731e-01
-1.006161889214265e+00  4.182960634555731e-01  8.180906832955955e-18

 1.077586603214259e-17 -1.104122588094047e-19 -1.005830761862104e+00
-1.104122588094047e-19  1.370156296197484e-17  4.152406077621770e-01
-1.005830761862104e+00  4.152406077621770e-01  8.132730175973036e-18

 1.104048884380825e-17 -1.128871834508889e-19 -1.017126807719116e+00
-1.128871834508889e-19  1.193156914780855e-17  4.188405683310139e-01
-1.017126807719116e+00  4.188405683310139e-01  8.756134476325300e-18

 1.085622579426238e-17 -1.020991898796468e-19 -1.008683183819131e+00
-1.020991898796468e-19  1.285376088374072e-17  4.255179198958173e-01
-1.008683183819131e+00  4.255179198958173e-01  8.202760452182437e-18

 1.102114607313097e-17  3.861965267362325e-20 -1.015946628369278e+00
 3.861965267362325e-20  1.502656424563838e-17  3.511582312713197e-01
-1.015946628369278e+00  3.511582312713197e-01  9.043827427225043e-18

 1.100560887564131e-17 -1.312489968589021e-19 -1.014371709525219e+00
-1.312489968589021e-19  1.296908822378848e-17  4.371015022104006e-01
-1.014371709525219e+00  4.371015022104006e-01  8.363184156259850e-18

 1.126523384246631e-17 -1.435884558949440e-19 -1.028115856994325e+00
-1.435884558949440e-19  9.418474218948685e-18  4.887420509749796e-01
-1.028115856994325e+00  4.887420509749796e-01  8.763491312482265e-18

 1.045049002333960e-17 -1.886042422410731e-19 -9.861996853043868e-01
-1.886042422410731e-19  1.402544841121097e-17  3.932816685740441e-01
-9.861996853043868e-01  3.932816685740441e-01  7.259734778954087e-18

 1.059095165210597e-17 -5.291524952223319e-20 -9.944005803870195e-01
-5.291524952223319e-20  1.347775501600828e-17  3.849043049679647e-01
-9.944005803870195e-01  3.849043049679647e-01  7.685432376246875e-18

 1.052551141121342e-17 -1.944265243510230e-19 -9.924857622094341e-01
-1.944265243510230e-19  1.149123593916650e-17  4.654445585606314e-01
-9.924857622094341e-01  4.654445585606314e-01  6.871743402896340e-18

 1.124698015386684e-17 -1.210348353512438e-19 -1.024384909401377e+00
-1.210348353512438e-19  1.343332129718892e-17  4.373537793246075e-01
-1.024384909401377e+00  4.373537793246075e-01  8.962268811714441e-18

 1.154064236212056e-17 -1.289785885720570e-19 -1.034261739063084e+00
-1.289785885720570e-19  1.437171361121972e-17  3.936799383663849e-01
-1.034261739063084e+00  3.936799383663849e-01  1.008258610835386e-17

 1.092614830321718e-17 -1.196678100012602e-19 -1.009431042357484e+00
-1.196678100012602e-19  1.456595645215609e-17  4.091883784235294e-01
-1.009431042357484e+00  4.091883784235294e-01  8.290926250211158e-18

 1.087748582872857e-17 -1.204780649564085e-19 -1.006866629929716e+00
-1.204780649564085e-19  1.263037873447898e-17  4.216844804841817e-01
-1.006866629929716e+00  4.216844804841817e-01  8.057884319549089e-18

 1.101733870637570e-17 -1.206692583451234e-19 -1.012073757100990e+00
-1.206692583451234e-19  1.300741288058343e-17  4.201412276426083e-01
-1.012073757100990e+00  4.201412276426083e-01  8.381926198186186e-18

 1.108947077937680e-17 -1.192090649193128e-19 -1.015199015148398e+00
-1.192090649193128e-19  1.359143058803064e-17  4.199959659385787e-01
-1.015199015148398e+00  4.199959659385787e-01  8.575288018434697e-18

 1.080015495181028e-17 -1.175902875350048e-19 -1.002816145010795e+00
-1.175902875350048e-19  1.377743844803943e-17  4.353963082643701e-01
-1.002816145010795e+00  4.353963082643701e-01  7.684371269341189e-18

 1.091715255765086e-17 -1.107419547925788e-19 -1.005704072956167e+00
-1.107419547925788e-19  1.353253222094569e-17  3.983291298044832e-01
-1.005704072956167e+00  3.983291298044832e-01  8.287048441293230e-18

 1.095150820525905e-17 -1.114101569737596e-19 -1.007727022544235e+00
-1.114101569737596e-19  1.329422977429213e-17  4.118754280435542e-01
-1.007727022544235e+00  4.118754280435542e-01  8.255074047268680e-18

 1.097581023274277e-17 -1.457642611581108e-19 -1.009315066614380e+00
-1.457642611581108e-19  1.250352275521748e-17  4.425793556202694e-01
-1.009315066614380e+00  4.425793556202694e-01  8.066875396903041e-18

 1.102425040892615e-17 -1.196039926325640e-19 -1.010899103841177e+00
-1.196039926325640e-19  1.385199101318025e-17  4.177739439426443e-01
-1.010899103841177e+00  4.177739439426443e-01  8.341637111766076e-18

 1.097572889249662e-17 -1.108531441411531e-19 -1.008873581605555e+00
-1.108531441411531e-19  1.409307592976210e-17  4.165356407913005e-01
-1.008873581605555e+00  4.165356407913005e-01  8.184980162519153e-18

 1.105994724117318e-17 -1.264512250635822e-19 -1.013519214015794e+00
-1.264512250635822e-19  1.378445227926189e-17  4.345036061630718e-01
-1.013519214015794e+00  4.345036061630718e-01  8.235895715842965e-18

 1.103031839309532e-17 -1.181754572689490e-19 -1.012390731672253e+00
-1.181754572689490e-19  1.219187133834409e-17  4.372116498051002e-01
-1.012390731672253e+00  4.372116498051002e-01  8.089829780141544e-18

 1.104823471682806e-17 -1.129849944809488e-19 -1.012098419972404e+00
-1.129849944809488e-19  1.588562328776114e-17  4.175607039381425e-01
-1.012098419972404e+00  4.175607039381425e-01  8.328148234852379e-18

 1.080909775516288e-17 -1.057738061888197e-19 -1.002493296088828e+00
-1.057738061888197e-19  1.411269346649183e-17  4.211834200134131e-01
-1.002493296088828e+00  4.211834200134131e-01  7.631453203477977e-18

 1.138712561161371e-17 -1.206853854246301e-19 -1.028932723489111e+00
-1.206853854246301e-19  1.188497462878579e-17  4.207746979515807e-01
-1.028932723489111e+00  4.207746979515807e-01  9.091484022888186e-18

 1.178544261048628e-17 -1.157307883312348e-19 -1.046478815844228e+00
-1.157307883312348e-19  1.316146521327236e-17  4.219624939126002e-01
-1.046478815844228e+00  4.219624939126002e-01  1.008122428565718e-17

 1.129806828480741e-17 -1.002175401597299e-19 -1.024428917558566e+00
-1.002175401597299e-19  1.363657117598073e-17  4.227800610030130e-01
-1.024428917558566e+00  4.227800610030130e-01  8.810764716476571e-18

 1.103066908946996e-17 -1.049611755856116e-19 -1.011114226814498e+00
-1.049611755856116e-19  1.352523550306655e-17  4.159553211112428e-01
-1.011114226814498e+00  4.159553211112428e-01  8.177753382869290e-18

 1.140811612625804e-17 -1.108172909412851e-19 -1.025632963080176e+00
-1.108172909412851e-19  1.484096264455071e-17  3.915686404572761e-01
-1.025632963080176e+00  3.915686404572761e-01  9.431379017182626e-18

 1.105159404683084e-17 -1.069047190781915e-19 -1.010508000353094e+00
-1.069047190781915e-19  1.322110026341468e-17  4.204412975784291e-01
-1.010508000353094e+00  4.204412975784291e-01  8.181664093487998e-18

 1.098548368000735e-17 -1.132658833635591e-19 -1.008052271320995e+00
-1.132658833635591e-19  1.374136957971897e-17  4.373776558187736e-01
-1.008052271320995e+00  4.373776558187736e-01  7.954394652551356e-18

 1.110963091505413e-17 -9.692924342246728e-20 -1.011452284345693e+00
-9.692924342246728e-20  1.422155956423614e-17  4.112338334445189e-01
-1.011452284345693e+00  4.112338334445189e-01  8.490887707257168e-18

 1.105857017261668e-17 -9.457717342061353e-20 -1.008977954299927e+00
-9.457717342061353e-20  1.060573188654582e-17  4.151976801659807e-01
-1.008977954299927e+00  4.151976801659807e-01  8.311876894154839e-18

 1.122059347184221e-17 -8.896862869510374e-20 -1.015369399919104e+00
-8.896862869510374e-20  1.077630589862202e-17  4.207519100343878e-01
-1.015369399919104e+00  4.207519100343878e-01  8.675046306810356e-18

 1.109061381761641e-17 -8.157532569236122e-20 -1.009879767191807e+00
-8.157532569236122e-20  1.312598389469223e-17  4.157873909305378e-01
-1.009879767191807e+00  4.157873909305378e-01  8.336368626034009e-18

 1.136849141815723e-17 -6.629683624450703e-20 -1.021938220274721e+00
-6.629683624450703e-20  1.647445995058804e-17  4.023443110869752e-01
-1.021938220274721e+00  4.023443110869752e-01  9.158117684887272e-18

 1.126738422347507e-17 -8.066019275819078e-20 -1.017724132751284e+00
-8.066019275819078e-20  1.323932078077141e-17  4.176077239545721e-01
-1.017724132751284e+00  4.176077239545721e-01  8.665084981099871e-18

 1.118381941990864e-17  4.866331689652911e-19 -1.021330037308601e+00
 4.866331689652911e-19 -6.199577022721587e-18  4.435534067708518e-01
-1.021330037308601e+00  4.435534067708518e-01  8.355258789911050e-18

 1.141635199776423e-17 -1.141310006580802e-20 -1.031219382063081e+00
-1.141310006580802e-20  1.821458155194759e-17  4.444444992418450e-01
-1.031219382063081e+00  4.444444992418450e-01  9.023059208487105e-18

 1.113551635112640e-17 -1.443462567913238e-19 -1.018515932706494e+00
-1.443462567913238e-19  2.592117706316778e-17  4.139089082436258e-01
-1.018515932706494e+00  4.139089082436258e-01  8.485612371024365e-18

 1.117926828357800e-17  4.334550459393130e-19 -1.020203026886905e+00
 4.334550459393130e-19 -2.462823633090409e-18  4.236826886342132e-01
-1.020203026886905e+00  4.236826886342132e-01  8.482223624940987e-18

 1.146842517844218e-17  2.278143661802276e-19 -1.034648152107532e+00
 2.278143661802276e-19  6.967287468660842e-18  4.326269888317388e-01
-1.034648152107532e+00  4.326269888317388e-01  9.262983688159595e-18

 1.126293899344535e-17 -2.244881495088510e-19 -1.025071372077080e+00
-2.244881495088510e-19  2.711487573220058e-17  4.382662208912177e-01
-1.025071372077080e+00  4.382662208912177e-01  8.561869917621883e-18

 1.127136087262143e-17  1.097062849640168e-19 -1.025523913185741e+00
 1.097062849640168e-19  1.328932534324518e-17  4.203101314221936e-01
-1.025523913185741e+00  4.203101314221936e-01  8.828110636790948e-18

 1.106997562445476e-17  5.065099370326698e-19 -1.017125393058862e+00
 5.065099370326698e-19 -5.047946558934902e-18  4.299202432584566e-01
-1.017125393058862e+00  4.299202432584566e-01  8.255793650058543e-18

 1.111787239270321e-17  8.073463726184818e-21 -1.018160091228461e+00
 8.073463726184818e-21  1.668094981441233e-17  4.329925703827899e-01
-1.018160091228461e+00  4.329925703827899e-01  8.350082787043989e-18

 1.113695656326971e-17 -2.253172534122608e-19 -1.018634750718763e+00
-2.253172534122608e-19  2.679201212776074e-17  4.312656212982199e-01
-1.018634750718763e+00  4.312656212982199e-01  8.405408152900510e-18

 1.114358698482254e-17 -9.300716746935110e-20 -1.018889732978316e+00
-9.300716746935110e-20  2.081689170489309e-17  4.325803120420166e-01
-1.018889732978316e+00  4.325803120420166e-01  8.424055931607539e-18

 1.108724029393822e-17  8.763688560476992e-20 -1.016792538439337e+00
 8.763688560476992e-20  1.305728517477796e-17  4.330371606789621e-01
-1.016792538439337e+00  4.330371606789621e-01  8.306800947008881e-18

 1.100524664772142e-17  9.581771563507483e-20 -1.012859033033254e+00
 9.581771563507483e-20  1.302478882635445e-17  4.295737285813852e-01
-1.012859033033254e+00  4.295737285813852e-01  8.128524413334484e-18

 1.107163773855675e-17 -6.809535511176843e-20 -1.015304759938782e+00
-6.809535511176843e-20  1.982737495978980e-17  4.275911464850186e-01
-1.015304759938782e+00  4.275911464850186e-01  8.323347366554327e-18

 1.093214266187214e-17  1.057196115496435e-20 -1.009820391446371e+00
 1.057196115496435e-20  1.609840118920716e-17  4.404490718296181e-01
-1.009820391446371e+00  4.404490718296181e-01  7.858996632917743e-18

 1.091037722982925e-17  1.039219067850367e-19 -1.008351404238966e+00
 1.039219067850367e-19  1.231263758081293e-17  4.377988528653777e-01
-1.008351404238966e+00  4.377988528653777e-01  7.815991147685493e-18

 1.116250405200503e-17  1.396688968442549e-19 -1.018971799342031e+00
 1.396688968442549e-19  1.173132389690172e-17  4.220037610747308e-01
-1.018971799342031e+00  4.220037610747308e-01  8.648109733885187e-18

 1.100321028851562e-17  5.291884872673582e-20 -1.012501258094431e+00
 5.291884872673582e-20  1.471242000389410e-17  4.291555597790752e-01
-1.012501258094431e+00  4.291555597790752e-01  8.149624440081349e-18

 1.102279047619296e-17  1.424759087638909e-20 -1.013301577493347e+00
 1.424759087638909e-20  1.629784159607099e-17  4.320038795059259e-01
-1.013301577493347e+00  4.320038795059259e-01  8.192247575337507e-18

 1.107574968633087e-17  8.663403646986219e-20 -1.015617958327383e+00
 8.663403646986219e-20  1.351841084800597e-17  4.293280291974381e-01
-1.015617958327383e+00  4.293280291974381e-01  8.353030896026227e-18

 1.105431845437877e-17  1.389013933147915e-19 -1.015233794251889e+00
 1.389013933147915e-19  1.139683883626099e-17  4.319486925780784e-01
-1.015233794251889e+00  4.319486925780784e-01  8.266943267527783e-18

 1.101826427625750e-17  7.121897682039562e-20 -1.013657994358653e+00
 7.121897682039562e-20  1.419348736819537e-17  4.295856468093114e-01
-1.013657994358653e+00  4.295856468093114e-01  8.229795640751204e-18

 1.096007663249228e-17  1.749587503957236e-19 -1.011798079855374e+00
 1.749587503957236e-19  1.002592952660744e-17  4.305008175814091e-01
-1.011798079855374e+00  4.305008175814091e-01  8.103988351382608e-18

 1.106620998659050e-17  1.148870220745472e-19 -1.015856462653928e+00
 1.148870220745472e-19  1.258051293781489e-17  4.263198005232307e-01
-1.015856462653928e+00  4.263198005232307e-01  8.414933889485002e-18

 1.106183925527413e-17  1.136873556437334e-19 -1.016258561456835e+00
 1.136873556437334e-19  1.252594344745267e-17  4.291929403464541e-01
-1.016258561456835e+00  4.291929403464541e-01  8.384551278554554e-18

 1.100834066301576e-17  6.019521348225262e-20 -1.014244571320846e+00
 6.019521348225262e-20  1.460763081462337e-17  4.297886373358282e-01
-1.014244571320846e+00  4.297886373358282e-01  8.245114124794985e-18

 1.102474501566236e-17  8.435508433880668e-20 -1.015215228598548e+00
 8.435508433880668e-20  1.371858404311422e-17  4.296364299643980e-01
-1.015215228598548e+00  4.296364299643980e-01  8.296400318812853e-18

 1.103696212492829e-17  1.368683602158455e-19 -1.016594979052924e+00
 1.368683602158455e-19  1.195237609995430e-17  4.270609093713869e-01
-1.016594979052924e+00  4.270609093713869e-01  8.383840685651694e-18

 1.098907482653211e-17  8.898745552823476e-20 -1.014389234268731e+00
 8.898745552823476e-20  1.367942642863933e-17  4.295567365959945e-01
-1.014389234268731e+00  4.295567365959945e-01  8.236152971667753e-18

 1.098598765713345e-17  1.353357782087387e-19 -1.014638648020787e+00
 1.353357782087387e-19  1.209049028900424e-17  4.285725221343191e-01
-1.014638648020787e+00  4.285725221343191e-01  8.272703696163360e-18

 1.098920568564172e-17  1.174401207669481e-19 -1.014660576915258e+00
 1.174401207669481e-19  1.277459910353331e-17  4.262924788102233e-01
-1.014660576915258e+00  4.262924788102233e-01  8.320586880559435e-18

 1.097459892600921e-17  9.426311840663450e-20 -1.014159729844452e+00
 9.426311840663450e-20  1.335092608968305e-17  4.332658072649032e-01
-1.014159729844452e+00  4.332658072649032e-01  8.236470345845274e-18

 1.044184734824703e-17  9.154427446779052e-20 -9.914085416952687e-01
 9.154427446779052e-20  1.271249207172019e-17  4.490091575079875e-01
-9.914085416952687e-01  4.490091575079875e-01  6.577898666269222e-18

 1.094387912568624e-17  1.172367738557931e-19 -1.012059758740014e+00
 1.172367738557931e-19  1.315288100998695e-17  4.195234504608463e-01
-1.012059758740014e+00  4.195234504608463e-01  8.284001084484493e-18

 1.126625975135386e-17  9.538572545588377e-20 -1.025758425434694e+00
 9.538572545588377e-20  1.444054807452134e-17  4.042211534384452e-01
-1.025758425434694e+00  4.042211534384452e-01  9.302473886226114e-18

 1.079961718325606e-17  9.171635240640498e-20 -1.008102050022504e+00
 9.171635240640498e-20  1.352206497675165e-17  4.399412722123469e-01
-1.008102050022504e+00  4.399412722123469e-01  7.752432725955832e-18

 1.099734949035685e-17  1.040650003765586e-19 -1.016547922904871e+00
 1.040650003765586e-19  1.318181616237412e-17  4.326448738700345e-01
-1.016547922904871e+00  4.326448738700345e-01  8.355944530315585e-18

 1.098254739317181e-17  1.025808747446658e-19 -1.015677419704062e+00
 1.025808747446658e-19  1.369640561478464e-17  4.237321872604663e-01
-1.015677419704062e+00  4.237321872604663e-01  8.412408611515832e-18

 1.093783402341077e-17  1.012511388913118e-19 -1.013938028723877e+00
 1.012511388913118e-19  1.353890465082534e-17  4.273223619662064e-01
-1.013938028723877e+00  4.273223619662064e-01  8.272119124703487e-18

 1.094347511570758e-17  1.067038780114486e-19 -1.015143278534326e+00
 1.067038780114486e-19  1.328726846879826e-17  4.277164335129554e-01
-1.015143278534326e+00  4.277164335129554e-01  8.334628245588438e-18

 1.090308669034007e-17  1.066006776009950e-19 -1.014338424353715e+00
 1.066006776009950e-19  1.333122692089107e-17  4.262592510874225e-01
-1.014338424353715e+00  4.262592510874225e-01  8.272554223002306e-18

 1.096916298890835e-17  9.265953343270006e-20 -1.017541746540134e+00
 9.265953343270006e-20  1.392129322953913e-17  4.232137253795810e-01
-1.017541746540134e+00  4.232137253795810e-01  8.487100364738320e-18

 1.102518067974704e-17  1.098535352224713e-19 -1.020559557735775e+00
 1.098535352224713e-19  1.297435100111272e-17  4.285918679060917e-01
-1.020559557735775e+00  4.285918679060917e-01  8.625095262866240e-18

 1.000311272183882e-17  1.143165909772677e-19 -9.792579933255839e-01
 1.143165909772677e-19  1.107346748308612e-17  4.668088531090454e-01
-9.792579933255839e-01  4.668088531090454e-01  5.469264911037087e-18

 1.093243295673426e-17  1.138643506294793e-19 -1.016777524150513e+00
 1.138643506294793e-19  1.282994982407722e-17  4.272353237439862e-01
-1.016777524150513e+00  4.272353237439862e-01  8.390483031699267e-18

 1.194282238125183e-17  1.074404558314637e-19 -1.057894825956967e+00
 1.074404558314637e-19  1.496705385668360e-17  3.872530420131982e-01
-1.057894825956967e+00  3.872530420131982e-01  1.146346098379855e-17

 1.085203158658210e-17  1.133799188254134e-19 -1.014123004244623e+00
 1.133799188254134e-19  1.289317575265078e-17  4.267218357185945e-01
-1.014123004244623e+00  4.267218357185945e-01  8.145112473821833e-18

 1.083911701564831e-17  9.724405710778882e-20 -1.014627520718195e+00
 9.724405710778882e-20  1.330547659973032e-17  4.327377282567271e-01
-1.014627520718195e+00  4.327377282567271e-01  8.137151531844148e-18

 1.095480945249585e-17  1.049866297703730e-19 -1.019705523496843e+00
 1.049866297703730e-19  1.314474354624492e-17  4.278419611782310e-01
-1.019705523496843e+00  4.278419611782310e-01  8.488337132161211e-18

 1.092746962411404e-17  1.089152094984439e-19 -1.018903965534605e+00
 1.089152094984439e-19  1.294411642596811e-17  4.263013765031081e-01
-1.018903965534605e+00  4.263013765031081e-01  8.473234107492343e-18

 1.092952670022888e-17  1.115688378783438e-19 -1.019506531034121e+00
 1.115688378783438e-19  1.273252393005112e-17  4.276870081928302e-01
-1.019506531034121e+00  4.276870081928302e-01  8.480290934947258e-18

 1.090762097840540e-17  1.072897112047507e-19 -1.019636251125816e+00
 1.072897112047507e-19  1.281649712484126e-17  4.283283300842360e-01
-1.019636251125816e+00  4.283283300842360e-01  8.473323835871788e-18

 1.085470409125828e-17  9.611660089879629e-20 -1.018253324988047e+00
 9.611660089879629e-20  1.319022940803506e-17  4.267808843080137e-01
-1.018253324988047e+00  4.267808843080137e-01  8.363756414907773e-18

 1.090282412500294e-17  8.532445947121991e-20 -1.020661632115757e+00
 8.532445947121991e-20  1.372403155174250e-17  4.222861860821055e-01
-1.020661632115757e+00  4.222861860821055e-01  8.569233173325258e-18

 1.098154066997525e-17  8.588267921566986e-20 -1.024495624631237e+00
 8.588267921566986e-20  1.332068115791457e-17  4.315771415635463e-01
-1.024495624631237e+00  4.315771415635463e-01  8.669556571529584e-18

 1.029862221031370e-17  9.457055636447084e-20 -9.978076092918112e-01
 9.457055636447084e-20  1.184437858749213e-17  4.583950010884574e-01
-9.978076092918112e-01  4.583950010884574e-01  6.636726749968962e-18

 1.089900661669439e-17  9.508918819784169e-20 -1.021608474427002e+00
 9.508918819784169e-20  1.312112659469261e-17  4.283540515029323e-01
-1.021608474427002e+00  4.283540515029323e-01  8.554526819755966e-18

 1.159746985145936e-17  1.060496183954269e-19 -1.050412327973928e+00
 1.060496183954269e-19  1.422933191557359e-17  3.967128768623269e-01
-1.050412327973928e+00  3.967128768623269e-01  1.072866109076380e-17

 1.076015419281871e-17  1.015593358216862e-19 -1.016106146638289e+00
 1.015593358216862e-19  1.299474019605884e-17  4.274989296940962e-01
-1.016106146638289e+00  4.274989296940962e-01  8.211729306505727e-18

 1.063041995043787e-17  1.073816653752737e-19 -1.011505258013531e+00
 1.073816653752737e-19  1.251074280584957e-17  4.379986510575478e-01
-1.011505258013531e+00  4.379986510575478e-01  7.777751781244197e-18

 1.083811653348855e-17  1.007476403876655e-19 -1.020034157809455e+00
 1.007476403876655e-19  1.295179801696210e-17  4.264708258105760e-01
-1.020034157809455e+00  4.264708258105760e-01  8.516560427075208e-18

 1.079662470136584e-17  9.846903622445012e-20 -1.018254055601334e+00
 9.846903622445012e-20  1.287246338390954e-17  4.270463344756149e-01
-1.018254055601334e+00  4.270463344756149e-01  8.424404633855749e-18

 1.074991268555518e-17  9.274695162524949e-20 -1.016855932003036e+00
 9.274695162524949e-20  1.299800740013334e-17  4.283417790490918e-01
-1.016855932003036e+00  4.283417790490918e-01  8.329814783289477e-18

 1.072978886692395e-17  9.079196634110482e-20 -1.016125476966732e+00
 9.079196634110482e-20  1.304574855698957e-17  4.280072027336997e-01
-1.016125476966732e+00  4.280072027336997e-01  8.306632013815705e-18

 1.068330017594101e-17  9.230829853127869e-20 -1.015093618875499e+00
 9.230829853127869e-20  1.290989576319138e-17  4.283090000907212e-01
-1.015093618875499e+00  4.283090000907212e-01  8.254224248040956e-18

 1.066764206374369e-17  9.242270912197753e-20 -1.014794328929822e+00
 9.242270912197753e-20  1.277143998968949e-17  4.276114957204283e-01
-1.014794328929822e+00  4.276114957204283e-01  8.240501277603314e-18

 1.067165375839962e-17  9.386963631052239e-20 -1.016357182618274e+00
 9.386963631052239e-20  1.267132113173720e-17  4.278687246289148e-01
-1.016357182618274e+00  4.278687246289148e-01  8.315293711583713e-18

 1.068424876846870e-17  8.914056179499226e-20 -1.017532435509393e+00
 8.914056179499226e-20  1.282428581142138e-17  4.283241122282483e-01
-1.017532435509393e+00  4.283241122282483e-01  8.405444853607334e-18

 1.062348504460131e-17  9.142647270758880e-20 -1.015130056625462e+00
 9.142647270758880e-20  1.257053929493750e-17  4.312773215222506e-01
-1.015130056625462e+00  4.312773215222506e-01  8.260671029131297e-18

 1.048610561389776e-17  9.054771480962654e-20 -1.010313070797148e+00
 9.054771480962654e-20  1.257517393880047e-17  4.262550220204113e-01
-1.010313070797148e+00  4.262550220204113e-01  8.015019001800269e-18

 1.053656433169157e-17  7.778321081064914e-20 -1.013403719548695e+00
 7.778321081064914e-20  1.293104833339001e-17  4.227894669537220e-01
-1.013403719548695e+00  4.227894669537220e-01  8.205204700730409e-18

 1.057512096801751e-17  7.275099214085136e-20 -1.017698912873788e+00
 7.275099214085136e-20  1.264223495287936e-17  4.319117446490804e-01
-1.017698912873788e+00  4.319117446490804e-01  8.280899782304190e-18

 1.079387988249081e-17  6.061099721108480e-20 -1.030093515301286e+00
 6.061099721108480e-20  1.269715426010910e-17  4.344714074014726e-01
-1.030093515301286e+00  4.344714074014726e-01  8.826949714786194e-18

 1.073510325726751e-17  5.749940148282159e-20 -1.031539394068635e+00
 5.749940148282159e-20  1.265746632001217e-17  4.331079742275724e-01
-1.031539394068635e+00  4.331079742275724e-01  8.711491909798322e-18

 1.065949413360787e-17  7.125104106387101e-20 -1.030180680455034e+00
 7.125104106387101e-20  1.284021561497264e-17  4.258085038153976e-01
-1.030180680455034e+00  4.258085038153976e-01  8.575489590670019e-18

 1.060578766085805e-17  9.185216291080264e-20 -1.028548045334814e+00
 9.185216291080264e-20  1.256989306886900e-17  4.305063630627579e-01
-1.028548045334814e+00  4.305063630627579e-01  8.435366941016372e-18

 1.062836346805128e-17  1.166390408720628e-19 -1.028480145564080e+00
 1.166390408720628e-19  1.241103648429418e-17  4.297316708927575e-01
-1.028480145564080e+00  4.297316708927575e-01  8.581416341806866e-18

 1.054618497991860e-17  1.261277177060777e-19 -1.023180550928416e+00
 1.261277177060777e-19  1.243384448706092e-17  4.261725245092322e-01
-1.023180550928416e+00  4.261725245092322e-01  8.480758334458362e-18

 1.041753865658158e-17  1.303030590386675e-19 -1.016174469767433e+00
 1.303030590386675e-19  1.249290953937770e-17  4.236593536030809e-01
-1.016174469767433e+00  4.236593536030809e-01  8.266805221894615e-18

 1.036748495853594e-17  1.226900973873976e-19 -1.013324366819930e+00
 1.226900973873976e-19  1.242673308437402e-17  4.224036967279255e-01
-1.013324366819930e+00  4.224036967279255e-01  8.227717857931692e-18

 1.032108989425885e-17  1.166736006356087e-19 -1.011392414759557e+00
 1.166736006356087e-19  1.233585806735118e-17  4.236007290670236e-01
-1.011392414759557e+00  4.236007290670236e-01  8.203174996848724e-18

 1.037501720726905e-17  1.032801187342427e-19 -1.014170896946148e+00
 1.032801187342427e-19  1.235036806460708e-17  4.242071126367432e-01
-1.014170896946148e+00  4.242071126367432e-01  8.401979780134937e-18

 1.037229256344670e-17  8.618028103469811e-20 -1.016401725603172e+00
 8.618028103469811e-20  1.220450633289245e-17  4.263873683952127e-01
-1.016401725603172e+00  4.263873683952127e-01  8.516638341035565e-18

 1.017007564284589e-17  7.671214087981086e-20 -1.009601389400475e+00
 7.671214087981086e-20  1.241892976781355e-17  4.199865739013639e-01
-1.009601389400475e+00  4.199865739013639e-01  8.121764667982448e-18

 1.021642574557562e-17  7.428491853959256e-20 -1.012816487696527e+00
 7.428491853959256e-20  1.255308862657031e-17  4.147698709096435e-01
-1.012816487696527e+00  4.147698709096435e-01  8.342166280090143e-18

 1.010628304684029e-17  7.752968287673855e-20 -1.010451549275354e+00
 7.752968287673855e-20  1.175466737607718e-17  4.350936994920563e-01
-1.010451549275354e+00  4.350936994920563e-01  7.933173958847557e-18

 1.000431565577507e-17  7.520377284931869e-20 -1.007159453060405e+00
 7.520377284931869e-20  1.151653505010343e-17  4.386865586271406e-01
-1.007159453060405e+00  4.386865586271406e-01  7.624694536869283e-18

 1.045271886004165e-17  8.204801279444056e-20 -1.025176724952120e+00
 8.204801279444056e-20  1.252472434365243e-17  4.143106053243721e-01
-1.025176724952120e+00  4.143106053243721e-01  9.103707442006634e-18

 1.031459243179045e-17  7.641491652072265e-20 -1.020769553290401e+00
 7.641491652072265e-20  1.238303530311063e-17  4.152373913451456e-01
-1.020769553290401e+00  4.152373913451456e-01  8.753975620464031e-18

 1.000345495992175e-17  7.768058300309215e-20 -1.009051936548994e+00
 7.768058300309215e-20  1.183773134770282e-17  4.296267711669875e-01
-1.009051936548994e+00  4.296267711669875e-01  7.846872332113784e-18

 1.008964823499032e-17  7.517932415417833e-20 -1.013468066009466e+00
 7.517932415417833e-20  1.212107841710561e-17  4.238248529942805e-01
-1.013468066009466e+00  4.238248529942805e-01  8.184797713346676e-18

 1.007674752252767e-17  7.366116370406533e-20 -1.014331359349081e+00
 7.366116370406533e-20  1.205198469558027e-17  4.220514914539155e-01
-1.014331359349081e+00  4.220514914539155e-01  8.247527851805182e-18

 1.017161706817217e-17  7.253478351053538e-20 -1.019905677563585e+00
 7.253478351053538e-20  1.198254276900119e-17  4.246999115089364e-01
-1.019905677563585e+00  4.246999115089364e-01  8.521428910809276e-18

 1.012930532780482e-17  7.178081962771292e-20 -1.020222071972135e+00
 7.178081962771292e-20  1.194165652566575e-17  4.235864213867663e-01
-1.020222071972135e+00  4.235864213867663e-01  8.561345348061717e-18

 1.004554748716107e-17  7.859478287534262e-20 -1.017580798777521e+00
 7.859478287534262e-20  1.212499335788371e-17  4.132776415438255e-01
-1.017580798777521e+00  4.132776415438255e-01  8.548736466624652e-18

 1.006745492949118e-17  7.547545593907813e-20 -1.018728159826192e+00
 7.547545593907813e-20  1.204460475258967e-17  4.159774453392984e-01
-1.018728159826192e+00  4.159774453392984e-01  8.642084669197821e-18

 1.011823306117819e-17  4.314102462741732e-20 -1.020259321771627e+00
 4.314102462741732e-20  1.122333397187183e-17  4.340377514696475e-01
-1.020259321771627e+00  4.340377514696475e-01  8.906469451814428e-18

 9.167544804047146e-18  1.033097450611244e-19 -9.797462809046690e-01
 1.033097450611244e-19  1.264254072941209e-17  3.828920253824994e-01
-9.797462809046690e-01  3.828920253824994e-01  6.953681259120132e-18

 9.674394926826174e-18 -5.352965139543410e-20 -9.986067178974377e-01
-5.352965139543410e-20  1.351495554018031e-17  3.662175544715583e-01
-9.986067178974377e-01  3.662175544715583e-01  8.552457154473793e-18

 8.336847975537474e-18  2.431854590524981e-19 -9.576036990113612e-01
 2.431854590524981e-19  8.383357336851309e-18  4.945152957561398e-01
-9.576036990113612e-01  4.945152957561398e-01  3.882096075604820e-18

 1.005425378439443e-17  8.774839667710066e-20 -1.028670993772531e+00
 8.774839667710066e-20  1.049748524215248e-17  4.468309673559504e-01
-1.028670993772531e+00  4.468309673559504e-01  8.994243968038434e-18

 9.626409503212846e-18  5.611340845650006e-20 -1.011501662281395e+00
 5.611340845650006e-20  1.180707878183841e-17  4.099160932748969e-01
-1.011501662281395e+00  4.099160932748969e-01  8.128525627999988e-18

 9.727413794100922e-18  5.336350607027436e-20 -1.021303176709676e+00
 5.336350607027436e-20  1.149614898282035e-17  4.216905833637087e-01
-1.021303176709676e+00  4.216905833637087e-01  8.450346155935016e-18

 9.942851530034333e-18  4.896240959223038e-20 -1.035463773546472e+00
 4.896240959223038e-20  1.154427978726592e-17  4.228909586657089e-01
-1.035463773546472e+00  4.228909586657089e-01  9.237918623778914e-18

 9.019358531700324e-18  5.328499157671926e-20 -9.978916356086779e-01
 5.328499157671926e-20  1.094684433170092e-17  4.267275420629013e-01
-9.978916356086779e-01  4.267275420629013e-01  7.041873238094319e-18

 9.310360122366058e-18  2.840168435542036e-20 -1.013570516242807e+00
 2.840168435542036e-20  1.152744645862321e-17  4.109492236677228e-01
-1.013570516242807e+00  4.109492236677228e-01  8.152465610022883e-18

 9.376555190779385e-18  6.153438747483785e-20 -1.021216819765884e+00
 6.153438747483785e-20  1.056235704391536e-17  4.367080206140642e-01
-1.021216819765884e+00  4.367080206140642e-01  8.188944395593931e-18

 9.597399876959763e-18  4.628427423509476e-20 -1.033258769130011e+00
 4.628427423509476e-20  1.065404617640246e-17  4.352526637637478e-01
-1.033258769130011e+00  4.352526637637478e-01  8.945356504427811e-18

 9.235785753775060e-18  4.440358170270326e-20 -1.018960758047609e+00
 4.440358170270326e-20  1.093017866900225e-17  4.230089640034847e-01
-1.018960758047609e+00  4.230089640034847e-01  8.216019098124057e-18

 8.839203452159910e-18  4.707134615004264e-20 -1.004750974988367e+00
 4.707134615004264e-20  1.080892371328828e-17  4.202579573134644e-01
-1.004750974988367e+00  4.202579573134644e-01  7.414128977709711e-18

 8.839217772144457e-18  3.592679941347136e-20 -1.007352330344868e+00
 3.592679941347136e-20  1.078267463943644e-17  4.191177851935375e-01
-1.007352330344868e+00  4.191177851935375e-01  7.576098065079114e-18

 9.040323685885401e-18  3.812597526368204e-20 -1.020272416335491e+00
 3.812597526368204e-20  1.064125764750351e-17  4.230394881523407e-01
-1.020272416335491e+00  4.230394881523407e-01  8.240213623556218e-18

 9.353318587636264e-18  3.423320995662190e-20 -1.037787423369316e+00
 3.423320995662190e-20  1.027312863296234e-17  4.342244289976509e-01
-1.037787423369316e+00  4.342244289976509e-01  9.138225211373084e-18

 8.914926142580481e-18  1.443991375680649e-20 -1.021823720589418e+00
 1.443991375680649e-20  9.951959092630509e-18  4.389402604902121e-01
-1.021823720589418e+00  4.389402604902121e-01  8.158520274578091e-18

 8.161963649708781e-18  4.375598698189095e-20 -9.918465948838430e-01
 4.375598698189095e-20  1.015337118626030e-17  4.202170443125882e-01
-9.918465948838430e-01  4.202170443125882e-01  6.601816798494742e-18

 8.324408296386976e-18  2.212808062646174e-20 -1.002563886376166e+00
 2.212808062646174e-20  1.014266665072905e-17  4.205096015517266e-01
-1.002563886376166e+00  4.205096015517266e-01  7.307283965412635e-18

 8.455929979056816e-18  3.799750748601601e-20 -1.013758881223700e+00
 3.799750748601601e-20  9.515595194738371e-18  4.361721056085481e-01
-1.013758881223700e+00  4.361721056085481e-01  7.732917472461345e-18

 8.519107867964698e-18  3.026068189088998e-20 -1.020516516404790e+00
 3.026068189088998e-20  9.881757649792556e-18  4.253184004410065e-01
-1.020516516404790e+00  4.253184004410065e-01  8.137533406317182e-18

 8.356257693700240e-18  2.819597513328966e-20 -1.017598364731508e+00
 2.819597513328966e-20  9.856749772515630e-18  4.230079737453469e-01
-1.017598364731508e+00  4.230079737453469e-01  7.964821451316186e-18

 8.197005805444450e-18  2.707397261984430e-20 -1.015704746478742e+00
 2.707397261984430e-20  9.631566814252478e-18  4.237183363852389e-01
-1.015704746478742e+00  4.237183363852389e-01  7.821734499991523e-18

 8.064532345969886e-18  2.608196074430398e-20 -1.015074509276164e+00
 2.608196074430398e-20  9.548921108810035e-18  4.236831609394847e-01
-1.015074509276164e+00  4.236831609394847e-01  7.770802378744762e-18

 7.890601764476714e-18  2.225974578120966e-20 -1.014726410046971e+00
 2.225974578120966e-20  9.355911030173728e-18  4.239398519985456e-01
-1.014726410046971e+00  4.239398519985456e-01  7.723946977580684e-18

 7.678351013663712e-18  1.767059007669804e-20 -1.014397675638221e+00
 1.767059007669804e-20  9.097337146179538e-18  4.239989493279714e-01
-1.014397675638221e+00  4.239989493279714e-01  7.650577870242849e-18

 7.594111540959828e-18  1.092797576627275e-20 -1.015195094508349e+00
 1.092797576627275e-20  8.961183744789932e-18  4.244644494094926e-01
-1.015195094508349e+00  4.244644494094926e-01  7.624821208282389e-18

 7.425183347743440e-18  1.187390315906793e-20 -1.014300992851791e+00
 1.187390315906793e-20  8.872068051654071e-18  4.238058344510755e-01
-1.014300992851791e+00  4.238058344510755e-01  7.583139812071578e-18

 7.272660979408326e-18  7.233156132344610e-21 -1.014342040862210e+00
 7.233156132344610e-21  8.735842047413470e-18  4.238379075617829e-01
-1.014342040862210e+00  4.238379075617829e-01  7.527725660451642e-18

 7.006563932149483e-18  4.320085290057996e-21 -1.014612013068596e+00
 4.320085290057996e-21  8.427122171129694e-18  4.238045474214414e-01
-1.014612013068596e+00  4.238045474214414e-01  7.470416436558182e-18

 6.756180510377997e-18 -2.064045666311853e-21 -1.015257075832827e+00
-2.064045666311853e-21  8.195137219062298e-18  4.237298657011533e-01
-1.015257075832827e+00  4.237298657011533e-01  7.413010995625253e-18

 6.437890769801691e-18 -5.560730722147929e-21 -1.015385960825754e+00
-5.560730722147929e-21  7.823872737554081e-18  4.238632021609151e-01
-1.015385960825754e+00  4.238632021609151e-01  7.328452847440800e-18

 6.189193809598500e-18 -1.039321992129918e-20 -1.015171577548622e+00
-1.039321992129918e-20  7.629208650624253e-18  4.235406470879454e-01
-1.015171577548622e+00  4.235406470879454e-01  7.230138412211374e-18

 5.862436256029224e-18 -1.390904553984710e-20 -1.015691365815306e+00
-1.390904553984710e-20  7.301418949943452e-18  4.241489902436710e-01
-1.015691365815306e+00  4.241489902436710e-01  7.153589817823973e-18

 5.613550276293803e-18 -1.610834851304370e-20 -1.015568313951269e+00
-1.610834851304370e-20  7.063587884963184e-18  4.254199414847690e-01
-1.015568313951269e+00  4.254199414847690e-01  7.029116141665699e-18

 5.274503173025562e-18 -2.026713210714291e-20 -1.011928639761161e+00
-2.026713210714291e-20  6.746572457648319e-18  4.262389975002463e-01
-1.011928639761161e+00  4.262389975002463e-01  6.743364454188247e-18

 5.132743928512885e-18 -2.132437904632551e-20 -1.014981340888200e+00
-2.132437904632551e-20  6.914022167162152e-18  4.170174520054996e-01
-1.014981340888200e+00  4.170174520054996e-01  6.967563492475997e-18

 4.883413473855564e-18 -2.790425429809085e-20 -1.015012281158820e+00
-2.790425429809085e-20  6.698502889058903e-18  4.171611280586998e-01
-1.015012281158820e+00  4.171611280586998e-01  6.825523329773599e-18

 4.778268118264829e-18 -2.815443196537924e-20 -1.029056780331784e+00
-2.815443196537924e-20  6.245726335627658e-18  4.224607595847413e-01
-1.029056780331784e+00  4.224607595847413e-01  7.424726889151294e-18

 4.481888198110022e-18 -3.725027318380625e-20 -1.035548423149298e+00
-3.725027318380625e-20  5.891903736680184e-18  4.223834591464168e-01
-1.035548423149298e+00  4.223834591464168e-01  7.718344762042431e-18

 3.797892655509293e-18 -5.730332597185781e-20 -1.022382364608481e+00
-5.730332597185781e-20  5.018561100440379e-18  4.322329471689415e-01
-1.022382364608481e+00  4.322329471689415e-01  6.899169943832843e-18

 2.079666458320473e-18 -5.923936453785792e-22 -9.725079905023307e-01
-5.923936453785792e-22  4.455237231640435e-18  4.206408982489855e-01
-9.725079905023307e-01  4.206408982489855e-01  3.940987741094308e-18

 1.816281356832223e-18 -5.073789186658108e-20 -9.854667817764370e-01
-5.073789186658108e-20  4.379061412158405e-18  4.124791287507459e-01
-9.854667817764370e-01  4.124791287507459e-01  4.733113696121684e-18

 1.836726895749794e-18  9.975436356981652e-21 -1.014112539380533e+00
 9.975436356981652e-21  2.805937417751010e-18  4.481844626344084e-01
-1.014112539380533e+00  4.481844626344084e-01  5.648968792667182e-18

 1.536835945020937e-18 -4.147827947088371e-20 -1.028005965605206e+00
-4.147827947088371e-20  3.487892036179621e-18  4.219805429729092e-01
-1.028005965605206e+00  4.219805429729092e-01  6.473489935147841e-18

 6.811323100990313e-19 -4.291068496812174e-20 -1.019570147617533e+00
-4.291068496812174e-20  3.106128144227630e-18  4.177642924893723e-01
-1.019570147617533e+00  4.177642924893723e-01  5.729450472481096e-18

-4.007631772456008e-19 -4.325947826088096e-20 -1.015266866786551e+00
-4.325947826088096e-20  2.190681121148294e-18  4.216559919713905e-01
-1.015266866786551e+00  4.216559919713905e-01  5.107922635532360e-18

-1.131388771668582e-18 -4.540603893298192e-20 -1.014975808308562e+00
-4.540603893298192e-20  1.538119385962466e-18  4.251660045413408e-01
-1.014975808308562e+00  4.251660045413408e-01  4.808607886893426e-18

-1.929971146021600e-18 -4.504696575136677e-20 -1.017227228651455e+00
-4.504696575136677e-20  9.988605115368891e-19  4.245191610854026e-01
-1.017227228651455e+00  4.245191610854026e-01  4.670416110665938e-18

-2.992858493988250e-18 -3.992712109530468e-20 -1.015976562043858e+00
-3.992712109530468e-20  2.625911304274877e-19  4.231712641710686e-01
-1.015976562043858e+00  4.231712641710686e-01  4.217296696606175e-18

-3.969064345590713e-18 -3.824438803832759e-20 -1.013242801567258e+00
-3.824438803832759e-20 -3.440237533263461e-19  4.226468488021692e-01
-1.013242801567258e+00  4.226468488021692e-01  3.802960761977914e-18

-5.209051776818947e-18 -3.970023660953734e-20 -1.014193259792464e+00
-3.970023660953734e-20 -1.192557930028024e-18  4.236964797317496e-01
-1.014193259792464e+00  4.236964797317496e-01  3.402655753391190e-18

-6.453548900206896e-18 -3.950752920567393e-20 -1.015544446274118e+00
-3.950752920567393e-20 -2.131789815093130e-18  4.269201394502660e-01
-1.015544446274118e+00  4.269201394502660e-01  2.998234661125631e-18

-7.880172530441584e-18 -3.984861893630409e-20 -1.016552505979716e+00
-3.984861893630409e-20 -2.950280586271105e-18  4.237860016285369e-01
-1.016552505979716e+00  4.237860016285369e-01  2.598735273679453e-18

-9.382000608832764e-18 -4.159721746250360e-20 -1.012542706546397e+00
-4.159721746250360e-20 -3.956412956970217e-18  4.275661194248495e-01
-1.012542706546397e+00  4.275661194248495e-01  1.803962289580174e-18

-1.044897185099474e-17 -3.693613907081407e-20 -1.013435358525881e+00
-3.693613907081407e-20 -4.509581751464041e-18  4.259182478898794e-01
-1.013435358525881e+00  4.259182478898794e-01  1.494183203804456e-18

-1.248095043326026e-17 -4.470130060269206e-20 -1.014568158671605e+00
-4.470130060269206e-20 -5.691285085526414e-18  4.260524246580128e-01
-1.014568158671605e+00  4.260524246580128e-01  8.797768062446375e-19

-1.450282357790507e-17 -4.817338267675469e-20 -1.019455825033146e+00
-4.817338267675469e-20 -6.731542124273126e-18  4.222487204761950e-01
-1.019455825033146e+00  4.222487204761950e-01  4.361814559385648e-19

-1.675908172627105e-17 -6.876473905655754e-20 -1.017338162476082e+00
-6.876473905655754e-20 -8.095097494399591e-18  4.281165788975519e-01
-1.017338162476082e+00  4.281165788975519e-01 -4.662997612543236e-19

-1.988590737608847e-17 -8.165997231701402e-20 -1.008357975011653e+00
-8.165997231701402e-20 -9.732109480948434e-18  4.313825575899531e-01
-1.008357975011653e+00  4.313825575899531e-01 -2.056301311703059e-18

-2.359882235368489e-17 -1.061476202154209e-19 -1.004871893730684e+00
-1.061476202154209e-19 -1.080193324385289e-17  4.140798633628851e-01
-1.004871893730684e+00  4.140798633628851e-01 -3.391617568297340e-18

-2.565137624891421e-17 -1.702696065766717e-19 -1.029000249025419e+00
-1.702696065766717e-19 -1.160500822438684e-17  4.073054672152003e-01
-1.029000249025419e+00  4.073054672152003e-01 -2.709596634399012e-18

-2.872578444948750e-17 -2.689681512274327e-19 -1.027469257671679e+00
-2.689681512274327e-19 -1.397337164356133e-17  4.394954365691148e-01
-1.027469257671679e+00  4.394954365691148e-01 -4.327631533045510e-18

-3.474345674444613e-17 -3.939135919417002e-19 -1.024320476896817e+00
-3.939135919417002e-19 -1.569755800734652e-17  4.239757043954389e-01
-1.024320476896817e+00  4.239757043954389e-01 -6.464410381625127e-18

-4.256221073220776e-17 -6.219262763412130e-19 -1.016012740932364e+00
-6.219262763412130e-19 -1.824988032222363e-17  4.189438167902557e-01
-1.016012740932364e+00  4.189438167902557e-01 -9.571922480533008e-18

-5.265630972089447e-17 -1.126506664361082e-18 -1.031959400785108e+00
-1.126506664361082e-18 -2.170703793688686e-17  4.293535429812780e-01
-1.031959400785108e+00  4.293535429812780e-01 -1.225274998826476e-17

-6.111658026217151e-17 -1.526357816518673e-18 -9.949928473035352e-01
-1.526357816518673e-18 -2.485677627166646e-17  4.559816817473853e-01
-9.949928473035352e-01  4.559816817473853e-01 -1.739540734426226e-17

-6.850364029479791e-17 -1.887742370904011e-18 -9.993915654359715e-01
-1.887742370904011e-18 -2.517626142629781e-17  4.185413525948860e-01
-9.993915654359715e-01  4.185413525948860e-01 -1.933424518990908e-17

-8.291492496809875e-17 -3.035379342516228e-18 -9.999574164910722e-01
-3.035379342516228e-18 -2.811725468863271e-17  4.270997968240873e-01
-9.999574164910722e-01  4.270997968240873e-01 -2.439342974640519e-17

-9.858671764196856e-17 -4.602109432347222e-18 -1.012747909217325e+00
-4.602109432347222e-18 -3.070631270831960e-17  4.390129546690738e-01
-1.012747909217325e+00  4.390129546690738e-01 -2.943664448109616e-17

-1.085793497813561e-16 -9.136426146968318e-18 -1.020907378297423e+00
-9.136426146968318e-18 -1.584711320017720e-17  4.235992999847686e-01
-1.020907378297423e+00  4.235992999847686e-01 -4.130383953153818e-17

-1.515951941371076e-16 -1.738060328653317e-17 -1.014485030555091e+00
-1.738060328653317e-17 -1.473897868639956e-17  4.178913084904936e-01
-1.014485030555091e+00  4.178913084904936e-01 -5.847668200059810e-17

-2.094753617640124e-16 -2.283532475417981e-17 -1.015480598130157e+00
-2.283532475417981e-17 -2.944939205786595e-17  4.207318060731735e-01
-1.015480598130157e+00  4.207318060731735e-01 -6.858894643302393e-17

-2.658791120483098e-16 -3.670332559255120e-17 -1.014917275430766e+00
-3.670332559255120e-17 -2.212468737821306e-17  4.281419124326942e-01
-1.014917275430766e+00  4.281419124326942e-01 -8.919696293793811e-17

-3.627987563254702e-16 -6.485515075844796e-17 -1.007618348448700e+00
-6.485515075844796e-17  2.655384926549885e-17  4.315515812489281e-01
-1.007618348448700e+00  4.315515812489281e-01 -1.340618637957695e-16

-4.358317995057709e-16 -9.510490197277101e-17 -1.001379266618689e+00
-9.510490197277101e-17  1.884003717949652e-17  4.412185036908069e-01
-1.001379266618689e+00  4.412185036908069e-01 -1.542108993285012e-16

-4.991529890490876e-16 -1.252225434623875e-16 -1.022699343483211e+00
-1.252225434623875e-16  4.108167593671930e-17  4.150810850515110e-01
-1.022699343483211e+00  4.150810850515110e-01 -1.780744419480756e-16

-6.517940970084627e-16 -2.038318386336025e-16 -1.012020575661480e+00
-2.038318386336025e-16  9.741772443757469e-17  4.245260518746531e-01
-1.012020575661480e+00  4.245260518746531e-01 -2.406205601233307e-16

-9.035252638626929e-16 -3.736919392406860e-16 -1.013057159782331e+00
-3.736919392406860e-16  2.106413387216640e-16  4.244527494567879e-01
-1.013057159782331e+00  4.244527494567879e-01 -3.504794336442235e-16

-1.170328915607829e-15 -6.316130055412253e-16 -1.012673542603447e+00
-6.316130055412253e-16  4.232360062950100e-16  4.244874013510808e-01
-1.012673542603447e+00  4.244874013510808e-01 -5.031720619727957e-16

-1.633973171298778e-15 -1.132832839328395e-15 -1.012734866012637e+00
-1.132832839328395e-15  5.934990382388205e-16  4.209314800322195e-01
-1.012734866012637e+00  4.209314800322195e-01 -7.344046874421667e-16

-2.035510903835956e-15 -1.720194948296414e-15 -1.012220174839282e+00
-1.720194948296414e-15  8.048652037626565e-16  4.235621872686974e-01
-1.012220174839282e+00  4.235621872686974e-01 -9.955402989220160e-16

-2.676245774158259e-15 -2.915384956995774e-15 -1.013553446934430e+00
-2.915384956995774e-15  1.072361217166573e-15  4.246059643974944e-01
-1.013553446934430e+00  4.246059643974944e-01 -1.506719042359827e-15

-4.319155238466202e-15 -6.650719423051458e-15 -1.009166443843496e+00
-6.650719423051458e-15  9.013436589474875e-16  4.228524243720346e-01
-1.009166443843496e+00  4.228524243720346e-01 -3.276099134213587e-15

-8.569817887766416e-15 -1.168535076133273e-14 -1.006032451582976e+00
-1.168535076133273e-14 -8.661493512302378e-16  4.232615903586083e-01
-1.006032451582976e+00  4.232615903586083e-01 -7.299494071645748e-15

-1.053194082908806e-14 -8.192726120339681e-15 -1.006978303583960e+00
-8.192726120339681e-15  8.669704654450164e-15  4.213495672499307e-01
-1.006978303583960e+00  4.213495672499307e-01 -1.272994927999627e-14

 1.195704238737725e-13  3.144944318078690e-14 -1.011123390754065e+00
 3.144944318078690e-14  7.540884803530608e-14  4.195112558982491e-01
-1.011123390754065e+00  4.195112558982491e-01  2.824454373250278e-14

-6.174554932743305e-13 -1.396826804303350e-13 -1.013981769563675e+00
-1.396826804303350e-13 -3.056042172959355e-13  4.226445496574890e-01
-1.013981769563675e+00  4.226445496574890e-01 -1.537539238078307e-13

-1.066916886292444e-14  1.757378264332854e-14 -1.016070807629185e+00
 1.757378264332854e-14  2.099692852746820e-14  4.264352153618094e-01
-1.016070807629185e+00  4.264352153618094e-01 -1.004674739005664e-14

-6.502074413727846e-13 -1.376837786338947e-13 -1.017698857438902e+00
-1.376837786338947e-13 -3.062951252149318e-13  4.291327252330407e-01
-1.017698857438902e+00  4.291327252330407e-01 -1.656745024580559e-13

-1.551794273786947e-14  1.319696657523451e-16 -1.009488182303204e+00
 1.319696657523451e-16 -3.138122262263846e-15  4.236243893310601e-01
-1.009488182303204e+00  4.236243893310601e-01 -6.808289233917365e-15

-9.394750603066196e-15 -8.897482705546903e-16 -1.011205340988153e+00
-8.897482705546903e-16 -2.705605960074407e-15  4.260141237775935e-01
-1.011205340988153e+00  4.260141237775935e-01 -3.697235952854122e-15

-6.958410146729609e-15 -1.176502536005783e-15 -1.011252198118883e+00
-1.176502536005783e-15 -2.361489524065093e-15  4.297050855464766e-01
-1.011252198118883e+00  4.297050855464766e-01 -2.518242054078389e-15

-4.293726131489561e-15 -1.213030363967057e-15 -1.015172386407432e+00
-1.213030363967057e-15 -1.929838893836253e-15  4.331407116804504e-01
-1.015172386407432e+00  4.331407116804504e-01 -1.401898948774935e-15

-2.955517396192824e-15 -1.065056124869678e-15 -1.002289484046612e+00
-1.065056124869678e-15 -1.634268260941540e-15  4.395621102505731e-01
-1.002289484046612e+00  4.395621102505731e-01 -9.172449455259564e-16

-2.241686213325571e-15 -9.247804243044956e-16 -1.007996931919374e+00
-9.247804243044956e-16 -1.406851326982346e-15  4.212309315786263e-01
-1.007996931919374e+00  4.212309315786263e-01 -7.056406464710213e-16

-1.370243860621988e-15 -6.625335033582130e-16 -9.899057694038711e-01
-6.625335033582130e-16 -1.107131250813300e-15  4.242120300255148e-01
-9.899057694038711e-01  4.242120300255148e-01 -4.066338475492924e-16

-8.331516796126426e-16 -4.301713637925630e-16 -1.044997958491973e+00
-4.301713637925630e-16 -8.814335517988795e-16  4.417050550819007e-01
-1.044997958491973e+00  4.417050550819007e-01 -2.451110257568768e-16

-5.855175867036806e-16 -3.138889340341585e-16 -1.056772832415379e+00
-3.138889340341585e-16 -7.020833803208072e-16  4.410988022276864e-01
-1.056772832415379e+00  4.410988022276864e-01 -1.724818376219894e-16

-4.102005841431774e-16 -2.268642528171391e-16 -1.011899242495923e+00
-2.268642528171391e-16 -5.171603566336244e-16  4.134693741942643e-01
-1.011899242495923e+00  4.134693741942643e-01 -1.225583158533021e-16

-3.124070356422829e-16 -1.726865248421995e-16 -1.011391110010335e+00
-1.726865248421995e-16 -4.208908882657705e-16  4.217855186754632e-01
-1.011391110010335e+00  4.217855186754632e-01 -9.340371315541178e-17

-2.632990976555879e-16 -1.441708490188452e-16 -1.006281758341004e+00
-1.441708490188452e-16 -3.755461149550416e-16  4.383164574872964e-01
-1.006281758341004e+00  4.383164574872964e-01 -7.923027862672710e-17

-2.264756710999523e-16 -1.230772041221013e-16 -1.012582355536954e+00
-1.230772041221013e-16 -3.269992439050340e-16  4.336081740227765e-01
-1.012582355536954e+00  4.336081740227765e-01 -6.765541206612475e-17

-1.889733184856429e-16 -1.015847895727915e-16 -1.017704774629574e+00
-1.015847895727915e-16 -2.853542433301367e-16  4.271297411660422e-01
-1.017704774629574e+00  4.271297411660422e-01 -5.582534648699860e-17

-1.565722384808539e-16 -8.280524606289294e-17 -1.017448409909381e+00
-8.280524606289294e-17 -2.459252386314674e-16  4.278484218427503e-01
-1.017448409909381e+00  4.278484218427503e-01 -4.585126287322038e-17

-1.327745372458597e-16 -6.921517230163777e-17 -1.018860237769822e+00
-6.921517230163777e-17 -2.124961967230470e-16  4.274012336286215e-01
-1.018860237769822e+00  4.274012336286215e-01 -3.836077369246241e-17

-1.128078006294985e-16 -5.777681524408811e-17 -1.017783735516876e+00
-5.777681524408811e-17 -1.887483034530447e-16  4.289045292233999e-01
-1.017783735516876e+00  4.289045292233999e-01 -3.211740735807869e-17

-9.546010106487004e-17 -4.817513568667315e-17 -1.019938685347918e+00
-4.817513568667315e-17 -1.570269520403800e-16  4.276613764344516e-01
-1.019938685347918e+00  4.276613764344516e-01 -2.648919836766241e-17

-8.251242894109313e-17 -4.098350364445609e-17 -1.019200069253212e+00
-4.098350364445609e-17 -1.393749740993583e-16  4.302722272346862e-01
-1.019200069253212e+00  4.302722272346862e-01 -2.238711658109353e-17

-7.181176844147406e-17 -3.520852514044484e-17 -1.020693689597278e+00
-3.520852514044484e-17 -1.248613458563241e-16  4.285806088196030e-01
-1.020693689597278e+00  4.285806088196030e-01 -1.885115064324679e-17

-6.356413823921604e-17 -3.079672042346953e-17 -1.018278505188930e+00
-3.079672042346953e-17 -1.113346973963477e-16  4.301707286078026e-01
-1.018278505188930e+00  4.301707286078026e-01 -1.631395924700217e-17

-5.483648545497313e-17 -2.633716734988404e-17 -1.023830404508033e+00
-2.633716734988404e-17 -9.655992621199611e-17  4.246339605133423e-01
-1.023830404508033e+00  4.246339605133423e-01 -1.312203699102058e-17

-4.821846396689526e-17 -2.286337592970197e-17 -1.023333694980224e+00
-2.286337592970197e-17 -8.568151231539670e-17  4.326767454043078e-01
-1.023333694980224e+00  4.326767454043078e-01 -1.109008246709437e-17

-3.963025894668652e-17 -1.863841636490503e-17 -1.024207729206983e+00
-1.863841636490503e-17 -7.148129395067325e-17  4.287643730450486e-01
-1.024207729206983e+00  4.287643730450486e-01 -8.183671350887700e-18

-3.048836029394323e-17 -1.432334610678327e-17 -1.034802894425976e+00
-1.432334610678327e-17 -5.710280961701106e-17  4.250920931772651e-01
-1.034802894425976e+00  4.250920931772651e-01 -4.626498078233741e-18

-2.419500033232356e-17 -1.144434202440433e-17 -1.045776735222033e+00
-1.144434202440433e-17 -4.787098130664771e-17  4.409455736022921e-01
-1.045776735222033e+00  4.409455736022921e-01 -2.112187478127703e-18

-2.240808720175146e-17 -1.040917220972251e-17 -1.016582405094851e+00
-1.040917220972251e-17 -4.440039644124215e-17  4.582130270016785e-01
-1.016582405094851e+00  4.582130270016785e-01 -3.280968929493045e-18

-1.997075276095529e-17 -9.695219426740581e-18 -1.032787461735288e+00
-9.695219426740581e-18 -3.953241658154381e-17  4.178423771411247e-01
-1.032787461735288e+00  4.178423771411247e-01 -1.073865795110461e-18

-1.645055480883893e-17 -8.171421193346528e-18 -1.023634793736729e+00
-8.171421193346528e-18 -3.466666350527068e-17  4.331801667756442e-01
-1.023634793736729e+00  4.331801667756442e-01 -4.300744745971997e-19

-1.357245804728449e-17 -7.045242939586882e-18 -1.027757371472778e+00
-7.045242939586882e-18 -3.007468142915433e-17  4.327936176921713e-01
-1.027757371472778e+00  4.327936176921713e-01  7.794430721118128e-19

-1.154048330124661e-17 -6.223760186401977e-18 -1.023434008502674e+00
-6.223760186401977e-18 -2.709529089222132e-17  4.317838598783919e-01
-1.023434008502674e+00  4.317838598783919e-01  1.215487485924132e-18

-1.022913534719832e-17 -5.737592364285530e-18 -1.022586371175550e+00
-5.737592364285530e-18 -2.134950763902984e-17  4.380480994165551e-01
-1.022586371175550e+00  4.380480994165551e-01  1.536235484096327e-18

-8.609508998596950e-18 -5.241660409963335e-18 -1.035338488015823e+00
-5.241660409963335e-18 -1.961668633110696e-17  4.279070931867597e-01
-1.035338488015823e+00  4.279070931867597e-01  2.864582507204148e-18

-6.665707676973495e-18 -4.522300023450019e-18 -1.036422336565925e+00
-4.522300023450019e-18 -1.730280891850285e-17  4.280445009963710e-01
-1.036422336565925e+00  4.280445009963710e-01  3.540965875109719e-18

-5.509336619740172e-18 -4.022140123041923e-18 -1.025054472295794e+00
-4.022140123041923e-18 -1.369633287750373e-17  4.430658240290754e-01
-1.025054472295794e+00  4.430658240290754e-01  3.125985393493033e-18

-5.091632834616727e-18 -3.822656575473845e-18 -1.018013606769094e+00
-3.822656575473845e-18 -1.369493293569800e-17  4.496495488463428e-01
-1.018013606769094e+00  4.496495488463428e-01  2.839105930615383e-18

-3.891618481415651e-18 -3.646266308357832e-18 -1.042753656469579e+00
-3.646266308357832e-18 -1.105728858740314e-17  4.226657751247716e-01
-1.042753656469579e+00  4.226657751247716e-01  4.961772758948781e-18

-3.156297812764604e-18 -3.290601436298039e-18 -1.030133956178808e+00
-3.290601436298039e-18 -1.149133767779208e-17  4.307921070144652e-01
-1.030133956178808e+00  4.307921070144652e-01  4.469100384734957e-18

-2.364843772626947e-18 -3.072651825897678e-18 -1.029559927724065e+00
-3.072651825897678e-18 -7.790531285701131e-18  4.296911629893679e-01
-1.029559927724065e+00  4.296911629893679e-01  4.751884574763158e-18

-1.641272965044503e-18 -2.829274350194139e-18 -1.026956646623037e+00
-2.829274350194139e-18 -7.435055235306931e-18  4.312611658498056e-01
-1.026956646623037e+00  4.312611658498056e-01  4.900812677362795e-18

-8.194220395840852e-19 -2.558208495020002e-18 -1.024296657475754e+00
-2.558208495020002e-18 -6.080538599136277e-18  4.343948248771937e-01
-1.024296657475754e+00  4.343948248771937e-01  5.056218045870513e-18

-3.698165141517263e-19 -2.392947561228939e-18 -1.021479287194775e+00
-2.392947561228939e-18 -6.971911757336162e-18  4.344875150469557e-01
-1.021479287194775e+00  4.344875150469557e-01  5.065038076210386e-18

 1.750563257746061e-19 -2.237131281266693e-18 -1.021131356437784e+00
-2.237131281266693e-18 -5.181145326528861e-18  4.303945975333263e-01
-1.021131356437784e+00  4.303945975333263e-01  5.288892527939083e-18

 9.142072480476525e-19 -1.983495767431861e-18 -1.021857731162811e+00
-1.983495767431861e-18 -7.032782996981941e-18  4.307939670698252e-01
-1.021857731162811e+00  4.307939670698252e-01  5.581282731454798e-18

 1.451238365180620e-18 -1.839260042438587e-18 -1.021830539585830e+00
-1.839260042438587e-18 -5.366413493522416e-18  4.346577932575038e-01
-1.021830539585830e+00  4.346577932575038e-01  5.742642370237532e-18

 1.984943189616430e-18 -1.669378306532652e-18 -1.022379548873860e+00
-1.669378306532652e-18 -6.182582925754031e-18  4.331662550692865e-01
-1.022379548873860e+00  4.331662550692865e-01  5.958576749753880e-18

 2.392991999718882e-18 -1.591685177259587e-18 -1.021481767095799e+00
-1.591685177259587e-18 -2.413967610526923e-18  4.307139110629745e-01
-1.021481767095799e+00  4.307139110629745e-01  6.092129719021951e-18

 2.856940538399207e-18 -1.481366502791797e-18 -1.019523708248701e+00
-1.481366502791797e-18  3.162604158769586e-19  4.315837800076789e-01
-1.019523708248701e+00  4.315837800076789e-01  6.156949238798794e-18

 3.370906579947825e-18 -1.338971393470804e-18 -1.019761900820524e+00
-1.338971393470804e-18  1.138655958061005e-18  4.319312611485118e-01
-1.019761900820524e+00  4.319312611485118e-01  6.361988500406389e-18

 3.851007692403411e-18 -1.208662155457573e-18 -1.019987229402274e+00
-1.208662155457573e-18  1.485142090366924e-18  4.320026128114737e-01
-1.019987229402274e+00  4.320026128114737e-01  6.519906079869381e-18

 4.237800615932056e-18 -1.056319246324492e-18 -1.019418683605987e+00
-1.056319246324492e-18 -1.675609470459865e-18  4.315940991770001e-01
-1.019418683605987e+00  4.315940991770001e-01  6.629839113809360e-18

 4.552999852696289e-18 -1.087817883158014e-18 -1.019383703370011e+00
-1.087817883158014e-18  7.287740685480974e-18  4.317456652108888e-01
-1.019383703370011e+00  4.317456652108888e-01  6.722195618755610e-18

 4.950659260328009e-18 -8.954262722189202e-19 -1.018536350189733e+00
-8.954262722189202e-19  1.313916331733535e-18  4.316163913901346e-01
-1.018536350189733e+00  4.316163913901346e-01  6.830789420935557e-18

 5.370944914025628e-18 -7.882329746325381e-19 -1.018531578157594e+00
-7.882329746325381e-19  1.789030554686538e-18  4.311903361608365e-01
-1.018531578157594e+00  4.311903361608365e-01  6.964973809047984e-18

 5.783878995820396e-18 -7.314757389696406e-19 -1.019137158267373e+00
-7.314757389696406e-19  5.378869509257751e-18  4.314132975542406e-01
-1.019137158267373e+00  4.314132975542406e-01  7.149786233811213e-18

 6.090071577554199e-18 -6.614229663019619e-19 -1.015569680805821e+00
-6.614229663019619e-19  7.097099412506770e-18  4.332926391517543e-01
-1.015569680805821e+00  4.332926391517543e-01  7.059086456871316e-18

 6.293798434939614e-18 -6.054035823811251e-19 -1.014421341006127e+00
-6.054035823811251e-19  7.715330234324756e-18  4.256597547476771e-01
-1.014421341006127e+00  4.256597547476771e-01  7.150186467073262e-18

 6.518538486483677e-18 -6.372465619421977e-19 -1.016342765162727e+00
-6.372465619421977e-19  1.337469544737757e-17  4.329652931626631e-01
-1.016342765162727e+00  4.329652931626631e-01  7.206614112878621e-18

 6.755049058797359e-18 -4.909966444206311e-19 -1.018380348001747e+00
-4.909966444206311e-19  5.908237491832794e-18  4.349751217022639e-01
-1.018380348001747e+00  4.349751217022639e-01  7.389213849205432e-18

 6.986445338293918e-18 -4.478358282120281e-19 -1.015695631398578e+00
-4.478358282120281e-19  8.199539895907704e-18  4.308676185189373e-01
-1.015695631398578e+00  4.308676185189373e-01  7.329815822112648e-18

 7.218300292743399e-18 -4.036054239870166e-19 -1.017846359938665e+00
-4.036054239870166e-19  7.723045969774747e-18  4.314390998679613e-01
-1.017846359938665e+00  4.314390998679613e-01  7.503228526449057e-18

 7.362591068727016e-18 -4.250374040728164e-19 -1.019439965892569e+00
-4.250374040728164e-19  1.145711840060101e-17  4.321368087931065e-01
-1.019439965892569e+00  4.321368087931065e-01  7.616137727075970e-18

 7.461366747793550e-18 -3.924602624697571e-19 -1.017409506999718e+00
-3.924602624697571e-19  1.150905215256471e-17  4.362651558099394e-01
-1.017409506999718e+00  4.362651558099394e-01  7.515378289929627e-18

 7.595025452288944e-18 -2.049733509850092e-19 -1.016028311589697e+00
-2.049733509850092e-19  1.340330645021085e-18  4.236454863113239e-01
-1.016028311589697e+00  4.236454863113239e-01  7.589321088315587e-18

 7.866157421375860e-18 -3.727278826888323e-19 -1.021978987495525e+00
-3.727278826888323e-19  1.460974952317046e-17  4.205782758857849e-01
-1.021978987495525e+00  4.205782758857849e-01  8.011257971019653e-18

 7.614981724858679e-18 -2.292583355938473e-19 -1.010367993965012e+00
-2.292583355938473e-19  5.411232893926811e-18  4.441706609703389e-01
-1.010367993965012e+00  4.441706609703389e-01  7.028648852857930e-18

 7.820037971252035e-18 -8.526206892751438e-20 -1.015208322336741e+00
-8.526206892751438e-20 -3.090219139011621e-18  4.404923663527106e-01
-1.015208322336741e+00  4.404923663527106e-01  7.371305214772582e-18

 8.087190095468527e-18 -2.679733951047924e-19 -1.022509687759231e+00
-2.679733951047924e-19  1.188781555368442e-17  4.239239108963457e-01
-1.022509687759231e+00  4.239239108963457e-01  7.997312276238751e-18

 8.166515349501591e-18 -1.101626046708697e-19 -1.023053212784542e+00
-1.101626046708697e-19  2.013285354697576e-18  4.211119375990611e-01
-1.023053212784542e+00  4.211119375990611e-01  8.067199717463162e-18

 8.097724697607276e-18 -5.771450464075747e-20 -1.017885135752922e+00
-5.771450464075747e-20 -8.160145962539270e-19  4.336437407971819e-01
-1.017885135752922e+00  4.336437407971819e-01  7.584762430213957e-18

 8.433334066653716e-18 -2.964958238662414e-19 -1.026216726824650e+00
-2.964958238662414e-19  1.815975834897108e-17  4.288381633391410e-01
-1.026216726824650e+00  4.288381633391410e-01  8.160249855852622e-18

 8.682351707367503e-18 -3.238102862415569e-19 -1.032950302597981e+00
-3.238102862415569e-19  2.214913361205991e-17  4.243946978138413e-01
-1.032950302597981e+00  4.243946978138413e-01  8.625112287815395e-18

 8.952665569064570e-18 -3.633891401555704e-19 -1.039306616120921e+00
-3.633891401555704e-19  2.563726000194214e-17  4.318643502663627e-01
-1.039306616120921e+00  4.318643502663627e-01  9.124477172881602e-18

 8.345086808618621e-18 -2.407368265732494e-19 -1.006071747418143e+00
-2.407368265732494e-19  1.254551903406397e-17  4.665096996134719e-01
-1.006071747418143e+00  4.665096996134719e-01  7.070096763266356e-18

 7.598546803423657e-18 -6.619092148547143e-21 -9.682814482661071e-01
-6.619092148547143e-21  6.468039471396707e-18  4.199759616777796e-01
-9.682814482661071e-01  4.199759616777796e-01  5.278381120202632e-18

 8.092331847267469e-18 -2.918258893552615e-19 -9.795177908814228e-01
-2.918258893552615e-19  1.431510329841730e-17  4.031677959580465e-01
-9.795177908814228e-01  4.031677959580465e-01  6.418989519732993e-18

 7.950305923237998e-18  1.324009882392919e-19 -9.883257416167091e-01
 1.324009882392919e-19  1.034355074932796e-17  5.237657392236251e-01
-9.883257416167091e-01  5.237657392236251e-01  4.733456622190979e-18

 8.438715193137296e-18 -6.284909198598655e-21 -1.004012498256907e+00
-6.284909198598655e-21  7.461537899413623e-18  5.237618027082369e-01
-1.004012498256907e+00  5.237618027082369e-01  5.909794689404095e-18

 9.601560476684786e-18 -4.574583298927750e-20 -1.043858178525096e+00
-4.574583298927750e-20  1.236852820520452e-17  4.161649429476073e-01
-1.043858178525096e+00  4.161649429476073e-01  9.825255514317599e-18

 8.535200491165576e-18 -4.561475134373821e-19 -9.923613508950143e-01
-4.561475134373821e-19  4.214926177022482e-17  3.906621779098108e-01
-9.923613508950143e-01  3.906621779098108e-01  7.039208616844546e-18

 8.772917102666207e-18  7.194011080755619e-21 -9.981784527875404e-01
 7.194011080755619e-21  6.539749658349568e-18  3.954693687674535e-01
-9.981784527875404e-01  3.954693687674535e-01  7.557938083893325e-18

 8.928956956689324e-18 -2.666737706389536e-19 -1.009129576086285e+00
-2.666737706389536e-19  3.106594785039480e-17  4.537078694531422e-01
-1.009129576086285e+00  4.537078694531422e-01  7.259589381249176e-18

 9.773084179967106e-18 -3.159625205316974e-19 -1.043421377045162e+00
-3.159625205316974e-19  3.247729711249803e-17  4.281660043693274e-01
-1.043421377045162e+00  4.281660043693274e-01  9.496591899367803e-18

 9.758802272860294e-18  1.022401536008808e-19 -1.040436225007188e+00
 1.022401536008808e-19  3.798067617140692e-18  4.311608939879881e-01
-1.040436225007188e+00  4.311608939879881e-01  9.228525829305414e-18

 9.484076340954163e-18 -2.028804352798745e-19 -1.025184721089209e+00
-2.028804352798745e-19  2.615656081573635e-17  4.214664285407439e-01
-1.025184721089209e+00  4.214664285407439e-01  8.421041137807646e-18

 9.357680926648700e-18 -1.209930737798918e-19 -1.016507077163398e+00
-1.209930737798918e-19  2.103844362961499e-17  4.204857061510527e-01
-1.016507077163398e+00  4.204857061510527e-01  7.984871405277409e-18

 9.505767471634276e-18  1.724323713103643e-19 -1.021043868661557e+00
 1.724323713103643e-19  1.167069041525324e-18  4.352355744984783e-01
-1.021043868661557e+00  4.352355744984783e-01  8.129866591467860e-18

 9.160696424991861e-18 -1.092891359316601e-19 -1.006115830622524e+00
-1.092891359316601e-19  1.967891301932578e-17  4.523309927486875e-01
-1.006115830622524e+00  4.523309927486875e-01  6.979497532944832e-18

 9.790011943468955e-18  2.578143340280209e-19 -1.030476488174838e+00
 2.578143340280209e-19 -3.155398577276922e-18  4.243878331247654e-01
-1.030476488174838e+00  4.243878331247654e-01  8.901030987267874e-18

 1.015581474550674e-17  2.771901316715738e-21 -1.044666155284252e+00
 2.771901316715738e-21  1.443696103507392e-17  4.085876740851632e-01
-1.044666155284252e+00  4.085876740851632e-01  9.963535011172162e-18

 9.451384292395437e-18 -1.349907890144796e-19 -1.014439178438039e+00
-1.349907890144796e-19  2.249335016244423e-17  4.384483732375540e-01
-1.014439178438039e+00  4.384483732375540e-01  7.730020205511301e-18

 9.434986688463237e-18  5.736106232930216e-20 -1.013179258088398e+00
 5.736106232930216e-20  9.329248676155634e-18  4.419106513546316e-01
-1.013179258088398e+00  4.419106513546316e-01  7.617235673640336e-18

 9.870540054168896e-18  6.297013828750389e-19 -1.029146374433182e+00
 6.297013828750389e-19 -2.653992081729507e-17  4.143619232016484e-01
-1.029146374433182e+00  4.143619232016484e-01  8.972595532726184e-18

 9.877036455293190e-18  7.423118821319840e-20 -1.027370957765709e+00
 7.423118821319840e-20  1.005002271568278e-17  4.152238499810527e-01
-1.027370957765709e+00  4.152238499810527e-01  8.896942130848502e-18

 9.656594923362814e-18  3.720324071720281e-19 -1.017374813814482e+00
 3.720324071720281e-19 -9.688132845833534e-18  4.345148096569362e-01
-1.017374813814482e+00  4.345148096569362e-01  8.046466703212293e-18

 9.825060473423127e-18  3.747176026427528e-19 -1.022576406997188e+00
 3.747176026427528e-19 -9.430160679881904e-18  4.293348733337565e-01
-1.022576406997188e+00  4.293348733337565e-01  8.460388571664516e-18

 9.798671600543508e-18  1.030906308125694e-19 -1.018069564866947e+00
 1.030906308125694e-19  8.829118877828830e-18  4.291500167112968e-01
-1.018069564866947e+00  4.291500167112968e-01  8.236701783058610e-18

 9.756199004854938e-18 -3.024177674680381e-19 -1.012720531098839e+00
-3.024177674680381e-19  3.534565329605895e-17  4.289632183179433e-01
-1.012720531098839e+00  4.289632183179433e-01  7.974689823743034e-18

 9.796796238104365e-18 -2.988590195795880e-19 -1.012906828561419e+00
-2.988590195795880e-19  3.545091963118067e-17  4.264228814337697e-01
-1.012906828561419e+00  4.264228814337697e-01  8.043992189428777e-18

 9.863017218911145e-18  8.372391127082553e-19 -1.015000954248374e+00
 8.372391127082553e-19 -3.666568021159684e-17  4.301432051714110e-01
-1.015000954248374e+00  4.301432051714110e-01  8.129930680303937e-18

 9.941556791530714e-18 -2.359759886170719e-19 -1.015787563194500e+00
-2.359759886170719e-19  3.163916525932928e-17  4.318431734741412e-01
-1.015787563194500e+00  4.318431734741412e-01  8.194104911083812e-18

 9.930566076537385e-18 -3.535180777486720e-19 -1.013041929818384e+00
-3.535180777486720e-19  3.974319780796254e-17  4.251151638801942e-01
-1.013041929818384e+00  4.251151638801942e-01  8.109780712693958e-18

 9.956998650440263e-18  4.301998877294423e-19 -1.012945773774362e+00
 4.301998877294423e-19 -9.236941827049933e-18  4.268923301375933e-01
-1.012945773774362e+00  4.268923301375933e-01  8.090242211305864e-18

 9.943677716687421e-18 -5.698031305401887e-19 -1.010510619129182e+00
-5.698031305401887e-19  5.333826703699127e-17  4.314928647950799e-01
-1.010510619129182e+00  4.314928647950799e-01  7.921323889054402e-18

 1.003063254720382e-17 -5.680058069351518e-19 -1.013088586552136e+00
-5.680058069351518e-19  5.368526799329198e-17  4.233771433312169e-01
-1.013088586552136e+00  4.233771433312169e-01  8.142129681035306e-18

 1.029174357768338e-17 -1.920640503580392e-19 -1.023099685361445e+00
-1.920640503580392e-19  3.068475383804393e-17  4.304323937463797e-01
-1.023099685361445e+00  4.304323937463797e-01  8.662892810728755e-18

 1.032537027485483e-17  6.529780622118882e-19 -1.023397811966084e+00
 6.529780622118882e-19 -2.182297969174128e-17  4.261087000852494e-01
-1.023397811966084e+00  4.261087000852494e-01  8.727254032412906e-18

 1.038298138379359e-17  2.589346330980393e-19 -1.023246300668853e+00
 2.589346330980393e-19  3.372691688796388e-18  4.192609630050121e-01
-1.023246300668853e+00  4.192609630050121e-01  8.901600856457870e-18

 9.657648355347955e-18 -5.220894234998858e-19 -9.908698205306019e-01
-5.220894234998858e-19  4.861777989083663e-17  4.631342864770466e-01
-9.908698205306019e-01  4.631342864770466e-01  6.498415961998919e-18

 1.000594615075448e-17 -3.668278163814010e-19 -1.003392329772227e+00
-3.668278163814010e-19  4.140993033605785e-17  4.298190239689760e-01
-1.003392329772227e+00  4.298190239689760e-01  7.764996549670047e-18

 9.666697889102851e-18 -2.172806592007448e-19 -9.852103383225248e-01
-2.172806592007448e-19  3.250639867637001e-17  4.285390087752207e-01
-9.852103383225248e-01  4.285390087752207e-01  6.771714859171371e-18

 9.738641846959720e-18  9.322753191520167e-20 -9.888788993392353e-01
 9.322753191520167e-20  1.331086616058512e-17  4.407801778519272e-01
-9.888788993392353e-01  4.407801778519272e-01  6.863758403842848e-18

 9.653002162141668e-18  3.741839968323616e-19 -9.873160304837438e-01
 3.741839968323616e-19 -4.878452420270170e-18  4.309619077793214e-01
-9.873160304837438e-01  4.309619077793214e-01  6.574690275808342e-18

 1.064980658773104e-17  3.412879076311034e-19 -1.034970045663008e+00
 3.412879076311034e-19 -1.873710348438345e-20  4.352168427562806e-01
-1.034970045663008e+00  4.352168427562806e-01  8.877624375750999e-18

 1.135143294875703e-17  3.323689413634007e-19 -1.069454963219601e+00
 3.323689413634007e-19  8.817363893133406e-19  4.354878877079408e-01
-1.069454963219601e+00  4.354878877079408e-01  1.050284048025821e-17

 1.094717083457442e-17 -4.509911417158655e-19 -1.052827908419104e+00
-4.509911417158655e-19  4.836246640382957e-17  4.259490250887678e-01
-1.052827908419104e+00  4.259490250887678e-01  9.264380523516699e-18

 1.169252953653752e-17  3.526527000571170e-19 -1.086950666082155e+00
 3.526527000571170e-19 -6.508481402977271e-19  4.300990446687277e-01
-1.086950666082155e+00  4.300990446687277e-01  1.115645626290094e-17

 1.033850068378510e-17 -4.099743731510663e-20 -1.033763520992735e+00
-4.099743731510663e-20  2.183401241444289e-17  5.040783745511782e-01
-1.033763520992735e+00  5.040783745511782e-01  6.750223272448451e-18

 1.026522974857485e-17  1.237195638891396e-19 -1.029974251201611e+00
 1.237195638891396e-19  1.002428109093644e-17  5.041511840782262e-01
-1.029974251201611e+00  5.041511840782262e-01  6.561752386471650e-18

 1.208401113042400e-17 -5.407277406483616e-19 -1.102495998802664e+00
-5.407277406483616e-19  5.491322334884803e-17  4.300203646626315e-01
-1.102495998802664e+00  4.300203646626315e-01  1.209429820616465e-17

 1.144392841858691e-17  1.563384716982822e-19 -1.074713150002106e+00
 1.563384716982822e-19  1.188299769174727e-17  4.288446040880425e-01
-1.074713150002106e+00  4.288446040880425e-01  1.040189339678436e-17

 1.106466973708799e-17 -3.985012816709856e-19 -1.056105553285484e+00
-3.985012816709856e-19  4.492461491292222e-17  4.350233028507165e-01
-1.056105553285484e+00  4.350233028507165e-01  9.326323222362977e-18

 1.092013262759389e-17 -5.253338224607673e-19 -1.047165566718537e+00
-5.253338224607673e-19  5.220685077337676e-17  4.362989205477523e-01
-1.047165566718537e+00  4.362989205477523e-01  8.929354147975312e-18

 1.085376279391249e-17 -5.348634751040899e-19 -1.043004856247240e+00
-5.348634751040899e-19  5.185529727529217e-17  4.434151934344215e-01
-1.043004856247240e+00  4.434151934344215e-01  8.716248689216628e-18

 1.083312831886897e-17 -1.149841818162235e-19 -1.040683694415820e+00
-1.149841818162235e-19  2.612707898073483e-17  4.456030393555394e-01
-1.040683694415820e+00  4.456030393555394e-01  8.614298761371361e-18

 1.074885134807525e-17  6.597360659750123e-19 -1.036044478190898e+00
 6.597360659750123e-19 -1.878848526992276e-17  4.397722798651252e-01
-1.036044478190898e+00  4.397722798651252e-01  8.414499334752453e-18

 1.074279050968749e-17 -1.243007111069328e-18 -1.032653702931524e+00
-1.243007111069328e-18  9.314360673218604e-17  4.380890756589563e-01
-1.032653702931524e+00  4.380890756589563e-01  8.272985900500342e-18

 1.098953270017495e-17 -3.215117132726228e-19 -1.042157456108082e+00
-3.215117132726228e-19  3.976634714912392e-17  4.358345731177408e-01
-1.042157456108082e+00  4.358345731177408e-01  8.911910427734720e-18

 1.039599588058422e-17 -1.078399151004963e-19 -1.017944846457456e+00
-1.078399151004963e-19  2.669257747080884e-17  4.593392820923710e-01
-1.017944846457456e+00  4.593392820923710e-01  7.066581888159617e-18

 1.098743090006106e-17  6.477495761938603e-20 -1.040868020384357e+00
 6.477495761938603e-20  1.762358744459579e-17  4.348885622881005e-01
-1.040868020384357e+00  4.348885622881005e-01  8.888104318143832e-18

 1.231920027132176e-17  9.013431206762714e-19 -1.095088223437362e+00
 9.013431206762714e-19 -2.899333540699703e-17  3.898662497812949e-01
-1.095088223437362e+00  3.898662497812949e-01  1.293836418014337e-17

 9.989036621922144e-18 -1.757256290367584e-20 -1.000040827166145e+00
-1.757256290367584e-20  2.163606353461797e-17  4.793610538863061e-01
-1.000040827166145e+00  4.793610538863061e-01  5.737261178045516e-18

 9.989835039684403e-18  4.329785992239326e-19 -1.000204147799181e+00
 4.329785992239326e-19 -4.901365569084197e-18  4.842594612329293e-01
-1.000204147799181e+00  4.842594612329293e-01  5.704999376299306e-18

 1.119816829002871e-17 -4.284421980896294e-19 -1.046191995456423e+00
-4.284421980896294e-19  4.754205450161272e-17  4.290288193896339e-01
-1.046191995456423e+00  4.290288193896339e-01  9.454198972787047e-18

 1.085744160555261e-17  7.935652444697512e-20 -1.029764343798544e+00
 7.935652444697512e-20  1.789342249706717e-17  4.313907571900404e-01
-1.029764343798544e+00  4.313907571900404e-01  8.521888588673050e-18

 1.079592071629613e-17 -3.826589568451914e-19 -1.023354573645051e+00
-3.826589568451914e-19  4.465253930615134e-17  4.277725937788874e-01
-1.023354573645051e+00  4.277725937788874e-01  8.373853669277921e-18

 1.076084999249073e-17 -3.868141996887516e-19 -1.019522827450797e+00
-3.868141996887516e-19  4.431595061407873e-17  4.349336939051944e-01
-1.019522827450797e+00  4.349336939051944e-01  8.259291877834721e-18

 1.067097746996379e-17 -3.848886937939985e-19 -1.013427100587928e+00
-3.848886937939985e-19  4.347678096049953e-17  4.333892287629392e-01
-1.013427100587928e+00  4.333892287629392e-01  8.007200178886706e-18

 1.087893194760104e-17 -4.105446948703877e-19 -1.021745399287139e+00
-4.105446948703877e-19  4.457862456142383e-17  4.182935725773972e-01
-1.021745399287139e+00  4.182935725773972e-01  8.627354386376747e-18

 1.082386321943322e-17  1.989526375376032e-20 -1.020626881866366e+00
 1.989526375376032e-20  2.081073702133792e-17  4.395607330080441e-01
-1.020626881866366e+00  4.395607330080441e-01  8.255000132734682e-18

 1.085255600280325e-17  4.242386521854458e-19 -1.020564224474390e+00
 4.242386521854458e-19 -1.912759246185295e-18  4.447756093328720e-01
-1.020564224474390e+00  4.447756093328720e-01  8.315015053543162e-18

 1.063542099094030e-17 -2.587632027445391e-19 -1.006706763798937e+00
-2.587632027445391e-19  3.857874386631811e-17  4.163913352555916e-01
-1.006706763798937e+00  4.163913352555916e-01  7.905557614597582e-18

 1.034321787582444e-17  4.461417665899984e-19 -9.908536208580464e-01
 4.461417665899984e-19 -5.887969726017335e-19  4.227081043196191e-01
-9.908536208580464e-01  4.227081043196191e-01  7.107829664121455e-18

 1.064749641201135e-17  1.329852685916375e-19 -1.002553791976443e+00
 1.329852685916375e-19  1.767955192065502e-17  4.312993573479108e-01
-1.002553791976443e+00  4.312993573479108e-01  7.800215846501198e-18

 1.086223377501125e-17 -3.730465313087064e-19 -1.009725221441146e+00
-3.730465313087064e-19  4.548334656265225e-17  4.252795525266714e-01
-1.009725221441146e+00  4.252795525266714e-01  8.365604802471769e-18

 1.084629930166409e-17 -6.501087540527939e-19 -1.009017309187436e+00
-6.501087540527939e-19  6.018789710467834e-17  4.223126425950833e-01
-1.009017309187436e+00  4.223126425950833e-01  8.325011780773638e-18

 1.081716744997352e-17  1.186976577672782e-19 -1.008507374017395e+00
 1.186976577672782e-19  1.726085691552122e-17  4.221429632338645e-01
-1.008507374017395e+00  4.221429632338645e-01  8.236238548790708e-18

 1.084684949319877e-17 -6.384362351070815e-20 -1.008693296478328e+00
-6.384362351070815e-20  2.729050300749138e-17  4.222733543835605e-01
-1.008693296478328e+00  4.222733543835605e-01  8.210566211188678e-18

 1.088406049153146e-17  2.549897899469002e-20 -1.010699652358228e+00
 2.549897899469002e-20  2.257202347230139e-17  4.223365236244677e-01
-1.010699652358228e+00  4.223365236244677e-01  8.287750881609616e-18

 1.091938919582138e-17  1.152225513407111e-19 -1.012162370652318e+00
 1.152225513407111e-19  1.788864118182394e-17  4.214609481836218e-01
-1.012162370652318e+00  4.214609481836218e-01  8.373857631537884e-18

 1.093417251896298e-17  2.042082606527968e-19 -1.012556308260383e+00
 2.042082606527968e-19  1.314493960263809e-17  4.220106122528252e-01
-1.012556308260383e+00  4.220106122528252e-01  8.406903090443414e-18

 1.089812640174511e-17  5.143845330896239e-20 -1.009450304628879e+00
 5.143845330896239e-20  2.174190470117618e-17  4.210035748836715e-01
-1.009450304628879e+00  4.210035748836715e-01  8.249514445100062e-18

 1.092490529104148e-17  5.219930550248010e-20 -1.009538694453984e+00
 5.219930550248010e-20  2.179460388209085e-17  4.188904032659238e-01
-1.009538694453984e+00  4.188904032659238e-01  8.296093416428485e-18

 1.101136257762934e-17  5.402647925630971e-20 -1.013337869095073e+00
 5.402647925630971e-20  2.174765976952264e-17  4.219163670344782e-01
-1.013337869095073e+00  4.219163670344782e-01  8.485853461870142e-18

 1.105722738056240e-17  9.146297344911214e-19 -1.015123727530843e+00
 9.146297344911214e-19 -2.648071407934743e-17  4.209213635449101e-01
-1.015123727530843e+00  4.209213635449101e-01  8.607938388808153e-18

 1.099771498870961e-17  3.494697289886901e-19 -1.011959158747542e+00
 3.494697289886901e-19  4.982023739690079e-18  4.197506722056393e-01
-1.011959158747542e+00  4.197506722056393e-01  8.434672346415876e-18

 1.101389471017845e-17  5.280310260663188e-20 -1.011574092573474e+00
 5.280310260663188e-20  2.156867085749894e-17  4.201834256698472e-01
-1.011574092573474e+00  4.201834256698472e-01  8.411613636802850e-18

 1.107462387320656e-17  1.979182023731713e-20 -1.014302107966368e+00
 1.979182023731713e-20  2.329187769776749e-17  4.204166615890908e-01
-1.014302107966368e+00  4.204166615890908e-01  8.565264304923979e-18

 1.112272343891091e-17 -7.018502215094246e-19 -1.015718132367640e+00
-7.018502215094246e-19  6.382949432192962e-17  4.206016774082291e-01
-1.015718132367640e+00  4.206016774082291e-01  8.631519578704954e-18

 1.114563572068744e-17  1.135114590200060e-19 -1.016555444772291e+00
 1.135114590200060e-19  1.764384569811731e-17  4.197947424956144e-01
-1.016555444772291e+00  4.197947424956144e-01  8.709949612012702e-18

 1.112471731564391e-17  5.920767993207147e-19 -1.016697498196860e+00
 5.920767993207147e-19 -1.004891775381998e-17  4.237402274228361e-01
-1.016697498196860e+00  4.237402274228361e-01  8.650257395484528e-18

 1.129893910656542e-17  2.985403637665500e-19 -1.023611678723973e+00
 2.985403637665500e-19  6.544370134540595e-18  4.174788661397782e-01
-1.023611678723973e+00  4.174788661397782e-01  9.141926865739498e-18

 1.120000928071586e-17  6.123568862885786e-19 -1.020977607355957e+00
 6.123568862885786e-19 -1.192983494569560e-17  4.247301924393156e-01
-1.020977607355957e+00  4.247301924393156e-01  8.832943733065620e-18

 1.112935353194415e-17  4.397748522650548e-20 -1.018436209390726e+00
 4.397748522650548e-20  1.932560910052437e-17  4.243740036950856e-01
-1.018436209390726e+00  4.243740036950856e-01  8.591192987653684e-18

 1.118468115258292e-17  5.144306765310184e-19 -1.022433559956625e+00
 5.144306765310184e-19 -7.184166196482011e-18  4.222219842729960e-01
-1.022433559956625e+00  4.222219842729960e-01  8.736089771615555e-18

 1.121741595565744e-17  6.349642423453655e-19 -1.026058342689272e+00
 6.349642423453655e-19 -1.438427094040464e-17  4.353768191385869e-01
-1.026058342689272e+00  4.353768191385869e-01  8.657802718094436e-18

 1.133504618005363e-17  3.094932525597338e-19 -1.031474742147084e+00
 3.094932525597338e-19  3.772733098925201e-18  4.303265195817978e-01
-1.031474742147084e+00  4.303265195817978e-01  8.981894155683790e-18

 1.138630090579132e-17  1.193135584928691e-19 -1.033128195001622e+00
 1.193135584928691e-19  1.472338252638679e-17  4.246948673252759e-01
-1.033128195001622e+00  4.246948673252759e-01  9.127982781981022e-18

 1.135377226017022e-17 -3.323383926155236e-19 -1.031901026155799e+00
-3.323383926155236e-19  3.990882786481260e-17  4.248885369727903e-01
-1.031901026155799e+00  4.248885369727903e-01  8.995578471453946e-18

 1.136152146770246e-17 -3.107006873143128e-19 -1.032050460295122e+00
-3.107006873143128e-19  3.876483574128027e-17  4.301479504570015e-01
-1.032050460295122e+00  4.301479504570015e-01  8.963598002363703e-18

 1.107623806318462e-17  3.223612423270647e-19 -1.019866936770597e+00
 3.223612423270647e-19  3.552081478973298e-18  4.400033996803112e-01
-1.019866936770597e+00  4.400033996803112e-01  8.128356848881158e-18

 1.126173307560513e-17  4.417812126022746e-19 -1.027211189347259e+00
 4.417812126022746e-19 -2.540328751633798e-18  4.271349458126127e-01
-1.027211189347259e+00  4.271349458126127e-01  8.758845384979090e-18

 1.125819519234322e-17 -2.136846728371721e-19 -1.025325223323931e+00
-2.136846728371721e-19  3.374344387360898e-17  4.205423561069934e-01
-1.025325223323931e+00  4.205423561069934e-01  8.777633038034204e-18

 1.126382463233409e-17 -1.748208342543811e-19 -1.025411969200161e+00
-1.748208342543811e-19  3.093789864003683e-17  4.312094732631431e-01
-1.025411969200161e+00  4.312094732631431e-01  8.720598702424303e-18

 1.126481926915324e-17  4.623953763548961e-19 -1.025300105285619e+00
 4.623953763548961e-19 -3.720795062849616e-18  4.294408334588536e-01
-1.025300105285619e+00  4.294408334588536e-01  8.772096018308644e-18

 1.120877487829572e-17 -1.465647193996528e-19 -1.021312991019013e+00
-1.465647193996528e-19  2.900375902540530e-17  4.245444143705851e-01
-1.021312991019013e+00  4.245444143705851e-01  8.620930988835676e-18

 1.119786006036880e-17 -4.014601051976578e-20 -1.020696207688223e+00
-4.014601051976578e-20  2.285807799586854e-17  4.287143629650149e-01
-1.020696207688223e+00  4.287143629650149e-01  8.579380456029296e-18

 1.118970484782740e-17  5.219639345055183e-19 -1.020598511962065e+00
 5.219639345055183e-19 -6.875992937804386e-18  4.282581146906300e-01
-1.020598511962065e+00  4.282581146906300e-01  8.592159856067501e-18

 1.117070200853249e-17 -6.382432309425768e-20 -1.018516474937144e+00
-6.382432309425768e-20  2.377534751325462e-17  4.272120231461652e-01
-1.018516474937144e+00  4.272120231461652e-01  8.519798299825870e-18

 1.118315586099215e-17  6.787800394400623e-21 -1.018877310874685e+00
 6.787800394400623e-21  1.969764174096663e-17  4.279302796299868e-01
-1.018877310874685e+00  4.279302796299868e-01  8.557394961016039e-18

 1.117504443743022e-17 -5.851396706436648e-20 -1.018412983963620e+00
-5.851396706436648e-20  2.269156827508595e-17  4.277550595132676e-01
-1.018412983963620e+00  4.277550595132676e-01  8.529118224874860e-18

 1.120675188172520e-17  1.531362941787930e-19 -1.020208244592070e+00
 1.531362941787930e-19  1.141790010834118e-17  4.269371880545204e-01
-1.020208244592070e+00  4.269371880545204e-01  8.613108821591474e-18

 1.129992622136347e-17 -4.194190002604080e-19 -1.024371468439221e+00
-4.194190002604080e-19  3.995975500566707e-17  4.286397658835419e-01
-1.024371468439221e+00  4.286397658835419e-01  8.809079130924457e-18

 1.128705448241213e-17 -6.461657169616348e-19 -1.024178963622951e+00
-6.461657169616348e-19  5.080225342829427e-17  4.323712954761180e-01
-1.024178963622951e+00  4.323712954761180e-01  8.730488194966525e-18

 1.134443936531931e-17 -1.651510483186618e-19 -1.026402575067742e+00
-1.651510483186618e-19  2.664768121712149e-17  4.257482741376329e-01
-1.026402575067742e+00  4.257482741376329e-01  8.938712166236528e-18

 1.122159369576329e-17 -4.271448470432934e-19 -1.021236608825504e+00
-4.271448470432934e-19  3.963094439848423e-17  4.300773884244038e-01
-1.021236608825504e+00  4.300773884244038e-01  8.607423689918438e-18

 1.093148718757645e-17  6.536660091613954e-19 -1.009140937629493e+00
 6.536660091613954e-19 -1.327944084422102e-17  4.295738220989128e-01
-1.009140937629493e+00  4.295738220989128e-01  7.904591190583139e-18

 1.119630403115354e-17  6.963706793781749e-20 -1.019987820340497e+00
 6.963706793781749e-20  1.514914376288016e-17  4.195300638796213e-01
-1.019987820340497e+00  4.195300638796213e-01  8.644998722739215e-18

-2.469753906835526e-17 -1.710523189339712e-19  1.003515147564603e+00
-1.710523189339712e-19 -1.588818592905031e-17  4.202568704880343e-01
 1.003515147564603e+00  4.202568704880343e-01 -3.407933429488121e-17

-2.477410081187544e-17 -2.464294204268798e-19  1.009873049932865e+00
-2.464294204268798e-19 -3.403354603666717e-17  4.141503580192559e-01
 1.009873049932865e+00  4.141503580192559e-01 -3.432008756520923e-17

-2.469906617341659e-17 -1.054404712750788e-19  1.002601287053125e+00
-1.054404712750788e-19  6.377617143681478e-18  4.199671047532578e-01
 1.002601287053125e+00  4.199671047532578e-01 -3.406195379236757e-17

-2.478105144271315e-17 -6.652819342485711e-20  1.006972484092480e+00
-6.652819342485711e-20  3.287153430897361e-17  4.186057946530163e-01
 1.006972484092480e+00  4.186057946530163e-01 -3.424613488853397e-17

-2.515468618287343e-17 -2.403840042093958e-19  1.036499112712027e+00
-2.403840042093958e-19 -3.512613713799582e-17  4.037889348784513e-01
 1.036499112712027e+00  4.037889348784513e-01 -3.533419053081224e-17

-2.476916532338406e-17 -1.098739514967138e-19  9.944401914564305e-01
-1.098739514967138e-19 -1.725790814843388e-17  4.769118206058249e-01
 9.944401914564305e-01  4.769118206058249e-01 -3.387193560106786e-17

-2.475583185405492e-17 -7.497177497244324e-20  1.008639601146857e+00
-7.497177497244324e-20 -1.038180724647671e-17  4.202152357079549e-01
 1.008639601146857e+00  4.202152357079549e-01 -3.438127379028044e-17

-2.433567087886665e-17 -1.402634168347878e-19  9.904267109443241e-01
-1.402634168347878e-19  1.439262360776760e-17  3.963935110436126e-01
 9.904267109443241e-01  3.963935110436126e-01 -3.372347911776178e-17

-2.380431196513535e-17 -8.806002411928986e-20  9.501364361465255e-01
-8.806002411928986e-20 -3.520226607703861e-17  4.299182702654669e-01
 9.501364361465255e-01  4.299182702654669e-01 -3.221474522808279e-17

-2.369953783364433e-17 -1.732091219032399e-19  9.569622818476168e-01
-1.732091219032399e-19 -4.521958762304316e-17  3.929656397412435e-01
 9.569622818476168e-01  3.929656397412435e-01 -3.242231746266927e-17

-2.356050472609071e-17 -1.316318211720577e-20  9.383745782600487e-01
-1.316318211720577e-20  5.407845813089997e-18  4.261658321577547e-01
 9.383745782600487e-01  4.261658321577547e-01 -3.172945405246004e-17

-2.432611473191205e-17  6.469559588041552e-20  9.935505730926782e-01
 6.469559588041552e-20  1.752842117307256e-17  3.863652652974039e-01
 9.935505730926782e-01  3.863652652974039e-01 -3.362370120714439e-17

-2.475809528299703e-17 -2.184100812882314e-19  1.002584846385026e+00
-2.184100812882314e-19 -7.343717967900868e-17  4.321733958078171e-01
 1.002584846385026e+00  4.321733958078171e-01 -3.417343600137735e-17

-2.552336621023601e-17 -1.087499446610933e-20  1.050357802144117e+00
-1.087499446610933e-20  7.220829234212220e-17  4.233930219137054e-01
 1.050357802144117e+00  4.233930219137054e-01 -3.593008216980969e-17

-2.512634403120182e-17 -9.173207034520009e-20  1.026868450407234e+00
-9.173207034520009e-20 -3.531930663928242e-17  4.100359614955403e-01
 1.026868450407234e+00  4.100359614955403e-01 -3.499303476691919e-17

-2.488287305441075e-17 -9.257472930135634e-20  1.011689115438714e+00
-9.257472930135634e-20 -1.389166098758840e-17  4.129412122091452e-01
 1.011689115438714e+00  4.129412122091452e-01 -3.442619131980803e-17

-2.484043168719749e-17 -1.044952163048262e-19  1.008539323677818e+00
-1.044952163048262e-19 -3.208781655393441e-17  4.198742868232584e-01
 1.008539323677818e+00  4.198742868232584e-01 -3.431197061816554e-17

-2.489555669614299e-17 -1.071919981805272e-19  1.012939749650388e+00
-1.071919981805272e-19 -6.704114619534156e-17  4.180552118616579e-01
 1.012939749650388e+00  4.180552118616579e-01 -3.446305527422003e-17

-2.482219401121487e-17 -7.394363017194304e-20  1.004921830421284e+00
-7.394363017194304e-20  2.627736336175700e-17  4.298914121066227e-01
 1.004921830421284e+00  4.298914121066227e-01 -3.418337453715640e-17

-2.488336098046154e-17 -1.625788604865186e-19  1.008830336255627e+00
-1.625788604865186e-19  3.872656254926308e-17  4.209184685698266e-01
 1.008830336255627e+00  4.209184685698266e-01 -3.430856504939256e-17

-2.484176554998033e-17 -1.947764246532849e-19  1.008436707071674e+00
-1.947764246532849e-19 -1.425492758046938e-17  4.186899705104035e-01
 1.008436707071674e+00  4.186899705104035e-01 -3.429425456519833e-17

-2.500543739182964e-17 -2.331698479869498e-19  1.017841425624406e+00
-2.331698479869498e-19 -3.258326301901958e-17  4.203097524137836e-01
 1.017841425624406e+00  4.203097524137836e-01 -3.464675988648554e-17

-2.503342367019515e-17 -2.548225056455600e-19  1.018556996766160e+00
-2.548225056455600e-19 -3.886124655881535e-17  4.268400680341790e-01
 1.018556996766160e+00  4.268400680341790e-01 -3.467656795197561e-17

-2.505577546763309e-17 -9.943306514644029e-21  1.023950856416148e+00
-9.943306514644029e-21 -4.428326548533761e-17  4.154002102220893e-01
 1.023950856416148e+00  4.154002102220893e-01 -3.485022516657255e-17

-2.490728460203958e-17 -1.434787304196550e-19  1.012732317821597e+00
-1.434787304196550e-19  1.338574885728775e-17  4.185570336699656e-01
 1.012732317821597e+00  4.185570336699656e-01 -3.444983540081776e-17

-2.473976071913409e-17 -1.043723801171214e-19  1.000528116472221e+00
-1.043723801171214e-19 -5.349794289789085e-17  4.249686712722895e-01
 1.000528116472221e+00  4.249686712722895e-01 -3.400447163548004e-17

-2.476883777938159e-17 -2.914983793653051e-19  1.003154334812669e+00
-2.914983793653051e-19 -5.829051721174651e-17  4.219726790678935e-01
 1.003154334812669e+00  4.219726790678935e-01 -3.410700581622746e-17

-2.494694267696390e-17 -2.856947299556294e-19  1.016040863921509e+00
-2.856947299556294e-19 -8.720863133491284e-17  4.139085455020399e-01
 1.016040863921509e+00  4.139085455020399e-01 -3.458254782082508e-17

-2.502084699914556e-17 -8.663801189466512e-21  1.020156862860201e+00
-8.663801189466512e-21 -3.753105706567517e-17  4.166571544719004e-01
 1.020156862860201e+00  4.166571544719004e-01 -3.473992221683279e-17

-2.499333923171455e-17 -1.087176381481168e-19  1.016082344577991e+00
-1.087176381481168e-19 -7.946490471263077e-17  4.199998222404163e-01
 1.016082344577991e+00  4.199998222404163e-01 -3.460740687789573e-17

-2.497207676323289e-17 -8.155177948640442e-20  1.012031653910382e+00
-8.155177948640442e-20  6.149143574833797e-17  4.214471193571449e-01
 1.012031653910382e+00  4.214471193571449e-01 -3.445202524525178e-17

-2.489630205767885e-17 -1.997128503362696e-19  1.008620836938728e+00
-1.997128503362696e-19  8.339879861693047e-17  4.220681449984998e-01
 1.008620836938728e+00  4.220681449984998e-01 -3.432523325702649e-17

-2.488466746261878e-17  1.163692725405111e-19  1.008147464172278e+00
 1.163692725405111e-19  6.246774667032558e-17  4.211030742229420e-01
 1.008147464172278e+00  4.211030742229420e-01 -3.430201383250271e-17

-2.489900714569326e-17  7.237614564626886e-20  1.006496785108718e+00
 7.237614564626886e-20  1.383030136988719e-16  4.269983960124791e-01
 1.006496785108718e+00  4.269983960124791e-01 -3.425782081375751e-17

-2.499645679505071e-17 -3.493501772886631e-19  1.014925935480994e+00
-3.493501772886631e-19 -9.142884519636337e-17  4.187659933570695e-01
 1.014925935480994e+00  4.187659933570695e-01 -3.455191891800727e-17

-2.508574016494002e-17  9.149642286274290e-21  1.021039210230162e+00
 9.149642286274290e-21 -5.769661907649986e-17  4.161640182897470e-01
 1.021039210230162e+00  4.161640182897470e-01 -3.477085074735299e-17

-2.496840025784523e-17 -3.233786260016427e-19  1.009087945555422e+00
-3.233786260016427e-19 -6.251320088682313e-17  4.292313384308765e-01
 1.009087945555422e+00  4.292313384308765e-01 -3.435956083113190e-17

-2.492697032070616e-17 -8.785115281493626e-20  1.007283400340088e+00
-8.785115281493626e-20 -8.585353925579970e-17  4.280618140828378e-01
 1.007283400340088e+00  4.280618140828378e-01 -3.428363329477026e-17

-2.492380396662510e-17 -3.198737762480500e-19  1.010091427634713e+00
-3.198737762480500e-19 -1.020973676592448e-16  4.145524596905072e-01
 1.010091427634713e+00  4.145524596905072e-01 -3.436810544456350e-17

-2.497163078073126e-17 -1.848370548959525e-19  1.011092613083219e+00
-1.848370548959525e-19 -2.325729413892525e-17  4.202595061938678e-01
 1.011092613083219e+00  4.202595061938678e-01 -3.442001763457196e-17

-2.496608169112663e-17  3.349863735832882e-21  1.008623977088388e+00
 3.349863735832882e-21 -8.575654858483851e-17  4.282501441086384e-01
 1.008623977088388e+00  4.282501441086384e-01 -3.433823562133899e-17

-2.506659401081624e-17 -1.769922322713030e-19  1.015602919993367e+00
-1.769922322713030e-19 -6.796248342289667e-18  4.209144972293717e-01
 1.015602919993367e+00  4.209144972293717e-01 -3.458502128539689e-17

-2.504607245873634e-17  6.131978991027180e-20  1.015061067471309e+00
 6.131978991027180e-20  5.904398294704611e-17  4.200237756357902e-01
 1.015061067471309e+00  4.200237756357902e-01 -3.457254905093342e-17

-2.510653195756548e-17  4.443608330955105e-20  1.013312480476295e+00
 4.443608330955105e-20 -3.837994477244834e-17  4.244054992680211e-01
 1.013312480476295e+00  4.244054992680211e-01 -3.451575229482147e-17

-2.504337271155801e-17 -8.986638749040444e-20  1.013417861926042e+00
-8.986638749040444e-20  6.279315874011910e-17  4.209187420831627e-01
 1.013417861926042e+00  4.209187420831627e-01 -3.452169156349765e-17

-2.502936872095889e-17 -2.020747297184770e-19  1.013185409664036e+00
-2.020747297184770e-19 -2.112329160363354e-17  4.180838618638627e-01
 1.013185409664036e+00  4.180838618638627e-01 -3.450398920804608e-17

-2.503085978385973e-17 -1.366642019232421e-19  1.012360473555337e+00
-1.366642019232421e-19 -3.445720932596057e-17  4.195459216812860e-01
 1.012360473555337e+00  4.195459216812860e-01 -3.448129668561341e-17

-2.504132599098184e-17 -5.039113703018735e-19  1.010397580053766e+00
-5.039113703018735e-19 -7.668840940382448e-17  4.237634606589910e-01
 1.010397580053766e+00  4.237634606589910e-01 -3.442502810004682e-17

-2.508005949861042e-17  1.928127144108962e-19  1.014641862790923e+00
 1.928127144108962e-19 -1.118548513139357e-17  4.206866191079647e-01
 1.014641862790923e+00  4.206866191079647e-01 -3.457271442486709e-17

-2.512929251249416e-17 -4.132737879490210e-19  1.015936355350147e+00
-4.132737879490210e-19  2.223741792655039e-18  4.190121320720159e-01
 1.015936355350147e+00  4.190121320720159e-01 -3.461552623249046e-17

-2.512349889423913e-17 -2.004878981507028e-20  1.014218498434418e+00
-2.004878981507028e-20  3.550846689533393e-17  4.206831792844962e-01
 1.014218498434418e+00  4.206831792844962e-01 -3.455577431272949e-17

-2.509368359968953e-17 -6.448080644282518e-20  1.012920235631170e+00
-6.448080644282518e-20  8.871599057740237e-17  4.213989594257481e-01
 1.012920235631170e+00  4.213989594257481e-01 -3.450925022333354e-17

-2.508557437621729e-17  1.485577712546129e-19  1.012888163456189e+00
 1.485577712546129e-19 -8.437079970309303e-17  4.205285480740253e-01
 1.012888163456189e+00  4.205285480740253e-01 -3.451053176800145e-17

-2.512970471449968e-17  2.276793032011772e-19  1.015505016205641e+00
 2.276793032011772e-19 -2.832405266738849e-17  4.177824918301377e-01
 1.015505016205641e+00  4.177824918301377e-01 -3.460912772415590e-17

-2.515215094286039e-17 -2.384875215658362e-19  1.016096005293546e+00
-2.384875215658362e-19 -2.231256962376583e-17  4.193555410493750e-01
 1.016096005293546e+00  4.193555410493750e-01 -3.462679164909805e-17

-2.513130711528494e-17 -3.305283214900222e-19  1.013677399171475e+00
-3.305283214900222e-19  1.293666907676885e-16  4.201405892192140e-01
 1.013677399171475e+00  4.201405892192140e-01 -3.454755727886038e-17

-2.517013723162282e-17 -3.090559118819793e-19  1.013059357764124e+00
-3.090559118819793e-19 -6.456698644456931e-17  4.211923557731285e-01
 1.013059357764124e+00  4.211923557731285e-01 -3.452197030880646e-17

-2.510426398271823e-17  2.453416367023955e-19  1.011276444162864e+00
 2.453416367023955e-19 -1.439042761655961e-16  4.209375533390105e-01
 1.011276444162864e+00  4.209375533390105e-01 -3.446196663998136e-17

-2.511499008370072e-17  2.109843489328987e-19  1.011316238011782e+00
 2.109843489328987e-19 -1.747302118253213e-17  4.196753738060887e-01
 1.011316238011782e+00  4.196753738060887e-01 -3.446363229354217e-17

-2.514059426614922e-17  6.150852900852348e-19  1.012008680769281e+00
 6.150852900852348e-19 -1.244529574082632e-16  4.205836030409821e-01
 1.012008680769281e+00  4.205836030409821e-01 -3.449832973098164e-17

-2.518597591713598e-17 -2.967410510471580e-19  1.014187590332386e+00
-2.967410510471580e-19 -1.660891006317776e-17  4.208094438476555e-01
 1.014187590332386e+00  4.208094438476555e-01 -3.457649286718465e-17

-2.521196655995666e-17 -5.032332613050648e-19  1.015007634619362e+00
-5.032332613050648e-19 -9.662322342391504e-17  4.192040324294164e-01
 1.015007634619362e+00  4.192040324294164e-01 -3.460752340377307e-17

-2.520542569563395e-17  2.841320927342922e-19  1.013530384779640e+00
 2.841320927342922e-19  6.634407110552923e-17  4.197783971855542e-01
 1.013530384779640e+00  4.197783971855542e-01 -3.455711117681836e-17

-2.517279126913508e-17  1.448346824515105e-20  1.010817540004812e+00
 1.448346824515105e-20  6.354762149392006e-17  4.211979915599831e-01
 1.010817540004812e+00  4.211979915599831e-01 -3.447122370149133e-17

-2.520110507491888e-17  9.660166386626164e-19  1.014495694137845e+00
 9.660166386626164e-19 -9.809066306101528e-17  4.180925476787122e-01
 1.014495694137845e+00  4.180925476787122e-01 -3.460315854745091e-17

-2.525347871680582e-17 -1.640659232360921e-19  1.014441932739654e+00
-1.640659232360921e-19  3.080603883947772e-17  4.200258618021755e-01
 1.014441932739654e+00  4.200258618021755e-01 -3.460823212787065e-17

-2.521286624048748e-17 -2.916053135929169e-19  1.011321233473190e+00
-2.916053135929169e-19 -1.879938223666883e-16  4.222524690278791e-01
 1.011321233473190e+00  4.222524690278791e-01 -3.450482794980930e-17

-2.520982780160411e-17 -2.682749771582316e-19  1.010994092080922e+00
-2.682749771582316e-19 -1.548337393780110e-17  4.180630517086729e-01
 1.010994092080922e+00  4.180630517086729e-01 -3.449727390759247e-17

-2.521147786029015e-17 -8.148183825631054e-19  1.010190735670174e+00
-8.148183825631054e-19 -1.123013939098983e-16  4.156681400086299e-01
 1.010190735670174e+00  4.156681400086299e-01 -3.446730625505485e-17

-2.524190750407339e-17 -8.070457449575725e-19  1.010612216544471e+00
-8.070457449575725e-19 -1.115992291491938e-16  4.179004804580357e-01
 1.010612216544471e+00  4.179004804580357e-01 -3.449451493371840e-17

-2.531872431764892e-17 -1.104833629722757e-18  1.013130827712783e+00
-1.104833629722757e-18  2.544329852375919e-17  4.205594365643289e-01
 1.013130827712783e+00  4.205594365643289e-01 -3.459336087819671e-17

-2.536876715956984e-17 -5.333652252423340e-19  1.016054833211860e+00
-5.333652252423340e-19 -3.711630080086625e-17  4.171480507063197e-01
 1.016054833211860e+00  4.171480507063197e-01 -3.470526867560415e-17

-2.538213131472102e-17 -2.629932305722644e-19  1.016613313338656e+00
-2.629932305722644e-19 -1.073633170970892e-17  4.180457402808562e-01
 1.016613313338656e+00  4.180457402808562e-01 -3.472516212795420e-17

-2.544817106572015e-17 -5.242616037618294e-19  1.020434839778864e+00
-5.242616037618294e-19  1.788258914099118e-16  4.139304423204007e-01
 1.020434839778864e+00  4.139304423204007e-01 -3.485991599243840e-17

-2.543253468176170e-17  5.768374349127731e-19  1.013312486770165e+00
 5.768374349127731e-19  1.755174620419550e-16  4.209167191401460e-01
 1.013312486770165e+00  4.209167191401460e-01 -3.461481209992417e-17

-2.537368330788918e-17 -5.401095704577610e-19  1.011369304922078e+00
-5.401095704577610e-19 -1.188507087190758e-16  4.213084123180708e-01
 1.011369304922078e+00  4.213084123180708e-01 -3.454143539760565e-17

-2.539133258198375e-17  1.002065221813755e-18  1.015090930321848e+00
 1.002065221813755e-18  1.907533435622195e-16  4.177544639837744e-01
 1.015090930321848e+00  4.177544639837744e-01 -3.468013516705786e-17

-2.550840987841379e-17 -1.013803569414268e-18  1.021477120194774e+00
-1.013803569414268e-18 -8.830878445541671e-17  4.106781298814312e-01
 1.021477120194774e+00  4.106781298814312e-01 -3.490528933697164e-17

-2.535307216273031e-17 -2.823006202011148e-19  1.006723255366106e+00
-2.823006202011148e-19 -2.214419439684609e-16  4.233083929327476e-01
 1.006723255366106e+00  4.233083929327476e-01 -3.439276880137535e-17

-2.530583751595966e-17 -4.385870270710836e-19  1.001272129617506e+00
-4.385870270710836e-19  2.487925174171565e-16  4.299140865501070e-01
 1.001272129617506e+00  4.299140865501070e-01 -3.420332490758880e-17

-2.543108785187957e-17 -3.686159669982020e-19  1.012798264592433e+00
-3.686159669982020e-19 -8.101168580500085e-17  4.195389888300342e-01
 1.012798264592433e+00  4.195389888300342e-01 -3.460446214307911e-17

-2.556799987965284e-17 -1.896325038499509e-18  1.017603723353991e+00
-1.896325038499509e-18  2.073914441369159e-17  4.090490884923432e-01
 1.017603723353991e+00  4.090490884923432e-01 -3.477058431316724e-17

-2.553409587690087e-17 -1.285888492903961e-18  1.017683855978418e+00
-1.285888492903961e-18 -7.024729210928441e-17  4.146109558177980e-01
 1.017683855978418e+00  4.146109558177980e-01 -3.478874173942188e-17

-2.564514425412287e-17 -2.152652267235202e-18  1.022608705133147e+00
-2.152652267235202e-18 -2.564111571696810e-16  4.157088389980875e-01
 1.022608705133147e+00  4.157088389980875e-01 -3.497672878421663e-17

-2.558502632304172e-17  1.163415702787285e-18  1.015994547715589e+00
 1.163415702787285e-18 -8.991931383255578e-17  4.175921858768183e-01
 1.015994547715589e+00  4.175921858768183e-01 -3.473845341022730e-17

-2.545137513902596e-17 -2.710558189081252e-19  1.010772111549571e+00
-2.710558189081252e-19  1.763720659216725e-16  4.133987271737398e-01
 1.010772111549571e+00  4.133987271737398e-01 -3.453981684822760e-17

-2.540679938840190e-17  7.563807116775948e-19  1.006429522485965e+00
 7.563807116775948e-19  3.021634017681936e-16  4.169935215346074e-01
 1.006429522485965e+00  4.169935215346074e-01 -3.438629074222686e-17

-2.549894204696024e-17  2.969017887066730e-19  1.010754690581121e+00
 2.969017887066730e-19  2.849827911310770e-16  4.199679010464396e-01
 1.010754690581121e+00  4.199679010464396e-01 -3.455646705230397e-17

-2.570276737096789e-17 -1.512307553486809e-18  1.024355761926520e+00
-1.512307553486809e-18 -2.549985650528914e-16  4.176879692538436e-01
 1.024355761926520e+00  4.176879692538436e-01 -3.503766042715385e-17

-2.515107199178175e-17  8.606293038639528e-19  9.906855938309910e-01
 8.606293038639528e-19  1.747644382779436e-17  4.202610465442065e-01
 9.906855938309910e-01  4.202610465442065e-01 -3.379396121105805e-17

-2.515092553385666e-17 -8.085965727699789e-19  9.869803110442735e-01
-8.085965727699789e-19  9.636302442970436e-17  4.203071309341538e-01
 9.869803110442735e-01  4.203071309341538e-01 -3.365301058512192e-17

-2.566678280607454e-17 -1.956930780435317e-18  1.011626173933424e+00
-1.956930780435317e-18 -2.016725898746535e-16  4.271283429300237e-01
 1.011626173933424e+00  4.271283429300237e-01 -3.459288512476162e-17

-2.577195714159990e-17 -7.000249395533922e-19  1.022253012532750e+00
-7.000249395533922e-19  2.902512370745040e-16  4.147012981789469e-01
 1.022253012532750e+00  4.147012981789469e-01 -3.496963885011769e-17

-2.577033778646576e-17  5.445174134816987e-19  1.023479113351525e+00
 5.445174134816987e-19 -1.969308512655067e-17  4.089258782307788e-01
 1.023479113351525e+00  4.089258782307788e-01 -3.500501800325970e-17

-2.567686678026867e-17  1.352332137855986e-18  1.017191217943116e+00
 1.352332137855986e-18  2.545843020462589e-16  4.072138693543473e-01
 1.017191217943116e+00  4.072138693543473e-01 -3.477895407702158e-17

-2.555873312745823e-17 -8.412763312133548e-19  1.005252820190192e+00
-8.412763312133548e-19 -5.011077453936143e-17  4.145989773386136e-01
 1.005252820190192e+00  4.145989773386136e-01 -3.434213368698507e-17

-2.554472611720391e-17  1.620304420705728e-18  1.002435520254718e+00
 1.620304420705728e-18  3.572884896586446e-16  4.190355283875506e-01
 1.002435520254718e+00  4.190355283875506e-01 -3.424268035468313e-17

-2.555480911205552e-17 -7.697888571369561e-19  1.001303463450702e+00
-7.697888571369561e-19  6.066821043332714e-18  4.213584639991910e-01
 1.001303463450702e+00  4.213584639991910e-01 -3.420744511217904e-17

-2.570799151507052e-17 -5.938236046246787e-19  1.013185864008623e+00
-5.938236046246787e-19  1.614733946656164e-16  4.096644172380609e-01
 1.013185864008623e+00  4.096644172380609e-01 -3.463163612821298e-17

-2.565398268855435e-17  9.269443488949573e-19  1.008011634941134e+00
 9.269443488949573e-19  2.469016781738330e-16  4.162885250968936e-01
 1.008011634941134e+00  4.162885250968936e-01 -3.445923781672895e-17

-2.570771697439757e-17 -1.568091937721120e-18  1.006290433552545e+00
-1.568091937721120e-18  2.356978379589267e-17  4.198455919441515e-01
 1.006290433552545e+00  4.198455919441515e-01 -3.440007514552841e-17

-2.571186251178266e-17  1.634687314792730e-18  1.005526494342848e+00
 1.634687314792730e-18 -7.965658459036678e-17  4.195893629138778e-01
 1.005526494342848e+00  4.195893629138778e-01 -3.437183036476188e-17

-2.575858318177939e-17 -5.419450089882590e-19  1.010341173109934e+00
-5.419450089882590e-19  2.189951694005935e-16  4.133208080019140e-01
 1.010341173109934e+00  4.133208080019140e-01 -3.453834688583591e-17

-2.558893410180504e-17 -1.961766428701432e-18  9.949336641935125e-01
-1.961766428701432e-18 -2.279731723235559e-16  4.256864160299232e-01
 9.949336641935125e-01  4.256864160299232e-01 -3.396042375746342e-17

-2.507571418191245e-17 -1.969230107505671e-18  9.671245334061049e-01
-1.969230107505671e-18 -2.283431814776996e-16  3.994260317226448e-01
 9.671245334061049e-01  3.994260317226448e-01 -3.289416083777843e-17

-2.573221025440643e-17  2.039738916825914e-19  1.003928984989390e+00
 2.039738916825914e-19 -5.597317845798196e-18  4.106396820364185e-01
 1.003928984989390e+00  4.106396820364185e-01 -3.426788962502689e-17

-2.692165850409497e-17 -2.579786568057805e-18  9.957961256153549e-01
-2.579786568057805e-18  8.975678175322162e-17  4.822738104387361e-01
 9.957961256153549e-01  4.822738104387361e-01 -3.411175053105741e-17

-2.579602807181414e-17  1.036369892034934e-18  1.035172341484379e+00
 1.036369892034934e-18  1.775216961346437e-16  3.966828468363741e-01
 1.035172341484379e+00  3.966828468363741e-01 -3.544946758719368e-17

-2.672732239810900e-17  1.480671151445754e-18  1.019130997180641e+00
 1.480671151445754e-18 -3.059296519591929e-17  3.759232265189036e-01
 1.019130997180641e+00  3.759232265189036e-01 -3.483230669203500e-17

-4.303370131280213e-17  5.997020526616692e-18  1.000707435547454e+00
 5.997020526616692e-18  1.319034332861502e-16  4.335305628589620e-01
 1.000707435547454e+00  4.335305628589620e-01 -3.419883998946772e-17

-5.678825710266009e-17  6.534525825000032e-18  9.820409339785793e-01
 6.534525825000032e-18  1.967263897466687e-17  4.212187081398657e-01
 9.820409339785793e-01  4.212187081398657e-01 -3.348414088853860e-17

-2.425745084506225e-17 -3.179621654830446e-18  9.780105033840593e-01
-3.179621654830446e-18 -3.766769331465098e-16  4.005001565314070e-01
 9.780105033840593e-01  4.005001565314070e-01 -3.327270985141584e-17

-2.590811451046412e-17  1.560618873225855e-18  9.850664281837124e-01
 1.560618873225855e-18  1.845432248715038e-16  4.478051694228339e-01
 9.850664281837124e-01  4.478051694228339e-01 -3.366478777933684e-17

-2.612457768625180e-17 -1.517079816875169e-19  9.956140712882077e-01
-1.517079816875169e-19  8.622891607245911e-17  4.481072711043002e-01
 9.956140712882077e-01  4.481072711043002e-01 -3.405277162547401e-17

-2.614258128917860e-17  3.795504973715283e-18  1.020276079864405e+00
 3.795504973715283e-18  2.711255989898066e-16  3.992959550741889e-01
 1.020276079864405e+00  3.992959550741889e-01 -3.488366055310828e-17

-2.629487441374561e-17  9.614166942844969e-19  1.028580243385018e+00
 9.614166942844969e-19  8.749566006483710e-17  3.785468204296372e-01
 1.028580243385018e+00  3.785468204296372e-01 -3.512244795729562e-17

-2.612301002068632e-17  2.490038845649378e-18  9.883871788933213e-01
 2.490038845649378e-18 -3.858445027583762e-17  4.826138225318060e-01
 9.883871788933213e-01  4.826138225318060e-01 -3.385937030662957e-17

-2.585359532731534e-17  2.836809025679172e-18  9.653732229252426e-01
 2.836809025679172e-18  5.641120924713729e-17  4.963815178692498e-01
 9.653732229252426e-01  4.963815178692498e-01 -3.297685007925957e-17

-2.637421878551206e-17 -2.245115739926866e-18  1.029894758606047e+00
-2.245115739926866e-18 -4.102053131076189e-16  3.622837853275878e-01
 1.029894758606047e+00  3.622837853275878e-01 -3.523752645011914e-17

-2.590673900205980e-17  1.503020907861833e-18  9.881579622680551e-01
 1.503020907861833e-18 -4.985199729523082e-17  4.115097314176651e-01
 9.881579622680551e-01  4.115097314176651e-01 -3.371372699147166e-17

-2.659539582061128e-17 -3.395148911849576e-18  1.018428811679206e+00
-3.395148911849576e-18 -7.602811536871158e-16  4.292751804864694e-01
 1.018428811679206e+00  4.292751804864694e-01 -3.489648424212784e-17

-2.650396875591102e-17 -3.387835001749317e-18  1.008504969994382e+00
-3.387835001749317e-18 -7.602247199687036e-16  4.340846042673593e-01
 1.008504969994382e+00  4.340846042673593e-01 -3.453252846372057e-17

-2.626884196678646e-17  4.492165350943969e-18  1.000930977660897e+00
 4.492165350943969e-18 -3.433062328728888e-17  4.235336671843523e-01
 1.000930977660897e+00  4.235336671843523e-01 -3.424288951612533e-17

-2.617777161775484e-17 -2.354023233541394e-19  9.922198575962887e-01
-2.354023233541394e-19  5.041377853738948e-17  4.091420996158148e-01
 9.922198575962887e-01  4.091420996158148e-01 -3.390371329257440e-17

-2.646195324118764e-17  4.217750857177312e-18  1.009441972498863e+00
 4.217750857177312e-18  3.660295960670141e-16  3.999139421966653e-01
 1.009441972498863e+00  3.999139421966653e-01 -3.452110470647927e-17

-2.742872642242131e-17 -3.869471768460313e-18  1.068424260871756e+00
-3.869471768460313e-18 -2.805926881987156e-16  3.729341974473866e-01
 1.068424260871756e+00  3.729341974473866e-01 -3.666970982076552e-17

-2.779082210551669e-17  8.937189815916242e-19  1.081190575671164e+00
 8.937189815916242e-19  1.890095355599525e-16  4.155505641935889e-01
 1.081190575671164e+00  4.155505641935889e-01 -3.730814504191368e-17

-2.651094612366830e-17  1.606240039847477e-18  9.698847869796533e-01
 1.606240039847477e-18  2.312682031186145e-16  5.421623534831667e-01
 9.698847869796533e-01  5.421623534831667e-01 -3.317317329941285e-17

-2.607530519668220e-17  4.309693235011786e-19  9.590723958343126e-01
 4.309693235011786e-19 -2.813778280142772e-16  4.549011111637517e-01
 9.590723958343126e-01  4.549011111637517e-01 -3.282186077860441e-17

-2.740867255364579e-17 -9.617927139738164e-19  1.094470806836360e+00
-9.617927139738164e-19  2.202920310388746e-16  2.652097351994165e-01
 1.094470806836360e+00  2.652097351994165e-01 -3.776172303321087e-17

-2.544903104431270e-17  1.027425658817780e-18  9.304365721431556e-01
 1.027425658817780e-18 -3.877537704357082e-17  4.173628672569574e-01
 9.304365721431556e-01  4.173628672569574e-01 -3.177042626963764e-17

-2.681781979398576e-17  2.764206250931099e-19  1.005135073628455e+00
 2.764206250931099e-19  1.135383925532282e-16  4.319523737007619e-01
 1.005135073628455e+00  4.319523737007619e-01 -3.466006103611569e-17

-2.688885963079561e-17  9.822931507759987e-19  1.004924261758671e+00
 9.822931507759987e-19  1.086936051364389e-16  4.077925472443388e-01
 1.004924261758671e+00  4.077925472443388e-01 -3.466480690719425e-17

-2.695083587318898e-17  1.665426058895447e-18  1.000031498413766e+00
 1.665426058895447e-18  1.043084545502354e-16  4.084217313145038e-01
 1.000031498413766e+00  4.084217313145038e-01 -3.453982567815995e-17

-2.712339898912947e-17  2.336135857495945e-18  1.002715226901981e+00
 2.336135857495945e-18  9.981788906393003e-17  4.057363313920178e-01
 1.002715226901981e+00  4.057363313920178e-01 -3.467219160395482e-17

-2.762069166287380e-17 -3.468086098340459e-18  1.019043624106598e+00
-3.468086098340459e-18 -2.743340559822557e-16  4.110606517607545e-01
 1.019043624106598e+00  4.110606517607545e-01 -3.530331862577062e-17

-2.757981674939238e-17  5.747624201697329e-18  1.016539591003591e+00
 5.747624201697329e-18  5.446782764962006e-16  4.093499551793494e-01
 1.016539591003591e+00  4.093499551793494e-01 -3.520917879393893e-17

-2.726473981493138e-17  9.439211774797554e-18  9.879594970435672e-01
 9.439211774797554e-18  7.812330034301355e-16  4.346410456618702e-01
 9.879594970435672e-01  4.346410456618702e-01 -3.416041089516686e-17

-2.772242157943674e-17  3.226122673521621e-18  1.024742509048548e+00
 3.226122673521621e-18  1.014215740660597e-16  3.629270367419695e-01
 1.024742509048548e+00  3.629270367419695e-01 -3.542626782345674e-17

-2.787442341999380e-17  4.447169641066742e-18  1.031862996952651e+00
 4.447169641066742e-18  3.106243187130499e-16  3.628941575001261e-01
 1.031862996952651e+00  3.628941575001261e-01 -3.568243698344577e-17

-2.823461970108926e-17 -2.736980147675423e-18  1.021927570734406e+00
-2.736980147675423e-18 -2.969190092403025e-16  4.402116285230588e-01
 1.021927570734406e+00  4.402116285230588e-01 -3.551054831518706e-17

-2.803702444195760e-17  2.524320919143430e-18  1.012465918049026e+00
 2.524320919143430e-18 -3.291505379799745e-16  4.142381026137647e-01
 1.012465918049026e+00  4.142381026137647e-01 -3.512711240985660e-17

-2.777416493161586e-17 -2.921998079830758e-19  9.830602165920110e-01
-2.921998079830758e-19 -3.658447465959906e-16  4.177128884636655e-01
 9.830602165920110e-01  4.177128884636655e-01 -3.408822765019156e-17

-2.811540483298954e-17  1.460612855266802e-18  9.930123798036533e-01
 1.460612855266802e-18  5.087638150424244e-16  4.156259135191584e-01
 9.930123798036533e-01  4.156259135191584e-01 -3.450606016733907e-17

-2.844502162026703e-17  1.478617370809126e-18  1.001549553143240e+00
 1.478617370809126e-18  5.085599946049478e-16  4.259733925834172e-01
 1.001549553143240e+00  4.259733925834172e-01 -3.489753856462006e-17

-2.866669102417182e-17  6.112859914577779e-18  1.013452379264276e+00
 6.112859914577779e-18  5.931558973996412e-16  4.061340405052632e-01
 1.013452379264276e+00  4.061340405052632e-01 -3.534663168740746e-17

-2.880930224504424e-17  2.009040139834730e-18  1.004610248657113e+00
 2.009040139834730e-18  9.327653423115256e-18  4.248480025808878e-01
 1.004610248657113e+00  4.248480025808878e-01 -3.508986615173692e-17

-2.880473341100244e-17  1.023027696771681e-17  9.991544032280852e-01
 1.023027696771681e-17  8.058663437774696e-16  4.382675299422552e-01
 9.991544032280852e-01  4.382675299422552e-01 -3.492973916914977e-17

-2.882282148496919e-17 -2.407414908922009e-18  9.861117121403373e-01
-2.407414908922009e-18  1.520599285472143e-16  4.325860811772909e-01
 9.861117121403373e-01  4.325860811772909e-01 -3.446912966511526e-17

-2.921355854850113e-17 -4.841877785310477e-18  1.017506492091460e+00
-4.841877785310477e-18 -4.609929426988520e-16  3.769323591185585e-01
 1.017506492091460e+00  3.769323591185585e-01 -3.556690466146444e-17

-2.950432476656475e-17 -8.706543852651268e-18  1.018411794249628e+00
-8.706543852651268e-18 -8.683753421990329e-16  3.988823027824042e-01
 1.018411794249628e+00  3.988823027824042e-01 -3.567675117850177e-17

-2.972917349338048e-17  4.074338678436513e-18  1.019590817130965e+00
 4.074338678436513e-18  6.305218101981707e-16  4.190553070973638e-01
 1.019590817130965e+00  4.190553070973638e-01 -3.585722146621113e-17

-2.993850052408569e-17  5.625472002898535e-18  1.013247683144542e+00
 5.625472002898535e-18  3.879490642881950e-16  4.217141966654537e-01
 1.013247683144542e+00  4.217141966654537e-01 -3.571218079975268e-17

-3.001444960690627e-17  7.472143124181369e-18  1.002096063812064e+00
 7.472143124181369e-18  7.026590009550587e-16  4.257360712947854e-01
 1.002096063812064e+00  4.257360712947854e-01 -3.537819050312001e-17

-3.023884873009265e-17 -5.152571097408629e-18  9.797436445032197e-01
-5.152571097408629e-18 -4.966264914410245e-16  4.184565009410627e-01
 9.797436445032197e-01  4.184565009410627e-01 -3.467610906164970e-17

-3.097206234313131e-17 -6.685040651020621e-18  1.000901716750942e+00
-6.685040651020621e-18 -8.294273279821283e-16  4.241336339370146e-01
 1.000901716750942e+00  4.241336339370146e-01 -3.559021063555388e-17

-3.135829504420797e-17 -1.144701934785562e-18  1.012642768711763e+00
-1.144701934785562e-18  2.569480689037835e-16  4.256015768537348e-01
 1.012642768711763e+00  4.256015768537348e-01 -3.611288407481216e-17

-3.177296290779178e-17  2.111703088439170e-18  1.005486450088950e+00
 2.111703088439170e-18  3.629019813300180e-16  4.165323184388072e-01
 1.005486450088950e+00  4.165323184388072e-01 -3.602119184008929e-17

-3.238459350839789e-17 -5.366278318422951e-18  1.004539775119344e+00
-5.366278318422951e-18 -8.190871214757806e-16  4.146905560252661e-01
 1.004539775119344e+00  4.146905560252661e-01 -3.614615358792406e-17

-3.295325843439633e-17  3.517702355252575e-18  1.009402582265592e+00
 3.517702355252575e-18  4.217958096427659e-16  4.219625247537072e-01
 1.009402582265592e+00  4.219625247537072e-01 -3.651557604356898e-17

-3.366280982883272e-17  3.696493627302619e-18  1.008643777927559e+00
 3.696493627302619e-18  4.204102345469013e-16  4.176690280799369e-01
 1.008643777927559e+00  4.176690280799369e-01 -3.673048222646903e-17

-3.427299591590504e-17 -3.990016305572718e-18  1.008753113917639e+00
-3.990016305572718e-18 -1.688304115689295e-16  4.188066093105816e-01
 1.008753113917639e+00  4.188066093105816e-01 -3.689012426269164e-17

-3.469226893703082e-17 -2.683993732166190e-18  1.008997127273125e+00
-2.683993732166190e-18 -6.368007545968270e-17  4.210239348180679e-01
 1.008997127273125e+00  4.210239348180679e-01 -3.703832919168535e-17

-3.506987048122587e-17  1.376334062600102e-17  1.009232881865899e+00
 1.376334062600102e-17  1.133181680846673e-15  4.206344343526957e-01
 1.009232881865899e+00  4.206344343526957e-01 -3.723411653982797e-17

-3.589437872671133e-17  1.330148843058695e-19  1.007767631404380e+00
 1.330148843058695e-19 -5.720096865006127e-17  4.184345242304363e-01
 1.007767631404380e+00  4.184345242304363e-01 -3.740705516728728e-17

-3.657647131037885e-17  7.717436800692956e-18  1.007919795250762e+00
 7.717436800692956e-18  4.878714638585219e-16  4.184064797472840e-01
 1.007919795250762e+00  4.184064797472840e-01 -3.766942823323902e-17

-3.793321789829611e-17 -1.575256977780782e-17  1.008096021266176e+00
-1.575256977780782e-17 -1.125719617319725e-15  4.200484969251486e-01
 1.008096021266176e+00  4.200484969251486e-01 -3.802404593441603e-17

-3.924363957294331e-17 -1.533836255338106e-17  1.005748132567640e+00
-1.533836255338106e-17 -1.128108900938384e-15  4.205736821577203e-01
 1.005748132567640e+00  4.205736821577203e-01 -3.841035445591599e-17

-4.031700067153556e-17  7.043307801908715e-18  9.985580037310955e-01
 7.043307801908715e-18 -3.589760114496824e-17  4.174335482851806e-01
 9.985580037310955e-01  4.174335482851806e-01 -3.863359655326359e-17

-4.165519992822228e-17  1.156224479289064e-17  1.014267318736451e+00
 1.156224479289064e-17  8.241324990066524e-16  4.015138951288932e-01
 1.014267318736451e+00  4.015138951288932e-01 -3.958378794650744e-17

-4.227424049581333e-17  1.366348677447069e-17  9.940061182223664e-01
 1.366348677447069e-17  5.218273199471215e-16  4.338569794994204e-01
 9.940061182223664e-01  4.338569794994204e-01 -3.917865262094598e-17

-4.375628886941313e-17 -1.039987537705633e-17  9.996436806250538e-01
-1.039987537705633e-17 -1.298132888323208e-15  4.276938028262378e-01
 9.996436806250538e-01  4.276938028262378e-01 -3.977143968898867e-17

-4.495115395815440e-17  8.956111956150502e-18  9.992877589609929e-01
 8.956111956150502e-18 -1.976444898645235e-16  4.132171126518765e-01
 9.992877589609929e-01  4.132171126518765e-01 -4.024502982685500e-17

-4.614843581267167e-17  7.094979915977351e-18  1.002747006883874e+00
 7.094979915977351e-18  2.997166191992995e-16  4.083598200841735e-01
 1.002747006883874e+00  4.083598200841735e-01 -4.075803457301695e-17

-4.753540024227961e-17 -4.168083883279618e-18  9.957638401001019e-01
-4.168083883279618e-18 -4.631740838692531e-16  4.212060565151949e-01
 9.957638401001019e-01  4.212060565151949e-01 -4.096252146156639e-17

-4.873261960373427e-17  1.345922050922169e-17  9.964108852332960e-01
 1.345922050922169e-17  6.388947072683974e-16  4.218032720947186e-01
 9.964108852332960e-01  4.218032720947186e-01 -4.146496502723024e-17

-5.050830740437798e-17  5.034646363322455e-18  1.001472245577072e+00
 5.034646363322455e-18 -6.903959023535607e-17  4.150724748793966e-01
 1.001472245577072e+00  4.150724748793966e-01 -4.218251698103259e-17

-5.256397930654264e-17  1.013060089786023e-17  1.014986132329179e+00
 1.013060089786023e-17  4.468438937950284e-16  4.014687844637322e-01
 1.014986132329179e+00  4.014687844637322e-01 -4.329471307434963e-17

-5.443807608324908e-17 -1.185980383012612e-18  1.014923672464806e+00
-1.185980383012612e-18 -7.813419752059467e-16  4.099427323561879e-01
 1.014923672464806e+00  4.099427323561879e-01 -4.388663826893557e-17

-5.820501350593178e-17  1.928387315809402e-17  1.012446780431529e+00
 1.928387315809402e-17  9.016935692949907e-16  4.180606445356967e-01
 1.012446780431529e+00  4.180606445356967e-01 -4.513722257645600e-17

-6.175809775162855e-17  1.020241004782265e-17  9.983431176537626e-01
 1.020241004782265e-17 -3.127601870502219e-16  4.190644722799238e-01
 9.983431176537626e-01  4.190644722799238e-01 -4.580981883737795e-17

-6.387753121448542e-17  1.607125694858240e-17  1.004857374242022e+00
 1.607125694858240e-17  5.092591186494461e-16  4.113344925519287e-01
 1.004857374242022e+00  4.113344925519287e-01 -4.671433495776836e-17

-6.799729545567480e-17  5.529435541566291e-18  1.010901736931956e+00
 5.529435541566291e-18 -1.678816855441708e-15  4.140921013328136e-01
 1.010901736931956e+00  4.140921013328136e-01 -4.822575315230124e-17

-7.507335377227226e-17  5.242798172796873e-18  1.013479966581720e+00
 5.242798172796873e-18 -1.337329688473248e-15  4.194951845299641e-01
 1.013479966581720e+00  4.194951845299641e-01 -5.060327454673231e-17

-8.183902361858867e-17  3.617552471723099e-17  1.013701125157531e+00
 3.617552471723099e-17  1.098832295762043e-15  4.146683989744599e-01
 1.013701125157531e+00  4.146683989744599e-01 -5.293425785145055e-17

-8.716864677434552e-17  3.135144919404770e-17  1.013872234419816e+00
 3.135144919404770e-17  7.860710184194519e-16  4.183538427999672e-01
 1.013872234419816e+00  4.183538427999672e-01 -5.473145954770625e-17

-9.995674981975283e-17 -1.884932570032933e-19  1.023597727099650e+00
-1.884932570032933e-19 -2.606523176968303e-15  4.129024987002989e-01
 1.023597727099650e+00  4.129024987002989e-01 -5.772039437113747e-17

-1.126152864690900e-16  5.999433595530395e-18  1.018535285801956e+00
 5.999433595530395e-18 -2.626689924352293e-15  4.330264738536205e-01
 1.018535285801956e+00  4.330264738536205e-01 -6.158181782924452e-17

-1.622415336946968e-16  5.953299453273367e-17  1.015614188971776e+00
 5.953299453273367e-17  9.593448244881545e-16  4.291127420887728e-01
 1.015614188971776e+00  4.291127420887728e-01 -6.389498566790619e-17

-1.309429315708740e-16  3.170212884331935e-17  1.027383367078229e+00
 3.170212884331935e-17 -4.339226018597851e-16  4.072545725178273e-01
 1.027383367078229e+00  4.072545725178273e-01 -6.722023802883083e-17

-1.534623352136526e-16  4.405442564386918e-17  1.013617522750568e+00
 4.405442564386918e-17 -4.660865484370463e-16  4.185551402437958e-01
 1.013617522750568e+00  4.185551402437958e-01 -7.366601794399900e-17

-1.949813295495771e-16  6.141858835294678e-17  1.013767226880097e+00
 6.141858835294678e-17 -1.674291919341125e-15  4.197023205358592e-01
 1.013767226880097e+00  4.197023205358592e-01 -8.719639803107457e-17

-2.495414902384071e-16  1.130495271763347e-16  1.013551566197973e+00
 1.130495271763347e-16 -5.239509049776535e-16  4.213920383486778e-01
 1.013551566197973e+00  4.213920383486778e-01 -1.034504083368550e-16

-3.190868868710577e-16  1.235062230451149e-16  1.011525547322872e+00
 1.235062230451149e-16 -2.292443919666826e-15  4.197487044501086e-01
 1.011525547322872e+00  4.197487044501086e-01 -1.232770602328238e-16

-4.075335359670513e-16  2.059739429601332e-16  1.008068833961177e+00
 2.059739429601332e-16 -6.486226153627582e-16  4.211894267739607e-01
 1.008068833961177e+00  4.211894267739607e-01 -1.483419825367826e-16

-4.804235031251012e-16  2.586848031964499e-16  1.009566567091354e+00
 2.586848031964499e-16  2.063866104066875e-15  4.190456326813395e-01
 1.009566567091354e+00  4.190456326813395e-01 -1.689088784893870e-16

-6.399323940385230e-16  2.807527608147525e-16  1.012739762559858e+00
 2.807527608147525e-16 -2.497471452928099e-15  4.195248787781266e-01
 1.012739762559858e+00  4.195248787781266e-01 -2.135981992559245e-16

-1.046035551673878e-15  4.570859794237663e-16  1.014481799541188e+00
 4.570859794237663e-16 -2.212613514141271e-15  4.199599703845197e-01
 1.014481799541188e+00  4.199599703845197e-01 -3.287274995111804e-16

-1.676712541897549e-15  6.464680389264012e-16  1.009814011971937e+00
 6.464680389264012e-16 -2.755781024488533e-15  4.219997721150799e-01
 1.009814011971937e+00  4.219997721150799e-01 -5.162435981781068e-16

-2.241146078974486e-15  7.657923994354992e-16  1.009518560026813e+00
 7.657923994354992e-16 -1.140093769131693e-15  4.196197749184426e-01
 1.009518560026813e+00  4.196197749184426e-01 -6.958296498740230e-16

-3.437162052744992e-15  8.315537271957168e-16  1.007788939018760e+00
 8.315537271957168e-16 -2.332313621624471e-15  4.217201595303049e-01
 1.007788939018760e+00  4.217201595303049e-01 -1.121524396137737e-15

-4.991033732550324e-15  6.905321568295368e-16  1.009152250899783e+00
 6.905321568295368e-16 -3.328905537805816e-15  4.208600964522017e-01
 1.009152250899783e+00  4.208600964522017e-01 -1.776082588428646e-15

-7.065163412477908e-15  3.295794252191569e-16  1.011101614149849e+00
 3.295794252191569e-16  7.023036379666828e-16  4.193088753361651e-01
 1.011101614149849e+00  4.193088753361651e-01 -2.793633428089712e-15

-9.910830118740282e-15 -4.741536635323048e-16  1.006335527787721e+00
-4.741536635323048e-16 -3.712577458921470e-15  4.257632419163152e-01
 1.006335527787721e+00  4.257632419163152e-01 -4.379330739388447e-15

-1.434324716593633e-14 -1.925148017343349e-15  1.011006261310428e+00
-1.925148017343349e-15 -2.906160843167898e-15  4.213052212660084e-01
 1.011006261310428e+00  4.213052212660084e-01 -7.031834889299685e-15

 2.256612527742779e-14 -2.612472226561206e-14  1.008966212316253e+00
-2.612472226561206e-14  2.988332801448061e-14  4.206090761727071e-01
 1.008966212316253e+00  4.206090761727071e-01 -8.767402301552587e-17

-6.174344523650196e-13  1.478307483456219e-13  1.011578741052485e+00
 1.478307483456219e-13 -2.529524489830328e-13  4.181744220074198e-01
 1.011578741052485e+00  4.181744220074198e-01 -2.192053995571285e-13

 8.823658367868806e-14 -2.272259374951346e-14  1.009842868692736e+00
-2.272259374951346e-14  5.424930556819562e-14  4.207219896508433e-01
 1.009842868692736e+00  4.207219896508433e-01  1.782207168907428e-14

-6.542040262344202e-13  1.535169222940526e-13  1.010875641650169e+00
 1.535169222940526e-13 -3.324235432871523e-13  4.183380285952379e-01
 1.010875641650169e+00  4.183380285952379e-01 -1.627379847528890e-13

-8.738084187567975e-15  1.140046899043075e-14  1.005199592495597e+00
 1.140046899043075e-14  5.382778984630690e-16  4.188344548850613e-01
 1.005199592495597e+00  4.188344548850613e-01 -1.011324932403593e-14

-4.212768427942905e-15  9.192621495557084e-15  1.001523769840820e+00
 9.192621495557084e-15  4.765505595454257e-16  4.158013003776697e-01
 1.001523769840820e+00  4.158013003776697e-01 -4.811247870105033e-15

-3.214785535317554e-15  7.328017891962679e-15  1.010919361379709e+00
 7.328017891962679e-15  1.124830693314493e-15  4.040619894535626e-01
 1.010919361379709e+00  4.040619894535626e-01 -3.480906314292658e-15

-2.635460588105774e-15  4.395513550494088e-15  1.015598720360467e+00
 4.395513550494088e-15  1.704812798385280e-15  4.128623724526583e-01
 1.015598720360467e+00  4.128623724526583e-01 -2.050145877510715e-15

-1.800255200141445e-15  1.622338064726089e-15  1.044784183369935e+00
 1.622338064726089e-15  1.099116532430201e-15  4.094867791138427e-01
 1.044784183369935e+00  4.094867791138427e-01 -9.483771620954058e-16

-1.149478659166452e-15  6.324837445655543e-16  1.016346933740589e+00
 6.324837445655543e-16  5.201874271915047e-16  4.225795130210461e-01
 1.016346933740589e+00  4.225795130210461e-01 -5.176457780202382e-16

-8.068110289129848e-16  3.188867945107545e-16  9.581889163571289e-01
 3.188867945107545e-16  2.632296699410084e-16  4.125767052776129e-01
 9.581889163571289e-01  4.125767052776129e-01 -3.462704493936687e-16

-5.474837031674274e-16  1.322166889250592e-16  9.641304072769452e-01
 1.322166889250592e-16  3.961311195818878e-17  4.213895745334698e-01
 9.641304072769452e-01  4.213895745334698e-01 -2.283181276556279e-16

-3.657135104769958e-16  4.470685609316644e-17  1.030732974200818e+00
 4.470685609316644e-17  2.714455022431408e-18  4.166347262282133e-01
 1.030732974200818e+00  4.166347262282133e-01 -1.563158593956135e-16

-2.887071670129873e-16  2.197963393973622e-17  1.006555423667245e+00
 2.197963393973622e-17  1.498890257045407e-17  4.371720473926388e-01
 1.006555423667245e+00  4.371720473926388e-01 -1.266262584019469e-16

-2.495545755528660e-16  1.369008687816095e-17  1.000999422931164e+00
 1.369008687816095e-17 -1.001145422424866e-17  3.996634640128814e-01
 1.000999422931164e+00  3.996634640128814e-01 -1.123065911314608e-16

-2.002989149559013e-16  4.447241179366632e-18  9.842228168625832e-01
 4.447241179366632e-18 -2.864421424504744e-17  4.117810122056040e-01
 9.842228168625832e-01  4.117810122056040e-01 -9.394672484395686e-17

-1.600746717845058e-16 -7.973238450987405e-19  1.017735225129826e+00
-7.973238450987405e-19 -3.551004790401378e-17  4.184726378397905e-01
 1.017735225129826e+00  4.184726378397905e-01 -8.065486973716682e-17

-1.231554289644444e-16 -6.732476229112032e-18  1.022989284031340e+00
-6.732476229112032e-18 -4.711350234276058e-17  4.133605474996280e-01
 1.022989284031340e+00  4.133605474996280e-01 -7.162966862917756e-17

-1.064489089589134e-16 -3.816363016607968e-18  1.007854974719893e+00
-3.816363016607968e-18 -4.859605174802823e-17  4.134300301228601e-01
 1.007854974719893e+00  4.134300301228601e-01 -6.163751864873962e-17

-9.277859525423039e-17 -3.905409627091507e-18  1.004139126393690e+00
-3.905409627091507e-18 -4.720322122884824e-17  4.160326142077038e-01
 1.004139126393690e+00  4.160326142077038e-01 -5.677763019334127e-17

-8.227621432650605e-17 -3.749392152530328e-18  1.003339707746539e+00
-3.749392152530328e-18 -7.545061701259914e-17  4.160588678873077e-01
 1.003339707746539e+00  4.160588678873077e-01 -5.314716843142994e-17

-7.354860587230542e-17 -3.508918184791524e-18  1.003170888330135e+00
-3.508918184791524e-18 -3.898137684149811e-17  4.160892616029075e-01
 1.003170888330135e+00  4.160892616029075e-01 -5.016040775116884e-17

-6.685307303464383e-17 -3.218488486450092e-18  1.002521090982220e+00
-3.218488486450092e-18 -3.746720822364586e-17  4.153686567266798e-01
 1.002521090982220e+00  4.153686567266798e-01 -4.783584918735802e-17

-6.137152677119081e-17 -2.917876956983957e-18  1.002807794328867e+00
-2.917876956983957e-18 -3.605505977803299e-17  4.129666912564905e-01
 1.002807794328867e+00  4.129666912564905e-01 -4.596245072055690e-17

-5.796250427547703e-17 -2.693937298664766e-18  1.004800548572927e+00
-2.693937298664766e-18 -2.750279715208605e-17  4.147351249260057e-01
 1.004800548572927e+00  4.147351249260057e-01 -4.487020866664587e-17

-5.446663451999044e-17 -2.448136668630589e-18  1.005496225274414e+00
-2.448136668630589e-18 -3.650501417039637e-17  4.148729343984051e-01
 1.005496225274414e+00  4.148729343984051e-01 -4.371963621908184e-17

-5.133314723480091e-17 -2.218012945318024e-18  1.004865591980089e+00
-2.218012945318024e-18 -3.945554518033850e-18  4.107474729908283e-01
 1.004865591980089e+00  4.107474729908283e-01 -4.261856711129169e-17

-4.940674006981423e-17 -2.071183340837021e-18  1.002866350954719e+00
-2.071183340837021e-18 -3.055464857935839e-17  4.109354255148088e-01
 1.002866350954719e+00  4.109354255148088e-01 -4.191832616937290e-17

-4.695020729361922e-17 -1.870777859238996e-18  1.002832395556148e+00
-1.870777859238996e-18 -7.441479055778434e-17  4.140109489366101e-01
 1.002832395556148e+00  4.140109489366101e-01 -4.108550971484859e-17

-4.470296743022658e-17 -1.672057527796972e-18  1.003690289710237e+00
-1.672057527796972e-18 -2.792627571090612e-17  4.129686592668413e-01
 1.003690289710237e+00  4.129686592668413e-01 -4.035443978000085e-17

-4.285312956855923e-17 -1.505297370694543e-18  1.004735055085645e+00
-1.505297370694543e-18 -2.697609822971317e-17  4.138196391869663e-01
 1.004735055085645e+00  4.138196391869663e-01 -3.973985699015332e-17

-4.129626193450824e-17 -1.376546117709447e-18  1.006062090169296e+00
-1.376546117709447e-18 -4.725465348668470e-17  4.140068392835038e-01
 1.006062090169296e+00  4.140068392835038e-01 -3.925537372192584e-17

-3.991568482898984e-17 -1.242664635548674e-18  1.007341376213882e+00
-1.242664635548674e-18 -3.717925398181790e-17  4.131894809437070e-01
 1.007341376213882e+00  4.131894809437070e-01 -3.882703861272475e-17

-3.864232194331063e-17 -1.111036735298999e-18  1.013034609581397e+00
-1.111036735298999e-18 -1.151125400465443e-17  4.121554224812514e-01
 1.013034609581397e+00  4.121554224812514e-01 -3.858391692000529e-17

-3.757358421141820e-17 -1.000541857011024e-18  1.013267276151740e+00
-1.000541857011024e-18 -1.070837436599326e-17  4.217354810435244e-01
 1.013267276151740e+00  4.217354810435244e-01 -3.821686401946175e-17

-3.692584215062549e-17 -9.520883732984068e-19  1.010363682304236e+00
-9.520883732984068e-19 -3.055012810114310e-17  4.199358362456551e-01
 1.010363682304236e+00  4.199358362456551e-01 -3.791234813268895e-17

-3.647415749936963e-17 -9.171027817110959e-19  1.015872604577958e+00
-9.171027817110959e-19 -4.390535935524445e-17  4.077865728267370e-01
 1.015872604577958e+00  4.077865728267370e-01 -3.794328213161680e-17

-3.551513916558889e-17 -8.333757445191809e-19  1.009007874878532e+00
-8.333757445191809e-19 -4.319226446128323e-17  4.140239802188611e-01
 1.009007874878532e+00  4.140239802188611e-01 -3.738783891883578e-17

-3.471399400200769e-17 -7.589874444111179e-19  1.010131722903101e+00
-7.589874444111179e-19 -1.984915294671939e-17  4.167193713177997e-01
 1.010131722903101e+00  4.167193713177997e-01 -3.716096884082636e-17

-3.425810521532664e-17 -7.137079369266176e-19  1.012330051108181e+00
-7.137079369266176e-19 -3.553857837795995e-17  4.148343136059666e-01
 1.012330051108181e+00  4.148343136059666e-01 -3.706230723608942e-17

-3.370858402746231e-17 -6.722960474847447e-19  1.010843466239303e+00
-6.722960474847447e-19 -5.275776256618984e-17  4.156032436229692e-01
 1.010843466239303e+00  4.156032436229692e-01 -3.684778179399013e-17

-3.318298984497902e-17 -6.260380089484333e-19  1.010864562993861e+00
-6.260380089484333e-19 -2.300686884632908e-17  4.137003071955064e-01
 1.010864562993861e+00  4.137003071955064e-01 -3.666846670120547e-17

-3.269875209930779e-17 -5.868031142343099e-19  1.007784014908162e+00
-5.868031142343099e-19  1.493022404116950e-17  4.163238208518996e-01
 1.007784014908162e+00  4.163238208518996e-01 -3.641603686082845e-17

-3.231860668973561e-17 -5.503697972152672e-19  1.009748753105389e+00
-5.503697972152672e-19  8.951882948729922e-18  4.126395476870303e-01
 1.009748753105389e+00  4.126395476870303e-01 -3.634969756998407e-17

-3.195213549679714e-17 -5.246943980321002e-19  1.008572432081440e+00
-5.246943980321002e-19 -3.420937216695173e-17  4.154079707879404e-01
 1.008572432081440e+00  4.154079707879404e-01 -3.619959553763306e-17

-3.143858142910261e-17 -4.844901090062297e-19  1.002411374345117e+00
-4.844901090062297e-19 -4.796874985023437e-17  4.170593412461409e-01
 1.002411374345117e+00  4.170593412461409e-01 -3.584031239819704e-17

-3.084119622476893e-17 -4.429197053818282e-19  9.979027383244066e-01
-4.429197053818282e-19 -5.199308236938090e-18  4.175628552045841e-01
 9.979027383244066e-01  4.175628552045841e-01 -3.550610263870162e-17

-3.072897125899154e-17 -4.118452097065563e-19  1.016671717014200e+00
-4.118452097065563e-19 -2.508022126038065e-17  4.002910340902119e-01
 1.016671717014200e+00  4.002910340902119e-01 -3.606728601841643e-17

-3.044965875081702e-17 -3.959180884732435e-19  1.006412004972239e+00
-3.959180884732435e-19 -5.036894070396454e-17  4.171261447683547e-01
 1.006412004972239e+00  4.171261447683547e-01 -3.565087656276458e-17

-3.015454286706471e-17 -3.740962784749438e-19  1.002973574827714e+00
-3.740962784749438e-19 -2.903930338153682e-17  4.134209195405078e-01
 1.002973574827714e+00  4.134209195405078e-01 -3.543534481297372e-17

-2.982580664179201e-17 -3.613261153354780e-19  9.971818657900051e-01
-3.613261153354780e-19 -1.302093337862398e-18  4.091367544819105e-01
 9.971818657900051e-01  4.091367544819105e-01 -3.515125611703125e-17

-2.996403799313534e-17 -3.498613909209584e-19  1.018797567451777e+00
-3.498613909209584e-19 -1.893632588011887e-17  4.000258933589713e-01
 1.018797567451777e+00  4.000258933589713e-01 -3.588810280365550e-17

-2.996816381362812e-17 -3.431036438026916e-19  1.025370083316135e+00
-3.431036438026916e-19 -1.817628078315952e-17  4.079056636844478e-01
 1.025370083316135e+00  4.079056636844478e-01 -3.610335165201445e-17

-2.950327452121605e-17 -3.147393402493745e-19  1.012286392845010e+00
-3.147393402493745e-19 -5.641359248627664e-17  4.078662077502890e-01
 1.012286392845010e+00  4.078662077502890e-01 -3.554188914655792e-17

-2.911409769827244e-17 -3.104380679135997e-19  9.997416579244139e-01
-3.104380679135997e-19 -1.926079298923217e-17  4.186667626448778e-01
 9.997416579244139e-01  4.186667626448778e-01 -3.501315154202934e-17

-2.891585635386441e-17 -2.853308291988617e-19  1.000976036942532e+00
-2.853308291988617e-19 -4.884514999231361e-18  4.150336814456774e-01
 1.000976036942532e+00  4.150336814456774e-01 -3.499981535370486e-17

-2.853267038420734e-17 -2.785153706215527e-19  9.867139623170099e-01
-2.785153706215527e-19 -2.434251843242188e-17  4.204480284798780e-01
 9.867139623170099e-01  4.204480284798780e-01 -3.442520817080937e-17

-2.849372452202562e-17 -2.772672783605107e-19  9.928296780049944e-01
-2.772672783605107e-19  2.501240391945567e-17  4.162554356706669e-01
 9.928296780049944e-01  4.162554356706669e-01 -3.461712038954378e-17

-2.845734266389538e-17 -2.714394685958438e-19  1.002157727931491e+00
-2.714394685958438e-19  2.028146720822874e-17  4.106773200970417e-01
 1.002157727931491e+00  4.106773200970417e-01 -3.490517646382580e-17

-2.834401319244556e-17 -2.482456101634655e-19  9.997947755975762e-01
-2.482456101634655e-19 -8.121418047179813e-19  4.145863319435945e-01
 9.997947755975762e-01  4.145863319435945e-01 -3.477785591224546e-17

-2.804041487941107e-17 -2.566982684759498e-19  9.920940740687308e-01
-2.566982684759498e-19 -5.087698574038310e-18  4.119314822782578e-01
 9.920940740687308e-01  4.119314822782578e-01 -3.445657708462252e-17

-2.767941761778780e-17 -2.529850338750290e-19  9.726517161219684e-01
-2.529850338750290e-19 -1.693626493003307e-17  4.174985925932328e-01
 9.726517161219684e-01  4.174985925932328e-01 -3.371574584403213e-17

-2.731530099669656e-17 -2.583965613725076e-19  9.620084061181454e-01
-2.583965613725076e-19  1.280855132225657e-17  4.216583259244049e-01
 9.620084061181454e-01  4.216583259244049e-01 -3.328511598593502e-17

-2.702906799542288e-17 -2.772369057494965e-19  9.502714232693782e-01
-2.772369057494965e-19 -2.197907140912072e-17  4.220003928542311e-01
 9.502714232693782e-01  4.220003928542311e-01 -3.281748244128347e-17

-2.757685931173256e-17 -2.294923211079705e-19  1.011623152806296e+00
-2.294923211079705e-19 -5.242006472293365e-17  3.523812745073687e-01
 1.011623152806296e+00  3.523812745073687e-01 -3.498383907863762e-17

-2.671423834871720e-17 -2.361503482409049e-19  9.428904837523887e-01
-2.361503482409049e-19  3.520632933269335e-18  4.120704370838336e-01
 9.428904837523887e-01  4.120704370838336e-01 -3.248493400189341e-17

-2.706173679015837e-17 -2.035458279993751e-19  9.678109457196173e-01
-2.035458279993751e-19 -4.725313044950995e-17  4.219633473623335e-01
 9.678109457196173e-01  4.219633473623335e-01 -3.339644440721063e-17

-2.723776397283725e-17 -2.164213442315030e-19  9.804080125272955e-01
-2.164213442315030e-19 -2.720998551745701e-17  4.278629076538137e-01
 9.804080125272955e-01  4.278629076538137e-01 -3.386867269293681e-17

-2.742935527488188e-17 -2.002768509451798e-19  9.982626584609472e-01
-2.002768509451798e-19 -9.142497588889361e-18  4.130269579449453e-01
 9.982626584609472e-01  4.130269579449453e-01 -3.448200354822636e-17

-2.744364848076583e-17 -1.923113868941845e-19  1.002680744826695e+00
-1.923113868941845e-19 -4.073276724709300e-17  4.133561205770278e-01
 1.002680744826695e+00  4.133561205770278e-01 -3.463055098653601e-17

-2.751728451221805e-17 -1.848118393229489e-19  1.010452709302115e+00
-1.848118393229489e-19 -2.277736483570484e-17  4.109510707848258e-01
 1.010452709302115e+00  4.109510707848258e-01 -3.490229210796413e-17

-2.749596097302382e-17 -1.735908615898381e-19  1.010004683110657e+00
-1.735908615898381e-19  1.776019545884719e-17  4.177213466171674e-01
 1.010004683110657e+00  4.177213466171674e-01 -3.487666646531404e-17

-2.737581278825203e-17 -1.681699074645861e-19  1.008525803069441e+00
-1.681699074645861e-19 -1.923809869827684e-17  4.111981577891529e-01
 1.008525803069441e+00  4.111981577891529e-01 -3.477846640988467e-17

-2.741137928953716e-17 -1.785721341943020e-19  1.012757131503863e+00
-1.785721341943020e-19 -8.922916060065520e-18  4.151016498457438e-01
 1.012757131503863e+00  4.151016498457438e-01 -3.489364750662257e-17

-2.739665303686703e-17 -1.942942966095786e-19  1.016256416083829e+00
-1.942942966095786e-19  2.290954956923475e-18  4.238804081886556e-01
 1.016256416083829e+00  4.238804081886556e-01 -3.499857981025667e-17

-2.730494174070558e-17 -2.342241176178921e-19  1.015915669888328e+00
-2.342241176178921e-19 -1.025189021387925e-17  4.262159723384156e-01
 1.015915669888328e+00  4.262159723384156e-01 -3.492435938425681e-17

-2.729150935732670e-17 -2.501779139863788e-19  1.019422681879194e+00
-2.501779139863788e-19 -1.558837464495377e-17  4.233095931434853e-01
 1.019422681879194e+00  4.233095931434853e-01 -3.502275475905284e-17

-2.726667385325236e-17 -2.637911822456731e-19  1.023680779863776e+00
-2.637911822456731e-19 -1.199760654462160e-17  4.208792395906235e-01
 1.023680779863776e+00  4.208792395906235e-01 -3.514274737881134e-17

-2.718893370783834e-17 -2.667921694416492e-19  1.021590561599232e+00
-2.667921694416492e-19 -5.165379609554143e-18  4.270018461221788e-01
 1.021590561599232e+00  4.270018461221788e-01 -3.505644825224944e-17

-2.703047192512644e-17 -2.567567859635316e-19  1.013190773692709e+00
-2.567567859635316e-19  1.015282592969967e-17  4.306978964842296e-01
 1.013190773692709e+00  4.306978964842296e-01 -3.475625998199327e-17

-2.694591177050133e-17 -2.693474686939388e-19  1.011763624631802e+00
-2.693474686939388e-19 -2.694717284874184e-17  4.247874353063237e-01
 1.011763624631802e+00  4.247874353063237e-01 -3.467929951039412e-17

-2.687360270210287e-17 -2.435837852876413e-19  1.013940352752553e+00
-2.435837852876413e-19  3.932047111957216e-18  4.197424233464472e-01
 1.013940352752553e+00  4.197424233464472e-01 -3.475967969305413e-17

-2.692894423968113e-17 -2.529045346068741e-19  1.014240208069835e+00
-2.529045346068741e-19 -1.351530453206873e-17  4.334628026572230e-01
 1.014240208069835e+00  4.334628026572230e-01 -3.479782628444715e-17

-2.686379280942517e-17 -2.416366010434888e-19  1.015180309786926e+00
-2.416366010434888e-19 -1.290296366585960e-17  4.323188388542648e-01
 1.015180309786926e+00  4.323188388542648e-01 -3.482619250175801e-17

-2.668469260891720e-17 -2.232394426218557e-19  1.011943027109117e+00
-2.232394426218557e-19 -1.008932338683670e-17  4.170392837806710e-01
 1.011943027109117e+00  4.170392837806710e-01 -3.468087453635824e-17

-2.671863289212259e-17 -2.316804167738177e-19  1.013542499204248e+00
-2.316804167738177e-19 -2.897766654800397e-17  4.204383369947123e-01
 1.013542499204248e+00  4.204383369947123e-01 -3.474240423024115e-17

-2.664853643240971e-17 -2.113996004125816e-19  1.012059458826996e+00
-2.113996004125816e-19 -1.580474540295831e-17  4.297238665758701e-01
 1.012059458826996e+00  4.297238665758701e-01 -3.471538908209288e-17

-2.663028802638427e-17 -1.851017598357263e-19  1.016224197083176e+00
-1.851017598357263e-19 -9.081501697267259e-18  4.162469762149215e-01
 1.016224197083176e+00  4.162469762149215e-01 -3.484510107604666e-17

-2.679448704157192e-17 -1.869768822194621e-19  1.031176588675977e+00
-1.869768822194621e-19 -3.079272853134981e-17  4.027852350379338e-01
 1.031176588675977e+00  4.027852350379338e-01 -3.538176931595456e-17

-2.684820988761094e-17 -1.780163323472474e-19  1.031391707536402e+00
-1.780163323472474e-19 -1.643063485541455e-17  4.214814238467360e-01
 1.031391707536402e+00  4.214814238467360e-01 -3.543578464797537e-17

-2.674897880848560e-17 -1.546758828872184e-19  1.022634213994961e+00
-1.546758828872184e-19 -1.435825142183190e-17  4.353341385549945e-01
 1.022634213994961e+00  4.353341385549945e-01 -3.513385504694491e-17

-2.711985984888636e-17 -1.414879149584815e-19  1.065171253929301e+00
-1.414879149584815e-19 -6.956789077949367e-18  3.749344188705774e-01
 1.065171253929301e+00  3.749344188705774e-01 -3.660905632664460e-17

-2.707530493034404e-17 -1.485200689151889e-19  1.059038679143576e+00
-1.485200689151889e-19 -2.356023281352098e-17  3.878376993743406e-01
 1.059038679143576e+00  3.878376993743406e-01 -3.638005241635097e-17

-2.643201056541296e-17 -8.563193171602668e-20  1.004469239967359e+00
-8.563193171602668e-20 -2.312639671678964e-17  4.709137770339856e-01
 1.004469239967359e+00  4.709137770339856e-01 -3.442339694117552e-17

-2.633274484516967e-17 -1.794630889966215e-19  1.026486440341885e+00
-1.794630889966215e-19 -3.011663898198564e-18  3.604002403729555e-01
 1.026486440341885e+00  3.604002403729555e-01 -3.515363214543950e-17

-2.602411317210121e-17 -1.270066268363452e-19  1.014312806515338e+00
-1.270066268363452e-19 -4.389990563912797e-18  3.456172428824996e-01
 1.014312806515338e+00  3.456172428824996e-01 -3.459175611002123e-17

-2.652895671021909e-17 -1.679103330629839e-19  1.023611197991566e+00
-1.679103330629839e-19 -1.530333672850812e-17  4.399335814561199e-01
 1.023611197991566e+00  4.399335814561199e-01 -3.518465748712995e-17

-2.673480367687166e-17 -1.328758393336459e-19  1.045359018477492e+00
-1.328758393336459e-19 -1.130060834745157e-17  4.151591142414257e-01
 1.045359018477492e+00  4.151591142414257e-01 -3.589472587975627e-17

-2.604229777808889e-17 -1.080378398989166e-19  9.954103679143340e-01
-1.080378398989166e-19 -7.609592161525460e-18  4.550668435266439e-01
 9.954103679143340e-01  4.550668435266439e-01 -3.404370162252366e-17

-2.619858698005590e-17 -1.649562014857643e-19  1.029133142470626e+00
-1.649562014857643e-19 -5.585900992094915e-18  3.793532359677602e-01
 1.029133142470626e+00  3.793532359677602e-01 -3.524144428939668e-17

-2.575187621465101e-17 -1.584121192723477e-19  1.001713606325719e+00
-1.584121192723477e-19 -2.183312162560283e-17  3.815774901333835e-01
 1.001713606325719e+00  3.815774901333835e-01 -3.421843515977429e-17

-2.579919524861657e-17 -1.275355356384457e-19  9.919697610577520e-01
-1.275355356384457e-19 -8.862606336841657e-18  4.415832099744902e-01
 9.919697610577520e-01  4.415832099744902e-01 -3.395644158766485e-17

-2.589922722524729e-17 -1.207793505328676e-19  1.001355422602852e+00
-1.207793505328676e-19 -4.566129336855716e-18  4.348183364141232e-01
 1.001355422602852e+00  4.348183364141232e-01 -3.428910630840058e-17

-2.589207008880455e-17 -7.083603066740382e-20  1.007412169318486e+00
-7.083603066740382e-20 -9.678967306202722e-18  4.133648262681295e-01
 1.007412169318486e+00  4.133648262681295e-01 -3.448534525108451e-17

-2.576893980097365e-17 -9.604003249197921e-20  1.002557382293658e+00
-9.604003249197921e-20 -1.792979067929185e-17  4.073243977365978e-01
 1.002557382293658e+00  4.073243977365978e-01 -3.430549658226392e-17

-2.589075107152065e-17 -7.342515310748830e-20  1.010637024325714e+00
-7.342515310748830e-20  8.396577523681128e-20  4.090489927661708e-01
 1.010637024325714e+00  4.090489927661708e-01 -3.461423492603949e-17

-2.590928066624846e-17 -1.058319464724073e-19  1.009171054991751e+00
-1.058319464724073e-19 -1.523858768499581e-17  4.202268587570351e-01
 1.009171054991751e+00  4.202268587570351e-01 -3.457447975801508e-17

-2.589800303740644e-17 -4.599553423661695e-20  1.011971488113244e+00
-4.599553423661695e-20 -1.144005223496239e-17  4.139153279897195e-01
 1.011971488113244e+00  4.139153279897195e-01 -3.467119788831413e-17

-2.587453670533387e-17 -5.364216209586344e-20  1.009588263101541e+00
-5.364216209586344e-20 -2.736370285782878e-17  4.093932133916600e-01
 1.009588263101541e+00  4.093932133916600e-01 -3.456198162455857e-17

-2.575111537241223e-17 -4.362205622955602e-20  1.006031490254916e+00
-4.362205622955602e-20 -1.753502909805188e-17  4.143184420756398e-01
 1.006031490254916e+00  4.143184420756398e-01 -3.443132525604558e-17

-2.573050791002406e-17 -4.811878648586179e-20  1.005294310871438e+00
-4.811878648586179e-20 -1.513979412334358e-17  4.191609243796871e-01
 1.005294310871438e+00  4.191609243796871e-01 -3.439900435006698e-17

-2.579297687348516e-17 -7.073866678381303e-20  1.007989346289841e+00
-7.073866678381303e-20 -1.963717112033370e-17  4.152702422781613e-01
 1.007989346289841e+00  4.152702422781613e-01 -3.448831941792103e-17

-2.572788198958872e-17 -6.491833689698058e-20  1.009718361421626e+00
-6.491833689698058e-20 -2.288523955384093e-17  4.108597714979570e-01
 1.009718361421626e+00  4.108597714979570e-01 -3.454231312857336e-17

-2.572757418113592e-17 -3.891451539723303e-20  1.008782970509709e+00
-3.891451539723303e-20 -1.241889042641582e-17  4.170220914139747e-01
 1.008782970509709e+00  4.170220914139747e-01 -3.451030896189651e-17

-2.572684865962309e-17 -7.339138820203349e-20  1.008346182007403e+00
-7.339138820203349e-20 -2.432125545710979e-17  4.187057301917090e-01
 1.008346182007403e+00  4.187057301917090e-01 -3.449533436163972e-17

-2.570916544661391e-17 -4.761708540217546e-20  1.009832922781448e+00
-4.761708540217546e-20 -5.504781906265569e-18  4.156451775317048e-01
 1.009832922781448e+00  4.156451775317048e-01 -3.454246912189600e-17

-2.565739917929245e-17 -4.827941323828343e-20  1.008940562779775e+00
-4.827941323828343e-20 -1.159980964123880e-17  4.144812789934542e-01
 1.008940562779775e+00  4.144812789934542e-01 -3.450965799827618e-17

-2.564730750760983e-17 -4.727150641721063e-20  1.008636443186677e+00
-4.727150641721063e-20 -2.508246082979087e-18  4.150545863608203e-01
 1.008636443186677e+00  4.150545863608203e-01 -3.450282687753417e-17

-2.566518868414271e-17 -4.679321281131016e-20  1.010986304795539e+00
-4.679321281131016e-20 -8.928561552582997e-18  4.141644562835882e-01
 1.010986304795539e+00  4.141644562835882e-01 -3.457895861705324e-17

-2.563066448500580e-17 -3.336024507981482e-20  1.010187024892509e+00
-3.336024507981482e-20 -2.024356172307862e-17  4.156153639073332e-01
 1.010187024892509e+00  4.156153639073332e-01 -3.455444549921656e-17

-2.564396998796008e-17 -4.507468076806124e-20  1.010744766667350e+00
-4.507468076806124e-20 -1.478046680812464e-17  4.155880052589969e-01
 1.010744766667350e+00  4.155880052589969e-01 -3.456589619028494e-17

-2.557457495583181e-17 -5.055653915848646e-20  1.009591222583878e+00
-5.055653915848646e-20 -1.138639050824860e-17  4.148704950598240e-01
 1.009591222583878e+00  4.148704950598240e-01 -3.452160394531227e-17

-2.560663071204397e-17 -1.859448306902325e-20  1.014491670490302e+00
-1.859448306902325e-20 -2.751702202032523e-17  4.110960738100315e-01
 1.014491670490302e+00  4.110960738100315e-01 -3.468753455294649e-17

-2.555199910121691e-17 -6.641301790169290e-20  1.008067348211408e+00
-6.641301790169290e-20 -2.052386456994747e-17  4.205935394742030e-01
 1.008067348211408e+00  4.205935394742030e-01 -3.446976338298198e-17

-2.553773061380697e-17 -8.112777875956953e-20  1.010304239864907e+00
-8.112777875956953e-20 -5.825886183753570e-18  4.179211412771590e-01
 1.010304239864907e+00  4.179211412771590e-01 -3.454002864292149e-17

-2.549890103124654e-17 -5.002422502560956e-20  1.009678094484568e+00
-5.002422502560956e-20 -6.648676378351972e-18  4.127161922865156e-01
 1.009678094484568e+00  4.127161922865156e-01 -3.450766688282222e-17

-2.553252895662592e-17 -8.928812223158937e-20  1.013636711412573e+00
-8.928812223158937e-20 -1.101109565939703e-17  4.090079457745419e-01
 1.013636711412573e+00  4.090079457745419e-01 -3.465641542462588e-17

-2.550861205715672e-17 -4.732610868709653e-20  1.011162215634515e+00
-4.732610868709653e-20 -1.076697605689487e-17  4.166208221364686e-01
 1.011162215634515e+00  4.166208221364686e-01 -3.457116264170884e-17

-2.548452577024907e-17 -5.999012853148413e-20  1.011967975989785e+00
-5.999012853148413e-20 -1.494647675294756e-17  4.140592321429374e-01
 1.011967975989785e+00  4.140592321429374e-01 -3.460412383828008e-17

-2.535190171127071e-17 -5.513252908317299e-20  1.002045454350952e+00
-5.513252908317299e-20 -9.713233332199098e-18  4.196609007914170e-01
 1.002045454350952e+00  4.196609007914170e-01 -3.425281182222170e-17

-2.534211816157280e-17 -1.816221124220681e-20  1.003180165402610e+00
-1.816221124220681e-20 -2.188303263737376e-17  4.160683565086180e-01
 1.003180165402610e+00  4.160683565086180e-01 -3.428344066320103e-17

-2.537213381104646e-17 -5.358972057560034e-20  1.007043318280235e+00
-5.358972057560034e-20 -2.256313439098878e-17  4.152499395215784e-01
 1.007043318280235e+00  4.152499395215784e-01 -3.443338565206187e-17

-2.546735678784070e-17 -3.970281737053332e-20  1.013302759022093e+00
-3.970281737053332e-20  7.251079928811510e-18  4.088350665892148e-01
 1.013302759022093e+00  4.088350665892148e-01 -3.465480638624106e-17

-2.545085344105229e-17 -2.066755966601855e-20  1.014537782655527e+00
-2.066755966601855e-20 -2.288644600517774e-17  4.102225573150870e-01
 1.014537782655527e+00  4.102225573150870e-01 -3.470912625154618e-17

-2.548927310829404e-17 -1.389900347587352e-22  1.019267557388093e+00
-1.389900347587352e-22 -2.257604554576048e-17  4.090587839939180e-01
 1.019267557388093e+00  4.090587839939180e-01 -3.487898682490780e-17

-2.530800611644838e-17 -3.548026858533541e-20  1.006036008165485e+00
-3.548026858533541e-20 -1.299974648492241e-17  4.139613965401691e-01
 1.006036008165485e+00  4.139613965401691e-01 -3.440187840778411e-17

-2.522043336472019e-17 -2.577162305585075e-23  1.002740403277951e+00
-2.577162305585075e-23 -2.149189459923825e-17  4.111242973785932e-01
 1.002740403277951e+00  4.111242973785932e-01 -3.426775112572166e-17

-2.516397843480499e-17 -2.572304965078043e-20  9.974088143776536e-01
-2.572304965078043e-20 -2.431757474375418e-17  4.167149382521861e-01
 9.974088143776536e-01  4.167149382521861e-01 -3.407299600112144e-17

-2.528040032547039e-17  1.107652381479919e-20  1.009146018882467e+00
 1.107652381479919e-20 -1.948444317678206e-17  4.074293047659572e-01
 1.009146018882467e+00  4.074293047659572e-01 -3.448910049860137e-17

-2.534807140204706e-17  6.377610884641792e-21  1.012753565460824e+00
 6.377610884641792e-21 -2.568533539994546e-17  4.115462464051339e-01
 1.012753565460824e+00  4.115462464051339e-01 -3.462599566714885e-17

-2.527610686272665e-17 -3.018611569565427e-20  1.010004529990723e+00
-3.018611569565427e-20 -1.441761831302494e-17  4.145280620676062e-01
 1.010004529990723e+00  4.145280620676062e-01 -3.452776687217847e-17

-2.514571294332466e-17 -1.894214225717059e-20  9.966350796824132e-01
-1.894214225717059e-20 -1.677511653602788e-17  4.186611608145641e-01
 9.966350796824132e-01  4.186611608145641e-01 -3.404020493663000e-17

-2.494628440167550e-17  5.140893532703046e-21  9.865428056480284e-01
 5.140893532703046e-21 -1.684396745820653e-17  4.231041988771434e-01
 9.865428056480284e-01  4.231041988771434e-01 -3.366621958296832e-17

-2.505496661244001e-17 -2.476287184352080e-20  9.992519067829720e-01
-2.476287184352080e-20 -1.843288662360786e-17  4.146745392851210e-01
 9.992519067829720e-01  4.146745392851210e-01 -3.411913189843671e-17

-2.515370317878273e-17 -2.425636132181621e-20  1.005072555427964e+00
-2.425636132181621e-20 -1.359906920291390e-17  4.065810832915063e-01
 1.005072555427964e+00  4.065810832915063e-01 -3.431628217705653e-17

-2.503425062244699e-17 -2.145373262255172e-20  1.002284305113632e+00
-2.145373262255172e-20 -2.089846657757000e-17  4.068055216876231e-01
 1.002284305113632e+00  4.068055216876231e-01 -3.421322428424863e-17

-2.507222452931687e-17 -2.876307959001207e-22  1.003124579028108e+00
-2.876307959001207e-22 -1.488663921055771e-17  4.188907431877749e-01
 1.003124579028108e+00  4.188907431877749e-01 -3.424393854791641e-17

-2.498474912030772e-17 -1.938413267272446e-20  9.974099377886469e-01
-1.938413267272446e-20 -1.402433139297168e-17  4.152770864545284e-01
 9.974099377886469e-01  4.152770864545284e-01 -3.403047691549925e-17

-2.477261858364652e-17 -9.746205028027488e-21  9.892883026807381e-01
-9.746205028027488e-21 -2.429471925145209e-17  4.045407208191558e-01
 9.892883026807381e-01  4.045407208191558e-01 -3.371307495743614e-17

-2.481942621402749e-17 -1.873235321069137e-20  9.914954651024752e-01
-1.873235321069137e-20 -1.863492028661120e-17  4.072483117581606e-01
 9.914954651024752e-01  4.072483117581606e-01 -3.378805775750940e-17

-2.483005036739796e-17 -7.584642425670123e-21  9.875586277764664e-01
-7.584642425670123e-21 -2.199157309359407e-17  4.280859429425526e-01
 9.875586277764664e-01  4.280859429425526e-01 -3.368008978872027e-17

-2.502703858062163e-17 -1.170658902630447e-20  1.003928955316756e+00
-1.170658902630447e-20 -3.769756917770829e-17  4.154127402912964e-01
 1.003928955316756e+00  4.154127402912964e-01 -3.426003294029673e-17

-2.500553366773717e-17 -2.032849511021181e-20  1.004594246478111e+00
-2.032849511021181e-20  6.343646696753761e-18  4.081582492252791e-01
 1.004594246478111e+00  4.081582492252791e-01 -3.427749060051415e-17

-2.505915910358789e-17 -2.007450287499505e-20  1.009133237980198e+00
-2.007450287499505e-20 -7.866269974184293e-18  4.031947999228863e-01
 1.009133237980198e+00  4.031947999228863e-01 -3.444103720062017e-17

-2.499218798817100e-17 -2.742964937797786e-20  1.000819114989439e+00
-2.742964937797786e-20 -1.258510090263539e-17  4.211886240199841e-01
 1.000819114989439e+00  4.211886240199841e-01 -3.415592919240972e-17

-2.503310575420020e-17 -1.634957888344125e-20  1.003956847220540e+00
-1.634957888344125e-20 -2.156864396805157e-17  4.186602270311822e-01
 1.003956847220540e+00  4.186602270311822e-01 -3.426033961246170e-17

-2.495924867655647e-17 -2.439811809572789e-20  1.001669134995710e+00
-2.439811809572789e-20  2.166610564961736e-18  4.134796773734568e-01
 1.001669134995710e+00  4.134796773734568e-01 -3.416698631964417e-17

-2.496250627695834e-17 -2.103688546746560e-20  1.002353639542261e+00
-2.103688546746560e-20 -1.262798022273886e-17  4.143726833291552e-01
 1.002353639542261e+00  4.143726833291552e-01 -3.419604974726340e-17

-2.507779257616682e-17 -2.354096411626476e-20  1.008984056980328e+00
-2.354096411626476e-20 -2.889270482575488e-17  4.139613758750577e-01
 1.008984056980328e+00  4.139613758750577e-01 -3.443409440694191e-17

-2.502784266019731e-17 -3.030672271129609e-20  1.007748265142922e+00
-3.030672271129609e-20  2.569166424848460e-18  4.123636664115568e-01
 1.007748265142922e+00  4.123636664115568e-01 -3.438843859814209e-17

-2.514748796376764e-17 -3.482665708575733e-20  1.016091822085242e+00
-3.482665708575733e-20 -1.355274183751759e-17  4.080968689095022e-01
 1.016091822085242e+00  4.080968689095022e-01 -3.468572958504052e-17

-2.510268098332813e-17 -3.392556487878012e-20  1.013411854837790e+00
-3.392556487878012e-20 -1.671005244152289e-17  4.104157281803876e-01
 1.013411854837790e+00  4.104157281803876e-01 -3.459918342718369e-17

-2.499524094284569e-17 -3.131627966487094e-20  1.002573255970274e+00
-3.131627966487094e-20  1.532633175161055e-18  4.225641833017563e-01
 1.002573255970274e+00  4.225641833017563e-01 -3.421074114777763e-17

-2.505485123539132e-17 -4.119883548489126e-20  1.010376536539542e+00
-4.119883548489126e-20 -2.651562117228019e-17  4.138634954161821e-01
 1.010376536539542e+00  4.138634954161821e-01 -3.448903468634741e-17

-2.499691671937379e-17 -4.022708936238905e-20  1.007236785125004e+00
-4.022708936238905e-20 -1.906640276256940e-17  4.151714330430636e-01
 1.007236785125004e+00  4.151714330430636e-01 -3.437480766406077e-17

-2.496489020566327e-17 -3.889488777811234e-20  1.006362185444074e+00
-3.889488777811234e-20 -2.621253568215491e-17  4.148961898352673e-01
 1.006362185444074e+00  4.148961898352673e-01 -3.434192083975242e-17

-2.501082177940050e-17 -3.516860057111595e-20  1.008933237355495e+00
-3.516860057111595e-20 -7.596181357943651e-18  4.162003969188184e-01
 1.008933237355495e+00  4.162003969188184e-01 -3.444244611749469e-17

-2.499579946084959e-17 -2.900678014959115e-20  1.008949512598684e+00
-2.900678014959115e-20  5.408850993854823e-18  4.157766985188892e-01
 1.008949512598684e+00  4.157766985188892e-01 -3.444368019598478e-17

-2.499472482192156e-17 -2.425438212902192e-20  1.009703108367653e+00
-2.425438212902192e-20 -4.282844709449407e-18  4.112763142134584e-01
 1.009703108367653e+00  4.112763142134584e-01 -3.447418743334022e-17

-2.509923622371405e-17 -2.638494820580756e-20  1.015762710034066e+00
-2.638494820580756e-20 -2.299379346863702e-17  4.134807442169833e-01
 1.015762710034066e+00  4.134807442169833e-01 -3.470411025421813e-17

-2.518813275644335e-17 -1.673404104066893e-20  1.021514756647943e+00
-1.673404104066893e-20 -6.947359361883485e-18  4.175748739600721e-01
 1.021514756647943e+00  4.175748739600721e-01 -3.491900420269987e-17

-2.492827361358180e-17 -2.371693543659291e-20  1.006751683135460e+00
-2.371693543659291e-20  1.378257203141548e-17  4.143073260989885e-01
 1.006751683135460e+00  4.143073260989885e-01 -3.436645049272112e-17

-2.477133546923905e-17 -2.520428685224941e-20  1.000089106464483e+00
-2.520428685224941e-20 -1.554947403634803e-17  4.045294069586807e-01
 1.000089106464483e+00  4.045294069586807e-01 -3.410964067565746e-17

-2.476817561464100e-17 -1.431897099646560e-20  9.998896135535712e-01
-1.431897099646560e-20 -2.847074203510008e-17  4.030837812224985e-01
 9.998896135535712e-01  4.030837812224985e-01 -3.408780570636720e-17

-2.512670153998719e-17 -3.060587490662521e-20  1.018022524226786e+00
-3.060587490662521e-20  2.001577710165444e-17  4.231427477587099e-01
 1.018022524226786e+00  4.231427477587099e-01 -3.480436673617737e-17

-2.521869210575836e-17  8.716959665648155e-21  1.024906651352253e+00
 8.716959665648155e-21  5.199467715571788e-18  4.221638660985774e-01
 1.024906651352253e+00  4.221638660985774e-01 -3.504964987427768e-17

-2.470344677894380e-17 -2.685452372048002e-20  9.963639249056583e-01
-2.685452372048002e-20 -2.068801039732176e-17  4.068158584202322e-01
 9.963639249056583e-01  4.068158584202322e-01 -3.398326842229383e-17

-2.485612794534940e-17  2.122814602085001e-20  1.009727216603084e+00
 2.122814602085001e-20  4.994105414167729e-18  3.959809438094159e-01
 1.009727216603084e+00  3.959809438094159e-01 -3.444173256534965e-17

-2.479635846833361e-17 -8.121022086709258e-22  9.969292258075575e-01
-8.121022086709258e-22  1.348571781113609e-17  4.328475520834864e-01
 9.969292258075575e-01  4.328475520834864e-01 -3.403421352205904e-17

-2.492996320017581e-17  1.314021169326606e-20  1.007507908522351e+00
 1.314021169326606e-20 -3.709739593970418e-17  4.222059242649368e-01
 1.007507908522351e+00  4.222059242649368e-01 -3.440984408483626e-17

-2.494488186942187e-17 -6.111209842090261e-21  1.012326243138921e+00
-6.111209842090261e-21  4.600923937776689e-18  4.096718990635485e-01
 1.012326243138921e+00  4.096718990635485e-01 -3.457259218040231e-17

-2.487723087291586e-17 -1.523133860473300e-20  1.007211090299895e+00
-1.523133860473300e-20 -2.616847513857156e-17  4.168875182849733e-01
 1.007211090299895e+00  4.168875182849733e-01 -3.438316516367745e-17

-2.484348489682502e-17  8.716045270451862e-21  1.007155377504127e+00
 8.716045270451862e-21 -1.127156440144007e-17  4.082366404481478e-01
 1.007155377504127e+00  4.082366404481478e-01 -3.437203833768250e-17

-2.467629224834324e-17  1.474252452315160e-20  9.947402709667890e-01
 1.474252452315160e-20 -1.152105678431759e-17  4.139361234875195e-01
 9.947402709667890e-01  4.139361234875195e-01 -3.391519275740349e-17

-2.494117412876928e-17 -1.229572950568125e-20  1.010760540897892e+00
-1.229572950568125e-20 -3.890347997698653e-17  4.144953807118294e-01
 1.010760540897892e+00  4.144953807118294e-01 -3.451029979161964e-17

-2.518900075874728e-17 -9.796988035938448e-21  1.025137928377996e+00
-9.796988035938448e-21 -3.364397438915769e-17  4.164888922738522e-01
 1.025137928377996e+00  4.164888922738522e-01 -3.504679180087271e-17

-2.494371430310893e-17 -8.043047349479427e-21  1.009989963189645e+00
-8.043047349479427e-21 -3.000781047895470e-17  4.179505517196300e-01
 1.009989963189645e+00  4.179505517196300e-01 -3.446630772655700e-17

-2.484775310047849e-17  6.788482298021166e-22  1.006158812369085e+00
 6.788482298021166e-22  3.023352480531191e-18  4.085674707397488e-01
 1.006158812369085e+00  4.085674707397488e-01 -3.428461771690383e-17

-2.474310695351726e-17 -1.495544264081766e-20  1.000772191586908e+00
-1.495544264081766e-20 -1.646113734502593e-18  4.123675397300517e-01
 1.000772191586908e+00  4.123675397300517e-01 -3.407718748254412e-17

-2.498119661586126e-17 -4.053904856702271e-20  1.014161982608804e+00
-4.053904856702271e-20 -1.088093304084387e-18  4.220932665093672e-01
 1.014161982608804e+00  4.220932665093672e-01 -3.457380106129108e-17

-2.498072288023001e-17 -4.698134411276581e-20  1.015094225079397e+00
-4.698134411276581e-20  3.362125691893557e-18  4.213122904066952e-01
 1.015094225079397e+00  4.213122904066952e-01 -3.459675745885342e-17

-2.490516568153466e-17 -3.560792705827909e-20  1.015085585310542e+00
-3.560792705827909e-20  1.155189940276481e-17  4.042760554980999e-01
 1.015085585310542e+00  4.042760554980999e-01 -3.456971190459768e-17

-2.491921047973253e-17 -1.253012074886231e-20  1.011302143397531e+00
-1.253012074886231e-20  3.837987225518421e-17  4.362569673899976e-01
 1.011302143397531e+00  4.362569673899976e-01 -3.444907984926298e-17

-2.430897517233753e-17  9.339092616057056e-22  9.620395339211234e-01
 9.339092616057056e-22  1.940573916331609e-17  4.734065275532079e-01
 9.620395339211234e-01  4.734065275532079e-01 -3.264039434440666e-17

-2.485267587498918e-17 -8.196734468519383e-20  1.029555872661603e+00
-8.196734468519383e-20 -5.422044273896705e-17  3.524456674412235e-01
 1.029555872661603e+00  3.524456674412235e-01 -3.503788249903984e-17

-2.456851697564861e-17 -9.762624617912856e-20  1.008767687159154e+00
-9.762624617912856e-20 -3.235648312832038e-17  3.673270765688728e-01
 1.008767687159154e+00  3.673270765688728e-01 -3.423597554484254e-17

-2.427461702554885e-17 -2.053947490674051e-19  9.628414367999293e-01
-2.053947490674051e-19 -1.001542317963859e-16  4.622908815962124e-01
 9.628414367999293e-01  4.622908815962124e-01 -3.274475727742997e-17

-2.485734199725907e-17 -1.338055041624780e-19  1.011066935968464e+00
-1.338055041624780e-19 -3.758984950038839e-17  4.253340468250365e-01
 1.011066935968464e+00  4.253340468250365e-01 -3.443648606063061e-17

-2.484293799313581e-17 -7.421264113551029e-20  1.010965579639032e+00
-7.421264113551029e-20  1.814084778138977e-17  4.168888633652450e-01
 1.010965579639032e+00  4.168888633652450e-01 -3.440799818877880e-17

-2.501824641809686e-17  2.054054726854806e-19  1.017496517626874e+00
 2.054054726854806e-19 -1.306247488464024e-17  4.133672633477404e-01
 1.017496517626874e+00  4.133672633477404e-01 -3.478303703747171e-17

-2.498906775197296e-17  2.191589586648479e-19  1.010645194011083e+00
 2.191589586648479e-19 -1.333229830688366e-17  4.345028935859080e-01
 1.010645194011083e+00  4.345028935859080e-01 -3.455472625987476e-17

-2.490833069822206e-17  2.443487722569161e-19  1.009475940238409e+00
 2.443487722569161e-19 -1.450219459428181e-17  4.160399139265701e-01
 1.009475940238409e+00  4.160399139265701e-01 -3.449307359480902e-17

-2.497215643170990e-17  2.705003230475399e-19  1.011059013826837e+00
 2.705003230475399e-19 -1.510294757213399e-17  4.252489832311374e-01
 1.011059013826837e+00  4.252489832311374e-01 -3.457559538707600e-17

-2.504795592742419e-17  2.693537624605287e-19  1.015557013339910e+00
 2.693537624605287e-19 -1.497216641615156e-17  4.230835603172572e-01
 1.015557013339910e+00  4.230835603172572e-01 -3.475340382704330e-17

-2.507101191877641e-17  2.739389258628506e-19  1.015792699860248e+00
 2.739389258628506e-19 -1.494215825324931e-17  4.225221051943245e-01
 1.015792699860248e+00  4.225221051943245e-01 -3.477391602348978e-17

-2.503847488926421e-17  2.779468652405119e-19  1.013920437348159e+00
 2.779468652405119e-19 -1.504694410319711e-17  4.219608051586898e-01
 1.013920437348159e+00  4.219608051586898e-01 -3.471046915539313e-17

-2.500681523527544e-17  2.792410851348889e-19  1.012095851857060e+00
 2.792410851348889e-19 -1.514682163677025e-17  4.215133418054373e-01
 1.012095851857060e+00  4.215133418054373e-01 -3.464682939508697e-17

-2.501749716908377e-17  2.854969355837594e-19  1.012528012820474e+00
 2.854969355837594e-19 -1.548933851104602e-17  4.213594984132521e-01
 1.012528012820474e+00  4.213594984132521e-01 -3.466644164186317e-17

-2.505769350896308e-17  2.941233991160595e-19  1.014811591494833e+00
 2.941233991160595e-19 -1.604741229021960e-17  4.216150999132370e-01
 1.014811591494833e+00  4.216150999132370e-01 -3.475459787277426e-17

-2.510805445940375e-17  2.837563874799011e-19  1.017666613395404e+00
 2.837563874799011e-19 -1.576796225302243e-17  4.206594439673392e-01
 1.017666613395404e+00  4.206594439673392e-01 -3.486264633629303e-17

-2.512129751234827e-17  2.508211432408333e-19  1.017973383886429e+00
 2.508211432408333e-19 -1.451928688301451e-17  4.238295330997864e-01
 1.017973383886429e+00  4.238295330997864e-01 -3.487612582298641e-17

-2.507412453003620e-17  2.107600658072564e-19  1.014437880781649e+00
 2.107600658072564e-19 -1.283431336274015e-17  4.248492575403428e-01
 1.014437880781649e+00  4.248492575403428e-01 -3.474630364014710e-17

-2.504771447101424e-17  2.426643398235367e-19  1.014747502167187e+00
 2.426643398235367e-19 -1.458277216504947e-17  4.201066046499163e-01
 1.014747502167187e+00  4.201066046499163e-01 -3.474297558065746e-17

-2.503290233584128e-17  2.740837428529112e-19  1.013281742576922e+00
 2.740837428529112e-19 -1.631233351124894e-17  4.217619292900440e-01
 1.013281742576922e+00  4.217619292900440e-01 -3.468534997022852e-17

-2.505710702627746e-17  2.832955781473593e-19  1.014725544015168e+00
 2.832955781473593e-19 -1.706544438833661e-17  4.227476783547471e-01
 1.014725544015168e+00  4.227476783547471e-01 -3.473502759792925e-17

-2.507016433315215e-17  1.583460736539715e-19  1.015757905426168e+00
 1.583460736539715e-19 -1.144428396103695e-17  4.225239308108303e-01
 1.015757905426168e+00  4.225239308108303e-01 -3.476723049386567e-17

-2.507198556140121e-17  2.119684973252370e-19  1.015444694247063e+00
 2.119684973252370e-19 -1.407683120221345e-17  4.223515039173468e-01
 1.015444694247063e+00  4.223515039173468e-01 -3.475406279871785e-17

-2.507397106867188e-17  2.271136231553071e-19  1.015438793438625e+00
 2.271136231553071e-19 -1.505071073547765e-17  4.236374249882267e-01
 1.015438793438625e+00  4.236374249882267e-01 -3.475043527051114e-17

-2.505360377065678e-17  3.108252697590471e-19  1.013698833172326e+00
 3.108252697590471e-19 -1.954021188129642e-17  4.224392456862994e-01
 1.013698833172326e+00  4.224392456862994e-01 -3.467837689250731e-17

-2.511819879392787e-17  2.361656359167148e-19  1.016793849884774e+00
 2.361656359167148e-19 -1.611723776013305e-17  4.256055298359755e-01
 1.016793849884774e+00  4.256055298359755e-01 -3.479358175341703e-17

-2.512587510789955e-17  3.072878868084315e-19  1.018364512382696e+00
 3.072878868084315e-19 -2.010196240562675e-17  4.187292560609375e-01
 1.018364512382696e+00  4.187292560609375e-01 -3.483697651575411e-17

-2.510179868770701e-17  2.219647316789234e-19  1.014707892127957e+00
 2.219647316789234e-19 -1.603194191844409e-17  4.245861764378918e-01
 1.014707892127957e+00  4.245861764378918e-01 -3.470802359625356e-17

-2.515041861809210e-17  1.812285101002136e-19  1.016691486968260e+00
 1.812285101002136e-19 -1.397538691194238e-17  4.266023401926962e-01
 1.016691486968260e+00  4.266023401926962e-01 -3.478197215206747e-17

-2.523795079422404e-17  1.246982568378845e-19  1.022924067163663e+00
 1.246982568378845e-19 -1.118163427508534e-17  4.243646767672623e-01
 1.022924067163663e+00  4.243646767672623e-01 -3.501320577816366e-17

-2.520077418343483e-17  7.421267759620565e-21  1.020701306989398e+00
 7.421267759620565e-21 -5.690378030876790e-18  4.227724659014105e-01
 1.020701306989398e+00  4.227724659014105e-01 -3.492472872254041e-17

-2.512718781584705e-17  1.457349716064837e-20  1.015576211298151e+00
 1.457349716064837e-20 -5.761327407188297e-18  4.226133835356016e-01
 1.015576211298151e+00  4.226133835356016e-01 -3.473018001514974e-17

-2.521172703269397e-17  4.993847046693217e-20  1.018771304314572e+00
 4.993847046693217e-20 -7.969948864910604e-18  4.251533495183624e-01
 1.018771304314572e+00  4.251533495183624e-01 -3.484620217355787e-17

-2.524843746529554e-17  1.713090099779236e-19  1.022871954103188e+00
 1.713090099779236e-19 -1.410824185436477e-17  4.236254484547956e-01
 1.022871954103188e+00  4.236254484547956e-01 -3.499423610193633e-17

-2.520632718863281e-17  4.845954940049307e-19  1.018602902687298e+00
 4.845954940049307e-19 -3.082387915365657e-17  4.277631477926225e-01
 1.018602902687298e+00  4.277631477926225e-01 -3.483977308212497e-17

-2.527072381936973e-17  4.629515710677773e-19  1.022708585636589e+00
 4.629515710677773e-19 -2.996485009601595e-17  4.187965534639749e-01
 1.022708585636589e+00  4.187965534639749e-01 -3.497041868029492e-17

-2.514371154696312e-17  7.168143157797800e-20  1.015383443798462e+00
 7.168143157797800e-20 -9.672866834080711e-18  4.248002565369078e-01
 1.015383443798462e+00  4.248002565369078e-01 -3.470899260649849e-17

-2.516485329784611e-17  3.011702935956136e-19  1.014489899998615e+00
 3.011702935956136e-19 -2.191564145703303e-17  4.305185255800080e-01
 1.014489899998615e+00  4.305185255800080e-01 -3.467645064862350e-17

-2.521858647542284e-17  3.197220802382304e-19  1.014610486091446e+00
 3.197220802382304e-19 -2.282881628597621e-17  4.311455137508106e-01
 1.014610486091446e+00  4.311455137508106e-01 -3.467974118313247e-17

-2.518521578675919e-17  1.038864023866274e-19  1.017446170126041e+00
 1.038864023866274e-19 -1.170265121379537e-17  4.230945817066593e-01
 1.017446170126041e+00  4.230945817066593e-01 -3.477301231846661e-17

-2.517634948388565e-17 -1.936145911806269e-19  1.015512472332303e+00
-1.936145911806269e-19  4.099690606636564e-18  4.255886319145944e-01
 1.015512472332303e+00  4.255886319145944e-01 -3.470450835318287e-17

-2.526369123982232e-17  2.447453651914169e-20  1.019438886789567e+00
 2.447453651914169e-20 -7.668670265176429e-18  4.282066161075697e-01
 1.019438886789567e+00  4.282066161075697e-01 -3.485082930899328e-17

-2.527334857165849e-17  2.191160994946859e-19  1.015825776731427e+00
 2.191160994946859e-19 -1.850793065012283e-17  4.340159355459104e-01
 1.015825776731427e+00  4.340159355459104e-01 -3.472206424792019e-17

-2.515786759094977e-17 -1.245854369315761e-19  1.012729160985663e+00
-1.245854369315761e-19  3.566548067348374e-19  4.243292701507882e-01
 1.012729160985663e+00  4.243292701507882e-01 -3.459171155029016e-17

-2.521451117711875e-17  2.401643415645396e-19  1.015458402709785e+00
 2.401643415645396e-19 -1.935154671675163e-17  4.204782609544920e-01
 1.015458402709785e+00  4.204782609544920e-01 -3.468231946656451e-17

-2.528508774377204e-17  5.103089472488161e-20  1.017701921251267e+00
 5.103089472488161e-20 -9.073451888282698e-18  4.297947901768915e-01
 1.017701921251267e+00  4.297947901768915e-01 -3.478608620176250e-17

-2.533292151930193e-17 -1.269076501698833e-19  1.020202655544125e+00
-1.269076501698833e-19  3.175372499665469e-19  4.274940184981261e-01
 1.020202655544125e+00  4.274940184981261e-01 -3.487614005817919e-17

-2.534232274870333e-17  2.380711887503074e-19  1.020789873741919e+00
 2.380711887503074e-19 -1.972351343664119e-17  4.223658038109481e-01
 1.020789873741919e+00  4.223658038109481e-01 -3.488994154655275e-17

-2.533644780298572e-17  3.650692834340812e-19  1.018313789509514e+00
 3.650692834340812e-19 -2.652230433905869e-17  4.274866100673156e-01
 1.018313789509514e+00  4.274866100673156e-01 -3.481136926449007e-17

-2.534035895786483e-17  1.857459554391111e-19  1.017114215253671e+00
 1.857459554391111e-19 -1.643587973390900e-17  4.303175709322937e-01
 1.017114215253671e+00  4.303175709322937e-01 -3.477466163859112e-17

-2.533063604285209e-17  2.358737819310427e-19  1.016475592423529e+00
 2.358737819310427e-19 -1.940510894209989e-17  4.259782222897925e-01
 1.016475592423529e+00  4.259782222897925e-01 -3.474796957939788e-17

-2.529833076054014e-17 -2.677780906223844e-19  1.015354391409797e+00
-2.677780906223844e-19  8.963071721011455e-18  4.234168825932507e-01
 1.015354391409797e+00  4.234168825932507e-01 -3.470133057608803e-17

-2.538967747687080e-17  5.285246094550256e-19  1.018295736510142e+00
 5.285246094550256e-19 -3.604734234224769e-17  4.230379519109958e-01
 1.018295736510142e+00  4.230379519109958e-01 -3.482169386741231e-17

-2.544811504664816e-17  5.598658145740244e-20  1.015444161162175e+00
 5.598658145740244e-20 -8.410347284461180e-18  4.447765038789925e-01
 1.015444161162175e+00  4.447765038789925e-01 -3.475264996762246e-17

-2.545306701527554e-17  2.079612479223584e-19  1.010180849076965e+00
 2.079612479223584e-19 -1.641071935056084e-17  4.486334539474258e-01
 1.010180849076965e+00  4.486334539474258e-01 -3.457349704026353e-17

-2.535703506305109e-17  3.658218497647237e-19  1.015510108583992e+00
 3.658218497647237e-19 -2.666634414366382e-17  4.176230965080657e-01
 1.015510108583992e+00  4.176230965080657e-01 -3.471543775847423e-17

-2.537604139335181e-17  5.155232101367646e-19  1.014879558316441e+00
 5.155232101367646e-19 -3.514974247871450e-17  4.220257915045071e-01
 1.014879558316441e+00  4.220257915045071e-01 -3.470245967560274e-17

-2.543316278583244e-17  9.508274137909821e-20  1.015367028074383e+00
 9.508274137909821e-20 -1.081320097113073e-17  4.340016313995764e-01
 1.015367028074383e+00  4.340016313995764e-01 -3.474088561626288e-17

-2.549043107850726e-17  5.880255831125558e-20  1.019759604878502e+00
 5.880255831125558e-20 -9.016717425378312e-18  4.282095615645493e-01
 1.019759604878502e+00  4.282095615645493e-01 -3.490117511943887e-17

-2.540899149459882e-17  3.526197225865704e-19  1.013945777159024e+00
 3.526197225865704e-19 -2.649005006261569e-17  4.244468163356973e-01
 1.013945777159024e+00  4.244468163356973e-01 -3.468101049470206e-17

-2.546268772774748e-17  3.123739833110770e-19  1.015352212808507e+00
 3.123739833110770e-19 -2.441635149228962e-17  4.251155849442287e-01
 1.015352212808507e+00  4.251155849442287e-01 -3.473969142070689e-17

-2.564826012240349e-17  1.908169029919426e-19  1.024797738902187e+00
 1.908169029919426e-19 -1.763347666487090e-17  4.248386263390225e-01
 1.024797738902187e+00  4.248386263390225e-01 -3.509489060834249e-17

-2.562530590713313e-17  1.841883568523558e-19  1.019691118832471e+00
 1.841883568523558e-19 -1.750419945036722e-17  4.364552637466733e-01
 1.019691118832471e+00  4.364552637466733e-01 -3.492914491137969e-17

-2.560447311538868e-17  5.845073586341724e-19  1.019388600776549e+00
 5.845073586341724e-19 -4.158105384474916e-17  4.297782478047328e-01
 1.019388600776549e+00  4.297782478047328e-01 -3.490419188443002e-17

-2.552172197849805e-17 -4.542444762656438e-19  1.017601007527589e+00
-4.542444762656438e-19  2.074542915165245e-17  4.252988413604170e-01
 1.017601007527589e+00  4.252988413604170e-01 -3.481687111131614e-17

-2.509371747303579e-17  2.146602714338422e-19  9.872632152823607e-01
 2.146602714338422e-19 -1.943149226731818e-17  4.361663643194779e-01
 9.872632152823607e-01  4.361663643194779e-01 -3.368361598261311e-17

-2.517566366419135e-17  8.455437631588849e-19  9.864375403112343e-01
 8.455437631588849e-19 -5.834802880649038e-17  4.274835688208472e-01
 9.864375403112343e-01  4.274835688208472e-01 -3.367900159364264e-17

-2.595424812302717e-17  6.279309095593055e-19  1.029023832216492e+00
 6.279309095593055e-19 -4.503365513888859e-17  4.273649085072769e-01
 1.029023832216492e+00  4.273649085072769e-01 -3.527920091604380e-17

-2.690172658674624e-17  3.985853604884817e-19  1.084770336419869e+00
 3.985853604884817e-19 -3.212894680994375e-17  4.098682523200192e-01
 1.084770336419869e+00  4.098682523200192e-01 -3.737877318679048e-17

-2.768822210919080e-17  1.308585473806519e-19  1.122375409620445e+00
 1.308585473806519e-19 -1.803663252640144e-17  4.520715849221066e-01
 1.122375409620445e+00  4.520715849221066e-01 -3.894792705046736e-17

-2.655014148543257e-17 -5.004317642390609e-19  1.058880572050644e+00
-5.004317642390609e-19  2.171433454695432e-17  4.295398511926115e-01
 1.058880572050644e+00  4.295398511926115e-01 -3.647620019051326e-17

-2.500924689829643e-17  4.810285599384514e-19  9.716555039566038e-01
 4.810285599384514e-19 -3.533269266717258e-17  4.112444976698714e-01
 9.716555039566038e-01  4.112444976698714e-01 -3.305293764406488e-17

-2.572185735719012e-17  6.328982677673003e-19  1.010808872181002e+00
 6.328982677673003e-19 -4.718449526117821e-17  4.484628752042421e-01
 1.010808872181002e+00  4.484628752042421e-01 -3.461126361081861e-17

-2.568785275218861e-17  4.365393474715215e-19  9.986974957951116e-01
 4.365393474715215e-19 -3.711806663841847e-17  4.824336151528588e-01
 9.986974957951116e-01  4.824336151528588e-01 -3.427058113624289e-17

-2.535042361326995e-17 -1.233439343502439e-19  9.957237822784746e-01
-1.233439343502439e-19  2.486529340396398e-19  4.167333941241434e-01
 9.957237822784746e-01  4.167333941241434e-01 -3.397579390156846e-17

-2.501781870975943e-17 -5.726322619505621e-19  9.696524856916283e-01
-5.726322619505621e-19  2.717107500809202e-17  4.252079551666195e-01
 9.696524856916283e-01  4.252079551666195e-01 -3.307042541038206e-17

-2.595996830258508e-17 -8.383356954435377e-21  1.022436552556112e+00
-8.383356954435377e-21 -6.962424665755574e-18  4.357180113127109e-01
 1.022436552556112e+00  4.357180113127109e-01 -3.503993015725550e-17

-2.587280807758693e-17  1.477683743125437e-19  1.003807832436338e+00
 1.477683743125437e-19 -1.727446419268452e-17  4.609504980068125e-01
 1.003807832436338e+00  4.609504980068125e-01 -3.442723372269028e-17

-2.633939999682513e-17  7.369511065881174e-19  1.052679399659895e+00
 7.369511065881174e-19 -5.604885631953082e-17  3.918157848301881e-01
 1.052679399659895e+00  3.918157848301881e-01 -3.611174589657402e-17

-2.612803451276072e-17 -3.332890818693539e-19  1.036384728038410e+00
-3.332890818693539e-19  1.227800569208345e-17  3.987786415129939e-01
 1.036384728038410e+00  3.987786415129939e-01 -3.551870951141661e-17

-2.588151947001100e-17 -3.438925457460462e-19  1.012013232782736e+00
-3.438925457460462e-19  1.336876259784835e-17  4.267409722797426e-01
 1.012013232782736e+00  4.267409722797426e-01 -3.466890783639437e-17

-2.598118312984589e-17  5.360625456770739e-19  1.017484910802741e+00
 5.360625456770739e-19 -4.362780062266862e-17  4.215443180700881e-01
 1.017484910802741e+00  4.215443180700881e-01 -3.487098286502832e-17

-2.593647136949763e-17 -6.149624323346175e-19  1.013576961394192e+00
-6.149624323346175e-19  3.061779672043243e-17  4.261820012883580e-01
 1.013576961394192e+00  4.261820012883580e-01 -3.473178272200781e-17

-2.598708770085298e-17 -1.299743230451919e-19  1.013756046592408e+00
-1.299743230451919e-19 -9.345895903666835e-19  4.289753488435444e-01
 1.013756046592408e+00  4.289753488435444e-01 -3.474662818377340e-17

-2.599638275905599e-17 -8.988393102301710e-20  1.013043764663706e+00
-8.988393102301710e-20 -3.827607269551253e-18  4.264491824726848e-01
 1.013043764663706e+00  4.264491824726848e-01 -3.472015203312702e-17

-2.600188046575032e-17 -2.063771295388175e-19  1.013072822029234e+00
-2.063771295388175e-19  4.162833984123061e-18  4.218928704133166e-01
 1.013072822029234e+00  4.218928704133166e-01 -3.472320074120522e-17

-2.598800890146024e-17  1.085984359736303e-19  1.007603648341162e+00
 1.085984359736303e-19 -1.628266625983764e-17  4.216736781937881e-01
 1.007603648341162e+00  4.216736781937881e-01 -3.454572214717410e-17

-2.642518435724407e-17  8.221663211509490e-20  1.031369170801060e+00
 8.221663211509490e-20 -1.435325993909081e-17  4.209948935912216e-01
 1.031369170801060e+00  4.209948935912216e-01 -3.545307964329944e-17

-2.653819682956861e-17  2.275788020834689e-19  1.034344161797849e+00
 2.275788020834689e-19 -2.594143369329104e-17  4.349044198617583e-01
 1.034344161797849e+00  4.349044198617583e-01 -3.563401019294672e-17

-2.540765860889682e-17 -4.881290651094041e-19  9.727848048046021e-01
-4.881290651094041e-19  2.264957914008571e-17  4.014205903296170e-01
 9.727848048046021e-01  4.014205903296170e-01 -3.320413246445878e-17

-2.550303489784022e-17  2.620451278488148e-19  9.744136959357423e-01
 2.620451278488148e-19 -2.973910513903942e-17  4.060988606611050e-01
 9.744136959357423e-01  4.060988606611050e-01 -3.333689317834892e-17

-2.646315674059955e-17  9.084899870695969e-20  1.024033735219515e+00
 9.084899870695969e-20 -1.773211501079379e-17  4.375901453943862e-01
 1.024033735219515e+00  4.375901453943862e-01 -3.517411744958721e-17

-2.658905572433281e-17 -9.928535986594627e-20  1.027142733946427e+00
-9.928535986594627e-20 -7.863436296488580e-18  4.234590465365471e-01
 1.027142733946427e+00  4.234590465365471e-01 -3.530281173699971e-17

-2.650441499620854e-17 -3.564450607357521e-19  1.016298330485996e+00
-3.564450607357521e-19  9.476379355159520e-18  4.238261489795486e-01
 1.016298330485996e+00  4.238261489795486e-01 -3.490648528361765e-17

-2.666011566804332e-17 -2.733565274812890e-20  1.019141878277194e+00
-2.733565274812890e-20 -1.265540638024649e-17  4.264933379863089e-01
 1.019141878277194e+00  4.264933379863089e-01 -3.504146664200306e-17

-2.672316922929177e-17  3.610789743313854e-19  1.016629075851666e+00
 3.610789743313854e-19 -3.909227829150936e-17  4.255798936713098e-01
 1.016629075851666e+00  4.255798936713098e-01 -3.497707285097847e-17

-2.676221349188359e-17  3.120683740590442e-19  1.016367152972956e+00
 3.120683740590442e-19 -3.623177978138630e-17  4.264836997740274e-01
 1.016367152972956e+00  4.264836997740274e-01 -3.498334677941209e-17

-2.681281576385036e-17  2.597519072115849e-19  1.016879217830593e+00
 2.597519072115849e-19 -3.339517183117606e-17  4.262156616512308e-01
 1.016879217830593e+00  4.262156616512308e-01 -3.501403336634695e-17

-2.691286191291507e-17 -7.048052113310581e-19  1.018516662084644e+00
-7.048052113310581e-19  3.275484211696827e-17  4.266333398718767e-01
 1.018516662084644e+00  4.266333398718767e-01 -3.509038138655985e-17

-2.704413874641737e-17 -1.811646703531234e-20  1.018882917954655e+00
-1.811646703531234e-20 -1.543656863932647e-17  4.262172843914458e-01
 1.018882917954655e+00  4.262172843914458e-01 -3.513419903872508e-17

-2.710541426295046e-17  2.079922412061203e-19  1.018009938989115e+00
 2.079922412061203e-19 -3.211578594579646e-17  4.262860210237155e-01
 1.018009938989115e+00  4.262860210237155e-01 -3.512458873730631e-17

-2.719868475163686e-17  5.857433700549022e-19  1.016793305493648e+00
 5.857433700549022e-19 -5.960776590237243e-17  4.262936606580189e-01
 1.016793305493648e+00  4.262936606580189e-01 -3.510164923076728e-17

-2.727750514235136e-17 -2.779229884219806e-19  1.016235327516219e+00
-2.779229884219806e-19  6.425763937865977e-19  4.256774333933125e-01
 1.016235327516219e+00  4.256774333933125e-01 -3.511250915891124e-17

-2.736159399936498e-17  2.453826789547052e-19  1.016120211984297e+00
 2.453826789547052e-19 -3.664741079236563e-17  4.266288808170425e-01
 1.016120211984297e+00  4.266288808170425e-01 -3.513554703835027e-17

-2.741536592781491e-17 -2.078815809242358e-20  1.016686482641842e+00
-2.078815809242358e-20 -1.803446016190997e-17  4.273316631051878e-01
 1.016686482641842e+00  4.273316631051878e-01 -3.516094251955249e-17

-2.745877092603229e-17 -4.233520901714496e-20  1.014496631401015e+00
-4.233520901714496e-20 -1.786900315388426e-17  4.276346869026780e-01
 1.014496631401015e+00  4.276346869026780e-01 -3.510959088864072e-17

-2.749530686157321e-17 -4.544668514333839e-19  1.012040883710190e+00
-4.544668514333839e-19  9.893478564084816e-18  4.231210495292589e-01
 1.012040883710190e+00  4.231210495292589e-01 -3.502548251258185e-17

-2.764282930753912e-17 -2.177057833049489e-19  1.018119349672200e+00
-2.177057833049489e-19 -7.939915525851853e-18  4.159961857932290e-01
 1.018119349672200e+00  4.159961857932290e-01 -3.525649608199962e-17

-2.790420605361607e-17  2.228686654292968e-19  1.025162801004515e+00
 2.228686654292968e-19 -4.082523866563174e-17  4.275861450071002e-01
 1.025162801004515e+00  4.275861450071002e-01 -3.556172552944494e-17

-2.813922506759511e-17  2.104817413390808e-19  1.030140999735723e+00
 2.104817413390808e-19 -4.170029653564528e-17  4.292934914989566e-01
 1.030140999735723e+00  4.292934914989566e-01 -3.578638249442735e-17

-2.801587633755415e-17  1.953336579086964e-19  1.017321094625158e+00
 1.953336579086964e-19 -4.175206819647026e-17  4.237327209883073e-01
 1.017321094625158e+00  4.237327209883073e-01 -3.532960948077140e-17

-2.809884764059424e-17 -9.564431835013280e-20  1.015504319023408e+00
-9.564431835013280e-20 -2.162305535262372e-17  4.205547887692895e-01
 1.015504319023408e+00  4.205547887692895e-01 -3.526696109936583e-17

-2.815578393811242e-17 -5.447683065101969e-19  1.011377262203996e+00
-5.447683065101969e-19  9.293701637681945e-18  4.277173718384882e-01
 1.011377262203996e+00  4.277173718384882e-01 -3.517370541527487e-17

-2.842947984904027e-17 -7.139155462194092e-19  1.015489595374249e+00
-7.139155462194092e-19  1.948508368299064e-17  4.270918960634865e-01
 1.015489595374249e+00  4.270918960634865e-01 -3.538592152502059e-17

-2.863869059719592e-17  1.060114145513532e-19  1.015090654901613e+00
 1.060114145513532e-19 -4.223260465139136e-17  4.262654715289937e-01
 1.015090654901613e+00  4.262654715289937e-01 -3.542553104892830e-17

-2.879835147340900e-17  8.020176183597542e-20  1.014883237936366e+00
 8.020176183597542e-20 -4.239110660391654e-17  4.261460894358536e-01
 1.014883237936366e+00  4.261460894358536e-01 -3.547552186097503e-17

-2.899636327785428e-17 -6.950519555876529e-19  1.014963158553264e+00
-6.950519555876529e-19  1.210524370739213e-17  4.263530811859089e-01
 1.014963158553264e+00  4.263530811859089e-01 -3.553322564401216e-17

-2.918780118773157e-17 -3.509316863324249e-19  1.015207840205745e+00
-3.509316863324249e-19 -1.517604890076028e-17  4.261825754387801e-01
 1.015207840205745e+00  4.261825754387801e-01 -3.559313779925248e-17

-2.942585871300984e-17 -6.192971149763016e-19  1.014721482497091e+00
-6.192971149763016e-19  2.000975526810585e-18  4.260999620355883e-01
 1.014721482497091e+00  4.260999620355883e-01 -3.565442527996782e-17

-2.963177364650557e-17 -1.504538671229902e-19  1.014550346114868e+00
-1.504538671229902e-19 -3.472411241295885e-17  4.261793189267286e-01
 1.014550346114868e+00  4.261793189267286e-01 -3.571046414190946e-17

-2.978554345567595e-17 -3.512688297251785e-19  1.014886252181857e+00
-3.512688297251785e-19 -2.153250063944618e-17  4.256570249921418e-01
 1.014886252181857e+00  4.256570249921418e-01 -3.576447484033119e-17

-2.999256695640017e-17 -3.850764578470547e-19  1.014482842405471e+00
-3.850764578470547e-19 -2.169097238645321e-17  4.258637505056933e-01
 1.014482842405471e+00  4.258637505056933e-01 -3.582598379066204e-17

-3.027942072514027e-17 -1.078953755196448e-19  1.014349654768917e+00
-1.078953755196448e-19 -4.551617471065170e-17  4.257175430710137e-01
 1.014349654768917e+00  4.257175430710137e-01 -3.590405266497336e-17

-3.064437201911895e-17 -5.076436197247114e-19  1.014944226628646e+00
-5.076436197247114e-19 -1.999519167337529e-17  4.249153744121247e-01
 1.014944226628646e+00  4.249153744121247e-01 -3.603954326957587e-17

-3.089570830737129e-17 -6.838118879068770e-19  1.013947822079965e+00
-6.838118879068770e-19 -9.665733884456215e-18  4.275099524155307e-01
 1.013947822079965e+00  4.275099524155307e-01 -3.608936572677768e-17

-3.110079480640179e-17 -4.654308103390471e-19  1.014693739209755e+00
-4.654308103390471e-19 -2.827391180751758e-17  4.272557005410260e-01
 1.014693739209755e+00  4.272557005410260e-01 -3.617546917919384e-17

-3.144885231032956e-17 -6.302124185130240e-19  1.011783751006943e+00
-6.302124185130240e-19 -2.039885487799408e-17  4.241436291210450e-01
 1.011783751006943e+00  4.241436291210450e-01 -3.620103694648861e-17

-3.189865302629328e-17 -7.253647838370245e-19  1.013770284014438e+00
-7.253647838370245e-19 -1.794191905412309e-17  4.217989788494674e-01
 1.013770284014438e+00  4.217989788494674e-01 -3.642252608305703e-17

-3.211659651396940e-17 -7.192033290778587e-19  1.010194043302763e+00
-7.192033290778587e-19 -2.044473394274137e-17  4.282468052837765e-01
 1.010194043302763e+00  4.282468052837765e-01 -3.639071636583936e-17

-3.251995596862544e-17 -8.286090661664762e-19  1.012830281138801e+00
-8.286090661664762e-19 -1.688426259447680e-17  4.237697919410656e-01
 1.012830281138801e+00  4.237697919410656e-01 -3.661761682332212e-17

-3.305100427423104e-17 -6.884768932221866e-19  1.008158969872986e+00
-6.884768932221866e-19 -3.600890646730245e-17  4.226280747971111e-01
 1.008158969872986e+00  4.226280747971111e-01 -3.664360878711741e-17

-3.369708833047982e-17 -5.862009881790725e-19  1.007724231588574e+00
-5.862009881790725e-19 -5.301294491593335e-17  4.238591017957702e-01
 1.007724231588574e+00  4.238591017957702e-01 -3.682567124728999e-17

-3.439249632522998e-17 -7.050506178077085e-19  1.009430251908774e+00
-7.050506178077085e-19 -5.345341758109626e-17  4.243256477233115e-01
 1.009430251908774e+00  4.243256477233115e-01 -3.711249662235670e-17

-3.536853436094725e-17 -1.303626924394070e-18  1.011088690295590e+00
-1.303626924394070e-18 -1.939760911939389e-17  4.245534513728995e-01
 1.011088690295590e+00  4.245534513728995e-01 -3.747717513936168e-17

-3.619826514790185e-17 -1.264731395027171e-18  1.008421937309000e+00
-1.264731395027171e-18 -3.261706845082490e-17  4.267729589281710e-01
 1.008421937309000e+00  4.267729589281710e-01 -3.766098747536322e-17

-3.678867375850571e-17 -1.356653579455038e-18  1.019168819942669e+00
-1.356653579455038e-18 -3.068026133346611e-17  4.151244819748327e-01
 1.019168819942669e+00  4.151244819748327e-01 -3.818862597257385e-17

-3.693286912373024e-17 -1.448883805431160e-18  1.015141500186568e+00
-1.448883805431160e-18 -2.673502072057227e-17  4.175450758026659e-01
 1.015141500186568e+00  4.175450758026659e-01 -3.813314960326460e-17

-3.714738358255194e-17 -1.463854596543856e-18  1.005011819954346e+00
-1.463854596543856e-18 -2.829097715176684e-17  4.293339240491588e-01
 1.005011819954346e+00  4.293339240491588e-01 -3.785981589912167e-17

-3.786499501667720e-17 -1.639437518400790e-18  1.011402280465402e+00
-1.639437518400790e-18 -2.315410207540196e-17  4.239883335861123e-01
 1.011402280465402e+00  4.239883335861123e-01 -3.832804349285823e-17

-3.885235832036497e-17 -1.788905973946916e-18  1.011474960495409e+00
-1.788905973946916e-18 -2.369803385224318e-17  4.248138878448421e-01
 1.011474960495409e+00  4.248138878448421e-01 -3.868234342728737e-17

-3.951344439361595e-17 -1.576767856929598e-18  1.011713029502528e+00
-1.576767856929598e-18 -4.821169347334782e-17  4.235536696796565e-01
 1.011713029502528e+00  4.235536696796565e-01 -3.890841951730951e-17

-4.066527282279928e-17 -2.148876985086660e-18  1.011651020961125e+00
-2.148876985086660e-18 -1.761274329799474e-17  4.234173028799031e-01
 1.011651020961125e+00  4.234173028799031e-01 -3.930312287261063e-17

-4.228150157430994e-17 -2.169393672111871e-18  1.006200413354709e+00
-2.169393672111871e-18 -3.626621291384797e-17  4.283446227589964e-01
 1.006200413354709e+00  4.283446227589964e-01 -3.968305699167605e-17

-4.324205223217461e-17 -2.543417063360606e-18  1.014297817040526e+00
-2.543417063360606e-18 -1.816917965436851e-17  4.135668119747152e-01
 1.014297817040526e+00  4.135668119747152e-01 -4.027120091351052e-17

-4.412360159482738e-17 -2.517374635631606e-18  1.033571321634120e+00
-2.517374635631606e-18 -2.836948254328158e-17  3.987147415511009e-01
 1.033571321634120e+00  3.987147415511009e-01 -4.116466276485668e-17

-4.435556821264856e-17 -2.687897855635139e-18  1.004970317142611e+00
-2.687897855635139e-18 -1.989655622623887e-17  4.298130498470970e-01
 1.004970317142611e+00  4.298130498470970e-01 -4.035978799436869e-17

-4.529009338536794e-17 -2.615650876065693e-18  1.003952114908215e+00
-2.615650876065693e-18 -3.569588872481868e-17  4.390240950196769e-01
 1.003952114908215e+00  4.390240950196769e-01 -4.064551058836389e-17

-4.669353689448941e-17 -2.877275219899935e-18  1.017932908566046e+00
-2.877275219899935e-18 -3.068428800155454e-17  4.194260321890124e-01
 1.017932908566046e+00  4.194260321890124e-01 -4.155720790029045e-17

-4.865484645485408e-17 -3.014275075020976e-18  1.010882530278479e+00
-3.014275075020976e-18 -4.329066123313255e-17  4.222258055507858e-01
 1.010882530278479e+00  4.222258055507858e-01 -4.202563285615247e-17

-5.260983944883165e-17 -3.724318334820338e-18  1.014306618086498e+00
-3.724318334820338e-18 -2.919895253843226e-17  4.236678081758661e-01
 1.014306618086498e+00  4.236678081758661e-01 -4.349931990880158e-17

-5.684025732635789e-17 -4.240639327427011e-18  1.015164950067430e+00
-4.240639327427011e-18 -3.159772523241511e-17  4.239277119481747e-01
 1.015164950067430e+00  4.239277119481747e-01 -4.497633771263465e-17

-6.059339773669810e-17 -4.696094989797800e-18  1.014982921265831e+00
-4.696094989797800e-18 -3.275414697333329e-17  4.240714333432371e-01
 1.014982921265831e+00  4.240714333432371e-01 -4.627999245762217e-17

-6.505955558704917e-17 -5.243297851887946e-18  1.014425430884577e+00
-5.243297851887946e-18 -3.061019361385625e-17  4.250242751488847e-01
 1.014425430884577e+00  4.250242751488847e-01 -4.779740473220684e-17

-7.125126043409563e-17 -5.862075343438123e-18  1.012287796233720e+00
-5.862075343438123e-18 -3.347171828214858e-17  4.235593618816904e-01
 1.012287796233720e+00  4.235593618816904e-01 -4.987785831754460e-17

-7.623729245541065e-17 -6.037979452434404e-18  1.020495756987752e+00
-6.037979452434404e-18 -5.846488479131672e-17  4.147541208816798e-01
 1.020495756987752e+00  4.147541208816798e-01 -5.187094469976123e-17

-8.169195289234691e-17 -6.799153868442404e-18  1.022020108200402e+00
-6.799153868442404e-18 -3.161523532923390e-17  4.247788361781082e-01
 1.022020108200402e+00  4.247788361781082e-01 -5.381762194051791e-17

-9.378303242576865e-17 -7.612458943667031e-18  1.023491483143642e+00
-7.612458943667031e-18 -3.441878029518139e-17  4.240396083065200e-01
 1.023491483143642e+00  4.240396083065200e-01 -5.808067102393017e-17

-1.043642586626356e-16 -8.110816070855169e-18  1.010987291212553e+00
-8.110816070855169e-18 -4.677061216343329e-17  4.267820322167946e-01
 1.010987291212553e+00  4.267820322167946e-01 -6.135106942196608e-17

-1.076014142276592e-16 -7.075332230725673e-18  9.919098963498012e-01
-7.075332230725673e-18 -2.832445480693626e-17  4.260630703569592e-01
 9.919098963498012e-01  4.260630703569592e-01 -6.879991743456508e-17

-1.491985538247384e-16 -8.809975253337529e-18  1.036032313126814e+00
-8.809975253337529e-18 -4.122505393510665e-17  4.164487478684735e-01
 1.036032313126814e+00  4.164487478684735e-01 -7.783205617764112e-17

-1.874273035465332e-16 -7.816174869157956e-18  1.083342779084560e+00
-7.816174869157956e-18 -3.672306125773513e-17  4.462109369840243e-01
 1.083342779084560e+00  4.462109369840243e-01 -9.292557662545133e-17

-2.219803421163125e-16 -3.859549182298811e-18  1.022120122881935e+00
-3.859549182298811e-18 -1.010680285237713e-17  3.742634527972049e-01
 1.022120122881935e+00  3.742634527972049e-01 -1.032442321021150e-16

-2.613145768410746e-16  1.783019854993028e-18  9.545952781824378e-01
 1.783019854993028e-18  2.024304890575106e-17  3.937586367140513e-01
 9.545952781824378e-01  3.937586367140513e-01 -1.156219180474516e-16

-3.428385928368752e-16  1.649528864799764e-17  1.021380458930149e+00
 1.649528864799764e-17  1.771002245973576e-17  4.463188174932701e-01
 1.021380458930149e+00  4.463188174932701e-01 -1.474981574095305e-16

-4.406293111966524e-16  4.247299872472088e-17  1.032343695031169e+00
 4.247299872472088e-17  8.698548617875145e-17  4.241118220803996e-01
 1.032343695031169e+00  4.241118220803996e-01 -1.848284101417174e-16

-6.028269333951535e-16  1.088723402322606e-16  1.017185429998466e+00
 1.088723402322606e-16  1.512231974570062e-16  4.214268154566686e-01
 1.017185429998466e+00  4.214268154566686e-01 -2.490458564826228e-16

-7.855380973656211e-16  2.133869815251199e-16  1.019323840897270e+00
 2.133869815251199e-16  2.987150409658899e-16  4.203901457135661e-01
 1.019323840897270e+00  4.203901457135661e-01 -3.273517612700352e-16

-9.281205374770805e-16  3.125682424420557e-16  1.017682506878376e+00
 3.125682424420557e-16  4.191956039598304e-16  4.269635548773231e-01
 1.017682506878376e+00  4.269635548773231e-01 -3.917809836631343e-16

-1.054581249319300e-15  4.161380358525446e-16  1.018744683230910e+00
 4.161380358525446e-16  5.432406517068116e-16  4.275923038254396e-01
 1.018744683230910e+00  4.275923038254396e-01 -4.524091431762259e-16

-1.258338698542533e-15  6.178751090613388e-16  1.022165925353182e+00
 6.178751090613388e-16  7.012650603845855e-16  4.269194736355709e-01
 1.022165925353182e+00  4.269194736355709e-01 -5.580367313996967e-16

-1.625446409337411e-15  1.116419698323239e-15  1.018623034747718e+00
 1.116419698323239e-15  1.098602538662279e-15  4.241638986175184e-01
 1.018623034747718e+00  4.241638986175184e-01 -7.830796009587018e-16

-2.226117789260193e-15  2.465178707975001e-15  1.016474959097918e+00
 2.465178707975001e-15  1.856149283511251e-15  4.241140389058856e-01
 1.016474959097918e+00  4.241140389058856e-01 -1.310213799121674e-15

-2.769790681362310e-15  5.086436965833561e-15  1.017894947249910e+00
 5.086436965833561e-15  2.615932135594590e-15  4.280062254218909e-01
 1.017894947249910e+00  4.280062254218909e-01 -2.285423996541866e-15

-3.128378773532236e-15  9.147433720561474e-15  1.015149513073649e+00
 9.147433720561474e-15  2.587246865297953e-15  4.250077818389073e-01
 1.015149513073649e+00  4.250077818389073e-01 -4.053830564339620e-15

-5.734803928052897e-15  1.477605564283341e-14  1.017339346103784e+00
 1.477605564283341e-14  7.422252735478252e-16  4.175573905902587e-01
 1.017339346103784e+00  4.175573905902587e-01 -9.377421094768516e-15

 1.872944083332267e-14 -1.519108146669010e-15  1.004464648999343e+00
-1.519108146669010e-15  2.496986136341659e-14  4.584466932901674e-01
 1.004464648999343e+00  4.584466932901674e-01 -7.501341673760021e-15

 1.707980650007536e-13 -4.587088452809893e-14  9.923019441583404e-01
-4.587088452809893e-14  8.904219589875042e-14  4.631803691545479e-01
 9.923019441583404e-01  4.631803691545479e-01  4.062263243943835e-14

-6.295478516495482e-13  1.452165145214050e-13  1.015404089986075e+00
 1.452165145214050e-13 -3.087850224080161e-13  4.100780012240703e-01
 1.015404089986075e+00  4.100780012240703e-01 -1.531515348997500e-13

 1.671103764409966e-13 -5.853356049685050e-14  1.012839783138463e+00
-5.853356049685050e-14  8.586890573107872e-14  4.288816479018082e-01
 1.012839783138463e+00  4.288816479018082e-01  4.375554328531190e-14

-6.654252610067763e-13  1.509858895810487e-13  1.018165492540087e+00
 1.509858895810487e-13 -3.200806246477835e-13  4.068486278353100e-01
 1.018165492540087e+00  4.068486278353100e-01 -1.835984717524527e-13

-1.845506496688084e-14 -1.092871358345036e-14  1.017867204397817e+00
-1.092871358345036e-14  2.225587207135460e-15  4.445489198350536e-01
 1.017867204397817e+00  4.445489198350536e-01 -1.296372272515770e-14

-1.752663650391782e-14 -3.999941887463047e-15  1.024145980275091e+00
-3.999941887463047e-15 -3.932237356855753e-15  4.285801907303777e-01
 1.024145980275091e+00  4.285801907303777e-01 -9.396956675647070e-15

-1.242983662910717e-14 -1.508820212433835e-15  1.022329538991559e+00
-1.508820212433835e-15 -3.496168721497596e-15  4.229906256073883e-01
 1.022329538991559e+00  4.229906256073883e-01 -5.812706662873207e-15

-7.252431187257743e-15  3.152381181419053e-16  1.018345719482240e+00
 3.152381181419053e-16 -2.342082529947125e-15  4.303516029375238e-01
 1.018345719482240e+00  4.303516029375238e-01 -2.748879911504093e-15

-4.071303339626526e-15  8.955935261383075e-16  1.021480197845657e+00
 8.955935261383075e-16 -1.799939402590279e-15  4.313402921092250e-01
 1.021480197845657e+00  4.313402921092250e-01 -1.308851334998963e-15

-2.686142358949355e-15  8.515588891204551e-16  1.023402905643875e+00
 8.515588891204551e-16 -1.537451925668238e-15  4.321190561517302e-01
 1.023402905643875e+00  4.321190561517302e-01 -8.199282423853863e-16

-2.119357780094227e-15  7.614205564396963e-16  1.023173526770771e+00
 7.614205564396963e-16 -1.382686097554705e-15  4.325924439614064e-01
 1.023173526770771e+00  4.325924439614064e-01 -6.398376556841442e-16

-1.382740577403233e-15  5.862941940872018e-16  1.022267415292403e+00
 5.862941940872018e-16 -1.135334197868905e-15  4.325042793900962e-01
 1.022267415292403e+00  4.325042793900962e-01 -4.210409054466378e-16

-9.767378922268863e-16  4.432894363002572e-16  1.025045211190165e+00
 4.432894363002572e-16 -9.340452107882376e-16  4.328008353809318e-01
 1.025045211190165e+00  4.328008353809318e-01 -3.067626145611790e-16

-8.000626734715744e-16  3.704102901783998e-16  1.024338421786458e+00
 3.704102901783998e-16 -8.267549636738212e-16  4.348455397256440e-01
 1.024338421786458e+00  4.348455397256440e-01 -2.578160296878050e-16

-5.767786540366847e-16  2.708894277522343e-16  1.025861304379079e+00
 2.708894277522343e-16 -6.649299331368086e-16  4.332847519739323e-01
 1.025861304379079e+00  4.332847519739323e-01 -2.078700360529504e-16

-4.262362884535568e-16  1.963641534582668e-16  1.023163174012073e+00
 1.963641534582668e-16 -5.354290125265121e-16  4.321827937090780e-01
 1.023163174012073e+00  4.321827937090780e-01 -1.542458379096691e-16

-3.293137411699222e-16  1.461615804933493e-16  1.022002883006947e+00
 1.461615804933493e-16 -4.370124962152199e-16  4.328550034314833e-01
 1.022002883006947e+00  4.328550034314833e-01 -1.268609340844998e-16

-2.773288371864972e-16  1.186450905145353e-16  1.020861219701521e+00
 1.186450905145353e-16 -3.791467356351396e-16  4.335475202096032e-01
 1.020861219701521e+00  4.335475202096032e-01 -1.119550548137505e-16

-2.250642327431890e-16  9.084045665121195e-17  1.020614837527277e+00
 9.084045665121195e-17 -3.161300896058781e-16  4.331867588305627e-01
 1.020614837527277e+00  4.331867588305627e-01 -9.675644090794653e-17

-1.916048372300319e-16  7.297262348162787e-17  1.021450878044776e+00
 7.297262348162787e-17 -2.734592246492799e-16  4.341798911835261e-01
 1.021450878044776e+00  4.341798911835261e-01 -8.691864276237733e-17

-1.726084012806076e-16  6.301168314106399e-17  1.021344980164576e+00
 6.301168314106399e-17 -2.478864730934358e-16  4.333409225637149e-01
 1.021344980164576e+00  4.333409225637149e-01 -8.124755728150275e-17

-1.470601473843464e-16  4.968496849299490e-17  1.020654215352457e+00
 4.968496849299490e-17 -2.120920400819036e-16  4.339861303378050e-01
 1.020654215352457e+00  4.339861303378050e-01 -7.351767540268290e-17

-1.240463274147972e-16  3.796658521290053e-17  1.020994909807193e+00
 3.796658521290053e-17 -1.781760064511941e-16  4.344743867916377e-01
 1.020994909807193e+00  4.344743867916377e-01 -6.642917093977738e-17

-1.083643442370746e-16  3.027718692518787e-17  1.021514726536368e+00
 3.027718692518787e-17 -1.540713216385185e-16  4.346713591118626e-01
 1.021514726536368e+00  4.346713591118626e-01 -6.154693672957875e-17

-9.910337270961929e-17  2.580330391485673e-17  1.022774911537052e+00
 2.580330391485673e-17 -1.394704309138602e-16  4.345756485801731e-01
 1.022774911537052e+00  4.345756485801731e-01 -5.865515869618429e-17

-9.147638887432171e-17  2.223961794787509e-17  1.023213338660069e+00
 2.223961794787509e-17 -1.272844091635896e-16  4.344885875345546e-01
 1.023213338660069e+00  4.344885875345546e-01 -5.624782364614981e-17

-8.238882387873055e-17  1.805476155886540e-17  1.026584643388053e+00
 1.805476155886540e-17 -1.124579858489338e-16  4.336063450709268e-01
 1.026584643388053e+00  4.336063450709268e-01 -5.345992205777651e-17

-7.485909441011005e-17  1.467895368429073e-17  1.033573296231026e+00
 1.467895368429073e-17 -9.985249301008589e-17  4.336463326531196e-01
 1.033573296231026e+00  4.336463326531196e-01 -5.123032284068509e-17

-6.841880011978773e-17  1.201835204257035e-17  1.017243223998318e+00
 1.201835204257035e-17 -8.883870527142921e-17  4.568097294580650e-01
 1.017243223998318e+00  4.568097294580650e-01 -4.861291591176330e-17

-6.566514336240582e-17  1.108564707278899e-17  1.024429475500436e+00
 1.108564707278899e-17 -8.423973793080039e-17  4.324961090998727e-01
 1.024429475500436e+00  4.324961090998727e-01 -4.792121870049470e-17

-6.344406346216706e-17  1.039018394918301e-17  1.027646208727171e+00
 1.039018394918301e-17 -8.056191238505103e-17  4.129720904670823e-01
 1.027646208727171e+00  4.129720904670823e-01 -4.727287387088203e-17

-5.897537848762364e-17  8.639666032481305e-18  1.012673673420328e+00
 8.639666032481305e-18 -7.278857061924138e-17  4.361821783368114e-01
 1.012673673420328e+00  4.361821783368114e-01 -4.533944911609452e-17

-5.594380029951496e-17  7.398095489632328e-18  1.019441917143595e+00
 7.398095489632328e-18 -6.745240837485245e-17  4.378505135391974e-01
 1.019441917143595e+00  4.378505135391974e-01 -4.456302752961460e-17

-5.349690956132760e-17  6.508495655379450e-18  1.022565041723779e+00
 6.508495655379450e-18 -6.316584133754551e-17  4.357623071673494e-01
 1.022565041723779e+00  4.357623071673494e-01 -4.387512361952874e-17

-5.049753879442690e-17  5.467080977627829e-18  1.021454752769156e+00
 5.467080977627829e-18 -5.795955807341361e-17  4.352526010163792e-01
 1.021454752769156e+00  4.352526010163792e-01 -4.282775321890269e-17

-4.773015728221758e-17  4.594276110618900e-18  1.016046591417215e+00
 4.594276110618900e-18 -5.326593634483514e-17  4.332126913893974e-01
 1.016046591417215e+00  4.332126913893974e-01 -4.173612279971001e-17

-4.532388728369740e-17  3.838986968158820e-18  1.015265029811639e+00
 3.838986968158820e-18 -4.916088084408071e-17  4.282453458240678e-01
 1.015265029811639e+00  4.282453458240678e-01 -4.090936304128308e-17

-4.354777287651547e-17  3.140017871241497e-18  1.036048753297896e+00
 3.140017871241497e-18 -4.550597167430948e-17  4.346406004942007e-01
 1.036048753297896e+00  4.346406004942007e-01 -4.098651801609290e-17

-4.189052483873515e-17  2.667750171940963e-18  1.035206833919199e+00
 2.667750171940963e-18 -4.252368198749600e-17  4.369826489207062e-01
 1.035206833919199e+00  4.369826489207062e-01 -4.042222369620006e-17

-3.989155993498565e-17  2.350214704513218e-18  1.008732452179080e+00
 2.350214704513218e-18 -3.965638806355794e-17  4.262964750298555e-01
 1.008732452179080e+00  4.262964750298555e-01 -3.889850344653887e-17

-3.829952258068779e-17  1.994233493035424e-18  1.001879446300051e+00
 1.994233493035424e-18 -3.681918304929470e-17  4.308866247837101e-01
 1.001879446300051e+00  4.308866247837101e-01 -3.818001231746750e-17

-3.715882064981303e-17  1.632456606371153e-18  1.016457122343467e+00
 1.632456606371153e-18 -3.455177502825374e-17  4.297226795569923e-01
 1.016457122343467e+00  4.297226795569923e-01 -3.825776070569025e-17

-3.614842799037546e-17  1.372416526504383e-18  1.020076999950629e+00
 1.372416526504383e-18 -3.272242320129447e-17  4.290532688313503e-01
 1.020076999950629e+00  4.290532688313503e-01 -3.805091799262514e-17

-3.539124783116096e-17  1.224973056380409e-18  1.018005497111587e+00
 1.224973056380409e-18 -3.148400527266116e-17  4.262496496931804e-01
 1.018005497111587e+00  4.262496496931804e-01 -3.774632655257545e-17

-3.463963638430014e-17  1.076744219121016e-18  1.015333630021559e+00
 1.076744219121016e-18 -3.022748135691229e-17  4.256681880525492e-01
 1.015333630021559e+00  4.256681880525492e-01 -3.740046444281314e-17

-3.417938446390886e-17  9.766069552436219e-19  1.016502303771435e+00
 9.766069552436219e-19 -2.927792022970684e-17  4.258349288707017e-01
 1.016502303771435e+00  4.258349288707017e-01 -3.727323910160679e-17

-3.364277857140966e-17  8.896978901899451e-19  1.015367407241238e+00
 8.896978901899451e-19 -2.842144847766985e-17  4.264503714828567e-01
 1.015367407241238e+00  4.264503714828567e-01 -3.709134873986902e-17

-3.301876244923287e-17  7.729818498847151e-19  1.015150366347793e+00
 7.729818498847151e-19 -2.731583977663732e-17  4.272535673360319e-01
 1.015150366347793e+00  4.272535673360319e-01 -3.686607000986958e-17

-3.264487553712179e-17  7.120605574444890e-19  1.014717053308214e+00
 7.120605574444890e-19 -2.673620272326775e-17  4.256622808650337e-01
 1.014717053308214e+00  4.256622808650337e-01 -3.673800688350318e-17

-3.231664849968781e-17  6.668770919712599e-19  1.013862719596570e+00
 6.668770919712599e-19 -2.618059176465752e-17  4.247955966718258e-01
 1.013862719596570e+00  4.247955966718258e-01 -3.661296843444388e-17

-3.180780770777323e-17  5.819071853284307e-19  1.013944373044442e+00
 5.819071853284307e-19 -2.528160952654429e-17  4.254115650722786e-01
 1.013944373044442e+00  4.254115650722786e-01 -3.643635241411767e-17

-3.140050563444060e-17  5.182313270906482e-19  1.015784672236340e+00
 5.182313270906482e-19 -2.453398665961454e-17  4.264628944900307e-01
 1.015784672236340e+00  4.264628944900307e-01 -3.636908873843808e-17

-3.104320066063399e-17  4.689113418890735e-19  1.015785739496261e+00
 4.689113418890735e-19 -2.395760581558972e-17  4.247175131611667e-01
 1.015785739496261e+00  4.247175131611667e-01 -3.625853344678643e-17

-3.072244449597498e-17  4.255405182224976e-19  1.016838327523007e+00
 4.255405182224976e-19 -2.334314732437759e-17  4.254182121255844e-01
 1.016838327523007e+00  4.254182121255844e-01 -3.619054262352757e-17

-3.034473067154288e-17  3.798280027061399e-19  1.015869676725697e+00
 3.798280027061399e-19 -2.271968629268244e-17  4.252410336529061e-01
 1.015869676725697e+00  4.252410336529061e-01 -3.604289421282694e-17

-2.994593777448938e-17  3.364217233964096e-19  1.014638779683880e+00
 3.364217233964096e-19 -2.205702046476440e-17  4.256689085129708e-01
 1.014638779683880e+00  4.256689085129708e-01 -3.587729901446768e-17

-2.961358877878287e-17  2.987775389808656e-19  1.014687207475138e+00
 2.987775389808656e-19 -2.152977790804507e-17  4.237863394991893e-01
 1.014687207475138e+00  4.237863394991893e-01 -3.577493465441619e-17

-2.941748170502690e-17  2.751607900683184e-19  1.013625634128376e+00
 2.751607900683184e-19 -2.103428151713088e-17  4.305067606123476e-01
 1.013625634128376e+00  4.305067606123476e-01 -3.568017594923666e-17

-2.928242466693723e-17  2.594682800184860e-19  1.016364235391783e+00
 2.594682800184860e-19 -2.086031445657738e-17  4.284336342728370e-01
 1.016364235391783e+00  4.284336342728370e-01 -3.572466271883238e-17

-2.904796366408599e-17  2.372298500515034e-19  1.016943092461978e+00
 2.372298500515034e-19 -2.049120147643622e-17  4.276661441664719e-01
 1.016943092461978e+00  4.276661441664719e-01 -3.566968507945005e-17

-2.896483824167582e-17  2.219030742204967e-19  1.024069104827073e+00
 2.219030742204967e-19 -2.035055739051569e-17  4.199714771539376e-01
 1.024069104827073e+00  4.199714771539376e-01 -3.587250482936642e-17

-2.881710281694476e-17  2.185433437602650e-19  1.019474394156983e+00
 2.185433437602650e-19 -2.002677483873833e-17  4.291348719906653e-01
 1.019474394156983e+00  4.291348719906653e-01 -3.567911473952994e-17

-2.879538429290522e-17  1.997411174431227e-19  1.026524013898046e+00
 1.997411174431227e-19 -1.987290942833763e-17  4.264348710107762e-01
 1.026524013898046e+00  4.264348710107762e-01 -3.589964215555837e-17

-2.862503970296457e-17  1.933834209391262e-19  1.018887076415520e+00
 1.933834209391262e-19 -1.966931286455526e-17  4.294827101292014e-01
 1.018887076415520e+00  4.294827101292014e-01 -3.560313060957037e-17

-2.844284277360212e-17  1.843414846332948e-19  1.013337227952301e+00
 1.843414846332948e-19 -1.955384655743694e-17  4.264636479528879e-01
 1.013337227952301e+00  4.264636479528879e-01 -3.536243328909638e-17

-2.833443328936165e-17  1.796727919028121e-19  1.012902055194732e+00
 1.796727919028121e-19 -1.937539872265227e-17  4.274560502542990e-01
 1.012902055194732e+00  4.274560502542990e-01 -3.531014471552720e-17

-2.833154311098233e-17  1.721030582412277e-19  1.014757107447722e+00
 1.721030582412277e-19 -1.913160760695050e-17  4.343956953389362e-01
 1.014757107447722e+00  4.343956953389362e-01 -3.537473453003963e-17

-2.839127196213207e-17  1.689606249048868e-19  1.024280241805875e+00
 1.689606249048868e-19 -1.916426170558199e-17  4.321886047424355e-01
 1.024280241805875e+00  4.321886047424355e-01 -3.569601565982016e-17

-2.830793206029373e-17  1.589641749113063e-19  1.022744904399729e+00
 1.589641749113063e-19 -1.903852282076004e-17  4.299988997459118e-01
 1.022744904399729e+00  4.299988997459118e-01 -3.562399815420472e-17

-2.828978618183822e-17  1.537340992025275e-19  1.029145681896171e+00
 1.537340992025275e-19 -1.901567654330787e-17  4.248483212647684e-01
 1.029145681896171e+00  4.248483212647684e-01 -3.582208357326850e-17

-2.820206317229550e-17  1.395208081557493e-19  1.028931472075143e+00
 1.395208081557493e-19 -1.885680066092310e-17  4.246241562248467e-01
 1.028931472075143e+00  4.246241562248467e-01 -3.578371212865945e-17

-2.808868468541458e-17  1.528034111734112e-19  1.027546723488792e+00
 1.528034111734112e-19 -1.871668775001154e-17  4.246813266388177e-01
 1.027546723488792e+00  4.246813266388177e-01 -3.571410665460176e-17

-2.793427991155622e-17  1.466030108741573e-19  1.022157185251556e+00
 1.466030108741573e-19 -1.846621984456110e-17  4.277410705933874e-01
 1.022157185251556e+00  4.277410705933874e-01 -3.550392005079466e-17

-2.787555145868207e-17  1.516110743700691e-19  1.026330005741888e+00
 1.516110743700691e-19 -1.840844237561437e-17  4.220160094003563e-01
 1.026330005741888e+00  4.220160094003563e-01 -3.563440859958556e-17

-2.776550633750367e-17  1.396738484223280e-19  1.026329741688939e+00
 1.396738484223280e-19 -1.811049198130174e-17  4.290601287888209e-01
 1.026329741688939e+00  4.290601287888209e-01 -3.561382506263142e-17

-2.755914123245300e-17  1.305615205949858e-19  1.018376382397654e+00
 1.305615205949858e-19 -1.793286142275676e-17  4.269455668463931e-01
 1.018376382397654e+00  4.269455668463931e-01 -3.528875923257636e-17

-2.733740441258383e-17  1.171042944031709e-19  1.009677972703250e+00
 1.171042944031709e-19 -1.776976590232307e-17  4.265202782844391e-01
 1.009677972703250e+00  4.265202782844391e-01 -3.493018867990309e-17

-2.733840931090067e-17  9.930291098895271e-20  1.018047865212129e+00
 9.930291098895271e-20 -1.787710925958847e-17  4.149711034689483e-01
 1.018047865212129e+00  4.149711034689483e-01 -3.518851811228897e-17

-2.754181631864416e-17  9.037252556254546e-20  1.034350622086128e+00
 9.037252556254546e-20 -1.776185648691517e-17  4.209999015769388e-01
 1.034350622086128e+00  4.209999015769388e-01 -3.578701310614770e-17

-2.706165453527410e-17  6.370602132123398e-20  9.849699645849447e-01
 6.370602132123398e-20 -1.636767521887942e-17  4.985206867901079e-01
 9.849699645849447e-01  4.985206867901079e-01 -3.410295896079931e-17

-2.710044451701880e-17  7.381487140466715e-20  1.000508417561788e+00
 7.381487140466715e-20 -1.680956477850170e-17  4.611726215939699e-01
 1.000508417561788e+00  4.611726215939699e-01 -3.459555993112337e-17

-2.681335832810887e-17  1.043036221944756e-19  1.001913018672455e+00
 1.043036221944756e-19 -1.728180993919109e-17  4.121938054698220e-01
 1.001913018672455e+00  4.121938054698220e-01 -3.446945106104330e-17

-2.685803040352032e-17  7.997279263815158e-20  1.006530939634157e+00
 7.997279263815158e-20 -1.683787756899577e-17  4.336941207187321e-01
 1.006530939634157e+00  4.336941207187321e-01 -3.465683929823078e-17

-2.702092179467560e-17  8.149721661861576e-20  1.021487003535857e+00
 8.149721661861576e-20 -1.682458645750290e-17  4.317588768716723e-01
 1.021487003535857e+00  4.317588768716723e-01 -3.519509572055100e-17

-2.708342194824320e-17  9.059969167169465e-20  1.027326541355304e+00
 9.059969167169465e-20 -1.690455240241376e-17  4.273450013981328e-01
 1.027326541355304e+00  4.273450013981328e-01 -3.540499922650554e-17

-2.708898953752207e-17  1.005139665305279e-19  1.028705709180005e+00
 1.005139665305279e-19 -1.678355801494450e-17  4.319190377292404e-01
 1.028705709180005e+00  4.319190377292404e-01 -3.546079960265198e-17

-2.697426077414008e-17  1.027611782289890e-19  1.024787815940267e+00
 1.027611782289890e-19 -1.656849122884268e-17  4.314986770864560e-01
 1.024787815940267e+00  4.314986770864560e-01 -3.529807185752773e-17

-2.675425572172591e-17  1.117105117655953e-19  1.018396838011517e+00
 1.117105117655953e-19 -1.649387385019989e-17  4.267905782852164e-01
 1.018396838011517e+00  4.267905782852164e-01 -3.504664452271039e-17

-2.661508380601343e-17  1.151051503837836e-19  1.012591692648368e+00
 1.151051503837836e-19 -1.633047434548407e-17  4.282971895243364e-01
 1.012591692648368e+00  4.282971895243364e-01 -3.482489414684009e-17

-2.662528691231199e-17  1.196327314557946e-19  1.018529692664746e+00
 1.196327314557946e-19 -1.626918127848128e-17  4.288762141832325e-01
 1.018529692664746e+00  4.288762141832325e-01 -3.503524036984550e-17

-2.662920201637188e-17  1.221036018704134e-19  1.022335352137573e+00
 1.221036018704134e-19 -1.613796865500145e-17  4.303853050162022e-01
 1.022335352137573e+00  4.303853050162022e-01 -3.517669875507130e-17

-2.647882579289144e-17  1.233710618890163e-19  1.016155133807252e+00
 1.233710618890163e-19 -1.605923007455275e-17  4.273458120767746e-01
 1.016155133807252e+00  4.273458120767746e-01 -3.493161466347037e-17

-2.636254762421733e-17  1.237618377918770e-19  1.014689759403548e+00
 1.237618377918770e-19 -1.601365627890073e-17  4.227485400802137e-01
 1.014689759403548e+00  4.227485400802137e-01 -3.486284461488728e-17

-2.639041445660570e-17  1.241163100253904e-19  1.016713886650785e+00
 1.241163100253904e-19 -1.589603661287559e-17  4.284840216170211e-01
 1.016713886650785e+00  4.284840216170211e-01 -3.494370287073938e-17

-2.638853795306433e-17  1.216286904038887e-19  1.016793346291820e+00
 1.216286904038887e-19 -1.575786074049451e-17  4.355673956273599e-01
 1.016793346291820e+00  4.355673956273599e-01 -3.494926147415787e-17

-2.636771850438223e-17  1.220667530978105e-19  1.020864869863291e+00
 1.220667530978105e-19 -1.588363491137627e-17  4.260835923681729e-01
 1.020864869863291e+00  4.260835923681729e-01 -3.507782737800196e-17

-2.625212883827144e-17  1.150815746626336e-19  1.017126069443980e+00
 1.150815746626336e-19 -1.574743574202986e-17  4.264386894480158e-01
 1.017126069443980e+00  4.264386894480158e-01 -3.492603379601974e-17

-2.621847265240788e-17  1.140646309195641e-19  1.018319759397250e+00
 1.140646309195641e-19 -1.565907686798469e-17  4.275496238779086e-01
 1.018319759397250e+00  4.275496238779086e-01 -3.495651914223981e-17

-2.617189165687089e-17  1.068226007032580e-19  1.018682386054678e+00
 1.068226007032580e-19 -1.556084474935902e-17  4.276028805672342e-01
 1.018682386054678e+00  4.276028805672342e-01 -3.496012733689132e-17

-2.612772656773007e-17  1.032586938539011e-19  1.017583158248359e+00
 1.032586938539011e-19 -1.548465468115533e-17  4.273325176982081e-01
 1.017583158248359e+00  4.273325176982081e-01 -3.490929323121849e-17

-2.603769160266784e-17  1.039478121505976e-19  1.017017484583712e+00
 1.039478121505976e-19 -1.532999514576524e-17  4.274480356395050e-01
 1.017017484583712e+00  4.274480356395050e-01 -3.487847260863888e-17

-2.601462342899547e-17  1.048678810323341e-19  1.016963946001511e+00
 1.048678810323341e-19 -1.529982697031909e-17  4.273968632647216e-01
 1.016963946001511e+00  4.273968632647216e-01 -3.487764217550661e-17

-2.597820716624056e-17  1.004593060629924e-19  1.015994384004917e+00
 1.004593060629924e-19 -1.523482039956991e-17  4.295478789782821e-01
 1.015994384004917e+00  4.295478789782821e-01 -3.484309375762367e-17

-2.586820546831901e-17  8.768394354303328e-20  1.013922428818976e+00
 8.768394354303328e-20 -1.519889100725686e-17  4.290160483580259e-01
 1.013922428818976e+00  4.290160483580259e-01 -3.474190705737544e-17

-2.579122649185243e-17  7.000730931431612e-20  1.012302814584623e+00
 7.000730931431612e-20 -1.510362678267689e-17  4.288372981823305e-01
 1.012302814584623e+00  4.288372981823305e-01 -3.466553203420944e-17

-2.585919732884193e-17  4.034864153988767e-20  1.016974519664156e+00
 4.034864153988767e-20 -1.511783605965963e-17  4.329730971892972e-01
 1.016974519664156e+00  4.329730971892972e-01 -3.481199315335977e-17

-2.596608217403144e-17  9.092468938463256e-21  1.023105523406760e+00
 9.092468938463256e-21 -1.513836384783289e-17  4.378965710426458e-01
 1.023105523406760e+00  4.378965710426458e-01 -3.500600764106133e-17

-2.600078243174413e-17 -8.544940559336085e-21  1.027154829499067e+00
-8.544940559336085e-21 -1.517284578831099e-17  4.383611101257696e-01
 1.027154829499067e+00  4.383611101257696e-01 -3.511173230332086e-17

-2.602708631482157e-17 -1.961413853061580e-20  1.030065280295285e+00
-1.961413853061580e-20 -1.515785436444728e-17  4.376952536142327e-01
 1.030065280295285e+00  4.376952536142327e-01 -3.519711177893754e-17

-2.620516948059807e-17 -1.431582761355988e-20  1.038333745717426e+00
-1.431582761355988e-20 -1.517914244777561e-17  4.412730571150503e-01
 1.038333745717426e+00  4.412730571150503e-01 -3.549898571019681e-17

-2.634845783718603e-17  8.903535487498642e-21  1.043960443404330e+00
 8.903535487498642e-21 -1.515090914853580e-17  4.456646213925164e-01
 1.043960443404330e+00  4.456646213925164e-01 -3.572526842696726e-17

-2.631692087542183e-17  2.827084588255690e-20  1.043559798770419e+00
 2.827084588255690e-20 -1.522331711205586e-17  4.420421757884116e-01
 1.043559798770419e+00  4.420421757884116e-01 -3.571026296703335e-17

-2.626454634959388e-17  7.322598143908319e-20  1.040039329148970e+00
 7.322598143908319e-20 -1.513561927346112e-17  4.405573397679673e-01
 1.040039329148970e+00  4.405573397679673e-01 -3.561238677503805e-17

-2.640141815255070e-17  1.250795787121613e-19  1.048632374374987e+00
 1.250795787121613e-19 -1.514889690104512e-17  4.408923283251697e-01
 1.048632374374987e+00  4.408923283251697e-01 -3.599199443294695e-17

-2.626228494525974e-17  1.530824295175900e-19  1.038860701595144e+00
 1.530824295175900e-19 -1.485550277813881e-17  4.524848854254673e-01
 1.038860701595144e+00  4.524848854254673e-01 -3.568397546614222e-17

-2.608086790795796e-17  1.665242222288785e-19  1.031096226770339e+00
 1.665242222288785e-19 -1.493861628397074e-17  4.412921615051744e-01
 1.031096226770339e+00  4.412921615051744e-01 -3.538089366091079e-17

-2.587355589395303e-17  1.674817859581780e-19  1.022448723021387e+00
 1.674817859581780e-19 -1.505561642268956e-17  4.286465780631092e-01
 1.022448723021387e+00  4.286465780631092e-01 -3.504134797482237e-17

-2.607060067183954e-17  1.610176480273051e-19  1.033058535482666e+00
 1.610176480273051e-19 -1.512356772834772e-17  4.339133135292075e-01
 1.033058535482666e+00  4.339133135292075e-01 -3.548488788349845e-17

-2.693016090461264e-17  1.730888213760327e-19  1.084698827239478e+00
 1.730888213760327e-19 -1.558350395168945e-17  4.370276159892710e-01
 1.084698827239478e+00  4.370276159892710e-01 -3.742643535924453e-17

-2.678512843207469e-17  1.361743162510949e-19  1.074296532155002e+00
 1.361743162510949e-19 -1.535274690777622e-17  4.505824129174055e-01
 1.074296532155002e+00  4.505824129174055e-01 -3.708849119749806e-17

-2.647383386572713e-17  1.571196183729173e-19  1.069420286668470e+00
 1.571196183729173e-19 -1.569158697967844e-17  4.077781998874013e-01
 1.069420286668470e+00  4.077781998874013e-01 -3.674384990112222e-17

-2.608538485120973e-17  1.568881655876599e-19  1.040927475932159e+00
 1.568881655876599e-19 -1.517844989707852e-17  4.229904288689466e-01
 1.040927475932159e+00  4.229904288689466e-01 -3.570694766267678e-17

-2.566637804237767e-17  1.451774880914627e-19  1.010420271417191e+00
 1.451774880914627e-19 -1.470406793234115e-17  4.460003855329489e-01
 1.010420271417191e+00  4.460003855329489e-01 -3.462567912514645e-17

-2.597435049639494e-17  4.629854040816360e-20  1.043246029293589e+00
 4.629854040816360e-20 -1.580734505543639e-17  3.894408925055892e-01
 1.043246029293589e+00  3.894408925055892e-01 -3.585633065245932e-17

-2.582546737756480e-17  1.955080121071781e-19  9.955642040685196e-01
 1.955080121071781e-19 -1.335456091264989e-17  5.433273225487923e-01
 9.955642040685196e-01  5.433273225487923e-01 -3.427533825536511e-17

-2.625137531281929e-17  9.896490616167783e-20  1.019587630119503e+00
 9.896490616167783e-20 -1.315436995503117e-17  5.644411460487903e-01
 1.019587630119503e+00  5.644411460487903e-01 -3.535474436955367e-17

-2.556480236042118e-17  1.999383464063281e-19  1.028801913613164e+00
 1.999383464063281e-19 -1.483018410833454e-17  4.060087626847348e-01
 1.028801913613164e+00  4.060087626847348e-01 -3.506798652704086e-17

-2.429695407677833e-17  1.272128392112754e-19  9.466812153087329e-01
 1.272128392112754e-19 -1.374814373709594e-17  4.368208332158243e-01
 9.466812153087329e-01  4.368208332158243e-01 -3.215289125798090e-17

-2.492875857608311e-17  2.160614260644200e-20  9.892171822118835e-01
 2.160614260644200e-20 -1.465142804715970e-17  4.077271026854167e-01
 9.892171822118835e-01  4.077271026854167e-01 -3.382067370388412e-17

-2.606074858079620e-17  1.092607485797341e-19  1.053544325664903e+00
 1.092607485797341e-19 -1.504571210595972e-17  4.224885846145084e-01
 1.053544325664903e+00  4.224885846145084e-01 -3.615941273551126e-17

-2.754646547885408e-17  1.001579810101199e-19  1.135658500120176e+00
 1.001579810101199e-19 -1.511266527842527e-17  4.693716691808672e-01
 1.135658500120176e+00  4.693716691808672e-01 -3.937996528739737e-17

-2.671427235699295e-17  7.550903916503289e-20  1.101042887904970e+00
 7.550903916503289e-20 -1.563819223170586e-17  4.014824442987072e-01
 1.101042887904970e+00  4.014824442987072e-01 -3.785741864135675e-17

-2.671023073986226e-17  2.981262948100493e-19  1.150475110472090e+00
 2.981262948100493e-19 -1.738048278099478e-17  2.597280854155251e-01
 1.150475110472090e+00  2.597280854155251e-01 -3.891501003584009e-17

-2.524853247258535e-17  4.796801924839145e-20  1.007532542115837e+00
 4.796801924839145e-20 -1.389627196242103e-17  4.545346528545826e-01
 1.007532542115837e+00  4.545346528545826e-01 -3.440796149584577e-17

-2.475615415467174e-17  4.045975858431362e-20  9.892369757156314e-01
 4.045975858431362e-20 -1.381127641517546e-17  4.310710052339764e-01
 9.892369757156314e-01  4.310710052339764e-01 -3.362769526563070e-17

-2.441211416575025e-17  2.484967057429525e-20  9.695737624985792e-01
 2.484967057429525e-20 -1.362466750266987e-17  4.277526444967243e-01
 9.695737624985792e-01  4.277526444967243e-01 -3.290030414729750e-17

-2.518431533780580e-17  1.862865705876043e-20  1.014387324573877e+00
 1.862865705876043e-20 -1.387466489543079e-17  4.380010688045673e-01
 1.014387324573877e+00  4.380010688045673e-01 -3.457235693439601e-17

-2.558265965544860e-17  1.253982730784340e-20  1.038221305252693e+00
 1.253982730784340e-20 -1.413459087944804e-17  4.376016633148632e-01
 1.038221305252693e+00  4.376016633148632e-01 -3.545944394188367e-17

-2.544933695903836e-17  9.930926561596858e-21  1.031962346040597e+00
 9.930926561596858e-21 -1.424010368224300e-17  4.281449265783341e-01
 1.031962346040597e+00  4.281449265783341e-01 -3.520542946479481e-17

-2.522533195167922e-17  9.706589519563101e-21  1.020118304001470e+00
 9.706589519563101e-21 -1.414018572834008e-17  4.276289893688257e-01
 1.020118304001470e+00  4.276289893688257e-01 -3.473984824588126e-17

-2.516295626162417e-17  8.802205490670826e-21  1.016583888816751e+00
 8.802205490670826e-21 -1.397636888382731e-17  4.312568536136638e-01
 1.016583888816751e+00  4.312568536136638e-01 -3.461170049271010e-17

-2.522400136385882e-17  5.092363416695092e-21  1.021202044844373e+00
 5.092363416695092e-21 -1.382579124172150e-17  4.346111410123979e-01
 1.021202044844373e+00  4.346111410123979e-01 -3.478175940907239e-17

-2.516572636846629e-17  6.561660132732608e-21  1.018382312950491e+00
 6.561660132732608e-21 -1.380820281559061e-17  4.346041178418379e-01
 1.018382312950491e+00  4.346041178418379e-01 -3.466609611064353e-17

-2.503970665578936e-17  8.167220871439093e-21  1.013340448217119e+00
 8.167220871439093e-21 -1.373913986722370e-17  4.291695302273930e-01
 1.013340448217119e+00  4.291695302273930e-01 -3.446437883962107e-17

-2.502838697282513e-17  8.981214865079215e-21  1.012247165578660e+00
 8.981214865079215e-21 -1.365284143735557e-17  4.330695069663536e-01
 1.012247165578660e+00  4.330695069663536e-01 -3.442888038705933e-17

-2.502805237123371e-17  1.294637760929992e-20  1.012441772087168e+00
 1.294637760929992e-20 -1.365218854137248e-17  4.325380536518434e-01
 1.012441772087168e+00  4.325380536518434e-01 -3.443412625878703e-17

-2.501968530104376e-17  1.838568697947820e-20  1.012242135188878e+00
 1.838568697947820e-20 -1.368605144726934e-17  4.300475792797517e-01
 1.012242135188878e+00  4.300475792797517e-01 -3.442255618544237e-17

-2.506107098825985e-17  2.409293233722217e-20  1.016822177265334e+00
 2.409293233722217e-20 -1.372443948610568e-17  4.282328449972646e-01
 1.016822177265334e+00  4.282328449972646e-01 -3.458220947536467e-17

-2.517363973079063e-17  2.663530322500844e-20  1.023948956833441e+00
 2.663530322500844e-20 -1.356830299319417e-17  4.324269257211619e-01
 1.023948956833441e+00  4.324269257211619e-01 -3.486300798666041e-17

-2.470136933152759e-17  4.249980934686721e-20  9.968514069239499e-01
 4.249980934686721e-20 -1.320165962790508e-17  4.328497370169574e-01
 9.968514069239499e-01  4.328497370169574e-01 -3.384074345513229e-17

-2.446944357433147e-17  6.165100375031237e-20  9.823300926135327e-01
 6.165100375031237e-20 -1.307246356484455e-17  4.392306751963683e-01
 9.823300926135327e-01  4.392306751963683e-01 -3.331898421174903e-17

-2.488028619947100e-17  7.587823113948779e-20  1.009796074272448e+00
 7.587823113948779e-20 -1.336123152149134e-17  4.178501482187915e-01
 1.009796074272448e+00  4.178501482187915e-01 -3.432177476205943e-17

-2.492899121116335e-17  7.965692605119312e-20  1.008328710381409e+00
 7.965692605119312e-20 -1.322986445947178e-17  4.435391169253199e-01
 1.008328710381409e+00  4.435391169253199e-01 -3.431212943411786e-17

-2.481768408969461e-17  8.109299365454818e-20  1.000567606696923e+00
 8.109299365454818e-20 -1.344386006369859e-17  4.332060409315193e-01
 1.000567606696923e+00  4.332060409315193e-01 -3.402298338621583e-17

-2.507072813588707e-17  5.569175245743807e-20  1.025095594937530e+00
 5.569175245743807e-20 -1.421938559197198e-17  3.856629758603222e-01
 1.025095594937530e+00  3.856629758603222e-01 -3.492597993900855e-17

-2.498048190258962e-17  1.388450895241105e-19  9.959615797970564e-01
 1.388450895241105e-19 -1.308039398947512e-17  4.654378794101079e-01
 9.959615797970564e-01  4.654378794101079e-01 -3.391658631373712e-17

-2.577929485671009e-17  1.426380536460442e-19  1.052061901312418e+00
 1.426380536460442e-19 -1.382174908945207e-17  4.506775189220266e-01
 1.052061901312418e+00  4.506775189220266e-01 -3.599099969130293e-17

-2.565109908462878e-17  1.051410622759832e-19  1.045503625015701e+00
 1.051410622759832e-19 -1.374934440548074e-17  4.378134238066797e-01
 1.045503625015701e+00  4.378134238066797e-01 -3.579119872021615e-17

-2.513000565741958e-17  1.233702716969632e-19  1.010365722182236e+00
 1.233702716969632e-19 -1.370532519870533e-17  4.424520744697750e-01
 1.010365722182236e+00  4.424520744697750e-01 -3.449613990218162e-17

-2.530685015272592e-17  1.499456362771879e-19  1.039747282322179e+00
 1.499456362771879e-19 -1.433727999438263e-17  3.877058446382189e-01
 1.039747282322179e+00  3.877058446382189e-01 -3.542579012176224e-17

-2.499571076753753e-17  1.455383163185242e-19  1.013998242248874e+00
 1.455383163185242e-19 -1.370997026833283e-17  4.167176782199135e-01
 1.013998242248874e+00  4.167176782199135e-01 -3.454256359429925e-17

-2.487886430613358e-17  1.422792803946702e-19  1.004051908385887e+00
 1.422792803946702e-19 -1.328508494891073e-17  4.329477033649746e-01
 1.004051908385887e+00  4.329477033649746e-01 -3.421597627590330e-17

-2.497312458825248e-17  1.550780370601159e-19  1.013078995446895e+00
 1.550780370601159e-19 -1.364955083997659e-17  4.181794763750420e-01
 1.013078995446895e+00  4.181794763750420e-01 -3.453858063592658e-17

-2.511713192300506e-17  1.579541432741455e-19  1.017818558995444e+00
 1.579541432741455e-19 -1.323676631117634e-17  4.383636235002671e-01
 1.017818558995444e+00  4.383636235002671e-01 -3.474763803276138e-17

-2.514003914188193e-17  1.562490447319454e-19  1.019118727353226e+00
 1.562490447319454e-19 -1.322064696674246e-17  4.374913316973137e-01
 1.019118727353226e+00  4.374913316973137e-01 -3.481026649102413e-17

-2.500328745058784e-17  1.612472058626088e-19  1.014949594068316e+00
 1.612472058626088e-19 -1.364303211895323e-17  4.208380668185873e-01
 1.014949594068316e+00  4.208380668185873e-01 -3.462574587049547e-17

-2.488688642492580e-17  1.596293766371084e-19  1.007520475452926e+00
 1.596293766371084e-19 -1.322602193322827e-17  4.229514831880123e-01
 1.007520475452926e+00  4.229514831880123e-01 -3.436201337108557e-17

-2.499653465348559e-17  1.694221279824619e-19  1.014144214310419e+00
 1.694221279824619e-19 -1.326474237379356e-17  4.277589683763300e-01
 1.014144214310419e+00  4.277589683763300e-01 -3.462075965176598e-17

-2.485100248970131e-17  1.756023864287307e-19  1.005803788207531e+00
 1.756023864287307e-19 -1.320232468834330e-17  4.270056578004398e-01
 1.005803788207531e+00  4.270056578004398e-01 -3.431167195851527e-17

-2.469156088679079e-17  1.812477985891601e-19  9.966875943934379e-01
 1.812477985891601e-19 -1.321656014184848e-17  4.223438302651370e-01
 9.966875943934379e-01  4.223438302651370e-01 -3.397453870160668e-17

-2.482873203419096e-17  2.010475394883966e-19  1.003637797939359e+00
 2.010475394883966e-19 -1.335011412426592e-17  4.297832414538486e-01
 1.003637797939359e+00  4.297832414538486e-01 -3.424087010345735e-17

-2.479601336835856e-17  1.850459339377477e-19  9.943404102318557e-01
 1.850459339377477e-19 -1.236561471265670e-17  4.483917835550072e-01
 9.943404102318557e-01  4.483917835550072e-01 -3.392949572620765e-17

-2.502696976403922e-17  2.102464605098962e-19  1.019806475784556e+00
 2.102464605098962e-19 -1.423507324319616e-17  4.113489854603147e-01
 1.019806475784556e+00  4.113489854603147e-01 -3.483550676319252e-17

-2.504265592134292e-17  1.972150563276589e-19  1.016816488812469e+00
 1.972150563276589e-19 -1.346874103644891e-17  4.209550881842816e-01
 1.016816488812469e+00  4.209550881842816e-01 -3.474254722553319e-17

-2.506496026791408e-17  2.109901930963102e-19  1.016247428918656e+00
 2.109901930963102e-19 -1.348884947467553e-17  4.310856444195103e-01
 1.016247428918656e+00  4.310856444195103e-01 -3.474623087181869e-17

-2.494913410424372e-17  2.145752727035985e-19  1.011095902020531e+00
 2.145752727035985e-19 -1.374559409789079e-17  4.221119684236334e-01
 1.011095902020531e+00  4.221119684236334e-01 -3.454568973460622e-17

-2.492178606615656e-17  1.973680467110018e-19  1.008362739216672e+00
 1.973680467110018e-19 -1.299188374939417e-17  4.196881694572866e-01
 1.008362739216672e+00  4.196881694572866e-01 -3.443307780597334e-17

-2.488740840356458e-17  2.013550512232840e-19  1.008726479803570e+00
 2.013550512232840e-19 -1.320272199653232e-17  4.181232280786090e-01
 1.008726479803570e+00  4.181232280786090e-01 -3.445200518755360e-17

-2.498667850108572e-17  2.232304430566012e-19  1.012730784155786e+00
 2.232304430566012e-19 -1.379126768444298e-17  4.264148317405060e-01
 1.012730784155786e+00  4.264148317405060e-01 -3.461100081813970e-17


CELL_DATA 1361
SCALARS dislocation_index int
LOOKUP_TABLE default
0
1
2
3
4
5
6
7
8
9
10
11
12
13
14
15
16
17
18
19
20
21
22
23
24
25
26
27
28
29
30
31
32
33
34
35
36
37
38
39
40
41
42
43
44
45
46
47
48
49
50
51
52
53
54
55
56
57
58
59
60
61
62
63
64
65
66
67
68
69
70
71
72
73
74
75
76
77
78
79
80
81
82
83
84
85
86
87
88
89
90
91
92
93
94
95
96
97
98
99
100
101
102
103
104
105
106
107
108
109
110
111
112
113
114
115
116
117
118
119
120
121
122
123
124
125
126
127
128
129
130
131
132
133
134
135
136
137
138
139
140
141
142
143
144
145
146
147
148
149
150
151
152
153
154
155
156
157
158
159
160
161
162
163
164
165
166
167
168
169
170
171
172
173
174
175
176
177
178
179
180
181
182
183
184
185
186
187
188
189
190
191
192
193
194
195
196
197
198
199
200
201
202
203
204
205
206
207
208
209
210
211
212
213
214
215
216
217
218
219
220
221
222
223
224
225
226
227
228
229
230
231
232
233
234
235
236
237
238
239
240
241
242
243
244
245
246
247
248
249
250
251
252
253
254
255
256
257
258
259
260
261
262
263
264
265
266
267
268
269
270
271
272
273
274
275
276
277
278
279
280
281
282
283
284
285
286
287
288
289
290
291
292
293
294
295
296
297
298
299
300
301
302
303
304
305
306
307
308
309
310
311
312
313
314
315
316
317
318
319
320
321
322
323
324
325
326
327
328
329
330
331
332
333
334
335
336
337
338
339
340
341
342
343
344
345
346
347
348
349
350
351
352
353
354
355
356
357
358
359
360
361
362
363
364
365
366
367
368
369
370
371
372
373
374
375
376
377
378
379
380
381
382
383
384
385
386
387
388
389
390
391
392
393
394
395
396
397
398
399
400
401
402
403
404
405
406
407
408
409
410
411
412
413
414
415
416
417
418
419
420
421
422
423
424
425
426
427
428
429
430
431
432
433
434
435
436
437
438
439
440
441
442
443
444
445
446
447
448
449
450
451
452
453
454
455
456
457
458
459
460
461
462
463
464
465
466
467
468
469
470
471
472
473
474
475
476
477
478
479
480
481
482
483
484
485
486
487
488
489
490
491
492
493
494
495
496
497
498
499
500
501
502
503
504
505
506
507
508
509
510
511
512
513
514
515
516
517
518
519
520
521
522
523
524
525
526
527
528
529
530
531
532
533
534
535
536
537
538
539
540
541
542
543
544
545
546
547
548
549
550
551
552
553
554
555
556
557
558
559
560
561
562
563
564
565
566
567
568
569
570
571
572
573
574
575
576
577
578
579
580
581
582
583
584
585
586
587
588
589
590
591
592
593
594
595
596
597
598
599
600
601
602
603
604
605
606
607
608
609
610
611
612
613
614
615
616
617
618
619
620
621
622
623
624
625
626
627
628
629
630
631
632
633
634
635
636
637
638
639
640
641
642
643
644
645
646
647
648
649
650
651
652
653
654
655
656
657
658
659
660
661
662
663
664
665
666
667
668
669
670
671
672
673
674
675
676
677
678
679
680
681
682
683
684
685
686
687
688
689
690
691
692
693
694
695
696
697
698
699
700
701
702
703
704
705
706
707
708
709
710
711
712
713
714
715
716
717
718
719
720
721
722
723
724
725
726
727
728
729
730
731
732
733
734
735
736
737
738
739
740
741
742
743
744
745
746
747
748
749
750
751
752
753
754
755
756
757
758
759
760
761
762
763
764
765
766
767
768
769
770
771
772
773
774
775
776
777
778
779
780
781
782
783
784
785
786
787
788
789
790
791
792
793
794
795
796
797
798
799
800
801
802
803
804
805
806
807
808
809
810
811
812
813
814
815
816
817
818
819
820
821
822
823
824
825
826
827
828
829
830
831
832
833
834
835
836
837
838
839
840
841
842
843
844
845
846
847
848
849
850
851
852
853
854
855
856
857
858
859
860
861
862
863
864
865
866
867
868
869
870
871
872
873
874
875
876
877
878
879
880
881
882
883
884
885
886
887
888
889
890
891
892
893
894
895
896
897
898
899
900
901
902
903
904
905
906
907
908
909
910
911
912
913
914
915
916
917
918
919
920
921
922
923
924
925
926
927
928
929
930
931
932
933
934
935
936
937
938
939
940
941
942
943
944
945
946
947
948
949
950
951
952
953
954
955
956
957
958
959
960
961
962
963
964
965
966
967
968
969
970
971
972
973
974
975
976
977
978
979
980
981
982
983
984
985
986
987
988
989
990
991
992
993
994
995
996
997
998
999
1000
1001
1002
1003
1004
1005
1006
1007
1008
1009
1010
1011
1012
1013
1014
1015
1016
1017
1018
1019
1020
1021
1022
1023
1024
1025
1026
1027
1028
1029
1030
1031
1032
1033
1034
1035
1036
1037
1038
1039
1040
1041
1042
1043
1044
1045
1046
1047
1048
1049
1050
1051
1052
1053
1054
1055
1056
1057
1058
1059
1060
1061
1062
1063
1064
1065
1066
1067
1068
1069
1070
1071
1072
1073
1074
1075
1076
1077
1078
1079
1080
1081
1082
1083
1084
1085
1086
1087
1088
1089
1090
1091
1092
1093
1094
1095
1096
1097
1098
1099
1100
1101
1102
1103
1104
1105
1106
1107
1108
1109
1110
1111
1112
1113
1114
1115
1116
1117
1118
1119
1120
1121
1122
1123
1124
1125
1126
1127
1128
1129
1130
1131
1132
1133
1134
1135
1136
1137
1138
1139
1140
1141
1142
1143
1144
1145
1146
1147
1148
1149
1150
1151
1152
1153
1154
1155
1156
1157
1158
1159
1160
1161
1162
1163
1164
1165
1166
1167
1168
1169
1170
1171
1172
1173
1174
1175
1176
1177
1178
1179
1180
1181
1182
1183
1184
1185
1186
1187
1188
1189
1190
1191
1192
1193
1194
1195
1196
1197
1198
1199
1200
1201
1202
1203
1204
1205
1206
1207
1208
1209
1210
1211
1212
1213
1214
1215
1216
1217
1218
1219
1220
1221
1222
1223
1224
1225
1226
1227
1228
1229
1230
1231
1232
1233
1234
1235
1236
1237
1238
1239
1240
1241
1242
1243
1244
1245
1246
1247
1248
1249
1250
1251
1252
1253
1254
1255
1256
1257
1258
1259
1260
1261
1262
1263
1264
1265
1266
1267
1268
1269
1270
1271
1272
1273
1274
1275
1276
1277
1278
1279
1280
1281
1282
1283
1284
1285
1286
1287
1288
1289
1290
1291
1292
1293
1294
1295
1296
1297
1298
1299
1300
1301
1302
1303
1304
1305
1306
1307
1308
1309
1310
1311
1312
1313
1314
1315
1316
1317
1318
1319
1320
1321
1322
1323
1324
1325
1326
1327
1328
1329
1330
1331
1332
1333
1334
1335
1336
1337
1338
1339
1340
1341
1342
1343
1344
1345
1346
1347
1348
1349
1350
1351
1352
1353
1354
1355
1356
1357
1358
1359
1360

VECTORS burgers_vector_global double
-1.429999999999999e+00 -8.256108849411650e-01  3.393140768766017e-17
 1.429999999999999e+00  8.256108849411650e-01 -3.393140768766017e-17
-1.429999999999999e+00 -8.256108849411650e-01  3.393140768766017e-17
-1.429999999999999e+00 -8.256108849411650e-01  3.393140768766017e-17
-1.429999999999999e+00 -8.256108849411650e-01  3.393140768766017e-17
-1.429999999999999e+00 -8.256108849411650e-01  3.393140768766017e-17
-1.429999999999999e+00 -8.256108849411650e-01  3.393140768766017e-17
-1.429999999999999e+00 -8.256108849411650e-01  3.393140768766017e-17
-1.429999999999999e+00 -8.256108849411650e-01  3.393140768766017e-17
-1.429999999999999e+00 -8.256108849411650e-01  3.393140768766017e-17
-1.429999999999999e+00 -8.256108849411650e-01  3.393140768766017e-17
-1.429999999999999e+00 -8.256108849411650e-01  3.393140768766017e-17
-1.429999999999999e+00 -8.256108849411650e-01  3.393140768766017e-17
-1.429999999999999e+00 -8.256108849411650e-01  3.393140768766017e-17
-1.429999999999999e+00 -8.256108849411650e-01  3.393140768766017e-17
-1.429999999999999e+00 -8.256108849411650e-01  3.393140768766017e-17
-1.429999999999999e+00 -8.256108849411650e-01  3.393140768766017e-17
-1.429999999999999e+00 -8.256108849411650e-01  3.393140768766017e-17
-1.429999999999999e+00 -8.256108849411650e-01  3.393140768766017e-17
-1.429999999999999e+00 -8.256108849411650e-01  3.393140768766017e-17
-1.429999999999999e+00 -8.256108849411650e-01  3.393140768766017e-17
-1.429999999999999e+00 -8.256108849411650e-01  3.393140768766017e-17
-1.429999999999999e+00 -8.256108849411650e-01  3.393140768766017e-17
-1.429999999999999e+00 -8.256108849411650e-01  3.393140768766017e-17
-1.429999999999999e+00 -8.256108849411650e-01  3.393140768766017e-17
-1.429999999999999e+00 -8.256108849411650e-01  3.393140768766017e-17
-1.429999999999999e+00 -8.256108849411650e-01  3.393140768766017e-17
-1.429999999999999e+00 -8.256108849411650e-01  3.393140768766017e-17
-1.429999999999999e+00 -8.256108849411650e-01  3.393140768766017e-17
-1.429999999999999e+00 -8.256108849411650e-01  3.393140768766017e-17
-1.429999999999999e+00 -8.256108849411650e-01  3.393140768766017e-17
-1.429999999999999e+00 -8.256108849411650e-01  3.393140768766017e-17
-1.429999999999999e+00 -8.256108849411650e-01  3.393140768766017e-17
-1.429999999999999e+00 -8.256108849411650e-01  3.393140768766017e-17
-1.429999999999999e+00 -8.256108849411650e-01  3.393140768766017e-17
-1.429999999999999e+00 -8.256108849411650e-01  3.393140768766017e-17
-1.429999999999999e+00 -8.256108849411650e-01  3.393140768766017e-17
-1.429999999999999e+00 -8.256108849411650e-01  3.393140768766017e-17
-1.429999999999999e+00 -8.256108849411650e-01  3.393140768766017e-17
-1.429999999999999e+00 -8.256108849411650e-01  3.393140768766017e-17
-1.429999999999999e+00 -8.256108849411650e-01  3.393140768766017e-17
-1.429999999999999e+00 -8.256108849411650e-01  3.393140768766017e-17
-1.429999999999999e+00 -8.256108849411650e-01  3.393140768766017e-17
-1.429999999999999e+00 -8.256108849411650e-01  3.393140768766017e-17
-1.429999999999999e+00 -8.256108849411650e-01  3.393140768766017e-17
-1.429999999999999e+00 -8.256108849411650e-01  3.393140768766017e-17
-1.429999999999999e+00 -8.256108849411650e-01  3.393140768766017e-17
-1.429999999999999e+00 -8.256108849411650e-01  3.393140768766017e-17
-1.429999999999999e+00 -8.256108849411650e-01  3.393140768766017e-17
-1.429999999999999e+00 -8.256108849411650e-01  3.393140768766017e-17
-1.429999999999999e+00 -8.256108849411650e-01  3.393140768766017e-17
-1.429999999999999e+00 -8.256108849411650e-01  3.393140768766017e-17
-1.429999999999999e+00 -8.256108849411650e-01  3.393140768766017e-17
-1.429999999999999e+00 -8.256108849411650e-01  3.393140768766017e-17
-1.429999999999999e+00 -8.256108849411650e-01  3.393140768766017e-17
-1.429999999999999e+00 -8.256108849411650e-01  3.393140768766017e-17
-1.429999999999999e+00 -8.256108849411650e-01  3.393140768766017e-17
-1.429999999999999e+00 -8.256108849411650e-01  3.393140768766017e-17
-1.429999999999999e+00 -8.256108849411650e-01  3.393140768766017e-17
-1.429999999999999e+00 -8.256108849411650e-01  3.393140768766017e-17
-1.429999999999999e+00 -8.256108849411650e-01  3.393140768766017e-17
-1.429999999999999e+00 -8.256108849411650e-01  3.393140768766017e-17
-1.429999999999999e+00 -8.256108849411650e-01  3.393140768766017e-17
-1.429999999999999e+00 -8.256108849411650e-01  3.393140768766017e-17
-1.429999999999999e+00 -8.256108849411650e-01  3.393140768766017e-17
-1.429999999999999e+00 -8.256108849411650e-01  3.393140768766017e-17
-1.429999999999999e+00 -8.256108849411650e-01  3.393140768766017e-17
-1.429999999999999e+00 -8.256108849411650e-01  3.393140768766017e-17
-1.429999999999999e+00 -8.256108849411650e-01  3.393140768766017e-17
-1.429999999999999e+00 -8.256108849411650e-01  3.393140768766017e-17
-1.429999999999999e+00 -8.256108849411650e-01  3.393140768766017e-17
-1.429999999999999e+00 -8.256108849411650e-01  3.393140768766017e-17
-1.429999999999999e+00 -8.256108849411650e-01  3.393140768766017e-17
-1.429999999999999e+00 -8.256108849411650e-01  3.393140768766017e-17
-1.429999999999999e+00 -8.256108849411650e-01  3.393140768766017e-17
-1.429999999999999e+00 -8.256108849411650e-01  3.393140768766017e-17
-1.429999999999999e+00 -8.256108849411650e-01  3.393140768766017e-17
-1.429999999999999e+00 -8.256108849411650e-01  3.393140768766017e-17
-1.429999999999999e+00 -8.256108849411650e-01  3.393140768766017e-17
-1.429999999999999e+00 -8.256108849411650e-01  3.393140768766017e-17
-1.429999999999999e+00 -8.256108849411650e-01  3.393140768766017e-17
-1.429999999999999e+00 -8.256108849411650e-01  3.393140768766017e-17
-1.429999999999999e+00 -8.256108849411650e-01  3.393140768766017e-17
-1.429999999999999e+00 -8.256108849411650e-01  3.393140768766017e-17
-1.429999999999999e+00 -8.256108849411650e-01  3.393140768766017e-17
-1.429999999999999e+00 -8.256108849411650e-01  3.393140768766017e-17
-1.429999999999999e+00 -8.256108849411650e-01  3.393140768766017e-17
-1.429999999999999e+00 -8.256108849411650e-01  3.393140768766017e-17
-1.429999999999999e+00 -8.256108849411650e-01  3.393140768766017e-17
-1.429999999999999e+00 -8.256108849411650e-01  3.393140768766017e-17
-1.429999999999999e+00 -8.256108849411650e-01  3.393140768766017e-17
-1.429999999999999e+00 -8.256108849411650e-01  3.393140768766017e-17
-1.429999999999999e+00 -8.256108849411650e-01  3.393140768766017e-17
-1.429999999999999e+00 -8.256108849411650e-01  3.393140768766017e-17
-1.429999999999999e+00 -8.256108849411650e-01  3.393140768766017e-17
-1.429999999999999e+00 -8.256108849411650e-01  3.393140768766017e-17
-1.429999999999999e+00 -8.256108849411650e-01  3.393140768766017e-17
-1.429999999999999e+00 -8.256108849411650e-01  3.393140768766017e-17
-1.429999999999999e+00 -8.256108849411650e-01  3.393140768766017e-17
-1.429999999999999e+00 -8.256108849411650e-01  3.393140768766017e-17
-1.429999999999999e+00 -8.256108849411650e-01  3.393140768766017e-17
-1.429999999999999e+00 -8.256108849411650e-01  3.393140768766017e-17
-1.429999999999999e+00 -8.256108849411650e-01  3.393140768766017e-17
-1.429999999999999e+00 -8.256108849411650e-01  3.393140768766017e-17
-1.429999999999999e+00 -8.256108849411650e-01  3.393140768766017e-17
-1.429999999999999e+00 -8.256108849411650e-01  3.393140768766017e-17
-1.429999999999999e+00 -8.256108849411650e-01  3.393140768766017e-17
-1.429999999999999e+00 -8.256108849411650e-01  3.393140768766017e-17
-1.429999999999999e+00 -8.256108849411650e-01  3.393140768766017e-17
-1.429999999999999e+00 -8.256108849411650e-01  3.393140768766017e-17
-1.429999999999999e+00 -8.256108849411650e-01  3.393140768766017e-17
-1.429999999999999e+00 -8.256108849411650e-01  3.393140768766017e-17
-1.429999999999999e+00 -8.256108849411650e-01  3.393140768766017e-17
-1.429999999999999e+00 -8.256108849411650e-01  3.393140768766017e-17
-1.429999999999999e+00 -8.256108849411650e-01  3.393140768766017e-17
-1.429999999999999e+00 -8.256108849411650e-01  3.393140768766017e-17
-1.429999999999999e+00 -8.256108849411650e-01  3.393140768766017e-17
-1.429999999999999e+00 -8.256108849411650e-01  3.393140768766017e-17
-1.429999999999999e+00 -8.256108849411650e-01  3.393140768766017e-17
-1.429999999999999e+00 -8.256108849411650e-01  3.393140768766017e-17
-1.429999999999999e+00 -8.256108849411650e-01  3.393140768766017e-17
-1.429999999999999e+00 -8.256108849411650e-01  3.393140768766017e-17
-1.429999999999999e+00 -8.256108849411650e-01  3.393140768766017e-17
-1.429999999999999e+00 -8.256108849411650e-01  3.393140768766017e-17
-1.429999999999999e+00 -8.256108849411650e-01  3.393140768766017e-17
-1.429999999999999e+00 -8.256108849411650e-01  3.393140768766017e-17
-1.429999999999999e+00 -8.256108849411650e-01  3.393140768766017e-17
-1.429999999999999e+00 -8.256108849411650e-01  3.393140768766017e-17
-1.429999999999999e+00 -8.256108849411650e-01  3.393140768766017e-17
-1.429999999999999e+00 -8.256108849411650e-01  3.393140768766017e-17
-1.429999999999999e+00 -8.256108849411650e-01  3.393140768766017e-17
-1.429999999999999e+00 -8.256108849411650e-01  3.393140768766017e-17
-1.429999999999999e+00 -8.256108849411650e-01  3.393140768766017e-17
-1.429999999999999e+00 -8.256108849411650e-01  3.393140768766017e-17
-1.429999999999999e+00 -8.256108849411650e-01  3.393140768766017e-17
-1.429999999999999e+00 -8.256108849411650e-01  3.393140768766017e-17
-1.429999999999999e+00 -8.256108849411650e-01  3.393140768766017e-17
-1.429999999999999e+00 -8.256108849411650e-01  3.393140768766017e-17
-1.429999999999999e+00 -8.256108849411650e-01  3.393140768766017e-17
-1.429999999999999e+00 -8.256108849411650e-01  3.393140768766017e-17
-1.429999999999999e+00 -8.256108849411650e-01  3.393140768766017e-17
-1.429999999999999e+00 -8.256108849411650e-01  3.393140768766017e-17
-1.429999999999999e+00 -8.256108849411650e-01  3.393140768766017e-17
-1.429999999999999e+00 -8.256108849411650e-01  3.393140768766017e-17
-1.429999999999999e+00 -8.256108849411650e-01  3.393140768766017e-17
-1.429999999999999e+00 -8.256108849411650e-01  3.393140768766017e-17
-1.429999999999999e+00 -8.256108849411650e-01  3.393140768766017e-17
-1.429999999999999e+00 -8.256108849411650e-01  3.393140768766017e-17
-1.429999999999999e+00 -8.256108849411650e-01  3.393140768766017e-17
-1.429999999999999e+00 -8.256108849411650e-01  3.393140768766017e-17
-1.429999999999999e+00 -8.256108849411650e-01  3.393140768766017e-17
-1.429999999999999e+00 -8.256108849411650e-01  3.393140768766017e-17
-1.429999999999999e+00 -8.256108849411650e-01  3.393140768766017e-17
-1.429999999999999e+00 -8.256108849411650e-01  3.393140768766017e-17
-1.429999999999999e+00 -8.256108849411650e-01  3.393140768766017e-17
-1.429999999999999e+00 -8.256108849411650e-01  3.393140768766017e-17
-1.429999999999999e+00 -8.256108849411650e-01  3.393140768766017e-17
-1.429999999999999e+00 -8.256108849411650e-01  3.393140768766017e-17
-1.429999999999999e+00 -8.256108849411650e-01  3.393140768766017e-17
-1.429999999999999e+00 -8.256108849411650e-01  3.393140768766017e-17
-1.429999999999999e+00 -8.256108849411650e-01  3.393140768766017e-17
-1.429999999999999e+00 -8.256108849411650e-01  3.393140768766017e-17
-1.429999999999999e+00 -8.256108849411650e-01  3.393140768766017e-17
-1.429999999999999e+00 -8.256108849411650e-01  3.393140768766017e-17
-1.429999999999999e+00 -8.256108849411650e-01  3.393140768766017e-17
-1.429999999999999e+00 -8.256108849411650e-01  3.393140768766017e-17
-1.429999999999999e+00 -8.256108849411650e-01  3.393140768766017e-17
-1.429999999999999e+00 -8.256108849411650e-01  3.393140768766017e-17
-1.429999999999999e+00 -8.256108849411650e-01  3.393140768766017e-17
-1.429999999999999e+00 -8.256108849411650e-01  3.393140768766017e-17
-1.429999999999999e+00 -8.256108849411650e-01  3.393140768766017e-17
-1.429999999999999e+00 -8.256108849411650e-01  3.393140768766017e-17
-1.429999999999999e+00 -8.256108849411650e-01  3.393140768766017e-17
-1.429999999999999e+00 -8.256108849411650e-01  3.393140768766017e-17
-1.429999999999999e+00 -8.256108849411650e-01  3.393140768766017e-17
-1.429999999999999e+00 -8.256108849411650e-01  3.393140768766017e-17
-1.429999999999999e+00 -8.256108849411650e-01  3.393140768766017e-17
-1.429999999999999e+00 -8.256108849411650e-01  3.393140768766017e-17
-1.429999999999999e+00 -8.256108849411650e-01  3.393140768766017e-17
-1.429999999999999e+00 -8.256108849411650e-01  3.393140768766017e-17
-1.429999999999999e+00 -8.256108849411650e-01  3.393140768766017e-17
 1.429999999999999e+00  8.256108849411650e-01 -3.393140768766017e-17
-1.429999999999999e+00 -8.256108849411650e-01  3.393140768766017e-17
-1.429999999999999e+00 -8.256108849411650e-01  3.393140768766017e-17
-1.429999999999999e+00 -8.256108849411650e-01  3.393140768766017e-17
-1.429999999999999e+00 -8.256108849411650e-01  3.393140768766017e-17
-1.429999999999999e+00 -8.256108849411650e-01  3.393140768766017e-17
-1.429999999999999e+00 -8.256108849411650e-01  3.393140768766017e-17
-1.429999999999999e+00 -8.256108849411650e-01  3.393140768766017e-17
-1.429999999999999e+00 -8.256108849411650e-01  3.393140768766017e-17
-1.429999999999999e+00 -8.256108849411650e-01  3.393140768766017e-17
-1.429999999999999e+00 -8.256108849411650e-01  3.393140768766017e-17
-1.429999999999999e+00 -8.256108849411650e-01  3.393140768766017e-17
-1.429999999999999e+00 -8.256108849411650e-01  3.393140768766017e-17
-1.429999999999999e+00 -8.256108849411650e-01  3.393140768766017e-17
-1.429999999999999e+00 -8.256108849411650e-01  3.393140768766017e-17
-1.429999999999999e+00 -8.256108849411650e-01  3.393140768766017e-17
-1.429999999999999e+00 -8.256108849411650e-01  3.393140768766017e-17
-1.429999999999999e+00 -8.256108849411650e-01  3.393140768766017e-17
-1.429999999999999e+00 -8.256108849411650e-01  3.393140768766017e-17
-1.429999999999999e+00 -8.256108849411650e-01  3.393140768766017e-17
-1.429999999999999e+00 -8.256108849411650e-01  3.393140768766017e-17
-1.429999999999999e+00 -8.256108849411650e-01  3.393140768766017e-17
-1.429999999999999e+00 -8.256108849411650e-01  3.393140768766017e-17
-1.429999999999999e+00 -8.256108849411650e-01  3.393140768766017e-17
-1.429999999999999e+00 -8.256108849411650e-01  3.393140768766017e-17
-1.429999999999999e+00 -8.256108849411650e-01  3.393140768766017e-17
-1.429999999999999e+00 -8.256108849411650e-01  3.393140768766017e-17
-1.429999999999999e+00 -8.256108849411650e-01  3.393140768766017e-17
-1.429999999999999e+00 -8.256108849411650e-01  3.393140768766017e-17
-1.429999999999999e+00 -8.256108849411650e-01  3.393140768766017e-17
-1.429999999999999e+00 -8.256108849411650e-01  3.393140768766017e-17
-1.429999999999999e+00 -8.256108849411650e-01  3.393140768766017e-17
-1.429999999999999e+00 -8.256108849411650e-01  3.393140768766017e-17
-1.429999999999999e+00 -8.256108849411650e-01  3.393140768766017e-17
-1.429999999999999e+00 -8.256108849411650e-01  3.393140768766017e-17
-1.429999999999999e+00 -8.256108849411650e-01  3.393140768766017e-17
-1.429999999999999e+00 -8.256108849411650e-01  3.393140768766017e-17
-1.429999999999999e+00 -8.256108849411650e-01  3.393140768766017e-17
-1.429999999999999e+00 -8.256108849411650e-01  3.393140768766017e-17
-1.429999999999999e+00 -8.256108849411650e-01  3.393140768766017e-17
-1.429999999999999e+00 -8.256108849411650e-01  3.393140768766017e-17
-1.429999999999999e+00 -8.256108849411650e-01  3.393140768766017e-17
-1.429999999999999e+00 -8.256108849411650e-01  3.393140768766017e-17
-1.429999999999999e+00 -8.256108849411650e-01  3.393140768766017e-17
-1.429999999999999e+00 -8.256108849411650e-01  3.393140768766017e-17
-1.429999999999999e+00 -8.256108849411650e-01  3.393140768766017e-17
-1.429999999999999e+00 -8.256108849411650e-01  3.393140768766017e-17
-1.429999999999999e+00 -8.256108849411650e-01  3.393140768766017e-17
-1.429999999999999e+00 -8.256108849411650e-01  3.393140768766017e-17
-1.429999999999999e+00 -8.256108849411650e-01  3.393140768766017e-17
-1.429999999999999e+00 -8.256108849411650e-01  3.393140768766017e-17
-1.429999999999999e+00 -8.256108849411650e-01  3.393140768766017e-17
-1.429999999999999e+00 -8.256108849411650e-01  3.393140768766017e-17
-1.429999999999999e+00 -8.256108849411650e-01  3.393140768766017e-17
-1.429999999999999e+00 -8.256108849411650e-01  3.393140768766017e-17
-1.429999999999999e+00 -8.256108849411650e-01  3.393140768766017e-17
-1.429999999999999e+00 -8.256108849411650e-01  3.393140768766017e-17
-1.429999999999999e+00 -8.256108849411650e-01  3.393140768766017e-17
-1.429999999999999e+00 -8.256108849411650e-01  3.393140768766017e-17
-1.429999999999999e+00 -8.256108849411650e-01  3.393140768766017e-17
-1.429999999999999e+00 -8.256108849411650e-01  3.393140768766017e-17
-1.429999999999999e+00 -8.256108849411650e-01  3.393140768766017e-17
-1.429999999999999e+00 -8.256108849411650e-01  3.393140768766017e-17
-1.429999999999999e+00 -8.256108849411650e-01  3.393140768766017e-17
-1.429999999999999e+00 -8.256108849411650e-01  3.393140768766017e-17
-1.429999999999999e+00 -8.256108849411650e-01  3.393140768766017e-17
-1.429999999999999e+00 -8.256108849411650e-01  3.393140768766017e-17
-1.429999999999999e+00 -8.256108849411650e-01  3.393140768766017e-17
-1.429999999999999e+00 -8.256108849411650e-01  3.393140768766017e-17
-1.429999999999999e+00 -8.256108849411650e-01  3.393140768766017e-17
-1.429999999999999e+00 -8.256108849411650e-01  3.393140768766017e-17
-1.429999999999999e+00 -8.256108849411650e-01  3.393140768766017e-17
-1.429999999999999e+00 -8.256108849411650e-01  3.393140768766017e-17
-1.429999999999999e+00 -8.256108849411650e-01  3.393140768766017e-17
-1.429999999999999e+00 -8.256108849411650e-01  3.393140768766017e-17
-1.429999999999999e+00 -8.256108849411650e-01  3.393140768766017e-17
-1.429999999999999e+00 -8.256108849411650e-01  3.393140768766017e-17
-1.429999999999999e+00 -8.256108849411650e-01  3.393140768766017e-17
-1.429999999999999e+00 -8.256108849411650e-01  3.393140768766017e-17
-1.429999999999999e+00 -8.256108849411650e-01  3.393140768766017e-17
-1.429999999999999e+00 -8.256108849411650e-01  3.393140768766017e-17
-1.429999999999999e+00 -8.256108849411650e-01  3.393140768766017e-17
-1.429999999999999e+00 -8.256108849411650e-01  3.393140768766017e-17
-1.429999999999999e+00 -8.256108849411650e-01  3.393140768766017e-17
-1.429999999999999e+00 -8.256108849411650e-01  3.393140768766017e-17
-1.429999999999999e+00 -8.256108849411650e-01  3.393140768766017e-17
-1.429999999999999e+00 -8.256108849411650e-01  3.393140768766017e-17
-1.429999999999999e+00 -8.256108849411650e-01  3.393140768766017e-17
-1.429999999999999e+00 -8.256108849411650e-01  3.393140768766017e-17
-1.429999999999999e+00 -8.256108849411650e-01  3.393140768766017e-17
-1.429999999999999e+00 -8.256108849411650e-01  3.393140768766017e-17
-1.429999999999999e+00 -8.256108849411650e-01  3.393140768766017e-17
-1.429999999999999e+00 -8.256108849411650e-01  3.393140768766017e-17
-1.429999999999999e+00 -8.256108849411650e-01  3.393140768766017e-17
-1.429999999999999e+00 -8.256108849411650e-01  3.393140768766017e-17
-1.429999999999999e+00 -8.256108849411650e-01  3.393140768766017e-17
-1.429999999999999e+00 -8.256108849411650e-01  3.393140768766017e-17
-1.429999999999999e+00 -8.256108849411650e-01  3.393140768766017e-17
-1.429999999999999e+00 -8.256108849411650e-01  3.393140768766017e-17
-1.429999999999999e+00 -8.256108849411650e-01  3.393140768766017e-17
-1.429999999999999e+00 -8.256108849411650e-01  3.393140768766017e-17
-1.429999999999999e+00 -8.256108849411650e-01  3.393140768766017e-17
-1.429999999999999e+00 -8.256108849411650e-01  3.393140768766017e-17
-1.429999999999999e+00 -8.256108849411650e-01  3.393140768766017e-17
-1.429999999999999e+00 -8.256108849411650e-01  3.393140768766017e-17
-1.429999999999999e+00 -8.256108849411650e-01  3.393140768766017e-17
-1.429999999999999e+00 -8.256108849411650e-01  3.393140768766017e-17
-1.429999999999999e+00 -8.256108849411650e-01  3.393140768766017e-17
-1.429999999999999e+00 -8.256108849411650e-01  3.393140768766017e-17
-1.429999999999999e+00 -8.256108849411650e-01  3.393140768766017e-17
-1.429999999999999e+00 -8.256108849411650e-01  3.393140768766017e-17
-1.429999999999999e+00 -8.256108849411650e-01  3.393140768766017e-17
-1.429999999999999e+00 -8.256108849411650e-01  3.393140768766017e-17
-1.429999999999999e+00 -8.256108849411650e-01  3.393140768766017e-17
-1.429999999999999e+00 -8.256108849411650e-01  3.393140768766017e-17
-1.429999999999999e+00 -8.256108849411650e-01  3.393140768766017e-17
-1.429999999999999e+00 -8.256108849411650e-01  3.393140768766017e-17
-1.429999999999999e+00 -8.256108849411650e-01  3.393140768766017e-17
-1.429999999999999e+00 -8.256108849411650e-01  3.393140768766017e-17
-1.429999999999999e+00 -8.256108849411650e-01  3.393140768766017e-17
-1.429999999999999e+00 -8.256108849411650e-01  3.393140768766017e-17
-1.429999999999999e+00 -8.256108849411650e-01  3.393140768766017e-17
-1.429999999999999e+00 -8.256108849411650e-01  3.393140768766017e-17
-1.429999999999999e+00 -8.256108849411650e-01  3.393140768766017e-17
-1.429999999999999e+00 -8.256108849411650e-01  3.393140768766017e-17
-1.429999999999999e+00 -8.256108849411650e-01  3.393140768766017e-17
-1.429999999999999e+00 -8.256108849411650e-01  3.393140768766017e-17
-1.429999999999999e+00 -8.256108849411650e-01  3.393140768766017e-17
-1.429999999999999e+00 -8.256108849411650e-01  3.393140768766017e-17
-1.429999999999999e+00 -8.256108849411650e-01  3.393140768766017e-17
-1.429999999999999e+00 -8.256108849411650e-01  3.393140768766017e-17
-1.429999999999999e+00 -8.256108849411650e-01  3.393140768766017e-17
-1.429999999999999e+00 -8.256108849411650e-01  3.393140768766017e-17
-1.429999999999999e+00 -8.256108849411650e-01  3.393140768766017e-17
-1.429999999999999e+00 -8.256108849411650e-01  3.393140768766017e-17
-1.429999999999999e+00 -8.256108849411650e-01  3.393140768766017e-17
-1.429999999999999e+00 -8.256108849411650e-01  3.393140768766017e-17
-1.429999999999999e+00 -8.256108849411650e-01  3.393140768766017e-17
-1.429999999999999e+00 -8.256108849411650e-01  3.393140768766017e-17
-1.429999999999999e+00 -8.256108849411650e-01  3.393140768766017e-17
-1.429999999999999e+00 -8.256108849411650e-01  3.393140768766017e-17
-1.429999999999999e+00 -8.256108849411650e-01  3.393140768766017e-17
-1.429999999999999e+00 -8.256108849411650e-01  3.393140768766017e-17
-1.429999999999999e+00 -8.256108849411650e-01  3.393140768766017e-17
-1.429999999999999e+00 -8.256108849411650e-01  3.393140768766017e-17
-1.429999999999999e+00 -8.256108849411650e-01  3.393140768766017e-17
-1.429999999999999e+00 -8.256108849411650e-01  3.393140768766017e-17
-1.429999999999999e+00 -8.256108849411650e-01  3.393140768766017e-17
-1.429999999999999e+00 -8.256108849411650e-01  3.393140768766017e-17
-1.429999999999999e+00 -8.256108849411650e-01  3.393140768766017e-17
-1.429999999999999e+00 -8.256108849411650e-01  3.393140768766017e-17
-1.429999999999999e+00 -8.256108849411650e-01  3.393140768766017e-17
-1.429999999999999e+00 -8.256108849411650e-01  3.393140768766017e-17
-1.429999999999999e+00 -8.256108849411650e-01  3.393140768766017e-17
-1.429999999999999e+00 -8.256108849411650e-01  3.393140768766017e-17
-1.429999999999999e+00 -8.256108849411650e-01  3.393140768766017e-17
-1.429999999999999e+00 -8.256108849411650e-01  3.393140768766017e-17
-1.429999999999999e+00 -8.256108849411650e-01  3.393140768766017e-17
-1.429999999999999e+00 -8.256108849411650e-01  3.393140768766017e-17
-1.429999999999999e+00 -8.256108849411650e-01  3.393140768766017e-17
-1.429999999999999e+00 -8.256108849411650e-01  3.393140768766017e-17
-1.429999999999999e+00 -8.256108849411650e-01  3.393140768766017e-17
-1.429999999999999e+00 -8.256108849411650e-01  3.393140768766017e-17
-1.429999999999999e+00 -8.256108849411650e-01  3.393140768766017e-17
-1.429999999999999e+00 -8.256108849411650e-01  3.393140768766017e-17
-1.429999999999999e+00 -8.256108849411650e-01  3.393140768766017e-17
-1.429999999999999e+00 -8.256108849411650e-01  3.393140768766017e-17
-1.429999999999999e+00 -8.256108849411650e-01  3.393140768766017e-17
-1.429999999999999e+00 -8.256108849411650e-01  3.393140768766017e-17
-1.429999999999999e+00 -8.256108849411650e-01  3.393140768766017e-17
-1.429999999999999e+00 -8.256108849411650e-01  3.393140768766017e-17
-1.429999999999999e+00 -8.256108849411650e-01  3.393140768766017e-17
-1.429999999999999e+00 -8.256108849411650e-01  3.393140768766017e-17
-1.429999999999999e+00 -8.256108849411650e-01  3.393140768766017e-17
-1.429999999999999e+00 -8.256108849411650e-01  3.393140768766017e-17
-1.429999999999999e+00 -8.256108849411650e-01  3.393140768766017e-17
 1.429999999999999e+00  8.256108849411650e-01 -3.393140768766017e-17
-1.429999999999999e+00 -8.256108849411650e-01  3.393140768766017e-17
 1.429999999999999e+00  8.256108849411650e-01 -3.393140768766017e-17
 1.429999999999999e+00  8.256108849411650e-01 -3.393140768766017e-17
 1.429999999999999e+00  8.256108849411650e-01 -3.393140768766017e-17
 1.429999999999999e+00  8.256108849411650e-01 -3.393140768766017e-17
 1.429999999999999e+00  8.256108849411650e-01 -3.393140768766017e-17
 1.429999999999999e+00  8.256108849411650e-01 -3.393140768766017e-17
 1.429999999999999e+00  8.256108849411650e-01 -3.393140768766017e-17
 1.429999999999999e+00  8.256108849411650e-01 -3.393140768766017e-17
 1.429999999999999e+00  8.256108849411650e-01 -3.393140768766017e-17
 1.429999999999999e+00  8.256108849411650e-01 -3.393140768766017e-17
 1.429999999999999e+00  8.256108849411650e-01 -3.393140768766017e-17
 1.429999999999999e+00  8.256108849411650e-01 -3.393140768766017e-17
 1.429999999999999e+00  8.256108849411650e-01 -3.393140768766017e-17
 1.429999999999999e+00  8.256108849411650e-01 -3.393140768766017e-17
 1.429999999999999e+00  8.256108849411650e-01 -3.393140768766017e-17
 1.429999999999999e+00  8.256108849411650e-01 -3.393140768766017e-17
 1.429999999999999e+00  8.256108849411650e-01 -3.393140768766017e-17
 1.429999999999999e+00  8.256108849411650e-01 -3.393140768766017e-17
 1.429999999999999e+00  8.256108849411650e-01 -3.393140768766017e-17
 1.429999999999999e+00  8.256108849411650e-01 -3.393140768766017e-17
 1.429999999999999e+00  8.256108849411650e-01 -3.393140768766017e-17
 1.429999999999999e+00  8.256108849411650e-01 -3.393140768766017e-17
 1.429999999999999e+00  8.256108849411650e-01 -3.393140768766017e-17
 1.429999999999999e+00  8.256108849411650e-01 -3.393140768766017e-17
 1.429999999999999e+00  8.256108849411650e-01 -3.393140768766017e-17
 1.429999999999999e+00  8.256108849411650e-01 -3.393140768766017e-17
 1.429999999999999e+00  8.256108849411650e-01 -3.393140768766017e-17
 1.429999999999999e+00  8.256108849411650e-01 -3.393140768766017e-17
 1.429999999999999e+00  8.256108849411650e-01 -3.393140768766017e-17
 1.429999999999999e+00  8.256108849411650e-01 -3.393140768766017e-17
 1.429999999999999e+00  8.256108849411650e-01 -3.393140768766017e-17
 1.429999999999999e+00  8.256108849411650e-01 -3.393140768766017e-17
 1.429999999999999e+00  8.256108849411650e-01 -3.393140768766017e-17
 1.429999999999999e+00  8.256108849411650e-01 -3.393140768766017e-17
 1.429999999999999e+00  8.256108849411650e-01 -3.393140768766017e-17
 1.429999999999999e+00  8.256108849411650e-01 -3.393140768766017e-17
 1.429999999999999e+00  8.256108849411650e-01 -3.393140768766017e-17
 1.429999999999999e+00  8.256108849411650e-01 -3.393140768766017e-17
 1.429999999999999e+00  8.256108849411650e-01 -3.393140768766017e-17
 1.429999999999999e+00  8.256108849411650e-01 -3.393140768766017e-17
 1.429999999999999e+00  8.256108849411650e-01 -3.393140768766017e-17
 1.429999999999999e+00  8.256108849411650e-01 -3.393140768766017e-17
 1.429999999999999e+00  8.256108849411650e-01 -3.393140768766017e-17
 1.429999999999999e+00  8.256108849411650e-01 -3.393140768766017e-17
 1.429999999999999e+00  8.256108849411650e-01 -3.393140768766017e-17
 1.429999999999999e+00  8.256108849411650e-01 -3.393140768766017e-17
 1.429999999999999e+00  8.256108849411650e-01 -3.393140768766017e-17
 1.429999999999999e+00  8.256108849411650e-01 -3.393140768766017e-17
 1.429999999999999e+00  8.256108849411650e-01 -3.393140768766017e-17
 1.429999999999999e+00  8.256108849411650e-01 -3.393140768766017e-17
 1.429999999999999e+00  8.256108849411650e-01 -3.393140768766017e-17
 1.429999999999999e+00  8.256108849411650e-01 -3.393140768766017e-17
 1.429999999999999e+00  8.256108849411650e-01 -3.393140768766017e-17
 1.429999999999999e+00  8.256108849411650e-01 -3.393140768766017e-17
 1.429999999999999e+00  8.256108849411650e-01 -3.393140768766017e-17
 1.429999999999999e+00  8.256108849411650e-01 -3.393140768766017e-17
 1.429999999999999e+00  8.256108849411650e-01 -3.393140768766017e-17
 1.429999999999999e+00  8.256108849411650e-01 -3.393140768766017e-17
 1.429999999999999e+00  8.256108849411650e-01 -3.393140768766017e-17
 1.429999999999999e+00  8.256108849411650e-01 -3.393140768766017e-17
 1.429999999999999e+00  8.256108849411650e-01 -3.393140768766017e-17
 1.429999999999999e+00  8.256108849411650e-01 -3.393140768766017e-17
 1.429999999999999e+00  8.256108849411650e-01 -3.393140768766017e-17
 1.429999999999999e+00  8.256108849411650e-01 -3.393140768766017e-17
 1.429999999999999e+00  8.256108849411650e-01 -3.393140768766017e-17
 1.429999999999999e+00  8.256108849411650e-01 -3.393140768766017e-17
 1.429999999999999e+00  8.256108849411650e-01 -3.393140768766017e-17
 1.429999999999999e+00  8.256108849411650e-01 -3.393140768766017e-17
 1.429999999999999e+00  8.256108849411650e-01 -3.393140768766017e-17
 1.429999999999999e+00  8.256108849411650e-01 -3.393140768766017e-17
 1.429999999999999e+00  8.256108849411650e-01 -3.393140768766017e-17
 1.429999999999999e+00  8.256108849411650e-01 -3.393140768766017e-17
 1.429999999999999e+00  8.256108849411650e-01 -3.393140768766017e-17
 1.429999999999999e+00  8.256108849411650e-01 -3.393140768766017e-17
 1.429999999999999e+00  8.256108849411650e-01 -3.393140768766017e-17
 1.429999999999999e+00  8.256108849411650e-01 -3.393140768766017e-17
 1.429999999999999e+00  8.256108849411650e-01 -3.393140768766017e-17
 1.429999999999999e+00  8.256108849411650e-01 -3.393140768766017e-17
 1.429999999999999e+00  8.256108849411650e-01 -3.393140768766017e-17
 1.429999999999999e+00  8.256108849411650e-01 -3.393140768766017e-17
 1.429999999999999e+00  8.256108849411650e-01 -3.393140768766017e-17
 1.429999999999999e+00  8.256108849411650e-01 -3.393140768766017e-17
 1.429999999999999e+00  8.256108849411650e-01 -3.393140768766017e-17
 1.429999999999999e+00  8.256108849411650e-01 -3.393140768766017e-17
 1.429999999999999e+00  8.256108849411650e-01 -3.393140768766017e-17
 1.429999999999999e+00  8.256108849411650e-01 -3.393140768766017e-17
 1.429999999999999e+00  8.256108849411650e-01 -3.393140768766017e-17
 1.429999999999999e+00  8.256108849411650e-01 -3.393140768766017e-17
 1.429999999999999e+00  8.256108849411650e-01 -3.393140768766017e-17
 1.429999999999999e+00  8.256108849411650e-01 -3.393140768766017e-17
 1.429999999999999e+00  8.256108849411650e-01 -3.393140768766017e-17
 1.429999999999999e+00  8.256108849411650e-01 -3.393140768766017e-17
 1.429999999999999e+00  8.256108849411650e-01 -3.393140768766017e-17
 1.429999999999999e+00  8.256108849411650e-01 -3.393140768766017e-17
 1.429999999999999e+00  8.256108849411650e-01 -3.393140768766017e-17
 1.429999999999999e+00  8.256108849411650e-01 -3.393140768766017e-17
 1.429999999999999e+00  8.256108849411650e-01 -3.393140768766017e-17
 1.429999999999999e+00  8.256108849411650e-01 -3.393140768766017e-17
 1.429999999999999e+00  8.256108849411650e-01 -3.393140768766017e-17
 1.429999999999999e+00  8.256108849411650e-01 -3.393140768766017e-17
 1.429999999999999e+00  8.256108849411650e-01 -3.393140768766017e-17
 1.429999999999999e+00  8.256108849411650e-01 -3.393140768766017e-17
 1.429999999999999e+00  8.256108849411650e-01 -3.393140768766017e-17
 1.429999999999999e+00  8.256108849411650e-01 -3.393140768766017e-17
 1.429999999999999e+00  8.256108849411650e-01 -3.393140768766017e-17
 1.429999999999999e+00  8.256108849411650e-01 -3.393140768766017e-17
 1.429999999999999e+00  8.256108849411650e-01 -3.393140768766017e-17
 1.429999999999999e+00  8.256108849411650e-01 -3.393140768766017e-17
 1.429999999999999e+00  8.256108849411650e-01 -3.393140768766017e-17
 1.429999999999999e+00  8.256108849411650e-01 -3.393140768766017e-17
 1.429999999999999e+00  8.256108849411650e-01 -3.393140768766017e-17
 1.429999999999999e+00  8.256108849411650e-01 -3.393140768766017e-17
 1.429999999999999e+00  8.256108849411650e-01 -3.393140768766017e-17
 1.429999999999999e+00  8.256108849411650e-01 -3.393140768766017e-17
 1.429999999999999e+00  8.256108849411650e-01 -3.393140768766017e-17
 1.429999999999999e+00  8.256108849411650e-01 -3.393140768766017e-17
 1.429999999999999e+00  8.256108849411650e-01 -3.393140768766017e-17
 1.429999999999999e+00  8.256108849411650e-01 -3.393140768766017e-17
 1.429999999999999e+00  8.256108849411650e-01 -3.393140768766017e-17
 1.429999999999999e+00  8.256108849411650e-01 -3.393140768766017e-17
 1.429999999999999e+00  8.256108849411650e-01 -3.393140768766017e-17
 1.429999999999999e+00  8.256108849411650e-01 -3.393140768766017e-17
 1.429999999999999e+00  8.256108849411650e-01 -3.393140768766017e-17
 1.429999999999999e+00  8.256108849411650e-01 -3.393140768766017e-17
 1.429999999999999e+00  8.256108849411650e-01 -3.393140768766017e-17
 1.429999999999999e+00  8.256108849411650e-01 -3.393140768766017e-17
 1.429999999999999e+00  8.256108849411650e-01 -3.393140768766017e-17
 1.429999999999999e+00  8.256108849411650e-01 -3.393140768766017e-17
 1.429999999999999e+00  8.256108849411650e-01 -3.393140768766017e-17
 1.429999999999999e+00  8.256108849411650e-01 -3.393140768766017e-17
 1.429999999999999e+00  8.256108849411650e-01 -3.393140768766017e-17
 1.429999999999999e+00  8.256108849411650e-01 -3.393140768766017e-17
 1.429999999999999e+00  8.256108849411650e-01 -3.393140768766017e-17
 1.429999999999999e+00  8.256108849411650e-01 -3.393140768766017e-17
 1.429999999999999e+00  8.256108849411650e-01 -3.393140768766017e-17
 1.429999999999999e+00  8.256108849411650e-01 -3.393140768766017e-17
 1.429999999999999e+00  8.256108849411650e-01 -3.393140768766017e-17
 1.429999999999999e+00  8.256108849411650e-01 -3.393140768766017e-17
 1.429999999999999e+00  8.256108849411650e-01 -3.393140768766017e-17
 1.429999999999999e+00  8.256108849411650e-01 -3.393140768766017e-17
 1.429999999999999e+00  8.256108849411650e-01 -3.393140768766017e-17
 1.429999999999999e+00  8.256108849411650e-01 -3.393140768766017e-17
 1.429999999999999e+00  8.256108849411650e-01 -3.393140768766017e-17
 1.429999999999999e+00  8.256108849411650e-01 -3.393140768766017e-17
 1.429999999999999e+00  8.256108849411650e-01 -3.393140768766017e-17
 1.429999999999999e+00  8.256108849411650e-01 -3.393140768766017e-17
 1.429999999999999e+00  8.256108849411650e-01 -3.393140768766017e-17
 1.429999999999999e+00  8.256108849411650e-01 -3.393140768766017e-17
 1.429999999999999e+00  8.256108849411650e-01 -3.393140768766017e-17
 1.429999999999999e+00  8.256108849411650e-01 -3.393140768766017e-17
 1.429999999999999e+00  8.256108849411650e-01 -3.393140768766017e-17
 1.429999999999999e+00  8.256108849411650e-01 -3.393140768766017e-17
 1.429999999999999e+00  8.256108849411650e-01 -3.393140768766017e-17
 1.429999999999999e+00  8.256108849411650e-01 -3.393140768766017e-17
 1.429999999999999e+00  8.256108849411650e-01 -3.393140768766017e-17
 1.429999999999999e+00  8.256108849411650e-01 -3.393140768766017e-17
 1.429999999999999e+00  8.256108849411650e-01 -3.393140768766017e-17
 1.429999999999999e+00  8.256108849411650e-01 -3.393140768766017e-17
 1.429999999999999e+00  8.256108849411650e-01 -3.393140768766017e-17
 1.429999999999999e+00  8.256108849411650e-01 -3.393140768766017e-17
 1.429999999999999e+00  8.256108849411650e-01 -3.393140768766017e-17
 1.429999999999999e+00  8.256108849411650e-01 -3.393140768766017e-17
 1.429999999999999e+00  8.256108849411650e-01 -3.393140768766017e-17
 1.429999999999999e+00  8.256108849411650e-01 -3.393140768766017e-17
-1.429999999999999e+00 -8.256108849411650e-01  3.393140768766017e-17
 1.429999999999999e+00  8.256108849411650e-01 -3.393140768766017e-17
 1.429999999999999e+00  8.256108849411650e-01 -3.393140768766017e-17
 1.429999999999999e+00  8.256108849411650e-01 -3.393140768766017e-17
 1.429999999999999e+00  8.256108849411650e-01 -3.393140768766017e-17
 1.429999999999999e+00  8.256108849411650e-01 -3.393140768766017e-17
 1.429999999999999e+00  8.256108849411650e-01 -3.393140768766017e-17
 1.429999999999999e+00  8.256108849411650e-01 -3.393140768766017e-17
 1.429999999999999e+00  8.256108849411650e-01 -3.393140768766017e-17
 1.429999999999999e+00  8.256108849411650e-01 -3.393140768766017e-17
 1.429999999999999e+00  8.256108849411650e-01 -3.393140768766017e-17
 1.429999999999999e+00  8.256108849411650e-01 -3.393140768766017e-17
 1.429999999999999e+00  8.256108849411650e-01 -3.393140768766017e-17
 1.429999999999999e+00  8.256108849411650e-01 -3.393140768766017e-17
 1.429999999999999e+00  8.256108849411650e-01 -3.393140768766017e-17
 1.429999999999999e+00  8.256108849411650e-01 -3.393140768766017e-17
 1.429999999999999e+00  8.256108849411650e-01 -3.393140768766017e-17
 1.429999999999999e+00  8.256108849411650e-01 -3.393140768766017e-17
 1.429999999999999e+00  8.256108849411650e-01 -3.393140768766017e-17
 1.429999999999999e+00  8.256108849411650e-01 -3.393140768766017e-17
 1.429999999999999e+00  8.256108849411650e-01 -3.393140768766017e-17
 1.429999999999999e+00  8.256108849411650e-01 -3.393140768766017e-17
 1.429999999999999e+00  8.256108849411650e-01 -3.393140768766017e-17
 1.429999999999999e+00  8.256108849411650e-01 -3.393140768766017e-17
 1.429999999999999e+00  8.256108849411650e-01 -3.393140768766017e-17
 1.429999999999999e+00  8.256108849411650e-01 -3.393140768766017e-17
 1.429999999999999e+00  8.256108849411650e-01 -3.393140768766017e-17
 1.429999999999999e+00  8.256108849411650e-01 -3.393140768766017e-17
 1.429999999999999e+00  8.256108849411650e-01 -3.393140768766017e-17
 1.429999999999999e+00  8.256108849411650e-01 -3.393140768766017e-17
 1.429999999999999e+00  8.256108849411650e-01 -3.393140768766017e-17
 1.429999999999999e+00  8.256108849411650e-01 -3.393140768766017e-17
 1.429999999999999e+00  8.256108849411650e-01 -3.393140768766017e-17
 1.429999999999999e+00  8.256108849411650e-01 -3.393140768766017e-17
 1.429999999999999e+00  8.256108849411650e-01 -3.393140768766017e-17
 1.429999999999999e+00  8.256108849411650e-01 -3.393140768766017e-17
 1.429999999999999e+00  8.256108849411650e-01 -3.393140768766017e-17
 1.429999999999999e+00  8.256108849411650e-01 -3.393140768766017e-17
 1.429999999999999e+00  8.256108849411650e-01 -3.393140768766017e-17
 1.429999999999999e+00  8.256108849411650e-01 -3.393140768766017e-17
 1.429999999999999e+00  8.256108849411650e-01 -3.393140768766017e-17
 1.429999999999999e+00  8.256108849411650e-01 -3.393140768766017e-17
 1.429999999999999e+00  8.256108849411650e-01 -3.393140768766017e-17
 1.429999999999999e+00  8.256108849411650e-01 -3.393140768766017e-17
 1.429999999999999e+00  8.256108849411650e-01 -3.393140768766017e-17
 1.429999999999999e+00  8.256108849411650e-01 -3.393140768766017e-17
 1.429999999999999e+00  8.256108849411650e-01 -3.393140768766017e-17
 1.429999999999999e+00  8.256108849411650e-01 -3.393140768766017e-17
 1.429999999999999e+00  8.256108849411650e-01 -3.393140768766017e-17
 1.429999999999999e+00  8.256108849411650e-01 -3.393140768766017e-17
 1.429999999999999e+00  8.256108849411650e-01 -3.393140768766017e-17
 1.429999999999999e+00  8.256108849411650e-01 -3.393140768766017e-17
 1.429999999999999e+00  8.256108849411650e-01 -3.393140768766017e-17
 1.429999999999999e+00  8.256108849411650e-01 -3.393140768766017e-17
 1.429999999999999e+00  8.256108849411650e-01 -3.393140768766017e-17
 1.429999999999999e+00  8.256108849411650e-01 -3.393140768766017e-17
 1.429999999999999e+00  8.256108849411650e-01 -3.393140768766017e-17
 1.429999999999999e+00  8.256108849411650e-01 -3.393140768766017e-17
 1.429999999999999e+00  8.256108849411650e-01 -3.393140768766017e-17
 1.429999999999999e+00  8.256108849411650e-01 -3.393140768766017e-17
 1.429999999999999e+00  8.256108849411650e-01 -3.393140768766017e-17
 1.429999999999999e+00  8.256108849411650e-01 -3.393140768766017e-17
 1.429999999999999e+00  8.256108849411650e-01 -3.393140768766017e-17
 1.429999999999999e+00  8.256108849411650e-01 -3.393140768766017e-17
 1.429999999999999e+00  8.256108849411650e-01 -3.393140768766017e-17
 1.429999999999999e+00  8.256108849411650e-01 -3.393140768766017e-17
 1.429999999999999e+00  8.256108849411650e-01 -3.393140768766017e-17
 1.429999999999999e+00  8.256108849411650e-01 -3.393140768766017e-17
 1.429999999999999e+00  8.256108849411650e-01 -3.393140768766017e-17
 1.429999999999999e+00  8.256108849411650e-01 -3.393140768766017e-17
 1.429999999999999e+00  8.256108849411650e-01 -3.393140768766017e-17
 1.429999999999999e+00  8.256108849411650e-01 -3.393140768766017e-17
 1.429999999999999e+00  8.256108849411650e-01 -3.393140768766017e-17
 1.429999999999999e+00  8.256108849411650e-01 -3.393140768766017e-17
 1.429999999999999e+00  8.256108849411650e-01 -3.393140768766017e-17
 1.429999999999999e+00  8.256108849411650e-01 -3.393140768766017e-17
 1.429999999999999e+00  8.256108849411650e-01 -3.393140768766017e-17
 1.429999999999999e+00  8.256108849411650e-01 -3.393140768766017e-17
 1.429999999999999e+00  8.256108849411650e-01 -3.393140768766017e-17
 1.429999999999999e+00  8.256108849411650e-01 -3.393140768766017e-17
 1.429999999999999e+00  8.256108849411650e-01 -3.393140768766017e-17
 1.429999999999999e+00  8.256108849411650e-01 -3.393140768766017e-17
 1.429999999999999e+00  8.256108849411650e-01 -3.393140768766017e-17
 1.429999999999999e+00  8.256108849411650e-01 -3.393140768766017e-17
 1.429999999999999e+00  8.256108849411650e-01 -3.393140768766017e-17
 1.429999999999999e+00  8.256108849411650e-01 -3.393140768766017e-17
 1.429999999999999e+00  8.256108849411650e-01 -3.393140768766017e-17
 1.429999999999999e+00  8.256108849411650e-01 -3.393140768766017e-17
 1.429999999999999e+00  8.256108849411650e-01 -3.393140768766017e-17
 1.429999999999999e+00  8.256108849411650e-01 -3.393140768766017e-17
 1.429999999999999e+00  8.256108849411650e-01 -3.393140768766017e-17
 1.429999999999999e+00  8.256108849411650e-01 -3.393140768766017e-17
 1.429999999999999e+00  8.256108849411650e-01 -3.393140768766017e-17
 1.429999999999999e+00  8.256108849411650e-01 -3.393140768766017e-17
 1.429999999999999e+00  8.256108849411650e-01 -3.393140768766017e-17
 1.429999999999999e+00  8.256108849411650e-01 -3.393140768766017e-17
 1.429999999999999e+00  8.256108849411650e-01 -3.393140768766017e-17
 1.429999999999999e+00  8.256108849411650e-01 -3.393140768766017e-17
 1.429999999999999e+00  8.256108849411650e-01 -3.393140768766017e-17
 1.429999999999999e+00  8.256108849411650e-01 -3.393140768766017e-17
 1.429999999999999e+00  8.256108849411650e-01 -3.393140768766017e-17
 1.429999999999999e+00  8.256108849411650e-01 -3.393140768766017e-17
 1.429999999999999e+00  8.256108849411650e-01 -3.393140768766017e-17
 1.429999999999999e+00  8.256108849411650e-01 -3.393140768766017e-17
 1.429999999999999e+00  8.256108849411650e-01 -3.393140768766017e-17
 1.429999999999999e+00  8.256108849411650e-01 -3.393140768766017e-17
 1.429999999999999e+00  8.256108849411650e-01 -3.393140768766017e-17
 1.429999999999999e+00  8.256108849411650e-01 -3.393140768766017e-17
 1.429999999999999e+00  8.256108849411650e-01 -3.393140768766017e-17
 1.429999999999999e+00  8.256108849411650e-01 -3.393140768766017e-17
 1.429999999999999e+00  8.256108849411650e-01 -3.393140768766017e-17
 1.429999999999999e+00  8.256108849411650e-01 -3.393140768766017e-17
 1.429999999999999e+00  8.256108849411650e-01 -3.393140768766017e-17
 1.429999999999999e+00  8.256108849411650e-01 -3.393140768766017e-17
 1.429999999999999e+00  8.256108849411650e-01 -3.393140768766017e-17
 1.429999999999999e+00  8.256108849411650e-01 -3.393140768766017e-17
 1.429999999999999e+00  8.256108849411650e-01 -3.393140768766017e-17
 1.429999999999999e+00  8.256108849411650e-01 -3.393140768766017e-17
 1.429999999999999e+00  8.256108849411650e-01 -3.393140768766017e-17
 1.429999999999999e+00  8.256108849411650e-01 -3.393140768766017e-17
 1.429999999999999e+00  8.256108849411650e-01 -3.393140768766017e-17
 1.429999999999999e+00  8.256108849411650e-01 -3.393140768766017e-17
 1.429999999999999e+00  8.256108849411650e-01 -3.393140768766017e-17
 1.429999999999999e+00  8.256108849411650e-01 -3.393140768766017e-17
 1.429999999999999e+00  8.256108849411650e-01 -3.393140768766017e-17
 1.429999999999999e+00  8.256108849411650e-01 -3.393140768766017e-17
 1.429999999999999e+00  8.256108849411650e-01 -3.393140768766017e-17
 1.429999999999999e+00  8.256108849411650e-01 -3.393140768766017e-17
 1.429999999999999e+00  8.256108849411650e-01 -3.393140768766017e-17
 1.429999999999999e+00  8.256108849411650e-01 -3.393140768766017e-17
 1.429999999999999e+00  8.256108849411650e-01 -3.393140768766017e-17
 1.429999999999999e+00  8.256108849411650e-01 -3.393140768766017e-17
 1.429999999999999e+00  8.256108849411650e-01 -3.393140768766017e-17
 1.429999999999999e+00  8.256108849411650e-01 -3.393140768766017e-17
 1.429999999999999e+00  8.256108849411650e-01 -3.393140768766017e-17
 1.429999999999999e+00  8.256108849411650e-01 -3.393140768766017e-17
 1.429999999999999e+00  8.256108849411650e-01 -3.393140768766017e-17
 1.429999999999999e+00  8.256108849411650e-01 -3.393140768766017e-17
 1.429999999999999e+00  8.256108849411650e-01 -3.393140768766017e-17
 1.429999999999999e+00  8.256108849411650e-01 -3.393140768766017e-17
 1.429999999999999e+00  8.256108849411650e-01 -3.393140768766017e-17
 1.429999999999999e+00  8.256108849411650e-01 -3.393140768766017e-17
 1.429999999999999e+00  8.256108849411650e-01 -3.393140768766017e-17
 1.429999999999999e+00  8.256108849411650e-01 -3.393140768766017e-17
 1.429999999999999e+00  8.256108849411650e-01 -3.393140768766017e-17
 1.429999999999999e+00  8.256108849411650e-01 -3.393140768766017e-17
 1.429999999999999e+00  8.256108849411650e-01 -3.393140768766017e-17
 1.429999999999999e+00  8.256108849411650e-01 -3.393140768766017e-17
 1.429999999999999e+00  8.256108849411650e-01 -3.393140768766017e-17
 1.429999999999999e+00  8.256108849411650e-01 -3.393140768766017e-17
 1.429999999999999e+00  8.256108849411650e-01 -3.393140768766017e-17
 1.429999999999999e+00  8.256108849411650e-01 -3.393140768766017e-17
 1.429999999999999e+00  8.256108849411650e-01 -3.393140768766017e-17
 1.429999999999999e+00  8.256108849411650e-01 -3.393140768766017e-17
 1.429999999999999e+00  8.256108849411650e-01 -3.393140768766017e-17
 1.429999999999999e+00  8.256108849411650e-01 -3.393140768766017e-17
 1.429999999999999e+00  8.256108849411650e-01 -3.393140768766017e-17
 1.429999999999999e+00  8.256108849411650e-01 -3.393140768766017e-17
 1.429999999999999e+00  8.256108849411650e-01 -3.393140768766017e-17
 1.429999999999999e+00  8.256108849411650e-01 -3.393140768766017e-17
 1.429999999999999e+00  8.256108849411650e-01 -3.393140768766017e-17
 1.429999999999999e+00  8.256108849411650e-01 -3.393140768766017e-17
 1.429999999999999e+00  8.256108849411650e-01 -3.393140768766017e-17
 1.429999999999999e+00  8.256108849411650e-01 -3.393140768766017e-17
 1.429999999999999e+00  8.256108849411650e-01 -3.393140768766017e-17
-1.429999999999999e+00  8.256108849411650e-01  1.696570384383008e-17
 1.429999999999999e+00 -8.256108849411650e-01 -1.696570384383008e-17
-1.429999999999999e+00  8.256108849411650e-01  1.696570384383008e-17
-1.429999999999999e+00  8.256108849411650e-01  1.696570384383008e-17
-1.429999999999999e+00  8.256108849411650e-01  1.696570384383008e-17
-1.429999999999999e+00  8.256108849411650e-01  1.696570384383008e-17
-1.429999999999999e+00  8.256108849411650e-01  1.696570384383008e-17
-1.429999999999999e+00  8.256108849411650e-01  1.696570384383008e-17
-1.429999999999999e+00  8.256108849411650e-01  1.696570384383008e-17
-1.429999999999999e+00  8.256108849411650e-01  1.696570384383008e-17
-1.429999999999999e+00  8.256108849411650e-01  1.696570384383008e-17
-1.429999999999999e+00  8.256108849411650e-01  1.696570384383008e-17
-1.429999999999999e+00  8.256108849411650e-01  1.696570384383008e-17
-1.429999999999999e+00  8.256108849411650e-01  1.696570384383008e-17
-1.429999999999999e+00  8.256108849411650e-01  1.696570384383008e-17
-1.429999999999999e+00  8.256108849411650e-01  1.696570384383008e-17
-1.429999999999999e+00  8.256108849411650e-01  1.696570384383008e-17
-1.429999999999999e+00  8.256108849411650e-01  1.696570384383008e-17
-1.429999999999999e+00  8.256108849411650e-01  1.696570384383008e-17
-1.429999999999999e+00  8.256108849411650e-01  1.696570384383008e-17
-1.429999999999999e+00  8.256108849411650e-01  1.696570384383008e-17
-1.429999999999999e+00  8.256108849411650e-01  1.696570384383008e-17
-1.429999999999999e+00  8.256108849411650e-01  1.696570384383008e-17
-1.429999999999999e+00  8.256108849411650e-01  1.696570384383008e-17
-1.429999999999999e+00  8.256108849411650e-01  1.696570384383008e-17
-1.429999999999999e+00  8.256108849411650e-01  1.696570384383008e-17
-1.429999999999999e+00  8.256108849411650e-01  1.696570384383008e-17
-1.429999999999999e+00  8.256108849411650e-01  1.696570384383008e-17
-1.429999999999999e+00  8.256108849411650e-01  1.696570384383008e-17
-1.429999999999999e+00  8.256108849411650e-01  1.696570384383008e-17
-1.429999999999999e+00  8.256108849411650e-01  1.696570384383008e-17
-1.429999999999999e+00  8.256108849411650e-01  1.696570384383008e-17
-1.429999999999999e+00  8.256108849411650e-01  1.696570384383008e-17
-1.429999999999999e+00  8.256108849411650e-01  1.696570384383008e-17
-1.429999999999999e+00  8.256108849411650e-01  1.696570384383008e-17
-1.429999999999999e+00  8.256108849411650e-01  1.696570384383008e-17
-1.429999999999999e+00  8.256108849411650e-01  1.696570384383008e-17
-1.429999999999999e+00  8.256108849411650e-01  1.696570384383008e-17
-1.429999999999999e+00  8.256108849411650e-01  1.696570384383008e-17
-1.429999999999999e+00  8.256108849411650e-01  1.696570384383008e-17
-1.429999999999999e+00  8.256108849411650e-01  1.696570384383008e-17
-1.429999999999999e+00  8.256108849411650e-01  1.696570384383008e-17
-1.429999999999999e+00  8.256108849411650e-01  1.696570384383008e-17
-1.429999999999999e+00  8.256108849411650e-01  1.696570384383008e-17
-1.429999999999999e+00  8.256108849411650e-01  1.696570384383008e-17
-1.429999999999999e+00  8.256108849411650e-01  1.696570384383008e-17
-1.429999999999999e+00  8.256108849411650e-01  1.696570384383008e-17
-1.429999999999999e+00  8.256108849411650e-01  1.696570384383008e-17
-1.429999999999999e+00  8.256108849411650e-01  1.696570384383008e-17
-1.429999999999999e+00  8.256108849411650e-01  1.696570384383008e-17
-1.429999999999999e+00  8.256108849411650e-01  1.696570384383008e-17
-1.429999999999999e+00  8.256108849411650e-01  1.696570384383008e-17
-1.429999999999999e+00  8.256108849411650e-01  1.696570384383008e-17
-1.429999999999999e+00  8.256108849411650e-01  1.696570384383008e-17
-1.429999999999999e+00  8.256108849411650e-01  1.696570384383008e-17
-1.429999999999999e+00  8.256108849411650e-01  1.696570384383008e-17
-1.429999999999999e+00  8.256108849411650e-01  1.696570384383008e-17
-1.429999999999999e+00  8.256108849411650e-01  1.696570384383008e-17
-1.429999999999999e+00  8.256108849411650e-01  1.696570384383008e-17
-1.429999999999999e+00  8.256108849411650e-01  1.696570384383008e-17
-1.429999999999999e+00  8.256108849411650e-01  1.696570384383008e-17
-1.429999999999999e+00  8.256108849411650e-01  1.696570384383008e-17
-1.429999999999999e+00  8.256108849411650e-01  1.696570384383008e-17
-1.429999999999999e+00  8.256108849411650e-01  1.696570384383008e-17
-1.429999999999999e+00  8.256108849411650e-01  1.696570384383008e-17
-1.429999999999999e+00  8.256108849411650e-01  1.696570384383008e-17
-1.429999999999999e+00  8.256108849411650e-01  1.696570384383008e-17
-1.429999999999999e+00  8.256108849411650e-01  1.696570384383008e-17
-1.429999999999999e+00  8.256108849411650e-01  1.696570384383008e-17
-1.429999999999999e+00  8.256108849411650e-01  1.696570384383008e-17
-1.429999999999999e+00  8.256108849411650e-01  1.696570384383008e-17
-1.429999999999999e+00  8.256108849411650e-01  1.696570384383008e-17
-1.429999999999999e+00  8.256108849411650e-01  1.696570384383008e-17
-1.429999999999999e+00  8.256108849411650e-01  1.696570384383008e-17
-1.429999999999999e+00  8.256108849411650e-01  1.696570384383008e-17
-1.429999999999999e+00  8.256108849411650e-01  1.696570384383008e-17
-1.429999999999999e+00  8.256108849411650e-01  1.696570384383008e-17
-1.429999999999999e+00  8.256108849411650e-01  1.696570384383008e-17
-1.429999999999999e+00  8.256108849411650e-01  1.696570384383008e-17
-1.429999999999999e+00  8.256108849411650e-01  1.696570384383008e-17
-1.429999999999999e+00  8.256108849411650e-01  1.696570384383008e-17
-1.429999999999999e+00  8.256108849411650e-01  1.696570384383008e-17
-1.429999999999999e+00  8.256108849411650e-01  1.696570384383008e-17
-1.429999999999999e+00  8.256108849411650e-01  1.696570384383008e-17
-1.429999999999999e+00  8.256108849411650e-01  1.696570384383008e-17
-1.429999999999999e+00  8.256108849411650e-01  1.696570384383008e-17
-1.429999999999999e+00  8.256108849411650e-01  1.696570384383008e-17
-1.429999999999999e+00  8.256108849411650e-01  1.696570384383008e-17
-1.429999999999999e+00  8.256108849411650e-01  1.696570384383008e-17
-1.429999999999999e+00  8.256108849411650e-01  1.696570384383008e-17
-1.429999999999999e+00  8.256108849411650e-01  1.696570384383008e-17
-1.429999999999999e+00  8.256108849411650e-01  1.696570384383008e-17
-1.429999999999999e+00  8.256108849411650e-01  1.696570384383008e-17
-1.429999999999999e+00  8.256108849411650e-01  1.696570384383008e-17
-1.429999999999999e+00  8.256108849411650e-01  1.696570384383008e-17
-1.429999999999999e+00  8.256108849411650e-01  1.696570384383008e-17
-1.429999999999999e+00  8.256108849411650e-01  1.696570384383008e-17
-1.429999999999999e+00  8.256108849411650e-01  1.696570384383008e-17
-1.429999999999999e+00  8.256108849411650e-01  1.696570384383008e-17
-1.429999999999999e+00  8.256108849411650e-01  1.696570384383008e-17
-1.429999999999999e+00  8.256108849411650e-01  1.696570384383008e-17
-1.429999999999999e+00  8.256108849411650e-01  1.696570384383008e-17
-1.429999999999999e+00  8.256108849411650e-01  1.696570384383008e-17
-1.429999999999999e+00  8.256108849411650e-01  1.696570384383008e-17
-1.429999999999999e+00  8.256108849411650e-01  1.696570384383008e-17
-1.429999999999999e+00  8.256108849411650e-01  1.696570384383008e-17
-1.429999999999999e+00  8.256108849411650e-01  1.696570384383008e-17
-1.429999999999999e+00  8.256108849411650e-01  1.696570384383008e-17
-1.429999999999999e+00  8.256108849411650e-01  1.696570384383008e-17
-1.429999999999999e+00  8.256108849411650e-01  1.696570384383008e-17
-1.429999999999999e+00  8.256108849411650e-01  1.696570384383008e-17
-1.429999999999999e+00  8.256108849411650e-01  1.696570384383008e-17
-1.429999999999999e+00  8.256108849411650e-01  1.696570384383008e-17
-1.429999999999999e+00  8.256108849411650e-01  1.696570384383008e-17
-1.429999999999999e+00  8.256108849411650e-01  1.696570384383008e-17
-1.429999999999999e+00  8.256108849411650e-01  1.696570384383008e-17
-1.429999999999999e+00  8.256108849411650e-01  1.696570384383008e-17
-1.429999999999999e+00  8.256108849411650e-01  1.696570384383008e-17
-1.429999999999999e+00  8.256108849411650e-01  1.696570384383008e-17
-1.429999999999999e+00  8.256108849411650e-01  1.696570384383008e-17
-1.429999999999999e+00  8.256108849411650e-01  1.696570384383008e-17
-1.429999999999999e+00  8.256108849411650e-01  1.696570384383008e-17
-1.429999999999999e+00  8.256108849411650e-01  1.696570384383008e-17
-1.429999999999999e+00  8.256108849411650e-01  1.696570384383008e-17
-1.429999999999999e+00  8.256108849411650e-01  1.696570384383008e-17
-1.429999999999999e+00  8.256108849411650e-01  1.696570384383008e-17
-1.429999999999999e+00  8.256108849411650e-01  1.696570384383008e-17
-1.429999999999999e+00  8.256108849411650e-01  1.696570384383008e-17
-1.429999999999999e+00  8.256108849411650e-01  1.696570384383008e-17
-1.429999999999999e+00  8.256108849411650e-01  1.696570384383008e-17
-1.429999999999999e+00  8.256108849411650e-01  1.696570384383008e-17
-1.429999999999999e+00  8.256108849411650e-01  1.696570384383008e-17
-1.429999999999999e+00  8.256108849411650e-01  1.696570384383008e-17
-1.429999999999999e+00  8.256108849411650e-01  1.696570384383008e-17
-1.429999999999999e+00  8.256108849411650e-01  1.696570384383008e-17
-1.429999999999999e+00  8.256108849411650e-01  1.696570384383008e-17
-1.429999999999999e+00  8.256108849411650e-01  1.696570384383008e-17
-1.429999999999999e+00  8.256108849411650e-01  1.696570384383008e-17
-1.429999999999999e+00  8.256108849411650e-01  1.696570384383008e-17
-1.429999999999999e+00  8.256108849411650e-01  1.696570384383008e-17
-1.429999999999999e+00  8.256108849411650e-01  1.696570384383008e-17
-1.429999999999999e+00  8.256108849411650e-01  1.696570384383008e-17
-1.429999999999999e+00  8.256108849411650e-01  1.696570384383008e-17
-1.429999999999999e+00  8.256108849411650e-01  1.696570384383008e-17
-1.429999999999999e+00  8.256108849411650e-01  1.696570384383008e-17
-1.429999999999999e+00  8.256108849411650e-01  1.696570384383008e-17
-1.429999999999999e+00  8.256108849411650e-01  1.696570384383008e-17
-1.429999999999999e+00  8.256108849411650e-01  1.696570384383008e-17
-1.429999999999999e+00  8.256108849411650e-01  1.696570384383008e-17
-1.429999999999999e+00  8.256108849411650e-01  1.696570384383008e-17
-1.429999999999999e+00  8.256108849411650e-01  1.696570384383008e-17
-1.429999999999999e+00  8.256108849411650e-01  1.696570384383008e-17
-1.429999999999999e+00  8.256108849411650e-01  1.696570384383008e-17
-1.429999999999999e+00  8.256108849411650e-01  1.696570384383008e-17
-1.429999999999999e+00  8.256108849411650e-01  1.696570384383008e-17
-1.429999999999999e+00  8.256108849411650e-01  1.696570384383008e-17
-1.429999999999999e+00  8.256108849411650e-01  1.696570384383008e-17
-1.429999999999999e+00  8.256108849411650e-01  1.696570384383008e-17
-1.429999999999999e+00  8.256108849411650e-01  1.696570384383008e-17
-1.429999999999999e+00  8.256108849411650e-01  1.696570384383008e-17
-1.429999999999999e+00  8.256108849411650e-01  1.696570384383008e-17
-1.429999999999999e+00  8.256108849411650e-01  1.696570384383008e-17
-1.429999999999999e+00  8.256108849411650e-01  1.696570384383008e-17
-1.429999999999999e+00  8.256108849411650e-01  1.696570384383008e-17
-1.429999999999999e+00  8.256108849411650e-01  1.696570384383008e-17
-1.429999999999999e+00  8.256108849411650e-01  1.696570384383008e-17
-1.429999999999999e+00  8.256108849411650e-01  1.696570384383008e-17
-1.429999999999999e+00  8.256108849411650e-01  1.696570384383008e-17
-1.429999999999999e+00  8.256108849411650e-01  1.696570384383008e-17
-1.429999999999999e+00  8.256108849411650e-01  1.696570384383008e-17
-1.429999999999999e+00  8.256108849411650e-01  1.696570384383008e-17
-1.429999999999999e+00  8.256108849411650e-01  1.696570384383008e-17
-1.429999999999999e+00  8.256108849411650e-01  1.696570384383008e-17
-1.429999999999999e+00  8.256108849411650e-01  1.696570384383008e-17
-1.429999999999999e+00  8.256108849411650e-01  1.696570384383008e-17
-1.429999999999999e+00  8.256108849411650e-01  1.696570384383008e-17
-1.429999999999999e+00  8.256108849411650e-01  1.696570384383008e-17
-1.429999999999999e+00  8.256108849411650e-01  1.696570384383008e-17
-1.429999999999999e+00  8.256108849411650e-01  1.696570384383008e-17
-1.429999999999999e+00  8.256108849411650e-01  1.696570384383008e-17
-1.429999999999999e+00  8.256108849411650e-01  1.696570384383008e-17
-1.429999999999999e+00  8.256108849411650e-01  1.696570384383008e-17
-1.429999999999999e+00  8.256108849411650e-01  1.696570384383008e-17
-1.429999999999999e+00  8.256108849411650e-01  1.696570384383008e-17
-1.429999999999999e+00  8.256108849411650e-01  1.696570384383008e-17
-1.429999999999999e+00  8.256108849411650e-01  1.696570384383008e-17
-1.429999999999999e+00  8.256108849411650e-01  1.696570384383008e-17
-1.429999999999999e+00  8.256108849411650e-01  1.696570384383008e-17
-1.429999999999999e+00  8.256108849411650e-01  1.696570384383008e-17
-1.429999999999999e+00  8.256108849411650e-01  1.696570384383008e-17
-1.429999999999999e+00  8.256108849411650e-01  1.696570384383008e-17
-1.429999999999999e+00  8.256108849411650e-01  1.696570384383008e-17
 1.429999999999999e+00 -8.256108849411650e-01 -1.696570384383008e-17
-1.429999999999999e+00  8.256108849411650e-01  1.696570384383008e-17
-1.429999999999999e+00  8.256108849411650e-01  1.696570384383008e-17
-1.429999999999999e+00  8.256108849411650e-01  1.696570384383008e-17
-1.429999999999999e+00  8.256108849411650e-01  1.696570384383008e-17
-1.429999999999999e+00  8.256108849411650e-01  1.696570384383008e-17
-1.429999999999999e+00  8.256108849411650e-01  1.696570384383008e-17
-1.429999999999999e+00  8.256108849411650e-01  1.696570384383008e-17
-1.429999999999999e+00  8.256108849411650e-01  1.696570384383008e-17
-1.429999999999999e+00  8.256108849411650e-01  1.696570384383008e-17
-1.429999999999999e+00  8.256108849411650e-01  1.696570384383008e-17
-1.429999999999999e+00  8.256108849411650e-01  1.696570384383008e-17
-1.429999999999999e+00  8.256108849411650e-01  1.696570384383008e-17
-1.429999999999999e+00  8.256108849411650e-01  1.696570384383008e-17
-1.429999999999999e+00  8.256108849411650e-01  1.696570384383008e-17
-1.429999999999999e+00  8.256108849411650e-01  1.696570384383008e-17
-1.429999999999999e+00  8.256108849411650e-01  1.696570384383008e-17
-1.429999999999999e+00  8.256108849411650e-01  1.696570384383008e-17
-1.429999999999999e+00  8.256108849411650e-01  1.696570384383008e-17
-1.429999999999999e+00  8.256108849411650e-01  1.696570384383008e-17
-1.429999999999999e+00  8.256108849411650e-01  1.696570384383008e-17
-1.429999999999999e+00  8.256108849411650e-01  1.696570384383008e-17
-1.429999999999999e+00  8.256108849411650e-01  1.696570384383008e-17
-1.429999999999999e+00  8.256108849411650e-01  1.696570384383008e-17
-1.429999999999999e+00  8.256108849411650e-01  1.696570384383008e-17
-1.429999999999999e+00  8.256108849411650e-01  1.696570384383008e-17
-1.429999999999999e+00  8.256108849411650e-01  1.696570384383008e-17
-1.429999999999999e+00  8.256108849411650e-01  1.696570384383008e-17
-1.429999999999999e+00  8.256108849411650e-01  1.696570384383008e-17
-1.429999999999999e+00  8.256108849411650e-01  1.696570384383008e-17
-1.429999999999999e+00  8.256108849411650e-01  1.696570384383008e-17
-1.429999999999999e+00  8.256108849411650e-01  1.696570384383008e-17
-1.429999999999999e+00  8.256108849411650e-01  1.696570384383008e-17
-1.429999999999999e+00  8.256108849411650e-01  1.696570384383008e-17
-1.429999999999999e+00  8.256108849411650e-01  1.696570384383008e-17
-1.429999999999999e+00  8.256108849411650e-01  1.696570384383008e-17
-1.429999999999999e+00  8.256108849411650e-01  1.696570384383008e-17
-1.429999999999999e+00  8.256108849411650e-01  1.696570384383008e-17
-1.429999999999999e+00  8.256108849411650e-01  1.696570384383008e-17
-1.429999999999999e+00  8.256108849411650e-01  1.696570384383008e-17
-1.429999999999999e+00  8.256108849411650e-01  1.696570384383008e-17
-1.429999999999999e+00  8.256108849411650e-01  1.696570384383008e-17
-1.429999999999999e+00  8.256108849411650e-01  1.696570384383008e-17
-1.429999999999999e+00  8.256108849411650e-01  1.696570384383008e-17
-1.429999999999999e+00  8.256108849411650e-01  1.696570384383008e-17
-1.429999999999999e+00  8.256108849411650e-01  1.696570384383008e-17
-1.429999999999999e+00  8.256108849411650e-01  1.696570384383008e-17
-1.429999999999999e+00  8.256108849411650e-01  1.696570384383008e-17
-1.429999999999999e+00  8.256108849411650e-01  1.696570384383008e-17
-1.429999999999999e+00  8.256108849411650e-01  1.696570384383008e-17
-1.429999999999999e+00  8.256108849411650e-01  1.696570384383008e-17
-1.429999999999999e+00  8.256108849411650e-01  1.696570384383008e-17
-1.429999999999999e+00  8.256108849411650e-01  1.696570384383008e-17
-1.429999999999999e+00  8.256108849411650e-01  1.696570384383008e-17
-1.429999999999999e+00  8.256108849411650e-01  1.696570384383008e-17
-1.429999999999999e+00  8.256108849411650e-01  1.696570384383008e-17
-1.429999999999999e+00  8.256108849411650e-01  1.696570384383008e-17
-1.429999999999999e+00  8.256108849411650e-01  1.696570384383008e-17
-1.429999999999999e+00  8.256108849411650e-01  1.696570384383008e-17
-1.429999999999999e+00  8.256108849411650e-01  1.696570384383008e-17
-1.429999999999999e+00  8.256108849411650e-01  1.696570384383008e-17
-1.429999999999999e+00  8.256108849411650e-01  1.696570384383008e-17
-1.429999999999999e+00  8.256108849411650e-01  1.696570384383008e-17
-1.429999999999999e+00  8.256108849411650e-01  1.696570384383008e-17
-1.429999999999999e+00  8.256108849411650e-01  1.696570384383008e-17
-1.429999999999999e+00  8.256108849411650e-01  1.696570384383008e-17
-1.429999999999999e+00  8.256108849411650e-01  1.696570384383008e-17
-1.429999999999999e+00  8.256108849411650e-01  1.696570384383008e-17
-1.429999999999999e+00  8.256108849411650e-01  1.696570384383008e-17
-1.429999999999999e+00  8.256108849411650e-01  1.696570384383008e-17
-1.429999999999999e+00  8.256108849411650e-01  1.696570384383008e-17
-1.429999999999999e+00  8.256108849411650e-01  1.696570384383008e-17
-1.429999999999999e+00  8.256108849411650e-01  1.696570384383008e-17
-1.429999999999999e+00  8.256108849411650e-01  1.696570384383008e-17
-1.429999999999999e+00  8.256108849411650e-01  1.696570384383008e-17
-1.429999999999999e+00  8.256108849411650e-01  1.696570384383008e-17
-1.429999999999999e+00  8.256108849411650e-01  1.696570384383008e-17
-1.429999999999999e+00  8.256108849411650e-01  1.696570384383008e-17
-1.429999999999999e+00  8.256108849411650e-01  1.696570384383008e-17
-1.429999999999999e+00  8.256108849411650e-01  1.696570384383008e-17
-1.429999999999999e+00  8.256108849411650e-01  1.696570384383008e-17
-1.429999999999999e+00  8.256108849411650e-01  1.696570384383008e-17
-1.429999999999999e+00  8.256108849411650e-01  1.696570384383008e-17
-1.429999999999999e+00  8.256108849411650e-01  1.696570384383008e-17
-1.429999999999999e+00  8.256108849411650e-01  1.696570384383008e-17
-1.429999999999999e+00  8.256108849411650e-01  1.696570384383008e-17
-1.429999999999999e+00  8.256108849411650e-01  1.696570384383008e-17
-1.429999999999999e+00  8.256108849411650e-01  1.696570384383008e-17
-1.429999999999999e+00  8.256108849411650e-01  1.696570384383008e-17
-1.429999999999999e+00  8.256108849411650e-01  1.696570384383008e-17
-1.429999999999999e+00  8.256108849411650e-01  1.696570384383008e-17
-1.429999999999999e+00  8.256108849411650e-01  1.696570384383008e-17
-1.429999999999999e+00  8.256108849411650e-01  1.696570384383008e-17
-1.429999999999999e+00  8.256108849411650e-01  1.696570384383008e-17
-1.429999999999999e+00  8.256108849411650e-01  1.696570384383008e-17
-1.429999999999999e+00  8.256108849411650e-01  1.696570384383008e-17
-1.429999999999999e+00  8.256108849411650e-01  1.696570384383008e-17
-1.429999999999999e+00  8.256108849411650e-01  1.696570384383008e-17
-1.429999999999999e+00  8.256108849411650e-01  1.696570384383008e-17
-1.429999999999999e+00  8.256108849411650e-01  1.696570384383008e-17
-1.429999999999999e+00  8.256108849411650e-01  1.696570384383008e-17
-1.429999999999999e+00  8.256108849411650e-01  1.696570384383008e-17
-1.429999999999999e+00  8.256108849411650e-01  1.696570384383008e-17
-1.429999999999999e+00  8.256108849411650e-01  1.696570384383008e-17
-1.429999999999999e+00  8.256108849411650e-01  1.696570384383008e-17
-1.429999999999999e+00  8.256108849411650e-01  1.696570384383008e-17
-1.429999999999999e+00  8.256108849411650e-01  1.696570384383008e-17
-1.429999999999999e+00  8.256108849411650e-01  1.696570384383008e-17
-1.429999999999999e+00  8.256108849411650e-01  1.696570384383008e-17
-1.429999999999999e+00  8.256108849411650e-01  1.696570384383008e-17
-1.429999999999999e+00  8.256108849411650e-01  1.696570384383008e-17
-1.429999999999999e+00  8.256108849411650e-01  1.696570384383008e-17
-1.429999999999999e+00  8.256108849411650e-01  1.696570384383008e-17
-1.429999999999999e+00  8.256108849411650e-01  1.696570384383008e-17
-1.429999999999999e+00  8.256108849411650e-01  1.696570384383008e-17
-1.429999999999999e+00  8.256108849411650e-01  1.696570384383008e-17
-1.429999999999999e+00  8.256108849411650e-01  1.696570384383008e-17
-1.429999999999999e+00  8.256108849411650e-01  1.696570384383008e-17
-1.429999999999999e+00  8.256108849411650e-01  1.696570384383008e-17
-1.429999999999999e+00  8.256108849411650e-01  1.696570384383008e-17
-1.429999999999999e+00  8.256108849411650e-01  1.696570384383008e-17
-1.429999999999999e+00  8.256108849411650e-01  1.696570384383008e-17
-1.429999999999999e+00  8.256108849411650e-01  1.696570384383008e-17
-1.429999999999999e+00  8.256108849411650e-01  1.696570384383008e-17
-1.429999999999999e+00  8.256108849411650e-01  1.696570384383008e-17
-1.429999999999999e+00  8.256108849411650e-01  1.696570384383008e-17
-1.429999999999999e+00  8.256108849411650e-01  1.696570384383008e-17
-1.429999999999999e+00  8.256108849411650e-01  1.696570384383008e-17
-1.429999999999999e+00  8.256108849411650e-01  1.696570384383008e-17
-1.429999999999999e+00  8.256108849411650e-01  1.696570384383008e-17
-1.429999999999999e+00  8.256108849411650e-01  1.696570384383008e-17
-1.429999999999999e+00  8.256108849411650e-01  1.696570384383008e-17
-1.429999999999999e+00  8.256108849411650e-01  1.696570384383008e-17
-1.429999999999999e+00  8.256108849411650e-01  1.696570384383008e-17
-1.429999999999999e+00  8.256108849411650e-01  1.696570384383008e-17
-1.429999999999999e+00  8.256108849411650e-01  1.696570384383008e-17
-1.429999999999999e+00  8.256108849411650e-01  1.696570384383008e-17
-1.429999999999999e+00  8.256108849411650e-01  1.696570384383008e-17
-1.429999999999999e+00  8.256108849411650e-01  1.696570384383008e-17
-1.429999999999999e+00  8.256108849411650e-01  1.696570384383008e-17
-1.429999999999999e+00  8.256108849411650e-01  1.696570384383008e-17
-1.429999999999999e+00  8.256108849411650e-01  1.696570384383008e-17
-1.429999999999999e+00  8.256108849411650e-01  1.696570384383008e-17
-1.429999999999999e+00  8.256108849411650e-01  1.696570384383008e-17
-1.429999999999999e+00  8.256108849411650e-01  1.696570384383008e-17
-1.429999999999999e+00  8.256108849411650e-01  1.696570384383008e-17
-1.429999999999999e+00  8.256108849411650e-01  1.696570384383008e-17
-1.429999999999999e+00  8.256108849411650e-01  1.696570384383008e-17
-1.429999999999999e+00  8.256108849411650e-01  1.696570384383008e-17
-1.429999999999999e+00  8.256108849411650e-01  1.696570384383008e-17
-1.429999999999999e+00  8.256108849411650e-01  1.696570384383008e-17
-1.429999999999999e+00  8.256108849411650e-01  1.696570384383008e-17
-1.429999999999999e+00  8.256108849411650e-01  1.696570384383008e-17
-1.429999999999999e+00  8.256108849411650e-01  1.696570384383008e-17
-1.429999999999999e+00  8.256108849411650e-01  1.696570384383008e-17
-1.429999999999999e+00  8.256108849411650e-01  1.696570384383008e-17
-1.429999999999999e+00  8.256108849411650e-01  1.696570384383008e-17
-1.429999999999999e+00  8.256108849411650e-01  1.696570384383008e-17
-1.429999999999999e+00  8.256108849411650e-01  1.696570384383008e-17
-1.429999999999999e+00  8.256108849411650e-01  1.696570384383008e-17
-1.429999999999999e+00  8.256108849411650e-01  1.696570384383008e-17
-1.429999999999999e+00  8.256108849411650e-01  1.696570384383008e-17
-1.429999999999999e+00  8.256108849411650e-01  1.696570384383008e-17
-1.429999999999999e+00  8.256108849411650e-01  1.696570384383008e-17
-1.429999999999999e+00  8.256108849411650e-01  1.696570384383008e-17
-1.429999999999999e+00  8.256108849411650e-01  1.696570384383008e-17
-1.429999999999999e+00  8.256108849411650e-01  1.696570384383008e-17
-1.429999999999999e+00  8.256108849411650e-01  1.696570384383008e-17
-1.429999999999999e+00  8.256108849411650e-01  1.696570384383008e-17
-1.429999999999999e+00  8.256108849411650e-01  1.696570384383008e-17
-1.429999999999999e+00  8.256108849411650e-01  1.696570384383008e-17
-1.429999999999999e+00  8.256108849411650e-01  1.696570384383008e-17
-1.429999999999999e+00  8.256108849411650e-01  1.696570384383008e-17
-1.429999999999999e+00  8.256108849411650e-01  1.696570384383008e-17
-1.429999999999999e+00  8.256108849411650e-01  1.696570384383008e-17
-1.429999999999999e+00  8.256108849411650e-01  1.696570384383008e-17
-1.429999999999999e+00  8.256108849411650e-01  1.696570384383008e-17
-1.429999999999999e+00  8.256108849411650e-01  1.696570384383008e-17
-1.429999999999999e+00  8.256108849411650e-01  1.696570384383008e-17
-1.429999999999999e+00  8.256108849411650e-01  1.696570384383008e-17
-1.429999999999999e+00  8.256108849411650e-01  1.696570384383008e-17
 1.429999999999999e+00 -8.256108849411650e-01 -1.696570384383008e-17
-1.429999999999999e+00  8.256108849411650e-01  1.696570384383008e-17
 1.429999999999999e+00 -8.256108849411650e-01 -1.696570384383008e-17
 1.429999999999999e+00 -8.256108849411650e-01 -1.696570384383008e-17
 1.429999999999999e+00 -8.256108849411650e-01 -1.696570384383008e-17
 1.429999999999999e+00 -8.256108849411650e-01 -1.696570384383008e-17
 1.429999999999999e+00 -8.256108849411650e-01 -1.696570384383008e-17
 1.429999999999999e+00 -8.256108849411650e-01 -1.696570384383008e-17
 1.429999999999999e+00 -8.256108849411650e-01 -1.696570384383008e-17
 1.429999999999999e+00 -8.256108849411650e-01 -1.696570384383008e-17
 1.429999999999999e+00 -8.256108849411650e-01 -1.696570384383008e-17
 1.429999999999999e+00 -8.256108849411650e-01 -1.696570384383008e-17
 1.429999999999999e+00 -8.256108849411650e-01 -1.696570384383008e-17
 1.429999999999999e+00 -8.256108849411650e-01 -1.696570384383008e-17
 1.429999999999999e+00 -8.256108849411650e-01 -1.696570384383008e-17
 1.429999999999999e+00 -8.256108849411650e-01 -1.696570384383008e-17
 1.429999999999999e+00 -8.256108849411650e-01 -1.696570384383008e-17
 1.429999999999999e+00 -8.256108849411650e-01 -1.696570384383008e-17
 1.429999999999999e+00 -8.256108849411650e-01 -1.696570384383008e-17
 1.429999999999999e+00 -8.256108849411650e-01 -1.696570384383008e-17
 1.429999999999999e+00 -8.256108849411650e-01 -1.696570384383008e-17
 1.429999999999999e+00 -8.256108849411650e-01 -1.696570384383008e-17
 1.429999999999999e+00 -8.256108849411650e-01 -1.696570384383008e-17
 1.429999999999999e+00 -8.256108849411650e-01 -1.696570384383008e-17
 1.429999999999999e+00 -8.256108849411650e-01 -1.696570384383008e-17
 1.429999999999999e+00 -8.256108849411650e-01 -1.696570384383008e-17
 1.429999999999999e+00 -8.256108849411650e-01 -1.696570384383008e-17
 1.429999999999999e+00 -8.256108849411650e-01 -1.696570384383008e-17
 1.429999999999999e+00 -8.256108849411650e-01 -1.696570384383008e-17
 1.429999999999999e+00 -8.256108849411650e-01 -1.696570384383008e-17
 1.429999999999999e+00 -8.256108849411650e-01 -1.696570384383008e-17
 1.429999999999999e+00 -8.256108849411650e-01 -1.696570384383008e-17
 1.429999999999999e+00 -8.256108849411650e-01 -1.696570384383008e-17
 1.429999999999999e+00 -8.256108849411650e-01 -1.696570384383008e-17
 1.429999999999999e+00 -8.256108849411650e-01 -1.696570384383008e-17
 1.429999999999999e+00 -8.256108849411650e-01 -1.696570384383008e-17
 1.429999999999999e+00 -8.256108849411650e-01 -1.696570384383008e-17
 1.429999999999999e+00 -8.256108849411650e-01 -1.696570384383008e-17
 1.429999999999999e+00 -8.256108849411650e-01 -1.696570384383008e-17
 1.429999999999999e+00 -8.256108849411650e-01 -1.696570384383008e-17
 1.429999999999999e+00 -8.256108849411650e-01 -1.696570384383008e-17
 1.429999999999999e+00 -8.256108849411650e-01 -1.696570384383008e-17
 1.429999999999999e+00 -8.256108849411650e-01 -1.696570384383008e-17
 1.429999999999999e+00 -8.256108849411650e-01 -1.696570384383008e-17
 1.429999999999999e+00 -8.256108849411650e-01 -1.696570384383008e-17
 1.429999999999999e+00 -8.256108849411650e-01 -1.696570384383008e-17
 1.429999999999999e+00 -8.256108849411650e-01 -1.696570384383008e-17
 1.429999999999999e+00 -8.256108849411650e-01 -1.696570384383008e-17
 1.429999999999999e+00 -8.256108849411650e-01 -1.696570384383008e-17
 1.429999999999999e+00 -8.256108849411650e-01 -1.696570384383008e-17
 1.429999999999999e+00 -8.256108849411650e-01 -1.696570384383008e-17
 1.429999999999999e+00 -8.256108849411650e-01 -1.696570384383008e-17
 1.429999999999999e+00 -8.256108849411650e-01 -1.696570384383008e-17
 1.429999999999999e+00 -8.256108849411650e-01 -1.696570384383008e-17
 1.429999999999999e+00 -8.256108849411650e-01 -1.696570384383008e-17
 1.429999999999999e+00 -8.256108849411650e-01 -1.696570384383008e-17
 1.429999999999999e+00 -8.256108849411650e-01 -1.696570384383008e-17
 1.429999999999999e+00 -8.256108849411650e-01 -1.696570384383008e-17
 1.429999999999999e+00 -8.256108849411650e-01 -1.696570384383008e-17
 1.429999999999999e+00 -8.256108849411650e-01 -1.696570384383008e-17
 1.429999999999999e+00 -8.256108849411650e-01 -1.696570384383008e-17
 1.429999999999999e+00 -8.256108849411650e-01 -1.696570384383008e-17
 1.429999999999999e+00 -8.256108849411650e-01 -1.696570384383008e-17
 1.429999999999999e+00 -8.256108849411650e-01 -1.696570384383008e-17
 1.429999999999999e+00 -8.256108849411650e-01 -1.696570384383008e-17
 1.429999999999999e+00 -8.256108849411650e-01 -1.696570384383008e-17
 1.429999999999999e+00 -8.256108849411650e-01 -1.696570384383008e-17
 1.429999999999999e+00 -8.256108849411650e-01 -1.696570384383008e-17
 1.429999999999999e+00 -8.256108849411650e-01 -1.696570384383008e-17
 1.429999999999999e+00 -8.256108849411650e-01 -1.696570384383008e-17
 1.429999999999999e+00 -8.256108849411650e-01 -1.696570384383008e-17
 1.429999999999999e+00 -8.256108849411650e-01 -1.696570384383008e-17
 1.429999999999999e+00 -8.256108849411650e-01 -1.696570384383008e-17
 1.429999999999999e+00 -8.256108849411650e-01 -1.696570384383008e-17
 1.429999999999999e+00 -8.256108849411650e-01 -1.696570384383008e-17
 1.429999999999999e+00 -8.256108849411650e-01 -1.696570384383008e-17
 1.429999999999999e+00 -8.256108849411650e-01 -1.696570384383008e-17
 1.429999999999999e+00 -8.256108849411650e-01 -1.696570384383008e-17
 1.429999999999999e+00 -8.256108849411650e-01 -1.696570384383008e-17
 1.429999999999999e+00 -8.256108849411650e-01 -1.696570384383008e-17
 1.429999999999999e+00 -8.256108849411650e-01 -1.696570384383008e-17
 1.429999999999999e+00 -8.256108849411650e-01 -1.696570384383008e-17
 1.429999999999999e+00 -8.256108849411650e-01 -1.696570384383008e-17
 1.429999999999999e+00 -8.256108849411650e-01 -1.696570384383008e-17
 1.429999999999999e+00 -8.256108849411650e-01 -1.696570384383008e-17
 1.429999999999999e+00 -8.256108849411650e-01 -1.696570384383008e-17
 1.429999999999999e+00 -8.256108849411650e-01 -1.696570384383008e-17
 1.429999999999999e+00 -8.256108849411650e-01 -1.696570384383008e-17
 1.429999999999999e+00 -8.256108849411650e-01 -1.696570384383008e-17
 1.429999999999999e+00 -8.256108849411650e-01 -1.696570384383008e-17
 1.429999999999999e+00 -8.256108849411650e-01 -1.696570384383008e-17
 1.429999999999999e+00 -8.256108849411650e-01 -1.696570384383008e-17
 1.429999999999999e+00 -8.256108849411650e-01 -1.696570384383008e-17
 1.429999999999999e+00 -8.256108849411650e-01 -1.696570384383008e-17
 1.429999999999999e+00 -8.256108849411650e-01 -1.696570384383008e-17
 1.429999999999999e+00 -8.256108849411650e-01 -1.696570384383008e-17
 1.429999999999999e+00 -8.256108849411650e-01 -1.696570384383008e-17
 1.429999999999999e+00 -8.256108849411650e-01 -1.696570384383008e-17
 1.429999999999999e+00 -8.256108849411650e-01 -1.696570384383008e-17
 1.429999999999999e+00 -8.256108849411650e-01 -1.696570384383008e-17
 1.429999999999999e+00 -8.256108849411650e-01 -1.696570384383008e-17
 1.429999999999999e+00 -8.256108849411650e-01 -1.696570384383008e-17
 1.429999999999999e+00 -8.256108849411650e-01 -1.696570384383008e-17
 1.429999999999999e+00 -8.256108849411650e-01 -1.696570384383008e-17
 1.429999999999999e+00 -8.256108849411650e-01 -1.696570384383008e-17
 1.429999999999999e+00 -8.256108849411650e-01 -1.696570384383008e-17
 1.429999999999999e+00 -8.256108849411650e-01 -1.696570384383008e-17
 1.429999999999999e+00 -8.256108849411650e-01 -1.696570384383008e-17
 1.429999999999999e+00 -8.256108849411650e-01 -1.696570384383008e-17
 1.429999999999999e+00 -8.256108849411650e-01 -1.696570384383008e-17
 1.429999999999999e+00 -8.256108849411650e-01 -1.696570384383008e-17
 1.429999999999999e+00 -8.256108849411650e-01 -1.696570384383008e-17
 1.429999999999999e+00 -8.256108849411650e-01 -1.696570384383008e-17
 1.429999999999999e+00 -8.256108849411650e-01 -1.696570384383008e-17
 1.429999999999999e+00 -8.256108849411650e-01 -1.696570384383008e-17
 1.429999999999999e+00 -8.256108849411650e-01 -1.696570384383008e-17
 1.429999999999999e+00 -8.256108849411650e-01 -1.696570384383008e-17
 1.429999999999999e+00 -8.256108849411650e-01 -1.696570384383008e-17
 1.429999999999999e+00 -8.256108849411650e-01 -1.696570384383008e-17
 1.429999999999999e+00 -8.256108849411650e-01 -1.696570384383008e-17
 1.429999999999999e+00 -8.256108849411650e-01 -1.696570384383008e-17
 1.429999999999999e+00 -8.256108849411650e-01 -1.696570384383008e-17
 1.429999999999999e+00 -8.256108849411650e-01 -1.696570384383008e-17
 1.429999999999999e+00 -8.256108849411650e-01 -1.696570384383008e-17
 1.429999999999999e+00 -8.256108849411650e-01 -1.696570384383008e-17
 1.429999999999999e+00 -8.256108849411650e-01 -1.696570384383008e-17
 1.429999999999999e+00 -8.256108849411650e-01 -1.696570384383008e-17
 1.429999999999999e+00 -8.256108849411650e-01 -1.696570384383008e-17
 1.429999999999999e+00 -8.256108849411650e-01 -1.696570384383008e-17
 1.429999999999999e+00 -8.256108849411650e-01 -1.696570384383008e-17
 1.429999999999999e+00 -8.256108849411650e-01 -1.696570384383008e-17
 1.429999999999999e+00 -8.256108849411650e-01 -1.696570384383008e-17
 1.429999999999999e+00 -8.256108849411650e-01 -1.696570384383008e-17
 1.429999999999999e+00 -8.256108849411650e-01 -1.696570384383008e-17
 1.429999999999999e+00 -8.256108849411650e-01 -1.696570384383008e-17
 1.429999999999999e+00 -8.256108849411650e-01 -1.696570384383008e-17
 1.429999999999999e+00 -8.256108849411650e-01 -1.696570384383008e-17
 1.429999999999999e+00 -8.256108849411650e-01 -1.696570384383008e-17
 1.429999999999999e+00 -8.256108849411650e-01 -1.696570384383008e-17
 1.429999999999999e+00 -8.256108849411650e-01 -1.696570384383008e-17
 1.429999999999999e+00 -8.256108849411650e-01 -1.696570384383008e-17
 1.429999999999999e+00 -8.256108849411650e-01 -1.696570384383008e-17
 1.429999999999999e+00 -8.256108849411650e-01 -1.696570384383008e-17
 1.429999999999999e+00 -8.256108849411650e-01 -1.696570384383008e-17
 1.429999999999999e+00 -8.256108849411650e-01 -1.696570384383008e-17
 1.429999999999999e+00 -8.256108849411650e-01 -1.696570384383008e-17
 1.429999999999999e+00 -8.256108849411650e-01 -1.696570384383008e-17
 1.429999999999999e+00 -8.256108849411650e-01 -1.696570384383008e-17
 1.429999999999999e+00 -8.256108849411650e-01 -1.696570384383008e-17
 1.429999999999999e+00 -8.256108849411650e-01 -1.696570384383008e-17
 1.429999999999999e+00 -8.256108849411650e-01 -1.696570384383008e-17
 1.429999999999999e+00 -8.256108849411650e-01 -1.696570384383008e-17
 1.429999999999999e+00 -8.256108849411650e-01 -1.696570384383008e-17
-1.429999999999999e+00  8.256108849411650e-01  1.696570384383008e-17
 1.429999999999999e+00 -8.256108849411650e-01 -1.696570384383008e-17
 1.429999999999999e+00 -8.256108849411650e-01 -1.696570384383008e-17
 1.429999999999999e+00 -8.256108849411650e-01 -1.696570384383008e-17
 1.429999999999999e+00 -8.256108849411650e-01 -1.696570384383008e-17
 1.429999999999999e+00 -8.256108849411650e-01 -1.696570384383008e-17
 1.429999999999999e+00 -8.256108849411650e-01 -1.696570384383008e-17
 1.429999999999999e+00 -8.256108849411650e-01 -1.696570384383008e-17
 1.429999999999999e+00 -8.256108849411650e-01 -1.696570384383008e-17
 1.429999999999999e+00 -8.256108849411650e-01 -1.696570384383008e-17
 1.429999999999999e+00 -8.256108849411650e-01 -1.696570384383008e-17
 1.429999999999999e+00 -8.256108849411650e-01 -1.696570384383008e-17
 1.429999999999999e+00 -8.256108849411650e-01 -1.696570384383008e-17
 1.429999999999999e+00 -8.256108849411650e-01 -1.696570384383008e-17
 1.429999999999999e+00 -8.256108849411650e-01 -1.696570384383008e-17
 1.429999999999999e+00 -8.256108849411650e-01 -1.696570384383008e-17
 1.429999999999999e+00 -8.256108849411650e-01 -1.696570384383008e-17
 1.429999999999999e+00 -8.256108849411650e-01 -1.696570384383008e-17
 1.429999999999999e+00 -8.256108849411650e-01 -1.696570384383008e-17
 1.429999999999999e+00 -8.256108849411650e-01 -1.696570384383008e-17
 1.429999999999999e+00 -8.256108849411650e-01 -1.696570384383008e-17
 1.429999999999999e+00 -8.256108849411650e-01 -1.696570384383008e-17
 1.429999999999999e+00 -8.256108849411650e-01 -1.696570384383008e-17
 1.429999999999999e+00 -8.256108849411650e-01 -1.696570384383008e-17
 1.429999999999999e+00 -8.256108849411650e-01 -1.696570384383008e-17
 1.429999999999999e+00 -8.256108849411650e-01 -1.696570384383008e-17
 1.429999999999999e+00 -8.256108849411650e-01 -1.696570384383008e-17
 1.429999999999999e+00 -8.256108849411650e-01 -1.696570384383008e-17
 1.429999999999999e+00 -8.256108849411650e-01 -1.696570384383008e-17
 1.429999999999999e+00 -8.256108849411650e-01 -1.696570384383008e-17
 1.429999999999999e+00 -8.256108849411650e-01 -1.696570384383008e-17
 1.429999999999999e+00 -8.256108849411650e-01 -1.696570384383008e-17
 1.429999999999999e+00 -8.256108849411650e-01 -1.696570384383008e-17
 1.429999999999999e+00 -8.256108849411650e-01 -1.696570384383008e-17
 1.429999999999999e+00 -8.256108849411650e-01 -1.696570384383008e-17
 1.429999999999999e+00 -8.256108849411650e-01 -1.696570384383008e-17
 1.429999999999999e+00 -8.256108849411650e-01 -1.696570384383008e-17
 1.429999999999999e+00 -8.256108849411650e-01 -1.696570384383008e-17
 1.429999999999999e+00 -8.256108849411650e-01 -1.696570384383008e-17
 1.429999999999999e+00 -8.256108849411650e-01 -1.696570384383008e-17
 1.429999999999999e+00 -8.256108849411650e-01 -1.696570384383008e-17
 1.429999999999999e+00 -8.256108849411650e-01 -1.696570384383008e-17
 1.429999999999999e+00 -8.256108849411650e-01 -1.696570384383008e-17
 1.429999999999999e+00 -8.256108849411650e-01 -1.696570384383008e-17
 1.429999999999999e+00 -8.256108849411650e-01 -1.696570384383008e-17
 1.429999999999999e+00 -8.256108849411650e-01 -1.696570384383008e-17
 1.429999999999999e+00 -8.256108849411650e-01 -1.696570384383008e-17
 1.429999999999999e+00 -8.256108849411650e-01 -1.696570384383008e-17
 1.429999999999999e+00 -8.256108849411650e-01 -1.696570384383008e-17
 1.429999999999999e+00 -8.256108849411650e-01 -1.696570384383008e-17
 1.429999999999999e+00 -8.256108849411650e-01 -1.696570384383008e-17
 1.429999999999999e+00 -8.256108849411650e-01 -1.696570384383008e-17
 1.429999999999999e+00 -8.256108849411650e-01 -1.696570384383008e-17
 1.429999999999999e+00 -8.256108849411650e-01 -1.696570384383008e-17
 1.429999999999999e+00 -8.256108849411650e-01 -1.696570384383008e-17
 1.429999999999999e+00 -8.256108849411650e-01 -1.696570384383008e-17
 1.429999999999999e+00 -8.256108849411650e-01 -1.696570384383008e-17
 1.429999999999999e+00 -8.256108849411650e-01 -1.696570384383008e-17
 1.429999999999999e+00 -8.256108849411650e-01 -1.696570384383008e-17
 1.429999999999999e+00 -8.256108849411650e-01 -1.696570384383008e-17
 1.429999999999999e+00 -8.256108849411650e-01 -1.696570384383008e-17
 1.429999999999999e+00 -8.256108849411650e-01 -1.696570384383008e-17
 1.429999999999999e+00 -8.256108849411650e-01 -1.696570384383008e-17
 1.429999999999999e+00 -8.256108849411650e-01 -1.696570384383008e-17
 1.429999999999999e+00 -8.256108849411650e-01 -1.696570384383008e-17
 1.429999999999999e+00 -8.256108849411650e-01 -1.696570384383008e-17
 1.429999999999999e+00 -8.256108849411650e-01 -1.696570384383008e-17
 1.429999999999999e+00 -8.256108849411650e-01 -1.696570384383008e-17
 1.429999999999999e+00 -8.256108849411650e-01 -1.696570384383008e-17
 1.429999999999999e+00 -8.256108849411650e-01 -1.696570384383008e-17
 1.429999999999999e+00 -8.256108849411650e-01 -1.696570384383008e-17
 1.429999999999999e+00 -8.256108849411650e-01 -1.696570384383008e-17
 1.429999999999999e+00 -8.256108849411650e-01 -1.696570384383008e-17
 1.429999999999999e+00 -8.256108849411650e-01 -1.696570384383008e-17
 1.429999999999999e+00 -8.256108849411650e-01 -1.696570384383008e-17
 1.429999999999999e+00 -8.256108849411650e-01 -1.696570384383008e-17
 1.429999999999999e+00 -8.256108849411650e-01 -1.696570384383008e-17
 1.429999999999999e+00 -8.256108849411650e-01 -1.696570384383008e-17
 1.429999999999999e+00 -8.256108849411650e-01 -1.696570384383008e-17
 1.429999999999999e+00 -8.256108849411650e-01 -1.696570384383008e-17
 1.429999999999999e+00 -8.256108849411650e-01 -1.696570384383008e-17
 1.429999999999999e+00 -8.256108849411650e-01 -1.696570384383008e-17
 1.429999999999999e+00 -8.256108849411650e-01 -1.696570384383008e-17
 1.429999999999999e+00 -8.256108849411650e-01 -1.696570384383008e-17
 1.429999999999999e+00 -8.256108849411650e-01 -1.696570384383008e-17
 1.429999999999999e+00 -8.256108849411650e-01 -1.696570384383008e-17
 1.429999999999999e+00 -8.256108849411650e-01 -1.696570384383008e-17
 1.429999999999999e+00 -8.256108849411650e-01 -1.696570384383008e-17
 1.429999999999999e+00 -8.256108849411650e-01 -1.696570384383008e-17
 1.429999999999999e+00 -8.256108849411650e-01 -1.696570384383008e-17
 1.429999999999999e+00 -8.256108849411650e-01 -1.696570384383008e-17
 1.429999999999999e+00 -8.256108849411650e-01 -1.696570384383008e-17
 1.429999999999999e+00 -8.256108849411650e-01 -1.696570384383008e-17
 1.429999999999999e+00 -8.256108849411650e-01 -1.696570384383008e-17
 1.429999999999999e+00 -8.256108849411650e-01 -1.696570384383008e-17
 1.429999999999999e+00 -8.256108849411650e-01 -1.696570384383008e-17
 1.429999999999999e+00 -8.256108849411650e-01 -1.696570384383008e-17
 1.429999999999999e+00 -8.256108849411650e-01 -1.696570384383008e-17
 1.429999999999999e+00 -8.256108849411650e-01 -1.696570384383008e-17
 1.429999999999999e+00 -8.256108849411650e-01 -1.696570384383008e-17
 1.429999999999999e+00 -8.256108849411650e-01 -1.696570384383008e-17
 1.429999999999999e+00 -8.256108849411650e-01 -1.696570384383008e-17
 1.429999999999999e+00 -8.256108849411650e-01 -1.696570384383008e-17
 1.429999999999999e+00 -8.256108849411650e-01 -1.696570384383008e-17
 1.429999999999999e+00 -8.256108849411650e-01 -1.696570384383008e-17
 1.429999999999999e+00 -8.256108849411650e-01 -1.696570384383008e-17
 1.429999999999999e+00 -8.256108849411650e-01 -1.696570384383008e-17
 1.429999999999999e+00 -8.256108849411650e-01 -1.696570384383008e-17
 1.429999999999999e+00 -8.256108849411650e-01 -1.696570384383008e-17
 1.429999999999999e+00 -8.256108849411650e-01 -1.696570384383008e-17
 1.429999999999999e+00 -8.256108849411650e-01 -1.696570384383008e-17
 1.429999999999999e+00 -8.256108849411650e-01 -1.696570384383008e-17
 1.429999999999999e+00 -8.256108849411650e-01 -1.696570384383008e-17
 1.429999999999999e+00 -8.256108849411650e-01 -1.696570384383008e-17
 1.429999999999999e+00 -8.256108849411650e-01 -1.696570384383008e-17
 1.429999999999999e+00 -8.256108849411650e-01 -1.696570384383008e-17
 1.429999999999999e+00 -8.256108849411650e-01 -1.696570384383008e-17
 1.429999999999999e+00 -8.256108849411650e-01 -1.696570384383008e-17
 1.429999999999999e+00 -8.256108849411650e-01 -1.696570384383008e-17
 1.429999999999999e+00 -8.256108849411650e-01 -1.696570384383008e-17
 1.429999999999999e+00 -8.256108849411650e-01 -1.696570384383008e-17
 1.429999999999999e+00 -8.256108849411650e-01 -1.696570384383008e-17
 1.429999999999999e+00 -8.256108849411650e-01 -1.696570384383008e-17
 1.429999999999999e+00 -8.256108849411650e-01 -1.696570384383008e-17
 1.429999999999999e+00 -8.256108849411650e-01 -1.696570384383008e-17
 1.429999999999999e+00 -8.256108849411650e-01 -1.696570384383008e-17
 1.429999999999999e+00 -8.256108849411650e-01 -1.696570384383008e-17
 1.429999999999999e+00 -8.256108849411650e-01 -1.696570384383008e-17
 1.429999999999999e+00 -8.256108849411650e-01 -1.696570384383008e-17
 1.429999999999999e+00 -8.256108849411650e-01 -1.696570384383008e-17
 1.429999999999999e+00 -8.256108849411650e-01 -1.696570384383008e-17
 1.429999999999999e+00 -8.256108849411650e-01 -1.696570384383008e-17
 1.429999999999999e+00 -8.256108849411650e-01 -1.696570384383008e-17
 1.429999999999999e+00 -8.256108849411650e-01 -1.696570384383008e-17
 1.429999999999999e+00 -8.256108849411650e-01 -1.696570384383008e-17
 1.429999999999999e+00 -8.256108849411650e-01 -1.696570384383008e-17
 1.429999999999999e+00 -8.256108849411650e-01 -1.696570384383008e-17
 1.429999999999999e+00 -8.256108849411650e-01 -1.696570384383008e-17
 1.429999999999999e+00 -8.256108849411650e-01 -1.696570384383008e-17
 1.429999999999999e+00 -8.256108849411650e-01 -1.696570384383008e-17
 1.429999999999999e+00 -8.256108849411650e-01 -1.696570384383008e-17
 1.429999999999999e+00 -8.256108849411650e-01 -1.696570384383008e-17
 1.429999999999999e+00 -8.256108849411650e-01 -1.696570384383008e-17
 1.429999999999999e+00 -8.256108849411650e-01 -1.696570384383008e-17
 1.429999999999999e+00 -8.256108849411650e-01 -1.696570384383008e-17
 1.429999999999999e+00 -8.256108849411650e-01 -1.696570384383008e-17
 1.429999999999999e+00 -8.256108849411650e-01 -1.696570384383008e-17

VECTORS burgers_vector_local double
-1.666666666666667e-01 -3.333333333333333e-01 -1.666666666666665e-01
1.666666666666667e-01 3.333333333333333e-01 1.666666666666665e-01
-1.666666666666667e-01 -3.333333333333333e-01 -1.666666666666665e-01
-1.666666666666667e-01 -3.333333333333333e-01 -1.666666666666665e-01
-1.666666666666667e-01 -3.333333333333333e-01 -1.666666666666665e-01
-1.666666666666667e-01 -3.333333333333333e-01 -1.666666666666665e-01
-1.666666666666667e-01 -3.333333333333333e-01 -1.666666666666665e-01
-1.666666666666667e-01 -3.333333333333333e-01 -1.666666666666665e-01
-1.666666666666667e-01 -3.333333333333333e-01 -1.666666666666665e-01
-1.666666666666667e-01 -3.333333333333333e-01 -1.666666666666665e-01
-1.666666666666667e-01 -3.333333333333333e-01 -1.666666666666665e-01
-1.666666666666667e-01 -3.333333333333333e-01 -1.666666666666665e-01
-1.666666666666667e-01 -3.333333333333333e-01 -1.666666666666665e-01
-1.666666666666667e-01 -3.333333333333333e-01 -1.666666666666665e-01
-1.666666666666667e-01 -3.333333333333333e-01 -1.666666666666665e-01
-1.666666666666667e-01 -3.333333333333333e-01 -1.666666666666665e-01
-1.666666666666667e-01 -3.333333333333333e-01 -1.666666666666665e-01
-1.666666666666667e-01 -3.333333333333333e-01 -1.666666666666665e-01
-1.666666666666667e-01 -3.333333333333333e-01 -1.666666666666665e-01
-1.666666666666667e-01 -3.333333333333333e-01 -1.666666666666665e-01
-1.666666666666667e-01 -3.333333333333333e-01 -1.666666666666665e-01
-1.666666666666667e-01 -3.333333333333333e-01 -1.666666666666665e-01
-1.666666666666667e-01 -3.333333333333333e-01 -1.666666666666665e-01
-1.666666666666667e-01 -3.333333333333333e-01 -1.666666666666665e-01
-1.666666666666667e-01 -3.333333333333333e-01 -1.666666666666665e-01
-1.666666666666667e-01 -3.333333333333333e-01 -1.666666666666665e-01
-1.666666666666667e-01 -3.333333333333333e-01 -1.666666666666665e-01
-1.666666666666667e-01 -3.333333333333333e-01 -1.666666666666665e-01
-1.666666666666667e-01 -3.333333333333333e-01 -1.666666666666665e-01
-1.666666666666667e-01 -3.333333333333333e-01 -1.666666666666665e-01
-1.666666666666667e-01 -3.333333333333333e-01 -1.666666666666665e-01
-1.666666666666667e-01 -3.333333333333333e-01 -1.666666666666665e-01
-1.666666666666667e-01 -3.333333333333333e-01 -1.666666666666665e-01
-1.666666666666667e-01 -3.333333333333333e-01 -1.666666666666665e-01
-1.666666666666667e-01 -3.333333333333333e-01 -1.666666666666665e-01
-1.666666666666667e-01 -3.333333333333333e-01 -1.666666666666665e-01
-1.666666666666667e-01 -3.333333333333333e-01 -1.666666666666665e-01
-1.666666666666667e-01 -3.333333333333333e-01 -1.666666666666665e-01
-1.666666666666667e-01 -3.333333333333333e-01 -1.666666666666665e-01
-1.666666666666667e-01 -3.333333333333333e-01 -1.666666666666665e-01
-1.666666666666667e-01 -3.333333333333333e-01 -1.666666666666665e-01
-1.666666666666667e-01 -3.333333333333333e-01 -1.666666666666665e-01
-1.666666666666667e-01 -3.333333333333333e-01 -1.666666666666665e-01
-1.666666666666667e-01 -3.333333333333333e-01 -1.666666666666665e-01
-1.666666666666667e-01 -3.333333333333333e-01 -1.666666666666665e-01
-1.666666666666667e-01 -3.333333333333333e-01 -1.666666666666665e-01
-1.666666666666667e-01 -3.333333333333333e-01 -1.666666666666665e-01
-1.666666666666667e-01 -3.333333333333333e-01 -1.666666666666665e-01
-1.666666666666667e-01 -3.333333333333333e-01 -1.666666666666665e-01
-1.666666666666667e-01 -3.333333333333333e-01 -1.666666666666665e-01
-1.666666666666667e-01 -3.333333333333333e-01 -1.666666666666665e-01
-1.666666666666667e-01 -3.333333333333333e-01 -1.666666666666665e-01
-1.666666666666667e-01 -3.333333333333333e-01 -1.666666666666665e-01
-1.666666666666667e-01 -3.333333333333333e-01 -1.666666666666665e-01
-1.666666666666667e-01 -3.333333333333333e-01 -1.666666666666665e-01
-1.666666666666667e-01 -3.333333333333333e-01 -1.666666666666665e-01
-1.666666666666667e-01 -3.333333333333333e-01 -1.666666666666665e-01
-1.666666666666667e-01 -3.333333333333333e-01 -1.666666666666665e-01
-1.666666666666667e-01 -3.333333333333333e-01 -1.666666666666665e-01
-1.666666666666667e-01 -3.333333333333333e-01 -1.666666666666665e-01
-1.666666666666667e-01 -3.333333333333333e-01 -1.666666666666665e-01
-1.666666666666667e-01 -3.333333333333333e-01 -1.666666666666665e-01
-1.666666666666667e-01 -3.333333333333333e-01 -1.666666666666665e-01
-1.666666666666667e-01 -3.333333333333333e-01 -1.666666666666665e-01
-1.666666666666667e-01 -3.333333333333333e-01 -1.666666666666665e-01
-1.666666666666667e-01 -3.333333333333333e-01 -1.666666666666665e-01
-1.666666666666667e-01 -3.333333333333333e-01 -1.666666666666665e-01
-1.666666666666667e-01 -3.333333333333333e-01 -1.666666666666665e-01
-1.666666666666667e-01 -3.333333333333333e-01 -1.666666666666665e-01
-1.666666666666667e-01 -3.333333333333333e-01 -1.666666666666665e-01
-1.666666666666667e-01 -3.333333333333333e-01 -1.666666666666665e-01
-1.666666666666667e-01 -3.333333333333333e-01 -1.666666666666665e-01
-1.666666666666667e-01 -3.333333333333333e-01 -1.666666666666665e-01
-1.666666666666667e-01 -3.333333333333333e-01 -1.666666666666665e-01
-1.666666666666667e-01 -3.333333333333333e-01 -1.666666666666665e-01
-1.666666666666667e-01 -3.333333333333333e-01 -1.666666666666665e-01
-1.666666666666667e-01 -3.333333333333333e-01 -1.666666666666665e-01
-1.666666666666667e-01 -3.333333333333333e-01 -1.666666666666665e-01
-1.666666666666667e-01 -3.333333333333333e-01 -1.666666666666665e-01
-1.666666666666667e-01 -3.333333333333333e-01 -1.666666666666665e-01
-1.666666666666667e-01 -3.333333333333333e-01 -1.666666666666665e-01
-1.666666666666667e-01 -3.333333333333333e-01 -1.666666666666665e-01
-1.666666666666667e-01 -3.333333333333333e-01 -1.666666666666665e-01
-1.666666666666667e-01 -3.333333333333333e-01 -1.666666666666665e-01
-1.666666666666667e-01 -3.333333333333333e-01 -1.666666666666665e-01
-1.666666666666667e-01 -3.333333333333333e-01 -1.666666666666665e-01
-1.666666666666667e-01 -3.333333333333333e-01 -1.666666666666665e-01
-1.666666666666667e-01 -3.333333333333333e-01 -1.666666666666665e-01
-1.666666666666667e-01 -3.333333333333333e-01 -1.666666666666665e-01
-1.666666666666667e-01 -3.333333333333333e-01 -1.666666666666665e-01
-1.666666666666667e-01 -3.333333333333333e-01 -1.666666666666665e-01
-1.666666666666667e-01 -3.333333333333333e-01 -1.666666666666665e-01
-1.666666666666667e-01 -3.333333333333333e-01 -1.666666666666665e-01
-1.666666666666667e-01 -3.333333333333333e-01 -1.666666666666665e-01
-1.666666666666667e-01 -3.333333333333333e-01 -1.666666666666665e-01
-1.666666666666667e-01 -3.333333333333333e-01 -1.666666666666665e-01
-1.666666666666667e-01 -3.333333333333333e-01 -1.666666666666665e-01
-1.666666666666667e-01 -3.333333333333333e-01 -1.666666666666665e-01
-1.666666666666667e-01 -3.333333333333333e-01 -1.666666666666665e-01
-1.666666666666667e-01 -3.333333333333333e-01 -1.666666666666665e-01
-1.666666666666667e-01 -3.333333333333333e-01 -1.666666666666665e-01
-1.666666666666667e-01 -3.333333333333333e-01 -1.666666666666665e-01
-1.666666666666667e-01 -3.333333333333333e-01 -1.666666666666665e-01
-1.666666666666667e-01 -3.333333333333333e-01 -1.666666666666665e-01
-1.666666666666667e-01 -3.333333333333333e-01 -1.666666666666665e-01
-1.666666666666667e-01 -3.333333333333333e-01 -1.666666666666665e-01
-1.666666666666667e-01 -3.333333333333333e-01 -1.666666666666665e-01
-1.666666666666667e-01 -3.333333333333333e-01 -1.666666666666665e-01
-1.666666666666667e-01 -3.333333333333333e-01 -1.666666666666665e-01
-1.666666666666667e-01 -3.333333333333333e-01 -1.666666666666665e-01
-1.666666666666667e-01 -3.333333333333333e-01 -1.666666666666665e-01
-1.666666666666667e-01 -3.333333333333333e-01 -1.666666666666665e-01
-1.666666666666667e-01 -3.333333333333333e-01 -1.666666666666665e-01
-1.666666666666667e-01 -3.333333333333333e-01 -1.666666666666665e-01
-1.666666666666667e-01 -3.333333333333333e-01 -1.666666666666665e-01
-1.666666666666667e-01 -3.333333333333333e-01 -1.666666666666665e-01
-1.666666666666667e-01 -3.333333333333333e-01 -1.666666666666665e-01
-1.666666666666667e-01 -3.333333333333333e-01 -1.666666666666665e-01
-1.666666666666667e-01 -3.333333333333333e-01 -1.666666666666665e-01
-1.666666666666667e-01 -3.333333333333333e-01 -1.666666666666665e-01
-1.666666666666667e-01 -3.333333333333333e-01 -1.666666666666665e-01
-1.666666666666667e-01 -3.333333333333333e-01 -1.666666666666665e-01
-1.666666666666667e-01 -3.333333333333333e-01 -1.666666666666665e-01
-1.666666666666667e-01 -3.333333333333333e-01 -1.666666666666665e-01
-1.666666666666667e-01 -3.333333333333333e-01 -1.666666666666665e-01
-1.666666666666667e-01 -3.333333333333333e-01 -1.666666666666665e-01
-1.666666666666667e-01 -3.333333333333333e-01 -1.666666666666665e-01
-1.666666666666667e-01 -3.333333333333333e-01 -1.666666666666665e-01
-1.666666666666667e-01 -3.333333333333333e-01 -1.666666666666665e-01
-1.666666666666667e-01 -3.333333333333333e-01 -1.666666666666665e-01
-1.666666666666667e-01 -3.333333333333333e-01 -1.666666666666665e-01
-1.666666666666667e-01 -3.333333333333333e-01 -1.666666666666665e-01
-1.666666666666667e-01 -3.333333333333333e-01 -1.666666666666665e-01
-1.666666666666667e-01 -3.333333333333333e-01 -1.666666666666665e-01
-1.666666666666667e-01 -3.333333333333333e-01 -1.666666666666665e-01
-1.666666666666667e-01 -3.333333333333333e-01 -1.666666666666665e-01
-1.666666666666667e-01 -3.333333333333333e-01 -1.666666666666665e-01
-1.666666666666667e-01 -3.333333333333333e-01 -1.666666666666665e-01
-1.666666666666667e-01 -3.333333333333333e-01 -1.666666666666665e-01
-1.666666666666667e-01 -3.333333333333333e-01 -1.666666666666665e-01
-1.666666666666667e-01 -3.333333333333333e-01 -1.666666666666665e-01
-1.666666666666667e-01 -3.333333333333333e-01 -1.666666666666665e-01
-1.666666666666667e-01 -3.333333333333333e-01 -1.666666666666665e-01
-1.666666666666667e-01 -3.333333333333333e-01 -1.666666666666665e-01
-1.666666666666667e-01 -3.333333333333333e-01 -1.666666666666665e-01
-1.666666666666667e-01 -3.333333333333333e-01 -1.666666666666665e-01
-1.666666666666667e-01 -3.333333333333333e-01 -1.666666666666665e-01
-1.666666666666667e-01 -3.333333333333333e-01 -1.666666666666665e-01
-1.666666666666667e-01 -3.333333333333333e-01 -1.666666666666665e-01
-1.666666666666667e-01 -3.333333333333333e-01 -1.666666666666665e-01
-1.666666666666667e-01 -3.333333333333333e-01 -1.666666666666665e-01
-1.666666666666667e-01 -3.333333333333333e-01 -1.666666666666665e-01
-1.666666666666667e-01 -3.333333333333333e-01 -1.666666666666665e-01
-1.666666666666667e-01 -3.333333333333333e-01 -1.666666666666665e-01
-1.666666666666667e-01 -3.333333333333333e-01 -1.666666666666665e-01
-1.666666666666667e-01 -3.333333333333333e-01 -1.666666666666665e-01
-1.666666666666667e-01 -3.333333333333333e-01 -1.666666666666665e-01
-1.666666666666667e-01 -3.333333333333333e-01 -1.666666666666665e-01
-1.666666666666667e-01 -3.333333333333333e-01 -1.666666666666665e-01
-1.666666666666667e-01 -3.333333333333333e-01 -1.666666666666665e-01
-1.666666666666667e-01 -3.333333333333333e-01 -1.666666666666665e-01
-1.666666666666667e-01 -3.333333333333333e-01 -1.666666666666665e-01
-1.666666666666667e-01 -3.333333333333333e-01 -1.666666666666665e-01
-1.666666666666667e-01 -3.333333333333333e-01 -1.666666666666665e-01
-1.666666666666667e-01 -3.333333333333333e-01 -1.666666666666665e-01
-1.666666666666667e-01 -3.333333333333333e-01 -1.666666666666665e-01
-1.666666666666667e-01 -3.333333333333333e-01 -1.666666666666665e-01
-1.666666666666667e-01 -3.333333333333333e-01 -1.666666666666665e-01
-1.666666666666667e-01 -3.333333333333333e-01 -1.666666666666665e-01
-1.666666666666667e-01 -3.333333333333333e-01 -1.666666666666665e-01
-1.666666666666667e-01 -3.333333333333333e-01 -1.666666666666665e-01
-1.666666666666667e-01 -3.333333333333333e-01 -1.666666666666665e-01
-1.666666666666667e-01 -3.333333333333333e-01 -1.666666666666665e-01
-1.666666666666667e-01 -3.333333333333333e-01 -1.666666666666665e-01
-1.666666666666667e-01 -3.333333333333333e-01 -1.666666666666665e-01
-1.666666666666667e-01 -3.333333333333333e-01 -1.666666666666665e-01
-1.666666666666667e-01 -3.333333333333333e-01 -1.666666666666665e-01
-1.666666666666667e-01 -3.333333333333333e-01 -1.666666666666665e-01
-1.666666666666667e-01 -3.333333333333333e-01 -1.666666666666665e-01
-1.666666666666667e-01 -3.333333333333333e-01 -1.666666666666665e-01
-1.666666666666667e-01 -3.333333333333333e-01 -1.666666666666665e-01
1.666666666666667e-01 3.333333333333333e-01 1.666666666666665e-01
-1.666666666666667e-01 -3.333333333333333e-01 -1.666666666666665e-01
-1.666666666666667e-01 -3.333333333333333e-01 -1.666666666666665e-01
-1.666666666666667e-01 -3.333333333333333e-01 -1.666666666666665e-01
-1.666666666666667e-01 -3.333333333333333e-01 -1.666666666666665e-01
-1.666666666666667e-01 -3.333333333333333e-01 -1.666666666666665e-01
-1.666666666666667e-01 -3.333333333333333e-01 -1.666666666666665e-01
-1.666666666666667e-01 -3.333333333333333e-01 -1.666666666666665e-01
-1.666666666666667e-01 -3.333333333333333e-01 -1.666666666666665e-01
-1.666666666666667e-01 -3.333333333333333e-01 -1.666666666666665e-01
-1.666666666666667e-01 -3.333333333333333e-01 -1.666666666666665e-01
-1.666666666666667e-01 -3.333333333333333e-01 -1.666666666666665e-01
-1.666666666666667e-01 -3.333333333333333e-01 -1.666666666666665e-01
-1.666666666666667e-01 -3.333333333333333e-01 -1.666666666666665e-01
-1.666666666666667e-01 -3.333333333333333e-01 -1.666666666666665e-01
-1.666666666666667e-01 -3.333333333333333e-01 -1.666666666666665e-01
-1.666666666666667e-01 -3.333333333333333e-01 -1.666666666666665e-01
-1.666666666666667e-01 -3.333333333333333e-01 -1.666666666666665e-01
-1.666666666666667e-01 -3.333333333333333e-01 -1.666666666666665e-01
-1.666666666666667e-01 -3.333333333333333e-01 -1.666666666666665e-01
-1.666666666666667e-01 -3.333333333333333e-01 -1.666666666666665e-01
-1.666666666666667e-01 -3.333333333333333e-01 -1.666666666666665e-01
-1.666666666666667e-01 -3.333333333333333e-01 -1.666666666666665e-01
-1.666666666666667e-01 -3.333333333333333e-01 -1.666666666666665e-01
-1.666666666666667e-01 -3.333333333333333e-01 -1.666666666666665e-01
-1.666666666666667e-01 -3.333333333333333e-01 -1.666666666666665e-01
-1.666666666666667e-01 -3.333333333333333e-01 -1.666666666666665e-01
-1.666666666666667e-01 -3.333333333333333e-01 -1.666666666666665e-01
-1.666666666666667e-01 -3.333333333333333e-01 -1.666666666666665e-01
-1.666666666666667e-01 -3.333333333333333e-01 -1.666666666666665e-01
-1.666666666666667e-01 -3.333333333333333e-01 -1.666666666666665e-01
-1.666666666666667e-01 -3.333333333333333e-01 -1.666666666666665e-01
-1.666666666666667e-01 -3.333333333333333e-01 -1.666666666666665e-01
-1.666666666666667e-01 -3.333333333333333e-01 -1.666666666666665e-01
-1.666666666666667e-01 -3.333333333333333e-01 -1.666666666666665e-01
-1.666666666666667e-01 -3.333333333333333e-01 -1.666666666666665e-01
-1.666666666666667e-01 -3.333333333333333e-01 -1.666666666666665e-01
-1.666666666666667e-01 -3.333333333333333e-01 -1.666666666666665e-01
-1.666666666666667e-01 -3.333333333333333e-01 -1.666666666666665e-01
-1.666666666666667e-01 -3.333333333333333e-01 -1.666666666666665e-01
-1.666666666666667e-01 -3.333333333333333e-01 -1.666666666666665e-01
-1.666666666666667e-01 -3.333333333333333e-01 -1.666666666666665e-01
-1.666666666666667e-01 -3.333333333333333e-01 -1.666666666666665e-01
-1.666666666666667e-01 -3.333333333333333e-01 -1.666666666666665e-01
-1.666666666666667e-01 -3.333333333333333e-01 -1.666666666666665e-01
-1.666666666666667e-01 -3.333333333333333e-01 -1.666666666666665e-01
-1.666666666666667e-01 -3.333333333333333e-01 -1.666666666666665e-01
-1.666666666666667e-01 -3.333333333333333e-01 -1.666666666666665e-01
-1.666666666666667e-01 -3.333333333333333e-01 -1.666666666666665e-01
-1.666666666666667e-01 -3.333333333333333e-01 -1.666666666666665e-01
-1.666666666666667e-01 -3.333333333333333e-01 -1.666666666666665e-01
-1.666666666666667e-01 -3.333333333333333e-01 -1.666666666666665e-01
-1.666666666666667e-01 -3.333333333333333e-01 -1.666666666666665e-01
-1.666666666666667e-01 -3.333333333333333e-01 -1.666666666666665e-01
-1.666666666666667e-01 -3.333333333333333e-01 -1.666666666666665e-01
-1.666666666666667e-01 -3.333333333333333e-01 -1.666666666666665e-01
-1.666666666666667e-01 -3.333333333333333e-01 -1.666666666666665e-01
-1.666666666666667e-01 -3.333333333333333e-01 -1.666666666666665e-01
-1.666666666666667e-01 -3.333333333333333e-01 -1.666666666666665e-01
-1.666666666666667e-01 -3.333333333333333e-01 -1.666666666666665e-01
-1.666666666666667e-01 -3.333333333333333e-01 -1.666666666666665e-01
-1.666666666666667e-01 -3.333333333333333e-01 -1.666666666666665e-01
-1.666666666666667e-01 -3.333333333333333e-01 -1.666666666666665e-01
-1.666666666666667e-01 -3.333333333333333e-01 -1.666666666666665e-01
-1.666666666666667e-01 -3.333333333333333e-01 -1.666666666666665e-01
-1.666666666666667e-01 -3.333333333333333e-01 -1.666666666666665e-01
-1.666666666666667e-01 -3.333333333333333e-01 -1.666666666666665e-01
-1.666666666666667e-01 -3.333333333333333e-01 -1.666666666666665e-01
-1.666666666666667e-01 -3.333333333333333e-01 -1.666666666666665e-01
-1.666666666666667e-01 -3.333333333333333e-01 -1.666666666666665e-01
-1.666666666666667e-01 -3.333333333333333e-01 -1.666666666666665e-01
-1.666666666666667e-01 -3.333333333333333e-01 -1.666666666666665e-01
-1.666666666666667e-01 -3.333333333333333e-01 -1.666666666666665e-01
-1.666666666666667e-01 -3.333333333333333e-01 -1.666666666666665e-01
-1.666666666666667e-01 -3.333333333333333e-01 -1.666666666666665e-01
-1.666666666666667e-01 -3.333333333333333e-01 -1.666666666666665e-01
-1.666666666666667e-01 -3.333333333333333e-01 -1.666666666666665e-01
-1.666666666666667e-01 -3.333333333333333e-01 -1.666666666666665e-01
-1.666666666666667e-01 -3.333333333333333e-01 -1.666666666666665e-01
-1.666666666666667e-01 -3.333333333333333e-01 -1.666666666666665e-01
-1.666666666666667e-01 -3.333333333333333e-01 -1.666666666666665e-01
-1.666666666666667e-01 -3.333333333333333e-01 -1.666666666666665e-01
-1.666666666666667e-01 -3.333333333333333e-01 -1.666666666666665e-01
-1.666666666666667e-01 -3.333333333333333e-01 -1.666666666666665e-01
-1.666666666666667e-01 -3.333333333333333e-01 -1.666666666666665e-01
-1.666666666666667e-01 -3.333333333333333e-01 -1.666666666666665e-01
-1.666666666666667e-01 -3.333333333333333e-01 -1.666666666666665e-01
-1.666666666666667e-01 -3.333333333333333e-01 -1.666666666666665e-01
-1.666666666666667e-01 -3.333333333333333e-01 -1.666666666666665e-01
-1.666666666666667e-01 -3.333333333333333e-01 -1.666666666666665e-01
-1.666666666666667e-01 -3.333333333333333e-01 -1.666666666666665e-01
-1.666666666666667e-01 -3.333333333333333e-01 -1.666666666666665e-01
-1.666666666666667e-01 -3.333333333333333e-01 -1.666666666666665e-01
-1.666666666666667e-01 -3.333333333333333e-01 -1.666666666666665e-01
-1.666666666666667e-01 -3.333333333333333e-01 -1.666666666666665e-01
-1.666666666666667e-01 -3.333333333333333e-01 -1.666666666666665e-01
-1.666666666666667e-01 -3.333333333333333e-01 -1.666666666666665e-01
-1.666666666666667e-01 -3.333333333333333e-01 -1.666666666666665e-01
-1.666666666666667e-01 -3.333333333333333e-01 -1.666666666666665e-01
-1.666666666666667e-01 -3.333333333333333e-01 -1.666666666666665e-01
-1.666666666666667e-01 -3.333333333333333e-01 -1.666666666666665e-01
-1.666666666666667e-01 -3.333333333333333e-01 -1.666666666666665e-01
-1.666666666666667e-01 -3.333333333333333e-01 -1.666666666666665e-01
-1.666666666666667e-01 -3.333333333333333e-01 -1.666666666666665e-01
-1.666666666666667e-01 -3.333333333333333e-01 -1.666666666666665e-01
-1.666666666666667e-01 -3.333333333333333e-01 -1.666666666666665e-01
-1.666666666666667e-01 -3.333333333333333e-01 -1.666666666666665e-01
-1.666666666666667e-01 -3.333333333333333e-01 -1.666666666666665e-01
-1.666666666666667e-01 -3.333333333333333e-01 -1.666666666666665e-01
-1.666666666666667e-01 -3.333333333333333e-01 -1.666666666666665e-01
-1.666666666666667e-01 -3.333333333333333e-01 -1.666666666666665e-01
-1.666666666666667e-01 -3.333333333333333e-01 -1.666666666666665e-01
-1.666666666666667e-01 -3.333333333333333e-01 -1.666666666666665e-01
-1.666666666666667e-01 -3.333333333333333e-01 -1.666666666666665e-01
-1.666666666666667e-01 -3.333333333333333e-01 -1.666666666666665e-01
-1.666666666666667e-01 -3.333333333333333e-01 -1.666666666666665e-01
-1.666666666666667e-01 -3.333333333333333e-01 -1.666666666666665e-01
-1.666666666666667e-01 -3.333333333333333e-01 -1.666666666666665e-01
-1.666666666666667e-01 -3.333333333333333e-01 -1.666666666666665e-01
-1.666666666666667e-01 -3.333333333333333e-01 -1.666666666666665e-01
-1.666666666666667e-01 -3.333333333333333e-01 -1.666666666666665e-01
-1.666666666666667e-01 -3.333333333333333e-01 -1.666666666666665e-01
-1.666666666666667e-01 -3.333333333333333e-01 -1.666666666666665e-01
-1.666666666666667e-01 -3.333333333333333e-01 -1.666666666666665e-01
-1.666666666666667e-01 -3.333333333333333e-01 -1.666666666666665e-01
-1.666666666666667e-01 -3.333333333333333e-01 -1.666666666666665e-01
-1.666666666666667e-01 -3.333333333333333e-01 -1.666666666666665e-01
-1.666666666666667e-01 -3.333333333333333e-01 -1.666666666666665e-01
-1.666666666666667e-01 -3.333333333333333e-01 -1.666666666666665e-01
-1.666666666666667e-01 -3.333333333333333e-01 -1.666666666666665e-01
-1.666666666666667e-01 -3.333333333333333e-01 -1.666666666666665e-01
-1.666666666666667e-01 -3.333333333333333e-01 -1.666666666666665e-01
-1.666666666666667e-01 -3.333333333333333e-01 -1.666666666666665e-01
-1.666666666666667e-01 -3.333333333333333e-01 -1.666666666666665e-01
-1.666666666666667e-01 -3.333333333333333e-01 -1.666666666666665e-01
-1.666666666666667e-01 -3.333333333333333e-01 -1.666666666666665e-01
-1.666666666666667e-01 -3.333333333333333e-01 -1.666666666666665e-01
-1.666666666666667e-01 -3.333333333333333e-01 -1.666666666666665e-01
-1.666666666666667e-01 -3.333333333333333e-01 -1.666666666666665e-01
-1.666666666666667e-01 -3.333333333333333e-01 -1.666666666666665e-01
-1.666666666666667e-01 -3.333333333333333e-01 -1.666666666666665e-01
-1.666666666666667e-01 -3.333333333333333e-01 -1.666666666666665e-01
-1.666666666666667e-01 -3.333333333333333e-01 -1.666666666666665e-01
-1.666666666666667e-01 -3.333333333333333e-01 -1.666666666666665e-01
-1.666666666666667e-01 -3.333333333333333e-01 -1.666666666666665e-01
-1.666666666666667e-01 -3.333333333333333e-01 -1.666666666666665e-01
-1.666666666666667e-01 -3.333333333333333e-01 -1.666666666666665e-01
-1.666666666666667e-01 -3.333333333333333e-01 -1.666666666666665e-01
-1.666666666666667e-01 -3.333333333333333e-01 -1.666666666666665e-01
-1.666666666666667e-01 -3.333333333333333e-01 -1.666666666666665e-01
-1.666666666666667e-01 -3.333333333333333e-01 -1.666666666666665e-01
-1.666666666666667e-01 -3.333333333333333e-01 -1.666666666666665e-01
-1.666666666666667e-01 -3.333333333333333e-01 -1.666666666666665e-01
-1.666666666666667e-01 -3.333333333333333e-01 -1.666666666666665e-01
-1.666666666666667e-01 -3.333333333333333e-01 -1.666666666666665e-01
-1.666666666666667e-01 -3.333333333333333e-01 -1.666666666666665e-01
-1.666666666666667e-01 -3.333333333333333e-01 -1.666666666666665e-01
-1.666666666666667e-01 -3.333333333333333e-01 -1.666666666666665e-01
-1.666666666666667e-01 -3.333333333333333e-01 -1.666666666666665e-01
-1.666666666666667e-01 -3.333333333333333e-01 -1.666666666666665e-01
-1.666666666666667e-01 -3.333333333333333e-01 -1.666666666666665e-01
-1.666666666666667e-01 -3.333333333333333e-01 -1.666666666666665e-01
-1.666666666666667e-01 -3.333333333333333e-01 -1.666666666666665e-01
-1.666666666666667e-01 -3.333333333333333e-01 -1.666666666666665e-01
-1.666666666666667e-01 -3.333333333333333e-01 -1.666666666666665e-01
-1.666666666666667e-01 -3.333333333333333e-01 -1.666666666666665e-01
-1.666666666666667e-01 -3.333333333333333e-01 -1.666666666666665e-01
-1.666666666666667e-01 -3.333333333333333e-01 -1.666666666666665e-01
-1.666666666666667e-01 -3.333333333333333e-01 -1.666666666666665e-01
-1.666666666666667e-01 -3.333333333333333e-01 -1.666666666666665e-01
-1.666666666666667e-01 -3.333333333333333e-01 -1.666666666666665e-01
-1.666666666666667e-01 -3.333333333333333e-01 -1.666666666666665e-01
-1.666666666666667e-01 -3.333333333333333e-01 -1.666666666666665e-01
-1.666666666666667e-01 -3.333333333333333e-01 -1.666666666666665e-01
-1.666666666666667e-01 -3.333333333333333e-01 -1.666666666666665e-01
-1.666666666666667e-01 -3.333333333333333e-01 -1.666666666666665e-01
1.666666666666667e-01 3.333333333333333e-01 1.666666666666665e-01
-1.666666666666667e-01 -3.333333333333333e-01 -1.666666666666665e-01
1.666666666666667e-01 3.333333333333333e-01 1.666666666666665e-01
1.666666666666667e-01 3.333333333333333e-01 1.666666666666665e-01
1.666666666666667e-01 3.333333333333333e-01 1.666666666666665e-01
1.666666666666667e-01 3.333333333333333e-01 1.666666666666665e-01
1.666666666666667e-01 3.333333333333333e-01 1.666666666666665e-01
1.666666666666667e-01 3.333333333333333e-01 1.666666666666665e-01
1.666666666666667e-01 3.333333333333333e-01 1.666666666666665e-01
1.666666666666667e-01 3.333333333333333e-01 1.666666666666665e-01
1.666666666666667e-01 3.333333333333333e-01 1.666666666666665e-01
1.666666666666667e-01 3.333333333333333e-01 1.666666666666665e-01
1.666666666666667e-01 3.333333333333333e-01 1.666666666666665e-01
1.666666666666667e-01 3.333333333333333e-01 1.666666666666665e-01
1.666666666666667e-01 3.333333333333333e-01 1.666666666666665e-01
1.666666666666667e-01 3.333333333333333e-01 1.666666666666665e-01
1.666666666666667e-01 3.333333333333333e-01 1.666666666666665e-01
1.666666666666667e-01 3.333333333333333e-01 1.666666666666665e-01
1.666666666666667e-01 3.333333333333333e-01 1.666666666666665e-01
1.666666666666667e-01 3.333333333333333e-01 1.666666666666665e-01
1.666666666666667e-01 3.333333333333333e-01 1.666666666666665e-01
1.666666666666667e-01 3.333333333333333e-01 1.666666666666665e-01
1.666666666666667e-01 3.333333333333333e-01 1.666666666666665e-01
1.666666666666667e-01 3.333333333333333e-01 1.666666666666665e-01
1.666666666666667e-01 3.333333333333333e-01 1.666666666666665e-01
1.666666666666667e-01 3.333333333333333e-01 1.666666666666665e-01
1.666666666666667e-01 3.333333333333333e-01 1.666666666666665e-01
1.666666666666667e-01 3.333333333333333e-01 1.666666666666665e-01
1.666666666666667e-01 3.333333333333333e-01 1.666666666666665e-01
1.666666666666667e-01 3.333333333333333e-01 1.666666666666665e-01
1.666666666666667e-01 3.333333333333333e-01 1.666666666666665e-01
1.666666666666667e-01 3.333333333333333e-01 1.666666666666665e-01
1.666666666666667e-01 3.333333333333333e-01 1.666666666666665e-01
1.666666666666667e-01 3.333333333333333e-01 1.666666666666665e-01
1.666666666666667e-01 3.333333333333333e-01 1.666666666666665e-01
1.666666666666667e-01 3.333333333333333e-01 1.666666666666665e-01
1.666666666666667e-01 3.333333333333333e-01 1.666666666666665e-01
1.666666666666667e-01 3.333333333333333e-01 1.666666666666665e-01
1.666666666666667e-01 3.333333333333333e-01 1.666666666666665e-01
1.666666666666667e-01 3.333333333333333e-01 1.666666666666665e-01
1.666666666666667e-01 3.333333333333333e-01 1.666666666666665e-01
1.666666666666667e-01 3.333333333333333e-01 1.666666666666665e-01
1.666666666666667e-01 3.333333333333333e-01 1.666666666666665e-01
1.666666666666667e-01 3.333333333333333e-01 1.666666666666665e-01
1.666666666666667e-01 3.333333333333333e-01 1.666666666666665e-01
1.666666666666667e-01 3.333333333333333e-01 1.666666666666665e-01
1.666666666666667e-01 3.333333333333333e-01 1.666666666666665e-01
1.666666666666667e-01 3.333333333333333e-01 1.666666666666665e-01
1.666666666666667e-01 3.333333333333333e-01 1.666666666666665e-01
1.666666666666667e-01 3.333333333333333e-01 1.666666666666665e-01
1.666666666666667e-01 3.333333333333333e-01 1.666666666666665e-01
1.666666666666667e-01 3.333333333333333e-01 1.666666666666665e-01
1.666666666666667e-01 3.333333333333333e-01 1.666666666666665e-01
1.666666666666667e-01 3.333333333333333e-01 1.666666666666665e-01
1.666666666666667e-01 3.333333333333333e-01 1.666666666666665e-01
1.666666666666667e-01 3.333333333333333e-01 1.666666666666665e-01
1.666666666666667e-01 3.333333333333333e-01 1.666666666666665e-01
1.666666666666667e-01 3.333333333333333e-01 1.666666666666665e-01
1.666666666666667e-01 3.333333333333333e-01 1.666666666666665e-01
1.666666666666667e-01 3.333333333333333e-01 1.666666666666665e-01
1.666666666666667e-01 3.333333333333333e-01 1.666666666666665e-01
1.666666666666667e-01 3.333333333333333e-01 1.666666666666665e-01
1.666666666666667e-01 3.333333333333333e-01 1.666666666666665e-01
1.666666666666667e-01 3.333333333333333e-01 1.666666666666665e-01
1.666666666666667e-01 3.333333333333333e-01 1.666666666666665e-01
1.666666666666667e-01 3.333333333333333e-01 1.666666666666665e-01
1.666666666666667e-01 3.333333333333333e-01 1.666666666666665e-01
1.666666666666667e-01 3.333333333333333e-01 1.666666666666665e-01
1.666666666666667e-01 3.333333333333333e-01 1.666666666666665e-01
1.666666666666667e-01 3.333333333333333e-01 1.666666666666665e-01
1.666666666666667e-01 3.333333333333333e-01 1.666666666666665e-01
1.666666666666667e-01 3.333333333333333e-01 1.666666666666665e-01
1.666666666666667e-01 3.333333333333333e-01 1.666666666666665e-01
1.666666666666667e-01 3.333333333333333e-01 1.666666666666665e-01
1.666666666666667e-01 3.333333333333333e-01 1.666666666666665e-01
1.666666666666667e-01 3.333333333333333e-01 1.666666666666665e-01
1.666666666666667e-01 3.333333333333333e-01 1.666666666666665e-01
1.666666666666667e-01 3.333333333333333e-01 1.666666666666665e-01
1.666666666666667e-01 3.333333333333333e-01 1.666666666666665e-01
1.666666666666667e-01 3.333333333333333e-01 1.666666666666665e-01
1.666666666666667e-01 3.333333333333333e-01 1.666666666666665e-01
1.666666666666667e-01 3.333333333333333e-01 1.666666666666665e-01
1.666666666666667e-01 3.333333333333333e-01 1.666666666666665e-01
1.666666666666667e-01 3.333333333333333e-01 1.666666666666665e-01
1.666666666666667e-01 3.333333333333333e-01 1.666666666666665e-01
1.666666666666667e-01 3.333333333333333e-01 1.666666666666665e-01
1.666666666666667e-01 3.333333333333333e-01 1.666666666666665e-01
1.666666666666667e-01 3.333333333333333e-01 1.666666666666665e-01
1.666666666666667e-01 3.333333333333333e-01 1.666666666666665e-01
1.666666666666667e-01 3.333333333333333e-01 1.666666666666665e-01
1.666666666666667e-01 3.333333333333333e-01 1.666666666666665e-01
1.666666666666667e-01 3.333333333333333e-01 1.666666666666665e-01
1.666666666666667e-01 3.333333333333333e-01 1.666666666666665e-01
1.666666666666667e-01 3.333333333333333e-01 1.666666666666665e-01
1.666666666666667e-01 3.333333333333333e-01 1.666666666666665e-01
1.666666666666667e-01 3.333333333333333e-01 1.666666666666665e-01
1.666666666666667e-01 3.333333333333333e-01 1.666666666666665e-01
1.666666666666667e-01 3.333333333333333e-01 1.666666666666665e-01
1.666666666666667e-01 3.333333333333333e-01 1.666666666666665e-01
1.666666666666667e-01 3.333333333333333e-01 1.666666666666665e-01
1.666666666666667e-01 3.333333333333333e-01 1.666666666666665e-01
1.666666666666667e-01 3.333333333333333e-01 1.666666666666665e-01
1.666666666666667e-01 3.333333333333333e-01 1.666666666666665e-01
1.666666666666667e-01 3.333333333333333e-01 1.666666666666665e-01
1.666666666666667e-01 3.333333333333333e-01 1.666666666666665e-01
1.666666666666667e-01 3.333333333333333e-01 1.666666666666665e-01
1.666666666666667e-01 3.333333333333333e-01 1.666666666666665e-01
1.666666666666667e-01 3.333333333333333e-01 1.666666666666665e-01
1.666666666666667e-01 3.333333333333333e-01 1.666666666666665e-01
1.666666666666667e-01 3.333333333333333e-01 1.666666666666665e-01
1.666666666666667e-01 3.333333333333333e-01 1.666666666666665e-01
1.666666666666667e-01 3.333333333333333e-01 1.666666666666665e-01
1.666666666666667e-01 3.333333333333333e-01 1.666666666666665e-01
1.666666666666667e-01 3.333333333333333e-01 1.666666666666665e-01
1.666666666666667e-01 3.333333333333333e-01 1.666666666666665e-01
1.666666666666667e-01 3.333333333333333e-01 1.666666666666665e-01
1.666666666666667e-01 3.333333333333333e-01 1.666666666666665e-01
1.666666666666667e-01 3.333333333333333e-01 1.666666666666665e-01
1.666666666666667e-01 3.333333333333333e-01 1.666666666666665e-01
1.666666666666667e-01 3.333333333333333e-01 1.666666666666665e-01
1.666666666666667e-01 3.333333333333333e-01 1.666666666666665e-01
1.666666666666667e-01 3.333333333333333e-01 1.666666666666665e-01
1.666666666666667e-01 3.333333333333333e-01 1.666666666666665e-01
1.666666666666667e-01 3.333333333333333e-01 1.666666666666665e-01
1.666666666666667e-01 3.333333333333333e-01 1.666666666666665e-01
1.666666666666667e-01 3.333333333333333e-01 1.666666666666665e-01
1.666666666666667e-01 3.333333333333333e-01 1.666666666666665e-01
1.666666666666667e-01 3.333333333333333e-01 1.666666666666665e-01
1.666666666666667e-01 3.333333333333333e-01 1.666666666666665e-01
1.666666666666667e-01 3.333333333333333e-01 1.666666666666665e-01
1.666666666666667e-01 3.333333333333333e-01 1.666666666666665e-01
1.666666666666667e-01 3.333333333333333e-01 1.666666666666665e-01
1.666666666666667e-01 3.333333333333333e-01 1.666666666666665e-01
1.666666666666667e-01 3.333333333333333e-01 1.666666666666665e-01
1.666666666666667e-01 3.333333333333333e-01 1.666666666666665e-01
1.666666666666667e-01 3.333333333333333e-01 1.666666666666665e-01
1.666666666666667e-01 3.333333333333333e-01 1.666666666666665e-01
1.666666666666667e-01 3.333333333333333e-01 1.666666666666665e-01
1.666666666666667e-01 3.333333333333333e-01 1.666666666666665e-01
1.666666666666667e-01 3.333333333333333e-01 1.666666666666665e-01
1.666666666666667e-01 3.333333333333333e-01 1.666666666666665e-01
1.666666666666667e-01 3.333333333333333e-01 1.666666666666665e-01
1.666666666666667e-01 3.333333333333333e-01 1.666666666666665e-01
1.666666666666667e-01 3.333333333333333e-01 1.666666666666665e-01
1.666666666666667e-01 3.333333333333333e-01 1.666666666666665e-01
1.666666666666667e-01 3.333333333333333e-01 1.666666666666665e-01
1.666666666666667e-01 3.333333333333333e-01 1.666666666666665e-01
1.666666666666667e-01 3.333333333333333e-01 1.666666666666665e-01
1.666666666666667e-01 3.333333333333333e-01 1.666666666666665e-01
1.666666666666667e-01 3.333333333333333e-01 1.666666666666665e-01
1.666666666666667e-01 3.333333333333333e-01 1.666666666666665e-01
1.666666666666667e-01 3.333333333333333e-01 1.666666666666665e-01
1.666666666666667e-01 3.333333333333333e-01 1.666666666666665e-01
1.666666666666667e-01 3.333333333333333e-01 1.666666666666665e-01
1.666666666666667e-01 3.333333333333333e-01 1.666666666666665e-01
1.666666666666667e-01 3.333333333333333e-01 1.666666666666665e-01
1.666666666666667e-01 3.333333333333333e-01 1.666666666666665e-01
1.666666666666667e-01 3.333333333333333e-01 1.666666666666665e-01
1.666666666666667e-01 3.333333333333333e-01 1.666666666666665e-01
1.666666666666667e-01 3.333333333333333e-01 1.666666666666665e-01
1.666666666666667e-01 3.333333333333333e-01 1.666666666666665e-01
1.666666666666667e-01 3.333333333333333e-01 1.666666666666665e-01
1.666666666666667e-01 3.333333333333333e-01 1.666666666666665e-01
1.666666666666667e-01 3.333333333333333e-01 1.666666666666665e-01
1.666666666666667e-01 3.333333333333333e-01 1.666666666666665e-01
1.666666666666667e-01 3.333333333333333e-01 1.666666666666665e-01
-1.666666666666667e-01 -3.333333333333333e-01 -1.666666666666665e-01
1.666666666666667e-01 3.333333333333333e-01 1.666666666666665e-01
1.666666666666667e-01 3.333333333333333e-01 1.666666666666665e-01
1.666666666666667e-01 3.333333333333333e-01 1.666666666666665e-01
1.666666666666667e-01 3.333333333333333e-01 1.666666666666665e-01
1.666666666666667e-01 3.333333333333333e-01 1.666666666666665e-01
1.666666666666667e-01 3.333333333333333e-01 1.666666666666665e-01
1.666666666666667e-01 3.333333333333333e-01 1.666666666666665e-01
1.666666666666667e-01 3.333333333333333e-01 1.666666666666665e-01
1.666666666666667e-01 3.333333333333333e-01 1.666666666666665e-01
1.666666666666667e-01 3.333333333333333e-01 1.666666666666665e-01
1.666666666666667e-01 3.333333333333333e-01 1.666666666666665e-01
1.666666666666667e-01 3.333333333333333e-01 1.666666666666665e-01
1.666666666666667e-01 3.333333333333333e-01 1.666666666666665e-01
1.666666666666667e-01 3.333333333333333e-01 1.666666666666665e-01
1.666666666666667e-01 3.333333333333333e-01 1.666666666666665e-01
1.666666666666667e-01 3.333333333333333e-01 1.666666666666665e-01
1.666666666666667e-01 3.333333333333333e-01 1.666666666666665e-01
1.666666666666667e-01 3.333333333333333e-01 1.666666666666665e-01
1.666666666666667e-01 3.333333333333333e-01 1.666666666666665e-01
1.666666666666667e-01 3.333333333333333e-01 1.666666666666665e-01
1.666666666666667e-01 3.333333333333333e-01 1.666666666666665e-01
1.666666666666667e-01 3.333333333333333e-01 1.666666666666665e-01
1.666666666666667e-01 3.333333333333333e-01 1.666666666666665e-01
1.666666666666667e-01 3.333333333333333e-01 1.666666666666665e-01
1.666666666666667e-01 3.333333333333333e-01 1.666666666666665e-01
1.666666666666667e-01 3.333333333333333e-01 1.666666666666665e-01
1.666666666666667e-01 3.333333333333333e-01 1.666666666666665e-01
1.666666666666667e-01 3.333333333333333e-01 1.666666666666665e-01
1.666666666666667e-01 3.333333333333333e-01 1.666666666666665e-01
1.666666666666667e-01 3.333333333333333e-01 1.666666666666665e-01
1.666666666666667e-01 3.333333333333333e-01 1.666666666666665e-01
1.666666666666667e-01 3.333333333333333e-01 1.666666666666665e-01
1.666666666666667e-01 3.333333333333333e-01 1.666666666666665e-01
1.666666666666667e-01 3.333333333333333e-01 1.666666666666665e-01
1.666666666666667e-01 3.333333333333333e-01 1.666666666666665e-01
1.666666666666667e-01 3.333333333333333e-01 1.666666666666665e-01
1.666666666666667e-01 3.333333333333333e-01 1.666666666666665e-01
1.666666666666667e-01 3.333333333333333e-01 1.666666666666665e-01
1.666666666666667e-01 3.333333333333333e-01 1.666666666666665e-01
1.666666666666667e-01 3.333333333333333e-01 1.666666666666665e-01
1.666666666666667e-01 3.333333333333333e-01 1.666666666666665e-01
1.666666666666667e-01 3.333333333333333e-01 1.666666666666665e-01
1.666666666666667e-01 3.333333333333333e-01 1.666666666666665e-01
1.666666666666667e-01 3.333333333333333e-01 1.666666666666665e-01
1.666666666666667e-01 3.333333333333333e-01 1.666666666666665e-01
1.666666666666667e-01 3.333333333333333e-01 1.666666666666665e-01
1.666666666666667e-01 3.333333333333333e-01 1.666666666666665e-01
1.666666666666667e-01 3.333333333333333e-01 1.666666666666665e-01
1.666666666666667e-01 3.333333333333333e-01 1.666666666666665e-01
1.666666666666667e-01 3.333333333333333e-01 1.666666666666665e-01
1.666666666666667e-01 3.333333333333333e-01 1.666666666666665e-01
1.666666666666667e-01 3.333333333333333e-01 1.666666666666665e-01
1.666666666666667e-01 3.333333333333333e-01 1.666666666666665e-01
1.666666666666667e-01 3.333333333333333e-01 1.666666666666665e-01
1.666666666666667e-01 3.333333333333333e-01 1.666666666666665e-01
1.666666666666667e-01 3.333333333333333e-01 1.666666666666665e-01
1.666666666666667e-01 3.333333333333333e-01 1.666666666666665e-01
1.666666666666667e-01 3.333333333333333e-01 1.666666666666665e-01
1.666666666666667e-01 3.333333333333333e-01 1.666666666666665e-01
1.666666666666667e-01 3.333333333333333e-01 1.666666666666665e-01
1.666666666666667e-01 3.333333333333333e-01 1.666666666666665e-01
1.666666666666667e-01 3.333333333333333e-01 1.666666666666665e-01
1.666666666666667e-01 3.333333333333333e-01 1.666666666666665e-01
1.666666666666667e-01 3.333333333333333e-01 1.666666666666665e-01
1.666666666666667e-01 3.333333333333333e-01 1.666666666666665e-01
1.666666666666667e-01 3.333333333333333e-01 1.666666666666665e-01
1.666666666666667e-01 3.333333333333333e-01 1.666666666666665e-01
1.666666666666667e-01 3.333333333333333e-01 1.666666666666665e-01
1.666666666666667e-01 3.333333333333333e-01 1.666666666666665e-01
1.666666666666667e-01 3.333333333333333e-01 1.666666666666665e-01
1.666666666666667e-01 3.333333333333333e-01 1.666666666666665e-01
1.666666666666667e-01 3.333333333333333e-01 1.666666666666665e-01
1.666666666666667e-01 3.333333333333333e-01 1.666666666666665e-01
1.666666666666667e-01 3.333333333333333e-01 1.666666666666665e-01
1.666666666666667e-01 3.333333333333333e-01 1.666666666666665e-01
1.666666666666667e-01 3.333333333333333e-01 1.666666666666665e-01
1.666666666666667e-01 3.333333333333333e-01 1.666666666666665e-01
1.666666666666667e-01 3.333333333333333e-01 1.666666666666665e-01
1.666666666666667e-01 3.333333333333333e-01 1.666666666666665e-01
1.666666666666667e-01 3.333333333333333e-01 1.666666666666665e-01
1.666666666666667e-01 3.333333333333333e-01 1.666666666666665e-01
1.666666666666667e-01 3.333333333333333e-01 1.666666666666665e-01
1.666666666666667e-01 3.333333333333333e-01 1.666666666666665e-01
1.666666666666667e-01 3.333333333333333e-01 1.666666666666665e-01
1.666666666666667e-01 3.333333333333333e-01 1.666666666666665e-01
1.666666666666667e-01 3.333333333333333e-01 1.666666666666665e-01
1.666666666666667e-01 3.333333333333333e-01 1.666666666666665e-01
1.666666666666667e-01 3.333333333333333e-01 1.666666666666665e-01
1.666666666666667e-01 3.333333333333333e-01 1.666666666666665e-01
1.666666666666667e-01 3.333333333333333e-01 1.666666666666665e-01
1.666666666666667e-01 3.333333333333333e-01 1.666666666666665e-01
1.666666666666667e-01 3.333333333333333e-01 1.666666666666665e-01
1.666666666666667e-01 3.333333333333333e-01 1.666666666666665e-01
1.666666666666667e-01 3.333333333333333e-01 1.666666666666665e-01
1.666666666666667e-01 3.333333333333333e-01 1.666666666666665e-01
1.666666666666667e-01 3.333333333333333e-01 1.666666666666665e-01
1.666666666666667e-01 3.333333333333333e-01 1.666666666666665e-01
1.666666666666667e-01 3.333333333333333e-01 1.666666666666665e-01
1.666666666666667e-01 3.333333333333333e-01 1.666666666666665e-01
1.666666666666667e-01 3.333333333333333e-01 1.666666666666665e-01
1.666666666666667e-01 3.333333333333333e-01 1.666666666666665e-01
1.666666666666667e-01 3.333333333333333e-01 1.666666666666665e-01
1.666666666666667e-01 3.333333333333333e-01 1.666666666666665e-01
1.666666666666667e-01 3.333333333333333e-01 1.666666666666665e-01
1.666666666666667e-01 3.333333333333333e-01 1.666666666666665e-01
1.666666666666667e-01 3.333333333333333e-01 1.666666666666665e-01
1.666666666666667e-01 3.333333333333333e-01 1.666666666666665e-01
1.666666666666667e-01 3.333333333333333e-01 1.666666666666665e-01
1.666666666666667e-01 3.333333333333333e-01 1.666666666666665e-01
1.666666666666667e-01 3.333333333333333e-01 1.666666666666665e-01
1.666666666666667e-01 3.333333333333333e-01 1.666666666666665e-01
1.666666666666667e-01 3.333333333333333e-01 1.666666666666665e-01
1.666666666666667e-01 3.333333333333333e-01 1.666666666666665e-01
1.666666666666667e-01 3.333333333333333e-01 1.666666666666665e-01
1.666666666666667e-01 3.333333333333333e-01 1.666666666666665e-01
1.666666666666667e-01 3.333333333333333e-01 1.666666666666665e-01
1.666666666666667e-01 3.333333333333333e-01 1.666666666666665e-01
1.666666666666667e-01 3.333333333333333e-01 1.666666666666665e-01
1.666666666666667e-01 3.333333333333333e-01 1.666666666666665e-01
1.666666666666667e-01 3.333333333333333e-01 1.666666666666665e-01
1.666666666666667e-01 3.333333333333333e-01 1.666666666666665e-01
1.666666666666667e-01 3.333333333333333e-01 1.666666666666665e-01
1.666666666666667e-01 3.333333333333333e-01 1.666666666666665e-01
1.666666666666667e-01 3.333333333333333e-01 1.666666666666665e-01
1.666666666666667e-01 3.333333333333333e-01 1.666666666666665e-01
1.666666666666667e-01 3.333333333333333e-01 1.666666666666665e-01
1.666666666666667e-01 3.333333333333333e-01 1.666666666666665e-01
1.666666666666667e-01 3.333333333333333e-01 1.666666666666665e-01
1.666666666666667e-01 3.333333333333333e-01 1.666666666666665e-01
1.666666666666667e-01 3.333333333333333e-01 1.666666666666665e-01
1.666666666666667e-01 3.333333333333333e-01 1.666666666666665e-01
1.666666666666667e-01 3.333333333333333e-01 1.666666666666665e-01
1.666666666666667e-01 3.333333333333333e-01 1.666666666666665e-01
1.666666666666667e-01 3.333333333333333e-01 1.666666666666665e-01
1.666666666666667e-01 3.333333333333333e-01 1.666666666666665e-01
1.666666666666667e-01 3.333333333333333e-01 1.666666666666665e-01
1.666666666666667e-01 3.333333333333333e-01 1.666666666666665e-01
1.666666666666667e-01 3.333333333333333e-01 1.666666666666665e-01
1.666666666666667e-01 3.333333333333333e-01 1.666666666666665e-01
1.666666666666667e-01 3.333333333333333e-01 1.666666666666665e-01
1.666666666666667e-01 3.333333333333333e-01 1.666666666666665e-01
1.666666666666667e-01 3.333333333333333e-01 1.666666666666665e-01
1.666666666666667e-01 3.333333333333333e-01 1.666666666666665e-01
1.666666666666667e-01 3.333333333333333e-01 1.666666666666665e-01
1.666666666666667e-01 3.333333333333333e-01 1.666666666666665e-01
1.666666666666667e-01 3.333333333333333e-01 1.666666666666665e-01
1.666666666666667e-01 3.333333333333333e-01 1.666666666666665e-01
1.666666666666667e-01 3.333333333333333e-01 1.666666666666665e-01
1.666666666666667e-01 3.333333333333333e-01 1.666666666666665e-01
1.666666666666667e-01 3.333333333333333e-01 1.666666666666665e-01
1.666666666666667e-01 3.333333333333333e-01 1.666666666666665e-01
1.666666666666667e-01 3.333333333333333e-01 1.666666666666665e-01
1.666666666666667e-01 3.333333333333333e-01 1.666666666666665e-01
1.666666666666667e-01 3.333333333333333e-01 1.666666666666665e-01
1.666666666666667e-01 3.333333333333333e-01 1.666666666666665e-01
1.666666666666667e-01 3.333333333333333e-01 1.666666666666665e-01
1.666666666666667e-01 3.333333333333333e-01 1.666666666666665e-01
1.666666666666667e-01 3.333333333333333e-01 1.666666666666665e-01
1.666666666666667e-01 3.333333333333333e-01 1.666666666666665e-01
1.666666666666667e-01 3.333333333333333e-01 1.666666666666665e-01
1.666666666666667e-01 3.333333333333333e-01 1.666666666666665e-01
1.666666666666667e-01 3.333333333333333e-01 1.666666666666665e-01
1.666666666666667e-01 3.333333333333333e-01 1.666666666666665e-01
1.666666666666667e-01 3.333333333333333e-01 1.666666666666665e-01
 1.666666666666667e-01 -1.666666666666665e-01 -3.333333333333333e-01
-1.666666666666667e-01  1.666666666666665e-01  3.333333333333333e-01
 1.666666666666667e-01 -1.666666666666665e-01 -3.333333333333333e-01
 1.666666666666667e-01 -1.666666666666665e-01 -3.333333333333333e-01
 1.666666666666667e-01 -1.666666666666665e-01 -3.333333333333333e-01
 1.666666666666667e-01 -1.666666666666665e-01 -3.333333333333333e-01
 1.666666666666667e-01 -1.666666666666665e-01 -3.333333333333333e-01
 1.666666666666667e-01 -1.666666666666665e-01 -3.333333333333333e-01
 1.666666666666667e-01 -1.666666666666665e-01 -3.333333333333333e-01
 1.666666666666667e-01 -1.666666666666665e-01 -3.333333333333333e-01
 1.666666666666667e-01 -1.666666666666665e-01 -3.333333333333333e-01
 1.666666666666667e-01 -1.666666666666665e-01 -3.333333333333333e-01
 1.666666666666667e-01 -1.666666666666665e-01 -3.333333333333333e-01
 1.666666666666667e-01 -1.666666666666665e-01 -3.333333333333333e-01
 1.666666666666667e-01 -1.666666666666665e-01 -3.333333333333333e-01
 1.666666666666667e-01 -1.666666666666665e-01 -3.333333333333333e-01
 1.666666666666667e-01 -1.666666666666665e-01 -3.333333333333333e-01
 1.666666666666667e-01 -1.666666666666665e-01 -3.333333333333333e-01
 1.666666666666667e-01 -1.666666666666665e-01 -3.333333333333333e-01
 1.666666666666667e-01 -1.666666666666665e-01 -3.333333333333333e-01
 1.666666666666667e-01 -1.666666666666665e-01 -3.333333333333333e-01
 1.666666666666667e-01 -1.666666666666665e-01 -3.333333333333333e-01
 1.666666666666667e-01 -1.666666666666665e-01 -3.333333333333333e-01
 1.666666666666667e-01 -1.666666666666665e-01 -3.333333333333333e-01
 1.666666666666667e-01 -1.666666666666665e-01 -3.333333333333333e-01
 1.666666666666667e-01 -1.666666666666665e-01 -3.333333333333333e-01
 1.666666666666667e-01 -1.666666666666665e-01 -3.333333333333333e-01
 1.666666666666667e-01 -1.666666666666665e-01 -3.333333333333333e-01
 1.666666666666667e-01 -1.666666666666665e-01 -3.333333333333333e-01
 1.666666666666667e-01 -1.666666666666665e-01 -3.333333333333333e-01
 1.666666666666667e-01 -1.666666666666665e-01 -3.333333333333333e-01
 1.666666666666667e-01 -1.666666666666665e-01 -3.333333333333333e-01
 1.666666666666667e-01 -1.666666666666665e-01 -3.333333333333333e-01
 1.666666666666667e-01 -1.666666666666665e-01 -3.333333333333333e-01
 1.666666666666667e-01 -1.666666666666665e-01 -3.333333333333333e-01
 1.666666666666667e-01 -1.666666666666665e-01 -3.333333333333333e-01
 1.666666666666667e-01 -1.666666666666665e-01 -3.333333333333333e-01
 1.666666666666667e-01 -1.666666666666665e-01 -3.333333333333333e-01
 1.666666666666667e-01 -1.666666666666665e-01 -3.333333333333333e-01
 1.666666666666667e-01 -1.666666666666665e-01 -3.333333333333333e-01
 1.666666666666667e-01 -1.666666666666665e-01 -3.333333333333333e-01
 1.666666666666667e-01 -1.666666666666665e-01 -3.333333333333333e-01
 1.666666666666667e-01 -1.666666666666665e-01 -3.333333333333333e-01
 1.666666666666667e-01 -1.666666666666665e-01 -3.333333333333333e-01
 1.666666666666667e-01 -1.666666666666665e-01 -3.333333333333333e-01
 1.666666666666667e-01 -1.666666666666665e-01 -3.333333333333333e-01
 1.666666666666667e-01 -1.666666666666665e-01 -3.333333333333333e-01
 1.666666666666667e-01 -1.666666666666665e-01 -3.333333333333333e-01
 1.666666666666667e-01 -1.666666666666665e-01 -3.333333333333333e-01
 1.666666666666667e-01 -1.666666666666665e-01 -3.333333333333333e-01
 1.666666666666667e-01 -1.666666666666665e-01 -3.333333333333333e-01
 1.666666666666667e-01 -1.666666666666665e-01 -3.333333333333333e-01
 1.666666666666667e-01 -1.666666666666665e-01 -3.333333333333333e-01
 1.666666666666667e-01 -1.666666666666665e-01 -3.333333333333333e-01
 1.666666666666667e-01 -1.666666666666665e-01 -3.333333333333333e-01
 1.666666666666667e-01 -1.666666666666665e-01 -3.333333333333333e-01
 1.666666666666667e-01 -1.666666666666665e-01 -3.333333333333333e-01
 1.666666666666667e-01 -1.666666666666665e-01 -3.333333333333333e-01
 1.666666666666667e-01 -1.666666666666665e-01 -3.333333333333333e-01
 1.666666666666667e-01 -1.666666666666665e-01 -3.333333333333333e-01
 1.666666666666667e-01 -1.666666666666665e-01 -3.333333333333333e-01
 1.666666666666667e-01 -1.666666666666665e-01 -3.333333333333333e-01
 1.666666666666667e-01 -1.666666666666665e-01 -3.333333333333333e-01
 1.666666666666667e-01 -1.666666666666665e-01 -3.333333333333333e-01
 1.666666666666667e-01 -1.666666666666665e-01 -3.333333333333333e-01
 1.666666666666667e-01 -1.666666666666665e-01 -3.333333333333333e-01
 1.666666666666667e-01 -1.666666666666665e-01 -3.333333333333333e-01
 1.666666666666667e-01 -1.666666666666665e-01 -3.333333333333333e-01
 1.666666666666667e-01 -1.666666666666665e-01 -3.333333333333333e-01
 1.666666666666667e-01 -1.666666666666665e-01 -3.333333333333333e-01
 1.666666666666667e-01 -1.666666666666665e-01 -3.333333333333333e-01
 1.666666666666667e-01 -1.666666666666665e-01 -3.333333333333333e-01
 1.666666666666667e-01 -1.666666666666665e-01 -3.333333333333333e-01
 1.666666666666667e-01 -1.666666666666665e-01 -3.333333333333333e-01
 1.666666666666667e-01 -1.666666666666665e-01 -3.333333333333333e-01
 1.666666666666667e-01 -1.666666666666665e-01 -3.333333333333333e-01
 1.666666666666667e-01 -1.666666666666665e-01 -3.333333333333333e-01
 1.666666666666667e-01 -1.666666666666665e-01 -3.333333333333333e-01
 1.666666666666667e-01 -1.666666666666665e-01 -3.333333333333333e-01
 1.666666666666667e-01 -1.666666666666665e-01 -3.333333333333333e-01
 1.666666666666667e-01 -1.666666666666665e-01 -3.333333333333333e-01
 1.666666666666667e-01 -1.666666666666665e-01 -3.333333333333333e-01
 1.666666666666667e-01 -1.666666666666665e-01 -3.333333333333333e-01
 1.666666666666667e-01 -1.666666666666665e-01 -3.333333333333333e-01
 1.666666666666667e-01 -1.666666666666665e-01 -3.333333333333333e-01
 1.666666666666667e-01 -1.666666666666665e-01 -3.333333333333333e-01
 1.666666666666667e-01 -1.666666666666665e-01 -3.333333333333333e-01
 1.666666666666667e-01 -1.666666666666665e-01 -3.333333333333333e-01
 1.666666666666667e-01 -1.666666666666665e-01 -3.333333333333333e-01
 1.666666666666667e-01 -1.666666666666665e-01 -3.333333333333333e-01
 1.666666666666667e-01 -1.666666666666665e-01 -3.333333333333333e-01
 1.666666666666667e-01 -1.666666666666665e-01 -3.333333333333333e-01
 1.666666666666667e-01 -1.666666666666665e-01 -3.333333333333333e-01
 1.666666666666667e-01 -1.666666666666665e-01 -3.333333333333333e-01
 1.666666666666667e-01 -1.666666666666665e-01 -3.333333333333333e-01
 1.666666666666667e-01 -1.666666666666665e-01 -3.333333333333333e-01
 1.666666666666667e-01 -1.666666666666665e-01 -3.333333333333333e-01
 1.666666666666667e-01 -1.666666666666665e-01 -3.333333333333333e-01
 1.666666666666667e-01 -1.666666666666665e-01 -3.333333333333333e-01
 1.666666666666667e-01 -1.666666666666665e-01 -3.333333333333333e-01
 1.666666666666667e-01 -1.666666666666665e-01 -3.333333333333333e-01
 1.666666666666667e-01 -1.666666666666665e-01 -3.333333333333333e-01
 1.666666666666667e-01 -1.666666666666665e-01 -3.333333333333333e-01
 1.666666666666667e-01 -1.666666666666665e-01 -3.333333333333333e-01
 1.666666666666667e-01 -1.666666666666665e-01 -3.333333333333333e-01
 1.666666666666667e-01 -1.666666666666665e-01 -3.333333333333333e-01
 1.666666666666667e-01 -1.666666666666665e-01 -3.333333333333333e-01
 1.666666666666667e-01 -1.666666666666665e-01 -3.333333333333333e-01
 1.666666666666667e-01 -1.666666666666665e-01 -3.333333333333333e-01
 1.666666666666667e-01 -1.666666666666665e-01 -3.333333333333333e-01
 1.666666666666667e-01 -1.666666666666665e-01 -3.333333333333333e-01
 1.666666666666667e-01 -1.666666666666665e-01 -3.333333333333333e-01
 1.666666666666667e-01 -1.666666666666665e-01 -3.333333333333333e-01
 1.666666666666667e-01 -1.666666666666665e-01 -3.333333333333333e-01
 1.666666666666667e-01 -1.666666666666665e-01 -3.333333333333333e-01
 1.666666666666667e-01 -1.666666666666665e-01 -3.333333333333333e-01
 1.666666666666667e-01 -1.666666666666665e-01 -3.333333333333333e-01
 1.666666666666667e-01 -1.666666666666665e-01 -3.333333333333333e-01
 1.666666666666667e-01 -1.666666666666665e-01 -3.333333333333333e-01
 1.666666666666667e-01 -1.666666666666665e-01 -3.333333333333333e-01
 1.666666666666667e-01 -1.666666666666665e-01 -3.333333333333333e-01
 1.666666666666667e-01 -1.666666666666665e-01 -3.333333333333333e-01
 1.666666666666667e-01 -1.666666666666665e-01 -3.333333333333333e-01
 1.666666666666667e-01 -1.666666666666665e-01 -3.333333333333333e-01
 1.666666666666667e-01 -1.666666666666665e-01 -3.333333333333333e-01
 1.666666666666667e-01 -1.666666666666665e-01 -3.333333333333333e-01
 1.666666666666667e-01 -1.666666666666665e-01 -3.333333333333333e-01
 1.666666666666667e-01 -1.666666666666665e-01 -3.333333333333333e-01
 1.666666666666667e-01 -1.666666666666665e-01 -3.333333333333333e-01
 1.666666666666667e-01 -1.666666666666665e-01 -3.333333333333333e-01
 1.666666666666667e-01 -1.666666666666665e-01 -3.333333333333333e-01
 1.666666666666667e-01 -1.666666666666665e-01 -3.333333333333333e-01
 1.666666666666667e-01 -1.666666666666665e-01 -3.333333333333333e-01
 1.666666666666667e-01 -1.666666666666665e-01 -3.333333333333333e-01
 1.666666666666667e-01 -1.666666666666665e-01 -3.333333333333333e-01
 1.666666666666667e-01 -1.666666666666665e-01 -3.333333333333333e-01
 1.666666666666667e-01 -1.666666666666665e-01 -3.333333333333333e-01
 1.666666666666667e-01 -1.666666666666665e-01 -3.333333333333333e-01
 1.666666666666667e-01 -1.666666666666665e-01 -3.333333333333333e-01
 1.666666666666667e-01 -1.666666666666665e-01 -3.333333333333333e-01
 1.666666666666667e-01 -1.666666666666665e-01 -3.333333333333333e-01
 1.666666666666667e-01 -1.666666666666665e-01 -3.333333333333333e-01
 1.666666666666667e-01 -1.666666666666665e-01 -3.333333333333333e-01
 1.666666666666667e-01 -1.666666666666665e-01 -3.333333333333333e-01
 1.666666666666667e-01 -1.666666666666665e-01 -3.333333333333333e-01
 1.666666666666667e-01 -1.666666666666665e-01 -3.333333333333333e-01
 1.666666666666667e-01 -1.666666666666665e-01 -3.333333333333333e-01
 1.666666666666667e-01 -1.666666666666665e-01 -3.333333333333333e-01
 1.666666666666667e-01 -1.666666666666665e-01 -3.333333333333333e-01
 1.666666666666667e-01 -1.666666666666665e-01 -3.333333333333333e-01
 1.666666666666667e-01 -1.666666666666665e-01 -3.333333333333333e-01
 1.666666666666667e-01 -1.666666666666665e-01 -3.333333333333333e-01
 1.666666666666667e-01 -1.666666666666665e-01 -3.333333333333333e-01
 1.666666666666667e-01 -1.666666666666665e-01 -3.333333333333333e-01
 1.666666666666667e-01 -1.666666666666665e-01 -3.333333333333333e-01
 1.666666666666667e-01 -1.666666666666665e-01 -3.333333333333333e-01
 1.666666666666667e-01 -1.666666666666665e-01 -3.333333333333333e-01
 1.666666666666667e-01 -1.666666666666665e-01 -3.333333333333333e-01
 1.666666666666667e-01 -1.666666666666665e-01 -3.333333333333333e-01
 1.666666666666667e-01 -1.666666666666665e-01 -3.333333333333333e-01
 1.666666666666667e-01 -1.666666666666665e-01 -3.333333333333333e-01
 1.666666666666667e-01 -1.666666666666665e-01 -3.333333333333333e-01
 1.666666666666667e-01 -1.666666666666665e-01 -3.333333333333333e-01
 1.666666666666667e-01 -1.666666666666665e-01 -3.333333333333333e-01
 1.666666666666667e-01 -1.666666666666665e-01 -3.333333333333333e-01
 1.666666666666667e-01 -1.666666666666665e-01 -3.333333333333333e-01
 1.666666666666667e-01 -1.666666666666665e-01 -3.333333333333333e-01
 1.666666666666667e-01 -1.666666666666665e-01 -3.333333333333333e-01
 1.666666666666667e-01 -1.666666666666665e-01 -3.333333333333333e-01
 1.666666666666667e-01 -1.666666666666665e-01 -3.333333333333333e-01
 1.666666666666667e-01 -1.666666666666665e-01 -3.333333333333333e-01
 1.666666666666667e-01 -1.666666666666665e-01 -3.333333333333333e-01
 1.666666666666667e-01 -1.666666666666665e-01 -3.333333333333333e-01
 1.666666666666667e-01 -1.666666666666665e-01 -3.333333333333333e-01
 1.666666666666667e-01 -1.666666666666665e-01 -3.333333333333333e-01
 1.666666666666667e-01 -1.666666666666665e-01 -3.333333333333333e-01
 1.666666666666667e-01 -1.666666666666665e-01 -3.333333333333333e-01
 1.666666666666667e-01 -1.666666666666665e-01 -3.333333333333333e-01
 1.666666666666667e-01 -1.666666666666665e-01 -3.333333333333333e-01
 1.666666666666667e-01 -1.666666666666665e-01 -3.333333333333333e-01
 1.666666666666667e-01 -1.666666666666665e-01 -3.333333333333333e-01
 1.666666666666667e-01 -1.666666666666665e-01 -3.333333333333333e-01
 1.666666666666667e-01 -1.666666666666665e-01 -3.333333333333333e-01
 1.666666666666667e-01 -1.666666666666665e-01 -3.333333333333333e-01
 1.666666666666667e-01 -1.666666666666665e-01 -3.333333333333333e-01
 1.666666666666667e-01 -1.666666666666665e-01 -3.333333333333333e-01
 1.666666666666667e-01 -1.666666666666665e-01 -3.333333333333333e-01
 1.666666666666667e-01 -1.666666666666665e-01 -3.333333333333333e-01
 1.666666666666667e-01 -1.666666666666665e-01 -3.333333333333333e-01
 1.666666666666667e-01 -1.666666666666665e-01 -3.333333333333333e-01
 1.666666666666667e-01 -1.666666666666665e-01 -3.333333333333333e-01
 1.666666666666667e-01 -1.666666666666665e-01 -3.333333333333333e-01
-1.666666666666667e-01  1.666666666666665e-01  3.333333333333333e-01
 1.666666666666667e-01 -1.666666666666665e-01 -3.333333333333333e-01
 1.666666666666667e-01 -1.666666666666665e-01 -3.333333333333333e-01
 1.666666666666667e-01 -1.666666666666665e-01 -3.333333333333333e-01
 1.666666666666667e-01 -1.666666666666665e-01 -3.333333333333333e-01
 1.666666666666667e-01 -1.666666666666665e-01 -3.333333333333333e-01
 1.666666666666667e-01 -1.666666666666665e-01 -3.333333333333333e-01
 1.666666666666667e-01 -1.666666666666665e-01 -3.333333333333333e-01
 1.666666666666667e-01 -1.666666666666665e-01 -3.333333333333333e-01
 1.666666666666667e-01 -1.666666666666665e-01 -3.333333333333333e-01
 1.666666666666667e-01 -1.666666666666665e-01 -3.333333333333333e-01
 1.666666666666667e-01 -1.666666666666665e-01 -3.333333333333333e-01
 1.666666666666667e-01 -1.666666666666665e-01 -3.333333333333333e-01
 1.666666666666667e-01 -1.666666666666665e-01 -3.333333333333333e-01
 1.666666666666667e-01 -1.666666666666665e-01 -3.333333333333333e-01
 1.666666666666667e-01 -1.666666666666665e-01 -3.333333333333333e-01
 1.666666666666667e-01 -1.666666666666665e-01 -3.333333333333333e-01
 1.666666666666667e-01 -1.666666666666665e-01 -3.333333333333333e-01
 1.666666666666667e-01 -1.666666666666665e-01 -3.333333333333333e-01
 1.666666666666667e-01 -1.666666666666665e-01 -3.333333333333333e-01
 1.666666666666667e-01 -1.666666666666665e-01 -3.333333333333333e-01
 1.666666666666667e-01 -1.666666666666665e-01 -3.333333333333333e-01
 1.666666666666667e-01 -1.666666666666665e-01 -3.333333333333333e-01
 1.666666666666667e-01 -1.666666666666665e-01 -3.333333333333333e-01
 1.666666666666667e-01 -1.666666666666665e-01 -3.333333333333333e-01
 1.666666666666667e-01 -1.666666666666665e-01 -3.333333333333333e-01
 1.666666666666667e-01 -1.666666666666665e-01 -3.333333333333333e-01
 1.666666666666667e-01 -1.666666666666665e-01 -3.333333333333333e-01
 1.666666666666667e-01 -1.666666666666665e-01 -3.333333333333333e-01
 1.666666666666667e-01 -1.666666666666665e-01 -3.333333333333333e-01
 1.666666666666667e-01 -1.666666666666665e-01 -3.333333333333333e-01
 1.666666666666667e-01 -1.666666666666665e-01 -3.333333333333333e-01
 1.666666666666667e-01 -1.666666666666665e-01 -3.333333333333333e-01
 1.666666666666667e-01 -1.666666666666665e-01 -3.333333333333333e-01
 1.666666666666667e-01 -1.666666666666665e-01 -3.333333333333333e-01
 1.666666666666667e-01 -1.666666666666665e-01 -3.333333333333333e-01
 1.666666666666667e-01 -1.666666666666665e-01 -3.333333333333333e-01
 1.666666666666667e-01 -1.666666666666665e-01 -3.333333333333333e-01
 1.666666666666667e-01 -1.666666666666665e-01 -3.333333333333333e-01
 1.666666666666667e-01 -1.666666666666665e-01 -3.333333333333333e-01
 1.666666666666667e-01 -1.666666666666665e-01 -3.333333333333333e-01
 1.666666666666667e-01 -1.666666666666665e-01 -3.333333333333333e-01
 1.666666666666667e-01 -1.666666666666665e-01 -3.333333333333333e-01
 1.666666666666667e-01 -1.666666666666665e-01 -3.333333333333333e-01
 1.666666666666667e-01 -1.666666666666665e-01 -3.333333333333333e-01
 1.666666666666667e-01 -1.666666666666665e-01 -3.333333333333333e-01
 1.666666666666667e-01 -1.666666666666665e-01 -3.333333333333333e-01
 1.666666666666667e-01 -1.666666666666665e-01 -3.333333333333333e-01
 1.666666666666667e-01 -1.666666666666665e-01 -3.333333333333333e-01
 1.666666666666667e-01 -1.666666666666665e-01 -3.333333333333333e-01
 1.666666666666667e-01 -1.666666666666665e-01 -3.333333333333333e-01
 1.666666666666667e-01 -1.666666666666665e-01 -3.333333333333333e-01
 1.666666666666667e-01 -1.666666666666665e-01 -3.333333333333333e-01
 1.666666666666667e-01 -1.666666666666665e-01 -3.333333333333333e-01
 1.666666666666667e-01 -1.666666666666665e-01 -3.333333333333333e-01
 1.666666666666667e-01 -1.666666666666665e-01 -3.333333333333333e-01
 1.666666666666667e-01 -1.666666666666665e-01 -3.333333333333333e-01
 1.666666666666667e-01 -1.666666666666665e-01 -3.333333333333333e-01
 1.666666666666667e-01 -1.666666666666665e-01 -3.333333333333333e-01
 1.666666666666667e-01 -1.666666666666665e-01 -3.333333333333333e-01
 1.666666666666667e-01 -1.666666666666665e-01 -3.333333333333333e-01
 1.666666666666667e-01 -1.666666666666665e-01 -3.333333333333333e-01
 1.666666666666667e-01 -1.666666666666665e-01 -3.333333333333333e-01
 1.666666666666667e-01 -1.666666666666665e-01 -3.333333333333333e-01
 1.666666666666667e-01 -1.666666666666665e-01 -3.333333333333333e-01
 1.666666666666667e-01 -1.666666666666665e-01 -3.333333333333333e-01
 1.666666666666667e-01 -1.666666666666665e-01 -3.333333333333333e-01
 1.666666666666667e-01 -1.666666666666665e-01 -3.333333333333333e-01
 1.666666666666667e-01 -1.666666666666665e-01 -3.333333333333333e-01
 1.666666666666667e-01 -1.666666666666665e-01 -3.333333333333333e-01
 1.666666666666667e-01 -1.666666666666665e-01 -3.333333333333333e-01
 1.666666666666667e-01 -1.666666666666665e-01 -3.333333333333333e-01
 1.666666666666667e-01 -1.666666666666665e-01 -3.333333333333333e-01
 1.666666666666667e-01 -1.666666666666665e-01 -3.333333333333333e-01
 1.666666666666667e-01 -1.666666666666665e-01 -3.333333333333333e-01
 1.666666666666667e-01 -1.666666666666665e-01 -3.333333333333333e-01
 1.666666666666667e-01 -1.666666666666665e-01 -3.333333333333333e-01
 1.666666666666667e-01 -1.666666666666665e-01 -3.333333333333333e-01
 1.666666666666667e-01 -1.666666666666665e-01 -3.333333333333333e-01
 1.666666666666667e-01 -1.666666666666665e-01 -3.333333333333333e-01
 1.666666666666667e-01 -1.666666666666665e-01 -3.333333333333333e-01
 1.666666666666667e-01 -1.666666666666665e-01 -3.333333333333333e-01
 1.666666666666667e-01 -1.666666666666665e-01 -3.333333333333333e-01
 1.666666666666667e-01 -1.666666666666665e-01 -3.333333333333333e-01
 1.666666666666667e-01 -1.666666666666665e-01 -3.333333333333333e-01
 1.666666666666667e-01 -1.666666666666665e-01 -3.333333333333333e-01
 1.666666666666667e-01 -1.666666666666665e-01 -3.333333333333333e-01
 1.666666666666667e-01 -1.666666666666665e-01 -3.333333333333333e-01
 1.666666666666667e-01 -1.666666666666665e-01 -3.333333333333333e-01
 1.666666666666667e-01 -1.666666666666665e-01 -3.333333333333333e-01
 1.666666666666667e-01 -1.666666666666665e-01 -3.333333333333333e-01
 1.666666666666667e-01 -1.666666666666665e-01 -3.333333333333333e-01
 1.666666666666667e-01 -1.666666666666665e-01 -3.333333333333333e-01
 1.666666666666667e-01 -1.666666666666665e-01 -3.333333333333333e-01
 1.666666666666667e-01 -1.666666666666665e-01 -3.333333333333333e-01
 1.666666666666667e-01 -1.666666666666665e-01 -3.333333333333333e-01
 1.666666666666667e-01 -1.666666666666665e-01 -3.333333333333333e-01
 1.666666666666667e-01 -1.666666666666665e-01 -3.333333333333333e-01
 1.666666666666667e-01 -1.666666666666665e-01 -3.333333333333333e-01
 1.666666666666667e-01 -1.666666666666665e-01 -3.333333333333333e-01
 1.666666666666667e-01 -1.666666666666665e-01 -3.333333333333333e-01
 1.666666666666667e-01 -1.666666666666665e-01 -3.333333333333333e-01
 1.666666666666667e-01 -1.666666666666665e-01 -3.333333333333333e-01
 1.666666666666667e-01 -1.666666666666665e-01 -3.333333333333333e-01
 1.666666666666667e-01 -1.666666666666665e-01 -3.333333333333333e-01
 1.666666666666667e-01 -1.666666666666665e-01 -3.333333333333333e-01
 1.666666666666667e-01 -1.666666666666665e-01 -3.333333333333333e-01
 1.666666666666667e-01 -1.666666666666665e-01 -3.333333333333333e-01
 1.666666666666667e-01 -1.666666666666665e-01 -3.333333333333333e-01
 1.666666666666667e-01 -1.666666666666665e-01 -3.333333333333333e-01
 1.666666666666667e-01 -1.666666666666665e-01 -3.333333333333333e-01
 1.666666666666667e-01 -1.666666666666665e-01 -3.333333333333333e-01
 1.666666666666667e-01 -1.666666666666665e-01 -3.333333333333333e-01
 1.666666666666667e-01 -1.666666666666665e-01 -3.333333333333333e-01
 1.666666666666667e-01 -1.666666666666665e-01 -3.333333333333333e-01
 1.666666666666667e-01 -1.666666666666665e-01 -3.333333333333333e-01
 1.666666666666667e-01 -1.666666666666665e-01 -3.333333333333333e-01
 1.666666666666667e-01 -1.666666666666665e-01 -3.333333333333333e-01
 1.666666666666667e-01 -1.666666666666665e-01 -3.333333333333333e-01
 1.666666666666667e-01 -1.666666666666665e-01 -3.333333333333333e-01
 1.666666666666667e-01 -1.666666666666665e-01 -3.333333333333333e-01
 1.666666666666667e-01 -1.666666666666665e-01 -3.333333333333333e-01
 1.666666666666667e-01 -1.666666666666665e-01 -3.333333333333333e-01
 1.666666666666667e-01 -1.666666666666665e-01 -3.333333333333333e-01
 1.666666666666667e-01 -1.666666666666665e-01 -3.333333333333333e-01
 1.666666666666667e-01 -1.666666666666665e-01 -3.333333333333333e-01
 1.666666666666667e-01 -1.666666666666665e-01 -3.333333333333333e-01
 1.666666666666667e-01 -1.666666666666665e-01 -3.333333333333333e-01
 1.666666666666667e-01 -1.666666666666665e-01 -3.333333333333333e-01
 1.666666666666667e-01 -1.666666666666665e-01 -3.333333333333333e-01
 1.666666666666667e-01 -1.666666666666665e-01 -3.333333333333333e-01
 1.666666666666667e-01 -1.666666666666665e-01 -3.333333333333333e-01
 1.666666666666667e-01 -1.666666666666665e-01 -3.333333333333333e-01
 1.666666666666667e-01 -1.666666666666665e-01 -3.333333333333333e-01
 1.666666666666667e-01 -1.666666666666665e-01 -3.333333333333333e-01
 1.666666666666667e-01 -1.666666666666665e-01 -3.333333333333333e-01
 1.666666666666667e-01 -1.666666666666665e-01 -3.333333333333333e-01
 1.666666666666667e-01 -1.666666666666665e-01 -3.333333333333333e-01
 1.666666666666667e-01 -1.666666666666665e-01 -3.333333333333333e-01
 1.666666666666667e-01 -1.666666666666665e-01 -3.333333333333333e-01
 1.666666666666667e-01 -1.666666666666665e-01 -3.333333333333333e-01
 1.666666666666667e-01 -1.666666666666665e-01 -3.333333333333333e-01
 1.666666666666667e-01 -1.666666666666665e-01 -3.333333333333333e-01
 1.666666666666667e-01 -1.666666666666665e-01 -3.333333333333333e-01
 1.666666666666667e-01 -1.666666666666665e-01 -3.333333333333333e-01
 1.666666666666667e-01 -1.666666666666665e-01 -3.333333333333333e-01
 1.666666666666667e-01 -1.666666666666665e-01 -3.333333333333333e-01
 1.666666666666667e-01 -1.666666666666665e-01 -3.333333333333333e-01
 1.666666666666667e-01 -1.666666666666665e-01 -3.333333333333333e-01
 1.666666666666667e-01 -1.666666666666665e-01 -3.333333333333333e-01
 1.666666666666667e-01 -1.666666666666665e-01 -3.333333333333333e-01
 1.666666666666667e-01 -1.666666666666665e-01 -3.333333333333333e-01
 1.666666666666667e-01 -1.666666666666665e-01 -3.333333333333333e-01
 1.666666666666667e-01 -1.666666666666665e-01 -3.333333333333333e-01
 1.666666666666667e-01 -1.666666666666665e-01 -3.333333333333333e-01
 1.666666666666667e-01 -1.666666666666665e-01 -3.333333333333333e-01
 1.666666666666667e-01 -1.666666666666665e-01 -3.333333333333333e-01
 1.666666666666667e-01 -1.666666666666665e-01 -3.333333333333333e-01
 1.666666666666667e-01 -1.666666666666665e-01 -3.333333333333333e-01
 1.666666666666667e-01 -1.666666666666665e-01 -3.333333333333333e-01
 1.666666666666667e-01 -1.666666666666665e-01 -3.333333333333333e-01
 1.666666666666667e-01 -1.666666666666665e-01 -3.333333333333333e-01
 1.666666666666667e-01 -1.666666666666665e-01 -3.333333333333333e-01
 1.666666666666667e-01 -1.666666666666665e-01 -3.333333333333333e-01
 1.666666666666667e-01 -1.666666666666665e-01 -3.333333333333333e-01
 1.666666666666667e-01 -1.666666666666665e-01 -3.333333333333333e-01
 1.666666666666667e-01 -1.666666666666665e-01 -3.333333333333333e-01
 1.666666666666667e-01 -1.666666666666665e-01 -3.333333333333333e-01
 1.666666666666667e-01 -1.666666666666665e-01 -3.333333333333333e-01
 1.666666666666667e-01 -1.666666666666665e-01 -3.333333333333333e-01
 1.666666666666667e-01 -1.666666666666665e-01 -3.333333333333333e-01
 1.666666666666667e-01 -1.666666666666665e-01 -3.333333333333333e-01
 1.666666666666667e-01 -1.666666666666665e-01 -3.333333333333333e-01
 1.666666666666667e-01 -1.666666666666665e-01 -3.333333333333333e-01
 1.666666666666667e-01 -1.666666666666665e-01 -3.333333333333333e-01
 1.666666666666667e-01 -1.666666666666665e-01 -3.333333333333333e-01
 1.666666666666667e-01 -1.666666666666665e-01 -3.333333333333333e-01
 1.666666666666667e-01 -1.666666666666665e-01 -3.333333333333333e-01
 1.666666666666667e-01 -1.666666666666665e-01 -3.333333333333333e-01
 1.666666666666667e-01 -1.666666666666665e-01 -3.333333333333333e-01
 1.666666666666667e-01 -1.666666666666665e-01 -3.333333333333333e-01
-1.666666666666667e-01  1.666666666666665e-01  3.333333333333333e-01
 1.666666666666667e-01 -1.666666666666665e-01 -3.333333333333333e-01
-1.666666666666667e-01  1.666666666666665e-01  3.333333333333333e-01
-1.666666666666667e-01  1.666666666666665e-01  3.333333333333333e-01
-1.666666666666667e-01  1.666666666666665e-01  3.333333333333333e-01
-1.666666666666667e-01  1.666666666666665e-01  3.333333333333333e-01
-1.666666666666667e-01  1.666666666666665e-01  3.333333333333333e-01
-1.666666666666667e-01  1.666666666666665e-01  3.333333333333333e-01
-1.666666666666667e-01  1.666666666666665e-01  3.333333333333333e-01
-1.666666666666667e-01  1.666666666666665e-01  3.333333333333333e-01
-1.666666666666667e-01  1.666666666666665e-01  3.333333333333333e-01
-1.666666666666667e-01  1.666666666666665e-01  3.333333333333333e-01
-1.666666666666667e-01  1.666666666666665e-01  3.333333333333333e-01
-1.666666666666667e-01  1.666666666666665e-01  3.333333333333333e-01
-1.666666666666667e-01  1.666666666666665e-01  3.333333333333333e-01
-1.666666666666667e-01  1.666666666666665e-01  3.333333333333333e-01
-1.666666666666667e-01  1.666666666666665e-01  3.333333333333333e-01
-1.666666666666667e-01  1.666666666666665e-01  3.333333333333333e-01
-1.666666666666667e-01  1.666666666666665e-01  3.333333333333333e-01
-1.666666666666667e-01  1.666666666666665e-01  3.333333333333333e-01
-1.666666666666667e-01  1.666666666666665e-01  3.333333333333333e-01
-1.666666666666667e-01  1.666666666666665e-01  3.333333333333333e-01
-1.666666666666667e-01  1.666666666666665e-01  3.333333333333333e-01
-1.666666666666667e-01  1.666666666666665e-01  3.333333333333333e-01
-1.666666666666667e-01  1.666666666666665e-01  3.333333333333333e-01
-1.666666666666667e-01  1.666666666666665e-01  3.333333333333333e-01
-1.666666666666667e-01  1.666666666666665e-01  3.333333333333333e-01
-1.666666666666667e-01  1.666666666666665e-01  3.333333333333333e-01
-1.666666666666667e-01  1.666666666666665e-01  3.333333333333333e-01
-1.666666666666667e-01  1.666666666666665e-01  3.333333333333333e-01
-1.666666666666667e-01  1.666666666666665e-01  3.333333333333333e-01
-1.666666666666667e-01  1.666666666666665e-01  3.333333333333333e-01
-1.666666666666667e-01  1.666666666666665e-01  3.333333333333333e-01
-1.666666666666667e-01  1.666666666666665e-01  3.333333333333333e-01
-1.666666666666667e-01  1.666666666666665e-01  3.333333333333333e-01
-1.666666666666667e-01  1.666666666666665e-01  3.333333333333333e-01
-1.666666666666667e-01  1.666666666666665e-01  3.333333333333333e-01
-1.666666666666667e-01  1.666666666666665e-01  3.333333333333333e-01
-1.666666666666667e-01  1.666666666666665e-01  3.333333333333333e-01
-1.666666666666667e-01  1.666666666666665e-01  3.333333333333333e-01
-1.666666666666667e-01  1.666666666666665e-01  3.333333333333333e-01
-1.666666666666667e-01  1.666666666666665e-01  3.333333333333333e-01
-1.666666666666667e-01  1.666666666666665e-01  3.333333333333333e-01
-1.666666666666667e-01  1.666666666666665e-01  3.333333333333333e-01
-1.666666666666667e-01  1.666666666666665e-01  3.333333333333333e-01
-1.666666666666667e-01  1.666666666666665e-01  3.333333333333333e-01
-1.666666666666667e-01  1.666666666666665e-01  3.333333333333333e-01
-1.666666666666667e-01  1.666666666666665e-01  3.333333333333333e-01
-1.666666666666667e-01  1.666666666666665e-01  3.333333333333333e-01
-1.666666666666667e-01  1.666666666666665e-01  3.333333333333333e-01
-1.666666666666667e-01  1.666666666666665e-01  3.333333333333333e-01
-1.666666666666667e-01  1.666666666666665e-01  3.333333333333333e-01
-1.666666666666667e-01  1.666666666666665e-01  3.333333333333333e-01
-1.666666666666667e-01  1.666666666666665e-01  3.333333333333333e-01
-1.666666666666667e-01  1.666666666666665e-01  3.333333333333333e-01
-1.666666666666667e-01  1.666666666666665e-01  3.333333333333333e-01
-1.666666666666667e-01  1.666666666666665e-01  3.333333333333333e-01
-1.666666666666667e-01  1.666666666666665e-01  3.333333333333333e-01
-1.666666666666667e-01  1.666666666666665e-01  3.333333333333333e-01
-1.666666666666667e-01  1.666666666666665e-01  3.333333333333333e-01
-1.666666666666667e-01  1.666666666666665e-01  3.333333333333333e-01
-1.666666666666667e-01  1.666666666666665e-01  3.333333333333333e-01
-1.666666666666667e-01  1.666666666666665e-01  3.333333333333333e-01
-1.666666666666667e-01  1.666666666666665e-01  3.333333333333333e-01
-1.666666666666667e-01  1.666666666666665e-01  3.333333333333333e-01
-1.666666666666667e-01  1.666666666666665e-01  3.333333333333333e-01
-1.666666666666667e-01  1.666666666666665e-01  3.333333333333333e-01
-1.666666666666667e-01  1.666666666666665e-01  3.333333333333333e-01
-1.666666666666667e-01  1.666666666666665e-01  3.333333333333333e-01
-1.666666666666667e-01  1.666666666666665e-01  3.333333333333333e-01
-1.666666666666667e-01  1.666666666666665e-01  3.333333333333333e-01
-1.666666666666667e-01  1.666666666666665e-01  3.333333333333333e-01
-1.666666666666667e-01  1.666666666666665e-01  3.333333333333333e-01
-1.666666666666667e-01  1.666666666666665e-01  3.333333333333333e-01
-1.666666666666667e-01  1.666666666666665e-01  3.333333333333333e-01
-1.666666666666667e-01  1.666666666666665e-01  3.333333333333333e-01
-1.666666666666667e-01  1.666666666666665e-01  3.333333333333333e-01
-1.666666666666667e-01  1.666666666666665e-01  3.333333333333333e-01
-1.666666666666667e-01  1.666666666666665e-01  3.333333333333333e-01
-1.666666666666667e-01  1.666666666666665e-01  3.333333333333333e-01
-1.666666666666667e-01  1.666666666666665e-01  3.333333333333333e-01
-1.666666666666667e-01  1.666666666666665e-01  3.333333333333333e-01
-1.666666666666667e-01  1.666666666666665e-01  3.333333333333333e-01
-1.666666666666667e-01  1.666666666666665e-01  3.333333333333333e-01
-1.666666666666667e-01  1.666666666666665e-01  3.333333333333333e-01
-1.666666666666667e-01  1.666666666666665e-01  3.333333333333333e-01
-1.666666666666667e-01  1.666666666666665e-01  3.333333333333333e-01
-1.666666666666667e-01  1.666666666666665e-01  3.333333333333333e-01
-1.666666666666667e-01  1.666666666666665e-01  3.333333333333333e-01
-1.666666666666667e-01  1.666666666666665e-01  3.333333333333333e-01
-1.666666666666667e-01  1.666666666666665e-01  3.333333333333333e-01
-1.666666666666667e-01  1.666666666666665e-01  3.333333333333333e-01
-1.666666666666667e-01  1.666666666666665e-01  3.333333333333333e-01
-1.666666666666667e-01  1.666666666666665e-01  3.333333333333333e-01
-1.666666666666667e-01  1.666666666666665e-01  3.333333333333333e-01
-1.666666666666667e-01  1.666666666666665e-01  3.333333333333333e-01
-1.666666666666667e-01  1.666666666666665e-01  3.333333333333333e-01
-1.666666666666667e-01  1.666666666666665e-01  3.333333333333333e-01
-1.666666666666667e-01  1.666666666666665e-01  3.333333333333333e-01
-1.666666666666667e-01  1.666666666666665e-01  3.333333333333333e-01
-1.666666666666667e-01  1.666666666666665e-01  3.333333333333333e-01
-1.666666666666667e-01  1.666666666666665e-01  3.333333333333333e-01
-1.666666666666667e-01  1.666666666666665e-01  3.333333333333333e-01
-1.666666666666667e-01  1.666666666666665e-01  3.333333333333333e-01
-1.666666666666667e-01  1.666666666666665e-01  3.333333333333333e-01
-1.666666666666667e-01  1.666666666666665e-01  3.333333333333333e-01
-1.666666666666667e-01  1.666666666666665e-01  3.333333333333333e-01
-1.666666666666667e-01  1.666666666666665e-01  3.333333333333333e-01
-1.666666666666667e-01  1.666666666666665e-01  3.333333333333333e-01
-1.666666666666667e-01  1.666666666666665e-01  3.333333333333333e-01
-1.666666666666667e-01  1.666666666666665e-01  3.333333333333333e-01
-1.666666666666667e-01  1.666666666666665e-01  3.333333333333333e-01
-1.666666666666667e-01  1.666666666666665e-01  3.333333333333333e-01
-1.666666666666667e-01  1.666666666666665e-01  3.333333333333333e-01
-1.666666666666667e-01  1.666666666666665e-01  3.333333333333333e-01
-1.666666666666667e-01  1.666666666666665e-01  3.333333333333333e-01
-1.666666666666667e-01  1.666666666666665e-01  3.333333333333333e-01
-1.666666666666667e-01  1.666666666666665e-01  3.333333333333333e-01
-1.666666666666667e-01  1.666666666666665e-01  3.333333333333333e-01
-1.666666666666667e-01  1.666666666666665e-01  3.333333333333333e-01
-1.666666666666667e-01  1.666666666666665e-01  3.333333333333333e-01
-1.666666666666667e-01  1.666666666666665e-01  3.333333333333333e-01
-1.666666666666667e-01  1.666666666666665e-01  3.333333333333333e-01
-1.666666666666667e-01  1.666666666666665e-01  3.333333333333333e-01
-1.666666666666667e-01  1.666666666666665e-01  3.333333333333333e-01
-1.666666666666667e-01  1.666666666666665e-01  3.333333333333333e-01
-1.666666666666667e-01  1.666666666666665e-01  3.333333333333333e-01
-1.666666666666667e-01  1.666666666666665e-01  3.333333333333333e-01
-1.666666666666667e-01  1.666666666666665e-01  3.333333333333333e-01
-1.666666666666667e-01  1.666666666666665e-01  3.333333333333333e-01
-1.666666666666667e-01  1.666666666666665e-01  3.333333333333333e-01
-1.666666666666667e-01  1.666666666666665e-01  3.333333333333333e-01
-1.666666666666667e-01  1.666666666666665e-01  3.333333333333333e-01
-1.666666666666667e-01  1.666666666666665e-01  3.333333333333333e-01
-1.666666666666667e-01  1.666666666666665e-01  3.333333333333333e-01
-1.666666666666667e-01  1.666666666666665e-01  3.333333333333333e-01
-1.666666666666667e-01  1.666666666666665e-01  3.333333333333333e-01
-1.666666666666667e-01  1.666666666666665e-01  3.333333333333333e-01
-1.666666666666667e-01  1.666666666666665e-01  3.333333333333333e-01
-1.666666666666667e-01  1.666666666666665e-01  3.333333333333333e-01
-1.666666666666667e-01  1.666666666666665e-01  3.333333333333333e-01
-1.666666666666667e-01  1.666666666666665e-01  3.333333333333333e-01
-1.666666666666667e-01  1.666666666666665e-01  3.333333333333333e-01
-1.666666666666667e-01  1.666666666666665e-01  3.333333333333333e-01
-1.666666666666667e-01  1.666666666666665e-01  3.333333333333333e-01
-1.666666666666667e-01  1.666666666666665e-01  3.333333333333333e-01
-1.666666666666667e-01  1.666666666666665e-01  3.333333333333333e-01
-1.666666666666667e-01  1.666666666666665e-01  3.333333333333333e-01
-1.666666666666667e-01  1.666666666666665e-01  3.333333333333333e-01
-1.666666666666667e-01  1.666666666666665e-01  3.333333333333333e-01
-1.666666666666667e-01  1.666666666666665e-01  3.333333333333333e-01
-1.666666666666667e-01  1.666666666666665e-01  3.333333333333333e-01
-1.666666666666667e-01  1.666666666666665e-01  3.333333333333333e-01
 1.666666666666667e-01 -1.666666666666665e-01 -3.333333333333333e-01
-1.666666666666667e-01  1.666666666666665e-01  3.333333333333333e-01
-1.666666666666667e-01  1.666666666666665e-01  3.333333333333333e-01
-1.666666666666667e-01  1.666666666666665e-01  3.333333333333333e-01
-1.666666666666667e-01  1.666666666666665e-01  3.333333333333333e-01
-1.666666666666667e-01  1.666666666666665e-01  3.333333333333333e-01
-1.666666666666667e-01  1.666666666666665e-01  3.333333333333333e-01
-1.666666666666667e-01  1.666666666666665e-01  3.333333333333333e-01
-1.666666666666667e-01  1.666666666666665e-01  3.333333333333333e-01
-1.666666666666667e-01  1.666666666666665e-01  3.333333333333333e-01
-1.666666666666667e-01  1.666666666666665e-01  3.333333333333333e-01
-1.666666666666667e-01  1.666666666666665e-01  3.333333333333333e-01
-1.666666666666667e-01  1.666666666666665e-01  3.333333333333333e-01
-1.666666666666667e-01  1.666666666666665e-01  3.333333333333333e-01
-1.666666666666667e-01  1.666666666666665e-01  3.333333333333333e-01
-1.666666666666667e-01  1.666666666666665e-01  3.333333333333333e-01
-1.666666666666667e-01  1.666666666666665e-01  3.333333333333333e-01
-1.666666666666667e-01  1.666666666666665e-01  3.333333333333333e-01
-1.666666666666667e-01  1.666666666666665e-01  3.333333333333333e-01
-1.666666666666667e-01  1.666666666666665e-01  3.333333333333333e-01
-1.666666666666667e-01  1.666666666666665e-01  3.333333333333333e-01
-1.666666666666667e-01  1.666666666666665e-01  3.333333333333333e-01
-1.666666666666667e-01  1.666666666666665e-01  3.333333333333333e-01
-1.666666666666667e-01  1.666666666666665e-01  3.333333333333333e-01
-1.666666666666667e-01  1.666666666666665e-01  3.333333333333333e-01
-1.666666666666667e-01  1.666666666666665e-01  3.333333333333333e-01
-1.666666666666667e-01  1.666666666666665e-01  3.333333333333333e-01
-1.666666666666667e-01  1.666666666666665e-01  3.333333333333333e-01
-1.666666666666667e-01  1.666666666666665e-01  3.333333333333333e-01
-1.666666666666667e-01  1.666666666666665e-01  3.333333333333333e-01
-1.666666666666667e-01  1.666666666666665e-01  3.333333333333333e-01
-1.666666666666667e-01  1.666666666666665e-01  3.333333333333333e-01
-1.666666666666667e-01  1.666666666666665e-01  3.333333333333333e-01
-1.666666666666667e-01  1.666666666666665e-01  3.333333333333333e-01
-1.666666666666667e-01  1.666666666666665e-01  3.333333333333333e-01
-1.666666666666667e-01  1.666666666666665e-01  3.333333333333333e-01
-1.666666666666667e-01  1.666666666666665e-01  3.333333333333333e-01
-1.666666666666667e-01  1.666666666666665e-01  3.333333333333333e-01
-1.666666666666667e-01  1.666666666666665e-01  3.333333333333333e-01
-1.666666666666667e-01  1.666666666666665e-01  3.333333333333333e-01
-1.666666666666667e-01  1.666666666666665e-01  3.333333333333333e-01
-1.666666666666667e-01  1.666666666666665e-01  3.333333333333333e-01
-1.666666666666667e-01  1.666666666666665e-01  3.333333333333333e-01
-1.666666666666667e-01  1.666666666666665e-01  3.333333333333333e-01
-1.666666666666667e-01  1.666666666666665e-01  3.333333333333333e-01
-1.666666666666667e-01  1.666666666666665e-01  3.333333333333333e-01
-1.666666666666667e-01  1.666666666666665e-01  3.333333333333333e-01
-1.666666666666667e-01  1.666666666666665e-01  3.333333333333333e-01
-1.666666666666667e-01  1.666666666666665e-01  3.333333333333333e-01
-1.666666666666667e-01  1.666666666666665e-01  3.333333333333333e-01
-1.666666666666667e-01  1.666666666666665e-01  3.333333333333333e-01
-1.666666666666667e-01  1.666666666666665e-01  3.333333333333333e-01
-1.666666666666667e-01  1.666666666666665e-01  3.333333333333333e-01
-1.666666666666667e-01  1.666666666666665e-01  3.333333333333333e-01
-1.666666666666667e-01  1.666666666666665e-01  3.333333333333333e-01
-1.666666666666667e-01  1.666666666666665e-01  3.333333333333333e-01
-1.666666666666667e-01  1.666666666666665e-01  3.333333333333333e-01
-1.666666666666667e-01  1.666666666666665e-01  3.333333333333333e-01
-1.666666666666667e-01  1.666666666666665e-01  3.333333333333333e-01
-1.666666666666667e-01  1.666666666666665e-01  3.333333333333333e-01
-1.666666666666667e-01  1.666666666666665e-01  3.333333333333333e-01
-1.666666666666667e-01  1.666666666666665e-01  3.333333333333333e-01
-1.666666666666667e-01  1.666666666666665e-01  3.333333333333333e-01
-1.666666666666667e-01  1.666666666666665e-01  3.333333333333333e-01
-1.666666666666667e-01  1.666666666666665e-01  3.333333333333333e-01
-1.666666666666667e-01  1.666666666666665e-01  3.333333333333333e-01
-1.666666666666667e-01  1.666666666666665e-01  3.333333333333333e-01
-1.666666666666667e-01  1.666666666666665e-01  3.333333333333333e-01
-1.666666666666667e-01  1.666666666666665e-01  3.333333333333333e-01
-1.666666666666667e-01  1.666666666666665e-01  3.333333333333333e-01
-1.666666666666667e-01  1.666666666666665e-01  3.333333333333333e-01
-1.666666666666667e-01  1.666666666666665e-01  3.333333333333333e-01
-1.666666666666667e-01  1.666666666666665e-01  3.333333333333333e-01
-1.666666666666667e-01  1.666666666666665e-01  3.333333333333333e-01
-1.666666666666667e-01  1.666666666666665e-01  3.333333333333333e-01
-1.666666666666667e-01  1.666666666666665e-01  3.333333333333333e-01
-1.666666666666667e-01  1.666666666666665e-01  3.333333333333333e-01
-1.666666666666667e-01  1.666666666666665e-01  3.333333333333333e-01
-1.666666666666667e-01  1.666666666666665e-01  3.333333333333333e-01
-1.666666666666667e-01  1.666666666666665e-01  3.333333333333333e-01
-1.666666666666667e-01  1.666666666666665e-01  3.333333333333333e-01
-1.666666666666667e-01  1.666666666666665e-01  3.333333333333333e-01
-1.666666666666667e-01  1.666666666666665e-01  3.333333333333333e-01
-1.666666666666667e-01  1.666666666666665e-01  3.333333333333333e-01
-1.666666666666667e-01  1.666666666666665e-01  3.333333333333333e-01
-1.666666666666667e-01  1.666666666666665e-01  3.333333333333333e-01
-1.666666666666667e-01  1.666666666666665e-01  3.333333333333333e-01
-1.666666666666667e-01  1.666666666666665e-01  3.333333333333333e-01
-1.666666666666667e-01  1.666666666666665e-01  3.333333333333333e-01
-1.666666666666667e-01  1.666666666666665e-01  3.333333333333333e-01
-1.666666666666667e-01  1.666666666666665e-01  3.333333333333333e-01
-1.666666666666667e-01  1.666666666666665e-01  3.333333333333333e-01
-1.666666666666667e-01  1.666666666666665e-01  3.333333333333333e-01
-1.666666666666667e-01  1.666666666666665e-01  3.333333333333333e-01
-1.666666666666667e-01  1.666666666666665e-01  3.333333333333333e-01
-1.666666666666667e-01  1.666666666666665e-01  3.333333333333333e-01
-1.666666666666667e-01  1.666666666666665e-01  3.333333333333333e-01
-1.666666666666667e-01  1.666666666666665e-01  3.333333333333333e-01
-1.666666666666667e-01  1.666666666666665e-01  3.333333333333333e-01
-1.666666666666667e-01  1.666666666666665e-01  3.333333333333333e-01
-1.666666666666667e-01  1.666666666666665e-01  3.333333333333333e-01
-1.666666666666667e-01  1.666666666666665e-01  3.333333333333333e-01
-1.666666666666667e-01  1.666666666666665e-01  3.333333333333333e-01
-1.666666666666667e-01  1.666666666666665e-01  3.333333333333333e-01
-1.666666666666667e-01  1.666666666666665e-01  3.333333333333333e-01
-1.666666666666667e-01  1.666666666666665e-01  3.333333333333333e-01
-1.666666666666667e-01  1.666666666666665e-01  3.333333333333333e-01
-1.666666666666667e-01  1.666666666666665e-01  3.333333333333333e-01
-1.666666666666667e-01  1.666666666666665e-01  3.333333333333333e-01
-1.666666666666667e-01  1.666666666666665e-01  3.333333333333333e-01
-1.666666666666667e-01  1.666666666666665e-01  3.333333333333333e-01
-1.666666666666667e-01  1.666666666666665e-01  3.333333333333333e-01
-1.666666666666667e-01  1.666666666666665e-01  3.333333333333333e-01
-1.666666666666667e-01  1.666666666666665e-01  3.333333333333333e-01
-1.666666666666667e-01  1.666666666666665e-01  3.333333333333333e-01
-1.666666666666667e-01  1.666666666666665e-01  3.333333333333333e-01
-1.666666666666667e-01  1.666666666666665e-01  3.333333333333333e-01
-1.666666666666667e-01  1.666666666666665e-01  3.333333333333333e-01
-1.666666666666667e-01  1.666666666666665e-01  3.333333333333333e-01
-1.666666666666667e-01  1.666666666666665e-01  3.333333333333333e-01
-1.666666666666667e-01  1.666666666666665e-01  3.333333333333333e-01
-1.666666666666667e-01  1.666666666666665e-01  3.333333333333333e-01
-1.666666666666667e-01  1.666666666666665e-01  3.333333333333333e-01
-1.666666666666667e-01  1.666666666666665e-01  3.333333333333333e-01
-1.666666666666667e-01  1.666666666666665e-01  3.333333333333333e-01
-1.666666666666667e-01  1.666666666666665e-01  3.333333333333333e-01
-1.666666666666667e-01  1.666666666666665e-01  3.333333333333333e-01
-1.666666666666667e-01  1.666666666666665e-01  3.333333333333333e-01
-1.666666666666667e-01  1.666666666666665e-01  3.333333333333333e-01
-1.666666666666667e-01  1.666666666666665e-01  3.333333333333333e-01
-1.666666666666667e-01  1.666666666666665e-01  3.333333333333333e-01
-1.666666666666667e-01  1.666666666666665e-01  3.333333333333333e-01
-1.666666666666667e-01  1.666666666666665e-01  3.333333333333333e-01
-1.666666666666667e-01  1.666666666666665e-01  3.333333333333333e-01
-1.666666666666667e-01  1.666666666666665e-01  3.333333333333333e-01
-1.666666666666667e-01  1.666666666666665e-01  3.333333333333333e-01
-1.666666666666667e-01  1.666666666666665e-01  3.333333333333333e-01
-1.666666666666667e-01  1.666666666666665e-01  3.333333333333333e-01
-1.666666666666667e-01  1.666666666666665e-01  3.333333333333333e-01
-1.666666666666667e-01  1.666666666666665e-01  3.333333333333333e-01
-1.666666666666667e-01  1.666666666666665e-01  3.333333333333333e-01
-1.666666666666667e-01  1.666666666666665e-01  3.333333333333333e-01
-1.666666666666667e-01  1.666666666666665e-01  3.333333333333333e-01
-1.666666666666667e-01  1.666666666666665e-01  3.333333333333333e-01
-1.666666666666667e-01  1.666666666666665e-01  3.333333333333333e-01
-1.666666666666667e-01  1.666666666666665e-01  3.333333333333333e-01
-1.666666666666667e-01  1.666666666666665e-01  3.333333333333333e-01
