# vtk DataFile Version 3.0
# Dislocation lines converted from MoDELib file
ASCII
DATASET UNSTRUCTURED_GRID
POINTS 2927 double
-1.429999999999877e+00  3.863858941524650e+02 -2.918975276816622e+03
-1.429999999999897e+00 -3.863858941524674e+02 -2.918975276816622e+03
-1.429999999999897e+00  0.000000000000000e+00 -2.918975276816622e+03
-1.430000000000221e+00  0.000000000000000e+00  2.918975276816619e+03
-1.430000000000221e+00 -3.863858941524674e+02  2.918975276816619e+03
-1.430000000000201e+00  3.863858941524653e+02  2.918975276816619e+03
-1.148491538357658e+03  1.104443470879694e+00 -2.918975276816622e+03
-1.148498901968137e+03 -1.072244572110742e+00 -2.918975276816622e+03
-1.148493060671050e+03 -1.747731847984187e+00 -2.918975276816622e+03
-1.148486114076259e+03 -3.937632660375351e+00 -2.918975276816622e+03
-1.148475181527269e+03 -5.247979688128172e+00 -2.918975276816622e+03
-1.148477505587946e+03 -6.323614699029799e+00 -2.918975276816622e+03
-1.148451853344790e+03 -8.209478061774194e+00 -2.918975276816622e+03
-1.148409740855559e+03 -1.298764769176223e+01 -2.918975276816622e+03
-1.148397187337408e+03 -1.365766336876309e+01 -2.918975276816622e+03
-1.148386820306207e+03 -1.661192053717461e+01 -2.918975276816622e+03
-1.148311775356907e+03 -2.009805001027578e+01 -2.918975276816622e+03
-1.148315004033643e+03 -2.290239577932086e+01 -2.918975276816622e+03
-1.148223855311491e+03 -2.692044903354698e+01 -2.918975276816622e+03
-1.148217041421602e+03 -2.804410948597219e+01 -2.918975276816622e+03
-1.148113538548573e+03 -3.458649648625345e+01 -2.918975276816622e+03
-1.148100358375286e+03 -3.542723421214440e+01 -2.918975276816622e+03
-1.148054225111788e+03 -3.852472674923689e+01 -2.918975276816622e+03
-1.148232620280338e+03 -4.317416895930699e+01 -2.918975276816622e+03
-1.147781266377440e+03 -4.502277272418497e+01 -2.918975276816622e+03
-1.148683793631698e+03 -5.000978249409945e+01 -2.918975276816622e+03
-1.147948061742826e+03 -5.572143460114394e+01 -2.918975276816622e+03
-1.147909227843855e+03 -5.841047161087553e+01 -2.918975276816622e+03
-1.147803915097397e+03 -6.010857313873407e+01 -2.918975276816622e+03
-1.147892958476455e+03 -6.131033868151223e+01 -2.918975276816622e+03
-1.147778905462006e+03 -6.331966376165762e+01 -2.918975276816622e+03
-1.147898462088235e+03 -6.434930889505787e+01 -2.918975276816622e+03
-1.147758758454423e+03 -6.638228618326957e+01 -2.918975276816622e+03
-1.147888732558481e+03 -6.740976379467648e+01 -2.918975276816622e+03
-1.147783293443825e+03 -6.993984409057953e+01 -2.918975276816622e+03
-1.147869504543427e+03 -7.061757460242949e+01 -2.918975276816622e+03
-1.147744317511375e+03 -7.212528221862195e+01 -2.918975276816622e+03
-1.147851974921797e+03 -7.417579710806049e+01 -2.918975276816622e+03
-1.147708703227588e+03 -7.530784687856061e+01 -2.918975276816622e+03
-1.147841179317516e+03 -7.637227109007944e+01 -2.918975276816622e+03
-1.147705785762082e+03 -7.836498358680980e+01 -2.918975276816622e+03
-1.147836728962867e+03 -8.037847837626309e+01 -2.918975276816622e+03
-1.147658821557892e+03 -8.147364781298185e+01 -2.918975276816622e+03
-1.147830590062109e+03 -8.371768652167970e+01 -2.918975276816622e+03
-1.147669837927920e+03 -8.523734971010728e+01 -2.918975276816622e+03
-1.147872814984411e+03 -8.729401555176625e+01 -2.918975276816622e+03
-1.147608433300233e+03 -8.949727814615974e+01 -2.918975276816622e+03
-1.147700992594991e+03 -9.038717233466380e+01 -2.918975276816622e+03
-1.147596796142581e+03 -9.210437423600533e+01 -2.918975276816622e+03
-1.147711916895763e+03 -9.485412393857794e+01 -2.918975276816622e+03
-1.147629863743948e+03 -9.555396005131549e+01 -2.918975276816622e+03
-1.147705561554042e+03 -9.845235510900365e+01 -2.918975276816622e+03
-1.147610150878126e+03 -1.003575468997831e+02 -2.918975276816622e+03
-1.147686007092497e+03 -1.013944312529531e+02 -2.918975276816622e+03
-1.147593092997917e+03 -1.032480100371600e+02 -2.918975276816622e+03
-1.147667277639961e+03 -1.042506089696545e+02 -2.918975276816622e+03
-1.147571555539907e+03 -1.062307989678825e+02 -2.918975276816622e+03
-1.147646093497021e+03 -1.072793921855255e+02 -2.918975276816622e+03
-1.147551766237449e+03 -1.097275667186237e+02 -2.918975276816622e+03
-1.147612266053472e+03 -1.105306349862143e+02 -2.918975276816622e+03
-1.147523976365132e+03 -1.122509113750307e+02 -2.918975276816622e+03
-1.147574825136255e+03 -1.141192879519696e+02 -2.918975276816622e+03
-1.147556951516831e+03 -1.141933653564058e+02 -2.918975276816622e+03
-1.147611551188484e+03 -1.157489245466514e+02 -2.918975276816622e+03
-1.147558721660709e+03 -1.183277295812754e+02 -2.918975276816622e+03
-1.147594869273176e+03 -1.201193493086177e+02 -2.918975276816622e+03
-1.147564262176254e+03 -1.213444221523157e+02 -2.918975276816622e+03
-1.147584182931086e+03 -1.236100863980910e+02 -2.918975276816622e+03
-1.147572654385504e+03 -1.248561344406215e+02 -2.918975276816622e+03
-1.147561187356740e+03 -1.295019841783559e+02 -2.918975276816622e+03
-1.147552486321282e+03 -1.297649147173321e+02 -2.918975276816622e+03
-1.147589697793309e+03 -1.319569447189688e+02 -2.918975276816622e+03
-1.147584481218707e+03 -1.340787328957849e+02 -2.918975276816622e+03
-1.147593542873080e+03 -1.343775952362804e+02 -2.918975276816622e+03
-1.147610185660392e+03 -1.357585123929973e+02 -2.918975276816622e+03
-1.147640493807921e+03 -1.383909836930983e+02 -2.918975276816622e+03
-1.147656660528931e+03 -1.400695461322487e+02 -2.918975276816622e+03
-1.147665466634708e+03 -1.412835796800537e+02 -2.918975276816622e+03
-1.147687618756852e+03 -1.431669620504192e+02 -2.918975276816622e+03
-1.147692458071609e+03 -1.441691364535008e+02 -2.918975276816622e+03
-1.147715744219849e+03 -1.461335531249360e+02 -2.918975276816622e+03
-1.147713240141444e+03 -1.471525322757364e+02 -2.918975276816622e+03
-1.147747520666750e+03 -1.496667085523682e+02 -2.918975276816622e+03
-1.147738478979694e+03 -1.503672297090226e+02 -2.918975276816622e+03
-1.147771825390642e+03 -1.520368423783696e+02 -2.918975276816622e+03
-1.147760597331066e+03 -1.540277057374799e+02 -2.918975276816622e+03
-1.147764057246893e+03 -1.540602785430665e+02 -2.918975276816622e+03
-1.147770361359120e+03 -1.559568517675068e+02 -2.918975276816622e+03
-1.147826072427892e+03 -1.601700234917533e+02 -2.918975276816622e+03
-1.147823971760298e+03 -1.612247518618227e+02 -2.918975276816622e+03
-1.147851053140153e+03 -1.631883053202363e+02 -2.918975276816622e+03
-1.147859794710855e+03 -1.647264524810847e+02 -2.918975276816622e+03
-1.147916393631190e+03 -1.723224102879651e+02 -2.918975276816622e+03
-1.147933592479772e+03 -1.756642651785762e+02 -2.918975276816622e+03
-1.147956091004485e+03 -1.783163069409355e+02 -2.918975276816622e+03
-1.147961088774344e+03 -1.802168613978504e+02 -2.918975276816622e+03
-1.147965539247970e+03 -1.812742609603799e+02 -2.918975276816622e+03
-1.147966621067734e+03 -1.831431327919503e+02 -2.918975276816622e+03
-1.147980030063122e+03 -1.847068962816703e+02 -2.918975276816622e+03
-1.147994139318537e+03 -1.894824530026035e+02 -2.918975276816622e+03
-1.147988393807775e+03 -1.900462884171696e+02 -2.918975276816622e+03
-1.148019505636373e+03 -1.919408794231163e+02 -2.918975276816622e+03
-1.147994079568396e+03 -1.938918551285078e+02 -2.918975276816622e+03
-1.148013521296246e+03 -1.942847618771276e+02 -2.918975276816622e+03
-1.147985139897004e+03 -1.960463179264393e+02 -2.918975276816622e+03
-1.147997634394543e+03 -2.000661080198570e+02 -2.918975276816622e+03
-1.147959604704268e+03 -2.010840147525461e+02 -2.918975276816622e+03
-1.148004624618268e+03 -2.030832173416572e+02 -2.918975276816622e+03
-1.147945052040492e+03 -2.040551956030760e+02 -2.918975276816622e+03
-1.147987072383704e+03 -2.060301918342495e+02 -2.918975276816622e+03
-1.147922749582083e+03 -2.070777112413001e+02 -2.918975276816622e+03
-1.147940290517269e+03 -2.096234679355882e+02 -2.918975276816622e+03
-1.147876396366619e+03 -2.103975952621275e+02 -2.918975276816622e+03
-1.147914315251747e+03 -2.124142865632132e+02 -2.918975276816622e+03
-1.147783182013060e+03 -2.155975731431431e+02 -2.918975276816622e+03
-1.147798759319212e+03 -2.182374055690809e+02 -2.918975276816622e+03
-1.147708207331366e+03 -2.200876900635017e+02 -2.918975276816622e+03
-1.147724546656893e+03 -2.212181318691165e+02 -2.918975276816622e+03
-1.147632145597429e+03 -2.231384832985377e+02 -2.918975276816622e+03
-1.147622260003145e+03 -2.246385208464511e+02 -2.918975276816622e+03
-1.147452999626811e+03 -2.294508186747716e+02 -2.918975276816622e+03
-1.147411848715321e+03 -2.301845102062804e+02 -2.918975276816622e+03
-1.147357454151378e+03 -2.319880505375032e+02 -2.918975276816622e+03
-1.147235203635996e+03 -2.337701948519243e+02 -2.918975276816622e+03
-1.147206971905059e+03 -2.339077547561309e+02 -2.918975276816622e+03
-1.147372316986131e+03 -2.355647198286179e+02 -2.918975276816622e+03
-1.147451252272552e+03 -2.381176238664244e+02 -2.918975276816622e+03
-1.147569064903646e+03 -2.401089623544659e+02 -2.918975276816622e+03
-1.147546098409534e+03 -2.411927858272685e+02 -2.918975276816622e+03
-1.147689956885182e+03 -2.431553380578036e+02 -2.918975276816622e+03
-1.147678642619373e+03 -2.444820704339331e+02 -2.918975276816622e+03
-1.147855602969703e+03 -2.470207166121112e+02 -2.918975276816622e+03
-1.147839553966996e+03 -2.470603402515224e+02 -2.918975276816622e+03
-1.147812003277026e+03 -2.497770487699789e+02 -2.918975276816622e+03
-1.147814554600150e+03 -2.508634411440440e+02 -2.918975276816622e+03
-1.147794618006319e+03 -2.516954539401819e+02 -2.918975276816622e+03
-1.147770160919555e+03 -2.538523603564466e+02 -2.918975276816622e+03
-1.147771075382083e+03 -2.552298951844285e+02 -2.918975276816622e+03
-1.147772634319028e+03 -2.574734700081316e+02 -2.918975276816622e+03
-1.147777602986293e+03 -2.577193654315822e+02 -2.918975276816622e+03
-1.147779186212991e+03 -2.601532700654462e+02 -2.918975276816622e+03
-1.147770987723884e+03 -2.609423497095856e+02 -2.918975276816622e+03
-1.147788716355695e+03 -2.634032755711792e+02 -2.918975276816622e+03
-1.147805943709343e+03 -2.661364615238082e+02 -2.918975276816622e+03
-1.147793928831667e+03 -2.710889879440068e+02 -2.918975276816622e+03
-1.147830419766409e+03 -2.738733767421085e+02 -2.918975276816622e+03
-1.147840344399617e+03 -2.755624864192490e+02 -2.918975276816622e+03
-1.147848016869544e+03 -2.773760424419414e+02 -2.918975276816622e+03
-1.147852891154119e+03 -2.802821308963259e+02 -2.918975276816622e+03
-1.147872759747558e+03 -2.843406225860675e+02 -2.918975276816622e+03
-1.147871671123582e+03 -2.858550824582883e+02 -2.918975276816622e+03
-1.147882325302260e+03 -2.877697232441323e+02 -2.918975276816622e+03
-1.147885823716447e+03 -2.950744222706772e+02 -2.918975276816622e+03
-1.147878213931744e+03 -2.986170175330365e+02 -2.918975276816622e+03
-1.147877105241714e+03 -3.003113217118211e+02 -2.918975276816622e+03
-1.147862631973111e+03 -3.036463035229149e+02 -2.918975276816622e+03
-1.147852756365113e+03 -3.042727259131054e+02 -2.918975276816622e+03
-1.147839696573359e+03 -3.073855532623879e+02 -2.918975276816622e+03
-1.147797628337491e+03 -3.106705556113285e+02 -2.918975276816622e+03
-1.147770873754323e+03 -3.139499973812905e+02 -2.918975276816622e+03
-1.147718446638324e+03 -3.181082300814852e+02 -2.918975276816622e+03
-1.147629534419404e+03 -3.231523414125169e+02 -2.918975276816622e+03
-1.147440747486291e+03 -3.266279982546146e+02 -2.918975276816622e+03
-1.147437018570747e+03 -3.266371981782698e+02 -2.918975276816622e+03
-1.147693322392032e+03 -3.304420506711178e+02 -2.918975276816622e+03
-1.147627564665404e+03 -3.340590671788448e+02 -2.918975276816622e+03
-1.147699712638501e+03 -3.348226331013321e+02 -2.918975276816622e+03
-1.147688812647109e+03 -3.387112604660676e+02 -2.918975276816622e+03
-1.147730450717911e+03 -3.432155467440108e+02 -2.918975276816622e+03
-1.147742910643161e+03 -3.472157602272479e+02 -2.918975276816622e+03
-1.147760208735098e+03 -3.479320632608996e+02 -2.918975276816622e+03
-1.147789949157398e+03 -3.528660747977065e+02 -2.918975276816622e+03
-1.147804061711761e+03 -3.543979732304100e+02 -2.918975276816622e+03
-1.147824225781528e+03 -3.583841688847875e+02 -2.918975276816622e+03
-1.147860622839413e+03 -3.621291684149745e+02 -2.918975276816622e+03
-1.147938040147139e+03 -3.696693509196630e+02 -2.918975276816622e+03
-1.147942215084338e+03 -3.717828138938594e+02 -2.918975276816622e+03
-1.147969670185560e+03 -3.741007756833533e+02 -2.918975276816622e+03
-1.147966694312702e+03 -3.743953087466795e+02 -2.918975276816622e+03
-1.147980921527874e+03 -3.763775565720728e+02 -2.918975276816622e+03
-1.147984896571594e+03 -3.775429972664561e+02 -2.918975276816622e+03
-1.147987678817884e+03 -3.796437745525822e+02 -2.918975276816622e+03
-1.147992282532382e+03 -3.799768210838228e+02 -2.918975276816622e+03
-1.147975074132941e+03 -3.823260743595748e+02 -2.918975276816622e+03
-1.147986236755351e+03 -3.860605026998305e+02 -2.918975276816622e+03
-1.147990332868874e+03  3.832685219100252e+02 -2.918975276816622e+03
-1.147965016227181e+03  3.785171968662964e+02 -2.918975276816622e+03
-1.147961478472931e+03  3.770838566145900e+02 -2.918975276816622e+03
-1.147961143647464e+03  3.763775858957411e+02 -2.918975276816622e+03
-1.147969994572735e+03  3.737473971717915e+02 -2.918975276816622e+03
-1.147983566098250e+03  3.685193919178790e+02 -2.918975276816622e+03
-1.147940329782252e+03  3.602104376559388e+02 -2.918975276816622e+03
-1.147944431731105e+03  3.590956580970570e+02 -2.918975276816622e+03
-1.147971485477475e+03  3.548466045020991e+02 -2.918975276816622e+03
-1.147912745464193e+03  3.527614332719342e+02 -2.918975276816622e+03
-1.147950181548070e+03  3.510002834529711e+02 -2.918975276816622e+03
-1.147888438616166e+03  3.485382570780613e+02 -2.918975276816622e+03
-1.147932446255652e+03  3.459041126886390e+02 -2.918975276816622e+03
-1.147871232626976e+03  3.443475425104538e+02 -2.918975276816622e+03
-1.147894447147059e+03  3.413851045808612e+02 -2.918975276816622e+03
-1.147852806387790e+03  3.404368375827948e+02 -2.918975276816622e+03
-1.147864874798531e+03  3.383529014688903e+02 -2.918975276816622e+03
-1.147772227671626e+03  3.296867326442962e+02 -2.918975276816622e+03
-1.147726495002314e+03  3.276917212772545e+02 -2.918975276816622e+03
-1.147708593570393e+03  3.260471662776285e+02 -2.918975276816622e+03
-1.147627357029842e+03  3.234656050838659e+02 -2.918975276816622e+03
-1.147615372123461e+03  3.234211292780276e+02 -2.918975276816622e+03
-1.147721391674931e+03  3.209048250323556e+02 -2.918975276816622e+03
-1.147741986319850e+03  3.200583193612971e+02 -2.918975276816622e+03
-1.147792494351424e+03  3.172124932660487e+02 -2.918975276816622e+03
-1.147873792427615e+03  3.132575712956764e+02 -2.918975276816622e+03
-1.147847992133147e+03  3.098357968040855e+02 -2.918975276816622e+03
-1.147955644402061e+03  3.073253633538403e+02 -2.918975276816622e+03
-1.147884936748881e+03  3.053383754373712e+02 -2.918975276816622e+03
-1.147897144180975e+03  3.033540096417774e+02 -2.918975276816622e+03
-1.147920015777846e+03  3.012132542411229e+02 -2.918975276816622e+03
-1.147902850974860e+03  2.936916551938761e+02 -2.918975276816622e+03
-1.147901405848713e+03  2.890541672667206e+02 -2.918975276816622e+03
-1.147903023812875e+03  2.885608404145493e+02 -2.918975276816622e+03
-1.147903910272515e+03  2.862412810353205e+02 -2.918975276816622e+03
-1.147896249012515e+03  2.831818548739122e+02 -2.918975276816622e+03
-1.147910741093329e+03  2.820405536588250e+02 -2.918975276816622e+03
-1.147891073413559e+03  2.800980649812826e+02 -2.918975276816622e+03
-1.147901683910721e+03  2.780112037251092e+02 -2.918975276816622e+03
-1.147879952748242e+03  2.761726571823386e+02 -2.918975276816622e+03
-1.147892561231323e+03  2.756774907741799e+02 -2.918975276816622e+03
-1.147869559944294e+03  2.742071818342627e+02 -2.918975276816622e+03
-1.147888959729990e+03  2.717522598126933e+02 -2.918975276816622e+03
-1.147868165381573e+03  2.709903600231245e+02 -2.918975276816622e+03
-1.147887288850455e+03  2.691426353807851e+02 -2.918975276816622e+03
-1.147854659031746e+03  2.667048350735494e+02 -2.918975276816622e+03
-1.147883244047449e+03  2.655168372349518e+02 -2.918975276816622e+03
-1.147859119317500e+03  2.630896780936690e+02 -2.918975276816622e+03
-1.147873897268362e+03  2.611213529632018e+02 -2.918975276816622e+03
-1.147856990245848e+03  2.599549527577875e+02 -2.918975276816622e+03
-1.147867812934411e+03  2.578468996180321e+02 -2.918975276816622e+03
-1.147855026821425e+03  2.565944120018562e+02 -2.918975276816622e+03
-1.147825530423341e+03  2.513997255352287e+02 -2.918975276816622e+03
-1.147784953950344e+03  2.503044954988146e+02 -2.918975276816622e+03
-1.147812847471090e+03  2.494562619805134e+02 -2.918975276816622e+03
-1.147735950330341e+03  2.471130542526033e+02 -2.918975276816622e+03
-1.147732828906928e+03  2.457653952702220e+02 -2.918975276816622e+03
-1.147640515868397e+03  2.435243282942665e+02 -2.918975276816622e+03
-1.147671202240351e+03  2.432773364918495e+02 -2.918975276816622e+03
-1.147550814299661e+03  2.406655973186029e+02 -2.918975276816622e+03
-1.147586748899305e+03  2.400277609155896e+02 -2.918975276816622e+03
-1.147625867656307e+03  2.385480156037236e+02 -2.918975276816622e+03
-1.147891830784390e+03  2.362304863752746e+02 -2.918975276816622e+03
-1.147395159574866e+03  2.353350896201585e+02 -2.918975276816622e+03
-1.147777257623192e+03  2.337469785193546e+02 -2.918975276816622e+03
-1.147555082250466e+03  2.328296063859730e+02 -2.918975276816622e+03
-1.149742559993024e+03  2.336496325119632e+02 -2.918975276816622e+03
-1.148837368215189e+03  2.299661292490016e+02 -2.918975276816622e+03
-1.149146716646390e+03  2.269629888637347e+02 -2.918975276816622e+03
-1.148063324995452e+03  2.263112973441605e+02 -2.918975276816622e+03
-1.147682735221211e+03  2.245869435896121e+02 -2.918975276816622e+03
-1.147758805022733e+03  2.232746274677207e+02 -2.918975276816622e+03
-1.147326562641452e+03  2.200685487833719e+02 -2.918975276816622e+03
-1.146984858091896e+03  2.170386761658552e+02 -2.918975276816622e+03
-1.147076737544149e+03  2.164607660803611e+02 -2.918975276816622e+03
-1.147030171088336e+03  2.144923410864074e+02 -2.918975276816622e+03
-1.147058846161966e+03  2.135786819821493e+02 -2.918975276816622e+03
-1.146979356553979e+03  2.119500006941431e+02 -2.918975276816622e+03
-1.146975555397367e+03  2.100943471901367e+02 -2.918975276816622e+03
-1.147005658453439e+03  2.093117956143074e+02 -2.918975276816622e+03
-1.146986185897867e+03  2.072356513712626e+02 -2.918975276816622e+03
-1.146869664550489e+03  2.046457746791461e+02 -2.918975276816622e+03
-1.147049132376371e+03  1.986151630182710e+02 -2.918975276816622e+03
-1.147089077321272e+03  1.963285502976667e+02 -2.918975276816622e+03
-1.147032646819793e+03  1.922033053506674e+02 -2.918975276816622e+03
-1.147030202004618e+03  1.902484384603653e+02 -2.918975276816622e+03
-1.147039431917527e+03  1.891400404827232e+02 -2.918975276816622e+03
-1.147042300457241e+03  1.872294123656393e+02 -2.918975276816622e+03
-1.147056112787173e+03  1.862619684566420e+02 -2.918975276816622e+03
-1.147055031965210e+03  1.844455038506439e+02 -2.918975276816622e+03
-1.147059008379758e+03  1.833528572951389e+02 -2.918975276816622e+03
-1.147058063005714e+03  1.804905972820449e+02 -2.918975276816622e+03
-1.147030086410699e+03  1.788866772568278e+02 -2.918975276816622e+03
-1.147043699879790e+03  1.782957573964819e+02 -2.918975276816622e+03
-1.147028942882232e+03  1.759945024729531e+02 -2.918975276816622e+03
-1.147059707021992e+03  1.735346588043829e+02 -2.918975276816622e+03
-1.147089260687393e+03  1.718465934020643e+02 -2.918975276816622e+03
-1.147077188811526e+03  1.701773068342727e+02 -2.918975276816622e+03
-1.147136205462490e+03  1.690104604678486e+02 -2.918975276816622e+03
-1.147084302403696e+03  1.674338950162534e+02 -2.918975276816622e+03
-1.147199380311576e+03  1.662180540319246e+02 -2.918975276816622e+03
-1.147204466493914e+03  1.640958558180451e+02 -2.918975276816622e+03
-1.147108887467742e+03  1.635795498147448e+02 -2.918975276816622e+03
-1.147160182033296e+03  1.609996280168918e+02 -2.918975276816622e+03
-1.147181192055364e+03  1.603043793317183e+02 -2.918975276816622e+03
-1.147172172354248e+03  1.582489512838976e+02 -2.918975276816622e+03
-1.147136099745295e+03  1.532300578292713e+02 -2.918975276816622e+03
-1.147138964503618e+03  1.516227815674146e+02 -2.918975276816622e+03
-1.147109981137618e+03  1.499599399539494e+02 -2.918975276816622e+03
-1.147125326394334e+03  1.491730834651828e+02 -2.918975276816622e+03
-1.147091715186841e+03  1.474738391867178e+02 -2.918975276816622e+03
-1.147142344445082e+03  1.463377206586414e+02 -2.918975276816622e+03
-1.147190153208951e+03  1.443832341914027e+02 -2.918975276816622e+03
-1.147160653776507e+03  1.433445851900797e+02 -2.918975276816622e+03
-1.147155650232616e+03  1.410111942157819e+02 -2.918975276816622e+03
-1.147166206078028e+03  1.407963682265704e+02 -2.918975276816622e+03
-1.147178083238002e+03  1.386090579293607e+02 -2.918975276816622e+03
-1.147216130694540e+03  1.370800893326156e+02 -2.918975276816622e+03
-1.147209577816530e+03  1.365726796275140e+02 -2.918975276816622e+03
-1.147256291552382e+03  1.340480997667125e+02 -2.918975276816622e+03
-1.147244093496802e+03  1.330341846378035e+02 -2.918975276816622e+03
-1.147287932974391e+03  1.304482183923872e+02 -2.918975276816622e+03
-1.147295409201067e+03  1.292108097775231e+02 -2.918975276816622e+03
-1.147351032531619e+03  1.274099010122628e+02 -2.918975276816622e+03
-1.147341440748645e+03  1.256835798725742e+02 -2.918975276816622e+03
-1.147415777352455e+03  1.211384718371127e+02 -2.918975276816622e+03
-1.147417918068235e+03  1.201492467963099e+02 -2.918975276816622e+03
-1.147501120533937e+03  1.178332267470063e+02 -2.918975276816622e+03
-1.147431026172304e+03  1.148676786714891e+02 -2.918975276816622e+03
-1.147560090967499e+03  1.128141491626162e+02 -2.918975276816622e+03
-1.147449856570164e+03  1.118925376226719e+02 -2.918975276816622e+03
-1.147617559477016e+03  1.103725530419450e+02 -2.918975276816622e+03
-1.147450752597012e+03  1.094176797704853e+02 -2.918975276816622e+03
-1.147637191432526e+03  1.070180561772404e+02 -2.918975276816622e+03
-1.147559051182970e+03  1.060521188354434e+02 -2.918975276816622e+03
-1.147682866752394e+03  1.047826649116078e+02 -2.918975276816622e+03
-1.147537647638276e+03  1.034340395669643e+02 -2.918975276816622e+03
-1.147713507877596e+03  1.010777551659807e+02 -2.918975276816622e+03
-1.147647204549243e+03  1.000087040540398e+02 -2.918975276816622e+03
-1.147722459237809e+03  9.863991252533484e+01 -2.918975276816622e+03
-1.147622131647720e+03  9.708037060729983e+01 -2.918975276816622e+03
-1.147740858153035e+03  9.518108017501596e+01 -2.918975276816622e+03
-1.147689944805375e+03  9.149603684750909e+01 -2.918975276816622e+03
-1.147748542589420e+03  8.882302957912279e+01 -2.918975276816622e+03
-1.147733104012706e+03  8.565118675897209e+01 -2.918975276816622e+03
-1.147758918050303e+03  8.233408720648512e+01 -2.918975276816622e+03
-1.147759032402179e+03  8.086809802494071e+01 -2.918975276816622e+03
-1.147759808456229e+03  7.895347443484927e+01 -2.918975276816622e+03
-1.147779478441583e+03  7.617593122577667e+01 -2.918975276816622e+03
-1.147760714363565e+03  7.382308136155677e+01 -2.918975276816622e+03
-1.147791890912869e+03  7.168812621505009e+01 -2.918975276816622e+03
-1.147770180170579e+03  7.060177679113262e+01 -2.918975276816622e+03
-1.147807476735184e+03  6.817346245226837e+01 -2.918975276816622e+03
-1.147793350970014e+03  6.760288321330434e+01 -2.918975276816622e+03
-1.147833158718897e+03  6.561758442071579e+01 -2.918975276816622e+03
-1.147844729141740e+03  6.197974168261421e+01 -2.918975276816622e+03
-1.147857179181425e+03  5.514390484734906e+01 -2.918975276816622e+03
-1.147838291745091e+03  5.319130425171108e+01 -2.918975276816622e+03
-1.148000267441948e+03  5.156756028489485e+01 -2.918975276816622e+03
-1.147915338906051e+03  4.965731059639187e+01 -2.918975276816622e+03
-1.147981118398179e+03  4.740346697931925e+01 -2.918975276816622e+03
-1.148045288576257e+03  4.451796007262161e+01 -2.918975276816622e+03
-1.148191870708063e+03  4.135709201990898e+01 -2.918975276816622e+03
-1.148159644626527e+03  3.969751510301465e+01 -2.918975276816622e+03
-1.148187893955582e+03  3.835948123458039e+01 -2.918975276816622e+03
-1.148236157596635e+03  3.544569641631547e+01 -2.918975276816622e+03
-1.148530878799668e+03  3.170837744571056e+01 -2.918975276816622e+03
-1.148365633686988e+03  2.907848312707604e+01 -2.918975276816622e+03
-1.148465929041497e+03  2.326870449214107e+01 -2.918975276816622e+03
-1.148471997500998e+03  2.290264279588267e+01 -2.918975276816622e+03
-1.148479224759816e+03  2.117965674676773e+01 -2.918975276816622e+03
-1.148489291526705e+03  2.015209055291611e+01 -2.918975276816622e+03
-1.148513416172799e+03  1.791415910602040e+01 -2.918975276816622e+03
-1.148493784515775e+03  1.602571680998619e+01 -2.918975276816622e+03
-1.148494497938370e+03  1.388056787567742e+01 -2.918975276816622e+03
-1.148512278723821e+03  7.648332825175497e+00 -2.918975276816622e+03
-1.148521376725580e+03  6.188039659725592e+00 -2.918975276816622e+03
-1.148506899869629e+03  5.239813700299725e+00 -2.918975276816622e+03
1.145762025595707e+03 5.235608233268954e-01 2.918975276816622e+03
1.145842120690402e+03 1.343562699898825e-01 2.918975276816622e+03
 1.145821131838967e+03 -9.026765991744288e-01  2.918975276816622e+03
 1.145768724867135e+03 -3.527822980084071e+00  2.918975276816622e+03
 1.145748612423942e+03 -4.453791007974668e+00  2.918975276816622e+03
 1.145651154555827e+03 -8.820700794325443e+00  2.918975276816622e+03
 1.145620616601616e+03 -9.820327629779722e+00  2.918975276816622e+03
 1.145577933797990e+03 -1.177075583858717e+01  2.918975276816622e+03
 1.145537625699034e+03 -1.343031869485118e+01  2.918975276816622e+03
 1.145454462732887e+03 -1.701804447257996e+01  2.918975276816622e+03
 1.145341437840061e+03 -2.154093148600263e+01  2.918975276816622e+03
 1.145291108903594e+03 -2.385395848149460e+01  2.918975276816622e+03
 1.145220923595839e+03 -2.615640194862639e+01  2.918975276816622e+03
 1.145193995931135e+03 -2.780441389745507e+01  2.918975276816622e+03
 1.145121593187481e+03 -2.979169256764676e+01  2.918975276816622e+03
 1.145128604428303e+03 -3.019375726466216e+01  2.918975276816622e+03
 1.145117691329514e+03 -3.192075912588557e+01  2.918975276816622e+03
 1.145108380781665e+03 -3.332652857336834e+01  2.918975276816622e+03
 1.145070764334468e+03 -3.799914641048195e+01  2.918975276816622e+03
 1.145063040985162e+03 -3.936991326596362e+01  2.918975276816622e+03
 1.145054618108521e+03 -4.206971350464062e+01  2.918975276816622e+03
 1.145007756598054e+03 -4.469968279553188e+01  2.918975276816622e+03
 1.144970213249982e+03 -4.555540838895458e+01  2.918975276816622e+03
 1.144959373895306e+03 -4.763150079094100e+01  2.918975276816622e+03
 1.144723733545867e+03 -5.000490271222572e+01  2.918975276816622e+03
 1.144983862048896e+03 -5.034635691128769e+01  2.918975276816622e+03
 1.144825186900174e+03 -5.362527281411523e+01  2.918975276816622e+03
 1.145032558081858e+03 -5.451734420899144e+01  2.918975276816622e+03
 1.144858096243043e+03 -5.635040202170367e+01  2.918975276816622e+03
 1.144940535534882e+03 -5.865096412682443e+01  2.918975276816622e+03
 1.144806464070415e+03 -6.037970043388732e+01  2.918975276816622e+03
 1.144903612969325e+03 -6.238212841824789e+01  2.918975276816622e+03
 1.144822696875549e+03 -6.370755781099553e+01  2.918975276816622e+03
 1.144882945462397e+03 -6.457891101066416e+01  2.918975276816622e+03
 1.144820172872279e+03 -6.539371725852268e+01  2.918975276816622e+03
 1.144885385555802e+03 -6.694664700134685e+01  2.918975276816622e+03
 1.144844000904349e+03 -6.857473588992738e+01  2.918975276816622e+03
 1.144871232617790e+03 -7.029022998368879e+01  2.918975276816622e+03
 1.144876433973827e+03 -7.501446612367474e+01  2.918975276816622e+03
 1.144905233525389e+03 -7.872378436246510e+01  2.918975276816622e+03
 1.144894527958525e+03 -8.070357096014725e+01  2.918975276816622e+03
 1.144927314528157e+03 -8.229763060758650e+01  2.918975276816622e+03
 1.144910540083646e+03 -8.397345403313909e+01  2.918975276816622e+03
 1.144945087381096e+03 -8.500955315592273e+01  2.918975276816622e+03
 1.144932478184699e+03 -8.509867480190236e+01  2.918975276816622e+03
 1.144963707208798e+03 -8.617274594914846e+01  2.918975276816622e+03
 1.144934383401907e+03 -8.726293498581090e+01  2.918975276816622e+03
 1.144958426441139e+03 -8.891549040106092e+01  2.918975276816622e+03
 1.144940724207260e+03 -9.020887576645278e+01  2.918975276816622e+03
 1.144944087817017e+03 -9.472659114590381e+01  2.918975276816622e+03
 1.144942382241880e+03 -9.800538767182046e+01  2.918975276816622e+03
 1.144962813758397e+03 -9.938400606273655e+01  2.918975276816622e+03
 1.144937561254516e+03 -1.017353249410762e+02  2.918975276816622e+03
 1.144978063720760e+03 -1.027929192985937e+02  2.918975276816622e+03
 1.144952087589168e+03 -1.041366015508766e+02  2.918975276816622e+03
 1.144948531021505e+03 -1.042569309192496e+02  2.918975276816622e+03
 1.144909375243891e+03 -1.055370282327486e+02  2.918975276816622e+03
 1.144929218406559e+03 -1.063478392001685e+02  2.918975276816622e+03
 1.144905747540886e+03 -1.075187396815723e+02  2.918975276816622e+03
 1.144880159838941e+03 -1.100415880768393e+02  2.918975276816622e+03
 1.144880772657183e+03 -1.101937957096663e+02  2.918975276816622e+03
 1.144831148949209e+03 -1.145899483405544e+02  2.918975276816622e+03
 1.144795465468222e+03 -1.194497476961284e+02  2.918975276816622e+03
 1.144783681247161e+03 -1.217885251442493e+02  2.918975276816622e+03
 1.144770616941950e+03 -1.264646959149402e+02  2.918975276816622e+03
 1.144764990022348e+03 -1.287378641620174e+02  2.918975276816622e+03
 1.144762189992201e+03 -1.302012991340801e+02  2.918975276816622e+03
 1.144765163955949e+03 -1.347684463593001e+02  2.918975276816622e+03
 1.144779470473260e+03 -1.379749610812056e+02  2.918975276816622e+03
 1.144775524999670e+03 -1.392891139198782e+02  2.918975276816622e+03
 1.144795553455474e+03 -1.430048623049283e+02  2.918975276816622e+03
 1.144790898919417e+03 -1.447998697291711e+02  2.918975276816622e+03
 1.144807221720982e+03 -1.468239867422817e+02  2.918975276816622e+03
 1.144806815805158e+03 -1.488074116729459e+02  2.918975276816622e+03
 1.144813971233098e+03 -1.502562936661918e+02  2.918975276816622e+03
 1.144822803087921e+03 -1.549901135459357e+02  2.918975276816622e+03
 1.144835734156418e+03 -1.586272449894352e+02  2.918975276816622e+03
 1.144832026074223e+03 -1.604655022145771e+02  2.918975276816622e+03
 1.144849355068475e+03 -1.621624001556421e+02  2.918975276816622e+03
 1.144838716570752e+03 -1.639370288497947e+02  2.918975276816622e+03
 1.144850828346672e+03 -1.651472519303198e+02  2.918975276816622e+03
 1.144844486929738e+03 -1.655900340304644e+02  2.918975276816622e+03
 1.144851113638983e+03 -1.671749322121812e+02  2.918975276816622e+03
 1.144845098705442e+03 -1.686640681944616e+02  2.918975276816622e+03
 1.144847318666805e+03 -1.701598449717989e+02  2.918975276816622e+03
 1.144842701187458e+03 -1.750467753269974e+02  2.918975276816622e+03
 1.144842443283948e+03 -1.785302746714597e+02  2.918975276816622e+03
 1.144837677598721e+03 -1.802645284951681e+02  2.918975276816622e+03
 1.144840401422134e+03 -1.815586009958111e+02  2.918975276816622e+03
 1.144833415787472e+03 -1.856939001111454e+02  2.918975276816622e+03
 1.144833895237132e+03 -1.873636307839074e+02  2.918975276816622e+03
 1.144833195662684e+03 -1.889527721408822e+02  2.918975276816622e+03
 1.144831463098027e+03 -1.902484949730803e+02  2.918975276816622e+03
 1.144831243156268e+03 -1.949424780674665e+02  2.918975276816622e+03
 1.144832350280394e+03 -1.987743484117094e+02  2.918975276816622e+03
 1.144831301911103e+03 -2.029070211463872e+02  2.918975276816622e+03
 1.144833963966869e+03 -2.067942095458621e+02  2.918975276816622e+03
 1.144835005339657e+03 -2.083980178764038e+02  2.918975276816622e+03
 1.144837005953287e+03 -2.101017374968737e+02  2.918975276816622e+03
 1.144841320679255e+03 -2.148044438602481e+02  2.918975276816622e+03
 1.144845034682616e+03 -2.169527370228721e+02  2.918975276816622e+03
 1.144848587384722e+03 -2.186595294772767e+02  2.918975276816622e+03
 1.144857435472004e+03 -2.237435710433007e+02  2.918975276816622e+03
 1.144860008139707e+03 -2.251341168753784e+02  2.918975276816622e+03
 1.144877191346961e+03 -2.288523196234265e+02  2.918975276816622e+03
 1.144871758891904e+03 -2.301853557477350e+02  2.918975276816622e+03
 1.144904321130692e+03 -2.328835180131805e+02  2.918975276816622e+03
 1.144888723996673e+03 -2.341762091602082e+02  2.918975276816622e+03
 1.144937231249431e+03 -2.368090524969180e+02  2.918975276816622e+03
 1.144922189138549e+03 -2.389166389007245e+02  2.918975276816622e+03
 1.144962225644476e+03 -2.414181467423837e+02  2.918975276816622e+03
 1.144960226064664e+03 -2.449573442545458e+02  2.918975276816622e+03
 1.145003216917785e+03 -2.480065442355632e+02  2.918975276816622e+03
 1.145007369820416e+03 -2.489276891993593e+02  2.918975276816622e+03
 1.145042329641529e+03 -2.535923036099242e+02  2.918975276816622e+03
 1.145078183738856e+03 -2.570588391702913e+02  2.918975276816622e+03
 1.145032685370345e+03 -2.571324170400671e+02  2.918975276816622e+03
 1.145077738307160e+03 -2.607096848832601e+02  2.918975276816622e+03
 1.145077163736086e+03 -2.658385968985378e+02  2.918975276816622e+03
 1.145092867393727e+03 -2.690383400340507e+02  2.918975276816622e+03
 1.145083619002528e+03 -2.700191596256504e+02  2.918975276816622e+03
 1.145103858575179e+03 -2.727494315974088e+02  2.918975276816622e+03
 1.145093887578643e+03 -2.733915954245091e+02  2.918975276816622e+03
 1.145109487895791e+03 -2.758358805632980e+02  2.918975276816622e+03
 1.145108111424462e+03 -2.785645750774830e+02  2.918975276816622e+03
 1.145121887827057e+03 -2.833269666296322e+02  2.918975276816622e+03
 1.145124134266229e+03 -2.867491138783119e+02  2.918975276816622e+03
 1.145140636425697e+03 -2.885828970468833e+02  2.918975276816622e+03
 1.145126940120434e+03 -2.907952008806880e+02  2.918975276816622e+03
 1.145134908197091e+03 -2.931319617127398e+02  2.918975276816622e+03
 1.145143555030234e+03 -2.950541641233724e+02  2.918975276816622e+03
 1.145158316127709e+03 -2.987542045356531e+02  2.918975276816622e+03
 1.145147661371118e+03 -2.990032067973900e+02  2.918975276816622e+03
 1.145140754923360e+03 -3.026529923294775e+02  2.918975276816622e+03
 1.145162330140372e+03 -3.036827090721392e+02  2.918975276816622e+03
 1.145113779813932e+03 -3.082378907661673e+02  2.918975276816622e+03
 1.145107586217699e+03 -3.100837238989496e+02  2.918975276816622e+03
 1.145056301749268e+03 -3.123540998817236e+02  2.918975276816622e+03
 1.145071210413300e+03 -3.136862457707656e+02  2.918975276816622e+03
 1.145024155409327e+03 -3.149379785331986e+02  2.918975276816622e+03
 1.145082394145008e+03 -3.179784413540481e+02  2.918975276816622e+03
 1.144977183355478e+03 -3.190795833032891e+02  2.918975276816622e+03
 1.145042358421519e+03 -3.215667061692459e+02  2.918975276816622e+03
 1.144905513120650e+03 -3.234262525994039e+02  2.918975276816622e+03
 1.144969261757964e+03 -3.261419707528411e+02  2.918975276816622e+03
 1.144922567247270e+03 -3.264914785677639e+02  2.918975276816622e+03
 1.145018440010657e+03 -3.290280508871056e+02  2.918975276816622e+03
 1.144873077893940e+03 -3.316786905727944e+02  2.918975276816622e+03
 1.145004198424947e+03 -3.344676237325251e+02  2.918975276816622e+03
 1.144859893654836e+03 -3.376038875879502e+02  2.918975276816622e+03
 1.144983770747589e+03 -3.382524483046826e+02  2.918975276816622e+03
 1.144782524993897e+03 -3.405955862607647e+02  2.918975276816622e+03
 1.144968811903479e+03 -3.431402992302213e+02  2.918975276816622e+03
 1.144766937011819e+03 -3.450351247339863e+02  2.918975276816622e+03
 1.144938438084706e+03 -3.487377748881194e+02  2.918975276816622e+03
 1.144758612728730e+03 -3.513445114859383e+02  2.918975276816622e+03
 1.144901145823145e+03 -3.532736284607695e+02  2.918975276816622e+03
 1.144733417023524e+03 -3.571152662557663e+02  2.918975276816622e+03
 1.144827907907501e+03 -3.596925361165768e+02  2.918975276816622e+03
 1.144799535704029e+03 -3.599626681564848e+02  2.918975276816622e+03
 1.144863321868485e+03 -3.618031728126759e+02  2.918975276816622e+03
 1.144841706791975e+03 -3.668990707150994e+02  2.918975276816622e+03
 1.144860168595610e+03 -3.685858418203125e+02  2.918975276816622e+03
 1.144861789689388e+03 -3.713903008735920e+02  2.918975276816622e+03
 1.144867364452874e+03 -3.717030811233017e+02  2.918975276816622e+03
 1.144888172249484e+03 -3.752675944785839e+02  2.918975276816622e+03
 1.144916822469993e+03 -3.778670057546942e+02  2.918975276816622e+03
 1.144951315331913e+03 -3.828967820806553e+02  2.918975276816622e+03
 1.144963785534244e+03 -3.834836194806372e+02  2.918975276816622e+03
1.145001868517671e+03 3.848362096578348e+02 2.918975276816622e+03
1.145041410560795e+03 3.813420196791337e+02 2.918975276816622e+03
1.145056470374578e+03 3.788096496929510e+02 2.918975276816622e+03
1.145072975778077e+03 3.778689348706464e+02 2.918975276816622e+03
1.145079405947330e+03 3.763993076983502e+02 2.918975276816622e+03
1.145119362007311e+03 3.736862729914840e+02 2.918975276816622e+03
1.145111472138106e+03 3.728456144320608e+02 2.918975276816622e+03
1.145151313252399e+03 3.712254591284274e+02 2.918975276816622e+03
1.145168746433790e+03 3.672988274812039e+02 2.918975276816622e+03
1.145225603970406e+03 3.653788124483795e+02 2.918975276816622e+03
1.145219189956120e+03 3.626216960433922e+02 2.918975276816622e+03
1.145300247679432e+03 3.599569939856648e+02 2.918975276816622e+03
1.145277168616210e+03 3.581771343571621e+02 2.918975276816622e+03
1.145340338580808e+03 3.571311764933498e+02 2.918975276816622e+03
1.145314622387943e+03 3.554393703952915e+02 2.918975276816622e+03
1.145399937852406e+03 3.537428275638938e+02 2.918975276816622e+03
1.145376916700441e+03 3.517015664609530e+02 2.918975276816622e+03
1.145468590768342e+03 3.504183440624867e+02 2.918975276816622e+03
1.145440949442172e+03 3.480826433217936e+02 2.918975276816622e+03
1.145529339598556e+03 3.467876719659795e+02 2.918975276816622e+03
1.145506821235153e+03 3.446244664588651e+02 2.918975276816622e+03
1.145607898615370e+03 3.435463356400130e+02 2.918975276816622e+03
1.145571466637912e+03 3.415501181836581e+02 2.918975276816622e+03
1.145611444509812e+03 3.399685158024595e+02 2.918975276816622e+03
1.145650032244319e+03 3.381983951596029e+02 2.918975276816622e+03
1.145651363076890e+03 3.346240528624402e+02 2.918975276816622e+03
1.145749768145389e+03 3.315581149919441e+02 2.918975276816622e+03
1.145711517628189e+03 3.288258949891178e+02 2.918975276816622e+03
1.145867747935665e+03 3.287742227857556e+02 2.918975276816622e+03
1.145695741956980e+03 3.260682796248755e+02 2.918975276816622e+03
1.145809288709983e+03 3.235077156887101e+02 2.918975276816622e+03
1.145713360889590e+03 3.214372287032475e+02 2.918975276816622e+03
1.145824389610773e+03 3.193333852698930e+02 2.918975276816622e+03
1.145742550498999e+03 3.186361300028615e+02 2.918975276816622e+03
1.145794171523482e+03 3.161507303370471e+02 2.918975276816622e+03
1.145723429424767e+03 3.135073930942634e+02 2.918975276816622e+03
1.145816652321759e+03 3.119147024091724e+02 2.918975276816622e+03
1.145761924415219e+03 3.116878646119532e+02 2.918975276816622e+03
1.145807942713922e+03 3.096682097056256e+02 2.918975276816622e+03
1.145722199121751e+03 3.078306711037009e+02 2.918975276816622e+03
1.145724701437317e+03 3.065153432714555e+02 2.918975276816622e+03
1.145629740404116e+03 3.021134043591590e+02 2.918975276816622e+03
1.145654875769877e+03 3.018420990414464e+02 2.918975276816622e+03
1.145599305971913e+03 2.989075690936078e+02 2.918975276816622e+03
1.145577836152280e+03 2.975033757427529e+02 2.918975276816622e+03
1.145544529327264e+03 2.952878930995708e+02 2.918975276816622e+03
1.145507498007422e+03 2.937557056881055e+02 2.918975276816622e+03
1.145495979814945e+03 2.919783966969956e+02 2.918975276816622e+03
1.145455380004370e+03 2.870997358213396e+02 2.918975276816622e+03
1.145414218544288e+03 2.849514170048790e+02 2.918975276816622e+03
1.145309049323160e+03 2.827473566262765e+02 2.918975276816622e+03
1.145351579998522e+03 2.811973193865988e+02 2.918975276816622e+03
1.145277786048351e+03 2.773779451139658e+02 2.918975276816622e+03
1.145239465702824e+03 2.752970159787922e+02 2.918975276816622e+03
1.145186606806609e+03 2.711839757501706e+02 2.918975276816622e+03
1.145094423317903e+03 2.665791129121634e+02 2.918975276816622e+03
1.145110769881700e+03 2.652272683026379e+02 2.918975276816622e+03
1.145076657985131e+03 2.623886795778591e+02 2.918975276816622e+03
1.145026896141876e+03 2.583829136200429e+02 2.918975276816622e+03
1.145027437796839e+03 2.579520217880611e+02 2.918975276816622e+03
1.144981578525680e+03 2.533258540440308e+02 2.918975276816622e+03
1.144884765563168e+03 2.512882104048657e+02 2.918975276816622e+03
1.145003185145948e+03 2.503263468302831e+02 2.918975276816622e+03
1.144871765347146e+03 2.485813750120584e+02 2.918975276816622e+03
1.145114445742445e+03 2.470733191375535e+02 2.918975276816622e+03
1.144893737900034e+03 2.457663633060790e+02 2.918975276816622e+03
1.145071356080554e+03 2.445340292594850e+02 2.918975276816622e+03
1.144935123517316e+03 2.428328214468346e+02 2.918975276816622e+03
1.145045154657688e+03 2.355101791564535e+02 2.918975276816622e+03
1.145026024926748e+03 2.339652167047670e+02 2.918975276816622e+03
1.145031434437320e+03 2.313368527473474e+02 2.918975276816622e+03
1.144983032466887e+03 2.285589887589038e+02 2.918975276816622e+03
1.144990952035865e+03 2.274234061133820e+02 2.918975276816622e+03
1.144971276131321e+03 2.262978334024772e+02 2.918975276816622e+03
1.145006574072505e+03 2.237850494261321e+02 2.918975276816622e+03
1.144983094783845e+03 2.218455900367914e+02 2.918975276816622e+03
1.144972240308965e+03 2.202329553146396e+02 2.918975276816622e+03
1.145004559492744e+03 2.158079692819542e+02 2.918975276816622e+03
1.145045358361657e+03 2.127153606383575e+02 2.918975276816622e+03
1.145040801506644e+03 2.111791857888554e+02 2.918975276816622e+03
1.145092961847773e+03 2.086689578972468e+02 2.918975276816622e+03
1.145080955782435e+03 2.076349429851932e+02 2.918975276816622e+03
1.145123199896839e+03 2.062662380265326e+02 2.918975276816622e+03
1.145111742122968e+03 2.060631390008078e+02 2.918975276816622e+03
1.145099264163084e+03 2.046283377839104e+02 2.918975276816622e+03
1.145071432636599e+03 2.039897299726772e+02 2.918975276816622e+03
1.145107840423973e+03 2.024740974327741e+02 2.918975276816622e+03
1.145064873732618e+03 2.010857614960968e+02 2.918975276816622e+03
1.145024999351612e+03 2.002632027945895e+02 2.918975276816622e+03
1.144999635925445e+03 1.953971516102472e+02 2.918975276816622e+03
1.144967907572315e+03 1.922365169279204e+02 2.918975276816622e+03
1.144902310095177e+03 1.879330364169571e+02 2.918975276816622e+03
1.144792725053653e+03 1.863250427738165e+02 2.918975276816622e+03
1.144834229042837e+03 1.835997510788296e+02 2.918975276816622e+03
1.144847426994450e+03 1.815230302449563e+02 2.918975276816622e+03
1.144719399943202e+03 1.804036228770702e+02 2.918975276816622e+03
1.144645902662710e+03 1.756659539630343e+02 2.918975276816622e+03
1.144605571703589e+03 1.726538532229243e+02 2.918975276816622e+03
1.144406028277512e+03 1.708657803095016e+02 2.918975276816622e+03
1.144386459206882e+03 1.688121794796306e+02 2.918975276816622e+03
1.144258632557482e+03 1.677591060740963e+02 2.918975276816622e+03
1.144571819041744e+03 1.663014449094134e+02 2.918975276816622e+03
1.144966784563264e+03 1.568326469623323e+02 2.918975276816622e+03
1.145045792704351e+03 1.537636710537662e+02 2.918975276816622e+03
1.145119233408115e+03 1.510592739810028e+02 2.918975276816622e+03
1.145302441259003e+03 1.475097721344922e+02 2.918975276816622e+03
1.145470204184561e+03 1.460681561971143e+02 2.918975276816622e+03
1.145568308596998e+03 1.450688163493858e+02 2.918975276816622e+03
1.145576720694007e+03 1.449949549668303e+02 2.918975276816622e+03
1.145420744479942e+03 1.438786961071632e+02 2.918975276816622e+03
1.145309428039528e+03 1.418347028692112e+02 2.918975276816622e+03
1.145223616941855e+03 1.404050803493076e+02 2.918975276816622e+03
1.145066093444817e+03 1.360062926977010e+02 2.918975276816622e+03
1.145043442637133e+03 1.329003070130465e+02 2.918975276816622e+03
1.144990307884446e+03 1.312696295790480e+02 2.918975276816622e+03
1.145020634509427e+03 1.289073477146770e+02 2.918975276816622e+03
1.145009019099209e+03 1.277914310466704e+02 2.918975276816622e+03
1.145061259131262e+03 1.264601528675723e+02 2.918975276816622e+03
1.145050494796360e+03 1.262918983415717e+02 2.918975276816622e+03
1.145113184369665e+03 1.249985940166034e+02 2.918975276816622e+03
1.145122988564901e+03 1.249737668447224e+02 2.918975276816622e+03
1.144991739920274e+03 1.236544419667398e+02 2.918975276816622e+03
1.144937301100673e+03 1.219470836973408e+02 2.918975276816622e+03
1.144864973720083e+03 1.204685133378006e+02 2.918975276816622e+03
1.144795009086585e+03 1.158913011783858e+02 2.918975276816622e+03
1.144719796373764e+03 1.123685023056943e+02 2.918975276816622e+03
1.144768785658033e+03 1.106731213791164e+02 2.918975276816622e+03
1.144722478160836e+03 1.091531298287418e+02 2.918975276816622e+03
1.144799094875268e+03 1.069958601283882e+02 2.918975276816622e+03
1.144815345081159e+03 1.053118463251321e+02 2.918975276816622e+03
1.144925912541514e+03 1.020366626979038e+02 2.918975276816622e+03
1.144954568383678e+03 1.006260500911395e+02 2.918975276816622e+03
1.145135698787539e+03 9.560485134557848e+01 2.918975276816622e+03
1.145209966448002e+03 9.375455307798195e+01 2.918975276816622e+03
1.145577490166308e+03 8.349199099101166e+01 2.918975276816622e+03
1.145691752301582e+03 8.032585161393797e+01 2.918975276816622e+03
1.145788949902474e+03 7.596222199182327e+01 2.918975276816622e+03
1.146068009204942e+03 7.042060710395590e+01 2.918975276816622e+03
1.146041767170892e+03 6.449854264634287e+01 2.918975276816622e+03
1.146201942782402e+03 6.272205999927293e+01 2.918975276816622e+03
1.146290348242010e+03 5.764448840042790e+01 2.918975276816622e+03
1.146289146290427e+03 5.713705723776980e+01 2.918975276816622e+03
1.146269163727445e+03 5.503621501579567e+01 2.918975276816622e+03
1.146294945501118e+03 5.312998446789448e+01 2.918975276816622e+03
1.146243607915554e+03 5.064195836010811e+01 2.918975276816622e+03
1.146318106848357e+03 4.938727718315989e+01 2.918975276816622e+03
1.146236398632656e+03 4.777889502329509e+01 2.918975276816622e+03
1.146287989344366e+03 4.701797042463197e+01 2.918975276816622e+03
1.146226430151330e+03 4.416746985424834e+01 2.918975276816622e+03
1.146230757505387e+03 4.245800328764325e+01 2.918975276816622e+03
1.146226769920492e+03 4.198868333976725e+01 2.918975276816622e+03
1.146222269740758e+03 4.031889949719667e+01 2.918975276816622e+03
1.146213328003199e+03 3.824566093554249e+01 2.918975276816622e+03
1.146209135787028e+03 3.609694417070668e+01 2.918975276816622e+03
1.146194062976764e+03 3.385557560798370e+01 2.918975276816622e+03
1.146182775827099e+03 2.914595625093098e+01 2.918975276816622e+03
1.146163328432369e+03 2.724474414716953e+01 2.918975276816622e+03
1.146159419449169e+03 2.362224944077348e+01 2.918975276816622e+03
1.146103259584568e+03 2.074471955703487e+01 2.918975276816622e+03
1.146095415167522e+03 1.748024730194133e+01 2.918975276816622e+03
1.146044262868978e+03 1.291352707237759e+01 2.918975276816622e+03
1.146017467060516e+03 1.086438549088584e+01 2.918975276816622e+03
1.146000996302227e+03 9.864740711698774e+00 2.918975276816622e+03
1.145964960292302e+03 7.782793274289331e+00 2.918975276816622e+03
1.145931199505875e+03 4.468390744646346e+00 2.918975276816622e+03
1.145890616389735e+03 2.825444615304375e+00 2.918975276816622e+03
-1.157366129661896e+03  1.137774903038574e+00 -2.918975276816622e+03
-1.157315412897421e+03 -5.925823409444890e+00 -2.918975276816622e+03
-1.157310892593486e+03 -1.050103410417167e+01 -2.918975276816622e+03
-1.157306400825707e+03 -1.062434553775908e+01 -2.918975276816622e+03
-1.157276172899290e+03 -1.380745515491999e+01 -2.918975276816622e+03
-1.157257866933973e+03 -1.486233563458127e+01 -2.918975276816622e+03
-1.157239274294714e+03 -1.681169536221468e+01 -2.918975276816622e+03
-1.157188934418599e+03 -2.137879902001002e+01 -2.918975276816622e+03
-1.157181150886272e+03 -2.198723705821978e+01 -2.918975276816622e+03
-1.157141331042356e+03 -2.576943715270966e+01 -2.918975276816622e+03
-1.157105176593986e+03 -2.845044718269746e+01 -2.918975276816622e+03
-1.157045780248467e+03 -3.288018831571374e+01 -2.918975276816622e+03
-1.157038231689914e+03 -3.444507486094597e+01 -2.918975276816622e+03
-1.156984765119454e+03 -3.599249193227788e+01 -2.918975276816622e+03
-1.157010881911791e+03 -3.716765172842628e+01 -2.918975276816622e+03
-1.156910608627117e+03 -4.051301256736156e+01 -2.918975276816622e+03
-1.156964648773511e+03 -4.131751872995356e+01 -2.918975276816622e+03
-1.156846413900718e+03 -4.358824035663348e+01 -2.918975276816622e+03
-1.156919939998637e+03 -4.524943521771736e+01 -2.918975276816622e+03
-1.156851801839193e+03 -4.564702926059417e+01 -2.918975276816622e+03
-1.156941450201649e+03 -4.739897520538317e+01 -2.918975276816622e+03
-1.156792240297813e+03 -4.974543696122658e+01 -2.918975276816622e+03
-1.156888988153923e+03 -5.041265630564904e+01 -2.918975276816622e+03
-1.156763800168767e+03 -5.207093449180483e+01 -2.918975276816622e+03
-1.156844728612898e+03 -5.510344548789554e+01 -2.918975276816622e+03
-1.156702034113669e+03 -5.619197662473081e+01 -2.918975276816622e+03
-1.156828063837793e+03 -5.863084017043525e+01 -2.918975276816622e+03
-1.156718863475551e+03 -6.056040233991199e+01 -2.918975276816622e+03
-1.156786877406639e+03 -6.142078253681121e+01 -2.918975276816622e+03
-1.156694437008986e+03 -6.355626009867474e+01 -2.918975276816622e+03
-1.156744386983554e+03 -6.494260815126545e+01 -2.918975276816622e+03
-1.156708559452167e+03 -6.577229649626487e+01 -2.918975276816622e+03
-1.156726503493548e+03 -6.743856330923458e+01 -2.918975276816622e+03
-1.156678403453462e+03 -6.992491049184719e+01 -2.918975276816622e+03
-1.156685790525654e+03 -7.043946895915464e+01 -2.918975276816622e+03
-1.156660597316753e+03 -7.198176362488714e+01 -2.918975276816622e+03
-1.156649990672987e+03 -7.331397430108125e+01 -2.918975276816622e+03
-1.156634329175219e+03 -7.528672347905552e+01 -2.918975276816622e+03
-1.156626748700248e+03 -7.626251868472285e+01 -2.918975276816622e+03
-1.156623550218400e+03 -7.688215070977706e+01 -2.918975276816622e+03
-1.156609465099135e+03 -7.863713592486043e+01 -2.918975276816622e+03
-1.156605465638690e+03 -8.042270607048231e+01 -2.918975276816622e+03
-1.156585892526114e+03 -8.128000741483073e+01 -2.918975276816622e+03
-1.156576665072854e+03 -8.344871868679927e+01 -2.918975276816622e+03
-1.156588187110406e+03 -8.482196797761091e+01 -2.918975276816622e+03
-1.156604028963704e+03 -8.595630952378102e+01 -2.918975276816622e+03
-1.156583950085402e+03 -8.737648337031371e+01 -2.918975276816622e+03
-1.156533086109504e+03 -8.977550011551625e+01 -2.918975276816622e+03
-1.156583340903690e+03 -9.040578798588881e+01 -2.918975276816622e+03
-1.156529531091099e+03 -9.198798237066707e+01 -2.918975276816622e+03
-1.156541015954541e+03 -9.524162114477143e+01 -2.918975276816622e+03
-1.156498021002057e+03 -9.639827761502056e+01 -2.918975276816622e+03
-1.156530267546507e+03 -9.895098687458209e+01 -2.918975276816622e+03
-1.156478975771277e+03 -1.011915343574833e+02 -2.918975276816622e+03
-1.156490013909929e+03 -1.013818407322441e+02 -2.918975276816622e+03
-1.156444794521716e+03 -1.035825167961668e+02 -2.918975276816622e+03
-1.156472221775583e+03 -1.052620410684776e+02 -2.918975276816622e+03
-1.156439098457636e+03 -1.065704684080749e+02 -2.918975276816622e+03
-1.156456752961545e+03 -1.071409481239883e+02 -2.918975276816622e+03
-1.156428823625721e+03 -1.095347496121864e+02 -2.918975276816622e+03
-1.156443757745683e+03 -1.108319729242835e+02 -2.918975276816622e+03
-1.156424256669566e+03 -1.128510987703179e+02 -2.918975276816622e+03
-1.156414645425217e+03 -1.134746082317185e+02 -2.918975276816622e+03
-1.156420050664823e+03 -1.182531998452083e+02 -2.918975276816622e+03
-1.156406477959253e+03 -1.204112387628814e+02 -2.918975276816622e+03
-1.156406362850273e+03 -1.212122610908329e+02 -2.918975276816622e+03
-1.156395721755569e+03 -1.234275278975316e+02 -2.918975276816622e+03
-1.156419912862226e+03 -1.249893019386605e+02 -2.918975276816622e+03
-1.156367275757122e+03 -1.259238201329230e+02 -2.918975276816622e+03
-1.156438389744136e+03 -1.272866206086609e+02 -2.918975276816622e+03
-1.156355482758185e+03 -1.298395974043223e+02 -2.918975276816622e+03
-1.156424120910362e+03 -1.315876100234265e+02 -2.918975276816622e+03
-1.156315734993302e+03 -1.324110616426065e+02 -2.918975276816622e+03
-1.156453183936295e+03 -1.332709468874806e+02 -2.918975276816622e+03
-1.156367544741504e+03 -1.351559404640704e+02 -2.918975276816622e+03
-1.156489446441387e+03 -1.361715343272847e+02 -2.918975276816622e+03
-1.156413938539359e+03 -1.385043941315953e+02 -2.918975276816622e+03
-1.156544901594775e+03 -1.403776012601892e+02 -2.918975276816622e+03
-1.156460116825424e+03 -1.413183566385400e+02 -2.918975276816622e+03
-1.156601096479836e+03 -1.434891012294851e+02 -2.918975276816622e+03
-1.156489370027645e+03 -1.449533177829135e+02 -2.918975276816622e+03
-1.156619304901531e+03 -1.458211977012369e+02 -2.918975276816622e+03
-1.156498693593848e+03 -1.476688344819574e+02 -2.918975276816622e+03
-1.156699564624732e+03 -1.516193543718847e+02 -2.918975276816622e+03
-1.156564634328164e+03 -1.550040397540844e+02 -2.918975276816622e+03
-1.156727887580852e+03 -1.562107542104123e+02 -2.918975276816622e+03
-1.156565274842161e+03 -1.586028862571967e+02 -2.918975276816622e+03
-1.156744908982723e+03 -1.604336367625873e+02 -2.918975276816622e+03
-1.156627653229051e+03 -1.610541022963849e+02 -2.918975276816622e+03
-1.156784242937335e+03 -1.633197678165463e+02 -2.918975276816622e+03
-1.156660637116665e+03 -1.644826521785894e+02 -2.918975276816622e+03
-1.156793020664240e+03 -1.660792293783589e+02 -2.918975276816622e+03
-1.156704055955908e+03 -1.674331912975253e+02 -2.918975276816622e+03
-1.156802769646306e+03 -1.701062443337952e+02 -2.918975276816622e+03
-1.156743598883772e+03 -1.721987545343571e+02 -2.918975276816622e+03
-1.156793858223317e+03 -1.731046569980512e+02 -2.918975276816622e+03
-1.156797176210060e+03 -1.770667152808176e+02 -2.918975276816622e+03
-1.156835152776180e+03 -1.823123612484277e+02 -2.918975276816622e+03
-1.156865927501782e+03 -1.844932076514560e+02 -2.918975276816622e+03
-1.156849001712914e+03 -1.864165509259627e+02 -2.918975276816622e+03
-1.156864187316188e+03 -1.869070867689315e+02 -2.918975276816622e+03
-1.156878991607228e+03 -1.894217617857777e+02 -2.918975276816622e+03
-1.156853825388894e+03 -1.914800598692003e+02 -2.918975276816622e+03
-1.156897138756093e+03 -1.949114428879338e+02 -2.918975276816622e+03
-1.156881644296007e+03 -1.973375228250765e+02 -2.918975276816622e+03
-1.156914013286905e+03 -1.985262613328002e+02 -2.918975276816622e+03
-1.156892139581521e+03 -2.003217730169397e+02 -2.918975276816622e+03
-1.156932198361560e+03 -2.009103968981474e+02 -2.918975276816622e+03
-1.157145232871866e+03 -2.031600806298010e+02 -2.918975276816622e+03
-1.157020604291552e+03 -2.044618667945662e+02 -2.918975276816622e+03
-1.156786515620772e+03 -2.054824723215218e+02 -2.918975276816622e+03
-1.156803396880076e+03 -2.073460137013374e+02 -2.918975276816622e+03
-1.156701614628810e+03 -2.095022771515707e+02 -2.918975276816622e+03
-1.157168717911260e+03 -2.117101826965928e+02 -2.918975276816622e+03
-1.156564348649753e+03 -2.119809509988210e+02 -2.918975276816622e+03
-1.156737616299558e+03 -2.152221379703610e+02 -2.918975276816622e+03
-1.156586517523323e+03 -2.159054785668023e+02 -2.918975276816622e+03
-1.156687017445481e+03 -2.182759334444099e+02 -2.918975276816622e+03
-1.156536184687564e+03 -2.208138199666504e+02 -2.918975276816622e+03
-1.156600956268480e+03 -2.208656301370872e+02 -2.918975276816622e+03
-1.156641447888188e+03 -2.232311892359564e+02 -2.918975276816622e+03
-1.156586716401916e+03 -2.252670897338558e+02 -2.918975276816622e+03
-1.156727249171606e+03 -2.257239079518890e+02 -2.918975276816622e+03
-1.156447945741565e+03 -2.270818132436227e+02 -2.918975276816622e+03
-1.156420993391330e+03 -2.297182939857938e+02 -2.918975276816622e+03
-1.156530136354152e+03 -2.312730990452551e+02 -2.918975276816622e+03
-1.156129310214494e+03 -2.319321622203445e+02 -2.918975276816622e+03
-1.156380795089458e+03 -2.409942737709435e+02 -2.918975276816622e+03
-1.156355516155120e+03 -2.440426565983541e+02 -2.918975276816622e+03
-1.156512566925055e+03 -2.467260763593839e+02 -2.918975276816622e+03
-1.156405792579057e+03 -2.490446844014491e+02 -2.918975276816622e+03
-1.156532655959028e+03 -2.500399989643626e+02 -2.918975276816622e+03
-1.156376955634599e+03 -2.517524365729629e+02 -2.918975276816622e+03
-1.156550190021407e+03 -2.544884987161752e+02 -2.918975276816622e+03
-1.156279162401898e+03 -2.565610774667823e+02 -2.918975276816622e+03
-1.156483263589188e+03 -2.603492219262853e+02 -2.918975276816622e+03
-1.156205818450582e+03 -2.610055933434491e+02 -2.918975276816622e+03
-1.156683135282772e+03 -2.628810504909314e+02 -2.918975276816622e+03
-1.156311924544768e+03 -2.648471187238658e+02 -2.918975276816622e+03
-1.156778130064966e+03 -2.666608663946561e+02 -2.918975276816622e+03
-1.156366422056133e+03 -2.680787492481452e+02 -2.918975276816622e+03
-1.156808977351682e+03 -2.692278163899146e+02 -2.918975276816622e+03
-1.156414098218664e+03 -2.702971299952987e+02 -2.918975276816622e+03
-1.156845101997734e+03 -2.717988411963721e+02 -2.918975276816622e+03
-1.156423173121346e+03 -2.733727462236286e+02 -2.918975276816622e+03
-1.156806208212185e+03 -2.753001117813686e+02 -2.918975276816622e+03
-1.156415221630310e+03 -2.763078629524283e+02 -2.918975276816622e+03
-1.156810020744458e+03 -2.774573492063978e+02 -2.918975276816622e+03
-1.156484439408712e+03 -2.796333483522800e+02 -2.918975276816622e+03
-1.156875442990159e+03 -2.819565957181124e+02 -2.918975276816622e+03
-1.156659072393658e+03 -2.861596033390045e+02 -2.918975276816622e+03
-1.156751814097001e+03 -2.873722086477828e+02 -2.918975276816622e+03
-1.156704058632663e+03 -2.892850326495966e+02 -2.918975276816622e+03
-1.156846430752460e+03 -2.932933864541334e+02 -2.918975276816622e+03
-1.156751001713818e+03 -2.949018241028154e+02 -2.918975276816622e+03
-1.156754045652355e+03 -3.010661466345010e+02 -2.918975276816622e+03
-1.156764523819047e+03 -3.018239735415235e+02 -2.918975276816622e+03
-1.156778876010932e+03 -3.039446875408480e+02 -2.918975276816622e+03
-1.156741742141902e+03 -3.054510315379000e+02 -2.918975276816622e+03
-1.156742397680819e+03 -3.078696057827510e+02 -2.918975276816622e+03
-1.156720909450649e+03 -3.095523954304848e+02 -2.918975276816622e+03
-1.156698041336536e+03 -3.152035352259588e+02 -2.918975276816622e+03
-1.156656648279032e+03 -3.172958455241824e+02 -2.918975276816622e+03
-1.156870080750008e+03 -3.189916053014551e+02 -2.918975276816622e+03
-1.156632993671660e+03 -3.203672855943202e+02 -2.918975276816622e+03
-1.156652054273990e+03 -3.219057159332157e+02 -2.918975276816622e+03
-1.156621216774172e+03 -3.236493748204242e+02 -2.918975276816622e+03
-1.156674494601700e+03 -3.243764720497235e+02 -2.918975276816622e+03
-1.156580360226886e+03 -3.261789506793958e+02 -2.918975276816622e+03
-1.156667411855816e+03 -3.269505634567301e+02 -2.918975276816622e+03
-1.156544775113120e+03 -3.288471705962806e+02 -2.918975276816622e+03
-1.156648461048465e+03 -3.298995754390805e+02 -2.918975276816622e+03
-1.156522540612229e+03 -3.312501493834764e+02 -2.918975276816622e+03
-1.156605323915539e+03 -3.346374544562464e+02 -2.918975276816622e+03
-1.156520125908779e+03 -3.352410470243123e+02 -2.918975276816622e+03
-1.156607520292365e+03 -3.365339470547960e+02 -2.918975276816622e+03
-1.156501672331230e+03 -3.384748210529589e+02 -2.918975276816622e+03
-1.156557838740088e+03 -3.413607931340215e+02 -2.918975276816622e+03
-1.156483610676666e+03 -3.427767730015511e+02 -2.918975276816622e+03
-1.156515137601662e+03 -3.441105890621499e+02 -2.918975276816622e+03
-1.156431316715038e+03 -3.485497546086066e+02 -2.918975276816622e+03
-1.156434161156873e+03 -3.485939559667943e+02 -2.918975276816622e+03
-1.156554655181848e+03 -3.533185869537576e+02 -2.918975276816622e+03
-1.156609468235985e+03 -3.575665949275397e+02 -2.918975276816622e+03
-1.156613152633828e+03 -3.587049537775924e+02 -2.918975276816622e+03
-1.156667523047722e+03 -3.622797522927205e+02 -2.918975276816622e+03
-1.156678971483326e+03 -3.629097430021995e+02 -2.918975276816622e+03
-1.156707993404431e+03 -3.647353803732885e+02 -2.918975276816622e+03
-1.156641866240647e+03 -3.672143268554958e+02 -2.918975276816622e+03
-1.156755822492326e+03 -3.710757564852483e+02 -2.918975276816622e+03
-1.156784786723192e+03 -3.725454640354745e+02 -2.918975276816622e+03
-1.156792056273526e+03 -3.741863841987500e+02 -2.918975276816622e+03
-1.156753607827664e+03 -3.768214238698873e+02 -2.918975276816622e+03
-1.156811021743205e+03 -3.776516746351238e+02 -2.918975276816622e+03
-1.156803401296519e+03 -3.798922848340897e+02 -2.918975276816622e+03
-1.156816830618995e+03 -3.803238938155840e+02 -2.918975276816622e+03
-1.156791986110772e+03 -3.825127428852194e+02 -2.918975276816622e+03
-1.156831472113561e+03 -3.861367626730336e+02 -2.918975276816622e+03
-1.156846820312496e+03  3.833422523077644e+02 -2.918975276816622e+03
-1.156839439364870e+03  3.823232084190176e+02 -2.918975276816622e+03
-1.156841515503759e+03  3.786846026108350e+02 -2.918975276816622e+03
-1.156847917641413e+03  3.775826783404622e+02 -2.918975276816622e+03
-1.156852160229769e+03  3.765355800555151e+02 -2.918975276816622e+03
-1.156846068490062e+03  3.736136340501059e+02 -2.918975276816622e+03
-1.156845430888821e+03  3.694473440015072e+02 -2.918975276816622e+03
-1.156842219075182e+03  3.642072129185808e+02 -2.918975276816622e+03
-1.156825264169703e+03  3.601563793408441e+02 -2.918975276816622e+03
-1.156820095551652e+03  3.563828971239517e+02 -2.918975276816622e+03
-1.156812487294134e+03  3.553016570956881e+02 -2.918975276816622e+03
-1.156806425790087e+03  3.532567258106523e+02 -2.918975276816622e+03
-1.156789819254053e+03  3.470835056131715e+02 -2.918975276816622e+03
-1.156769919090545e+03  3.433414157131576e+02 -2.918975276816622e+03
-1.156764473258052e+03  3.380515584673298e+02 -2.918975276816622e+03
-1.156759196817886e+03  3.354012927506924e+02 -2.918975276816622e+03
-1.156729010078177e+03  3.276853348458851e+02 -2.918975276816622e+03
-1.156837178502148e+03  3.264945996778555e+02 -2.918975276816622e+03
-1.156881600912281e+03  3.231406463739763e+02 -2.918975276816622e+03
-1.156663088975630e+03  3.217261516677666e+02 -2.918975276816622e+03
-1.156663864740675e+03  3.201210652918721e+02 -2.918975276816622e+03
-1.156811464561447e+03  3.174221651773232e+02 -2.918975276816622e+03
-1.156733912289914e+03  3.124563084602975e+02 -2.918975276816622e+03
-1.156718091983534e+03  3.105200135607673e+02 -2.918975276816622e+03
-1.156692187026561e+03  3.077101598640164e+02 -2.918975276816622e+03
-1.156608168768038e+03  3.027828472439762e+02 -2.918975276816622e+03
-1.156626340948986e+03  3.027120890584365e+02 -2.918975276816622e+03
-1.156689787412152e+03  2.977447076306008e+02 -2.918975276816622e+03
-1.156703170811057e+03  2.954052278927719e+02 -2.918975276816622e+03
-1.156729182547577e+03  2.942808513672132e+02 -2.918975276816622e+03
-1.156725727823962e+03  2.917446407180036e+02 -2.918975276816622e+03
-1.156749065338647e+03  2.901934822920988e+02 -2.918975276816622e+03
-1.156741728446797e+03  2.879360500841994e+02 -2.918975276816622e+03
-1.156801562714041e+03  2.865069842721558e+02 -2.918975276816622e+03
-1.156763841073925e+03  2.845272862558470e+02 -2.918975276816622e+03
-1.156859424207651e+03  2.819990100983464e+02 -2.918975276816622e+03
-1.156808441126964e+03  2.780293266687828e+02 -2.918975276816622e+03
-1.156886641101240e+03  2.777115682952772e+02 -2.918975276816622e+03
-1.156741962038176e+03  2.753527387988264e+02 -2.918975276816622e+03
-1.156919345005448e+03  2.739773446063012e+02 -2.918975276816622e+03
-1.156752180232392e+03  2.717053913237195e+02 -2.918975276816622e+03
-1.156878583697689e+03  2.713251541024742e+02 -2.918975276816622e+03
-1.156682214717278e+03  2.695775396638610e+02 -2.918975276816622e+03
-1.156883907605611e+03  2.661497321590574e+02 -2.918975276816622e+03
-1.156691961934877e+03  2.648971881377848e+02 -2.918975276816622e+03
-1.156922246337374e+03  2.625793789721427e+02 -2.918975276816622e+03
-1.156729102013421e+03  2.608028968108088e+02 -2.918975276816622e+03
-1.156909185115720e+03  2.600330463210918e+02 -2.918975276816622e+03
-1.156734089314227e+03  2.577088372750778e+02 -2.918975276816622e+03
-1.156943519743980e+03  2.568220957382676e+02 -2.918975276816622e+03
-1.156764307472643e+03  2.551981172821394e+02 -2.918975276816622e+03
-1.156991912315618e+03  2.540865144860352e+02 -2.918975276816622e+03
-1.156884313063184e+03  2.515910883743392e+02 -2.918975276816622e+03
-1.157168058128252e+03  2.503172290296369e+02 -2.918975276816622e+03
-1.157080768481294e+03  2.501253603019057e+02 -2.918975276816622e+03
-1.156941444521709e+03  2.473622467089540e+02 -2.918975276816622e+03
-1.156804722481078e+03  2.459900117101607e+02 -2.918975276816622e+03
-1.156778028867786e+03  2.443572002264521e+02 -2.918975276816622e+03
-1.156674532703491e+03  2.431274506234051e+02 -2.918975276816622e+03
-1.156632910440631e+03  2.409183013417502e+02 -2.918975276816622e+03
-1.156593530280302e+03  2.400973040002166e+02 -2.918975276816622e+03
-1.156601834577665e+03  2.385302357337702e+02 -2.918975276816622e+03
-1.156527219218859e+03  2.353633368076309e+02 -2.918975276816622e+03
-1.156499336493757e+03  2.341482292799126e+02 -2.918975276816622e+03
-1.156469938479668e+03  2.317061199351790e+02 -2.918975276816622e+03
-1.156413298776635e+03  2.298726342048145e+02 -2.918975276816622e+03
-1.156389827201645e+03  2.292164448519174e+02 -2.918975276816622e+03
-1.156308331700486e+03  2.269955187394745e+02 -2.918975276816622e+03
-1.156319107648742e+03  2.257054614048740e+02 -2.918975276816622e+03
-1.156258707874240e+03  2.249046898601669e+02 -2.918975276816622e+03
-1.156279243573388e+03  2.232939821055392e+02 -2.918975276816622e+03
-1.156182629184168e+03  2.207322979535104e+02 -2.918975276816622e+03
-1.156224971885159e+03  2.197713601659883e+02 -2.918975276816622e+03
-1.156135263285782e+03  2.184139854802461e+02 -2.918975276816622e+03
-1.156165572649109e+03  2.154495563023699e+02 -2.918975276816622e+03
-1.156078301587206e+03  2.143417047576465e+02 -2.918975276816622e+03
-1.156132470072567e+03  2.119813839743593e+02 -2.918975276816622e+03
-1.156036819379609e+03  2.100051733903667e+02 -2.918975276816622e+03
-1.156095755742821e+03  2.091504754690321e+02 -2.918975276816622e+03
-1.156000262301104e+03  2.070666819640484e+02 -2.918975276816622e+03
-1.156064006948561e+03  2.054073998923410e+02 -2.918975276816622e+03
-1.155995202091178e+03  2.045185331177890e+02 -2.918975276816622e+03
-1.156052646205577e+03  2.033190557747228e+02 -2.918975276816622e+03
-1.155983135337656e+03  2.009127479380950e+02 -2.918975276816622e+03
-1.156023859713196e+03  1.998909111352667e+02 -2.918975276816622e+03
-1.155976720250596e+03  1.979698013010657e+02 -2.918975276816622e+03
-1.156005397675526e+03  1.949859784083310e+02 -2.918975276816622e+03
-1.156021957029877e+03  1.901138460883833e+02 -2.918975276816622e+03
-1.156014131627442e+03  1.893172133168580e+02 -2.918975276816622e+03
-1.155979698465367e+03  1.872098901698885e+02 -2.918975276816622e+03
-1.156022419118090e+03  1.859169591315238e+02 -2.918975276816622e+03
-1.155992464557680e+03  1.845776391447685e+02 -2.918975276816622e+03
-1.156024913067006e+03  1.832149445653928e+02 -2.918975276816622e+03
-1.155992062375636e+03  1.809056136725779e+02 -2.918975276816622e+03
-1.156018966362816e+03  1.802658935094276e+02 -2.918975276816622e+03
-1.155981991486212e+03  1.787254504210158e+02 -2.918975276816622e+03
-1.156024287282110e+03  1.753867057774203e+02 -2.918975276816622e+03
-1.155988885179783e+03  1.743679376735931e+02 -2.918975276816622e+03
-1.156032191975675e+03  1.719377464126779e+02 -2.918975276816622e+03
-1.156002242551739e+03  1.701136698883352e+02 -2.918975276816622e+03
-1.156033009525348e+03  1.691490364280324e+02 -2.918975276816622e+03
-1.156009314232882e+03  1.671086413878632e+02 -2.918975276816622e+03
-1.156038382249313e+03  1.657474479049526e+02 -2.918975276816622e+03
-1.156022917848964e+03  1.646216976286700e+02 -2.918975276816622e+03
-1.156044849561033e+03  1.632556911372818e+02 -2.918975276816622e+03
-1.156041843609138e+03  1.608834787095666e+02 -2.918975276816622e+03
-1.156051570290367e+03  1.600755259481707e+02 -2.918975276816622e+03
-1.156050199294771e+03  1.585810291262838e+02 -2.918975276816622e+03
-1.156061183359296e+03  1.556732745715462e+02 -2.918975276816622e+03
-1.156067309879636e+03  1.544738913038044e+02 -2.918975276816622e+03
-1.156070968367251e+03  1.519135147644864e+02 -2.918975276816622e+03
-1.156085230708779e+03  1.501735049793972e+02 -2.918975276816622e+03
-1.156080832107695e+03  1.493675144910138e+02 -2.918975276816622e+03
-1.156107687683152e+03  1.471017663269500e+02 -2.918975276816622e+03
-1.156097914486013e+03  1.456114997411655e+02 -2.918975276816622e+03
-1.156116905799670e+03  1.447842673177663e+02 -2.918975276816622e+03
-1.156105307760643e+03  1.433527707430146e+02 -2.918975276816622e+03
-1.156148896058841e+03  1.408701032920877e+02 -2.918975276816622e+03
-1.156108254565009e+03  1.400809895312825e+02 -2.918975276816622e+03
-1.156183178032255e+03  1.385311063981874e+02 -2.918975276816622e+03
-1.156127750650796e+03  1.355328538427309e+02 -2.918975276816622e+03
-1.156218737880420e+03  1.343604020599319e+02 -2.918975276816622e+03
-1.156122054000604e+03  1.318808828004830e+02 -2.918975276816622e+03
-1.156257851289142e+03  1.297462889734501e+02 -2.918975276816622e+03
-1.156163351055881e+03  1.292682076234384e+02 -2.918975276816622e+03
-1.156325395311851e+03  1.270909244493437e+02 -2.918975276816622e+03
-1.156172572636093e+03  1.259084145029529e+02 -2.918975276816622e+03
-1.156359174346795e+03  1.244758334766438e+02 -2.918975276816622e+03
-1.156184711064059e+03  1.231704128493050e+02 -2.918975276816622e+03
-1.156392324016099e+03  1.209829420492613e+02 -2.918975276816622e+03
-1.156247030531774e+03  1.201174906260827e+02 -2.918975276816622e+03
-1.156533770545825e+03  1.187858538224305e+02 -2.918975276816622e+03
-1.156410036922965e+03  1.153738795796677e+02 -2.918975276816622e+03
-1.156757884483999e+03  1.144007554381412e+02 -2.918975276816622e+03
-1.156476747242168e+03  1.118898266496192e+02 -2.918975276816622e+03
-1.156892305785868e+03  1.102905733223278e+02 -2.918975276816622e+03
-1.156563535080288e+03  1.095554683133872e+02 -2.918975276816622e+03
-1.156757959000815e+03  1.074540327284107e+02 -2.918975276816622e+03
-1.156534506655154e+03  1.061277532361342e+02 -2.918975276816622e+03
-1.156664734825013e+03  1.046761305813477e+02 -2.918975276816622e+03
-1.156520100931118e+03  1.032968170213197e+02 -2.918975276816622e+03
-1.156587804675951e+03  1.010614605846777e+02 -2.918975276816622e+03
-1.156552394072740e+03  1.003309348247878e+02 -2.918975276816622e+03
-1.156660763731370e+03  9.822088303036449e+01 -2.918975276816622e+03
-1.156560301909907e+03  9.693628275280329e+01 -2.918975276816622e+03
-1.156628451260776e+03  9.516722933844089e+01 -2.918975276816622e+03
-1.156586118161815e+03  9.118146025961879e+01 -2.918975276816622e+03
-1.156625295731056e+03  8.993317445072586e+01 -2.918975276816622e+03
-1.156598669667259e+03  8.808968490641934e+01 -2.918975276816622e+03
-1.156624983442687e+03  8.682453351008841e+01 -2.918975276816622e+03
-1.156610314353155e+03  8.648219587094965e+01 -2.918975276816622e+03
-1.156632734728503e+03  8.512492426849516e+01 -2.918975276816622e+03
-1.156617221876287e+03  8.267161531950445e+01 -2.918975276816622e+03
-1.156632451970098e+03  7.913871386781149e+01 -2.918975276816622e+03
-1.156640624566145e+03  7.354778323926173e+01 -2.918975276816622e+03
-1.156643657620336e+03  7.173610347985932e+01 -2.918975276816622e+03
-1.156657986842135e+03  6.917544763567075e+01 -2.918975276816622e+03
-1.156661641186059e+03  6.717304670750322e+01 -2.918975276816622e+03
-1.156673452281878e+03  6.347683681185298e+01 -2.918975276816622e+03
-1.156678650070208e+03  6.288518427077789e+01 -2.918975276816622e+03
-1.156738744768843e+03  5.828374034225552e+01 -2.918975276816622e+03
-1.156726313228758e+03  5.633440380404565e+01 -2.918975276816622e+03
-1.156804731122348e+03  5.355747673017087e+01 -2.918975276816622e+03
-1.156787282145547e+03  5.095389212015453e+01 -2.918975276816622e+03
-1.156823216744642e+03  4.968409882038489e+01 -2.918975276816622e+03
-1.156815112293305e+03  4.801179255544852e+01 -2.918975276816622e+03
-1.156882863980674e+03  4.666944647616672e+01 -2.918975276816622e+03
-1.156872631515954e+03  4.422634666321775e+01 -2.918975276816622e+03
-1.156937710526097e+03  4.210756687758730e+01 -2.918975276816622e+03
-1.156943697370076e+03  4.156082319264572e+01 -2.918975276816622e+03
-1.157484506301213e+03  3.895624320230797e+01 -2.918975276816622e+03
-1.157637577270031e+03  3.612122048011348e+01 -2.918975276816622e+03
-1.157934968177419e+03  2.985621823453352e+01 -2.918975276816622e+03
-1.157278398477708e+03  2.877425265511205e+01 -2.918975276816622e+03
-1.157418509935840e+03  2.363616581447335e+01 -2.918975276816622e+03
-1.157456905747533e+03  1.903421498082820e+01 -2.918975276816622e+03
-1.157338962274676e+03  1.720964561864036e+01 -2.918975276816622e+03
-1.157410615822515e+03  1.596209490464811e+01 -2.918975276816622e+03
-1.157503025836871e+03  1.471403105563882e+01 -2.918975276816622e+03
-1.157483564074796e+03  1.327450763949513e+01 -2.918975276816622e+03
-1.157408908641488e+03  1.195876534275791e+01 -2.918975276816622e+03
-1.157429066081720e+03  7.574524540124036e+00 -2.918975276816622e+03
1.154291405676900e+03 5.926847561672343e-01 2.918975276816622e+03
 1.154612133538473e+03 -1.435362219437279e+00  2.918975276816622e+03
 1.154606195928655e+03 -2.052208976589163e+00  2.918975276816622e+03
 1.154542488001729e+03 -4.622990440446698e+00  2.918975276816622e+03
 1.154423379045190e+03 -9.298070716473028e+00  2.918975276816622e+03
 1.154244102121942e+03 -1.650309977788939e+01  2.918975276816622e+03
 1.154128603906905e+03 -2.117667645283342e+01  2.918975276816622e+03
 1.153967799892625e+03 -2.666543531902239e+01  2.918975276816622e+03
 1.153971380235426e+03 -2.681880004006726e+01  2.918975276816622e+03
 1.153938820366815e+03 -3.025265260595011e+01  2.918975276816622e+03
 1.153886664290434e+03 -3.482254223159644e+01  2.918975276816622e+03
 1.153855330897940e+03 -3.782840289546915e+01  2.918975276816622e+03
 1.153838988318751e+03 -4.289865631291146e+01  2.918975276816622e+03
 1.153791316252671e+03 -4.583255884760387e+01  2.918975276816622e+03
 1.153667080547430e+03 -4.900915053139531e+01  2.918975276816622e+03
 1.153743691320338e+03 -5.101743038766737e+01  2.918975276816622e+03
 1.153702080170745e+03 -5.263913577911615e+01  2.918975276816622e+03
 1.153792702727995e+03 -5.414352709464487e+01  2.918975276816622e+03
 1.153637209689255e+03 -5.661446741325753e+01  2.918975276816622e+03
 1.153826801050532e+03 -5.879965159731849e+01  2.918975276816622e+03
 1.153646022802583e+03 -6.058510371395705e+01  2.918975276816622e+03
 1.153663775436020e+03 -6.177758627712280e+01  2.918975276816622e+03
 1.153616463440515e+03 -6.341043321606116e+01  2.918975276816622e+03
 1.153662412779334e+03 -6.529984054488494e+01  2.918975276816622e+03
 1.153629370266586e+03 -6.635900748993336e+01  2.918975276816622e+03
 1.153660828833879e+03 -6.929358859495578e+01  2.918975276816622e+03
 1.153620019908373e+03 -7.090385358092250e+01  2.918975276816622e+03
 1.153630012189904e+03 -7.197761332824308e+01  2.918975276816622e+03
 1.153642865324228e+03 -7.450307614023657e+01  2.918975276816622e+03
 1.153652817393173e+03 -7.810455499045088e+01  2.918975276816622e+03
 1.153650951052215e+03 -8.074246360872698e+01  2.918975276816622e+03
 1.153660870149633e+03 -8.184668808648517e+01  2.918975276816622e+03
 1.153658360407605e+03 -8.478466332992393e+01  2.918975276816622e+03
 1.153672465153533e+03 -8.604874738287566e+01  2.918975276816622e+03
 1.153670322434966e+03 -8.892704678489224e+01  2.918975276816622e+03
 1.153681068089350e+03 -9.068879791245382e+01  2.918975276816622e+03
 1.153663343266586e+03 -9.233747117722376e+01  2.918975276816622e+03
 1.153683759480558e+03 -9.467494649998434e+01  2.918975276816622e+03
 1.153656614112773e+03 -9.736979346985076e+01  2.918975276816622e+03
 1.153670741589765e+03 -9.787409192459430e+01  2.918975276816622e+03
 1.153637283758667e+03 -1.004405310427815e+02  2.918975276816622e+03
 1.153650960140177e+03 -1.036507789567950e+02  2.918975276816622e+03
 1.153609051997918e+03 -1.052025218188688e+02  2.918975276816622e+03
 1.153634120994979e+03 -1.060977639895871e+02  2.918975276816622e+03
 1.153579189940426e+03 -1.089817799058977e+02  2.918975276816622e+03
 1.153598739371262e+03 -1.105919225401073e+02  2.918975276816622e+03
 1.153552208517772e+03 -1.122057685072899e+02  2.918975276816622e+03
 1.153564181322031e+03 -1.146153329226582e+02  2.918975276816622e+03
 1.153518808281031e+03 -1.172125516998604e+02  2.918975276816622e+03
 1.153503217395647e+03 -1.204374736048446e+02  2.918975276816622e+03
 1.153424323141820e+03 -1.250209069770953e+02  2.918975276816622e+03
 1.153427723190555e+03 -1.252085935936646e+02  2.918975276816622e+03
 1.153455662111632e+03 -1.290026339140394e+02  2.918975276816622e+03
 1.153508549671902e+03 -1.331211321986534e+02  2.918975276816622e+03
 1.153572089579820e+03 -1.433368745246132e+02  2.918975276816622e+03
 1.153591805995827e+03 -1.457934127673522e+02  2.918975276816622e+03
 1.153584241152754e+03 -1.488930308792266e+02  2.918975276816622e+03
 1.153618515814601e+03 -1.506980892889785e+02  2.918975276816622e+03
 1.153589582685674e+03 -1.523229032956230e+02  2.918975276816622e+03
 1.153637429123148e+03 -1.543411531729886e+02  2.918975276816622e+03
 1.153596311379919e+03 -1.578219451793493e+02  2.918975276816622e+03
 1.153659800239914e+03 -1.603532220446293e+02  2.918975276816622e+03
 1.153608730041329e+03 -1.616060002596618e+02  2.918975276816622e+03
 1.153660862220022e+03 -1.624375432721831e+02  2.918975276816622e+03
 1.153604130003196e+03 -1.636309832496410e+02  2.918975276816622e+03
 1.153682130006727e+03 -1.656159972469311e+02  2.918975276816622e+03
 1.153614617601552e+03 -1.664559179525326e+02  2.918975276816622e+03
 1.153688118821404e+03 -1.686925893180122e+02  2.918975276816622e+03
 1.153607316275876e+03 -1.705117195520197e+02  2.918975276816622e+03
 1.153695138877819e+03 -1.721197637468633e+02  2.918975276816622e+03
 1.153593786919565e+03 -1.743261856906532e+02  2.918975276816622e+03
 1.153695685926456e+03 -1.779437549132341e+02  2.918975276816622e+03
 1.153585671287403e+03 -1.806197470605121e+02  2.918975276816622e+03
 1.153689296973576e+03 -1.839178014724953e+02  2.918975276816622e+03
 1.153587998002098e+03 -1.862489629198986e+02  2.918975276816622e+03
 1.153673494301109e+03 -1.882051582715551e+02  2.918975276816622e+03
 1.153585755347648e+03 -1.913662385475509e+02  2.918975276816622e+03
 1.153651749572385e+03 -1.942752638183188e+02  2.918975276816622e+03
 1.153601900033088e+03 -1.978423665009688e+02  2.918975276816622e+03
 1.153626888919885e+03 -2.009860283688922e+02  2.918975276816622e+03
 1.153630060568027e+03 -2.087259767591665e+02  2.918975276816622e+03
 1.153635083382628e+03 -2.110708290072492e+02  2.918975276816622e+03
 1.153643970138510e+03 -2.178609661900694e+02  2.918975276816622e+03
 1.153656763305230e+03 -2.204442560740847e+02  2.918975276816622e+03
 1.153649358903290e+03 -2.234144589922862e+02  2.918975276816622e+03
 1.153660963140211e+03 -2.241700692885830e+02  2.918975276816622e+03
 1.153653729415636e+03 -2.257198976055748e+02  2.918975276816622e+03
 1.153671056863245e+03 -2.287981604003839e+02  2.918975276816622e+03
 1.153673256084177e+03 -2.304355969566993e+02  2.918975276816622e+03
 1.153679861681241e+03 -2.317931091182990e+02  2.918975276816622e+03
 1.153697130134416e+03 -2.344223916691013e+02  2.918975276816622e+03
 1.153723430672836e+03 -2.396105886645970e+02  2.918975276816622e+03
 1.153734948440408e+03 -2.407118144831475e+02  2.918975276816622e+03
 1.153753306285889e+03 -2.445993693759499e+02  2.918975276816622e+03
 1.153775045104663e+03 -2.476501168145806e+02  2.918975276816622e+03
 1.153806955347638e+03 -2.527739868294457e+02  2.918975276816622e+03
 1.153822421747708e+03 -2.554477275535505e+02  2.918975276816622e+03
 1.153830681081686e+03 -2.572498367682498e+02  2.918975276816622e+03
 1.153845743162598e+03 -2.608156090366360e+02  2.918975276816622e+03
 1.153843803222011e+03 -2.614399354689964e+02  2.918975276816622e+03
 1.153859266421804e+03 -2.657839619816597e+02  2.918975276816622e+03
 1.153874435311913e+03 -2.685533584424019e+02  2.918975276816622e+03
 1.153875906803267e+03 -2.715200293607467e+02  2.918975276816622e+03
 1.153884812243101e+03 -2.723154325539051e+02  2.918975276816622e+03
 1.153880248104071e+03 -2.743171900958088e+02  2.918975276816622e+03
 1.153900221443773e+03 -2.774877546775676e+02  2.918975276816622e+03
 1.153896286854847e+03 -2.794507277490225e+02  2.918975276816622e+03
 1.153904305872515e+03 -2.801624834601475e+02  2.918975276816622e+03
 1.153907282594374e+03 -2.834666637596542e+02  2.918975276816622e+03
 1.153917270591398e+03 -2.861098675777039e+02  2.918975276816622e+03
 1.153928590463345e+03 -2.914040531268942e+02  2.918975276816622e+03
 1.153933502472469e+03 -2.951259629724552e+02  2.918975276816622e+03
 1.153951023525964e+03 -2.965538153745957e+02  2.918975276816622e+03
 1.153941083567446e+03 -2.975117466139782e+02  2.918975276816622e+03
 1.153946381317523e+03 -2.978331399992777e+02  2.918975276816622e+03
 1.153935284142099e+03 -2.987985128757357e+02  2.918975276816622e+03
 1.153917701989401e+03 -3.032396332600246e+02  2.918975276816622e+03
 1.153918932270099e+03 -3.038019108426053e+02  2.918975276816622e+03
 1.153894955619596e+03 -3.073992012821086e+02  2.918975276816622e+03
 1.153887249258137e+03 -3.094288124027051e+02  2.918975276816622e+03
 1.153880024372386e+03 -3.100678006435435e+02  2.918975276816622e+03
 1.153876912286705e+03 -3.110970688843134e+02  2.918975276816622e+03
 1.153871833335377e+03 -3.116022090712159e+02  2.918975276816622e+03
 1.153861607249702e+03 -3.134186168852410e+02  2.918975276816622e+03
 1.153852890920622e+03 -3.145295998046176e+02  2.918975276816622e+03
 1.153832282590915e+03 -3.176882204454324e+02  2.918975276816622e+03
 1.153805028812007e+03 -3.214117271851626e+02  2.918975276816622e+03
 1.153773107211751e+03 -3.260612430710300e+02  2.918975276816622e+03
 1.153755487902301e+03 -3.285484628891119e+02  2.918975276816622e+03
 1.153741872769245e+03 -3.314443937631675e+02  2.918975276816622e+03
 1.153737213367132e+03 -3.322959164005504e+02  2.918975276816622e+03
 1.153727552707261e+03 -3.348194317308149e+02  2.918975276816622e+03
 1.153700097145352e+03 -3.385178850699657e+02  2.918975276816622e+03
 1.153696918512716e+03 -3.396099099727920e+02  2.918975276816622e+03
 1.153680099722123e+03 -3.439568166671875e+02  2.918975276816622e+03
 1.153671100777617e+03 -3.466279992338492e+02  2.918975276816622e+03
 1.153662606543765e+03 -3.505715999181219e+02  2.918975276816622e+03
 1.153651878288011e+03 -3.527146412975368e+02  2.918975276816622e+03
 1.153653516949140e+03 -3.548387978877204e+02  2.918975276816622e+03
 1.153638589932546e+03 -3.572104604980755e+02  2.918975276816622e+03
 1.153655619724815e+03 -3.601386908121128e+02  2.918975276816622e+03
 1.153640379724746e+03 -3.631548445083436e+02  2.918975276816622e+03
 1.153658542452727e+03 -3.646728547498943e+02  2.918975276816622e+03
 1.153644375027736e+03 -3.659152195795657e+02  2.918975276816622e+03
 1.153659886351873e+03 -3.667937646073523e+02  2.918975276816622e+03
 1.153646699614767e+03 -3.687846874427968e+02  2.918975276816622e+03
 1.153679167009688e+03 -3.709384371951075e+02  2.918975276816622e+03
 1.153720585142836e+03 -3.743001678881957e+02  2.918975276816622e+03
 1.153700435553937e+03 -3.760339292001829e+02  2.918975276816622e+03
 1.153738496113482e+03 -3.815137964128191e+02  2.918975276816622e+03
 1.153755382194453e+03 -3.833945860565915e+02  2.918975276816622e+03
 1.153764884559729e+03 -3.838550007198967e+02  2.918975276816622e+03
1.153785973763693e+03 3.851962467726664e+02 2.918975276816622e+03
1.153792160323491e+03 3.839985767855526e+02 2.918975276816622e+03
1.153816604298645e+03 3.815445818910451e+02 2.918975276816622e+03
1.153818723527591e+03 3.811063146418493e+02 2.918975276816622e+03
1.153863270271948e+03 3.765631851463393e+02 2.918975276816622e+03
1.153882007701143e+03 3.733483122123209e+02 2.918975276816622e+03
1.153903232536400e+03 3.723188899453626e+02 2.918975276816622e+03
1.153902748113012e+03 3.708634609620252e+02 2.918975276816622e+03
1.153949958855603e+03 3.675257977189959e+02 2.918975276816622e+03
1.153941364810853e+03 3.665074381986978e+02 2.918975276816622e+03
1.153977839689934e+03 3.648395051039089e+02 2.918975276816622e+03
1.153979046901459e+03 3.625582252238392e+02 2.918975276816622e+03
1.154039563101806e+03 3.593089384213206e+02 2.918975276816622e+03
1.154042076521055e+03 3.578311362584095e+02 2.918975276816622e+03
1.154081187429331e+03 3.558540692372343e+02 2.918975276816622e+03
1.154106309777314e+03 3.532122386002604e+02 2.918975276816622e+03
1.154126803148539e+03 3.522054686713016e+02 2.918975276816622e+03
1.154146832898867e+03 3.504879663342963e+02 2.918975276816622e+03
1.154220034518030e+03 3.452111934390344e+02 2.918975276816622e+03
1.154242072666208e+03 3.430726453402492e+02 2.918975276816622e+03
1.154251442505526e+03 3.419062128724402e+02 2.918975276816622e+03
1.154282325955730e+03 3.397458131921957e+02 2.918975276816622e+03
1.154324334250435e+03 3.325681454394204e+02 2.918975276816622e+03
1.154271937959780e+03 3.324796682136619e+02 2.918975276816622e+03
1.154394505908831e+03 3.279180607115044e+02 2.918975276816622e+03
1.154426095721062e+03 3.266112009433350e+02 2.918975276816622e+03
1.154441976986851e+03 3.216879048759502e+02 2.918975276816622e+03
1.154461199177816e+03 3.192905626270311e+02 2.918975276816622e+03
1.154453397262894e+03 3.163320823575569e+02 2.918975276816622e+03
1.154464100694965e+03 3.137395565422190e+02 2.918975276816622e+03
1.154446193670929e+03 3.112629435750969e+02 2.918975276816622e+03
1.154432122090388e+03 3.084416785049177e+02 2.918975276816622e+03
1.154378000925122e+03 3.017623131557997e+02 2.918975276816622e+03
1.154354310729386e+03 2.997500287130203e+02 2.918975276816622e+03
1.154309564632266e+03 2.948247068509803e+02 2.918975276816622e+03
1.154297237634669e+03 2.937457067317081e+02 2.918975276816622e+03
1.154211602577658e+03 2.880137964435683e+02 2.918975276816622e+03
1.154210250169746e+03 2.877955357259949e+02 2.918975276816622e+03
1.154118835011875e+03 2.817407620883113e+02 2.918975276816622e+03
1.154067418555493e+03 2.798227506098040e+02 2.918975276816622e+03
1.154061053520657e+03 2.769140884766446e+02 2.918975276816622e+03
1.153986398178288e+03 2.748770519829267e+02 2.918975276816622e+03
1.153949124252764e+03 2.710005365773959e+02 2.918975276816622e+03
1.153854386302370e+03 2.683064853056432e+02 2.918975276816622e+03
1.153877678185884e+03 2.644173321282842e+02 2.918975276816622e+03
1.153786269245545e+03 2.638520387980580e+02 2.918975276816622e+03
1.153853498112391e+03 2.606783897735620e+02 2.918975276816622e+03
1.153702039581201e+03 2.579319935081022e+02 2.918975276816622e+03
1.153793897808343e+03 2.562719180574757e+02 2.918975276816622e+03
1.153664307596770e+03 2.546600134381399e+02 2.918975276816622e+03
1.153745837884768e+03 2.531477732389307e+02 2.918975276816622e+03
1.153638778653301e+03 2.524421990686245e+02 2.918975276816622e+03
1.153744320314972e+03 2.505506913867871e+02 2.918975276816622e+03
1.153610626724723e+03 2.488488300814365e+02 2.918975276816622e+03
1.153690124398819e+03 2.483541289306449e+02 2.918975276816622e+03
1.153564890871322e+03 2.465097200488996e+02 2.918975276816622e+03
1.153693350023866e+03 2.457051013439188e+02 2.918975276816622e+03
1.153563064906158e+03 2.432537219669937e+02 2.918975276816622e+03
1.153737691320204e+03 2.418814413801473e+02 2.918975276816622e+03
1.153576638531341e+03 2.400568180109052e+02 2.918975276816622e+03
1.153754156204345e+03 2.382684453878615e+02 2.918975276816622e+03
1.153579291694356e+03 2.359403869781976e+02 2.918975276816622e+03
1.153687046105083e+03 2.331072360464513e+02 2.918975276816622e+03
1.153647826656819e+03 2.328634888033936e+02 2.918975276816622e+03
1.153732144819188e+03 2.299529154304293e+02 2.918975276816622e+03
1.153658549420090e+03 2.286397491742259e+02 2.918975276816622e+03
1.153716584856295e+03 2.267408316221097e+02 2.918975276816622e+03
1.153689955373258e+03 2.254965345531705e+02 2.918975276816622e+03
1.153716604399031e+03 2.243384046671200e+02 2.918975276816622e+03
1.153719720446762e+03 2.212596793870032e+02 2.918975276816622e+03
1.153741893431466e+03 2.181450490656157e+02 2.918975276816622e+03
1.153780183755998e+03 2.106035776355994e+02 2.918975276816622e+03
1.153782762652687e+03 2.095703315985387e+02 2.918975276816622e+03
1.153799638805757e+03 2.037255222435963e+02 2.918975276816622e+03
1.153789626409144e+03 2.009253422452964e+02 2.918975276816622e+03
1.153791739503961e+03 1.957045785913168e+02 2.918975276816622e+03
1.153783815109941e+03 1.923881121483309e+02 2.918975276816622e+03
1.153773648043227e+03 1.922447332200215e+02 2.918975276816622e+03
1.153757826156311e+03 1.898893543347742e+02 2.918975276816622e+03
1.153726779876030e+03 1.875412383309520e+02 2.918975276816622e+03
1.153687396321758e+03 1.841722234567286e+02 2.918975276816622e+03
1.153651707677220e+03 1.819527411987381e+02 2.918975276816622e+03
1.153607513038086e+03 1.760074337846112e+02 2.918975276816622e+03
1.153594400284114e+03 1.679852921379817e+02 2.918975276816622e+03
1.153581926327611e+03 1.662672779221068e+02 2.918975276816622e+03
1.153615697680866e+03 1.590839427241978e+02 2.918975276816622e+03
1.153792235615437e+03 1.576264008217887e+02 2.918975276816622e+03
1.153769065395369e+03 1.530946301249051e+02 2.918975276816622e+03
1.153569723324331e+03 1.528052222562775e+02 2.918975276816622e+03
1.153645773481672e+03 1.497647898256086e+02 2.918975276816622e+03
1.153665582174460e+03 1.484767795678983e+02 2.918975276816622e+03
1.153619656882954e+03 1.450090173540006e+02 2.918975276816622e+03
1.153599130881434e+03 1.416739606669955e+02 2.918975276816622e+03
1.153485063520070e+03 1.393365043055145e+02 2.918975276816622e+03
1.153501235696033e+03 1.388754570660984e+02 2.918975276816622e+03
1.153487107656481e+03 1.363079806670656e+02 2.918975276816622e+03
1.153379638667346e+03 1.302979427526846e+02 2.918975276816622e+03
1.153338936779394e+03 1.280625420116623e+02 2.918975276816622e+03
1.153352118078770e+03 1.268977879305753e+02 2.918975276816622e+03
1.153293989472889e+03 1.258737424505304e+02 2.918975276816622e+03
1.153187823075164e+03 1.246252774886870e+02 2.918975276816622e+03
1.153153154021232e+03 1.212831672042758e+02 2.918975276816622e+03
1.153036398336452e+03 1.199180429922593e+02 2.918975276816622e+03
1.153060958775141e+03 1.187046569300792e+02 2.918975276816622e+03
1.153007416364589e+03 1.162905937742238e+02 2.918975276816622e+03
1.153120563880265e+03 1.131360264202396e+02 2.918975276816622e+03
1.153228933449245e+03 1.115323574500833e+02 2.918975276816622e+03
1.153467191712857e+03 1.103284780087670e+02 2.918975276816622e+03
1.153507737919706e+03 1.069915517518936e+02 2.918975276816622e+03
1.153420804885493e+03 1.057782714026692e+02 2.918975276816622e+03
1.153216779378926e+03 1.046170625141672e+02 2.918975276816622e+03
1.153644909583114e+03 1.014729566110526e+02 2.918975276816622e+03
1.153451548134704e+03 9.937752179249146e+01 2.918975276816622e+03
1.153913181248422e+03 9.656126609749778e+01 2.918975276816622e+03
1.153830471681797e+03 9.654641883780872e+01 2.918975276816622e+03
1.154053390470937e+03 9.357831864991736e+01 2.918975276816622e+03
1.154012175751117e+03 9.131110147577145e+01 2.918975276816622e+03
1.154212518949134e+03 8.762299370426125e+01 2.918975276816622e+03
1.154230652532348e+03 8.583870860418359e+01 2.918975276816622e+03
1.154390769421909e+03 8.271281193059286e+01 2.918975276816622e+03
1.154434741388207e+03 7.989394873993415e+01 2.918975276816622e+03
1.154521167721637e+03 7.827974274045249e+01 2.918975276816622e+03
1.154793484973794e+03 6.763923217188062e+01 2.918975276816622e+03
1.154899004607557e+03 6.599870499885620e+01 2.918975276816622e+03
1.154848457697536e+03 6.256639969532444e+01 2.918975276816622e+03
1.155068093930705e+03 5.962942311622167e+01 2.918975276816622e+03
1.154851167128469e+03 5.763797496674226e+01 2.918975276816622e+03
1.155102371820375e+03 5.730833884880052e+01 2.918975276816622e+03
1.154832338358872e+03 5.518586168802332e+01 2.918975276816622e+03
1.155055584824040e+03 5.440906880163941e+01 2.918975276816622e+03
1.154797012171430e+03 5.151608022158526e+01 2.918975276816622e+03
1.155078135854823e+03 5.009921198578110e+01 2.918975276816622e+03
1.154788075668229e+03 4.773287901156924e+01 2.918975276816622e+03
1.154919046508519e+03 4.753143840637824e+01 2.918975276816622e+03
1.154747778664868e+03 4.455967670751205e+01 2.918975276816622e+03
1.154970809002644e+03 4.267255116714064e+01 2.918975276816622e+03
1.154832346169609e+03 4.191851517344266e+01 2.918975276816622e+03
1.155009568220712e+03 4.064195241525625e+01 2.918975276816622e+03
1.154860490135628e+03 3.903659286812914e+01 2.918975276816622e+03
1.155028591733354e+03 3.553391001154386e+01 2.918975276816622e+03
1.154921611058503e+03 3.412411463932362e+01 2.918975276816622e+03
1.155034335001466e+03 3.206213234173975e+01 2.918975276816622e+03
1.154966969692849e+03 3.017326033884931e+01 2.918975276816622e+03
1.155008454675624e+03 2.831410108310843e+01 2.918975276816622e+03
1.155018614256880e+03 2.545300270659219e+01 2.918975276816622e+03
1.154916300762653e+03 1.597468021226532e+01 2.918975276816622e+03
1.154904833872101e+03 1.444910630205549e+01 2.918975276816622e+03
1.154837827624626e+03 1.348262127906036e+01 2.918975276816622e+03
1.154838516394421e+03 1.160430271123024e+01 2.918975276816622e+03
1.154848946046100e+03 1.024351892105811e+01 2.918975276816622e+03
1.154741254198248e+03 5.443711477702836e+00 2.918975276816622e+03
1.154727634969371e+03 4.350241319717207e+00 2.918975276816622e+03
1.154700064374580e+03 2.471041967763331e+00 2.918975276816622e+03
1.154667641342953e+03 9.409734502152103e-01 2.918975276816622e+03
-1.147986623897905e+03 -3.863858941524650e+02 -2.918975276816622e+03
-1.147986623897905e+03  3.863858941524653e+02 -2.918975276816622e+03
 1.144988612194619e+03 -3.863858941524653e+02  2.918975276816622e+03
1.144988612194619e+03 3.863858941524650e+02 2.918975276816622e+03
-1.156832633359456e+03 -3.863858941524650e+02 -2.918975276816622e+03
-1.156832633359456e+03  3.863858941524653e+02 -2.918975276816622e+03
 1.153779230465473e+03 -3.863858941524653e+02  2.918975276816622e+03
1.153779230465473e+03 3.863858941524650e+02 2.918975276816622e+03
-1.148495220162898e+03  1.609944938447597e-02 -2.918975276816622e+03
-1.148499219113643e+03  3.172128585589709e+00 -2.918975276816622e+03
-1.148495981319594e+03 -1.409988210047465e+00 -2.918975276816622e+03
-1.148489587373655e+03 -2.842682254179770e+00 -2.918975276816622e+03
-1.148480647801764e+03 -4.592806174251761e+00 -2.918975276816622e+03
-1.148476343557607e+03 -5.785797193578985e+00 -2.918975276816622e+03
-1.148464679466368e+03 -7.266546380401997e+00 -2.918975276816622e+03
-1.148441325222483e+03 -9.404020469271202e+00 -2.918975276816622e+03
-1.148420268977867e+03 -1.179310528426522e+01 -2.918975276816622e+03
-1.148403464096484e+03 -1.332265553026266e+01 -2.918975276816622e+03
-1.148392003821807e+03 -1.513479195296885e+01 -2.918975276816622e+03
-1.148349297831556e+03 -1.835498527372519e+01 -2.918975276816622e+03
-1.148313389695275e+03 -2.150022289479832e+01 -2.918975276816622e+03
-1.148269429672567e+03 -2.491142240643392e+01 -2.918975276816622e+03
-1.148220448366546e+03 -2.748227925975958e+01 -2.918975276816622e+03
-1.148191165703344e+03 -2.967970623604252e+01 -2.918975276816622e+03
-1.148139414266830e+03 -3.295089973618315e+01 -2.918975276816622e+03
-1.148106948461930e+03 -3.500686534919895e+01 -2.918975276816622e+03
-1.148077291743537e+03 -3.697598048069065e+01 -2.918975276816622e+03
-1.148098823903926e+03 -3.968708730175443e+01 -2.918975276816622e+03
-1.148188021488201e+03 -4.201180840678948e+01 -2.918975276816622e+03
-1.148006943328889e+03 -4.409847084174598e+01 -2.918975276816622e+03
-1.148006898191004e+03 -4.626952516666360e+01 -2.918975276816622e+03
-1.148458161818134e+03 -4.876303005162082e+01 -2.918975276816622e+03
-1.148499860659481e+03 -5.143769552086059e+01 -2.918975276816622e+03
-1.148131994715044e+03 -5.429352157438283e+01 -2.918975276816622e+03
-1.147928644793341e+03 -5.706595310600974e+01 -2.918975276816622e+03
-1.147856571470626e+03 -5.925952237480477e+01 -2.918975276816622e+03
-1.147848436786926e+03 -6.070945591012313e+01 -2.918975276816622e+03
-1.147835931969230e+03 -6.231500122158494e+01 -2.918975276816622e+03
-1.147838683775120e+03 -6.383448632835775e+01 -2.918975276816622e+03
-1.147828610271329e+03 -6.536579753916372e+01 -2.918975276816622e+03
-1.147823745506452e+03 -6.689602498897301e+01 -2.918975276816622e+03
-1.147836013001153e+03 -6.867480394262800e+01 -2.918975276816622e+03
-1.147826398993626e+03 -7.027870934650453e+01 -2.918975276816622e+03
-1.147806911027401e+03 -7.137142841052574e+01 -2.918975276816622e+03
-1.147798146216586e+03 -7.315053966334122e+01 -2.918975276816622e+03
-1.147780339074693e+03 -7.474182199331055e+01 -2.918975276816622e+03
-1.147774941272552e+03 -7.584005898432002e+01 -2.918975276816622e+03
-1.147773482539799e+03 -7.736862733844464e+01 -2.918975276816622e+03
-1.147771257362475e+03 -7.937173098153644e+01 -2.918975276816622e+03
-1.147747775260380e+03 -8.092606309462248e+01 -2.918975276816622e+03
-1.147744705810001e+03 -8.259566716733077e+01 -2.918975276816622e+03
-1.147750213995014e+03 -8.447751811589347e+01 -2.918975276816622e+03
-1.147771326456166e+03 -8.626568263093675e+01 -2.918975276816622e+03
-1.147740624142322e+03 -8.839564684896300e+01 -2.918975276816622e+03
-1.147654712947612e+03 -8.994222524041179e+01 -2.918975276816622e+03
-1.147648894368786e+03 -9.124577328533455e+01 -2.918975276816622e+03
-1.147654356519172e+03 -9.347924908729163e+01 -2.918975276816622e+03
-1.147670890319856e+03 -9.520404199494671e+01 -2.918975276816622e+03
-1.147667712648995e+03 -9.700315758015957e+01 -2.918975276816622e+03
-1.147657856216084e+03 -9.940495100439338e+01 -2.918975276816622e+03
-1.147648078985311e+03 -1.008759890763681e+02 -2.918975276816622e+03
-1.147639550045207e+03 -1.023212206450565e+02 -2.918975276816622e+03
-1.147630185318939e+03 -1.037493095034072e+02 -2.918975276816622e+03
-1.147619416589934e+03 -1.052407039687685e+02 -2.918975276816622e+03
-1.147608824518464e+03 -1.067550955767040e+02 -2.918975276816622e+03
-1.147598929867235e+03 -1.085034794520746e+02 -2.918975276816622e+03
-1.147582016145461e+03 -1.101291008524190e+02 -2.918975276816622e+03
-1.147568121209302e+03 -1.113907731806225e+02 -2.918975276816622e+03
-1.147549400750693e+03 -1.131850996635001e+02 -2.918975276816622e+03
-1.147565888326543e+03 -1.141563266541878e+02 -2.918975276816622e+03
-1.147584251352657e+03 -1.149711449515286e+02 -2.918975276816622e+03
-1.147585136424596e+03 -1.170383270639634e+02 -2.918975276816622e+03
-1.147576795466943e+03 -1.192235394449466e+02 -2.918975276816622e+03
-1.147579565724715e+03 -1.207318857304667e+02 -2.918975276816622e+03
-1.147574222553670e+03 -1.224772542752034e+02 -2.918975276816622e+03
-1.147578418658295e+03 -1.242331104193563e+02 -2.918975276816622e+03
-1.147569787628313e+03 -1.260175968750551e+02 -2.918975276816622e+03
-1.147564054113931e+03 -1.283405217439223e+02 -2.918975276816622e+03
-1.147556836839011e+03 -1.296334494478440e+02 -2.918975276816622e+03
-1.147571092057295e+03 -1.308609297181505e+02 -2.918975276816622e+03
-1.147587089506008e+03 -1.330178388073768e+02 -2.918975276816622e+03
-1.147589012045893e+03 -1.342281640660326e+02 -2.918975276816622e+03
-1.147601864266736e+03 -1.350680538146388e+02 -2.918975276816622e+03
-1.147625339734156e+03 -1.370747480430478e+02 -2.918975276816622e+03
-1.147648577168426e+03 -1.392302649126735e+02 -2.918975276816622e+03
-1.147661063581819e+03 -1.406765629061512e+02 -2.918975276816622e+03
-1.147676542695780e+03 -1.422252708652365e+02 -2.918975276816622e+03
-1.147690038414230e+03 -1.436680492519600e+02 -2.918975276816622e+03
-1.147704101145729e+03 -1.451513447892184e+02 -2.918975276816622e+03
-1.147714492180646e+03 -1.466430427003362e+02 -2.918975276816622e+03
-1.147730380404097e+03 -1.484096204140524e+02 -2.918975276816622e+03
-1.147742999823222e+03 -1.500169691306954e+02 -2.918975276816622e+03
-1.147755152185168e+03 -1.512020360436961e+02 -2.918975276816622e+03
-1.147766211360854e+03 -1.530322740579247e+02 -2.918975276816622e+03
-1.147762327288980e+03 -1.540439921402732e+02 -2.918975276816622e+03
-1.147767209303006e+03 -1.550085651552866e+02 -2.918975276816622e+03
-1.147798216893506e+03 -1.580634376296300e+02 -2.918975276816622e+03
-1.147825022094095e+03 -1.606973876767880e+02 -2.918975276816622e+03
-1.147837512450226e+03 -1.622065285910295e+02 -2.918975276816622e+03
-1.147855423925504e+03 -1.639573789006606e+02 -2.918975276816622e+03
-1.147869227864244e+03 -1.659924454488981e+02 -2.918975276816622e+03
-1.147888094171022e+03 -1.685244313845249e+02 -2.918975276816622e+03
-1.147906960477800e+03 -1.710564173201518e+02 -2.918975276816622e+03
-1.147924993055481e+03 -1.739933377332707e+02 -2.918975276816622e+03
-1.147944841742129e+03 -1.769902860597559e+02 -2.918975276816622e+03
-1.147958589889415e+03 -1.792665841693930e+02 -2.918975276816622e+03
-1.147963314011157e+03 -1.807455611791152e+02 -2.918975276816622e+03
-1.147966080157852e+03 -1.822086968761651e+02 -2.918975276816622e+03
-1.147973325565428e+03 -1.839250145368103e+02 -2.918975276816622e+03
-1.147983557376976e+03 -1.859007854619036e+02 -2.918975276816622e+03
-1.147990612004683e+03 -1.882885638223702e+02 -2.918975276816622e+03
-1.147991266563156e+03 -1.897643707098866e+02 -2.918975276816622e+03
-1.148003949722074e+03 -1.909935839201430e+02 -2.918975276816622e+03
-1.148006792602384e+03 -1.929163672758120e+02 -2.918975276816622e+03
-1.148003800432321e+03 -1.940883085028177e+02 -2.918975276816622e+03
-1.147999330596625e+03 -1.951655399017834e+02 -2.918975276816622e+03
-1.147991387145773e+03 -1.980562129731481e+02 -2.918975276816622e+03
-1.147978619549405e+03 -2.005750613862016e+02 -2.918975276816622e+03
-1.147982114661268e+03 -2.020836160471017e+02 -2.918975276816622e+03
-1.147974838329380e+03 -2.035692064723666e+02 -2.918975276816622e+03
-1.147966062212098e+03 -2.050426937186628e+02 -2.918975276816622e+03
-1.147954910982894e+03 -2.065539515377748e+02 -2.918975276816622e+03
-1.147931520049676e+03 -2.083505895884442e+02 -2.918975276816622e+03
-1.147908343441944e+03 -2.100105315988579e+02 -2.918975276816622e+03
-1.147895355809183e+03 -2.114059409126704e+02 -2.918975276816622e+03
-1.147848748632404e+03 -2.140059298531781e+02 -2.918975276816622e+03
-1.147790970666136e+03 -2.169174893561120e+02 -2.918975276816622e+03
-1.147753483325289e+03 -2.191625478162913e+02 -2.918975276816622e+03
-1.147716376994129e+03 -2.206529109663091e+02 -2.918975276816622e+03
-1.147678346127161e+03 -2.221783075838271e+02 -2.918975276816622e+03
-1.147627202800287e+03 -2.238885020724944e+02 -2.918975276816622e+03
-1.147579944909061e+03 -2.258415953035312e+02 -2.918975276816622e+03
-1.147495314720895e+03 -2.282477442176915e+02 -2.918975276816622e+03
-1.147432424171066e+03 -2.298176644405260e+02 -2.918975276816622e+03
-1.147384651433350e+03 -2.310862803718918e+02 -2.918975276816622e+03
-1.147296328893687e+03 -2.328791226947138e+02 -2.918975276816622e+03
-1.147221087770527e+03 -2.338389748040276e+02 -2.918975276816622e+03
-1.147289644445595e+03 -2.347362372923744e+02 -2.918975276816622e+03
-1.147411784629342e+03 -2.368411718475211e+02 -2.918975276816622e+03
-1.147510158588099e+03 -2.391132931104451e+02 -2.918975276816622e+03
-1.147557581656590e+03 -2.406508740908672e+02 -2.918975276816622e+03
-1.147618027647358e+03 -2.421740619425360e+02 -2.918975276816622e+03
-1.147684299752278e+03 -2.438187042458684e+02 -2.918975276816622e+03
-1.147767122794538e+03 -2.457513935230222e+02 -2.918975276816622e+03
-1.147847578468350e+03 -2.470405284318169e+02 -2.918975276816622e+03
-1.147825778622011e+03 -2.484186945107507e+02 -2.918975276816622e+03
-1.147813278938588e+03 -2.503202449570114e+02 -2.918975276816622e+03
-1.147804586303234e+03 -2.512794475421129e+02 -2.918975276816622e+03
-1.147782389462937e+03 -2.527739071483143e+02 -2.918975276816622e+03
-1.147770618150819e+03 -2.545411277704376e+02 -2.918975276816622e+03
-1.147771854850555e+03 -2.563516825962801e+02 -2.918975276816622e+03
-1.147775118652660e+03 -2.575964177198569e+02 -2.918975276816622e+03
-1.147778394599642e+03 -2.589363177485142e+02 -2.918975276816622e+03
-1.147775086968438e+03 -2.605478098875159e+02 -2.918975276816622e+03
-1.147779852039789e+03 -2.621728126403825e+02 -2.918975276816622e+03
-1.147797330032519e+03 -2.647698685474938e+02 -2.918975276816622e+03
-1.147802939989924e+03 -2.673745931288579e+02 -2.918975276816622e+03
-1.147796932551086e+03 -2.698508563389572e+02 -2.918975276816622e+03
-1.147812174299038e+03 -2.724811823430576e+02 -2.918975276816622e+03
-1.147835382083013e+03 -2.747179315806787e+02 -2.918975276816622e+03
-1.147844180634581e+03 -2.764692644305952e+02 -2.918975276816622e+03
-1.147850454011832e+03 -2.788290866691336e+02 -2.918975276816622e+03
-1.147862825450838e+03 -2.823113767411967e+02 -2.918975276816622e+03
-1.147872215435570e+03 -2.850978525221779e+02 -2.918975276816622e+03
-1.147876998212921e+03 -2.868124028512102e+02 -2.918975276816622e+03
-1.147882908371291e+03 -2.889871730818899e+02 -2.918975276816622e+03
-1.147884074509353e+03 -2.914220727574047e+02 -2.918975276816622e+03
-1.147885240647416e+03 -2.938569724329196e+02 -2.918975276816622e+03
-1.147882018824096e+03 -2.968457199018569e+02 -2.918975276816622e+03
-1.147877659586729e+03 -2.994641696224286e+02 -2.918975276816622e+03
-1.147869868607412e+03 -3.019788126173679e+02 -2.918975276816622e+03
-1.147857694169111e+03 -3.039595147180103e+02 -2.918975276816622e+03
-1.147846226469236e+03 -3.058291395877466e+02 -2.918975276816622e+03
-1.147818662455425e+03 -3.090280544368580e+02 -2.918975276816622e+03
-1.147784251045907e+03 -3.123102764963095e+02 -2.918975276816622e+03
-1.147744660196323e+03 -3.160291137313879e+02 -2.918975276816622e+03
-1.147696218583594e+03 -3.193692579142431e+02 -2.918975276816622e+03
-1.147651762474134e+03 -3.218913135797591e+02 -2.918975276816622e+03
-1.147535140952847e+03 -3.248901698335659e+02 -2.918975276816622e+03
-1.147438883028519e+03 -3.266325982164422e+02 -2.918975276816622e+03
-1.147565170481389e+03 -3.285396244246940e+02 -2.918975276816622e+03
-1.147660443528718e+03 -3.322505589249812e+02 -2.918975276816622e+03
-1.147663638651952e+03 -3.344408501400884e+02 -2.918975276816622e+03
-1.147694262642805e+03 -3.367669467836997e+02 -2.918975276816622e+03
-1.147699222164809e+03 -3.398373320355533e+02 -2.918975276816622e+03
-1.147720041200210e+03 -3.420894751745250e+02 -2.918975276816622e+03
-1.147736680680536e+03 -3.452156534856295e+02 -2.918975276816622e+03
-1.147751559689130e+03 -3.475739117440739e+02 -2.918975276816622e+03
-1.147767643840673e+03 -3.491655661451014e+02 -2.918975276816622e+03
-1.147782514051823e+03 -3.516325719135046e+02 -2.918975276816622e+03
-1.147797005434579e+03 -3.536320240140582e+02 -2.918975276816622e+03
-1.147814143746644e+03 -3.563910710575987e+02 -2.918975276816622e+03
-1.147842424310471e+03 -3.602566686498811e+02 -2.918975276816622e+03
-1.147873525724034e+03 -3.633858654990893e+02 -2.918975276816622e+03
-1.147899331493276e+03 -3.658992596673188e+02 -2.918975276816622e+03
-1.147925137262518e+03 -3.684126538355483e+02 -2.918975276816622e+03
-1.147940127615738e+03 -3.707260824067612e+02 -2.918975276816622e+03
-1.147955942634949e+03 -3.729417947886062e+02 -2.918975276816622e+03
-1.147968182249131e+03 -3.742480422150164e+02 -2.918975276816622e+03
-1.147973807920288e+03 -3.753864326593761e+02 -2.918975276816622e+03
-1.147982909049734e+03 -3.769602769192643e+02 -2.918975276816622e+03
-1.147986287694739e+03 -3.785933859095193e+02 -2.918975276816622e+03
-1.147989980675133e+03 -3.798102978182027e+02 -2.918975276816622e+03
-1.147983678332661e+03 -3.811514477216989e+02 -2.918975276816622e+03
-1.147980655444146e+03 -3.841932885297027e+02 -2.918975276816622e+03
-1.147986430326628e+03 -3.862231984261480e+02 -2.918975276816622e+03
-1.147984003708450e+03  3.820806906490928e+02 -2.918975276816622e+03
-1.147971345387604e+03  3.797050281272286e+02 -2.918975276816622e+03
-1.147988478383389e+03  3.848272080312451e+02 -2.918975276816622e+03
-1.147963247350056e+03  3.778005267404434e+02 -2.918975276816622e+03
-1.147961311060197e+03  3.767307212551657e+02 -2.918975276816622e+03
-1.147965569110099e+03  3.750624915337663e+02 -2.918975276816622e+03
-1.147973387454113e+03  3.724403958583134e+02 -2.918975276816622e+03
-1.147980173216871e+03  3.698263932313570e+02 -2.918975276816622e+03
-1.147976360045583e+03  3.671345662075555e+02 -2.918975276816622e+03
-1.147961947940251e+03  3.643649147869087e+02 -2.918975276816622e+03
-1.147947535834918e+03  3.615952633662624e+02 -2.918975276816622e+03
-1.147942380756679e+03  3.596530478764978e+02 -2.918975276816622e+03
-1.147957958604290e+03  3.569711312995780e+02 -2.918975276816622e+03
-1.147942115470834e+03  3.538040188870167e+02 -2.918975276816622e+03
-1.147931463506131e+03  3.518808583624528e+02 -2.918975276816622e+03
-1.147919310082118e+03  3.497692702655162e+02 -2.918975276816622e+03
-1.147910442435909e+03  3.472211848833502e+02 -2.918975276816622e+03
-1.147901839441314e+03  3.451258275995464e+02 -2.918975276816622e+03
-1.147882839887018e+03  3.428663235456576e+02 -2.918975276816622e+03
-1.147873626767425e+03  3.409109710818280e+02 -2.918975276816622e+03
-1.147858840593160e+03  3.393948695258424e+02 -2.918975276816622e+03
-1.147849433610713e+03  3.369085399981247e+02 -2.918975276816622e+03
-1.147818551235078e+03  3.340198170565934e+02 -2.918975276816622e+03
-1.147787668859443e+03  3.311310941150618e+02 -2.918975276816622e+03
-1.147749361336970e+03  3.286892269607756e+02 -2.918975276816622e+03
-1.147717544286354e+03  3.268694437774417e+02 -2.918975276816622e+03
-1.147667975300117e+03  3.247563856807473e+02 -2.918975276816622e+03
-1.147621364576651e+03  3.234433671809469e+02 -2.918975276816622e+03
-1.147668381899196e+03  3.221629771551917e+02 -2.918975276816622e+03
-1.147731688997390e+03  3.204815721968263e+02 -2.918975276816622e+03
-1.147767240335637e+03  3.186354063136730e+02 -2.918975276816622e+03
-1.147833143389520e+03  3.152350322808624e+02 -2.918975276816622e+03
-1.147860892280381e+03  3.115466840498810e+02 -2.918975276816622e+03
-1.147901818267604e+03  3.085805800789629e+02 -2.918975276816622e+03
-1.147920290575470e+03  3.063318693956058e+02 -2.918975276816622e+03
-1.147891040464928e+03  3.043461925395744e+02 -2.918975276816622e+03
-1.147908579979410e+03  3.022836319414500e+02 -2.918975276816622e+03
-1.147917154977348e+03  2.999596543999149e+02 -2.918975276816622e+03
-1.147911433376353e+03  2.974524547174995e+02 -2.918975276816622e+03
-1.147905711775357e+03  2.949452550350838e+02 -2.918975276816622e+03
-1.147902489693323e+03  2.925322832120872e+02 -2.918975276816622e+03
-1.147901767130249e+03  2.902135392485094e+02 -2.918975276816622e+03
-1.147902214830794e+03  2.888075038406349e+02 -2.918975276816622e+03
-1.147903467042695e+03  2.874010607249347e+02 -2.918975276816622e+03
-1.147900079642515e+03  2.847115679546163e+02 -2.918975276816622e+03
-1.147903495052922e+03  2.826112042663686e+02 -2.918975276816622e+03
-1.147900907253444e+03  2.810693093200538e+02 -2.918975276816622e+03
-1.147896378662140e+03  2.790546343531959e+02 -2.918975276816622e+03
-1.147890818329482e+03  2.770919304537239e+02 -2.918975276816622e+03
-1.147886256989783e+03  2.759250739782593e+02 -2.918975276816622e+03
-1.147881060587808e+03  2.749423363042212e+02 -2.918975276816622e+03
-1.147879259837142e+03  2.729797208234780e+02 -2.918975276816622e+03
-1.147878562555782e+03  2.713713099179089e+02 -2.918975276816622e+03
-1.147877727116014e+03  2.700664977019549e+02 -2.918975276816622e+03
-1.147870973941100e+03  2.679237352271672e+02 -2.918975276816622e+03
-1.147868951539597e+03  2.661108361542506e+02 -2.918975276816622e+03
-1.147871181682474e+03  2.643032576643104e+02 -2.918975276816622e+03
-1.147866508292931e+03  2.621055155284354e+02 -2.918975276816622e+03
-1.147865443757105e+03  2.605381528604946e+02 -2.918975276816622e+03
-1.147862401590130e+03  2.589009261879098e+02 -2.918975276816622e+03
-1.147861419877918e+03  2.572206558099442e+02 -2.918975276816622e+03
-1.147847652721904e+03  2.552957403851994e+02 -2.918975276816622e+03
-1.147832904522862e+03  2.526983971518856e+02 -2.918975276816622e+03
-1.147805242186842e+03  2.508521105170217e+02 -2.918975276816622e+03
-1.147798900710717e+03  2.498803787396640e+02 -2.918975276816622e+03
-1.147774398900715e+03  2.482846581165583e+02 -2.918975276816622e+03
-1.147734389618635e+03  2.464392247614126e+02 -2.918975276816622e+03
-1.147686672387663e+03  2.446448617822443e+02 -2.918975276816622e+03
-1.147655859054374e+03  2.434008323930580e+02 -2.918975276816622e+03
-1.147611008270006e+03  2.419714669052262e+02 -2.918975276816622e+03
-1.147568781599483e+03  2.403466791170962e+02 -2.918975276816622e+03
-1.147606308277806e+03  2.392878882596566e+02 -2.918975276816622e+03
-1.147758849220349e+03  2.373892509894991e+02 -2.918975276816622e+03
-1.147643495179628e+03  2.357827879977165e+02 -2.918975276816622e+03
-1.147586208599029e+03  2.345410340697566e+02 -2.918975276816622e+03
-1.147666169936829e+03  2.332882924526638e+02 -2.918975276816622e+03
-1.148648821121745e+03  2.332396194489681e+02 -2.918975276816622e+03
-1.149289964104107e+03  2.318078808804824e+02 -2.918975276816622e+03
-1.148992042430790e+03  2.284645590563682e+02 -2.918975276816622e+03
-1.148605020820921e+03  2.266371431039476e+02 -2.918975276816622e+03
-1.147873030108331e+03  2.254491204668863e+02 -2.918975276816622e+03
-1.147720770121972e+03  2.239307855286664e+02 -2.918975276816622e+03
-1.147542683832093e+03  2.216715881255463e+02 -2.918975276816622e+03
-1.147155710366674e+03  2.185536124746135e+02 -2.918975276816622e+03
-1.147030797818022e+03  2.167497211231082e+02 -2.918975276816622e+03
-1.147053454316242e+03  2.154765535833843e+02 -2.918975276816622e+03
-1.147044508625150e+03  2.140355115342784e+02 -2.918975276816622e+03
-1.147019101357972e+03  2.127643413381462e+02 -2.918975276816622e+03
-1.146977455975673e+03  2.110221739421399e+02 -2.918975276816622e+03
-1.146990606925403e+03  2.097030714022221e+02 -2.918975276816622e+03
-1.146995922175653e+03  2.082737234927850e+02 -2.918975276816622e+03
-1.146927925224178e+03  2.059407130252044e+02 -2.918975276816622e+03
-1.146914531506960e+03  2.031381217639274e+02 -2.918975276816622e+03
-1.147004265419900e+03  2.001228159334898e+02 -2.918975276816622e+03
-1.147069104848821e+03  1.974718566579689e+02 -2.918975276816622e+03
-1.147060862070533e+03  1.942659278241671e+02 -2.918975276816622e+03
-1.147031424412206e+03  1.912258719055164e+02 -2.918975276816622e+03
-1.147034816961073e+03  1.896942394715443e+02 -2.918975276816622e+03
-1.147040866187384e+03  1.881847264241812e+02 -2.918975276816622e+03
-1.147049206622207e+03  1.867456904111407e+02 -2.918975276816622e+03
-1.147055572376192e+03  1.853537361536430e+02 -2.918975276816622e+03
-1.147057020172484e+03  1.838991805728914e+02 -2.918975276816622e+03
-1.147058535692736e+03  1.819217272885919e+02 -2.918975276816622e+03
-1.147044074708207e+03  1.796886372694363e+02 -2.918975276816622e+03
-1.147036893145245e+03  1.785912173266548e+02 -2.918975276816622e+03
-1.147036321381011e+03  1.771451299347175e+02 -2.918975276816622e+03
-1.147044324952112e+03  1.747645806386680e+02 -2.918975276816622e+03
-1.147074483854693e+03  1.726906261032236e+02 -2.918975276816622e+03
-1.147083224749460e+03  1.710119501181685e+02 -2.918975276816622e+03
-1.147106697137008e+03  1.695938836510607e+02 -2.918975276816622e+03
-1.147110253933093e+03  1.682221777420510e+02 -2.918975276816622e+03
-1.147141841357636e+03  1.668259745240890e+02 -2.918975276816622e+03
-1.147201923402745e+03  1.651569549249849e+02 -2.918975276816622e+03
-1.147156676980828e+03  1.638377028163950e+02 -2.918975276816622e+03
-1.147134534750519e+03  1.622895889158183e+02 -2.918975276816622e+03
-1.147170687044330e+03  1.606520036743051e+02 -2.918975276816622e+03
-1.147176682204806e+03  1.592766653078080e+02 -2.918975276816622e+03
-1.147163154202009e+03  1.569942279202411e+02 -2.918975276816622e+03
-1.147145117897533e+03  1.544847811929279e+02 -2.918975276816622e+03
-1.147137532124456e+03  1.524264196983430e+02 -2.918975276816622e+03
-1.147124472820618e+03  1.507913607606820e+02 -2.918975276816622e+03
-1.147117653765976e+03  1.495665117095661e+02 -2.918975276816622e+03
-1.147108520790588e+03  1.483234613259503e+02 -2.918975276816622e+03
-1.147117029815962e+03  1.469057799226796e+02 -2.918975276816622e+03
-1.147166248827017e+03  1.453604774250221e+02 -2.918975276816622e+03
-1.147175403492729e+03  1.438639096907412e+02 -2.918975276816622e+03
-1.147158152004561e+03  1.421778897029308e+02 -2.918975276816622e+03
-1.147160928155322e+03  1.409037812211761e+02 -2.918975276816622e+03
-1.147172144658015e+03  1.397027130779656e+02 -2.918975276816622e+03
-1.147197106966271e+03  1.378445736309882e+02 -2.918975276816622e+03
-1.147212854255535e+03  1.368263844800648e+02 -2.918975276816622e+03
-1.147232934684456e+03  1.353103896971133e+02 -2.918975276816622e+03
-1.147250192524592e+03  1.335411422022580e+02 -2.918975276816622e+03
-1.147266013235597e+03  1.317412015150953e+02 -2.918975276816622e+03
-1.147291671087729e+03  1.298295140849552e+02 -2.918975276816622e+03
-1.147323220866343e+03  1.283103553948930e+02 -2.918975276816622e+03
-1.147346236640132e+03  1.265467404424185e+02 -2.918975276816622e+03
-1.147360024899598e+03  1.245473028637088e+02 -2.918975276816622e+03
-1.147397193201502e+03  1.222747488459780e+02 -2.918975276816622e+03
-1.147416847710345e+03  1.206438593167113e+02 -2.918975276816622e+03
-1.147459519301086e+03  1.189912367716581e+02 -2.918975276816622e+03
-1.147466073353120e+03  1.163504527092477e+02 -2.918975276816622e+03
-1.147495558569902e+03  1.138409139170526e+02 -2.918975276816622e+03
-1.147504973768832e+03  1.123533433926440e+02 -2.918975276816622e+03
-1.147533708023590e+03  1.111325453323085e+02 -2.918975276816622e+03
-1.147534156037014e+03  1.098951164062152e+02 -2.918975276816622e+03
-1.147543972014769e+03  1.082178679738629e+02 -2.918975276816622e+03
-1.147598121307748e+03  1.065350875063419e+02 -2.918975276816622e+03
-1.147620958967682e+03  1.054173918735256e+02 -2.918975276816622e+03
-1.147610257195335e+03  1.041083522392861e+02 -2.918975276816622e+03
-1.147625577757936e+03  1.022558973664725e+02 -2.918975276816622e+03
-1.147680356213419e+03  1.005432296100102e+02 -2.918975276816622e+03
-1.147684831893526e+03  9.932430828968731e+01 -2.918975276816622e+03
-1.147672295442764e+03  9.786014156631732e+01 -2.918975276816622e+03
-1.147681494900378e+03  9.613072539115790e+01 -2.918975276816622e+03
-1.147715401479205e+03  9.333855851126252e+01 -2.918975276816622e+03
-1.147719243697397e+03  9.015953321331592e+01 -2.918975276816622e+03
-1.147740823301062e+03  8.723710816904743e+01 -2.918975276816622e+03
-1.147746011031504e+03  8.399263698272861e+01 -2.918975276816622e+03
-1.147758975226241e+03  8.160109261571293e+01 -2.918975276816622e+03
-1.147759420429204e+03  7.991078622989498e+01 -2.918975276816622e+03
-1.147769643448906e+03  7.756470283031300e+01 -2.918975276816622e+03
-1.147770096402574e+03  7.499950629366673e+01 -2.918975276816622e+03
-1.147776302638217e+03  7.275560378830343e+01 -2.918975276816622e+03
-1.147781035541724e+03  7.114495150309135e+01 -2.918975276816622e+03
-1.147788828452881e+03  6.938761962170049e+01 -2.918975276816622e+03
-1.147800413852599e+03  6.788817283278637e+01 -2.918975276816622e+03
-1.147813254844456e+03  6.661023381701006e+01 -2.918975276816622e+03
-1.147838943930319e+03  6.379866305166500e+01 -2.918975276816622e+03
-1.147847841651661e+03  6.027078247379792e+01 -2.918975276816622e+03
-1.147854066671503e+03  5.685286405616534e+01 -2.918975276816622e+03
-1.147847735463258e+03  5.416760454953008e+01 -2.918975276816622e+03
-1.147919279593520e+03  5.237943226830297e+01 -2.918975276816622e+03
-1.147957803174000e+03  5.061243544064336e+01 -2.918975276816622e+03
-1.147948228652115e+03  4.853038878785555e+01 -2.918975276816622e+03
-1.148013203487218e+03  4.596071352597044e+01 -2.918975276816622e+03
-1.148118579642160e+03  4.293752604626528e+01 -2.918975276816622e+03
-1.148175757667295e+03  4.052730356146180e+01 -2.918975276816622e+03
-1.148173769291054e+03  3.902849816879754e+01 -2.918975276816622e+03
-1.148212025776109e+03  3.690258882544794e+01 -2.918975276816622e+03
-1.148383518198152e+03  3.357703693101300e+01 -2.918975276816622e+03
-1.148448256243328e+03  3.039343028639329e+01 -2.918975276816622e+03
-1.148390707525615e+03  2.762603846834230e+01 -2.918975276816622e+03
-1.148440855202870e+03  2.472114915087481e+01 -2.918975276816622e+03
-1.148468963271248e+03  2.308567364401187e+01 -2.918975276816622e+03
-1.148475611130407e+03  2.204114977132520e+01 -2.918975276816622e+03
-1.148484258143260e+03  2.066587364984192e+01 -2.918975276816622e+03
-1.148501353849751e+03  1.903312482946826e+01 -2.918975276816622e+03
-1.148503600344286e+03  1.696993795800329e+01 -2.918975276816622e+03
-1.148494141227072e+03  1.495314234283180e+01 -2.918975276816622e+03
-1.148498943134733e+03  1.232250911305194e+01 -2.918975276816622e+03
-1.148507833527458e+03  9.206391587800976e+00 -2.918975276816622e+03
-1.148516827724700e+03  6.918186242450544e+00 -2.918975276816622e+03
-1.148514138297605e+03  5.713926680012657e+00 -2.918975276816622e+03
 1.145831626264685e+03 -3.841601645922733e-01  2.918975276816622e+03
1.145866368540068e+03 1.479900442647129e+00 2.918975276816622e+03
 1.145794928353051e+03 -2.215249789629249e+00  2.918975276816622e+03
 1.145758668645539e+03 -3.990806994029370e+00  2.918975276816622e+03
 1.145724247956913e+03 -5.545518454562363e+00  2.918975276816622e+03
 1.145675519022856e+03 -7.728973347737748e+00  2.918975276816622e+03
 1.145635885578722e+03 -9.320514212052579e+00  2.918975276816622e+03
 1.145599275199803e+03 -1.079554173418345e+01  2.918975276816622e+03
 1.145557779748512e+03 -1.260053726671918e+01  2.918975276816622e+03
 1.145496044215960e+03 -1.522418158371557e+01  2.918975276816622e+03
 1.145426206509681e+03 -1.814876622593562e+01  2.918975276816622e+03
 1.145369694063268e+03 -2.041020973264696e+01  2.918975276816622e+03
 1.145316273371827e+03 -2.269744498374861e+01  2.918975276816622e+03
 1.145256016249717e+03 -2.500518021506049e+01  2.918975276816622e+03
 1.145207459763487e+03 -2.698040792304073e+01  2.918975276816622e+03
 1.145157794559308e+03 -2.879805323255091e+01  2.918975276816622e+03
 1.145125098807892e+03 -2.999272491615446e+01  2.918975276816622e+03
 1.145123147878908e+03 -3.105725819527389e+01  2.918975276816622e+03
 1.145113036055590e+03 -3.262364384962694e+01  2.918975276816622e+03
 1.145098976669866e+03 -3.449468303264672e+01  2.918975276816622e+03
 1.145080168446268e+03 -3.683099195120354e+01  2.918975276816622e+03
 1.145066902659815e+03 -3.868452983822278e+01  2.918975276816622e+03
 1.145058829546841e+03 -4.071981338530213e+01  2.918975276816622e+03
 1.145031187353288e+03 -4.338469815008624e+01  2.918975276816622e+03
 1.144988984924018e+03 -4.512754559224323e+01  2.918975276816622e+03
 1.144964793572644e+03 -4.659345458994778e+01  2.918975276816622e+03
 1.144841553720587e+03 -4.881820175158338e+01  2.918975276816622e+03
 1.144853797797382e+03 -5.017562981175670e+01  2.918975276816622e+03
 1.144904524474535e+03 -5.198581486270147e+01  2.918975276816622e+03
 1.144928872491017e+03 -5.407130851155333e+01  2.918975276816622e+03
 1.144945327162450e+03 -5.543387311534755e+01  2.918975276816622e+03
 1.144899315888963e+03 -5.750068307426406e+01  2.918975276816622e+03
 1.144873499802649e+03 -5.951533228035589e+01  2.918975276816622e+03
 1.144855038519870e+03 -6.138091442606761e+01  2.918975276816622e+03
 1.144863154922437e+03 -6.304484311462172e+01  2.918975276816622e+03
 1.144852821168973e+03 -6.414323441082986e+01  2.918975276816622e+03
 1.144851559167338e+03 -6.498631413459341e+01  2.918975276816622e+03
 1.144852779214041e+03 -6.617018212993477e+01  2.918975276816622e+03
 1.144864693230076e+03 -6.776069144563711e+01  2.918975276816622e+03
 1.144857616761069e+03 -6.943248293680807e+01  2.918975276816622e+03
 1.144872532956799e+03 -7.147128901868530e+01  2.918975276816622e+03
 1.144875133634818e+03 -7.383340708867827e+01  2.918975276816622e+03
 1.144890833749608e+03 -7.686912524306993e+01  2.918975276816622e+03
 1.144899880741957e+03 -7.971367766130618e+01  2.918975276816622e+03
 1.144910921243341e+03 -8.150060078386687e+01  2.918975276816622e+03
 1.144918927305902e+03 -8.313554232036277e+01  2.918975276816622e+03
 1.144927813732371e+03 -8.449150359453093e+01  2.918975276816622e+03
 1.144938782782898e+03 -8.505411397891253e+01  2.918975276816622e+03
 1.144948092696749e+03 -8.563571037552542e+01  2.918975276816622e+03
 1.144949045305353e+03 -8.671784046747968e+01  2.918975276816622e+03
 1.144946404921523e+03 -8.808921269343590e+01  2.918975276816622e+03
 1.144949575324199e+03 -8.956218308375686e+01  2.918975276816622e+03
 1.144941565109699e+03 -9.133830461131554e+01  2.918975276816622e+03
 1.144943246914578e+03 -9.359716230104101e+01  2.918975276816622e+03
 1.144943235029448e+03 -9.636598940886212e+01  2.918975276816622e+03
 1.144952598000138e+03 -9.869469686727848e+01  2.918975276816622e+03
 1.144950187506456e+03 -1.005596655019064e+02  2.918975276816622e+03
 1.144957812487638e+03 -1.022641221198350e+02  2.918975276816622e+03
 1.144965075654964e+03 -1.034647604247352e+02  2.918975276816622e+03
 1.144950309305337e+03 -1.041967662350632e+02  2.918975276816622e+03
 1.144928953132698e+03 -1.048969795759991e+02  2.918975276816622e+03
 1.144919296825225e+03 -1.059424337164585e+02  2.918975276816622e+03
 1.144917482973723e+03 -1.069332894408704e+02  2.918975276816622e+03
 1.144892953689913e+03 -1.087801638792058e+02  2.918975276816622e+03
 1.144880466248062e+03 -1.101176918932528e+02  2.918975276816622e+03
 1.144868366730190e+03 -1.112928338673884e+02  2.918975276816622e+03
 1.144843554876203e+03 -1.134909101828324e+02  2.918975276816622e+03
 1.144822228078962e+03 -1.158048981794478e+02  2.918975276816622e+03
 1.144804386338468e+03 -1.182347978572349e+02  2.918975276816622e+03
 1.144789573357692e+03 -1.206191364201888e+02  2.918975276816622e+03
 1.144780415170858e+03 -1.229575678369220e+02  2.918975276816622e+03
 1.144773883018253e+03 -1.252956532222675e+02  2.918975276816622e+03
 1.144767803482149e+03 -1.276012800384788e+02  2.918975276816622e+03
 1.144763590007274e+03 -1.294695816480487e+02  2.918975276816622e+03
 1.144762933483138e+03 -1.313430859403851e+02  2.918975276816622e+03
 1.144764420465012e+03 -1.336266595529951e+02  2.918975276816622e+03
 1.144772317214604e+03 -1.363717037202529e+02  2.918975276816622e+03
 1.144777497736465e+03 -1.386320375005419e+02  2.918975276816622e+03
 1.144785539227572e+03 -1.411469881124032e+02  2.918975276816622e+03
 1.144793226187445e+03 -1.439023660170497e+02  2.918975276816622e+03
 1.144799060320199e+03 -1.458119282357264e+02  2.918975276816622e+03
 1.144807018763070e+03 -1.478156992076138e+02  2.918975276816622e+03
 1.144810393519128e+03 -1.495318526695689e+02  2.918975276816622e+03
 1.144816179196803e+03 -1.514397486361278e+02  2.918975276816622e+03
 1.144820595124215e+03 -1.538066585759997e+02  2.918975276816622e+03
 1.144829268622169e+03 -1.568086792676854e+02  2.918975276816622e+03
 1.144833880115320e+03 -1.595463736020062e+02  2.918975276816622e+03
 1.144840690571349e+03 -1.613139511851096e+02  2.918975276816622e+03
 1.144844035819613e+03 -1.630497145027184e+02  2.918975276816622e+03
 1.144844772458712e+03 -1.645421403900572e+02  2.918975276816622e+03
 1.144847657638205e+03 -1.653686429803921e+02  2.918975276816622e+03
 1.144847800284361e+03 -1.663824831213228e+02  2.918975276816622e+03
 1.144848106172213e+03 -1.679195002033213e+02  2.918975276816622e+03
 1.144846208686123e+03 -1.694119565831302e+02  2.918975276816622e+03
 1.144846164296968e+03 -1.713815775605985e+02  2.918975276816622e+03
 1.144843855557295e+03 -1.738250427381977e+02  2.918975276816622e+03
 1.144842572235703e+03 -1.767885249992285e+02  2.918975276816622e+03
 1.144840060441334e+03 -1.793974015833139e+02  2.918975276816622e+03
 1.144839039510427e+03 -1.809115647454896e+02  2.918975276816622e+03
 1.144836908604803e+03 -1.836262505534783e+02  2.918975276816622e+03
 1.144833655512302e+03 -1.865287654475264e+02  2.918975276816622e+03
 1.144833545449908e+03 -1.881582014623948e+02  2.918975276816622e+03
 1.144832329380355e+03 -1.896006335569812e+02  2.918975276816622e+03
 1.144831408112587e+03 -1.914219907466768e+02  2.918975276816622e+03
 1.144831298141708e+03 -1.937689822938699e+02  2.918975276816622e+03
 1.144831796718331e+03 -1.968584132395879e+02  2.918975276816622e+03
 1.144831826095748e+03 -2.008406847790483e+02  2.918975276816622e+03
 1.144832632938986e+03 -2.048506153461246e+02  2.918975276816622e+03
 1.144834484653263e+03 -2.075961137111330e+02  2.918975276816622e+03
 1.144836005646472e+03 -2.092498776866388e+02  2.918975276816622e+03
 1.144838084634779e+03 -2.112774140877173e+02  2.918975276816622e+03
 1.144840241997763e+03 -2.136287672694045e+02  2.918975276816622e+03
 1.144843177680935e+03 -2.158785904415601e+02  2.918975276816622e+03
 1.144846811033669e+03 -2.178061332500744e+02  2.918975276816622e+03
 1.144850799406543e+03 -2.199305398687827e+02  2.918975276816622e+03
 1.144855223450184e+03 -2.224725606517947e+02  2.918975276816622e+03
 1.144858721805856e+03 -2.244388439593395e+02  2.918975276816622e+03
 1.144868599743334e+03 -2.269932182494024e+02  2.918975276816622e+03
 1.144874475119433e+03 -2.295188376855807e+02  2.918975276816622e+03
 1.144888040011298e+03 -2.315344368804577e+02  2.918975276816622e+03
 1.144896522563683e+03 -2.335298635866943e+02  2.918975276816622e+03
 1.144912977623052e+03 -2.354926308285631e+02  2.918975276816622e+03
 1.144929710193990e+03 -2.378628456988213e+02  2.918975276816622e+03
 1.144942207391513e+03 -2.401673928215541e+02  2.918975276816622e+03
 1.144961225854570e+03 -2.431877454984647e+02  2.918975276816622e+03
 1.144981721491225e+03 -2.464819442450545e+02  2.918975276816622e+03
 1.145005293369101e+03 -2.484671167174612e+02  2.918975276816622e+03
 1.145016109775694e+03 -2.500938428020005e+02  2.918975276816622e+03
 1.145033589686250e+03 -2.524261500072830e+02  2.918975276816622e+03
 1.145060256690192e+03 -2.553255713901077e+02  2.918975276816622e+03
 1.145055434554601e+03 -2.570956281051792e+02  2.918975276816622e+03
 1.145055211838752e+03 -2.589210509616636e+02  2.918975276816622e+03
 1.145077594664392e+03 -2.619919128870795e+02  2.918975276816622e+03
 1.145077307378855e+03 -2.645563688947184e+02  2.918975276816622e+03
 1.145085015564907e+03 -2.674384684662942e+02  2.918975276816622e+03
 1.145088243198127e+03 -2.695287498298505e+02  2.918975276816622e+03
 1.145093738788853e+03 -2.713842956115296e+02  2.918975276816622e+03
 1.145098873076911e+03 -2.730705135109590e+02  2.918975276816622e+03
 1.145101687737217e+03 -2.746137379939036e+02  2.918975276816622e+03
 1.145108799660127e+03 -2.772002278203905e+02  2.918975276816622e+03
 1.145111555525111e+03 -2.797551729655203e+02  2.918975276816622e+03
 1.145118443726408e+03 -2.821363687415949e+02  2.918975276816622e+03
 1.145123011046643e+03 -2.850380402539721e+02  2.918975276816622e+03
 1.145132385345963e+03 -2.876660054625975e+02  2.918975276816622e+03
 1.145133788273065e+03 -2.896890489637856e+02  2.918975276816622e+03
 1.145130924158763e+03 -2.919635812967139e+02  2.918975276816622e+03
 1.145139231613663e+03 -2.940930629180561e+02  2.918975276816622e+03
 1.145150935578971e+03 -2.969041843295128e+02  2.918975276816622e+03
 1.145152988749413e+03 -2.988787056665215e+02  2.918975276816622e+03
 1.145144208147238e+03 -3.008280995634337e+02  2.918975276816622e+03
 1.145151542531866e+03 -3.031678507008083e+02  2.918975276816622e+03
 1.145150192558762e+03 -3.048215044956464e+02  2.918975276816622e+03
 1.145125917395542e+03 -3.070990953426605e+02  2.918975276816622e+03
 1.145110683015816e+03 -3.091608073325586e+02  2.918975276816622e+03
 1.145081943983483e+03 -3.112189118903365e+02  2.918975276816622e+03
 1.145063756081284e+03 -3.130201728262446e+02  2.918975276816622e+03
 1.145047682911313e+03 -3.143121121519822e+02  2.918975276816622e+03
 1.145053274777167e+03 -3.164582099436234e+02  2.918975276816622e+03
 1.145029788750242e+03 -3.185290123286686e+02  2.918975276816622e+03
 1.145009770888499e+03 -3.203231447362675e+02  2.918975276816622e+03
 1.144973935771085e+03 -3.224964793843250e+02  2.918975276816622e+03
 1.144937387439307e+03 -3.247841116761224e+02  2.918975276816622e+03
 1.144945914502617e+03 -3.263167246603024e+02  2.918975276816622e+03
 1.144970503628963e+03 -3.277597647274347e+02  2.918975276816622e+03
 1.144945758952299e+03 -3.303533707299500e+02  2.918975276816622e+03
 1.144938638159444e+03 -3.330731571526597e+02  2.918975276816622e+03
 1.144932046039891e+03 -3.360357556602377e+02  2.918975276816622e+03
 1.144921832201213e+03 -3.379281679463164e+02  2.918975276816622e+03
 1.144883147870743e+03 -3.394240172827235e+02  2.918975276816622e+03
 1.144875668448688e+03 -3.418679427454932e+02  2.918975276816622e+03
 1.144867874457649e+03 -3.440877119821038e+02  2.918975276816622e+03
 1.144852687548263e+03 -3.468864498110528e+02  2.918975276816622e+03
 1.144848525406718e+03 -3.500411431870290e+02  2.918975276816622e+03
 1.144829879275938e+03 -3.523090699733539e+02  2.918975276816622e+03
 1.144817281423334e+03 -3.551944473582679e+02  2.918975276816622e+03
 1.144780662465512e+03 -3.584039011861714e+02  2.918975276816622e+03
 1.144813721805765e+03 -3.598276021365308e+02  2.918975276816622e+03
 1.144831428786257e+03 -3.608829204845802e+02  2.918975276816622e+03
 1.144857918099357e+03 -3.630771472882817e+02  2.918975276816622e+03
 1.144847110561103e+03 -3.656250962394936e+02  2.918975276816622e+03
 1.144850937693792e+03 -3.677424562677059e+02  2.918975276816622e+03
 1.144860979142499e+03 -3.699880713469523e+02  2.918975276816622e+03
 1.144864577071131e+03 -3.715466909984466e+02  2.918975276816622e+03
 1.144877768351179e+03 -3.734853378009428e+02  2.918975276816622e+03
 1.144902497359739e+03 -3.765673001166390e+02  2.918975276816622e+03
 1.144925445685473e+03 -3.791244498361846e+02  2.918975276816622e+03
 1.144942692116433e+03 -3.816393379991649e+02  2.918975276816622e+03
 1.144957550433078e+03 -3.831902007806461e+02  2.918975276816622e+03
 1.144976198864431e+03 -3.849347568165510e+02  2.918975276816622e+03
1.145021639539233e+03 3.830891146684842e+02 2.918975276816622e+03
1.144995240356145e+03 3.856110519051500e+02 2.918975276816622e+03
1.145048940467686e+03 3.800758346860423e+02 2.918975276816622e+03
1.145064723076327e+03 3.783392922817988e+02 2.918975276816622e+03
1.145076190862703e+03 3.771341212844983e+02 2.918975276816622e+03
1.145099383977320e+03 3.750427903449173e+02 2.918975276816622e+03
1.145115417072708e+03 3.732659437117725e+02 2.918975276816622e+03
1.145131392695253e+03 3.720355367802442e+02 2.918975276816622e+03
1.145160029843095e+03 3.692621433048156e+02 2.918975276816622e+03
1.145197175202098e+03 3.663388199647916e+02 2.918975276816622e+03
1.145222396963263e+03 3.640002542458857e+02 2.918975276816622e+03
1.145259718817776e+03 3.612893450145285e+02 2.918975276816622e+03
1.145288708147821e+03 3.590670641714133e+02 2.918975276816622e+03
1.145308753598509e+03 3.576541554252558e+02 2.918975276816622e+03
1.145327480484375e+03 3.562852734443208e+02 2.918975276816622e+03
1.145357280120174e+03 3.545910989795926e+02 2.918975276816622e+03
1.145388427276423e+03 3.527221970124235e+02 2.918975276816622e+03
1.145422753734391e+03 3.510599552617200e+02 2.918975276816622e+03
1.145454770105257e+03 3.492504936921400e+02 2.918975276816622e+03
1.145485144520364e+03 3.474351576438866e+02 2.918975276816622e+03
1.145518080416854e+03 3.457060692124225e+02 2.918975276816622e+03
1.145557359925261e+03 3.440854010494392e+02 2.918975276816622e+03
1.145589682626641e+03 3.425482269118355e+02 2.918975276816622e+03
1.145591455573862e+03 3.407593169930586e+02 2.918975276816622e+03
1.145630738377066e+03 3.390834554810314e+02 2.918975276816622e+03
1.145650697660604e+03 3.364112240110216e+02 2.918975276816622e+03
1.145700565611140e+03 3.330910839271921e+02 2.918975276816622e+03
1.145730642886789e+03 3.301920049905311e+02 2.918975276816622e+03
1.145789632781927e+03 3.288000588874366e+02 2.918975276816622e+03
1.145781744946323e+03 3.274212512053155e+02 2.918975276816622e+03
1.145752515333482e+03 3.247879976567926e+02 2.918975276816622e+03
1.145761324799786e+03 3.224724721959786e+02 2.918975276816622e+03
1.145768875250182e+03 3.203853069865702e+02 2.918975276816622e+03
1.145783470054886e+03 3.189847576363774e+02 2.918975276816622e+03
1.145768361011240e+03 3.173934301699544e+02 2.918975276816622e+03
1.145758800474125e+03 3.148290617156553e+02 2.918975276816622e+03
1.145770040873263e+03 3.127110477517181e+02 2.918975276816622e+03
1.145789288368489e+03 3.118012835105629e+02 2.918975276816622e+03
1.145784933564570e+03 3.106780371587893e+02 2.918975276816622e+03
1.145765070917836e+03 3.087494404046632e+02 2.918975276816622e+03
1.145723450279534e+03 3.071730071875783e+02 2.918975276816622e+03
1.145700961179017e+03 3.054148585433815e+02 2.918975276816622e+03
1.145653480662416e+03 3.032138890872331e+02 2.918975276816622e+03
1.145642308086997e+03 3.019777517003027e+02 2.918975276816622e+03
1.145627090870895e+03 3.003748340675270e+02 2.918975276816622e+03
1.145588571062097e+03 2.982054724181805e+02 2.918975276816622e+03
1.145561182739772e+03 2.963956344211620e+02 2.918975276816622e+03
1.145526013667343e+03 2.945217993938380e+02 2.918975276816622e+03
1.145501738911184e+03 2.928670511925504e+02 2.918975276816622e+03
1.145485829862302e+03 2.907587314780814e+02 2.918975276816622e+03
1.145465529957014e+03 2.883194010402537e+02 2.918975276816622e+03
1.145434799274329e+03 2.860255764131094e+02 2.918975276816622e+03
1.145361633933724e+03 2.838493868155778e+02 2.918975276816622e+03
1.145330314660841e+03 2.819723380064377e+02 2.918975276816622e+03
1.145314683023437e+03 2.792876322502823e+02 2.918975276816622e+03
1.145258625875588e+03 2.763374805463790e+02 2.918975276816622e+03
1.145213036254717e+03 2.732404958644813e+02 2.918975276816622e+03
1.145163560934433e+03 2.700327600406688e+02 2.918975276816622e+03
1.145117469190079e+03 2.677303286216652e+02 2.918975276816622e+03
1.145102596599801e+03 2.659031906074006e+02 2.918975276816622e+03
1.145093713933416e+03 2.638079739402485e+02 2.918975276816622e+03
1.145051777063504e+03 2.603857965989509e+02 2.918975276816622e+03
1.145027166969357e+03 2.581674677040520e+02 2.918975276816622e+03
1.145015972979049e+03 2.567954798520535e+02 2.918975276816622e+03
1.144993043343470e+03 2.544823959800384e+02 2.918975276816622e+03
1.144933172044424e+03 2.523070322244482e+02 2.918975276816622e+03
1.144943975354558e+03 2.508072786175744e+02 2.918975276816622e+03
1.144937475246548e+03 2.494538609211707e+02 2.918975276816622e+03
1.144993105544796e+03 2.478273470748059e+02 2.918975276816622e+03
1.145004091821239e+03 2.464198412218162e+02 2.918975276816622e+03
1.144982546990294e+03 2.451501962827820e+02 2.918975276816622e+03
1.145003239798934e+03 2.436834253531598e+02 2.918975276816622e+03
1.144953462040711e+03 2.416123810651044e+02 2.918975276816622e+03
1.144990139087502e+03 2.391715003016440e+02 2.918975276816622e+03
1.145026816134293e+03 2.367306195381837e+02 2.918975276816622e+03
1.145035589792218e+03 2.347376979306102e+02 2.918975276816622e+03
1.145028729682034e+03 2.326510347260572e+02 2.918975276816622e+03
1.145007233452104e+03 2.299479207531256e+02 2.918975276816622e+03
1.144986992251376e+03 2.279911974361429e+02 2.918975276816622e+03
1.144981114083593e+03 2.268606197579296e+02 2.918975276816622e+03
1.144988925101913e+03 2.250414414143047e+02 2.918975276816622e+03
1.144994834428175e+03 2.228153197314618e+02 2.918975276816622e+03
1.144977667546405e+03 2.210392726757155e+02 2.918975276816622e+03
1.144980320104909e+03 2.191267088064682e+02 2.918975276816622e+03
1.144996479696799e+03 2.169142157901255e+02 2.918975276816622e+03
1.145024958927201e+03 2.142616649601559e+02 2.918975276816622e+03
1.145043079934151e+03 2.119472732136064e+02 2.918975276816622e+03
1.145066881677209e+03 2.099240718430511e+02 2.918975276816622e+03
1.145086958815104e+03 2.081519504412200e+02 2.918975276816622e+03
1.145102077839636e+03 2.069505905058630e+02 2.918975276816622e+03
1.145117471009903e+03 2.061646885136702e+02 2.918975276816622e+03
1.145105503143026e+03 2.053457383923591e+02 2.918975276816622e+03
1.145085348399841e+03 2.043090338782938e+02 2.918975276816622e+03
1.145089636530286e+03 2.032319137027256e+02 2.918975276816622e+03
1.145086357078296e+03 2.017799294644355e+02 2.918975276816622e+03
1.145044936542115e+03 2.006744821453431e+02 2.918975276816622e+03
1.145018658495070e+03 1.990466899985039e+02 2.918975276816622e+03
1.145005976781987e+03 1.966136644063327e+02 2.918975276816622e+03
1.144983771748880e+03 1.938168342690838e+02 2.918975276816622e+03
1.144951508203031e+03 1.911606468001796e+02 2.918975276816622e+03
1.144918709464461e+03 1.890089065446979e+02 2.918975276816622e+03
1.144847517574415e+03 1.871290395953868e+02 2.918975276816622e+03
1.144813477048245e+03 1.849623969263231e+02 2.918975276816622e+03
1.144840828018644e+03 1.825613906618929e+02 2.918975276816622e+03
1.144783413468826e+03 1.809633265610133e+02 2.918975276816622e+03
1.144701025623079e+03 1.792192056485612e+02 2.918975276816622e+03
1.144664276982833e+03 1.768503711915433e+02 2.918975276816622e+03
1.144625737183149e+03 1.741599035929793e+02 2.918975276816622e+03
1.144505799990550e+03 1.717598167662130e+02 2.918975276816622e+03
1.144396243742197e+03 1.698389798945661e+02 2.918975276816622e+03
1.144322545882182e+03 1.682856427768634e+02 2.918975276816622e+03
1.144415225799614e+03 1.670302754917548e+02 2.918975276816622e+03
1.144637646628664e+03 1.647233119182332e+02 2.918975276816622e+03
1.144769301802504e+03 1.615670459358728e+02 2.918975276816622e+03
1.144900956976345e+03 1.584107799535125e+02 2.918975276816622e+03
1.145006288633808e+03 1.552981590080493e+02 2.918975276816622e+03
1.145082513056233e+03 1.524114725173845e+02 2.918975276816622e+03
1.145210837333560e+03 1.492845230577475e+02 2.918975276816622e+03
1.145386322721782e+03 1.467889641658032e+02 2.918975276816622e+03
1.145519256390779e+03 1.455684862732500e+02 2.918975276816622e+03
1.145572514645502e+03 1.450318856581081e+02 2.918975276816622e+03
1.145498732586975e+03 1.444368255369968e+02 2.918975276816622e+03
1.145365086259735e+03 1.428566994881872e+02 2.918975276816622e+03
1.145266522490692e+03 1.411198916092594e+02 2.918975276816622e+03
1.145184236067596e+03 1.393053834364059e+02 2.918975276816622e+03
1.145105474319077e+03 1.371059896106027e+02 2.918975276816622e+03
1.145054768040976e+03 1.344532998553738e+02 2.918975276816622e+03
1.145016875260789e+03 1.320849682960473e+02 2.918975276816622e+03
1.145005471196936e+03 1.300884886468625e+02 2.918975276816622e+03
1.145014826804318e+03 1.283493893806737e+02 2.918975276816622e+03
1.145035139115235e+03 1.271257919571214e+02 2.918975276816622e+03
1.145055876963811e+03 1.263760256045720e+02 2.918975276816622e+03
1.145081839583013e+03 1.256452461790875e+02 2.918975276816622e+03
1.145118086467283e+03 1.249861804306629e+02 2.918975276816622e+03
1.145057364242588e+03 1.243141044057311e+02 2.918975276816622e+03
1.144964520510474e+03 1.228007628320403e+02 2.918975276816622e+03
1.144901137410378e+03 1.212077985175707e+02 2.918975276816622e+03
1.144847482561709e+03 1.193242102979469e+02 2.918975276816622e+03
1.144812500244959e+03 1.170356042182395e+02 2.918975276816622e+03
1.144757402730174e+03 1.141299017420401e+02 2.918975276816622e+03
1.144744291015898e+03 1.115208118424054e+02 2.918975276816622e+03
1.144745631909434e+03 1.099131256039291e+02 2.918975276816622e+03
1.144760786518052e+03 1.080744949785650e+02 2.918975276816622e+03
1.144807219978213e+03 1.061538532267601e+02 2.918975276816622e+03
1.144870628811337e+03 1.036742545115179e+02 2.918975276816622e+03
1.144940240462596e+03 1.013313563945217e+02 2.918975276816622e+03
1.144999850984643e+03 9.937075040474929e+01 2.918975276816622e+03
1.145090416186574e+03 9.686015103196874e+01 2.918975276816622e+03
1.145172832617771e+03 9.467970221178024e+01 2.918975276816622e+03
1.145255906912791e+03 9.247173281711063e+01 2.918975276816622e+03
1.145347787842367e+03 8.990609229536807e+01 2.918975276816622e+03
1.145439668771943e+03 8.734045177362552e+01 2.918975276816622e+03
1.145531549701520e+03 8.477481125188295e+01 2.918975276816622e+03
1.145634621233945e+03 8.190892130247481e+01 2.918975276816622e+03
1.145716051701805e+03 7.923494420840929e+01 2.918975276816622e+03
1.145764650502251e+03 7.705312939735197e+01 2.918975276816622e+03
1.145858714728091e+03 7.457681826985645e+01 2.918975276816622e+03
1.145998244379324e+03 7.180601082592274e+01 2.918975276816622e+03
1.146061448696430e+03 6.894009098955263e+01 2.918975276816622e+03
1.146048327679405e+03 6.597905876074613e+01 2.918975276816622e+03
1.146121854976647e+03 6.361030132280790e+01 2.918975276816622e+03
1.146224044147304e+03 6.145266709956165e+01 2.918975276816622e+03
1.146268246877108e+03 5.891388130013915e+01 2.918975276816622e+03
1.146289747266218e+03 5.739077281909886e+01 2.918975276816622e+03
1.146279155008936e+03 5.608663612678275e+01 2.918975276816622e+03
1.146282054614282e+03 5.408309974184510e+01 2.918975276816622e+03
1.146269276708336e+03 5.188597141400129e+01 2.918975276816622e+03
1.146280857381955e+03 5.001461777163400e+01 2.918975276816622e+03
1.146277252740506e+03 4.858308610322748e+01 2.918975276816622e+03
1.146262193988511e+03 4.739843272396352e+01 2.918975276816622e+03
1.146257209747848e+03 4.559272013944015e+01 2.918975276816622e+03
1.146228593828358e+03 4.331273657094582e+01 2.918975276816622e+03
1.146228763712939e+03 4.222334331370526e+01 2.918975276816622e+03
1.146224519830625e+03 4.115379141848197e+01 2.918975276816622e+03
1.146217798871979e+03 3.928228021636959e+01 2.918975276816622e+03
1.146211231895113e+03 3.717130255312460e+01 2.918975276816622e+03
1.146201599381896e+03 3.497625988934520e+01 2.918975276816622e+03
1.146191241189348e+03 3.267817076872053e+01 2.918975276816622e+03
1.146185597614515e+03 3.032336109019414e+01 2.918975276816622e+03
1.146173052129734e+03 2.819535019905025e+01 2.918975276816622e+03
1.146161373940769e+03 2.543349679397151e+01 2.918975276816622e+03
1.146131339516868e+03 2.218348449890417e+01 2.918975276816622e+03
1.146099337376045e+03 1.911248342948810e+01 2.918975276816622e+03
1.146082627092886e+03 1.633856724455039e+01 2.918975276816622e+03
1.146057050943614e+03 1.405520712976852e+01 2.918975276816622e+03
1.146030864964747e+03 1.188895628163172e+01 2.918975276816622e+03
1.146009231681371e+03 1.036456310129231e+01 2.918975276816622e+03
1.145982978297265e+03 8.823766992994051e+00 2.918975276816622e+03
1.145948079899088e+03 6.125592009467836e+00 2.918975276816622e+03
1.145910907947805e+03 3.646917679975358e+00 2.918975276816622e+03
-1.157353450470777e+03 -6.281246750822924e-01 -2.918975276816622e+03
-1.157328092088539e+03 -4.159923831324024e+00 -2.918975276816622e+03
-1.157381863766852e+03  2.746962312309939e+00 -2.918975276816622e+03
-1.157413331976764e+03  5.965337130852668e+00 -2.918975276816622e+03
-1.157314282821437e+03 -7.069626083126584e+00 -2.918975276816622e+03
-1.157312022669470e+03 -9.357231430489975e+00 -2.918975276816622e+03
-1.157308646709596e+03 -1.056268982096538e+01 -2.918975276816622e+03
-1.157291286862499e+03 -1.221590034633953e+01 -2.918975276816622e+03
-1.157267019916632e+03 -1.433489539475063e+01 -2.918975276816622e+03
-1.157248570614343e+03 -1.583701549839798e+01 -2.918975276816622e+03
-1.157226689325685e+03 -1.795347127666352e+01 -2.918975276816622e+03
-1.157201519387627e+03 -2.023702310556119e+01 -2.918975276816622e+03
-1.157185042652435e+03 -2.168301803911490e+01 -2.918975276816622e+03
-1.157161240964314e+03 -2.387833710546472e+01 -2.918975276816622e+03
-1.157123253818171e+03 -2.710994216770356e+01 -2.918975276816622e+03
-1.157090327507607e+03 -2.955788246595152e+01 -2.918975276816622e+03
-1.157060629334847e+03 -3.177275303245967e+01 -2.918975276816622e+03
-1.157042005969191e+03 -3.366263158832985e+01 -2.918975276816622e+03
-1.157011498404684e+03 -3.521878339661193e+01 -2.918975276816622e+03
-1.156997823515622e+03 -3.658007183035208e+01 -2.918975276816622e+03
-1.156960745269454e+03 -3.884033214789390e+01 -2.918975276816622e+03
-1.156937628700314e+03 -4.091526564865754e+01 -2.918975276816622e+03
-1.156905531337115e+03 -4.245287954329353e+01 -2.918975276816622e+03
-1.156883176949678e+03 -4.441883778717542e+01 -2.918975276816622e+03
-1.156885870918915e+03 -4.544823223915576e+01 -2.918975276816622e+03
-1.156896626020421e+03 -4.652300223298868e+01 -2.918975276816622e+03
-1.156866845249731e+03 -4.857220608330487e+01 -2.918975276816622e+03
-1.156840614225868e+03 -5.007904663343779e+01 -2.918975276816622e+03
-1.156826394161345e+03 -5.124179539872693e+01 -2.918975276816622e+03
-1.156804264390833e+03 -5.358718998985020e+01 -2.918975276816622e+03
-1.156773381363284e+03 -5.564771105631318e+01 -2.918975276816622e+03
-1.156765048975731e+03 -5.741140839758303e+01 -2.918975276816622e+03
-1.156773463656672e+03 -5.959562125517363e+01 -2.918975276816622e+03
-1.156752870441096e+03 -6.099059243836159e+01 -2.918975276816622e+03
-1.156740657207813e+03 -6.248852131774298e+01 -2.918975276816622e+03
-1.156719411996270e+03 -6.424943412497009e+01 -2.918975276816622e+03
-1.156726473217861e+03 -6.535745232376517e+01 -2.918975276816622e+03
-1.156717531472858e+03 -6.660542990274973e+01 -2.918975276816622e+03
-1.156702453473505e+03 -6.868173690054088e+01 -2.918975276816622e+03
-1.156682096989558e+03 -7.018218972550092e+01 -2.918975276816622e+03
-1.156673193921203e+03 -7.121061629202089e+01 -2.918975276816622e+03
-1.156655293994870e+03 -7.264786896298421e+01 -2.918975276816622e+03
-1.156642159924103e+03 -7.430034889006838e+01 -2.918975276816622e+03
-1.156630538937733e+03 -7.577462108188918e+01 -2.918975276816622e+03
-1.156625149459323e+03 -7.657233469724996e+01 -2.918975276816622e+03
-1.156616507658767e+03 -7.775964331731872e+01 -2.918975276816622e+03
-1.156607465368912e+03 -7.952992099767138e+01 -2.918975276816622e+03
-1.156595679082402e+03 -8.085135674265653e+01 -2.918975276816622e+03
-1.156581278799485e+03 -8.236436305081499e+01 -2.918975276816622e+03
-1.156582426091630e+03 -8.413534333220508e+01 -2.918975276816622e+03
-1.156596108037055e+03 -8.538913875069595e+01 -2.918975276816622e+03
-1.156593989524553e+03 -8.666639644704736e+01 -2.918975276816622e+03
-1.156558518097453e+03 -8.857599174291498e+01 -2.918975276816622e+03
-1.156558213506597e+03 -9.009064405070252e+01 -2.918975276816622e+03
-1.156556435997395e+03 -9.119688517827794e+01 -2.918975276816622e+03
-1.156535273522820e+03 -9.361480175771922e+01 -2.918975276816622e+03
-1.156519518478299e+03 -9.581994937989600e+01 -2.918975276816622e+03
-1.156514144274282e+03 -9.767463224480133e+01 -2.918975276816622e+03
-1.156504621658891e+03 -1.000712606160327e+02 -2.918975276816622e+03
-1.156484494840603e+03 -1.012866875448637e+02 -2.918975276816622e+03
-1.156467404215822e+03 -1.024821787642054e+02 -2.918975276816622e+03
-1.156458508148649e+03 -1.044222789323222e+02 -2.918975276816622e+03
-1.156455660116610e+03 -1.059162547382762e+02 -2.918975276816622e+03
-1.156447925709591e+03 -1.068557082660316e+02 -2.918975276816622e+03
-1.156442788293633e+03 -1.083378488680874e+02 -2.918975276816622e+03
-1.156436290685702e+03 -1.101833612682349e+02 -2.918975276816622e+03
-1.156434007207625e+03 -1.118415358473008e+02 -2.918975276816622e+03
-1.156419451047391e+03 -1.131628535010182e+02 -2.918975276816622e+03
-1.156415996735118e+03 -1.146692561350909e+02 -2.918975276816622e+03
-1.156418699354921e+03 -1.170585519418358e+02 -2.918975276816622e+03
-1.156413264312038e+03 -1.193322193040448e+02 -2.918975276816622e+03
-1.156406420404764e+03 -1.208117499268571e+02 -2.918975276816622e+03
-1.156401042302921e+03 -1.223198944941823e+02 -2.918975276816622e+03
-1.156407817308898e+03 -1.242084149180960e+02 -2.918975276816622e+03
-1.156393594309674e+03 -1.254565610357917e+02 -2.918975276816622e+03
-1.156402832750629e+03 -1.266052203707919e+02 -2.918975276816622e+03
-1.156396936251160e+03 -1.285631090064915e+02 -2.918975276816622e+03
-1.156389801834274e+03 -1.307136037138744e+02 -2.918975276816622e+03
-1.156369927951832e+03 -1.319993358330165e+02 -2.918975276816622e+03
-1.156384459464799e+03 -1.328410042650435e+02 -2.918975276816622e+03
-1.156410364338900e+03 -1.342134436757755e+02 -2.918975276816622e+03
-1.156428495591446e+03 -1.356637373956775e+02 -2.918975276816622e+03
-1.156451692490373e+03 -1.373379642294400e+02 -2.918975276816622e+03
-1.156479420067067e+03 -1.394409976958922e+02 -2.918975276816622e+03
-1.156502509210099e+03 -1.408479789493646e+02 -2.918975276816622e+03
-1.156530606652630e+03 -1.424037289340125e+02 -2.918975276816622e+03
-1.156545233253740e+03 -1.442212095061992e+02 -2.918975276816622e+03
-1.156554337464588e+03 -1.453872577420752e+02 -2.918975276816622e+03
-1.156558999247690e+03 -1.467450160915971e+02 -2.918975276816622e+03
-1.156599129109290e+03 -1.496440944269211e+02 -2.918975276816622e+03
-1.156632099476448e+03 -1.533116970629845e+02 -2.918975276816622e+03
-1.156646260954508e+03 -1.556073969822483e+02 -2.918975276816622e+03
-1.156646581211507e+03 -1.574068202338045e+02 -2.918975276816622e+03
-1.156655091912442e+03 -1.595182615098920e+02 -2.918975276816622e+03
-1.156686281105887e+03 -1.607438695294861e+02 -2.918975276816622e+03
-1.156705948083193e+03 -1.621869350564656e+02 -2.918975276816622e+03
-1.156722440027000e+03 -1.639012099975678e+02 -2.918975276816622e+03
-1.156726828890453e+03 -1.652809407784741e+02 -2.918975276816622e+03
-1.156748538310074e+03 -1.667562103379420e+02 -2.918975276816622e+03
-1.156753412801107e+03 -1.687697178156602e+02 -2.918975276816622e+03
-1.156773184265040e+03 -1.711524994340762e+02 -2.918975276816622e+03
-1.156768728553545e+03 -1.726517057662041e+02 -2.918975276816622e+03
-1.156795517216688e+03 -1.750856861394344e+02 -2.918975276816622e+03
-1.156806670351590e+03 -1.783781267727201e+02 -2.918975276816622e+03
-1.156825658634650e+03 -1.810009497565252e+02 -2.918975276816622e+03
-1.156850540138981e+03 -1.834027844499419e+02 -2.918975276816622e+03
-1.156857464607348e+03 -1.854548792887093e+02 -2.918975276816622e+03
-1.156856594514551e+03 -1.866618188474471e+02 -2.918975276816622e+03
-1.156871589461708e+03 -1.881644242773546e+02 -2.918975276816622e+03
-1.156866408498061e+03 -1.904509108274890e+02 -2.918975276816622e+03
-1.156875482072494e+03 -1.931957513785670e+02 -2.918975276816622e+03
-1.156889391526051e+03 -1.961244828565051e+02 -2.918975276816622e+03
-1.156897828791456e+03 -1.979318920789384e+02 -2.918975276816622e+03
-1.156903076434213e+03 -1.994240171748700e+02 -2.918975276816622e+03
-1.156912168971540e+03 -2.006160849575435e+02 -2.918975276816622e+03
-1.157038715616713e+03 -2.020352387639742e+02 -2.918975276816622e+03
-1.157082918581709e+03 -2.038109737121836e+02 -2.918975276816622e+03
-1.156903559956162e+03 -2.049721695580440e+02 -2.918975276816622e+03
-1.156794956250424e+03 -2.064142430114296e+02 -2.918975276816622e+03
-1.156752505754443e+03 -2.084241454264540e+02 -2.918975276816622e+03
-1.156935166270035e+03 -2.106062299240817e+02 -2.918975276816622e+03
-1.156866533280507e+03 -2.118455668477069e+02 -2.918975276816622e+03
-1.156650982474655e+03 -2.136015444845910e+02 -2.918975276816622e+03
-1.156662066911440e+03 -2.155638082685817e+02 -2.918975276816622e+03
-1.156636767484402e+03 -2.170907060056061e+02 -2.918975276816622e+03
-1.156611601066522e+03 -2.195448767055302e+02 -2.918975276816622e+03
-1.156568570478022e+03 -2.208397250518688e+02 -2.918975276816622e+03
-1.156621202078335e+03 -2.220484096865218e+02 -2.918975276816622e+03
-1.156614082145052e+03 -2.242491394849061e+02 -2.918975276816622e+03
-1.156656982786761e+03 -2.254954988428724e+02 -2.918975276816622e+03
-1.156587597456585e+03 -2.264028605977558e+02 -2.918975276816622e+03
-1.156434469566448e+03 -2.284000536147082e+02 -2.918975276816622e+03
-1.156475564872741e+03 -2.304956965155245e+02 -2.918975276816622e+03
-1.156329723284323e+03 -2.316026306327998e+02 -2.918975276816622e+03
-1.156171224360322e+03 -2.334425141454443e+02 -2.918975276816622e+03
-1.156255052651976e+03 -2.364632179956440e+02 -2.918975276816622e+03
-1.156338880943631e+03 -2.394839218458437e+02 -2.918975276816622e+03
-1.156368155622289e+03 -2.425184651846488e+02 -2.918975276816622e+03
-1.156434041540087e+03 -2.453843664788690e+02 -2.918975276816622e+03
-1.156459179752055e+03 -2.478853803804164e+02 -2.918975276816622e+03
-1.156469224269042e+03 -2.495423416829058e+02 -2.918975276816622e+03
-1.156454805796813e+03 -2.508962177686627e+02 -2.918975276816622e+03
-1.156463572828003e+03 -2.531204676445691e+02 -2.918975276816622e+03
-1.156414676211653e+03 -2.555247880914788e+02 -2.918975276816622e+03
-1.156381212995543e+03 -2.584551496965338e+02 -2.918975276816622e+03
-1.156344541019885e+03 -2.606774076348672e+02 -2.918975276816622e+03
-1.156444476866677e+03 -2.619433219171902e+02 -2.918975276816622e+03
-1.156497529913770e+03 -2.638640846073986e+02 -2.918975276816622e+03
-1.156545027304867e+03 -2.657539925592610e+02 -2.918975276816622e+03
-1.156572276060550e+03 -2.673698078214007e+02 -2.918975276816622e+03
-1.156587699703908e+03 -2.686532828190299e+02 -2.918975276816622e+03
-1.156611537785173e+03 -2.697624731926066e+02 -2.918975276816622e+03
-1.156629600108199e+03 -2.710479855958354e+02 -2.918975276816622e+03
-1.156634137559540e+03 -2.725857937100004e+02 -2.918975276816622e+03
-1.156614690666765e+03 -2.743364290024986e+02 -2.918975276816622e+03
-1.156610714921248e+03 -2.758039873668984e+02 -2.918975276816622e+03
-1.156612621187384e+03 -2.768826060794131e+02 -2.918975276816622e+03
-1.156647230076585e+03 -2.785453487793389e+02 -2.918975276816622e+03
-1.156679941199436e+03 -2.807949720351962e+02 -2.918975276816622e+03
-1.156767257691909e+03 -2.840580995285584e+02 -2.918975276816622e+03
-1.156705443245330e+03 -2.867659059933937e+02 -2.918975276816622e+03
-1.156727936364832e+03 -2.883286206486898e+02 -2.918975276816622e+03
-1.156775244692562e+03 -2.912892095518651e+02 -2.918975276816622e+03
-1.156798716233139e+03 -2.940976052784744e+02 -2.918975276816622e+03
-1.156751762698452e+03 -2.964429047357366e+02 -2.918975276816622e+03
-1.156753284667720e+03 -2.995250660015794e+02 -2.918975276816622e+03
-1.156759284735701e+03 -3.014450600880121e+02 -2.918975276816622e+03
-1.156771699914990e+03 -3.028843305411858e+02 -2.918975276816622e+03
-1.156760309076417e+03 -3.046978595393741e+02 -2.918975276816622e+03
-1.156742069911361e+03 -3.066603186603253e+02 -2.918975276816622e+03
-1.156731653565734e+03 -3.087110006066180e+02 -2.918975276816622e+03
-1.156715192422121e+03 -3.109651803793535e+02 -2.918975276816622e+03
-1.156703758365065e+03 -3.137907502770904e+02 -2.918975276816622e+03
-1.156677344807784e+03 -3.162496903750704e+02 -2.918975276816622e+03
-1.156763364514520e+03 -3.181437254128187e+02 -2.918975276816622e+03
-1.156751537210834e+03 -3.196794454478876e+02 -2.918975276816622e+03
-1.156642523972825e+03 -3.211365007637678e+02 -2.918975276816622e+03
-1.156636635524081e+03 -3.227775453768199e+02 -2.918975276816622e+03
-1.156647855687936e+03 -3.240129234350738e+02 -2.918975276816622e+03
-1.156627427414293e+03 -3.252777113645597e+02 -2.918975276816622e+03
-1.156623886041351e+03 -3.265647570680629e+02 -2.918975276816622e+03
-1.156606093484468e+03 -3.278988670265053e+02 -2.918975276816622e+03
-1.156596618080792e+03 -3.293733730176804e+02 -2.918975276816622e+03
-1.156585500830347e+03 -3.305748624112786e+02 -2.918975276816622e+03
-1.156563932263884e+03 -3.329438019198614e+02 -2.918975276816622e+03
-1.156562724912159e+03 -3.349392507402794e+02 -2.918975276816622e+03
-1.156563823100572e+03 -3.358874970395541e+02 -2.918975276816622e+03
-1.156554596311797e+03 -3.375043840538773e+02 -2.918975276816622e+03
-1.156529755535659e+03 -3.399178070934903e+02 -2.918975276816622e+03
-1.156520724708377e+03 -3.420687830677863e+02 -2.918975276816622e+03
-1.156499374139165e+03 -3.434436810318505e+02 -2.918975276816622e+03
-1.156494182380007e+03 -3.452203804487641e+02 -2.918975276816622e+03
-1.156452271936694e+03 -3.474399632219925e+02 -2.918975276816622e+03
-1.156432738935956e+03 -3.485718552877006e+02 -2.918975276816622e+03
-1.156464284663117e+03 -3.497751137135352e+02 -2.918975276816622e+03
-1.156524531675604e+03 -3.521374292070169e+02 -2.918975276816622e+03
-1.156582061708917e+03 -3.554425909406486e+02 -2.918975276816622e+03
-1.156611310434906e+03 -3.581357743525662e+02 -2.918975276816622e+03
-1.156640337840775e+03 -3.604923530351566e+02 -2.918975276816622e+03
-1.156673247265524e+03 -3.625947476474600e+02 -2.918975276816622e+03
-1.156693482443879e+03 -3.638225616877440e+02 -2.918975276816622e+03
-1.156674929822539e+03 -3.659748536143923e+02 -2.918975276816622e+03
-1.156698844366487e+03 -3.691450416703721e+02 -2.918975276816622e+03
-1.156770304607759e+03 -3.718106102603612e+02 -2.918975276816622e+03
-1.156788421498359e+03 -3.733659241171122e+02 -2.918975276816622e+03
-1.156772832050595e+03 -3.755039040343187e+02 -2.918975276816622e+03
-1.156782314785435e+03 -3.772365492525055e+02 -2.918975276816622e+03
-1.156807211519862e+03 -3.787719797346068e+02 -2.918975276816622e+03
-1.156810115957757e+03 -3.801080893248370e+02 -2.918975276816622e+03
-1.156804408364883e+03 -3.814183183504019e+02 -2.918975276816622e+03
-1.156811729112166e+03 -3.843247527791266e+02 -2.918975276816622e+03
-1.156832052736509e+03 -3.862613284127495e+02 -2.918975276816622e+03
-1.156843129838683e+03  3.828327303633911e+02 -2.918975276816622e+03
-1.156839726835976e+03  3.848640732301148e+02 -2.918975276816622e+03
-1.156840477434315e+03  3.805039055149264e+02 -2.918975276816622e+03
-1.156844716572586e+03  3.781336404756485e+02 -2.918975276816622e+03
-1.156850038935591e+03  3.770591291979886e+02 -2.918975276816622e+03
-1.156849114359916e+03  3.750746070528105e+02 -2.918975276816622e+03
-1.156845749689442e+03  3.715304890258066e+02 -2.918975276816622e+03
-1.156844627935412e+03  3.681373112307757e+02 -2.918975276816622e+03
-1.156843022028592e+03  3.655172456893126e+02 -2.918975276816622e+03
-1.156833741622442e+03  3.621817961297124e+02 -2.918975276816622e+03
-1.156822679860678e+03  3.582696382323979e+02 -2.918975276816622e+03
-1.156816291422893e+03  3.558422771098198e+02 -2.918975276816622e+03
-1.156809456542111e+03  3.542791914531704e+02 -2.918975276816622e+03
-1.156802274156079e+03  3.517134207612822e+02 -2.918975276816622e+03
-1.156793970888061e+03  3.486268106625418e+02 -2.918975276816622e+03
-1.156779869172299e+03  3.452124606631647e+02 -2.918975276816622e+03
-1.156768557632422e+03  3.420189514017007e+02 -2.918975276816622e+03
-1.156765834716175e+03  3.393740227787867e+02 -2.918975276816622e+03
-1.156761835037969e+03  3.367264256090111e+02 -2.918975276816622e+03
-1.156754165694602e+03  3.341152997665581e+02 -2.918975276816622e+03
-1.156744103448032e+03  3.315433137982889e+02 -2.918975276816622e+03
-1.156734041201462e+03  3.289713278300198e+02 -2.918975276816622e+03
-1.156783094290162e+03  3.270899672618704e+02 -2.918975276816622e+03
-1.156859389707214e+03  3.248176230259157e+02 -2.918975276816622e+03
-1.156772344943955e+03  3.224333990208714e+02 -2.918975276816622e+03
-1.156663476858152e+03  3.209236084798195e+02 -2.918975276816622e+03
-1.156737664651061e+03  3.187716152345977e+02 -2.918975276816622e+03
-1.156792076493564e+03  3.161807009980668e+02 -2.918975276816622e+03
-1.156753300357797e+03  3.136977726395539e+02 -2.918975276816622e+03
-1.156726002136724e+03  3.114881610105325e+02 -2.918975276816622e+03
-1.156705139505047e+03  3.091150867123917e+02 -2.918975276816622e+03
-1.156671182461930e+03  3.064783317090063e+02 -2.918975276816622e+03
-1.156629173332669e+03  3.040146753989863e+02 -2.918975276816622e+03
-1.156617254858512e+03  3.027474681512064e+02 -2.918975276816622e+03
-1.156642202564778e+03  3.014702437014777e+02 -2.918975276816622e+03
-1.156673925796361e+03  2.989865529875598e+02 -2.918975276816622e+03
-1.156696479111605e+03  2.965749677616863e+02 -2.918975276816622e+03
-1.156716176679317e+03  2.948430396299926e+02 -2.918975276816622e+03
-1.156727455185769e+03  2.930127460426083e+02 -2.918975276816622e+03
-1.156737396581304e+03  2.909690615050511e+02 -2.918975276816622e+03
-1.156745396892723e+03  2.890647661881491e+02 -2.918975276816622e+03
-1.156771645580419e+03  2.872215171781776e+02 -2.918975276816622e+03
-1.156782701893983e+03  2.855171352640014e+02 -2.918975276816622e+03
-1.156811632640788e+03  2.832631481770967e+02 -2.918975276816622e+03
-1.156833932667308e+03  2.800141683835646e+02 -2.918975276816622e+03
-1.156847541114102e+03  2.778704474820300e+02 -2.918975276816622e+03
-1.156814301569709e+03  2.765321535470518e+02 -2.918975276816622e+03
-1.156830653521812e+03  2.746650417025638e+02 -2.918975276816622e+03
-1.156835762618920e+03  2.728413679650104e+02 -2.918975276816622e+03
-1.156815381965041e+03  2.715152727130969e+02 -2.918975276816622e+03
-1.156780399207483e+03  2.704513468831677e+02 -2.918975276816622e+03
-1.156783061161444e+03  2.678636359114592e+02 -2.918975276816622e+03
-1.156787934770244e+03  2.655234601484211e+02 -2.918975276816622e+03
-1.156807104136125e+03  2.637382835549637e+02 -2.918975276816622e+03
-1.156825674175397e+03  2.616911378914758e+02 -2.918975276816622e+03
-1.156819143564570e+03  2.604179715659503e+02 -2.918975276816622e+03
-1.156821637214973e+03  2.588709417980849e+02 -2.918975276816622e+03
-1.156838804529103e+03  2.572654665066727e+02 -2.918975276816622e+03
-1.156853913608311e+03  2.560101065102035e+02 -2.918975276816622e+03
-1.156878109894131e+03  2.546423158840873e+02 -2.918975276816622e+03
-1.156938112689401e+03  2.528388014301872e+02 -2.918975276816622e+03
-1.157026185595718e+03  2.509541587019881e+02 -2.918975276816622e+03
-1.157124413304773e+03  2.502212946657713e+02 -2.918975276816622e+03
-1.157011106501502e+03  2.487438035054298e+02 -2.918975276816622e+03
-1.156873083501394e+03  2.466761292095574e+02 -2.918975276816622e+03
-1.156791375674432e+03  2.451736059683064e+02 -2.918975276816622e+03
-1.156726280785639e+03  2.437423254249286e+02 -2.918975276816622e+03
-1.156653721572061e+03  2.420228759825777e+02 -2.918975276816622e+03
-1.156613220360467e+03  2.405078026709834e+02 -2.918975276816622e+03
-1.156597682428983e+03  2.393137698669934e+02 -2.918975276816622e+03
-1.156564526898262e+03  2.369467862707005e+02 -2.918975276816622e+03
-1.156513277856308e+03  2.347557830437717e+02 -2.918975276816622e+03
-1.156484637486712e+03  2.329271746075458e+02 -2.918975276816622e+03
-1.156441618628151e+03  2.307893770699968e+02 -2.918975276816622e+03
-1.156401562989140e+03  2.295445395283660e+02 -2.918975276816622e+03
-1.156349079451066e+03  2.281059817956960e+02 -2.918975276816622e+03
-1.156313719674615e+03  2.263504900721743e+02 -2.918975276816622e+03
-1.156288907761491e+03  2.253050756325204e+02 -2.918975276816622e+03
-1.156268975723814e+03  2.240993359828530e+02 -2.918975276816622e+03
-1.156230936378778e+03  2.220131400295248e+02 -2.918975276816622e+03
-1.156203800534663e+03  2.202518290597493e+02 -2.918975276816622e+03
-1.156180117585471e+03  2.190926728231172e+02 -2.918975276816622e+03
-1.156150417967446e+03  2.169317708913080e+02 -2.918975276816622e+03
-1.156121937118158e+03  2.148956305300082e+02 -2.918975276816622e+03
-1.156105385829887e+03  2.131615443660029e+02 -2.918975276816622e+03
-1.156084644726088e+03  2.109932786823630e+02 -2.918975276816622e+03
-1.156066287561215e+03  2.095778244296994e+02 -2.918975276816622e+03
-1.156048009021963e+03  2.081085787165402e+02 -2.918975276816622e+03
-1.156032134624833e+03  2.062370409281947e+02 -2.918975276816622e+03
-1.156029604519870e+03  2.049629665050651e+02 -2.918975276816622e+03
-1.156023924148377e+03  2.039187944462559e+02 -2.918975276816622e+03
-1.156017890771616e+03  2.021159018564089e+02 -2.918975276816622e+03
-1.156003497525426e+03  2.004018295366809e+02 -2.918975276816622e+03
-1.156000289981896e+03  1.989303562181662e+02 -2.918975276816622e+03
-1.155991058963061e+03  1.964778898546984e+02 -2.918975276816622e+03
-1.156009537514114e+03  1.937679453283441e+02 -2.918975276816622e+03
-1.156017817191289e+03  1.913318791683702e+02 -2.918975276816622e+03
-1.156018044328659e+03  1.897155297026206e+02 -2.918975276816622e+03
-1.155996915046404e+03  1.882635517433732e+02 -2.918975276816622e+03
-1.156001058791728e+03  1.865634246507061e+02 -2.918975276816622e+03
-1.156007441837885e+03  1.852472991381462e+02 -2.918975276816622e+03
-1.156008688812343e+03  1.838962918550807e+02 -2.918975276816622e+03
-1.156008487721322e+03  1.820602791189854e+02 -2.918975276816622e+03
-1.156005514369226e+03  1.805857535910028e+02 -2.918975276816622e+03
-1.156000478924514e+03  1.794956719652217e+02 -2.918975276816622e+03
-1.156003139384161e+03  1.770560780992180e+02 -2.918975276816622e+03
-1.156006586230947e+03  1.748773217255067e+02 -2.918975276816622e+03
-1.156010538577729e+03  1.731528420431355e+02 -2.918975276816622e+03
-1.156017217263707e+03  1.710257081505065e+02 -2.918975276816622e+03
-1.156017626038544e+03  1.696313531581838e+02 -2.918975276816622e+03
-1.156021161879115e+03  1.681288389079479e+02 -2.918975276816622e+03
-1.156023848241097e+03  1.664280446464079e+02 -2.918975276816622e+03
-1.156030650049138e+03  1.651845727668113e+02 -2.918975276816622e+03
-1.156033883704998e+03  1.639386943829759e+02 -2.918975276816622e+03
-1.156043346585085e+03  1.620695849234242e+02 -2.918975276816622e+03
-1.156046706949752e+03  1.604795023288687e+02 -2.918975276816622e+03
-1.156050884792569e+03  1.593282775372273e+02 -2.918975276816622e+03
-1.156055691327033e+03  1.571271518489150e+02 -2.918975276816622e+03
-1.156064246619466e+03  1.550735829376753e+02 -2.918975276816622e+03
-1.156069139123444e+03  1.531937030341454e+02 -2.918975276816622e+03
-1.156078099538015e+03  1.510435098719418e+02 -2.918975276816622e+03
-1.156083031408237e+03  1.497705097352055e+02 -2.918975276816622e+03
-1.156094259895424e+03  1.482346404089819e+02 -2.918975276816622e+03
-1.156102801084583e+03  1.463566330340578e+02 -2.918975276816622e+03
-1.156107410142842e+03  1.451978835294659e+02 -2.918975276816622e+03
-1.156111106780157e+03  1.440685190303904e+02 -2.918975276816622e+03
-1.156127101909742e+03  1.421114370175511e+02 -2.918975276816622e+03
-1.156128575311925e+03  1.404755464116851e+02 -2.918975276816622e+03
-1.156145716298632e+03  1.393060479647350e+02 -2.918975276816622e+03
-1.156155464341525e+03  1.370319801204591e+02 -2.918975276816622e+03
-1.156173244265608e+03  1.349466279513314e+02 -2.918975276816622e+03
-1.156170395940512e+03  1.331206424302075e+02 -2.918975276816622e+03
-1.156189952644873e+03  1.308135858869666e+02 -2.918975276816622e+03
-1.156210601172511e+03  1.295072482984442e+02 -2.918975276816622e+03
-1.156244373183866e+03  1.281795660363911e+02 -2.918975276816622e+03
-1.156248983973972e+03  1.264996694761483e+02 -2.918975276816622e+03
-1.156265873491444e+03  1.251921239897983e+02 -2.918975276816622e+03
-1.156271942705428e+03  1.238231231629744e+02 -2.918975276816622e+03
-1.156288517540079e+03  1.220766774492831e+02 -2.918975276816622e+03
-1.156319677273937e+03  1.205502163376719e+02 -2.918975276816622e+03
-1.156390400538800e+03  1.194516722242566e+02 -2.918975276816622e+03
-1.156471903734395e+03  1.170798667010491e+02 -2.918975276816622e+03
-1.156583960703482e+03  1.148873175089045e+02 -2.918975276816622e+03
-1.156617315863084e+03  1.131452910438802e+02 -2.918975276816622e+03
-1.156684526514018e+03  1.110901999859735e+02 -2.918975276816622e+03
-1.156727920433078e+03  1.099230208178575e+02 -2.918975276816622e+03
-1.156660747040552e+03  1.085047505208989e+02 -2.918975276816622e+03
-1.156646232827984e+03  1.067908929822725e+02 -2.918975276816622e+03
-1.156599620740084e+03  1.054019419087410e+02 -2.918975276816622e+03
-1.156592417878066e+03  1.039864738013337e+02 -2.918975276816622e+03
-1.156553952803534e+03  1.021791388029987e+02 -2.918975276816622e+03
-1.156570099374345e+03  1.006961977047327e+02 -2.918975276816622e+03
-1.156606578902055e+03  9.927590892757611e+01 -2.918975276816622e+03
-1.156610532820638e+03  9.757858289158391e+01 -2.918975276816622e+03
-1.156594376585341e+03  9.605175604562208e+01 -2.918975276816622e+03
-1.156607284711296e+03  9.317434479902983e+01 -2.918975276816622e+03
-1.156605706946435e+03  9.055731735517232e+01 -2.918975276816622e+03
-1.156611982699157e+03  8.901142967857260e+01 -2.918975276816622e+03
-1.156611826554973e+03  8.745710920825387e+01 -2.918975276816622e+03
-1.156617648897921e+03  8.665336469051906e+01 -2.918975276816622e+03
-1.156621524540829e+03  8.580356006972242e+01 -2.918975276816622e+03
-1.156624978302395e+03  8.389826979399980e+01 -2.918975276816622e+03
-1.156624836923193e+03  8.090516459365797e+01 -2.918975276816622e+03
-1.156634495119110e+03  7.774098121067404e+01 -2.918975276816622e+03
-1.156638581417133e+03  7.494551589639914e+01 -2.918975276816622e+03
-1.156642141093241e+03  7.264194335956051e+01 -2.918975276816622e+03
-1.156650822231235e+03  7.045577555776502e+01 -2.918975276816622e+03
-1.156659814014097e+03  6.817424717158698e+01 -2.918975276816622e+03
-1.156667546733969e+03  6.532494175967811e+01 -2.918975276816622e+03
-1.156676051176043e+03  6.318101054131544e+01 -2.918975276816622e+03
-1.156693673744867e+03  6.173482328864731e+01 -2.918975276816622e+03
-1.156723721094184e+03  5.943410132438611e+01 -2.918975276816622e+03
-1.156732528998800e+03  5.730907207315059e+01 -2.918975276816622e+03
-1.156765522175553e+03  5.494594026710827e+01 -2.918975276816622e+03
-1.156796006633947e+03  5.225568442516270e+01 -2.918975276816622e+03
-1.156805249445094e+03  5.031899547026973e+01 -2.918975276816622e+03
-1.156819164518974e+03  4.884794568791668e+01 -2.918975276816622e+03
-1.156848988136990e+03  4.734061951580762e+01 -2.918975276816622e+03
-1.156877747748314e+03  4.544789656969225e+01 -2.918975276816622e+03
-1.156905171021025e+03  4.316695677040252e+01 -2.918975276816622e+03
-1.156940703948086e+03  4.183419503511652e+01 -2.918975276816622e+03
-1.157214101835644e+03  4.025853319747685e+01 -2.918975276816622e+03
-1.157561041785622e+03  3.753873184121075e+01 -2.918975276816622e+03
-1.157711924996878e+03  3.455496991871851e+01 -2.918975276816622e+03
-1.157860620450572e+03  3.142246879592849e+01 -2.918975276816622e+03
-1.157606683327564e+03  2.931523544482279e+01 -2.918975276816622e+03
-1.157313426342241e+03  2.748973094495238e+01 -2.918975276816622e+03
-1.157383482071306e+03  2.492068752463302e+01 -2.918975276816622e+03
-1.157428108888763e+03  2.248567810606206e+01 -2.918975276816622e+03
-1.157447306794610e+03  2.018470268923949e+01 -2.918975276816622e+03
-1.157397934011105e+03  1.812193029973428e+01 -2.918975276816622e+03
-1.157374789048596e+03  1.658587026164423e+01 -2.918975276816622e+03
-1.157456820829693e+03  1.533806298014346e+01 -2.918975276816622e+03
-1.157493294955834e+03  1.399426934756697e+01 -2.918975276816622e+03
-1.157446236358142e+03  1.261663649112652e+01 -2.918975276816622e+03
-1.157413948001546e+03  1.086270514209944e+01 -2.918975276816622e+03
-1.157424026721662e+03  8.670584740782504e+00 -2.918975276816622e+03
 1.154609164733564e+03 -1.743785598013221e+00  2.918975276816622e+03
 1.154639887440714e+03 -2.471943846110344e-01  2.918975276816622e+03
 1.154574341965192e+03 -3.337599708517929e+00  2.918975276816622e+03
 1.154512710762594e+03 -5.791760509453278e+00  2.918975276816622e+03
 1.154453156284324e+03 -8.129300647466446e+00  2.918975276816622e+03
 1.154393499557982e+03 -1.049890889337575e+01  2.918975276816622e+03
 1.154333740583566e+03 -1.290058524718120e+01  2.918975276816622e+03
 1.154273981609150e+03 -1.530226160098666e+01  2.918975276816622e+03
 1.154215227568183e+03 -1.767149394662540e+01  2.918975276816622e+03
 1.154157478460665e+03 -2.000828228409742e+01  2.918975276816622e+03
 1.154088402903335e+03 -2.254886616938067e+01  2.918975276816622e+03
 1.154008000896195e+03 -2.529324560247515e+01  2.918975276816622e+03
 1.153969590064026e+03 -2.674211767954482e+01  2.918975276816622e+03
 1.153955100301121e+03 -2.853572632300868e+01  2.918975276816622e+03
 1.153925781347720e+03 -3.139512501236168e+01  2.918975276816622e+03
 1.153899703309530e+03 -3.368006982518484e+01  2.918975276816622e+03
 1.153870997594187e+03 -3.632547256353278e+01  2.918975276816622e+03
 1.153851245253143e+03 -3.909596624982971e+01  2.918975276816622e+03
 1.153843073963548e+03 -4.163109295855089e+01  2.918975276816622e+03
 1.153815152285711e+03 -4.436560758025765e+01  2.918975276816622e+03
 1.153729198400051e+03 -4.742085468949957e+01  2.918975276816622e+03
 1.153705385933884e+03 -5.001329045953134e+01  2.918975276816622e+03
 1.153722885745542e+03 -5.182828308339176e+01  2.918975276816622e+03
 1.153747391449370e+03 -5.339133143688050e+01  2.918975276816622e+03
 1.153714956208625e+03 -5.537899725395120e+01  2.918975276816622e+03
 1.153732005369894e+03 -5.770705950528800e+01  2.918975276816622e+03
 1.153736411926558e+03 -5.969237765563776e+01  2.918975276816622e+03
 1.153654899119302e+03 -6.118134499553994e+01  2.918975276816622e+03
 1.153640119438267e+03 -6.259400974659199e+01  2.918975276816622e+03
 1.153639438109925e+03 -6.435513688047303e+01  2.918975276816622e+03
 1.153645891522960e+03 -6.582942401740917e+01  2.918975276816622e+03
 1.153645099550232e+03 -6.782629804244456e+01  2.918975276816622e+03
 1.153640424371126e+03 -7.009872108793914e+01  2.918975276816622e+03
 1.153625016049139e+03 -7.144073345458278e+01  2.918975276816622e+03
 1.153636438757066e+03 -7.324034473423983e+01  2.918975276816622e+03
 1.153647841358700e+03 -7.630381556534371e+01  2.918975276816622e+03
 1.153651884222694e+03 -7.942350929958894e+01  2.918975276816622e+03
 1.153655910600924e+03 -8.129457584760608e+01  2.918975276816622e+03
 1.153659615278619e+03 -8.331567570820454e+01  2.918975276816622e+03
 1.153665412780569e+03 -8.541670535639982e+01  2.918975276816622e+03
 1.153671393794249e+03 -8.748789708388396e+01  2.918975276816622e+03
 1.153675695262158e+03 -8.980792234867302e+01  2.918975276816622e+03
 1.153672205677968e+03 -9.151313454483881e+01  2.918975276816622e+03
 1.153673551373572e+03 -9.350620883860405e+01  2.918975276816622e+03
 1.153670186796665e+03 -9.602236998491753e+01  2.918975276816622e+03
 1.153663677851269e+03 -9.762194269722251e+01  2.918975276816622e+03
 1.153654012674216e+03 -9.915731148368792e+01  2.918975276816622e+03
 1.153644121949422e+03 -1.020456549997883e+02  2.918975276816622e+03
 1.153630006069047e+03 -1.044266503878319e+02  2.918975276816622e+03
 1.153621586496448e+03 -1.056501429042279e+02  2.918975276816622e+03
 1.153606655467702e+03 -1.075397719477424e+02  2.918975276816622e+03
 1.153588964655844e+03 -1.097868512230025e+02  2.918975276816622e+03
 1.153575473944517e+03 -1.113988455236986e+02  2.918975276816622e+03
 1.153558194919902e+03 -1.134105507149740e+02  2.918975276816622e+03
 1.153541494801531e+03 -1.159139423112593e+02  2.918975276816622e+03
 1.153511012838339e+03 -1.188250126523525e+02  2.918975276816622e+03
 1.153483493832191e+03 -1.215833319479073e+02  2.918975276816622e+03
 1.153444046705277e+03 -1.238750486340326e+02  2.918975276816622e+03
 1.153426023166188e+03 -1.251147502853800e+02  2.918975276816622e+03
 1.153441692651093e+03 -1.271056137538520e+02  2.918975276816622e+03
 1.153482105891767e+03 -1.310618830563464e+02  2.918975276816622e+03
 1.153516492160391e+03 -1.343980999893983e+02  2.918975276816622e+03
 1.153532377137371e+03 -1.369520355708883e+02  2.918975276816622e+03
 1.153548262114351e+03 -1.395059711523783e+02  2.918975276816622e+03
 1.153564147091330e+03 -1.420599067338682e+02  2.918975276816622e+03
 1.153581947787824e+03 -1.445651436459827e+02  2.918975276816622e+03
 1.153588023574290e+03 -1.473432218232894e+02  2.918975276816622e+03
 1.153601378483678e+03 -1.497955600841025e+02  2.918975276816622e+03
 1.153604049250138e+03 -1.515104962923008e+02  2.918975276816622e+03
 1.153613505904411e+03 -1.533320282343058e+02  2.918975276816622e+03
 1.153616870251534e+03 -1.560815491761690e+02  2.918975276816622e+03
 1.153628055809917e+03 -1.590875836119893e+02  2.918975276816622e+03
 1.153634265140621e+03 -1.609796111521455e+02  2.918975276816622e+03
 1.153634796130675e+03 -1.620217717659224e+02  2.918975276816622e+03
 1.153632496111609e+03 -1.630342632609120e+02  2.918975276816622e+03
 1.153643130004961e+03 -1.646234902482861e+02  2.918975276816622e+03
 1.153648373804139e+03 -1.660359575997319e+02  2.918975276816622e+03
 1.153651368211478e+03 -1.675742536352724e+02  2.918975276816622e+03
 1.153647717548640e+03 -1.696021544350160e+02  2.918975276816622e+03
 1.153651227576847e+03 -1.713157416494415e+02  2.918975276816622e+03
 1.153644462898691e+03 -1.732229747187583e+02  2.918975276816622e+03
 1.153644736423010e+03 -1.761349703019437e+02  2.918975276816622e+03
 1.153640678606930e+03 -1.792817509868731e+02  2.918975276816622e+03
 1.153637484130490e+03 -1.822687742665037e+02  2.918975276816622e+03
 1.153638647487837e+03 -1.850833821961970e+02  2.918975276816622e+03
 1.153630746151604e+03 -1.872270605957269e+02  2.918975276816622e+03
 1.153629624824379e+03 -1.897856984095530e+02  2.918975276816622e+03
 1.153618752460017e+03 -1.928207511829348e+02  2.918975276816622e+03
 1.153626824802737e+03 -1.960588151596438e+02  2.918975276816622e+03
 1.153614394476486e+03 -1.994141974349305e+02  2.918975276816622e+03
 1.153627417527908e+03 -2.022760197672713e+02  2.918975276816622e+03
 1.153628474743956e+03 -2.048560025640294e+02  2.918975276816622e+03
 1.153629531960003e+03 -2.074359853607875e+02  2.918975276816622e+03
 1.153632571975327e+03 -2.098984028832078e+02  2.918975276816622e+03
 1.153637305071598e+03 -2.127683633029542e+02  2.918975276816622e+03
 1.153641748449539e+03 -2.161634318943644e+02  2.918975276816622e+03
 1.153650366721870e+03 -2.191526111320771e+02  2.918975276816622e+03
 1.153653061104260e+03 -2.219293575331855e+02  2.918975276816622e+03
 1.153655161021751e+03 -2.237922641404346e+02  2.918975276816622e+03
 1.153657346277924e+03 -2.249449834470789e+02  2.918975276816622e+03
 1.153662393139440e+03 -2.272590290029794e+02  2.918975276816622e+03
 1.153672156473711e+03 -2.296168786785416e+02  2.918975276816622e+03
 1.153676558882709e+03 -2.311143530374991e+02  2.918975276816622e+03
 1.153688495907828e+03 -2.331077503937001e+02  2.918975276816622e+03
 1.153703705269020e+03 -2.357194409179752e+02  2.918975276816622e+03
 1.153716855538231e+03 -2.383135394157231e+02  2.918975276816622e+03
 1.153729189556622e+03 -2.401612015738723e+02  2.918975276816622e+03
 1.153744127363149e+03 -2.426555919295487e+02  2.918975276816622e+03
 1.153764175695276e+03 -2.461247430952653e+02  2.918975276816622e+03
 1.153783022665407e+03 -2.489310843182969e+02  2.918975276816622e+03
 1.153798977786894e+03 -2.514930193257294e+02  2.918975276816622e+03
 1.153814688547673e+03 -2.541108571914981e+02  2.918975276816622e+03
 1.153826551414697e+03 -2.563487821609002e+02  2.918975276816622e+03
 1.153838212122142e+03 -2.590327229024429e+02  2.918975276816622e+03
 1.153844773192304e+03 -2.611277722528162e+02  2.918975276816622e+03
 1.153847669021959e+03 -2.625259420971622e+02  2.918975276816622e+03
 1.153855400621855e+03 -2.646979553534939e+02  2.918975276816622e+03
 1.153866850866858e+03 -2.671686602120308e+02  2.918975276816622e+03
 1.153875171057590e+03 -2.700366939015743e+02  2.918975276816622e+03
 1.153880359523184e+03 -2.719177309573259e+02  2.918975276816622e+03
 1.153882530173586e+03 -2.733163113248570e+02  2.918975276816622e+03
 1.153890234773922e+03 -2.759024723866882e+02  2.918975276816622e+03
 1.153898254149310e+03 -2.784692412132950e+02  2.918975276816622e+03
 1.153900296363681e+03 -2.798066056045849e+02  2.918975276816622e+03
 1.153905794233445e+03 -2.818145736099008e+02  2.918975276816622e+03
 1.153912276592886e+03 -2.847882656686791e+02  2.918975276816622e+03
 1.153920100559384e+03 -2.874334139650013e+02  2.918975276816622e+03
 1.153925760495358e+03 -2.900805067395964e+02  2.918975276816622e+03
 1.153931046467907e+03 -2.932650080496745e+02  2.918975276816622e+03
 1.153942262999216e+03 -2.958398891735255e+02  2.918975276816622e+03
 1.153946053546705e+03 -2.970327809942867e+02  2.918975276816622e+03
 1.153943732442484e+03 -2.976724433066278e+02  2.918975276816622e+03
 1.153940832729811e+03 -2.983158264375066e+02  2.918975276816622e+03
 1.153930888603925e+03 -2.999087929718080e+02  2.918975276816622e+03
 1.153922097527575e+03 -3.021293531639523e+02  2.918975276816622e+03
 1.153918317129750e+03 -3.035207720513148e+02  2.918975276816622e+03
 1.153906943944847e+03 -3.056005560623570e+02  2.918975276816622e+03
 1.153891102438866e+03 -3.084140068424069e+02  2.918975276816622e+03
 1.153883636815261e+03 -3.097483065231243e+02  2.918975276816622e+03
 1.153878468329546e+03 -3.105824347639285e+02  2.918975276816622e+03
 1.153874372811041e+03 -3.113496389777645e+02  2.918975276816622e+03
 1.153866720292539e+03 -3.125104129782283e+02  2.918975276816622e+03
 1.153857249085162e+03 -3.139741083449293e+02  2.918975276816622e+03
 1.153842586755768e+03 -3.161089101250251e+02  2.918975276816622e+03
 1.153818655701461e+03 -3.195499738152976e+02  2.918975276816622e+03
 1.153797048411943e+03 -3.225741061566295e+02  2.918975276816622e+03
 1.153781087611816e+03 -3.248988640995631e+02  2.918975276816622e+03
 1.153764297557027e+03 -3.273048529800710e+02  2.918975276816622e+03
 1.153748680335774e+03 -3.299964283261397e+02  2.918975276816622e+03
 1.153739543068189e+03 -3.318701550818591e+02  2.918975276816622e+03
 1.153732383037196e+03 -3.335576740656826e+02  2.918975276816622e+03
 1.153713824926307e+03 -3.366686584003903e+02  2.918975276816622e+03
 1.153698507829034e+03 -3.390638975213790e+02  2.918975276816622e+03
 1.153692713815067e+03 -3.406966366463909e+02  2.918975276816622e+03
 1.153684304419771e+03 -3.428700899935886e+02  2.918975276816622e+03
 1.153675600249870e+03 -3.452924079505183e+02  2.918975276816622e+03
 1.153666853660691e+03 -3.485997995759854e+02  2.918975276816622e+03
 1.153657242415888e+03 -3.516431206078294e+02  2.918975276816622e+03
 1.153652697618576e+03 -3.537767195926286e+02  2.918975276816622e+03
 1.153646053440843e+03 -3.560246291928978e+02  2.918975276816622e+03
 1.153647104828681e+03 -3.586745756550940e+02  2.918975276816622e+03
 1.153647999724780e+03 -3.616467676602280e+02  2.918975276816622e+03
 1.153649461088736e+03 -3.639138496291189e+02  2.918975276816622e+03
 1.153651458740232e+03 -3.652940371647298e+02  2.918975276816622e+03
 1.153652130689805e+03 -3.663544920934590e+02  2.918975276816622e+03
 1.153653292983320e+03 -3.677892260250746e+02  2.918975276816622e+03
 1.153662933312228e+03 -3.698615623189522e+02  2.918975276816622e+03
 1.153699876076262e+03 -3.726193025416516e+02  2.918975276816622e+03
 1.153710510348387e+03 -3.751670485441893e+02  2.918975276816622e+03
 1.153709950693824e+03 -3.774038960033420e+02  2.918975276816622e+03
 1.153728980973596e+03 -3.801438296096601e+02  2.918975276816622e+03
 1.153746939153968e+03 -3.824541912347053e+02  2.918975276816622e+03
 1.153760133377091e+03 -3.836247933882441e+02  2.918975276816622e+03
 1.153772057512601e+03 -3.851204474361810e+02  2.918975276816622e+03
1.153789067043592e+03 3.845974117791093e+02 2.918975276816622e+03
1.153782602114583e+03 3.857910704625658e+02 2.918975276816622e+03
1.153804382311068e+03 3.827715793382987e+02 2.918975276816622e+03
1.153817663913118e+03 3.813254482664473e+02 2.918975276816622e+03
1.153829860213680e+03 3.799705322679718e+02 2.918975276816622e+03
1.153852133585859e+03 3.776989675202169e+02 2.918975276816622e+03
1.153872638986546e+03 3.749557486793300e+02 2.918975276816622e+03
1.153892620118772e+03 3.728336010788418e+02 2.918975276816622e+03
1.153902990324706e+03 3.715911754536939e+02 2.918975276816622e+03
1.153926353484308e+03 3.691946293405104e+02 2.918975276816622e+03
1.153945661833228e+03 3.670166179588468e+02 2.918975276816622e+03
1.153959602250393e+03 3.656734716513033e+02 2.918975276816622e+03
1.153978443295696e+03 3.636988651638740e+02 2.918975276816622e+03
1.154009305001633e+03 3.609335818225798e+02 2.918975276816622e+03
1.154040819811431e+03 3.585700373398652e+02 2.918975276816622e+03
1.154061631975193e+03 3.568426027478220e+02 2.918975276816622e+03
1.154093748603323e+03 3.545331539187475e+02 2.918975276816622e+03
1.154116556462927e+03 3.527088536357809e+02 2.918975276816622e+03
1.154136818023703e+03 3.513467175027990e+02 2.918975276816622e+03
1.154165133303658e+03 3.491687731104807e+02 2.918975276816622e+03
1.154201734113239e+03 3.465303866628498e+02 2.918975276816622e+03
1.154231053592119e+03 3.441419193896418e+02 2.918975276816622e+03
1.154246757585866e+03 3.424894291063448e+02 2.918975276816622e+03
1.154266884230628e+03 3.408260130323179e+02 2.918975276816622e+03
1.154289327338181e+03 3.385495352333998e+02 2.918975276816622e+03
1.154303330103083e+03 3.361569793158082e+02 2.918975276816622e+03
1.154317332867985e+03 3.337644233982163e+02 2.918975276816622e+03
1.154298136105108e+03 3.325239068265411e+02 2.918975276816622e+03
1.154302579947043e+03 3.313392663381226e+02 2.918975276816622e+03
1.154363863921568e+03 3.290584625870437e+02 2.918975276816622e+03
1.154410300814946e+03 3.272646308274198e+02 2.918975276816622e+03
1.154430066037509e+03 3.253803769264889e+02 2.918975276816622e+03
1.154438006670404e+03 3.229187288927965e+02 2.918975276816622e+03
1.154451588082333e+03 3.204892337514906e+02 2.918975276816622e+03
1.154457298220355e+03 3.178113224922939e+02 2.918975276816622e+03
1.154458748978930e+03 3.150358194498879e+02 2.918975276816622e+03
1.154455147182947e+03 3.125012500586580e+02 2.918975276816622e+03
1.154439157880659e+03 3.098523110400074e+02 2.918975276816622e+03
1.154418591799071e+03 3.067718371676384e+02 2.918975276816622e+03
1.154391531216438e+03 3.034321544930793e+02 2.918975276816622e+03
1.154366155827254e+03 3.007561709344100e+02 2.918975276816622e+03
1.154343124205106e+03 2.985186982475103e+02 2.918975276816622e+03
1.154320751156546e+03 2.960560373164903e+02 2.918975276816622e+03
1.154303401133467e+03 2.942852067913440e+02 2.918975276816622e+03
1.154275828870416e+03 2.923127291596732e+02 2.918975276816622e+03
1.154233011341911e+03 2.894467740156032e+02 2.918975276816622e+03
1.154210926373702e+03 2.879046660847814e+02 2.918975276816622e+03
1.154187396380279e+03 2.862818423165741e+02 2.918975276816622e+03
1.154141688801343e+03 2.832544554977322e+02 2.918975276816622e+03
1.154093126783684e+03 2.807817563490576e+02 2.918975276816622e+03
1.154064236038074e+03 2.783684195432243e+02 2.918975276816622e+03
1.154023725849472e+03 2.758955702297857e+02 2.918975276816622e+03
1.153967761215526e+03 2.729387942801613e+02 2.918975276816622e+03
1.153901755277567e+03 2.696535109415195e+02 2.918975276816622e+03
1.153866032244128e+03 2.663619087169637e+02 2.918975276816622e+03
1.153831973715715e+03 2.641346854631711e+02 2.918975276816622e+03
1.153819883678968e+03 2.622652142858100e+02 2.918975276816622e+03
1.153777768846796e+03 2.593051916408321e+02 2.918975276816622e+03
1.153747968694772e+03 2.571019557827889e+02 2.918975276816622e+03
1.153729102702556e+03 2.554659657478078e+02 2.918975276816622e+03
1.153705072740769e+03 2.539038933385353e+02 2.918975276816622e+03
1.153692308269035e+03 2.527949861537776e+02 2.918975276816622e+03
1.153691549484137e+03 2.514964452277058e+02 2.918975276816622e+03
1.153677473519848e+03 2.496997607341118e+02 2.918975276816622e+03
1.153650375561771e+03 2.486014795060408e+02 2.918975276816622e+03
1.153627507635071e+03 2.474319244897723e+02 2.918975276816622e+03
1.153629120447594e+03 2.461074106964092e+02 2.918975276816622e+03
1.153628207465012e+03 2.444794116554562e+02 2.918975276816622e+03
1.153650378113181e+03 2.425675816735705e+02 2.918975276816622e+03
1.153657164925772e+03 2.409691296955262e+02 2.918975276816622e+03
1.153665397367843e+03 2.391626316993833e+02 2.918975276816622e+03
1.153666723949350e+03 2.371044161830295e+02 2.918975276816622e+03
1.153633168899719e+03 2.345238115123244e+02 2.918975276816622e+03
1.153667436380951e+03 2.329853624249225e+02 2.918975276816622e+03
1.153689985738004e+03 2.314082021169115e+02 2.918975276816622e+03
1.153695347119639e+03 2.292963323023276e+02 2.918975276816622e+03
1.153687567138193e+03 2.276902903981678e+02 2.918975276816622e+03
1.153703270114777e+03 2.261186830876401e+02 2.918975276816622e+03
1.153703279886145e+03 2.249174696101452e+02 2.918975276816622e+03
1.153718162422897e+03 2.227990420270615e+02 2.918975276816622e+03
1.153730806939114e+03 2.197023642263094e+02 2.918975276816622e+03
1.153748275152222e+03 2.168881371606130e+02 2.918975276816622e+03
1.153761038593732e+03 2.143743133506076e+02 2.918975276816622e+03
1.153773802035243e+03 2.118604895406021e+02 2.918975276816622e+03
1.153781473204343e+03 2.100869546170690e+02 2.918975276816622e+03
1.153786981690954e+03 2.081091292598031e+02 2.918975276816622e+03
1.153795419767489e+03 2.051867245823319e+02 2.918975276816622e+03
1.153794632607450e+03 2.023254322444463e+02 2.918975276816622e+03
1.153790154682848e+03 1.996201513318015e+02 2.918975276816622e+03
1.153791211230257e+03 1.970097695048117e+02 2.918975276816622e+03
1.153787777306951e+03 1.940463453698238e+02 2.918975276816622e+03
1.153778731576584e+03 1.923164226841762e+02 2.918975276816622e+03
1.153765737099769e+03 1.910670437773979e+02 2.918975276816622e+03
1.153742303016171e+03 1.887152963328631e+02 2.918975276816622e+03
1.153707088098894e+03 1.858567308938403e+02 2.918975276816622e+03
1.153669551999489e+03 1.830624823277334e+02 2.918975276816622e+03
1.153640659017436e+03 1.804664143452063e+02 2.918975276816622e+03
1.153618561697870e+03 1.774937606381429e+02 2.918975276816622e+03
1.153605327579091e+03 1.746704101768396e+02 2.918975276816622e+03
1.153600956661100e+03 1.719963629612965e+02 2.918975276816622e+03
1.153596585743109e+03 1.693223157457533e+02 2.918975276816622e+03
1.153588163305862e+03 1.671262850300443e+02 2.918975276816622e+03
1.153587554886486e+03 1.650700553891220e+02 2.918975276816622e+03
1.153598812004238e+03 1.626756103231523e+02 2.918975276816622e+03
1.153610069121990e+03 1.602811652571826e+02 2.918975276816622e+03
1.153703966648151e+03 1.583551717729933e+02 2.918975276816622e+03
1.153786443060420e+03 1.564934581475678e+02 2.918975276816622e+03
1.153774857950386e+03 1.542275727991260e+02 2.918975276816622e+03
1.153669394359850e+03 1.529499261905913e+02 2.918975276816622e+03
1.153607748403001e+03 1.512850060409431e+02 2.918975276816622e+03
1.153655677828066e+03 1.491207846967535e+02 2.918975276816622e+03
1.153642619528707e+03 1.467428984609495e+02 2.918975276816622e+03
1.153609393882194e+03 1.433414890104981e+02 2.918975276816622e+03
1.153542097200752e+03 1.405052324862550e+02 2.918975276816622e+03
1.153493149608051e+03 1.391059806858065e+02 2.918975276816622e+03
1.153494171676257e+03 1.375917188665820e+02 2.918975276816622e+03
1.153460240409197e+03 1.348054711884704e+02 2.918975276816622e+03
1.153406505914629e+03 1.318004522312798e+02 2.918975276816622e+03
1.153359287723370e+03 1.291802423821734e+02 2.918975276816622e+03
1.153345527429082e+03 1.274801649711188e+02 2.918975276816622e+03
1.153323053775830e+03 1.263857651905528e+02 2.918975276816622e+03
1.153240906274026e+03 1.252495099696087e+02 2.918975276816622e+03
1.153170488548198e+03 1.229542223464814e+02 2.918975276816622e+03
1.153094776178842e+03 1.206006050982676e+02 2.918975276816622e+03
1.153048678555797e+03 1.193113499611692e+02 2.918975276816622e+03
1.153034187569865e+03 1.174976253521515e+02 2.918975276816622e+03
1.153063990122427e+03 1.147133100972317e+02 2.918975276816622e+03
1.153174748664755e+03 1.123341919351614e+02 2.918975276816622e+03
1.153348062581051e+03 1.109304177294251e+02 2.918975276816622e+03
1.153487464816281e+03 1.086600148803303e+02 2.918975276816622e+03
1.153464271402600e+03 1.063849115772814e+02 2.918975276816622e+03
1.153318792132210e+03 1.051976669584183e+02 2.918975276816622e+03
1.153430844481020e+03 1.030450095626099e+02 2.918975276816622e+03
1.153548228858909e+03 1.004252392017720e+02 2.918975276816622e+03
1.153682364691563e+03 9.796939394499464e+01 2.918975276816622e+03
1.153871826465109e+03 9.655384246765325e+01 2.918975276816622e+03
1.153941931076367e+03 9.506236874386305e+01 2.918975276816622e+03
1.154032783111027e+03 9.244471006284441e+01 2.918975276816622e+03
1.154112347350125e+03 8.946704759001636e+01 2.918975276816622e+03
1.154221585740741e+03 8.673085115422242e+01 2.918975276816622e+03
1.154310710977129e+03 8.427576026738824e+01 2.918975276816622e+03
1.154412755405058e+03 8.130338033526351e+01 2.918975276816622e+03
1.154477954554922e+03 7.908684574019333e+01 2.918975276816622e+03
1.154555207378156e+03 7.694967891938101e+01 2.918975276816622e+03
1.154623286691196e+03 7.428955127723805e+01 2.918975276816622e+03
1.154691366004235e+03 7.162942363509507e+01 2.918975276816622e+03
1.154759445317275e+03 6.896929599295210e+01 2.918975276816622e+03
1.154846244790676e+03 6.681896858536840e+01 2.918975276816622e+03
1.154873731152547e+03 6.428255234709033e+01 2.918975276816622e+03
1.154958275814121e+03 6.109791140577307e+01 2.918975276816622e+03
1.154959630529587e+03 5.863369904148196e+01 2.918975276816622e+03
1.154976769474422e+03 5.747315690777138e+01 2.918975276816622e+03
1.154967355089623e+03 5.624710026841191e+01 2.918975276816622e+03
1.154943961591456e+03 5.479746524483137e+01 2.918975276816622e+03
1.154926298497735e+03 5.296257451161233e+01 2.918975276816622e+03
1.154937574013126e+03 5.080764610368318e+01 2.918975276816622e+03
1.154933105761525e+03 4.891604549867517e+01 2.918975276816622e+03
1.154853561088374e+03 4.763215870897373e+01 2.918975276816622e+03
1.154833412586694e+03 4.604555755694514e+01 2.918975276816622e+03
1.154859293833756e+03 4.361611393732636e+01 2.918975276816622e+03
1.154901577586127e+03 4.229553317029166e+01 2.918975276816622e+03
1.154920957195160e+03 4.128023379434944e+01 2.918975276816622e+03
1.154935029178170e+03 3.983927264169270e+01 2.918975276816622e+03
1.154944540934491e+03 3.728525143983651e+01 2.918975276816622e+03
1.154975101395929e+03 3.482901232543375e+01 2.918975276816622e+03
1.154977973029984e+03 3.309312349053170e+01 2.918975276816622e+03
1.155000652347157e+03 3.111769634029453e+01 2.918975276816622e+03
1.154987712184236e+03 2.924368071097888e+01 2.918975276816622e+03
1.155013534466252e+03 2.688355189485031e+01 2.918975276816622e+03
1.155001562007842e+03 2.387328229087105e+01 2.918975276816622e+03
1.154967457509766e+03 2.071384145942876e+01 2.918975276816622e+03
1.154933353011691e+03 1.755440062798647e+01 2.918975276816622e+03
1.154910567317377e+03 1.521189325716041e+01 2.918975276816622e+03
1.154871330748364e+03 1.396586379055793e+01 2.918975276816622e+03
1.154838172009524e+03 1.254346199514530e+01 2.918975276816622e+03
1.154843731220260e+03 1.092391081614418e+01 2.918975276816622e+03
1.154822023084137e+03 9.043567060219290e+00 2.918975276816622e+03
1.154768177160211e+03 6.643663338541655e+00 2.918975276816622e+03
1.154734444583809e+03 4.896976398710021e+00 2.918975276816622e+03
1.154713849671975e+03 3.410641643740268e+00 2.918975276816622e+03
1.154683852858766e+03 1.706007708989270e+00 2.918975276816622e+03

CELLS 1380 5675
3 6 1392 7
3 6 1393 362
3 7 1394 8
3 8 1395 9
3 9 1396 10
3 10 1397 11
3 11 1398 12
4 12 1399 1400 13
3 13 1401 14
3 14 1402 15
3 15 1403 16
3 16 1404 17
3 17 1405 18
3 18 1406 19
4 19 1407 1408 20
3 20 1409 21
3 21 1410 22
4 22 1411 1412 23
3 23 1413 24
4 24 1414 1415 25
4 25 1416 1417 26
3 26 1418 27
3 27 1419 28
3 28 1420 29
3 29 1421 30
3 30 1422 31
3 31 1423 32
3 32 1424 33
3 33 1425 34
3 34 1426 35
3 35 1427 36
3 36 1428 37
3 37 1429 38
3 38 1430 39
3 39 1431 40
3 40 1432 41
3 41 1433 42
3 42 1434 43
3 43 1435 44
3 44 1436 45
3 45 1437 46
3 46 1438 47
3 47 1439 48
3 48 1440 49
3 49 1441 50
3 50 1442 51
3 51 1443 52
3 52 1444 53
3 53 1445 54
3 54 1446 55
3 55 1447 56
3 56 1448 57
3 57 1449 58
3 58 1450 59
3 59 1451 60
3 60 1452 61
3 61 1453 62
3 62 1454 63
3 63 1455 64
3 64 1456 65
3 65 1457 66
3 66 1458 67
3 67 1459 68
4 68 1460 1461 69
3 69 1462 70
3 70 1463 71
3 71 1464 72
3 72 1465 73
3 73 1466 74
3 74 1467 75
3 75 1468 76
3 76 1469 77
3 77 1470 78
3 78 1471 79
3 79 1472 80
3 80 1473 81
3 81 1474 82
3 82 1475 83
3 83 1476 84
3 84 1477 85
3 85 1478 86
3 86 1479 87
3 87 1480 88
3 88 1481 89
3 89 1482 90
3 90 1483 91
5 91 1484 1485 1486 92
3 92 1487 93
3 93 1488 94
3 94 1489 95
3 95 1490 96
3 96 1491 97
3 97 1492 98
4 98 1493 1494 99
3 99 1495 100
3 100 1496 101
3 101 1497 102
3 102 1498 103
3 103 1499 104
3 104 1500 105
3 105 1501 106
3 106 1502 107
3 107 1503 108
3 108 1504 109
3 109 1505 110
3 110 1506 111
3 111 1507 112
3 112 1508 113
3 113 1509 114
3 114 1510 115
3 115 1511 116
3 116 1512 117
3 117 1513 118
3 118 1514 119
4 119 1515 1516 120
3 120 1517 121
3 121 1518 122
3 122 1519 123
3 123 1520 124
3 124 1521 125
3 125 1522 126
3 126 1523 127
3 127 1524 128
3 128 1525 129
3 129 1526 130
3 130 1527 131
3 131 1528 132
3 132 1529 133
3 133 1530 134
3 134 1531 135
3 135 1532 136
3 136 1533 137
3 137 1534 138
3 138 1535 139
3 139 1536 140
3 140 1537 141
3 141 1538 142
3 142 1539 143
4 143 1540 1541 144
3 144 1542 145
3 145 1543 146
3 146 1544 147
3 147 1545 148
3 148 1546 149
3 149 1547 150
3 150 1548 151
5 151 1549 1550 1551 152
3 152 1552 153
3 153 1553 154
3 154 1554 155
3 155 1555 156
3 156 1556 157
3 157 1557 158
3 158 1558 159
3 159 1559 160
4 160 1560 1561 161
3 161 1562 162
3 162 1563 163
3 163 1564 164
3 164 1565 165
3 165 1566 166
3 166 1567 167
4 167 1568 1569 168
3 168 1570 169
3 169 1571 170
4 170 1572 1573 171
3 171 1574 172
3 172 1575 173
3 173 1576 174
5 174 1577 1578 1579 175
3 175 1580 176
3 176 1581 177
3 177 1582 178
3 178 1583 179
3 179 1584 180
3 180 1585 181
3 181 1586 182
3 182 1587 183
3 183 1588 184
3 184 1589 1384
4 185 1590 1591 186
3 185 1592 1385
3 186 1593 187
3 187 1594 188
3 188 1595 189
4 189 1596 1597 190
5 190 1598 1599 1600 191
3 191 1601 192
3 192 1602 193
3 193 1603 194
3 194 1604 195
3 195 1605 196
3 196 1606 197
3 197 1607 198
3 198 1608 199
3 199 1609 200
3 200 1610 201
5 201 1611 1612 1613 202
3 202 1614 203
3 203 1615 204
3 204 1616 205
3 205 1617 206
3 206 1618 207
3 207 1619 208
3 208 1620 209
3 209 1621 210
3 210 1622 211
3 211 1623 212
3 212 1624 213
3 213 1625 214
3 214 1626 215
5 215 1627 1628 1629 216
4 216 1630 1631 217
3 217 1632 218
3 218 1633 219
3 219 1634 220
3 220 1635 221
3 221 1636 222
3 222 1637 223
3 223 1638 224
3 224 1639 225
3 225 1640 226
3 226 1641 227
3 227 1642 228
3 228 1643 229
3 229 1644 230
3 230 1645 231
3 231 1646 232
3 232 1647 233
3 233 1648 234
3 234 1649 235
3 235 1650 236
4 236 1651 1652 237
3 237 1653 238
3 238 1654 239
3 239 1655 240
3 240 1656 241
3 241 1657 242
3 242 1658 243
3 243 1659 244
3 244 1660 245
3 245 1661 246
3 246 1662 247
3 247 1663 248
3 248 1664 249
3 249 1665 250
3 250 1666 251
3 251 1667 252
3 252 1668 253
3 253 1669 254
3 254 1670 255
3 255 1671 256
3 256 1672 257
3 257 1673 258
3 258 1674 259
3 259 1675 260
3 260 1676 261
3 261 1677 262
3 262 1678 263
3 263 1679 264
3 264 1680 265
3 265 1681 266
4 266 1682 1683 267
3 267 1684 268
3 268 1685 269
3 269 1686 270
3 270 1687 271
3 271 1688 272
3 272 1689 273
3 273 1690 274
3 274 1691 275
3 275 1692 276
3 276 1693 277
3 277 1694 278
3 278 1695 279
3 279 1696 280
3 280 1697 281
3 281 1698 282
3 282 1699 283
3 283 1700 284
3 284 1701 285
3 285 1702 286
3 286 1703 287
3 287 1704 288
3 288 1705 289
3 289 1706 290
4 290 1707 1708 291
3 291 1709 292
3 292 1710 293
3 293 1711 294
3 294 1712 295
3 295 1713 296
3 296 1714 297
3 297 1715 298
3 298 1716 299
3 299 1717 300
3 300 1718 301
3 301 1719 302
3 302 1720 303
3 303 1721 304
3 304 1722 305
3 305 1723 306
3 306 1724 307
3 307 1725 308
3 308 1726 309
4 309 1727 1728 310
3 310 1729 311
3 311 1730 312
3 312 1731 313
3 313 1732 314
3 314 1733 315
3 315 1734 316
3 316 1735 317
3 317 1736 318
3 318 1737 319
3 319 1738 320
3 320 1739 321
3 321 1740 322
3 322 1741 323
3 323 1742 324
3 324 1743 325
3 325 1744 326
3 326 1745 327
3 327 1746 328
3 328 1747 329
3 329 1748 330
3 330 1749 331
3 331 1750 332
3 332 1751 333
3 333 1752 334
3 334 1753 335
3 335 1754 336
3 336 1755 337
3 337 1756 338
3 338 1757 339
3 339 1758 340
4 340 1759 1760 341
3 341 1761 342
3 342 1762 343
3 343 1763 344
3 344 1764 345
3 345 1765 346
3 346 1766 347
3 347 1767 348
3 348 1768 349
3 349 1769 350
3 350 1770 351
3 351 1771 352
4 352 1772 1773 353
3 353 1774 354
3 354 1775 355
3 355 1776 356
3 356 1777 357
3 357 1778 358
3 358 1779 359
4 359 1780 1781 360
3 360 1782 361
3 361 1783 362
3 364 1784 365
3 364 1785 697
3 365 1786 366
3 366 1787 367
4 367 1788 1789 368
3 368 1790 369
3 369 1791 370
3 370 1792 371
3 371 1793 372
4 372 1794 1795 373
3 373 1796 374
3 374 1797 375
3 375 1798 376
3 376 1799 377
3 377 1800 378
3 378 1801 379
3 379 1802 380
4 380 1803 1804 381
3 381 1805 382
3 382 1806 383
3 383 1807 384
3 384 1808 385
3 385 1809 386
3 386 1810 387
3 387 1811 388
3 388 1812 389
3 389 1813 390
3 390 1814 391
3 391 1815 392
3 392 1816 393
3 393 1817 394
3 394 1818 395
3 395 1819 396
3 396 1820 397
3 397 1821 398
3 398 1822 399
3 399 1823 400
4 400 1824 1825 401
3 401 1826 402
3 402 1827 403
3 403 1828 404
3 404 1829 405
3 405 1830 406
3 406 1831 407
3 407 1832 408
3 408 1833 409
3 409 1834 410
3 410 1835 411
4 411 1836 1837 412
3 412 1838 413
3 413 1839 414
3 414 1840 415
3 415 1841 416
3 416 1842 417
3 417 1843 418
3 418 1844 419
3 419 1845 420
3 420 1846 421
3 421 1847 422
3 422 1848 423
4 423 1849 1850 424
4 424 1851 1852 425
3 425 1853 426
4 426 1854 1855 427
3 427 1856 428
3 428 1857 429
4 429 1858 1859 430
3 430 1860 431
3 431 1861 432
3 432 1862 433
3 433 1863 434
3 434 1864 435
3 435 1865 436
3 436 1866 437
4 437 1867 1868 438
3 438 1869 439
3 439 1870 440
3 440 1871 441
3 441 1872 442
3 442 1873 443
3 443 1874 444
3 444 1875 445
3 445 1876 446
3 446 1877 447
4 447 1878 1879 448
3 448 1880 449
3 449 1881 450
3 450 1882 451
3 451 1883 452
3 452 1884 453
3 453 1885 454
3 454 1886 455
4 455 1887 1888 456
3 456 1889 457
3 457 1890 458
3 458 1891 459
3 459 1892 460
3 460 1893 461
4 461 1894 1895 462
3 462 1896 463
3 463 1897 464
4 464 1898 1899 465
3 465 1900 466
3 466 1901 467
3 467 1902 468
3 468 1903 469
3 469 1904 470
3 470 1905 471
3 471 1906 472
3 472 1907 473
3 473 1908 474
3 474 1909 475
3 475 1910 476
4 476 1911 1912 477
3 477 1913 478
3 478 1914 479
3 479 1915 480
4 480 1916 1917 481
3 481 1918 482
3 482 1919 483
3 483 1920 484
3 484 1921 485
3 485 1922 486
3 486 1923 487
4 487 1924 1925 488
3 488 1926 489
3 489 1927 490
3 490 1928 491
3 491 1929 492
3 492 1930 493
3 493 1931 494
3 494 1932 495
3 495 1933 496
3 496 1934 497
4 497 1935 1936 498
3 498 1937 499
3 499 1938 500
3 500 1939 501
3 501 1940 502
3 502 1941 503
3 503 1942 504
3 504 1943 505
3 505 1944 506
3 506 1945 507
3 507 1946 508
3 508 1947 509
3 509 1948 510
3 510 1949 511
3 511 1950 512
3 512 1951 513
3 513 1952 514
3 514 1953 515
3 515 1954 516
3 516 1955 517
3 517 1956 518
3 518 1957 519
3 519 1958 520
3 520 1959 521
3 521 1960 522
3 522 1961 523
4 523 1962 1963 524
3 524 1964 525
3 525 1965 526
3 526 1966 527
3 527 1967 528
3 528 1968 529
4 529 1969 1970 530
3 530 1971 531
3 531 1972 1386
3 532 1973 533
3 532 1974 1387
3 533 1975 534
3 534 1976 535
3 535 1977 536
3 536 1978 537
3 537 1979 538
3 538 1980 539
3 539 1981 540
3 540 1982 541
3 541 1983 542
3 542 1984 543
3 543 1985 544
3 544 1986 545
3 545 1987 546
3 546 1988 547
3 547 1989 548
3 548 1990 549
3 549 1991 550
3 550 1992 551
3 551 1993 552
3 552 1994 553
3 553 1995 554
3 554 1996 555
3 555 1997 556
3 556 1998 557
3 557 1999 558
3 558 2000 559
3 559 2001 560
3 560 2002 561
3 561 2003 562
3 562 2004 563
3 563 2005 564
3 564 2006 565
3 565 2007 566
3 566 2008 567
3 567 2009 568
3 568 2010 569
3 569 2011 570
3 570 2012 571
3 571 2013 572
4 572 2014 2015 573
3 573 2016 574
3 574 2017 575
3 575 2018 576
3 576 2019 577
3 577 2020 578
3 578 2021 579
4 579 2022 2023 580
3 580 2024 581
3 581 2025 582
3 582 2026 583
3 583 2027 584
3 584 2028 585
3 585 2029 586
4 586 2030 2031 587
3 587 2032 588
3 588 2033 589
3 589 2034 590
3 590 2035 591
4 591 2036 2037 592
3 592 2038 593
3 593 2039 594
3 594 2040 595
3 595 2041 596
3 596 2042 597
3 597 2043 598
3 598 2044 599
5 599 2045 2046 2047 600
3 600 2048 601
3 601 2049 602
3 602 2050 603
3 603 2051 604
3 604 2052 605
3 605 2053 606
3 606 2054 607
3 607 2055 608
4 608 2056 2057 609
3 609 2058 610
3 610 2059 611
3 611 2060 612
3 612 2061 613
3 613 2062 614
3 614 2063 615
3 615 2064 616
3 616 2065 617
3 617 2066 618
3 618 2067 619
3 619 2068 620
4 620 2069 2070 621
3 621 2071 622
4 622 2072 2073 623
3 623 2074 624
3 624 2075 625
3 625 2076 626
3 626 2077 627
4 627 2078 2079 628
3 628 2080 629
3 629 2081 630
3 630 2082 631
3 631 2083 632
3 632 2084 633
5 633 2085 2086 2087 634
3 634 2088 635
3 635 2089 636
3 636 2090 637
3 637 2091 638
3 638 2092 639
3 639 2093 640
3 640 2094 641
3 641 2095 642
3 642 2096 643
4 643 2097 2098 644
3 644 2099 645
3 645 2100 646
3 646 2101 647
3 647 2102 648
3 648 2103 649
3 649 2104 650
3 650 2105 651
3 651 2106 652
3 652 2107 653
3 653 2108 654
3 654 2109 655
4 655 2110 2111 656
3 656 2112 657
3 657 2113 658
3 658 2114 659
3 659 2115 660
3 660 2116 661
3 661 2117 662
3 662 2118 663
4 663 2119 2120 664
3 664 2121 665
6 665 2122 2123 2124 2125 666
3 666 2126 667
4 667 2127 2128 668
4 668 2129 2130 669
4 669 2131 2132 670
3 670 2133 671
4 671 2134 2135 672
3 672 2136 673
3 673 2137 674
3 674 2138 675
3 675 2139 676
3 676 2140 677
3 677 2141 678
3 678 2142 679
3 679 2143 680
3 680 2144 681
3 681 2145 682
3 682 2146 683
3 683 2147 684
3 684 2148 685
3 685 2149 686
4 686 2150 2151 687
3 687 2152 688
3 688 2153 689
3 689 2154 690
3 690 2155 691
4 691 2156 2157 692
3 692 2158 693
3 693 2159 694
3 694 2160 695
3 695 2161 696
3 696 2162 697
4 698 2163 2164 699
4 698 2165 2166 1077
4 699 2167 2168 700
3 700 2169 701
3 701 2170 702
3 702 2171 703
3 703 2172 704
4 704 2173 2174 705
3 705 2175 706
3 706 2176 707
3 707 2177 708
4 708 2178 2179 709
3 709 2180 710
3 710 2181 711
3 711 2182 712
3 712 2183 713
3 713 2184 714
3 714 2185 715
3 715 2186 716
3 716 2187 717
3 717 2188 718
3 718 2189 719
3 719 2190 720
3 720 2191 721
3 721 2192 722
3 722 2193 723
3 723 2194 724
3 724 2195 725
3 725 2196 726
3 726 2197 727
3 727 2198 728
3 728 2199 729
3 729 2200 730
3 730 2201 731
3 731 2202 732
3 732 2203 733
3 733 2204 734
3 734 2205 735
3 735 2206 736
3 736 2207 737
3 737 2208 738
3 738 2209 739
3 739 2210 740
3 740 2211 741
3 741 2212 742
3 742 2213 743
3 743 2214 744
3 744 2215 745
3 745 2216 746
3 746 2217 747
3 747 2218 748
3 748 2219 749
3 749 2220 750
3 750 2221 751
3 751 2222 752
3 752 2223 753
3 753 2224 754
3 754 2225 755
3 755 2226 756
3 756 2227 757
3 757 2228 758
3 758 2229 759
3 759 2230 760
4 760 2231 2232 761
3 761 2233 762
3 762 2234 763
3 763 2235 764
3 764 2236 765
3 765 2237 766
3 766 2238 767
3 767 2239 768
3 768 2240 769
3 769 2241 770
3 770 2242 771
3 771 2243 772
3 772 2244 773
3 773 2245 774
3 774 2246 775
3 775 2247 776
3 776 2248 777
3 777 2249 778
3 778 2250 779
3 779 2251 780
3 780 2252 781
3 781 2253 782
3 782 2254 783
3 783 2255 784
3 784 2256 785
3 785 2257 786
3 786 2258 787
3 787 2259 788
3 788 2260 789
3 789 2261 790
3 790 2262 791
3 791 2263 792
3 792 2264 793
3 793 2265 794
4 794 2266 2267 795
3 795 2268 796
3 796 2269 797
3 797 2270 798
3 798 2271 799
3 799 2272 800
3 800 2273 801
3 801 2274 802
3 802 2275 803
3 803 2276 804
3 804 2277 805
3 805 2278 806
3 806 2279 807
3 807 2280 808
3 808 2281 809
3 809 2282 810
3 810 2283 811
3 811 2284 812
3 812 2285 813
3 813 2286 814
3 814 2287 815
3 815 2288 816
3 816 2289 817
3 817 2290 818
3 818 2291 819
3 819 2292 820
3 820 2293 821
3 821 2294 822
3 822 2295 823
3 823 2296 824
5 824 2297 2298 2299 825
3 825 2300 826
3 826 2301 827
3 827 2302 828
3 828 2303 829
3 829 2304 830
3 830 2305 831
3 831 2306 832
3 832 2307 833
3 833 2308 834
3 834 2309 835
3 835 2310 836
3 836 2311 837
3 837 2312 838
3 838 2313 839
3 839 2314 840
3 840 2315 841
3 841 2316 842
3 842 2317 843
3 843 2318 844
3 844 2319 845
3 845 2320 846
3 846 2321 847
3 847 2322 848
3 848 2323 849
3 849 2324 850
3 850 2325 851
3 851 2326 852
4 852 2327 2328 853
3 853 2329 854
3 854 2330 855
3 855 2331 856
3 856 2332 857
3 857 2333 858
4 858 2334 2335 859
3 859 2336 860
3 860 2337 861
3 861 2338 862
3 862 2339 863
3 863 2340 864
3 864 2341 865
3 865 2342 866
3 866 2343 867
3 867 2344 868
3 868 2345 869
3 869 2346 870
3 870 2347 871
3 871 2348 872
3 872 2349 873
3 873 2350 874
3 874 2351 875
3 875 2352 876
3 876 2353 877
4 877 2354 2355 878
3 878 2356 879
4 879 2357 2358 880
3 880 2359 881
3 881 2360 882
3 882 2361 883
3 883 2362 884
3 884 2363 885
3 885 2364 886
3 886 2365 887
3 887 2366 888
3 888 2367 889
3 889 2368 890
3 890 2369 891
3 891 2370 892
3 892 2371 893
3 893 2372 894
3 894 2373 895
3 895 2374 1388
3 896 2375 897
3 896 2376 1389
3 897 2377 898
3 898 2378 899
3 899 2379 900
3 900 2380 901
3 901 2381 902
4 902 2382 2383 903
3 903 2384 904
3 904 2385 905
3 905 2386 906
3 906 2387 907
4 907 2388 2389 908
3 908 2390 909
4 909 2391 2392 910
3 910 2393 911
5 911 2394 2395 2396 912
3 912 2397 913
3 913 2398 914
3 914 2399 915
3 915 2400 916
3 916 2401 917
4 917 2402 2403 918
3 918 2404 919
3 919 2405 920
4 920 2406 2407 921
3 921 2408 922
4 922 2409 2410 923
3 923 2411 924
3 924 2412 925
3 925 2413 926
3 926 2414 927
3 927 2415 928
3 928 2416 929
3 929 2417 930
3 930 2418 931
3 931 2419 932
3 932 2420 933
3 933 2421 934
3 934 2422 935
3 935 2423 936
3 936 2424 937
3 937 2425 938
3 938 2426 939
3 939 2427 940
3 940 2428 941
3 941 2429 942
3 942 2430 943
3 943 2431 944
3 944 2432 945
3 945 2433 946
3 946 2434 947
3 947 2435 948
3 948 2436 949
3 949 2437 950
3 950 2438 951
3 951 2439 952
3 952 2440 953
3 953 2441 954
3 954 2442 955
3 955 2443 956
3 956 2444 957
3 957 2445 958
3 958 2446 959
3 959 2447 960
3 960 2448 961
3 961 2449 962
3 962 2450 963
3 963 2451 964
3 964 2452 965
3 965 2453 966
3 966 2454 967
3 967 2455 968
3 968 2456 969
3 969 2457 970
3 970 2458 971
3 971 2459 972
3 972 2460 973
3 973 2461 974
3 974 2462 975
3 975 2463 976
3 976 2464 977
3 977 2465 978
3 978 2466 979
3 979 2467 980
3 980 2468 981
3 981 2469 982
4 982 2470 2471 983
3 983 2472 984
3 984 2473 985
3 985 2474 986
3 986 2475 987
3 987 2476 988
3 988 2477 989
3 989 2478 990
3 990 2479 991
3 991 2480 992
3 992 2481 993
3 993 2482 994
3 994 2483 995
3 995 2484 996
3 996 2485 997
3 997 2486 998
3 998 2487 999
3 999 2488 1000
3 1000 2489 1001
3 1001 2490 1002
3 1002 2491 1003
3 1003 2492 1004
3 1004 2493 1005
3 1005 2494 1006
3 1006 2495 1007
3 1007 2496 1008
3 1008 2497 1009
3 1009 2498 1010
3 1010 2499 1011
3 1011 2500 1012
3 1012 2501 1013
3 1013 2502 1014
3 1014 2503 1015
3 1015 2504 1016
3 1016 2505 1017
3 1017 2506 1018
3 1018 2507 1019
3 1019 2508 1020
3 1020 2509 1021
3 1021 2510 1022
3 1022 2511 1023
3 1023 2512 1024
3 1024 2513 1025
3 1025 2514 1026
3 1026 2515 1027
3 1027 2516 1028
3 1028 2517 1029
3 1029 2518 1030
3 1030 2519 1031
3 1031 2520 1032
3 1032 2521 1033
3 1033 2522 1034
3 1034 2523 1035
3 1035 2524 1036
3 1036 2525 1037
3 1037 2526 1038
3 1038 2527 1039
3 1039 2528 1040
3 1040 2529 1041
3 1041 2530 1042
3 1042 2531 1043
3 1043 2532 1044
3 1044 2533 1045
3 1045 2534 1046
3 1046 2535 1047
3 1047 2536 1048
3 1048 2537 1049
4 1049 2538 2539 1050
3 1050 2540 1051
3 1051 2541 1052
3 1052 2542 1053
3 1053 2543 1054
3 1054 2544 1055
4 1055 2545 2546 1056
3 1056 2547 1057
3 1057 2548 1058
3 1058 2549 1059
3 1059 2550 1060
3 1060 2551 1061
3 1061 2552 1062
3 1062 2553 1063
3 1063 2554 1064
3 1064 2555 1065
3 1065 2556 1066
3 1066 2557 1067
4 1067 2558 2559 1068
3 1068 2560 1069
4 1069 2561 2562 1070
4 1070 2563 2564 1071
3 1071 2565 1072
3 1072 2566 1073
3 1073 2567 1074
3 1074 2568 1075
3 1075 2569 1076
4 1076 2570 2571 1077
3 1079 2572 1080
3 1079 2573 1383
3 1080 2574 1081
4 1081 2575 2576 1082
5 1082 2577 2578 2579 1083
4 1083 2580 2581 1084
4 1084 2582 2583 1085
3 1085 2584 1086
3 1086 2585 1087
4 1087 2586 2587 1088
3 1088 2588 1089
4 1089 2589 2590 1090
3 1090 2591 1091
3 1091 2592 1092
3 1092 2593 1093
3 1093 2594 1094
3 1094 2595 1095
3 1095 2596 1096
3 1096 2597 1097
3 1097 2598 1098
3 1098 2599 1099
3 1099 2600 1100
3 1100 2601 1101
3 1101 2602 1102
3 1102 2603 1103
3 1103 2604 1104
3 1104 2605 1105
3 1105 2606 1106
3 1106 2607 1107
3 1107 2608 1108
3 1108 2609 1109
3 1109 2610 1110
3 1110 2611 1111
3 1111 2612 1112
3 1112 2613 1113
3 1113 2614 1114
3 1114 2615 1115
3 1115 2616 1116
3 1116 2617 1117
3 1117 2618 1118
3 1118 2619 1119
3 1119 2620 1120
3 1120 2621 1121
3 1121 2622 1122
3 1122 2623 1123
3 1123 2624 1124
3 1124 2625 1125
3 1125 2626 1126
3 1126 2627 1127
4 1127 2628 2629 1128
3 1128 2630 1129
3 1129 2631 1130
3 1130 2632 1131
6 1131 2633 2634 2635 2636 1132
3 1132 2637 1133
3 1133 2638 1134
3 1134 2639 1135
3 1135 2640 1136
3 1136 2641 1137
3 1137 2642 1138
3 1138 2643 1139
3 1139 2644 1140
3 1140 2645 1141
3 1141 2646 1142
3 1142 2647 1143
3 1143 2648 1144
3 1144 2649 1145
3 1145 2650 1146
3 1146 2651 1147
3 1147 2652 1148
3 1148 2653 1149
3 1149 2654 1150
3 1150 2655 1151
3 1151 2656 1152
3 1152 2657 1153
3 1153 2658 1154
3 1154 2659 1155
3 1155 2660 1156
3 1156 2661 1157
5 1157 2662 2663 2664 1158
3 1158 2665 1159
4 1159 2666 2667 1160
3 1160 2668 1161
3 1161 2669 1162
3 1162 2670 1163
3 1163 2671 1164
3 1164 2672 1165
3 1165 2673 1166
3 1166 2674 1167
3 1167 2675 1168
4 1168 2676 2677 1169
3 1169 2678 1170
3 1170 2679 1171
3 1171 2680 1172
4 1172 2681 2682 1173
3 1173 2683 1174
3 1174 2684 1175
3 1175 2685 1176
3 1176 2686 1177
4 1177 2687 2688 1178
3 1178 2689 1179
3 1179 2690 1180
3 1180 2691 1181
3 1181 2692 1182
3 1182 2693 1183
3 1183 2694 1184
3 1184 2695 1185
3 1185 2696 1186
3 1186 2697 1187
4 1187 2698 2699 1188
3 1188 2700 1189
3 1189 2701 1190
3 1190 2702 1191
3 1191 2703 1192
3 1192 2704 1193
4 1193 2705 2706 1194
3 1194 2707 1195
3 1195 2708 1196
3 1196 2709 1197
3 1197 2710 1198
3 1198 2711 1199
3 1199 2712 1200
3 1200 2713 1201
3 1201 2714 1202
3 1202 2715 1203
3 1203 2716 1204
4 1204 2717 2718 1205
3 1205 2719 1206
3 1206 2720 1207
3 1207 2721 1208
3 1208 2722 1209
3 1209 2723 1210
3 1210 2724 1211
4 1211 2725 2726 1212
3 1212 2727 1213
3 1213 2728 1214
3 1214 2729 1215
3 1215 2730 1216
3 1216 2731 1217
3 1217 2732 1218
3 1218 2733 1219
3 1219 2734 1220
3 1220 2735 1221
3 1221 2736 1222
3 1222 2737 1223
3 1223 2738 1224
3 1224 2739 1225
3 1225 2740 1226
4 1226 2741 2742 1227
3 1227 2743 1228
3 1228 2744 1229
3 1229 2745 1390
3 1230 2746 1231
3 1230 2747 1391
3 1231 2748 1232
3 1232 2749 1233
4 1233 2750 2751 1234
3 1234 2752 1235
3 1235 2753 1236
3 1236 2754 1237
3 1237 2755 1238
3 1238 2756 1239
3 1239 2757 1240
3 1240 2758 1241
3 1241 2759 1242
3 1242 2760 1243
3 1243 2761 1244
3 1244 2762 1245
3 1245 2763 1246
3 1246 2764 1247
4 1247 2765 2766 1248
3 1248 2767 1249
3 1249 2768 1250
3 1250 2769 1251
5 1251 2770 2771 2772 1252
3 1252 2773 1253
4 1253 2774 2775 1254
3 1254 2776 1255
4 1255 2777 2778 1256
3 1256 2779 1257
3 1257 2780 1258
3 1258 2781 1259
3 1259 2782 1260
3 1260 2783 1261
4 1261 2784 2785 1262
3 1262 2786 1263
4 1263 2787 2788 1264
3 1264 2789 1265
4 1265 2790 2791 1266
3 1266 2792 1267
4 1267 2793 2794 1268
3 1268 2795 1269
3 1269 2796 1270
3 1270 2797 1271
3 1271 2798 1272
3 1272 2799 1273
3 1273 2800 1274
3 1274 2801 1275
3 1275 2802 1276
3 1276 2803 1277
3 1277 2804 1278
3 1278 2805 1279
3 1279 2806 1280
3 1280 2807 1281
3 1281 2808 1282
3 1282 2809 1283
3 1283 2810 1284
3 1284 2811 1285
3 1285 2812 1286
3 1286 2813 1287
3 1287 2814 1288
3 1288 2815 1289
3 1289 2816 1290
3 1290 2817 1291
3 1291 2818 1292
3 1292 2819 1293
3 1293 2820 1294
3 1294 2821 1295
3 1295 2822 1296
3 1296 2823 1297
3 1297 2824 1298
3 1298 2825 1299
3 1299 2826 1300
5 1300 2827 2828 2829 1301
3 1301 2830 1302
4 1302 2831 2832 1303
3 1303 2833 1304
4 1304 2834 2835 1305
3 1305 2836 1306
3 1306 2837 1307
3 1307 2838 1308
3 1308 2839 1309
3 1309 2840 1310
3 1310 2841 1311
4 1311 2842 2843 1312
5 1312 2844 2845 2846 1313
3 1313 2847 1314
5 1314 2848 2849 2850 1315
3 1315 2851 1316
4 1316 2852 2853 1317
3 1317 2854 1318
3 1318 2855 1319
3 1319 2856 1320
3 1320 2857 1321
3 1321 2858 1322
3 1322 2859 1323
3 1323 2860 1324
3 1324 2861 1325
4 1325 2862 2863 1326
3 1326 2864 1327
3 1327 2865 1328
3 1328 2866 1329
3 1329 2867 1330
3 1330 2868 1331
3 1331 2869 1332
3 1332 2870 1333
3 1333 2871 1334
3 1334 2872 1335
3 1335 2873 1336
3 1336 2874 1337
3 1337 2875 1338
3 1338 2876 1339
3 1339 2877 1340
3 1340 2878 1341
3 1341 2879 1342
3 1342 2880 1343
3 1343 2881 1344
3 1344 2882 1345
3 1345 2883 1346
3 1346 2884 1347
3 1347 2885 1348
3 1348 2886 1349
3 1349 2887 1350
3 1350 2888 1351
6 1351 2889 2890 2891 2892 1352
3 1352 2893 1353
3 1353 2894 1354
3 1354 2895 1355
3 1355 2896 1356
3 1356 2897 1357
3 1357 2898 1358
3 1358 2899 1359
3 1359 2900 1360
3 1360 2901 1361
3 1361 2902 1362
3 1362 2903 1363
3 1363 2904 1364
3 1364 2905 1365
3 1365 2906 1366
3 1366 2907 1367
3 1367 2908 1368
3 1368 2909 1369
3 1369 2910 1370
3 1370 2911 1371
3 1371 2912 1372
3 1372 2913 1373
3 1373 2914 1374
5 1374 2915 2916 2917 1375
3 1375 2918 1376
3 1376 2919 1377
3 1377 2920 1378
3 1378 2921 1379
4 1379 2922 2923 1380
3 1380 2924 1381
3 1381 2925 1382
3 1382 2926 1383

CELL_TYPES 1380
4
4
4
4
4
4
4
4
4
4
4
4
4
4
4
4
4
4
4
4
4
4
4
4
4
4
4
4
4
4
4
4
4
4
4
4
4
4
4
4
4
4
4
4
4
4
4
4
4
4
4
4
4
4
4
4
4
4
4
4
4
4
4
4
4
4
4
4
4
4
4
4
4
4
4
4
4
4
4
4
4
4
4
4
4
4
4
4
4
4
4
4
4
4
4
4
4
4
4
4
4
4
4
4
4
4
4
4
4
4
4
4
4
4
4
4
4
4
4
4
4
4
4
4
4
4
4
4
4
4
4
4
4
4
4
4
4
4
4
4
4
4
4
4
4
4
4
4
4
4
4
4
4
4
4
4
4
4
4
4
4
4
4
4
4
4
4
4
4
4
4
4
4
4
4
4
4
4
4
4
4
4
4
4
4
4
4
4
4
4
4
4
4
4
4
4
4
4
4
4
4
4
4
4
4
4
4
4
4
4
4
4
4
4
4
4
4
4
4
4
4
4
4
4
4
4
4
4
4
4
4
4
4
4
4
4
4
4
4
4
4
4
4
4
4
4
4
4
4
4
4
4
4
4
4
4
4
4
4
4
4
4
4
4
4
4
4
4
4
4
4
4
4
4
4
4
4
4
4
4
4
4
4
4
4
4
4
4
4
4
4
4
4
4
4
4
4
4
4
4
4
4
4
4
4
4
4
4
4
4
4
4
4
4
4
4
4
4
4
4
4
4
4
4
4
4
4
4
4
4
4
4
4
4
4
4
4
4
4
4
4
4
4
4
4
4
4
4
4
4
4
4
4
4
4
4
4
4
4
4
4
4
4
4
4
4
4
4
4
4
4
4
4
4
4
4
4
4
4
4
4
4
4
4
4
4
4
4
4
4
4
4
4
4
4
4
4
4
4
4
4
4
4
4
4
4
4
4
4
4
4
4
4
4
4
4
4
4
4
4
4
4
4
4
4
4
4
4
4
4
4
4
4
4
4
4
4
4
4
4
4
4
4
4
4
4
4
4
4
4
4
4
4
4
4
4
4
4
4
4
4
4
4
4
4
4
4
4
4
4
4
4
4
4
4
4
4
4
4
4
4
4
4
4
4
4
4
4
4
4
4
4
4
4
4
4
4
4
4
4
4
4
4
4
4
4
4
4
4
4
4
4
4
4
4
4
4
4
4
4
4
4
4
4
4
4
4
4
4
4
4
4
4
4
4
4
4
4
4
4
4
4
4
4
4
4
4
4
4
4
4
4
4
4
4
4
4
4
4
4
4
4
4
4
4
4
4
4
4
4
4
4
4
4
4
4
4
4
4
4
4
4
4
4
4
4
4
4
4
4
4
4
4
4
4
4
4
4
4
4
4
4
4
4
4
4
4
4
4
4
4
4
4
4
4
4
4
4
4
4
4
4
4
4
4
4
4
4
4
4
4
4
4
4
4
4
4
4
4
4
4
4
4
4
4
4
4
4
4
4
4
4
4
4
4
4
4
4
4
4
4
4
4
4
4
4
4
4
4
4
4
4
4
4
4
4
4
4
4
4
4
4
4
4
4
4
4
4
4
4
4
4
4
4
4
4
4
4
4
4
4
4
4
4
4
4
4
4
4
4
4
4
4
4
4
4
4
4
4
4
4
4
4
4
4
4
4
4
4
4
4
4
4
4
4
4
4
4
4
4
4
4
4
4
4
4
4
4
4
4
4
4
4
4
4
4
4
4
4
4
4
4
4
4
4
4
4
4
4
4
4
4
4
4
4
4
4
4
4
4
4
4
4
4
4
4
4
4
4
4
4
4
4
4
4
4
4
4
4
4
4
4
4
4
4
4
4
4
4
4
4
4
4
4
4
4
4
4
4
4
4
4
4
4
4
4
4
4
4
4
4
4
4
4
4
4
4
4
4
4
4
4
4
4
4
4
4
4
4
4
4
4
4
4
4
4
4
4
4
4
4
4
4
4
4
4
4
4
4
4
4
4
4
4
4
4
4
4
4
4
4
4
4
4
4
4
4
4
4
4
4
4
4
4
4
4
4
4
4
4
4
4
4
4
4
4
4
4
4
4
4
4
4
4
4
4
4
4
4
4
4
4
4
4
4
4
4
4
4
4
4
4
4
4
4
4
4
4
4
4
4
4
4
4
4
4
4
4
4
4
4
4
4
4
4
4
4
4
4
4
4
4
4
4
4
4
4
4
4
4
4
4
4
4
4
4
4
4
4
4
4
4
4
4
4
4
4
4
4
4
4
4
4
4
4
4
4
4
4
4
4
4
4
4
4
4
4
4
4
4
4
4
4
4
4
4
4
4
4
4
4
4
4
4
4
4
4
4
4
4
4
4
4
4
4
4
4
4
4
4
4
4
4
4
4
4
4
4
4
4
4
4
4
4
4
4
4
4
4
4
4
4
4
4
4
4
4
4
4
4
4
4
4
4
4
4
4
4
4
4
4
4
4
4
4
4
4
4
4
4
4
4
4
4
4
4
4
4
4
4
4
4
4
4
4
4
4
4
4
4
4
4
4
4
4
4
4
4
4
4
4
4
4
4
4
4
4
4
4
4
4
4
4
4
4
4
4
4
4
4
4
4
4
4
4
4
4
4
4
4
4
4
4
4
4
4
4
4
4
4
4
4
4
4
4
4
4
4
4
4
4
4
4
4
4
4
4
4
4
4
4
4
4
4
4
4
4
4
4
4
4
4
4
4
4
4
4
4
4
4
4
4
4
4
4
4
4
4
4
4
4
4
4
4
4
4
4
4
4
4
4
4
4
4
4
4
4
4
4
4
4
4
4
4
4
4
4
4
4
4
4
4
4
4
4
4
4
4
4
4
4
4
4
4
4
4
4
4
4
4
4
4
4
4
4
4
4
4
4
4
4
4
4
4
4
4
4
4
4
4
4
4
4
4
4
4
4
4
4
4
4
4
4
4
4
4
4
4
4
4
4
4
4
4
4
4
4
4
4
4
4
4
4
4
4
4
4
4
4
4
4
4
4
4
4
4
4
4
4
4
4
4
4
4
4
4
4
4
4
4
4
4
4
4
4
4
4
4
4
4
4
4
4
4
4
4
4
4
4
4
4
4
4
4
4
4
4
4
4
4
4
4
4
4
4
4
4
4
4
4

POINT_DATA 2927
VECTORS PK_force double
0.000000000000000e+00 0.000000000000000e+00 0.000000000000000e+00
0.000000000000000e+00 0.000000000000000e+00 0.000000000000000e+00
0.000000000000000e+00 0.000000000000000e+00 0.000000000000000e+00
0.000000000000000e+00 0.000000000000000e+00 0.000000000000000e+00
0.000000000000000e+00 0.000000000000000e+00 0.000000000000000e+00
0.000000000000000e+00 0.000000000000000e+00 0.000000000000000e+00
0.000000000000000e+00 0.000000000000000e+00 0.000000000000000e+00
0.000000000000000e+00 0.000000000000000e+00 0.000000000000000e+00
0.000000000000000e+00 0.000000000000000e+00 0.000000000000000e+00
0.000000000000000e+00 0.000000000000000e+00 0.000000000000000e+00
0.000000000000000e+00 0.000000000000000e+00 0.000000000000000e+00
0.000000000000000e+00 0.000000000000000e+00 0.000000000000000e+00
0.000000000000000e+00 0.000000000000000e+00 0.000000000000000e+00
0.000000000000000e+00 0.000000000000000e+00 0.000000000000000e+00
0.000000000000000e+00 0.000000000000000e+00 0.000000000000000e+00
0.000000000000000e+00 0.000000000000000e+00 0.000000000000000e+00
0.000000000000000e+00 0.000000000000000e+00 0.000000000000000e+00
0.000000000000000e+00 0.000000000000000e+00 0.000000000000000e+00
0.000000000000000e+00 0.000000000000000e+00 0.000000000000000e+00
0.000000000000000e+00 0.000000000000000e+00 0.000000000000000e+00
0.000000000000000e+00 0.000000000000000e+00 0.000000000000000e+00
0.000000000000000e+00 0.000000000000000e+00 0.000000000000000e+00
0.000000000000000e+00 0.000000000000000e+00 0.000000000000000e+00
0.000000000000000e+00 0.000000000000000e+00 0.000000000000000e+00
0.000000000000000e+00 0.000000000000000e+00 0.000000000000000e+00
0.000000000000000e+00 0.000000000000000e+00 0.000000000000000e+00
0.000000000000000e+00 0.000000000000000e+00 0.000000000000000e+00
0.000000000000000e+00 0.000000000000000e+00 0.000000000000000e+00
0.000000000000000e+00 0.000000000000000e+00 0.000000000000000e+00
0.000000000000000e+00 0.000000000000000e+00 0.000000000000000e+00
0.000000000000000e+00 0.000000000000000e+00 0.000000000000000e+00
0.000000000000000e+00 0.000000000000000e+00 0.000000000000000e+00
0.000000000000000e+00 0.000000000000000e+00 0.000000000000000e+00
0.000000000000000e+00 0.000000000000000e+00 0.000000000000000e+00
0.000000000000000e+00 0.000000000000000e+00 0.000000000000000e+00
0.000000000000000e+00 0.000000000000000e+00 0.000000000000000e+00
0.000000000000000e+00 0.000000000000000e+00 0.000000000000000e+00
0.000000000000000e+00 0.000000000000000e+00 0.000000000000000e+00
0.000000000000000e+00 0.000000000000000e+00 0.000000000000000e+00
0.000000000000000e+00 0.000000000000000e+00 0.000000000000000e+00
0.000000000000000e+00 0.000000000000000e+00 0.000000000000000e+00
0.000000000000000e+00 0.000000000000000e+00 0.000000000000000e+00
0.000000000000000e+00 0.000000000000000e+00 0.000000000000000e+00
0.000000000000000e+00 0.000000000000000e+00 0.000000000000000e+00
0.000000000000000e+00 0.000000000000000e+00 0.000000000000000e+00
0.000000000000000e+00 0.000000000000000e+00 0.000000000000000e+00
0.000000000000000e+00 0.000000000000000e+00 0.000000000000000e+00
0.000000000000000e+00 0.000000000000000e+00 0.000000000000000e+00
0.000000000000000e+00 0.000000000000000e+00 0.000000000000000e+00
0.000000000000000e+00 0.000000000000000e+00 0.000000000000000e+00
0.000000000000000e+00 0.000000000000000e+00 0.000000000000000e+00
0.000000000000000e+00 0.000000000000000e+00 0.000000000000000e+00
0.000000000000000e+00 0.000000000000000e+00 0.000000000000000e+00
0.000000000000000e+00 0.000000000000000e+00 0.000000000000000e+00
0.000000000000000e+00 0.000000000000000e+00 0.000000000000000e+00
0.000000000000000e+00 0.000000000000000e+00 0.000000000000000e+00
0.000000000000000e+00 0.000000000000000e+00 0.000000000000000e+00
0.000000000000000e+00 0.000000000000000e+00 0.000000000000000e+00
0.000000000000000e+00 0.000000000000000e+00 0.000000000000000e+00
0.000000000000000e+00 0.000000000000000e+00 0.000000000000000e+00
0.000000000000000e+00 0.000000000000000e+00 0.000000000000000e+00
0.000000000000000e+00 0.000000000000000e+00 0.000000000000000e+00
0.000000000000000e+00 0.000000000000000e+00 0.000000000000000e+00
0.000000000000000e+00 0.000000000000000e+00 0.000000000000000e+00
0.000000000000000e+00 0.000000000000000e+00 0.000000000000000e+00
0.000000000000000e+00 0.000000000000000e+00 0.000000000000000e+00
0.000000000000000e+00 0.000000000000000e+00 0.000000000000000e+00
0.000000000000000e+00 0.000000000000000e+00 0.000000000000000e+00
0.000000000000000e+00 0.000000000000000e+00 0.000000000000000e+00
0.000000000000000e+00 0.000000000000000e+00 0.000000000000000e+00
0.000000000000000e+00 0.000000000000000e+00 0.000000000000000e+00
0.000000000000000e+00 0.000000000000000e+00 0.000000000000000e+00
0.000000000000000e+00 0.000000000000000e+00 0.000000000000000e+00
0.000000000000000e+00 0.000000000000000e+00 0.000000000000000e+00
0.000000000000000e+00 0.000000000000000e+00 0.000000000000000e+00
0.000000000000000e+00 0.000000000000000e+00 0.000000000000000e+00
0.000000000000000e+00 0.000000000000000e+00 0.000000000000000e+00
0.000000000000000e+00 0.000000000000000e+00 0.000000000000000e+00
0.000000000000000e+00 0.000000000000000e+00 0.000000000000000e+00
0.000000000000000e+00 0.000000000000000e+00 0.000000000000000e+00
0.000000000000000e+00 0.000000000000000e+00 0.000000000000000e+00
0.000000000000000e+00 0.000000000000000e+00 0.000000000000000e+00
0.000000000000000e+00 0.000000000000000e+00 0.000000000000000e+00
0.000000000000000e+00 0.000000000000000e+00 0.000000000000000e+00
0.000000000000000e+00 0.000000000000000e+00 0.000000000000000e+00
0.000000000000000e+00 0.000000000000000e+00 0.000000000000000e+00
0.000000000000000e+00 0.000000000000000e+00 0.000000000000000e+00
0.000000000000000e+00 0.000000000000000e+00 0.000000000000000e+00
0.000000000000000e+00 0.000000000000000e+00 0.000000000000000e+00
0.000000000000000e+00 0.000000000000000e+00 0.000000000000000e+00
0.000000000000000e+00 0.000000000000000e+00 0.000000000000000e+00
0.000000000000000e+00 0.000000000000000e+00 0.000000000000000e+00
0.000000000000000e+00 0.000000000000000e+00 0.000000000000000e+00
0.000000000000000e+00 0.000000000000000e+00 0.000000000000000e+00
0.000000000000000e+00 0.000000000000000e+00 0.000000000000000e+00
0.000000000000000e+00 0.000000000000000e+00 0.000000000000000e+00
0.000000000000000e+00 0.000000000000000e+00 0.000000000000000e+00
0.000000000000000e+00 0.000000000000000e+00 0.000000000000000e+00
0.000000000000000e+00 0.000000000000000e+00 0.000000000000000e+00
0.000000000000000e+00 0.000000000000000e+00 0.000000000000000e+00
0.000000000000000e+00 0.000000000000000e+00 0.000000000000000e+00
0.000000000000000e+00 0.000000000000000e+00 0.000000000000000e+00
0.000000000000000e+00 0.000000000000000e+00 0.000000000000000e+00
0.000000000000000e+00 0.000000000000000e+00 0.000000000000000e+00
0.000000000000000e+00 0.000000000000000e+00 0.000000000000000e+00
0.000000000000000e+00 0.000000000000000e+00 0.000000000000000e+00
0.000000000000000e+00 0.000000000000000e+00 0.000000000000000e+00
0.000000000000000e+00 0.000000000000000e+00 0.000000000000000e+00
0.000000000000000e+00 0.000000000000000e+00 0.000000000000000e+00
0.000000000000000e+00 0.000000000000000e+00 0.000000000000000e+00
0.000000000000000e+00 0.000000000000000e+00 0.000000000000000e+00
0.000000000000000e+00 0.000000000000000e+00 0.000000000000000e+00
0.000000000000000e+00 0.000000000000000e+00 0.000000000000000e+00
0.000000000000000e+00 0.000000000000000e+00 0.000000000000000e+00
0.000000000000000e+00 0.000000000000000e+00 0.000000000000000e+00
0.000000000000000e+00 0.000000000000000e+00 0.000000000000000e+00
0.000000000000000e+00 0.000000000000000e+00 0.000000000000000e+00
0.000000000000000e+00 0.000000000000000e+00 0.000000000000000e+00
0.000000000000000e+00 0.000000000000000e+00 0.000000000000000e+00
0.000000000000000e+00 0.000000000000000e+00 0.000000000000000e+00
0.000000000000000e+00 0.000000000000000e+00 0.000000000000000e+00
0.000000000000000e+00 0.000000000000000e+00 0.000000000000000e+00
0.000000000000000e+00 0.000000000000000e+00 0.000000000000000e+00
0.000000000000000e+00 0.000000000000000e+00 0.000000000000000e+00
0.000000000000000e+00 0.000000000000000e+00 0.000000000000000e+00
0.000000000000000e+00 0.000000000000000e+00 0.000000000000000e+00
0.000000000000000e+00 0.000000000000000e+00 0.000000000000000e+00
0.000000000000000e+00 0.000000000000000e+00 0.000000000000000e+00
0.000000000000000e+00 0.000000000000000e+00 0.000000000000000e+00
0.000000000000000e+00 0.000000000000000e+00 0.000000000000000e+00
0.000000000000000e+00 0.000000000000000e+00 0.000000000000000e+00
0.000000000000000e+00 0.000000000000000e+00 0.000000000000000e+00
0.000000000000000e+00 0.000000000000000e+00 0.000000000000000e+00
0.000000000000000e+00 0.000000000000000e+00 0.000000000000000e+00
0.000000000000000e+00 0.000000000000000e+00 0.000000000000000e+00
0.000000000000000e+00 0.000000000000000e+00 0.000000000000000e+00
0.000000000000000e+00 0.000000000000000e+00 0.000000000000000e+00
0.000000000000000e+00 0.000000000000000e+00 0.000000000000000e+00
0.000000000000000e+00 0.000000000000000e+00 0.000000000000000e+00
0.000000000000000e+00 0.000000000000000e+00 0.000000000000000e+00
0.000000000000000e+00 0.000000000000000e+00 0.000000000000000e+00
0.000000000000000e+00 0.000000000000000e+00 0.000000000000000e+00
0.000000000000000e+00 0.000000000000000e+00 0.000000000000000e+00
0.000000000000000e+00 0.000000000000000e+00 0.000000000000000e+00
0.000000000000000e+00 0.000000000000000e+00 0.000000000000000e+00
0.000000000000000e+00 0.000000000000000e+00 0.000000000000000e+00
0.000000000000000e+00 0.000000000000000e+00 0.000000000000000e+00
0.000000000000000e+00 0.000000000000000e+00 0.000000000000000e+00
0.000000000000000e+00 0.000000000000000e+00 0.000000000000000e+00
0.000000000000000e+00 0.000000000000000e+00 0.000000000000000e+00
0.000000000000000e+00 0.000000000000000e+00 0.000000000000000e+00
0.000000000000000e+00 0.000000000000000e+00 0.000000000000000e+00
0.000000000000000e+00 0.000000000000000e+00 0.000000000000000e+00
0.000000000000000e+00 0.000000000000000e+00 0.000000000000000e+00
0.000000000000000e+00 0.000000000000000e+00 0.000000000000000e+00
0.000000000000000e+00 0.000000000000000e+00 0.000000000000000e+00
0.000000000000000e+00 0.000000000000000e+00 0.000000000000000e+00
0.000000000000000e+00 0.000000000000000e+00 0.000000000000000e+00
0.000000000000000e+00 0.000000000000000e+00 0.000000000000000e+00
0.000000000000000e+00 0.000000000000000e+00 0.000000000000000e+00
0.000000000000000e+00 0.000000000000000e+00 0.000000000000000e+00
0.000000000000000e+00 0.000000000000000e+00 0.000000000000000e+00
0.000000000000000e+00 0.000000000000000e+00 0.000000000000000e+00
0.000000000000000e+00 0.000000000000000e+00 0.000000000000000e+00
0.000000000000000e+00 0.000000000000000e+00 0.000000000000000e+00
0.000000000000000e+00 0.000000000000000e+00 0.000000000000000e+00
0.000000000000000e+00 0.000000000000000e+00 0.000000000000000e+00
0.000000000000000e+00 0.000000000000000e+00 0.000000000000000e+00
0.000000000000000e+00 0.000000000000000e+00 0.000000000000000e+00
0.000000000000000e+00 0.000000000000000e+00 0.000000000000000e+00
0.000000000000000e+00 0.000000000000000e+00 0.000000000000000e+00
0.000000000000000e+00 0.000000000000000e+00 0.000000000000000e+00
0.000000000000000e+00 0.000000000000000e+00 0.000000000000000e+00
0.000000000000000e+00 0.000000000000000e+00 0.000000000000000e+00
0.000000000000000e+00 0.000000000000000e+00 0.000000000000000e+00
0.000000000000000e+00 0.000000000000000e+00 0.000000000000000e+00
0.000000000000000e+00 0.000000000000000e+00 0.000000000000000e+00
0.000000000000000e+00 0.000000000000000e+00 0.000000000000000e+00
0.000000000000000e+00 0.000000000000000e+00 0.000000000000000e+00
0.000000000000000e+00 0.000000000000000e+00 0.000000000000000e+00
0.000000000000000e+00 0.000000000000000e+00 0.000000000000000e+00
0.000000000000000e+00 0.000000000000000e+00 0.000000000000000e+00
0.000000000000000e+00 0.000000000000000e+00 0.000000000000000e+00
0.000000000000000e+00 0.000000000000000e+00 0.000000000000000e+00
0.000000000000000e+00 0.000000000000000e+00 0.000000000000000e+00
0.000000000000000e+00 0.000000000000000e+00 0.000000000000000e+00
0.000000000000000e+00 0.000000000000000e+00 0.000000000000000e+00
0.000000000000000e+00 0.000000000000000e+00 0.000000000000000e+00
0.000000000000000e+00 0.000000000000000e+00 0.000000000000000e+00
0.000000000000000e+00 0.000000000000000e+00 0.000000000000000e+00
0.000000000000000e+00 0.000000000000000e+00 0.000000000000000e+00
0.000000000000000e+00 0.000000000000000e+00 0.000000000000000e+00
0.000000000000000e+00 0.000000000000000e+00 0.000000000000000e+00
0.000000000000000e+00 0.000000000000000e+00 0.000000000000000e+00
0.000000000000000e+00 0.000000000000000e+00 0.000000000000000e+00
0.000000000000000e+00 0.000000000000000e+00 0.000000000000000e+00
0.000000000000000e+00 0.000000000000000e+00 0.000000000000000e+00
0.000000000000000e+00 0.000000000000000e+00 0.000000000000000e+00
0.000000000000000e+00 0.000000000000000e+00 0.000000000000000e+00
0.000000000000000e+00 0.000000000000000e+00 0.000000000000000e+00
0.000000000000000e+00 0.000000000000000e+00 0.000000000000000e+00
0.000000000000000e+00 0.000000000000000e+00 0.000000000000000e+00
0.000000000000000e+00 0.000000000000000e+00 0.000000000000000e+00
0.000000000000000e+00 0.000000000000000e+00 0.000000000000000e+00
0.000000000000000e+00 0.000000000000000e+00 0.000000000000000e+00
0.000000000000000e+00 0.000000000000000e+00 0.000000000000000e+00
0.000000000000000e+00 0.000000000000000e+00 0.000000000000000e+00
0.000000000000000e+00 0.000000000000000e+00 0.000000000000000e+00
0.000000000000000e+00 0.000000000000000e+00 0.000000000000000e+00
0.000000000000000e+00 0.000000000000000e+00 0.000000000000000e+00
0.000000000000000e+00 0.000000000000000e+00 0.000000000000000e+00
0.000000000000000e+00 0.000000000000000e+00 0.000000000000000e+00
0.000000000000000e+00 0.000000000000000e+00 0.000000000000000e+00
0.000000000000000e+00 0.000000000000000e+00 0.000000000000000e+00
0.000000000000000e+00 0.000000000000000e+00 0.000000000000000e+00
0.000000000000000e+00 0.000000000000000e+00 0.000000000000000e+00
0.000000000000000e+00 0.000000000000000e+00 0.000000000000000e+00
0.000000000000000e+00 0.000000000000000e+00 0.000000000000000e+00
0.000000000000000e+00 0.000000000000000e+00 0.000000000000000e+00
0.000000000000000e+00 0.000000000000000e+00 0.000000000000000e+00
0.000000000000000e+00 0.000000000000000e+00 0.000000000000000e+00
0.000000000000000e+00 0.000000000000000e+00 0.000000000000000e+00
0.000000000000000e+00 0.000000000000000e+00 0.000000000000000e+00
0.000000000000000e+00 0.000000000000000e+00 0.000000000000000e+00
0.000000000000000e+00 0.000000000000000e+00 0.000000000000000e+00
0.000000000000000e+00 0.000000000000000e+00 0.000000000000000e+00
0.000000000000000e+00 0.000000000000000e+00 0.000000000000000e+00
0.000000000000000e+00 0.000000000000000e+00 0.000000000000000e+00
0.000000000000000e+00 0.000000000000000e+00 0.000000000000000e+00
0.000000000000000e+00 0.000000000000000e+00 0.000000000000000e+00
0.000000000000000e+00 0.000000000000000e+00 0.000000000000000e+00
0.000000000000000e+00 0.000000000000000e+00 0.000000000000000e+00
0.000000000000000e+00 0.000000000000000e+00 0.000000000000000e+00
0.000000000000000e+00 0.000000000000000e+00 0.000000000000000e+00
0.000000000000000e+00 0.000000000000000e+00 0.000000000000000e+00
0.000000000000000e+00 0.000000000000000e+00 0.000000000000000e+00
0.000000000000000e+00 0.000000000000000e+00 0.000000000000000e+00
0.000000000000000e+00 0.000000000000000e+00 0.000000000000000e+00
0.000000000000000e+00 0.000000000000000e+00 0.000000000000000e+00
0.000000000000000e+00 0.000000000000000e+00 0.000000000000000e+00
0.000000000000000e+00 0.000000000000000e+00 0.000000000000000e+00
0.000000000000000e+00 0.000000000000000e+00 0.000000000000000e+00
0.000000000000000e+00 0.000000000000000e+00 0.000000000000000e+00
0.000000000000000e+00 0.000000000000000e+00 0.000000000000000e+00
0.000000000000000e+00 0.000000000000000e+00 0.000000000000000e+00
0.000000000000000e+00 0.000000000000000e+00 0.000000000000000e+00
0.000000000000000e+00 0.000000000000000e+00 0.000000000000000e+00
0.000000000000000e+00 0.000000000000000e+00 0.000000000000000e+00
0.000000000000000e+00 0.000000000000000e+00 0.000000000000000e+00
0.000000000000000e+00 0.000000000000000e+00 0.000000000000000e+00
0.000000000000000e+00 0.000000000000000e+00 0.000000000000000e+00
0.000000000000000e+00 0.000000000000000e+00 0.000000000000000e+00
0.000000000000000e+00 0.000000000000000e+00 0.000000000000000e+00
0.000000000000000e+00 0.000000000000000e+00 0.000000000000000e+00
0.000000000000000e+00 0.000000000000000e+00 0.000000000000000e+00
0.000000000000000e+00 0.000000000000000e+00 0.000000000000000e+00
0.000000000000000e+00 0.000000000000000e+00 0.000000000000000e+00
0.000000000000000e+00 0.000000000000000e+00 0.000000000000000e+00
0.000000000000000e+00 0.000000000000000e+00 0.000000000000000e+00
0.000000000000000e+00 0.000000000000000e+00 0.000000000000000e+00
0.000000000000000e+00 0.000000000000000e+00 0.000000000000000e+00
0.000000000000000e+00 0.000000000000000e+00 0.000000000000000e+00
0.000000000000000e+00 0.000000000000000e+00 0.000000000000000e+00
0.000000000000000e+00 0.000000000000000e+00 0.000000000000000e+00
0.000000000000000e+00 0.000000000000000e+00 0.000000000000000e+00
0.000000000000000e+00 0.000000000000000e+00 0.000000000000000e+00
0.000000000000000e+00 0.000000000000000e+00 0.000000000000000e+00
0.000000000000000e+00 0.000000000000000e+00 0.000000000000000e+00
0.000000000000000e+00 0.000000000000000e+00 0.000000000000000e+00
0.000000000000000e+00 0.000000000000000e+00 0.000000000000000e+00
0.000000000000000e+00 0.000000000000000e+00 0.000000000000000e+00
0.000000000000000e+00 0.000000000000000e+00 0.000000000000000e+00
0.000000000000000e+00 0.000000000000000e+00 0.000000000000000e+00
0.000000000000000e+00 0.000000000000000e+00 0.000000000000000e+00
0.000000000000000e+00 0.000000000000000e+00 0.000000000000000e+00
0.000000000000000e+00 0.000000000000000e+00 0.000000000000000e+00
0.000000000000000e+00 0.000000000000000e+00 0.000000000000000e+00
0.000000000000000e+00 0.000000000000000e+00 0.000000000000000e+00
0.000000000000000e+00 0.000000000000000e+00 0.000000000000000e+00
0.000000000000000e+00 0.000000000000000e+00 0.000000000000000e+00
0.000000000000000e+00 0.000000000000000e+00 0.000000000000000e+00
0.000000000000000e+00 0.000000000000000e+00 0.000000000000000e+00
0.000000000000000e+00 0.000000000000000e+00 0.000000000000000e+00
0.000000000000000e+00 0.000000000000000e+00 0.000000000000000e+00
0.000000000000000e+00 0.000000000000000e+00 0.000000000000000e+00
0.000000000000000e+00 0.000000000000000e+00 0.000000000000000e+00
0.000000000000000e+00 0.000000000000000e+00 0.000000000000000e+00
0.000000000000000e+00 0.000000000000000e+00 0.000000000000000e+00
0.000000000000000e+00 0.000000000000000e+00 0.000000000000000e+00
0.000000000000000e+00 0.000000000000000e+00 0.000000000000000e+00
0.000000000000000e+00 0.000000000000000e+00 0.000000000000000e+00
0.000000000000000e+00 0.000000000000000e+00 0.000000000000000e+00
0.000000000000000e+00 0.000000000000000e+00 0.000000000000000e+00
0.000000000000000e+00 0.000000000000000e+00 0.000000000000000e+00
0.000000000000000e+00 0.000000000000000e+00 0.000000000000000e+00
0.000000000000000e+00 0.000000000000000e+00 0.000000000000000e+00
0.000000000000000e+00 0.000000000000000e+00 0.000000000000000e+00
0.000000000000000e+00 0.000000000000000e+00 0.000000000000000e+00
0.000000000000000e+00 0.000000000000000e+00 0.000000000000000e+00
0.000000000000000e+00 0.000000000000000e+00 0.000000000000000e+00
0.000000000000000e+00 0.000000000000000e+00 0.000000000000000e+00
0.000000000000000e+00 0.000000000000000e+00 0.000000000000000e+00
0.000000000000000e+00 0.000000000000000e+00 0.000000000000000e+00
0.000000000000000e+00 0.000000000000000e+00 0.000000000000000e+00
0.000000000000000e+00 0.000000000000000e+00 0.000000000000000e+00
0.000000000000000e+00 0.000000000000000e+00 0.000000000000000e+00
0.000000000000000e+00 0.000000000000000e+00 0.000000000000000e+00
0.000000000000000e+00 0.000000000000000e+00 0.000000000000000e+00
0.000000000000000e+00 0.000000000000000e+00 0.000000000000000e+00
0.000000000000000e+00 0.000000000000000e+00 0.000000000000000e+00
0.000000000000000e+00 0.000000000000000e+00 0.000000000000000e+00
0.000000000000000e+00 0.000000000000000e+00 0.000000000000000e+00
0.000000000000000e+00 0.000000000000000e+00 0.000000000000000e+00
0.000000000000000e+00 0.000000000000000e+00 0.000000000000000e+00
0.000000000000000e+00 0.000000000000000e+00 0.000000000000000e+00
0.000000000000000e+00 0.000000000000000e+00 0.000000000000000e+00
0.000000000000000e+00 0.000000000000000e+00 0.000000000000000e+00
0.000000000000000e+00 0.000000000000000e+00 0.000000000000000e+00
0.000000000000000e+00 0.000000000000000e+00 0.000000000000000e+00
0.000000000000000e+00 0.000000000000000e+00 0.000000000000000e+00
0.000000000000000e+00 0.000000000000000e+00 0.000000000000000e+00
0.000000000000000e+00 0.000000000000000e+00 0.000000000000000e+00
0.000000000000000e+00 0.000000000000000e+00 0.000000000000000e+00
0.000000000000000e+00 0.000000000000000e+00 0.000000000000000e+00
0.000000000000000e+00 0.000000000000000e+00 0.000000000000000e+00
0.000000000000000e+00 0.000000000000000e+00 0.000000000000000e+00
0.000000000000000e+00 0.000000000000000e+00 0.000000000000000e+00
0.000000000000000e+00 0.000000000000000e+00 0.000000000000000e+00
0.000000000000000e+00 0.000000000000000e+00 0.000000000000000e+00
0.000000000000000e+00 0.000000000000000e+00 0.000000000000000e+00
0.000000000000000e+00 0.000000000000000e+00 0.000000000000000e+00
0.000000000000000e+00 0.000000000000000e+00 0.000000000000000e+00
0.000000000000000e+00 0.000000000000000e+00 0.000000000000000e+00
0.000000000000000e+00 0.000000000000000e+00 0.000000000000000e+00
0.000000000000000e+00 0.000000000000000e+00 0.000000000000000e+00
0.000000000000000e+00 0.000000000000000e+00 0.000000000000000e+00
0.000000000000000e+00 0.000000000000000e+00 0.000000000000000e+00
0.000000000000000e+00 0.000000000000000e+00 0.000000000000000e+00
0.000000000000000e+00 0.000000000000000e+00 0.000000000000000e+00
0.000000000000000e+00 0.000000000000000e+00 0.000000000000000e+00
0.000000000000000e+00 0.000000000000000e+00 0.000000000000000e+00
0.000000000000000e+00 0.000000000000000e+00 0.000000000000000e+00
0.000000000000000e+00 0.000000000000000e+00 0.000000000000000e+00
0.000000000000000e+00 0.000000000000000e+00 0.000000000000000e+00
0.000000000000000e+00 0.000000000000000e+00 0.000000000000000e+00
0.000000000000000e+00 0.000000000000000e+00 0.000000000000000e+00
0.000000000000000e+00 0.000000000000000e+00 0.000000000000000e+00
0.000000000000000e+00 0.000000000000000e+00 0.000000000000000e+00
0.000000000000000e+00 0.000000000000000e+00 0.000000000000000e+00
0.000000000000000e+00 0.000000000000000e+00 0.000000000000000e+00
0.000000000000000e+00 0.000000000000000e+00 0.000000000000000e+00
0.000000000000000e+00 0.000000000000000e+00 0.000000000000000e+00
0.000000000000000e+00 0.000000000000000e+00 0.000000000000000e+00
0.000000000000000e+00 0.000000000000000e+00 0.000000000000000e+00
0.000000000000000e+00 0.000000000000000e+00 0.000000000000000e+00
0.000000000000000e+00 0.000000000000000e+00 0.000000000000000e+00
0.000000000000000e+00 0.000000000000000e+00 0.000000000000000e+00
0.000000000000000e+00 0.000000000000000e+00 0.000000000000000e+00
0.000000000000000e+00 0.000000000000000e+00 0.000000000000000e+00
0.000000000000000e+00 0.000000000000000e+00 0.000000000000000e+00
0.000000000000000e+00 0.000000000000000e+00 0.000000000000000e+00
0.000000000000000e+00 0.000000000000000e+00 0.000000000000000e+00
0.000000000000000e+00 0.000000000000000e+00 0.000000000000000e+00
0.000000000000000e+00 0.000000000000000e+00 0.000000000000000e+00
0.000000000000000e+00 0.000000000000000e+00 0.000000000000000e+00
0.000000000000000e+00 0.000000000000000e+00 0.000000000000000e+00
0.000000000000000e+00 0.000000000000000e+00 0.000000000000000e+00
0.000000000000000e+00 0.000000000000000e+00 0.000000000000000e+00
0.000000000000000e+00 0.000000000000000e+00 0.000000000000000e+00
0.000000000000000e+00 0.000000000000000e+00 0.000000000000000e+00
0.000000000000000e+00 0.000000000000000e+00 0.000000000000000e+00
0.000000000000000e+00 0.000000000000000e+00 0.000000000000000e+00
0.000000000000000e+00 0.000000000000000e+00 0.000000000000000e+00
0.000000000000000e+00 0.000000000000000e+00 0.000000000000000e+00
0.000000000000000e+00 0.000000000000000e+00 0.000000000000000e+00
0.000000000000000e+00 0.000000000000000e+00 0.000000000000000e+00
0.000000000000000e+00 0.000000000000000e+00 0.000000000000000e+00
0.000000000000000e+00 0.000000000000000e+00 0.000000000000000e+00
0.000000000000000e+00 0.000000000000000e+00 0.000000000000000e+00
0.000000000000000e+00 0.000000000000000e+00 0.000000000000000e+00
0.000000000000000e+00 0.000000000000000e+00 0.000000000000000e+00
0.000000000000000e+00 0.000000000000000e+00 0.000000000000000e+00
0.000000000000000e+00 0.000000000000000e+00 0.000000000000000e+00
0.000000000000000e+00 0.000000000000000e+00 0.000000000000000e+00
0.000000000000000e+00 0.000000000000000e+00 0.000000000000000e+00
0.000000000000000e+00 0.000000000000000e+00 0.000000000000000e+00
0.000000000000000e+00 0.000000000000000e+00 0.000000000000000e+00
0.000000000000000e+00 0.000000000000000e+00 0.000000000000000e+00
0.000000000000000e+00 0.000000000000000e+00 0.000000000000000e+00
0.000000000000000e+00 0.000000000000000e+00 0.000000000000000e+00
0.000000000000000e+00 0.000000000000000e+00 0.000000000000000e+00
0.000000000000000e+00 0.000000000000000e+00 0.000000000000000e+00
0.000000000000000e+00 0.000000000000000e+00 0.000000000000000e+00
0.000000000000000e+00 0.000000000000000e+00 0.000000000000000e+00
0.000000000000000e+00 0.000000000000000e+00 0.000000000000000e+00
0.000000000000000e+00 0.000000000000000e+00 0.000000000000000e+00
0.000000000000000e+00 0.000000000000000e+00 0.000000000000000e+00
0.000000000000000e+00 0.000000000000000e+00 0.000000000000000e+00
0.000000000000000e+00 0.000000000000000e+00 0.000000000000000e+00
0.000000000000000e+00 0.000000000000000e+00 0.000000000000000e+00
0.000000000000000e+00 0.000000000000000e+00 0.000000000000000e+00
0.000000000000000e+00 0.000000000000000e+00 0.000000000000000e+00
0.000000000000000e+00 0.000000000000000e+00 0.000000000000000e+00
0.000000000000000e+00 0.000000000000000e+00 0.000000000000000e+00
0.000000000000000e+00 0.000000000000000e+00 0.000000000000000e+00
0.000000000000000e+00 0.000000000000000e+00 0.000000000000000e+00
0.000000000000000e+00 0.000000000000000e+00 0.000000000000000e+00
0.000000000000000e+00 0.000000000000000e+00 0.000000000000000e+00
0.000000000000000e+00 0.000000000000000e+00 0.000000000000000e+00
0.000000000000000e+00 0.000000000000000e+00 0.000000000000000e+00
0.000000000000000e+00 0.000000000000000e+00 0.000000000000000e+00
0.000000000000000e+00 0.000000000000000e+00 0.000000000000000e+00
0.000000000000000e+00 0.000000000000000e+00 0.000000000000000e+00
0.000000000000000e+00 0.000000000000000e+00 0.000000000000000e+00
0.000000000000000e+00 0.000000000000000e+00 0.000000000000000e+00
0.000000000000000e+00 0.000000000000000e+00 0.000000000000000e+00
0.000000000000000e+00 0.000000000000000e+00 0.000000000000000e+00
0.000000000000000e+00 0.000000000000000e+00 0.000000000000000e+00
0.000000000000000e+00 0.000000000000000e+00 0.000000000000000e+00
0.000000000000000e+00 0.000000000000000e+00 0.000000000000000e+00
0.000000000000000e+00 0.000000000000000e+00 0.000000000000000e+00
0.000000000000000e+00 0.000000000000000e+00 0.000000000000000e+00
0.000000000000000e+00 0.000000000000000e+00 0.000000000000000e+00
0.000000000000000e+00 0.000000000000000e+00 0.000000000000000e+00
0.000000000000000e+00 0.000000000000000e+00 0.000000000000000e+00
0.000000000000000e+00 0.000000000000000e+00 0.000000000000000e+00
0.000000000000000e+00 0.000000000000000e+00 0.000000000000000e+00
0.000000000000000e+00 0.000000000000000e+00 0.000000000000000e+00
0.000000000000000e+00 0.000000000000000e+00 0.000000000000000e+00
0.000000000000000e+00 0.000000000000000e+00 0.000000000000000e+00
0.000000000000000e+00 0.000000000000000e+00 0.000000000000000e+00
0.000000000000000e+00 0.000000000000000e+00 0.000000000000000e+00
0.000000000000000e+00 0.000000000000000e+00 0.000000000000000e+00
0.000000000000000e+00 0.000000000000000e+00 0.000000000000000e+00
0.000000000000000e+00 0.000000000000000e+00 0.000000000000000e+00
0.000000000000000e+00 0.000000000000000e+00 0.000000000000000e+00
0.000000000000000e+00 0.000000000000000e+00 0.000000000000000e+00
0.000000000000000e+00 0.000000000000000e+00 0.000000000000000e+00
0.000000000000000e+00 0.000000000000000e+00 0.000000000000000e+00
0.000000000000000e+00 0.000000000000000e+00 0.000000000000000e+00
0.000000000000000e+00 0.000000000000000e+00 0.000000000000000e+00
0.000000000000000e+00 0.000000000000000e+00 0.000000000000000e+00
0.000000000000000e+00 0.000000000000000e+00 0.000000000000000e+00
0.000000000000000e+00 0.000000000000000e+00 0.000000000000000e+00
0.000000000000000e+00 0.000000000000000e+00 0.000000000000000e+00
0.000000000000000e+00 0.000000000000000e+00 0.000000000000000e+00
0.000000000000000e+00 0.000000000000000e+00 0.000000000000000e+00
0.000000000000000e+00 0.000000000000000e+00 0.000000000000000e+00
0.000000000000000e+00 0.000000000000000e+00 0.000000000000000e+00
0.000000000000000e+00 0.000000000000000e+00 0.000000000000000e+00
0.000000000000000e+00 0.000000000000000e+00 0.000000000000000e+00
0.000000000000000e+00 0.000000000000000e+00 0.000000000000000e+00
0.000000000000000e+00 0.000000000000000e+00 0.000000000000000e+00
0.000000000000000e+00 0.000000000000000e+00 0.000000000000000e+00
0.000000000000000e+00 0.000000000000000e+00 0.000000000000000e+00
0.000000000000000e+00 0.000000000000000e+00 0.000000000000000e+00
0.000000000000000e+00 0.000000000000000e+00 0.000000000000000e+00
0.000000000000000e+00 0.000000000000000e+00 0.000000000000000e+00
0.000000000000000e+00 0.000000000000000e+00 0.000000000000000e+00
0.000000000000000e+00 0.000000000000000e+00 0.000000000000000e+00
0.000000000000000e+00 0.000000000000000e+00 0.000000000000000e+00
0.000000000000000e+00 0.000000000000000e+00 0.000000000000000e+00
0.000000000000000e+00 0.000000000000000e+00 0.000000000000000e+00
0.000000000000000e+00 0.000000000000000e+00 0.000000000000000e+00
0.000000000000000e+00 0.000000000000000e+00 0.000000000000000e+00
0.000000000000000e+00 0.000000000000000e+00 0.000000000000000e+00
0.000000000000000e+00 0.000000000000000e+00 0.000000000000000e+00
0.000000000000000e+00 0.000000000000000e+00 0.000000000000000e+00
0.000000000000000e+00 0.000000000000000e+00 0.000000000000000e+00
0.000000000000000e+00 0.000000000000000e+00 0.000000000000000e+00
0.000000000000000e+00 0.000000000000000e+00 0.000000000000000e+00
0.000000000000000e+00 0.000000000000000e+00 0.000000000000000e+00
0.000000000000000e+00 0.000000000000000e+00 0.000000000000000e+00
0.000000000000000e+00 0.000000000000000e+00 0.000000000000000e+00
0.000000000000000e+00 0.000000000000000e+00 0.000000000000000e+00
0.000000000000000e+00 0.000000000000000e+00 0.000000000000000e+00
0.000000000000000e+00 0.000000000000000e+00 0.000000000000000e+00
0.000000000000000e+00 0.000000000000000e+00 0.000000000000000e+00
0.000000000000000e+00 0.000000000000000e+00 0.000000000000000e+00
0.000000000000000e+00 0.000000000000000e+00 0.000000000000000e+00
0.000000000000000e+00 0.000000000000000e+00 0.000000000000000e+00
0.000000000000000e+00 0.000000000000000e+00 0.000000000000000e+00
0.000000000000000e+00 0.000000000000000e+00 0.000000000000000e+00
0.000000000000000e+00 0.000000000000000e+00 0.000000000000000e+00
0.000000000000000e+00 0.000000000000000e+00 0.000000000000000e+00
0.000000000000000e+00 0.000000000000000e+00 0.000000000000000e+00
0.000000000000000e+00 0.000000000000000e+00 0.000000000000000e+00
0.000000000000000e+00 0.000000000000000e+00 0.000000000000000e+00
0.000000000000000e+00 0.000000000000000e+00 0.000000000000000e+00
0.000000000000000e+00 0.000000000000000e+00 0.000000000000000e+00
0.000000000000000e+00 0.000000000000000e+00 0.000000000000000e+00
0.000000000000000e+00 0.000000000000000e+00 0.000000000000000e+00
0.000000000000000e+00 0.000000000000000e+00 0.000000000000000e+00
0.000000000000000e+00 0.000000000000000e+00 0.000000000000000e+00
0.000000000000000e+00 0.000000000000000e+00 0.000000000000000e+00
0.000000000000000e+00 0.000000000000000e+00 0.000000000000000e+00
0.000000000000000e+00 0.000000000000000e+00 0.000000000000000e+00
0.000000000000000e+00 0.000000000000000e+00 0.000000000000000e+00
0.000000000000000e+00 0.000000000000000e+00 0.000000000000000e+00
0.000000000000000e+00 0.000000000000000e+00 0.000000000000000e+00
0.000000000000000e+00 0.000000000000000e+00 0.000000000000000e+00
0.000000000000000e+00 0.000000000000000e+00 0.000000000000000e+00
0.000000000000000e+00 0.000000000000000e+00 0.000000000000000e+00
0.000000000000000e+00 0.000000000000000e+00 0.000000000000000e+00
0.000000000000000e+00 0.000000000000000e+00 0.000000000000000e+00
0.000000000000000e+00 0.000000000000000e+00 0.000000000000000e+00
0.000000000000000e+00 0.000000000000000e+00 0.000000000000000e+00
0.000000000000000e+00 0.000000000000000e+00 0.000000000000000e+00
0.000000000000000e+00 0.000000000000000e+00 0.000000000000000e+00
0.000000000000000e+00 0.000000000000000e+00 0.000000000000000e+00
0.000000000000000e+00 0.000000000000000e+00 0.000000000000000e+00
0.000000000000000e+00 0.000000000000000e+00 0.000000000000000e+00
0.000000000000000e+00 0.000000000000000e+00 0.000000000000000e+00
0.000000000000000e+00 0.000000000000000e+00 0.000000000000000e+00
0.000000000000000e+00 0.000000000000000e+00 0.000000000000000e+00
0.000000000000000e+00 0.000000000000000e+00 0.000000000000000e+00
0.000000000000000e+00 0.000000000000000e+00 0.000000000000000e+00
0.000000000000000e+00 0.000000000000000e+00 0.000000000000000e+00
0.000000000000000e+00 0.000000000000000e+00 0.000000000000000e+00
0.000000000000000e+00 0.000000000000000e+00 0.000000000000000e+00
0.000000000000000e+00 0.000000000000000e+00 0.000000000000000e+00
0.000000000000000e+00 0.000000000000000e+00 0.000000000000000e+00
0.000000000000000e+00 0.000000000000000e+00 0.000000000000000e+00
0.000000000000000e+00 0.000000000000000e+00 0.000000000000000e+00
0.000000000000000e+00 0.000000000000000e+00 0.000000000000000e+00
0.000000000000000e+00 0.000000000000000e+00 0.000000000000000e+00
0.000000000000000e+00 0.000000000000000e+00 0.000000000000000e+00
0.000000000000000e+00 0.000000000000000e+00 0.000000000000000e+00
0.000000000000000e+00 0.000000000000000e+00 0.000000000000000e+00
0.000000000000000e+00 0.000000000000000e+00 0.000000000000000e+00
0.000000000000000e+00 0.000000000000000e+00 0.000000000000000e+00
0.000000000000000e+00 0.000000000000000e+00 0.000000000000000e+00
0.000000000000000e+00 0.000000000000000e+00 0.000000000000000e+00
0.000000000000000e+00 0.000000000000000e+00 0.000000000000000e+00
0.000000000000000e+00 0.000000000000000e+00 0.000000000000000e+00
0.000000000000000e+00 0.000000000000000e+00 0.000000000000000e+00
0.000000000000000e+00 0.000000000000000e+00 0.000000000000000e+00
0.000000000000000e+00 0.000000000000000e+00 0.000000000000000e+00
0.000000000000000e+00 0.000000000000000e+00 0.000000000000000e+00
0.000000000000000e+00 0.000000000000000e+00 0.000000000000000e+00
0.000000000000000e+00 0.000000000000000e+00 0.000000000000000e+00
0.000000000000000e+00 0.000000000000000e+00 0.000000000000000e+00
0.000000000000000e+00 0.000000000000000e+00 0.000000000000000e+00
0.000000000000000e+00 0.000000000000000e+00 0.000000000000000e+00
0.000000000000000e+00 0.000000000000000e+00 0.000000000000000e+00
0.000000000000000e+00 0.000000000000000e+00 0.000000000000000e+00
0.000000000000000e+00 0.000000000000000e+00 0.000000000000000e+00
0.000000000000000e+00 0.000000000000000e+00 0.000000000000000e+00
0.000000000000000e+00 0.000000000000000e+00 0.000000000000000e+00
0.000000000000000e+00 0.000000000000000e+00 0.000000000000000e+00
0.000000000000000e+00 0.000000000000000e+00 0.000000000000000e+00
0.000000000000000e+00 0.000000000000000e+00 0.000000000000000e+00
0.000000000000000e+00 0.000000000000000e+00 0.000000000000000e+00
0.000000000000000e+00 0.000000000000000e+00 0.000000000000000e+00
0.000000000000000e+00 0.000000000000000e+00 0.000000000000000e+00
0.000000000000000e+00 0.000000000000000e+00 0.000000000000000e+00
0.000000000000000e+00 0.000000000000000e+00 0.000000000000000e+00
0.000000000000000e+00 0.000000000000000e+00 0.000000000000000e+00
0.000000000000000e+00 0.000000000000000e+00 0.000000000000000e+00
0.000000000000000e+00 0.000000000000000e+00 0.000000000000000e+00
0.000000000000000e+00 0.000000000000000e+00 0.000000000000000e+00
0.000000000000000e+00 0.000000000000000e+00 0.000000000000000e+00
0.000000000000000e+00 0.000000000000000e+00 0.000000000000000e+00
0.000000000000000e+00 0.000000000000000e+00 0.000000000000000e+00
0.000000000000000e+00 0.000000000000000e+00 0.000000000000000e+00
0.000000000000000e+00 0.000000000000000e+00 0.000000000000000e+00
0.000000000000000e+00 0.000000000000000e+00 0.000000000000000e+00
0.000000000000000e+00 0.000000000000000e+00 0.000000000000000e+00
0.000000000000000e+00 0.000000000000000e+00 0.000000000000000e+00
0.000000000000000e+00 0.000000000000000e+00 0.000000000000000e+00
0.000000000000000e+00 0.000000000000000e+00 0.000000000000000e+00
0.000000000000000e+00 0.000000000000000e+00 0.000000000000000e+00
0.000000000000000e+00 0.000000000000000e+00 0.000000000000000e+00
0.000000000000000e+00 0.000000000000000e+00 0.000000000000000e+00
0.000000000000000e+00 0.000000000000000e+00 0.000000000000000e+00
0.000000000000000e+00 0.000000000000000e+00 0.000000000000000e+00
0.000000000000000e+00 0.000000000000000e+00 0.000000000000000e+00
0.000000000000000e+00 0.000000000000000e+00 0.000000000000000e+00
0.000000000000000e+00 0.000000000000000e+00 0.000000000000000e+00
0.000000000000000e+00 0.000000000000000e+00 0.000000000000000e+00
0.000000000000000e+00 0.000000000000000e+00 0.000000000000000e+00
0.000000000000000e+00 0.000000000000000e+00 0.000000000000000e+00
0.000000000000000e+00 0.000000000000000e+00 0.000000000000000e+00
0.000000000000000e+00 0.000000000000000e+00 0.000000000000000e+00
0.000000000000000e+00 0.000000000000000e+00 0.000000000000000e+00
0.000000000000000e+00 0.000000000000000e+00 0.000000000000000e+00
0.000000000000000e+00 0.000000000000000e+00 0.000000000000000e+00
0.000000000000000e+00 0.000000000000000e+00 0.000000000000000e+00
0.000000000000000e+00 0.000000000000000e+00 0.000000000000000e+00
0.000000000000000e+00 0.000000000000000e+00 0.000000000000000e+00
0.000000000000000e+00 0.000000000000000e+00 0.000000000000000e+00
0.000000000000000e+00 0.000000000000000e+00 0.000000000000000e+00
0.000000000000000e+00 0.000000000000000e+00 0.000000000000000e+00
0.000000000000000e+00 0.000000000000000e+00 0.000000000000000e+00
0.000000000000000e+00 0.000000000000000e+00 0.000000000000000e+00
0.000000000000000e+00 0.000000000000000e+00 0.000000000000000e+00
0.000000000000000e+00 0.000000000000000e+00 0.000000000000000e+00
0.000000000000000e+00 0.000000000000000e+00 0.000000000000000e+00
0.000000000000000e+00 0.000000000000000e+00 0.000000000000000e+00
0.000000000000000e+00 0.000000000000000e+00 0.000000000000000e+00
0.000000000000000e+00 0.000000000000000e+00 0.000000000000000e+00
0.000000000000000e+00 0.000000000000000e+00 0.000000000000000e+00
0.000000000000000e+00 0.000000000000000e+00 0.000000000000000e+00
0.000000000000000e+00 0.000000000000000e+00 0.000000000000000e+00
0.000000000000000e+00 0.000000000000000e+00 0.000000000000000e+00
0.000000000000000e+00 0.000000000000000e+00 0.000000000000000e+00
0.000000000000000e+00 0.000000000000000e+00 0.000000000000000e+00
0.000000000000000e+00 0.000000000000000e+00 0.000000000000000e+00
0.000000000000000e+00 0.000000000000000e+00 0.000000000000000e+00
0.000000000000000e+00 0.000000000000000e+00 0.000000000000000e+00
0.000000000000000e+00 0.000000000000000e+00 0.000000000000000e+00
0.000000000000000e+00 0.000000000000000e+00 0.000000000000000e+00
0.000000000000000e+00 0.000000000000000e+00 0.000000000000000e+00
0.000000000000000e+00 0.000000000000000e+00 0.000000000000000e+00
0.000000000000000e+00 0.000000000000000e+00 0.000000000000000e+00
0.000000000000000e+00 0.000000000000000e+00 0.000000000000000e+00
0.000000000000000e+00 0.000000000000000e+00 0.000000000000000e+00
0.000000000000000e+00 0.000000000000000e+00 0.000000000000000e+00
0.000000000000000e+00 0.000000000000000e+00 0.000000000000000e+00
0.000000000000000e+00 0.000000000000000e+00 0.000000000000000e+00
0.000000000000000e+00 0.000000000000000e+00 0.000000000000000e+00
0.000000000000000e+00 0.000000000000000e+00 0.000000000000000e+00
0.000000000000000e+00 0.000000000000000e+00 0.000000000000000e+00
0.000000000000000e+00 0.000000000000000e+00 0.000000000000000e+00
0.000000000000000e+00 0.000000000000000e+00 0.000000000000000e+00
0.000000000000000e+00 0.000000000000000e+00 0.000000000000000e+00
0.000000000000000e+00 0.000000000000000e+00 0.000000000000000e+00
0.000000000000000e+00 0.000000000000000e+00 0.000000000000000e+00
0.000000000000000e+00 0.000000000000000e+00 0.000000000000000e+00
0.000000000000000e+00 0.000000000000000e+00 0.000000000000000e+00
0.000000000000000e+00 0.000000000000000e+00 0.000000000000000e+00
0.000000000000000e+00 0.000000000000000e+00 0.000000000000000e+00
0.000000000000000e+00 0.000000000000000e+00 0.000000000000000e+00
0.000000000000000e+00 0.000000000000000e+00 0.000000000000000e+00
0.000000000000000e+00 0.000000000000000e+00 0.000000000000000e+00
0.000000000000000e+00 0.000000000000000e+00 0.000000000000000e+00
0.000000000000000e+00 0.000000000000000e+00 0.000000000000000e+00
0.000000000000000e+00 0.000000000000000e+00 0.000000000000000e+00
0.000000000000000e+00 0.000000000000000e+00 0.000000000000000e+00
0.000000000000000e+00 0.000000000000000e+00 0.000000000000000e+00
0.000000000000000e+00 0.000000000000000e+00 0.000000000000000e+00
0.000000000000000e+00 0.000000000000000e+00 0.000000000000000e+00
0.000000000000000e+00 0.000000000000000e+00 0.000000000000000e+00
0.000000000000000e+00 0.000000000000000e+00 0.000000000000000e+00
0.000000000000000e+00 0.000000000000000e+00 0.000000000000000e+00
0.000000000000000e+00 0.000000000000000e+00 0.000000000000000e+00
0.000000000000000e+00 0.000000000000000e+00 0.000000000000000e+00
0.000000000000000e+00 0.000000000000000e+00 0.000000000000000e+00
0.000000000000000e+00 0.000000000000000e+00 0.000000000000000e+00
0.000000000000000e+00 0.000000000000000e+00 0.000000000000000e+00
0.000000000000000e+00 0.000000000000000e+00 0.000000000000000e+00
0.000000000000000e+00 0.000000000000000e+00 0.000000000000000e+00
0.000000000000000e+00 0.000000000000000e+00 0.000000000000000e+00
0.000000000000000e+00 0.000000000000000e+00 0.000000000000000e+00
0.000000000000000e+00 0.000000000000000e+00 0.000000000000000e+00
0.000000000000000e+00 0.000000000000000e+00 0.000000000000000e+00
0.000000000000000e+00 0.000000000000000e+00 0.000000000000000e+00
0.000000000000000e+00 0.000000000000000e+00 0.000000000000000e+00
0.000000000000000e+00 0.000000000000000e+00 0.000000000000000e+00
0.000000000000000e+00 0.000000000000000e+00 0.000000000000000e+00
0.000000000000000e+00 0.000000000000000e+00 0.000000000000000e+00
0.000000000000000e+00 0.000000000000000e+00 0.000000000000000e+00
0.000000000000000e+00 0.000000000000000e+00 0.000000000000000e+00
0.000000000000000e+00 0.000000000000000e+00 0.000000000000000e+00
0.000000000000000e+00 0.000000000000000e+00 0.000000000000000e+00
0.000000000000000e+00 0.000000000000000e+00 0.000000000000000e+00
0.000000000000000e+00 0.000000000000000e+00 0.000000000000000e+00
0.000000000000000e+00 0.000000000000000e+00 0.000000000000000e+00
0.000000000000000e+00 0.000000000000000e+00 0.000000000000000e+00
0.000000000000000e+00 0.000000000000000e+00 0.000000000000000e+00
0.000000000000000e+00 0.000000000000000e+00 0.000000000000000e+00
0.000000000000000e+00 0.000000000000000e+00 0.000000000000000e+00
0.000000000000000e+00 0.000000000000000e+00 0.000000000000000e+00
0.000000000000000e+00 0.000000000000000e+00 0.000000000000000e+00
0.000000000000000e+00 0.000000000000000e+00 0.000000000000000e+00
0.000000000000000e+00 0.000000000000000e+00 0.000000000000000e+00
0.000000000000000e+00 0.000000000000000e+00 0.000000000000000e+00
0.000000000000000e+00 0.000000000000000e+00 0.000000000000000e+00
0.000000000000000e+00 0.000000000000000e+00 0.000000000000000e+00
0.000000000000000e+00 0.000000000000000e+00 0.000000000000000e+00
0.000000000000000e+00 0.000000000000000e+00 0.000000000000000e+00
0.000000000000000e+00 0.000000000000000e+00 0.000000000000000e+00
0.000000000000000e+00 0.000000000000000e+00 0.000000000000000e+00
0.000000000000000e+00 0.000000000000000e+00 0.000000000000000e+00
0.000000000000000e+00 0.000000000000000e+00 0.000000000000000e+00
0.000000000000000e+00 0.000000000000000e+00 0.000000000000000e+00
0.000000000000000e+00 0.000000000000000e+00 0.000000000000000e+00
0.000000000000000e+00 0.000000000000000e+00 0.000000000000000e+00
0.000000000000000e+00 0.000000000000000e+00 0.000000000000000e+00
0.000000000000000e+00 0.000000000000000e+00 0.000000000000000e+00
0.000000000000000e+00 0.000000000000000e+00 0.000000000000000e+00
0.000000000000000e+00 0.000000000000000e+00 0.000000000000000e+00
0.000000000000000e+00 0.000000000000000e+00 0.000000000000000e+00
0.000000000000000e+00 0.000000000000000e+00 0.000000000000000e+00
0.000000000000000e+00 0.000000000000000e+00 0.000000000000000e+00
0.000000000000000e+00 0.000000000000000e+00 0.000000000000000e+00
0.000000000000000e+00 0.000000000000000e+00 0.000000000000000e+00
0.000000000000000e+00 0.000000000000000e+00 0.000000000000000e+00
0.000000000000000e+00 0.000000000000000e+00 0.000000000000000e+00
0.000000000000000e+00 0.000000000000000e+00 0.000000000000000e+00
0.000000000000000e+00 0.000000000000000e+00 0.000000000000000e+00
0.000000000000000e+00 0.000000000000000e+00 0.000000000000000e+00
0.000000000000000e+00 0.000000000000000e+00 0.000000000000000e+00
0.000000000000000e+00 0.000000000000000e+00 0.000000000000000e+00
0.000000000000000e+00 0.000000000000000e+00 0.000000000000000e+00
0.000000000000000e+00 0.000000000000000e+00 0.000000000000000e+00
0.000000000000000e+00 0.000000000000000e+00 0.000000000000000e+00
0.000000000000000e+00 0.000000000000000e+00 0.000000000000000e+00
0.000000000000000e+00 0.000000000000000e+00 0.000000000000000e+00
0.000000000000000e+00 0.000000000000000e+00 0.000000000000000e+00
0.000000000000000e+00 0.000000000000000e+00 0.000000000000000e+00
0.000000000000000e+00 0.000000000000000e+00 0.000000000000000e+00
0.000000000000000e+00 0.000000000000000e+00 0.000000000000000e+00
0.000000000000000e+00 0.000000000000000e+00 0.000000000000000e+00
0.000000000000000e+00 0.000000000000000e+00 0.000000000000000e+00
0.000000000000000e+00 0.000000000000000e+00 0.000000000000000e+00
0.000000000000000e+00 0.000000000000000e+00 0.000000000000000e+00
0.000000000000000e+00 0.000000000000000e+00 0.000000000000000e+00
0.000000000000000e+00 0.000000000000000e+00 0.000000000000000e+00
0.000000000000000e+00 0.000000000000000e+00 0.000000000000000e+00
0.000000000000000e+00 0.000000000000000e+00 0.000000000000000e+00
0.000000000000000e+00 0.000000000000000e+00 0.000000000000000e+00
0.000000000000000e+00 0.000000000000000e+00 0.000000000000000e+00
0.000000000000000e+00 0.000000000000000e+00 0.000000000000000e+00
0.000000000000000e+00 0.000000000000000e+00 0.000000000000000e+00
0.000000000000000e+00 0.000000000000000e+00 0.000000000000000e+00
0.000000000000000e+00 0.000000000000000e+00 0.000000000000000e+00
0.000000000000000e+00 0.000000000000000e+00 0.000000000000000e+00
0.000000000000000e+00 0.000000000000000e+00 0.000000000000000e+00
0.000000000000000e+00 0.000000000000000e+00 0.000000000000000e+00
0.000000000000000e+00 0.000000000000000e+00 0.000000000000000e+00
0.000000000000000e+00 0.000000000000000e+00 0.000000000000000e+00
0.000000000000000e+00 0.000000000000000e+00 0.000000000000000e+00
0.000000000000000e+00 0.000000000000000e+00 0.000000000000000e+00
0.000000000000000e+00 0.000000000000000e+00 0.000000000000000e+00
0.000000000000000e+00 0.000000000000000e+00 0.000000000000000e+00
0.000000000000000e+00 0.000000000000000e+00 0.000000000000000e+00
0.000000000000000e+00 0.000000000000000e+00 0.000000000000000e+00
0.000000000000000e+00 0.000000000000000e+00 0.000000000000000e+00
0.000000000000000e+00 0.000000000000000e+00 0.000000000000000e+00
0.000000000000000e+00 0.000000000000000e+00 0.000000000000000e+00
0.000000000000000e+00 0.000000000000000e+00 0.000000000000000e+00
0.000000000000000e+00 0.000000000000000e+00 0.000000000000000e+00
0.000000000000000e+00 0.000000000000000e+00 0.000000000000000e+00
0.000000000000000e+00 0.000000000000000e+00 0.000000000000000e+00
0.000000000000000e+00 0.000000000000000e+00 0.000000000000000e+00
0.000000000000000e+00 0.000000000000000e+00 0.000000000000000e+00
0.000000000000000e+00 0.000000000000000e+00 0.000000000000000e+00
0.000000000000000e+00 0.000000000000000e+00 0.000000000000000e+00
0.000000000000000e+00 0.000000000000000e+00 0.000000000000000e+00
0.000000000000000e+00 0.000000000000000e+00 0.000000000000000e+00
0.000000000000000e+00 0.000000000000000e+00 0.000000000000000e+00
0.000000000000000e+00 0.000000000000000e+00 0.000000000000000e+00
0.000000000000000e+00 0.000000000000000e+00 0.000000000000000e+00
0.000000000000000e+00 0.000000000000000e+00 0.000000000000000e+00
0.000000000000000e+00 0.000000000000000e+00 0.000000000000000e+00
0.000000000000000e+00 0.000000000000000e+00 0.000000000000000e+00
0.000000000000000e+00 0.000000000000000e+00 0.000000000000000e+00
0.000000000000000e+00 0.000000000000000e+00 0.000000000000000e+00
0.000000000000000e+00 0.000000000000000e+00 0.000000000000000e+00
0.000000000000000e+00 0.000000000000000e+00 0.000000000000000e+00
0.000000000000000e+00 0.000000000000000e+00 0.000000000000000e+00
0.000000000000000e+00 0.000000000000000e+00 0.000000000000000e+00
0.000000000000000e+00 0.000000000000000e+00 0.000000000000000e+00
0.000000000000000e+00 0.000000000000000e+00 0.000000000000000e+00
0.000000000000000e+00 0.000000000000000e+00 0.000000000000000e+00
0.000000000000000e+00 0.000000000000000e+00 0.000000000000000e+00
0.000000000000000e+00 0.000000000000000e+00 0.000000000000000e+00
0.000000000000000e+00 0.000000000000000e+00 0.000000000000000e+00
0.000000000000000e+00 0.000000000000000e+00 0.000000000000000e+00
0.000000000000000e+00 0.000000000000000e+00 0.000000000000000e+00
0.000000000000000e+00 0.000000000000000e+00 0.000000000000000e+00
0.000000000000000e+00 0.000000000000000e+00 0.000000000000000e+00
0.000000000000000e+00 0.000000000000000e+00 0.000000000000000e+00
0.000000000000000e+00 0.000000000000000e+00 0.000000000000000e+00
0.000000000000000e+00 0.000000000000000e+00 0.000000000000000e+00
0.000000000000000e+00 0.000000000000000e+00 0.000000000000000e+00
0.000000000000000e+00 0.000000000000000e+00 0.000000000000000e+00
0.000000000000000e+00 0.000000000000000e+00 0.000000000000000e+00
0.000000000000000e+00 0.000000000000000e+00 0.000000000000000e+00
0.000000000000000e+00 0.000000000000000e+00 0.000000000000000e+00
0.000000000000000e+00 0.000000000000000e+00 0.000000000000000e+00
0.000000000000000e+00 0.000000000000000e+00 0.000000000000000e+00
0.000000000000000e+00 0.000000000000000e+00 0.000000000000000e+00
0.000000000000000e+00 0.000000000000000e+00 0.000000000000000e+00
0.000000000000000e+00 0.000000000000000e+00 0.000000000000000e+00
0.000000000000000e+00 0.000000000000000e+00 0.000000000000000e+00
0.000000000000000e+00 0.000000000000000e+00 0.000000000000000e+00
0.000000000000000e+00 0.000000000000000e+00 0.000000000000000e+00
0.000000000000000e+00 0.000000000000000e+00 0.000000000000000e+00
0.000000000000000e+00 0.000000000000000e+00 0.000000000000000e+00
0.000000000000000e+00 0.000000000000000e+00 0.000000000000000e+00
0.000000000000000e+00 0.000000000000000e+00 0.000000000000000e+00
0.000000000000000e+00 0.000000000000000e+00 0.000000000000000e+00
0.000000000000000e+00 0.000000000000000e+00 0.000000000000000e+00
0.000000000000000e+00 0.000000000000000e+00 0.000000000000000e+00
0.000000000000000e+00 0.000000000000000e+00 0.000000000000000e+00
0.000000000000000e+00 0.000000000000000e+00 0.000000000000000e+00
0.000000000000000e+00 0.000000000000000e+00 0.000000000000000e+00
0.000000000000000e+00 0.000000000000000e+00 0.000000000000000e+00
0.000000000000000e+00 0.000000000000000e+00 0.000000000000000e+00
0.000000000000000e+00 0.000000000000000e+00 0.000000000000000e+00
0.000000000000000e+00 0.000000000000000e+00 0.000000000000000e+00
0.000000000000000e+00 0.000000000000000e+00 0.000000000000000e+00
0.000000000000000e+00 0.000000000000000e+00 0.000000000000000e+00
0.000000000000000e+00 0.000000000000000e+00 0.000000000000000e+00
0.000000000000000e+00 0.000000000000000e+00 0.000000000000000e+00
0.000000000000000e+00 0.000000000000000e+00 0.000000000000000e+00
0.000000000000000e+00 0.000000000000000e+00 0.000000000000000e+00
0.000000000000000e+00 0.000000000000000e+00 0.000000000000000e+00
0.000000000000000e+00 0.000000000000000e+00 0.000000000000000e+00
0.000000000000000e+00 0.000000000000000e+00 0.000000000000000e+00
0.000000000000000e+00 0.000000000000000e+00 0.000000000000000e+00
0.000000000000000e+00 0.000000000000000e+00 0.000000000000000e+00
0.000000000000000e+00 0.000000000000000e+00 0.000000000000000e+00
0.000000000000000e+00 0.000000000000000e+00 0.000000000000000e+00
0.000000000000000e+00 0.000000000000000e+00 0.000000000000000e+00
0.000000000000000e+00 0.000000000000000e+00 0.000000000000000e+00
0.000000000000000e+00 0.000000000000000e+00 0.000000000000000e+00
0.000000000000000e+00 0.000000000000000e+00 0.000000000000000e+00
0.000000000000000e+00 0.000000000000000e+00 0.000000000000000e+00
0.000000000000000e+00 0.000000000000000e+00 0.000000000000000e+00
0.000000000000000e+00 0.000000000000000e+00 0.000000000000000e+00
0.000000000000000e+00 0.000000000000000e+00 0.000000000000000e+00
0.000000000000000e+00 0.000000000000000e+00 0.000000000000000e+00
0.000000000000000e+00 0.000000000000000e+00 0.000000000000000e+00
0.000000000000000e+00 0.000000000000000e+00 0.000000000000000e+00
0.000000000000000e+00 0.000000000000000e+00 0.000000000000000e+00
0.000000000000000e+00 0.000000000000000e+00 0.000000000000000e+00
0.000000000000000e+00 0.000000000000000e+00 0.000000000000000e+00
0.000000000000000e+00 0.000000000000000e+00 0.000000000000000e+00
0.000000000000000e+00 0.000000000000000e+00 0.000000000000000e+00
0.000000000000000e+00 0.000000000000000e+00 0.000000000000000e+00
0.000000000000000e+00 0.000000000000000e+00 0.000000000000000e+00
0.000000000000000e+00 0.000000000000000e+00 0.000000000000000e+00
0.000000000000000e+00 0.000000000000000e+00 0.000000000000000e+00
0.000000000000000e+00 0.000000000000000e+00 0.000000000000000e+00
0.000000000000000e+00 0.000000000000000e+00 0.000000000000000e+00
0.000000000000000e+00 0.000000000000000e+00 0.000000000000000e+00
0.000000000000000e+00 0.000000000000000e+00 0.000000000000000e+00
0.000000000000000e+00 0.000000000000000e+00 0.000000000000000e+00
0.000000000000000e+00 0.000000000000000e+00 0.000000000000000e+00
0.000000000000000e+00 0.000000000000000e+00 0.000000000000000e+00
0.000000000000000e+00 0.000000000000000e+00 0.000000000000000e+00
0.000000000000000e+00 0.000000000000000e+00 0.000000000000000e+00
0.000000000000000e+00 0.000000000000000e+00 0.000000000000000e+00
0.000000000000000e+00 0.000000000000000e+00 0.000000000000000e+00
0.000000000000000e+00 0.000000000000000e+00 0.000000000000000e+00
0.000000000000000e+00 0.000000000000000e+00 0.000000000000000e+00
0.000000000000000e+00 0.000000000000000e+00 0.000000000000000e+00
0.000000000000000e+00 0.000000000000000e+00 0.000000000000000e+00
0.000000000000000e+00 0.000000000000000e+00 0.000000000000000e+00
0.000000000000000e+00 0.000000000000000e+00 0.000000000000000e+00
0.000000000000000e+00 0.000000000000000e+00 0.000000000000000e+00
0.000000000000000e+00 0.000000000000000e+00 0.000000000000000e+00
0.000000000000000e+00 0.000000000000000e+00 0.000000000000000e+00
0.000000000000000e+00 0.000000000000000e+00 0.000000000000000e+00
0.000000000000000e+00 0.000000000000000e+00 0.000000000000000e+00
0.000000000000000e+00 0.000000000000000e+00 0.000000000000000e+00
0.000000000000000e+00 0.000000000000000e+00 0.000000000000000e+00
0.000000000000000e+00 0.000000000000000e+00 0.000000000000000e+00
0.000000000000000e+00 0.000000000000000e+00 0.000000000000000e+00
0.000000000000000e+00 0.000000000000000e+00 0.000000000000000e+00
0.000000000000000e+00 0.000000000000000e+00 0.000000000000000e+00
0.000000000000000e+00 0.000000000000000e+00 0.000000000000000e+00
0.000000000000000e+00 0.000000000000000e+00 0.000000000000000e+00
0.000000000000000e+00 0.000000000000000e+00 0.000000000000000e+00
0.000000000000000e+00 0.000000000000000e+00 0.000000000000000e+00
0.000000000000000e+00 0.000000000000000e+00 0.000000000000000e+00
0.000000000000000e+00 0.000000000000000e+00 0.000000000000000e+00
0.000000000000000e+00 0.000000000000000e+00 0.000000000000000e+00
0.000000000000000e+00 0.000000000000000e+00 0.000000000000000e+00
0.000000000000000e+00 0.000000000000000e+00 0.000000000000000e+00
0.000000000000000e+00 0.000000000000000e+00 0.000000000000000e+00
0.000000000000000e+00 0.000000000000000e+00 0.000000000000000e+00
0.000000000000000e+00 0.000000000000000e+00 0.000000000000000e+00
0.000000000000000e+00 0.000000000000000e+00 0.000000000000000e+00
0.000000000000000e+00 0.000000000000000e+00 0.000000000000000e+00
0.000000000000000e+00 0.000000000000000e+00 0.000000000000000e+00
0.000000000000000e+00 0.000000000000000e+00 0.000000000000000e+00
0.000000000000000e+00 0.000000000000000e+00 0.000000000000000e+00
0.000000000000000e+00 0.000000000000000e+00 0.000000000000000e+00
0.000000000000000e+00 0.000000000000000e+00 0.000000000000000e+00
0.000000000000000e+00 0.000000000000000e+00 0.000000000000000e+00
0.000000000000000e+00 0.000000000000000e+00 0.000000000000000e+00
0.000000000000000e+00 0.000000000000000e+00 0.000000000000000e+00
0.000000000000000e+00 0.000000000000000e+00 0.000000000000000e+00
0.000000000000000e+00 0.000000000000000e+00 0.000000000000000e+00
0.000000000000000e+00 0.000000000000000e+00 0.000000000000000e+00
0.000000000000000e+00 0.000000000000000e+00 0.000000000000000e+00
0.000000000000000e+00 0.000000000000000e+00 0.000000000000000e+00
0.000000000000000e+00 0.000000000000000e+00 0.000000000000000e+00
0.000000000000000e+00 0.000000000000000e+00 0.000000000000000e+00
0.000000000000000e+00 0.000000000000000e+00 0.000000000000000e+00
0.000000000000000e+00 0.000000000000000e+00 0.000000000000000e+00
0.000000000000000e+00 0.000000000000000e+00 0.000000000000000e+00
0.000000000000000e+00 0.000000000000000e+00 0.000000000000000e+00
0.000000000000000e+00 0.000000000000000e+00 0.000000000000000e+00
0.000000000000000e+00 0.000000000000000e+00 0.000000000000000e+00
0.000000000000000e+00 0.000000000000000e+00 0.000000000000000e+00
0.000000000000000e+00 0.000000000000000e+00 0.000000000000000e+00
0.000000000000000e+00 0.000000000000000e+00 0.000000000000000e+00
0.000000000000000e+00 0.000000000000000e+00 0.000000000000000e+00
0.000000000000000e+00 0.000000000000000e+00 0.000000000000000e+00
0.000000000000000e+00 0.000000000000000e+00 0.000000000000000e+00
0.000000000000000e+00 0.000000000000000e+00 0.000000000000000e+00
0.000000000000000e+00 0.000000000000000e+00 0.000000000000000e+00
0.000000000000000e+00 0.000000000000000e+00 0.000000000000000e+00
0.000000000000000e+00 0.000000000000000e+00 0.000000000000000e+00
0.000000000000000e+00 0.000000000000000e+00 0.000000000000000e+00
0.000000000000000e+00 0.000000000000000e+00 0.000000000000000e+00
0.000000000000000e+00 0.000000000000000e+00 0.000000000000000e+00
0.000000000000000e+00 0.000000000000000e+00 0.000000000000000e+00
0.000000000000000e+00 0.000000000000000e+00 0.000000000000000e+00
0.000000000000000e+00 0.000000000000000e+00 0.000000000000000e+00
0.000000000000000e+00 0.000000000000000e+00 0.000000000000000e+00
0.000000000000000e+00 0.000000000000000e+00 0.000000000000000e+00
0.000000000000000e+00 0.000000000000000e+00 0.000000000000000e+00
0.000000000000000e+00 0.000000000000000e+00 0.000000000000000e+00
0.000000000000000e+00 0.000000000000000e+00 0.000000000000000e+00
0.000000000000000e+00 0.000000000000000e+00 0.000000000000000e+00
0.000000000000000e+00 0.000000000000000e+00 0.000000000000000e+00
0.000000000000000e+00 0.000000000000000e+00 0.000000000000000e+00
0.000000000000000e+00 0.000000000000000e+00 0.000000000000000e+00
0.000000000000000e+00 0.000000000000000e+00 0.000000000000000e+00
0.000000000000000e+00 0.000000000000000e+00 0.000000000000000e+00
0.000000000000000e+00 0.000000000000000e+00 0.000000000000000e+00
0.000000000000000e+00 0.000000000000000e+00 0.000000000000000e+00
0.000000000000000e+00 0.000000000000000e+00 0.000000000000000e+00
0.000000000000000e+00 0.000000000000000e+00 0.000000000000000e+00
0.000000000000000e+00 0.000000000000000e+00 0.000000000000000e+00
0.000000000000000e+00 0.000000000000000e+00 0.000000000000000e+00
0.000000000000000e+00 0.000000000000000e+00 0.000000000000000e+00
0.000000000000000e+00 0.000000000000000e+00 0.000000000000000e+00
0.000000000000000e+00 0.000000000000000e+00 0.000000000000000e+00
0.000000000000000e+00 0.000000000000000e+00 0.000000000000000e+00
0.000000000000000e+00 0.000000000000000e+00 0.000000000000000e+00
0.000000000000000e+00 0.000000000000000e+00 0.000000000000000e+00
0.000000000000000e+00 0.000000000000000e+00 0.000000000000000e+00
0.000000000000000e+00 0.000000000000000e+00 0.000000000000000e+00
0.000000000000000e+00 0.000000000000000e+00 0.000000000000000e+00
0.000000000000000e+00 0.000000000000000e+00 0.000000000000000e+00
0.000000000000000e+00 0.000000000000000e+00 0.000000000000000e+00
0.000000000000000e+00 0.000000000000000e+00 0.000000000000000e+00
0.000000000000000e+00 0.000000000000000e+00 0.000000000000000e+00
0.000000000000000e+00 0.000000000000000e+00 0.000000000000000e+00
0.000000000000000e+00 0.000000000000000e+00 0.000000000000000e+00
0.000000000000000e+00 0.000000000000000e+00 0.000000000000000e+00
0.000000000000000e+00 0.000000000000000e+00 0.000000000000000e+00
0.000000000000000e+00 0.000000000000000e+00 0.000000000000000e+00
0.000000000000000e+00 0.000000000000000e+00 0.000000000000000e+00
0.000000000000000e+00 0.000000000000000e+00 0.000000000000000e+00
0.000000000000000e+00 0.000000000000000e+00 0.000000000000000e+00
0.000000000000000e+00 0.000000000000000e+00 0.000000000000000e+00
0.000000000000000e+00 0.000000000000000e+00 0.000000000000000e+00
0.000000000000000e+00 0.000000000000000e+00 0.000000000000000e+00
0.000000000000000e+00 0.000000000000000e+00 0.000000000000000e+00
0.000000000000000e+00 0.000000000000000e+00 0.000000000000000e+00
0.000000000000000e+00 0.000000000000000e+00 0.000000000000000e+00
0.000000000000000e+00 0.000000000000000e+00 0.000000000000000e+00
0.000000000000000e+00 0.000000000000000e+00 0.000000000000000e+00
0.000000000000000e+00 0.000000000000000e+00 0.000000000000000e+00
0.000000000000000e+00 0.000000000000000e+00 0.000000000000000e+00
0.000000000000000e+00 0.000000000000000e+00 0.000000000000000e+00
0.000000000000000e+00 0.000000000000000e+00 0.000000000000000e+00
0.000000000000000e+00 0.000000000000000e+00 0.000000000000000e+00
0.000000000000000e+00 0.000000000000000e+00 0.000000000000000e+00
0.000000000000000e+00 0.000000000000000e+00 0.000000000000000e+00
0.000000000000000e+00 0.000000000000000e+00 0.000000000000000e+00
0.000000000000000e+00 0.000000000000000e+00 0.000000000000000e+00
0.000000000000000e+00 0.000000000000000e+00 0.000000000000000e+00
0.000000000000000e+00 0.000000000000000e+00 0.000000000000000e+00
0.000000000000000e+00 0.000000000000000e+00 0.000000000000000e+00
0.000000000000000e+00 0.000000000000000e+00 0.000000000000000e+00
0.000000000000000e+00 0.000000000000000e+00 0.000000000000000e+00
0.000000000000000e+00 0.000000000000000e+00 0.000000000000000e+00
0.000000000000000e+00 0.000000000000000e+00 0.000000000000000e+00
0.000000000000000e+00 0.000000000000000e+00 0.000000000000000e+00
0.000000000000000e+00 0.000000000000000e+00 0.000000000000000e+00
0.000000000000000e+00 0.000000000000000e+00 0.000000000000000e+00
0.000000000000000e+00 0.000000000000000e+00 0.000000000000000e+00
0.000000000000000e+00 0.000000000000000e+00 0.000000000000000e+00
0.000000000000000e+00 0.000000000000000e+00 0.000000000000000e+00
0.000000000000000e+00 0.000000000000000e+00 0.000000000000000e+00
0.000000000000000e+00 0.000000000000000e+00 0.000000000000000e+00
0.000000000000000e+00 0.000000000000000e+00 0.000000000000000e+00
0.000000000000000e+00 0.000000000000000e+00 0.000000000000000e+00
0.000000000000000e+00 0.000000000000000e+00 0.000000000000000e+00
0.000000000000000e+00 0.000000000000000e+00 0.000000000000000e+00
0.000000000000000e+00 0.000000000000000e+00 0.000000000000000e+00
0.000000000000000e+00 0.000000000000000e+00 0.000000000000000e+00
0.000000000000000e+00 0.000000000000000e+00 0.000000000000000e+00
0.000000000000000e+00 0.000000000000000e+00 0.000000000000000e+00
0.000000000000000e+00 0.000000000000000e+00 0.000000000000000e+00
0.000000000000000e+00 0.000000000000000e+00 0.000000000000000e+00
0.000000000000000e+00 0.000000000000000e+00 0.000000000000000e+00
0.000000000000000e+00 0.000000000000000e+00 0.000000000000000e+00
0.000000000000000e+00 0.000000000000000e+00 0.000000000000000e+00
0.000000000000000e+00 0.000000000000000e+00 0.000000000000000e+00
0.000000000000000e+00 0.000000000000000e+00 0.000000000000000e+00
0.000000000000000e+00 0.000000000000000e+00 0.000000000000000e+00
0.000000000000000e+00 0.000000000000000e+00 0.000000000000000e+00
0.000000000000000e+00 0.000000000000000e+00 0.000000000000000e+00
0.000000000000000e+00 0.000000000000000e+00 0.000000000000000e+00
0.000000000000000e+00 0.000000000000000e+00 0.000000000000000e+00
0.000000000000000e+00 0.000000000000000e+00 0.000000000000000e+00
0.000000000000000e+00 0.000000000000000e+00 0.000000000000000e+00
0.000000000000000e+00 0.000000000000000e+00 0.000000000000000e+00
0.000000000000000e+00 0.000000000000000e+00 0.000000000000000e+00
0.000000000000000e+00 0.000000000000000e+00 0.000000000000000e+00
0.000000000000000e+00 0.000000000000000e+00 0.000000000000000e+00
0.000000000000000e+00 0.000000000000000e+00 0.000000000000000e+00
0.000000000000000e+00 0.000000000000000e+00 0.000000000000000e+00
0.000000000000000e+00 0.000000000000000e+00 0.000000000000000e+00
0.000000000000000e+00 0.000000000000000e+00 0.000000000000000e+00
0.000000000000000e+00 0.000000000000000e+00 0.000000000000000e+00
0.000000000000000e+00 0.000000000000000e+00 0.000000000000000e+00
0.000000000000000e+00 0.000000000000000e+00 0.000000000000000e+00
0.000000000000000e+00 0.000000000000000e+00 0.000000000000000e+00
0.000000000000000e+00 0.000000000000000e+00 0.000000000000000e+00
0.000000000000000e+00 0.000000000000000e+00 0.000000000000000e+00
0.000000000000000e+00 0.000000000000000e+00 0.000000000000000e+00
0.000000000000000e+00 0.000000000000000e+00 0.000000000000000e+00
0.000000000000000e+00 0.000000000000000e+00 0.000000000000000e+00
0.000000000000000e+00 0.000000000000000e+00 0.000000000000000e+00
0.000000000000000e+00 0.000000000000000e+00 0.000000000000000e+00
0.000000000000000e+00 0.000000000000000e+00 0.000000000000000e+00
0.000000000000000e+00 0.000000000000000e+00 0.000000000000000e+00
0.000000000000000e+00 0.000000000000000e+00 0.000000000000000e+00
0.000000000000000e+00 0.000000000000000e+00 0.000000000000000e+00
0.000000000000000e+00 0.000000000000000e+00 0.000000000000000e+00
0.000000000000000e+00 0.000000000000000e+00 0.000000000000000e+00
0.000000000000000e+00 0.000000000000000e+00 0.000000000000000e+00
0.000000000000000e+00 0.000000000000000e+00 0.000000000000000e+00
0.000000000000000e+00 0.000000000000000e+00 0.000000000000000e+00
0.000000000000000e+00 0.000000000000000e+00 0.000000000000000e+00
0.000000000000000e+00 0.000000000000000e+00 0.000000000000000e+00
0.000000000000000e+00 0.000000000000000e+00 0.000000000000000e+00
0.000000000000000e+00 0.000000000000000e+00 0.000000000000000e+00
0.000000000000000e+00 0.000000000000000e+00 0.000000000000000e+00
0.000000000000000e+00 0.000000000000000e+00 0.000000000000000e+00
0.000000000000000e+00 0.000000000000000e+00 0.000000000000000e+00
0.000000000000000e+00 0.000000000000000e+00 0.000000000000000e+00
0.000000000000000e+00 0.000000000000000e+00 0.000000000000000e+00
0.000000000000000e+00 0.000000000000000e+00 0.000000000000000e+00
0.000000000000000e+00 0.000000000000000e+00 0.000000000000000e+00
0.000000000000000e+00 0.000000000000000e+00 0.000000000000000e+00
0.000000000000000e+00 0.000000000000000e+00 0.000000000000000e+00
0.000000000000000e+00 0.000000000000000e+00 0.000000000000000e+00
0.000000000000000e+00 0.000000000000000e+00 0.000000000000000e+00
0.000000000000000e+00 0.000000000000000e+00 0.000000000000000e+00
0.000000000000000e+00 0.000000000000000e+00 0.000000000000000e+00
0.000000000000000e+00 0.000000000000000e+00 0.000000000000000e+00
0.000000000000000e+00 0.000000000000000e+00 0.000000000000000e+00
0.000000000000000e+00 0.000000000000000e+00 0.000000000000000e+00
0.000000000000000e+00 0.000000000000000e+00 0.000000000000000e+00
0.000000000000000e+00 0.000000000000000e+00 0.000000000000000e+00
0.000000000000000e+00 0.000000000000000e+00 0.000000000000000e+00
0.000000000000000e+00 0.000000000000000e+00 0.000000000000000e+00
0.000000000000000e+00 0.000000000000000e+00 0.000000000000000e+00
0.000000000000000e+00 0.000000000000000e+00 0.000000000000000e+00
0.000000000000000e+00 0.000000000000000e+00 0.000000000000000e+00
0.000000000000000e+00 0.000000000000000e+00 0.000000000000000e+00
0.000000000000000e+00 0.000000000000000e+00 0.000000000000000e+00
0.000000000000000e+00 0.000000000000000e+00 0.000000000000000e+00
0.000000000000000e+00 0.000000000000000e+00 0.000000000000000e+00
0.000000000000000e+00 0.000000000000000e+00 0.000000000000000e+00
0.000000000000000e+00 0.000000000000000e+00 0.000000000000000e+00
0.000000000000000e+00 0.000000000000000e+00 0.000000000000000e+00
0.000000000000000e+00 0.000000000000000e+00 0.000000000000000e+00
0.000000000000000e+00 0.000000000000000e+00 0.000000000000000e+00
0.000000000000000e+00 0.000000000000000e+00 0.000000000000000e+00
0.000000000000000e+00 0.000000000000000e+00 0.000000000000000e+00
0.000000000000000e+00 0.000000000000000e+00 0.000000000000000e+00
0.000000000000000e+00 0.000000000000000e+00 0.000000000000000e+00
0.000000000000000e+00 0.000000000000000e+00 0.000000000000000e+00
0.000000000000000e+00 0.000000000000000e+00 0.000000000000000e+00
0.000000000000000e+00 0.000000000000000e+00 0.000000000000000e+00
0.000000000000000e+00 0.000000000000000e+00 0.000000000000000e+00
0.000000000000000e+00 0.000000000000000e+00 0.000000000000000e+00
0.000000000000000e+00 0.000000000000000e+00 0.000000000000000e+00
0.000000000000000e+00 0.000000000000000e+00 0.000000000000000e+00
0.000000000000000e+00 0.000000000000000e+00 0.000000000000000e+00
0.000000000000000e+00 0.000000000000000e+00 0.000000000000000e+00
0.000000000000000e+00 0.000000000000000e+00 0.000000000000000e+00
0.000000000000000e+00 0.000000000000000e+00 0.000000000000000e+00
0.000000000000000e+00 0.000000000000000e+00 0.000000000000000e+00
0.000000000000000e+00 0.000000000000000e+00 0.000000000000000e+00
0.000000000000000e+00 0.000000000000000e+00 0.000000000000000e+00
0.000000000000000e+00 0.000000000000000e+00 0.000000000000000e+00
0.000000000000000e+00 0.000000000000000e+00 0.000000000000000e+00
0.000000000000000e+00 0.000000000000000e+00 0.000000000000000e+00
0.000000000000000e+00 0.000000000000000e+00 0.000000000000000e+00
0.000000000000000e+00 0.000000000000000e+00 0.000000000000000e+00
0.000000000000000e+00 0.000000000000000e+00 0.000000000000000e+00
0.000000000000000e+00 0.000000000000000e+00 0.000000000000000e+00
0.000000000000000e+00 0.000000000000000e+00 0.000000000000000e+00
0.000000000000000e+00 0.000000000000000e+00 0.000000000000000e+00
0.000000000000000e+00 0.000000000000000e+00 0.000000000000000e+00
0.000000000000000e+00 0.000000000000000e+00 0.000000000000000e+00
0.000000000000000e+00 0.000000000000000e+00 0.000000000000000e+00
0.000000000000000e+00 0.000000000000000e+00 0.000000000000000e+00
0.000000000000000e+00 0.000000000000000e+00 0.000000000000000e+00
0.000000000000000e+00 0.000000000000000e+00 0.000000000000000e+00
0.000000000000000e+00 0.000000000000000e+00 0.000000000000000e+00
0.000000000000000e+00 0.000000000000000e+00 0.000000000000000e+00
0.000000000000000e+00 0.000000000000000e+00 0.000000000000000e+00
0.000000000000000e+00 0.000000000000000e+00 0.000000000000000e+00
0.000000000000000e+00 0.000000000000000e+00 0.000000000000000e+00
0.000000000000000e+00 0.000000000000000e+00 0.000000000000000e+00
0.000000000000000e+00 0.000000000000000e+00 0.000000000000000e+00
0.000000000000000e+00 0.000000000000000e+00 0.000000000000000e+00
0.000000000000000e+00 0.000000000000000e+00 0.000000000000000e+00
0.000000000000000e+00 0.000000000000000e+00 0.000000000000000e+00
0.000000000000000e+00 0.000000000000000e+00 0.000000000000000e+00
0.000000000000000e+00 0.000000000000000e+00 0.000000000000000e+00
0.000000000000000e+00 0.000000000000000e+00 0.000000000000000e+00
0.000000000000000e+00 0.000000000000000e+00 0.000000000000000e+00
0.000000000000000e+00 0.000000000000000e+00 0.000000000000000e+00
0.000000000000000e+00 0.000000000000000e+00 0.000000000000000e+00
0.000000000000000e+00 0.000000000000000e+00 0.000000000000000e+00
0.000000000000000e+00 0.000000000000000e+00 0.000000000000000e+00
0.000000000000000e+00 0.000000000000000e+00 0.000000000000000e+00
0.000000000000000e+00 0.000000000000000e+00 0.000000000000000e+00
0.000000000000000e+00 0.000000000000000e+00 0.000000000000000e+00
0.000000000000000e+00 0.000000000000000e+00 0.000000000000000e+00
0.000000000000000e+00 0.000000000000000e+00 0.000000000000000e+00
0.000000000000000e+00 0.000000000000000e+00 0.000000000000000e+00
0.000000000000000e+00 0.000000000000000e+00 0.000000000000000e+00
0.000000000000000e+00 0.000000000000000e+00 0.000000000000000e+00
0.000000000000000e+00 0.000000000000000e+00 0.000000000000000e+00
0.000000000000000e+00 0.000000000000000e+00 0.000000000000000e+00
0.000000000000000e+00 0.000000000000000e+00 0.000000000000000e+00
0.000000000000000e+00 0.000000000000000e+00 0.000000000000000e+00
0.000000000000000e+00 0.000000000000000e+00 0.000000000000000e+00
0.000000000000000e+00 0.000000000000000e+00 0.000000000000000e+00
0.000000000000000e+00 0.000000000000000e+00 0.000000000000000e+00
0.000000000000000e+00 0.000000000000000e+00 0.000000000000000e+00
0.000000000000000e+00 0.000000000000000e+00 0.000000000000000e+00
0.000000000000000e+00 0.000000000000000e+00 0.000000000000000e+00
0.000000000000000e+00 0.000000000000000e+00 0.000000000000000e+00
0.000000000000000e+00 0.000000000000000e+00 0.000000000000000e+00
0.000000000000000e+00 0.000000000000000e+00 0.000000000000000e+00
0.000000000000000e+00 0.000000000000000e+00 0.000000000000000e+00
0.000000000000000e+00 0.000000000000000e+00 0.000000000000000e+00
0.000000000000000e+00 0.000000000000000e+00 0.000000000000000e+00
0.000000000000000e+00 0.000000000000000e+00 0.000000000000000e+00
0.000000000000000e+00 0.000000000000000e+00 0.000000000000000e+00
0.000000000000000e+00 0.000000000000000e+00 0.000000000000000e+00
0.000000000000000e+00 0.000000000000000e+00 0.000000000000000e+00
0.000000000000000e+00 0.000000000000000e+00 0.000000000000000e+00
0.000000000000000e+00 0.000000000000000e+00 0.000000000000000e+00
0.000000000000000e+00 0.000000000000000e+00 0.000000000000000e+00
0.000000000000000e+00 0.000000000000000e+00 0.000000000000000e+00
0.000000000000000e+00 0.000000000000000e+00 0.000000000000000e+00
0.000000000000000e+00 0.000000000000000e+00 0.000000000000000e+00
0.000000000000000e+00 0.000000000000000e+00 0.000000000000000e+00
0.000000000000000e+00 0.000000000000000e+00 0.000000000000000e+00
0.000000000000000e+00 0.000000000000000e+00 0.000000000000000e+00
0.000000000000000e+00 0.000000000000000e+00 0.000000000000000e+00
0.000000000000000e+00 0.000000000000000e+00 0.000000000000000e+00
0.000000000000000e+00 0.000000000000000e+00 0.000000000000000e+00
0.000000000000000e+00 0.000000000000000e+00 0.000000000000000e+00
0.000000000000000e+00 0.000000000000000e+00 0.000000000000000e+00
0.000000000000000e+00 0.000000000000000e+00 0.000000000000000e+00
0.000000000000000e+00 0.000000000000000e+00 0.000000000000000e+00
0.000000000000000e+00 0.000000000000000e+00 0.000000000000000e+00
0.000000000000000e+00 0.000000000000000e+00 0.000000000000000e+00
0.000000000000000e+00 0.000000000000000e+00 0.000000000000000e+00
0.000000000000000e+00 0.000000000000000e+00 0.000000000000000e+00
0.000000000000000e+00 0.000000000000000e+00 0.000000000000000e+00
0.000000000000000e+00 0.000000000000000e+00 0.000000000000000e+00
0.000000000000000e+00 0.000000000000000e+00 0.000000000000000e+00
0.000000000000000e+00 0.000000000000000e+00 0.000000000000000e+00
0.000000000000000e+00 0.000000000000000e+00 0.000000000000000e+00
0.000000000000000e+00 0.000000000000000e+00 0.000000000000000e+00
0.000000000000000e+00 0.000000000000000e+00 0.000000000000000e+00
0.000000000000000e+00 0.000000000000000e+00 0.000000000000000e+00
0.000000000000000e+00 0.000000000000000e+00 0.000000000000000e+00
0.000000000000000e+00 0.000000000000000e+00 0.000000000000000e+00
0.000000000000000e+00 0.000000000000000e+00 0.000000000000000e+00
0.000000000000000e+00 0.000000000000000e+00 0.000000000000000e+00
0.000000000000000e+00 0.000000000000000e+00 0.000000000000000e+00
0.000000000000000e+00 0.000000000000000e+00 0.000000000000000e+00
0.000000000000000e+00 0.000000000000000e+00 0.000000000000000e+00
0.000000000000000e+00 0.000000000000000e+00 0.000000000000000e+00
0.000000000000000e+00 0.000000000000000e+00 0.000000000000000e+00
0.000000000000000e+00 0.000000000000000e+00 0.000000000000000e+00
0.000000000000000e+00 0.000000000000000e+00 0.000000000000000e+00
0.000000000000000e+00 0.000000000000000e+00 0.000000000000000e+00
0.000000000000000e+00 0.000000000000000e+00 0.000000000000000e+00
0.000000000000000e+00 0.000000000000000e+00 0.000000000000000e+00
0.000000000000000e+00 0.000000000000000e+00 0.000000000000000e+00
0.000000000000000e+00 0.000000000000000e+00 0.000000000000000e+00
0.000000000000000e+00 0.000000000000000e+00 0.000000000000000e+00
0.000000000000000e+00 0.000000000000000e+00 0.000000000000000e+00
0.000000000000000e+00 0.000000000000000e+00 0.000000000000000e+00
0.000000000000000e+00 0.000000000000000e+00 0.000000000000000e+00
0.000000000000000e+00 0.000000000000000e+00 0.000000000000000e+00
0.000000000000000e+00 0.000000000000000e+00 0.000000000000000e+00
0.000000000000000e+00 0.000000000000000e+00 0.000000000000000e+00
0.000000000000000e+00 0.000000000000000e+00 0.000000000000000e+00
0.000000000000000e+00 0.000000000000000e+00 0.000000000000000e+00
0.000000000000000e+00 0.000000000000000e+00 0.000000000000000e+00
0.000000000000000e+00 0.000000000000000e+00 0.000000000000000e+00
0.000000000000000e+00 0.000000000000000e+00 0.000000000000000e+00
0.000000000000000e+00 0.000000000000000e+00 0.000000000000000e+00
0.000000000000000e+00 0.000000000000000e+00 0.000000000000000e+00
0.000000000000000e+00 0.000000000000000e+00 0.000000000000000e+00
0.000000000000000e+00 0.000000000000000e+00 0.000000000000000e+00
0.000000000000000e+00 0.000000000000000e+00 0.000000000000000e+00
0.000000000000000e+00 0.000000000000000e+00 0.000000000000000e+00
0.000000000000000e+00 0.000000000000000e+00 0.000000000000000e+00
0.000000000000000e+00 0.000000000000000e+00 0.000000000000000e+00
0.000000000000000e+00 0.000000000000000e+00 0.000000000000000e+00
0.000000000000000e+00 0.000000000000000e+00 0.000000000000000e+00
0.000000000000000e+00 0.000000000000000e+00 0.000000000000000e+00
0.000000000000000e+00 0.000000000000000e+00 0.000000000000000e+00
0.000000000000000e+00 0.000000000000000e+00 0.000000000000000e+00
0.000000000000000e+00 0.000000000000000e+00 0.000000000000000e+00
0.000000000000000e+00 0.000000000000000e+00 0.000000000000000e+00
0.000000000000000e+00 0.000000000000000e+00 0.000000000000000e+00
0.000000000000000e+00 0.000000000000000e+00 0.000000000000000e+00
0.000000000000000e+00 0.000000000000000e+00 0.000000000000000e+00
0.000000000000000e+00 0.000000000000000e+00 0.000000000000000e+00
0.000000000000000e+00 0.000000000000000e+00 0.000000000000000e+00
0.000000000000000e+00 0.000000000000000e+00 0.000000000000000e+00
0.000000000000000e+00 0.000000000000000e+00 0.000000000000000e+00
0.000000000000000e+00 0.000000000000000e+00 0.000000000000000e+00
0.000000000000000e+00 0.000000000000000e+00 0.000000000000000e+00
0.000000000000000e+00 0.000000000000000e+00 0.000000000000000e+00
0.000000000000000e+00 0.000000000000000e+00 0.000000000000000e+00
0.000000000000000e+00 0.000000000000000e+00 0.000000000000000e+00
0.000000000000000e+00 0.000000000000000e+00 0.000000000000000e+00
0.000000000000000e+00 0.000000000000000e+00 0.000000000000000e+00
0.000000000000000e+00 0.000000000000000e+00 0.000000000000000e+00
0.000000000000000e+00 0.000000000000000e+00 0.000000000000000e+00
0.000000000000000e+00 0.000000000000000e+00 0.000000000000000e+00
0.000000000000000e+00 0.000000000000000e+00 0.000000000000000e+00
0.000000000000000e+00 0.000000000000000e+00 0.000000000000000e+00
0.000000000000000e+00 0.000000000000000e+00 0.000000000000000e+00
0.000000000000000e+00 0.000000000000000e+00 0.000000000000000e+00
0.000000000000000e+00 0.000000000000000e+00 0.000000000000000e+00
0.000000000000000e+00 0.000000000000000e+00 0.000000000000000e+00
0.000000000000000e+00 0.000000000000000e+00 0.000000000000000e+00
0.000000000000000e+00 0.000000000000000e+00 0.000000000000000e+00
0.000000000000000e+00 0.000000000000000e+00 0.000000000000000e+00
0.000000000000000e+00 0.000000000000000e+00 0.000000000000000e+00
0.000000000000000e+00 0.000000000000000e+00 0.000000000000000e+00
0.000000000000000e+00 0.000000000000000e+00 0.000000000000000e+00
0.000000000000000e+00 0.000000000000000e+00 0.000000000000000e+00
0.000000000000000e+00 0.000000000000000e+00 0.000000000000000e+00
0.000000000000000e+00 0.000000000000000e+00 0.000000000000000e+00
0.000000000000000e+00 0.000000000000000e+00 0.000000000000000e+00
0.000000000000000e+00 0.000000000000000e+00 0.000000000000000e+00
0.000000000000000e+00 0.000000000000000e+00 0.000000000000000e+00
0.000000000000000e+00 0.000000000000000e+00 0.000000000000000e+00
0.000000000000000e+00 0.000000000000000e+00 0.000000000000000e+00
0.000000000000000e+00 0.000000000000000e+00 0.000000000000000e+00
0.000000000000000e+00 0.000000000000000e+00 0.000000000000000e+00
0.000000000000000e+00 0.000000000000000e+00 0.000000000000000e+00
0.000000000000000e+00 0.000000000000000e+00 0.000000000000000e+00
0.000000000000000e+00 0.000000000000000e+00 0.000000000000000e+00
0.000000000000000e+00 0.000000000000000e+00 0.000000000000000e+00
0.000000000000000e+00 0.000000000000000e+00 0.000000000000000e+00
0.000000000000000e+00 0.000000000000000e+00 0.000000000000000e+00
0.000000000000000e+00 0.000000000000000e+00 0.000000000000000e+00
0.000000000000000e+00 0.000000000000000e+00 0.000000000000000e+00
0.000000000000000e+00 0.000000000000000e+00 0.000000000000000e+00
0.000000000000000e+00 0.000000000000000e+00 0.000000000000000e+00
0.000000000000000e+00 0.000000000000000e+00 0.000000000000000e+00
0.000000000000000e+00 0.000000000000000e+00 0.000000000000000e+00
0.000000000000000e+00 0.000000000000000e+00 0.000000000000000e+00
0.000000000000000e+00 0.000000000000000e+00 0.000000000000000e+00
0.000000000000000e+00 0.000000000000000e+00 0.000000000000000e+00
0.000000000000000e+00 0.000000000000000e+00 0.000000000000000e+00
0.000000000000000e+00 0.000000000000000e+00 0.000000000000000e+00
0.000000000000000e+00 0.000000000000000e+00 0.000000000000000e+00
0.000000000000000e+00 0.000000000000000e+00 0.000000000000000e+00
0.000000000000000e+00 0.000000000000000e+00 0.000000000000000e+00
0.000000000000000e+00 0.000000000000000e+00 0.000000000000000e+00
0.000000000000000e+00 0.000000000000000e+00 0.000000000000000e+00
0.000000000000000e+00 0.000000000000000e+00 0.000000000000000e+00
0.000000000000000e+00 0.000000000000000e+00 0.000000000000000e+00
0.000000000000000e+00 0.000000000000000e+00 0.000000000000000e+00
0.000000000000000e+00 0.000000000000000e+00 0.000000000000000e+00
0.000000000000000e+00 0.000000000000000e+00 0.000000000000000e+00
0.000000000000000e+00 0.000000000000000e+00 0.000000000000000e+00
0.000000000000000e+00 0.000000000000000e+00 0.000000000000000e+00
0.000000000000000e+00 0.000000000000000e+00 0.000000000000000e+00
0.000000000000000e+00 0.000000000000000e+00 0.000000000000000e+00
0.000000000000000e+00 0.000000000000000e+00 0.000000000000000e+00
0.000000000000000e+00 0.000000000000000e+00 0.000000000000000e+00
0.000000000000000e+00 0.000000000000000e+00 0.000000000000000e+00
0.000000000000000e+00 0.000000000000000e+00 0.000000000000000e+00
0.000000000000000e+00 0.000000000000000e+00 0.000000000000000e+00
0.000000000000000e+00 0.000000000000000e+00 0.000000000000000e+00
0.000000000000000e+00 0.000000000000000e+00 0.000000000000000e+00
0.000000000000000e+00 0.000000000000000e+00 0.000000000000000e+00
0.000000000000000e+00 0.000000000000000e+00 0.000000000000000e+00
0.000000000000000e+00 0.000000000000000e+00 0.000000000000000e+00
0.000000000000000e+00 0.000000000000000e+00 0.000000000000000e+00
0.000000000000000e+00 0.000000000000000e+00 0.000000000000000e+00
0.000000000000000e+00 0.000000000000000e+00 0.000000000000000e+00
0.000000000000000e+00 0.000000000000000e+00 0.000000000000000e+00
0.000000000000000e+00 0.000000000000000e+00 0.000000000000000e+00
0.000000000000000e+00 0.000000000000000e+00 0.000000000000000e+00
0.000000000000000e+00 0.000000000000000e+00 0.000000000000000e+00
0.000000000000000e+00 0.000000000000000e+00 0.000000000000000e+00
0.000000000000000e+00 0.000000000000000e+00 0.000000000000000e+00
0.000000000000000e+00 0.000000000000000e+00 0.000000000000000e+00
0.000000000000000e+00 0.000000000000000e+00 0.000000000000000e+00
0.000000000000000e+00 0.000000000000000e+00 0.000000000000000e+00
0.000000000000000e+00 0.000000000000000e+00 0.000000000000000e+00
0.000000000000000e+00 0.000000000000000e+00 0.000000000000000e+00
0.000000000000000e+00 0.000000000000000e+00 0.000000000000000e+00
0.000000000000000e+00 0.000000000000000e+00 0.000000000000000e+00
0.000000000000000e+00 0.000000000000000e+00 0.000000000000000e+00
0.000000000000000e+00 0.000000000000000e+00 0.000000000000000e+00
0.000000000000000e+00 0.000000000000000e+00 0.000000000000000e+00
0.000000000000000e+00 0.000000000000000e+00 0.000000000000000e+00
0.000000000000000e+00 0.000000000000000e+00 0.000000000000000e+00
0.000000000000000e+00 0.000000000000000e+00 0.000000000000000e+00
0.000000000000000e+00 0.000000000000000e+00 0.000000000000000e+00
0.000000000000000e+00 0.000000000000000e+00 0.000000000000000e+00
0.000000000000000e+00 0.000000000000000e+00 0.000000000000000e+00
0.000000000000000e+00 0.000000000000000e+00 0.000000000000000e+00
0.000000000000000e+00 0.000000000000000e+00 0.000000000000000e+00
0.000000000000000e+00 0.000000000000000e+00 0.000000000000000e+00
0.000000000000000e+00 0.000000000000000e+00 0.000000000000000e+00
0.000000000000000e+00 0.000000000000000e+00 0.000000000000000e+00
0.000000000000000e+00 0.000000000000000e+00 0.000000000000000e+00
0.000000000000000e+00 0.000000000000000e+00 0.000000000000000e+00
0.000000000000000e+00 0.000000000000000e+00 0.000000000000000e+00
0.000000000000000e+00 0.000000000000000e+00 0.000000000000000e+00
0.000000000000000e+00 0.000000000000000e+00 0.000000000000000e+00
0.000000000000000e+00 0.000000000000000e+00 0.000000000000000e+00
0.000000000000000e+00 0.000000000000000e+00 0.000000000000000e+00
0.000000000000000e+00 0.000000000000000e+00 0.000000000000000e+00
0.000000000000000e+00 0.000000000000000e+00 0.000000000000000e+00
0.000000000000000e+00 0.000000000000000e+00 0.000000000000000e+00
0.000000000000000e+00 0.000000000000000e+00 0.000000000000000e+00
0.000000000000000e+00 0.000000000000000e+00 0.000000000000000e+00
0.000000000000000e+00 0.000000000000000e+00 0.000000000000000e+00
0.000000000000000e+00 0.000000000000000e+00 0.000000000000000e+00
0.000000000000000e+00 0.000000000000000e+00 0.000000000000000e+00
0.000000000000000e+00 0.000000000000000e+00 0.000000000000000e+00
0.000000000000000e+00 0.000000000000000e+00 0.000000000000000e+00
0.000000000000000e+00 0.000000000000000e+00 0.000000000000000e+00
0.000000000000000e+00 0.000000000000000e+00 0.000000000000000e+00
0.000000000000000e+00 0.000000000000000e+00 0.000000000000000e+00
0.000000000000000e+00 0.000000000000000e+00 0.000000000000000e+00
0.000000000000000e+00 0.000000000000000e+00 0.000000000000000e+00
0.000000000000000e+00 0.000000000000000e+00 0.000000000000000e+00
0.000000000000000e+00 0.000000000000000e+00 0.000000000000000e+00
0.000000000000000e+00 0.000000000000000e+00 0.000000000000000e+00
0.000000000000000e+00 0.000000000000000e+00 0.000000000000000e+00
0.000000000000000e+00 0.000000000000000e+00 0.000000000000000e+00
0.000000000000000e+00 0.000000000000000e+00 0.000000000000000e+00
0.000000000000000e+00 0.000000000000000e+00 0.000000000000000e+00
0.000000000000000e+00 0.000000000000000e+00 0.000000000000000e+00
0.000000000000000e+00 0.000000000000000e+00 0.000000000000000e+00
0.000000000000000e+00 0.000000000000000e+00 0.000000000000000e+00
0.000000000000000e+00 0.000000000000000e+00 0.000000000000000e+00
0.000000000000000e+00 0.000000000000000e+00 0.000000000000000e+00
0.000000000000000e+00 0.000000000000000e+00 0.000000000000000e+00
0.000000000000000e+00 0.000000000000000e+00 0.000000000000000e+00
0.000000000000000e+00 0.000000000000000e+00 0.000000000000000e+00
0.000000000000000e+00 0.000000000000000e+00 0.000000000000000e+00
0.000000000000000e+00 0.000000000000000e+00 0.000000000000000e+00
0.000000000000000e+00 0.000000000000000e+00 0.000000000000000e+00
0.000000000000000e+00 0.000000000000000e+00 0.000000000000000e+00
0.000000000000000e+00 0.000000000000000e+00 0.000000000000000e+00
0.000000000000000e+00 0.000000000000000e+00 0.000000000000000e+00
0.000000000000000e+00 0.000000000000000e+00 0.000000000000000e+00
0.000000000000000e+00 0.000000000000000e+00 0.000000000000000e+00
0.000000000000000e+00 0.000000000000000e+00 0.000000000000000e+00
0.000000000000000e+00 0.000000000000000e+00 0.000000000000000e+00
0.000000000000000e+00 0.000000000000000e+00 0.000000000000000e+00
0.000000000000000e+00 0.000000000000000e+00 0.000000000000000e+00
0.000000000000000e+00 0.000000000000000e+00 0.000000000000000e+00
0.000000000000000e+00 0.000000000000000e+00 0.000000000000000e+00
0.000000000000000e+00 0.000000000000000e+00 0.000000000000000e+00
0.000000000000000e+00 0.000000000000000e+00 0.000000000000000e+00
0.000000000000000e+00 0.000000000000000e+00 0.000000000000000e+00
0.000000000000000e+00 0.000000000000000e+00 0.000000000000000e+00
0.000000000000000e+00 0.000000000000000e+00 0.000000000000000e+00
0.000000000000000e+00 0.000000000000000e+00 0.000000000000000e+00
0.000000000000000e+00 0.000000000000000e+00 0.000000000000000e+00
0.000000000000000e+00 0.000000000000000e+00 0.000000000000000e+00
0.000000000000000e+00 0.000000000000000e+00 0.000000000000000e+00
0.000000000000000e+00 0.000000000000000e+00 0.000000000000000e+00
 6.883179413625032e-03 -2.328540013945386e-05  3.129750789222829e-19
6.870527726856185e-03 2.552170375766341e-05 3.127684382671461e-19
6.873400970412814e-03 5.943794724563449e-05 3.185416783522985e-19
6.907221643150822e-03 2.191043065289916e-05 3.145552853242252e-19
6.924593489407905e-03 5.777359428959120e-05 3.165964282275496e-19
 6.902905749572975e-03 -1.491469843146167e-05  3.149471672935565e-19
6.892876572530925e-03 9.375957419374925e-05 3.119298113952582e-19
6.891559981964991e-03 6.073889543458067e-05 3.140996990444967e-19
6.871757279598766e-03 6.056436393931805e-05 3.101124392721574e-19
6.897851127907592e-03 1.292392138145916e-04 3.119530382970812e-19
6.890490320770003e-03 2.417999655344710e-05 3.128205186592942e-19
6.865285786476581e-03 1.477871168433814e-04 3.047720587210647e-19
 6.867510559624430e-03 -7.906646828608751e-06  3.127974243807931e-19
6.861786390256335e-03 1.556582308851548e-04 3.078221222703686e-19
6.844932237699238e-03 4.150774770677303e-05 3.165370639606537e-19
6.805914002339062e-03 1.076719632751767e-04 3.006888988660757e-19
6.769667087019609e-03 1.070985242728952e-04 3.002904154314313e-19
6.726188072939464e-03 1.054458740652323e-04 3.174266224626504e-19
6.708159522670247e-03 9.990961629004166e-05 3.157123205408463e-19
 6.870885168262703e-03 -2.636300576063140e-04  3.216814986296457e-19
 6.669260272784559e-03 -2.558938807516496e-04  3.258900034880509e-19
6.532430436231225e-03 1.594954001945851e-03 2.475121088000611e-19
 6.835750022252853e-03 -1.237104193298282e-03  4.157002623676506e-19
 7.270393091639957e-03 -1.315763998290627e-03  3.468277820768541e-19
7.728061914891891e-03 9.954705719822416e-04 3.473314927283266e-19
7.012178435804369e-03 9.032558687037078e-04 2.408177693236851e-19
6.643052102197585e-03 9.593605936331534e-05 3.106993543433737e-19
6.721937238567567e-03 4.168806520088621e-04 3.128733519836352e-19
 6.635331891414779e-03 -4.916369722251014e-04  2.963167243780766e-19
6.720155962350952e-03 3.814485036022097e-04 3.013060143233517e-19
 6.660975012046088e-03 -7.734351127437215e-04  3.374404412981823e-19
6.769142790594479e-03 4.651669505224424e-04 3.707368367621339e-19
 6.839665036969793e-03 -8.652055532603921e-04  2.638985555792701e-19
6.823262432610713e-03 2.843541175856345e-04 3.095926229046262e-19
 6.652519991778067e-03 -8.462376322010345e-04  2.000982972521068e-19
6.746609062981596e-03 5.601802073170626e-04 3.140399355068463e-19
 6.784299951273704e-03 -3.561935434071860e-04  3.150899108040991e-19
6.925851220215703e-03 8.765325200452465e-04 3.632581747004409e-19
 6.910319819950807e-03 -8.600444634647705e-04  3.066418328815981e-19
6.770246822853049e-03 4.600000200816964e-04 3.075115768163979e-19
 6.723275836773226e-03 -4.372334422927868e-04  3.527212646527930e-19
6.779652189719425e-03 1.101336731346054e-03 2.809098234072615e-19
 6.873991381982206e-03 -5.261652631505426e-04  3.937287831818101e-19
6.913477146298560e-03 7.313174487615413e-04 2.706913458600311e-19
 6.929262613019663e-03 -6.838647778167922e-04  3.684638913524968e-19
6.857673304903341e-03 8.228902095050014e-04 4.204192606100650e-19
 6.930107945891021e-03 -7.208114316865270e-04  3.859179634500675e-19
6.648688490431741e-03 4.034294123115795e-04 3.107727314633542e-19
 6.736914843469399e-03 -2.820470205624492e-04  3.201139482832910e-19
6.729307275947992e-03 7.889859661029825e-04 4.229707110836076e-19
 6.901467780308584e-03 -1.802466492668216e-04  2.766988564711969e-19
6.932349612463888e-03 3.471672329294488e-04 3.180453558968802e-19
 6.860002567785520e-03 -5.018629355994990e-04  2.512869817572708e-19
6.854864293030823e-03 3.436128610678113e-04 3.057485610996753e-19
 6.848038576609633e-03 -5.067024051674890e-04  3.254975675754911e-19
6.847647946371561e-03 3.310143180407245e-04 2.674030937399521e-19
 6.866662762481381e-03 -4.881082634233311e-04  3.461268570295484e-19
6.828495929764482e-03 2.630994234039371e-04 2.961379558250739e-19
 6.741603578735767e-03 -5.078843140427159e-04  2.524080856128593e-19
6.718409588798747e-03 3.448087136451614e-04 2.460010395057511e-19
 6.844837114970042e-03 -1.862855487142979e-04  2.778054592208802e-19
6.653502606535306e-03 1.605377163737735e-03 2.141911632024620e-19
 6.811015797332635e-03 -2.390646582215492e-04  3.082040610827728e-19
6.856408187175651e-03 1.404607180058092e-04 3.141750488144436e-19
 6.847013663553660e-03 -1.381449381752890e-04  2.924490678980892e-19
6.825640389982849e-03 1.705311141696306e-04 3.201044812378987e-19
 6.867162026113440e-03 -6.037922493178418e-05  3.102120975084212e-19
6.826617488646477e-03 6.316046268091327e-05 3.193047185488114e-19
6.837574620649182e-03 1.687671131705216e-05 3.076225492957406e-19
6.799597109535612e-03 1.678297405974044e-05 3.059966307177796e-19
6.889243861875544e-03 2.279824753646578e-04 2.859944703533633e-19
 6.817493086189709e-03 -1.157324275129518e-04  3.081563173863806e-19
6.821489506586296e-03 1.677114110507629e-05 3.061035891413075e-19
 6.885166778071329e-03 -2.087616711463972e-04  2.971987516568555e-19
 6.829752371318433e-03 -8.231204569962110e-05  3.325645183150063e-19
 6.842276304597815e-03 -7.877644085400446e-05  2.951811897537203e-19
 6.852956721801562e-03 -6.600281099347951e-05  3.050160669970236e-19
 6.870359069973343e-03 -4.983479147674899e-05  2.981253514989716e-19
 6.860895535434404e-03 -8.069704713518923e-05  3.193878461044057e-19
 6.868393149962255e-03 -3.316619964227907e-05  3.061125697052429e-19
 6.855994498001772e-03 -8.127079480246639e-05  3.005908311179444e-19
6.871769225735638e-03 1.688694897017207e-05 3.054111228461580e-19
 6.857590935900832e-03 -9.350252080845584e-05  3.392861757545279e-19
6.886224669795707e-03 8.888109641806950e-05 2.931271239336980e-19
 6.872605681361731e-03 -1.372634129707054e-04  3.036376422703785e-19
6.843344426601824e-03 3.859505403149414e-05 3.055259637474037e-19
 6.849618330202328e-03 -7.275732759207712e-04  4.241163566778360e-19
 6.846105152960063e-03 -2.275610276678464e-05  3.030733261467098e-19
 6.838383449209754e-03 -9.042442975568170e-05  2.736673217532585e-19
6.866703363022430e-03 1.367618586549644e-05 3.050334213798654e-19
 6.872633993466279e-03 -9.478754498908186e-05  2.891183821663750e-19
 6.854896437436453e-03 -3.895762602248903e-05  3.089754593773079e-19
 6.864034220350945e-03 -5.114521906145576e-05  3.082403263728802e-19
 6.862465260298176e-03 -5.113352844293301e-05  3.025551552970249e-19
 6.864419693591907e-03 -5.114809129558492e-05  2.970575423939414e-19
 6.867392849469443e-03 -3.534302165659213e-05  3.091009018418352e-19
 6.873932333390704e-03 -5.831481942611723e-05  3.047561926647378e-19
 6.875868130359617e-03 -1.808104280656550e-05  3.035360086999061e-19
 6.873272679293992e-03 -2.892881732416331e-05  3.000098119313392e-19
 6.874992829892960e-03 -3.979675328479824e-06  3.042543250184507e-19
 6.873709539393215e-03 -5.894084375185177e-05  3.135365023126928e-19
 6.864494772187504e-03 -2.028096737089241e-05  3.085043988839919e-19
 6.866061499441885e-03 -2.028559622492752e-05  3.081714525790905e-19
6.932641331454276e-03 7.064395805498221e-05 3.156469760030654e-19
 6.886201089547499e-03 -1.130810329590375e-04  3.240829197516817e-19
6.904032640064187e-03 8.997672433073608e-05 3.089653776728038e-19
 6.862565169277660e-03 -3.395719845571928e-04  3.234358973220263e-19
6.843694264558296e-03 1.102625257297537e-04 2.982195576544994e-19
 6.852681098196895e-03 -2.129982041904903e-05  2.965556636813763e-19
6.915544048639086e-03 2.583694456479365e-04 3.907643212297841e-19
 6.841877564947876e-03 -1.540717990487445e-04  3.058205088009714e-19
6.867031242947155e-03 4.208805577745038e-04 4.650102104954581e-20
 6.883694711021419e-03 -1.464586158513602e-04  3.560574072007370e-19
6.843743746807052e-03 4.202392513310074e-04 3.104598736527931e-19
 6.881484922128320e-03 -4.741524642563406e-05  2.849728324122212e-19
6.917330834899276e-03 5.709357663853670e-04 4.263660070353335e-19
 6.952301304856572e-03 -1.307208071018611e-04  2.860661988425424e-19
6.877705063833472e-03 2.833221945643161e-04 3.106625573557791e-19
 6.861632841063784e-03 -4.048959866373766e-05  3.034880104902091e-19
6.884873114979603e-03 3.369422099734685e-04 2.286683144838797e-19
 6.870540296645841e-03 -9.930630121406999e-05  2.705239673070803e-19
6.807653290257835e-03 3.275621153752256e-04 1.295951273938951e-19
6.840130254616458e-03 4.507803997226770e-05 2.863978543754832e-19
6.759589503997488e-03 2.377514243972585e-04 3.610995843011368e-19
6.685334859988801e-03 2.351397055390741e-04 3.577133225034414e-19
6.610929582366336e-03 3.707904022683611e-04 2.453470610225914e-19
6.468890333483918e-03 1.951009704599849e-04 2.916063498089799e-19
6.413869670223745e-03 4.399749596235352e-04 2.895699894904658e-19
7.061440015031312e-03 1.449235339916471e-03 2.868599901223953e-19
 6.552689092917625e-03 -6.538791476670790e-04  3.687925179270440e-19
 6.544734891720930e-03 -2.023619045501140e-04  2.172871745270268e-19
 6.699230184247872e-03 -3.963434338512422e-04  3.005106830321967e-19
6.889495679302124e-03 1.459901597701029e-04 2.733390196478567e-19
 6.913728589802764e-03 -5.067882732015153e-04  2.735147621012008e-19
7.007910848851881e-03 5.976289381493205e-05 3.134027592963034e-19
 7.104320950853353e-03 -4.952179374698979e-04  4.941962425038302e-19
6.249942785059351e-03 2.531452187908597e-03 5.414700894578430e-19
7.195238637215063e-03 7.296836874630282e-05 3.030696602248120e-19
 7.100327936736845e-03 -1.667466680074396e-05  3.069826200210798e-19
7.032676953424877e-03 1.685161870338507e-04 2.557233566952084e-19
7.033234041665555e-03 7.974959594351364e-05 3.178765078102532e-19
 6.995609224052238e-03 -4.643964252131588e-06  2.921726576571301e-19
 6.966256534708557e-03 -4.840469131912033e-06  2.859577655002052e-19
 6.955292870816055e-03 -1.405415990303893e-04  3.540310630274986e-19
 6.942105293566002e-03 -4.515758871428982e-06  2.823587982113443e-19
6.963656817216266e-03 7.235196723989191e-05 2.467023752081983e-19
 6.948177535244116e-03 -5.005501514653783e-05  2.909288616710430e-19
 6.937684905416994e-03 -4.372843759677308e-05  2.999209055241259e-19
6.910879057973126e-03 1.676586038642937e-05 2.772542326902413e-19
6.879709008893643e-03 1.669024154160212e-05 2.734848580315011e-19
 6.875719414470729e-03 -9.011005526040589e-05  2.867789848270840e-19
 6.886752604400399e-03 -4.046421290273799e-05  2.928193241773784e-19
 6.899611866510179e-03 -2.918964944675851e-05  2.616411555196763e-19
 6.887904479829035e-03 -1.155285087978771e-05  2.657840832281450e-19
 6.872948137799853e-03 -3.364693652723675e-05  2.558981323415336e-19
6.877824113925365e-03 4.943917216698815e-06 2.571917733124358e-19
 6.877055903832833e-03 -3.826795236044682e-05  2.402999975888986e-19
 6.868384601913689e-03 -3.289451631422417e-06  2.497562148369033e-19
 6.867941396974126e-03 -3.289239368816870e-06  2.457445209738788e-19
 6.864846680343502e-03 -3.287757226907322e-06  2.418072365058790e-19
6.867390957980840e-03 1.475171810112244e-05 2.298705337493099e-19
6.870450786913382e-03 4.495769051188792e-06 2.271559409088456e-19
6.868413889860032e-03 2.980777849470741e-05 2.162391922319897e-19
6.864180545809404e-03 1.082144529957096e-04 2.307651370630016e-19
6.863762813345433e-03 2.879675064761670e-05 2.109081197238786e-19
6.843674440443586e-03 8.764112776411650e-05 1.622656908392540e-19
6.824081671149678e-03 5.567272524458467e-05 2.079738957091713e-19
6.814150861290112e-03 8.591300761512781e-05 9.938380462880797e-20
6.784992663148717e-03 1.195986197461682e-04 1.065882547013785e-19
6.706175769840413e-03 1.182093195478715e-04 8.225476640874077e-20
 6.473573387087715e-03  3.516244904349111e-04 -1.821945898236233e-19
 6.592310605765532e-03  2.671997117585233e-03 -9.636785317784766e-19
 6.576590493311619e-03 -4.430146182082054e-04  4.318571022791014e-20
 6.848026792877543e-03  1.244978210143226e-04 -9.020268349432812e-20
 6.849899575046328e-03 -6.472347124236500e-04 -1.554857929889052e-19
 6.841828547442953e-03  1.917794256800893e-05 -1.423416273712491e-19
 6.856395216357941e-03 -6.338120000483131e-05 -2.600637394421847e-19
 6.864736338476667e-03 -6.345830616814153e-05 -3.485855786936301e-19
 6.887144874672413e-03 -2.145218266200501e-05 -3.987358732853976e-19
 6.902258606333110e-03 -1.666835100986866e-04 -6.449076766645245e-19
 6.893632018445639e-03 -4.155229996448120e-05 -7.889456748427025e-19
 6.908331171669486e-03 -4.164090109989818e-05 -1.052271179945046e-18
 6.903926640721805e-03 -6.360215400564719e-05 -1.413573031223910e-18
 6.886378120001520e-03 -3.483456932151066e-05 -1.800103880065287e-18
 6.874471157820512e-03 -6.681189747684816e-05 -3.006304771626672e-18
 6.886492175406021e-03 -7.070567371102399e-05 -4.701785129871318e-18
 6.900920299766536e-03 -7.085381157676355e-05 -6.767156800518073e-18
 6.906999970965640e-03 -7.091623337833171e-05 -1.001210589443242e-17
 6.913246459314241e-03 -1.365643503351373e-05 -1.471691881600108e-17
 6.909027303257720e-03 -8.183398225986408e-05 -2.160862375016142e-17
 6.892144692917537e-03  6.963614236057376e-05 -2.795303099958393e-17
 6.926869709327746e-03 -4.971631930233912e-05 -3.432363943744426e-17
 6.917773556318322e-03 -2.359489630521016e-05 -4.620471572012807e-17
 6.923705572867730e-03 -9.169679370142499e-06 -6.479932158809001e-17
 6.867921035923956e-03 -9.493552604933914e-05 -8.517269263125188e-17
 6.888268378554363e-03  5.045691536772218e-05 -1.195810495529185e-16
 6.870602521168163e-03 -2.053699647875608e-05  2.464244972843254e-16
 6.870063920332647e-03 -8.173828999392221e-06 -6.532252482835875e-15
6.881445050820975e-03 3.666663027275267e-05 1.740879986438689e-16
 6.855911238480954e-03  3.653057761962370e-05 -1.312638350959731e-16
 6.900219038586618e-03 -8.209706798402111e-06 -6.535648342877479e-15
 6.851456773778054e-03  1.691068836348741e-05 -8.207752094740682e-17
 6.853798022758795e-03  3.249216008147218e-06 -6.337149365270258e-17
 6.844250029095228e-03 -2.303178665161257e-05 -4.590370098513086e-17
 6.865506351996297e-03 -1.782236055694047e-05 -2.798472791334663e-17
 6.883782569222388e-03 -1.786980430199296e-05 -1.744303172721708e-17
 6.882555186684313e-03  3.581393296224770e-05 -1.102881596865481e-17
 6.858726949114913e-03  3.568994079948669e-05 -7.087099716241574e-18
 6.837774303915273e-03  3.558091201436143e-05 -4.705556873742002e-18
 6.875360177798390e-03 -2.529861224453908e-05 -3.587568785583179e-18
 6.893705668845621e-03 -4.389225989874020e-05 -2.506800365673997e-18
 6.903466731581331e-03  1.944731068796794e-04 -1.727272085158129e-18
 6.874697735753930e-03 -1.461328038600627e-04 -1.332683726984983e-18
 6.848836043052971e-03  1.717557625451344e-04 -1.047460358901383e-18
 6.851495829293739e-03 -1.144653116246650e-04 -8.055762832832928e-19
 6.845589445839055e-03  2.692094299880817e-04 -6.415145834203744e-19
 6.848820090065660e-03 -5.366933427853472e-05 -4.663880274886888e-19
 6.841456898660545e-03  3.004253657918347e-04 -3.576662667424196e-19
 6.882477438014974e-03 -3.985753885571264e-05 -2.897644110438749e-19
 6.839903126931908e-03  7.312312809107521e-05 -2.001768432599498e-19
 6.822306955910079e-03  7.293501328247871e-05 -1.159370122406948e-19
 6.785455280085876e-03  7.254104428004446e-05 -4.974379780983743e-20
 6.731640060017734e-03  1.543128394517614e-04 -2.570028218986622e-21
6.640182830421472e-03 7.228021009523703e-05 1.288158152475482e-20
6.545386901217212e-03 2.059701663122632e-04 5.512571508634590e-20
6.686860806484588e-03 1.801910032455035e-03 1.662243318430643e-19
 6.595211536981751e-03 -2.778763220701236e-04  1.196758724465537e-19
 6.571102024271450e-03 -1.598684067281244e-04  8.365228723134537e-20
 6.755183067736049e-03 -1.198917250223938e-04  1.189969709002001e-19
 6.869336001112315e-03 -1.412072869660791e-04  1.480413146373895e-19
6.888587970131530e-03 5.194018440864873e-05 1.682410578526219e-19
 6.925295033119816e-03 -2.969701200958928e-04  1.961324610714574e-19
6.929747256307236e-03 2.465974561617201e-04 1.734372399566026e-19
 6.985880485674986e-03 -4.297577686323310e-05  2.075174128631390e-19
 6.923421563632430e-03 -7.396907975765260e-05  2.167962604844823e-19
6.939319082479089e-03 1.583600031849919e-05 2.198644685886972e-19
6.925935220720789e-03 1.580545743143088e-05 2.256937393205340e-19
6.899474685748471e-03 1.574507268254287e-05 2.312552798531505e-19
6.882589510001325e-03 2.144740906373644e-06 2.373342792264520e-19
6.873873656373792e-03 2.142024886802555e-06 2.416528003552807e-19
 6.870255411958633e-03 -2.253237785997235e-05  2.451385679420614e-19
 6.862571662532821e-03 -2.622650172519428e-06  2.467559877332474e-19
6.858351577066859e-03 1.717433656859737e-05 2.490337367014594e-19
 6.836424057734163e-03 -8.680794220850666e-05  2.546516865243840e-19
6.840530612799922e-03 6.926030874850326e-05 2.546496190230879e-19
 6.839989231364350e-03 -3.477743722274345e-05  2.582626340011869e-19
6.840474211584836e-03 8.085270242983273e-05 2.583383417042479e-19
 6.803826943028534e-03 -1.732466812763711e-04  2.654823638430988e-19
6.810274527300855e-03 1.065388877767203e-04 2.568624403141348e-19
 6.809435990557527e-03 -5.381091446693075e-05  2.625330211820027e-19
6.826886618400034e-03 1.863245808542887e-04 2.627859330136533e-19
 6.839504797508977e-03 -7.078709357779163e-05  2.713018831538681e-19
6.828199882633669e-03 9.139506776675441e-05 2.711787604643663e-19
 6.827581014294593e-03 -1.642818733900389e-04  2.836844013426229e-19
6.804937700971392e-03 6.763762687201035e-05 2.718861838629627e-19
 6.810480734922834e-03 -5.113227895810425e-05  2.726158284246775e-19
6.812251496282256e-03 9.874388643256816e-05 2.748238619372575e-19
 6.819889444207167e-03 -3.501313040712003e-05  2.773789877062181e-19
6.788434633856573e-03 6.930023986266341e-05 2.791457042300607e-19
6.799144387475944e-03 3.860680924166201e-05 2.770253926945153e-19
6.759493863337687e-03 3.838166617446121e-05 2.773002027005058e-19
6.832958683802969e-03 2.531498902555660e-04 2.782858174416071e-19
 6.746932865174852e-03 -2.218678085553849e-04  2.781981894240234e-19
6.694242887092931e-03 2.196852337787058e-04 2.836111624286389e-19
6.648351735191642e-03 1.539879230038439e-05 2.780466439106990e-19
6.584687979675184e-03 2.712335515635091e-04 2.615506701098309e-19
 6.385282796174549e-03 -7.933103892378763e-04  2.845711638314460e-19
6.334335059981558e-03 2.919807465170501e-04 2.467970427279351e-19
 6.522362047442554e-03 -3.674585956551688e-04  2.534364446732495e-19
 6.419375274743246e-03 -1.697035155032784e-04  2.730765076586772e-19
 5.676579816735664e-03 -6.514528085953095e-04  3.296929445417608e-19
5.909655361390082e-03 3.278050383187855e-03 2.795959289818997e-19
 9.338521820382879e-03 -2.246839632321300e-03  3.318909587836209e-19
1.665653621064339e-02 4.033992320302158e-03 6.482210068383461e-19
-2.395776487350918e-03 -6.390903382373194e-03 -1.845620904476133e-19
6.978117770152394e-03 1.714817221371516e-03 3.450088556838043e-19
 9.152977083514093e-03 -9.428327478443384e-04  3.880732985972169e-19
3.910787910513118e-03 6.501411854508468e-03 8.716368759494830e-20
8.428750177906178e-03 1.860346880030269e-03 3.968481491159637e-19
 6.842558868192696e-03 -3.966362116000268e-04  2.783620379385253e-19
6.518740469921539e-03 8.788542581395247e-04 2.906053289041252e-19
6.288205036502822e-03 7.091744573994319e-04 2.828237272639726e-19
 6.477502577545854e-03 -1.029830424715389e-03  2.626951055613767e-19
6.228983919084207e-03 1.473572553276100e-04 2.734730481414446e-19
 6.340946372123028e-03 -1.990097874078262e-04  2.884026890623144e-19
6.426493428899544e-03 3.136521842239905e-04 2.623418358827419e-19
6.634551339972539e-03 1.359034358519781e-05 2.848438836374578e-19
 6.544159889559630e-03 -2.517395890360141e-04  2.736617804970571e-19
6.521585369424205e-03 6.116720162836679e-05 2.858320155312343e-19
6.526709619421452e-03 2.936437094149428e-04 2.754423537066196e-19
 6.513389079667646e-03 -1.938350275199505e-04  2.774432508805520e-19
 6.716406461252742e-03 -1.998767178389609e-04  2.974827431933807e-19
 6.840557380963208e-03 -1.194980178394354e-04  2.970385334773532e-19
6.837906749611260e-03 9.353784124408753e-05 2.962031244820765e-19
6.777082028170759e-03 8.475622083450408e-06 2.958822006347380e-19
 6.759773932460782e-03 -5.629036315486843e-05  2.959744894487583e-19
 6.773614469776696e-03 -1.016963057410140e-05  2.974895896331824e-19
 6.782329045700653e-03 -9.683224589408189e-05  3.003820906359135e-19
6.788047719102000e-03 4.038983769797364e-06 2.992219883476064e-19
 6.812610485593431e-03 -2.479279626591128e-05  3.001946954654113e-19
6.792079881041363e-03 2.243351753403808e-06 2.999362598400923e-19
6.791633708960580e-03 1.184640024297105e-04 3.011733656282773e-19
 6.778162520434805e-03 -1.561536718519464e-04  2.987337286527874e-19
6.718652703845692e-03 4.308394543013458e-05 2.985288322690474e-19
 6.745419881542845e-03 -8.436188145894232e-05  2.982484819354142e-19
 6.733836267487855e-03 -1.178920814580155e-04  2.993225167415961e-19
6.835499260873380e-03 4.943267390801664e-05 3.048448292183696e-19
 6.739413088509591e-03 -3.408654312946995e-04  2.898292894658290e-19
6.916588047303588e-03 2.277051521796977e-04 3.071874559815376e-19
 6.958000438618956e-03 -6.585664933384433e-04  3.006185490957428e-19
 6.711724170105084e-03 -1.608570429826721e-05  3.025298486387455e-19
6.850060464733806e-03 1.268089280877712e-03 2.772164607956466e-19
 6.950978542101214e-03 -1.382008651535913e-04  3.144030419145921e-19
 6.764651954646525e-03 -2.044239563259888e-04  2.910935474584257e-19
6.844748069434475e-03 3.003636243723249e-05 3.061215327552525e-19
6.859076065648605e-03 4.929866930400387e-05 3.038762397814644e-19
6.815349576872630e-03 4.898439115788622e-05 3.021506266470400e-19
 6.760652567443249e-03 -1.204997309654137e-05  3.021911526787136e-19
6.758277290204753e-03 1.177969222379350e-04 3.001822904184629e-19
 6.700454662962860e-03 -1.306721090629545e-04  2.970365682405676e-19
6.747636730479100e-03 1.334688726661518e-04 2.956670185187782e-19
 6.840480910960383e-03 -3.048348090229960e-04  2.945659488512553e-19
 6.692520920558204e-03 -1.637059952792766e-04  2.985195222495732e-19
6.719636025951630e-03 1.908493136233973e-04 3.040077353049746e-19
6.796763666047616e-03 1.457445652924200e-05 3.037120438242416e-19
 6.760283889352527e-03 -3.321782059121685e-04  3.027286916579509e-19
 6.736439296067368e-03 -3.657906574891655e-05  3.017221377790952e-19
 6.739661294202819e-03 -1.677123851428915e-04  3.054684401211956e-19
6.742246585238637e-03 8.707188478899070e-05 3.005802119148976e-19
 6.779401610435914e-03 -1.254431206474693e-04  3.025684381174194e-19
6.786604287516132e-03 8.164724436731744e-05 3.034609858281099e-19
 6.791870366650259e-03 -1.151415062957463e-04  3.053983573984401e-19
 6.834429182564192e-03 -4.129253761006551e-05  3.064243661174680e-19
 6.796307283374057e-03 -2.099124918736320e-04  3.063829942234485e-19
6.794547529982918e-03 3.775185497653048e-05 3.049612990462711e-19
 6.814671654442905e-03 -1.114559968469449e-04  3.094329188762976e-19
 6.782891904906038e-03 -1.109362295208305e-04  3.086021568166063e-19
 6.880648315683867e-03 -1.488995104241719e-05  3.089122681010746e-19
 6.810668331908849e-03 -2.446716290123169e-04  3.104359250453403e-19
6.779293726584664e-03 1.602369120262976e-04 3.085099506825956e-19
 6.629181981605208e-03 -4.166455904686188e-04  3.051111734353644e-19
6.809468899419636e-03 8.144838337669958e-04 2.978105105445149e-19
 6.602568134598388e-03 -7.284744088207425e-04  2.947364167670648e-19
6.546170207196189e-03 1.143550941131587e-03 2.808839734157360e-19
 6.787778049120881e-03 -5.273766430574696e-04  3.033564190296731e-19
6.792069749143740e-03 5.494497440326847e-04 3.096674848726884e-19
 6.686131014000379e-03 -6.521285280204787e-04  2.963126682282274e-19
6.728163534774753e-03 7.244843440310235e-04 3.039001374721477e-19
 6.833801689670379e-03 -5.100377527037092e-04  3.089597398663467e-19
6.787157824720476e-03 4.209444701126076e-04 3.015605853511561e-19
 6.839494565838994e-03 -3.760280676139940e-04  3.107760163346017e-19
6.854652955839038e-03 4.409697514400235e-04 2.969534040337202e-19
 6.903893583090795e-03 -4.315691503822245e-04  3.062590704921279e-19
6.858510896051862e-03 9.475865509572773e-05 3.107377127496516e-19
 6.848626463057879e-03 -1.501358934678730e-04  3.101463184202544e-19
6.862265796587461e-03 3.340128213832104e-05 3.106744348919836e-19
 6.851010473388465e-03 -5.331532537384577e-05  3.096769348529891e-19
 6.847152512253517e-03 -5.340999426192026e-07  3.106352771054131e-19
 6.864408265410511e-03 -2.782349420539269e-06  3.108272919202106e-19
 6.849965224807373e-03 -4.851003405150986e-05  3.114007585582643e-19
6.843612986267279e-03 5.457810545431638e-05 3.099667212806673e-19
 6.809740464789004e-03 -9.944199984670013e-05  3.080726996309739e-19
6.822866521178589e-03 1.363552955034174e-04 3.111063706693831e-19
 6.821697867820516e-03 -1.047746954198608e-04  3.095955446779573e-19
6.845560425639103e-03 1.694747590301903e-04 3.118523002727422e-19
 6.870360145348968e-03 -1.377594004637131e-04  3.104415429605572e-19
 6.864687917336042e-03 -2.183363812075941e-05  3.119353368909751e-19
 6.826980705128527e-03 -1.243391010609161e-05  3.102151625896096e-19
 6.750661933707587e-03 -1.229491150857946e-05  3.077563527621771e-19
6.845402557844300e-03 6.621533624570539e-05 3.094178154967368e-19
 6.687187836556530e-03 -6.670767879551902e-04  3.179888947863780e-19
6.698072726180514e-03 2.977922275764313e-04 2.986919553256156e-19
 6.795359147757541e-03 -1.983257712192633e-04  3.096500749871125e-19
 6.737380184464840e-03 -1.498311735831641e-04  3.120746412119820e-19
 6.790572491274315e-03 -3.149060876179508e-04  3.123692809008105e-19
6.727987882856757e-03 1.306457590981666e-04 3.076145918281121e-19
 6.750149141520234e-03 -1.425129727832512e-04  3.083636087768559e-19
 6.612891913599583e-03 -1.095352819604336e-04  2.978300632491276e-19
 6.820296660867749e-03 -5.378417129332975e-04  3.008642074514090e-19
6.849960032624747e-03 4.304060468983145e-04 3.033072883681003e-19
 6.732549245253479e-03 -1.162253255650569e-04  3.042136916110651e-19
 6.779058947085872e-03 -1.170282317214752e-04  3.063344591099186e-19
 6.772109082577782e-03 -1.122659653405098e-04  3.082152400261844e-19
 6.845768163810051e-03 -2.871534470557071e-05  3.115356897435750e-19
 6.897866077585581e-03 -6.757638607599904e-05  3.117232109962317e-19
 6.869614795328323e-03 -7.405366503331680e-05  3.177475423350271e-19
6.862071563533779e-03 7.133595540166015e-05 3.117198902267510e-19
 6.860344300560655e-03 -2.281578009487079e-06  3.118819070507881e-19
 6.839461784683129e-03 -1.951322464740579e-05  3.114628843418448e-19
 6.867619342197321e-03 -1.959355914777936e-05  3.127178059351146e-19
 6.857147789028040e-03 -4.272179321419912e-05  3.147107906712577e-19
6.861279535557352e-03 1.047532547361984e-04 3.172808859831615e-19
-6.896009179082742e-03  1.395706119448926e-04 -3.168774896107562e-19
-6.904225087413429e-03  1.244200044745958e-04 -3.170250044186959e-19
-6.897788737700142e-03  1.377036430071280e-04 -3.169804205716741e-19
-6.896649091183996e-03  1.497983287636265e-04 -3.171756083990136e-19
-6.895219426430451e-03  1.538830473632685e-04 -3.167435239630690e-19
-6.883099671097377e-03  1.536125665027462e-04 -3.165782648707607e-19
-6.889505558402966e-03  2.104699452017801e-04 -3.172136066073520e-19
-6.886716125725344e-03  1.507075988205174e-04 -3.165159916146010e-19
-6.874638925536551e-03  1.669738660725404e-04 -3.160122449725865e-19
-6.873413070873321e-03  1.593247237767046e-04 -3.162085336681986e-19
-6.865909884077225e-03  1.715759705034043e-04 -3.159249519876167e-19
-6.862772440675691e-03  1.714975672173713e-04 -3.156517073695686e-19
-6.849107467379889e-03  1.490290840741631e-04 -3.151691154177435e-19
-6.833090599577291e-03  2.082928738530508e-04 -3.145278108562712e-19
-6.785486955958108e-03  1.108713548657474e-04 -3.125563798298704e-19
-6.786063280171485e-03  2.472373942646565e-04 -3.120775931099569e-19
-6.883633505519004e-03 -1.200374282985658e-04 -3.138962393208667e-19
-6.758072871028249e-03  4.270494347549151e-05 -3.106574127729403e-19
-6.783626709526977e-03  4.492861982508313e-05 -3.120660444409050e-19
-6.813760287898572e-03  5.485350247264913e-05 -3.131075314248716e-19
-6.840831167213107e-03  5.507143390590693e-05 -3.138708663254708e-19
-6.878985428780622e-03  3.875845635477922e-05 -3.150652115001862e-19
-6.894716373158969e-03  2.151023792414895e-05 -3.158989174684127e-19
-6.886672682680093e-03  1.227086130337501e-04 -3.163634318462159e-19
-6.903265604337907e-03  3.028677714025384e-04 -3.167119126746532e-19
-6.721379493081584e-03  3.509256917881858e-05 -3.105144909140969e-19
-6.953108852242374e-03  6.903310328261696e-04 -3.129106777570834e-19
-5.492997485985952e-03 -4.184705348760368e-03 -2.389612852624115e-19
-6.694433899820797e-03  3.239608230712762e-04 -3.098685117340155e-19
-6.550297900773097e-03 -1.522684197551063e-03 -2.958111770766329e-19
-6.638864651978885e-03  6.318559768268072e-04 -3.110630568114013e-19
-6.883410687107004e-03 -2.466629791151641e-04 -3.136414332696403e-19
-6.813068591369835e-03  5.283848553606269e-04 -3.125512990720958e-19
-6.805913956461528e-03 -3.301926721490900e-04 -3.099464319172918e-19
-6.784392720752769e-03  4.141801597301422e-04 -3.124226888422027e-19
-6.799610384552165e-03 -4.701502409621882e-04 -3.092826610577992e-19
-6.775054083711828e-03  5.219494746752024e-04 -3.113216509812308e-19
-6.862039451885143e-03 -2.881598534467286e-04 -3.123435145177402e-19
-6.788431898572880e-03  1.725562344976126e-04 -3.118216722583820e-19
-6.881692217717472e-03 -1.092398225950953e-04 -3.134043354850332e-19
-6.837891248362391e-03 -7.528477804622169e-06 -3.127471012327599e-19
-6.860509251591168e-03 -7.553380092346251e-06 -3.131635613375306e-19
-6.871528235002864e-03 -5.335129502881587e-05 -3.135418837863415e-19
-6.898230691729039e-03  3.730173241815498e-05 -3.144159192865330e-19
-6.879421448475943e-03 -1.414957280388011e-04 -3.132142512000069e-19
-6.918171665900149e-03  6.924863620028756e-05 -3.151545238485221e-19
-6.954317106904557e-03 -2.318821205171380e-04 -3.160105417480500e-19
-6.830454185925065e-03  9.663930391381480e-04 -3.148628974158268e-19
-6.864614046249945e-03 -1.995912449876053e-04 -3.133037401210269e-19
-6.920269675514117e-03  1.861407928134652e-04 -3.163541579384768e-19
-6.964723045170235e-03 -1.013297998166445e-04 -3.164517440612772e-19
-6.909094573610687e-03  9.456300597593926e-05 -3.152767136766420e-19
-6.932813054768038e-03 -5.161741206995000e-06 -3.151496728370214e-19
-6.914198455857953e-03 -5.147881934938064e-06 -3.146536921824729e-19
-6.928685634026344e-03  3.604186431959722e-06 -3.149046468648742e-19
-6.931899599194347e-03 -1.027327229155041e-04 -3.150973279356202e-19
-6.993657428118287e-03  7.510991511056486e-05 -3.172539694676032e-19
-6.974464110551627e-03 -2.670995691319105e-04 -3.164502050074143e-19
-6.869623792737298e-03  1.328039060735505e-04 -3.148731784265150e-19
-6.928862411362394e-03  2.047959557160106e-04 -3.161906749528920e-19
-7.066686448488635e-03  2.161566938150054e-04 -3.200113778243027e-19
-6.997957124274521e-03 -1.712626088521897e-04 -3.163581026019031e-19
-6.894585343052474e-03  1.382029378514455e-04 -3.141379112670295e-19
-6.942472765299195e-03  7.041323775693116e-05 -3.149793948900420e-19
-6.916371254459926e-03 -2.784668809368720e-05 -3.139034854948326e-19
-6.909248315883198e-03  7.799149609593365e-05 -3.139316779370260e-19
-6.901089806166371e-03  7.789940295502482e-05 -3.133611333619180e-19
-6.888640998274966e-03  5.058041949994402e-05 -3.125628621953391e-19
-6.884201385495337e-03  5.054782127384002e-05 -3.123138400265055e-19
-6.888375473530233e-03  3.470793657373003e-05 -3.120755933552183e-19
-6.889617215322959e-03  1.924824102851861e-05 -3.118675288427325e-19
-6.891884123507803e-03  1.925457432596718e-05 -3.118418872151155e-19
-6.889652634240425e-03  1.705440040015916e-05 -3.113706691051334e-19
-6.888491016207306e-03  1.317993821452898e-05 -3.110849500282541e-19
-6.874023203176937e-03 -4.476119292983615e-06 -3.102477117362462e-19
-6.871088594489550e-03 -4.474208380236491e-06 -3.099183242603068e-19
-6.870281664237335e-03 -3.065315836310005e-05 -3.095913406083728e-19
-6.876207539877058e-03  2.064439877196722e-05 -3.096899693022665e-19
-6.871021134506704e-03 -3.703586165179925e-05 -3.089974560862763e-19
-6.877135087039772e-03  1.783272470283333e-05 -3.090255275705605e-19
-6.875164551676373e-03 -5.544242056015979e-05 -3.084496558158138e-19
-6.870858832721423e-03  1.406148667915533e-06 -3.084249836954373e-19
-6.880240804907337e-03 -3.397865907506035e-05 -3.083467218086499e-19
-6.868392985155675e-03 -1.281431301864486e-05 -3.077785006714149e-19
-6.869975698225177e-03 -1.281726587540992e-05 -3.075499484691819e-19
-6.871356218096848e-03 -2.442968567570884e-05 -3.072380044000002e-19
-6.884210299069737e-03  1.388664071852174e-05 -3.072990702228874e-19
-6.874343883852669e-03 -7.020190358003028e-05 -3.066377035850510e-19
-6.881084608296242e-03  4.125054619853804e-05 -3.070682837050074e-19
-6.884639424501232e-03 -6.890069388232773e-05 -3.065679898257587e-19
-6.858485079675210e-03  9.822554573590905e-05 -3.062352474204340e-19
-6.884657050148984e-03 -2.878583687737214e-05 -3.065139137588091e-19
-6.876168631820433e-03  2.777429182270185e-05 -3.062292072277315e-19
-6.882520472623090e-03 -1.021471235163060e-05 -3.059837428363211e-19
-6.867431704469149e-03  6.488781659693357e-06 -3.052145222424811e-19
-6.866544227098590e-03  6.487943115222396e-06 -3.048800113912305e-19
-6.864816477840019e-03  5.082418815870922e-07 -3.043238367156195e-19
-6.870365832579889e-03  1.887958989086210e-05 -3.041444659205216e-19
-6.872509712040066e-03 -1.446557503794154e-05 -3.039541717131756e-19
-6.861048550062562e-03  1.159016004214614e-05 -3.031226299581530e-19
-6.863438373787142e-03 -1.970780827061970e-06 -3.025969358029175e-19
-6.859176161746692e-03  3.019557924726563e-06 -3.022524244595019e-19
-6.866185893927334e-03  9.181061499752526e-06 -3.022713516266317e-19
-6.860614361441449e-03  3.214616579478615e-07 -3.015425500860586e-19
-6.861452024353757e-03  3.215009075681442e-07 -3.012488642917136e-19
-6.863781336919032e-03 -1.983119790083747e-06 -3.006403341761418e-19
-6.861852388646706e-03  1.740702878764157e-06 -2.997016604087075e-19
-6.858352248223233e-03 -4.696792198749271e-06 -2.985882449423534e-19
-6.861947703655519e-03 -4.455548381362880e-06 -2.980505345045417e-19
-6.861039849116443e-03 -8.056660072017788e-06 -2.975694419319806e-19
-6.856129126254972e-03 -6.290488091344655e-06 -2.967995515208219e-19
-6.855082285207162e-03 -6.289527616268488e-06 -2.962168680249207e-19
-6.856244964461526e-03 -1.185318525928432e-05 -2.955090479242956e-19
-6.857077093803658e-03 -1.427306065820440e-05 -2.949770068266262e-19
-6.852247987964554e-03 -1.192541160174244e-05 -2.940802645264950e-19
-6.848460352277676e-03 -1.191881973369523e-05 -2.932404929233227e-19
-6.855369265915904e-03 -1.268321165120724e-05 -2.926775231961981e-19
-6.846008280642527e-03 -3.163796789040548e-05 -2.914388363731593e-19
-6.864869418003794e-03  2.797605699335451e-05 -2.912956450332978e-19
-6.840871647526990e-03 -8.255770935661005e-05 -2.892372146599938e-19
-6.868418630427998e-03  8.287180285108818e-05 -2.901323545344397e-19
-6.865610591533649e-03 -1.264913501157045e-04 -2.881080101112897e-19
-6.867098199570003e-03  4.901134888968252e-05 -2.881663166176800e-19
-6.874935899635279e-03 -1.100329998198873e-04 -2.863273440374711e-19
-6.865162280926164e-03  3.878687146977304e-06 -2.851557779145275e-19
-6.865224291554632e-03 -9.679320838274595e-05 -2.825628228130151e-19
-6.872804285491490e-03 -3.098544541195224e-05 -2.828292806711671e-19
-6.897504081080957e-03 -5.169462844691779e-05 -2.819060349000095e-19
-6.909602491525820e-03 -5.178530223636306e-05 -2.808944448209954e-19
-6.898046095352127e-03 -7.134593364563963e-05 -2.788561347223662e-19
-5.880523316549847e-03  3.636340895810757e-03 -2.589876446436815e-19
-6.908917654584082e-03 -8.701250345083987e-05 -2.752253311707240e-19
-6.896060651335914e-03  7.725375209596339e-07 -2.734437679306992e-19
-6.891383897499288e-03  7.720136033205993e-07 -2.706615290132704e-19
-6.879992338897548e-03 -3.376553669757538e-05 -2.671582733438279e-19
-6.893524664498199e-03  6.500075384576524e-05 -2.661955842473220e-19
-6.879502313497104e-03 -5.099791827190854e-05 -2.624583347280457e-19
-6.876623377711196e-03  1.067746032787550e-04 -2.616168607089767e-19
-6.894364210689147e-03 -4.400234101751512e-05 -2.589283512111624e-19
-6.882425948473711e-03  3.471792807862829e-06 -2.553147112435113e-19
-6.880219338840770e-03 -1.990274644886519e-05 -2.507746408962654e-19
-6.878850487409011e-03 -1.989878670548627e-05 -2.470230153366619e-19
-6.882450360257106e-03 -4.517925433004922e-06 -2.416781290370715e-19
-6.881152490753886e-03 -6.192328387967597e-05 -2.359732429025833e-19
-6.880507420901802e-03  4.259701066233833e-05 -2.322705811622517e-19
-6.884165781946785e-03 -2.347418696743715e-05 -2.256804359314520e-19
-6.889578804178603e-03 -3.099207347388693e-05 -2.202147222443459e-19
-6.910831035647542e-03 -2.757036118008721e-05 -2.125726824140810e-19
-6.880362894761527e-03  2.944093414479866e-04 -2.089796941402233e-19
-6.921822839860745e-03  1.309808683761259e-05 -1.989364354154856e-19
-6.921409476435087e-03 -1.450213493690947e-04 -1.885604746137609e-19
-6.923540600574814e-03  7.379291954909438e-05 -1.834303445175119e-19
-6.940008555670513e-03  7.396843935256230e-05 -1.721443467905740e-19
-6.897707664158036e-03  2.314489616999681e-05 -1.590806993772333e-19
-6.892817736223610e-03  1.556986579667015e-04 -1.476012044020636e-19
-6.830658068857116e-03 -7.644507039924854e-05 -1.293698254772514e-19
-6.877947654145033e-03  2.585550717430909e-04 -1.263131141426293e-19
-6.871930143725173e-03 -1.316288166763727e-04 -1.023718813009297e-19
-6.896966501064257e-03  6.589843311640383e-04 -9.808530016626784e-20
-6.888712241993413e-03 -1.805187357090809e-04 -6.269456244020112e-20
-6.783329124934858e-03  4.991898561652070e-04 -4.662425510091139e-20
-6.763011867637060e-03 -1.587546152962433e-04  1.883666314395793e-21
-6.822342937424236e-03  9.114702208264825e-04 -3.085729813557281e-21
-6.894871653842813e-03 -2.605998628978468e-04  4.763101184783765e-20
-6.857455223164619e-03  3.760655255827478e-04  8.819969273818089e-20
-6.876517300746208e-03 -3.232965970542207e-04  1.748105845832428e-19
-6.962470232714839e-03  3.203549550198344e-04  2.486775205953297e-19
-6.583422704778851e-03 -1.257453996196975e-03  3.735910216752660e-19
-6.715582674947950e-03  5.767831524361202e-04  3.852294312877599e-19
-6.793921412434424e-03 -4.973522118418086e-04  5.549791054235056e-19
-6.748583533271725e-03  7.189947395817531e-04  6.542858646938211e-19
-6.838345450717162e-03 -3.167416668462724e-04  8.107540909054298e-19
-6.872377093519937e-03  4.740899630114447e-04  1.300376934065332e-18
-6.857367950405050e-03 -5.066576502406777e-04  1.736567359486291e-18
-6.783245406010354e-03  2.961616035127800e-04  2.352049416968752e-18
-6.706605303821300e-03 -2.458854128062015e-04  3.294293918428910e-18
-6.729179153436358e-03  7.067715484581771e-04  4.138056006870834e-18
-6.864372056633498e-03 -2.378977762507594e-04  4.970489024076592e-18
-6.862598491985007e-03  2.910882327329942e-05  6.653772053881467e-18
-6.858273147541291e-03  2.909047662411758e-05  9.747501757457885e-18
-6.839473931966425e-03 -7.485842288236627e-05  1.347874948595481e-17
-6.827783483345038e-03 -3.946742352573081e-06  2.016153151334795e-17
-6.846394123994013e-03 -1.220250575560040e-04  2.691280350421903e-17
-6.821706595113836e-03 -3.982161636654900e-05  3.865729023208917e-17
-6.839609887092492e-03 -7.538488936289875e-05  7.318769566291653e-17
-6.845824410305689e-03 -4.694683437325494e-05  1.370105812060527e-16
-6.855541833553845e-03 -4.701347386507118e-05  1.320053048330080e-16
-6.856272713785743e-03 -1.456947154030184e-04 -1.253995995660516e-15
-6.854974149203095e-03 -5.863887272054890e-05  6.251990023374243e-15
-6.851748498825683e-03 -7.753789469645245e-05  7.414498268160416e-18
-6.852264298625630e-03 -5.861569209400829e-05  6.542053507571668e-15
-6.856922147902283e-03 -4.077760012538239e-05  1.383930404482927e-16
-6.848989587481478e-03 -1.201696135977441e-04  8.902502698555364e-17
-6.847988936627018e-03 -2.996251616457633e-05  6.829395580943694e-17
-6.845204412245042e-03 -1.008123476585243e-04  4.470696338352931e-17
-6.886926056933665e-03  6.463616554338134e-05  3.138519670928939e-17
-6.881039837384980e-03 -1.692111206899122e-04  2.536398301029314e-17
-6.854323059430618e-03 -3.043133859843130e-05  1.529924977637284e-17
-6.850920777111507e-03 -2.028767860018168e-04  9.733944090730580e-18
-6.857648586354913e-03  1.595328217545304e-05  6.604303239004290e-18
-6.852550354616607e-03 -2.084481186217578e-04  4.656958726295605e-18
-6.910133451187793e-03  8.960223842079113e-05  3.334460426406359e-18
-6.852829559740629e-03 -4.138723132717492e-04  3.015215008712861e-18
-6.857152475615917e-03  1.042317176679526e-04  2.347659553448478e-18
-6.871335135857954e-03 -3.455445614123679e-04  2.072651627780728e-18
-6.912962045304645e-03  7.796373993615213e-05  1.547734177288680e-18
-6.889743550075950e-03 -4.922068215005712e-04  1.416994573445705e-18
-6.911261952709364e-03  8.178977835217796e-05  1.038273657783123e-18
-6.913283546855529e-03 -4.718762396495684e-04  9.459362685200125e-19
-6.970048255801865e-03  7.255624999514877e-05  6.968709798989154e-19
-6.930605075164209e-03 -6.497610420429561e-04  6.801374390044397e-19
-6.912773716296147e-03  1.261616140073576e-04  4.721873100854818e-19
-7.053241808387472e-03 -1.782834932777922e-04  4.117249123480497e-19
-6.952321092842078e-03 -1.515570826340049e-04  3.319625924395875e-19
-6.968123614987790e-03 -2.594436987562184e-06  2.208714729518827e-19
-6.991630055910784e-03 -2.244050152473243e-04  1.368380519407763e-19
-7.210535359502641e-03  1.009460096571527e-04  4.012770078341001e-20
-2.134500075479557e-03 -6.453636218329254e-03  4.558866306467446e-19
-6.870014714796170e-03  4.366993444954191e-04 -1.318136279321953e-20
-6.987537219755072e-03 -3.098583681436970e-04 -2.110082629724325e-20
-6.983778274506191e-03  3.235657276217178e-04 -8.250568634091810e-20
-6.918816088327644e-03 -3.651352045559789e-04 -7.308149431489639e-20
-6.825538320004964e-03  8.011355667058667e-04 -1.343172848646156e-19
-7.039331611726473e-03 -1.462048597139681e-04 -1.139911026566756e-19
-6.986170065595963e-03  1.869668101432952e-04 -1.418781514682992e-19
-6.915136365872855e-03 -4.047547029399061e-04 -1.412203613168869e-19
-6.677739886759375e-03  1.611101539958684e-03 -1.968120286154526e-19
-7.077021124299538e-03 -1.612515440161547e-04 -1.647352802972326e-19
-7.019537585783214e-03  3.275470607033194e-04 -1.872886948996169e-19
-7.064155112189689e-03 -1.343904148100974e-05 -1.853868621384236e-19
-6.928748975707506e-03  1.494707615509089e-04 -1.916624229111033e-19
-6.971042304695355e-03  1.503831363698699e-04 -2.009968349330057e-19
-6.900983701467267e-03 -6.393488742340877e-04 -1.887095953123888e-19
-6.896471810396971e-03  1.305952067228234e-04 -2.104294977717089e-19
-6.917260863967730e-03  1.057634570140024e-04 -2.178223500532993e-19
-6.878032710210986e-03  1.034020431793544e-04 -2.217612621442109e-19
-6.883605695924385e-03  1.663693372525785e-04 -2.284011726221757e-19
-6.888966047218294e-03  4.464526837725817e-05 -2.309733085527842e-19
-6.889121625509532e-03  5.733069794250712e-05 -2.368736850854608e-19
-6.926793034892550e-03  5.764419628232583e-05 -2.437527737863209e-19
-6.881222088223161e-03  1.318431631884011e-04 -2.482816499668797e-19
-6.887323774582969e-03  3.286364040050025e-04 -2.515941093373231e-19
-6.889435586008211e-03 -1.890356830400902e-04 -2.491066785307784e-19
-6.880949000843255e-03  1.329464910877348e-04 -2.586353424693859e-19
-6.874308582392394e-03  1.265905098279443e-04 -2.611132461196557e-19
-6.864649580328068e-03  8.822131064786628e-05 -2.643632025973968e-19
-6.841626405949830e-03  1.369606463240940e-04 -2.683432776675137e-19
-6.849082294878963e-03  1.371099037237331e-04 -2.698482626210185e-19
-6.860430855764037e-03 -8.295662820330078e-05 -2.705327673286505e-19
-6.859190521363459e-03  8.242828401647821e-05 -2.745788591588506e-19
-6.867468953662914e-03  8.531150277599514e-05 -2.775358382061830e-19
-6.876168835532747e-03 -8.643726094054274e-06 -2.787291490829908e-19
-6.861452983054399e-03  6.801768770631110e-05 -2.800649932458242e-19
-6.801461261248614e-03  6.742298885625307e-05 -2.799493827092439e-19
-6.894134928323672e-03  3.275556203952828e-04 -2.844315807805128e-19
-6.636117898424682e-03 -8.170039219497820e-04 -2.670797234369645e-19
-6.860485119744923e-03  5.166866104680994e-04 -2.869554123361011e-19
-6.661689845449367e-03 -1.072016993787149e-03 -2.687147124726340e-19
-6.813111374072380e-03  1.150541644381515e-03 -2.930841671302906e-19
-7.071912908907591e-03 -1.019285563963899e-03 -2.848267470032728e-19
-6.715293993537056e-03  5.377601177433861e-04 -2.879356524764435e-19
-6.924894561788246e-03 -1.040545223128999e-04 -2.884655522062393e-19
-6.903864283279639e-03 -1.037385181391476e-04 -2.902658374404154e-19
-6.974862034439869e-03 -1.048053411811954e-04 -2.945403484412342e-19
-6.996969398331360e-03  8.663650164343759e-05 -2.975615269147758e-19
-6.994960180097140e-03 -1.439652637883493e-05 -2.975882020544591e-19
-6.932675242985366e-03  1.207961021597735e-04 -2.963323911545289e-19
-6.888875400088729e-03 -4.804311172233170e-05 -2.945054079125896e-19
-6.896120482302812e-03  1.205496606429301e-04 -2.963869630004485e-19
-6.885114287985185e-03 -9.671756962158897e-05 -2.953305055654898e-19
-6.856826522068307e-03  8.300942524634945e-05 -2.966951433698943e-19
-6.883632676003252e-03  4.633300830269319e-05 -2.972149980656482e-19
-6.841511533008777e-03 -4.996898677818779e-05 -2.954768396589588e-19
-6.853331760951036e-03 -5.005531928101442e-05 -2.966315571598772e-19
-6.886560055096082e-03 -9.085011824533231e-05 -2.987690918736801e-19
-6.935724372307886e-03  2.057388870086082e-05 -3.014390875181277e-19
-6.951001399454327e-03 -1.444357324666377e-04 -3.019066350429366e-19
-7.029939089313278e-03  8.162542633377811e-05 -3.063697791893051e-19
-6.995569780392057e-03 -2.159133334433651e-04 -3.047212569123101e-19
-6.829215679522931e-03  3.852682635492843e-04 -3.034455164929702e-19
-6.985907137926626e-03  6.075396925544582e-05 -3.059994376176987e-19
-7.140782130045728e-03  3.112064454636374e-04 -3.110918491947877e-19
-7.026897591921608e-03 -1.687967147002640e-04 -3.064363407850304e-19
-6.848946119755361e-03  2.119635070010603e-04 -3.034802325262267e-19
-7.009722849522536e-03  3.398035412394917e-04 -3.075844112101131e-19
-6.926422849066147e-03  3.610274694605861e-05 -3.033958764679031e-19
-6.891302034298196e-03  3.591968594679006e-05 -3.033202923620121e-19
-6.914137330725710e-03  6.940827171300078e-05 -3.048583791893671e-19
-6.910650308367489e-03  1.053382778104633e-04 -3.054038104436137e-19
-6.813356288621969e-03  1.038552358355509e-04 -3.028692650656503e-19
-6.825846303631455e-03  4.651825918630078e-04 -3.021800947133567e-19
-6.832881425054726e-03 -1.040592598887981e-04 -3.005556942408810e-19
-6.752946603238998e-03 -4.291624616050628e-05 -3.025923558382192e-19
-6.745683315865874e-03  7.715063955816384e-04 -3.040620790974825e-19
-6.823432342376598e-03  1.058545309699361e-04 -3.015407707794726e-19
-6.713650782209806e-03  1.041514473930048e-04 -2.993196127054757e-19
-6.660502369098634e-03  8.918176115381837e-05 -3.000155075505015e-19
-6.401585823292109e-03  7.143972474025891e-04 -2.938675264203357e-19
-6.148109377370749e-03  5.858625731559321e-05 -2.770661155310539e-19
-6.618404251686288e-03  8.033708148176340e-04 -2.889844920648539e-19
-6.351638043932867e-03 -1.364684219132311e-03 -2.767580176579026e-19
-6.557049327356285e-03 -2.735097339370362e-04 -2.958113237041482e-19
-6.797454151858028e-03 -2.835375766912956e-04 -3.035385279131471e-19
-6.901074371195278e-03 -2.878598163461336e-04 -3.085294365767683e-19
-6.963019313048648e-03 -1.792569341261650e-04 -3.124804026213982e-19
-6.995682095837182e-03 -1.899749935398809e-04 -3.132417295567561e-19
-7.184062565596128e-03 -3.708060229868253e-04 -3.200648390404294e-19
-7.625856328173085e-03 -8.874318979993507e-04 -3.388303423179156e-19
-7.147722512126795e-03 -7.016863371448274e-04 -3.269578861747387e-19
-6.494664579236938e-03 -7.396794725088629e-04 -3.037367567116672e-19
-7.305585129607381e-03  1.020818334551705e-03 -3.395697927714970e-19
-7.662328001047089e-03  4.172925147296286e-04 -3.553659835182733e-19
-7.355593428148015e-03  4.415092357014128e-04 -3.334790029398274e-19
-7.168373230511932e-03  2.567041896039298e-04 -1.546659262696643e-18
-7.063473155180394e-03  2.529476484806586e-04 -1.543155905466198e-18
-7.015502986363514e-03  5.116147499784753e-05 -3.909081331048102e-20
-7.052046509747512e-03  2.297871666263318e-04 -2.761902316466340e-19
-7.077516314955947e-03 -9.086010705153317e-05 -3.275871818689620e-19
-7.240991605738734e-03  7.537040201479306e-05 -3.295266955481729e-19
-7.337281658772358e-03 -2.879186597147442e-04 -3.304773709015922e-19
-7.338247391522258e-03  4.694753501666630e-04 -3.346854220525277e-19
-7.182186263454579e-03 -3.481378539899783e-04 -3.288043840671584e-19
-6.141051465524262e-03 -2.425087634260653e-03 -2.710854303704192e-19
-7.140246929636443e-03  7.103237022627488e-04 -3.300292060123178e-19
-7.343298531291375e-03  2.341397884598002e-04 -3.323945907686948e-19
-7.166419963778111e-03  3.505605132965175e-04 -3.257131203267623e-19
-7.082960803870375e-03  1.082660666508824e-04 -3.220831003113473e-19
-7.001851394654185e-03  1.070262748537268e-04 -3.199910769678511e-19
-6.901404621586196e-03  1.473468632820068e-04 -3.157321958170326e-19
-6.795838599141458e-03 -1.963707764771416e-04 -3.102523657514097e-19
-6.794100757273176e-03  2.069865465330323e-04 -3.118533589939266e-19
-6.807056968619056e-03 -2.417566703883026e-04 -3.095400246153400e-19
-6.788551735564302e-03 -6.550739857032263e-05 -3.103171428840857e-19
-6.825956877889334e-03 -2.304385959323029e-04 -3.108733864470686e-19
-6.852490727612120e-03 -1.392046914772116e-04 -3.123103237068072e-19
-6.852564602250582e-03 -2.471935202702448e-04 -3.115807759594867e-19
-6.855616355314598e-03 -2.473036065848843e-04 -3.119754032407556e-19
-6.867056086323843e-03 -2.756313394079452e-04 -3.123239992151612e-19
-6.872403140271209e-03 -2.461150670173187e-04 -3.130268802143775e-19
-6.878590139563279e-03 -2.463366363452999e-04 -3.130026409110827e-19
-6.885084512908131e-03 -2.465692133781628e-04 -3.130939415834101e-19
-6.899410017484586e-03 -2.470822395273757e-04 -3.135169657261874e-19
-6.920166010944600e-03 -2.497404095939640e-04 -3.147515752423924e-19
-6.890769540046621e-03 -1.534883401191228e-04 -3.143790742536677e-19
-6.887724616646609e-03 -1.534205160196893e-04 -3.131699428629676e-19
-6.919236952706704e-03 -3.484322668937857e-04 -3.142033118490896e-19
-7.049161897119262e-03 -3.549749020451961e-04 -3.209949681281547e-19
-7.031799319326571e-03  3.115952527818223e-05 -3.215258426635979e-19
-6.883193124028274e-03  3.050101693791075e-05 -3.130948125020447e-19
-6.917945125119394e-03 -6.237528368946947e-04 -3.134858217121709e-19
-7.023758628958624e-03 -1.222904685211623e-04 -3.216183592512220e-19
-7.107012681977757e-03 -1.237400025509934e-04 -3.239647825413192e-19
-6.994862775096976e-03  1.656872302286018e-05 -3.209302825199255e-19
-7.097462537835849e-03  6.750887367443539e-05 -3.237822419166368e-19
-7.036853827395980e-03 -9.517346836686106e-05 -3.213514896806564e-19
-7.059029732779954e-03  1.456550402662994e-04 -3.221133958798469e-19
-6.959241563632192e-03 -4.132173807464648e-04 -3.186076093283419e-19
-7.025507293482958e-03  3.569062624969812e-04 -3.227688437469469e-19
-7.108573797881624e-03 -4.819615269650204e-04 -3.225430718656840e-19
-6.973321009508713e-03  1.505953089734029e-04 -3.198405317853475e-19
-6.982120144137497e-03 -1.767458136974519e-05 -3.189365717001093e-19
-6.923466060637318e-03  5.882534677256567e-05 -3.176223959883374e-19
-6.945253345341630e-03  1.871792477472171e-05 -3.181922441994196e-19
-6.939051844920934e-03  2.992766083488283e-05 -3.178562691858156e-19
-6.925402395462802e-03  1.351168492353983e-05 -3.174068084485533e-19
-6.911542610504005e-03  4.647891120160070e-05 -3.167574925393034e-19
-6.901431876670386e-03  1.654008287938523e-05 -3.163059071449216e-19
-6.890220726968582e-03  1.651321405729806e-05 -3.160992257291132e-19
-6.895071024980815e-03  7.052930477627671e-05 -3.162024085121406e-19
-6.898004695249664e-03  7.443540062292008e-06 -3.162846986143921e-19
-6.877041859746988e-03  1.342171081786966e-04 -3.161619774185432e-19
-6.867075641947920e-03  1.650135183190110e-05 -3.149714571681055e-19
-6.886144278369168e-03  7.713240361486919e-05 -3.163654488222776e-19
-6.898518769407433e-03  7.727101154968845e-05 -3.165556275349408e-19
-6.895203382868394e-03  9.016582886388710e-05 -3.166682376358172e-19
-6.887430207569462e-03  1.134815091757180e-04 -3.167491515124357e-19
-6.895405754369490e-03  1.193511928951116e-04 -3.165842294054409e-19
-6.900980688554810e-03  7.029397699291479e-05 -3.165542492577516e-19
-6.897265674379664e-03  1.703723140477209e-04 -3.170483630525329e-19
-6.841676941742247e-03 -4.912336499333054e-05 -3.270268909234239e-19
-6.852438888136449e-03 -4.920063596436041e-05 -3.275935630085423e-19
-6.814575996949884e-03 -6.663068164033569e-05 -3.261615053626258e-19
-6.777355042849940e-03 -6.626674739936561e-05 -3.249207767277968e-19
-6.831980901446323e-03 -6.749990811136099e-06 -3.269671798812282e-19
-6.817838303499231e-03 -6.736017937446090e-06 -3.260468758530125e-19
-6.835353443336986e-03 -2.489859979942828e-04 -3.208544446057656e-19
-6.798178164703125e-03 -6.455788648368916e-05 -3.227395797704368e-19
-6.816339548509119e-03 -1.182879745868660e-04 -3.340549590303080e-19
-6.815529072317402e-03 -6.500527922030355e-05 -3.292045675838471e-19
-6.826091579597086e-03 -7.523906401478763e-05 -3.273184412511292e-19
-6.826110775765650e-03 -7.523927560025180e-05 -3.273076722726504e-19
-6.821728968198531e-03 -8.726796257865089e-05 -3.259737525860784e-19
-6.820488647035447e-03 -7.180762163956327e-05 -3.273940914583701e-19
-6.820100429476421e-03 -9.197166966889826e-05 -3.181540187647417e-19
-6.823984295949262e-03 -9.149964227912858e-05 -3.254942058779910e-19
-6.817136943616839e-03 -9.140782930568019e-05 -3.270806917225155e-19
-6.869131611214386e-03 -3.313469741964924e-05 -3.278889766749335e-19
-6.791036351806234e-03 -2.346448351451900e-04 -3.163498859222797e-19
-6.839817064605190e-03  1.520083332371924e-04 -3.250282510499344e-19
-6.864340193325690e-03 -2.057505816087988e-04 -3.358449024355378e-19
-6.983095779131370e-03  4.690672809432963e-04 -3.289183270581579e-19
-6.964453947152380e-03 -3.626342026446371e-04 -3.387874936177900e-19
-6.996426251458935e-03  3.096686208842585e-04 -3.311718834375646e-19
-6.811436663351717e-03 -1.167318187307549e-03 -3.788684630766334e-19
-6.898107296745086e-03  3.529812235601099e-04 -3.446007527237218e-19
-6.890213579917394e-03 -4.381439855600046e-04 -3.379184950370829e-19
-6.969245750950885e-03  1.010551613566195e-03 -3.610586426443786e-19
-7.135267595027714e-03 -5.386609926044997e-04 -3.541169517205675e-19
-7.032933546759545e-03  1.876874874804995e-04 -3.389714907292696e-19
-6.859573982136051e-03 -8.992149523174592e-04 -3.388547722528417e-19
-6.871571861190468e-03  3.550925624708228e-04 -3.350996785802228e-19
-6.835759276973745e-03 -3.868584288429654e-04 -3.167266942820675e-19
-6.793588097999200e-03  5.370400601993440e-04 -3.264488456855871e-19
-6.898530756931510e-03 -2.986230985439705e-04 -3.374391299719911e-19
-6.847343108767258e-03  2.467090522485688e-04 -3.280005835988085e-19
-6.916326519015260e-03 -2.986602221601950e-04 -3.295176079093982e-19
-6.816538345799743e-03  7.340735901235460e-05 -3.266878065040878e-19
-6.832512912434924e-03 -1.321795070599131e-04 -3.233160858485279e-19
-6.830767434749616e-03  9.806343763149009e-05 -3.277957666218020e-19
-6.881683444144188e-03 -1.124115206048777e-04 -3.266258520215781e-19
-6.860309000310564e-03 -5.461962960738521e-05 -3.280270088654811e-19
-6.879797139752523e-03 -5.461815863278182e-05 -3.276898563872433e-19
-6.882338292283820e-03 -5.346551496530256e-05 -3.279281097939592e-19
-6.881094911283987e-03 -3.551956044601516e-05 -3.300650842657712e-19
-6.879860615433686e-03 -5.521622430746150e-05 -3.302483955777137e-19
-6.908090978804722e-03 -1.547328548767085e-05 -3.298130185686205e-19
-6.900029144280192e-03 -1.575350932396445e-04 -3.225130606948458e-19
-6.871218966312528e-03 -2.923572753406295e-05 -3.302600433942980e-19
-6.839486443401616e-03  5.738566199051929e-05 -3.308042570338690e-19
-6.902832691909950e-03  9.640276618614204e-05 -3.297013024537533e-19
-6.907822048182594e-03 -9.766502782635520e-05 -3.293091561647033e-19
-6.795554699268716e-03 -1.440794155055116e-04 -3.276822613009564e-19
-6.884277932900616e-03  5.489046940234508e-04 -3.094458760590501e-19
-6.949846004713109e-03 -2.363615461165949e-04 -3.157770530052230e-19
-6.859466850657507e-03  2.421290300865862e-05 -3.306505050464406e-19
-6.836584832872831e-03 -2.541278656199511e-04 -3.208344085925902e-19
-6.836729457767394e-03  8.636349773100856e-05 -3.342484700206705e-19
-6.852608560827672e-03 -1.568734698653579e-04 -3.344844719911906e-19
-6.847193140579473e-03  3.971504756981695e-04 -3.134512051220469e-19
-6.884914671495579e-03 -1.414709027141573e-04 -3.327633925808898e-19
-6.908645683514987e-03  1.128207446394038e-04 -3.296035835257580e-19
-6.891719938213593e-03 -1.744664176660143e-04 -3.275229390632204e-19
-6.839856386768112e-03  2.116714546526659e-04 -3.352660878908155e-19
-6.890602525586468e-03 -8.039511752157157e-05 -3.301623539546916e-19
-6.881205613896016e-03  7.921901276666148e-05 -3.338247264670523e-19
-6.912045453063324e-03 -6.675776290613215e-05 -3.339463876445639e-19
-6.848171194784631e-03 -1.055628675656571e-04 -3.284334721413371e-19
-6.881747406691586e-03  7.784195982988358e-06 -3.317199679478926e-19
-6.886405856289557e-03  7.789465325570186e-06 -3.315680591583071e-19
-6.887301877063670e-03 -4.331679089736292e-05 -3.316526537937035e-19
-6.888679844336274e-03 -9.899211058009572e-07 -3.327785411410627e-19
-6.887842840358177e-03 -3.308594149897128e-05 -3.323611081027305e-19
-6.971927691302560e-03  1.079917081099214e-04 -3.330081966120204e-19
-6.789725061277096e-03 -3.824339364091005e-04 -3.361433667127131e-19
-6.860196923683581e-03  3.579804700902327e-04 -3.361773528359218e-19
-6.932585469664992e-03 -2.251331728178525e-04 -3.314053436329445e-19
-7.056467580269552e-03  2.770820360866349e-04 -3.328377942739414e-19
-6.660748413791258e-03 -8.767137113064658e-04 -3.193758678334683e-19
-6.727205221197956e-03  1.075314703283848e-03 -2.708206339672430e-19
-6.968498341399818e-03 -3.165934326092278e-04 -3.413249037586003e-19
-6.857877711271999e-03  8.231508488483513e-04 -3.747263095623962e-19
-6.953749028397879e-03 -2.250726766322505e-04 -3.436538543612816e-19
-6.942595733027963e-03  4.853833491439865e-04 -3.461484604402247e-19
-6.856843538947490e-03 -6.179671265311398e-04 -3.674444732418837e-19
-6.811561587824582e-03  4.423788973902549e-04 -3.084463359296197e-19
-6.704891813770092e-03 -5.116140593546978e-04 -3.064728257187555e-19
-6.755619748385668e-03  1.011419415859821e-03 -3.342920774282641e-19
-6.987977848399373e-03 -4.561660360692562e-04 -3.678475934824164e-19
-6.816499963630279e-03  3.465967550778791e-04 -3.406855124774372e-19
-6.773746317602769e-03 -2.700350243244295e-04 -3.404173892535674e-19
-6.881881241116588e-03  9.310317708857970e-04 -3.392030405397122e-19
-6.907587627115758e-03 -4.695651075381415e-04 -3.148800948203195e-19
-6.954105386406307e-03  6.823402428575816e-04 -2.815009485944831e-19
-6.848826666141234e-03 -1.294293218180540e-03 -2.879610926778371e-19
-6.783248582396695e-03  4.688189440529922e-04 -3.417511136638218e-19
-6.744884174904941e-03 -7.169302219354043e-04 -3.342708675463206e-19
-6.738482787090254e-03  5.587354352552125e-04 -3.416987517271766e-19
-6.912683741887297e-03 -4.542113660569753e-04 -3.318011845465346e-19
-6.796661667814336e-03  2.509952277478842e-04 -3.548729379958651e-19
-6.805343593014841e-03 -1.924374703623460e-04 -3.287604021461335e-19
-6.734471516520943e-03  3.736275196997461e-04 -3.519636917422193e-19
-6.839964037120662e-03  5.728060613238134e-06 -3.357384280745642e-19
-6.845010279255307e-03  4.955538118073659e-05 -3.311555589459810e-19
-6.828705894784263e-03  4.943734337590983e-05 -3.309275985602614e-19
-6.823167087776950e-03  9.628422000542752e-05 -3.400722219907805e-19
-6.792250390648394e-03 -5.977310320808226e-05 -3.354594359650708e-19
-6.736413635197928e-03  2.085403266957087e-04 -3.460285043695609e-19
-6.827959915607552e-03  4.019728399343015e-05 -3.350170913715824e-19
-6.823181745814224e-03 -8.342507964789106e-05 -3.324045633169384e-19
-6.829857923991216e-03  8.621134468736356e-05 -3.379225532941108e-19
-6.809587924057701e-03 -4.349027691869747e-05 -3.367806503328608e-19
-6.835620638313536e-03  1.861318875289203e-04 -3.605868666890017e-19
-6.688421043525509e-03 -8.148125834182104e-05 -3.307800984448160e-19
-6.194010168082673e-03  4.215331705108579e-04 -3.682417387684106e-19
-6.524181174959300e-03  6.178093934715997e-04 -4.119328364702726e-19
-7.094876809342985e-03 -6.792393775426738e-04 -4.106758825735180e-19
-6.184394545201837e-03 -1.418468409615648e-03 -3.616638521047685e-19
-6.627710850156040e-03  6.003843363100836e-05 -3.421156423640531e-19
-6.695083404985576e-03 -3.160284803306833e-04 -3.473859871409111e-19
-7.421559495590500e-03  1.570101043997320e-03 -3.477015705234077e-19
-3.067898170437801e-03 -6.847711997263115e-03 -4.285417387090245e-19
-6.590516444457113e-03  3.523163906796967e-04 -3.445767229317349e-19
-6.820229456307651e-03 -1.508074201732411e-03 -3.163436600929989e-19
-6.793080803508780e-03  2.880055209708517e-04 -3.385912292193145e-19
-6.767795377921063e-03 -4.022265112796674e-04 -3.356776344931014e-19
-3.986039285741374e-03  4.983231360828751e-03 -9.373762093903248e-20
-6.830896225357823e-03  1.169254458095605e-04 -3.432876325085781e-19
-6.484353268481940e-03 -1.743200575199882e-04 -3.322664966661642e-19
-7.016166503014782e-03  2.158410659530396e-03 -3.363256778013018e-19
-6.915744034573046e-03 -1.422478461418054e-03 -3.382972436459542e-19
-6.601063407852102e-03 -6.748168877143087e-05 -3.407339036125429e-19
-7.713555162168676e-03  5.414699798965133e-04 -3.631718765135833e-19
-6.162076992585472e-03 -3.747624850800527e-03 -5.455336478646795e-19
-7.052374613307536e-03  1.957121734735354e-04 -3.572130592887534e-19
-7.127480188366607e-03  1.977964466638811e-04 -3.550701545004857e-19
-6.942358224702604e-03  1.926590817544780e-04 -3.511089205545146e-19
-6.936067939828611e-03 -5.751784337615264e-05 -3.550278615839568e-19
-6.887143108254888e-03  4.030793629504718e-04 -3.685119686122586e-19
-6.779162578244464e-03 -3.121875873682915e-04 -3.442376438854812e-19
-6.961874751699255e-03  8.873646531885610e-04 -3.891335033300588e-19
-6.967236571299179e-03 -6.334835144207634e-04 -3.667398678884454e-19
-6.907874152678714e-03  4.373735976562021e-04 -3.712433092522352e-19
-7.003307388051654e-03 -9.158106679965394e-04 -3.240673499381800e-19
-7.237924901182550e-03  3.899716818168307e-04 -3.947644817138522e-19
-5.881841994701227e-03 -2.486227195151621e-03 -2.754726224548772e-19
-6.656332389603681e-03  1.694082690437267e-03 -3.868650688765627e-19
-6.830518779082817e-03 -1.289661200187604e-03 -4.800402971180576e-19
-6.806531833687122e-03  1.749550262902212e-03 -2.983165265273990e-19
-6.440982068583899e-03 -1.870255991779181e-03 -4.481686209241008e-19
-6.440018746013251e-03  2.480328864937623e-03 -2.333341915814660e-19
-6.529692581919409e-03 -2.411303225400161e-03 -2.752296217473527e-19
-6.475549571564611e-03  1.858537337209533e-03 -3.146280113686672e-19
-6.749534434422346e-03 -1.809399824476228e-03 -4.314602880009966e-19
-6.854298373271054e-03  1.362189331185325e-03 -4.137941894904492e-19
-6.177295640362096e-03 -2.396662764598447e-03 -2.198220629735679e-19
-6.147590468162377e-03  2.111433053327070e-03 -2.537441176912419e-19
-7.038423025535647e-03 -1.053115840847214e-03 -4.264035768067097e-19
-6.647425046803677e-03  1.118764639068506e-03 -3.386389924687760e-19
-6.678347386122577e-03 -3.438009487291799e-04 -3.482514229493633e-19
-6.819535042165680e-03  5.215673156313489e-04 -4.303162590832360e-19
-6.945932190625440e-03 -1.734117810684397e-04 -3.883759165087528e-19
-6.751139862587538e-03  2.397927279260958e-04 -3.905091999284195e-19
-6.771825315352135e-03 -4.017742187429625e-04 -3.760743073604433e-19
-6.802415291370352e-03  3.359028334512561e-06 -4.057556174281242e-19
-6.821962100745852e-03  3.368680536521589e-06 -4.130861947175811e-19
-6.765519693729233e-03  9.354410942080881e-05 -4.136701250456358e-19
-6.805976712773528e-03  4.606028148079098e-05 -4.211392283128000e-19
-6.781355657214641e-03 -1.671716243547745e-04 -4.348191861612979e-19
-6.781712142548108e-03  1.838139244222911e-06 -4.345622896191974e-19
-6.811200215770459e-03 -8.697500496846489e-05 -4.401351414897440e-19
-6.805956563713731e-03 -2.754123893166494e-05 -4.549084136125885e-19
-6.826357076860416e-03 -2.762379241281660e-05 -4.691673223376778e-19
-6.626470281774547e-03 -1.310942576994327e-04 -4.642192306595778e-19
-6.824707437634801e-03  8.589743615940479e-04 -4.519320109283460e-19
-6.785103165419142e-03 -1.169356204432568e-03 -4.317103109635525e-19
-6.453408695110788e-03  7.995542839766545e-05 -5.184588677715313e-19
-6.737601499210841e-03 -1.191579307899873e-04 -5.301792816782377e-19
-6.881428757721437e-03  5.042345916482057e-04 -5.938709710114990e-19
-6.724286246294334e-03 -3.511755820275815e-04 -4.957739229207197e-19
-6.768870053534156e-03  7.636487905339900e-04 -5.678570234332607e-19
-6.770409234681730e-03 -4.377822470142642e-04 -5.586239754980065e-19
-6.853320663792264e-03  6.752087545993921e-04 -5.823289668008849e-19
-6.942769122532846e-03 -6.473074060276337e-04 -5.589854052584046e-19
-6.848969645666626e-03  1.673838994020750e-04 -6.832967919708204e-19
-6.611742342718282e-03 -9.332574630958097e-04 -5.159199205839072e-19
-6.721405475435253e-03  4.543375934018720e-04 -7.349009900933191e-19
-6.896896566581547e-03 -3.761307742914938e-04 -7.720560745269174e-19
-6.885478729596960e-03  1.340042809313802e-04 -8.916932512228837e-19
-6.888217733210669e-03 -3.610920426832806e-04 -9.150933939975694e-19
-6.861371548278717e-03  1.621797431924710e-04 -1.035811453048519e-18
-7.027393783520910e-03 -1.326921403198115e-04 -1.080244454756232e-18
-7.036297371857536e-03 -1.328602590035379e-04 -1.223166939874879e-18
-6.838164420775575e-03  4.400489430079868e-04 -1.378556807414048e-18
-7.054251999379178e-03  1.799072179270302e-04 -1.494743991463588e-18
-6.983045524140056e-03  1.780912126496759e-04 -1.765830992386100e-18
-6.891997404071333e-03  8.892907667550622e-05 -2.261627517028249e-18
-6.886805244436802e-03  2.228974667211054e-05 -2.903066291680475e-18
-6.866265372205856e-03  1.044315333050941e-04 -3.759925451735111e-18
-6.828897597872792e-03  1.240973767069385e-04 -4.833137194981341e-18
-6.896735864796439e-03  1.096365178096631e-04 -5.657196644773221e-18
-6.905048562461818e-03 -1.841956978508472e-04 -7.230614278544693e-18
-6.922498572736018e-03  2.042927271099731e-04 -1.209902271921684e-17
-6.852880137670278e-03  1.350529922551734e-04 -1.864626320166209e-17
-6.851635414489262e-03  3.035388901648298e-05 -2.416831199627337e-17
-6.802905879070851e-03 -9.926270228923566e-05 -3.515604732094559e-17
-6.793470918372404e-03  4.697854935754917e-04 -4.976088376483250e-17
-6.872509167458764e-03 -2.337380671479459e-05 -6.537335575124681e-17
-6.862967847912378e-03  2.135382077836271e-04 -8.746879284651699e-17
-6.859173866141276e-03 -7.785498044710228e-05 -1.197784963807341e-16
-6.854896116597294e-03  7.468845730035423e-05  3.365872411664238e-16
-6.853793523459651e-03  3.194674401224706e-05 -6.288578150216170e-15
-6.846396081293925e-03 -4.958853240753905e-05  9.048173873065863e-16
-6.831304131003881e-03  3.184191696935262e-05 -6.635974838139653e-15
-6.839687082928139e-03  3.902632242118352e-06 -1.355473779377071e-16
-6.833663219820047e-03  3.970332062562577e-05 -8.565317316343496e-17
-6.857288088806907e-03  2.778406862025381e-05 -6.697296249651389e-17
-6.831634319039621e-03 -1.424274711657981e-05 -4.588168438154208e-17
-6.838354823183094e-03 -1.046529038705572e-06 -2.423263898176574e-17
-6.834403613258299e-03 -4.188985045030826e-06 -1.364662810654904e-17
-6.831124147908009e-03 -4.186974974791280e-06 -9.103020752250163e-18
-6.837766111724782e-03 -2.861970897829222e-05 -5.740698370430486e-18
-6.844777376906207e-03 -9.375435703257665e-06 -3.607970493557760e-18
-6.854165335393394e-03 -4.823004474822028e-05 -2.814446675561236e-18
-6.845629101397107e-03 -2.029154172644829e-05 -2.440110650620926e-18
-6.848123278501457e-03 -1.842208804421021e-05 -1.946214721133407e-18
-6.843291666584126e-03 -1.840909055913046e-05 -1.544511715764048e-18
-6.850505872046430e-03 -3.643049488530669e-05 -1.128147928609514e-18
-6.849422228020104e-03 -7.051382371759620e-06 -1.042441907507037e-18
-6.836924783802335e-03 -7.038516431405011e-06 -9.196388551897529e-19
-6.828595510693852e-03 -1.359511817921505e-05 -8.255460596746406e-19
-6.830616007395486e-03 -2.672306277660633e-05 -7.477333288756150e-19
-6.855947186813030e-03 -2.682216462877421e-05 -6.891830254198253e-19
-6.783618831404234e-03 -2.653919817596451e-05 -6.406471638785283e-19
-6.634610501487764e-03  6.026993918344963e-04 -6.087657499973972e-19
-6.594568689137980e-03  8.734368323490025e-05 -5.739162294401196e-19
-6.702531251223000e-03 -1.035410792093144e-03 -5.277994634322406e-19
-6.561959074973973e-03  3.171504383386674e-06 -5.360980151643252e-19
-6.856900806262596e-03  3.749962159040901e-04 -5.190757272076624e-19
-6.743639758200646e-03 -1.053160836998631e-04 -4.939677267131842e-19
-6.762138212902334e-03 -1.056049758817612e-04 -4.799217915278414e-19
-6.833898608389921e-03 -5.583569412903195e-05 -4.683241418394802e-19
-6.888050137156761e-03 -6.350317905736158e-05 -4.578675958980436e-19
-6.964657360412299e-03 -1.187581198427324e-04 -4.475458864683615e-19
-6.997203058368419e-03 -1.193130740491242e-04 -4.401610376926947e-19
-6.671546092757849e-03  1.713392477195147e-03 -4.364422023240195e-19
-7.038683658366927e-03  8.990241437199579e-05 -4.327564411444047e-19
-6.960095601336121e-03  8.889863917612163e-05 -4.231406606697377e-19
-6.903545543067918e-03  3.949292757994286e-05 -4.152118698574651e-19
-6.911516532699029e-03  1.598935435884110e-04 -4.114946457627790e-19
-6.886538762081350e-03 -9.380564700717897e-06 -4.048913820405335e-19
-6.891070837915166e-03  1.036776541930166e-04 -4.020069903307895e-19
-6.856228508031516e-03 -2.228346299112380e-05 -3.962856235550769e-19
-6.888092197236135e-03  2.884009580640298e-04 -3.919039975342449e-19
-6.843960250228062e-03 -1.304064576548545e-04 -3.872830880318089e-19
-6.767148582796684e-03  2.558364781549816e-04 -3.841005461878158e-19
-6.718611872036948e-03 -8.628787087442637e-05 -3.770357338481974e-19
-6.806835676558325e-03  1.675154517382316e-03 -3.828049248427819e-19
-6.776133310344625e-03 -4.156148717032007e-04 -3.708110924431263e-19
-6.733063022974385e-03  8.683551990651356e-04 -3.690020713676871e-19
-6.720506600790071e-03 -4.944784601681446e-04 -3.651819321646988e-19
-6.633929921008504e-03  2.205338361688238e-03 -3.716878544194802e-19
-6.992809992777185e-03 -7.857402285936496e-04 -3.627586566999872e-19
-6.891466272703971e-03  4.054952722516572e-04 -3.700450128264697e-19
-6.660164573251882e-03 -1.020634592076866e-03 -3.550516333520228e-19
-6.737896212816235e-03  6.694392387665446e-04 -3.703175859979906e-19
-6.616247615393461e-03 -7.193377454576736e-04 -3.511080832060321e-19
-6.510800738925043e-03  1.523003766551572e-03 -3.679416427983054e-19
-6.798973347202399e-03 -5.122050831029319e-04 -3.547334871446705e-19
-6.734441294927656e-03  1.590538929322686e-03 -3.637518290692091e-19
-6.752708303228843e-03 -7.451873441592363e-04 -3.463865493470135e-19
-6.406169830869114e-03  1.311687307313728e-03 -3.483311559752744e-19
-6.510565124137046e-03 -2.807263805548490e-04 -3.457944565527758e-19
-6.443058781706290e-03  1.435155412451456e-03 -3.484955134798668e-19
-6.849440463322271e-03 -3.116116143449358e-03 -2.871898219063282e-19
-6.308148057993881e-03 -3.180745689663431e-04 -3.357442978727865e-19
-6.414058336067088e-03 -6.390619283173302e-04 -3.402995368635290e-19
-6.668734821461810e-03 -1.090221561086773e-04 -3.484382108852053e-19
-6.804474900706621e-03 -5.726670295469857e-04 -3.475560849946830e-19
-6.877726252863771e-03 -1.295822479518064e-04 -3.527213191840312e-19
-6.872685924834612e-03 -3.296569427483077e-04 -3.517421734047920e-19
-6.943433978623268e-03  3.679504059737694e-05 -3.566415613191507e-19
-7.052882034075885e-03 -1.661730721004016e-04 -3.586519020701738e-19
-7.143041265741988e-03 -1.639093260988467e-04 -3.636553234696679e-19
-7.265638202170953e-03 -8.746346050929515e-05 -3.664438671915903e-19
-7.381363952579844e-03 -2.280237338818066e-04 -3.660690785104123e-19
-7.410358434439481e-03 -2.650649281772796e-04 -3.688078016730449e-19
-7.374291062400964e-03 -2.705950200002449e-04 -3.687096948630310e-19
-7.426452783735086e-03  6.203373197071977e-05 -3.697242940832014e-19
-7.272514238934818e-03 -5.485437425892852e-04 -3.619225794724550e-19
-7.197411076000661e-03  9.176330595727953e-05 -3.609895686340540e-19
-7.088443641893582e-03 -2.673419564381164e-04 -3.510432757647879e-19
-7.104972227747959e-03  3.130730402066186e-04 -3.536393494119165e-19
-7.031076069534956e-03 -4.646822965947518e-04 -3.501383420362686e-19
-6.913438881198491e-03  7.068542316798740e-05 -3.452444967966405e-19
-6.801531951044193e-03 -5.357910261178118e-04 -3.386106387835195e-19
-6.790424822755435e-03  1.558377277394359e-04 -3.425747029253479e-19
-6.744526946870616e-03 -3.264422735964518e-04 -3.370397279690573e-19
-6.776071121547996e-03  4.672492804829102e-04 -3.379903454825296e-19
-6.832011144184235e-03 -3.130887280555934e-04 -3.379832668902844e-19
-6.837616792367550e-03  2.626807577234633e-04 -3.390888205691902e-19
-6.764874169667957e-03 -5.236512554944517e-04 -3.401991612697850e-19
-6.715754170552073e-03  3.216238748326465e-04 -3.433327781882021e-19
-6.803778855151249e-03 -1.965403454072768e-04 -3.373492693235058e-19
-6.811960800768599e-03  2.714844964017882e-04 -3.408852357202568e-19
-6.881067061860425e-03 -1.688450070065974e-04 -3.373555311398546e-19
-6.840317674772015e-03  6.574207105171797e-05 -3.390637104025190e-19
-6.808563924574056e-03  2.314087862155527e-05 -3.368407828880221e-19
-6.792752918924444e-03  2.308714033449861e-05 -3.360422040246761e-19
-6.864738161627693e-03 -6.743300131162849e-05 -3.367411460485587e-19
-6.780938526435267e-03 -1.107989325870906e-04 -3.361983505479375e-19
-6.839355364793896e-03  2.259839981572618e-04 -3.350942362125938e-19
-6.837893532751532e-03 -1.529329039583214e-04 -3.332390355077700e-19
-6.794059059086063e-03  1.617802639545407e-04 -3.353814327639205e-19
-6.803673834391796e-03 -9.678361382060483e-05 -3.333707745934741e-19
-6.849594708134868e-03  2.880656556180742e-04 -3.377901272736511e-19
-6.865125815588683e-03 -1.647819265807393e-04 -3.338793590786564e-19
-6.838565310025533e-03  8.663213077403009e-05 -3.349165134213069e-19
-6.816763034306473e-03 -2.368819180427100e-04 -3.357795524587695e-19
-6.816947622492693e-03  1.214802159956678e-04 -3.359354033033734e-19
-6.819502647835167e-03 -1.119690830409920e-04 -3.334430514951926e-19
-6.829712263314722e-03  2.178335975389424e-04 -3.362355684585096e-19
-6.862559904615663e-03 -7.969552993869104e-05 -3.342280857713217e-19
-6.859952847581189e-03  1.464929303534225e-04 -3.367773886035277e-19
-6.871249302513355e-03 -9.439016125836408e-05 -3.346663957443319e-19
-6.833139420973067e-03  1.097084437422782e-04 -3.359917103979288e-19
-6.850891213890014e-03 -8.681115226869806e-06 -3.345681888945807e-19
-6.841945272915586e-03  8.236795990480436e-05 -3.346237173612748e-19
-6.862460375392927e-03 -6.295364978390016e-06 -3.342683974765833e-19
-6.843467950242704e-03  2.585125124027573e-05 -3.337338709009183e-19
-6.853073268357115e-03  3.500590170083677e-05 -3.338837353770375e-19
-6.837957428255235e-03  9.770665440112951e-06 -3.329639355224787e-19
-6.844556964027462e-03  5.610279313313162e-05 -3.331107832486387e-19
-6.815065881272479e-03 -3.719244408169337e-05 -3.319285798864539e-19
-6.824718821026126e-03  8.089237549872902e-05 -3.316527836618791e-19
-6.813264428009351e-03 -4.468152010494698e-05 -3.315902731200942e-19
-6.825822493050716e-03  1.567048537561341e-04 -3.306583485449145e-19
-6.832746111667576e-03 -5.535916569161589e-05 -3.323394121381296e-19
-6.850687174085176e-03  1.202778065567202e-04 -3.314077859328975e-19
-6.709113162643315e-03 -3.455374811061513e-04 -3.228242816456845e-19
-6.768787158104852e-03  3.272124149869680e-04 -3.276563893796712e-19
-6.813340826951341e-03 -1.259552469428811e-04 -3.306958002009286e-19
-6.890336977212534e-03  5.347193649497785e-04 -3.336726081291639e-19
-6.898513628900118e-03 -2.689937011238287e-04 -3.320397708807304e-19
-6.967449552793758e-03  4.432509573063756e-04 -3.391124881614588e-19
-6.698461459283296e-03 -1.324055352448770e-03 -3.191402271153424e-19
-6.835299945411848e-03  5.087170594814981e-04 -3.330619146864132e-19
-6.686898513504879e-03 -8.641870002644644e-04 -3.323194580302603e-19
-6.863896863150878e-03  8.940610501105647e-04 -3.329549022712511e-19
-6.963783991964291e-03 -9.306767413220002e-04 -3.295859376804511e-19
-6.945301989211991e-03  6.591789242451639e-04 -3.366234724765485e-19
-6.474447218419677e-03 -1.086941416059902e-03 -3.253645969452620e-19
-6.474395613905323e-03  1.394125097932346e-03 -3.339432909311354e-19
-6.688916835854544e-03 -2.425703871799694e-04 -3.253737818099730e-19
-6.452103474421852e-03  2.306333140190255e-03 -3.101106015822255e-19
-6.565225396222355e-03 -7.350783376780607e-04 -3.153415177680593e-19
-6.669180141606013e-03  1.732955461165875e-03 -3.049161233800325e-19
-6.420022532774720e-03 -2.871311325951522e-03 -3.073365712314683e-19
-6.302769303065493e-03  5.831295171920061e-04 -3.210999341672433e-19
-6.558596821943068e-03 -1.104996233935207e-03 -3.114080990138753e-19
-6.598833175698729e-03  5.919954230828528e-04 -3.215847392559080e-19
-6.914564790620308e-03 -7.250566218132553e-04 -3.307255067491751e-19
-6.822263501969547e-03  2.066304861921770e-04 -3.294299820770457e-19
-6.779105283723282e-03 -3.286019747795486e-04 -3.252910311217982e-19
-6.845610107988263e-03  3.515820950373347e-04 -3.296394721062675e-19
-6.804095937230136e-03 -5.321125047275674e-04 -3.257964230047792e-19
-6.704243282074563e-03  2.582679663794592e-04 -3.305132068342572e-19
-6.829161691850665e-03 -7.253294709373633e-05 -3.280366604210563e-19
-6.865599899853634e-03  2.154775080669112e-04 -3.313935056548412e-19
-6.869420078166942e-03 -9.921706245114692e-05 -3.288800515478030e-19
-6.842829381590822e-03  1.423234216532758e-04 -3.278044817362670e-19
-6.846571101749924e-03 -2.933740056555085e-04 -3.295037758098166e-19
-6.837360392789457e-03  1.129443702546318e-04 -3.297141823089143e-19
-6.854391142764636e-03 -4.334193492977606e-05 -3.289028547015727e-19
-6.861381030158699e-03  2.957893906448812e-05 -3.295781247267733e-19
-6.860739012549326e-03  1.002875053489009e-05 -3.292374145058349e-19
-6.870125344545197e-03  1.004247109500060e-05 -3.296424659811919e-19
-6.877762529797551e-03  1.151452201196746e-05 -3.298761961923403e-19
-6.883558381927086e-03  3.851983273925208e-05 -3.301784910377204e-19
-6.893734602592333e-03  1.258093561832695e-05 -3.300183102968740e-19
-6.911863910981793e-03  2.208659390200769e-05 -3.303975787142508e-19
-6.879235474266300e-03  6.043548769067157e-05 -3.297783640007900e-19
-6.901660465514053e-03  9.013544708951073e-05 -3.296424189370756e-19
-6.905856041746106e-03  9.019024117006051e-05 -3.293293548935607e-19
-6.888985338198168e-03 -4.393325405603055e-05 -3.298049713152147e-19
-6.892292119096264e-03  1.946320575250691e-04 -3.309154430648216e-19
-6.912276236179870e-03 -4.632541889518031e-05 -3.297474544924812e-19
-6.969388854796421e-03  1.972306787880803e-04 -3.324070149091702e-19
-6.975772308360876e-03 -3.380649130475862e-05 -3.313103523929740e-19
-7.040855917630042e-03  3.553702553312096e-04 -3.323086351258046e-19
-7.171582346397440e-03 -3.003682573892192e-05 -3.341346430886701e-19
-7.226682624813932e-03  2.219699069365957e-04 -3.397206436552408e-19
-6.520702628969067e-03  7.140170129094386e-05 -3.267450592513394e-19
-6.635075540401970e-03  1.377691652524375e-03 -3.287613844316369e-19
-6.229431892963377e-03  3.363448086589657e-04 -3.113991918652976e-19
-5.976890593073150e-03  2.837146495977089e-04 -3.041314591165771e-19
-6.075532709377598e-03  2.883970531028570e-04 -3.020284804479237e-19
-5.565292265728670e-03 -3.377189017112816e-03 -1.849699404812923e-19
-6.580944612440417e-03  1.794570185621470e-04 -3.250107369551988e-19
-7.029395265373669e-03  1.916859039102346e-04 -3.283321361478809e-19
-6.814418309448908e-03  5.685526240310178e-05 -3.239033350944957e-19
-6.829262445081673e-03  5.697911262600017e-05 -3.231781615935630e-19
-6.765023140439972e-03 -4.373033657583382e-04 -3.172850548080705e-19
-6.517568589907500e-03  3.743390208625185e-04 -3.166468148612109e-19
-6.893740411837422e-03  5.104311377383075e-04 -3.475540001532907e-19
-6.955006369671803e-03 -9.402881375452644e-05 -3.201957351940761e-19
-6.678871281914486e-03 -3.789602498886320e-04 -3.044314939917898e-19
-6.725336858022591e-03  3.092110626604875e-05 -3.238486880573227e-19
-6.797792961600935e-03  3.125423796274544e-05 -3.249028443012604e-19
 6.814645797837017e-03 -6.559604526379026e-05  3.294291158759016e-19
 6.799562449790133e-03 -1.588280594490243e-04  3.291107356382601e-19
 6.823273179921849e-03 -1.690912258603547e-04  3.302501088121154e-19
 6.830026694890979e-03 -1.740114189981483e-04  3.308081608590561e-19
 6.846092185431550e-03 -1.744207261547304e-04  3.307564415551182e-19
 6.856594033011045e-03 -1.706070956436053e-04  3.310574114278019e-19
 6.864521818349061e-03 -1.708043563279760e-04  3.316540448058782e-19
 6.870330749251853e-03 -1.709488952674770e-04  3.322171735374348e-19
 6.874939474378350e-03 -1.699005479104023e-04  3.325508399504958e-19
 6.886861416825358e-03 -1.701951751666062e-04  3.326670095410080e-19
 6.916987534846903e-03 -2.026467894555731e-04  3.335876959315533e-19
 6.957407504984877e-03 -2.038309721849889e-04  3.350301439815752e-19
6.878388139580458e-03 1.605779170627034e-04 3.324604504241009e-19
 6.963898838770870e-03 -6.603184815395369e-05  3.343320665408088e-19
 6.921276458756042e-03 -7.899241627342387e-05  3.331895211666998e-19
 6.909954825439740e-03 -7.886320265551016e-05  3.328798329761477e-19
 6.907420203515488e-03 -7.200363974338317e-05  3.330873967693568e-19
 6.876277162824673e-03 -2.216380421326792e-05  3.320247340948765e-19
 6.837659545866713e-03 -2.203933085636680e-05  3.307086169303841e-19
 6.840606780201037e-03 -1.111508833704648e-04  3.307543272619074e-19
 6.951878143876065e-03 -2.718862132525193e-04  3.357791454216624e-19
6.965532205350636e-03 2.657173522406761e-04 3.336833631910129e-19
 6.853878803787281e-03 -1.758628772529830e-04  3.324519942107904e-19
6.900244041072587e-03 4.156616394916860e-04 3.277761604370593e-19
 6.819766302005924e-03 -4.291589634142058e-04  3.310109329753134e-19
6.811905333330467e-03 5.910158120567954e-04 3.272572531719624e-19
 6.865010515929332e-03 -6.950870099814019e-04  3.321055722174281e-19
6.719843559292157e-03 1.000391310892264e-04 3.306418748448137e-19
 6.935310583147431e-03 -2.009517091352254e-04  3.351313869555075e-19
6.959812890083498e-03 1.692587912251595e-04 3.336405457544383e-19
 6.969425380135668e-03 -2.174230682446012e-04  3.358049203806681e-19
6.899490718657561e-03 7.396220628842102e-05 3.326688621035653e-19
 6.915484843086951e-03 -1.752590463412566e-04  3.344880402622338e-19
6.851573741485817e-03 6.375993691931807e-05 3.337954812590360e-19
6.928790707283237e-03 3.526350783772971e-05 3.339731694985790e-19
6.898626437868273e-03 1.906317065504999e-05 3.335820288153026e-19
 6.895775707385409e-03 -4.878815191463263e-06  3.339400972313035e-19
6.906386079938031e-03 6.203912131927776e-05 3.342278626106493e-19
 6.899555965743698e-03 -5.893890910340068e-06  3.342807336470506e-19
6.897668120633582e-03 7.696470507991937e-05 3.343886608685506e-19
 6.887176185262056e-03 -5.127083123221498e-06  3.342422858143943e-19
6.898918979184748e-03 4.207938216587625e-05 3.344931983572896e-19
 6.881216973146381e-03 -7.397969862046148e-05  3.347054220592609e-19
6.876445780250925e-03 6.006094997111814e-05 3.341311929360776e-19
 6.868710790846034e-03 -6.918896795119981e-05  3.346495748633946e-19
6.895407820757344e-03 1.931687762006932e-04 3.343689451333282e-19
 6.910515339646308e-03 -9.009013827663005e-05  3.363567717525346e-19
6.901144604646720e-03 2.940043541827932e-05 3.356434166499420e-19
 6.857987184725240e-03 -1.852146444979149e-04  3.355421709933379e-19
6.874752633279709e-03 1.925100930149706e-04 3.355699912945842e-19
 6.914638122026740e-03 -1.317012023896794e-04  3.368453874787101e-19
6.938645085379275e-03 8.424505960361400e-05 3.369110449998127e-19
 6.933029892211590e-03 -1.998950362767295e-04  3.377243464444133e-19
6.908028813337005e-03 3.432507397178662e-05 3.368377454031299e-19
 6.922816171170434e-03 -1.209406095194798e-04  3.378920429256730e-19
 6.936806541404652e-03 -3.353599215837015e-05  3.379825371666278e-19
 6.983270376395010e-03 -1.202024466967388e-04  3.396595324530079e-19
 7.018993933045479e-03 -1.208173532781323e-04  3.414863941800529e-19
6.935537413638147e-03 1.256411652508882e-04 3.393330798686531e-19
7.047414272222968e-03 5.189643085567459e-05 3.407697431572266e-19
6.951415274306898e-03 8.926637062168037e-05 3.383880913803258e-19
6.901397014387434e-03 4.292533198358634e-05 3.373258007245864e-19
6.888337508251839e-03 4.284410442411635e-05 3.371830407844041e-19
6.881616549200251e-03 4.280230138077076e-05 3.370989517596372e-19
6.868611582680841e-03 4.272141304698598e-05 3.369258652170628e-19
6.863603361460111e-03 5.508795133988052e-05 3.368669157137533e-19
 6.861321064679734e-03 -1.674555227418465e-05  3.375359929223405e-19
6.889538923613935e-03 1.308193771510148e-04 3.371369739108666e-19
 6.853533049617083e-03 -1.220411410275999e-04  3.379806584488269e-19
6.840778799957204e-03 1.621736231933551e-04 3.372845095241814e-19
 6.866278581585780e-03 -8.110966674782843e-05  3.386607091396246e-19
6.883091759224989e-03 1.726400043503309e-04 3.371501988775440e-19
 6.808613362572555e-03 -2.775568990128263e-04  3.376743902909181e-19
6.854014066855579e-03 4.297007860287002e-04 3.351312746026496e-19
 6.866227115474180e-03 -3.263978858177952e-04  3.394531671286657e-19
6.881207512300154e-03 2.703931614536094e-04 3.378099307294174e-19
 6.837533723181927e-03 -5.495975322920464e-04  3.370972064565352e-19
6.807624270159070e-03 2.237113131061205e-04 3.371337247471081e-19
 6.799264075834153e-03 -3.020112770266232e-04  3.384220544613582e-19
6.838816243837029e-03 3.734988370780871e-04 3.378195728962891e-19
 6.896318979134885e-03 -3.167823068691935e-04  3.401623645465542e-19
6.848333318861971e-03 1.929025600123222e-04 3.390309632054454e-19
 6.853832999328139e-03 -2.817728610747298e-04  3.404513943562367e-19
6.866565514780655e-03 2.157491885315824e-04 3.408257820853983e-19
 6.830054174872259e-03 -2.967951721340493e-04  3.415980299420974e-19
6.836376595694505e-03 2.987865690847013e-04 3.405829833730611e-19
 6.881709377895316e-03 -1.910087457840531e-04  3.436281484598947e-19
6.882076200321509e-03 1.561269638962678e-04 3.436187877810490e-19
 6.868565294566826e-03 -9.598681227562872e-05  3.444967546177063e-19
6.897245251088878e-03 5.482602392602135e-05 3.451901663904012e-19
6.874986687518583e-03 2.817207254942321e-06 3.455094853817077e-19
6.870190802491441e-03 2.815242014468932e-06 3.457864824121730e-19
6.874177334866511e-03 2.816875601330926e-06 3.461744121293487e-19
6.877024753851058e-03 1.473100080001772e-05 3.471417976458853e-19
6.873276626382882e-03 8.995566635374157e-06 3.479424029013313e-19
6.874743778593360e-03 8.997486806231667e-06 3.485746059036938e-19
6.872097175423869e-03 3.403252783343578e-05 3.490921912645408e-19
 6.871518588261558e-03 -1.712996955651172e-05  3.506016309524229e-19
6.889928172715160e-03 1.058116323704767e-04 3.507356168961313e-19
 6.904950652145310e-03 -3.222841567460366e-05  3.524522380423561e-19
6.889598064335700e-03 3.878133787292211e-05 3.525044795842709e-19
6.895642029983945e-03 9.261452137073400e-06 3.532423307613408e-19
6.883124295506860e-03 3.349299322882720e-05 3.535983601793704e-19
6.887502115385621e-03 4.523534670389632e-05 3.545345832473253e-19
6.881787034855743e-03 3.488585812494800e-05 3.553554482293562e-19
6.877946380845678e-03 3.486638868914251e-05 3.562882174431958e-19
6.886111738389702e-03 7.202213492128847e-05 3.576759158400800e-19
6.877741029590119e-03 3.247812842795082e-05 3.581455615671112e-19
6.878867278907643e-03 4.901698752717941e-05 3.599972917396240e-19
6.873591030784883e-03 4.280708902925809e-05 3.619241280362661e-19
6.870346144521734e-03 4.278688064989216e-05 3.631995915679848e-19
6.868250227398199e-03 3.972977067009356e-05 3.648044567085749e-19
6.869658261884723e-03 3.148466332465830e-05 3.664033468757079e-19
6.865738796189065e-03 2.900137907943614e-05 3.683182708748761e-19
 6.871296576807981e-03 -2.135086138618078e-05  3.711242873634124e-19
6.868272447067521e-03 2.444862359189558e-05 3.715789047311470e-19
6.872021774027836e-03 2.446196987136864e-05 3.733266576323948e-19
6.867684165424985e-03 3.761655215837285e-05 3.753428949918329e-19
6.862397324790916e-03 3.403801300600822e-06 3.775606868176512e-19
6.876977159323925e-03 7.699554999999846e-05 3.798041320669796e-19
 6.878708571185264e-03 -1.568390856657735e-05  3.831901653012861e-19
6.868533314532886e-03 4.326912308645835e-05 3.847604101831384e-19
 6.860873918589396e-03 -1.375195561079646e-05  3.885419653328657e-19
6.851848415367365e-03 7.719656147151569e-05 3.897472367259991e-19
6.868488459592836e-03 6.187791790935658e-06 3.938753100201194e-19
6.865108026091687e-03 2.594150252958247e-05 3.986671175583552e-19
6.858721284677633e-03 1.466511627548201e-05 4.038306192834485e-19
6.855536345983509e-03 1.465830633317047e-05 4.091673115209589e-19
6.848174464796931e-03 9.037912482903376e-06 4.166657328909226e-19
6.851160978948020e-03 8.407000460089959e-05 4.226849963499374e-19
 6.859807341957050e-03 -7.118068356138820e-05  4.288643301449805e-19
6.839114225648660e-03 1.127338631484778e-04 4.281231190505638e-19
 6.849478622407785e-03 -7.873627660967774e-05  4.331613731170669e-19
 6.832244289306648e-03 -2.704848145718615e-05  4.380724950884937e-19
 6.845846381627605e-03 -2.710233139672919e-05  4.463528219527706e-19
6.861246852032070e-03 1.501261979393690e-05 4.503635011653311e-19
 6.856795876669926e-03 -4.570189732367942e-05  4.598330948274112e-19
 6.866401661816797e-03 -2.607148364097803e-05  4.746077440694931e-19
 6.858899151951090e-03 -7.755191657946293e-05  4.850503100275088e-19
 6.863929655931364e-03 -2.075371253945980e-05  4.871094474085645e-19
 6.864817108742730e-03 -6.902256616777372e-05  4.923046421027467e-19
 6.862337976665278e-03 -3.863386599579603e-05  4.984779651748400e-19
 6.868170059129946e-03 -5.388492421013933e-05  5.091040792876781e-19
 6.861698873003425e-03 -4.476895734163725e-05  5.278498632508903e-19
 6.863282420540112e-03 -5.023500553212025e-05  5.565926183409963e-19
 6.865278816274512e-03 -4.713408694496154e-05  5.954747773089004e-19
 6.869952446903121e-03 -4.716617410679325e-05  6.267539550722491e-19
 6.877009978504410e-03 -4.871630807287464e-05  6.631454458904701e-19
 6.880214615128410e-03 -3.234712481556266e-05  7.139415085851986e-19
 6.873145940066213e-03 -3.760880722769803e-05  7.549462308266889e-19
 6.876123678877837e-03 -2.632355400932895e-05  8.028641193611250e-19
 6.880080038939367e-03 -5.107444818856924e-05  9.066099405405102e-19
 6.882937841613318e-03 -2.003464463373514e-05  9.970754575756320e-19
 6.884984524283239e-03 -2.663896906294164e-05  1.078549522815909e-18
 6.880532657298646e-03 -2.662174416629057e-05  1.206122717636056e-18
 6.879932258228252e-03 -2.317779749046662e-05  1.394392035091869e-18
 6.875774348057905e-03 -1.480992623331940e-05  1.724599685039447e-18
 6.876602359652225e-03 -3.442488303918799e-05  2.184500027705975e-18
6.884963248437992e-03 5.311341783784896e-06 2.621411562445666e-18
 6.885358505556627e-03 -4.333578487222543e-05  3.251511317006789e-18
6.883542247669284e-03 4.003281230701123e-05 4.248989743486937e-18
 6.884695448718611e-03 -3.478694048140914e-05  6.047960413567698e-18
6.912124137418824e-03 8.270236065981913e-05 8.207133214611001e-18
 6.904994343891102e-03 -7.874175692338319e-05  9.968170580059035e-18
6.900060640928325e-03 1.218253746586473e-04 1.162199397203649e-17
 6.923624936501226e-03 -4.585814187889409e-05  1.451626064320400e-17
6.893498405916229e-03 1.039182638964047e-04 2.028511260187124e-17
6.862520571389288e-03 8.454954209762713e-05 3.244330170400340e-17
 6.875908803253930e-03 -7.991107814564985e-05  5.121465264864968e-17
6.887925881782061e-03 4.784026747211072e-05 7.492084565373899e-17
6.900233740025151e-03 4.792575202006669e-05 1.275488667426135e-16
 6.882258045356356e-03  6.179019913250231e-05 -1.433803468668832e-16
 6.898253975033293e-03  1.423710716894404e-04 -1.687975978971307e-15
6.892336420379211e-03 3.906794627169652e-05 6.389580882115553e-15
 6.873111429780903e-03  3.550303115186097e-05 -1.834143636954688e-15
6.879505184449478e-03 3.899521476013181e-05 6.678149309804856e-15
6.881271012307594e-03 6.854358907870980e-05 9.536412766360024e-17
6.878963669680803e-03 3.326303517978393e-05 1.348596824885425e-16
6.871465678884509e-03 6.737677745223619e-05 1.038163526195427e-16
6.874109836883708e-03 6.740270421275362e-05 6.684834373203801e-17
6.876384541117712e-03 4.007802830876696e-05 4.133227859885982e-17
6.908152364114127e-03 1.424336742673001e-04 2.845231865302055e-17
 6.902756449341957e-03 -2.297505891536724e-06  2.319341196800261e-17
6.888742324808413e-03 9.744021999474141e-05 1.546007805904554e-17
 6.872029334282529e-03 -5.799378946765845e-05  1.127664162207935e-17
6.883117708897216e-03 1.505221563844386e-04 9.105290491869166e-18
6.910074423007818e-03 3.656684808671321e-06 6.736424945194735e-18
6.905761389129308e-03 1.286160518208384e-04 4.903660014508035e-18
6.899925131209725e-03 1.173526814329293e-05 3.845424055437861e-18
6.888403976126722e-03 1.362683880684106e-04 3.180154221657452e-18
6.897235292646648e-03 6.558889230772925e-05 2.597679732453117e-18
6.897213365169262e-03 1.403966783685445e-04 2.182254848133582e-18
6.909304166607727e-03 8.057726293195545e-05 1.980778103681565e-18
6.892677861945898e-03 9.561813439414020e-05 1.678549409487866e-18
6.891646155440225e-03 9.560382212635541e-05 1.412579102508223e-18
6.900196679124365e-03 7.110784973879999e-05 1.237049132188229e-18
6.890859972720173e-03 5.535361239415032e-05 1.132352969244608e-18
6.898395438080078e-03 9.861427677227861e-05 1.040213781218456e-18
6.903283363868023e-03 4.040242206367738e-05 9.418432517170143e-19
6.916905460559783e-03 4.048214727136819e-05 8.561066618127268e-19
7.042477379196854e-03 4.121707431821014e-05 7.881632337930874e-19
 5.929269380466484e-03 -3.511318524815813e-03  9.192042628560703e-19
6.904391247301425e-03 1.855172928018758e-04 7.213323214318012e-19
6.945274554148543e-03 1.866158053477906e-04 6.760618859727645e-19
6.925508775746746e-03 1.674055068157299e-04 6.428255778125132e-19
6.855471089790754e-03 2.211395719410307e-05 6.215950474859908e-19
6.851781938612157e-03 2.210205695702562e-05 5.893394273921202e-19
6.859878203661449e-03 5.500336419865365e-05 5.592666052390129e-19
 6.855670875986954e-03 -1.807933669790597e-05  5.360929326412169e-19
6.853672914434105e-03 2.829588891426375e-05 5.117191308185635e-19
 6.854805117176972e-03 -4.956331959171832e-05  4.962687494749225e-19
 6.859766111978028e-03 -3.421435027817284e-05  4.796907807337172e-19
 6.860953201098093e-03 -5.559252454020831e-05  4.649829799302486e-19
 6.857921469303471e-03 -5.556795920369433e-05  4.502226881789728e-19
 6.859074496746510e-03 -8.075042172694304e-05  4.388884099708235e-19
 6.849838307325409e-03 -6.223015241344300e-05  4.310477659907083e-19
 6.839414910930888e-03 -6.213545681375231e-05  4.233411586817961e-19
 6.853506274128683e-03 -7.829763302567925e-05  4.187682599160458e-19
 6.835689683827968e-03 -1.021255822849630e-04  4.138877578136825e-19
 6.845917226877021e-03 -1.022783823442900e-04  4.078189862668028e-19
 6.850941869519901e-03 -4.245046056994906e-05  4.033337444016517e-19
 6.851315966189621e-03 -1.034413783488997e-04  4.015262891057703e-19
 6.858527620869807e-03 -1.035502601321915e-04  3.964092169039449e-19
 6.858495675442672e-03 -1.838568474187652e-04  3.926862810119938e-19
 6.864344243505328e-03 -1.502126690376150e-05  3.871494758531713e-19
 6.869531159789465e-03 -2.517614201933601e-04  3.874154082701045e-19
 6.886885503724125e-03 -6.621958911762549e-05  3.817605998245041e-19
 6.922511029344936e-03 -2.434343077920262e-04  3.798426522073312e-19
6.938581147482567e-03 4.155470779120634e-05 3.745492858683981e-19
 6.755424002290598e-03 -1.092364117131232e-03  3.828762229214243e-19
6.852687400866321e-03 1.451636287624174e-04 3.697999292858058e-19
 6.874861392436859e-03 -3.791355318000598e-04  3.704531418242122e-19
6.978437734311030e-03 3.861432432197878e-04 3.657089046768178e-19
 6.939236658252685e-03 -5.578848375463591e-04  3.708349806552646e-19
6.998371465978071e-03 3.773072832216712e-04 3.616080406487894e-19
 6.854025347073064e-03 -1.039985187940255e-03  3.682323639022873e-19
6.886099606331191e-03 3.842280958528510e-04 3.620120111912106e-19
 6.903217400109306e-03 -5.422979625818467e-04  3.695443274276717e-19
6.860381595482077e-03 1.102452216602854e-03 3.548630182341510e-19
 6.947453003347884e-03 -4.717251447547465e-04  3.668336256125414e-19
6.919490919164957e-03 1.104712000859759e-03 3.460607960754054e-19
 7.032666642988842e-03 -3.737698905360078e-04  3.658018885608754e-19
7.014766692295449e-03 8.926480229933272e-04 3.506372778488153e-19
 6.965184756435102e-03 -6.147912215088689e-04  3.577394706781298e-19
6.869311535478905e-03 6.818624839161281e-04 3.436851080469534e-19
 7.005598965589079e-03 -5.262027040244819e-04  3.630403053616200e-19
7.034052660726363e-03 2.675290578346940e-04 3.569570802961728e-19
 6.940271317655537e-03 -1.116704371540798e-03  3.504803483497088e-19
6.916335110654143e-03 2.003634996013323e-04 3.553906110492903e-19
 6.900353601449781e-03 -3.867250432434440e-04  3.553264021343824e-19
6.884138674663243e-03 2.103956490573763e-04 3.538201558032638e-19
 6.952157119315283e-03 -1.487846871154241e-04  3.569793084002527e-19
6.874662592497380e-03 1.581886995707520e-04 3.518691540573644e-19
6.916393004126014e-03 7.000238334615391e-06 3.520607034051381e-19
6.902690065360071e-03 4.914009864507150e-05 3.504861381784785e-19
6.889625864651590e-03 3.498070803677282e-05 3.491733971374882e-19
6.883032098700183e-03 3.494722949873023e-05 3.485539293513988e-19
6.879886663980926e-03 3.493125917817513e-05 3.479736960106672e-19
6.889335599100294e-03 1.719521210452319e-05 3.478454658862220e-19
6.873637267050386e-03 1.984676447476228e-05 3.465745735797345e-19
6.865736379924111e-03 1.982395165531244e-05 3.457568092943880e-19
 6.864019845774495e-03 -2.454316833131284e-05  3.453642210401466e-19
6.853246322001559e-03 2.773839278392684e-06 3.442536366295292e-19
6.828318645236273e-03 2.763749845490113e-06 3.429664310448159e-19
 6.800646753103453e-03 -1.624952502737838e-05  3.413939382244036e-19
 6.791325101919859e-03 -4.815760321235632e-04  3.420649734701035e-19
 6.782363155226769e-03 -4.555945692586037e-05  3.402514846131480e-19
 6.801455997916710e-03 -8.992737534523090e-05  3.411724097136634e-19
 6.813043184853773e-03 -7.964401050254328e-05  3.408006587448733e-19
 6.829124377339825e-03 -1.098103810183080e-04  3.391203932973868e-19
 6.833778040941447e-03 -5.079911489819643e-05  3.389748119581899e-19
 6.817798448453878e-03 -5.068033006937422e-05  3.380138802013958e-19
 6.789385527013324e-03 -1.109772751003907e-05  3.360821377418630e-19
 6.763788341203615e-03 -1.105588711196333e-05  3.349009484394640e-19
 6.768459421723346e-03 -1.106352232115555e-05  3.346648547687712e-19
 6.796386018751389e-03 -4.934640400246095e-05  3.358862943909081e-19
6.838033206698554e-03 3.214796868531300e-05 3.364497994749462e-19
6.906866221171908e-03 3.247157658935730e-05 3.384088874373463e-19
6.807250179186919e-03 3.200324698324321e-05 3.387213142625643e-19
6.719758740024354e-03 8.138992963551518e-04 3.205855002578375e-19
 6.709478075456747e-03 -3.430449021979761e-05  3.327093951927619e-19
 6.996739522186918e-03 -3.577321213513218e-05  3.390959406450687e-19
 5.583226360338857e-03 -3.845686404533612e-03  2.876303425997589e-19
6.946557378901658e-03 1.737538306435710e-04 3.456704692845400e-19
7.158888475223089e-03 1.100986748109050e-04 3.467641386399182e-19
 7.044036655477652e-03 -9.328766415679310e-05  3.462330255059428e-19
 7.073725584610293e-03 -4.353608220991495e-05  3.516962668192266e-19
 7.109903270190115e-03 -3.469617311147732e-04  3.435129998824459e-19
6.981768811768891e-03 2.448998369413400e-04 3.646618270849906e-19
 7.177629269511926e-03 -3.949630471689656e-05  2.799821716890336e-19
 7.117491509514851e-03 -1.272720120241008e-04  2.986157066586103e-19
 7.124171878213465e-03 -1.273914675884943e-04  2.987206768299779e-19
 7.091000938543068e-03 -1.291120291640964e-04  3.496852972133638e-19
7.229062470917495e-03 8.180991866649070e-05 3.544293229136018e-19
 7.403517734821377e-03 -4.202510268615612e-04  3.515382932851539e-19
 7.133465200707860e-03 -6.066123814453851e-04  3.599523046731656e-19
 7.366053054933180e-03 -7.641103042425758e-05  3.548467169715258e-19
 7.395062942534530e-03 -6.324813744053591e-04  3.568904279194603e-19
7.414656840350942e-03 1.500818497920174e-04 3.557756959295281e-19
 7.617725328905627e-03 -1.689563821237635e-04  3.621538217585272e-19
7.561801863710924e-03 2.712254958934227e-04 3.570293431407431e-19
6.982866679694919e-03 4.718743496383452e-04 3.463623646384127e-19
6.996432849537378e-03 1.384655211307739e-03 3.352630513625313e-19
6.792824217502219e-03 8.253801091501590e-05 3.330492019665312e-19
 7.411550107350139e-03 -5.310467110632766e-04  3.440678654745382e-19
 6.676403515118583e-03 -1.173050450016655e-03  3.296391347852141e-19
7.214715937434772e-03 9.824216812772094e-04 3.327729713145808e-19
 7.160007368714954e-03 -6.607074499171727e-04  3.435160892540192e-19
7.016956664604990e-03 1.150200800183605e-03 3.289762575865378e-19
 1.311035610014415e-03 -7.303380516304217e-03  1.421212173048500e-19
6.687839382009577e-03 5.022893307588432e-04 3.306935385670408e-19
 6.785492979390457e-03 -1.233504205837438e-04  3.321886230132874e-19
6.856797698904542e-03 3.724708886659637e-04 3.319981448342736e-19
6.850965154849786e-03 6.962595088074313e-05 3.326050978037923e-19
6.815722947212114e-03 3.491197798176574e-04 3.298240623281762e-19
6.816778058279098e-03 1.063361769503259e-04 3.315096647194470e-19
6.803260103987205e-03 3.642538971743210e-04 3.306558752701290e-19
6.823814655887789e-03 1.746384672380491e-04 3.305104764557491e-19
6.822013681773177e-03 1.745923758104867e-04 3.308642473393519e-19
6.839952812923945e-03 1.750514829999016e-04 3.312886836129518e-19
6.788695518822211e-03 1.737396807707814e-04 3.306182502952922e-19
6.807003382595684e-03 4.378302997744788e-04 3.273259463771900e-19
 6.785857612647465e-03 -9.993403961116406e-05  3.311330452373188e-19
6.740896013164095e-03 5.041051464453071e-04 3.267615043062451e-19
 6.351217119140882e-03 -6.918328354779770e-04  3.219752246816718e-19
5.419647515577700e-03 4.130132622878630e-03 2.503003922224904e-19
 6.845168326262784e-03 -8.708807481535391e-04  3.318584143483049e-19
6.459162892906913e-03 1.856331731485537e-03 3.060761129685052e-19
 6.896776286811902e-03 -6.164275072608004e-04  3.360812831919629e-19
6.810696269071112e-03 1.351323978649203e-03 3.264977968277996e-19
 6.829574504388327e-03 -8.371550735619768e-04  3.321432791035677e-19
5.591270002899384e-03 3.635281624942300e-03 2.712362480204006e-19
 7.152971391700630e-03 -4.122382983860070e-04  3.413114740595707e-19
7.116790059935305e-03 8.410993635490532e-04 3.322042243613373e-19
 6.830439910822386e-03 -1.254266465830274e-03  3.367440016291745e-19
6.786387699923969e-03 9.421374233600768e-04 3.269270184466204e-19
 7.005298279846080e-03 -6.505311877737249e-04  3.382544236027043e-19
6.856073990519692e-03 3.290383512059308e-04 3.303328663062236e-19
 6.775754969728592e-03 -5.141702502107138e-04  3.284685525498111e-19
6.747010960063114e-03 3.688439418324894e-04 3.271074058718789e-19
 6.831448788474108e-03 -2.436388782464071e-04  3.302234457319280e-19
6.727310065427873e-03 1.501121226292807e-04 3.278621600024212e-19
6.747702336391559e-03 2.396066865085547e-05 3.272993628438022e-19
 6.724216536137878e-03 -7.258437240968424e-05  3.272027607815787e-19
 6.753952872598288e-03 -7.290536048437553e-05  3.282985912734354e-19
 6.757362885704405e-03 -7.294216977805104e-05  3.286637707950884e-19
 6.879786063318041e-03 -5.171152527115519e-05  3.293852679616474e-19
 6.777763178400751e-03 -4.699012049341472e-04  3.301421349453569e-19
6.731005419269361e-03 2.468225197180491e-06 3.286841356804662e-19
6.849049906201095e-03 5.249416209310275e-05 3.295225629941555e-19
 6.791919143884273e-03 -1.523882638417938e-04  3.284328829481783e-19
 6.790279400315161e-03 -1.523514734044595e-04  3.287873419139157e-19
 6.795901185564826e-03 -8.464331010026488e-05  3.299301761515456e-19
 6.816977373250484e-03 -1.000149987634483e-04  3.291949592549535e-19
 6.818506770808154e-03 -1.444880788915051e-04  3.292468223809735e-19

VECTORS velocity double
0.000000000000000e+00 0.000000000000000e+00 0.000000000000000e+00
0.000000000000000e+00 0.000000000000000e+00 0.000000000000000e+00
0.000000000000000e+00 0.000000000000000e+00 0.000000000000000e+00
0.000000000000000e+00 0.000000000000000e+00 0.000000000000000e+00
0.000000000000000e+00 0.000000000000000e+00 0.000000000000000e+00
0.000000000000000e+00 0.000000000000000e+00 0.000000000000000e+00
0.000000000000000e+00 0.000000000000000e+00 0.000000000000000e+00
0.000000000000000e+00 0.000000000000000e+00 0.000000000000000e+00
0.000000000000000e+00 0.000000000000000e+00 0.000000000000000e+00
0.000000000000000e+00 0.000000000000000e+00 0.000000000000000e+00
0.000000000000000e+00 0.000000000000000e+00 0.000000000000000e+00
0.000000000000000e+00 0.000000000000000e+00 0.000000000000000e+00
0.000000000000000e+00 0.000000000000000e+00 0.000000000000000e+00
0.000000000000000e+00 0.000000000000000e+00 0.000000000000000e+00
0.000000000000000e+00 0.000000000000000e+00 0.000000000000000e+00
0.000000000000000e+00 0.000000000000000e+00 0.000000000000000e+00
0.000000000000000e+00 0.000000000000000e+00 0.000000000000000e+00
0.000000000000000e+00 0.000000000000000e+00 0.000000000000000e+00
0.000000000000000e+00 0.000000000000000e+00 0.000000000000000e+00
0.000000000000000e+00 0.000000000000000e+00 0.000000000000000e+00
0.000000000000000e+00 0.000000000000000e+00 0.000000000000000e+00
0.000000000000000e+00 0.000000000000000e+00 0.000000000000000e+00
0.000000000000000e+00 0.000000000000000e+00 0.000000000000000e+00
0.000000000000000e+00 0.000000000000000e+00 0.000000000000000e+00
0.000000000000000e+00 0.000000000000000e+00 0.000000000000000e+00
0.000000000000000e+00 0.000000000000000e+00 0.000000000000000e+00
0.000000000000000e+00 0.000000000000000e+00 0.000000000000000e+00
0.000000000000000e+00 0.000000000000000e+00 0.000000000000000e+00
0.000000000000000e+00 0.000000000000000e+00 0.000000000000000e+00
0.000000000000000e+00 0.000000000000000e+00 0.000000000000000e+00
0.000000000000000e+00 0.000000000000000e+00 0.000000000000000e+00
0.000000000000000e+00 0.000000000000000e+00 0.000000000000000e+00
0.000000000000000e+00 0.000000000000000e+00 0.000000000000000e+00
0.000000000000000e+00 0.000000000000000e+00 0.000000000000000e+00
0.000000000000000e+00 0.000000000000000e+00 0.000000000000000e+00
0.000000000000000e+00 0.000000000000000e+00 0.000000000000000e+00
0.000000000000000e+00 0.000000000000000e+00 0.000000000000000e+00
0.000000000000000e+00 0.000000000000000e+00 0.000000000000000e+00
0.000000000000000e+00 0.000000000000000e+00 0.000000000000000e+00
0.000000000000000e+00 0.000000000000000e+00 0.000000000000000e+00
0.000000000000000e+00 0.000000000000000e+00 0.000000000000000e+00
0.000000000000000e+00 0.000000000000000e+00 0.000000000000000e+00
0.000000000000000e+00 0.000000000000000e+00 0.000000000000000e+00
0.000000000000000e+00 0.000000000000000e+00 0.000000000000000e+00
0.000000000000000e+00 0.000000000000000e+00 0.000000000000000e+00
0.000000000000000e+00 0.000000000000000e+00 0.000000000000000e+00
0.000000000000000e+00 0.000000000000000e+00 0.000000000000000e+00
0.000000000000000e+00 0.000000000000000e+00 0.000000000000000e+00
0.000000000000000e+00 0.000000000000000e+00 0.000000000000000e+00
0.000000000000000e+00 0.000000000000000e+00 0.000000000000000e+00
0.000000000000000e+00 0.000000000000000e+00 0.000000000000000e+00
0.000000000000000e+00 0.000000000000000e+00 0.000000000000000e+00
0.000000000000000e+00 0.000000000000000e+00 0.000000000000000e+00
0.000000000000000e+00 0.000000000000000e+00 0.000000000000000e+00
0.000000000000000e+00 0.000000000000000e+00 0.000000000000000e+00
0.000000000000000e+00 0.000000000000000e+00 0.000000000000000e+00
0.000000000000000e+00 0.000000000000000e+00 0.000000000000000e+00
0.000000000000000e+00 0.000000000000000e+00 0.000000000000000e+00
0.000000000000000e+00 0.000000000000000e+00 0.000000000000000e+00
0.000000000000000e+00 0.000000000000000e+00 0.000000000000000e+00
0.000000000000000e+00 0.000000000000000e+00 0.000000000000000e+00
0.000000000000000e+00 0.000000000000000e+00 0.000000000000000e+00
0.000000000000000e+00 0.000000000000000e+00 0.000000000000000e+00
0.000000000000000e+00 0.000000000000000e+00 0.000000000000000e+00
0.000000000000000e+00 0.000000000000000e+00 0.000000000000000e+00
0.000000000000000e+00 0.000000000000000e+00 0.000000000000000e+00
0.000000000000000e+00 0.000000000000000e+00 0.000000000000000e+00
0.000000000000000e+00 0.000000000000000e+00 0.000000000000000e+00
0.000000000000000e+00 0.000000000000000e+00 0.000000000000000e+00
0.000000000000000e+00 0.000000000000000e+00 0.000000000000000e+00
0.000000000000000e+00 0.000000000000000e+00 0.000000000000000e+00
0.000000000000000e+00 0.000000000000000e+00 0.000000000000000e+00
0.000000000000000e+00 0.000000000000000e+00 0.000000000000000e+00
0.000000000000000e+00 0.000000000000000e+00 0.000000000000000e+00
0.000000000000000e+00 0.000000000000000e+00 0.000000000000000e+00
0.000000000000000e+00 0.000000000000000e+00 0.000000000000000e+00
0.000000000000000e+00 0.000000000000000e+00 0.000000000000000e+00
0.000000000000000e+00 0.000000000000000e+00 0.000000000000000e+00
0.000000000000000e+00 0.000000000000000e+00 0.000000000000000e+00
0.000000000000000e+00 0.000000000000000e+00 0.000000000000000e+00
0.000000000000000e+00 0.000000000000000e+00 0.000000000000000e+00
0.000000000000000e+00 0.000000000000000e+00 0.000000000000000e+00
0.000000000000000e+00 0.000000000000000e+00 0.000000000000000e+00
0.000000000000000e+00 0.000000000000000e+00 0.000000000000000e+00
0.000000000000000e+00 0.000000000000000e+00 0.000000000000000e+00
0.000000000000000e+00 0.000000000000000e+00 0.000000000000000e+00
0.000000000000000e+00 0.000000000000000e+00 0.000000000000000e+00
0.000000000000000e+00 0.000000000000000e+00 0.000000000000000e+00
0.000000000000000e+00 0.000000000000000e+00 0.000000000000000e+00
0.000000000000000e+00 0.000000000000000e+00 0.000000000000000e+00
0.000000000000000e+00 0.000000000000000e+00 0.000000000000000e+00
0.000000000000000e+00 0.000000000000000e+00 0.000000000000000e+00
0.000000000000000e+00 0.000000000000000e+00 0.000000000000000e+00
0.000000000000000e+00 0.000000000000000e+00 0.000000000000000e+00
0.000000000000000e+00 0.000000000000000e+00 0.000000000000000e+00
0.000000000000000e+00 0.000000000000000e+00 0.000000000000000e+00
0.000000000000000e+00 0.000000000000000e+00 0.000000000000000e+00
0.000000000000000e+00 0.000000000000000e+00 0.000000000000000e+00
0.000000000000000e+00 0.000000000000000e+00 0.000000000000000e+00
0.000000000000000e+00 0.000000000000000e+00 0.000000000000000e+00
0.000000000000000e+00 0.000000000000000e+00 0.000000000000000e+00
0.000000000000000e+00 0.000000000000000e+00 0.000000000000000e+00
0.000000000000000e+00 0.000000000000000e+00 0.000000000000000e+00
0.000000000000000e+00 0.000000000000000e+00 0.000000000000000e+00
0.000000000000000e+00 0.000000000000000e+00 0.000000000000000e+00
0.000000000000000e+00 0.000000000000000e+00 0.000000000000000e+00
0.000000000000000e+00 0.000000000000000e+00 0.000000000000000e+00
0.000000000000000e+00 0.000000000000000e+00 0.000000000000000e+00
0.000000000000000e+00 0.000000000000000e+00 0.000000000000000e+00
0.000000000000000e+00 0.000000000000000e+00 0.000000000000000e+00
0.000000000000000e+00 0.000000000000000e+00 0.000000000000000e+00
0.000000000000000e+00 0.000000000000000e+00 0.000000000000000e+00
0.000000000000000e+00 0.000000000000000e+00 0.000000000000000e+00
0.000000000000000e+00 0.000000000000000e+00 0.000000000000000e+00
0.000000000000000e+00 0.000000000000000e+00 0.000000000000000e+00
0.000000000000000e+00 0.000000000000000e+00 0.000000000000000e+00
0.000000000000000e+00 0.000000000000000e+00 0.000000000000000e+00
0.000000000000000e+00 0.000000000000000e+00 0.000000000000000e+00
0.000000000000000e+00 0.000000000000000e+00 0.000000000000000e+00
0.000000000000000e+00 0.000000000000000e+00 0.000000000000000e+00
0.000000000000000e+00 0.000000000000000e+00 0.000000000000000e+00
0.000000000000000e+00 0.000000000000000e+00 0.000000000000000e+00
0.000000000000000e+00 0.000000000000000e+00 0.000000000000000e+00
0.000000000000000e+00 0.000000000000000e+00 0.000000000000000e+00
0.000000000000000e+00 0.000000000000000e+00 0.000000000000000e+00
0.000000000000000e+00 0.000000000000000e+00 0.000000000000000e+00
0.000000000000000e+00 0.000000000000000e+00 0.000000000000000e+00
0.000000000000000e+00 0.000000000000000e+00 0.000000000000000e+00
0.000000000000000e+00 0.000000000000000e+00 0.000000000000000e+00
0.000000000000000e+00 0.000000000000000e+00 0.000000000000000e+00
0.000000000000000e+00 0.000000000000000e+00 0.000000000000000e+00
0.000000000000000e+00 0.000000000000000e+00 0.000000000000000e+00
0.000000000000000e+00 0.000000000000000e+00 0.000000000000000e+00
0.000000000000000e+00 0.000000000000000e+00 0.000000000000000e+00
0.000000000000000e+00 0.000000000000000e+00 0.000000000000000e+00
0.000000000000000e+00 0.000000000000000e+00 0.000000000000000e+00
0.000000000000000e+00 0.000000000000000e+00 0.000000000000000e+00
0.000000000000000e+00 0.000000000000000e+00 0.000000000000000e+00
0.000000000000000e+00 0.000000000000000e+00 0.000000000000000e+00
0.000000000000000e+00 0.000000000000000e+00 0.000000000000000e+00
0.000000000000000e+00 0.000000000000000e+00 0.000000000000000e+00
0.000000000000000e+00 0.000000000000000e+00 0.000000000000000e+00
0.000000000000000e+00 0.000000000000000e+00 0.000000000000000e+00
0.000000000000000e+00 0.000000000000000e+00 0.000000000000000e+00
0.000000000000000e+00 0.000000000000000e+00 0.000000000000000e+00
0.000000000000000e+00 0.000000000000000e+00 0.000000000000000e+00
0.000000000000000e+00 0.000000000000000e+00 0.000000000000000e+00
0.000000000000000e+00 0.000000000000000e+00 0.000000000000000e+00
0.000000000000000e+00 0.000000000000000e+00 0.000000000000000e+00
0.000000000000000e+00 0.000000000000000e+00 0.000000000000000e+00
0.000000000000000e+00 0.000000000000000e+00 0.000000000000000e+00
0.000000000000000e+00 0.000000000000000e+00 0.000000000000000e+00
0.000000000000000e+00 0.000000000000000e+00 0.000000000000000e+00
0.000000000000000e+00 0.000000000000000e+00 0.000000000000000e+00
0.000000000000000e+00 0.000000000000000e+00 0.000000000000000e+00
0.000000000000000e+00 0.000000000000000e+00 0.000000000000000e+00
0.000000000000000e+00 0.000000000000000e+00 0.000000000000000e+00
0.000000000000000e+00 0.000000000000000e+00 0.000000000000000e+00
0.000000000000000e+00 0.000000000000000e+00 0.000000000000000e+00
0.000000000000000e+00 0.000000000000000e+00 0.000000000000000e+00
0.000000000000000e+00 0.000000000000000e+00 0.000000000000000e+00
0.000000000000000e+00 0.000000000000000e+00 0.000000000000000e+00
0.000000000000000e+00 0.000000000000000e+00 0.000000000000000e+00
0.000000000000000e+00 0.000000000000000e+00 0.000000000000000e+00
0.000000000000000e+00 0.000000000000000e+00 0.000000000000000e+00
0.000000000000000e+00 0.000000000000000e+00 0.000000000000000e+00
0.000000000000000e+00 0.000000000000000e+00 0.000000000000000e+00
0.000000000000000e+00 0.000000000000000e+00 0.000000000000000e+00
0.000000000000000e+00 0.000000000000000e+00 0.000000000000000e+00
0.000000000000000e+00 0.000000000000000e+00 0.000000000000000e+00
0.000000000000000e+00 0.000000000000000e+00 0.000000000000000e+00
0.000000000000000e+00 0.000000000000000e+00 0.000000000000000e+00
0.000000000000000e+00 0.000000000000000e+00 0.000000000000000e+00
0.000000000000000e+00 0.000000000000000e+00 0.000000000000000e+00
0.000000000000000e+00 0.000000000000000e+00 0.000000000000000e+00
0.000000000000000e+00 0.000000000000000e+00 0.000000000000000e+00
0.000000000000000e+00 0.000000000000000e+00 0.000000000000000e+00
0.000000000000000e+00 0.000000000000000e+00 0.000000000000000e+00
0.000000000000000e+00 0.000000000000000e+00 0.000000000000000e+00
0.000000000000000e+00 0.000000000000000e+00 0.000000000000000e+00
0.000000000000000e+00 0.000000000000000e+00 0.000000000000000e+00
0.000000000000000e+00 0.000000000000000e+00 0.000000000000000e+00
0.000000000000000e+00 0.000000000000000e+00 0.000000000000000e+00
0.000000000000000e+00 0.000000000000000e+00 0.000000000000000e+00
0.000000000000000e+00 0.000000000000000e+00 0.000000000000000e+00
0.000000000000000e+00 0.000000000000000e+00 0.000000000000000e+00
0.000000000000000e+00 0.000000000000000e+00 0.000000000000000e+00
0.000000000000000e+00 0.000000000000000e+00 0.000000000000000e+00
0.000000000000000e+00 0.000000000000000e+00 0.000000000000000e+00
0.000000000000000e+00 0.000000000000000e+00 0.000000000000000e+00
0.000000000000000e+00 0.000000000000000e+00 0.000000000000000e+00
0.000000000000000e+00 0.000000000000000e+00 0.000000000000000e+00
0.000000000000000e+00 0.000000000000000e+00 0.000000000000000e+00
0.000000000000000e+00 0.000000000000000e+00 0.000000000000000e+00
0.000000000000000e+00 0.000000000000000e+00 0.000000000000000e+00
0.000000000000000e+00 0.000000000000000e+00 0.000000000000000e+00
0.000000000000000e+00 0.000000000000000e+00 0.000000000000000e+00
0.000000000000000e+00 0.000000000000000e+00 0.000000000000000e+00
0.000000000000000e+00 0.000000000000000e+00 0.000000000000000e+00
0.000000000000000e+00 0.000000000000000e+00 0.000000000000000e+00
0.000000000000000e+00 0.000000000000000e+00 0.000000000000000e+00
0.000000000000000e+00 0.000000000000000e+00 0.000000000000000e+00
0.000000000000000e+00 0.000000000000000e+00 0.000000000000000e+00
0.000000000000000e+00 0.000000000000000e+00 0.000000000000000e+00
0.000000000000000e+00 0.000000000000000e+00 0.000000000000000e+00
0.000000000000000e+00 0.000000000000000e+00 0.000000000000000e+00
0.000000000000000e+00 0.000000000000000e+00 0.000000000000000e+00
0.000000000000000e+00 0.000000000000000e+00 0.000000000000000e+00
0.000000000000000e+00 0.000000000000000e+00 0.000000000000000e+00
0.000000000000000e+00 0.000000000000000e+00 0.000000000000000e+00
0.000000000000000e+00 0.000000000000000e+00 0.000000000000000e+00
0.000000000000000e+00 0.000000000000000e+00 0.000000000000000e+00
0.000000000000000e+00 0.000000000000000e+00 0.000000000000000e+00
0.000000000000000e+00 0.000000000000000e+00 0.000000000000000e+00
0.000000000000000e+00 0.000000000000000e+00 0.000000000000000e+00
0.000000000000000e+00 0.000000000000000e+00 0.000000000000000e+00
0.000000000000000e+00 0.000000000000000e+00 0.000000000000000e+00
0.000000000000000e+00 0.000000000000000e+00 0.000000000000000e+00
0.000000000000000e+00 0.000000000000000e+00 0.000000000000000e+00
0.000000000000000e+00 0.000000000000000e+00 0.000000000000000e+00
0.000000000000000e+00 0.000000000000000e+00 0.000000000000000e+00
0.000000000000000e+00 0.000000000000000e+00 0.000000000000000e+00
0.000000000000000e+00 0.000000000000000e+00 0.000000000000000e+00
0.000000000000000e+00 0.000000000000000e+00 0.000000000000000e+00
0.000000000000000e+00 0.000000000000000e+00 0.000000000000000e+00
0.000000000000000e+00 0.000000000000000e+00 0.000000000000000e+00
0.000000000000000e+00 0.000000000000000e+00 0.000000000000000e+00
0.000000000000000e+00 0.000000000000000e+00 0.000000000000000e+00
0.000000000000000e+00 0.000000000000000e+00 0.000000000000000e+00
0.000000000000000e+00 0.000000000000000e+00 0.000000000000000e+00
0.000000000000000e+00 0.000000000000000e+00 0.000000000000000e+00
0.000000000000000e+00 0.000000000000000e+00 0.000000000000000e+00
0.000000000000000e+00 0.000000000000000e+00 0.000000000000000e+00
0.000000000000000e+00 0.000000000000000e+00 0.000000000000000e+00
0.000000000000000e+00 0.000000000000000e+00 0.000000000000000e+00
0.000000000000000e+00 0.000000000000000e+00 0.000000000000000e+00
0.000000000000000e+00 0.000000000000000e+00 0.000000000000000e+00
0.000000000000000e+00 0.000000000000000e+00 0.000000000000000e+00
0.000000000000000e+00 0.000000000000000e+00 0.000000000000000e+00
0.000000000000000e+00 0.000000000000000e+00 0.000000000000000e+00
0.000000000000000e+00 0.000000000000000e+00 0.000000000000000e+00
0.000000000000000e+00 0.000000000000000e+00 0.000000000000000e+00
0.000000000000000e+00 0.000000000000000e+00 0.000000000000000e+00
0.000000000000000e+00 0.000000000000000e+00 0.000000000000000e+00
0.000000000000000e+00 0.000000000000000e+00 0.000000000000000e+00
0.000000000000000e+00 0.000000000000000e+00 0.000000000000000e+00
0.000000000000000e+00 0.000000000000000e+00 0.000000000000000e+00
0.000000000000000e+00 0.000000000000000e+00 0.000000000000000e+00
0.000000000000000e+00 0.000000000000000e+00 0.000000000000000e+00
0.000000000000000e+00 0.000000000000000e+00 0.000000000000000e+00
0.000000000000000e+00 0.000000000000000e+00 0.000000000000000e+00
0.000000000000000e+00 0.000000000000000e+00 0.000000000000000e+00
0.000000000000000e+00 0.000000000000000e+00 0.000000000000000e+00
0.000000000000000e+00 0.000000000000000e+00 0.000000000000000e+00
0.000000000000000e+00 0.000000000000000e+00 0.000000000000000e+00
0.000000000000000e+00 0.000000000000000e+00 0.000000000000000e+00
0.000000000000000e+00 0.000000000000000e+00 0.000000000000000e+00
0.000000000000000e+00 0.000000000000000e+00 0.000000000000000e+00
0.000000000000000e+00 0.000000000000000e+00 0.000000000000000e+00
0.000000000000000e+00 0.000000000000000e+00 0.000000000000000e+00
0.000000000000000e+00 0.000000000000000e+00 0.000000000000000e+00
0.000000000000000e+00 0.000000000000000e+00 0.000000000000000e+00
0.000000000000000e+00 0.000000000000000e+00 0.000000000000000e+00
0.000000000000000e+00 0.000000000000000e+00 0.000000000000000e+00
0.000000000000000e+00 0.000000000000000e+00 0.000000000000000e+00
0.000000000000000e+00 0.000000000000000e+00 0.000000000000000e+00
0.000000000000000e+00 0.000000000000000e+00 0.000000000000000e+00
0.000000000000000e+00 0.000000000000000e+00 0.000000000000000e+00
0.000000000000000e+00 0.000000000000000e+00 0.000000000000000e+00
0.000000000000000e+00 0.000000000000000e+00 0.000000000000000e+00
0.000000000000000e+00 0.000000000000000e+00 0.000000000000000e+00
0.000000000000000e+00 0.000000000000000e+00 0.000000000000000e+00
0.000000000000000e+00 0.000000000000000e+00 0.000000000000000e+00
0.000000000000000e+00 0.000000000000000e+00 0.000000000000000e+00
0.000000000000000e+00 0.000000000000000e+00 0.000000000000000e+00
0.000000000000000e+00 0.000000000000000e+00 0.000000000000000e+00
0.000000000000000e+00 0.000000000000000e+00 0.000000000000000e+00
0.000000000000000e+00 0.000000000000000e+00 0.000000000000000e+00
0.000000000000000e+00 0.000000000000000e+00 0.000000000000000e+00
0.000000000000000e+00 0.000000000000000e+00 0.000000000000000e+00
0.000000000000000e+00 0.000000000000000e+00 0.000000000000000e+00
0.000000000000000e+00 0.000000000000000e+00 0.000000000000000e+00
0.000000000000000e+00 0.000000000000000e+00 0.000000000000000e+00
0.000000000000000e+00 0.000000000000000e+00 0.000000000000000e+00
0.000000000000000e+00 0.000000000000000e+00 0.000000000000000e+00
0.000000000000000e+00 0.000000000000000e+00 0.000000000000000e+00
0.000000000000000e+00 0.000000000000000e+00 0.000000000000000e+00
0.000000000000000e+00 0.000000000000000e+00 0.000000000000000e+00
0.000000000000000e+00 0.000000000000000e+00 0.000000000000000e+00
0.000000000000000e+00 0.000000000000000e+00 0.000000000000000e+00
0.000000000000000e+00 0.000000000000000e+00 0.000000000000000e+00
0.000000000000000e+00 0.000000000000000e+00 0.000000000000000e+00
0.000000000000000e+00 0.000000000000000e+00 0.000000000000000e+00
0.000000000000000e+00 0.000000000000000e+00 0.000000000000000e+00
0.000000000000000e+00 0.000000000000000e+00 0.000000000000000e+00
0.000000000000000e+00 0.000000000000000e+00 0.000000000000000e+00
0.000000000000000e+00 0.000000000000000e+00 0.000000000000000e+00
0.000000000000000e+00 0.000000000000000e+00 0.000000000000000e+00
0.000000000000000e+00 0.000000000000000e+00 0.000000000000000e+00
0.000000000000000e+00 0.000000000000000e+00 0.000000000000000e+00
0.000000000000000e+00 0.000000000000000e+00 0.000000000000000e+00
0.000000000000000e+00 0.000000000000000e+00 0.000000000000000e+00
0.000000000000000e+00 0.000000000000000e+00 0.000000000000000e+00
0.000000000000000e+00 0.000000000000000e+00 0.000000000000000e+00
0.000000000000000e+00 0.000000000000000e+00 0.000000000000000e+00
0.000000000000000e+00 0.000000000000000e+00 0.000000000000000e+00
0.000000000000000e+00 0.000000000000000e+00 0.000000000000000e+00
0.000000000000000e+00 0.000000000000000e+00 0.000000000000000e+00
0.000000000000000e+00 0.000000000000000e+00 0.000000000000000e+00
0.000000000000000e+00 0.000000000000000e+00 0.000000000000000e+00
0.000000000000000e+00 0.000000000000000e+00 0.000000000000000e+00
0.000000000000000e+00 0.000000000000000e+00 0.000000000000000e+00
0.000000000000000e+00 0.000000000000000e+00 0.000000000000000e+00
0.000000000000000e+00 0.000000000000000e+00 0.000000000000000e+00
0.000000000000000e+00 0.000000000000000e+00 0.000000000000000e+00
0.000000000000000e+00 0.000000000000000e+00 0.000000000000000e+00
0.000000000000000e+00 0.000000000000000e+00 0.000000000000000e+00
0.000000000000000e+00 0.000000000000000e+00 0.000000000000000e+00
0.000000000000000e+00 0.000000000000000e+00 0.000000000000000e+00
0.000000000000000e+00 0.000000000000000e+00 0.000000000000000e+00
0.000000000000000e+00 0.000000000000000e+00 0.000000000000000e+00
0.000000000000000e+00 0.000000000000000e+00 0.000000000000000e+00
0.000000000000000e+00 0.000000000000000e+00 0.000000000000000e+00
0.000000000000000e+00 0.000000000000000e+00 0.000000000000000e+00
0.000000000000000e+00 0.000000000000000e+00 0.000000000000000e+00
0.000000000000000e+00 0.000000000000000e+00 0.000000000000000e+00
0.000000000000000e+00 0.000000000000000e+00 0.000000000000000e+00
0.000000000000000e+00 0.000000000000000e+00 0.000000000000000e+00
0.000000000000000e+00 0.000000000000000e+00 0.000000000000000e+00
0.000000000000000e+00 0.000000000000000e+00 0.000000000000000e+00
0.000000000000000e+00 0.000000000000000e+00 0.000000000000000e+00
0.000000000000000e+00 0.000000000000000e+00 0.000000000000000e+00
0.000000000000000e+00 0.000000000000000e+00 0.000000000000000e+00
0.000000000000000e+00 0.000000000000000e+00 0.000000000000000e+00
0.000000000000000e+00 0.000000000000000e+00 0.000000000000000e+00
0.000000000000000e+00 0.000000000000000e+00 0.000000000000000e+00
0.000000000000000e+00 0.000000000000000e+00 0.000000000000000e+00
0.000000000000000e+00 0.000000000000000e+00 0.000000000000000e+00
0.000000000000000e+00 0.000000000000000e+00 0.000000000000000e+00
0.000000000000000e+00 0.000000000000000e+00 0.000000000000000e+00
0.000000000000000e+00 0.000000000000000e+00 0.000000000000000e+00
0.000000000000000e+00 0.000000000000000e+00 0.000000000000000e+00
0.000000000000000e+00 0.000000000000000e+00 0.000000000000000e+00
0.000000000000000e+00 0.000000000000000e+00 0.000000000000000e+00
0.000000000000000e+00 0.000000000000000e+00 0.000000000000000e+00
0.000000000000000e+00 0.000000000000000e+00 0.000000000000000e+00
0.000000000000000e+00 0.000000000000000e+00 0.000000000000000e+00
0.000000000000000e+00 0.000000000000000e+00 0.000000000000000e+00
0.000000000000000e+00 0.000000000000000e+00 0.000000000000000e+00
0.000000000000000e+00 0.000000000000000e+00 0.000000000000000e+00
0.000000000000000e+00 0.000000000000000e+00 0.000000000000000e+00
0.000000000000000e+00 0.000000000000000e+00 0.000000000000000e+00
0.000000000000000e+00 0.000000000000000e+00 0.000000000000000e+00
0.000000000000000e+00 0.000000000000000e+00 0.000000000000000e+00
0.000000000000000e+00 0.000000000000000e+00 0.000000000000000e+00
0.000000000000000e+00 0.000000000000000e+00 0.000000000000000e+00
0.000000000000000e+00 0.000000000000000e+00 0.000000000000000e+00
0.000000000000000e+00 0.000000000000000e+00 0.000000000000000e+00
0.000000000000000e+00 0.000000000000000e+00 0.000000000000000e+00
0.000000000000000e+00 0.000000000000000e+00 0.000000000000000e+00
0.000000000000000e+00 0.000000000000000e+00 0.000000000000000e+00
0.000000000000000e+00 0.000000000000000e+00 0.000000000000000e+00
0.000000000000000e+00 0.000000000000000e+00 0.000000000000000e+00
0.000000000000000e+00 0.000000000000000e+00 0.000000000000000e+00
0.000000000000000e+00 0.000000000000000e+00 0.000000000000000e+00
0.000000000000000e+00 0.000000000000000e+00 0.000000000000000e+00
0.000000000000000e+00 0.000000000000000e+00 0.000000000000000e+00
0.000000000000000e+00 0.000000000000000e+00 0.000000000000000e+00
0.000000000000000e+00 0.000000000000000e+00 0.000000000000000e+00
0.000000000000000e+00 0.000000000000000e+00 0.000000000000000e+00
0.000000000000000e+00 0.000000000000000e+00 0.000000000000000e+00
0.000000000000000e+00 0.000000000000000e+00 0.000000000000000e+00
0.000000000000000e+00 0.000000000000000e+00 0.000000000000000e+00
0.000000000000000e+00 0.000000000000000e+00 0.000000000000000e+00
0.000000000000000e+00 0.000000000000000e+00 0.000000000000000e+00
0.000000000000000e+00 0.000000000000000e+00 0.000000000000000e+00
0.000000000000000e+00 0.000000000000000e+00 0.000000000000000e+00
0.000000000000000e+00 0.000000000000000e+00 0.000000000000000e+00
0.000000000000000e+00 0.000000000000000e+00 0.000000000000000e+00
0.000000000000000e+00 0.000000000000000e+00 0.000000000000000e+00
0.000000000000000e+00 0.000000000000000e+00 0.000000000000000e+00
0.000000000000000e+00 0.000000000000000e+00 0.000000000000000e+00
0.000000000000000e+00 0.000000000000000e+00 0.000000000000000e+00
0.000000000000000e+00 0.000000000000000e+00 0.000000000000000e+00
0.000000000000000e+00 0.000000000000000e+00 0.000000000000000e+00
0.000000000000000e+00 0.000000000000000e+00 0.000000000000000e+00
0.000000000000000e+00 0.000000000000000e+00 0.000000000000000e+00
0.000000000000000e+00 0.000000000000000e+00 0.000000000000000e+00
0.000000000000000e+00 0.000000000000000e+00 0.000000000000000e+00
0.000000000000000e+00 0.000000000000000e+00 0.000000000000000e+00
0.000000000000000e+00 0.000000000000000e+00 0.000000000000000e+00
0.000000000000000e+00 0.000000000000000e+00 0.000000000000000e+00
0.000000000000000e+00 0.000000000000000e+00 0.000000000000000e+00
0.000000000000000e+00 0.000000000000000e+00 0.000000000000000e+00
0.000000000000000e+00 0.000000000000000e+00 0.000000000000000e+00
0.000000000000000e+00 0.000000000000000e+00 0.000000000000000e+00
0.000000000000000e+00 0.000000000000000e+00 0.000000000000000e+00
0.000000000000000e+00 0.000000000000000e+00 0.000000000000000e+00
0.000000000000000e+00 0.000000000000000e+00 0.000000000000000e+00
0.000000000000000e+00 0.000000000000000e+00 0.000000000000000e+00
0.000000000000000e+00 0.000000000000000e+00 0.000000000000000e+00
0.000000000000000e+00 0.000000000000000e+00 0.000000000000000e+00
0.000000000000000e+00 0.000000000000000e+00 0.000000000000000e+00
0.000000000000000e+00 0.000000000000000e+00 0.000000000000000e+00
0.000000000000000e+00 0.000000000000000e+00 0.000000000000000e+00
0.000000000000000e+00 0.000000000000000e+00 0.000000000000000e+00
0.000000000000000e+00 0.000000000000000e+00 0.000000000000000e+00
0.000000000000000e+00 0.000000000000000e+00 0.000000000000000e+00
0.000000000000000e+00 0.000000000000000e+00 0.000000000000000e+00
0.000000000000000e+00 0.000000000000000e+00 0.000000000000000e+00
0.000000000000000e+00 0.000000000000000e+00 0.000000000000000e+00
0.000000000000000e+00 0.000000000000000e+00 0.000000000000000e+00
0.000000000000000e+00 0.000000000000000e+00 0.000000000000000e+00
0.000000000000000e+00 0.000000000000000e+00 0.000000000000000e+00
0.000000000000000e+00 0.000000000000000e+00 0.000000000000000e+00
0.000000000000000e+00 0.000000000000000e+00 0.000000000000000e+00
0.000000000000000e+00 0.000000000000000e+00 0.000000000000000e+00
0.000000000000000e+00 0.000000000000000e+00 0.000000000000000e+00
0.000000000000000e+00 0.000000000000000e+00 0.000000000000000e+00
0.000000000000000e+00 0.000000000000000e+00 0.000000000000000e+00
0.000000000000000e+00 0.000000000000000e+00 0.000000000000000e+00
0.000000000000000e+00 0.000000000000000e+00 0.000000000000000e+00
0.000000000000000e+00 0.000000000000000e+00 0.000000000000000e+00
0.000000000000000e+00 0.000000000000000e+00 0.000000000000000e+00
0.000000000000000e+00 0.000000000000000e+00 0.000000000000000e+00
0.000000000000000e+00 0.000000000000000e+00 0.000000000000000e+00
0.000000000000000e+00 0.000000000000000e+00 0.000000000000000e+00
0.000000000000000e+00 0.000000000000000e+00 0.000000000000000e+00
0.000000000000000e+00 0.000000000000000e+00 0.000000000000000e+00
0.000000000000000e+00 0.000000000000000e+00 0.000000000000000e+00
0.000000000000000e+00 0.000000000000000e+00 0.000000000000000e+00
0.000000000000000e+00 0.000000000000000e+00 0.000000000000000e+00
0.000000000000000e+00 0.000000000000000e+00 0.000000000000000e+00
0.000000000000000e+00 0.000000000000000e+00 0.000000000000000e+00
0.000000000000000e+00 0.000000000000000e+00 0.000000000000000e+00
0.000000000000000e+00 0.000000000000000e+00 0.000000000000000e+00
0.000000000000000e+00 0.000000000000000e+00 0.000000000000000e+00
0.000000000000000e+00 0.000000000000000e+00 0.000000000000000e+00
0.000000000000000e+00 0.000000000000000e+00 0.000000000000000e+00
0.000000000000000e+00 0.000000000000000e+00 0.000000000000000e+00
0.000000000000000e+00 0.000000000000000e+00 0.000000000000000e+00
0.000000000000000e+00 0.000000000000000e+00 0.000000000000000e+00
0.000000000000000e+00 0.000000000000000e+00 0.000000000000000e+00
0.000000000000000e+00 0.000000000000000e+00 0.000000000000000e+00
0.000000000000000e+00 0.000000000000000e+00 0.000000000000000e+00
0.000000000000000e+00 0.000000000000000e+00 0.000000000000000e+00
0.000000000000000e+00 0.000000000000000e+00 0.000000000000000e+00
0.000000000000000e+00 0.000000000000000e+00 0.000000000000000e+00
0.000000000000000e+00 0.000000000000000e+00 0.000000000000000e+00
0.000000000000000e+00 0.000000000000000e+00 0.000000000000000e+00
0.000000000000000e+00 0.000000000000000e+00 0.000000000000000e+00
0.000000000000000e+00 0.000000000000000e+00 0.000000000000000e+00
0.000000000000000e+00 0.000000000000000e+00 0.000000000000000e+00
0.000000000000000e+00 0.000000000000000e+00 0.000000000000000e+00
0.000000000000000e+00 0.000000000000000e+00 0.000000000000000e+00
0.000000000000000e+00 0.000000000000000e+00 0.000000000000000e+00
0.000000000000000e+00 0.000000000000000e+00 0.000000000000000e+00
0.000000000000000e+00 0.000000000000000e+00 0.000000000000000e+00
0.000000000000000e+00 0.000000000000000e+00 0.000000000000000e+00
0.000000000000000e+00 0.000000000000000e+00 0.000000000000000e+00
0.000000000000000e+00 0.000000000000000e+00 0.000000000000000e+00
0.000000000000000e+00 0.000000000000000e+00 0.000000000000000e+00
0.000000000000000e+00 0.000000000000000e+00 0.000000000000000e+00
0.000000000000000e+00 0.000000000000000e+00 0.000000000000000e+00
0.000000000000000e+00 0.000000000000000e+00 0.000000000000000e+00
0.000000000000000e+00 0.000000000000000e+00 0.000000000000000e+00
0.000000000000000e+00 0.000000000000000e+00 0.000000000000000e+00
0.000000000000000e+00 0.000000000000000e+00 0.000000000000000e+00
0.000000000000000e+00 0.000000000000000e+00 0.000000000000000e+00
0.000000000000000e+00 0.000000000000000e+00 0.000000000000000e+00
0.000000000000000e+00 0.000000000000000e+00 0.000000000000000e+00
0.000000000000000e+00 0.000000000000000e+00 0.000000000000000e+00
0.000000000000000e+00 0.000000000000000e+00 0.000000000000000e+00
0.000000000000000e+00 0.000000000000000e+00 0.000000000000000e+00
0.000000000000000e+00 0.000000000000000e+00 0.000000000000000e+00
0.000000000000000e+00 0.000000000000000e+00 0.000000000000000e+00
0.000000000000000e+00 0.000000000000000e+00 0.000000000000000e+00
0.000000000000000e+00 0.000000000000000e+00 0.000000000000000e+00
0.000000000000000e+00 0.000000000000000e+00 0.000000000000000e+00
0.000000000000000e+00 0.000000000000000e+00 0.000000000000000e+00
0.000000000000000e+00 0.000000000000000e+00 0.000000000000000e+00
0.000000000000000e+00 0.000000000000000e+00 0.000000000000000e+00
0.000000000000000e+00 0.000000000000000e+00 0.000000000000000e+00
0.000000000000000e+00 0.000000000000000e+00 0.000000000000000e+00
0.000000000000000e+00 0.000000000000000e+00 0.000000000000000e+00
0.000000000000000e+00 0.000000000000000e+00 0.000000000000000e+00
0.000000000000000e+00 0.000000000000000e+00 0.000000000000000e+00
0.000000000000000e+00 0.000000000000000e+00 0.000000000000000e+00
0.000000000000000e+00 0.000000000000000e+00 0.000000000000000e+00
0.000000000000000e+00 0.000000000000000e+00 0.000000000000000e+00
0.000000000000000e+00 0.000000000000000e+00 0.000000000000000e+00
0.000000000000000e+00 0.000000000000000e+00 0.000000000000000e+00
0.000000000000000e+00 0.000000000000000e+00 0.000000000000000e+00
0.000000000000000e+00 0.000000000000000e+00 0.000000000000000e+00
0.000000000000000e+00 0.000000000000000e+00 0.000000000000000e+00
0.000000000000000e+00 0.000000000000000e+00 0.000000000000000e+00
0.000000000000000e+00 0.000000000000000e+00 0.000000000000000e+00
0.000000000000000e+00 0.000000000000000e+00 0.000000000000000e+00
0.000000000000000e+00 0.000000000000000e+00 0.000000000000000e+00
0.000000000000000e+00 0.000000000000000e+00 0.000000000000000e+00
0.000000000000000e+00 0.000000000000000e+00 0.000000000000000e+00
0.000000000000000e+00 0.000000000000000e+00 0.000000000000000e+00
0.000000000000000e+00 0.000000000000000e+00 0.000000000000000e+00
0.000000000000000e+00 0.000000000000000e+00 0.000000000000000e+00
0.000000000000000e+00 0.000000000000000e+00 0.000000000000000e+00
0.000000000000000e+00 0.000000000000000e+00 0.000000000000000e+00
0.000000000000000e+00 0.000000000000000e+00 0.000000000000000e+00
0.000000000000000e+00 0.000000000000000e+00 0.000000000000000e+00
0.000000000000000e+00 0.000000000000000e+00 0.000000000000000e+00
0.000000000000000e+00 0.000000000000000e+00 0.000000000000000e+00
0.000000000000000e+00 0.000000000000000e+00 0.000000000000000e+00
0.000000000000000e+00 0.000000000000000e+00 0.000000000000000e+00
0.000000000000000e+00 0.000000000000000e+00 0.000000000000000e+00
0.000000000000000e+00 0.000000000000000e+00 0.000000000000000e+00
0.000000000000000e+00 0.000000000000000e+00 0.000000000000000e+00
0.000000000000000e+00 0.000000000000000e+00 0.000000000000000e+00
0.000000000000000e+00 0.000000000000000e+00 0.000000000000000e+00
0.000000000000000e+00 0.000000000000000e+00 0.000000000000000e+00
0.000000000000000e+00 0.000000000000000e+00 0.000000000000000e+00
0.000000000000000e+00 0.000000000000000e+00 0.000000000000000e+00
0.000000000000000e+00 0.000000000000000e+00 0.000000000000000e+00
0.000000000000000e+00 0.000000000000000e+00 0.000000000000000e+00
0.000000000000000e+00 0.000000000000000e+00 0.000000000000000e+00
0.000000000000000e+00 0.000000000000000e+00 0.000000000000000e+00
0.000000000000000e+00 0.000000000000000e+00 0.000000000000000e+00
0.000000000000000e+00 0.000000000000000e+00 0.000000000000000e+00
0.000000000000000e+00 0.000000000000000e+00 0.000000000000000e+00
0.000000000000000e+00 0.000000000000000e+00 0.000000000000000e+00
0.000000000000000e+00 0.000000000000000e+00 0.000000000000000e+00
0.000000000000000e+00 0.000000000000000e+00 0.000000000000000e+00
0.000000000000000e+00 0.000000000000000e+00 0.000000000000000e+00
0.000000000000000e+00 0.000000000000000e+00 0.000000000000000e+00
0.000000000000000e+00 0.000000000000000e+00 0.000000000000000e+00
0.000000000000000e+00 0.000000000000000e+00 0.000000000000000e+00
0.000000000000000e+00 0.000000000000000e+00 0.000000000000000e+00
0.000000000000000e+00 0.000000000000000e+00 0.000000000000000e+00
0.000000000000000e+00 0.000000000000000e+00 0.000000000000000e+00
0.000000000000000e+00 0.000000000000000e+00 0.000000000000000e+00
0.000000000000000e+00 0.000000000000000e+00 0.000000000000000e+00
0.000000000000000e+00 0.000000000000000e+00 0.000000000000000e+00
0.000000000000000e+00 0.000000000000000e+00 0.000000000000000e+00
0.000000000000000e+00 0.000000000000000e+00 0.000000000000000e+00
0.000000000000000e+00 0.000000000000000e+00 0.000000000000000e+00
0.000000000000000e+00 0.000000000000000e+00 0.000000000000000e+00
0.000000000000000e+00 0.000000000000000e+00 0.000000000000000e+00
0.000000000000000e+00 0.000000000000000e+00 0.000000000000000e+00
0.000000000000000e+00 0.000000000000000e+00 0.000000000000000e+00
0.000000000000000e+00 0.000000000000000e+00 0.000000000000000e+00
0.000000000000000e+00 0.000000000000000e+00 0.000000000000000e+00
0.000000000000000e+00 0.000000000000000e+00 0.000000000000000e+00
0.000000000000000e+00 0.000000000000000e+00 0.000000000000000e+00
0.000000000000000e+00 0.000000000000000e+00 0.000000000000000e+00
0.000000000000000e+00 0.000000000000000e+00 0.000000000000000e+00
0.000000000000000e+00 0.000000000000000e+00 0.000000000000000e+00
0.000000000000000e+00 0.000000000000000e+00 0.000000000000000e+00
0.000000000000000e+00 0.000000000000000e+00 0.000000000000000e+00
0.000000000000000e+00 0.000000000000000e+00 0.000000000000000e+00
0.000000000000000e+00 0.000000000000000e+00 0.000000000000000e+00
0.000000000000000e+00 0.000000000000000e+00 0.000000000000000e+00
0.000000000000000e+00 0.000000000000000e+00 0.000000000000000e+00
0.000000000000000e+00 0.000000000000000e+00 0.000000000000000e+00
0.000000000000000e+00 0.000000000000000e+00 0.000000000000000e+00
0.000000000000000e+00 0.000000000000000e+00 0.000000000000000e+00
0.000000000000000e+00 0.000000000000000e+00 0.000000000000000e+00
0.000000000000000e+00 0.000000000000000e+00 0.000000000000000e+00
0.000000000000000e+00 0.000000000000000e+00 0.000000000000000e+00
0.000000000000000e+00 0.000000000000000e+00 0.000000000000000e+00
0.000000000000000e+00 0.000000000000000e+00 0.000000000000000e+00
0.000000000000000e+00 0.000000000000000e+00 0.000000000000000e+00
0.000000000000000e+00 0.000000000000000e+00 0.000000000000000e+00
0.000000000000000e+00 0.000000000000000e+00 0.000000000000000e+00
0.000000000000000e+00 0.000000000000000e+00 0.000000000000000e+00
0.000000000000000e+00 0.000000000000000e+00 0.000000000000000e+00
0.000000000000000e+00 0.000000000000000e+00 0.000000000000000e+00
0.000000000000000e+00 0.000000000000000e+00 0.000000000000000e+00
0.000000000000000e+00 0.000000000000000e+00 0.000000000000000e+00
0.000000000000000e+00 0.000000000000000e+00 0.000000000000000e+00
0.000000000000000e+00 0.000000000000000e+00 0.000000000000000e+00
0.000000000000000e+00 0.000000000000000e+00 0.000000000000000e+00
0.000000000000000e+00 0.000000000000000e+00 0.000000000000000e+00
0.000000000000000e+00 0.000000000000000e+00 0.000000000000000e+00
0.000000000000000e+00 0.000000000000000e+00 0.000000000000000e+00
0.000000000000000e+00 0.000000000000000e+00 0.000000000000000e+00
0.000000000000000e+00 0.000000000000000e+00 0.000000000000000e+00
0.000000000000000e+00 0.000000000000000e+00 0.000000000000000e+00
0.000000000000000e+00 0.000000000000000e+00 0.000000000000000e+00
0.000000000000000e+00 0.000000000000000e+00 0.000000000000000e+00
0.000000000000000e+00 0.000000000000000e+00 0.000000000000000e+00
0.000000000000000e+00 0.000000000000000e+00 0.000000000000000e+00
0.000000000000000e+00 0.000000000000000e+00 0.000000000000000e+00
0.000000000000000e+00 0.000000000000000e+00 0.000000000000000e+00
0.000000000000000e+00 0.000000000000000e+00 0.000000000000000e+00
0.000000000000000e+00 0.000000000000000e+00 0.000000000000000e+00
0.000000000000000e+00 0.000000000000000e+00 0.000000000000000e+00
0.000000000000000e+00 0.000000000000000e+00 0.000000000000000e+00
0.000000000000000e+00 0.000000000000000e+00 0.000000000000000e+00
0.000000000000000e+00 0.000000000000000e+00 0.000000000000000e+00
0.000000000000000e+00 0.000000000000000e+00 0.000000000000000e+00
0.000000000000000e+00 0.000000000000000e+00 0.000000000000000e+00
0.000000000000000e+00 0.000000000000000e+00 0.000000000000000e+00
0.000000000000000e+00 0.000000000000000e+00 0.000000000000000e+00
0.000000000000000e+00 0.000000000000000e+00 0.000000000000000e+00
0.000000000000000e+00 0.000000000000000e+00 0.000000000000000e+00
0.000000000000000e+00 0.000000000000000e+00 0.000000000000000e+00
0.000000000000000e+00 0.000000000000000e+00 0.000000000000000e+00
0.000000000000000e+00 0.000000000000000e+00 0.000000000000000e+00
0.000000000000000e+00 0.000000000000000e+00 0.000000000000000e+00
0.000000000000000e+00 0.000000000000000e+00 0.000000000000000e+00
0.000000000000000e+00 0.000000000000000e+00 0.000000000000000e+00
0.000000000000000e+00 0.000000000000000e+00 0.000000000000000e+00
0.000000000000000e+00 0.000000000000000e+00 0.000000000000000e+00
0.000000000000000e+00 0.000000000000000e+00 0.000000000000000e+00
0.000000000000000e+00 0.000000000000000e+00 0.000000000000000e+00
0.000000000000000e+00 0.000000000000000e+00 0.000000000000000e+00
0.000000000000000e+00 0.000000000000000e+00 0.000000000000000e+00
0.000000000000000e+00 0.000000000000000e+00 0.000000000000000e+00
0.000000000000000e+00 0.000000000000000e+00 0.000000000000000e+00
0.000000000000000e+00 0.000000000000000e+00 0.000000000000000e+00
0.000000000000000e+00 0.000000000000000e+00 0.000000000000000e+00
0.000000000000000e+00 0.000000000000000e+00 0.000000000000000e+00
0.000000000000000e+00 0.000000000000000e+00 0.000000000000000e+00
0.000000000000000e+00 0.000000000000000e+00 0.000000000000000e+00
0.000000000000000e+00 0.000000000000000e+00 0.000000000000000e+00
0.000000000000000e+00 0.000000000000000e+00 0.000000000000000e+00
0.000000000000000e+00 0.000000000000000e+00 0.000000000000000e+00
0.000000000000000e+00 0.000000000000000e+00 0.000000000000000e+00
0.000000000000000e+00 0.000000000000000e+00 0.000000000000000e+00
0.000000000000000e+00 0.000000000000000e+00 0.000000000000000e+00
0.000000000000000e+00 0.000000000000000e+00 0.000000000000000e+00
0.000000000000000e+00 0.000000000000000e+00 0.000000000000000e+00
0.000000000000000e+00 0.000000000000000e+00 0.000000000000000e+00
0.000000000000000e+00 0.000000000000000e+00 0.000000000000000e+00
0.000000000000000e+00 0.000000000000000e+00 0.000000000000000e+00
0.000000000000000e+00 0.000000000000000e+00 0.000000000000000e+00
0.000000000000000e+00 0.000000000000000e+00 0.000000000000000e+00
0.000000000000000e+00 0.000000000000000e+00 0.000000000000000e+00
0.000000000000000e+00 0.000000000000000e+00 0.000000000000000e+00
0.000000000000000e+00 0.000000000000000e+00 0.000000000000000e+00
0.000000000000000e+00 0.000000000000000e+00 0.000000000000000e+00
0.000000000000000e+00 0.000000000000000e+00 0.000000000000000e+00
0.000000000000000e+00 0.000000000000000e+00 0.000000000000000e+00
0.000000000000000e+00 0.000000000000000e+00 0.000000000000000e+00
0.000000000000000e+00 0.000000000000000e+00 0.000000000000000e+00
0.000000000000000e+00 0.000000000000000e+00 0.000000000000000e+00
0.000000000000000e+00 0.000000000000000e+00 0.000000000000000e+00
0.000000000000000e+00 0.000000000000000e+00 0.000000000000000e+00
0.000000000000000e+00 0.000000000000000e+00 0.000000000000000e+00
0.000000000000000e+00 0.000000000000000e+00 0.000000000000000e+00
0.000000000000000e+00 0.000000000000000e+00 0.000000000000000e+00
0.000000000000000e+00 0.000000000000000e+00 0.000000000000000e+00
0.000000000000000e+00 0.000000000000000e+00 0.000000000000000e+00
0.000000000000000e+00 0.000000000000000e+00 0.000000000000000e+00
0.000000000000000e+00 0.000000000000000e+00 0.000000000000000e+00
0.000000000000000e+00 0.000000000000000e+00 0.000000000000000e+00
0.000000000000000e+00 0.000000000000000e+00 0.000000000000000e+00
0.000000000000000e+00 0.000000000000000e+00 0.000000000000000e+00
0.000000000000000e+00 0.000000000000000e+00 0.000000000000000e+00
0.000000000000000e+00 0.000000000000000e+00 0.000000000000000e+00
0.000000000000000e+00 0.000000000000000e+00 0.000000000000000e+00
0.000000000000000e+00 0.000000000000000e+00 0.000000000000000e+00
0.000000000000000e+00 0.000000000000000e+00 0.000000000000000e+00
0.000000000000000e+00 0.000000000000000e+00 0.000000000000000e+00
0.000000000000000e+00 0.000000000000000e+00 0.000000000000000e+00
0.000000000000000e+00 0.000000000000000e+00 0.000000000000000e+00
0.000000000000000e+00 0.000000000000000e+00 0.000000000000000e+00
0.000000000000000e+00 0.000000000000000e+00 0.000000000000000e+00
0.000000000000000e+00 0.000000000000000e+00 0.000000000000000e+00
0.000000000000000e+00 0.000000000000000e+00 0.000000000000000e+00
0.000000000000000e+00 0.000000000000000e+00 0.000000000000000e+00
0.000000000000000e+00 0.000000000000000e+00 0.000000000000000e+00
0.000000000000000e+00 0.000000000000000e+00 0.000000000000000e+00
0.000000000000000e+00 0.000000000000000e+00 0.000000000000000e+00
0.000000000000000e+00 0.000000000000000e+00 0.000000000000000e+00
0.000000000000000e+00 0.000000000000000e+00 0.000000000000000e+00
0.000000000000000e+00 0.000000000000000e+00 0.000000000000000e+00
0.000000000000000e+00 0.000000000000000e+00 0.000000000000000e+00
0.000000000000000e+00 0.000000000000000e+00 0.000000000000000e+00
0.000000000000000e+00 0.000000000000000e+00 0.000000000000000e+00
0.000000000000000e+00 0.000000000000000e+00 0.000000000000000e+00
0.000000000000000e+00 0.000000000000000e+00 0.000000000000000e+00
0.000000000000000e+00 0.000000000000000e+00 0.000000000000000e+00
0.000000000000000e+00 0.000000000000000e+00 0.000000000000000e+00
0.000000000000000e+00 0.000000000000000e+00 0.000000000000000e+00
0.000000000000000e+00 0.000000000000000e+00 0.000000000000000e+00
0.000000000000000e+00 0.000000000000000e+00 0.000000000000000e+00
0.000000000000000e+00 0.000000000000000e+00 0.000000000000000e+00
0.000000000000000e+00 0.000000000000000e+00 0.000000000000000e+00
0.000000000000000e+00 0.000000000000000e+00 0.000000000000000e+00
0.000000000000000e+00 0.000000000000000e+00 0.000000000000000e+00
0.000000000000000e+00 0.000000000000000e+00 0.000000000000000e+00
0.000000000000000e+00 0.000000000000000e+00 0.000000000000000e+00
0.000000000000000e+00 0.000000000000000e+00 0.000000000000000e+00
0.000000000000000e+00 0.000000000000000e+00 0.000000000000000e+00
0.000000000000000e+00 0.000000000000000e+00 0.000000000000000e+00
0.000000000000000e+00 0.000000000000000e+00 0.000000000000000e+00
0.000000000000000e+00 0.000000000000000e+00 0.000000000000000e+00
0.000000000000000e+00 0.000000000000000e+00 0.000000000000000e+00
0.000000000000000e+00 0.000000000000000e+00 0.000000000000000e+00
0.000000000000000e+00 0.000000000000000e+00 0.000000000000000e+00
0.000000000000000e+00 0.000000000000000e+00 0.000000000000000e+00
0.000000000000000e+00 0.000000000000000e+00 0.000000000000000e+00
0.000000000000000e+00 0.000000000000000e+00 0.000000000000000e+00
0.000000000000000e+00 0.000000000000000e+00 0.000000000000000e+00
0.000000000000000e+00 0.000000000000000e+00 0.000000000000000e+00
0.000000000000000e+00 0.000000000000000e+00 0.000000000000000e+00
0.000000000000000e+00 0.000000000000000e+00 0.000000000000000e+00
0.000000000000000e+00 0.000000000000000e+00 0.000000000000000e+00
0.000000000000000e+00 0.000000000000000e+00 0.000000000000000e+00
0.000000000000000e+00 0.000000000000000e+00 0.000000000000000e+00
0.000000000000000e+00 0.000000000000000e+00 0.000000000000000e+00
0.000000000000000e+00 0.000000000000000e+00 0.000000000000000e+00
0.000000000000000e+00 0.000000000000000e+00 0.000000000000000e+00
0.000000000000000e+00 0.000000000000000e+00 0.000000000000000e+00
0.000000000000000e+00 0.000000000000000e+00 0.000000000000000e+00
0.000000000000000e+00 0.000000000000000e+00 0.000000000000000e+00
0.000000000000000e+00 0.000000000000000e+00 0.000000000000000e+00
0.000000000000000e+00 0.000000000000000e+00 0.000000000000000e+00
0.000000000000000e+00 0.000000000000000e+00 0.000000000000000e+00
0.000000000000000e+00 0.000000000000000e+00 0.000000000000000e+00
0.000000000000000e+00 0.000000000000000e+00 0.000000000000000e+00
0.000000000000000e+00 0.000000000000000e+00 0.000000000000000e+00
0.000000000000000e+00 0.000000000000000e+00 0.000000000000000e+00
0.000000000000000e+00 0.000000000000000e+00 0.000000000000000e+00
0.000000000000000e+00 0.000000000000000e+00 0.000000000000000e+00
0.000000000000000e+00 0.000000000000000e+00 0.000000000000000e+00
0.000000000000000e+00 0.000000000000000e+00 0.000000000000000e+00
0.000000000000000e+00 0.000000000000000e+00 0.000000000000000e+00
0.000000000000000e+00 0.000000000000000e+00 0.000000000000000e+00
0.000000000000000e+00 0.000000000000000e+00 0.000000000000000e+00
0.000000000000000e+00 0.000000000000000e+00 0.000000000000000e+00
0.000000000000000e+00 0.000000000000000e+00 0.000000000000000e+00
0.000000000000000e+00 0.000000000000000e+00 0.000000000000000e+00
0.000000000000000e+00 0.000000000000000e+00 0.000000000000000e+00
0.000000000000000e+00 0.000000000000000e+00 0.000000000000000e+00
0.000000000000000e+00 0.000000000000000e+00 0.000000000000000e+00
0.000000000000000e+00 0.000000000000000e+00 0.000000000000000e+00
0.000000000000000e+00 0.000000000000000e+00 0.000000000000000e+00
0.000000000000000e+00 0.000000000000000e+00 0.000000000000000e+00
0.000000000000000e+00 0.000000000000000e+00 0.000000000000000e+00
0.000000000000000e+00 0.000000000000000e+00 0.000000000000000e+00
0.000000000000000e+00 0.000000000000000e+00 0.000000000000000e+00
0.000000000000000e+00 0.000000000000000e+00 0.000000000000000e+00
0.000000000000000e+00 0.000000000000000e+00 0.000000000000000e+00
0.000000000000000e+00 0.000000000000000e+00 0.000000000000000e+00
0.000000000000000e+00 0.000000000000000e+00 0.000000000000000e+00
0.000000000000000e+00 0.000000000000000e+00 0.000000000000000e+00
0.000000000000000e+00 0.000000000000000e+00 0.000000000000000e+00
0.000000000000000e+00 0.000000000000000e+00 0.000000000000000e+00
0.000000000000000e+00 0.000000000000000e+00 0.000000000000000e+00
0.000000000000000e+00 0.000000000000000e+00 0.000000000000000e+00
0.000000000000000e+00 0.000000000000000e+00 0.000000000000000e+00
0.000000000000000e+00 0.000000000000000e+00 0.000000000000000e+00
0.000000000000000e+00 0.000000000000000e+00 0.000000000000000e+00
0.000000000000000e+00 0.000000000000000e+00 0.000000000000000e+00
0.000000000000000e+00 0.000000000000000e+00 0.000000000000000e+00
0.000000000000000e+00 0.000000000000000e+00 0.000000000000000e+00
0.000000000000000e+00 0.000000000000000e+00 0.000000000000000e+00
0.000000000000000e+00 0.000000000000000e+00 0.000000000000000e+00
0.000000000000000e+00 0.000000000000000e+00 0.000000000000000e+00
0.000000000000000e+00 0.000000000000000e+00 0.000000000000000e+00
0.000000000000000e+00 0.000000000000000e+00 0.000000000000000e+00
0.000000000000000e+00 0.000000000000000e+00 0.000000000000000e+00
0.000000000000000e+00 0.000000000000000e+00 0.000000000000000e+00
0.000000000000000e+00 0.000000000000000e+00 0.000000000000000e+00
0.000000000000000e+00 0.000000000000000e+00 0.000000000000000e+00
0.000000000000000e+00 0.000000000000000e+00 0.000000000000000e+00
0.000000000000000e+00 0.000000000000000e+00 0.000000000000000e+00
0.000000000000000e+00 0.000000000000000e+00 0.000000000000000e+00
0.000000000000000e+00 0.000000000000000e+00 0.000000000000000e+00
0.000000000000000e+00 0.000000000000000e+00 0.000000000000000e+00
0.000000000000000e+00 0.000000000000000e+00 0.000000000000000e+00
0.000000000000000e+00 0.000000000000000e+00 0.000000000000000e+00
0.000000000000000e+00 0.000000000000000e+00 0.000000000000000e+00
0.000000000000000e+00 0.000000000000000e+00 0.000000000000000e+00
0.000000000000000e+00 0.000000000000000e+00 0.000000000000000e+00
0.000000000000000e+00 0.000000000000000e+00 0.000000000000000e+00
0.000000000000000e+00 0.000000000000000e+00 0.000000000000000e+00
0.000000000000000e+00 0.000000000000000e+00 0.000000000000000e+00
0.000000000000000e+00 0.000000000000000e+00 0.000000000000000e+00
0.000000000000000e+00 0.000000000000000e+00 0.000000000000000e+00
0.000000000000000e+00 0.000000000000000e+00 0.000000000000000e+00
0.000000000000000e+00 0.000000000000000e+00 0.000000000000000e+00
0.000000000000000e+00 0.000000000000000e+00 0.000000000000000e+00
0.000000000000000e+00 0.000000000000000e+00 0.000000000000000e+00
0.000000000000000e+00 0.000000000000000e+00 0.000000000000000e+00
0.000000000000000e+00 0.000000000000000e+00 0.000000000000000e+00
0.000000000000000e+00 0.000000000000000e+00 0.000000000000000e+00
0.000000000000000e+00 0.000000000000000e+00 0.000000000000000e+00
0.000000000000000e+00 0.000000000000000e+00 0.000000000000000e+00
0.000000000000000e+00 0.000000000000000e+00 0.000000000000000e+00
0.000000000000000e+00 0.000000000000000e+00 0.000000000000000e+00
0.000000000000000e+00 0.000000000000000e+00 0.000000000000000e+00
0.000000000000000e+00 0.000000000000000e+00 0.000000000000000e+00
0.000000000000000e+00 0.000000000000000e+00 0.000000000000000e+00
0.000000000000000e+00 0.000000000000000e+00 0.000000000000000e+00
0.000000000000000e+00 0.000000000000000e+00 0.000000000000000e+00
0.000000000000000e+00 0.000000000000000e+00 0.000000000000000e+00
0.000000000000000e+00 0.000000000000000e+00 0.000000000000000e+00
0.000000000000000e+00 0.000000000000000e+00 0.000000000000000e+00
0.000000000000000e+00 0.000000000000000e+00 0.000000000000000e+00
0.000000000000000e+00 0.000000000000000e+00 0.000000000000000e+00
0.000000000000000e+00 0.000000000000000e+00 0.000000000000000e+00
0.000000000000000e+00 0.000000000000000e+00 0.000000000000000e+00
0.000000000000000e+00 0.000000000000000e+00 0.000000000000000e+00
0.000000000000000e+00 0.000000000000000e+00 0.000000000000000e+00
0.000000000000000e+00 0.000000000000000e+00 0.000000000000000e+00
0.000000000000000e+00 0.000000000000000e+00 0.000000000000000e+00
0.000000000000000e+00 0.000000000000000e+00 0.000000000000000e+00
0.000000000000000e+00 0.000000000000000e+00 0.000000000000000e+00
0.000000000000000e+00 0.000000000000000e+00 0.000000000000000e+00
0.000000000000000e+00 0.000000000000000e+00 0.000000000000000e+00
0.000000000000000e+00 0.000000000000000e+00 0.000000000000000e+00
0.000000000000000e+00 0.000000000000000e+00 0.000000000000000e+00
0.000000000000000e+00 0.000000000000000e+00 0.000000000000000e+00
0.000000000000000e+00 0.000000000000000e+00 0.000000000000000e+00
0.000000000000000e+00 0.000000000000000e+00 0.000000000000000e+00
0.000000000000000e+00 0.000000000000000e+00 0.000000000000000e+00
0.000000000000000e+00 0.000000000000000e+00 0.000000000000000e+00
0.000000000000000e+00 0.000000000000000e+00 0.000000000000000e+00
0.000000000000000e+00 0.000000000000000e+00 0.000000000000000e+00
0.000000000000000e+00 0.000000000000000e+00 0.000000000000000e+00
0.000000000000000e+00 0.000000000000000e+00 0.000000000000000e+00
0.000000000000000e+00 0.000000000000000e+00 0.000000000000000e+00
0.000000000000000e+00 0.000000000000000e+00 0.000000000000000e+00
0.000000000000000e+00 0.000000000000000e+00 0.000000000000000e+00
0.000000000000000e+00 0.000000000000000e+00 0.000000000000000e+00
0.000000000000000e+00 0.000000000000000e+00 0.000000000000000e+00
0.000000000000000e+00 0.000000000000000e+00 0.000000000000000e+00
0.000000000000000e+00 0.000000000000000e+00 0.000000000000000e+00
0.000000000000000e+00 0.000000000000000e+00 0.000000000000000e+00
0.000000000000000e+00 0.000000000000000e+00 0.000000000000000e+00
0.000000000000000e+00 0.000000000000000e+00 0.000000000000000e+00
0.000000000000000e+00 0.000000000000000e+00 0.000000000000000e+00
0.000000000000000e+00 0.000000000000000e+00 0.000000000000000e+00
0.000000000000000e+00 0.000000000000000e+00 0.000000000000000e+00
0.000000000000000e+00 0.000000000000000e+00 0.000000000000000e+00
0.000000000000000e+00 0.000000000000000e+00 0.000000000000000e+00
0.000000000000000e+00 0.000000000000000e+00 0.000000000000000e+00
0.000000000000000e+00 0.000000000000000e+00 0.000000000000000e+00
0.000000000000000e+00 0.000000000000000e+00 0.000000000000000e+00
0.000000000000000e+00 0.000000000000000e+00 0.000000000000000e+00
0.000000000000000e+00 0.000000000000000e+00 0.000000000000000e+00
0.000000000000000e+00 0.000000000000000e+00 0.000000000000000e+00
0.000000000000000e+00 0.000000000000000e+00 0.000000000000000e+00
0.000000000000000e+00 0.000000000000000e+00 0.000000000000000e+00
0.000000000000000e+00 0.000000000000000e+00 0.000000000000000e+00
0.000000000000000e+00 0.000000000000000e+00 0.000000000000000e+00
0.000000000000000e+00 0.000000000000000e+00 0.000000000000000e+00
0.000000000000000e+00 0.000000000000000e+00 0.000000000000000e+00
0.000000000000000e+00 0.000000000000000e+00 0.000000000000000e+00
0.000000000000000e+00 0.000000000000000e+00 0.000000000000000e+00
0.000000000000000e+00 0.000000000000000e+00 0.000000000000000e+00
0.000000000000000e+00 0.000000000000000e+00 0.000000000000000e+00
0.000000000000000e+00 0.000000000000000e+00 0.000000000000000e+00
0.000000000000000e+00 0.000000000000000e+00 0.000000000000000e+00
0.000000000000000e+00 0.000000000000000e+00 0.000000000000000e+00
0.000000000000000e+00 0.000000000000000e+00 0.000000000000000e+00
0.000000000000000e+00 0.000000000000000e+00 0.000000000000000e+00
0.000000000000000e+00 0.000000000000000e+00 0.000000000000000e+00
0.000000000000000e+00 0.000000000000000e+00 0.000000000000000e+00
0.000000000000000e+00 0.000000000000000e+00 0.000000000000000e+00
0.000000000000000e+00 0.000000000000000e+00 0.000000000000000e+00
0.000000000000000e+00 0.000000000000000e+00 0.000000000000000e+00
0.000000000000000e+00 0.000000000000000e+00 0.000000000000000e+00
0.000000000000000e+00 0.000000000000000e+00 0.000000000000000e+00
0.000000000000000e+00 0.000000000000000e+00 0.000000000000000e+00
0.000000000000000e+00 0.000000000000000e+00 0.000000000000000e+00
0.000000000000000e+00 0.000000000000000e+00 0.000000000000000e+00
0.000000000000000e+00 0.000000000000000e+00 0.000000000000000e+00
0.000000000000000e+00 0.000000000000000e+00 0.000000000000000e+00
0.000000000000000e+00 0.000000000000000e+00 0.000000000000000e+00
0.000000000000000e+00 0.000000000000000e+00 0.000000000000000e+00
0.000000000000000e+00 0.000000000000000e+00 0.000000000000000e+00
0.000000000000000e+00 0.000000000000000e+00 0.000000000000000e+00
0.000000000000000e+00 0.000000000000000e+00 0.000000000000000e+00
0.000000000000000e+00 0.000000000000000e+00 0.000000000000000e+00
0.000000000000000e+00 0.000000000000000e+00 0.000000000000000e+00
0.000000000000000e+00 0.000000000000000e+00 0.000000000000000e+00
0.000000000000000e+00 0.000000000000000e+00 0.000000000000000e+00
0.000000000000000e+00 0.000000000000000e+00 0.000000000000000e+00
0.000000000000000e+00 0.000000000000000e+00 0.000000000000000e+00
0.000000000000000e+00 0.000000000000000e+00 0.000000000000000e+00
0.000000000000000e+00 0.000000000000000e+00 0.000000000000000e+00
0.000000000000000e+00 0.000000000000000e+00 0.000000000000000e+00
0.000000000000000e+00 0.000000000000000e+00 0.000000000000000e+00
0.000000000000000e+00 0.000000000000000e+00 0.000000000000000e+00
0.000000000000000e+00 0.000000000000000e+00 0.000000000000000e+00
0.000000000000000e+00 0.000000000000000e+00 0.000000000000000e+00
0.000000000000000e+00 0.000000000000000e+00 0.000000000000000e+00
0.000000000000000e+00 0.000000000000000e+00 0.000000000000000e+00
0.000000000000000e+00 0.000000000000000e+00 0.000000000000000e+00
0.000000000000000e+00 0.000000000000000e+00 0.000000000000000e+00
0.000000000000000e+00 0.000000000000000e+00 0.000000000000000e+00
0.000000000000000e+00 0.000000000000000e+00 0.000000000000000e+00
0.000000000000000e+00 0.000000000000000e+00 0.000000000000000e+00
0.000000000000000e+00 0.000000000000000e+00 0.000000000000000e+00
0.000000000000000e+00 0.000000000000000e+00 0.000000000000000e+00
0.000000000000000e+00 0.000000000000000e+00 0.000000000000000e+00
0.000000000000000e+00 0.000000000000000e+00 0.000000000000000e+00
0.000000000000000e+00 0.000000000000000e+00 0.000000000000000e+00
0.000000000000000e+00 0.000000000000000e+00 0.000000000000000e+00
0.000000000000000e+00 0.000000000000000e+00 0.000000000000000e+00
0.000000000000000e+00 0.000000000000000e+00 0.000000000000000e+00
0.000000000000000e+00 0.000000000000000e+00 0.000000000000000e+00
0.000000000000000e+00 0.000000000000000e+00 0.000000000000000e+00
0.000000000000000e+00 0.000000000000000e+00 0.000000000000000e+00
0.000000000000000e+00 0.000000000000000e+00 0.000000000000000e+00
0.000000000000000e+00 0.000000000000000e+00 0.000000000000000e+00
0.000000000000000e+00 0.000000000000000e+00 0.000000000000000e+00
0.000000000000000e+00 0.000000000000000e+00 0.000000000000000e+00
0.000000000000000e+00 0.000000000000000e+00 0.000000000000000e+00
0.000000000000000e+00 0.000000000000000e+00 0.000000000000000e+00
0.000000000000000e+00 0.000000000000000e+00 0.000000000000000e+00
0.000000000000000e+00 0.000000000000000e+00 0.000000000000000e+00
0.000000000000000e+00 0.000000000000000e+00 0.000000000000000e+00
0.000000000000000e+00 0.000000000000000e+00 0.000000000000000e+00
0.000000000000000e+00 0.000000000000000e+00 0.000000000000000e+00
0.000000000000000e+00 0.000000000000000e+00 0.000000000000000e+00
0.000000000000000e+00 0.000000000000000e+00 0.000000000000000e+00
0.000000000000000e+00 0.000000000000000e+00 0.000000000000000e+00
0.000000000000000e+00 0.000000000000000e+00 0.000000000000000e+00
0.000000000000000e+00 0.000000000000000e+00 0.000000000000000e+00
0.000000000000000e+00 0.000000000000000e+00 0.000000000000000e+00
0.000000000000000e+00 0.000000000000000e+00 0.000000000000000e+00
0.000000000000000e+00 0.000000000000000e+00 0.000000000000000e+00
0.000000000000000e+00 0.000000000000000e+00 0.000000000000000e+00
0.000000000000000e+00 0.000000000000000e+00 0.000000000000000e+00
0.000000000000000e+00 0.000000000000000e+00 0.000000000000000e+00
0.000000000000000e+00 0.000000000000000e+00 0.000000000000000e+00
0.000000000000000e+00 0.000000000000000e+00 0.000000000000000e+00
0.000000000000000e+00 0.000000000000000e+00 0.000000000000000e+00
0.000000000000000e+00 0.000000000000000e+00 0.000000000000000e+00
0.000000000000000e+00 0.000000000000000e+00 0.000000000000000e+00
0.000000000000000e+00 0.000000000000000e+00 0.000000000000000e+00
0.000000000000000e+00 0.000000000000000e+00 0.000000000000000e+00
0.000000000000000e+00 0.000000000000000e+00 0.000000000000000e+00
0.000000000000000e+00 0.000000000000000e+00 0.000000000000000e+00
0.000000000000000e+00 0.000000000000000e+00 0.000000000000000e+00
0.000000000000000e+00 0.000000000000000e+00 0.000000000000000e+00
0.000000000000000e+00 0.000000000000000e+00 0.000000000000000e+00
0.000000000000000e+00 0.000000000000000e+00 0.000000000000000e+00
0.000000000000000e+00 0.000000000000000e+00 0.000000000000000e+00
0.000000000000000e+00 0.000000000000000e+00 0.000000000000000e+00
0.000000000000000e+00 0.000000000000000e+00 0.000000000000000e+00
0.000000000000000e+00 0.000000000000000e+00 0.000000000000000e+00
0.000000000000000e+00 0.000000000000000e+00 0.000000000000000e+00
0.000000000000000e+00 0.000000000000000e+00 0.000000000000000e+00
0.000000000000000e+00 0.000000000000000e+00 0.000000000000000e+00
0.000000000000000e+00 0.000000000000000e+00 0.000000000000000e+00
0.000000000000000e+00 0.000000000000000e+00 0.000000000000000e+00
0.000000000000000e+00 0.000000000000000e+00 0.000000000000000e+00
0.000000000000000e+00 0.000000000000000e+00 0.000000000000000e+00
0.000000000000000e+00 0.000000000000000e+00 0.000000000000000e+00
0.000000000000000e+00 0.000000000000000e+00 0.000000000000000e+00
0.000000000000000e+00 0.000000000000000e+00 0.000000000000000e+00
0.000000000000000e+00 0.000000000000000e+00 0.000000000000000e+00
0.000000000000000e+00 0.000000000000000e+00 0.000000000000000e+00
0.000000000000000e+00 0.000000000000000e+00 0.000000000000000e+00
0.000000000000000e+00 0.000000000000000e+00 0.000000000000000e+00
0.000000000000000e+00 0.000000000000000e+00 0.000000000000000e+00
0.000000000000000e+00 0.000000000000000e+00 0.000000000000000e+00
0.000000000000000e+00 0.000000000000000e+00 0.000000000000000e+00
0.000000000000000e+00 0.000000000000000e+00 0.000000000000000e+00
0.000000000000000e+00 0.000000000000000e+00 0.000000000000000e+00
0.000000000000000e+00 0.000000000000000e+00 0.000000000000000e+00
0.000000000000000e+00 0.000000000000000e+00 0.000000000000000e+00
0.000000000000000e+00 0.000000000000000e+00 0.000000000000000e+00
0.000000000000000e+00 0.000000000000000e+00 0.000000000000000e+00
0.000000000000000e+00 0.000000000000000e+00 0.000000000000000e+00
0.000000000000000e+00 0.000000000000000e+00 0.000000000000000e+00
0.000000000000000e+00 0.000000000000000e+00 0.000000000000000e+00
0.000000000000000e+00 0.000000000000000e+00 0.000000000000000e+00
0.000000000000000e+00 0.000000000000000e+00 0.000000000000000e+00
0.000000000000000e+00 0.000000000000000e+00 0.000000000000000e+00
0.000000000000000e+00 0.000000000000000e+00 0.000000000000000e+00
0.000000000000000e+00 0.000000000000000e+00 0.000000000000000e+00
0.000000000000000e+00 0.000000000000000e+00 0.000000000000000e+00
0.000000000000000e+00 0.000000000000000e+00 0.000000000000000e+00
0.000000000000000e+00 0.000000000000000e+00 0.000000000000000e+00
0.000000000000000e+00 0.000000000000000e+00 0.000000000000000e+00
0.000000000000000e+00 0.000000000000000e+00 0.000000000000000e+00
0.000000000000000e+00 0.000000000000000e+00 0.000000000000000e+00
0.000000000000000e+00 0.000000000000000e+00 0.000000000000000e+00
0.000000000000000e+00 0.000000000000000e+00 0.000000000000000e+00
0.000000000000000e+00 0.000000000000000e+00 0.000000000000000e+00
0.000000000000000e+00 0.000000000000000e+00 0.000000000000000e+00
0.000000000000000e+00 0.000000000000000e+00 0.000000000000000e+00
0.000000000000000e+00 0.000000000000000e+00 0.000000000000000e+00
0.000000000000000e+00 0.000000000000000e+00 0.000000000000000e+00
0.000000000000000e+00 0.000000000000000e+00 0.000000000000000e+00
0.000000000000000e+00 0.000000000000000e+00 0.000000000000000e+00
0.000000000000000e+00 0.000000000000000e+00 0.000000000000000e+00
0.000000000000000e+00 0.000000000000000e+00 0.000000000000000e+00
0.000000000000000e+00 0.000000000000000e+00 0.000000000000000e+00
0.000000000000000e+00 0.000000000000000e+00 0.000000000000000e+00
0.000000000000000e+00 0.000000000000000e+00 0.000000000000000e+00
0.000000000000000e+00 0.000000000000000e+00 0.000000000000000e+00
0.000000000000000e+00 0.000000000000000e+00 0.000000000000000e+00
0.000000000000000e+00 0.000000000000000e+00 0.000000000000000e+00
0.000000000000000e+00 0.000000000000000e+00 0.000000000000000e+00
0.000000000000000e+00 0.000000000000000e+00 0.000000000000000e+00
0.000000000000000e+00 0.000000000000000e+00 0.000000000000000e+00
0.000000000000000e+00 0.000000000000000e+00 0.000000000000000e+00
0.000000000000000e+00 0.000000000000000e+00 0.000000000000000e+00
0.000000000000000e+00 0.000000000000000e+00 0.000000000000000e+00
0.000000000000000e+00 0.000000000000000e+00 0.000000000000000e+00
0.000000000000000e+00 0.000000000000000e+00 0.000000000000000e+00
0.000000000000000e+00 0.000000000000000e+00 0.000000000000000e+00
0.000000000000000e+00 0.000000000000000e+00 0.000000000000000e+00
0.000000000000000e+00 0.000000000000000e+00 0.000000000000000e+00
0.000000000000000e+00 0.000000000000000e+00 0.000000000000000e+00
0.000000000000000e+00 0.000000000000000e+00 0.000000000000000e+00
0.000000000000000e+00 0.000000000000000e+00 0.000000000000000e+00
0.000000000000000e+00 0.000000000000000e+00 0.000000000000000e+00
0.000000000000000e+00 0.000000000000000e+00 0.000000000000000e+00
0.000000000000000e+00 0.000000000000000e+00 0.000000000000000e+00
0.000000000000000e+00 0.000000000000000e+00 0.000000000000000e+00
0.000000000000000e+00 0.000000000000000e+00 0.000000000000000e+00
0.000000000000000e+00 0.000000000000000e+00 0.000000000000000e+00
0.000000000000000e+00 0.000000000000000e+00 0.000000000000000e+00
0.000000000000000e+00 0.000000000000000e+00 0.000000000000000e+00
0.000000000000000e+00 0.000000000000000e+00 0.000000000000000e+00
0.000000000000000e+00 0.000000000000000e+00 0.000000000000000e+00
0.000000000000000e+00 0.000000000000000e+00 0.000000000000000e+00
0.000000000000000e+00 0.000000000000000e+00 0.000000000000000e+00
0.000000000000000e+00 0.000000000000000e+00 0.000000000000000e+00
0.000000000000000e+00 0.000000000000000e+00 0.000000000000000e+00
0.000000000000000e+00 0.000000000000000e+00 0.000000000000000e+00
0.000000000000000e+00 0.000000000000000e+00 0.000000000000000e+00
0.000000000000000e+00 0.000000000000000e+00 0.000000000000000e+00
0.000000000000000e+00 0.000000000000000e+00 0.000000000000000e+00
0.000000000000000e+00 0.000000000000000e+00 0.000000000000000e+00
0.000000000000000e+00 0.000000000000000e+00 0.000000000000000e+00
0.000000000000000e+00 0.000000000000000e+00 0.000000000000000e+00
0.000000000000000e+00 0.000000000000000e+00 0.000000000000000e+00
0.000000000000000e+00 0.000000000000000e+00 0.000000000000000e+00
0.000000000000000e+00 0.000000000000000e+00 0.000000000000000e+00
0.000000000000000e+00 0.000000000000000e+00 0.000000000000000e+00
0.000000000000000e+00 0.000000000000000e+00 0.000000000000000e+00
0.000000000000000e+00 0.000000000000000e+00 0.000000000000000e+00
0.000000000000000e+00 0.000000000000000e+00 0.000000000000000e+00
0.000000000000000e+00 0.000000000000000e+00 0.000000000000000e+00
0.000000000000000e+00 0.000000000000000e+00 0.000000000000000e+00
0.000000000000000e+00 0.000000000000000e+00 0.000000000000000e+00
0.000000000000000e+00 0.000000000000000e+00 0.000000000000000e+00
0.000000000000000e+00 0.000000000000000e+00 0.000000000000000e+00
0.000000000000000e+00 0.000000000000000e+00 0.000000000000000e+00
0.000000000000000e+00 0.000000000000000e+00 0.000000000000000e+00
0.000000000000000e+00 0.000000000000000e+00 0.000000000000000e+00
0.000000000000000e+00 0.000000000000000e+00 0.000000000000000e+00
0.000000000000000e+00 0.000000000000000e+00 0.000000000000000e+00
0.000000000000000e+00 0.000000000000000e+00 0.000000000000000e+00
0.000000000000000e+00 0.000000000000000e+00 0.000000000000000e+00
0.000000000000000e+00 0.000000000000000e+00 0.000000000000000e+00
0.000000000000000e+00 0.000000000000000e+00 0.000000000000000e+00
0.000000000000000e+00 0.000000000000000e+00 0.000000000000000e+00
0.000000000000000e+00 0.000000000000000e+00 0.000000000000000e+00
0.000000000000000e+00 0.000000000000000e+00 0.000000000000000e+00
0.000000000000000e+00 0.000000000000000e+00 0.000000000000000e+00
0.000000000000000e+00 0.000000000000000e+00 0.000000000000000e+00
0.000000000000000e+00 0.000000000000000e+00 0.000000000000000e+00
0.000000000000000e+00 0.000000000000000e+00 0.000000000000000e+00
0.000000000000000e+00 0.000000000000000e+00 0.000000000000000e+00
0.000000000000000e+00 0.000000000000000e+00 0.000000000000000e+00
0.000000000000000e+00 0.000000000000000e+00 0.000000000000000e+00
0.000000000000000e+00 0.000000000000000e+00 0.000000000000000e+00
0.000000000000000e+00 0.000000000000000e+00 0.000000000000000e+00
0.000000000000000e+00 0.000000000000000e+00 0.000000000000000e+00
0.000000000000000e+00 0.000000000000000e+00 0.000000000000000e+00
0.000000000000000e+00 0.000000000000000e+00 0.000000000000000e+00
0.000000000000000e+00 0.000000000000000e+00 0.000000000000000e+00
0.000000000000000e+00 0.000000000000000e+00 0.000000000000000e+00
0.000000000000000e+00 0.000000000000000e+00 0.000000000000000e+00
0.000000000000000e+00 0.000000000000000e+00 0.000000000000000e+00
0.000000000000000e+00 0.000000000000000e+00 0.000000000000000e+00
0.000000000000000e+00 0.000000000000000e+00 0.000000000000000e+00
0.000000000000000e+00 0.000000000000000e+00 0.000000000000000e+00
0.000000000000000e+00 0.000000000000000e+00 0.000000000000000e+00
0.000000000000000e+00 0.000000000000000e+00 0.000000000000000e+00
0.000000000000000e+00 0.000000000000000e+00 0.000000000000000e+00
0.000000000000000e+00 0.000000000000000e+00 0.000000000000000e+00
0.000000000000000e+00 0.000000000000000e+00 0.000000000000000e+00
0.000000000000000e+00 0.000000000000000e+00 0.000000000000000e+00
0.000000000000000e+00 0.000000000000000e+00 0.000000000000000e+00
0.000000000000000e+00 0.000000000000000e+00 0.000000000000000e+00
0.000000000000000e+00 0.000000000000000e+00 0.000000000000000e+00
0.000000000000000e+00 0.000000000000000e+00 0.000000000000000e+00
0.000000000000000e+00 0.000000000000000e+00 0.000000000000000e+00
0.000000000000000e+00 0.000000000000000e+00 0.000000000000000e+00
0.000000000000000e+00 0.000000000000000e+00 0.000000000000000e+00
0.000000000000000e+00 0.000000000000000e+00 0.000000000000000e+00
0.000000000000000e+00 0.000000000000000e+00 0.000000000000000e+00
0.000000000000000e+00 0.000000000000000e+00 0.000000000000000e+00
0.000000000000000e+00 0.000000000000000e+00 0.000000000000000e+00
0.000000000000000e+00 0.000000000000000e+00 0.000000000000000e+00
0.000000000000000e+00 0.000000000000000e+00 0.000000000000000e+00
0.000000000000000e+00 0.000000000000000e+00 0.000000000000000e+00
0.000000000000000e+00 0.000000000000000e+00 0.000000000000000e+00
0.000000000000000e+00 0.000000000000000e+00 0.000000000000000e+00
0.000000000000000e+00 0.000000000000000e+00 0.000000000000000e+00
0.000000000000000e+00 0.000000000000000e+00 0.000000000000000e+00
0.000000000000000e+00 0.000000000000000e+00 0.000000000000000e+00
0.000000000000000e+00 0.000000000000000e+00 0.000000000000000e+00
0.000000000000000e+00 0.000000000000000e+00 0.000000000000000e+00
0.000000000000000e+00 0.000000000000000e+00 0.000000000000000e+00
0.000000000000000e+00 0.000000000000000e+00 0.000000000000000e+00
0.000000000000000e+00 0.000000000000000e+00 0.000000000000000e+00
0.000000000000000e+00 0.000000000000000e+00 0.000000000000000e+00
0.000000000000000e+00 0.000000000000000e+00 0.000000000000000e+00
0.000000000000000e+00 0.000000000000000e+00 0.000000000000000e+00
0.000000000000000e+00 0.000000000000000e+00 0.000000000000000e+00
0.000000000000000e+00 0.000000000000000e+00 0.000000000000000e+00
0.000000000000000e+00 0.000000000000000e+00 0.000000000000000e+00
0.000000000000000e+00 0.000000000000000e+00 0.000000000000000e+00
0.000000000000000e+00 0.000000000000000e+00 0.000000000000000e+00
0.000000000000000e+00 0.000000000000000e+00 0.000000000000000e+00
0.000000000000000e+00 0.000000000000000e+00 0.000000000000000e+00
0.000000000000000e+00 0.000000000000000e+00 0.000000000000000e+00
0.000000000000000e+00 0.000000000000000e+00 0.000000000000000e+00
0.000000000000000e+00 0.000000000000000e+00 0.000000000000000e+00
0.000000000000000e+00 0.000000000000000e+00 0.000000000000000e+00
0.000000000000000e+00 0.000000000000000e+00 0.000000000000000e+00
0.000000000000000e+00 0.000000000000000e+00 0.000000000000000e+00
0.000000000000000e+00 0.000000000000000e+00 0.000000000000000e+00
0.000000000000000e+00 0.000000000000000e+00 0.000000000000000e+00
0.000000000000000e+00 0.000000000000000e+00 0.000000000000000e+00
0.000000000000000e+00 0.000000000000000e+00 0.000000000000000e+00
0.000000000000000e+00 0.000000000000000e+00 0.000000000000000e+00
0.000000000000000e+00 0.000000000000000e+00 0.000000000000000e+00
0.000000000000000e+00 0.000000000000000e+00 0.000000000000000e+00
0.000000000000000e+00 0.000000000000000e+00 0.000000000000000e+00
0.000000000000000e+00 0.000000000000000e+00 0.000000000000000e+00
0.000000000000000e+00 0.000000000000000e+00 0.000000000000000e+00
0.000000000000000e+00 0.000000000000000e+00 0.000000000000000e+00
0.000000000000000e+00 0.000000000000000e+00 0.000000000000000e+00
0.000000000000000e+00 0.000000000000000e+00 0.000000000000000e+00
0.000000000000000e+00 0.000000000000000e+00 0.000000000000000e+00
0.000000000000000e+00 0.000000000000000e+00 0.000000000000000e+00
0.000000000000000e+00 0.000000000000000e+00 0.000000000000000e+00
0.000000000000000e+00 0.000000000000000e+00 0.000000000000000e+00
0.000000000000000e+00 0.000000000000000e+00 0.000000000000000e+00
0.000000000000000e+00 0.000000000000000e+00 0.000000000000000e+00
0.000000000000000e+00 0.000000000000000e+00 0.000000000000000e+00
0.000000000000000e+00 0.000000000000000e+00 0.000000000000000e+00
0.000000000000000e+00 0.000000000000000e+00 0.000000000000000e+00
0.000000000000000e+00 0.000000000000000e+00 0.000000000000000e+00
0.000000000000000e+00 0.000000000000000e+00 0.000000000000000e+00
0.000000000000000e+00 0.000000000000000e+00 0.000000000000000e+00
0.000000000000000e+00 0.000000000000000e+00 0.000000000000000e+00
0.000000000000000e+00 0.000000000000000e+00 0.000000000000000e+00
0.000000000000000e+00 0.000000000000000e+00 0.000000000000000e+00
0.000000000000000e+00 0.000000000000000e+00 0.000000000000000e+00
0.000000000000000e+00 0.000000000000000e+00 0.000000000000000e+00
0.000000000000000e+00 0.000000000000000e+00 0.000000000000000e+00
0.000000000000000e+00 0.000000000000000e+00 0.000000000000000e+00
0.000000000000000e+00 0.000000000000000e+00 0.000000000000000e+00
0.000000000000000e+00 0.000000000000000e+00 0.000000000000000e+00
0.000000000000000e+00 0.000000000000000e+00 0.000000000000000e+00
0.000000000000000e+00 0.000000000000000e+00 0.000000000000000e+00
0.000000000000000e+00 0.000000000000000e+00 0.000000000000000e+00
0.000000000000000e+00 0.000000000000000e+00 0.000000000000000e+00
0.000000000000000e+00 0.000000000000000e+00 0.000000000000000e+00
0.000000000000000e+00 0.000000000000000e+00 0.000000000000000e+00
0.000000000000000e+00 0.000000000000000e+00 0.000000000000000e+00
0.000000000000000e+00 0.000000000000000e+00 0.000000000000000e+00
0.000000000000000e+00 0.000000000000000e+00 0.000000000000000e+00
0.000000000000000e+00 0.000000000000000e+00 0.000000000000000e+00
0.000000000000000e+00 0.000000000000000e+00 0.000000000000000e+00
0.000000000000000e+00 0.000000000000000e+00 0.000000000000000e+00
0.000000000000000e+00 0.000000000000000e+00 0.000000000000000e+00
0.000000000000000e+00 0.000000000000000e+00 0.000000000000000e+00
0.000000000000000e+00 0.000000000000000e+00 0.000000000000000e+00
0.000000000000000e+00 0.000000000000000e+00 0.000000000000000e+00
0.000000000000000e+00 0.000000000000000e+00 0.000000000000000e+00
0.000000000000000e+00 0.000000000000000e+00 0.000000000000000e+00
0.000000000000000e+00 0.000000000000000e+00 0.000000000000000e+00
0.000000000000000e+00 0.000000000000000e+00 0.000000000000000e+00
0.000000000000000e+00 0.000000000000000e+00 0.000000000000000e+00
0.000000000000000e+00 0.000000000000000e+00 0.000000000000000e+00
0.000000000000000e+00 0.000000000000000e+00 0.000000000000000e+00
0.000000000000000e+00 0.000000000000000e+00 0.000000000000000e+00
0.000000000000000e+00 0.000000000000000e+00 0.000000000000000e+00
0.000000000000000e+00 0.000000000000000e+00 0.000000000000000e+00
0.000000000000000e+00 0.000000000000000e+00 0.000000000000000e+00
0.000000000000000e+00 0.000000000000000e+00 0.000000000000000e+00
0.000000000000000e+00 0.000000000000000e+00 0.000000000000000e+00
0.000000000000000e+00 0.000000000000000e+00 0.000000000000000e+00
0.000000000000000e+00 0.000000000000000e+00 0.000000000000000e+00
0.000000000000000e+00 0.000000000000000e+00 0.000000000000000e+00
0.000000000000000e+00 0.000000000000000e+00 0.000000000000000e+00
0.000000000000000e+00 0.000000000000000e+00 0.000000000000000e+00
0.000000000000000e+00 0.000000000000000e+00 0.000000000000000e+00
0.000000000000000e+00 0.000000000000000e+00 0.000000000000000e+00
0.000000000000000e+00 0.000000000000000e+00 0.000000000000000e+00
0.000000000000000e+00 0.000000000000000e+00 0.000000000000000e+00
0.000000000000000e+00 0.000000000000000e+00 0.000000000000000e+00
0.000000000000000e+00 0.000000000000000e+00 0.000000000000000e+00
0.000000000000000e+00 0.000000000000000e+00 0.000000000000000e+00
0.000000000000000e+00 0.000000000000000e+00 0.000000000000000e+00
0.000000000000000e+00 0.000000000000000e+00 0.000000000000000e+00
0.000000000000000e+00 0.000000000000000e+00 0.000000000000000e+00
0.000000000000000e+00 0.000000000000000e+00 0.000000000000000e+00
0.000000000000000e+00 0.000000000000000e+00 0.000000000000000e+00
0.000000000000000e+00 0.000000000000000e+00 0.000000000000000e+00
0.000000000000000e+00 0.000000000000000e+00 0.000000000000000e+00
0.000000000000000e+00 0.000000000000000e+00 0.000000000000000e+00
0.000000000000000e+00 0.000000000000000e+00 0.000000000000000e+00
0.000000000000000e+00 0.000000000000000e+00 0.000000000000000e+00
0.000000000000000e+00 0.000000000000000e+00 0.000000000000000e+00
0.000000000000000e+00 0.000000000000000e+00 0.000000000000000e+00
0.000000000000000e+00 0.000000000000000e+00 0.000000000000000e+00
0.000000000000000e+00 0.000000000000000e+00 0.000000000000000e+00
0.000000000000000e+00 0.000000000000000e+00 0.000000000000000e+00
0.000000000000000e+00 0.000000000000000e+00 0.000000000000000e+00
0.000000000000000e+00 0.000000000000000e+00 0.000000000000000e+00
0.000000000000000e+00 0.000000000000000e+00 0.000000000000000e+00
0.000000000000000e+00 0.000000000000000e+00 0.000000000000000e+00
0.000000000000000e+00 0.000000000000000e+00 0.000000000000000e+00
0.000000000000000e+00 0.000000000000000e+00 0.000000000000000e+00
0.000000000000000e+00 0.000000000000000e+00 0.000000000000000e+00
0.000000000000000e+00 0.000000000000000e+00 0.000000000000000e+00
0.000000000000000e+00 0.000000000000000e+00 0.000000000000000e+00
0.000000000000000e+00 0.000000000000000e+00 0.000000000000000e+00
0.000000000000000e+00 0.000000000000000e+00 0.000000000000000e+00
0.000000000000000e+00 0.000000000000000e+00 0.000000000000000e+00
0.000000000000000e+00 0.000000000000000e+00 0.000000000000000e+00
0.000000000000000e+00 0.000000000000000e+00 0.000000000000000e+00
0.000000000000000e+00 0.000000000000000e+00 0.000000000000000e+00
0.000000000000000e+00 0.000000000000000e+00 0.000000000000000e+00
0.000000000000000e+00 0.000000000000000e+00 0.000000000000000e+00
0.000000000000000e+00 0.000000000000000e+00 0.000000000000000e+00
0.000000000000000e+00 0.000000000000000e+00 0.000000000000000e+00
0.000000000000000e+00 0.000000000000000e+00 0.000000000000000e+00
0.000000000000000e+00 0.000000000000000e+00 0.000000000000000e+00
0.000000000000000e+00 0.000000000000000e+00 0.000000000000000e+00
0.000000000000000e+00 0.000000000000000e+00 0.000000000000000e+00
0.000000000000000e+00 0.000000000000000e+00 0.000000000000000e+00
0.000000000000000e+00 0.000000000000000e+00 0.000000000000000e+00
0.000000000000000e+00 0.000000000000000e+00 0.000000000000000e+00
0.000000000000000e+00 0.000000000000000e+00 0.000000000000000e+00
0.000000000000000e+00 0.000000000000000e+00 0.000000000000000e+00
0.000000000000000e+00 0.000000000000000e+00 0.000000000000000e+00
0.000000000000000e+00 0.000000000000000e+00 0.000000000000000e+00
0.000000000000000e+00 0.000000000000000e+00 0.000000000000000e+00
0.000000000000000e+00 0.000000000000000e+00 0.000000000000000e+00
0.000000000000000e+00 0.000000000000000e+00 0.000000000000000e+00
0.000000000000000e+00 0.000000000000000e+00 0.000000000000000e+00
0.000000000000000e+00 0.000000000000000e+00 0.000000000000000e+00
0.000000000000000e+00 0.000000000000000e+00 0.000000000000000e+00
0.000000000000000e+00 0.000000000000000e+00 0.000000000000000e+00
0.000000000000000e+00 0.000000000000000e+00 0.000000000000000e+00
0.000000000000000e+00 0.000000000000000e+00 0.000000000000000e+00
0.000000000000000e+00 0.000000000000000e+00 0.000000000000000e+00
0.000000000000000e+00 0.000000000000000e+00 0.000000000000000e+00
0.000000000000000e+00 0.000000000000000e+00 0.000000000000000e+00
0.000000000000000e+00 0.000000000000000e+00 0.000000000000000e+00
0.000000000000000e+00 0.000000000000000e+00 0.000000000000000e+00
0.000000000000000e+00 0.000000000000000e+00 0.000000000000000e+00
0.000000000000000e+00 0.000000000000000e+00 0.000000000000000e+00
0.000000000000000e+00 0.000000000000000e+00 0.000000000000000e+00
0.000000000000000e+00 0.000000000000000e+00 0.000000000000000e+00
0.000000000000000e+00 0.000000000000000e+00 0.000000000000000e+00
0.000000000000000e+00 0.000000000000000e+00 0.000000000000000e+00
0.000000000000000e+00 0.000000000000000e+00 0.000000000000000e+00
0.000000000000000e+00 0.000000000000000e+00 0.000000000000000e+00
0.000000000000000e+00 0.000000000000000e+00 0.000000000000000e+00
0.000000000000000e+00 0.000000000000000e+00 0.000000000000000e+00
0.000000000000000e+00 0.000000000000000e+00 0.000000000000000e+00
0.000000000000000e+00 0.000000000000000e+00 0.000000000000000e+00
0.000000000000000e+00 0.000000000000000e+00 0.000000000000000e+00
0.000000000000000e+00 0.000000000000000e+00 0.000000000000000e+00
0.000000000000000e+00 0.000000000000000e+00 0.000000000000000e+00
0.000000000000000e+00 0.000000000000000e+00 0.000000000000000e+00
0.000000000000000e+00 0.000000000000000e+00 0.000000000000000e+00
0.000000000000000e+00 0.000000000000000e+00 0.000000000000000e+00
0.000000000000000e+00 0.000000000000000e+00 0.000000000000000e+00
0.000000000000000e+00 0.000000000000000e+00 0.000000000000000e+00
0.000000000000000e+00 0.000000000000000e+00 0.000000000000000e+00
0.000000000000000e+00 0.000000000000000e+00 0.000000000000000e+00
0.000000000000000e+00 0.000000000000000e+00 0.000000000000000e+00
0.000000000000000e+00 0.000000000000000e+00 0.000000000000000e+00
0.000000000000000e+00 0.000000000000000e+00 0.000000000000000e+00
0.000000000000000e+00 0.000000000000000e+00 0.000000000000000e+00
0.000000000000000e+00 0.000000000000000e+00 0.000000000000000e+00
0.000000000000000e+00 0.000000000000000e+00 0.000000000000000e+00
0.000000000000000e+00 0.000000000000000e+00 0.000000000000000e+00
0.000000000000000e+00 0.000000000000000e+00 0.000000000000000e+00
0.000000000000000e+00 0.000000000000000e+00 0.000000000000000e+00
0.000000000000000e+00 0.000000000000000e+00 0.000000000000000e+00
0.000000000000000e+00 0.000000000000000e+00 0.000000000000000e+00
0.000000000000000e+00 0.000000000000000e+00 0.000000000000000e+00
0.000000000000000e+00 0.000000000000000e+00 0.000000000000000e+00
0.000000000000000e+00 0.000000000000000e+00 0.000000000000000e+00
0.000000000000000e+00 0.000000000000000e+00 0.000000000000000e+00
0.000000000000000e+00 0.000000000000000e+00 0.000000000000000e+00
0.000000000000000e+00 0.000000000000000e+00 0.000000000000000e+00
0.000000000000000e+00 0.000000000000000e+00 0.000000000000000e+00
0.000000000000000e+00 0.000000000000000e+00 0.000000000000000e+00
0.000000000000000e+00 0.000000000000000e+00 0.000000000000000e+00
0.000000000000000e+00 0.000000000000000e+00 0.000000000000000e+00
0.000000000000000e+00 0.000000000000000e+00 0.000000000000000e+00
0.000000000000000e+00 0.000000000000000e+00 0.000000000000000e+00
0.000000000000000e+00 0.000000000000000e+00 0.000000000000000e+00
0.000000000000000e+00 0.000000000000000e+00 0.000000000000000e+00
0.000000000000000e+00 0.000000000000000e+00 0.000000000000000e+00
0.000000000000000e+00 0.000000000000000e+00 0.000000000000000e+00
0.000000000000000e+00 0.000000000000000e+00 0.000000000000000e+00
0.000000000000000e+00 0.000000000000000e+00 0.000000000000000e+00
0.000000000000000e+00 0.000000000000000e+00 0.000000000000000e+00
0.000000000000000e+00 0.000000000000000e+00 0.000000000000000e+00
0.000000000000000e+00 0.000000000000000e+00 0.000000000000000e+00
0.000000000000000e+00 0.000000000000000e+00 0.000000000000000e+00
0.000000000000000e+00 0.000000000000000e+00 0.000000000000000e+00
0.000000000000000e+00 0.000000000000000e+00 0.000000000000000e+00
0.000000000000000e+00 0.000000000000000e+00 0.000000000000000e+00
0.000000000000000e+00 0.000000000000000e+00 0.000000000000000e+00
0.000000000000000e+00 0.000000000000000e+00 0.000000000000000e+00
0.000000000000000e+00 0.000000000000000e+00 0.000000000000000e+00
0.000000000000000e+00 0.000000000000000e+00 0.000000000000000e+00
0.000000000000000e+00 0.000000000000000e+00 0.000000000000000e+00
0.000000000000000e+00 0.000000000000000e+00 0.000000000000000e+00
0.000000000000000e+00 0.000000000000000e+00 0.000000000000000e+00
0.000000000000000e+00 0.000000000000000e+00 0.000000000000000e+00
0.000000000000000e+00 0.000000000000000e+00 0.000000000000000e+00
0.000000000000000e+00 0.000000000000000e+00 0.000000000000000e+00
0.000000000000000e+00 0.000000000000000e+00 0.000000000000000e+00
0.000000000000000e+00 0.000000000000000e+00 0.000000000000000e+00
0.000000000000000e+00 0.000000000000000e+00 0.000000000000000e+00
0.000000000000000e+00 0.000000000000000e+00 0.000000000000000e+00
0.000000000000000e+00 0.000000000000000e+00 0.000000000000000e+00
0.000000000000000e+00 0.000000000000000e+00 0.000000000000000e+00
0.000000000000000e+00 0.000000000000000e+00 0.000000000000000e+00
0.000000000000000e+00 0.000000000000000e+00 0.000000000000000e+00
0.000000000000000e+00 0.000000000000000e+00 0.000000000000000e+00
0.000000000000000e+00 0.000000000000000e+00 0.000000000000000e+00
0.000000000000000e+00 0.000000000000000e+00 0.000000000000000e+00
0.000000000000000e+00 0.000000000000000e+00 0.000000000000000e+00
0.000000000000000e+00 0.000000000000000e+00 0.000000000000000e+00
0.000000000000000e+00 0.000000000000000e+00 0.000000000000000e+00
0.000000000000000e+00 0.000000000000000e+00 0.000000000000000e+00
0.000000000000000e+00 0.000000000000000e+00 0.000000000000000e+00
0.000000000000000e+00 0.000000000000000e+00 0.000000000000000e+00
0.000000000000000e+00 0.000000000000000e+00 0.000000000000000e+00
0.000000000000000e+00 0.000000000000000e+00 0.000000000000000e+00
0.000000000000000e+00 0.000000000000000e+00 0.000000000000000e+00
0.000000000000000e+00 0.000000000000000e+00 0.000000000000000e+00
0.000000000000000e+00 0.000000000000000e+00 0.000000000000000e+00
0.000000000000000e+00 0.000000000000000e+00 0.000000000000000e+00
0.000000000000000e+00 0.000000000000000e+00 0.000000000000000e+00
0.000000000000000e+00 0.000000000000000e+00 0.000000000000000e+00
0.000000000000000e+00 0.000000000000000e+00 0.000000000000000e+00
0.000000000000000e+00 0.000000000000000e+00 0.000000000000000e+00
0.000000000000000e+00 0.000000000000000e+00 0.000000000000000e+00
0.000000000000000e+00 0.000000000000000e+00 0.000000000000000e+00
0.000000000000000e+00 0.000000000000000e+00 0.000000000000000e+00
0.000000000000000e+00 0.000000000000000e+00 0.000000000000000e+00
0.000000000000000e+00 0.000000000000000e+00 0.000000000000000e+00
0.000000000000000e+00 0.000000000000000e+00 0.000000000000000e+00
0.000000000000000e+00 0.000000000000000e+00 0.000000000000000e+00
0.000000000000000e+00 0.000000000000000e+00 0.000000000000000e+00
0.000000000000000e+00 0.000000000000000e+00 0.000000000000000e+00
0.000000000000000e+00 0.000000000000000e+00 0.000000000000000e+00
0.000000000000000e+00 0.000000000000000e+00 0.000000000000000e+00
0.000000000000000e+00 0.000000000000000e+00 0.000000000000000e+00
0.000000000000000e+00 0.000000000000000e+00 0.000000000000000e+00
0.000000000000000e+00 0.000000000000000e+00 0.000000000000000e+00
0.000000000000000e+00 0.000000000000000e+00 0.000000000000000e+00
0.000000000000000e+00 0.000000000000000e+00 0.000000000000000e+00
0.000000000000000e+00 0.000000000000000e+00 0.000000000000000e+00
0.000000000000000e+00 0.000000000000000e+00 0.000000000000000e+00
0.000000000000000e+00 0.000000000000000e+00 0.000000000000000e+00
0.000000000000000e+00 0.000000000000000e+00 0.000000000000000e+00
0.000000000000000e+00 0.000000000000000e+00 0.000000000000000e+00
0.000000000000000e+00 0.000000000000000e+00 0.000000000000000e+00
0.000000000000000e+00 0.000000000000000e+00 0.000000000000000e+00
0.000000000000000e+00 0.000000000000000e+00 0.000000000000000e+00
0.000000000000000e+00 0.000000000000000e+00 0.000000000000000e+00
0.000000000000000e+00 0.000000000000000e+00 0.000000000000000e+00
0.000000000000000e+00 0.000000000000000e+00 0.000000000000000e+00
0.000000000000000e+00 0.000000000000000e+00 0.000000000000000e+00
0.000000000000000e+00 0.000000000000000e+00 0.000000000000000e+00
0.000000000000000e+00 0.000000000000000e+00 0.000000000000000e+00
0.000000000000000e+00 0.000000000000000e+00 0.000000000000000e+00
0.000000000000000e+00 0.000000000000000e+00 0.000000000000000e+00
0.000000000000000e+00 0.000000000000000e+00 0.000000000000000e+00
0.000000000000000e+00 0.000000000000000e+00 0.000000000000000e+00
0.000000000000000e+00 0.000000000000000e+00 0.000000000000000e+00
0.000000000000000e+00 0.000000000000000e+00 0.000000000000000e+00
0.000000000000000e+00 0.000000000000000e+00 0.000000000000000e+00
0.000000000000000e+00 0.000000000000000e+00 0.000000000000000e+00
0.000000000000000e+00 0.000000000000000e+00 0.000000000000000e+00
0.000000000000000e+00 0.000000000000000e+00 0.000000000000000e+00
 1.210168128317618e-02  3.624112969476525e-04 -2.190875624278392e-19
-7.505658806139729e-01 -2.652557606373447e-03  1.338446920589309e-17
 5.102450144815866e+00  6.056785798505229e-02 -9.142649960862927e-17
 6.005180374359557e-01  1.802090599035417e-03 -1.070545062660447e-17
-1.722084157903294e-01 -3.207074818743720e-03  3.097605743407045e-18
 2.818452046912448e+00 -1.518617247968933e-02 -5.000168375677255e-17
 1.351868713818307e+00  2.093914095119583e-02 -2.427325839779837e-17
-3.110851008928132e-01 -2.459639411695401e-03  5.561402345731157e-18
 1.109362927222472e+00  9.703358561034438e-03 -1.984213508525236e-17
-3.283993692843470e+00 -8.166513608108945e-02  5.928166466024585e-17
 1.349536399437770e+00  1.229244107502516e-03 -2.402924006784174e-17
-3.421385220135651e-01 -9.050962099298036e-03  6.181758458068610e-18
 3.300551068242408e-01 -2.371736443091832e-03 -5.849355592445337e-18
 7.551940461225047e-01  2.007629241465463e-02 -1.364585549353561e-17
-2.993358231663343e+00 -3.200398420253904e-03  5.330326329877889e-17
-3.308195565853973e-02 -8.519189501644713e-04  5.974860233828353e-19
-1.147924569855786e+00 -1.818665882362931e-02  2.061554832402986e-17
-2.287522298167156e+00 -3.594906924317446e-02  4.107855157560394e-17
-7.071605468915062e+00 -1.426069802478900e-01  1.273128895511184e-16
-1.027341385698339e+01  6.797923510653371e-01  1.758430347009020e-16
 2.242339891734475e+01 -5.571810565229344e-01 -3.933262983917065e-16
-2.109982675607064e+01 -7.697191964393111e+00  4.545824371728156e-16
-2.655609248772480e+01  5.391532279376446e+00  4.172013074924184e-16
 2.560723191024781e+01 -5.043033231435063e+00 -4.038959027925657e-16
 2.580013583731075e+01  3.066832936817895e+00 -4.906547870756554e-16
-1.364241328457516e+01 -2.356029834136702e+00  2.669903683236603e-16
-1.247682639111267e+01  5.314611338474664e-02  2.214939515192522e-16
-1.112886681855644e+01 -9.102845333876743e-01  2.074043029297518e-16
-1.639722691489518e+00  8.927724086475217e-02  2.826353001653586e-17
-5.013088870577525e+00 -3.905905281082971e-01  9.322707203905304e-17
 2.800721092497253e+00 -5.887615687546768e-01 -4.379286130772684e-17
-2.021116341299161e+00 -1.784553405154322e-01  3.780173996843609e-17
-4.701189387227481e+00  8.977314885355623e-01  7.443940798203767e-17
 1.596504032968739e+00  1.210336979818134e-01 -2.965527093058995e-17
 4.281099172801851e+00 -9.577383271492454e-01 -6.634685311635200e-17
-9.168049734806591e-01 -6.815587189836600e-02  1.701591494484467e-17
 2.067863502994437e+00 -2.035504235113899e-01 -3.470869100832581e-17
-4.613250319025529e+00 -9.287949070750722e-01  9.164132254241139e-17
-2.689199753241090e+00  5.718997055670608e-01  4.198145566149508e-17
 1.601550193533147e+00  1.986565380472836e-01 -3.054261984941568e-17
 4.684445579113174e+00 -5.425377458787451e-01 -7.779091862844055e-17
-6.884802217086897e+00 -1.635250410755162e+00  1.393248719372893e-16
-2.375490875960439e+00  2.953694086120210e-01  3.923988035534787e-17
-2.773505585230533e+00 -4.995971012128455e-01  5.449101896113155e-17
 6.291155553703492e+00 -8.867786196965689e-01 -1.028472892645892e-16
 7.231547646985269e+00  1.180229745858328e+00 -1.408204483703121e-16
-2.088945213849096e+01  3.566581933103224e+00  3.351073849601662e-16
-1.419910287793847e+00 -5.595081017086177e-02  2.584387154681464e-17
-8.677572092981012e-01  2.350148428934678e-02  1.520130542407233e-17
 9.003589205848233e+00  1.660892889366300e+00 -1.772946808713215e-16
-1.042735241705592e+00  5.444328761202643e-02  1.799733244331648e-17
-4.903223846655773e-01 -5.678110883592996e-02  9.309276953352241e-18
-2.842264863930090e-01  3.740369544537590e-02  4.673840001122061e-18
 8.203787280935462e-02  6.760606312528738e-03 -1.529424607567573e-18
 4.278160932609126e-01 -4.780135521797796e-02 -7.122356115058209e-18
-3.711117336830570e-02  1.277923633222536e-04  6.591245858449386e-19
-4.276729362237246e-01  5.444982103187994e-02  7.051497981460580e-18
 2.677166756084532e-01  2.258832999388743e-02 -4.996424467946806e-18
-1.852217096892480e+00  1.661590614817991e-01  3.125518865139685e-17
 6.544893619694834e-01  8.375332662270792e-02 -1.250795390970719e-17
-1.632694040822699e+00  6.934831982276138e-02  2.834320928444598e-17
 1.764017901852460e+01  7.360058214291130e+00 -3.895499568749377e-16
-1.755867369485463e+00  8.234532367656704e-02  3.040168602239848e-17
 1.118589080381863e+00  3.519462794165385e-02 -2.026823900556884e-17
-1.484009920571151e+00  4.359165809192540e-02  2.596183827537208e-17
 2.215911529634624e+00  8.660458080040805e-02 -4.032461957903972e-17
-1.552363152870803e+00  2.169270790877501e-02  2.740326933371822e-17
 2.840424157019238e+00  4.005773499240122e-02 -5.096031470485871e-17
-1.109688143595298e+00 -1.771994493588256e-03  1.976643080611157e-17
 1.535264435546707e+00  4.679777156173229e-03 -2.736994497435485e-17
-2.439479683698470e+01 -1.332520028868669e+00  4.478256676411715e-16
-7.499661434828144e-01  1.369534491437149e-02  1.320582741906951e-17
 1.595763458873743e-01  3.283693037795186e-03 -2.873590195088836e-18
-2.333850131684017e+01  9.758856040299732e-01  4.053096000352221e-16
 1.800469175353138e+00 -1.881321225978624e-02 -3.184819775256289e-17
-4.639975691050774e-02  5.017569315224911e-04  8.205836468448017e-19
 6.728003438356778e-01 -6.489521593113852e-03 -1.190660717884724e-17
-6.589201267543418e-01  4.067459947129455e-03  1.168447797813921e-17
 2.054690610756937e-01 -2.713383111729037e-03 -3.628687946972600e-18
-5.112029274502777e-02  6.004802765887730e-05  9.091296287626897e-19
 7.354764886525115e-01 -1.045722095546685e-02 -1.298123726849473e-17
-1.300633461253513e+00 -1.008658639870433e-02  2.324995985496044e-17
 4.255707669192837e-01 -7.552438669364119e-03 -7.495940873384204e-18
-1.608397637737569e+00 -4.066899243204216e-02  2.904121373611301e-17
 8.147958815404959e-01 -2.079314915345873e-02 -1.428662257819034e-17
 4.814362609554607e-01  6.563966113938175e-03 -8.635174841718088e-18
-3.200449999574191e+01  5.898577198530697e+00  5.089525154218509e-16
 3.357421018598709e-01  1.096343245706658e-03 -5.986195769853993e-18
-2.203950705558446e-01  2.719566358303225e-03  3.894250622684555e-18
 1.566680132552606e+00  1.163678871020449e-02 -2.800050567311888e-17
-6.740468033955610e-01  1.119735005927867e-02  1.188041820357029e-17
 1.212475510314519e+00 -4.816511245958827e-03 -2.152796009480615e-17
-2.873153188332360e-01  2.141188365338273e-03  5.091118889875067e-18
-8.465052800284636e-03  5.428105634897547e-05  1.500879940309551e-19
 2.792126391275485e-01 -2.009514497287430e-03 -4.948274938837285e-18
 2.449807927996695e-02 -1.240073295159605e-04 -4.346984149733915e-19
 2.825805594678660e-01 -2.597473932876912e-03 -5.002170028665800e-18
 9.949302780786345e-01 -1.788689689552188e-03 -1.768759295742451e-17
 8.983261326980259e-01 -4.428503970387153e-03 -1.594128384291897e-17
-6.312516216066556e-01 -5.876195077988327e-04  1.123991315284185e-17
 4.013657227491307e-02 -2.198753493406588e-04 -7.120190430312365e-19
 4.957776445703009e-01 -2.127634647238941e-03 -8.801093894636755e-18
 1.223327328621434e+00 -2.057461286205160e-03 -2.174942937992929e-17
-8.211578458243938e+00 -1.584503048632613e-01  1.477628531117981e-16
 2.266090541102063e+00 -4.862110196834334e-02 -3.982822009406684e-17
-4.089241283594267e-02 -4.436638827462694e-03  7.733141061150390e-19
 1.916803232261909e+00 -1.448085089081480e-01 -3.262394513952502e-17
 1.433841637680692e+00  3.628047054638395e-02 -2.588969098229276e-17
 4.978250785459562e-01 -4.592693114905057e-03 -8.812202851462665e-18
-3.422435847326486e+00 -1.992855577363188e-01  6.295391501799245e-17
 2.158357061915178e+00 -8.153991123014763e-02 -3.757274552122157e-17
 9.079095303908854e-01  7.555260075116156e-02 -1.693360860079170e-17
 5.265836632649666e-01 -1.587632388097477e-02 -9.208060955286484e-18
 3.278822628910204e+00  2.849203901212637e-01 -6.127801330079306e-17
 9.924024507357578e-01 -1.724955081052596e-02 -1.748375251850402e-17
-2.383889794505588e+00 -3.093872708535833e-01  4.560300425164424e-17
 1.263630964396635e+00 -2.784617185071734e-02 -2.220171102416697e-17
 8.350739293791528e-01  4.176264553233706e-02 -1.529023269725880e-17
-3.584850602944452e-01  5.944131251899755e-03  6.318595475775170e-18
 2.012602660687585e+00  1.227488120441929e-01 -3.707786452037103e-17
 6.595695293264145e-02 -9.363023229143865e-04 -1.164162487501776e-18
 1.491964039823702e+00  9.491085800437316e-02 -2.752645435351908e-17
-9.262759108410564e-01  8.197009681452674e-04  1.647576256787316e-17
 1.701678110627506e+00  4.985003634793451e-02 -3.079558282164640e-17
-1.301733504871623e-01  3.828348663198794e-03  2.277255154780585e-18
-1.338620680517925e+00 -6.103822084039041e-02  2.444949730427963e-17
-1.289808551864856e+00 -6.188037777289143e-02  2.358948012272070e-17
 7.154264860101327e+00  4.647827904072795e-01 -1.320941514845278e-16
-3.092639843459210e+01 -1.013152534373669e+01  6.544698929138364e-16
-6.521280838858035e+00  7.349154527983275e-01  1.085029821070733e-16
 7.752056122351948e-02  3.436262845678976e-02 -1.732634393356450e-18
 2.956356479634707e+00 -2.316304833513253e-01 -5.023197095306380e-17
-4.767028043957944e+00 -2.377135640580117e-01  8.727737087520001e-17
 1.139893759814873e-01  3.935808356657218e-03 -2.069015896433140e-18
 5.664767866567939e-01 -2.215170340392479e-02 -9.853529464530880e-18
 3.946084161167479e+00 -2.933826487303435e-01 -6.721087457960305e-17
 2.585619580885060e+01  1.976226364109899e+01 -6.631919267096979e-16
-2.250737986791898e+00  2.064346618591188e-02  3.984246316987136e-17
 4.459220207563954e+00 -2.006980210076765e-02 -7.915093284974091e-17
 6.140081543543450e+00  1.725923414847407e-01 -1.110433988770199e-16
-5.642502718183778e-01 -6.689889057721792e-03  1.011024284757626e-17
-1.893712738868186e+00  7.265617580199501e-03  3.362622551146383e-17
 2.446563888964579e-01 -1.167895551926592e-03 -4.341952555950559e-18
 2.519877011009449e+00 -6.551457982976716e-02 -4.417107871281378e-17
 2.416566515780610e+00 -1.344026548733642e-03 -4.299187435589546e-17
-3.279950458802983e+00 -5.736403524855623e-02  5.896002550439278e-17
-2.573732336310495e-01  3.848020019691931e-03  4.540726699345866e-18
 2.194469133270105e+00 -1.543541002599114e-02 -3.889460265423569e-17
 1.988048119110472e+00  6.812301434893658e-03 -3.544968162913163e-17
-2.078051175299882e+00 -4.854225635203244e-03  3.703127485751507e-17
-1.353251225505098e+00  2.220541152751429e-02  2.385456723757324e-17
 2.211651820080627e+00 -1.134982345937774e-02 -3.924236697581473e-17
 1.222261973039937e+00 -5.301494433730716e-03 -2.169713886991475e-17
 1.010066360605396e-01 -2.865656928086074e-04 -1.794589214813723e-18
 1.582904152812188e-01 -8.335730860344000e-04 -2.808402094954326e-18
 3.894970993578384e-01  7.308138837488536e-04 -6.939074269193463e-18
 5.363826903338911e-01 -3.661590922609569e-03 -9.507948285025643e-18
 5.927480727584865e-01 -8.916754877382727e-04 -1.053949736815562e-17
 2.195315047375359e-01 -7.764133072735277e-05 -3.906027256959224e-18
 1.865444567826902e-01  8.226348966531839e-05 -3.320626354458621e-18
 2.253368531422804e-01  5.943543717816377e-04 -4.016244851782568e-18
 6.233806852930286e-01 -6.321205461518864e-05 -1.109315342510687e-17
 7.499534303924716e-01  2.953043723549579e-03 -1.337665732323061e-17
 8.201858050455173e-02  1.736066280146220e-03 -1.477456012008315e-18
 2.366131861173149e-01  5.224054082532239e-04 -4.216181414107464e-18
 1.148239657101606e-01  2.076976309920042e-03 -2.064769613867434e-18
-4.703778737808114e-01 -3.861758922040492e-03  8.410613512066219e-18
 1.209976061398576e-01  1.427855582739747e-03 -2.167967432295224e-18
-1.106555905865203e+00 -1.855869209183010e-02  1.988316610957172e-17
 3.255699889966662e+00  7.695972197408367e-02 -5.872979626843558e-17
 2.562864584834362e-01  1.747066116302434e-02 -4.740427929993467e-18
-2.521071109905188e+01 -2.057935790558269e+01  6.601001031607320e-16
 2.155931867852680e-01 -5.863586679062225e-02 -3.234275690259868e-18
 1.970253883847276e+00  7.480385361542956e-02 -3.583160048905930e-17
-8.974667441916642e+00  1.256810706406379e+00  1.468016389539816e-16
 2.428677581600618e+00  2.919555569950323e-02 -4.352118832388105e-17
-2.288222442133263e+00  2.080676310389234e-02  4.050786591579681e-17
 1.396871320582634e+00 -1.466575130111233e-02 -2.470830613132984e-17
-3.278456871092232e-02 -5.212059312855144e-04  5.887957086647358e-19
-1.338949810472713e+00  4.822050479767834e-02  2.333276086612584e-17
 2.044089579548713e+00 -1.331513436277350e-02 -3.624020417638289e-17
 5.068316871210148e-02 -8.769869771257031e-04 -8.929567213115021e-19
 7.033717385783942e-01 -6.807336268670587e-03 -1.244739618919641e-17
 1.196567266084499e-01 -7.228289136430547e-04 -2.122007377687663e-18
-3.787859948481581e-01  3.942860604549318e-03  6.700437159133309e-18
-1.962902917095885e-03  1.780204413902309e-04  3.310310290349070e-20
 5.929618440688319e-01 -6.206267588581581e-03 -1.048869618200697e-17
 1.497831662629520e+00 -1.412022573614860e-02 -2.651062092440781e-17
 9.822093938273284e-01 -7.369826438553540e-04 -1.747201557227252e-17
 4.952336009726623e-01 -5.806825592258603e-03 -8.753609629799294e-18
 1.206269678427202e+01  2.316373402518248e-01 -2.170500672265006e-16
 5.864686313389316e-02  5.288880845295138e-04 -1.049125008333293e-18
 2.625752618871746e+00 -8.445819944052246e-03 -4.664162229473592e-17
 1.351255963493360e-01 -7.210139445035507e-04 -2.397313016542238e-18
 1.538686809031907e+01 -3.324877034738014e-01 -2.704114810537149e-16
-7.239666328976195e-02 -1.446804601093133e-03  1.303250377540525e-18
-5.078651932651866e-01  2.264180407854609e-03  9.014803286476478e-18
 4.780146273286840e+00 -3.454733667750093e-03 -8.503290871733623e-17
 1.115503997229006e+00  5.732164744156435e-03 -1.991062016253164e-17
-6.048346768543010e-01 -3.600032023196846e-03  1.080074357039034e-17
 1.091075420428080e+00 -1.857734463865744e-03 -1.939790104078560e-17
-1.463342704266795e+00 -3.269818514127591e-03  2.607552514019966e-17
-4.276932158345855e+00 -3.631231214449802e-03  7.615041900225828e-17
-4.013155911539162e-01  1.413033824689455e-03  7.127371241218977e-18
-1.167699181975742e-01  4.785299035429026e-04  2.073143262668158e-18
 1.310457804430674e+00 -2.466898792367762e-03 -2.329581331081238e-17
 1.092030336589006e+00  4.978759857876330e-03 -1.948513740860145e-17
 7.615208463881374e-03  1.534543497342889e-04 -1.370984065799936e-19
-1.497729978629078e+00 -7.611368107505169e-03  2.673209557113047e-17
-6.656224086920904e+00  3.443115274143350e-02  1.181016798793079e-16
 1.922434919270767e+00 -1.760751922789989e-02 -3.403111168955161e-17
 1.934717218226023e-01  2.154799204847770e-03 -3.465199845525538e-18
 8.496882116317898e-02 -1.261912848592338e-03 -1.499155838643090e-18
-4.434224856931964e-01 -1.393304960228543e-02  8.034389071490228e-18
 4.165463608127459e-01 -1.316331961445777e-02 -7.277691040564857e-18
 1.661128852789099e+00  9.450997761274677e-02 -3.053282507676752e-17
-5.694620428118349e-01  7.693264611324548e-03  1.005521083343069e-17
 3.816909626433612e+00  2.390560594784531e-01 -7.038267391018099e-17
-1.300056901641256e+00  1.961225438166689e-02  2.293455454001462e-17
 1.094211403737458e+00  6.909848722448233e-03 -1.954379333713801e-17
-6.356115490878516e-03  8.950877462917082e-05  1.121949870428452e-19
-2.998693964574971e-02  2.624408685433921e-03  5.066885182913904e-19
-4.179225971289759e-02  4.809499754191646e-03  6.943272495627699e-19
-3.825083730560375e-01 -1.475845320497683e-02  6.958830492041497e-18
 1.849139032434738e+00  3.785626487449742e-02 -3.329659414769750e-17
-2.936872178724651e+01 -1.402027483715059e+01  6.667046672697811e-16
-6.398865964670217e+00  2.996162016900621e-01  1.107970050547897e-16
 1.019817948981659e+01 -2.214136928222308e-01 -1.792138235896456e-16
-1.192539698761694e+00  2.124862701702309e-02  2.100434453555720e-17
 1.889843961966308e+00 -4.543938519705368e-02 -3.316515441461773e-17
-1.114102315323893e+00 -2.136297094615941e-02  2.004627641746322e-17
 2.587155129052996e+00 -1.404324348282741e-01 -4.459861933134594e-17
 7.149865268541877e+00  3.561245892429120e-01 -1.308994319400347e-16
-5.544596215278071e+00  6.607399662078584e-02  9.799381715734089e-17
 3.025147145179119e+00 -3.911234056939839e-02 -5.343423690015858e-17
 2.487017070073007e+00  2.656409524666174e-03 -4.428672902904563e-17
 9.458929107600179e-01  2.444833939843593e-03 -1.685841242937976e-17
-1.323806819694649e-01 -7.026379643759094e-04  2.363091498202759e-18
-2.577752472776073e-02 -1.012944348615040e-04  4.597825626060947e-19
-3.363737240604591e-01  1.507479961930392e-04  5.984622785065227e-18
-1.880729245477752e+00  9.073961363961632e-03  3.337658875595812e-17
 5.623962849413089e-01 -3.024689199818355e-04 -1.000540498297366e-17
-8.252031636422095e-01 -3.285178003577557e-03  1.471922864265173e-17
 1.528973595236992e+00 -3.090651597682135e-02 -2.689235574716835e-17
 1.797279769245577e-01  3.857421438136950e-03 -3.238107340383880e-18
-1.072431233808068e-01 -2.204867189745294e-04  1.910784727149587e-18
-9.753105675179294e-01 -1.495462418862090e-02  1.751046826732583e-17
 5.221160009417336e-01 -3.147382023087526e-02 -8.968294776199460e-18
-9.964564440305432e-01 -1.801737292218186e-02  1.791825293443990e-17
-3.458781450398575e-01  1.073957323319122e-03  6.144279633019953e-18
 1.754039150849886e-01  1.268864388655464e-02 -3.251893104813611e-18
-3.488059072236902e-01  3.888343263155244e-03  6.167465875684660e-18
-1.277104018699373e+00 -2.235602012134335e-02  2.295728939826059e-17
-1.706460462108328e+00  5.590374998898498e-02  2.979410871494758e-17
 4.803616068574544e-01  1.107483164172471e-02 -8.662397661004261e-18
-7.881334437178973e-01  6.554913028747627e-03  1.395842542150309e-17
 5.347912097023189e-02  5.107696945190110e-03 -1.004204472263746e-18
-9.655555149737016e-01  6.461796608500655e-03  1.711681953644119e-17
 2.255400022687346e+00  3.344418850847504e-02 -4.048116058944535e-17
-1.421464382443250e+00 -6.352153031043798e-03  2.536192033418401e-17
 1.778023694467514e+00  1.411361416762303e-02 -3.178706480602423e-17
-3.498901687962765e+00 -1.763823633604996e-01  6.407939391727843e-17
 4.945964391074634e+00 -2.944271789432014e-01 -8.499420377718538e-17
 4.220737048632277e-01  3.466049462485151e-02 -7.867429039602287e-18
-1.844466074219906e-01 -2.543709796321100e-02  3.543804335952691e-18
-6.681029646475899e+00 -3.221366437226507e-01  1.222067289872242e-16
 1.902049499836731e+01 -4.294969790992944e+00 -2.943631421273853e-16
-5.261647713221411e+00 -2.352300431335882e-01  9.605420060246948e-17
-2.909926187466695e+01  2.330205392287965e+00  4.939140619414181e-16
-1.623922276008555e+01  2.455054936839778e-01  2.864738601023126e-16
 1.710105841632511e+01 -3.633414015442855e+00 -2.670017243157382e-16
-3.475297881849245e+00 -2.582320627601258e+00  8.837947765814756e-17
 5.523943693345267e+00  1.170385845391370e+00 -1.103304566149563e-16
 2.778836618857518e+01  2.397095207068517e+00 -5.191564059492133e-16
-7.131666960389583e+00 -1.300865202618376e+01  2.605756944184711e-16
 1.363491698440645e+01  4.608761955592306e+00 -2.900029669175698e-16
 2.454417257137431e+01 -3.747033877704108e+00 -3.982934163518255e-16
 9.496306063592581e+00  2.598495253793385e+01 -4.359840417433552e-16
-3.145726026312455e+01 -5.121155057862190e+00  6.124374778077815e-16
-8.448162657146089e+00  1.078836599722226e+00  1.392604776741729e-16
 6.588410811452108e+00  1.085164454353513e+00 -1.283982998903532e-16
-1.585780268414322e+01 -1.970555995637788e+00  3.024552616385226e-16
-3.052627775022425e+01  7.620369831165014e+00  4.649549938851466e-16
 2.572817088191949e+00  2.492545540139187e-01 -4.834734903281207e-17
 3.443801471225526e+00 -3.079703159617483e-01 -5.812227203652279e-17
-2.173639829495861e+00 -6.615623012838809e-02  3.936224480922200e-17
-1.182467811495141e+01 -9.176463257617756e-03  2.105285368639306e-16
 1.760599896741382e+00 -1.508408237982428e-01 -2.978214059616793e-17
 5.795973089632525e+00  5.303387331292361e-02 -1.036911585990809e-16
-1.058621486214277e+01 -5.940650488573692e-01  1.944981237367346e-16
-9.989123235838392e+00  2.716630719901447e-01  1.749771240606505e-16
 3.419523728438205e-01 -2.721740371916294e-02 -5.805801430831258e-18
 7.335448627619318e+00 -1.496593130962308e-01 -1.290053632973638e-16
 7.857794084239672e-01  1.543758340572046e-02 -1.414249744516985e-17
-4.637883746657565e+00 -2.799888340257386e-03  8.256544134367465e-17
-2.249704361852197e+00  2.131871851406528e-02  3.981713056306343e-17
-1.720265919074810e+00  1.336521078092662e-03  3.060045175707270e-17
-1.441605390353526e-01 -1.618932180157594e-03  2.582142717555705e-18
 4.179332053310595e-01  2.790304021188628e-03 -7.466289310043303e-18
-4.776468872266183e-01  1.536841508411798e-03  8.484505599943005e-18
 7.877813049422304e-01 -1.937257241233101e-03 -1.399960341829305e-17
-2.006838567379270e+00 -4.210677281675970e-02  3.614671797739416e-17
-6.839289668701313e+00  2.349222017768469e-01  1.192995775682340e-16
-1.998646092542452e+00 -1.416192683037528e-02  3.571379996859601e-17
-4.036851027134511e+00  5.510289610041990e-02  7.127441711799147e-17
 2.019399574768279e+00 -4.898005540458398e-02 -3.543437198326851e-17
-4.790572091076348e+00 -7.687432116938669e-02  8.604380048298403e-17
 5.630155427938083e+00 -4.224413739689521e-01 -9.585490011551645e-17
-6.664495262711862e+00 -3.910628721305845e-01  1.226206717856642e-16
-5.181657603951952e+00  6.983239319892264e-01  8.503875325569554e-17
 1.609247734930044e+01 -1.227058752814597e-01 -2.851240719352531e-16
-2.050825197463490e+01 -5.560257797348241e+00  4.220984359409107e-16
-9.047085490179571e+00  3.048513908639217e-01  1.578714407497120e-16
 1.327906128409734e+01 -5.203922347501517e-01 -2.309698942256173e-16
 3.556396097152141e+00  2.593193439384853e-02 -6.355675195415457e-17
 3.697146010774414e-01  3.001962668353010e-03 -6.610356412635622e-18
-1.655461239964713e+00 -1.161757974950159e-02  2.958027388338070e-17
 5.960448484206119e-02 -5.537311662682131e-03 -1.003839032882322e-18
-2.738024193750630e+00 -5.663731087862089e-02  4.930833435878170e-17
-4.259380242545002e-01 -1.065723093249234e-02  7.689574465220057e-18
-5.492978432936921e+00 -1.527417737921000e-01  9.932346971660147e-17
-1.194552183663360e+01  6.787531262156168e-01  2.056108684130175e-16
 6.043798293745568e+00 -1.728395744036053e-01 -1.057807361014566e-16
 7.883671742877604e+00  3.431785245340783e-01 -1.438253773404802e-16
-4.819590292402360e+00 -1.155557625788422e-02  8.588908761758435e-17
-2.144688252365971e+01  1.566361352339569e+00  3.655790635506179e-16
-1.559848072360004e+00  8.247124538377639e-03  2.767462092833001e-17
-1.035808065279948e+00  2.331262834285183e-02  1.819391134552128e-17
-8.425136724589544e-02  1.729700562714217e-02  1.321633276251441e-18
-4.707712729192661e-01  6.185524366179512e-03  8.314382342061534e-18
-2.830700575735587e-01  3.306332767535490e-03  5.003597855884138e-18
-2.121435161279133e+00  4.049548857925995e-02  3.733739279342850e-17
-4.076120341663484e+00  4.579612110540869e-03  7.249236980296616e-17
 1.624654030923423e+00 -6.727644473142165e-02 -2.822141539021589e-17
 3.881595016290524e-01  1.264942828057334e-02 -7.037729625347572e-18
-3.280405967813667e+00  5.325682951008789e-02  5.783154263047165e-17
 9.040396162412041e-01 -1.806426465836095e-02 -1.590285959189898e-17
-7.195158836712871e+00 -4.898214754128139e-02  1.285497079916474e-16
 4.428794423115304e+00 -2.132280714851052e-01 -7.662483863782618e-17
-3.048817630783114e+00 -1.058141545855479e-01  5.534454849662801e-17
 2.110548711071944e+00 -2.697219754329887e-01 -3.478843655288211e-17
-1.006872320865630e+01 -1.854354323800293e+00  1.982377568258814e-16
 5.256574058213483e+00 -9.885052771084865e-01 -8.339047300206643e-17
-6.312048000255849e+00 -1.448224433309109e+00  1.272104032789188e-16
-6.924875861608313e+00  7.627352242896214e-01  1.153995989084732e-16
 6.365770689286962e+00  8.734139249900988e-01 -1.222604935544790e-16
 8.098066253096055e+00 -1.234507473160652e+00 -1.314306329038475e-16
-6.092317688662708e+00 -9.226292937107008e-01  1.178997412184024e-16
-5.171824725935794e+00  5.408422922651089e-01  8.648183210634579e-17
 1.276154131282907e+01  1.305023315216980e+00 -2.405154906315513e-16
 3.751066211326723e+00 -3.197738021859682e-01 -6.346913801152983e-17
-4.400869194504904e+00 -4.215243061164488e-01  8.264972598037433e-17
-2.694190061448316e+00  2.570326009434968e-01  4.530540928039455e-17
 2.104418415478354e+00  5.387143904357779e-02 -3.800414540830607e-17
-1.573547875676965e+00  4.645932798923246e-02  2.752580872365312e-17
 1.171817149250874e+00  1.147413761826467e-02 -2.097177655708583e-17
-7.891533697665593e-01  7.511407951659258e-03  1.396674856313125e-17
 2.041556457994576e+00  2.743413365073785e-03 -3.636012006039613e-17
-1.326927030510917e+00 -6.162858320688477e-04  2.362058144826091e-17
 7.370020314622973e-01 -7.500351093764583e-03 -1.303876689489195e-17
-1.035302774200783e+00 -1.194190938790953e-02  1.854714660479396e-17
-2.042437561354145e-01  1.407480526100807e-04  3.633315131304951e-18
-1.433858854757674e+00 -3.946524341382256e-02  2.592271974217813e-17
-9.016864513600719e-01  1.620540761448316e-02  1.588008129826416e-17
-2.380170335133633e+00 -9.536820616321380e-02  4.333784384302955e-17
-8.589262484882513e-01  2.290313316719433e-02  1.505029574745527e-17
 1.283935233209618e+00 -2.014793819722410e-03 -2.282845773387924e-17
-4.489834589251752e-01  8.047810734390143e-04  7.981927385213072e-18
-3.697272956331498e-01  1.608146048235732e-03  6.563215136013046e-18
-1.199292306728608e+01 -3.035595477752414e-01  2.165473357377025e-16
 4.616027471219620e+00 -6.713892480414498e-01 -7.524943442874834e-17
 6.878106402497967e+00  5.362451964749313e-01 -1.279138325258436e-16
-8.217937426531130e+00  3.134800384392714e-01  1.430271056829589e-16
-3.365388662584450e+00  6.738509283955342e-02  5.919874828172600e-17
 1.781266976636781e+00 -1.068389503964946e-01 -3.060203921533001e-17
 6.668027442723135e+00  2.490204454678592e-01 -1.212240968518604e-16
-9.290450858168617e+00  2.482877452893947e-01  1.627835886887663e-16
-8.519200109889926e+00  9.115383564677627e-02  1.506727554670647e-16
 4.611463700743892e+00 -4.741497489683957e-01 -7.719478088213810e-17
 6.473759055328498e+00  6.251883759063872e-01 -1.216318480182548e-16
-7.572092651604595e+00  9.851690484120169e-02  1.337421956458776e-16
-1.056928138177643e+00  1.877877127939587e-02  1.861635191456651e-17
 1.718479780500055e+01 -3.318573273227143e-01 -3.024142621847784e-16
 9.454799511774674e-02  7.101641939282617e-05 -1.683324007211793e-18
-2.254882182023349e+00  2.393125239989746e-02  3.988243329679709e-17
 2.526889815484981e+00 -3.340212638964001e-02 -4.462582373579421e-17
 1.872515843451314e+00  2.752849028851066e-02 -3.360649827411199e-17
-2.176758531412478e+00  2.745720660778049e-03  3.870980331435843e-17
-5.090744626834667e-01  1.355144045826372e-03  9.045663697108392e-18
-2.521677482404382e-01  8.545571601573164e-04  4.478845610885157e-18
 2.699211180526382e+00 -2.563966626434293e-02 -4.777224443423703e-17
 2.249539888795403e+00  4.710474394252161e-02 -4.051722985936800e-17
-1.297630050266222e+00  2.666559284246989e-02  2.281889538280517e-17
-3.910226562543490e-02  1.082055600988280e-03  6.847537314715121e-19
-5.017450471112728e-01  9.998845242564806e-03  8.826417132259307e-18
-1.776623635028302e+00  3.887622135641765e-02  3.121769776227593e-17
-3.791106866338717e-01  8.454554381642753e-03  6.659859411210781e-18
-1.152869602730461e+00  2.622270628242550e-02  2.024726098664626e-17
-1.211871378843023e+00  3.975065124666464e-02  2.115827327523965e-17
 4.115323649699159e-01 -8.233559886131586e-03 -7.239112487538208e-18
-3.520485794634112e-01  8.662820315573116e-03  6.176117081911123e-18
-2.126536282540374e-01  4.895844297079582e-03  3.734121955460671e-18
-3.829996597703185e-01  9.659918528077297e-03  6.716683648238983e-18
 5.512991046600402e-01 -1.378431941235536e-02 -9.669396306326827e-18
-4.779114614476451e-01  9.333006181024931e-03  8.409111285290584e-18
 8.402181831382015e-01 -2.692410238687703e-02 -1.467604945528129e-17
-1.635292637933754e-01 -2.532085320449398e-03  2.936214550018539e-18
 2.160764735108225e+00 -8.641022698314106e-02 -3.756555221753218e-17
 2.590929422608161e+01  8.747204573374190e-01 -4.700742313843866e-16
-9.574696638264233e-01  9.883569729178133e-03  1.693776476262964e-17
 3.597435857942985e-01 -2.510511699856063e-03 -6.376271619147998e-18
 4.187639535509466e-01 -3.339177902206392e-03 -7.418095236915778e-18
 5.926175151539491e-01 -4.770468503455172e-03 -1.049732075179881e-17
 1.618074692772728e+00 -9.067108181678744e-03 -2.870240808868525e-17
-1.736006144160851e+00  2.621716282655764e-03  3.086736293601946e-17
-3.614009652101249e+00  6.277072968107127e-02  6.367066624576427e-17
 5.051482491987226e+00 -2.850242061111137e-01 -8.696863629756821e-17
-7.705473063674000e+00 -9.962983332302301e-02  1.381517449452028e-16
 1.723589472475179e+01 -2.728341022338425e+00 -2.787005934922211e-16
-1.161304951997151e+01 -1.503700657708023e+01  3.611678488244551e-16
-5.722441343663499e+00  6.886052230125274e-01  9.476250116964444e-17
 6.853913457749116e+00  2.189804250392917e+00 -1.444730087808395e-16
-1.076004504438257e+01  1.645225110358290e+00  1.745837462782251e-16
 2.162089415953252e+00  1.443304108190670e-01 -3.995990273393032e-17
 1.619184457901355e+00 -1.660154052903749e-01 -2.710957088078653e-17
 4.316915609847233e+00  3.086272039982558e-01 -7.999569508639575e-17
-2.889318810633453e+00  2.852939322057841e-01  4.848758321095380e-17
 3.883200316716625e+00  3.907044546900078e-01 -7.312052802515020e-17
 9.760640080408415e-01 -8.075117245289101e-02 -1.654053437562001e-17
 4.430495658213274e+00  2.763636021004010e-01 -8.168549074023713e-17
-3.567275567491683e+00  1.505177647734865e-01  6.193740855154345e-17
 3.470048908563355e+00  8.385877219628782e-02 -6.261527797857052e-17
-1.842753205156790e+00 -2.169650349663990e-03  3.281628377159770e-17
 1.269026408269326e+00  9.480834028631997e-05 -2.258481280499730e-17
-3.274776550678443e-01 -3.109242839697677e-03  5.859801836178543e-18
 8.243575986307657e-01 -1.063235006731702e-02 -1.456118326740144e-17
-7.935292216472293e-01 -2.087453397148908e-02  1.433627727179342e-17
 4.685387318714371e-01 -1.375198298258573e-02 -8.196909006247125e-18
-3.712355870989719e+00 -1.622172422231135e-01  6.773252411043080e-17
-1.728843109567421e+01  4.035596236920776e+00  2.662039649404690e-16
 7.845032444490301e-01  3.451089774034569e-02 -1.431575796785710e-17
-2.758142717614910e+00  1.015825497267256e-01  4.804071589040328e-17
 6.025017532735002e-01  2.240061874370066e-02 -1.095239561401889e-17
-2.764269933270330e+00  5.298996318658623e-02  4.864902812758174e-17
 1.220187066667169e+00 -6.703880324457098e-04 -2.170779634861728e-17
-9.913819081585107e-01 -1.307000829411943e-03  1.765625257943994e-17
 1.398680524153633e-01 -1.521948224066117e-03 -2.473481351991074e-18
-3.237181869333061e+00 -6.409659683089954e-02  5.826808199219523e-17
 3.468188743578777e-01 -1.702780582259557e-02 -5.997101082931138e-18
-6.406794505618667e-01 -1.322205557603039e-02  1.153750689483445e-17
-9.709243041862495e+00  2.396137748248149e-01  1.703256170470294e-16
-3.022289973485607e+01  9.656836092689637e-01  5.279305043667582e-16
 6.486789783418342e+00 -2.444605378336462e-01 -1.129284187516821e-16
 4.046985057103447e+00  1.794324223395315e-01 -7.386452948627963e-17
-6.670022686645673e+00  1.761658839850782e-01  1.168909695419665e-16
 2.964676577999354e-01 -2.698230865420800e-03 -5.248272293417501e-18
-1.572843070532470e+01 -2.003831678728576e-01  2.819650498500323e-16
-1.776008134854543e+00  2.031319054551406e-02  3.139747260083172e-17
 1.749486489338335e-01 -2.158527029384145e-03 -3.091241810712460e-18
 2.501102837519429e-01 -2.164283939521427e-03 -4.428773610033502e-18
 2.202096762812101e-02  3.467759277083593e-05 -3.922456927375747e-19
 6.038313104419742e-01 -3.031610449765004e-03 -1.071474974253515e-17
 2.343422434089859e-02 -1.306765490273935e-04 -4.156973192064445e-19
-3.089200101147405e-01  8.641300759285903e-04  5.488721441542157e-18
-1.600778526098809e-01  3.942399367689925e-04  2.844725701011998e-18
 7.978361103910241e-01 -1.918227469772420e-03 -1.417873618909451e-17
 1.934779730405560e-01 -8.939382457535349e-05 -3.442252830979560e-18
 4.342787869282463e-01  5.696347939131428e-04 -7.734361829799928e-18
-1.439448661382172e-01 -7.484536216088604e-04  2.569360679488175e-18
 3.789367967396627e-01 -2.542081750677020e-03 -6.717513315171410e-18
-1.005146489479134e-01 -5.927993914297138e-04  1.794868873632619e-18
 1.189991726261195e-02 -4.325174850816386e-04 -2.073292302698491e-19
 1.952616799267664e-01  2.290551639669105e-03 -3.498449088951958e-18
-6.544343627981488e-01  1.083761517820004e-03  1.163530486413384e-17
 1.049398140506692e-01  8.843486161140283e-04 -1.876615530607673e-18
-4.795374364281216e-01 -8.755214218753298e-04  8.542936359425494e-18
 2.356156506615651e-01  3.878703271372643e-04 -4.197046780009048e-18
-2.743831038801367e-01 -1.137002364799583e-03  4.894656915815301e-18
 6.306462270412857e-01 -3.314659878317479e-03 -1.118904493720918e-17
-8.403673961392767e-01 -1.124976765744566e-02  1.507092751677504e-17
-5.533557713265739e-01  4.687715266930827e-03  9.799461477415463e-18
 2.979880084288568e-01  5.263387350904816e-03 -5.357131395255090e-18
-4.541802030934730e+00  1.015589667807813e-01  7.978330321801072e-17
 3.417884607002439e-01  2.802044185215233e-03 -6.111323343309857e-18
-7.406247917616744e-01  4.064189181068674e-03  1.313854347849310e-17
 2.257546355705487e-01  8.317684740733817e-04 -4.026119139618256e-18
-3.516639902808372e-01  3.194787133354322e-04  6.254997652310492e-18
 1.445037822373771e-01 -1.647831611462095e-04 -2.569924088582655e-18
-8.422000154652053e-02 -3.016897052238329e-05  1.499105364252090e-18
 1.147837779602722e-01 -4.830129403772816e-04 -2.037751469945556e-18
-1.528828960189971e-01 -4.199147380333676e-04  2.725047977360807e-18
-1.410326195044503e-02  5.648169091618572e-05  2.504040404836717e-19
 4.295813502102949e-01  2.901515010444835e-04 -7.647893803687536e-18
-2.359844061559499e-01  9.943258393186626e-05  4.198602366255080e-18
 2.732849252290133e-01 -4.666645987184649e-04 -4.858636423383655e-18
 2.301204337978661e-01 -3.442062923811329e-05 -4.094913958287258e-18
 7.567775988999360e-02  3.984913313920549e-07 -1.346780099396046e-18
 5.725248718543134e-03 -2.735553167221064e-07 -1.018848151794489e-19
 7.546616257393957e-02 -2.455882025426014e-05 -1.342758048511605e-18
 1.603016366513402e-01  1.183151045170596e-04 -2.853974485010205e-18
 1.476097706549366e-01  8.794253657485000e-05 -2.627795538422173e-18
 8.439010296724836e-02  1.023513170272129e-04 -1.502874165222068e-18
 6.796482724689028e-02  6.616280758881789e-05 -1.210194969065202e-18
 2.370063494825326e-01  2.207795399735994e-04 -4.220079131511182e-18
 3.259280370054101e-01  5.810790564669934e-04 -5.806248579052881e-18
 7.899257451909923e-02  1.618698027056673e-04 -1.407430243353874e-18
 1.207700668674738e-01  2.097471015235482e-04 -2.151402474918159e-18
 2.202100954612500e-01  3.827648192099689e-04 -3.922834078895122e-18
 1.194796066703416e+00  1.696903850757384e-03 -2.128025628338092e-17
-6.718060509429202e-02 -5.992070773075340e-04  1.201715639902076e-18
 2.171727254682549e+00 -1.787907645997364e-02 -3.846477603618828e-17
-3.488642373276888e-01 -6.630743242974554e-03  6.276583725935095e-18
 2.042044490045119e+00 -4.301901752697987e-02 -3.589861276168363e-17
-5.932649548227419e-02 -1.360829082129941e-03  1.069767787817418e-18
-4.959975146903123e-01  6.663267892497953e-03  8.758404758997848e-18
 2.517832709995373e-01  5.921517616904479e-03 -4.541625088774645e-18
-5.098042506641428e-02  2.306578917325058e-04  9.048875495379032e-19
 9.293636590007024e-01  1.551582391646784e-02 -1.669855433439513e-17
-3.775284901011755e+00 -7.847248431630708e-03  6.726632581238868e-17
-3.951416874926807e-02 -5.070767166361165e-04  7.084117984481236e-19
-1.866022514014604e-01 -1.234503711673489e-03  3.333493724444100e-18
-7.375003399428071e+00 -1.883124135447925e-01  1.331818243633072e-16
 1.261818700062486e+01 -1.519629842923031e+01 -6.841924390909053e-17
 5.706287225620218e+00  1.768514839325944e-01 -1.033672726253101e-16
-2.174767028326444e+00 -4.571061997893897e-04  3.870727002521366e-17
 6.700556562147303e-01 -1.422887715636847e-03 -1.190982001796807e-17
-4.535637858703742e-01 -2.761960321027116e-03  8.100086734617800e-18
 6.073901816561884e-01 -1.109778767472934e-02 -1.069520708017598e-17
-3.252651246533753e-01 -2.886614018303998e-03  5.818139794066343e-18
-1.782475269224608e+00  4.246477299951366e-02  3.128496357856438e-17
 3.375289648024304e-01  3.891455220213415e-03 -6.046713819384640e-18
-4.928112968668218e-01  6.477098666234726e-04  8.763509894691577e-18
 3.843501414809566e-01  1.137595912773552e-03 -6.851657620449879e-18
-5.654127766156382e-01 -1.740988090075152e-03  1.008008282862612e-17
 1.681271557721019e-01 -3.180624890095189e-04 -2.988755309764026e-18
-1.244848293457797e+00 -1.476517932652309e-02  2.230526715998188e-17
-7.930310683028132e-01  6.758830154448518e-03  1.404348932609529e-17
 1.168277861371281e+00  5.422422997126966e-03 -2.084661154219400e-17
-1.933295591946702e-01 -8.484867611245905e-04  3.449248018799923e-18
-1.609456312578814e+00 -8.566215566848076e-03  2.873020967258794e-17
-1.704277819617104e+01  1.144948896938678e+00  2.915326331439919e-16
 1.228283727671629e+00 -2.115345527461728e-03 -2.183703967331465e-17
-6.332261138799756e+00 -1.949291581970374e-01  1.146929666440477e-16
-4.287260444006405e+00  4.198722412213707e-02  7.586551015539083e-17
 3.778314885802322e-01 -7.164854615991193e-03 -6.650345756956419e-18
-2.297250909003411e+00  1.703747250199944e-04  4.088056963302131e-17
 9.383325323570437e-01 -2.846285679331161e-02 -1.640630118693721e-17
-1.225471856323740e+00 -3.182734309311719e-02  2.213574786734220e-17
 6.412877740936641e+00 -3.450658036815660e-01 -1.105793831846010e-16
-3.375668240539442e+00 -1.126324320047051e-01  6.123130030614053e-17
-1.047745097895667e+00  1.129416909025302e-01  1.748543896733609e-17
-4.248937027459065e-01 -1.386127445420066e-02  7.703909831957236e-18
 8.261975638194001e-01 -6.283421786898204e-02 -1.405757244436469e-17
 2.842647117578991e+00  9.825109114092979e-02 -5.159779056069741e-17
 1.584101276659730e+01 -3.382459610910386e+00 -2.471561742755217e-16
-2.474357578047027e+00 -1.370362273366129e-01  4.544214207320037e-17
 1.418838607739364e+00 -1.129822163316521e-01 -2.408907423873571e-17
 9.566028595783944e-02  1.225866691563888e-02 -1.828342245100863e-18
 1.767536939855599e+00 -1.613274891531911e-01 -2.979784688769915e-17
-1.057383615931029e+01 -3.301681985150354e+00  2.220976102174283e-16
 1.532918852822887e+00 -1.347393333703969e-01 -2.589572181064567e-17
-1.185330368906814e-01 -3.769640321276345e-02  2.496753629576838e-18
 3.266186056795013e-03  9.649585000225837e-03 -1.572716527737063e-19
 1.568979385226509e+00  1.091346544723636e-01 -2.904317863960579e-17
-7.302968061282501e-01  6.519204385585424e-02  1.232667822962692e-17
 1.444418077967666e+00  1.674935672006226e-01 -2.742607821725787e-17
-6.657834487645014e-01  6.012526036433620e-02  1.123064543387231e-17
 5.553394163654172e+00  2.726303650598925e-01 -1.016304514263615e-16
-2.199679410632050e+01  3.871030280737863e+00  3.516857599498775e-16
 1.173726544748293e+00  5.876089514708223e-02 -2.149161077883891e-17
-4.327057355830452e+00  1.413614828729522e-02  7.685990336068315e-17
 2.204321411571776e+00 -1.661539214029099e-02 -3.905781180865117e-17
 2.303630403496692e+00  3.383168912876465e-02 -4.134345920381369e-17
 2.933281655157441e-01  4.706896169863766e-04 -5.224960775057801e-18
 1.065199769107122e+01  2.683821617511795e-01 -1.923225339734365e-16
 5.417355714894170e-01  3.137994557133368e-03 -9.673072458531069e-18
 3.762704838879812e-01  4.246575164808634e-03 -6.739814105005246e-18
-3.424728016992775e-01 -1.928356251283878e-03  6.114525183378243e-18
 1.505874373198190e+00  1.053372302698387e-02 -2.690706091736222e-17
 2.943716595469447e+00  8.136374463671536e-02 -5.322293124090555e-17
-5.170558467341052e-01 -3.866635031942965e-03  9.241353829416137e-18
 2.723482289099418e-03 -1.238924791810341e-04 -4.719466620142635e-20
 9.824957449976853e-01  8.027846074593815e-03 -1.756716694581461e-17
 3.186043432763409e-01  1.516148644379875e-03 -5.685522189117780e-18
 5.246424295946059e-01  1.055741332916191e-02 -9.445111543359347e-18
 6.043283745794649e-01  1.462927963777990e-03 -1.076977531606610e-17
-5.039318223937357e-01 -9.585338677648318e-03  9.066553776563338e-18
 2.562758197144366e+00 -5.192456828141652e-02 -4.507383300343802e-17
-4.518117942353356e-01 -1.275357074228836e-02  8.171568110786862e-18
 4.895419645402300e-01  6.970312883434460e-04 -8.719144949061051e-18
-5.709879934876610e-01 -2.304059997753000e-02  1.039814623929763e-17
 6.020374441107547e-01 -5.206962384400809e-03 -1.066047481632852e-17
-3.531350164348872e-01 -1.489234496583352e-02  6.437472284577622e-18
 1.099022706257914e+00 -3.673088312580765e-02 -1.918102353992597e-17
-3.563213155907642e-01 -2.959508354428970e-02  6.645241588495089e-18
 5.931842288591066e-01 -1.705276699431157e-02 -1.038120991181736e-17
-2.710853502587918e-01 -1.528160414302710e-02  4.981300096331239e-18
 1.156822282024866e+00 -4.021304345143908e-02 -2.017385797475792e-17
-1.904763021869602e+00 -1.719518166314551e-01  3.566427256865194e-17
-8.284794538409581e-01  1.440884231513058e-02  1.459573450531048e-17
 4.026854295735603e-01  5.555227798658388e-02 -7.737047035585004e-18
 7.459604947660420e-01 -4.336750532649417e-02 -1.282967144986166e-17
-2.997083710426734e+00 -3.467467695742074e-01  5.689937683071231e-17
-6.944144176948165e+00  2.302620483087446e-01  1.212134700051207e-16
 6.215165413389562e+00  2.094803806778391e-01 -1.127586170821903e-16
-6.212982241920074e+00 -1.503059199417586e-01  1.121117688900121e-16
-6.421355637049185e-02 -6.621220882180652e-03  1.210787468372933e-18
-2.560178555901242e+00 -9.262927410184002e-02  4.651316344322185e-17
 1.337328760059422e+01 -9.317190837860845e-01 -2.284205299684722e-16
-3.116667639680756e-01  1.033145965472428e+01 -1.006055126294116e-16
-1.269446399317565e+01  1.453027689282772e+00  2.109837976010746e-16
 1.731420271034457e+00  1.547199569766537e-01 -3.240238038851084e-17
-1.236530204926736e+00  5.147987000368454e-02  2.147659302486893e-17
-2.196621333749574e+00 -1.542779467882608e-01  4.067664670383283e-17
-1.332031059735486e+01  2.336382472518500e+00  2.130453350554989e-16
 1.938327834621355e+00  1.065828323467615e-01 -3.558995584372818e-17
 1.226576425188280e+00 -7.189332031329521e-02 -2.108971284139215e-17
-5.559538591223905e+00 -4.710634410782871e-01  1.037786265993254e-16
-2.300068714274456e+01  8.785903874912181e+00  3.190526932597353e-16
 2.573159188706635e+00  1.684425620193213e-01 -4.752312327439158e-17
-6.151469885097097e+00  3.499003665663953e-01  1.058776451829387e-16
 2.708120376443322e+00  6.213768639037062e-02 -4.883267460974444e-17
-3.599208912163467e+00  9.163501950331046e-02  6.311069934730321e-17
 7.357638836268536e+00 -1.443650305562207e-01 -1.294546613665897e-16
 2.456202147936864e+01  3.827643683443508e+00 -4.764381192127078e-16
-3.657405605928404e+00  8.843926239440522e-02  6.417921417394259e-17
 6.069725114824793e-01 -8.613368321388724e-03 -1.071330060928259e-17
-1.193304148160843e+00  1.688709850718062e-02  2.106276193788546e-17
 1.491347596127181e+00 -4.235317194499024e-02 -2.610514596054430e-17
 2.304330195143421e+00 -8.369433404428321e-03 -4.092231162714232e-17
-3.599358216052982e-01  2.881559028993191e-03  6.375880321615494e-18
-2.015207598521946e+00  1.805939674857139e-02  3.567746929358845e-17
-6.275120937262551e+00  1.076233745740861e-01  1.105674712383530e-16
 4.487860612171455e+00 -2.711838533044342e-01 -7.708051733085329e-17
 4.187881192602519e+00  1.992170529781105e-01 -7.657522414524733e-17
-2.536404033684357e+00  5.897451320463198e-02  4.453239361201993e-17
 1.229557662255813e+00 -2.363970785957438e-02 -2.163855585868588e-17
-2.344658234685991e-01  2.666016449070230e-03  4.145206659360863e-18
-1.312307534082135e+00  3.043942212365880e-02  2.304132394417039e-17
 4.527056236867605e+00 -8.592687166274976e-02 -7.968149842054528e-17
 4.468746150727799e+00  9.806544224580638e-02 -8.053425515762540e-17
-1.894953391108827e+00  2.738575779120140e-02  3.344157726416645e-17
 3.177668849194385e-01 -4.215699890633181e-03 -5.611725982737019e-18
 3.911678502307860e+00  3.057578654312795e-02 -6.992713991518692e-17
-9.444286995300937e-01  4.045840650150847e-03  1.676566571889585e-17
-3.256521496744048e+00  4.507649111199163e-02  5.749053999811881e-17
 9.411002382808347e+00 -6.724225212803235e-01 -1.605711161182513e-16
-5.462571092064242e+00 -1.108666195217494e+00  1.086041109830412e-16
 8.897951275050824e+00 -1.096092660942648e+00 -1.470877028719125e-16
-9.206475347517419e+00 -2.214682448804088e+00  1.865952683061126e-16
-7.596097330038464e+00  1.867612709710324e+00  1.159925707990031e-16
 1.091045783486964e+01  2.548374890812729e+00 -2.203482378807297e-16
-5.516973309351007e+00  7.511275246780145e-01  9.046355846630705e-17
 9.170653194826201e+00  2.720925715159843e-02 -1.634822779845489e-16
 9.409036609183926e-01  2.585341384953526e-02 -1.701013743280679e-17
-5.817999804220371e+00 -1.078539216525303e-01  1.046464063492865e-16
-7.321502875453169e+00  1.363583105899397e-01  1.288938449663782e-16
-2.417272223468685e+00 -8.617215993631903e-03  4.310678141071593e-17
-1.007138239502086e+00  1.847936431390598e-02  1.773335755645737e-17
 2.345835431007533e+00  3.508393464464393e-02 -4.210741438959295e-17
 4.448102409375265e+00 -1.170870188686598e-01 -7.795626168512482e-17
-3.228079801155292e-01 -5.020625644996032e-03  5.796338171168301e-18
-3.611282196298498e+00  5.906064740759523e-02  6.366024770626268e-17
 4.874371100604862e+00 -4.094062709078611e-02 -8.632459799605857e-17
 2.186929736770882e+00  1.241474562303044e-02 -3.904658033126464e-17
 7.533008859665817e-01  6.740343168571241e-03 -1.347514241312446e-17
-8.146858909841282e-01 -1.210571072803823e-02  1.462268899442360e-17
 8.650141040883399e-01 -1.297740841658604e-02 -1.526061964744857e-17
-1.385981626925873e+00 -3.076842982509783e-02  2.498133074591195e-17
-1.026253973314542e+00  1.486318453181645e-03  1.824814223295940e-17
-1.853703371546852e+00 -6.020836779090483e-02  3.360748177140008e-17
-3.199674597152648e+01  2.816094436447961e+00  5.404859144189876e-16
-2.155815019375509e+00  1.432236066442965e-02  3.821814277662277e-17
 1.563474676566477e+01 -9.940682269376475e-01 -2.680252784504984e-16
-2.846071478696876e+00 -8.075761215126182e-02  5.147899200900068e-17
-1.239542274485997e+01  4.460208875857650e-01  2.160086309631881e-16
 1.639871370601400e+01 -1.003183296270858e+00 -2.815273276365212e-16
 3.985753356459154e+00 -2.902597242076840e-02 -7.063300403419922e-17
-1.365900172698584e+00  3.732211072147759e-03  2.426947577227749e-17
-1.753260201676323e+00  1.755993787341657e-02  3.102093468776251e-17
-2.774383610258737e-01  5.922524681120414e-03  4.876494785314466e-18
-6.623815040330789e+00  1.340128237141805e-01  1.165017567380541e-16
 5.316755109222885e+00 -4.740465554285523e-01 -8.974734307486317e-17
 6.415446878114161e+00  1.559769165934090e-01 -1.157731359756664e-16
-1.168001739586269e+01 -2.183611406695034e-01  2.101034233681896e-16
 3.707900813121809e+00 -5.359717362960617e-01 -6.047960305795484e-17
 1.057341612391855e+01 -2.303575708473813e-01 -1.857997119963532e-16
 7.167256327895406e-01 -2.120309521568321e-02 -1.253713347371182e-17
-5.254199914856194e+00 -1.123826022543046e-02  9.362022396783736e-17
 2.963332660794740e+00 -2.783549383598231e-01 -4.987604365991514e-17
 8.728540370409585e+00 -5.221695312646658e-02 -1.547982774691610e-16
 2.813952136711100e+01 -5.188926880807409e+00 -4.474620100739723e-16
-1.170158567747492e+00 -6.568876480638227e-01  2.757364948398597e-17
-9.931078355479666e+00 -7.286980608379906e-01  1.842224934145802e-16
-1.788812488785491e+00 -5.205351505090719e-02  3.236888296925588e-17
 3.602908122132019e-01  2.663074999283089e-03 -6.439166902112026e-18
-3.467605163689603e+00 -8.250773661277666e-02  6.255790721664657e-17
 1.852505048103114e+00  3.959277122831798e-02 -3.337433842970984e-17
 1.761212043581567e+00  7.311225509471946e-02 -3.209407102679838e-17
 6.513570296249899e+00  9.459002436624228e-01 -1.256355344141469e-16
-7.225523553454519e+00 -6.977787112929278e-01  1.357562333333771e-16
-3.197621219527358e+01 -6.050766857908457e+00  6.312242699964234e-16
-7.562042237097800e-03 -2.308374792780841e-02  3.717526823560724e-19
-6.047135316422171e-01  1.135636737073029e-01  9.594773142196819e-18
 1.015932945044456e+00 -9.613648637730415e-02 -1.709197109507419e-17
-6.918312679749623e-01  7.545816211826446e-03  1.223443213891939e-17
 1.325709634762217e+00 -2.955546053662559e-02 -2.328891269438782e-17
-5.044308103298110e-01  1.185327316029806e-02  8.855159901640365e-18
 1.833199171681167e+00 -1.023043123112589e-01 -3.157282634899426e-17
 2.768209495024017e-01  2.323571967479408e-02 -5.165097562346246e-18
 2.263145630808349e+00 -9.296026775999015e-02 -3.932024308765432e-17
-4.730496668214894e+00 -1.794908349852021e-01  8.602903406969637e-17
 2.028062571420930e+01 -2.545113072251517e+00 -3.347678139398992e-16
 1.299814973105661e+01  5.971919845684934e-01 -2.374535099183390e-16
-2.631923249509888e+01 -1.914126241382363e+01  6.650516548418989e-16
-4.885825411703976e+00  5.156429479771425e-01  8.165104733332161e-17
 2.332721401633772e+00  1.885906617257064e-03 -4.153293694037578e-17
 3.388699921933127e+00 -2.223177277809204e-01 -5.802172341111623e-17
 2.204604427937546e+00 -4.051321010026537e-02 -3.881730702516678e-17
-2.978149559232629e+00  4.120317201738630e-02  5.257637625294531e-17
 2.190960171673118e+00 -6.194513230531259e-02 -3.835428599537502e-17
 2.353569584294525e+00  9.209078745963394e-02 -4.283077755046966e-17
 3.430665051359542e+00 -1.498978580361708e-01 -5.951263081059518e-17
 5.145329961328462e+00  2.290674794217794e-01 -9.392086936819364e-17
 1.346670082021760e+00  9.701555226737843e-03 -2.406528046729771e-17
 1.215318821117922e+00  4.382987023619775e-02 -2.207838409624276e-17
 1.723493510472855e+00  2.663087475274750e-02 -3.094524543047795e-17
 1.815295927876202e+00  6.295230092217605e-02 -3.295216842312622e-17
 3.644433214092554e-01  1.371273578323461e-02 -6.626597002122672e-18
-4.648503766263373e-01 -1.929396182805043e-02  8.470805402063836e-18
-6.386460346115765e-01 -2.328588407625224e-02  1.160472198987280e-17
-3.131819599472311e-01 -1.120303903340084e-02  5.688553710757852e-18
-2.975905943390413e-01 -1.065209568722832e-02  5.405426019199858e-18
-3.357037474032674e-01 -1.204875753028734e-02  6.098045233330521e-18
-2.317930884168008e+00 -8.709555859986765e-02  4.214522024300127e-17
-3.691480038999141e+00 -7.010827011107489e-02  6.641462765947608e-17
 4.865995686775640e+00  1.123594224262408e-01 -8.775064986570827e-17
 4.495583556334135e+00  2.592594897008016e-01 -8.266806898663497e-17
-9.229690879162959e+00 -4.569645727861141e-01  1.689485037540728e-16
-8.289794567654656e+00  6.923975652817126e-02  1.468153694122050e-16
 9.477097961307425e+00 -6.384904089733651e-02 -1.680002372072005e-16
 6.417390833785153e+00  8.047813005974908e-01 -1.224739603398508e-16
-7.951169953510047e+00 -1.753769162379047e-01  1.433024879242101e-16
-4.171184998761775e+00 -5.875529600930363e-02  7.483490196220065e-17
-2.396290142240434e+01  1.321184101394181e-01  4.250909462958626e-16
-2.512575625761220e-01 -5.431404612140161e-03  4.527233756413771e-18
-4.155348483937517e+00 -7.336073135727811e-02  7.470313783071620e-17
 1.290324750463228e+00 -6.805497499236136e-02 -2.226362794830264e-17
-5.739900524618990e+00 -4.692453777382665e-01  1.069697024589226e-16
-3.898153857487455e+00  2.452166476548570e-01  6.685278584161737e-17
 3.711302154348224e+00  4.965223428176531e-01 -7.114863553444308e-17
-4.264200223065234e+00  1.201349460092948e-01  7.465218656138417e-17
 2.505268859542180e+00  2.230899162380576e-02 -4.481346453313753e-17
-6.540653178555174e+00  7.488138713192426e-02  1.156293462651699e-16
-6.347616399069353e-01  1.917957494494187e-03  1.127663422281641e-17
-7.317544316920234e-01  3.089925688593257e-03  1.299069508860249e-17
-1.072983679999696e+00  1.761595448378280e-03  1.907692475528332e-17
-4.076055796955877e-01  2.561761475610311e-03  7.227506333800284e-18
 2.827418268365916e-01 -2.533966289303306e-04 -5.029124516365039e-18
-1.387056982308029e+00  3.344142208299520e-03  2.464997369522812e-17
-2.152821459131578e-01  1.812799584483175e-03  3.812576727847371e-18
-1.186288568940892e+00 -1.116628694144761e-03  2.112289308201967e-17
-3.913193681752341e-01  8.779811571670145e-03  6.873785565763872e-18
 6.110306619715515e-01  6.082147147133940e-04 -1.088026867658619e-17
-1.494661414013318e+00  1.555743619731876e-02  2.643943575382506e-17
-4.838121597032854e-01  5.544918296929431e-03  8.553042473005230e-18
-1.126892240229313e+00  1.468252124310118e-02  1.990353405379657e-17
-2.120085873412997e+00  3.570237690301586e-02  3.736262805915263e-17
 7.936470679009847e-01 -1.496497296351267e-02 -1.397013660893598e-17
-8.724385217154854e-01  7.923890667177526e-03  1.544466907659172e-17
-2.527469453833688e+00  6.952382758198901e-02  4.426500174135632e-17
 1.208888621322852e-01  6.934565540901580e-04 -2.158486517545325e-18
-4.492413397786665e-01 -2.665998881841086e-03  8.022177685296393e-18
-5.418408226476082e-03 -1.089313958013724e-03  1.076193429048155e-19
 2.721954273240648e+00  2.520113598109594e-02 -4.869935567431205e-17
-5.896922919995877e-01  1.464771991664488e-04  1.049277274364868e-17
 3.226067949018119e+00  2.750332443317420e-03 -5.743998601466289e-17
 3.126381556617265e+01  1.771519677820445e+00 -5.745786120180197e-16
 6.690968686142673e-01  6.539750631944355e-03 -1.197457046700979e-17
 1.155911870490452e+00  2.162109179092962e-02 -2.079297931394004e-17
-9.007966853340126e-02 -1.277884175829479e-04  1.604388138577038e-18
 6.231529082143650e-01  6.831361917536792e-03 -1.115993908713608e-17
 6.433658390377559e-01  7.141448321470221e-03 -1.152283832300125e-17
 2.432829165282179e-02 -1.518589552962394e-04 -4.313907817809733e-19
 6.427564596593268e-01  6.717225062823890e-03 -1.150763494877473e-17
 9.341584885302792e-01  1.277354373080065e-02 -1.675570813312135e-17
 6.267698945612636e-01  8.538054674662100e-03 -1.124184332048177e-17
-6.566461396889810e-01 -8.050966753519436e-03  1.176852208586762e-17
 3.513977215862139e+00 -2.201836693189138e-03 -6.251279309545400e-17
-3.243421173702495e+00 -1.532025541786587e-01  5.929464921802454e-17
 3.745317690746560e+00 -1.428635725888998e-01 -6.518452457456350e-17
-1.626796059796562e+00 -6.670163349318886e-02  2.963611146418930e-17
 4.581240214591065e+00 -5.568621444656371e-01 -7.580707806874460e-17
-2.055121543085655e+00 -1.235105646951519e-01  3.784236547777480e-17
 4.853983908641290e-01 -8.171905411649533e-02 -7.798609755515192e-18
-1.119184466771484e+01 -2.895694133039145e+00  2.289244315798367e-16
 6.700528329316849e-01 -7.021194241052067e-02 -1.120298724034238e-17
-2.979177195530710e+00 -2.622201059472724e-01  5.571222823489112e-17
-9.655539690757342e+00  2.022347769006412e+00  1.510529576384892e-16
 1.074449523271433e+00  2.379585285286774e-01 -2.156604841218639e-17
 2.734397314207566e-01 -5.969881191249368e-02 -4.252802585508672e-18
-5.227088241084778e+00 -9.604735320382772e-01  1.028907869844226e-16
-4.072497149319283e+00  3.239294942284331e-01  6.914668671966253e-17
 3.053066030986817e+00  2.492348289483447e-01 -5.689374916981313e-17
-4.160826481948844e+00  5.356397420015928e-01  6.854336679410719e-17
 1.915774910992993e+00  1.282810327915649e-01 -3.541154077139773e-17
-5.733817389424858e+00  3.214315281250769e-01  9.873752783653700e-17
 8.561015178654978e+00  5.584308170315532e-01 -1.580911508946999e-16
-5.896649045491550e-01  1.748361090958937e-02  1.031415260204740e-17
 1.275680369702584e+00  2.953763621153457e-02 -2.300574234778259e-17
-7.578948642433245e+00  2.095539436167974e-01  1.327233411814330e-16
 2.011929767775137e+00  4.069866813365884e-02 -3.622285416065643e-17
-2.075877262208155e+00 -1.413736228171694e-02  3.708796834524403e-17
-1.936899715145272e-01 -1.538006853766645e-03  3.462746544941383e-18
-9.849499530514895e-01 -7.862340955586734e-03  1.760914200110182e-17
 4.047084060202923e-01  1.562385615834981e-03 -7.218321673089805e-18
-8.338554077830149e-01 -7.312685521979988e-03  1.491458686498656e-17
 1.137283702503128e+00 -1.871605930772971e-03 -2.022009008697113e-17
-1.619806820842000e-02  2.322873008009666e-03  2.643972671996277e-19
-3.105651411647127e+00 -1.211661355022059e-02  5.539326522902825e-17
-4.185273171169163e+00  4.010659393498656e-02  7.406984779529561e-17
 6.073419535570903e+00 -1.143703212689067e-01 -1.069086317758157e-16
 6.568552599942278e+00  1.094645033630370e-01 -1.180199367656677e-16
-5.036824302617216e+00 -1.551834423979391e-01  9.123075010640118e-17
-1.601301378311370e+00  1.725307674843265e-01  2.672437717245562e-17
 4.496149907161025e+00  2.422628402798996e-01 -8.250351346630606e-17
-4.522354602317256e-02  9.796010372425555e-04  7.947419151077482e-19
-1.967655726319339e+00 -1.081701377166986e-01  3.612818961238399e-17
 1.867023488925347e-02  2.552683050271083e-03 -3.584869986082886e-19
 1.182191685452531e+00  3.556997689107632e-02 -2.140397980386444e-17
-1.090442482380231e+01  1.099081717635603e+00  1.827645825227194e-16
-8.851253003685636e-01 -2.305485210788734e-02  1.598874076846370e-17
-1.060803906063058e+00  2.266683253576673e-02  1.864537740620475e-17
 8.331183485305155e-01  3.362282703649862e-02 -1.517179708263304e-17
-3.662449452998926e+00  1.843014615847006e-01  6.328402613171069e-17
 3.550617693507420e-01  7.622150884980198e-03 -6.397062564858630e-18
-1.238988223098736e+00  2.132435378060507e-02  2.183017332022485e-17
 2.433965462528628e+00  2.848449972197316e-02 -4.360798663282891e-17
-1.159327760294732e+01 -2.361462412295974e-01  2.087425207839322e-16
-1.885236000972768e+00  2.322333494395799e-03  3.352616229519603e-17
 7.392681738649139e-01 -1.557220100691399e-03 -1.314015911408334e-17
 5.600325229651523e-01  4.890000943612908e-03 -1.001668976682770e-17
-1.188835472595959e+00  1.591165577069002e-03  2.114039674663388e-17
-2.142458171627660e+00 -1.507848450031097e-02  3.828252473882397e-17
 5.500648015457072e+00 -1.550552620521306e-01 -9.629745633355815e-17
-1.034950590186600e+01 -8.737129522097302e-01  1.931588860502125e-16
 2.792872992549825e+00 -2.164049457072708e-01 -4.747902415734964e-17
-3.490075452404395e-01 -3.476559310263619e-03  6.246725959103454e-18
 5.160254277412451e+00 -3.963417416050164e-01 -8.776061288122894e-17
-1.635085483602429e+01 -3.303806754827578e+00  3.249283800498331e-16
-4.045443914586628e+00  9.724006843755908e-01  6.200243627401836e-17
 1.659060893390782e+00  1.778729766605077e-01 -3.135254781495294e-17
-1.144416839836144e+00  1.715877457518927e-01  1.860326095980805e-17
 8.276028670509789e-01  7.539822445503541e-02 -1.550286957502109e-17
 7.241912915818129e-01 -1.040881154522639e-01 -1.181838030630847e-17
-1.499202595544016e+00 -2.012861064985078e-01  2.874824000142156e-17
 1.796765811232903e+00 -1.555251120631010e-01 -3.037762684191031e-17
-2.303367717648450e+00 -3.462748467455202e-01  4.454902435085562e-17
 3.530168331522964e+00 -7.481805305891197e-01 -5.513627323747984e-17
-5.765282896758170e-01  2.962259192939546e-03  1.022957248018368e-17
 4.336145124009972e-01 -2.108080342898230e-02 -7.500089884124882e-18
-6.561779402661873e-01 -7.080348990850149e-02  1.240494930021552e-17
 1.425520682502116e+00 -3.430878759349990e-01 -2.184373770177130e-17
-7.454788575387322e-02  1.721555986350732e-02  1.149784934684305e-18
-1.234900281495742e+00  1.125463834067606e-01  2.082015031982031e-17
 5.328110431094656e+00  1.676832933606100e+00 -1.120489301544577e-16
-1.317866799685178e+00  1.661103338492785e-01  2.174628837433518e-17
 3.541007946761786e+00  5.188559028954584e-01 -6.834751622959216e-17
-3.906716916157245e+00  5.186569673971461e-01  6.419567570724066e-17
 5.114114712575494e+00  5.459053552153622e-01 -9.662075088089815e-17
-1.404551249096833e+00  8.921464542384780e-02  2.407901681455442e-17
 2.222080539233275e+00  8.830975585605759e-02 -4.045192443246113e-17
-7.140655654299089e+00  6.104789116295658e-01  1.208040359453845e-16
 1.961297827137340e+00  6.545683558015282e-03 -3.497088887457023e-17
-4.660583137548125e-01  2.432632816464732e-03  8.269069208841142e-18
-3.345306091381136e-01  3.550926723017138e-03  5.916886750613300e-18
 2.340466838474986e+00 -4.046867750960043e-02 -4.123559824170287e-17
 1.026924335623955e+00  1.001012824766330e-02 -1.837819393753431e-17
-1.181629756744500e+01  5.396787435167449e-01  2.047401071570110e-16
 3.631020989039991e+00 -2.204526826918824e-02 -6.439184261002489e-17
-1.162762849823396e+00 -2.439940604813078e-02  2.094344695585257e-17
 8.669593201691156e-02  4.546623385146613e-04 -1.547529014546310e-18
 1.743193082402747e-01 -1.796679508985337e-03 -3.083759790296831e-18
 1.025958635683820e+00 -3.577450850651141e-02 -1.789058759562298e-17
-7.476859446783481e-01 -3.946242148247438e-02  1.371142528079847e-17
-3.076593472951278e+01  2.421387515652608e+00  5.226376303800528e-16
 1.573372938289206e+01 -1.756512651946746e+00 -2.619529528284883e-16
 2.961426580615358e+01  3.198324800957475e+00 -5.598828106659066e-16
-2.053527836478500e+01 -6.070301364384544e+00  4.278199152195891e-16
-1.400359362957694e+01  6.323721053477619e-01  2.427132590761333e-16
-1.819627691567773e+01 -1.609970084604530e+00  3.403663107824130e-16
 1.783625930581013e+01 -6.319652796398916e+00 -2.524853734674310e-16
-4.109979061534934e+00 -2.162250983376132e+01  2.953054136621056e-16
-1.582930212834328e+01  2.228395839650279e+00  2.588053555099886e-16
 1.620298833163036e+01  5.486446556329456e+00 -3.447227501884982e-16
-5.426716889593407e+00  4.343939920317372e-01  9.211165980746322e-17
-6.403508910663809e+00 -6.500364889154640e-01  1.206369682391465e-16
-8.873493839569331e+00  3.126373005143802e+01 -1.633090614965446e-16
 1.729258647403767e+01  6.087734343583923e-02 -3.083676962316729e-16
-1.126660267646925e+01 -7.427262977467697e-01  2.081338768096410e-16
 2.854391321904239e+01 -1.386092074301796e+01 -3.655570588398270e-16
 9.091279122612484e+00  2.679101317788383e+00 -1.893169492488434e-16
-1.551858798624004e+01  3.062694795471735e-02  2.758571036926440e-16
 2.653071011777167e+01 -4.049615161627214e+00 -4.305373088491184e-16
-2.331549212692682e+01 -2.183269535903528e+01  6.392500077462673e-16
-2.622826621579678e+01 -7.299377377579691e-01  4.742631286078629e-16
-7.149771511449395e+00  3.204606029277092e-01  1.239460963211634e-16
 6.838551542116845e+00 -3.767223321417394e-01 -1.178294969012349e-16
-1.991884838266345e+00 -3.368625683870879e-02  3.579408075408965e-17
 2.946257638989005e+00 -2.429519146314743e-01 -4.993592643777229e-17
-7.500823333709307e-01 -8.399320844685677e-02  1.421160955755031e-17
 7.783814168713588e+00 -1.580604048426508e+00 -1.222821255865839e-16
-2.604473494854649e+00 -2.869420761049035e-01  4.929793815531644e-17
 4.143438225275748e+00 -4.421268937671954e-01 -6.919473247177571e-17
-4.155641211359503e+00 -6.536174678779538e-01  8.067027442629994e-17
 9.526033908590413e-01 -2.968198291165719e-01 -1.390299772851403e-17
-1.195703910468025e+01 -8.927636759645324e+00  3.045179982451225e-16
 3.419370228540393e+00 -1.251776059303119e+00 -4.799022770688894e-17
-6.080369993409656e-01 -7.350615111955575e-02  1.157599273245802e-17
 2.278756646965043e+00 -1.072404704088328e+00 -2.953462398143839e-17
 1.177477271344572e+00  2.500991807523605e-01 -2.352429082339019e-17
-2.344470310888547e+00  1.268728225352401e+00  2.868692414299253e-17
 5.044202113830256e-01  4.693400031127006e-01 -1.379905737083276e-17
 1.837882620043743e+00 -5.846377957970426e-01 -2.670037254747151e-17
 2.757962889131621e+00  1.277215308428107e+00 -6.220416274840294e-17
 1.085152698825678e-01 -1.478030860441155e-01 -4.125356507166737e-19
 2.570715546439366e+00  9.999895990466581e-01 -5.602347947193422e-17
-3.350976749784169e+00  2.331691356402422e+00  3.567734676579376e-17
 2.311327146268904e+00  7.928945816943028e-01 -4.927952740251700e-17
-3.152048216744749e+00  8.641909523918853e-01  4.721520981601432e-17
 7.396821910615895e+00  5.513646387136111e-01 -1.373003405097797e-16
-1.611959397167623e+01  1.871109339857448e+00  2.676424341021921e-16
 4.504517229368234e-02  2.061978385844814e-02 -1.013493372987258e-18
 2.724386642651158e+00 -1.171706354528214e-01 -4.727982435356406e-17
 7.856444180865592e+00  6.645505844449332e-01 -1.466428115472747e-16
-3.703692065493689e+00 -1.790863966657010e-02  6.609562299831432e-17
-2.877487507217193e-01  5.704584597428321e-03  5.062219719588233e-18
-6.342108868176320e+00  1.201054632167278e-01  1.116313524077174e-16
 4.824908369389267e+00 -4.391987533674455e-02 -8.541373903150640e-17
 2.236485741289198e+00  6.564199037313724e-02 -4.047537914391493e-17
-1.851135643228750e-01  4.817439232224473e-03  3.244819250389033e-18
 9.773361791090837e-01  1.368853820463324e-02 -1.753350784874844e-17
-3.309002481112939e-01 -3.182573550402235e-05  5.889091623455974e-18
 2.112083143044442e+00  8.790568033020649e-03 -3.767735880759608e-17
-1.181607812551110e+01 -5.239115021161326e-01  2.156642053338146e-16
 1.557608859367387e+01 -2.814432865013023e+00 -2.482778010876527e-16
 1.731674726303281e+01  4.117104856585587e+00 -3.504739304587547e-16
-1.756281715259860e+01  7.648512133924368e-01  3.046927125293910e-16
-4.273439545174224e+00 -1.428237874990436e-01  7.751841680375752e-17
 1.694870215937800e+01 -1.882030299737407e+00 -2.822851944417059e-16
-2.938393368307905e+00 -2.674684214468381e-01  5.504035582987990e-17
 8.756487078745025e+00 -1.468722630971629e+00 -1.407415411941074e-16
 1.582138500149096e-01 -1.496678234140905e-02 -2.661825933945482e-18
 2.242205038090629e+00 -3.489474129686954e-01 -3.631740538098835e-17
 1.194507433739343e+00  2.147015066578647e-01 -2.346366465192626e-17
 1.397374981941061e-01 -2.704292921219268e-03 -2.459009842370691e-18
 1.042368273712723e+01  2.083055266765227e+00 -2.069045043947842e-16
-1.407536843312083e+00  2.029346134343322e-01  2.296371766239715e-17
 2.389723093777888e+00  1.987605450461696e-01 -4.457016542185903e-17
-1.185239138237821e+00  3.685664170960731e-02  2.071405566735965e-17
 3.586596616379913e+00  2.700887155614352e-01 -6.660282846440747e-17
-3.294813163644180e+00  1.372646560570133e-01  5.722478595040772e-17
 2.147077703273583e+00  3.898111252654241e-02 -3.861032562322424e-17
-4.725544842930392e+00 -9.913455045647272e-02  8.511527874805871e-17
-3.234280309614314e+01  3.610126564268843e+00  5.384860219947520e-16
-8.312055004945833e-02 -4.437899377319377e-03  1.524827160753406e-18
-1.674030540646380e-01  6.500753480056915e-03  2.912344155370887e-18
 9.840448063590597e-01 -1.173670892476124e-02 -1.739166072784248e-17
-1.108182169861799e+00  4.688890112150503e-05  1.972094183380898e-17
-7.046031549265096e-01  1.122202728029137e-02  1.242395136725519e-17
-7.631088327674819e-01  1.511881722966945e-02  1.342509158757941e-17
 6.994524617067746e+00 -1.498697719146367e-01 -1.229360514453152e-16
-3.861033759490045e+00 -1.464817465265942e-01  7.021674808974023e-17
-3.634220067058376e+00  1.268151017701879e-01  6.337230204500936e-17
 6.376772856993145e+00 -1.286634980292821e-01 -1.121603087798430e-16
 6.799396430109003e+00 -3.557183605699320e-02 -1.206378823941734e-16
-3.140525199483925e+00 -7.943773633704232e-02  5.670558596121373e-17
-8.083949750268891e+00  8.057373317642709e-01  1.355848702529962e-16
 3.555741156783537e+00  4.183962011304795e-02 -6.370854222292673e-17
 1.026813436804238e+01 -4.896792303670238e-01 -1.777024237725181e-16
-5.726132633858780e-01 -1.036709025361116e-02  1.029685414740807e-17
-9.171541268019577e-01  1.319154835274578e-02  1.618631333740879e-17
 1.759858087689319e+01 -5.181099364058757e-02 -3.126553995790307e-16
 2.269421156710494e+00  2.411173253536709e-02 -4.063479578019481e-17
 1.064797761640968e+00 -5.561922607040443e-03 -1.889219957286443e-17
-2.975952951885118e-01  2.811975802717646e-04  5.293174064173683e-18
-1.509842573256300e+00  1.091957935343471e-02  2.675725488671892e-17
 3.374223322437805e+00 -1.625994889373477e-02 -5.988126387333831e-17
 5.984960081449091e-01  1.405135142931328e-03 -1.066538763151172e-17
 2.350317933961412e-01  6.112652336792931e-05 -4.183299172132699e-18
 3.482393101226653e-01  2.265309304952829e-04 -6.199661441334788e-18
 9.019078916835588e-01  7.402766930164735e-04 -1.605813284003773e-17
 4.250110053303051e-01  1.857309142469590e-03 -7.582660993457407e-18
 2.910179905416578e-01  3.647827683680360e-04 -5.182760273538209e-18
 1.304340065252126e+00  1.118063590852689e-02 -2.332716430666293e-17
-3.301249767345565e-01 -7.534954137736009e-04  5.882709640172462e-18
 1.481789375717645e-01  4.195478480711926e-04 -2.641331650759646e-18
 5.400695309402207e-01  1.500663540415405e-03 -9.626600295865638e-18
 2.473445817112213e-02 -2.441188926994371e-05 -4.399283626226849e-19
-3.865772238537233e-01 -5.336342445374143e-04  6.885085722339593e-18
 5.499793531014783e-01  4.530862086257920e-04 -9.792193925444489e-18
 9.733382159480490e-01  1.840237355682086e-03 -1.734062236240111e-17
 2.091087885881356e+00  1.891542005468271e-02 -3.740775233866768e-17
-1.355103604146039e+00 -1.385459769138653e-02  2.425803602121539e-17
-8.404212927836188e+00  8.156096881441854e-02  1.487249846337175e-16
-1.388244043954073e+01  1.818068266440588e+00  2.283745962106065e-16
 1.374334337980071e+01 -2.742371893616389e-01 -2.417615016007800e-16
 1.176562324685700e+01  2.354196118867747e+00 -2.335718101259149e-16
-2.296393584321931e+01  2.921966341207821e-01  4.056684164430257e-16
 4.802203077399114e+00 -3.403376688202933e-01 -8.196408611973978e-17
 9.114298489997532e+00  1.069054759593929e-01 -1.632982284878356e-16
-8.393947721042955e-01 -3.103995874957524e-02  1.525695553228043e-17
-1.246411199477534e+00 -7.916414242033433e-03  2.226271234437013e-17
 9.225798365280342e-01  7.305746792908925e-03 -1.649347259499627e-17
 3.429253414662846e-01  1.635523338480938e-02 -6.270809592082484e-18
-1.207444182562301e+01 -1.534800181435108e-01  2.164560466302113e-16
-2.959486894512153e+01  1.353638107598736e+01  3.875945968249702e-16
 8.418290154452787e+00 -1.713438680101504e-01 -1.480530190010839e-16
-1.078846975267647e+00  1.404753362897282e-02  1.905503554121564e-17
-9.650915192683907e-01  4.055852016241545e-03  1.713328241115643e-17
 2.532136128792577e+00 -7.985596637457762e-02 -4.424189181466711e-17
 2.433073159819226e-01  2.265280916975290e-03 -4.353218858575964e-18
-1.045034439574045e-02 -1.362533627577335e-03  1.999758864033819e-19
-2.727093667931793e+00 -2.790989288106660e-02  4.881864883029752e-17
 3.169181278383277e+00 -1.860263242989934e-01 -5.448800817258237e-17
-1.081037254428018e+00 -3.970291532625585e-02  1.964628049067119e-17
 2.075132275487677e+00 -9.224149395923532e-02 -3.598170630719460e-17
-1.280088744704178e+00 -6.680122952811396e-02  2.346706451372534e-17
 1.640237715119601e+01 -6.644168052703113e+00 -2.236334539642244e-16
-1.508632788088461e+00 -1.777161909522135e-01  2.867388934362521e-17
 3.530041598191817e+00 -6.145282682971802e-01 -5.650724633343886e-17
-1.040277181071229e+00 -1.887304517547254e-01  2.045211016092408e-17
 3.893786456428408e+00 -2.302132928535351e+00 -4.564099519047232e-17
-2.528446394107400e-02  4.274733448470453e-02  1.075386014375538e-20
 4.063907044484122e-01 -5.296720272841594e-02 -6.687988585639405e-18
-1.429201079760289e+00 -4.435928983690201e-01  2.999209389856285e-17
-1.673070850759724e-01  7.594672658535233e-02  2.197104132016899e-18
 4.689234592773778e-01 -6.386063173786502e-02 -7.688907493329217e-18
-1.827011456676699e-02  1.023401218162856e-01 -7.263691461878650e-19
-9.229869692570895e-01 -1.442701105095971e-01  1.790797707859872e-17
-3.212853229933062e+00  1.049348673316447e+00  4.639487923786395e-17
 8.687885765072397e-01  9.756674610888538e-02 -1.646359189413584e-17
-4.338773185070326e+00  1.579296057458802e+00  6.098695109506032e-17
 1.532379594521613e+00 -5.340301135894022e-02 -2.672182622341083e-17
-6.461801039883877e+00  2.169595912319088e+00  9.270364758088165e-17
 2.584555866953386e+01  1.977064911938696e+01 -6.630887838168576e-16
-1.628836024265759e+00  8.578571758063396e-02  2.810566290910179e-17
-9.342033554471625e-01 -2.048150680586052e-01  1.872966345946291e-17
-8.869408292546547e-01  4.068795248031307e-02  1.536611617050452e-17
-9.608111123304582e-01 -1.081524393456724e-01  1.821000685180432e-17
-4.127610894175178e+00 -4.252794821134589e-02  7.389271867089880e-17
-9.460441806021931e+00 -5.807139075629347e-01  1.743264714456212e-16
-1.757741337546760e+00  1.771195621285967e-02  3.109911989475889e-17
-3.007027606643836e-01 -1.709615982982644e-03  5.368930000792253e-18
-6.834357361909188e+00 -1.632940799266626e-01  1.233033289252965e-16
-3.521937720086720e+00 -4.552856187525475e-02  6.314487229930834e-17
-2.149596190635229e+00 -5.878275714469917e-02  3.885859982076531e-17
-1.825507655879185e+00 -6.206229283495961e-02  3.312475393027354e-17
-9.150695784023540e+00 -3.533352872169225e-01  1.664779385425229e-16
-2.876633759284279e+00 -3.123700601980190e-02  5.151407800731502e-17
-9.094234652536661e+00 -8.125988982686767e-01  1.701919121207116e-16
-4.980303895237598e+00  8.447718084000475e-02  8.776247620119196e-17
-3.949894394967473e+00 -1.660904912821467e-01  7.199960182789124e-17
 5.613653800524838e-01 -1.278799199906837e-01 -8.676246836059443e-18
-3.011390182764911e+00 -2.226091160518346e-01  5.587850821843736e-17
-1.779214184938285e-01 -3.932171824312459e-03  3.206725496199876e-18
-1.736100637477489e+00 -2.093083901695970e-01  3.304654943751394e-17
-2.650235140821660e-01  2.632230410533106e-02  4.445957451313684e-18
 1.364636099548849e-01 -1.740410529063930e-02 -2.249711890788172e-18
 5.680025516953897e-01 -2.730414232994818e-02 -9.827742714814526e-18
 7.836148377086898e-01  4.522233162036860e-02 -1.441000379535254e-17
 9.992645822494808e-02  1.306612269433091e-04 -1.779653021232901e-18
 2.692928944337455e+00  2.717025861625733e-01 -5.071552815875356e-17
-1.843279558564153e+00  1.803318490534825e-01  3.095051422849743e-17
 1.782084282179016e+00  6.619847549894919e-02 -3.239448084402520e-17
-3.506923306992996e+00  2.277615258344914e-01  6.006971646792775e-17
 1.421441327905654e+00  5.339698887290390e-02 -2.584487863241268e-17
-1.951793383297775e+00  2.926338055688888e-02  3.443382083782777e-17
 1.268809167633728e+00 -5.232144612399780e-03 -2.252621424319842e-17
 2.225106123119077e+00 -5.301658097193245e-03 -3.954394505255598e-17
 1.256020042528121e+01  1.436188168013647e-01 -2.249993800844024e-16
-3.807611036792392e+00 -8.854020655603051e-02  6.867069873679612e-17
-4.606724520213129e-01  2.569827937884998e-02  7.934175329695968e-18
 2.169539962539873e+00  7.215297338914793e-02 -3.935089714680330e-17
 8.631126770828839e-01 -2.102785138857911e-02 -1.514406613912697e-17
 4.114908469544598e-01  3.292410029746674e-03 -7.356798801027959e-18
 1.692457602022605e+00 -1.061614094233858e-01 -2.902853182767121e-17
-3.378492538167782e-01 -1.191099133602456e-02  6.134811570699670e-18
 5.209229886673356e-01 -8.057562548535475e-03 -9.187657431978039e-18
 5.041203289094000e-01  1.703860915681428e-02 -9.146487956240537e-18
-2.515377149196850e-01  1.146281229615685e-02  4.358637450471525e-18
 5.961480684591813e-01  1.035889612507302e-02 -1.071559991941527e-17
-1.035640188132984e+00  5.387500769430062e-02  1.787690634457253e-17
 6.408491759357722e-01  1.207070213989408e-02 -1.152869759763366e-17
-1.265572562372761e+00  3.863514252626422e-02  2.212541134957836e-17
 1.523683803904006e+00  3.483041945192605e-02 -2.747364070407461e-17
-1.177240953381125e+00  2.841416195361319e-02  2.065846183074859e-17
 8.193947557346473e-01  2.852820502540840e-03 -1.461141879137791e-17
-1.119962526258327e+00  1.964902333706835e-02  1.972918252430771e-17
 9.320797336664692e-01  2.699611597631218e-03 -1.661520822043301e-17
-1.949629645737942e-01  8.872652088207665e-04  3.460482187967861e-18
 1.028792285923640e+00 -5.989620787257470e-03 -1.824704471716024e-17
-3.202773121717820e-02 -3.400475004995077e-04  5.734655472003958e-19
 6.577780114956825e-01 -6.318637348475776e-03 -1.164102263887890e-17
-2.370415332793512e+00 -2.867564791148856e-02  4.247900021752542e-17
 1.014533224230972e+00 -1.384297615592258e-02 -1.791259735294231e-17
 1.940793371261619e-01 -1.141920389321580e-03 -3.442140455017560e-18
 1.018423853405200e+00 -2.868888123726568e-02 -1.782929943551405e-17
-9.705047554659975e-01 -1.735072291963722e-02  1.744956216948840e-17
 2.746049114831209e+00 -6.927392063862330e-02 -4.815745523511697e-17
-7.834182231476134e+00 -6.738143793231902e-01  1.463418157762705e-16
 2.620560698348388e+00 -1.588776320684582e-01 -4.500359360524712e-17
-7.756283730388274e-01 -3.469111642891581e-02  1.415967071829475e-17
 4.785574297323006e+00 -5.609060124984366e-01 -7.940189757533984e-17
-1.608830122087410e+00 -8.943098918816517e-02  2.954992203485476e-17
 2.948981751034580e+00 -3.221285026958131e-01 -4.917089458487095e-17
-9.962834780882703e+00 -3.132404045567789e+00  2.094848428787681e-16
 1.990277570948762e+00 -2.188739640995475e-01 -3.317051298468260e-17
-4.046462353271662e+00 -8.840188738871447e-01  8.109459717938007e-17
 2.144546559543734e+00 -4.520783756728973e-01 -3.351982305267769e-17
-2.538305563547373e+00 -3.885793513407101e-01  4.916468692331593e-17
-2.015747639188443e+00  2.251994583944059e-01  3.355879108388256e-17
-1.521413600469029e+01 -4.365410830349311e+00  3.156067087432820e-16
 8.402785085623160e+00 -2.318345750253751e+00 -1.257174234171025e-16
-2.382332870065992e+00 -3.039216584565861e-01  4.551913980703734e-17
 9.908384518631118e+00 -5.178813607897450e+00 -1.231210931491374e-16
 3.302877595183517e+00  3.991305848317815e-01 -6.287956838828121e-17
 6.732300615549400e+00 -2.580194187503117e+00 -9.329876205126533e-17
 1.546474484973119e+01  1.075901704375612e+01 -3.857585733157694e-16
-8.325238279277627e+00  1.725469798346474e+00  1.304289705170640e-16
 9.400561845373515e+00  2.110672543154342e+00 -1.889806050592820e-16
-8.263368940754230e+00  1.329181406323655e+00  1.333996511164694e-16
 6.282402592442028e+00  9.844691428523240e-01 -1.219179108672653e-16
-6.787775076923383e+00  3.499231424159923e-01  1.172012210630594e-16
-1.058570361057007e+01 -8.832251274868300e-01  1.974600401659734e-16
 5.423047465088252e+00 -3.918857259996368e-01 -9.248311500703974e-17
 5.775388612555481e+00  6.428136809613227e-01 -1.093846065354340e-16
-4.794895531305802e+00  3.244412191896566e-01  8.199736988586890e-17
 1.077193163194561e+00  1.649385781782941e-02 -1.933940564998508e-17
-2.746984627269577e+00  1.251946148306246e-01  4.759953897496252e-17
 1.390395330231451e+00  3.269776305779885e-02 -2.507970111978070e-17
-4.259081380127280e-01  1.546398447415920e-02  7.420656570784889e-18
 4.834909555609407e+00  3.211990843133802e-01 -8.934318666747087e-17
-9.522028056002784e-01  2.576157510575496e-02  1.668089396130393e-17
 8.896646400088695e-01  8.531754875515982e-03 -1.592030417681086e-17
-4.832228700783682e-01  2.944156776591098e-03  8.569277240080928e-18
 3.889945057016345e-01 -6.346236309771582e-04 -6.916100710402615e-18
-1.169361199734470e-01  1.464032742534739e-04  2.079513507007850e-18
-1.053942849449913e+00  1.264883280247188e-03  1.874317401039568e-17
-2.147192415293284e-01  1.201673941839315e-03  3.808838260563591e-18
 7.414067552647242e-02  1.665409647370292e-04 -1.321132907106080e-18
-8.231063432654989e-01  2.568689498165643e-03  1.462176686431327e-17
-1.077692658986500e+01  9.758253344029701e-02  1.907856387678634e-16
-9.771562909533124e-01  1.398180659775073e-02  1.724600380638391e-17
 1.797601848832596e+00 -2.125327395427304e-02 -3.177209948818274e-17
-2.492229171200516e+00 -3.427477350000923e-02  4.470435177790795e-17
 8.935202968856705e-02 -6.056721817779949e-03 -1.527895334874086e-18
 5.369635978702340e-01  1.202691924221531e-02 -9.679479981118270e-18
-3.406109171226771e+00  1.188688146954452e-01  5.939444176211803e-17
-4.813082206750566e+00 -5.954906639996425e-02  8.626638412481505e-17
-1.987268813519996e-01 -2.137846339024753e-02  3.756237818594793e-18
-2.296686350810929e+00  2.170244504670940e-03  4.084997472417990e-17
-7.049640672192551e+00  2.349001216129927e-01  1.230432514567082e-16
-3.245684076716868e+01 -1.100870826744909e+00  5.889192451858304e-16
 6.272140851318447e+00 -1.477169703649296e+00 -9.644284606191874e-17
 1.786323079249426e+01 -7.316587272834127e-01 -3.103799723528416e-16
 6.002756695366807e+00 -1.090017466729839e-01 -1.057062623924557e-16
 2.735628236481387e+01 -5.141096740152062e-01 -4.815553862976324e-16
 1.052554554361957e+01  8.987625553622948e+00 -2.796592258897060e-16
-2.820712612325046e+01 -2.075368828129228e-01  5.041118221213654e-16
 7.235982422725386e+00 -6.365298042514241e-01 -1.222328260949440e-16
 1.847493891193958e+00 -2.780281267475264e-02 -3.259269376355655e-17
 9.581228546451511e+00  8.594811103531077e-04 -1.705182217408348e-16
 2.912756431353288e-01 -1.850160259578555e-04 -5.181696543301034e-18
-2.231962708909064e+01  1.651900155657828e+00  3.802317138120806e-16
 1.458526055512594e+01 -1.283417385271961e+00 -2.463754621176463e-16
 1.795418290290963e+01  3.396138977548205e-01 -3.230055107204401e-16
-8.724282802218120e+00 -6.716194393537912e-01  1.621596649336741e-16
-7.643904934466551e+00  1.916009434544739e-02  1.358355432866753e-16
 4.210834558275724e+00 -3.586283828317256e-02 -7.456834619705961e-17
-2.287200432442356e+00  1.217353551777254e-02  4.057838145463402e-17
-1.542665264242565e-02 -5.880271695922176e-04  2.805774509029863e-19
-1.552600616090471e+00  3.965917501147127e-02  2.722289635840755e-17
-5.346931214038358e-01  1.362960587169841e-02  9.375462653700534e-18
-8.828707076222848e-02  2.245898614423162e-03  1.548097947282717e-18
-1.059293060833388e-02  2.540284803605607e-04  1.859037873474467e-19
 3.932429348276006e-02 -9.772328069911644e-04 -6.897819985465729e-19
 8.149664698807581e-02 -2.027780136331240e-03 -1.429495341330743e-18
 3.568129767018774e-01 -8.658000806739324e-03 -6.260954725147219e-18
-5.828819663954077e-01  1.477317580803765e-02  1.022129087033932e-17
-3.284833536991384e-02  2.051501562176192e-03  5.634968759375525e-19
 4.120452401225658e+00 -1.181866415324019e-01 -7.211404072022365e-17
 3.239602903170238e+01  1.643042372809985e+00 -5.934076437121460e-16
 3.148559069487308e-01 -2.106711843869210e-03 -5.581590731721758e-18
 3.332919648553889e-01 -3.813585315082760e-03 -5.892144875928308e-18
 7.365246226653089e-01 -8.446771590148082e-03 -1.302054670886571e-17
 1.586104081604058e+00 -1.755773242695332e-02 -2.804621477903093e-17
 1.345408022120499e+00 -2.932410815255582e-03 -2.391301115839600e-17
-2.185402341851792e+00  7.183840555254366e-03  3.881803016294791e-17
-4.457295479472978e+00  6.779065991657773e-02  7.862636550749612e-17
 4.888786826756395e+00 -2.338359294006758e-01 -8.459921390387761e-17
 5.791612556035473e+00  3.074585795164996e-01 -1.062276791561421e-16
 2.666555677238213e+00 -1.213973901790356e-01 -4.620722496070405e-17
-9.953030928255938e+00 -9.048397788173443e-01  1.864229578116875e-16
 4.453122307799132e+00 -4.266907129209734e-01 -7.486453127916701e-17
-2.528688609805591e+00 -3.107586450458670e-01  4.819396231166673e-17
-1.372740978734272e+01  1.914544206639111e+00  2.246243855892614e-16
 1.587283583705839e+01  6.276918814377384e-01 -2.889253535871124e-16
 4.006949001095633e+00 -1.539093154764985e-01 -6.972707486008492e-17
 2.056278720106313e+00  6.116075104100032e-02 -3.722233714145496e-17
-1.585685111168624e+00  9.500413201973333e-02  2.724302507727715e-17
 3.486349502206819e-01  3.324938882439142e-03 -6.238537346747061e-18
-2.354058219874348e+00  8.678602575537452e-02  4.100157917225113e-17
 9.293034591842222e+00  1.417758967198850e-01 -1.668373315282867e-16
 6.209149715261555e-02  3.829597259482572e-04 -1.108927032117736e-18
-4.278618346764122e-02 -1.749270289500927e-04  7.632284713587485e-19
 7.022942446591052e-01 -9.718297582756737e-04 -1.248817861678546e-17
 2.672272253734545e-01  1.653589503860385e-03 -4.772617235027734e-18
 5.911699881729174e-01 -8.671192171355162e-04 -1.051166579264856e-17
 4.569472190741254e-01  5.387217172720052e-03 -8.187272524809618e-18
-4.742864137266599e-02  5.808020495715384e-04  8.380817244650513e-19
-1.120029411012041e+00 -1.153993981265565e-02  2.005082807956028e-17
 1.148510961867981e+00 -1.707300701357125e-02 -2.026370361552663e-17
-2.422383443958491e-01 -3.834988960484675e-03  4.350323411884623e-18
 1.874556509191809e-01 -2.570183237874078e-03 -3.309589214439126e-18
-2.732135395711091e+00 -1.296241847155254e-01  4.995344962466574e-17
 2.725334704941340e-01 -2.205071393206795e-03 -4.827401907422870e-18
-2.925855996367659e-01 -4.791976433814684e-03  5.256145571336202e-18
 7.493235635950471e-01 -2.887949688124105e-02 -1.303838030323907e-17
-1.153370695693105e+00 -5.448866422803288e-02  2.108545853052128e-17
 1.353646009608555e-01  5.805417422154090e-04 -2.414939398211271e-18
 3.609126217934875e-01 -7.187353923842082e-04 -6.415485930611743e-18
 4.647267770085555e-01 -9.704083230988772e-03 -8.170661398266683e-18
 1.249508760655492e+00  1.111485332307873e-02 -2.235069995282379e-17
-3.220898486277994e-01  1.014838875179986e-02  5.627702053459617e-18
 6.008628422026556e-01 -3.682918718288238e-03 -1.065523036784881e-17
-2.415716373420121e-01  5.268589041577307e-03  4.244922603885218e-18
 4.367249777983521e+00 -7.707939559415099e-02 -7.692845647751385e-17
 3.226108056294512e+01  1.038074959034995e+00 -5.847902541285853e-16
 2.283495408496344e+00  1.662462496250086e-02 -4.080833661995441e-17
 7.142349823516143e-01  8.628352570720185e-03 -1.279931667052233e-17
-3.149198216100440e-01 -2.965251671152651e-03  5.634840759271716e-18
 6.392743653435884e-02  4.707014251180809e-04 -1.142501274807887e-18
 1.896433671714866e-01  1.181299009226328e-03 -3.387067352614471e-18
 4.448874008339498e-01  2.673263832562611e-03 -7.944768795125228e-18
-1.218943854797856e+00 -1.202829927185303e-02  2.181614631249510e-17
 7.126318735737528e-01 -4.326449147940663e-03 -1.263768156288773e-17
-1.351566942115116e+00 -3.837786183977328e-02  2.444706451807096e-17
 1.208448829527225e+00 -3.543240687172542e-02 -2.114173332610034e-17
-1.061480815628367e+00 -3.320448404119152e-02  1.923148130171271e-17
 3.545659438168525e-01 -6.807976032615837e-03 -6.239974430955697e-18
-7.935209883528235e-01 -3.169187260026059e-02  1.444727501252980e-17
 3.248202720744399e-01 -3.348229792814782e-02 -5.436545690286335e-18
-2.086118685227067e+00 -1.956358060207779e-01  3.913505732777848e-17
 2.350360688222234e+00 -1.680669804873661e-01 -4.010064489266553e-17
-1.711163400025364e+00 -1.055129068904737e-01  3.153630066707595e-17
-1.163279075822914e+00  1.375538949956913e-01  1.928862246210022e-17
 3.477082895658726e-02  1.317751715865818e-02 -7.541825798502404e-19
 1.240837577681249e+00 -9.831434112428339e-02 -2.107204067789688e-17
-1.961006851106803e+00 -1.549776665621475e-01  3.649079533089087e-17
 3.997990175483143e-01 -1.724343333487150e-02 -6.937730400160596e-18
-2.179078935535541e-01 -6.812036751530174e-03  3.947922099684131e-18
 4.744828097908196e-02 -4.277115529092946e-03 -8.004529318034810e-19
 1.836677403450481e-01  7.965408190888285e-03 -3.350428201881963e-18
-8.318609946884125e-01  4.630546889992124e-02  1.432818679833200e-17
 1.021615404196316e+00  7.337849863277231e-02 -1.893480217187666e-17
-8.026927316521871e-01  3.615888500847735e-02  1.391335524607923e-17
 1.562932690820629e+00  5.093389486135633e-02 -2.833757883156157e-17
-1.093834280111059e+00  2.307940808739639e-02  1.922895325727356e-17
 1.701363629646576e+00  1.917719022894055e-02 -3.047483391515418e-17
-7.820157567448770e-01 -1.293444092965737e-03  1.393019288186421e-17
-1.005303226925741e-01  8.045873604245140e-05  1.788230324740338e-18
 4.991821200622187e-01  1.187243958531273e-06 -8.883553470782122e-18
 3.573460804411787e-01  8.711285138630128e-04 -6.368350294379428e-18
-1.537368399374997e-02  1.898461893022733e-05  2.733979871490031e-19
 4.351034843883658e-01  6.212785343691211e-04 -7.749568926693922e-18
-2.829206605375446e-01 -1.991625203712954e-03  5.055373859810594e-18
 3.855052591345624e-01 -1.653611190039034e-03 -6.843535671110125e-18
 1.483937592599394e+00  3.085698132330489e-02 -2.672548398056242e-17
 6.763512637515022e-02  1.115786408737686e-03 -1.215112051130920e-18
 7.150472772951194e-01  4.630368958146788e-03 -1.277269460160244e-17
-6.300144408908795e-02  3.654803767949848e-04  1.117430647035973e-18
 1.644738751006894e+00  8.327713406801968e-03 -2.935565223377182e-17
 1.901369421610294e-01  1.220166629893979e-03 -3.396250465403915e-18
-3.514010298913083e-02 -9.061463340365962e-05  6.262910817744641e-19
 7.386888152904335e-01  3.819341413939015e-03 -1.318509094481794e-17
 3.218315525338506e-01  3.531576188108117e-03 -5.763662083337344e-18
 4.992962163982994e-02  3.039352029262832e-04 -8.916799989186903e-19
 3.285810922922447e-01  2.420570756305257e-03 -5.872362969202771e-18
-1.482014665368406e-02 -1.065394573936138e-04  2.648368420697882e-19
 1.569555410450029e-02  1.042658852194827e-04 -2.803924043381930e-19
-1.603716524297435e-01 -9.415901164129007e-04  2.863679349688721e-18
-3.018880924546975e-01 -1.341374943277621e-03  5.386240852690022e-18
-2.997290093725066e-01 -1.398610988557930e-03  5.348405471319526e-18
-2.761285614287409e-01  1.952745498957332e-03  4.893973305719643e-18
 8.244768394874035e-01  2.426166093188644e-03 -1.469747680549376e-17
 2.572638899623786e-01  1.034143413841856e-03 -4.588943238195042e-18
-3.138989804636714e-01 -2.034797328013756e-03  5.607113590143472e-18
 1.046206558920903e-01 -1.500533245362577e-04 -1.860307629339195e-18
-7.259832273097763e-01 -1.196165341809365e-02  1.304263921420722e-17
 2.765480594666468e-01 -9.244863884299675e-04 -4.912003835787982e-18
 6.308060560182882e-02  4.451632224229842e-04 -1.127168504340831e-18
-2.154900007186431e-01  8.020528773343580e-04  3.826660809797201e-18
 6.715749797107222e-01  1.133210364647834e-02 -1.206791109592390e-17
-2.201482342483907e-01  6.834132783077028e-05  3.917098240510477e-18
 1.251000724238178e-01  5.589269745830948e-04 -2.232047783429558e-18
-2.807990906301844e-01 -6.490340464651673e-04  5.003823356428006e-18
-1.965280905771024e-01 -3.995199050062135e-04  3.501556724143108e-18
 3.323493049695738e-01 -1.650175568573921e-04 -5.912856833596372e-18
-1.090699207735872e+00 -1.744952950361906e-02  1.958958100541210e-17
-2.769004773899612e+00  4.321599145391912e-02  4.883371432694542e-17
-2.208547873672064e+00 -5.558843678452464e-02  3.987489493942581e-17
-1.955180160063942e+00  2.945757294785217e-02  3.449209727868909e-17
 3.683522436535131e-01 -2.133483308679053e-03 -6.533346797637123e-18
 3.465716748189270e-01 -7.753693855835377e-04 -6.159689729999994e-18
-3.073592574471900e+00 -1.736420929089910e-02  5.487665722131377e-17
-2.455225382901794e-01  1.752290193635989e-03  4.351362294854292e-18
-1.728272500560526e-01  4.652401836117600e-04  3.070886934162388e-18
-8.178550126386445e-01  1.119686978586531e-02  1.443966170259742e-17
 4.325362612512251e-01 -6.177324700102890e-04 -7.691151762247084e-18
-1.571603044330527e+00  1.893465529908620e-02  2.777400420748200e-17
 9.121986323527895e-02 -4.404504968087433e-04 -1.618840808728985e-18
-2.056578587527258e-01  1.749747522199287e-03  3.641948900768878e-18
-4.295973058516200e-02  2.808535811568939e-04  7.616339848537137e-19
-4.824082213419897e-02  3.565236261830825e-04  8.548398236467754e-19
 7.236575431747741e-02 -4.976530249410328e-04 -1.282721717422604e-18
 8.334367590977585e-03 -5.947813766176082e-05 -1.477088872945381e-19
 4.401344277473177e-01 -3.226451368943843e-03 -7.799566537097073e-18
 3.544906112301454e-01 -1.607627234542218e-03 -6.292065500770540e-18
 6.227654333127497e-01 -3.646250486544388e-03 -1.104538985474550e-17
-2.455513497113542e-01  7.112566143245807e-04  4.362571252391138e-18
 1.476944299123936e-01 -1.076948173954389e-03 -2.617333300469483e-18
 2.003793211029341e+00 -3.927468510692055e-03 -3.561953711941487e-17
 9.132480392381150e-02 -3.520999402193446e-04 -1.621616119371264e-18
 2.639574857391273e-01 -1.025977126285219e-03 -4.686896776364833e-18
 4.227110154163394e-01 -1.449867837363827e-03 -7.507749864401963e-18
 2.873361733833800e-02 -1.001166648165639e-04 -5.103203328664152e-19
 4.719393774234196e-01 -2.763238823059402e-03 -8.370332886676555e-18
-7.316527793693212e-03 -3.964434639860324e-04  1.342796522058473e-19
 1.081274297452539e+00 -8.898301368955261e-03 -1.915113909759198e-17
 2.346890409979839e-01  1.421056656091801e-03 -4.191172271714120e-18
 4.570455708372317e-01 -2.995205676478099e-03 -8.102896465174809e-18
 5.786902617996865e-01  7.044786767976081e-03 -1.037086611237915e-17
 5.428198951330571e-01 -6.640392929247467e-03 -9.591899881299210e-18
 6.302896738860688e-01  1.284929940678704e-02 -1.134877834162834e-17
 1.395631442496902e+00 -1.279554681371602e-02 -2.470545671030387e-17
 2.904042741756875e+00  5.180035000800906e-02 -5.221313444004419e-17
-1.829243259272518e+00 -2.623290862153610e-02  3.282309940550517e-17
-4.387575449943373e-01  9.208542461697077e-03  7.713599451089756e-18
 2.132507987305477e+00  1.210310437913869e-02 -3.807487838560804e-17
 4.381165978064567e-01  3.097815780370262e-03 -7.828636390613693e-18
 1.716170811840513e+00  1.444728108312394e-02 -3.068974735782487e-17
-7.534545793320180e+00 -2.023245018672576e-01  1.361650408670639e-16
-4.972865547648461e-01 -2.023757913121906e-03  8.870600802319162e-18
 1.689992111862861e+00  7.309399016206086e-03 -3.015052694704962e-17
 2.464072131804220e-02  1.302797019938042e-04 -4.398495917667445e-19
 3.131395132855256e-01  3.213194198696522e-03 -5.605705558567150e-18
 1.324145461177721e+00  3.589271571448316e-03 -2.360162640856829e-17
 6.144570260683677e-01  6.227441325792624e-03 -1.099898042282607e-17
-4.392961938343506e-01 -4.320389437482051e-03  7.862190212576363e-18
 5.847734158036122e-01  2.591245789619822e-03 -1.043336458834618e-17
-1.036335265573498e-01 -5.733879172572537e-03  1.903195822306027e-18
 6.805195412188932e-01 -1.364848217032719e-03 -1.209663370532541e-17
-2.210575484025864e-02 -1.252046291697056e-03  4.062626002941660e-19
 8.602080279114011e-01 -1.413709358181833e-02 -1.516317447113441e-17
 4.336778012418991e-01  1.075221926261089e-02 -7.828288923094239e-18
 7.574000512988042e-01 -7.461187457444265e-04 -1.347117127741415e-17
 7.930602733005422e-01  1.584481961445726e-02 -1.427625332500689e-17
-1.176533559251868e-01  2.593307817712167e-03  2.067136507998828e-18
 1.035453843736766e+00  2.309578195509652e-02 -1.866443705112075e-17
 1.791976374349586e-01  2.119385878942034e-03 -3.210811625042542e-18
 1.957172236776989e+00  4.488488441234573e-02 -3.529139045912699e-17
-1.994660940374434e-01 -1.353380630197762e-03  3.563642553005440e-18
 6.148851253068351e-01  8.609769282888429e-03 -1.103107651460430e-17
-1.122266046796786e-01 -1.553036141682163e-03  2.013163190004529e-18
-5.890862662073945e-01 -5.760740058875586e-03  1.054268229752005e-17
 1.739223139765924e+00  1.205121306780835e-02 -3.107537224130187e-17
-7.746963702532602e-01 -1.352959145205971e-02  1.392565763768075e-17
 2.115371546563568e+00  3.572225185918718e-02 -3.801259313446710e-17
-2.205595616097758e+00 -4.149463618092546e-02  3.967754723608131e-17
-2.267336323427678e+01  6.329254677142785e-01  3.969964652974464e-16
-2.111202837901639e+01  2.454635099875233e+01  1.235088883371122e-16
 2.023292466546862e+01  2.771376599438344e-01 -3.629165179292107e-16
-6.372762349161195e-01 -4.650655890175738e-02  1.181892875891101e-17
-8.561072376894842e+00 -2.398171669970217e-01  1.548185292461936e-16
-2.568525907015318e+00 -1.005776977359781e-02  4.581332229416120e-17
 6.792477236428219e-01  7.241488223418196e-04 -1.209546384654296e-17
-8.092143595352256e-01 -8.151329271072883e-03  1.448468674179579e-17
-4.776009478244063e-01  1.991152193052466e-03  8.479020204081863e-18
-6.406639011214899e-01 -3.788557950349075e-03  1.144030439484081e-17
-1.310322349068241e+00  1.154228067461098e-02  2.320015646960096e-17
-3.162324020681343e-01  1.384970320569840e-03  5.613502751694833e-18
-2.987723136122809e-01  2.272270990994720e-03  5.293662952559908e-18
-3.847841102834256e-01  3.301021950857653e-03  6.813775431626899e-18
-4.122921686484166e-01  5.244240415688123e-03  7.283348274538113e-18
 1.516790607119636e-01 -1.366490923063042e-03 -2.685269617215175e-18
-5.919597086291273e-01  5.324574479864242e-03  1.047992106489404e-17
-3.608180039106009e+00  4.030175005389621e-02  6.379778194743930e-17
-6.123208779067141e-01  9.205946234314137e-03  1.080239267932121e-17
 2.228125204233515e-01 -3.357980449316349e-03 -3.930712527684881e-18
-1.527641095838436e+00  1.874930960094645e-03  2.716693114425859e-17
-6.734664122783391e-01  9.321415152084501e-03  1.188936400980886e-17
-9.282483457931620e-01  1.492265073250515e-02  1.636596175622959e-17
 1.975719190098945e+00 -6.479967225503179e-02 -3.449448661732586e-17
-9.561269232480077e-01 -3.903949918162675e-03  1.705553079179355e-17
-7.732809992566795e-01  3.636122889804748e-02  1.338785936061723e-17
 1.650454334501020e-01 -2.083425902940869e-03 -2.915773917240247e-18
 2.854893516997998e+00 -1.209683242314392e-01 -4.956332998710956e-17
-1.886115450177653e+00 -5.018442741627755e-02  3.408130103921749e-17
 5.860426940232969e+00 -1.439818300122845e+00 -8.949967819556466e-17
 1.367401774544383e+00  5.956575284062284e-02 -2.494656215342022e-17
 1.395647535635820e+00 -1.020408993252205e-01 -2.378877951223424e-17
 1.181385549036415e+00  5.652121235165385e-02 -2.160490002599182e-17
-7.368087318835341e-02  4.298612683746457e-02  8.695721842667530e-19
-9.954148452959436e-01 -1.501515963491677e-01  1.925734764502783e-17
 1.025078973225398e+01 -2.237054548147678e+00 -1.594401080458761e-16
 1.895565890613010e+00  1.573453433071640e-01 -3.535052239652987e-17
 1.518772022285633e+00 -1.490399968561919e-01 -2.549702798175444e-17
 5.036870563893632e+00  1.188281333815441e+00 -1.018462789913602e-16
 5.241728911033777e+00 -5.102056624138788e-01 -8.804064066595167e-17
-1.389946989617431e+00 -4.564809841692762e-01  2.942594099995436e-17
 2.921255495560420e+00 -1.867665723557406e-01 -5.006826744748383e-17
-1.084427104332268e+00 -3.379688029429976e-01  2.277118054889157e-17
 3.428592721287634e-01  2.363612471170835e-02 -6.344442315338763e-18
-1.233987878555828e-01 -3.887639622734338e-02  2.595469462743696e-18
-2.871572489334048e+00  3.799272725531976e-01  4.719944307370003e-17
 4.929840724922056e+00  2.521889882167004e-01 -9.032354646455080e-17
-1.790459577301991e+01  4.904977128089320e+00  2.682367809296041e-16
 1.000367574753640e+00  3.493469575041683e-02 -1.816167558140549e-17
-2.957543881437665e+00  2.577502518732174e-01  4.998473104241447e-17
 4.763722340983460e+00  2.129969107582849e-01 -8.696458732143600e-17
-3.380054571696593e+00  1.288530883965624e-01  5.882818424286430e-17
 4.110458872475546e+00  1.332202039327048e-01 -7.451930795727199e-17
-2.566855310547191e-01  2.061422424523777e-03  4.546844839969062e-18
 7.914750314169310e-01  6.033280210641727e-03 -1.414723205236099e-17
 1.051288020226070e-01  4.436498605822954e-04 -1.875450774157391e-18
 1.151879792957374e-01  5.868645671793868e-04 -2.055937312763575e-18
-8.013239005236165e-02 -2.641953673671138e-04  1.428765979090349e-18
-1.353585446549858e+00 -2.253943295154411e-03  2.411182607597023e-17
 1.751900303348369e-01  5.712564921994097e-04 -3.123585014996806e-18
-6.304120916384576e-01 -1.554798950629650e-03  1.123491014552506e-17
-4.453802263211628e-01  2.304510452503066e-03  7.902394389257370e-18
 4.311863616265305e-01  2.157852489090411e-04 -7.675692758578821e-18
-8.817101541282842e-01 -4.829727118227609e-04  1.569604630160366e-17
-2.424442264318506e+00  2.020066036509282e-03  4.312508664169553e-17
-2.875402757372784e+01  3.167577047062033e+00  4.791665149315249e-16
 5.150898356234882e-01  1.734506239402144e-03 -9.184459481358465e-18
-1.398726860334957e+00  1.917861127919380e-02  2.469495967651558e-17
-8.320791311405705e-01  9.589399618501481e-03  1.470931308268517e-17
 6.945541969946625e-01 -1.354775661577327e-02 -1.222122217004216e-17
 5.660365990202669e-01 -5.813882373843977e-03 -1.001356094307373e-17
-1.790406843021233e-02  9.473334167966281e-04  3.088907477570031e-19
-1.845803521826918e-01 -1.579831994333652e-04  3.286450762759054e-18
-1.120465251634499e+00  1.908201367197894e-03  1.992040961722627e-17
-1.968076343250360e+00  3.285933281849225e-03  3.499050435905311e-17
 1.416184091654032e+00 -1.831468790314788e-02 -2.501450843151491e-17
-1.145202773430352e+00  3.793411319477404e-03  2.034127347738838e-17
 2.902091088920105e+00 -2.855186568642751e-03 -5.161683666234553e-17
 1.048310278444705e+01  2.397684914238808e-01 -1.890228528948400e-16
 1.471052374828691e+00  3.036573130068684e-01 -2.929910032598282e-17
-1.000390215763546e+01 -2.969081483886787e-01  1.810819953470213e-16
-2.569055597053909e+01  1.143275702950873e+00  4.454473457792973e-16
-1.791508446535927e+01  2.103070592422971e+01  1.027374344972808e-16
 1.530174034432143e+01  8.520193388556189e-01 -2.810669111915088e-16
-9.644319187225758e+00 -1.908148161253273e-01  1.735927170215367e-16
 1.045380872623546e+00 -1.026782950054439e-02 -1.849830138418328e-17
-3.394071952892642e-01 -1.376875678515328e-02  6.181624873777760e-18
 2.252353613789508e+00 -1.023836808215956e-01 -3.903136411563390e-17
 2.770926136002920e+01  1.701934321377143e+00 -5.106061158440039e-16
-5.679779340906140e-01  7.791306796895881e-03  1.002779199521770e-17
 1.701662845604238e+00 -3.157482532887571e-02 -2.995870029449377e-17
 3.059577716806145e+00 -5.486819471032256e-02 -5.388508429826687e-17
 5.465700683421502e+00 -1.091241084539761e-01 -9.614745279537206e-17
-3.211513880522817e+00 -1.312713352831585e-01  5.850148556326652e-17
-1.808509304790147e+01  1.143892084686202e+00  3.100927278544870e-16
 1.745332512126192e+01 -1.720664815972906e+00 -2.929235336721779e-16
 5.308117818466014e+00 -5.733632519938153e-02 -9.387517841782248e-17
 5.596034474783604e+00 -4.672903089224497e-01 -9.478687049829833e-17
 1.592040988771831e+01  5.539201592020229e-01 -2.890140129127172e-16
 1.080468998039265e+01 -2.797428592568800e-01 -1.894080902390042e-16
 1.241444188854958e+01  4.642162653439998e-01 -2.256994553730176e-16
 2.056871164867458e+01  1.183516241022185e+00 -3.782049584695181e-16
-1.764171747558392e+01 -4.508571054503728e+00  3.602793360226049e-16
-1.269371246433370e+01 -5.461512919364665e-02  2.264609055214353e-16
-2.664051252195700e+01  1.920037773823552e+00  4.543720076526575e-16
 3.002781947074667e+01 -7.289426629390826e+00 -4.594846553820546e-16
 5.461160324407197e+00  7.927349196296375e-01 -1.053329256035559e-16
 6.274837508329890e+00 -7.704537922590251e-01 -1.037520855373267e-16
 3.982639981402762e+00  7.231357165783823e-01 -7.830578592693459e-17
-6.069291933154823e+00 -3.160137608292980e+01  4.327029490518830e-16
 6.860341819852692e+00  8.423710074707177e-01 -1.307430220816704e-16
-3.228035597949893e+00  1.138674428139605e-01  5.627679738712525e-17
 2.056794575367778e+00  1.354879818510435e-01 -3.799520270111896e-17
-1.491796686209249e+00  2.599169986600437e-03  2.652159600241818e-17
-6.011683061062850e-01 -3.177082863730483e-02  1.102494082952041e-17
-1.260599837147804e+00 -1.380107301069501e-02  2.257567880932063e-17
-1.734444193850383e+00 -1.065663113021343e-01  3.196143348612145e-17
-3.865989656193291e+00 -1.072723304226461e-01  6.990208167707980e-17
-8.560186197476474e-01 -2.059950811561490e-02  1.544552489617022e-17
 3.741318200482348e-01  7.679055858186047e-03 -6.737021527892410e-18
 3.469492128884647e+00  1.109787164956583e-01 -6.288401699211459e-17
-6.724205933867863e+00 -5.705553101496466e-01  1.255275140945600e-16
 1.265887897712678e+00 -5.768150859986561e-02 -2.193532859968937e-17
-6.799060290571963e+00 -6.893522956457860e-01  1.280802324967907e-16
 1.206589933944219e+01 -2.530296360009143e+00 -1.887291955491032e-16
-8.722957336984189e+00 -1.103390584018125e+01  2.686048054000826e-16
-8.630215390423681e+00  1.806652704753120e+00  1.350222771283961e-16
-2.851050074077640e+00 -1.012777760660240e+00  6.114376056056296e-17
 5.754704319231151e-01 -4.516384972255411e-02 -9.777140644856788e-18
-1.626782408863006e+00 -5.634779034290361e-01  3.474006422427002e-17
-1.431639083129278e+00  2.769649925614017e-01  2.263201052774931e-17
 8.022353420680041e+00  1.006789505986365e+01 -2.462113128916626e-16
-1.506139898314153e+00  3.071009142564010e-01  2.364820576053584e-17
 3.364288697576423e+00  3.967484320795580e-01 -6.394797650652627e-17
-9.323198346501806e+00  2.738587017201656e+00  1.377794489439186e-16
 1.520986122200457e+00  3.196643455536571e-01 -3.035219734523522e-17
-2.967316772595096e+00  5.196280031189828e-01  4.746795256526502e-17
 1.323446891576586e+00  9.537486414530882e-02 -2.453225818234054e-17
-5.479020467595610e+00  6.045700991584055e-01  9.129396668545269e-17
 2.287921334443753e+00  2.137686964996782e-01 -4.291268497090558e-17
-5.895097637242797e+00  3.151938155552415e-01  1.016717924353757e-16
 4.408504493293088e+00  1.585709213989609e-01 -8.008385472454202e-17
-5.291848729086570e+00 -1.971893233923135e-02  9.437736533900771e-17
-2.859806663012743e+00  2.848226654174224e-02  5.060102592703553e-17
-1.506202183663261e+00  1.652224715359634e-02  2.663490443435978e-17
-7.415385113946314e-01  7.479066771122782e-03  1.311971765717625e-17
-8.654996503271935e+00 -5.825706442171086e-03  1.540858438560483e-16
 4.414256671198246e+00 -4.112497344617355e-01 -7.433152139514903e-17
 7.135800501226399e+00  5.446157886962623e-02 -1.275496547502394e-16
-8.659086686078309e+00 -1.217572450533475e-01  1.553497879694310e-16
-4.056700336470782e+00  8.807696034789368e-02  7.128886272485486e-17
 4.658553535742007e-01 -1.392191793519528e-02 -8.147409051902712e-18
 3.549430307648642e+00 -3.432564642612532e-02 -6.281366262828886e-17
-1.804323147809129e+00  2.583660667396703e-02  3.184462093315034e-17
-2.547516821732515e+00  5.515598012236061e-02  4.476939297871436e-17
VECTORS SF_force double
0.000000000000000e+00 0.000000000000000e+00 0.000000000000000e+00
0.000000000000000e+00 0.000000000000000e+00 0.000000000000000e+00
0.000000000000000e+00 0.000000000000000e+00 0.000000000000000e+00
0.000000000000000e+00 0.000000000000000e+00 0.000000000000000e+00
0.000000000000000e+00 0.000000000000000e+00 0.000000000000000e+00
0.000000000000000e+00 0.000000000000000e+00 0.000000000000000e+00
0.000000000000000e+00 0.000000000000000e+00 0.000000000000000e+00
0.000000000000000e+00 0.000000000000000e+00 0.000000000000000e+00
0.000000000000000e+00 0.000000000000000e+00 0.000000000000000e+00
0.000000000000000e+00 0.000000000000000e+00 0.000000000000000e+00
0.000000000000000e+00 0.000000000000000e+00 0.000000000000000e+00
0.000000000000000e+00 0.000000000000000e+00 0.000000000000000e+00
0.000000000000000e+00 0.000000000000000e+00 0.000000000000000e+00
0.000000000000000e+00 0.000000000000000e+00 0.000000000000000e+00
0.000000000000000e+00 0.000000000000000e+00 0.000000000000000e+00
0.000000000000000e+00 0.000000000000000e+00 0.000000000000000e+00
0.000000000000000e+00 0.000000000000000e+00 0.000000000000000e+00
0.000000000000000e+00 0.000000000000000e+00 0.000000000000000e+00
0.000000000000000e+00 0.000000000000000e+00 0.000000000000000e+00
0.000000000000000e+00 0.000000000000000e+00 0.000000000000000e+00
0.000000000000000e+00 0.000000000000000e+00 0.000000000000000e+00
0.000000000000000e+00 0.000000000000000e+00 0.000000000000000e+00
0.000000000000000e+00 0.000000000000000e+00 0.000000000000000e+00
0.000000000000000e+00 0.000000000000000e+00 0.000000000000000e+00
0.000000000000000e+00 0.000000000000000e+00 0.000000000000000e+00
0.000000000000000e+00 0.000000000000000e+00 0.000000000000000e+00
0.000000000000000e+00 0.000000000000000e+00 0.000000000000000e+00
0.000000000000000e+00 0.000000000000000e+00 0.000000000000000e+00
0.000000000000000e+00 0.000000000000000e+00 0.000000000000000e+00
0.000000000000000e+00 0.000000000000000e+00 0.000000000000000e+00
0.000000000000000e+00 0.000000000000000e+00 0.000000000000000e+00
0.000000000000000e+00 0.000000000000000e+00 0.000000000000000e+00
0.000000000000000e+00 0.000000000000000e+00 0.000000000000000e+00
0.000000000000000e+00 0.000000000000000e+00 0.000000000000000e+00
0.000000000000000e+00 0.000000000000000e+00 0.000000000000000e+00
0.000000000000000e+00 0.000000000000000e+00 0.000000000000000e+00
0.000000000000000e+00 0.000000000000000e+00 0.000000000000000e+00
0.000000000000000e+00 0.000000000000000e+00 0.000000000000000e+00
0.000000000000000e+00 0.000000000000000e+00 0.000000000000000e+00
0.000000000000000e+00 0.000000000000000e+00 0.000000000000000e+00
0.000000000000000e+00 0.000000000000000e+00 0.000000000000000e+00
0.000000000000000e+00 0.000000000000000e+00 0.000000000000000e+00
0.000000000000000e+00 0.000000000000000e+00 0.000000000000000e+00
0.000000000000000e+00 0.000000000000000e+00 0.000000000000000e+00
0.000000000000000e+00 0.000000000000000e+00 0.000000000000000e+00
0.000000000000000e+00 0.000000000000000e+00 0.000000000000000e+00
0.000000000000000e+00 0.000000000000000e+00 0.000000000000000e+00
0.000000000000000e+00 0.000000000000000e+00 0.000000000000000e+00
0.000000000000000e+00 0.000000000000000e+00 0.000000000000000e+00
0.000000000000000e+00 0.000000000000000e+00 0.000000000000000e+00
0.000000000000000e+00 0.000000000000000e+00 0.000000000000000e+00
0.000000000000000e+00 0.000000000000000e+00 0.000000000000000e+00
0.000000000000000e+00 0.000000000000000e+00 0.000000000000000e+00
0.000000000000000e+00 0.000000000000000e+00 0.000000000000000e+00
0.000000000000000e+00 0.000000000000000e+00 0.000000000000000e+00
0.000000000000000e+00 0.000000000000000e+00 0.000000000000000e+00
0.000000000000000e+00 0.000000000000000e+00 0.000000000000000e+00
0.000000000000000e+00 0.000000000000000e+00 0.000000000000000e+00
0.000000000000000e+00 0.000000000000000e+00 0.000000000000000e+00
0.000000000000000e+00 0.000000000000000e+00 0.000000000000000e+00
0.000000000000000e+00 0.000000000000000e+00 0.000000000000000e+00
0.000000000000000e+00 0.000000000000000e+00 0.000000000000000e+00
0.000000000000000e+00 0.000000000000000e+00 0.000000000000000e+00
0.000000000000000e+00 0.000000000000000e+00 0.000000000000000e+00
0.000000000000000e+00 0.000000000000000e+00 0.000000000000000e+00
0.000000000000000e+00 0.000000000000000e+00 0.000000000000000e+00
0.000000000000000e+00 0.000000000000000e+00 0.000000000000000e+00
0.000000000000000e+00 0.000000000000000e+00 0.000000000000000e+00
0.000000000000000e+00 0.000000000000000e+00 0.000000000000000e+00
0.000000000000000e+00 0.000000000000000e+00 0.000000000000000e+00
0.000000000000000e+00 0.000000000000000e+00 0.000000000000000e+00
0.000000000000000e+00 0.000000000000000e+00 0.000000000000000e+00
0.000000000000000e+00 0.000000000000000e+00 0.000000000000000e+00
0.000000000000000e+00 0.000000000000000e+00 0.000000000000000e+00
0.000000000000000e+00 0.000000000000000e+00 0.000000000000000e+00
0.000000000000000e+00 0.000000000000000e+00 0.000000000000000e+00
0.000000000000000e+00 0.000000000000000e+00 0.000000000000000e+00
0.000000000000000e+00 0.000000000000000e+00 0.000000000000000e+00
0.000000000000000e+00 0.000000000000000e+00 0.000000000000000e+00
0.000000000000000e+00 0.000000000000000e+00 0.000000000000000e+00
0.000000000000000e+00 0.000000000000000e+00 0.000000000000000e+00
0.000000000000000e+00 0.000000000000000e+00 0.000000000000000e+00
0.000000000000000e+00 0.000000000000000e+00 0.000000000000000e+00
0.000000000000000e+00 0.000000000000000e+00 0.000000000000000e+00
0.000000000000000e+00 0.000000000000000e+00 0.000000000000000e+00
0.000000000000000e+00 0.000000000000000e+00 0.000000000000000e+00
0.000000000000000e+00 0.000000000000000e+00 0.000000000000000e+00
0.000000000000000e+00 0.000000000000000e+00 0.000000000000000e+00
0.000000000000000e+00 0.000000000000000e+00 0.000000000000000e+00
0.000000000000000e+00 0.000000000000000e+00 0.000000000000000e+00
0.000000000000000e+00 0.000000000000000e+00 0.000000000000000e+00
0.000000000000000e+00 0.000000000000000e+00 0.000000000000000e+00
0.000000000000000e+00 0.000000000000000e+00 0.000000000000000e+00
0.000000000000000e+00 0.000000000000000e+00 0.000000000000000e+00
0.000000000000000e+00 0.000000000000000e+00 0.000000000000000e+00
0.000000000000000e+00 0.000000000000000e+00 0.000000000000000e+00
0.000000000000000e+00 0.000000000000000e+00 0.000000000000000e+00
0.000000000000000e+00 0.000000000000000e+00 0.000000000000000e+00
0.000000000000000e+00 0.000000000000000e+00 0.000000000000000e+00
0.000000000000000e+00 0.000000000000000e+00 0.000000000000000e+00
0.000000000000000e+00 0.000000000000000e+00 0.000000000000000e+00
0.000000000000000e+00 0.000000000000000e+00 0.000000000000000e+00
0.000000000000000e+00 0.000000000000000e+00 0.000000000000000e+00
0.000000000000000e+00 0.000000000000000e+00 0.000000000000000e+00
0.000000000000000e+00 0.000000000000000e+00 0.000000000000000e+00
0.000000000000000e+00 0.000000000000000e+00 0.000000000000000e+00
0.000000000000000e+00 0.000000000000000e+00 0.000000000000000e+00
0.000000000000000e+00 0.000000000000000e+00 0.000000000000000e+00
0.000000000000000e+00 0.000000000000000e+00 0.000000000000000e+00
0.000000000000000e+00 0.000000000000000e+00 0.000000000000000e+00
0.000000000000000e+00 0.000000000000000e+00 0.000000000000000e+00
0.000000000000000e+00 0.000000000000000e+00 0.000000000000000e+00
0.000000000000000e+00 0.000000000000000e+00 0.000000000000000e+00
0.000000000000000e+00 0.000000000000000e+00 0.000000000000000e+00
0.000000000000000e+00 0.000000000000000e+00 0.000000000000000e+00
0.000000000000000e+00 0.000000000000000e+00 0.000000000000000e+00
0.000000000000000e+00 0.000000000000000e+00 0.000000000000000e+00
0.000000000000000e+00 0.000000000000000e+00 0.000000000000000e+00
0.000000000000000e+00 0.000000000000000e+00 0.000000000000000e+00
0.000000000000000e+00 0.000000000000000e+00 0.000000000000000e+00
0.000000000000000e+00 0.000000000000000e+00 0.000000000000000e+00
0.000000000000000e+00 0.000000000000000e+00 0.000000000000000e+00
0.000000000000000e+00 0.000000000000000e+00 0.000000000000000e+00
0.000000000000000e+00 0.000000000000000e+00 0.000000000000000e+00
0.000000000000000e+00 0.000000000000000e+00 0.000000000000000e+00
0.000000000000000e+00 0.000000000000000e+00 0.000000000000000e+00
0.000000000000000e+00 0.000000000000000e+00 0.000000000000000e+00
0.000000000000000e+00 0.000000000000000e+00 0.000000000000000e+00
0.000000000000000e+00 0.000000000000000e+00 0.000000000000000e+00
0.000000000000000e+00 0.000000000000000e+00 0.000000000000000e+00
0.000000000000000e+00 0.000000000000000e+00 0.000000000000000e+00
0.000000000000000e+00 0.000000000000000e+00 0.000000000000000e+00
0.000000000000000e+00 0.000000000000000e+00 0.000000000000000e+00
0.000000000000000e+00 0.000000000000000e+00 0.000000000000000e+00
0.000000000000000e+00 0.000000000000000e+00 0.000000000000000e+00
0.000000000000000e+00 0.000000000000000e+00 0.000000000000000e+00
0.000000000000000e+00 0.000000000000000e+00 0.000000000000000e+00
0.000000000000000e+00 0.000000000000000e+00 0.000000000000000e+00
0.000000000000000e+00 0.000000000000000e+00 0.000000000000000e+00
0.000000000000000e+00 0.000000000000000e+00 0.000000000000000e+00
0.000000000000000e+00 0.000000000000000e+00 0.000000000000000e+00
0.000000000000000e+00 0.000000000000000e+00 0.000000000000000e+00
0.000000000000000e+00 0.000000000000000e+00 0.000000000000000e+00
0.000000000000000e+00 0.000000000000000e+00 0.000000000000000e+00
0.000000000000000e+00 0.000000000000000e+00 0.000000000000000e+00
0.000000000000000e+00 0.000000000000000e+00 0.000000000000000e+00
0.000000000000000e+00 0.000000000000000e+00 0.000000000000000e+00
0.000000000000000e+00 0.000000000000000e+00 0.000000000000000e+00
0.000000000000000e+00 0.000000000000000e+00 0.000000000000000e+00
0.000000000000000e+00 0.000000000000000e+00 0.000000000000000e+00
0.000000000000000e+00 0.000000000000000e+00 0.000000000000000e+00
0.000000000000000e+00 0.000000000000000e+00 0.000000000000000e+00
0.000000000000000e+00 0.000000000000000e+00 0.000000000000000e+00
0.000000000000000e+00 0.000000000000000e+00 0.000000000000000e+00
0.000000000000000e+00 0.000000000000000e+00 0.000000000000000e+00
0.000000000000000e+00 0.000000000000000e+00 0.000000000000000e+00
0.000000000000000e+00 0.000000000000000e+00 0.000000000000000e+00
0.000000000000000e+00 0.000000000000000e+00 0.000000000000000e+00
0.000000000000000e+00 0.000000000000000e+00 0.000000000000000e+00
0.000000000000000e+00 0.000000000000000e+00 0.000000000000000e+00
0.000000000000000e+00 0.000000000000000e+00 0.000000000000000e+00
0.000000000000000e+00 0.000000000000000e+00 0.000000000000000e+00
0.000000000000000e+00 0.000000000000000e+00 0.000000000000000e+00
0.000000000000000e+00 0.000000000000000e+00 0.000000000000000e+00
0.000000000000000e+00 0.000000000000000e+00 0.000000000000000e+00
0.000000000000000e+00 0.000000000000000e+00 0.000000000000000e+00
0.000000000000000e+00 0.000000000000000e+00 0.000000000000000e+00
0.000000000000000e+00 0.000000000000000e+00 0.000000000000000e+00
0.000000000000000e+00 0.000000000000000e+00 0.000000000000000e+00
0.000000000000000e+00 0.000000000000000e+00 0.000000000000000e+00
0.000000000000000e+00 0.000000000000000e+00 0.000000000000000e+00
0.000000000000000e+00 0.000000000000000e+00 0.000000000000000e+00
0.000000000000000e+00 0.000000000000000e+00 0.000000000000000e+00
0.000000000000000e+00 0.000000000000000e+00 0.000000000000000e+00
0.000000000000000e+00 0.000000000000000e+00 0.000000000000000e+00
0.000000000000000e+00 0.000000000000000e+00 0.000000000000000e+00
0.000000000000000e+00 0.000000000000000e+00 0.000000000000000e+00
0.000000000000000e+00 0.000000000000000e+00 0.000000000000000e+00
0.000000000000000e+00 0.000000000000000e+00 0.000000000000000e+00
0.000000000000000e+00 0.000000000000000e+00 0.000000000000000e+00
0.000000000000000e+00 0.000000000000000e+00 0.000000000000000e+00
0.000000000000000e+00 0.000000000000000e+00 0.000000000000000e+00
0.000000000000000e+00 0.000000000000000e+00 0.000000000000000e+00
0.000000000000000e+00 0.000000000000000e+00 0.000000000000000e+00
0.000000000000000e+00 0.000000000000000e+00 0.000000000000000e+00
0.000000000000000e+00 0.000000000000000e+00 0.000000000000000e+00
0.000000000000000e+00 0.000000000000000e+00 0.000000000000000e+00
0.000000000000000e+00 0.000000000000000e+00 0.000000000000000e+00
0.000000000000000e+00 0.000000000000000e+00 0.000000000000000e+00
0.000000000000000e+00 0.000000000000000e+00 0.000000000000000e+00
0.000000000000000e+00 0.000000000000000e+00 0.000000000000000e+00
0.000000000000000e+00 0.000000000000000e+00 0.000000000000000e+00
0.000000000000000e+00 0.000000000000000e+00 0.000000000000000e+00
0.000000000000000e+00 0.000000000000000e+00 0.000000000000000e+00
0.000000000000000e+00 0.000000000000000e+00 0.000000000000000e+00
0.000000000000000e+00 0.000000000000000e+00 0.000000000000000e+00
0.000000000000000e+00 0.000000000000000e+00 0.000000000000000e+00
0.000000000000000e+00 0.000000000000000e+00 0.000000000000000e+00
0.000000000000000e+00 0.000000000000000e+00 0.000000000000000e+00
0.000000000000000e+00 0.000000000000000e+00 0.000000000000000e+00
0.000000000000000e+00 0.000000000000000e+00 0.000000000000000e+00
0.000000000000000e+00 0.000000000000000e+00 0.000000000000000e+00
0.000000000000000e+00 0.000000000000000e+00 0.000000000000000e+00
0.000000000000000e+00 0.000000000000000e+00 0.000000000000000e+00
0.000000000000000e+00 0.000000000000000e+00 0.000000000000000e+00
0.000000000000000e+00 0.000000000000000e+00 0.000000000000000e+00
0.000000000000000e+00 0.000000000000000e+00 0.000000000000000e+00
0.000000000000000e+00 0.000000000000000e+00 0.000000000000000e+00
0.000000000000000e+00 0.000000000000000e+00 0.000000000000000e+00
0.000000000000000e+00 0.000000000000000e+00 0.000000000000000e+00
0.000000000000000e+00 0.000000000000000e+00 0.000000000000000e+00
0.000000000000000e+00 0.000000000000000e+00 0.000000000000000e+00
0.000000000000000e+00 0.000000000000000e+00 0.000000000000000e+00
0.000000000000000e+00 0.000000000000000e+00 0.000000000000000e+00
0.000000000000000e+00 0.000000000000000e+00 0.000000000000000e+00
0.000000000000000e+00 0.000000000000000e+00 0.000000000000000e+00
0.000000000000000e+00 0.000000000000000e+00 0.000000000000000e+00
0.000000000000000e+00 0.000000000000000e+00 0.000000000000000e+00
0.000000000000000e+00 0.000000000000000e+00 0.000000000000000e+00
0.000000000000000e+00 0.000000000000000e+00 0.000000000000000e+00
0.000000000000000e+00 0.000000000000000e+00 0.000000000000000e+00
0.000000000000000e+00 0.000000000000000e+00 0.000000000000000e+00
0.000000000000000e+00 0.000000000000000e+00 0.000000000000000e+00
0.000000000000000e+00 0.000000000000000e+00 0.000000000000000e+00
0.000000000000000e+00 0.000000000000000e+00 0.000000000000000e+00
0.000000000000000e+00 0.000000000000000e+00 0.000000000000000e+00
0.000000000000000e+00 0.000000000000000e+00 0.000000000000000e+00
0.000000000000000e+00 0.000000000000000e+00 0.000000000000000e+00
0.000000000000000e+00 0.000000000000000e+00 0.000000000000000e+00
0.000000000000000e+00 0.000000000000000e+00 0.000000000000000e+00
0.000000000000000e+00 0.000000000000000e+00 0.000000000000000e+00
0.000000000000000e+00 0.000000000000000e+00 0.000000000000000e+00
0.000000000000000e+00 0.000000000000000e+00 0.000000000000000e+00
0.000000000000000e+00 0.000000000000000e+00 0.000000000000000e+00
0.000000000000000e+00 0.000000000000000e+00 0.000000000000000e+00
0.000000000000000e+00 0.000000000000000e+00 0.000000000000000e+00
0.000000000000000e+00 0.000000000000000e+00 0.000000000000000e+00
0.000000000000000e+00 0.000000000000000e+00 0.000000000000000e+00
0.000000000000000e+00 0.000000000000000e+00 0.000000000000000e+00
0.000000000000000e+00 0.000000000000000e+00 0.000000000000000e+00
0.000000000000000e+00 0.000000000000000e+00 0.000000000000000e+00
0.000000000000000e+00 0.000000000000000e+00 0.000000000000000e+00
0.000000000000000e+00 0.000000000000000e+00 0.000000000000000e+00
0.000000000000000e+00 0.000000000000000e+00 0.000000000000000e+00
0.000000000000000e+00 0.000000000000000e+00 0.000000000000000e+00
0.000000000000000e+00 0.000000000000000e+00 0.000000000000000e+00
0.000000000000000e+00 0.000000000000000e+00 0.000000000000000e+00
0.000000000000000e+00 0.000000000000000e+00 0.000000000000000e+00
0.000000000000000e+00 0.000000000000000e+00 0.000000000000000e+00
0.000000000000000e+00 0.000000000000000e+00 0.000000000000000e+00
0.000000000000000e+00 0.000000000000000e+00 0.000000000000000e+00
0.000000000000000e+00 0.000000000000000e+00 0.000000000000000e+00
0.000000000000000e+00 0.000000000000000e+00 0.000000000000000e+00
0.000000000000000e+00 0.000000000000000e+00 0.000000000000000e+00
0.000000000000000e+00 0.000000000000000e+00 0.000000000000000e+00
0.000000000000000e+00 0.000000000000000e+00 0.000000000000000e+00
0.000000000000000e+00 0.000000000000000e+00 0.000000000000000e+00
0.000000000000000e+00 0.000000000000000e+00 0.000000000000000e+00
0.000000000000000e+00 0.000000000000000e+00 0.000000000000000e+00
0.000000000000000e+00 0.000000000000000e+00 0.000000000000000e+00
0.000000000000000e+00 0.000000000000000e+00 0.000000000000000e+00
0.000000000000000e+00 0.000000000000000e+00 0.000000000000000e+00
0.000000000000000e+00 0.000000000000000e+00 0.000000000000000e+00
0.000000000000000e+00 0.000000000000000e+00 0.000000000000000e+00
0.000000000000000e+00 0.000000000000000e+00 0.000000000000000e+00
0.000000000000000e+00 0.000000000000000e+00 0.000000000000000e+00
0.000000000000000e+00 0.000000000000000e+00 0.000000000000000e+00
0.000000000000000e+00 0.000000000000000e+00 0.000000000000000e+00
0.000000000000000e+00 0.000000000000000e+00 0.000000000000000e+00
0.000000000000000e+00 0.000000000000000e+00 0.000000000000000e+00
0.000000000000000e+00 0.000000000000000e+00 0.000000000000000e+00
0.000000000000000e+00 0.000000000000000e+00 0.000000000000000e+00
0.000000000000000e+00 0.000000000000000e+00 0.000000000000000e+00
0.000000000000000e+00 0.000000000000000e+00 0.000000000000000e+00
0.000000000000000e+00 0.000000000000000e+00 0.000000000000000e+00
0.000000000000000e+00 0.000000000000000e+00 0.000000000000000e+00
0.000000000000000e+00 0.000000000000000e+00 0.000000000000000e+00
0.000000000000000e+00 0.000000000000000e+00 0.000000000000000e+00
0.000000000000000e+00 0.000000000000000e+00 0.000000000000000e+00
0.000000000000000e+00 0.000000000000000e+00 0.000000000000000e+00
0.000000000000000e+00 0.000000000000000e+00 0.000000000000000e+00
0.000000000000000e+00 0.000000000000000e+00 0.000000000000000e+00
0.000000000000000e+00 0.000000000000000e+00 0.000000000000000e+00
0.000000000000000e+00 0.000000000000000e+00 0.000000000000000e+00
0.000000000000000e+00 0.000000000000000e+00 0.000000000000000e+00
0.000000000000000e+00 0.000000000000000e+00 0.000000000000000e+00
0.000000000000000e+00 0.000000000000000e+00 0.000000000000000e+00
0.000000000000000e+00 0.000000000000000e+00 0.000000000000000e+00
0.000000000000000e+00 0.000000000000000e+00 0.000000000000000e+00
0.000000000000000e+00 0.000000000000000e+00 0.000000000000000e+00
0.000000000000000e+00 0.000000000000000e+00 0.000000000000000e+00
0.000000000000000e+00 0.000000000000000e+00 0.000000000000000e+00
0.000000000000000e+00 0.000000000000000e+00 0.000000000000000e+00
0.000000000000000e+00 0.000000000000000e+00 0.000000000000000e+00
0.000000000000000e+00 0.000000000000000e+00 0.000000000000000e+00
0.000000000000000e+00 0.000000000000000e+00 0.000000000000000e+00
0.000000000000000e+00 0.000000000000000e+00 0.000000000000000e+00
0.000000000000000e+00 0.000000000000000e+00 0.000000000000000e+00
0.000000000000000e+00 0.000000000000000e+00 0.000000000000000e+00
0.000000000000000e+00 0.000000000000000e+00 0.000000000000000e+00
0.000000000000000e+00 0.000000000000000e+00 0.000000000000000e+00
0.000000000000000e+00 0.000000000000000e+00 0.000000000000000e+00
0.000000000000000e+00 0.000000000000000e+00 0.000000000000000e+00
0.000000000000000e+00 0.000000000000000e+00 0.000000000000000e+00
0.000000000000000e+00 0.000000000000000e+00 0.000000000000000e+00
0.000000000000000e+00 0.000000000000000e+00 0.000000000000000e+00
0.000000000000000e+00 0.000000000000000e+00 0.000000000000000e+00
0.000000000000000e+00 0.000000000000000e+00 0.000000000000000e+00
0.000000000000000e+00 0.000000000000000e+00 0.000000000000000e+00
0.000000000000000e+00 0.000000000000000e+00 0.000000000000000e+00
0.000000000000000e+00 0.000000000000000e+00 0.000000000000000e+00
0.000000000000000e+00 0.000000000000000e+00 0.000000000000000e+00
0.000000000000000e+00 0.000000000000000e+00 0.000000000000000e+00
0.000000000000000e+00 0.000000000000000e+00 0.000000000000000e+00
0.000000000000000e+00 0.000000000000000e+00 0.000000000000000e+00
0.000000000000000e+00 0.000000000000000e+00 0.000000000000000e+00
0.000000000000000e+00 0.000000000000000e+00 0.000000000000000e+00
0.000000000000000e+00 0.000000000000000e+00 0.000000000000000e+00
0.000000000000000e+00 0.000000000000000e+00 0.000000000000000e+00
0.000000000000000e+00 0.000000000000000e+00 0.000000000000000e+00
0.000000000000000e+00 0.000000000000000e+00 0.000000000000000e+00
0.000000000000000e+00 0.000000000000000e+00 0.000000000000000e+00
0.000000000000000e+00 0.000000000000000e+00 0.000000000000000e+00
0.000000000000000e+00 0.000000000000000e+00 0.000000000000000e+00
0.000000000000000e+00 0.000000000000000e+00 0.000000000000000e+00
0.000000000000000e+00 0.000000000000000e+00 0.000000000000000e+00
0.000000000000000e+00 0.000000000000000e+00 0.000000000000000e+00
0.000000000000000e+00 0.000000000000000e+00 0.000000000000000e+00
0.000000000000000e+00 0.000000000000000e+00 0.000000000000000e+00
0.000000000000000e+00 0.000000000000000e+00 0.000000000000000e+00
0.000000000000000e+00 0.000000000000000e+00 0.000000000000000e+00
0.000000000000000e+00 0.000000000000000e+00 0.000000000000000e+00
0.000000000000000e+00 0.000000000000000e+00 0.000000000000000e+00
0.000000000000000e+00 0.000000000000000e+00 0.000000000000000e+00
0.000000000000000e+00 0.000000000000000e+00 0.000000000000000e+00
0.000000000000000e+00 0.000000000000000e+00 0.000000000000000e+00
0.000000000000000e+00 0.000000000000000e+00 0.000000000000000e+00
0.000000000000000e+00 0.000000000000000e+00 0.000000000000000e+00
0.000000000000000e+00 0.000000000000000e+00 0.000000000000000e+00
0.000000000000000e+00 0.000000000000000e+00 0.000000000000000e+00
0.000000000000000e+00 0.000000000000000e+00 0.000000000000000e+00
0.000000000000000e+00 0.000000000000000e+00 0.000000000000000e+00
0.000000000000000e+00 0.000000000000000e+00 0.000000000000000e+00
0.000000000000000e+00 0.000000000000000e+00 0.000000000000000e+00
0.000000000000000e+00 0.000000000000000e+00 0.000000000000000e+00
0.000000000000000e+00 0.000000000000000e+00 0.000000000000000e+00
0.000000000000000e+00 0.000000000000000e+00 0.000000000000000e+00
0.000000000000000e+00 0.000000000000000e+00 0.000000000000000e+00
0.000000000000000e+00 0.000000000000000e+00 0.000000000000000e+00
0.000000000000000e+00 0.000000000000000e+00 0.000000000000000e+00
0.000000000000000e+00 0.000000000000000e+00 0.000000000000000e+00
0.000000000000000e+00 0.000000000000000e+00 0.000000000000000e+00
0.000000000000000e+00 0.000000000000000e+00 0.000000000000000e+00
0.000000000000000e+00 0.000000000000000e+00 0.000000000000000e+00
0.000000000000000e+00 0.000000000000000e+00 0.000000000000000e+00
0.000000000000000e+00 0.000000000000000e+00 0.000000000000000e+00
0.000000000000000e+00 0.000000000000000e+00 0.000000000000000e+00
0.000000000000000e+00 0.000000000000000e+00 0.000000000000000e+00
0.000000000000000e+00 0.000000000000000e+00 0.000000000000000e+00
0.000000000000000e+00 0.000000000000000e+00 0.000000000000000e+00
0.000000000000000e+00 0.000000000000000e+00 0.000000000000000e+00
0.000000000000000e+00 0.000000000000000e+00 0.000000000000000e+00
0.000000000000000e+00 0.000000000000000e+00 0.000000000000000e+00
0.000000000000000e+00 0.000000000000000e+00 0.000000000000000e+00
0.000000000000000e+00 0.000000000000000e+00 0.000000000000000e+00
0.000000000000000e+00 0.000000000000000e+00 0.000000000000000e+00
0.000000000000000e+00 0.000000000000000e+00 0.000000000000000e+00
0.000000000000000e+00 0.000000000000000e+00 0.000000000000000e+00
0.000000000000000e+00 0.000000000000000e+00 0.000000000000000e+00
0.000000000000000e+00 0.000000000000000e+00 0.000000000000000e+00
0.000000000000000e+00 0.000000000000000e+00 0.000000000000000e+00
0.000000000000000e+00 0.000000000000000e+00 0.000000000000000e+00
0.000000000000000e+00 0.000000000000000e+00 0.000000000000000e+00
0.000000000000000e+00 0.000000000000000e+00 0.000000000000000e+00
0.000000000000000e+00 0.000000000000000e+00 0.000000000000000e+00
0.000000000000000e+00 0.000000000000000e+00 0.000000000000000e+00
0.000000000000000e+00 0.000000000000000e+00 0.000000000000000e+00
0.000000000000000e+00 0.000000000000000e+00 0.000000000000000e+00
0.000000000000000e+00 0.000000000000000e+00 0.000000000000000e+00
0.000000000000000e+00 0.000000000000000e+00 0.000000000000000e+00
0.000000000000000e+00 0.000000000000000e+00 0.000000000000000e+00
0.000000000000000e+00 0.000000000000000e+00 0.000000000000000e+00
0.000000000000000e+00 0.000000000000000e+00 0.000000000000000e+00
0.000000000000000e+00 0.000000000000000e+00 0.000000000000000e+00
0.000000000000000e+00 0.000000000000000e+00 0.000000000000000e+00
0.000000000000000e+00 0.000000000000000e+00 0.000000000000000e+00
0.000000000000000e+00 0.000000000000000e+00 0.000000000000000e+00
0.000000000000000e+00 0.000000000000000e+00 0.000000000000000e+00
0.000000000000000e+00 0.000000000000000e+00 0.000000000000000e+00
0.000000000000000e+00 0.000000000000000e+00 0.000000000000000e+00
0.000000000000000e+00 0.000000000000000e+00 0.000000000000000e+00
0.000000000000000e+00 0.000000000000000e+00 0.000000000000000e+00
0.000000000000000e+00 0.000000000000000e+00 0.000000000000000e+00
0.000000000000000e+00 0.000000000000000e+00 0.000000000000000e+00
0.000000000000000e+00 0.000000000000000e+00 0.000000000000000e+00
0.000000000000000e+00 0.000000000000000e+00 0.000000000000000e+00
0.000000000000000e+00 0.000000000000000e+00 0.000000000000000e+00
0.000000000000000e+00 0.000000000000000e+00 0.000000000000000e+00
0.000000000000000e+00 0.000000000000000e+00 0.000000000000000e+00
0.000000000000000e+00 0.000000000000000e+00 0.000000000000000e+00
0.000000000000000e+00 0.000000000000000e+00 0.000000000000000e+00
0.000000000000000e+00 0.000000000000000e+00 0.000000000000000e+00
0.000000000000000e+00 0.000000000000000e+00 0.000000000000000e+00
0.000000000000000e+00 0.000000000000000e+00 0.000000000000000e+00
0.000000000000000e+00 0.000000000000000e+00 0.000000000000000e+00
0.000000000000000e+00 0.000000000000000e+00 0.000000000000000e+00
0.000000000000000e+00 0.000000000000000e+00 0.000000000000000e+00
0.000000000000000e+00 0.000000000000000e+00 0.000000000000000e+00
0.000000000000000e+00 0.000000000000000e+00 0.000000000000000e+00
0.000000000000000e+00 0.000000000000000e+00 0.000000000000000e+00
0.000000000000000e+00 0.000000000000000e+00 0.000000000000000e+00
0.000000000000000e+00 0.000000000000000e+00 0.000000000000000e+00
0.000000000000000e+00 0.000000000000000e+00 0.000000000000000e+00
0.000000000000000e+00 0.000000000000000e+00 0.000000000000000e+00
0.000000000000000e+00 0.000000000000000e+00 0.000000000000000e+00
0.000000000000000e+00 0.000000000000000e+00 0.000000000000000e+00
0.000000000000000e+00 0.000000000000000e+00 0.000000000000000e+00
0.000000000000000e+00 0.000000000000000e+00 0.000000000000000e+00
0.000000000000000e+00 0.000000000000000e+00 0.000000000000000e+00
0.000000000000000e+00 0.000000000000000e+00 0.000000000000000e+00
0.000000000000000e+00 0.000000000000000e+00 0.000000000000000e+00
0.000000000000000e+00 0.000000000000000e+00 0.000000000000000e+00
0.000000000000000e+00 0.000000000000000e+00 0.000000000000000e+00
0.000000000000000e+00 0.000000000000000e+00 0.000000000000000e+00
0.000000000000000e+00 0.000000000000000e+00 0.000000000000000e+00
0.000000000000000e+00 0.000000000000000e+00 0.000000000000000e+00
0.000000000000000e+00 0.000000000000000e+00 0.000000000000000e+00
0.000000000000000e+00 0.000000000000000e+00 0.000000000000000e+00
0.000000000000000e+00 0.000000000000000e+00 0.000000000000000e+00
0.000000000000000e+00 0.000000000000000e+00 0.000000000000000e+00
0.000000000000000e+00 0.000000000000000e+00 0.000000000000000e+00
0.000000000000000e+00 0.000000000000000e+00 0.000000000000000e+00
0.000000000000000e+00 0.000000000000000e+00 0.000000000000000e+00
0.000000000000000e+00 0.000000000000000e+00 0.000000000000000e+00
0.000000000000000e+00 0.000000000000000e+00 0.000000000000000e+00
0.000000000000000e+00 0.000000000000000e+00 0.000000000000000e+00
0.000000000000000e+00 0.000000000000000e+00 0.000000000000000e+00
0.000000000000000e+00 0.000000000000000e+00 0.000000000000000e+00
0.000000000000000e+00 0.000000000000000e+00 0.000000000000000e+00
0.000000000000000e+00 0.000000000000000e+00 0.000000000000000e+00
0.000000000000000e+00 0.000000000000000e+00 0.000000000000000e+00
0.000000000000000e+00 0.000000000000000e+00 0.000000000000000e+00
0.000000000000000e+00 0.000000000000000e+00 0.000000000000000e+00
0.000000000000000e+00 0.000000000000000e+00 0.000000000000000e+00
0.000000000000000e+00 0.000000000000000e+00 0.000000000000000e+00
0.000000000000000e+00 0.000000000000000e+00 0.000000000000000e+00
0.000000000000000e+00 0.000000000000000e+00 0.000000000000000e+00
0.000000000000000e+00 0.000000000000000e+00 0.000000000000000e+00
0.000000000000000e+00 0.000000000000000e+00 0.000000000000000e+00
0.000000000000000e+00 0.000000000000000e+00 0.000000000000000e+00
0.000000000000000e+00 0.000000000000000e+00 0.000000000000000e+00
0.000000000000000e+00 0.000000000000000e+00 0.000000000000000e+00
0.000000000000000e+00 0.000000000000000e+00 0.000000000000000e+00
0.000000000000000e+00 0.000000000000000e+00 0.000000000000000e+00
0.000000000000000e+00 0.000000000000000e+00 0.000000000000000e+00
0.000000000000000e+00 0.000000000000000e+00 0.000000000000000e+00
0.000000000000000e+00 0.000000000000000e+00 0.000000000000000e+00
0.000000000000000e+00 0.000000000000000e+00 0.000000000000000e+00
0.000000000000000e+00 0.000000000000000e+00 0.000000000000000e+00
0.000000000000000e+00 0.000000000000000e+00 0.000000000000000e+00
0.000000000000000e+00 0.000000000000000e+00 0.000000000000000e+00
0.000000000000000e+00 0.000000000000000e+00 0.000000000000000e+00
0.000000000000000e+00 0.000000000000000e+00 0.000000000000000e+00
0.000000000000000e+00 0.000000000000000e+00 0.000000000000000e+00
0.000000000000000e+00 0.000000000000000e+00 0.000000000000000e+00
0.000000000000000e+00 0.000000000000000e+00 0.000000000000000e+00
0.000000000000000e+00 0.000000000000000e+00 0.000000000000000e+00
0.000000000000000e+00 0.000000000000000e+00 0.000000000000000e+00
0.000000000000000e+00 0.000000000000000e+00 0.000000000000000e+00
0.000000000000000e+00 0.000000000000000e+00 0.000000000000000e+00
0.000000000000000e+00 0.000000000000000e+00 0.000000000000000e+00
0.000000000000000e+00 0.000000000000000e+00 0.000000000000000e+00
0.000000000000000e+00 0.000000000000000e+00 0.000000000000000e+00
0.000000000000000e+00 0.000000000000000e+00 0.000000000000000e+00
0.000000000000000e+00 0.000000000000000e+00 0.000000000000000e+00
0.000000000000000e+00 0.000000000000000e+00 0.000000000000000e+00
0.000000000000000e+00 0.000000000000000e+00 0.000000000000000e+00
0.000000000000000e+00 0.000000000000000e+00 0.000000000000000e+00
0.000000000000000e+00 0.000000000000000e+00 0.000000000000000e+00
0.000000000000000e+00 0.000000000000000e+00 0.000000000000000e+00
0.000000000000000e+00 0.000000000000000e+00 0.000000000000000e+00
0.000000000000000e+00 0.000000000000000e+00 0.000000000000000e+00
0.000000000000000e+00 0.000000000000000e+00 0.000000000000000e+00
0.000000000000000e+00 0.000000000000000e+00 0.000000000000000e+00
0.000000000000000e+00 0.000000000000000e+00 0.000000000000000e+00
0.000000000000000e+00 0.000000000000000e+00 0.000000000000000e+00
0.000000000000000e+00 0.000000000000000e+00 0.000000000000000e+00
0.000000000000000e+00 0.000000000000000e+00 0.000000000000000e+00
0.000000000000000e+00 0.000000000000000e+00 0.000000000000000e+00
0.000000000000000e+00 0.000000000000000e+00 0.000000000000000e+00
0.000000000000000e+00 0.000000000000000e+00 0.000000000000000e+00
0.000000000000000e+00 0.000000000000000e+00 0.000000000000000e+00
0.000000000000000e+00 0.000000000000000e+00 0.000000000000000e+00
0.000000000000000e+00 0.000000000000000e+00 0.000000000000000e+00
0.000000000000000e+00 0.000000000000000e+00 0.000000000000000e+00
0.000000000000000e+00 0.000000000000000e+00 0.000000000000000e+00
0.000000000000000e+00 0.000000000000000e+00 0.000000000000000e+00
0.000000000000000e+00 0.000000000000000e+00 0.000000000000000e+00
0.000000000000000e+00 0.000000000000000e+00 0.000000000000000e+00
0.000000000000000e+00 0.000000000000000e+00 0.000000000000000e+00
0.000000000000000e+00 0.000000000000000e+00 0.000000000000000e+00
0.000000000000000e+00 0.000000000000000e+00 0.000000000000000e+00
0.000000000000000e+00 0.000000000000000e+00 0.000000000000000e+00
0.000000000000000e+00 0.000000000000000e+00 0.000000000000000e+00
0.000000000000000e+00 0.000000000000000e+00 0.000000000000000e+00
0.000000000000000e+00 0.000000000000000e+00 0.000000000000000e+00
0.000000000000000e+00 0.000000000000000e+00 0.000000000000000e+00
0.000000000000000e+00 0.000000000000000e+00 0.000000000000000e+00
0.000000000000000e+00 0.000000000000000e+00 0.000000000000000e+00
0.000000000000000e+00 0.000000000000000e+00 0.000000000000000e+00
0.000000000000000e+00 0.000000000000000e+00 0.000000000000000e+00
0.000000000000000e+00 0.000000000000000e+00 0.000000000000000e+00
0.000000000000000e+00 0.000000000000000e+00 0.000000000000000e+00
0.000000000000000e+00 0.000000000000000e+00 0.000000000000000e+00
0.000000000000000e+00 0.000000000000000e+00 0.000000000000000e+00
0.000000000000000e+00 0.000000000000000e+00 0.000000000000000e+00
0.000000000000000e+00 0.000000000000000e+00 0.000000000000000e+00
0.000000000000000e+00 0.000000000000000e+00 0.000000000000000e+00
0.000000000000000e+00 0.000000000000000e+00 0.000000000000000e+00
0.000000000000000e+00 0.000000000000000e+00 0.000000000000000e+00
0.000000000000000e+00 0.000000000000000e+00 0.000000000000000e+00
0.000000000000000e+00 0.000000000000000e+00 0.000000000000000e+00
0.000000000000000e+00 0.000000000000000e+00 0.000000000000000e+00
0.000000000000000e+00 0.000000000000000e+00 0.000000000000000e+00
0.000000000000000e+00 0.000000000000000e+00 0.000000000000000e+00
0.000000000000000e+00 0.000000000000000e+00 0.000000000000000e+00
0.000000000000000e+00 0.000000000000000e+00 0.000000000000000e+00
0.000000000000000e+00 0.000000000000000e+00 0.000000000000000e+00
0.000000000000000e+00 0.000000000000000e+00 0.000000000000000e+00
0.000000000000000e+00 0.000000000000000e+00 0.000000000000000e+00
0.000000000000000e+00 0.000000000000000e+00 0.000000000000000e+00
0.000000000000000e+00 0.000000000000000e+00 0.000000000000000e+00
0.000000000000000e+00 0.000000000000000e+00 0.000000000000000e+00
0.000000000000000e+00 0.000000000000000e+00 0.000000000000000e+00
0.000000000000000e+00 0.000000000000000e+00 0.000000000000000e+00
0.000000000000000e+00 0.000000000000000e+00 0.000000000000000e+00
0.000000000000000e+00 0.000000000000000e+00 0.000000000000000e+00
0.000000000000000e+00 0.000000000000000e+00 0.000000000000000e+00
0.000000000000000e+00 0.000000000000000e+00 0.000000000000000e+00
0.000000000000000e+00 0.000000000000000e+00 0.000000000000000e+00
0.000000000000000e+00 0.000000000000000e+00 0.000000000000000e+00
0.000000000000000e+00 0.000000000000000e+00 0.000000000000000e+00
0.000000000000000e+00 0.000000000000000e+00 0.000000000000000e+00
0.000000000000000e+00 0.000000000000000e+00 0.000000000000000e+00
0.000000000000000e+00 0.000000000000000e+00 0.000000000000000e+00
0.000000000000000e+00 0.000000000000000e+00 0.000000000000000e+00
0.000000000000000e+00 0.000000000000000e+00 0.000000000000000e+00
0.000000000000000e+00 0.000000000000000e+00 0.000000000000000e+00
0.000000000000000e+00 0.000000000000000e+00 0.000000000000000e+00
0.000000000000000e+00 0.000000000000000e+00 0.000000000000000e+00
0.000000000000000e+00 0.000000000000000e+00 0.000000000000000e+00
0.000000000000000e+00 0.000000000000000e+00 0.000000000000000e+00
0.000000000000000e+00 0.000000000000000e+00 0.000000000000000e+00
0.000000000000000e+00 0.000000000000000e+00 0.000000000000000e+00
0.000000000000000e+00 0.000000000000000e+00 0.000000000000000e+00
0.000000000000000e+00 0.000000000000000e+00 0.000000000000000e+00
0.000000000000000e+00 0.000000000000000e+00 0.000000000000000e+00
0.000000000000000e+00 0.000000000000000e+00 0.000000000000000e+00
0.000000000000000e+00 0.000000000000000e+00 0.000000000000000e+00
0.000000000000000e+00 0.000000000000000e+00 0.000000000000000e+00
0.000000000000000e+00 0.000000000000000e+00 0.000000000000000e+00
0.000000000000000e+00 0.000000000000000e+00 0.000000000000000e+00
0.000000000000000e+00 0.000000000000000e+00 0.000000000000000e+00
0.000000000000000e+00 0.000000000000000e+00 0.000000000000000e+00
0.000000000000000e+00 0.000000000000000e+00 0.000000000000000e+00
0.000000000000000e+00 0.000000000000000e+00 0.000000000000000e+00
0.000000000000000e+00 0.000000000000000e+00 0.000000000000000e+00
0.000000000000000e+00 0.000000000000000e+00 0.000000000000000e+00
0.000000000000000e+00 0.000000000000000e+00 0.000000000000000e+00
0.000000000000000e+00 0.000000000000000e+00 0.000000000000000e+00
0.000000000000000e+00 0.000000000000000e+00 0.000000000000000e+00
0.000000000000000e+00 0.000000000000000e+00 0.000000000000000e+00
0.000000000000000e+00 0.000000000000000e+00 0.000000000000000e+00
0.000000000000000e+00 0.000000000000000e+00 0.000000000000000e+00
0.000000000000000e+00 0.000000000000000e+00 0.000000000000000e+00
0.000000000000000e+00 0.000000000000000e+00 0.000000000000000e+00
0.000000000000000e+00 0.000000000000000e+00 0.000000000000000e+00
0.000000000000000e+00 0.000000000000000e+00 0.000000000000000e+00
0.000000000000000e+00 0.000000000000000e+00 0.000000000000000e+00
0.000000000000000e+00 0.000000000000000e+00 0.000000000000000e+00
0.000000000000000e+00 0.000000000000000e+00 0.000000000000000e+00
0.000000000000000e+00 0.000000000000000e+00 0.000000000000000e+00
0.000000000000000e+00 0.000000000000000e+00 0.000000000000000e+00
0.000000000000000e+00 0.000000000000000e+00 0.000000000000000e+00
0.000000000000000e+00 0.000000000000000e+00 0.000000000000000e+00
0.000000000000000e+00 0.000000000000000e+00 0.000000000000000e+00
0.000000000000000e+00 0.000000000000000e+00 0.000000000000000e+00
0.000000000000000e+00 0.000000000000000e+00 0.000000000000000e+00
0.000000000000000e+00 0.000000000000000e+00 0.000000000000000e+00
0.000000000000000e+00 0.000000000000000e+00 0.000000000000000e+00
0.000000000000000e+00 0.000000000000000e+00 0.000000000000000e+00
0.000000000000000e+00 0.000000000000000e+00 0.000000000000000e+00
0.000000000000000e+00 0.000000000000000e+00 0.000000000000000e+00
0.000000000000000e+00 0.000000000000000e+00 0.000000000000000e+00
0.000000000000000e+00 0.000000000000000e+00 0.000000000000000e+00
0.000000000000000e+00 0.000000000000000e+00 0.000000000000000e+00
0.000000000000000e+00 0.000000000000000e+00 0.000000000000000e+00
0.000000000000000e+00 0.000000000000000e+00 0.000000000000000e+00
0.000000000000000e+00 0.000000000000000e+00 0.000000000000000e+00
0.000000000000000e+00 0.000000000000000e+00 0.000000000000000e+00
0.000000000000000e+00 0.000000000000000e+00 0.000000000000000e+00
0.000000000000000e+00 0.000000000000000e+00 0.000000000000000e+00
0.000000000000000e+00 0.000000000000000e+00 0.000000000000000e+00
0.000000000000000e+00 0.000000000000000e+00 0.000000000000000e+00
0.000000000000000e+00 0.000000000000000e+00 0.000000000000000e+00
0.000000000000000e+00 0.000000000000000e+00 0.000000000000000e+00
0.000000000000000e+00 0.000000000000000e+00 0.000000000000000e+00
0.000000000000000e+00 0.000000000000000e+00 0.000000000000000e+00
0.000000000000000e+00 0.000000000000000e+00 0.000000000000000e+00
0.000000000000000e+00 0.000000000000000e+00 0.000000000000000e+00
0.000000000000000e+00 0.000000000000000e+00 0.000000000000000e+00
0.000000000000000e+00 0.000000000000000e+00 0.000000000000000e+00
0.000000000000000e+00 0.000000000000000e+00 0.000000000000000e+00
0.000000000000000e+00 0.000000000000000e+00 0.000000000000000e+00
0.000000000000000e+00 0.000000000000000e+00 0.000000000000000e+00
0.000000000000000e+00 0.000000000000000e+00 0.000000000000000e+00
0.000000000000000e+00 0.000000000000000e+00 0.000000000000000e+00
0.000000000000000e+00 0.000000000000000e+00 0.000000000000000e+00
0.000000000000000e+00 0.000000000000000e+00 0.000000000000000e+00
0.000000000000000e+00 0.000000000000000e+00 0.000000000000000e+00
0.000000000000000e+00 0.000000000000000e+00 0.000000000000000e+00
0.000000000000000e+00 0.000000000000000e+00 0.000000000000000e+00
0.000000000000000e+00 0.000000000000000e+00 0.000000000000000e+00
0.000000000000000e+00 0.000000000000000e+00 0.000000000000000e+00
0.000000000000000e+00 0.000000000000000e+00 0.000000000000000e+00
0.000000000000000e+00 0.000000000000000e+00 0.000000000000000e+00
0.000000000000000e+00 0.000000000000000e+00 0.000000000000000e+00
0.000000000000000e+00 0.000000000000000e+00 0.000000000000000e+00
0.000000000000000e+00 0.000000000000000e+00 0.000000000000000e+00
0.000000000000000e+00 0.000000000000000e+00 0.000000000000000e+00
0.000000000000000e+00 0.000000000000000e+00 0.000000000000000e+00
0.000000000000000e+00 0.000000000000000e+00 0.000000000000000e+00
0.000000000000000e+00 0.000000000000000e+00 0.000000000000000e+00
0.000000000000000e+00 0.000000000000000e+00 0.000000000000000e+00
0.000000000000000e+00 0.000000000000000e+00 0.000000000000000e+00
0.000000000000000e+00 0.000000000000000e+00 0.000000000000000e+00
0.000000000000000e+00 0.000000000000000e+00 0.000000000000000e+00
0.000000000000000e+00 0.000000000000000e+00 0.000000000000000e+00
0.000000000000000e+00 0.000000000000000e+00 0.000000000000000e+00
0.000000000000000e+00 0.000000000000000e+00 0.000000000000000e+00
0.000000000000000e+00 0.000000000000000e+00 0.000000000000000e+00
0.000000000000000e+00 0.000000000000000e+00 0.000000000000000e+00
0.000000000000000e+00 0.000000000000000e+00 0.000000000000000e+00
0.000000000000000e+00 0.000000000000000e+00 0.000000000000000e+00
0.000000000000000e+00 0.000000000000000e+00 0.000000000000000e+00
0.000000000000000e+00 0.000000000000000e+00 0.000000000000000e+00
0.000000000000000e+00 0.000000000000000e+00 0.000000000000000e+00
0.000000000000000e+00 0.000000000000000e+00 0.000000000000000e+00
0.000000000000000e+00 0.000000000000000e+00 0.000000000000000e+00
0.000000000000000e+00 0.000000000000000e+00 0.000000000000000e+00
0.000000000000000e+00 0.000000000000000e+00 0.000000000000000e+00
0.000000000000000e+00 0.000000000000000e+00 0.000000000000000e+00
0.000000000000000e+00 0.000000000000000e+00 0.000000000000000e+00
0.000000000000000e+00 0.000000000000000e+00 0.000000000000000e+00
0.000000000000000e+00 0.000000000000000e+00 0.000000000000000e+00
0.000000000000000e+00 0.000000000000000e+00 0.000000000000000e+00
0.000000000000000e+00 0.000000000000000e+00 0.000000000000000e+00
0.000000000000000e+00 0.000000000000000e+00 0.000000000000000e+00
0.000000000000000e+00 0.000000000000000e+00 0.000000000000000e+00
0.000000000000000e+00 0.000000000000000e+00 0.000000000000000e+00
0.000000000000000e+00 0.000000000000000e+00 0.000000000000000e+00
0.000000000000000e+00 0.000000000000000e+00 0.000000000000000e+00
0.000000000000000e+00 0.000000000000000e+00 0.000000000000000e+00
0.000000000000000e+00 0.000000000000000e+00 0.000000000000000e+00
0.000000000000000e+00 0.000000000000000e+00 0.000000000000000e+00
0.000000000000000e+00 0.000000000000000e+00 0.000000000000000e+00
0.000000000000000e+00 0.000000000000000e+00 0.000000000000000e+00
0.000000000000000e+00 0.000000000000000e+00 0.000000000000000e+00
0.000000000000000e+00 0.000000000000000e+00 0.000000000000000e+00
0.000000000000000e+00 0.000000000000000e+00 0.000000000000000e+00
0.000000000000000e+00 0.000000000000000e+00 0.000000000000000e+00
0.000000000000000e+00 0.000000000000000e+00 0.000000000000000e+00
0.000000000000000e+00 0.000000000000000e+00 0.000000000000000e+00
0.000000000000000e+00 0.000000000000000e+00 0.000000000000000e+00
0.000000000000000e+00 0.000000000000000e+00 0.000000000000000e+00
0.000000000000000e+00 0.000000000000000e+00 0.000000000000000e+00
0.000000000000000e+00 0.000000000000000e+00 0.000000000000000e+00
0.000000000000000e+00 0.000000000000000e+00 0.000000000000000e+00
0.000000000000000e+00 0.000000000000000e+00 0.000000000000000e+00
0.000000000000000e+00 0.000000000000000e+00 0.000000000000000e+00
0.000000000000000e+00 0.000000000000000e+00 0.000000000000000e+00
0.000000000000000e+00 0.000000000000000e+00 0.000000000000000e+00
0.000000000000000e+00 0.000000000000000e+00 0.000000000000000e+00
0.000000000000000e+00 0.000000000000000e+00 0.000000000000000e+00
0.000000000000000e+00 0.000000000000000e+00 0.000000000000000e+00
0.000000000000000e+00 0.000000000000000e+00 0.000000000000000e+00
0.000000000000000e+00 0.000000000000000e+00 0.000000000000000e+00
0.000000000000000e+00 0.000000000000000e+00 0.000000000000000e+00
0.000000000000000e+00 0.000000000000000e+00 0.000000000000000e+00
0.000000000000000e+00 0.000000000000000e+00 0.000000000000000e+00
0.000000000000000e+00 0.000000000000000e+00 0.000000000000000e+00
0.000000000000000e+00 0.000000000000000e+00 0.000000000000000e+00
0.000000000000000e+00 0.000000000000000e+00 0.000000000000000e+00
0.000000000000000e+00 0.000000000000000e+00 0.000000000000000e+00
0.000000000000000e+00 0.000000000000000e+00 0.000000000000000e+00
0.000000000000000e+00 0.000000000000000e+00 0.000000000000000e+00
0.000000000000000e+00 0.000000000000000e+00 0.000000000000000e+00
0.000000000000000e+00 0.000000000000000e+00 0.000000000000000e+00
0.000000000000000e+00 0.000000000000000e+00 0.000000000000000e+00
0.000000000000000e+00 0.000000000000000e+00 0.000000000000000e+00
0.000000000000000e+00 0.000000000000000e+00 0.000000000000000e+00
0.000000000000000e+00 0.000000000000000e+00 0.000000000000000e+00
0.000000000000000e+00 0.000000000000000e+00 0.000000000000000e+00
0.000000000000000e+00 0.000000000000000e+00 0.000000000000000e+00
0.000000000000000e+00 0.000000000000000e+00 0.000000000000000e+00
0.000000000000000e+00 0.000000000000000e+00 0.000000000000000e+00
0.000000000000000e+00 0.000000000000000e+00 0.000000000000000e+00
0.000000000000000e+00 0.000000000000000e+00 0.000000000000000e+00
0.000000000000000e+00 0.000000000000000e+00 0.000000000000000e+00
0.000000000000000e+00 0.000000000000000e+00 0.000000000000000e+00
0.000000000000000e+00 0.000000000000000e+00 0.000000000000000e+00
0.000000000000000e+00 0.000000000000000e+00 0.000000000000000e+00
0.000000000000000e+00 0.000000000000000e+00 0.000000000000000e+00
0.000000000000000e+00 0.000000000000000e+00 0.000000000000000e+00
0.000000000000000e+00 0.000000000000000e+00 0.000000000000000e+00
0.000000000000000e+00 0.000000000000000e+00 0.000000000000000e+00
0.000000000000000e+00 0.000000000000000e+00 0.000000000000000e+00
0.000000000000000e+00 0.000000000000000e+00 0.000000000000000e+00
0.000000000000000e+00 0.000000000000000e+00 0.000000000000000e+00
0.000000000000000e+00 0.000000000000000e+00 0.000000000000000e+00
0.000000000000000e+00 0.000000000000000e+00 0.000000000000000e+00
0.000000000000000e+00 0.000000000000000e+00 0.000000000000000e+00
0.000000000000000e+00 0.000000000000000e+00 0.000000000000000e+00
0.000000000000000e+00 0.000000000000000e+00 0.000000000000000e+00
0.000000000000000e+00 0.000000000000000e+00 0.000000000000000e+00
0.000000000000000e+00 0.000000000000000e+00 0.000000000000000e+00
0.000000000000000e+00 0.000000000000000e+00 0.000000000000000e+00
0.000000000000000e+00 0.000000000000000e+00 0.000000000000000e+00
0.000000000000000e+00 0.000000000000000e+00 0.000000000000000e+00
0.000000000000000e+00 0.000000000000000e+00 0.000000000000000e+00
0.000000000000000e+00 0.000000000000000e+00 0.000000000000000e+00
0.000000000000000e+00 0.000000000000000e+00 0.000000000000000e+00
0.000000000000000e+00 0.000000000000000e+00 0.000000000000000e+00
0.000000000000000e+00 0.000000000000000e+00 0.000000000000000e+00
0.000000000000000e+00 0.000000000000000e+00 0.000000000000000e+00
0.000000000000000e+00 0.000000000000000e+00 0.000000000000000e+00
0.000000000000000e+00 0.000000000000000e+00 0.000000000000000e+00
0.000000000000000e+00 0.000000000000000e+00 0.000000000000000e+00
0.000000000000000e+00 0.000000000000000e+00 0.000000000000000e+00
0.000000000000000e+00 0.000000000000000e+00 0.000000000000000e+00
0.000000000000000e+00 0.000000000000000e+00 0.000000000000000e+00
0.000000000000000e+00 0.000000000000000e+00 0.000000000000000e+00
0.000000000000000e+00 0.000000000000000e+00 0.000000000000000e+00
0.000000000000000e+00 0.000000000000000e+00 0.000000000000000e+00
0.000000000000000e+00 0.000000000000000e+00 0.000000000000000e+00
0.000000000000000e+00 0.000000000000000e+00 0.000000000000000e+00
0.000000000000000e+00 0.000000000000000e+00 0.000000000000000e+00
0.000000000000000e+00 0.000000000000000e+00 0.000000000000000e+00
0.000000000000000e+00 0.000000000000000e+00 0.000000000000000e+00
0.000000000000000e+00 0.000000000000000e+00 0.000000000000000e+00
0.000000000000000e+00 0.000000000000000e+00 0.000000000000000e+00
0.000000000000000e+00 0.000000000000000e+00 0.000000000000000e+00
0.000000000000000e+00 0.000000000000000e+00 0.000000000000000e+00
0.000000000000000e+00 0.000000000000000e+00 0.000000000000000e+00
0.000000000000000e+00 0.000000000000000e+00 0.000000000000000e+00
0.000000000000000e+00 0.000000000000000e+00 0.000000000000000e+00
0.000000000000000e+00 0.000000000000000e+00 0.000000000000000e+00
0.000000000000000e+00 0.000000000000000e+00 0.000000000000000e+00
0.000000000000000e+00 0.000000000000000e+00 0.000000000000000e+00
0.000000000000000e+00 0.000000000000000e+00 0.000000000000000e+00
0.000000000000000e+00 0.000000000000000e+00 0.000000000000000e+00
0.000000000000000e+00 0.000000000000000e+00 0.000000000000000e+00
0.000000000000000e+00 0.000000000000000e+00 0.000000000000000e+00
0.000000000000000e+00 0.000000000000000e+00 0.000000000000000e+00
0.000000000000000e+00 0.000000000000000e+00 0.000000000000000e+00
0.000000000000000e+00 0.000000000000000e+00 0.000000000000000e+00
0.000000000000000e+00 0.000000000000000e+00 0.000000000000000e+00
0.000000000000000e+00 0.000000000000000e+00 0.000000000000000e+00
0.000000000000000e+00 0.000000000000000e+00 0.000000000000000e+00
0.000000000000000e+00 0.000000000000000e+00 0.000000000000000e+00
0.000000000000000e+00 0.000000000000000e+00 0.000000000000000e+00
0.000000000000000e+00 0.000000000000000e+00 0.000000000000000e+00
0.000000000000000e+00 0.000000000000000e+00 0.000000000000000e+00
0.000000000000000e+00 0.000000000000000e+00 0.000000000000000e+00
0.000000000000000e+00 0.000000000000000e+00 0.000000000000000e+00
0.000000000000000e+00 0.000000000000000e+00 0.000000000000000e+00
0.000000000000000e+00 0.000000000000000e+00 0.000000000000000e+00
0.000000000000000e+00 0.000000000000000e+00 0.000000000000000e+00
0.000000000000000e+00 0.000000000000000e+00 0.000000000000000e+00
0.000000000000000e+00 0.000000000000000e+00 0.000000000000000e+00
0.000000000000000e+00 0.000000000000000e+00 0.000000000000000e+00
0.000000000000000e+00 0.000000000000000e+00 0.000000000000000e+00
0.000000000000000e+00 0.000000000000000e+00 0.000000000000000e+00
0.000000000000000e+00 0.000000000000000e+00 0.000000000000000e+00
0.000000000000000e+00 0.000000000000000e+00 0.000000000000000e+00
0.000000000000000e+00 0.000000000000000e+00 0.000000000000000e+00
0.000000000000000e+00 0.000000000000000e+00 0.000000000000000e+00
0.000000000000000e+00 0.000000000000000e+00 0.000000000000000e+00
0.000000000000000e+00 0.000000000000000e+00 0.000000000000000e+00
0.000000000000000e+00 0.000000000000000e+00 0.000000000000000e+00
0.000000000000000e+00 0.000000000000000e+00 0.000000000000000e+00
0.000000000000000e+00 0.000000000000000e+00 0.000000000000000e+00
0.000000000000000e+00 0.000000000000000e+00 0.000000000000000e+00
0.000000000000000e+00 0.000000000000000e+00 0.000000000000000e+00
0.000000000000000e+00 0.000000000000000e+00 0.000000000000000e+00
0.000000000000000e+00 0.000000000000000e+00 0.000000000000000e+00
0.000000000000000e+00 0.000000000000000e+00 0.000000000000000e+00
0.000000000000000e+00 0.000000000000000e+00 0.000000000000000e+00
0.000000000000000e+00 0.000000000000000e+00 0.000000000000000e+00
0.000000000000000e+00 0.000000000000000e+00 0.000000000000000e+00
0.000000000000000e+00 0.000000000000000e+00 0.000000000000000e+00
0.000000000000000e+00 0.000000000000000e+00 0.000000000000000e+00
0.000000000000000e+00 0.000000000000000e+00 0.000000000000000e+00
0.000000000000000e+00 0.000000000000000e+00 0.000000000000000e+00
0.000000000000000e+00 0.000000000000000e+00 0.000000000000000e+00
0.000000000000000e+00 0.000000000000000e+00 0.000000000000000e+00
0.000000000000000e+00 0.000000000000000e+00 0.000000000000000e+00
0.000000000000000e+00 0.000000000000000e+00 0.000000000000000e+00
0.000000000000000e+00 0.000000000000000e+00 0.000000000000000e+00
0.000000000000000e+00 0.000000000000000e+00 0.000000000000000e+00
0.000000000000000e+00 0.000000000000000e+00 0.000000000000000e+00
0.000000000000000e+00 0.000000000000000e+00 0.000000000000000e+00
0.000000000000000e+00 0.000000000000000e+00 0.000000000000000e+00
0.000000000000000e+00 0.000000000000000e+00 0.000000000000000e+00
0.000000000000000e+00 0.000000000000000e+00 0.000000000000000e+00
0.000000000000000e+00 0.000000000000000e+00 0.000000000000000e+00
0.000000000000000e+00 0.000000000000000e+00 0.000000000000000e+00
0.000000000000000e+00 0.000000000000000e+00 0.000000000000000e+00
0.000000000000000e+00 0.000000000000000e+00 0.000000000000000e+00
0.000000000000000e+00 0.000000000000000e+00 0.000000000000000e+00
0.000000000000000e+00 0.000000000000000e+00 0.000000000000000e+00
0.000000000000000e+00 0.000000000000000e+00 0.000000000000000e+00
0.000000000000000e+00 0.000000000000000e+00 0.000000000000000e+00
0.000000000000000e+00 0.000000000000000e+00 0.000000000000000e+00
0.000000000000000e+00 0.000000000000000e+00 0.000000000000000e+00
0.000000000000000e+00 0.000000000000000e+00 0.000000000000000e+00
0.000000000000000e+00 0.000000000000000e+00 0.000000000000000e+00
0.000000000000000e+00 0.000000000000000e+00 0.000000000000000e+00
0.000000000000000e+00 0.000000000000000e+00 0.000000000000000e+00
0.000000000000000e+00 0.000000000000000e+00 0.000000000000000e+00
0.000000000000000e+00 0.000000000000000e+00 0.000000000000000e+00
0.000000000000000e+00 0.000000000000000e+00 0.000000000000000e+00
0.000000000000000e+00 0.000000000000000e+00 0.000000000000000e+00
0.000000000000000e+00 0.000000000000000e+00 0.000000000000000e+00
0.000000000000000e+00 0.000000000000000e+00 0.000000000000000e+00
0.000000000000000e+00 0.000000000000000e+00 0.000000000000000e+00
0.000000000000000e+00 0.000000000000000e+00 0.000000000000000e+00
0.000000000000000e+00 0.000000000000000e+00 0.000000000000000e+00
0.000000000000000e+00 0.000000000000000e+00 0.000000000000000e+00
0.000000000000000e+00 0.000000000000000e+00 0.000000000000000e+00
0.000000000000000e+00 0.000000000000000e+00 0.000000000000000e+00
0.000000000000000e+00 0.000000000000000e+00 0.000000000000000e+00
0.000000000000000e+00 0.000000000000000e+00 0.000000000000000e+00
0.000000000000000e+00 0.000000000000000e+00 0.000000000000000e+00
0.000000000000000e+00 0.000000000000000e+00 0.000000000000000e+00
0.000000000000000e+00 0.000000000000000e+00 0.000000000000000e+00
0.000000000000000e+00 0.000000000000000e+00 0.000000000000000e+00
0.000000000000000e+00 0.000000000000000e+00 0.000000000000000e+00
0.000000000000000e+00 0.000000000000000e+00 0.000000000000000e+00
0.000000000000000e+00 0.000000000000000e+00 0.000000000000000e+00
0.000000000000000e+00 0.000000000000000e+00 0.000000000000000e+00
0.000000000000000e+00 0.000000000000000e+00 0.000000000000000e+00
0.000000000000000e+00 0.000000000000000e+00 0.000000000000000e+00
0.000000000000000e+00 0.000000000000000e+00 0.000000000000000e+00
0.000000000000000e+00 0.000000000000000e+00 0.000000000000000e+00
0.000000000000000e+00 0.000000000000000e+00 0.000000000000000e+00
0.000000000000000e+00 0.000000000000000e+00 0.000000000000000e+00
0.000000000000000e+00 0.000000000000000e+00 0.000000000000000e+00
0.000000000000000e+00 0.000000000000000e+00 0.000000000000000e+00
0.000000000000000e+00 0.000000000000000e+00 0.000000000000000e+00
0.000000000000000e+00 0.000000000000000e+00 0.000000000000000e+00
0.000000000000000e+00 0.000000000000000e+00 0.000000000000000e+00
0.000000000000000e+00 0.000000000000000e+00 0.000000000000000e+00
0.000000000000000e+00 0.000000000000000e+00 0.000000000000000e+00
0.000000000000000e+00 0.000000000000000e+00 0.000000000000000e+00
0.000000000000000e+00 0.000000000000000e+00 0.000000000000000e+00
0.000000000000000e+00 0.000000000000000e+00 0.000000000000000e+00
0.000000000000000e+00 0.000000000000000e+00 0.000000000000000e+00
0.000000000000000e+00 0.000000000000000e+00 0.000000000000000e+00
0.000000000000000e+00 0.000000000000000e+00 0.000000000000000e+00
0.000000000000000e+00 0.000000000000000e+00 0.000000000000000e+00
0.000000000000000e+00 0.000000000000000e+00 0.000000000000000e+00
0.000000000000000e+00 0.000000000000000e+00 0.000000000000000e+00
0.000000000000000e+00 0.000000000000000e+00 0.000000000000000e+00
0.000000000000000e+00 0.000000000000000e+00 0.000000000000000e+00
0.000000000000000e+00 0.000000000000000e+00 0.000000000000000e+00
0.000000000000000e+00 0.000000000000000e+00 0.000000000000000e+00
0.000000000000000e+00 0.000000000000000e+00 0.000000000000000e+00
0.000000000000000e+00 0.000000000000000e+00 0.000000000000000e+00
0.000000000000000e+00 0.000000000000000e+00 0.000000000000000e+00
0.000000000000000e+00 0.000000000000000e+00 0.000000000000000e+00
0.000000000000000e+00 0.000000000000000e+00 0.000000000000000e+00
0.000000000000000e+00 0.000000000000000e+00 0.000000000000000e+00
0.000000000000000e+00 0.000000000000000e+00 0.000000000000000e+00
0.000000000000000e+00 0.000000000000000e+00 0.000000000000000e+00
0.000000000000000e+00 0.000000000000000e+00 0.000000000000000e+00
0.000000000000000e+00 0.000000000000000e+00 0.000000000000000e+00
0.000000000000000e+00 0.000000000000000e+00 0.000000000000000e+00
0.000000000000000e+00 0.000000000000000e+00 0.000000000000000e+00
0.000000000000000e+00 0.000000000000000e+00 0.000000000000000e+00
0.000000000000000e+00 0.000000000000000e+00 0.000000000000000e+00
0.000000000000000e+00 0.000000000000000e+00 0.000000000000000e+00
0.000000000000000e+00 0.000000000000000e+00 0.000000000000000e+00
0.000000000000000e+00 0.000000000000000e+00 0.000000000000000e+00
0.000000000000000e+00 0.000000000000000e+00 0.000000000000000e+00
0.000000000000000e+00 0.000000000000000e+00 0.000000000000000e+00
0.000000000000000e+00 0.000000000000000e+00 0.000000000000000e+00
0.000000000000000e+00 0.000000000000000e+00 0.000000000000000e+00
0.000000000000000e+00 0.000000000000000e+00 0.000000000000000e+00
0.000000000000000e+00 0.000000000000000e+00 0.000000000000000e+00
0.000000000000000e+00 0.000000000000000e+00 0.000000000000000e+00
0.000000000000000e+00 0.000000000000000e+00 0.000000000000000e+00
0.000000000000000e+00 0.000000000000000e+00 0.000000000000000e+00
0.000000000000000e+00 0.000000000000000e+00 0.000000000000000e+00
0.000000000000000e+00 0.000000000000000e+00 0.000000000000000e+00
0.000000000000000e+00 0.000000000000000e+00 0.000000000000000e+00
0.000000000000000e+00 0.000000000000000e+00 0.000000000000000e+00
0.000000000000000e+00 0.000000000000000e+00 0.000000000000000e+00
0.000000000000000e+00 0.000000000000000e+00 0.000000000000000e+00
0.000000000000000e+00 0.000000000000000e+00 0.000000000000000e+00
0.000000000000000e+00 0.000000000000000e+00 0.000000000000000e+00
0.000000000000000e+00 0.000000000000000e+00 0.000000000000000e+00
0.000000000000000e+00 0.000000000000000e+00 0.000000000000000e+00
0.000000000000000e+00 0.000000000000000e+00 0.000000000000000e+00
0.000000000000000e+00 0.000000000000000e+00 0.000000000000000e+00
0.000000000000000e+00 0.000000000000000e+00 0.000000000000000e+00
0.000000000000000e+00 0.000000000000000e+00 0.000000000000000e+00
0.000000000000000e+00 0.000000000000000e+00 0.000000000000000e+00
0.000000000000000e+00 0.000000000000000e+00 0.000000000000000e+00
0.000000000000000e+00 0.000000000000000e+00 0.000000000000000e+00
0.000000000000000e+00 0.000000000000000e+00 0.000000000000000e+00
0.000000000000000e+00 0.000000000000000e+00 0.000000000000000e+00
0.000000000000000e+00 0.000000000000000e+00 0.000000000000000e+00
0.000000000000000e+00 0.000000000000000e+00 0.000000000000000e+00
0.000000000000000e+00 0.000000000000000e+00 0.000000000000000e+00
0.000000000000000e+00 0.000000000000000e+00 0.000000000000000e+00
0.000000000000000e+00 0.000000000000000e+00 0.000000000000000e+00
0.000000000000000e+00 0.000000000000000e+00 0.000000000000000e+00
0.000000000000000e+00 0.000000000000000e+00 0.000000000000000e+00
0.000000000000000e+00 0.000000000000000e+00 0.000000000000000e+00
0.000000000000000e+00 0.000000000000000e+00 0.000000000000000e+00
0.000000000000000e+00 0.000000000000000e+00 0.000000000000000e+00
0.000000000000000e+00 0.000000000000000e+00 0.000000000000000e+00
0.000000000000000e+00 0.000000000000000e+00 0.000000000000000e+00
0.000000000000000e+00 0.000000000000000e+00 0.000000000000000e+00
0.000000000000000e+00 0.000000000000000e+00 0.000000000000000e+00
0.000000000000000e+00 0.000000000000000e+00 0.000000000000000e+00
0.000000000000000e+00 0.000000000000000e+00 0.000000000000000e+00
0.000000000000000e+00 0.000000000000000e+00 0.000000000000000e+00
0.000000000000000e+00 0.000000000000000e+00 0.000000000000000e+00
0.000000000000000e+00 0.000000000000000e+00 0.000000000000000e+00
0.000000000000000e+00 0.000000000000000e+00 0.000000000000000e+00
0.000000000000000e+00 0.000000000000000e+00 0.000000000000000e+00
0.000000000000000e+00 0.000000000000000e+00 0.000000000000000e+00
0.000000000000000e+00 0.000000000000000e+00 0.000000000000000e+00
0.000000000000000e+00 0.000000000000000e+00 0.000000000000000e+00
0.000000000000000e+00 0.000000000000000e+00 0.000000000000000e+00
0.000000000000000e+00 0.000000000000000e+00 0.000000000000000e+00
0.000000000000000e+00 0.000000000000000e+00 0.000000000000000e+00
0.000000000000000e+00 0.000000000000000e+00 0.000000000000000e+00
0.000000000000000e+00 0.000000000000000e+00 0.000000000000000e+00
0.000000000000000e+00 0.000000000000000e+00 0.000000000000000e+00
0.000000000000000e+00 0.000000000000000e+00 0.000000000000000e+00
0.000000000000000e+00 0.000000000000000e+00 0.000000000000000e+00
0.000000000000000e+00 0.000000000000000e+00 0.000000000000000e+00
0.000000000000000e+00 0.000000000000000e+00 0.000000000000000e+00
0.000000000000000e+00 0.000000000000000e+00 0.000000000000000e+00
0.000000000000000e+00 0.000000000000000e+00 0.000000000000000e+00
0.000000000000000e+00 0.000000000000000e+00 0.000000000000000e+00
0.000000000000000e+00 0.000000000000000e+00 0.000000000000000e+00
0.000000000000000e+00 0.000000000000000e+00 0.000000000000000e+00
0.000000000000000e+00 0.000000000000000e+00 0.000000000000000e+00
0.000000000000000e+00 0.000000000000000e+00 0.000000000000000e+00
0.000000000000000e+00 0.000000000000000e+00 0.000000000000000e+00
0.000000000000000e+00 0.000000000000000e+00 0.000000000000000e+00
0.000000000000000e+00 0.000000000000000e+00 0.000000000000000e+00
0.000000000000000e+00 0.000000000000000e+00 0.000000000000000e+00
0.000000000000000e+00 0.000000000000000e+00 0.000000000000000e+00
0.000000000000000e+00 0.000000000000000e+00 0.000000000000000e+00
0.000000000000000e+00 0.000000000000000e+00 0.000000000000000e+00
0.000000000000000e+00 0.000000000000000e+00 0.000000000000000e+00
0.000000000000000e+00 0.000000000000000e+00 0.000000000000000e+00
0.000000000000000e+00 0.000000000000000e+00 0.000000000000000e+00
0.000000000000000e+00 0.000000000000000e+00 0.000000000000000e+00
0.000000000000000e+00 0.000000000000000e+00 0.000000000000000e+00
0.000000000000000e+00 0.000000000000000e+00 0.000000000000000e+00
0.000000000000000e+00 0.000000000000000e+00 0.000000000000000e+00
0.000000000000000e+00 0.000000000000000e+00 0.000000000000000e+00
0.000000000000000e+00 0.000000000000000e+00 0.000000000000000e+00
0.000000000000000e+00 0.000000000000000e+00 0.000000000000000e+00
0.000000000000000e+00 0.000000000000000e+00 0.000000000000000e+00
0.000000000000000e+00 0.000000000000000e+00 0.000000000000000e+00
0.000000000000000e+00 0.000000000000000e+00 0.000000000000000e+00
0.000000000000000e+00 0.000000000000000e+00 0.000000000000000e+00
0.000000000000000e+00 0.000000000000000e+00 0.000000000000000e+00
0.000000000000000e+00 0.000000000000000e+00 0.000000000000000e+00
0.000000000000000e+00 0.000000000000000e+00 0.000000000000000e+00
0.000000000000000e+00 0.000000000000000e+00 0.000000000000000e+00
0.000000000000000e+00 0.000000000000000e+00 0.000000000000000e+00
0.000000000000000e+00 0.000000000000000e+00 0.000000000000000e+00
0.000000000000000e+00 0.000000000000000e+00 0.000000000000000e+00
0.000000000000000e+00 0.000000000000000e+00 0.000000000000000e+00
0.000000000000000e+00 0.000000000000000e+00 0.000000000000000e+00
0.000000000000000e+00 0.000000000000000e+00 0.000000000000000e+00
0.000000000000000e+00 0.000000000000000e+00 0.000000000000000e+00
0.000000000000000e+00 0.000000000000000e+00 0.000000000000000e+00
0.000000000000000e+00 0.000000000000000e+00 0.000000000000000e+00
0.000000000000000e+00 0.000000000000000e+00 0.000000000000000e+00
0.000000000000000e+00 0.000000000000000e+00 0.000000000000000e+00
0.000000000000000e+00 0.000000000000000e+00 0.000000000000000e+00
0.000000000000000e+00 0.000000000000000e+00 0.000000000000000e+00
0.000000000000000e+00 0.000000000000000e+00 0.000000000000000e+00
0.000000000000000e+00 0.000000000000000e+00 0.000000000000000e+00
0.000000000000000e+00 0.000000000000000e+00 0.000000000000000e+00
0.000000000000000e+00 0.000000000000000e+00 0.000000000000000e+00
0.000000000000000e+00 0.000000000000000e+00 0.000000000000000e+00
0.000000000000000e+00 0.000000000000000e+00 0.000000000000000e+00
0.000000000000000e+00 0.000000000000000e+00 0.000000000000000e+00
0.000000000000000e+00 0.000000000000000e+00 0.000000000000000e+00
0.000000000000000e+00 0.000000000000000e+00 0.000000000000000e+00
0.000000000000000e+00 0.000000000000000e+00 0.000000000000000e+00
0.000000000000000e+00 0.000000000000000e+00 0.000000000000000e+00
0.000000000000000e+00 0.000000000000000e+00 0.000000000000000e+00
0.000000000000000e+00 0.000000000000000e+00 0.000000000000000e+00
0.000000000000000e+00 0.000000000000000e+00 0.000000000000000e+00
0.000000000000000e+00 0.000000000000000e+00 0.000000000000000e+00
0.000000000000000e+00 0.000000000000000e+00 0.000000000000000e+00
0.000000000000000e+00 0.000000000000000e+00 0.000000000000000e+00
0.000000000000000e+00 0.000000000000000e+00 0.000000000000000e+00
0.000000000000000e+00 0.000000000000000e+00 0.000000000000000e+00
0.000000000000000e+00 0.000000000000000e+00 0.000000000000000e+00
0.000000000000000e+00 0.000000000000000e+00 0.000000000000000e+00
0.000000000000000e+00 0.000000000000000e+00 0.000000000000000e+00
0.000000000000000e+00 0.000000000000000e+00 0.000000000000000e+00
0.000000000000000e+00 0.000000000000000e+00 0.000000000000000e+00
0.000000000000000e+00 0.000000000000000e+00 0.000000000000000e+00
0.000000000000000e+00 0.000000000000000e+00 0.000000000000000e+00
0.000000000000000e+00 0.000000000000000e+00 0.000000000000000e+00
0.000000000000000e+00 0.000000000000000e+00 0.000000000000000e+00
0.000000000000000e+00 0.000000000000000e+00 0.000000000000000e+00
0.000000000000000e+00 0.000000000000000e+00 0.000000000000000e+00
0.000000000000000e+00 0.000000000000000e+00 0.000000000000000e+00
0.000000000000000e+00 0.000000000000000e+00 0.000000000000000e+00
0.000000000000000e+00 0.000000000000000e+00 0.000000000000000e+00
0.000000000000000e+00 0.000000000000000e+00 0.000000000000000e+00
0.000000000000000e+00 0.000000000000000e+00 0.000000000000000e+00
0.000000000000000e+00 0.000000000000000e+00 0.000000000000000e+00
0.000000000000000e+00 0.000000000000000e+00 0.000000000000000e+00
0.000000000000000e+00 0.000000000000000e+00 0.000000000000000e+00
0.000000000000000e+00 0.000000000000000e+00 0.000000000000000e+00
0.000000000000000e+00 0.000000000000000e+00 0.000000000000000e+00
0.000000000000000e+00 0.000000000000000e+00 0.000000000000000e+00
0.000000000000000e+00 0.000000000000000e+00 0.000000000000000e+00
0.000000000000000e+00 0.000000000000000e+00 0.000000000000000e+00
0.000000000000000e+00 0.000000000000000e+00 0.000000000000000e+00
0.000000000000000e+00 0.000000000000000e+00 0.000000000000000e+00
0.000000000000000e+00 0.000000000000000e+00 0.000000000000000e+00
0.000000000000000e+00 0.000000000000000e+00 0.000000000000000e+00
0.000000000000000e+00 0.000000000000000e+00 0.000000000000000e+00
0.000000000000000e+00 0.000000000000000e+00 0.000000000000000e+00
0.000000000000000e+00 0.000000000000000e+00 0.000000000000000e+00
0.000000000000000e+00 0.000000000000000e+00 0.000000000000000e+00
0.000000000000000e+00 0.000000000000000e+00 0.000000000000000e+00
0.000000000000000e+00 0.000000000000000e+00 0.000000000000000e+00
0.000000000000000e+00 0.000000000000000e+00 0.000000000000000e+00
0.000000000000000e+00 0.000000000000000e+00 0.000000000000000e+00
0.000000000000000e+00 0.000000000000000e+00 0.000000000000000e+00
0.000000000000000e+00 0.000000000000000e+00 0.000000000000000e+00
0.000000000000000e+00 0.000000000000000e+00 0.000000000000000e+00
0.000000000000000e+00 0.000000000000000e+00 0.000000000000000e+00
0.000000000000000e+00 0.000000000000000e+00 0.000000000000000e+00
0.000000000000000e+00 0.000000000000000e+00 0.000000000000000e+00
0.000000000000000e+00 0.000000000000000e+00 0.000000000000000e+00
0.000000000000000e+00 0.000000000000000e+00 0.000000000000000e+00
0.000000000000000e+00 0.000000000000000e+00 0.000000000000000e+00
0.000000000000000e+00 0.000000000000000e+00 0.000000000000000e+00
0.000000000000000e+00 0.000000000000000e+00 0.000000000000000e+00
0.000000000000000e+00 0.000000000000000e+00 0.000000000000000e+00
0.000000000000000e+00 0.000000000000000e+00 0.000000000000000e+00
0.000000000000000e+00 0.000000000000000e+00 0.000000000000000e+00
0.000000000000000e+00 0.000000000000000e+00 0.000000000000000e+00
0.000000000000000e+00 0.000000000000000e+00 0.000000000000000e+00
0.000000000000000e+00 0.000000000000000e+00 0.000000000000000e+00
0.000000000000000e+00 0.000000000000000e+00 0.000000000000000e+00
0.000000000000000e+00 0.000000000000000e+00 0.000000000000000e+00
0.000000000000000e+00 0.000000000000000e+00 0.000000000000000e+00
0.000000000000000e+00 0.000000000000000e+00 0.000000000000000e+00
0.000000000000000e+00 0.000000000000000e+00 0.000000000000000e+00
0.000000000000000e+00 0.000000000000000e+00 0.000000000000000e+00
0.000000000000000e+00 0.000000000000000e+00 0.000000000000000e+00
0.000000000000000e+00 0.000000000000000e+00 0.000000000000000e+00
0.000000000000000e+00 0.000000000000000e+00 0.000000000000000e+00
0.000000000000000e+00 0.000000000000000e+00 0.000000000000000e+00
0.000000000000000e+00 0.000000000000000e+00 0.000000000000000e+00
0.000000000000000e+00 0.000000000000000e+00 0.000000000000000e+00
0.000000000000000e+00 0.000000000000000e+00 0.000000000000000e+00
0.000000000000000e+00 0.000000000000000e+00 0.000000000000000e+00
0.000000000000000e+00 0.000000000000000e+00 0.000000000000000e+00
0.000000000000000e+00 0.000000000000000e+00 0.000000000000000e+00
0.000000000000000e+00 0.000000000000000e+00 0.000000000000000e+00
0.000000000000000e+00 0.000000000000000e+00 0.000000000000000e+00
0.000000000000000e+00 0.000000000000000e+00 0.000000000000000e+00
0.000000000000000e+00 0.000000000000000e+00 0.000000000000000e+00
0.000000000000000e+00 0.000000000000000e+00 0.000000000000000e+00
0.000000000000000e+00 0.000000000000000e+00 0.000000000000000e+00
0.000000000000000e+00 0.000000000000000e+00 0.000000000000000e+00
0.000000000000000e+00 0.000000000000000e+00 0.000000000000000e+00
0.000000000000000e+00 0.000000000000000e+00 0.000000000000000e+00
0.000000000000000e+00 0.000000000000000e+00 0.000000000000000e+00
0.000000000000000e+00 0.000000000000000e+00 0.000000000000000e+00
0.000000000000000e+00 0.000000000000000e+00 0.000000000000000e+00
0.000000000000000e+00 0.000000000000000e+00 0.000000000000000e+00
0.000000000000000e+00 0.000000000000000e+00 0.000000000000000e+00
0.000000000000000e+00 0.000000000000000e+00 0.000000000000000e+00
0.000000000000000e+00 0.000000000000000e+00 0.000000000000000e+00
0.000000000000000e+00 0.000000000000000e+00 0.000000000000000e+00
0.000000000000000e+00 0.000000000000000e+00 0.000000000000000e+00
0.000000000000000e+00 0.000000000000000e+00 0.000000000000000e+00
0.000000000000000e+00 0.000000000000000e+00 0.000000000000000e+00
0.000000000000000e+00 0.000000000000000e+00 0.000000000000000e+00
0.000000000000000e+00 0.000000000000000e+00 0.000000000000000e+00
0.000000000000000e+00 0.000000000000000e+00 0.000000000000000e+00
0.000000000000000e+00 0.000000000000000e+00 0.000000000000000e+00
0.000000000000000e+00 0.000000000000000e+00 0.000000000000000e+00
0.000000000000000e+00 0.000000000000000e+00 0.000000000000000e+00
0.000000000000000e+00 0.000000000000000e+00 0.000000000000000e+00
0.000000000000000e+00 0.000000000000000e+00 0.000000000000000e+00
0.000000000000000e+00 0.000000000000000e+00 0.000000000000000e+00
0.000000000000000e+00 0.000000000000000e+00 0.000000000000000e+00
0.000000000000000e+00 0.000000000000000e+00 0.000000000000000e+00
0.000000000000000e+00 0.000000000000000e+00 0.000000000000000e+00
0.000000000000000e+00 0.000000000000000e+00 0.000000000000000e+00
0.000000000000000e+00 0.000000000000000e+00 0.000000000000000e+00
0.000000000000000e+00 0.000000000000000e+00 0.000000000000000e+00
0.000000000000000e+00 0.000000000000000e+00 0.000000000000000e+00
0.000000000000000e+00 0.000000000000000e+00 0.000000000000000e+00
0.000000000000000e+00 0.000000000000000e+00 0.000000000000000e+00
0.000000000000000e+00 0.000000000000000e+00 0.000000000000000e+00
0.000000000000000e+00 0.000000000000000e+00 0.000000000000000e+00
0.000000000000000e+00 0.000000000000000e+00 0.000000000000000e+00
0.000000000000000e+00 0.000000000000000e+00 0.000000000000000e+00
0.000000000000000e+00 0.000000000000000e+00 0.000000000000000e+00
0.000000000000000e+00 0.000000000000000e+00 0.000000000000000e+00
0.000000000000000e+00 0.000000000000000e+00 0.000000000000000e+00
0.000000000000000e+00 0.000000000000000e+00 0.000000000000000e+00
0.000000000000000e+00 0.000000000000000e+00 0.000000000000000e+00
0.000000000000000e+00 0.000000000000000e+00 0.000000000000000e+00
0.000000000000000e+00 0.000000000000000e+00 0.000000000000000e+00
0.000000000000000e+00 0.000000000000000e+00 0.000000000000000e+00
0.000000000000000e+00 0.000000000000000e+00 0.000000000000000e+00
0.000000000000000e+00 0.000000000000000e+00 0.000000000000000e+00
0.000000000000000e+00 0.000000000000000e+00 0.000000000000000e+00
0.000000000000000e+00 0.000000000000000e+00 0.000000000000000e+00
0.000000000000000e+00 0.000000000000000e+00 0.000000000000000e+00
0.000000000000000e+00 0.000000000000000e+00 0.000000000000000e+00
0.000000000000000e+00 0.000000000000000e+00 0.000000000000000e+00
0.000000000000000e+00 0.000000000000000e+00 0.000000000000000e+00
0.000000000000000e+00 0.000000000000000e+00 0.000000000000000e+00
0.000000000000000e+00 0.000000000000000e+00 0.000000000000000e+00
0.000000000000000e+00 0.000000000000000e+00 0.000000000000000e+00
0.000000000000000e+00 0.000000000000000e+00 0.000000000000000e+00
0.000000000000000e+00 0.000000000000000e+00 0.000000000000000e+00
0.000000000000000e+00 0.000000000000000e+00 0.000000000000000e+00
0.000000000000000e+00 0.000000000000000e+00 0.000000000000000e+00
0.000000000000000e+00 0.000000000000000e+00 0.000000000000000e+00
0.000000000000000e+00 0.000000000000000e+00 0.000000000000000e+00
0.000000000000000e+00 0.000000000000000e+00 0.000000000000000e+00
0.000000000000000e+00 0.000000000000000e+00 0.000000000000000e+00
0.000000000000000e+00 0.000000000000000e+00 0.000000000000000e+00
0.000000000000000e+00 0.000000000000000e+00 0.000000000000000e+00
0.000000000000000e+00 0.000000000000000e+00 0.000000000000000e+00
0.000000000000000e+00 0.000000000000000e+00 0.000000000000000e+00
0.000000000000000e+00 0.000000000000000e+00 0.000000000000000e+00
0.000000000000000e+00 0.000000000000000e+00 0.000000000000000e+00
0.000000000000000e+00 0.000000000000000e+00 0.000000000000000e+00
0.000000000000000e+00 0.000000000000000e+00 0.000000000000000e+00
0.000000000000000e+00 0.000000000000000e+00 0.000000000000000e+00
0.000000000000000e+00 0.000000000000000e+00 0.000000000000000e+00
0.000000000000000e+00 0.000000000000000e+00 0.000000000000000e+00
0.000000000000000e+00 0.000000000000000e+00 0.000000000000000e+00
0.000000000000000e+00 0.000000000000000e+00 0.000000000000000e+00
0.000000000000000e+00 0.000000000000000e+00 0.000000000000000e+00
0.000000000000000e+00 0.000000000000000e+00 0.000000000000000e+00
0.000000000000000e+00 0.000000000000000e+00 0.000000000000000e+00
0.000000000000000e+00 0.000000000000000e+00 0.000000000000000e+00
0.000000000000000e+00 0.000000000000000e+00 0.000000000000000e+00
0.000000000000000e+00 0.000000000000000e+00 0.000000000000000e+00
0.000000000000000e+00 0.000000000000000e+00 0.000000000000000e+00
0.000000000000000e+00 0.000000000000000e+00 0.000000000000000e+00
0.000000000000000e+00 0.000000000000000e+00 0.000000000000000e+00
0.000000000000000e+00 0.000000000000000e+00 0.000000000000000e+00
0.000000000000000e+00 0.000000000000000e+00 0.000000000000000e+00
0.000000000000000e+00 0.000000000000000e+00 0.000000000000000e+00
0.000000000000000e+00 0.000000000000000e+00 0.000000000000000e+00
0.000000000000000e+00 0.000000000000000e+00 0.000000000000000e+00
0.000000000000000e+00 0.000000000000000e+00 0.000000000000000e+00
0.000000000000000e+00 0.000000000000000e+00 0.000000000000000e+00
0.000000000000000e+00 0.000000000000000e+00 0.000000000000000e+00
0.000000000000000e+00 0.000000000000000e+00 0.000000000000000e+00
0.000000000000000e+00 0.000000000000000e+00 0.000000000000000e+00
0.000000000000000e+00 0.000000000000000e+00 0.000000000000000e+00
0.000000000000000e+00 0.000000000000000e+00 0.000000000000000e+00
0.000000000000000e+00 0.000000000000000e+00 0.000000000000000e+00
0.000000000000000e+00 0.000000000000000e+00 0.000000000000000e+00
0.000000000000000e+00 0.000000000000000e+00 0.000000000000000e+00
0.000000000000000e+00 0.000000000000000e+00 0.000000000000000e+00
0.000000000000000e+00 0.000000000000000e+00 0.000000000000000e+00
0.000000000000000e+00 0.000000000000000e+00 0.000000000000000e+00
0.000000000000000e+00 0.000000000000000e+00 0.000000000000000e+00
0.000000000000000e+00 0.000000000000000e+00 0.000000000000000e+00
0.000000000000000e+00 0.000000000000000e+00 0.000000000000000e+00
0.000000000000000e+00 0.000000000000000e+00 0.000000000000000e+00
0.000000000000000e+00 0.000000000000000e+00 0.000000000000000e+00
0.000000000000000e+00 0.000000000000000e+00 0.000000000000000e+00
0.000000000000000e+00 0.000000000000000e+00 0.000000000000000e+00
0.000000000000000e+00 0.000000000000000e+00 0.000000000000000e+00
0.000000000000000e+00 0.000000000000000e+00 0.000000000000000e+00
0.000000000000000e+00 0.000000000000000e+00 0.000000000000000e+00
0.000000000000000e+00 0.000000000000000e+00 0.000000000000000e+00
0.000000000000000e+00 0.000000000000000e+00 0.000000000000000e+00
0.000000000000000e+00 0.000000000000000e+00 0.000000000000000e+00
0.000000000000000e+00 0.000000000000000e+00 0.000000000000000e+00
0.000000000000000e+00 0.000000000000000e+00 0.000000000000000e+00
0.000000000000000e+00 0.000000000000000e+00 0.000000000000000e+00
0.000000000000000e+00 0.000000000000000e+00 0.000000000000000e+00
0.000000000000000e+00 0.000000000000000e+00 0.000000000000000e+00
0.000000000000000e+00 0.000000000000000e+00 0.000000000000000e+00
0.000000000000000e+00 0.000000000000000e+00 0.000000000000000e+00
0.000000000000000e+00 0.000000000000000e+00 0.000000000000000e+00
0.000000000000000e+00 0.000000000000000e+00 0.000000000000000e+00
0.000000000000000e+00 0.000000000000000e+00 0.000000000000000e+00
0.000000000000000e+00 0.000000000000000e+00 0.000000000000000e+00
0.000000000000000e+00 0.000000000000000e+00 0.000000000000000e+00
0.000000000000000e+00 0.000000000000000e+00 0.000000000000000e+00
0.000000000000000e+00 0.000000000000000e+00 0.000000000000000e+00
0.000000000000000e+00 0.000000000000000e+00 0.000000000000000e+00
0.000000000000000e+00 0.000000000000000e+00 0.000000000000000e+00
0.000000000000000e+00 0.000000000000000e+00 0.000000000000000e+00
0.000000000000000e+00 0.000000000000000e+00 0.000000000000000e+00
0.000000000000000e+00 0.000000000000000e+00 0.000000000000000e+00
0.000000000000000e+00 0.000000000000000e+00 0.000000000000000e+00
0.000000000000000e+00 0.000000000000000e+00 0.000000000000000e+00
0.000000000000000e+00 0.000000000000000e+00 0.000000000000000e+00
0.000000000000000e+00 0.000000000000000e+00 0.000000000000000e+00
0.000000000000000e+00 0.000000000000000e+00 0.000000000000000e+00
0.000000000000000e+00 0.000000000000000e+00 0.000000000000000e+00
0.000000000000000e+00 0.000000000000000e+00 0.000000000000000e+00
0.000000000000000e+00 0.000000000000000e+00 0.000000000000000e+00
0.000000000000000e+00 0.000000000000000e+00 0.000000000000000e+00
0.000000000000000e+00 0.000000000000000e+00 0.000000000000000e+00
0.000000000000000e+00 0.000000000000000e+00 0.000000000000000e+00
0.000000000000000e+00 0.000000000000000e+00 0.000000000000000e+00
0.000000000000000e+00 0.000000000000000e+00 0.000000000000000e+00
0.000000000000000e+00 0.000000000000000e+00 0.000000000000000e+00
0.000000000000000e+00 0.000000000000000e+00 0.000000000000000e+00
0.000000000000000e+00 0.000000000000000e+00 0.000000000000000e+00
0.000000000000000e+00 0.000000000000000e+00 0.000000000000000e+00
0.000000000000000e+00 0.000000000000000e+00 0.000000000000000e+00
0.000000000000000e+00 0.000000000000000e+00 0.000000000000000e+00
0.000000000000000e+00 0.000000000000000e+00 0.000000000000000e+00
0.000000000000000e+00 0.000000000000000e+00 0.000000000000000e+00
0.000000000000000e+00 0.000000000000000e+00 0.000000000000000e+00
0.000000000000000e+00 0.000000000000000e+00 0.000000000000000e+00
0.000000000000000e+00 0.000000000000000e+00 0.000000000000000e+00
0.000000000000000e+00 0.000000000000000e+00 0.000000000000000e+00
0.000000000000000e+00 0.000000000000000e+00 0.000000000000000e+00
0.000000000000000e+00 0.000000000000000e+00 0.000000000000000e+00
0.000000000000000e+00 0.000000000000000e+00 0.000000000000000e+00
0.000000000000000e+00 0.000000000000000e+00 0.000000000000000e+00
0.000000000000000e+00 0.000000000000000e+00 0.000000000000000e+00
0.000000000000000e+00 0.000000000000000e+00 0.000000000000000e+00
0.000000000000000e+00 0.000000000000000e+00 0.000000000000000e+00
0.000000000000000e+00 0.000000000000000e+00 0.000000000000000e+00
0.000000000000000e+00 0.000000000000000e+00 0.000000000000000e+00
0.000000000000000e+00 0.000000000000000e+00 0.000000000000000e+00
0.000000000000000e+00 0.000000000000000e+00 0.000000000000000e+00
0.000000000000000e+00 0.000000000000000e+00 0.000000000000000e+00
0.000000000000000e+00 0.000000000000000e+00 0.000000000000000e+00
0.000000000000000e+00 0.000000000000000e+00 0.000000000000000e+00
0.000000000000000e+00 0.000000000000000e+00 0.000000000000000e+00
0.000000000000000e+00 0.000000000000000e+00 0.000000000000000e+00
0.000000000000000e+00 0.000000000000000e+00 0.000000000000000e+00
0.000000000000000e+00 0.000000000000000e+00 0.000000000000000e+00
0.000000000000000e+00 0.000000000000000e+00 0.000000000000000e+00
0.000000000000000e+00 0.000000000000000e+00 0.000000000000000e+00
0.000000000000000e+00 0.000000000000000e+00 0.000000000000000e+00
0.000000000000000e+00 0.000000000000000e+00 0.000000000000000e+00
0.000000000000000e+00 0.000000000000000e+00 0.000000000000000e+00
0.000000000000000e+00 0.000000000000000e+00 0.000000000000000e+00
0.000000000000000e+00 0.000000000000000e+00 0.000000000000000e+00
0.000000000000000e+00 0.000000000000000e+00 0.000000000000000e+00
0.000000000000000e+00 0.000000000000000e+00 0.000000000000000e+00
0.000000000000000e+00 0.000000000000000e+00 0.000000000000000e+00
0.000000000000000e+00 0.000000000000000e+00 0.000000000000000e+00
0.000000000000000e+00 0.000000000000000e+00 0.000000000000000e+00
0.000000000000000e+00 0.000000000000000e+00 0.000000000000000e+00
0.000000000000000e+00 0.000000000000000e+00 0.000000000000000e+00
0.000000000000000e+00 0.000000000000000e+00 0.000000000000000e+00
0.000000000000000e+00 0.000000000000000e+00 0.000000000000000e+00
0.000000000000000e+00 0.000000000000000e+00 0.000000000000000e+00
0.000000000000000e+00 0.000000000000000e+00 0.000000000000000e+00
0.000000000000000e+00 0.000000000000000e+00 0.000000000000000e+00
0.000000000000000e+00 0.000000000000000e+00 0.000000000000000e+00
0.000000000000000e+00 0.000000000000000e+00 0.000000000000000e+00
0.000000000000000e+00 0.000000000000000e+00 0.000000000000000e+00
0.000000000000000e+00 0.000000000000000e+00 0.000000000000000e+00
0.000000000000000e+00 0.000000000000000e+00 0.000000000000000e+00
0.000000000000000e+00 0.000000000000000e+00 0.000000000000000e+00
0.000000000000000e+00 0.000000000000000e+00 0.000000000000000e+00
0.000000000000000e+00 0.000000000000000e+00 0.000000000000000e+00
0.000000000000000e+00 0.000000000000000e+00 0.000000000000000e+00
0.000000000000000e+00 0.000000000000000e+00 0.000000000000000e+00
0.000000000000000e+00 0.000000000000000e+00 0.000000000000000e+00
0.000000000000000e+00 0.000000000000000e+00 0.000000000000000e+00
0.000000000000000e+00 0.000000000000000e+00 0.000000000000000e+00
0.000000000000000e+00 0.000000000000000e+00 0.000000000000000e+00
0.000000000000000e+00 0.000000000000000e+00 0.000000000000000e+00
0.000000000000000e+00 0.000000000000000e+00 0.000000000000000e+00
0.000000000000000e+00 0.000000000000000e+00 0.000000000000000e+00
0.000000000000000e+00 0.000000000000000e+00 0.000000000000000e+00
0.000000000000000e+00 0.000000000000000e+00 0.000000000000000e+00
0.000000000000000e+00 0.000000000000000e+00 0.000000000000000e+00
0.000000000000000e+00 0.000000000000000e+00 0.000000000000000e+00
0.000000000000000e+00 0.000000000000000e+00 0.000000000000000e+00
0.000000000000000e+00 0.000000000000000e+00 0.000000000000000e+00
0.000000000000000e+00 0.000000000000000e+00 0.000000000000000e+00
0.000000000000000e+00 0.000000000000000e+00 0.000000000000000e+00
0.000000000000000e+00 0.000000000000000e+00 0.000000000000000e+00
0.000000000000000e+00 0.000000000000000e+00 0.000000000000000e+00
0.000000000000000e+00 0.000000000000000e+00 0.000000000000000e+00
0.000000000000000e+00 0.000000000000000e+00 0.000000000000000e+00
0.000000000000000e+00 0.000000000000000e+00 0.000000000000000e+00
0.000000000000000e+00 0.000000000000000e+00 0.000000000000000e+00
0.000000000000000e+00 0.000000000000000e+00 0.000000000000000e+00
0.000000000000000e+00 0.000000000000000e+00 0.000000000000000e+00
0.000000000000000e+00 0.000000000000000e+00 0.000000000000000e+00
0.000000000000000e+00 0.000000000000000e+00 0.000000000000000e+00
0.000000000000000e+00 0.000000000000000e+00 0.000000000000000e+00
0.000000000000000e+00 0.000000000000000e+00 0.000000000000000e+00
0.000000000000000e+00 0.000000000000000e+00 0.000000000000000e+00
0.000000000000000e+00 0.000000000000000e+00 0.000000000000000e+00
0.000000000000000e+00 0.000000000000000e+00 0.000000000000000e+00
0.000000000000000e+00 0.000000000000000e+00 0.000000000000000e+00
0.000000000000000e+00 0.000000000000000e+00 0.000000000000000e+00
0.000000000000000e+00 0.000000000000000e+00 0.000000000000000e+00
0.000000000000000e+00 0.000000000000000e+00 0.000000000000000e+00
0.000000000000000e+00 0.000000000000000e+00 0.000000000000000e+00
0.000000000000000e+00 0.000000000000000e+00 0.000000000000000e+00
0.000000000000000e+00 0.000000000000000e+00 0.000000000000000e+00
0.000000000000000e+00 0.000000000000000e+00 0.000000000000000e+00
0.000000000000000e+00 0.000000000000000e+00 0.000000000000000e+00
0.000000000000000e+00 0.000000000000000e+00 0.000000000000000e+00
0.000000000000000e+00 0.000000000000000e+00 0.000000000000000e+00
0.000000000000000e+00 0.000000000000000e+00 0.000000000000000e+00
0.000000000000000e+00 0.000000000000000e+00 0.000000000000000e+00
0.000000000000000e+00 0.000000000000000e+00 0.000000000000000e+00
0.000000000000000e+00 0.000000000000000e+00 0.000000000000000e+00
0.000000000000000e+00 0.000000000000000e+00 0.000000000000000e+00
0.000000000000000e+00 0.000000000000000e+00 0.000000000000000e+00
0.000000000000000e+00 0.000000000000000e+00 0.000000000000000e+00
0.000000000000000e+00 0.000000000000000e+00 0.000000000000000e+00
0.000000000000000e+00 0.000000000000000e+00 0.000000000000000e+00
0.000000000000000e+00 0.000000000000000e+00 0.000000000000000e+00
0.000000000000000e+00 0.000000000000000e+00 0.000000000000000e+00
0.000000000000000e+00 0.000000000000000e+00 0.000000000000000e+00
0.000000000000000e+00 0.000000000000000e+00 0.000000000000000e+00
0.000000000000000e+00 0.000000000000000e+00 0.000000000000000e+00
0.000000000000000e+00 0.000000000000000e+00 0.000000000000000e+00
0.000000000000000e+00 0.000000000000000e+00 0.000000000000000e+00
0.000000000000000e+00 0.000000000000000e+00 0.000000000000000e+00
0.000000000000000e+00 0.000000000000000e+00 0.000000000000000e+00
0.000000000000000e+00 0.000000000000000e+00 0.000000000000000e+00
0.000000000000000e+00 0.000000000000000e+00 0.000000000000000e+00
0.000000000000000e+00 0.000000000000000e+00 0.000000000000000e+00
0.000000000000000e+00 0.000000000000000e+00 0.000000000000000e+00
0.000000000000000e+00 0.000000000000000e+00 0.000000000000000e+00
0.000000000000000e+00 0.000000000000000e+00 0.000000000000000e+00
0.000000000000000e+00 0.000000000000000e+00 0.000000000000000e+00
0.000000000000000e+00 0.000000000000000e+00 0.000000000000000e+00
0.000000000000000e+00 0.000000000000000e+00 0.000000000000000e+00
0.000000000000000e+00 0.000000000000000e+00 0.000000000000000e+00
0.000000000000000e+00 0.000000000000000e+00 0.000000000000000e+00
0.000000000000000e+00 0.000000000000000e+00 0.000000000000000e+00
0.000000000000000e+00 0.000000000000000e+00 0.000000000000000e+00
0.000000000000000e+00 0.000000000000000e+00 0.000000000000000e+00
0.000000000000000e+00 0.000000000000000e+00 0.000000000000000e+00
0.000000000000000e+00 0.000000000000000e+00 0.000000000000000e+00
0.000000000000000e+00 0.000000000000000e+00 0.000000000000000e+00
0.000000000000000e+00 0.000000000000000e+00 0.000000000000000e+00
0.000000000000000e+00 0.000000000000000e+00 0.000000000000000e+00
0.000000000000000e+00 0.000000000000000e+00 0.000000000000000e+00
0.000000000000000e+00 0.000000000000000e+00 0.000000000000000e+00
0.000000000000000e+00 0.000000000000000e+00 0.000000000000000e+00
0.000000000000000e+00 0.000000000000000e+00 0.000000000000000e+00
0.000000000000000e+00 0.000000000000000e+00 0.000000000000000e+00
0.000000000000000e+00 0.000000000000000e+00 0.000000000000000e+00
0.000000000000000e+00 0.000000000000000e+00 0.000000000000000e+00
0.000000000000000e+00 0.000000000000000e+00 0.000000000000000e+00
0.000000000000000e+00 0.000000000000000e+00 0.000000000000000e+00
0.000000000000000e+00 0.000000000000000e+00 0.000000000000000e+00
0.000000000000000e+00 0.000000000000000e+00 0.000000000000000e+00
0.000000000000000e+00 0.000000000000000e+00 0.000000000000000e+00
-1.099993705689063e-01  3.721215451270788e-04  1.953746597577451e-18
-1.099992410776749e-01 -4.086102488719323e-04  1.961766028692301e-18
-1.099958873421740e-01 -9.511928341186571e-04  1.967281183927236e-18
-1.099994465805027e-01 -3.489297680999236e-04  1.961156490600536e-18
-1.099961716624308e-01 -9.177252361101245e-04  1.966942376333638e-18
-1.099997432406691e-01  2.376699114100299e-04  1.955134671410013e-18
-1.099898250407845e-01 -1.496124158463258e-03  1.972772269442288e-18
-1.099957279523540e-01 -9.694494477059825e-04  1.967465927467765e-18
-1.099957279523540e-01 -9.694494477059825e-04  1.967465927467765e-18
-1.099806976873176e-01 -2.060615493190680e-03  1.978409780700586e-18
-1.099993227158786e-01 -3.860078340338239e-04  1.961535249939867e-18
-1.099745218614782e-01 -2.367391251818314e-03  1.981451883990010e-18
-1.099999270965185e-01  1.266442282358057e-04  1.956278691906319e-18
-1.099717079181978e-01 -2.494685862893229e-03  1.982709712399040e-18
-1.099979775828348e-01 -6.670289994424048e-04  1.964398702080430e-18
-1.099862369868156e-01 -1.740021114805338e-03  1.975214368367540e-18
-1.099862369868156e-01 -1.740021114805338e-03  1.975214368367540e-18
-1.099864853806916e-01 -1.724248706780742e-03  1.975056733070072e-18
-1.099878017294127e-01 -1.638130254689679e-03  1.974195323254900e-18
-1.099191187308219e-01  4.217503697615848e-03  1.912808515691572e-18
-1.099191187308219e-01  4.217503697615848e-03  1.912808515691572e-18
-1.068609139372738e-01 -2.609109182250665e-02  2.169793922153765e-18
-1.082417050988309e-01  1.958911119213051e-02  1.725019256278741e-18
-1.082417050988309e-01  1.958911119213051e-02  1.725019256278741e-18
-1.090986064267821e-01 -1.405325854505055e-02  2.085931965295957e-18
-1.090986064267821e-01 -1.405325854505055e-02  2.085931965295957e-18
-1.099885310621887e-01 -1.588406365467966e-03  1.973697407703147e-18
-1.097890659605727e-01 -6.808890915923042e-03  2.023786270592285e-18
-1.096992935313693e-01  8.128037814773975e-03  1.868717146581885e-18
-1.098232221206311e-01 -6.233769569245613e-03  2.018484957291516e-18
-1.092658746725830e-01  1.268734140926783e-02  1.814158752820413e-18
-1.097411916881464e-01 -7.541276209330893e-03  2.030459283643066e-18
-1.091303242907730e-01  1.380479337732535e-02  1.800265059052352e-18
-1.099046035224018e-01 -4.580188269448407e-03  2.002943289254722e-18
-1.091206877989673e-01  1.388075985961306e-02  1.799313038176792e-18
-1.096227679395293e-01 -9.102128832094632e-03  2.044388985461180e-18
-1.098487038182385e-01  5.767345095695385e-03  1.895631340976052e-18
-1.091294911689801e-01 -1.381137781683714e-02  2.083996359509994e-18
-1.091578327944406e-01  1.358556364752163e-02  1.803007111522283e-18
-1.097469718210681e-01 -7.456686670741259e-03  2.029693021223154e-18
-1.097681256668575e-01  7.138528390705111e-03  1.880108946410636e-18
-1.085767052036515e-01 -1.763800122234034e-02  2.113476039258552e-18
-1.096791620272201e-01  8.395321137796069e-03  1.865612643404168e-18
-1.093896831842247e-01 -1.157139632260898e-02  2.065611790657650e-18
-1.094681727086259e-01  1.080366437068421e-02  1.837112984967004e-18
-1.092165098589167e-01 -1.310549404780602e-02  2.078292261597685e-18
-1.094097722908974e-01  1.137988256766742e-02  1.830153247220599e-18
-1.097980570922103e-01 -6.662331331872533e-03  2.022440432019579e-18
-1.099037250822404e-01  4.601218648059525e-03  1.908592035629729e-18
-1.092516394021885e-01 -1.280934377453096e-02  2.075874597249277e-18
-1.099625033858780e-01  2.871906877091848e-03  1.927406115893374e-18
-1.098623224015928e-01 -5.501828471372793e-03  2.011660364544387e-18
-1.097068125612315e-01  8.025912886067169e-03  1.869900253230700e-18
-1.098620612489620e-01 -5.507040777881261e-03  2.011709271577700e-18
-1.097001131615157e-01  8.116968174791623e-03  1.868845469407565e-18
-1.098717040080743e-01 -5.311182388323040e-03  2.009868502175453e-18
-1.097231391575666e-01  7.799534178987804e-03  1.872516763465873e-18
-1.099184415134991e-01 -4.235116910241524e-03  1.999644069951568e-18
-1.096891706407670e-01  8.263524922248156e-03  1.867144916857897e-18
-1.098554129922929e-01 -5.638105736212373e-03  2.012937602754641e-18
-1.099592850776558e-01  2.992595062945143e-03  1.926108814992551e-18
-1.069313911609095e-01 -2.580072836941789e-02  2.168064769416899e-18
-1.099323031265853e-01  3.858591619293726e-03  1.916730838963350e-18
-1.099769249603267e-01 -2.252992736472669e-03  1.980319246813076e-18
-1.099776180620589e-01  2.218901844569044e-03  1.934384489076544e-18
-1.099656853253154e-01 -2.747371640978019e-03  1.985198787750983e-18
-1.099957483452726e-01  9.671328571575818e-04  1.947568610706646e-18
-1.099952922404170e-01 -1.017686073986323e-03  1.967953787266151e-18
-1.099996649325882e-01 -2.715045455494424e-04  1.960364860401023e-18
-1.099996649325882e-01 -2.715045455494424e-04  1.960364860401023e-18
-1.099398180881534e-01 -3.638186188702256e-03  1.993891245280511e-18
-1.099841536388624e-01  1.867069453193544e-03  1.938115747472404e-18
-1.099996675490976e-01 -2.704423929987995e-04  1.960353993733321e-18
-1.099494715506866e-01  3.333722502654354e-03  1.922429211052978e-18
-1.099920121066626e-01  1.325621638221877e-03  1.943818777887135e-18
-1.099927102772415e-01  1.266367192699342e-03  1.944440020567690e-18
-1.099948984592237e-01  1.059392724625665e-03  1.946605549347767e-18
-1.099971063102088e-01  7.978742886922081e-04  1.949331847616703e-18
-1.099923919859734e-01  1.293717590475208e-03  1.944153340793375e-18
-1.099987175624578e-01  5.311634537244266e-04  1.952100878713309e-18
-1.099922723931905e-01  1.303845766231194e-03  1.944047149170531e-18
-1.099996678563357e-01 -2.703173981554894e-04  1.960352714924382e-18
-1.099897763581239e-01  1.499698866376303e-03  1.941990409792991e-18
-1.099908385363714e-01 -1.419661250370672e-03  1.972004677201336e-18
-1.099780669254334e-01  2.196541678368857e-03  1.934622219720615e-18
-1.099982506414231e-01 -6.203674931766773e-04  1.963924131457637e-18
-1.093846429003097e-01  1.161894563080732e-02  1.827249753610689e-18
-1.099993923300886e-01  3.656323442629369e-04  1.953813659025185e-18
-1.099903845325851e-01  1.454410662086594e-03  1.942466552830150e-18
-1.099997818301094e-01 -2.190829255234455e-04  1.959828327629364e-18
-1.099895393937565e-01  1.516978559243167e-03  1.941808650162424e-18
-1.099982236221795e-01  6.251399562519966e-04  1.951126514032374e-18
-1.099969465148511e-01  8.196080825054015e-04  1.949105697031538e-18
-1.099969465148511e-01  8.196080825054015e-04  1.949105697031538e-18
-1.099969465148511e-01  8.196080825054015e-04  1.949105697031538e-18
-1.099985432748030e-01  5.661072523986016e-04  1.951738742219302e-18
-1.099960419013571e-01  9.331484527286913e-04  1.947923012297279e-18
-1.099996196772467e-01  2.892591588992849e-04  1.954602411674467e-18
-1.099990257035273e-01  4.629732980039648e-04  1.952806991529698e-18
-1.099999815705075e-01  6.367486099562957e-05  1.956926648709353e-18
-1.099959562054240e-01  9.431958727502099e-04  1.947818253645148e-18
-1.099995199129160e-01  3.249906581918428e-04  1.954233508074201e-18
-1.099995199129160e-01  3.249906581918428e-04  1.954233508074201e-18
-1.099942894037850e-01 -1.120847249326620e-03  1.968995884193170e-18
-1.099851715759119e-01  1.806110023545413e-03  1.938760198871254e-18
-1.099906596735298e-01 -1.433451980943849e-03  1.972143188870576e-18
-1.098655821901350e-01  5.436345281769092e-03  1.899332614582514e-18
-1.099857257656729e-01 -1.772040574627548e-03  1.975534258895418e-18
-1.099994686381339e-01  3.419054373914408e-04  1.954058802366671e-18
-1.099233101417246e-01 -4.106809891651631e-03  1.998412404992615e-18
-1.099721199681870e-01  2.476455067759167e-03  1.931640378131181e-18
-1.097939745301710e-01 -6.729276102828071e-03  2.023055611160678e-18
-1.099751113166404e-01  2.339848476392475e-03  1.933097195846139e-18
-1.097932038705622e-01 -6.741838312885990e-03  2.023170968498515e-18
-1.099973889275360e-01  7.579110266454456e-04  1.949747485129177e-18
-1.096272238940622e-01 -9.048302674042625e-03  2.043915240266869e-18
-1.099805607357077e-01  2.067912053069966e-03  1.935988222721647e-18
-1.099067852844617e-01 -4.527532267710618e-03  2.002441095023642e-18
-1.099980849357865e-01  6.490843238034932e-04  1.950878026264294e-18
-1.098685070776558e-01 -5.376909198324517e-03  2.010486928081310e-18
-1.099885114166844e-01  1.589766128024133e-03  1.941042490256629e-18
-1.098728835228971e-01 -5.286725485952712e-03  2.009638207261338e-18
-1.099976113646889e-01 -7.249096928534218e-04  1.964986887890078e-18
-1.099320224392032e-01 -3.866580197856001e-03  1.996099177883490e-18
-1.099320224392032e-01 -3.866580197856001e-03  1.996099177883490e-18
-1.098273878288799e-01 -6.159941776081846e-03  2.017800537283613e-18
-1.099500050874317e-01 -3.316079201961868e-03  1.990763002807672e-18
-1.097421014327227e-01 -7.528025845461206e-03  2.030339330957700e-18
-1.077540892953698e-01 -2.211461598412694e-02  2.144832198369969e-18
-1.094563869884785e-01  1.092242406374827e-02  1.835683031314238e-18
-1.099474557952451e-01  3.399553522528530e-03  1.921716948465742e-18
-1.098079926033287e-01  6.496519100813865e-03  1.887414838330136e-18
-1.099753118375923e-01 -2.330404734002725e-03  1.981085919522868e-18
-1.097056627006764e-01  8.041614974950843e-03  1.869718456831357e-18
-1.099960003213241e-01 -9.380369455395542e-04  1.967148022549985e-18
-1.097337245601878e-01  7.649162970467796e-03  1.874250152874219e-18
-1.019544256785123e-01 -4.129521866469107e-02  2.238693990996438e-18
-1.099943440174238e-01 -1.115474865942403e-03  1.968941656820380e-18
-1.099996966678752e-01  2.583272641013658e-04  1.954921595796913e-18
-1.099684341397301e-01 -2.635050826028024e-03  1.984093650611732e-18
-1.099929292145899e-01 -1.247205995071615e-03  1.970269968213957e-18
-1.099999757624228e-01  7.302236857651818e-05  1.956830503102846e-18
-1.099999734454760e-01  7.643294118169388e-05  1.956795419475459e-18
-1.099775503972753e-01  2.222253049204067e-03  1.934348852490779e-18
-1.099999767275743e-01  7.155370737820726e-05  1.956845610239157e-18
-1.099940631852539e-01 -1.142831570402320e-03  1.969217739277342e-18
-1.099971457029649e-01  7.924248864266241e-04  1.949388539286455e-18
-1.099978150146580e-01  6.933195518715695e-04  1.950418721796832e-18
-1.099996762976308e-01 -2.668602937322122e-04  1.960317344655215e-18
-1.099996762976308e-01 -2.668602937322122e-04  1.960317344655215e-18
-1.099905546735977e-01  1.441486244901331e-03  1.942602374383928e-18
-1.099981012636051e-01  6.463113813008794e-04  1.950906807814184e-18
-1.099990156142965e-01  4.653642505391927e-04  1.952782245811066e-18
-1.099998452730810e-01  1.844990465476327e-04  1.955682798519493e-18
-1.099986818652561e-01  5.385052516902555e-04  1.952024809131992e-18
-1.099999715813937e-01 -7.907017456822594e-05  1.958393124326381e-18
-1.099982969870764e-01  6.120947172300380e-04  1.951261854740214e-18
-1.099999873846175e-01  5.268191269573903e-05  1.957039700728732e-18
-1.099999873846175e-01  5.268191269573903e-05  1.957039700728732e-18
-1.099999873846175e-01  5.268191269573903e-05  1.957039700728732e-18
-1.099997462168102e-01 -2.362884619958345e-04  1.960004474485198e-18
-1.099999764495030e-01 -7.197991879879926e-05  1.958320361157849e-18
-1.099989641357140e-01 -4.773772824676771e-04  1.962467656468856e-18
-1.099863329467815e-01 -1.733944900984024e-03  1.975153645199901e-18
-1.099990319018436e-01 -4.614982742407312e-04  1.962305711406824e-18
-1.099909812466914e-01 -1.408561106205544e-03  1.971893166952780e-18
-1.099963395241880e-01 -8.973802312668505e-04  1.966736326099836e-18
-1.099912581112950e-01 -1.386772906569328e-03  1.971674228252428e-18
-1.099829149965813e-01 -1.938661614284926e-03  1.977196208560441e-18
-1.099829149965813e-01 -1.938661614284926e-03  1.977196208560441e-18
-1.098380902195644e-01 -5.966065447073426e-03  2.015998990241288e-18
-1.019443411017197e-01 -4.132010790566940e-02  2.238770251832597e-18
-1.097512733912637e-01  7.393104151572611e-03  1.877193366601513e-18
-1.099818261203023e-01 -1.999480743474156e-03  1.977801725166764e-18
-1.095122226015281e-01  1.034761329357087e-02  1.842582664502822e-18
-1.099995678646599e-01 -3.083335661491652e-04  1.960741537769182e-18
-1.099953003654797e-01  1.016807507744463e-03  1.947050249382466e-18
-1.099953003654797e-01  1.016807507744463e-03  1.947050249382466e-18
-1.099994663898710e-01  3.426279958762788e-04  1.954051338330205e-18
-1.099679391075449e-01  2.655629574925782e-03  1.929725021756789e-18
-1.099980017731222e-01  6.630278426438109e-04  1.950733281694680e-18
-1.099980017731222e-01  6.630278426438109e-04  1.950733281694680e-18
-1.099953324781577e-01  1.013327695997466e-03  1.947086574667458e-18
-1.099985926778757e-01  5.564250953308430e-04  1.951839102052532e-18
-1.099948052942989e-01  1.069022108842260e-03  1.946504952942054e-18
-1.099942024998667e-01  1.129343357106383e-03  1.945874446583166e-18
-1.099942024998667e-01  1.129343357106383e-03  1.945874446583166e-18
-1.099942024998667e-01  1.129343357106383e-03  1.945874446583166e-18
-1.099997853790932e-01  2.172937029759895e-04  1.955344779453099e-18
-1.099922847402918e-01  1.302803749800610e-03  1.944058075242218e-18
-1.099943857716090e-01 -1.111349956759719e-03  1.968900017942520e-18
-1.099971668484239e-01  7.894842113205626e-04  1.949419129963571e-18
-1.099993601732947e-01  3.751819101620972e-04  1.953714968436149e-18
-1.099999035297870e-01  1.456826601736872e-04  1.956082659536178e-18
-1.099894923065701e-01  1.520388813063749e-03  1.941772773070614e-18
-1.099970490184963e-01 -8.057339650564334e-04  1.965807320304527e-18
-1.099995085900022e-01  3.288007876481961e-04  1.954194158873391e-18
-1.099999221440569e-01  1.308751365312543e-04  1.956235132725588e-18
-1.099984385209988e-01 -5.861083022596245e-04  1.963575474257510e-18
-1.099984385209988e-01 -5.861083022596245e-04  1.963575474257510e-18
-1.099999221440569e-01  1.308751365137451e-04  1.956235132725768e-18
-1.099996649439733e-01 -2.714999328427233e-04  1.960364813209749e-18
-1.099999876388979e-01 -5.214827159269523e-05  1.958116797315707e-18
-1.099993771800345e-01  3.701621326297059e-04  1.953766847481974e-18
-1.099996293655370e-01  2.855511240059332e-04  1.954640682800655e-18
-1.099996293655370e-01  2.855511240059332e-04  1.954640682800655e-18
-1.099985107812418e-01 -5.723861537192156e-04  1.963435770123341e-18
-1.099985107812418e-01 -5.723861537192156e-04  1.963435770123341e-18
-1.099985107812418e-01 -5.723861537192156e-04  1.963435770123341e-18
-1.099992553352983e-01  4.047538508457993e-04  1.953409261771065e-18
-1.099977704362445e-01  7.003563772803314e-04  1.950345627645990e-18
-1.099563796712938e-01 -3.097510223102057e-03  1.988630729273460e-18
-1.099751570157837e-01  2.337699585842905e-03  1.933120088186673e-18
-1.099654262096821e-01 -2.757723431181076e-03  1.985300537363032e-18
-1.099846521062731e-01  1.837471377191607e-03  1.938428727773355e-18
-1.099150392873337e-01 -4.322515293645965e-03  2.000481509918778e-18
-1.099966227470556e-01  8.619653368154109e-04  1.948664729796557e-18
-1.098940962932578e-01 -4.825722732204730e-03  2.005279077987789e-18
-1.099981554810160e-01  6.370170909569748e-04  1.951003268134615e-18
-1.099937145686688e-01 -1.175906197844900e-03  1.969551365011273e-18
-1.099937145686688e-01 -1.175906197844900e-03  1.969551365011273e-18
-1.099937145686688e-01 -1.175906197844900e-03  1.969551365011273e-18
-1.099711095756297e-01 -2.520924176720093e-03  1.982968653322253e-18
-1.099934836735227e-01 -1.197309217542225e-03  1.969767164209010e-18
-1.099455775249287e-01 -3.459766279652029e-03  1.992160541577399e-18
-1.062113456661306e-01 -2.862079753937097e-02  2.184225887206630e-18
-1.099024941738606e-01  4.630526359332160e-03  1.908269004060159e-18
-1.099674599047035e-01  2.675399429497217e-03  1.929513365696715e-18
-1.099826793464268e-01  1.951984574986081e-03  1.937217038650734e-18
-1.099767667599655e-01  2.260701887483942e-03  1.933939858884133e-18
-1.099968732674934e-01 -8.293801148596322e-04  1.966047148205043e-18
-1.098990019038251e-01  4.712682945306230e-03  1.907362725873404e-18
-1.099304186489836e-01 -3.911912020883431e-03  1.996536404537311e-18
-1.099979186000864e-01  6.766857828259340e-04  1.950591471157464e-18
-1.099937225336909e-01  1.175160917207965e-03  1.945395146226711e-18
-1.099997135701457e-01 -2.510268627839677e-04  1.960155325212917e-18
-1.099997135701457e-01 -2.510268627839677e-04  1.960155325212917e-18
-1.099997135701457e-01 -2.510268627839677e-04  1.960155325212917e-18
-1.099999946591717e-01 -3.427801235328394e-05  1.957933311827922e-18
-1.099999946591717e-01 -3.427801235328394e-05  1.957933311827922e-18
-1.099994084009451e-01  3.607650787115213e-04  1.953863954410647e-18
-1.099999919671510e-01  4.203839494818603e-05  1.957149140558751e-18
-1.099996551096065e-01 -2.754555636370517e-04  1.960405280864905e-18
-1.099911331142897e-01  1.396651794300487e-03  1.943073326118879e-18
-1.099943620844734e-01 -1.113691891724030e-03  1.968923658932687e-18
-1.099985781997572e-01  5.592799226045040e-04  1.951809512083983e-18
-1.099923169466660e-01 -1.300081806696295e-03  1.970802351932083e-18
-1.099643569471147e-01  2.800035929676055e-03  1.928177550102623e-18
-1.099865423241309e-01 -1.720612560131883e-03  1.975020386360592e-18
-1.099965655214293e-01  8.692373035208095e-04  1.948588994582077e-18
-1.099590536617072e-01 -3.001086107015715e-03  1.987687593357859e-18
-1.099941090322363e-01  1.138410384901920e-03  1.945779622798382e-18
-1.099901477050240e-01 -1.472211882482075e-03  1.972532321688258e-18
-1.099681712391779e-01  2.645999680798402e-03  1.929828096479988e-18
-1.099945667595188e-01 -1.093290165370178e-03  1.968717681042345e-18
-1.099968998758137e-01  8.258436354038810e-04  1.949040798993402e-18
-1.099884459738235e-01 -1.594287384143266e-03  1.973756318784672e-18
-1.099985503561475e-01  5.647296220447291e-04  1.951753022891706e-18
-1.099942686234727e-01 -1.122884672278918e-03  1.969016448163424e-18
-1.099982267438311e-01 -6.245904359146398e-04  1.963967095374040e-18
-1.099982267438311e-01 -6.245904359146398e-04  1.963967095374040e-18
-1.099245856851486e-01 -4.072525254476768e-03  1.998082842617028e-18
-1.099405726385825e-01  3.615312974070074e-03  1.919377604497062e-18
-1.099408151056787e-01 -3.607932080695833e-03  1.993598138427345e-18
-1.099997049427509e-01 -2.547793313267232e-04  1.960193726929248e-18
-1.099067976475158e-01 -4.527232142042688e-03  2.002438231356727e-18
-1.091607406298711e-01  1.356217921788199e-02  1.803299126442009e-18
-1.098833250416062e-01 -5.065064441904856e-03  2.007546539837396e-18
-1.098258444297712e-01  6.187398103211807e-03  1.890908638831640e-18
-1.099615823077012e-01  2.906959990536831e-03  1.927029566201664e-18
-1.092827162632928e-01  1.254144832611301e-02  1.815957467447097e-18
-9.619246228202162e-02 -5.335738187094435e-02  2.260087324342005e-18
-1.069480469576076e-01  2.573160026024976e-02  1.638885222740312e-18
-1.069093225411815e-01 -2.589202104482287e-02  2.168610031080201e-18
 3.861210101294848e-02  1.030005128888482e-01 -1.745441248494946e-18
-1.068218371360711e-01 -2.625062115216746e-02  2.170737609773682e-18
-1.094210143211835e-01  1.127127432561515e-02  1.831469222792334e-18
-5.670047270004078e-02 -9.426057710194576e-02  1.977545734016170e-18
-1.074147626979875e-01 -2.370798925541689e-02  2.155164808341635e-18
-1.098156608561756e-01  6.365581726862272e-03  1.888896637988113e-18
-1.090137264703442e-01 -1.469719160414321e-02  2.091037603482357e-18
-1.093070584762286e-01 -1.232748827921789e-02  2.071909955608085e-18
-1.086356061891866e-01  1.727151029608861e-02  1.755841703332465e-18
-1.099692327218312e-01 -2.601510056034098e-03  1.983763243105520e-18
-1.099458644308540e-01  3.450636832846790e-03  1.921163765781741e-18
-1.098692215598563e-01 -5.362289980142320e-03  2.010349435988256e-18
-1.099997692195169e-01 -2.253256597742884e-04  1.959892245035448e-18
-1.099187026746978e-01  4.228333278171521e-03  1.912689841470423e-18
-1.099951620108034e-01 -1.031665748700260e-03  1.968095105754102e-18
-1.098888378856663e-01 -4.944017408714547e-03  2.006400933180304e-18
-1.099513228865480e-01  3.272093442736034e-03  1.923095373985570e-18
-1.099513228865480e-01  3.272093442736034e-03  1.923095373985570e-18
-1.099832196225087e-01  1.921302023876668e-03  1.937541905574629e-18
-1.099897096515235e-01 -1.504583255753287e-03  1.972857130104452e-18
-1.099999139759540e-01 -1.375691921975877e-04  1.958993155323986e-18
-1.099961863234126e-01  9.159663230840437e-04  1.948102122600352e-18
-1.099998760257866e-01  1.651493611528326e-04  1.955882156788819e-18
-1.099887906972288e-01  1.570325113190746e-03  1.941247209752104e-18
-1.099999805277103e-01 -6.545153399248983e-05  1.958253356952102e-18
-1.099992715792953e-01  4.003149065150982e-04  1.953455159392823e-18
-1.099999939999916e-01 -3.633182820818871e-05  1.957954402308843e-18
-1.099832703098659e-01 -1.918398276400785e-03  1.976994333348506e-18
-1.099708210066384e-01  2.533481226658189e-03  1.931031338494255e-18
-1.099977383997409e-01 -7.053700745597432e-04  1.964788386150580e-18
-1.099913982605565e-01  1.375612113776678e-03  1.943294219787242e-18
-1.099831458430743e-01  1.925520828497617e-03  1.937497245896679e-18
-1.099971237053082e-01 -7.954725382048424e-04  1.965703217012218e-18
-1.098595724898965e-01  5.556467613250471e-03  1.897991451479182e-18
-1.099404376625068e-01 -3.619415225748933e-03  1.993709406519795e-18
-1.095105740151374e-01  1.036504601413099e-02  1.842374211070547e-18
-1.099996840831572e-01  2.636315715931415e-04  1.954866872004271e-18
-1.081622655000744e-01 -2.002309471313894e-02  2.130606559553433e-18
-1.099782648029199e-01  2.186611748517893e-03  1.934727767608482e-18
-1.099498075926808e-01  3.322621003426259e-03  1.922549255192822e-18
-1.099989409019856e-01 -4.827011926703004e-04  1.962521944240251e-18
-1.099971589098201e-01 -7.905895064545261e-04  1.965653672141130e-18
-1.099971589098201e-01 -7.905895064545261e-04  1.965653672141130e-18
-1.099998252743865e-01  1.960602060167522e-04  1.955563655905163e-18
-1.099832944945332e-01 -1.917011248979386e-03  1.976980512540622e-18
-1.099790879751607e-01  2.144809584037944e-03  1.935171918994922e-18
-1.099784874510941e-01 -2.175384556688165e-03  1.979549657345637e-18
-1.098909382969441e-01  4.897109373616204e-03  1.905324309816307e-18
-1.099671059351311e-01  2.689909338914816e-03  1.929357982337714e-18
-1.099556606067101e-01 -3.122931402051045e-03  1.988879126040374e-18
-1.099997471042141e-01 -2.358749856798023e-04  1.960000241958665e-18
-1.098674470081565e-01  5.398526457269103e-03  1.899754375926883e-18
-1.099983783485943e-01  5.972944662674192e-04  1.951415369867608e-18
-1.099659579913589e-01  2.736436193776893e-03  1.928859506777141e-18
-1.099908281911180e-01 -1.420462541531877e-03  1.972012726070807e-18
-1.099811738220052e-01  2.035044160161058e-03  1.936336838983299e-18
-1.099920403575773e-01 -1.323275472839126e-03  1.971035736193343e-18
-1.099841964692043e-01  1.864544722816499e-03  1.938142450376891e-18
-1.099979923433105e-01  6.645904309690582e-04  1.950717058852533e-18
-1.099475696622213e-01  3.395868868334739e-03  1.921756833347719e-18
-1.099983021154977e-01 -6.111724041673305e-04  1.963830571300937e-18
-1.099852906805003e-01  1.798842384915799e-03  1.938836990826273e-18
-1.099852906805003e-01  1.798842384915799e-03  1.938836990826273e-18
-1.099997424337335e-01  2.380430890187129e-04  1.955130822785265e-18
-1.099290862698181e-01  3.949176101772311e-03  1.915742868509261e-18
-1.099692859563513e-01 -2.599258788608348e-03  1.983741059522327e-18
-1.097833832359731e-01  6.899910525750712e-03  1.882832184932287e-18
-1.092214770011360e-01 -1.306403313262227e-02  2.077954661976552e-18
-1.093365282880811e-01  1.206331554381106e-02  1.821827757263680e-18
-1.083590489724672e-01 -1.892925000580799e-02  2.122869699171201e-18
-1.096694871070001e-01  8.520774476975555e-03  1.864151479171735e-18
-1.096418300267661e-01 -8.869560777269171e-03  2.042338665763640e-18
-1.094804896838182e-01  1.067812617416138e-02  1.838622039597602e-18
-1.093677761686399e-01 -1.177665215272172e-02  2.067330858274513e-18
-1.096949065806805e-01  8.187030612846520e-03  1.868032945991639e-18
-1.097890470001502e-01 -6.809196633872256e-03  2.023789074309820e-18
-1.098341284097720e-01  6.038562450254329e-03  1.892585294403642e-18
-1.097730846431021e-01 -7.061861506590049e-03  2.026101044906804e-18
-1.097857085825418e-01  6.862812180813848e-03  1.883254739265707e-18
-1.099895026753379e-01 -1.519638520099560e-03  1.973008134088350e-18
-1.099735778413002e-01  2.410845657318885e-03  1.932340435580494e-18
-1.099986969947141e-01 -5.354058880953325e-04  1.963059125218793e-18
-1.099966692822685e-01  8.560063125874769e-04  1.948726784755379e-18
-1.099999996653520e-01  8.580354155137824e-06  1.957493046772220e-18
-1.099999909639260e-01  4.458627740136334e-05  1.957122944138532e-18
-1.099972417553787e-01  7.789776689378208e-04  1.949528413928441e-18
-1.099965020950613e-01 -8.772267956994204e-04  1.966532150013160e-18
-1.099882734079532e-01  1.606148416951656e-03  1.940869932539837e-18
-1.099780394664533e-01 -2.197916084652393e-03  1.979773188189351e-18
-1.099870277976945e-01  1.689294595118297e-03  1.939993468643438e-18
-1.099663058004464e-01 -2.722423296005157e-03  1.984953494664494e-18
-1.099778937418269e-01  2.205195708174405e-03  1.934530220699267e-18
-1.099994436219164e-01  3.498612135681495e-04  1.953976614463131e-18
-1.099998175601505e-01  2.003415422284600e-04  1.955519529446845e-18
-1.099998175601505e-01  2.003415422284600e-04  1.955519529446845e-18
-1.099948542177295e-01 -1.063976325099852e-03  1.968421607644200e-18
-1.094567487177155e-01  1.091879847541873e-02  1.835726720320511e-18
-1.098914458479113e-01 -4.885706648531000e-03  2.005848223101093e-18
-1.099531813566627e-01  3.209035610394157e-03  1.923776343998328e-18
-1.099728090808246e-01  2.445662051966572e-03  1.931969028763617e-18
-1.098819102418004e-01  5.095664982399551e-03  1.903123558055305e-18
-1.099792670966260e-01 -2.135605040477248e-03  1.979154811989568e-18
-1.099754924671119e-01  2.321864900493204e-03  1.933288753582878e-18
-1.099849131508658e-01  1.821779129430265e-03  1.938594605518471e-18
-1.096595563026228e-01  8.647641962513112e-03  1.862671231335387e-18
-1.097834990991989e-01 -6.898066797018257e-03  2.024603451436948e-18
-1.099836126738504e-01  1.898668799021627e-03  1.937781448555486e-18
-1.099836126738504e-01  1.898668799021627e-03  1.937781448555486e-18
-1.099848880145618e-01  1.823296033076092e-03  1.938578572554043e-18
-1.099990323001985e-01  4.614033157706933e-04  1.952823239922449e-18
-1.099947217271325e-01  1.077586270616105e-03  1.946415472113533e-18
-1.099936092300422e-01  1.185718579048477e-03  1.945284653713014e-18
-1.099940566135629e-01 -1.143463900716311e-03  1.969224119290532e-18
-1.099999939166683e-01  3.658323200243351e-05  1.957205225070301e-18
-1.099995523132172e-01  3.138325855126209e-04  1.954348729819578e-18
-1.099995523132172e-01  3.138325855126209e-04  1.954348729819578e-18
-1.099978651765027e-01  6.853149727344586e-04  1.950501858629494e-18
-1.099871822558148e-01 -1.679207975837721e-03  1.974606357645723e-18
 1.099774772408399e-01 -2.225870557890007e-03 -1.934310381997136e-18
 1.099821430423265e-01 -1.981971699387107e-03 -1.936899387669787e-18
 1.099780868918256e-01 -2.195541758648918e-03 -1.934632848858262e-18
 1.099740613880086e-01 -2.388686213472979e-03 -1.932576721106589e-18
 1.099726166945861e-01 -2.454297729613556e-03 -1.931876876570288e-18
 1.099726166945861e-01 -2.454297729613556e-03 -1.931876876570288e-18
 1.099487064328674e-01 -3.358861970828632e-03 -1.922157295965681e-18
 1.099736698900020e-01 -2.406643082134708e-03 -1.932385253630285e-18
 1.099675684421544e-01 -2.670934465689065e-03 -1.929561173131257e-18
 1.099704600891413e-01 -2.549099406166397e-03 -1.930864444416066e-18
 1.099656698206193e-01 -2.747992158371512e-03 -1.928735645096828e-18
 1.099656698206193e-01 -2.747992158371512e-03 -1.928735645096828e-18
 1.099739694937962e-01 -2.392913240698512e-03 -1.932531654570280e-18
 1.099489289695237e-01 -3.351569550906259e-03 -1.922236183236506e-18
 1.099853191091733e-01 -1.797103350743056e-03 -1.938855364692802e-18
 1.099270671634219e-01 -4.004984999779360e-03 -1.915133519949219e-18
 1.099832790271732e-01  1.917898441234641e-03 -1.976989352858631e-18
 1.099978038588710e-01 -6.950872069401893e-04 -1.950400361252606e-18
 1.099975874813788e-01 -7.285247259679770e-04 -1.950052952195911e-18
 1.099964356806754e-01 -8.855154131718602e-04 -1.948419432247690e-18
 1.099964356806754e-01 -8.855154131718602e-04 -1.948419432247690e-18
 1.099982540310567e-01 -6.197661809439767e-04 -1.951182268783766e-18
 1.099994646754791e-01 -3.431779537603350e-04 -1.954045657203081e-18
 1.099825421602720e-01 -1.959698947265888e-03 -1.937135334886704e-18
 1.098942858224660e-01 -4.821404729959836e-03 -1.906161720738277e-18
 1.099985007733036e-01 -5.743062122778182e-04 -1.951653744520111e-18
 1.094618254915577e-01 -1.086778542554463e-02 -1.836341208122700e-18
 8.750083404725850e-02  6.666036334309958e-02 -2.242092734188100e-18
 1.098714245678537e-01 -5.316959980136381e-03 -1.900663227268064e-18
 1.071431953628211e-01  2.490653904990165e-02 -2.162646607414526e-18
 1.095051507168130e-01 -1.042218626239266e-02 -1.841690601714252e-18
 1.099294421632793e-01  3.939256994683089e-03 -1.996799986481552e-18
 1.096706754167017e-01 -8.505466103887437e-03 -1.864329914532731e-18
 1.098707713521269e-01  5.330441115758993e-03 -2.010049780878615e-18
 1.097955875103076e-01 -6.702907075762304e-03 -1.885073513434757e-18
 1.097379922501756e-01  7.587691144236765e-03 -2.030879242422885e-18
 1.096750128984918e-01 -8.449351792628247e-03 -1.864983659358582e-18
 1.099031389233247e-01  4.615198240630982e-03 -2.003276939702884e-18
 1.099644798597688e-01 -2.795204674157424e-03 -1.928229376875316e-18
 1.099861435459732e-01  1.745917490751410e-03 -1.975273288597151e-18
 1.099999333297219e-01  1.211092757260594e-04 -1.958824380085044e-18
 1.099999333297219e-01  1.211092757260594e-04 -1.958824380085044e-18
 1.099966846734159e-01  8.540262625000474e-04 -1.966297022162234e-18
 1.099983918159805e-01 -5.948091273414088e-04 -1.951441145490423e-18
 1.099767401051675e-01  2.261998196368983e-03 -1.980408484924022e-18
 1.099944897686067e-01 -1.101008875447068e-03 -1.946170685379001e-18
 1.099389020997819e-01  3.665761188961745e-03 -1.994158267285266e-18
 1.089152988946357e-01 -1.540966147233909e-02 -1.779948988962990e-18
 1.099535336922902e-01  3.196940502783184e-03 -1.989601691685827e-18
 1.099602292125053e-01 -2.957700379219034e-03 -1.926484147197446e-18
 1.099883598006902e-01  1.600221345268524e-03 -1.973815754525896e-18
 1.099896984650145e-01 -1.505400802149303e-03 -1.941930438273477e-18
 1.099999695115049e-01  8.189913256138213e-05 -1.958422154005940e-18
 1.099999695115049e-01  8.189913256138213e-05 -1.958422154005940e-18
 1.099999851175171e-01 -5.722015326100724e-05 -1.956993031609781e-18
 1.099879217441242e-01  1.630052271660789e-03 -1.974114460718728e-18
 1.099936567627686e-01 -1.181300958342054e-03 -1.945330889062542e-18
 1.099194232064733e-01  4.209560779481171e-03 -1.999398960389301e-18
 1.099794507124736e-01 -2.126128167001149e-03 -1.935370319111721e-18
 1.099519827674007e-01 -3.249843921968220e-03 -1.923335723095752e-18
 1.099485762434534e-01 -3.363120877612284e-03 -1.922111220369702e-18
 1.099670731479472e-01  2.691249389029296e-03 -1.984646849959010e-18
 1.099779072344813e-01 -2.204522697492610e-03 -1.934537375757414e-18
 1.099943426969373e-01 -1.115605068405770e-03 -1.946018097482939e-18
 1.099991084454593e-01  4.428783173675321e-04 -1.962115760298998e-18
 1.099929926454956e-01 -1.241599326625830e-03 -1.944699526474041e-18
 1.099929926454956e-01 -1.241599326625830e-03 -1.944699526474041e-18
 1.099970348758710e-01 -8.076623776975419e-04 -1.949230007298655e-18
 1.099970348758710e-01 -8.076623776975419e-04 -1.949230007298655e-18
 1.099986037011280e-01 -5.542416459625733e-04 -1.951861732373528e-18
 1.099995707087294e-01 -3.073172549160191e-04 -1.954415999844709e-18
 1.099995707087294e-01 -3.073172549160191e-04 -1.954415999844709e-18
 1.099996629929763e-01 -2.722892424563598e-04 -1.954777542256310e-18
 1.099997986553688e-01 -2.104656225111287e-04 -1.955415171766589e-18
 1.099999766791769e-01  7.162807038734660e-05 -1.958316750130559e-18
 1.099999766791769e-01  7.162807038734660e-05 -1.958316750130559e-18
 1.099989051425481e-01  4.907824779082694e-04 -1.962604340128527e-18
 1.099995042459393e-01 -3.302508857102462e-04 -1.954179182334801e-18
 1.099984020780455e-01  5.929083205438227e-04 -1.963644693429302e-18
 1.099996301881702e-01 -2.852340542584097e-04 -1.954643955216869e-18
 1.099964234880553e-01  8.870286558670382e-04 -1.966631461660208e-18
 1.099999976964207e-01 -2.251193831765412e-05 -1.957349869766416e-18
 1.099986585949399e-01  5.432378059276020e-04 -1.963138911959620e-18
 1.099998085559200e-01  2.052258777086587e-04 -1.959686427114616e-18
 1.099998085559200e-01  2.052258777086587e-04 -1.959686427114616e-18
 1.099993048005752e-01  3.910797745788861e-04 -1.961587043462282e-18
 1.099997762064805e-01 -2.218885398523643e-04 -1.955297405935783e-18
 1.099942645963001e-01  1.123279092232170e-03 -1.969020429016821e-18
 1.099980235010165e-01 -6.594132768990954e-04 -1.950770806718434e-18
 1.099944917345691e-01  1.100812451669511e-03 -1.968793634642964e-18
 1.099887205378626e-01 -1.575231552466622e-03 -1.941195549301302e-18
 1.099990384982196e-01  4.599233274530364e-04 -1.962289646791093e-18
 1.099991026738454e-01 -4.443095190773252e-04 -1.953000124856775e-18
 1.099998788511678e-01  1.632566333290771e-04 -1.959256459362629e-18
 1.099999508979046e-01 -1.039348761909045e-04 -1.956512445822979e-18
 1.099999508979046e-01 -1.039348761909045e-04 -1.956512445822979e-18
 1.099999996985286e-01 -8.143933199354875e-06 -1.957497531429417e-18
 1.099995846773498e-01 -3.022760501377384e-04 -1.954468044980741e-18
 1.099997563300762e-01  2.315325544844752e-04 -1.959955789240835e-18
 1.099998430506065e-01 -1.858193796859024e-04 -1.955669193024553e-18
 1.099999954652236e-01  3.158560917042913e-05 -1.957905662707947e-18
 1.099999893412701e-01 -4.842437804523265e-05 -1.957083480171592e-18
 1.099999016630380e-01 -1.470854238054177e-04 -1.956068213428420e-18
 1.099999998792475e-01 -5.154171401060648e-06 -1.957528253361908e-18
 1.099999998792475e-01 -5.154171401060648e-06 -1.957528253361908e-18
 1.099999954087207e-01  3.178177699671215e-05 -1.957907677255564e-18
 1.099999964606032e-01 -2.790460937630022e-05 -1.957294440037443e-18
 1.099999742055863e-01  7.533107108128848e-05 -1.958354753097000e-18
 1.099999768116376e-01  7.142435935091042e-05 -1.958314659430959e-18
 1.099999241610277e-01  1.291687581478286e-04 -1.958907025171298e-18
 1.099999537008379e-01  1.009247909514725e-04 -1.958617354364743e-18
 1.099999537008379e-01  1.009247909514725e-04 -1.958617354364743e-18
 1.099998356161266e-01  1.901694640152304e-04 -1.959532209502137e-18
 1.099997617036242e-01  2.289653812704841e-04 -1.959929508097339e-18
 1.099998334125369e-01  1.914398445403124e-04 -1.959545222985030e-18
 1.099998334125369e-01  1.914398445403124e-04 -1.959545222985030e-18
 1.099998117398724e-01  2.035121435144683e-04 -1.959668875780552e-18
 1.099988253782049e-01  5.083457633462488e-04 -1.962783377004528e-18
 1.099990865900732e-01 -4.482737439389883e-04 -1.952959107656499e-18
 1.099919904588226e-01  1.327416628718245e-03 -1.971077397057777e-18
 1.099919940046584e-01 -1.327122782232642e-03 -1.943803032030989e-18
 1.099813355384398e-01  2.026285562560279e-03 -1.978068404456018e-18
 1.099971984853807e-01 -7.850639258649638e-04 -1.949465109808249e-18
 1.099859139941910e-01  1.760318966080106e-03 -1.975417173376726e-18
 1.099999824438016e-01 -6.214791444302804e-05 -1.956942353071794e-18
 1.099890685377944e-01  1.550742463563711e-03 -1.973319989812825e-18
 1.099988820983365e-01  4.959204736600523e-04 -1.962656721069154e-18
 1.099969107624981e-01  8.243923258810132e-04 -1.965996567753542e-18
 1.099969107624981e-01  8.243923258810132e-04 -1.965996567753542e-18
 1.099941167932098e-01  1.137660266350900e-03 -1.969165560024324e-18
 9.355751533087245e-02 -5.785318768325125e-02 -1.070547097722245e-18
 1.099912772319495e-01  1.385255530344492e-03 -1.971658978037791e-18
 1.099999993097604e-01 -1.232285083743593e-05 -1.957454587650173e-18
 1.099999993097604e-01 -1.232285083743593e-05 -1.957454587650173e-18
 1.099986752734231e-01  5.398500643133865e-04 -1.963104400958709e-18
 1.099951102365514e-01 -1.037171176240993e-03 -1.946837636515128e-18
 1.099969777133984e-01  8.154102759118429e-04 -1.965905471924165e-18
 1.099867422561673e-01 -1.707784493242630e-03 -1.939798410104978e-18
 1.099977596671752e-01  7.020457266434291e-04 -1.964754608162741e-18
 1.099999860045418e-01 -5.548874236129953e-05 -1.957010837013466e-18
 1.099995397631192e-01  3.182010400508675e-04 -1.960842422378514e-18
 1.099995397631192e-01  3.182010400508675e-04 -1.960842422378514e-18
 1.099999762996643e-01  7.220853977007493e-05 -1.958322707488718e-18
 1.099955462902771e-01  9.898466060133248e-04 -1.967672267966314e-18
 1.099978920150031e-01 -6.809935797414932e-04 -1.950546736995785e-18
 1.099993605046652e-01  3.750847432460907e-04 -1.961423691646605e-18
 1.099988870593111e-01  4.948188687123095e-04 -1.962645490764961e-18
 1.099991246497365e-01  4.388351531738041e-04 -1.962074506630113e-18
 1.098994349006994e-01 -4.702574667864558e-03 -1.907474290447945e-18
 1.099998030589290e-01 -2.081513794732025e-04 -1.955439028139711e-18
 1.099758623758542e-01  2.304277476152266e-03 -1.980827268924818e-18
 1.099937526104085e-01 -1.172342390338404e-03 -1.945424640817471e-18
 1.099937526104085e-01 -1.172342390338404e-03 -1.945424640817471e-18
 1.099993807586804e-01 -3.690971508770614e-04 -1.953777853468877e-18
 1.099719474283190e-01 -2.484105235887880e-03 -1.931558704879983e-18
 1.099931119582011e-01  1.230984057804547e-03 -1.970106545842051e-18
 1.099223590063742e-01 -4.132189549586758e-03 -1.913742752138971e-18
 1.099798262011816e-01  2.106615474598984e-03 -1.978866904663740e-18
 1.095013045289624e-01 -1.046251912568709e-02 -1.841207748694980e-18
 1.099622508162076e-01  2.881561283988616e-03 -1.986516416399248e-18
 1.097033469574401e-01 -8.073144761209301e-03 -1.869353288318216e-18
 1.099697060660080e-01  2.581423590914057e-03 -1.983565285697502e-18
 1.090312454634108e-01 -1.456665756779469e-02 -1.790673955340367e-18
 1.099215137321944e-01  4.154614160536005e-03 -1.998871607239053e-18
 1.098349614015595e-01 -6.023392226799922e-03 -1.892755987021211e-18
 1.098786307577108e-01  5.165898064284707e-03 -2.008499028295912e-18
 1.098837454469120e-01 -5.055935774727238e-03 -1.903564420895724e-18
 1.080467644744094e-01  2.063726451377290e-02 -2.134861452618278e-18
 1.095965164930627e-01 -9.412947072291965e-03 -1.853686130738169e-18
 1.097064321579117e-01  8.031110955618129e-03 -2.034873570414997e-18
 1.093809713260106e-01 -1.165345921940708e-02 -1.826829798981362e-18
 1.098821925114985e-01  5.089574527002720e-03 -2.007778217333766e-18
 1.097391904183969e-01 -7.570342549366210e-03 -1.875157275534574e-18
 1.097009778839139e-01  8.105273056039718e-03 -2.035538493743972e-18
 1.098953052825549e-01 -4.798111800904272e-03 -1.906419189631006e-18
 1.099261441054682e-01  4.030240948601264e-03 -1.997676120683375e-18
 1.093982425425281e-01 -1.149019271405508e-02 -1.828814664913577e-18
 1.099339989542226e-01  3.809970332288361e-03 -1.995552706521971e-18
 1.099990104700415e-01 -4.665786232066284e-04 -1.952769677024900e-18
 1.099990104700415e-01 -4.665786232066284e-04 -1.952769677024900e-18
 1.099934119085162e-01  1.203884015762988e-03 -1.969833440728396e-18
 1.099999816227443e-01  6.358455673231931e-05 -1.958234193926409e-18
 1.099825323901616e-01  1.960247190273542e-03 -1.977411183574674e-18
 1.099981258545791e-01  6.421125135985600e-04 -1.964145332912386e-18
 1.099933191908770e-01  1.212325605515948e-03 -1.969918524975530e-18
 1.099974135237995e-01  7.543328669684147e-04 -1.965285679500890e-18
 1.099974135237995e-01  7.543328669684147e-04 -1.965285679500890e-18
 1.099751728384415e-01  2.336955103299471e-03 -1.981150748532138e-18
 1.099959756250342e-01  9.409284227860744e-04 -1.967177291928366e-18
 1.099929571869192e-01  1.244736629368760e-03 -1.970245094179377e-18
 1.099959756250345e-01  9.409284227565835e-04 -1.967177291928066e-18
 1.099980549263134e-01  6.541501568203275e-04 -1.964267753070464e-18
 1.099830722690134e-01  1.929718702013699e-03 -1.977107122236089e-18
 1.099989471005066e-01  4.812865880897110e-04 -1.962507520002147e-18
 1.099880725758850e-01  1.619842906513657e-03 -1.974012247431715e-18
 1.099951556632113e-01 -1.032342300707500e-03 -1.946888059878643e-18
 1.099667558345108e-01  2.704184023509886e-03 -1.984774101658408e-18
 1.099989159002550e-01  4.883654047521792e-04 -1.962579697026127e-18
 1.099518003383131e-01  3.256010190962301e-03 -1.990177764171895e-18
 1.099997023467915e-01 -2.558976693915104e-04 -1.954946660063044e-18
 1.099491427456767e-01  3.344549220856281e-03 -1.991040175509300e-18
 1.099907535978771e-01 -1.426226830143984e-03 -1.942762699422087e-18
 1.097999357460378e-01  6.631297773882188e-03 -2.022155006370634e-18
 1.099872942702140e-01 -1.671854992899986e-03 -1.940177396417264e-18
 1.098611756015749e-01  5.524680573559797e-03 -2.011874752918570e-18
 1.099930051525655e-01 -1.240490833351963e-03 -1.944711138417973e-18
 1.097203638517120e-01  7.838479205041236e-03 -2.033142280264936e-18
 1.099922980547040e-01 -1.301679163645970e-03 -1.944069866902274e-18
 1.097446499863372e-01  7.490780959037244e-03 -2.030002007831292e-18
 1.099940405595734e-01 -1.145007152306840e-03 -1.945710624857002e-18
 1.095197401705112e-01  1.026774137693585e-02 -2.054531728880028e-18
 1.099816851230295e-01 -2.007221337747599e-03 -1.936631807587991e-18
 1.099648763722707e-01  2.779561913529674e-03 -1.985515134823261e-18
 1.099738723250237e-01  2.397374780734071e-03 -1.981748394581458e-18
 1.099999923753972e-01  4.095622647055879e-05 -1.958001887409481e-18
 1.099433844752872e-01  3.528768924016720e-03 -1.992830490747221e-18
 1.099892219015465e-01 -1.539826448756514e-03 -1.941568246245063e-18
 3.454156183709120e-02  1.044360115374689e-01 -1.687750375484594e-18
 1.097784362297810e-01 -6.978175903761498e-03 -1.881939998728610e-18
 1.098920056712237e-01  4.873098557966156e-03 -2.005728642274324e-18
 1.098821286279136e-01 -5.090953564763340e-03 -1.903175852601378e-18
 1.098471376556637e-01  5.797098313605317e-03 -2.014423924243396e-18
 1.092500337872014e-01 -1.282303074531431e-02 -1.812482686733539e-18
 1.099762817318264e-01  2.284175221363373e-03 -1.980628188499186e-18
 1.099606286591133e-01 -2.942812412052554e-03 -1.926644224280574e-18
 1.098120549720991e-01  6.427486507540818e-03 -2.020276595731884e-18
 1.069318426739258e-01 -2.579885699713680e-02 -1.637905809643961e-18
 1.099714569481779e-01  2.505724784360446e-03 -1.982818666996121e-18
 1.098804403623902e-01 -5.127262989855697e-03 -1.902772741749906e-18
 1.099998009429119e-01  2.092666234386207e-04 -1.959727808826543e-18
 1.099744133175494e-01 -2.372428178206589e-03 -1.932750029518846e-18
 1.099744133175494e-01 -2.372428178206589e-03 -1.932750029518846e-18
 1.095309364589716e-01  1.014760850745954e-02 -2.053496658595567e-18
 1.099802827450752e-01 -2.082644307901682e-03 -1.935831906980154e-18
 1.099871444838328e-01 -1.681680199210568e-03 -1.940073780364315e-18
 1.099875714962568e-01 -1.653516360886777e-03 -1.940370752767419e-18
 1.099678865416886e-01 -2.657805401875307e-03 -1.929701730453182e-18
 1.099976901073491e-01 -7.128611698854351e-04 -1.950215715896094e-18
 1.099961912112462e-01 -9.153791667441769e-04 -1.948108242403275e-18
 1.099961912112462e-01 -9.153791667441769e-04 -1.948108242403275e-18
 1.099798150714562e-01 -2.107196442723783e-03 -1.935571319904035e-18
 1.098749878593615e-01 -5.242808684768168e-03 -1.901488517913756e-18
 1.099586154876397e-01  3.017097950238943e-03 -1.987844311400127e-18
 1.099794742894853e-01 -2.124908235283967e-03 -1.935383273047995e-18
 1.099813535353727e-01 -2.025308501755516e-03 -1.936440067550474e-18
 1.099909172123141e-01 -1.413552543692633e-03 -1.942895834825242e-18
 1.099779654054406e-01 -2.201618786176154e-03 -1.934568247612894e-18
 1.099779654054406e-01 -2.201618786176154e-03 -1.934568247612894e-18
 1.099919589184447e-01  1.330027549754228e-03 -1.971103662024301e-18
 1.099920581361071e-01 -1.321796876666695e-03 -1.943858895071558e-18
 1.099915133908203e-01 -1.366375496313231e-03 -1.943391171556656e-18
 1.099999130897287e-01  1.382759995950162e-04 -1.959000401741794e-18
 1.099945956654326e-01 -1.090378098608337e-03 -1.946281797309497e-18
 1.099945956654326e-01 -1.090378098608337e-03 -1.946281797309497e-18
 1.098760522301634e-01 -5.220454608013722e-03 -1.901737139679856e-18
 1.091757105762685e-01  1.344113909483733e-02 -2.081014820623802e-18
 1.096893547542224e-01 -8.261080655838414e-03 -1.867173307325881e-18
 1.086027928376228e-01  1.747665265055935e-02 -2.112282501861806e-18
 1.084642983295929e-01 -1.831654956232208e-02 -1.742055676799953e-18
 1.088749347130367e-01  1.569230993932768e-02 -2.098792118000217e-18
 1.096489838140750e-01 -8.780680414446289e-03 -1.861116159525815e-18
 1.099875839131061e-01  1.652690218213638e-03 -1.974341045289893e-18
 1.099875839131061e-01  1.652690218213638e-03 -1.974341045289893e-18
 1.099875839131061e-01  1.652690218213638e-03 -1.974341045289893e-18
 1.099915686984760e-01 -1.361916021039386e-03 -1.943437975310801e-18
 1.099997670266461e-01  2.263936472677409e-04 -1.959903179194221e-18
 1.099833057104209e-01 -1.916367659931599e-03 -1.937594136408739e-18
 1.099973250698507e-01  7.671228568628792e-04 -1.965415517857288e-18
 1.099831970523771e-01 -1.922593596662509e-03 -1.937528233471032e-18
 1.099891485727342e-01  1.545055418072911e-03 -1.973262981803572e-18
 1.099919402152088e-01 -1.331573390344607e-03 -1.943756346401998e-18
 1.099975083126004e-01 -7.403816713942376e-04 -1.949929717486098e-18
 1.099970661204895e-01  8.033958455079812e-04 -1.965783601325907e-18
 1.099970661204895e-01  8.033958455079812e-04 -1.965783601325907e-18
 1.099904291100753e-01  1.451035554842884e-03 -1.972319750553081e-18
 1.099995160405837e-01 -3.262986933568792e-04 -1.954219999575281e-18
 1.099762602235727e-01  2.285210545430225e-03 -1.980638443312841e-18
 1.099925857610216e-01 -1.277136486139183e-03 -1.944327154075112e-18
 1.099476441420743e-01  3.393456586981499e-03 -1.991516011490882e-18
 1.098253726087036e-01 -6.195767213133937e-03 -1.890814252648743e-18
 1.099958404940201e-01 -9.565950104489942e-04 -1.947678523150359e-18
 1.098956841815918e-01 -4.789425671180456e-03 -1.906515179418823e-18
 1.099682769074509e-01  2.641604437862668e-03 -1.984158188456629e-18
 1.099473588286339e-01 -3.402688144326308e-03 -1.921683015728975e-18
 1.098709814372509e-01 -5.326109087804997e-03 -1.900561337472716e-18
 1.099985057738496e-01 -5.733476435001773e-04 -1.951663682456761e-18
 1.099985057738496e-01 -5.733476435001773e-04 -1.951663682456761e-18
 1.099944578748939e-01 -1.104190566938527e-03 -1.946137427068082e-18
 1.099872232143071e-01 -1.676523070559919e-03 -1.940128169090466e-18
 1.099872232143071e-01 -1.676523070559919e-03 -1.940128169090466e-18
 1.097454418503879e-01 -7.479170613313426e-03 -1.876205285746614e-18
 1.099872461633408e-01  1.675016837113140e-03 -1.974564432528506e-18
 1.099977787043895e-01  6.990565786085485e-04 -1.964724234542492e-18
 1.092875497117291e-01 -1.249925909829380e-02 -1.816476963417267e-18
 1.099867658079241e-01 -1.706267010986864e-03 -1.939814420815504e-18
 1.099867658079241e-01 -1.706267010986864e-03 -1.939814420815504e-18
 1.099901407832829e-01 -1.472728920586971e-03 -1.942274001568971e-18
 1.093213691838681e-01 -1.219992785898076e-02 -1.820154341010759e-18
 1.099950060814722e-01 -1.048158927269319e-03 -1.946722887800974e-18
 1.091984675780728e-01 -1.325498693324477e-02 -1.807126811618058e-18
 1.075456955915165e-01  2.310678168280416e-02 -2.151317725957340e-18
 1.099044292297926e-01  4.584368623205426e-03 -2.002983139126087e-18
 1.099044292297926e-01  4.584368623205426e-03 -2.002983139126087e-18
 1.099044292297926e-01  4.584368623205426e-03 -2.002983139126087e-18
 1.099635662722154e-01  2.830917288796982e-03 -1.986019477854964e-18
 1.099594626538672e-01  2.986063105947546e-03 -1.987540515982662e-18
 1.098537656711072e-01  5.670111804663799e-03 -2.013237137435595e-18
 1.092626534490167e-01  1.271505254727706e-02 -2.075101797243891e-18
 1.094737548489990e-01  1.074695302219117e-02 -2.058637090801534e-18
 1.092934606513404e-01  1.244746796958525e-02 -2.072900713827453e-18
 1.089416089072737e-01 -1.522254409402563e-02 -1.782339770109373e-18
 1.098372362643491e-01 -5.981766445581442e-03 -1.893224160698670e-18
 1.098023780144969e-01 -6.590734584358894e-03 -1.886346890156918e-18
 1.099295355731076e-01 -3.936649423151709e-03 -1.915879571469488e-18
 1.099295355731076e-01 -3.936649423151709e-03 -1.915879571469488e-18
 1.099970750809352e-01 -8.021680865261373e-04 -1.949287174641598e-18
 1.099416503535579e-01 -3.582389919585406e-03 -1.919735056145418e-18
 1.099909365458652e-01  1.412047365844597e-03 -1.971928191499590e-18
 1.099940415544257e-01 -1.144911578770313e-03 -1.945711624544953e-18
 1.099154077191817e-01  4.313136437207650e-03 -2.000391702260163e-18
 1.097755741377406e-01 -7.023056509051729e-03 -1.881427932471209e-18
 1.098710006936841e-01  5.325711836778859e-03 -2.010005270661683e-18
 1.023114496790288e-01  4.040256507420632e-02 -2.235875967592600e-18
 1.094596939374862e-01 -1.088923335739335e-02 -1.836082904867063e-18
 1.099441272847798e-01 -3.505549256258920e-03 -1.920568645992763e-18
 1.098686271524678e-01 -5.374455100932647e-03 -1.900022702444548e-18
 1.099871518193045e-01 -1.681200367945376e-03 -1.940078840999726e-18
 1.099871518193045e-01 -1.681200367945376e-03 -1.940078840999726e-18
 1.099749376924438e-01 -2.347994791948797e-03 -1.933010405563438e-18
 1.099541057336778e-01  3.177205109388531e-03 -1.989409097846851e-18
 1.099489870111546e-01 -3.349664941586479e-03 -1.922256785325433e-18
 1.099306909035380e-01  3.904253766178861e-03 -1.996462563846799e-18
 1.099948789525160e-01  1.061416139540976e-03 -1.968395742852655e-18
 1.099373710651716e-01  3.711393711086590e-03 -1.994599878285932e-18
 1.099773097579716e-01  2.234130345140506e-03 -1.980132290527401e-18
 1.099284998457970e-01  3.965466133071557e-03 -1.997052506193829e-18
 1.099284998457970e-01  3.965466133071557e-03 -1.997052506193829e-18
 1.099114977488414e-01  4.411650780191083e-03 -2.001334318760682e-18
 1.099295299881618e-01  3.936805377682066e-03 -1.996776359956016e-18
 1.099295299881618e-01  3.936805377682066e-03 -1.996776359956016e-18
 1.099295299881618e-01  3.936805377682066e-03 -1.996776359956016e-18
 1.099295299881618e-01  3.936805377682066e-03 -1.996776359956016e-18
 1.099284378571382e-01  3.967184176369047e-03 -1.997069055302468e-18
 1.099727217536387e-01  2.449585698992037e-03 -1.982264367009573e-18
 1.099727217536387e-01  2.449585698992037e-03 -1.982264367009573e-18
 1.098607939851615e-01  5.532263998565161e-03 -2.011945878536376e-18
 1.098607939851615e-01  5.532263998565161e-03 -2.011945878536376e-18
 1.099989200465827e-01 -4.874305955154147e-04 -1.952553821391042e-18
 1.099989200465827e-01 -4.874305955154147e-04 -1.952553821391042e-18
 1.095555781968468e-01  9.878020345924955e-03 -2.051165267288697e-18
 1.099833309816757e-01  1.914916754088593e-03 -1.976959641698715e-18
 1.099833309816757e-01  1.914916754088593e-03 -1.976959641698715e-18
 1.099996914109294e-01 -2.605561364372174e-04 -1.954898601389726e-18
 1.099950243625412e-01 -1.046238731789271e-03 -1.946742942445407e-18
 1.099899404664113e-01  1.487614262910831e-03 -1.972686887493603e-18
 1.099765908819488e-01 -2.269241720129744e-03 -1.933848985246874e-18
 1.098066030964010e-01  6.519962916257750e-03 -2.021129734606133e-18
 1.098583306101762e-01 -5.580967258920520e-03 -1.897717625788954e-18
 1.097480418926864e-01  7.440920690417928e-03 -2.029550074703537e-18
 1.099743578531639e-01 -2.374997849298150e-03 -1.932722640026969e-18
 1.099996475607732e-01  2.784537764060989e-04 -1.960435952071450e-18
 1.099960297209413e-01 -9.345831315224485e-04 -1.947908054728823e-18
 1.099996005158669e-01 -2.964563199248071e-04 -1.954528122459843e-18
 1.099989769380960e-01 -4.744181406278203e-04 -1.952688532090303e-18
 1.099997906415745e-01 -2.146131629518079e-04 -1.955372414680215e-18
 1.099975128047951e-01 -7.397139709854421e-04 -1.949936657809205e-18
 1.099996840940754e-01 -2.636270159780200e-04 -1.954866919005862e-18
 1.099996840940754e-01 -2.636270159780200e-04 -1.954866919005862e-18
 1.099942457287773e-01 -1.125125129608538e-03 -1.945918556648375e-18
 1.099999359565969e-01 -1.186993871874784e-04 -1.956360479937618e-18
 1.099790564131213e-01 -2.146427375757453e-03 -1.935154735088563e-18
 1.099996824177692e-01 -2.643255376255197e-04 -1.954859712117820e-18
 1.099931000916824e-01 -1.232043920103808e-03 -1.944799616937909e-18
 1.099931000916824e-01 -1.232043920103808e-03 -1.944799616937909e-18
 1.099905963427007e-01 -1.438303228460713e-03 -1.942635820272948e-18
 1.099850717101879e-01 -1.812181256044445e-03 -1.938696041933149e-18
 1.099835260026068e-01 -1.903682755565692e-03 -1.937728389555258e-18
 1.099942938458324e-01 -1.120411244415474e-03 -1.945967846406704e-18
 1.099664565183911e-01 -2.716328549480069e-03 -1.929074977400960e-18
 1.099971647132461e-01  7.897816451216847e-04 -1.965645474938298e-18
 1.099971647132461e-01  7.897816451216847e-04 -1.965645474938298e-18
 1.099947422203037e-01  1.075492393697309e-03 -1.968537937937793e-18
 1.099947422203037e-01  1.075492393697309e-03 -1.968537937937793e-18
 1.099999463122197e-01  1.086798452079632e-04 -1.958696903240762e-18
 1.099999463122197e-01  1.086798452079632e-04 -1.958696903240762e-18
 1.099270947739692e-01  4.004227085812081e-03 -1.997425755973284e-18
 1.099950403978428e-01  1.044551519500054e-03 -1.968225338120340e-18
 1.099834406467100e-01  1.908607741678541e-03 -1.976896770508181e-18
 1.099949969923524e-01  1.049112316366820e-03 -1.968271426198860e-18
 1.099933186277789e-01  1.212376693885914e-03 -1.969919039868971e-18
 1.099933186277789e-01  1.212376693885914e-03 -1.969919039868971e-18
 1.099910002563120e-01  1.407075909802821e-03 -1.971878245398145e-18
 1.099939041160334e-01  1.158040289804689e-03 -1.969371172517786e-18
 1.099899993077710e-01  1.483257319715639e-03 -1.972643168637210e-18
 1.099901129464068e-01  1.474806440397471e-03 -1.972558361257255e-18
 1.099901129464068e-01  1.474806440397471e-03 -1.972558361257255e-18
 1.099987202726435e-01  5.306019041522372e-04 -1.963010180287450e-18
 1.099343969655216e-01  3.798468616045588e-03 -1.995441613651653e-18
 1.099728451335567e-01 -2.444040349647681e-03 -1.931986332767199e-18
 1.099506195870091e-01  3.295641429641128e-03 -1.990563947874517e-18
 1.097526736812942e-01 -7.372287284644021e-03 -1.877432172178448e-18
 1.098511859037377e-01  5.719873734832826e-03 -2.013702513153395e-18
 1.098924112052824e-01 -4.863944848484529e-03 -1.905691275425139e-18
 1.084193933382741e-01  1.858050451846112e-02 -2.120360365948888e-18
 1.098562677754576e-01 -5.621426015426776e-03 -1.897265216158906e-18
 1.097782741239813e-01  6.980725632768632e-03 -2.025359756280115e-18
 1.088615215151646e-01 -1.578509212527205e-02 -1.775134542771669e-18
 1.096878799191306e-01  8.280640002218807e-03 -2.037107231503022e-18
 1.099608503032344e-01 -2.934518800357860e-03 -1.926733382549427e-18
 1.090668708584342e-01  1.429747114526218e-02 -2.087876388753362e-18
 1.098534233051127e-01 -5.676740979442584e-03 -1.896646254255196e-18
 1.098242676958505e-01  6.215321799402967e-03 -2.018314020416167e-18
 1.096579040061562e-01 -8.668569027042432e-03 -1.862426808762999e-18
 1.098970831588626e-01  4.757216956794639e-03 -2.004628360867942e-18
 1.099286710066878e-01 -3.960718457978251e-03 -1.915616884889504e-18
 1.098975859277930e-01  4.745588187287744e-03 -2.004517826858499e-18
 1.099936221198749e-01 -1.184522245517511e-03 -1.945297174995399e-18
 1.099794217641033e-01  2.127625068817154e-03 -1.979075573171908e-18
 1.099886663239900e-01 -1.579012435024984e-03 -1.941155737305969e-18
 1.099853273671261e-01  1.796597881014775e-03 -1.975779486320211e-18
 1.099965138008748e-01  8.757577598378496e-04 -1.966517264522256e-18
 1.099965337091182e-01  8.732536737844665e-04 -1.966491890238659e-18
 1.099966809139706e-01  8.545103335203773e-04 -1.966301928912307e-18
 1.099985345396248e-01  5.678020208885972e-04 -1.963389092632558e-18
 1.099964574511910e-01  8.828069937966680e-04 -1.966588690030556e-18
 1.099997240629383e-01  2.463860333068978e-04 -1.960107829107681e-18
 1.099713420101931e-01  2.510764122152397e-03 -1.982868398902742e-18
 1.099990043263188e-01  4.680248053902867e-04 -1.962372278404126e-18
 1.099961283190114e-01 -9.229056438981996e-04 -1.948029791342334e-18
 1.099892743538888e-01 -1.536075227630578e-03 -1.941607722131420e-18
 1.099890075762887e-01  1.555060250626693e-03 -1.973363268623657e-18
 1.099752844459368e-01  2.331697029048721e-03 -1.981098709917826e-18
 1.096520033435035e-01 -8.742892127680903e-03 -1.861558156572929e-18
 1.099364391898487e-01  3.738895325715683e-03 -1.994865863552744e-18
 1.099993147143581e-01 -3.882813046822101e-04 -1.953579567920090e-18
 1.099240829932650e-01  4.086071229159337e-03 -1.998213076584323e-18
 1.099912244494197e-01 -1.389440217262946e-03 -1.943149047870766e-18
 1.099711876164560e-01  2.517517472867889e-03 -1.982935039507325e-18
 1.098154331947592e-01 -6.369508006693709e-03 -1.888852245382683e-18
 1.099767853406157e-01  2.259797810443787e-03 -1.980386681776739e-18
 1.099853354777068e-01 -1.796101293429805e-03 -1.938865951765255e-18
 1.099647692041985e-01  2.783798460257737e-03 -1.985556756618195e-18
 1.099473641664202e-01 -3.402515665877758e-03 -1.921684882874652e-18
 1.099925137676253e-01  1.283321892099513e-03 -1.970633652561746e-18
 1.099927113129327e-01 -1.266277232603356e-03 -1.944440963306357e-18
 1.099948699371449e-01  1.062349994371122e-03 -1.968405177432510e-18
 1.099869335249661e-01  1.695421415062022e-03 -1.974768518381724e-18
 1.099999296292238e-01 -1.244249403162060e-04 -1.956301539356001e-18
 1.099999296292238e-01 -1.244249403162060e-04 -1.956301539356001e-18
 1.099978244748068e-01  6.918170347386372e-04 -1.964650665398322e-18
 1.099999988642261e-01  1.580728426554861e-05 -1.957743606640668e-18
 1.099987309588334e-01  5.283819131500087e-04 -1.962987560859858e-18
 1.099868065121297e-01 -1.703641177979749e-03 -1.939842124675654e-18
 1.098259238417131e-01  6.185988386200178e-03 -2.018042103342648e-18
 1.098505408995127e-01 -5.732247734042992e-03 -1.896024646669787e-18
 1.099420427369481e-01  3.570327551784393e-03 -1.993233612716245e-18
 1.099152962045412e-01 -4.315977324770261e-03 -1.911728708530377e-18
 1.090593382551789e-01  1.435481589371461e-02 -2.088331533551859e-18
 1.086210832953803e-01 -1.736261108641225e-02 -1.754647223587389e-18
 1.098866513338672e-01  4.992380056552326e-03 -2.006858929520590e-18
 1.092160649904244e-01 -1.310920089125789e-02 -1.808937877183316e-18
 1.099424256364863e-01  3.558517270668210e-03 -1.993119080522134e-18
 1.097321447675308e-01 -7.671792796840110e-03 -1.873989525334236e-18
 1.095559732527379e-01  9.873637862780954e-03 -2.051127269357246e-18
 1.097687472472025e-01 -7.128964004660125e-03 -1.880218278766466e-18
 1.096811601111282e-01  8.369176582975214e-03 -2.037897325708404e-18
 1.087875386627184e-01 -1.628715542099110e-02 -1.768659411684191e-18
 1.097663744964415e-01  7.165405076263133e-03 -2.027045502406793e-18
 1.098580786670144e-01 -5.585924416964145e-03 -1.897662209161756e-18
 1.099126972820995e-01  4.381663630804417e-03 -2.001047558819393e-18
 1.090069634919822e-01 -1.474726789129494e-02 -1.788386123230819e-18
 1.097467207964128e-01  7.460380314312928e-03 -2.029726504785883e-18
 1.094742733915656e-01 -1.074166958106174e-02 -1.837858527839510e-18
 1.080868490562107e-01  2.042628358512357e-02 -2.133407053167526e-18
 1.097382148366227e-01 -7.584471271696819e-03 -1.874994746403801e-18
 1.093838217386778e-01  1.162667372214115e-02 -2.066075434441851e-18
 1.096238002619136e-01 -9.089687350840514e-03 -1.857493054157019e-18
 1.097633089614337e-01  7.212212270641952e-03 -2.027471874473155e-18
 1.099250695423394e-01 -4.059444064376107e-03 -1.914538422793900e-18
 1.099560477108416e-01  3.109271910125820e-03 -1.988745668702721e-18
 1.098310990079159e-01 -6.093413715917567e-03 -1.891967805755219e-18
 1.099999614281885e-01 -9.211838587089414e-05 -1.956634043367384e-18
 1.099971174353859e-01 -7.963390646486835e-04 -1.949347819471844e-18
 1.099971174353859e-01 -7.963390646486835e-04 -1.949347819471844e-18
 1.099890494469262e-01 -1.552095925381491e-03 -1.941439112794213e-18
 1.099957408621405e-01  9.679835684583116e-04 -1.967451095836056e-18
 1.099473287919046e-01 -3.403658549971242e-03 -1.921672510624066e-18
 1.099980938244476e-01 -6.475762410511839e-04 -1.950893679451056e-18
 1.099917788346928e-01  1.344837826652743e-03 -1.971252627434105e-18
 1.099912377367985e-01 -1.388387959844343e-03 -1.943160095898243e-18
 1.099977566755674e-01  7.025143006605507e-04 -1.964759369351318e-18
 1.099592425577427e-01 -2.994156997801528e-03 -1.926092009986734e-18
 1.099918382629760e-01  1.339968481450935e-03 -1.971203654278241e-18
 1.097461501008261e-01 -7.468770852483414e-03 -1.876324743672585e-18
 1.095100961981760e-01 -1.037009308859877e-02 -1.842313850891061e-18
 1.094993367005005e-01  1.048309411149186e-02 -2.056381295909111e-18
 1.072159807663134e-01  2.459132912872898e-02 -2.160703243057956e-18
 1.099954869768399e-01 -9.964159411712961e-04 -1.947263086293081e-18
 1.098776572766925e-01  5.186562578980084e-03 -2.008694024421646e-18
 1.076180099802356e-01 -2.276760698654719e-02 -1.681261968041985e-18
 4.497459334418621e-02  1.003856859991754e-01 -1.831802992585441e-18
 1.098431589025373e-01 -5.872004965247638e-03 -1.894457320447229e-18
 1.074056366714599e-01  2.374929917278236e-02 -2.155426844207874e-18
 1.099012707689973e-01 -4.659472433602533e-03 -1.907949821713440e-18
 1.098062414045610e-01  6.526051532376088e-03 -2.021185856187194e-18
 6.871071820887605e-02 -8.590015834223119e-02 -3.401962697462792e-19
 1.099838887231350e-01 -1.882610245648698e-03 -1.937951356984083e-18
 1.099602727270952e-01  2.956082167803965e-03 -1.987246888953837e-18
 1.051374169023736e-01 -3.234383352505459e-02 -1.538724606349346e-18
 1.077444306611755e-01  2.216162587670657e-02 -2.145143321022150e-18
 1.099942525827480e-01  1.124454873529289e-03 -1.969032295947031e-18
 1.097299769406501e-01 -7.702737215065683e-03 -1.873633003612974e-18
 9.398354233364656e-02  5.715849692232670e-02 -2.259832035281992e-18
 1.099576672128205e-01 -3.051462127336993e-03 -1.925475185456046e-18
 1.099576672128205e-01 -3.051462127336993e-03 -1.925475185456046e-18
 1.099576672128205e-01 -3.051462127336993e-03 -1.925475185456046e-18
 1.099962180237064e-01  9.121515670178123e-04 -1.966885933962670e-18
 1.098120892408960e-01 -6.426901006663758e-03 -1.888203043509419e-18
 1.098835467085066e-01  5.060253230758645e-03 -2.007501051217552e-18
 1.091172010617562e-01 -1.390814266709384e-02 -1.798969639129518e-18
 1.095481132416167e-01  9.960466113686539e-03 -2.051879519819414e-18
 1.097801757403997e-01 -6.950756390993260e-03 -1.882252680928000e-18
 1.090713737553224e-01  1.426307916008116e-02 -2.087603158020628e-18
 1.098406851001786e-01 -5.918099080225480e-03 -1.893939695896673e-18
 1.013202660779015e-01  4.282760420456901e-02 -2.243153069200960e-18
 1.066016709322166e-01 -2.713086350375454e-02 -1.618344126681562e-18
 1.080902321694764e-01  2.040837351551236e-02 -2.133283240244574e-18
 1.065368676825579e-01 -2.738422583147287e-02 -1.614587669675762e-18
 1.056367961781484e-01  3.067356016533283e-02 -2.195092483992272e-18
 1.026498556927687e-01 -3.953488492779177e-02 -1.420570046494482e-18
 1.031888671499273e-01  3.810587482678513e-02 -2.227893000138403e-18
 1.057314142702810e-01 -3.034580755897244e-02 -1.569824489032689e-18
 1.062484260773631e-01  2.848283616641917e-02 -2.183468274365975e-18
 1.078900397871708e-01 -2.144153247141297e-02 -1.699727996863303e-18
 1.025519924493181e-01  3.978804901820347e-02 -2.233842783880404e-18
 1.040348929216767e-01 -3.573151346885858e-02 -1.484296696199421e-18
 1.087889947808568e-01  1.627742653402767e-02 -2.103274574848609e-18
 1.084744555843923e-01 -1.825629988989169e-02 -1.742855480762359e-18
 1.098545289258581e-01  5.655304985390273e-03 -2.013098585775188e-18
 1.096796876282456e-01 -8.388451690891563e-03 -1.865692578172847e-18
 1.099657345968976e-01  2.745398798837144e-03 -1.985179394361241e-18
 1.099306782038046e-01 -3.904611331685961e-03 -1.916229085697006e-18
 1.098069051865392e-01  6.514873241618786e-03 -2.021082816102505e-18
 1.099999865889227e-01 -5.431792325542630e-05 -1.957022877154210e-18
 1.099999865889227e-01 -5.431792325542630e-05 -1.957022877154210e-18
 1.099894868953001e-01 -1.520780230203014e-03 -1.941768655101695e-18
 1.099974810472025e-01 -7.444214332533977e-04 -1.949887725180247e-18
 1.099665915071950e-01  2.710858220134476e-03 -1.984839752203580e-18
 1.099999959594471e-01 -2.981478794548924e-05 -1.957274804727888e-18
 1.099910329165092e-01  1.404520544301434e-03 -1.971852571173078e-18
 1.099990993709408e-01  4.451264785019366e-04 -1.962138697846078e-18
 1.099990993709408e-01  4.451264785019366e-04 -1.962138697846078e-18
 1.099784802085191e-01  2.175750680645411e-03 -1.979553290246036e-18
 1.091389423186642e-01 -1.373649407830348e-02 -1.801120177624895e-18
 1.084019210136686e-01  1.868217119465302e-02 -2.121094013256059e-18
 1.099915582932177e-01 -1.362756115248647e-03 -1.943429158474000e-18
 1.099828012814102e-01  1.945102129402309e-03 -1.977260358816502e-18
 1.097058789144989e-01 -8.038664789458118e-03 -1.869752616698457e-18
 1.098502966053780e-01  5.736927375385782e-03 -2.013861906989871e-18
 1.093065806807579e-01 -1.233172412442524e-02 -1.818537003207924e-18
 1.097707602715631e-01  7.097900351721957e-03 -2.026429965984505e-18
 1.094699839747848e-01 -1.078529594217604e-02 -1.837333947539056e-18
 1.095249949649549e-01  1.021153651154259e-02 -2.054047759641005e-18
 1.099671643909755e-01 -2.687518522380442e-03 -1.929383587400569e-18
 1.089203009233998e-01  1.537426573062928e-02 -2.096331675120405e-18
 1.097495536657048e-01 -7.418589500609907e-03 -1.876900909330568e-18
 1.098367829370597e-01  5.990084643574672e-03 -2.016222514108296e-18
 1.099791738782603e-01 -2.140400209158174e-03 -1.935218752468137e-18
 1.098491689251087e-01  5.758479527002357e-03 -2.014063279102913e-18
 1.099692848881589e-01 -2.599303981241978e-03 -1.930327696541743e-18
 1.099803958328832e-01  2.076663776905012e-03 -1.978569299126141e-18
 1.099803958328832e-01  2.076663776905012e-03 -1.978569299126141e-18
 1.097729407158444e-01 -7.064098427660644e-03 -1.880959376782957e-18
 1.099642442302339e-01 -2.804459105324127e-03 -1.928130097648305e-18
 1.099642442302339e-01 -2.804459105324127e-03 -1.928130097648305e-18
 1.099908439992578e-01 -1.419237940199376e-03 -1.942836116527808e-18
 1.099994238521577e-01 -3.560227427257848e-04 -1.953912955162904e-18
 1.099872793445190e-01 -1.672836630011257e-03 -1.940167044832001e-18
 1.099818415346125e-01 -1.998632696453838e-03 -1.936722836287970e-18
 1.099861035565073e-01 -1.748434859299106e-03 -1.939369375938548e-18
 1.099608838162150e-01  2.933262749364719e-03 -1.987023302778839e-18
 1.099521304674384e-01 -3.244842934776744e-03 -1.923389734920783e-18
 1.099786450599090e-01 -2.167401851648289e-03 -1.934931909447118e-18
 1.099989205650149e-01 -4.873135864326017e-04 -1.952555032842982e-18
 1.099882921644801e-01  1.604863464892655e-03 -1.973862246951645e-18
 1.097379258192745e-01 -7.588651848871066e-03 -1.874946649083554e-18
 1.099993638095242e-01  3.741142871963465e-04 -1.961413779377142e-18
 1.099467922674224e-01 -3.420945790892168e-03 -1.921485342410416e-18
 1.099929148360348e-01  1.248473416915556e-03 -1.970282734629448e-18
 1.099934712619079e-01 -1.198448895785851e-03 -1.945151399025573e-18
 1.099988050581189e-01 -5.127238885759354e-04 -1.952291895636301e-18
 1.099971147458670e-01  7.967104772413827e-04 -1.965715776942165e-18
 1.099988050581194e-01 -5.127238884728045e-04 -1.952291895637370e-18
 1.099999820937197e-01 -6.276449076492090e-05 -1.956936011743947e-18
 1.099981434860671e-01 -6.390849853976147e-04 -1.950981807806022e-18
 1.099990970904693e-01 -4.456896694651354e-04 -1.952985844950071e-18
 1.099997609440389e-01  2.293300116553110e-04 -1.959933241024358e-18
 1.099999987118631e-01  1.683419417186009e-05 -1.957754155055427e-18
 1.099999793376866e-01  6.742186948183305e-05 -1.958273580255598e-18
 1.099999793376866e-01  6.742186948183305e-05 -1.958273580255598e-18
 1.099990364840087e-01  4.604048106686087e-04 -1.962294558010939e-18
 1.099998968126775e-01  1.506691749262376e-04 -1.959127447446694e-18
 1.099972768426315e-01  7.740072386214194e-04 -1.965485394118065e-18
 1.099995167596522e-01  3.260561960276368e-04 -1.960922721878486e-18
 1.099996019891603e-01  2.959091520787902e-04 -1.960614488714235e-18
 1.099996019891603e-01  2.959091520787902e-04 -1.960614488714235e-18
 1.099984446134680e-01  5.849637747534036e-04 -1.963563823075915e-18
 1.099999417087996e-01  1.132433691541053e-04 -1.958743709868159e-18
 1.099999417087996e-01  1.132433691541053e-04 -1.958743709868159e-18
 1.099997819959325e-01  2.189996513310306e-04 -1.959827474968309e-18
 1.099991581970857e-01  4.303439699570242e-04 -1.961987859822262e-18
 1.099991581970857e-01  4.303439699570242e-04 -1.961987859822262e-18
 1.099991581970857e-01  4.303439699570242e-04 -1.961987859822262e-18
 1.095489179697247e-01 -9.951611510830155e-03 -1.847304476813223e-18
 1.099903529225307e-01 -1.456799223334224e-03 -1.942441448692402e-18
 1.087105009160194e-01  1.679365923758423e-02 -2.107181786389403e-18
 1.099999871522754e-01 -5.316483041724899e-05 -1.957034734789770e-18
 1.098358700378734e-01 -6.006800564639608e-03 -1.892942630589698e-18
 1.099865882967930e-01  1.717671339848991e-03 -1.974990984529004e-18
 1.099865882967930e-01  1.717671339848991e-03 -1.974990984529004e-18
 1.099963286336472e-01  8.987141473484351e-04 -1.966749837792836e-18
 1.099953255196249e-01  1.014082753879140e-03 -1.967917356704235e-18
 1.099840119641615e-01  1.875396562631645e-03 -1.976565704983691e-18
 1.099840119641615e-01  1.875396562631645e-03 -1.976565704983691e-18
 1.065424911881244e-01 -2.736233855920215e-02 -1.614912630436840e-18
 1.099910284109631e-01 -1.404873339015584e-03 -1.942986989412991e-18
 1.099910284109631e-01 -1.404873339015584e-03 -1.942986989412991e-18
 1.099982001086107e-01 -6.292637491434436e-04 -1.951083725106466e-18
 1.099705758748246e-01 -2.544099400456376e-03 -1.930917878202728e-18
 1.099998979488132e-01  1.498374140377806e-04 -1.959118921624610e-18
 1.099875523931374e-01 -1.654786562316335e-03 -1.940357361946361e-18
 1.099994190295416e-01  3.575096687805205e-04 -1.961244155660981e-18
 1.099037085701340e-01 -4.601613035774234e-03 -1.908587689586602e-18
 1.099800369134087e-01  2.095585962257723e-03 -1.978757330306570e-18
 1.099214744542333e-01 -4.155653234726493e-03 -1.913485929637368e-18
 1.099909291211324e-01  1.412625594412409e-03 -1.971934000456094e-18
 1.068129996022611e-01 -2.628655770479140e-02 -1.630779907819129e-18
 1.097936722166749e-01  6.734206796447434e-03 -2.023100892217161e-18
 1.090964434955199e-01 -1.407003968113769e-02 -1.796936800471082e-18
 1.097034523811769e-01  8.071712064414394e-03 -2.035237703377255e-18
 1.043833170913521e-01 -3.470047712937411e-02 -1.501090843756335e-18
 1.093120951444549e-01  1.228274623728811e-02 -2.071539880899802e-18
 1.098100737058884e-01 -6.461246993213934e-03 -1.887814282124855e-18
 1.087306971537639e-01  1.666239768029949e-02 -2.106192537713483e-18
 1.094610660315769e-01 -1.087543209397783e-02 -1.836249125886089e-18
 1.093555705904175e-01  1.188945670937836e-02 -2.068272671291678e-18
 1.071086215687499e-01 -2.505480364405773e-02 -1.648696678856409e-18
 1.096891721274905e-01  8.263505187613519e-03 -2.036954173896709e-18
 1.070547116606538e-01 -2.528415929498635e-02 -1.645380741740839e-18
 1.093362676261183e-01  1.206567783383038e-02 -2.069739760054208e-18
 1.077642333531674e-01 -2.206513108513192e-02 -1.691081872082469e-18
 1.098978856685689e-01  4.738641744015609e-03 -2.004451788921973e-18
 1.073686900951035e-01 -2.391577695291543e-02 -1.665027993979458e-18
 1.001252508529196e-01  4.555144500056942e-02 -2.249872822491982e-18
 1.098604307774936e-01  5.539471940853727e-03 -2.012013473811250e-18
 1.094580441073216e-01  1.090580488545415e-02 -2.059989644601616e-18
 1.099853033523161e-01  1.798067434492470e-03 -1.975794158076157e-18
 1.096124942038451e-01  9.225026526357462e-03 -2.045468881243052e-18
 1.099804814149288e-01  2.072126381394468e-03 -1.978524202070166e-18
 1.098736760982864e-01  5.270227760619012e-03 -2.009482803951159e-18
 1.099984555157111e-01 -5.829100771765194e-04 -1.951564537520974e-18
 1.099694810225195e-01  2.590992789969904e-03 -1.983659600824265e-18
 1.099710510888521e-01  2.523474274298932e-03 -1.982993813806525e-18
 1.099920306799581e-01  1.324079642286506e-03 -1.971043826517506e-18
 1.099475508015781e-01  3.396479461790129e-03 -1.991545409325947e-18
 1.099296972531666e-01  3.932131969695303e-03 -1.996731319066949e-18
 1.099260184487989e-01  4.033666817460193e-03 -1.997709084031063e-18
 1.099961626365604e-01 -9.188064166715498e-04 -1.948072520134675e-18
 1.096884212907366e-01  8.273465703429638e-03 -2.037043152542684e-18
 1.099910608703750e-01 -1.402329707812434e-03 -1.943013701953531e-18
 1.099218494323558e-01  4.145722780225386e-03 -1.998786225721154e-18
 1.098933655841995e-01 -4.842334207531151e-03 -1.905930301221662e-18
 1.097605518490157e-01  7.254051130196548e-03 -2.027852687451933e-18
 1.099942508967256e-01 -1.124619788254060e-03 -1.945923840817021e-18
 1.096602773228591e-01  8.638493935496145e-03 -2.040292829543113e-18
 1.099710437377135e-01 -2.523794610874615e-03 -1.931134828717724e-18
 1.098713794823965e-01  5.317891559178038e-03 -2.009931661147193e-18
 1.097394094540781e-01 -7.567166753161752e-03 -1.875193803688120e-18
 1.098846767065859e-01  5.035655378307050e-03 -2.007268426883040e-18
 1.099189170950685e-01 -4.222755575144999e-03 -1.912750966209066e-18
 1.096719189143906e-01  8.489417037423657e-03 -2.038968294578694e-18
 1.098740716834632e-01 -5.261974125471960e-03 -1.901275295529817e-18
 1.099541336642915e-01  3.176238362447088e-03 -1.989399661931806e-18
 1.099127447646694e-01 -4.380472382813441e-03 -1.911020639322212e-18
 1.099668997333211e-01  2.698325970237873e-03 -1.984716473140080e-18
 1.099949199636069e-01 -1.057157603987521e-03 -1.946628897096518e-18
 1.099993646579836e-01 -3.738647347954273e-04 -1.953728581744938e-18
 1.099993646579836e-01 -3.738647347954273e-04 -1.953728581744938e-18
 1.099946932541758e-01  1.080488741135366e-03 -1.968588402182034e-18
 1.099853186066313e-01  1.797134106784497e-03 -1.975784839941745e-18
 1.099400026185076e-01 -3.632605709748625e-03 -1.919189783732743e-18
 1.099724984610141e-01  2.459589852436219e-03 -1.982363182293383e-18
 1.099688275818308e-01 -2.618579820728432e-03 -1.930121505981778e-18
 1.099888720931534e-01  1.564613586768047e-03 -1.973459014598053e-18
 1.099028505668740e-01 -4.622059851985395e-03 -1.908362336786300e-18
 1.099683264143222e-01  2.639542693924795e-03 -1.984137885820470e-18
 1.099911745183644e-01 -1.393387265146779e-03 -1.943107604804920e-18
 1.099336444874657e-01  3.820184511704340e-03 -1.995651345346190e-18
 1.099825381415286e-01 -1.959924474863308e-03 -1.937132946154236e-18
 1.099851759889371e-01  1.805841267250298e-03 -1.975871764800479e-18
 1.099440916848305e-01 -3.506665595343004e-03 -1.920556542470643e-18
 1.099925832371474e-01  1.277353834756940e-03 -1.970573569233588e-18
 1.099749270603910e-01 -2.348492721223462e-03 -1.933005100310961e-18
 1.099896227262332e-01  1.510924399450663e-03 -1.972920736113158e-18
 1.099858251561999e-01 -1.765860897636814e-03 -1.939185375259450e-18
 1.099999116881330e-01  1.393865233729160e-04 -1.959011787027124e-18
 1.099920297322184e-01 -1.324158369213427e-03 -1.943834126112422e-18
 1.099999537145442e-01  1.009098513300215e-04 -1.958617201109477e-18
 1.099992151824551e-01 -4.155228560417166e-04 -1.953297899587009e-18
 1.099985649534840e-01 -5.618791454885276e-04 -1.951782570279839e-18
 1.099998877057483e-01 -1.571773607103457e-04 -1.955964274056216e-18
 1.099963049604697e-01 -9.016069228496711e-04 -1.948251771509346e-18
 1.099983619682738e-01  6.003035037159492e-04 -1.963719962448707e-18
 1.099922738598118e-01 -1.303722036373823e-03 -1.944048446550145e-18
 1.099976346573008e-01  7.213666189487362e-04 -1.964950898612619e-18
 1.099710234967853e-01 -2.524676428667874e-03 -1.931125408148776e-18
 1.099963898120349e-01  8.911948826381712e-04 -1.966673668821856e-18
 1.099830501825141e-01 -1.930977097364979e-03 -1.937439482322396e-18
 1.098544005126561e-01  5.657798865716873e-03 -2.013121924223484e-18
 1.098716960104773e-01 -5.311347830941116e-03 -1.900725720707587e-18
 1.099812084030273e-01  2.033174416973680e-03 -1.978136922406274e-18
 1.096702556542594e-01 -8.510876848442496e-03 -1.864266850924624e-18
 1.099164702929000e-01  4.285972275924692e-03 -2.000131510137744e-18
 1.097780789090669e-01 -6.983794887784685e-03 -1.881875906760653e-18
 1.079120467219235e-01  2.133049864127340e-02 -2.139586718343547e-18
 1.096966105252671e-01 -8.164168008305099e-03 -1.868298174674425e-18
 1.090927442440133e-01  1.409869331924975e-02 -2.086294466560664e-18
 1.090785501422037e-01 -1.420809272473662e-02 -1.795199922032606e-18
 1.090306085152822e-01  1.457142432253058e-02 -2.090045826478752e-18
 1.095078867864035e-01 -1.039339846134073e-02 -1.842035077534341e-18
 1.084818808054470e-01  1.821212609534488e-02 -2.117687450488820e-18
 1.075352269217352e-01 -2.315545229294563e-02 -1.675803775138643e-18
 1.099277399002132e-01  3.986477195602184e-03 -1.997254863090451e-18
 1.035813831899954e-01 -3.702562702301337e-02 -1.462929402903717e-18
 1.093169215061150e-01  1.223971700758901e-02 -2.071183662058769e-18
 1.064644843489211e-01 -2.766430140665574e-02 -1.610421847120184e-18
 1.004146948665842e-01  4.490978796265643e-02 -2.248431031007581e-18
 1.095322081311593e-01 -1.013387299665750e-02 -1.845134434747249e-18
 1.084712560204004e-01  1.827530074599920e-02 -2.118147466351138e-18
 1.095599994477495e-01 -9.828861633429579e-03 -1.848762895331905e-18
 1.094001905522608e-01  1.147163053488904e-02 -2.064773724578734e-18
 1.099495808135929e-01 -3.330116952178691e-03 -1.922468201238073e-18
 1.098709987922653e-01  5.325751063466369e-03 -2.010005639863632e-18
 1.098552116083072e-01 -5.642028225204995e-03 -1.897034740183346e-18
 1.096651562301946e-01  8.576334240628610e-03 -2.039740987234998e-18
 1.099184692956049e-01 -4.234395790561820e-03 -1.912623398098606e-18
 1.099937961426354e-01  1.168250885869851e-03 -1.969474161167724e-18
 1.099458636590773e-01 -3.450661423487174e-03 -1.921163499387157e-18
 1.099885283120021e-01  1.588596789578438e-03 -1.973699315298854e-18
 1.099762150007642e-01 -2.287385867239942e-03 -1.933655871472519e-18
 1.098991531932483e-01  4.709153576483120e-03 -2.004171365826415e-18
 1.099849953436027e-01 -1.816810190324617e-03 -1.938647122280502e-18
 1.099978009834866e-01  6.955420887641104e-04 -1.964688520919162e-18
 1.099989778873888e-01 -4.741979857678587e-04 -1.952690810995311e-18
 1.099998824794397e-01 -1.607933749171452e-04 -1.955927027815439e-18
 1.099998824794397e-01 -1.607933749171452e-04 -1.955927027815439e-18
 1.099998458444191e-01 -1.841580951364823e-04 -1.955686311839029e-18
 1.099982777536424e-01 -6.155414141326562e-04 -1.951226098899725e-18
 1.099998168198690e-01 -2.007475908512818e-04 -1.955515344270559e-18
 1.099994384007767e-01 -3.514989526264798e-04 -1.953959694372841e-18
 1.099957553560899e-01 -9.663351608934562e-04 -1.947576931511838e-18
 1.099906202515223e-01 -1.436473698113912e-03 -1.942655043518646e-18
 1.099906202515223e-01 -1.436473698113912e-03 -1.942655043518646e-18
 1.099977632076669e-01  7.014907768495108e-04 -1.964748969262480e-18
 1.099561666730465e-01 -3.105062087813918e-03 -1.924897761438293e-18
 1.099975297290059e-01  7.371929980835693e-04 -1.965111641584787e-18
 1.099559788410217e-01 -3.111706463142380e-03 -1.924826150200568e-18
 1.099987082732785e-01  5.330836802569114e-04 -1.963035466092351e-18
 1.098601555861552e-01 -5.544926923390252e-03 -1.898120404768558e-18
 1.099990352049496e-01  4.607102996677358e-04 -1.962297674037047e-18
 1.099481479701169e-01 -3.377093120013179e-03 -1.921960039019862e-18
 1.099934059540899e-01 -1.204427921772770e-03 -1.945088804475044e-18
 1.077027821841583e-01 -2.236315518417995e-02 -1.686926185874270e-18
 1.098400121585222e-01 -5.930575774379656e-03 -1.893799526597177e-18
 1.098762792853673e-01 -5.215673533103683e-03 -1.901790304205925e-18
 1.098762792853673e-01 -5.215673533103683e-03 -1.901790304205925e-18
 9.403965551667851e-02  5.706612997483192e-02 -2.259881599477038e-18
 1.099591243202050e-01 -2.998496078648937e-03 -1.926045323329269e-18
 1.099591243202050e-01 -2.998496078648937e-03 -1.926045323329269e-18
 1.099961715430013e-01 -9.177395505266081e-04 -1.948083640297492e-18
 1.099961715430013e-01 -9.177395505266081e-04 -1.948083640297492e-18
 1.097708967180019e-01  7.095789859186083e-03 -2.026410709667516e-18
 1.098190124109570e-01 -6.307496578043661e-03 -1.889553086706764e-18
 1.096997065064339e-01 -8.122462213037276e-03 -1.868781783248162e-18
 1.099899485200728e-01  1.487018678999701e-03 -1.972680911409788e-18
 1.098233568658124e-01  6.231395247004484e-03 -2.018462959944242e-18
 1.099988373800617e-01 -5.057420634199670e-04 -1.952364206561008e-18
 1.099988373800617e-01 -5.057420634199670e-04 -1.952364206561008e-18
-1.099949043305312e-01  1.058782941520149e-03  1.946611919134579e-18
-1.099700030196250e-01  2.568742078065549e-03  1.930654489000672e-18
-1.099662386861423e-01  2.725132881592342e-03  1.928980639502162e-18
-1.099643169455823e-01  2.801606448357861e-03  1.928160701718709e-18
-1.099643169455823e-01  2.801606448357861e-03  1.928160701718709e-18
-1.099659640096426e-01  2.736194333368682e-03  1.928862098907510e-18
-1.099659640096426e-01  2.736194333368682e-03  1.928862098907510e-18
-1.099659640096426e-01  2.736194333368682e-03  1.928862098907510e-18
-1.099664250312450e-01  2.717602959878583e-03  1.929061322945747e-18
-1.099664250312450e-01  2.717602959878583e-03  1.929061322945747e-18
-1.099528231762292e-01  3.221284771150357e-03  1.923644114073260e-18
-1.099528231762292e-01  3.221284771150357e-03  1.923644114073260e-18
-1.099700371239491e-01 -2.567281627952592e-03  1.983425873736405e-18
-1.099950553517338e-01  1.042975632017275e-03  1.946777021099822e-18
-1.099928366088107e-01  1.255346465102690e-03  1.944555502761198e-18
-1.099928366088107e-01  1.255346465102690e-03  1.944555502761198e-18
-1.099940240845337e-01  1.146588719197502e-03  1.945694081638753e-18
-1.099994285987727e-01  3.545531602791073e-04  1.953928139060364e-18
-1.099994285987727e-01  3.545531602791073e-04  1.953928139060364e-18
-1.099854817828698e-01  1.787119746960936e-03  1.938960837567380e-18
-1.099159698971923e-01  4.298786056491943e-03  1.911917331731175e-18
-1.099200496755669e-01 -4.193170557092407e-03  1.999241705573156e-18
-1.099638070640712e-01  2.821548506707392e-03  1.927946730363848e-18
-1.098009630542577e-01 -6.614265821503380e-03  2.021998291422353e-18
-1.097828436398828e-01  6.908490597881340e-03  1.882734425051956e-18
-1.095883006513524e-01 -9.508120758001903e-03  2.047947018507429e-18
-1.094404550044042e-01  1.108092091971364e-02  1.833771005035614e-18
-1.099878125736256e-01 -1.637401987588716e-03  1.974188033560701e-18
-1.099538532721643e-01  3.185930100194262e-03  1.924025702259901e-18
-1.099674854729864e-01 -2.674348284814976e-03  1.984480535068807e-18
-1.099465111669228e-01  3.429968253743799e-03  1.921387637363518e-18
-1.099936800898162e-01 -1.179126922401090e-03  1.969583843193780e-18
-1.099646923207959e-01  2.786833829390563e-03  1.928319165261818e-18
-1.099952373401165e-01 -1.023602701926166e-03  1.968013601452557e-18
-1.099985754083659e-01 -5.598286612950582e-04  1.963307896567226e-18
-1.099995800232803e-01 -3.039649682228035e-04  1.960696868389631e-18
-1.099999724688084e-01  7.782583998006015e-05  1.956781090565341e-18
-1.099955622178540e-01 -9.880750873222004e-04  1.967654349705534e-18
-1.099999598648994e-01  9.396659245963813e-05  1.956615025895492e-18
-1.099931529930508e-01 -1.227311960051653e-03  1.970069546635706e-18
-1.099999695195873e-01  8.188827642969557e-05  1.956739298021681e-18
-1.099979538984141e-01 -6.709233654607690e-04  1.964438293784039e-18
-1.099936434765229e-01  1.182537424167129e-03  1.945317948380770e-18
-1.099958043989066e-01 -9.607365078060073e-04  1.967377765633047e-18
-1.099944197599080e-01  1.107980902867757e-03  1.946097804441690e-18
-1.099568618912240e-01 -3.080344629139496e-03  1.988462940710136e-18
-1.099906536729853e-01  1.433912336709078e-03  1.942681955351412e-18
-1.099990017896986e-01 -4.686206033149454e-04  1.962378354869183e-18
-1.099599057126111e-01  2.969702960505236e-03  1.926355067968425e-18
-1.099568977217153e-01 -3.079065347831514e-03  1.988450434205755e-18
-1.099800526543910e-01  2.094759684866635e-03  1.935703331144822e-18
-1.099918931112515e-01 -1.335458648922266e-03  1.971158293477790e-18
-1.099543069765820e-01  3.170233003979631e-03  1.924195058432511e-18
-1.099986420951775e-01 -5.465685839965608e-04  1.963172840861349e-18
-1.099832180662675e-01  1.921391107457268e-03  1.937540962578032e-18
-1.099987145409976e-01  5.317888002583267e-04  1.952094399734357e-18
-1.099837079738870e-01  1.893140331488294e-03  1.937839947528886e-18
-1.099837079738870e-01  1.893140331488294e-03  1.937839947528886e-18
-1.099819548919855e-01 -1.992385037391226e-03  1.977731111010137e-18
-1.099970176376717e-01 -8.100066775786725e-04  1.965850662414330e-18
-1.099909314412944e-01 -1.412444928639569e-03  1.971932185470959e-18
-1.099978723343069e-01 -6.841651302765061e-04  1.964572896576584e-18
-1.099978723343069e-01 -6.841651302765061e-04  1.964572896576584e-18
-1.099978723343069e-01 -6.841651302765061e-04  1.964572896576584e-18
-1.099978723343069e-01 -6.841651302765061e-04  1.964572896576584e-18
-1.099964571677063e-01 -8.828423148747919e-04  1.966589047896853e-18
-1.099996723997561e-01  2.684621878132855e-04  1.954817031257375e-18
-1.099801751865823e-01 -2.088316529797781e-03  1.978685100264883e-18
-1.099825641582951e-01  1.958463981401460e-03  1.937148415193395e-18
-1.099691020959529e-01 -2.607025931949770e-03  1.983817592083471e-18
-1.099923260381585e-01  1.299312400999773e-03  1.944094682527639e-18
-1.099654161294013e-01 -2.758125357477928e-03  1.985304487619103e-18
-1.099087130879880e-01  4.480489631983753e-03  1.909921249924691e-18
-1.097844603994107e-01 -6.882750526510924e-03  2.024463189805399e-18
-1.098759245807321e-01  5.223140581033602e-03  1.901707270608918e-18
-1.099151753233972e-01 -4.319054714495400e-03  2.000448374649156e-18
-1.096463651615691e-01  8.813319854391547e-03  1.860734199092369e-18
-1.099406533984164e-01 -3.612856256376488e-03  1.993645854770029e-18
-1.098916464534740e-01  4.881192451096294e-03  1.905500452903205e-18
-1.098363149141651e-01 -5.998660356805580e-03  2.016302297420745e-18
-1.098841320756432e-01  5.047525926883402e-03  1.903657709546721e-18
-1.099563875433614e-01 -3.097230765389522e-03  1.988627998039817e-18
-1.099071581303126e-01  4.518472277046537e-03  1.909503319718027e-18
-1.099457424126087e-01 -3.454522447497604e-03  1.992109597479897e-18
-1.098962916946256e-01  4.775465607637019e-03  1.906669425419545e-18
-1.098950913642780e-01 -4.803008852476287e-03  2.005063409600651e-18
-1.099576527030787e-01  3.051984932644311e-03  1.925469555603270e-18
-1.099717048520135e-01 -2.494821023957746e-03  1.982711046563471e-18
-1.099892603492309e-01  1.537077691294292e-03  1.941597172951849e-18
-1.099965249242651e-01 -8.743595287299511e-04  1.966503096159559e-18
-1.099999907645829e-01 -4.507539957687135e-05  1.958044181750409e-18
-1.099999907645829e-01 -4.507539957687135e-05  1.958044181750409e-18
-1.099999907645829e-01 -4.507539957687135e-05  1.958044181750409e-18
-1.099997476376713e-01 -2.356260779117996e-04  1.959997694015278e-18
-1.099999057911862e-01 -1.439650309768244e-04  1.959058724586309e-18
-1.099999057911862e-01 -1.439650309768244e-04  1.959058724586309e-18
-1.099986511472740e-01 -5.447437748985399e-04  1.963154252703623e-18
-1.099996582028820e-01  2.742175215040458e-04  1.954757644644141e-18
-1.099870304975322e-01 -1.689118804258745e-03  1.974705487087765e-18
-1.099988018468099e-01  5.134123744281826e-04  1.952284764545203e-18
-1.099982573499972e-01 -6.191768436834347e-04  1.963912017353701e-18
-1.099999007864797e-01 -1.477395160286731e-04  1.959097416984333e-18
-1.099986977580651e-01 -5.352490353247916e-04  1.963057527198298e-18
-1.099976276377986e-01 -7.224361952189867e-04  1.964961763199834e-18
-1.099985866468786e-01 -5.576160767939611e-04  1.963285363067985e-18
-1.099985866468786e-01 -5.576160767939611e-04  1.963285363067985e-18
-1.099939839572912e-01 -1.150431746400125e-03  1.969294418368691e-18
-1.099987735614934e-01 -5.194371639288328e-04  1.962896414976133e-18
-1.099972074206352e-01 -7.838109859590208e-04  1.965584888613304e-18
-1.099978668859748e-01 -6.850405355406675e-04  1.964581794088095e-18
-1.099978668859748e-01 -6.850405355406675e-04  1.964581794088095e-18
-1.099981596870223e-01 -6.362903962154020e-04  1.964086114859966e-18
-1.099988447294868e-01 -5.041410300749214e-04  1.962740519276769e-18
-1.099990186597223e-01 -4.646438399735373e-04  1.962337795292691e-18
-1.099994689774558e-01  3.417962517609988e-04  1.954059930247996e-18
-1.099993030969544e-01 -3.915586601309780e-04  1.961591933519400e-18
-1.099993030969544e-01 -3.915586601309780e-04  1.961591933519400e-18
-1.099983499759960e-01 -6.024969363090905e-04  1.963742285754901e-18
-1.099999864687071e-01 -5.456083046308688e-05  1.958141564656744e-18
-1.099931062115980e-01 -1.231497431613227e-03  1.970111718303785e-18
-1.099997140725970e-01  2.508065925472100e-04  1.954999177702873e-18
-1.099978173809938e-01 -6.929440218961325e-04  1.964662118539101e-18
-1.099997790309605e-01  2.204838765995284e-04  1.955311888605421e-18
-1.099930192551247e-01 -1.239239743442368e-03  1.970189720251101e-18
-1.099999553613076e-01 -9.909848794131000e-05  1.958598619314793e-18
-1.099992146675529e-01 -4.156591410805426e-04  1.961837983499461e-18
-1.099997485533163e-01 -2.351982295026276e-04  1.959993314323292e-18
-1.099997485533163e-01 -2.351982295026276e-04  1.959993314323292e-18
-1.099999042036958e-01 -1.451729234456993e-04  1.959071106991351e-18
-1.099917192924757e-01 -1.349698886859195e-03  1.971301513437065e-18
-1.099940785496576e-01  1.141351835201245e-03  1.945748857991254e-18
-1.099850588762505e-01 -1.812960007193987e-03  1.975942823107410e-18
-1.099927330132382e-01  1.264390872504157e-03  1.944460731153937e-18
-1.099991379814964e-01  4.354805709531952e-04  1.953091467433212e-18
-1.099991379814964e-01  4.354805709531952e-04  1.953091467433212e-18
-1.099997366895998e-01 -2.406828175647184e-04  1.960049455344251e-18
-1.099975567143831e-01  7.331554173751785e-04  1.950004825988512e-18
-1.099992070768882e-01  4.176630889179347e-04  1.953275765223458e-18
-1.099929693207281e-01  1.243663945498021e-03  1.944677898173085e-18
-1.099994971879724e-01  3.325934353292158e-04  1.954154987883507e-18
-1.099944402658740e-01  1.105943306438499e-03  1.946119104932925e-18
-1.099982568109194e-01  6.192726047383230e-04  1.951187389570951e-18
-1.099966147159609e-01  8.629895876649701e-04  1.948654063068250e-18
-1.099976587948328e-01  7.176765674810724e-04  1.950165682191517e-18
-1.099970535816655e-01  8.051107701257968e-04  1.949256557031455e-18
-1.099974076050047e-01  7.551954570998963e-04  1.949775719007603e-18
-1.099974076050047e-01  7.551954570998963e-04  1.949775719007603e-18
-1.099972400845864e-01  7.792135611081448e-04  1.949525960488341e-18
-1.099987843098785e-01  5.171560197857847e-04  1.952245987858499e-18
-1.099983532755799e-01  6.018942271529388e-04  1.951367662791273e-18
-1.099991939544124e-01  4.211049507350008e-04  1.953240167813509e-18
-1.099969691452414e-01  8.165652826292347e-04  1.949137363429692e-18
-1.099995340111536e-01  3.201832741341981e-04  1.954283153093962e-18
-1.099991766458030e-01  4.256022149768962e-04  1.953193652029799e-18
-1.099991766458030e-01  4.256022149768962e-04  1.953193652029799e-18
-1.099993757838557e-01  3.705767964425443e-04  1.953762562115266e-18
-1.099997448334519e-01  2.369315838771706e-04  1.955142285802669e-18
-1.099986216749485e-01  5.506628837301996e-04  1.951898822720979e-18
-1.099999672683617e-01 -8.485846638324032e-05  1.958452520166509e-18
-1.099978213372687e-01  6.923157186424533e-04  1.950429148336996e-18
-1.099981397988469e-01 -6.397193082062693e-04  1.964120991751244e-18
-1.099985958374857e-01  5.558001272444652e-04  1.951845579601613e-18
-1.099921272072759e-01 -1.316036632616636e-03  1.970962905333707e-18
-1.099928483890314e-01  1.254313863243367e-03  1.944566322013267e-18
-1.099828592087687e-01 -1.941823952917444e-03  1.977227707630431e-18
-1.099975872393523e-01  7.285612678648825e-04  1.950052572434046e-18
-1.099875033650548e-01 -1.658042074861019e-03  1.974394600224115e-18
-1.099916522688890e-01 -1.355149866168386e-03  1.971356327504607e-18
-1.099925719903022e-01  1.278321930564071e-03  1.944314728997906e-18
-1.099973468778538e-01 -7.639894194821959e-04  1.965383711025918e-18
-1.099973468778538e-01 -7.639894194821959e-04  1.965383711025918e-18
-1.099955668367928e-01 -9.875607589465178e-04  1.967649147367842e-18
-1.099765798796594e-01 -2.269774872725078e-03  1.980485536044498e-18
-1.099982329027428e-01 -6.235048307159500e-04  1.963956050780172e-18
-1.099985325000477e-01 -5.681970045017401e-04  1.963393114648988e-18
-1.099982329027429e-01 -6.235048306923702e-04  1.963956050779931e-18
-1.099945433420533e-01 -1.095643634185210e-03  1.968741445337738e-18
-1.099987140242106e-01 -5.318956851662060e-04  1.963023362219058e-18
-1.099947124671048e-01 -1.078531074613752e-03  1.968568629786678e-18
-1.099947124671048e-01 -1.078531074613752e-03  1.968568629786678e-18
-1.099981317112020e-01 -6.411084502723951e-04  1.964135120752050e-18
-1.099766263902261e-01 -2.267520192758628e-03  1.980463197737919e-18
-1.099999939070049e-01  3.661227741773213e-05  1.957204926467237e-18
-1.099889974295611e-01 -1.555777760468860e-03  1.973370460203514e-18
-1.099960831904160e-01  9.282686933521410e-04  1.947973884840251e-18
-1.099737071643857e-01 -2.404939192973102e-03  1.981823176938715e-18
-1.099999845981741e-01 -5.820997691355364e-05  1.958179025022528e-18
-1.099809270910597e-01 -2.048334980168068e-03  1.978287685403671e-18
-1.099998409040861e-01 -1.870857442916469e-04  1.959500619507750e-18
-1.099784826757260e-01 -2.175625966242709e-03  1.979552052757743e-18
-1.099950267104482e-01 -1.045991858359384e-03  1.968239893495371e-18
-1.099772178820091e-01 -2.238648461249808e-03  1.980177077486775e-18
-1.099925204616943e-01 -1.282748020361341e-03  1.970627875367050e-18
-1.099894171027272e-01 -1.525819583782583e-03  1.973070119405608e-18
-1.099894171027272e-01 -1.525819583782583e-03  1.973070119405608e-18
-1.099941596314576e-01 -1.133510903954669e-03  1.969123689190765e-18
-1.099964511572247e-01 -8.835908647386991e-04  1.966596632011090e-18
-1.099887622452602e-01 -1.572316684256819e-03  1.973536206252143e-18
-1.099981161126325e-01 -6.437792104338330e-04  1.964162284247345e-18
-1.099981161126325e-01 -6.437792104338330e-04  1.964162284247345e-18
-1.099981161126325e-01 -6.437792104338330e-04  1.964162284247345e-18
-9.464832514060485e-02  5.605082111868045e-02  1.108478021154141e-18
-1.099603132425595e-01 -2.954574689894497e-03  1.987232121186956e-18
-1.099603132425595e-01 -2.954574689894497e-03  1.987232121186956e-18
-1.099678775594618e-01 -2.658177019537000e-03  1.984321358839162e-18
-1.099994277080697e-01 -3.548293915694033e-04  1.961216771231062e-18
-1.099994277080697e-01 -3.548293915694033e-04  1.961216771231062e-18
-1.099964642019974e-01 -8.819654520742605e-04  1.966580163633722e-18
-1.099996175052398e-01  2.900839549465392e-04  1.954593898541252e-18
-1.099990625306605e-01 -4.541391590902489e-04  1.962230644248340e-18
-1.099971247460446e-01  7.953286132521813e-04  1.949358331594768e-18
-1.099986317906171e-01  5.486384895298876e-04  1.951919802656374e-18
-1.099963891854479e-01  8.912722162494294e-04  1.948359455749314e-18
-1.099963891854479e-01  8.912722162494294e-04  1.948359455749314e-18
-1.099923778742991e-01  1.294916814843158e-03  1.944140768064560e-18
-1.099954608253151e-01  9.992986673314594e-04  1.947233001931420e-18
-1.099954608253151e-01  9.992986673314594e-04  1.947233001931420e-18
-1.099928221923371e-01  1.256608994433188e-03  1.944542274172623e-18
-1.099877257657416e-01  1.643222711615984e-03  1.940479261683790e-18
-1.099877257657416e-01  1.643222711615984e-03  1.940479261683790e-18
-1.099978883864898e-01  6.815794255243869e-04  1.950540653069465e-18
-1.099874648639040e-01  1.660594114002145e-03  1.940296133775389e-18
-1.099874648639040e-01  1.660594114002145e-03  1.940296133775389e-18
-1.099604969548241e-01  2.947729541202899e-03  1.926591358729879e-18
-1.099997366240315e-01  2.407127825409392e-04  1.955103289263571e-18
-1.099262011437797e-01  4.028684909155739e-03  1.914874600137318e-18
-1.099949153646288e-01  1.057636009272252e-03  1.946623899811708e-18
-1.099320489173337e-01  3.865827315970731e-03  1.916651970851653e-18
-1.099980273495817e-01 -6.587709773747340e-04  1.964314739562214e-18
-1.085894907432690e-01  1.755911444570767e-02  1.752065995804904e-18
-1.099753276597368e-01 -2.329657943452231e-03  1.981078528095184e-18
-1.098331083798998e-01  6.057087056428152e-03  1.892376808156353e-18
-1.098319853119345e-01 -6.077417415232639e-03  2.017034447149663e-18
-1.096462232142191e-01  8.815085640967203e-03  1.860713530154351e-18
-1.098404805734461e-01 -5.921893902660636e-03  2.015587682867350e-18
-1.087551859302189e-01  1.650180394028099e-02  1.765878220657601e-18
-1.098291631015121e-01 -6.128207929029569e-03  2.017506076627262e-18
-1.096621444219508e-01  8.614759473088374e-03  1.863055145639619e-18
-1.086066114455625e-01 -1.745290664366776e-02  2.112106476950529e-18
-1.097473082819634e-01  7.451733010760262e-03  1.876520412521795e-18
-1.086243569814115e-01 -1.734211839351923e-02  2.111283970904534e-18
-1.098449711998320e-01  5.838004976707274e-03  1.894838909970398e-18
-1.091200439317715e-01 -1.388582054933129e-02  2.084593106688252e-18
-1.095739858078667e-01  9.671692415362788e-03  1.850626655914274e-18
-1.094620586343350e-01 -1.086543692326176e-02  2.059646321751520e-18
-1.096910093151196e-01  8.239082195870042e-03  1.867428778395442e-18
-1.099205264665427e-01 -4.180653216669415e-03  1.999121579511654e-18
-1.086031430859903e-01  1.747447601056676e-02  1.753178584703081e-18
-1.099538709405885e-01 -3.185320263391040e-03  1.989488299683127e-18
-1.098276532948358e-01  6.155206881115136e-03  1.891271582856047e-18
-1.099486627187104e-01 -3.360292601430667e-03  1.991193390373118e-18
-1.099748179633685e-01  2.353595955965251e-03  1.932950724916197e-18
-1.099708902547304e-01 -2.530473588481108e-03  1.983062866982051e-18
-1.099999436584638e-01 -1.113334395463283e-04  1.958724120731861e-18
-1.099972127143248e-01 -7.830677362424603e-04  1.965577346199987e-18
-1.099985821829091e-01 -5.584959711007315e-04  1.963294324220685e-18
-1.099985821829091e-01 -5.584959711007315e-04  1.963294324220685e-18
-1.099985821829091e-01 -5.584959711007315e-04  1.963294324220685e-18
-1.099996573734186e-01 -2.745500509813783e-04  1.960396017338551e-18
-1.099995414716570e-01 -3.176098631775265e-04  1.960836378656365e-18
-1.099995414716570e-01 -3.176098631775265e-04  1.960836378656365e-18
-1.099992968261424e-01  3.933163538261065e-04  1.953527516277088e-18
-1.099999909898391e-01 -4.452230100804883e-05  1.958038502872241e-18
-1.099999909898391e-01 -4.452230100804883e-05  1.958038502872241e-18
-1.099996859912582e-01  2.628342149521324e-04  1.954875098511034e-18
-1.097244824179208e-01  7.780614250773582e-03  1.872735063775508e-18
-1.099975183359485e-01  7.388910154001662e-04  1.949945211812359e-18
-1.099903864054102e-01  1.454269022055862e-03  1.942468041459169e-18
-1.099924847723709e-01  1.285804650686293e-03  1.944236294619783e-18
-1.099857821072498e-01  1.768540148407478e-03  1.939157080823660e-18
-1.099969609682008e-01  8.176660443461334e-04  1.949125907982736e-18
-1.099969609682008e-01  8.176660443461334e-04  1.949125907982736e-18
-1.099998530502020e-01  1.798024858712796e-04  1.955731192377463e-18
-1.099998530502020e-01  1.798024858712796e-04  1.955731192377463e-18
-1.099998530502020e-01  1.798024858712796e-04  1.955731192377463e-18
-1.099971006512147e-01  7.986540718638298e-04  1.949323734919337e-18
-1.099987843735176e-01 -5.171424836016053e-04  1.962873030382231e-18
-1.099987843735176e-01 -5.171424836016053e-04  1.962873030382231e-18
-1.099987843735176e-01 -5.171424836016053e-04  1.962873030382231e-18
-1.092019131807364e-01 -1.322657013994459e-02  2.079276509161156e-18
-1.099985622656843e-01  5.624050873999002e-04  1.951777118585159e-18
-1.099985622656843e-01  5.624050873999002e-04  1.951777118585159e-18
-9.058990040054038e-02  6.239767580142822e-02  9.710418856062365e-19
-1.099656055409904e-01 -2.750563215646833e-03  1.985230160164064e-18
-1.099869935538509e-01 -1.691522682414351e-03  1.974729528605679e-18
-1.099903548099594e-01  1.456656712883364e-03  1.942442946524561e-18
-1.099979166961099e-01  6.769952109281674e-04  1.950588258012587e-18
-1.098692554409682e-01  5.361595737021920e-03  1.900166008880605e-18
-1.099323904239288e-01 -3.856103691661894e-03  1.995998084315301e-18
-1.099983346569428e-01  6.052872864882865e-04  1.951332468998347e-18
-1.099824179115949e-01  1.966659685673206e-03  1.937061604674787e-18
-1.099824179115949e-01  1.966659685673206e-03  1.937061604674787e-18
-1.099817705717149e-01  2.002533872529957e-03  1.936681490251563e-18
-1.099929568174794e-01 -1.244769275037506e-03  1.970245423027142e-18
-1.098232106699921e-01  6.233971297214873e-03  1.890383245285039e-18
-1.096044180248611e-01  9.320490836402882e-03  1.854776702158861e-18
-1.099940820666636e-01  1.141012844817252e-03  1.945752403583620e-18
-1.095998712671686e-01  9.373804895560627e-03  1.854148004591783e-18
-1.099774729927100e-01 -2.226080442775599e-03  1.980052485661784e-18
-1.099729541223158e-01  2.439131323029527e-03  1.932038710817367e-18
-1.099293105939980e-01 -3.942926873311028e-03  1.996835351718991e-18
-1.097496984014112e-01 -7.416447990731667e-03  2.029328106153209e-18
-1.079070525581298e-01 -2.135574883297168e-02  2.139757277788611e-18
-1.099918806390657e-01 -1.336485496173870e-03  1.971168622002851e-18
-1.097187181290604e-01  7.861481547123754e-03  1.871801599286124e-18
-1.083404314948139e-01  1.903551689651471e-02  1.732464190542823e-18
-1.089941544595917e-01 -1.484164053056981e-02  2.092173456449538e-18
-1.095346375168686e-01  1.010758052395144e-02  1.845447814169574e-18
-1.085513394194845e-01 -1.779344571003157e-02  2.114621760514382e-18
-1.943552347099646e-02  1.082693882286600e-01 -7.665503091748903e-19
-1.096910655407912e-01 -8.238333601270317e-03  2.036729240539381e-18
-1.099818292218322e-01  1.999310135945518e-03  1.936715656722674e-18
-1.098380634649536e-01 -5.966557991739481e-03  2.016003574828591e-18
-1.099943197452910e-01 -1.117865721200608e-03  1.968965790038073e-18
-1.098559762371421e-01 -5.627120487820386e-03  2.012834756931994e-18
-1.099866190417708e-01 -1.715701535916863e-03  1.974971292652730e-18
-1.098426725691961e-01 -5.881095378952722e-03  2.015207502036267e-18
-1.099639940070910e-01 -2.814253366070348e-03  1.985855874154805e-18
-1.099639940070910e-01 -2.814253366070348e-03  1.985855874154805e-18
-1.099639940070910e-01 -2.814253366070348e-03  1.985855874154805e-18
-1.099639940070910e-01 -2.814253366070348e-03  1.985855874154805e-18
-1.097731611793546e-01 -7.060671688401858e-03  2.026090182011056e-18
-1.099880735976792e-01  1.619773524746538e-03  1.940726383644690e-18
-1.096936959415984e-01 -8.203235378320371e-03  2.036415430168772e-18
-1.093531447451668e-01  1.191174774508668e-02  1.823680771009986e-18
-8.749066093542941e-02 -6.667371482887159e-02  2.242048873194268e-18
-1.091204140443135e-01  1.388291175501584e-02  1.799286056442640e-18
-1.057205680631583e-01 -3.038357267345438e-02  2.193603788477866e-18
-1.095632410115545e-01  9.792661489298037e-03  1.849192526156967e-18
-1.078966981649577e-01 -2.140800142703597e-02  2.140109885433082e-18
-1.091828034245251e-01  1.338340152433075e-02  1.805528636046743e-18
-9.222159108095089e-02 -5.995980435673415e-02  2.257258427262291e-18
-1.098177757485708e-01  6.328991202125254e-03  1.889310229370402e-18
-1.092397292667328e-01 -1.291052089308858e-02  2.076702200320342e-18
-1.081910441161727e-01  1.986700714884714e-02  1.721262403658133e-18
-1.089550608429906e-01 -1.512596167852386e-02  2.094399035419045e-18
-1.095287537996193e-01  1.017114010828498e-02  1.844690054763124e-18
-1.098735393787613e-01 -5.273077316309288e-03  2.009509649013678e-18
-1.096846516884130e-01  8.323291656038930e-03  1.866450415232201e-18
-1.098359965209462e-01 -6.004487342867224e-03  2.016356501398627e-18
-1.099301098164497e-01  3.920581046640112e-03  1.916054887546216e-18
-1.099726253112650e-01 -2.453911601521906e-03  1.982307097779511e-18
-1.099993065029516e-01 -3.906006524215732e-04  1.961582150951987e-18
-1.099935919246486e-01  1.187322834716908e-03  1.945267862598679e-18
-1.099935919246486e-01  1.187322834716908e-03  1.945267862598679e-18
-1.099935919246486e-01  1.187322834716908e-03  1.945267862598679e-18
-1.099968928006563e-01  8.267854624343328e-04  1.949030996151936e-18
-1.097365847908208e-01  7.608019351117541e-03  1.874723789832661e-18
-1.099999926044183e-01 -4.033643364164223e-05  1.957995523339022e-18
-1.099967692384145e-01 -8.430641203082829e-04  1.966185895068471e-18
-1.099723231419861e-01  2.467416210239490e-03  1.931736864828748e-18
-1.099723231419861e-01  2.467416210239490e-03  1.931736864828748e-18
-1.099914689334256e-01  1.369949585654814e-03  1.943353657914666e-18
-1.099881630681480e-01  1.613686739876842e-03  1.940790515381787e-18
-1.099753110887196e-01  2.330440074172044e-03  1.933197418943597e-18

TENSORS stress double
0.000000000000000e+00 0.000000000000000e+00 0.000000000000000e+00
0.000000000000000e+00 0.000000000000000e+00 0.000000000000000e+00
0.000000000000000e+00 0.000000000000000e+00 0.000000000000000e+00

0.000000000000000e+00 0.000000000000000e+00 0.000000000000000e+00
0.000000000000000e+00 0.000000000000000e+00 0.000000000000000e+00
0.000000000000000e+00 0.000000000000000e+00 0.000000000000000e+00

0.000000000000000e+00 0.000000000000000e+00 0.000000000000000e+00
0.000000000000000e+00 0.000000000000000e+00 0.000000000000000e+00
0.000000000000000e+00 0.000000000000000e+00 0.000000000000000e+00

0.000000000000000e+00 0.000000000000000e+00 0.000000000000000e+00
0.000000000000000e+00 0.000000000000000e+00 0.000000000000000e+00
0.000000000000000e+00 0.000000000000000e+00 0.000000000000000e+00

0.000000000000000e+00 0.000000000000000e+00 0.000000000000000e+00
0.000000000000000e+00 0.000000000000000e+00 0.000000000000000e+00
0.000000000000000e+00 0.000000000000000e+00 0.000000000000000e+00

0.000000000000000e+00 0.000000000000000e+00 0.000000000000000e+00
0.000000000000000e+00 0.000000000000000e+00 0.000000000000000e+00
0.000000000000000e+00 0.000000000000000e+00 0.000000000000000e+00

0.000000000000000e+00 0.000000000000000e+00 0.000000000000000e+00
0.000000000000000e+00 0.000000000000000e+00 0.000000000000000e+00
0.000000000000000e+00 0.000000000000000e+00 0.000000000000000e+00

0.000000000000000e+00 0.000000000000000e+00 0.000000000000000e+00
0.000000000000000e+00 0.000000000000000e+00 0.000000000000000e+00
0.000000000000000e+00 0.000000000000000e+00 0.000000000000000e+00

0.000000000000000e+00 0.000000000000000e+00 0.000000000000000e+00
0.000000000000000e+00 0.000000000000000e+00 0.000000000000000e+00
0.000000000000000e+00 0.000000000000000e+00 0.000000000000000e+00

0.000000000000000e+00 0.000000000000000e+00 0.000000000000000e+00
0.000000000000000e+00 0.000000000000000e+00 0.000000000000000e+00
0.000000000000000e+00 0.000000000000000e+00 0.000000000000000e+00

0.000000000000000e+00 0.000000000000000e+00 0.000000000000000e+00
0.000000000000000e+00 0.000000000000000e+00 0.000000000000000e+00
0.000000000000000e+00 0.000000000000000e+00 0.000000000000000e+00

0.000000000000000e+00 0.000000000000000e+00 0.000000000000000e+00
0.000000000000000e+00 0.000000000000000e+00 0.000000000000000e+00
0.000000000000000e+00 0.000000000000000e+00 0.000000000000000e+00

0.000000000000000e+00 0.000000000000000e+00 0.000000000000000e+00
0.000000000000000e+00 0.000000000000000e+00 0.000000000000000e+00
0.000000000000000e+00 0.000000000000000e+00 0.000000000000000e+00

0.000000000000000e+00 0.000000000000000e+00 0.000000000000000e+00
0.000000000000000e+00 0.000000000000000e+00 0.000000000000000e+00
0.000000000000000e+00 0.000000000000000e+00 0.000000000000000e+00

0.000000000000000e+00 0.000000000000000e+00 0.000000000000000e+00
0.000000000000000e+00 0.000000000000000e+00 0.000000000000000e+00
0.000000000000000e+00 0.000000000000000e+00 0.000000000000000e+00

0.000000000000000e+00 0.000000000000000e+00 0.000000000000000e+00
0.000000000000000e+00 0.000000000000000e+00 0.000000000000000e+00
0.000000000000000e+00 0.000000000000000e+00 0.000000000000000e+00

0.000000000000000e+00 0.000000000000000e+00 0.000000000000000e+00
0.000000000000000e+00 0.000000000000000e+00 0.000000000000000e+00
0.000000000000000e+00 0.000000000000000e+00 0.000000000000000e+00

0.000000000000000e+00 0.000000000000000e+00 0.000000000000000e+00
0.000000000000000e+00 0.000000000000000e+00 0.000000000000000e+00
0.000000000000000e+00 0.000000000000000e+00 0.000000000000000e+00

0.000000000000000e+00 0.000000000000000e+00 0.000000000000000e+00
0.000000000000000e+00 0.000000000000000e+00 0.000000000000000e+00
0.000000000000000e+00 0.000000000000000e+00 0.000000000000000e+00

0.000000000000000e+00 0.000000000000000e+00 0.000000000000000e+00
0.000000000000000e+00 0.000000000000000e+00 0.000000000000000e+00
0.000000000000000e+00 0.000000000000000e+00 0.000000000000000e+00

0.000000000000000e+00 0.000000000000000e+00 0.000000000000000e+00
0.000000000000000e+00 0.000000000000000e+00 0.000000000000000e+00
0.000000000000000e+00 0.000000000000000e+00 0.000000000000000e+00

0.000000000000000e+00 0.000000000000000e+00 0.000000000000000e+00
0.000000000000000e+00 0.000000000000000e+00 0.000000000000000e+00
0.000000000000000e+00 0.000000000000000e+00 0.000000000000000e+00

0.000000000000000e+00 0.000000000000000e+00 0.000000000000000e+00
0.000000000000000e+00 0.000000000000000e+00 0.000000000000000e+00
0.000000000000000e+00 0.000000000000000e+00 0.000000000000000e+00

0.000000000000000e+00 0.000000000000000e+00 0.000000000000000e+00
0.000000000000000e+00 0.000000000000000e+00 0.000000000000000e+00
0.000000000000000e+00 0.000000000000000e+00 0.000000000000000e+00

0.000000000000000e+00 0.000000000000000e+00 0.000000000000000e+00
0.000000000000000e+00 0.000000000000000e+00 0.000000000000000e+00
0.000000000000000e+00 0.000000000000000e+00 0.000000000000000e+00

0.000000000000000e+00 0.000000000000000e+00 0.000000000000000e+00
0.000000000000000e+00 0.000000000000000e+00 0.000000000000000e+00
0.000000000000000e+00 0.000000000000000e+00 0.000000000000000e+00

0.000000000000000e+00 0.000000000000000e+00 0.000000000000000e+00
0.000000000000000e+00 0.000000000000000e+00 0.000000000000000e+00
0.000000000000000e+00 0.000000000000000e+00 0.000000000000000e+00

0.000000000000000e+00 0.000000000000000e+00 0.000000000000000e+00
0.000000000000000e+00 0.000000000000000e+00 0.000000000000000e+00
0.000000000000000e+00 0.000000000000000e+00 0.000000000000000e+00

0.000000000000000e+00 0.000000000000000e+00 0.000000000000000e+00
0.000000000000000e+00 0.000000000000000e+00 0.000000000000000e+00
0.000000000000000e+00 0.000000000000000e+00 0.000000000000000e+00

0.000000000000000e+00 0.000000000000000e+00 0.000000000000000e+00
0.000000000000000e+00 0.000000000000000e+00 0.000000000000000e+00
0.000000000000000e+00 0.000000000000000e+00 0.000000000000000e+00

0.000000000000000e+00 0.000000000000000e+00 0.000000000000000e+00
0.000000000000000e+00 0.000000000000000e+00 0.000000000000000e+00
0.000000000000000e+00 0.000000000000000e+00 0.000000000000000e+00

0.000000000000000e+00 0.000000000000000e+00 0.000000000000000e+00
0.000000000000000e+00 0.000000000000000e+00 0.000000000000000e+00
0.000000000000000e+00 0.000000000000000e+00 0.000000000000000e+00

0.000000000000000e+00 0.000000000000000e+00 0.000000000000000e+00
0.000000000000000e+00 0.000000000000000e+00 0.000000000000000e+00
0.000000000000000e+00 0.000000000000000e+00 0.000000000000000e+00

0.000000000000000e+00 0.000000000000000e+00 0.000000000000000e+00
0.000000000000000e+00 0.000000000000000e+00 0.000000000000000e+00
0.000000000000000e+00 0.000000000000000e+00 0.000000000000000e+00

0.000000000000000e+00 0.000000000000000e+00 0.000000000000000e+00
0.000000000000000e+00 0.000000000000000e+00 0.000000000000000e+00
0.000000000000000e+00 0.000000000000000e+00 0.000000000000000e+00

0.000000000000000e+00 0.000000000000000e+00 0.000000000000000e+00
0.000000000000000e+00 0.000000000000000e+00 0.000000000000000e+00
0.000000000000000e+00 0.000000000000000e+00 0.000000000000000e+00

0.000000000000000e+00 0.000000000000000e+00 0.000000000000000e+00
0.000000000000000e+00 0.000000000000000e+00 0.000000000000000e+00
0.000000000000000e+00 0.000000000000000e+00 0.000000000000000e+00

0.000000000000000e+00 0.000000000000000e+00 0.000000000000000e+00
0.000000000000000e+00 0.000000000000000e+00 0.000000000000000e+00
0.000000000000000e+00 0.000000000000000e+00 0.000000000000000e+00

0.000000000000000e+00 0.000000000000000e+00 0.000000000000000e+00
0.000000000000000e+00 0.000000000000000e+00 0.000000000000000e+00
0.000000000000000e+00 0.000000000000000e+00 0.000000000000000e+00

0.000000000000000e+00 0.000000000000000e+00 0.000000000000000e+00
0.000000000000000e+00 0.000000000000000e+00 0.000000000000000e+00
0.000000000000000e+00 0.000000000000000e+00 0.000000000000000e+00

0.000000000000000e+00 0.000000000000000e+00 0.000000000000000e+00
0.000000000000000e+00 0.000000000000000e+00 0.000000000000000e+00
0.000000000000000e+00 0.000000000000000e+00 0.000000000000000e+00

0.000000000000000e+00 0.000000000000000e+00 0.000000000000000e+00
0.000000000000000e+00 0.000000000000000e+00 0.000000000000000e+00
0.000000000000000e+00 0.000000000000000e+00 0.000000000000000e+00

0.000000000000000e+00 0.000000000000000e+00 0.000000000000000e+00
0.000000000000000e+00 0.000000000000000e+00 0.000000000000000e+00
0.000000000000000e+00 0.000000000000000e+00 0.000000000000000e+00

0.000000000000000e+00 0.000000000000000e+00 0.000000000000000e+00
0.000000000000000e+00 0.000000000000000e+00 0.000000000000000e+00
0.000000000000000e+00 0.000000000000000e+00 0.000000000000000e+00

0.000000000000000e+00 0.000000000000000e+00 0.000000000000000e+00
0.000000000000000e+00 0.000000000000000e+00 0.000000000000000e+00
0.000000000000000e+00 0.000000000000000e+00 0.000000000000000e+00

0.000000000000000e+00 0.000000000000000e+00 0.000000000000000e+00
0.000000000000000e+00 0.000000000000000e+00 0.000000000000000e+00
0.000000000000000e+00 0.000000000000000e+00 0.000000000000000e+00

0.000000000000000e+00 0.000000000000000e+00 0.000000000000000e+00
0.000000000000000e+00 0.000000000000000e+00 0.000000000000000e+00
0.000000000000000e+00 0.000000000000000e+00 0.000000000000000e+00

0.000000000000000e+00 0.000000000000000e+00 0.000000000000000e+00
0.000000000000000e+00 0.000000000000000e+00 0.000000000000000e+00
0.000000000000000e+00 0.000000000000000e+00 0.000000000000000e+00

0.000000000000000e+00 0.000000000000000e+00 0.000000000000000e+00
0.000000000000000e+00 0.000000000000000e+00 0.000000000000000e+00
0.000000000000000e+00 0.000000000000000e+00 0.000000000000000e+00

0.000000000000000e+00 0.000000000000000e+00 0.000000000000000e+00
0.000000000000000e+00 0.000000000000000e+00 0.000000000000000e+00
0.000000000000000e+00 0.000000000000000e+00 0.000000000000000e+00

0.000000000000000e+00 0.000000000000000e+00 0.000000000000000e+00
0.000000000000000e+00 0.000000000000000e+00 0.000000000000000e+00
0.000000000000000e+00 0.000000000000000e+00 0.000000000000000e+00

0.000000000000000e+00 0.000000000000000e+00 0.000000000000000e+00
0.000000000000000e+00 0.000000000000000e+00 0.000000000000000e+00
0.000000000000000e+00 0.000000000000000e+00 0.000000000000000e+00

0.000000000000000e+00 0.000000000000000e+00 0.000000000000000e+00
0.000000000000000e+00 0.000000000000000e+00 0.000000000000000e+00
0.000000000000000e+00 0.000000000000000e+00 0.000000000000000e+00

0.000000000000000e+00 0.000000000000000e+00 0.000000000000000e+00
0.000000000000000e+00 0.000000000000000e+00 0.000000000000000e+00
0.000000000000000e+00 0.000000000000000e+00 0.000000000000000e+00

0.000000000000000e+00 0.000000000000000e+00 0.000000000000000e+00
0.000000000000000e+00 0.000000000000000e+00 0.000000000000000e+00
0.000000000000000e+00 0.000000000000000e+00 0.000000000000000e+00

0.000000000000000e+00 0.000000000000000e+00 0.000000000000000e+00
0.000000000000000e+00 0.000000000000000e+00 0.000000000000000e+00
0.000000000000000e+00 0.000000000000000e+00 0.000000000000000e+00

0.000000000000000e+00 0.000000000000000e+00 0.000000000000000e+00
0.000000000000000e+00 0.000000000000000e+00 0.000000000000000e+00
0.000000000000000e+00 0.000000000000000e+00 0.000000000000000e+00

0.000000000000000e+00 0.000000000000000e+00 0.000000000000000e+00
0.000000000000000e+00 0.000000000000000e+00 0.000000000000000e+00
0.000000000000000e+00 0.000000000000000e+00 0.000000000000000e+00

0.000000000000000e+00 0.000000000000000e+00 0.000000000000000e+00
0.000000000000000e+00 0.000000000000000e+00 0.000000000000000e+00
0.000000000000000e+00 0.000000000000000e+00 0.000000000000000e+00

0.000000000000000e+00 0.000000000000000e+00 0.000000000000000e+00
0.000000000000000e+00 0.000000000000000e+00 0.000000000000000e+00
0.000000000000000e+00 0.000000000000000e+00 0.000000000000000e+00

0.000000000000000e+00 0.000000000000000e+00 0.000000000000000e+00
0.000000000000000e+00 0.000000000000000e+00 0.000000000000000e+00
0.000000000000000e+00 0.000000000000000e+00 0.000000000000000e+00

0.000000000000000e+00 0.000000000000000e+00 0.000000000000000e+00
0.000000000000000e+00 0.000000000000000e+00 0.000000000000000e+00
0.000000000000000e+00 0.000000000000000e+00 0.000000000000000e+00

0.000000000000000e+00 0.000000000000000e+00 0.000000000000000e+00
0.000000000000000e+00 0.000000000000000e+00 0.000000000000000e+00
0.000000000000000e+00 0.000000000000000e+00 0.000000000000000e+00

0.000000000000000e+00 0.000000000000000e+00 0.000000000000000e+00
0.000000000000000e+00 0.000000000000000e+00 0.000000000000000e+00
0.000000000000000e+00 0.000000000000000e+00 0.000000000000000e+00

0.000000000000000e+00 0.000000000000000e+00 0.000000000000000e+00
0.000000000000000e+00 0.000000000000000e+00 0.000000000000000e+00
0.000000000000000e+00 0.000000000000000e+00 0.000000000000000e+00

0.000000000000000e+00 0.000000000000000e+00 0.000000000000000e+00
0.000000000000000e+00 0.000000000000000e+00 0.000000000000000e+00
0.000000000000000e+00 0.000000000000000e+00 0.000000000000000e+00

0.000000000000000e+00 0.000000000000000e+00 0.000000000000000e+00
0.000000000000000e+00 0.000000000000000e+00 0.000000000000000e+00
0.000000000000000e+00 0.000000000000000e+00 0.000000000000000e+00

0.000000000000000e+00 0.000000000000000e+00 0.000000000000000e+00
0.000000000000000e+00 0.000000000000000e+00 0.000000000000000e+00
0.000000000000000e+00 0.000000000000000e+00 0.000000000000000e+00

0.000000000000000e+00 0.000000000000000e+00 0.000000000000000e+00
0.000000000000000e+00 0.000000000000000e+00 0.000000000000000e+00
0.000000000000000e+00 0.000000000000000e+00 0.000000000000000e+00

0.000000000000000e+00 0.000000000000000e+00 0.000000000000000e+00
0.000000000000000e+00 0.000000000000000e+00 0.000000000000000e+00
0.000000000000000e+00 0.000000000000000e+00 0.000000000000000e+00

0.000000000000000e+00 0.000000000000000e+00 0.000000000000000e+00
0.000000000000000e+00 0.000000000000000e+00 0.000000000000000e+00
0.000000000000000e+00 0.000000000000000e+00 0.000000000000000e+00

0.000000000000000e+00 0.000000000000000e+00 0.000000000000000e+00
0.000000000000000e+00 0.000000000000000e+00 0.000000000000000e+00
0.000000000000000e+00 0.000000000000000e+00 0.000000000000000e+00

0.000000000000000e+00 0.000000000000000e+00 0.000000000000000e+00
0.000000000000000e+00 0.000000000000000e+00 0.000000000000000e+00
0.000000000000000e+00 0.000000000000000e+00 0.000000000000000e+00

0.000000000000000e+00 0.000000000000000e+00 0.000000000000000e+00
0.000000000000000e+00 0.000000000000000e+00 0.000000000000000e+00
0.000000000000000e+00 0.000000000000000e+00 0.000000000000000e+00

0.000000000000000e+00 0.000000000000000e+00 0.000000000000000e+00
0.000000000000000e+00 0.000000000000000e+00 0.000000000000000e+00
0.000000000000000e+00 0.000000000000000e+00 0.000000000000000e+00

0.000000000000000e+00 0.000000000000000e+00 0.000000000000000e+00
0.000000000000000e+00 0.000000000000000e+00 0.000000000000000e+00
0.000000000000000e+00 0.000000000000000e+00 0.000000000000000e+00

0.000000000000000e+00 0.000000000000000e+00 0.000000000000000e+00
0.000000000000000e+00 0.000000000000000e+00 0.000000000000000e+00
0.000000000000000e+00 0.000000000000000e+00 0.000000000000000e+00

0.000000000000000e+00 0.000000000000000e+00 0.000000000000000e+00
0.000000000000000e+00 0.000000000000000e+00 0.000000000000000e+00
0.000000000000000e+00 0.000000000000000e+00 0.000000000000000e+00

0.000000000000000e+00 0.000000000000000e+00 0.000000000000000e+00
0.000000000000000e+00 0.000000000000000e+00 0.000000000000000e+00
0.000000000000000e+00 0.000000000000000e+00 0.000000000000000e+00

0.000000000000000e+00 0.000000000000000e+00 0.000000000000000e+00
0.000000000000000e+00 0.000000000000000e+00 0.000000000000000e+00
0.000000000000000e+00 0.000000000000000e+00 0.000000000000000e+00

0.000000000000000e+00 0.000000000000000e+00 0.000000000000000e+00
0.000000000000000e+00 0.000000000000000e+00 0.000000000000000e+00
0.000000000000000e+00 0.000000000000000e+00 0.000000000000000e+00

0.000000000000000e+00 0.000000000000000e+00 0.000000000000000e+00
0.000000000000000e+00 0.000000000000000e+00 0.000000000000000e+00
0.000000000000000e+00 0.000000000000000e+00 0.000000000000000e+00

0.000000000000000e+00 0.000000000000000e+00 0.000000000000000e+00
0.000000000000000e+00 0.000000000000000e+00 0.000000000000000e+00
0.000000000000000e+00 0.000000000000000e+00 0.000000000000000e+00

0.000000000000000e+00 0.000000000000000e+00 0.000000000000000e+00
0.000000000000000e+00 0.000000000000000e+00 0.000000000000000e+00
0.000000000000000e+00 0.000000000000000e+00 0.000000000000000e+00

0.000000000000000e+00 0.000000000000000e+00 0.000000000000000e+00
0.000000000000000e+00 0.000000000000000e+00 0.000000000000000e+00
0.000000000000000e+00 0.000000000000000e+00 0.000000000000000e+00

0.000000000000000e+00 0.000000000000000e+00 0.000000000000000e+00
0.000000000000000e+00 0.000000000000000e+00 0.000000000000000e+00
0.000000000000000e+00 0.000000000000000e+00 0.000000000000000e+00

0.000000000000000e+00 0.000000000000000e+00 0.000000000000000e+00
0.000000000000000e+00 0.000000000000000e+00 0.000000000000000e+00
0.000000000000000e+00 0.000000000000000e+00 0.000000000000000e+00

0.000000000000000e+00 0.000000000000000e+00 0.000000000000000e+00
0.000000000000000e+00 0.000000000000000e+00 0.000000000000000e+00
0.000000000000000e+00 0.000000000000000e+00 0.000000000000000e+00

0.000000000000000e+00 0.000000000000000e+00 0.000000000000000e+00
0.000000000000000e+00 0.000000000000000e+00 0.000000000000000e+00
0.000000000000000e+00 0.000000000000000e+00 0.000000000000000e+00

0.000000000000000e+00 0.000000000000000e+00 0.000000000000000e+00
0.000000000000000e+00 0.000000000000000e+00 0.000000000000000e+00
0.000000000000000e+00 0.000000000000000e+00 0.000000000000000e+00

0.000000000000000e+00 0.000000000000000e+00 0.000000000000000e+00
0.000000000000000e+00 0.000000000000000e+00 0.000000000000000e+00
0.000000000000000e+00 0.000000000000000e+00 0.000000000000000e+00

0.000000000000000e+00 0.000000000000000e+00 0.000000000000000e+00
0.000000000000000e+00 0.000000000000000e+00 0.000000000000000e+00
0.000000000000000e+00 0.000000000000000e+00 0.000000000000000e+00

0.000000000000000e+00 0.000000000000000e+00 0.000000000000000e+00
0.000000000000000e+00 0.000000000000000e+00 0.000000000000000e+00
0.000000000000000e+00 0.000000000000000e+00 0.000000000000000e+00

0.000000000000000e+00 0.000000000000000e+00 0.000000000000000e+00
0.000000000000000e+00 0.000000000000000e+00 0.000000000000000e+00
0.000000000000000e+00 0.000000000000000e+00 0.000000000000000e+00

0.000000000000000e+00 0.000000000000000e+00 0.000000000000000e+00
0.000000000000000e+00 0.000000000000000e+00 0.000000000000000e+00
0.000000000000000e+00 0.000000000000000e+00 0.000000000000000e+00

0.000000000000000e+00 0.000000000000000e+00 0.000000000000000e+00
0.000000000000000e+00 0.000000000000000e+00 0.000000000000000e+00
0.000000000000000e+00 0.000000000000000e+00 0.000000000000000e+00

0.000000000000000e+00 0.000000000000000e+00 0.000000000000000e+00
0.000000000000000e+00 0.000000000000000e+00 0.000000000000000e+00
0.000000000000000e+00 0.000000000000000e+00 0.000000000000000e+00

0.000000000000000e+00 0.000000000000000e+00 0.000000000000000e+00
0.000000000000000e+00 0.000000000000000e+00 0.000000000000000e+00
0.000000000000000e+00 0.000000000000000e+00 0.000000000000000e+00

0.000000000000000e+00 0.000000000000000e+00 0.000000000000000e+00
0.000000000000000e+00 0.000000000000000e+00 0.000000000000000e+00
0.000000000000000e+00 0.000000000000000e+00 0.000000000000000e+00

0.000000000000000e+00 0.000000000000000e+00 0.000000000000000e+00
0.000000000000000e+00 0.000000000000000e+00 0.000000000000000e+00
0.000000000000000e+00 0.000000000000000e+00 0.000000000000000e+00

0.000000000000000e+00 0.000000000000000e+00 0.000000000000000e+00
0.000000000000000e+00 0.000000000000000e+00 0.000000000000000e+00
0.000000000000000e+00 0.000000000000000e+00 0.000000000000000e+00

0.000000000000000e+00 0.000000000000000e+00 0.000000000000000e+00
0.000000000000000e+00 0.000000000000000e+00 0.000000000000000e+00
0.000000000000000e+00 0.000000000000000e+00 0.000000000000000e+00

0.000000000000000e+00 0.000000000000000e+00 0.000000000000000e+00
0.000000000000000e+00 0.000000000000000e+00 0.000000000000000e+00
0.000000000000000e+00 0.000000000000000e+00 0.000000000000000e+00

0.000000000000000e+00 0.000000000000000e+00 0.000000000000000e+00
0.000000000000000e+00 0.000000000000000e+00 0.000000000000000e+00
0.000000000000000e+00 0.000000000000000e+00 0.000000000000000e+00

0.000000000000000e+00 0.000000000000000e+00 0.000000000000000e+00
0.000000000000000e+00 0.000000000000000e+00 0.000000000000000e+00
0.000000000000000e+00 0.000000000000000e+00 0.000000000000000e+00

0.000000000000000e+00 0.000000000000000e+00 0.000000000000000e+00
0.000000000000000e+00 0.000000000000000e+00 0.000000000000000e+00
0.000000000000000e+00 0.000000000000000e+00 0.000000000000000e+00

0.000000000000000e+00 0.000000000000000e+00 0.000000000000000e+00
0.000000000000000e+00 0.000000000000000e+00 0.000000000000000e+00
0.000000000000000e+00 0.000000000000000e+00 0.000000000000000e+00

0.000000000000000e+00 0.000000000000000e+00 0.000000000000000e+00
0.000000000000000e+00 0.000000000000000e+00 0.000000000000000e+00
0.000000000000000e+00 0.000000000000000e+00 0.000000000000000e+00

0.000000000000000e+00 0.000000000000000e+00 0.000000000000000e+00
0.000000000000000e+00 0.000000000000000e+00 0.000000000000000e+00
0.000000000000000e+00 0.000000000000000e+00 0.000000000000000e+00

0.000000000000000e+00 0.000000000000000e+00 0.000000000000000e+00
0.000000000000000e+00 0.000000000000000e+00 0.000000000000000e+00
0.000000000000000e+00 0.000000000000000e+00 0.000000000000000e+00

0.000000000000000e+00 0.000000000000000e+00 0.000000000000000e+00
0.000000000000000e+00 0.000000000000000e+00 0.000000000000000e+00
0.000000000000000e+00 0.000000000000000e+00 0.000000000000000e+00

0.000000000000000e+00 0.000000000000000e+00 0.000000000000000e+00
0.000000000000000e+00 0.000000000000000e+00 0.000000000000000e+00
0.000000000000000e+00 0.000000000000000e+00 0.000000000000000e+00

0.000000000000000e+00 0.000000000000000e+00 0.000000000000000e+00
0.000000000000000e+00 0.000000000000000e+00 0.000000000000000e+00
0.000000000000000e+00 0.000000000000000e+00 0.000000000000000e+00

0.000000000000000e+00 0.000000000000000e+00 0.000000000000000e+00
0.000000000000000e+00 0.000000000000000e+00 0.000000000000000e+00
0.000000000000000e+00 0.000000000000000e+00 0.000000000000000e+00

0.000000000000000e+00 0.000000000000000e+00 0.000000000000000e+00
0.000000000000000e+00 0.000000000000000e+00 0.000000000000000e+00
0.000000000000000e+00 0.000000000000000e+00 0.000000000000000e+00

0.000000000000000e+00 0.000000000000000e+00 0.000000000000000e+00
0.000000000000000e+00 0.000000000000000e+00 0.000000000000000e+00
0.000000000000000e+00 0.000000000000000e+00 0.000000000000000e+00

0.000000000000000e+00 0.000000000000000e+00 0.000000000000000e+00
0.000000000000000e+00 0.000000000000000e+00 0.000000000000000e+00
0.000000000000000e+00 0.000000000000000e+00 0.000000000000000e+00

0.000000000000000e+00 0.000000000000000e+00 0.000000000000000e+00
0.000000000000000e+00 0.000000000000000e+00 0.000000000000000e+00
0.000000000000000e+00 0.000000000000000e+00 0.000000000000000e+00

0.000000000000000e+00 0.000000000000000e+00 0.000000000000000e+00
0.000000000000000e+00 0.000000000000000e+00 0.000000000000000e+00
0.000000000000000e+00 0.000000000000000e+00 0.000000000000000e+00

0.000000000000000e+00 0.000000000000000e+00 0.000000000000000e+00
0.000000000000000e+00 0.000000000000000e+00 0.000000000000000e+00
0.000000000000000e+00 0.000000000000000e+00 0.000000000000000e+00

0.000000000000000e+00 0.000000000000000e+00 0.000000000000000e+00
0.000000000000000e+00 0.000000000000000e+00 0.000000000000000e+00
0.000000000000000e+00 0.000000000000000e+00 0.000000000000000e+00

0.000000000000000e+00 0.000000000000000e+00 0.000000000000000e+00
0.000000000000000e+00 0.000000000000000e+00 0.000000000000000e+00
0.000000000000000e+00 0.000000000000000e+00 0.000000000000000e+00

0.000000000000000e+00 0.000000000000000e+00 0.000000000000000e+00
0.000000000000000e+00 0.000000000000000e+00 0.000000000000000e+00
0.000000000000000e+00 0.000000000000000e+00 0.000000000000000e+00

0.000000000000000e+00 0.000000000000000e+00 0.000000000000000e+00
0.000000000000000e+00 0.000000000000000e+00 0.000000000000000e+00
0.000000000000000e+00 0.000000000000000e+00 0.000000000000000e+00

0.000000000000000e+00 0.000000000000000e+00 0.000000000000000e+00
0.000000000000000e+00 0.000000000000000e+00 0.000000000000000e+00
0.000000000000000e+00 0.000000000000000e+00 0.000000000000000e+00

0.000000000000000e+00 0.000000000000000e+00 0.000000000000000e+00
0.000000000000000e+00 0.000000000000000e+00 0.000000000000000e+00
0.000000000000000e+00 0.000000000000000e+00 0.000000000000000e+00

0.000000000000000e+00 0.000000000000000e+00 0.000000000000000e+00
0.000000000000000e+00 0.000000000000000e+00 0.000000000000000e+00
0.000000000000000e+00 0.000000000000000e+00 0.000000000000000e+00

0.000000000000000e+00 0.000000000000000e+00 0.000000000000000e+00
0.000000000000000e+00 0.000000000000000e+00 0.000000000000000e+00
0.000000000000000e+00 0.000000000000000e+00 0.000000000000000e+00

0.000000000000000e+00 0.000000000000000e+00 0.000000000000000e+00
0.000000000000000e+00 0.000000000000000e+00 0.000000000000000e+00
0.000000000000000e+00 0.000000000000000e+00 0.000000000000000e+00

0.000000000000000e+00 0.000000000000000e+00 0.000000000000000e+00
0.000000000000000e+00 0.000000000000000e+00 0.000000000000000e+00
0.000000000000000e+00 0.000000000000000e+00 0.000000000000000e+00

0.000000000000000e+00 0.000000000000000e+00 0.000000000000000e+00
0.000000000000000e+00 0.000000000000000e+00 0.000000000000000e+00
0.000000000000000e+00 0.000000000000000e+00 0.000000000000000e+00

0.000000000000000e+00 0.000000000000000e+00 0.000000000000000e+00
0.000000000000000e+00 0.000000000000000e+00 0.000000000000000e+00
0.000000000000000e+00 0.000000000000000e+00 0.000000000000000e+00

0.000000000000000e+00 0.000000000000000e+00 0.000000000000000e+00
0.000000000000000e+00 0.000000000000000e+00 0.000000000000000e+00
0.000000000000000e+00 0.000000000000000e+00 0.000000000000000e+00

0.000000000000000e+00 0.000000000000000e+00 0.000000000000000e+00
0.000000000000000e+00 0.000000000000000e+00 0.000000000000000e+00
0.000000000000000e+00 0.000000000000000e+00 0.000000000000000e+00

0.000000000000000e+00 0.000000000000000e+00 0.000000000000000e+00
0.000000000000000e+00 0.000000000000000e+00 0.000000000000000e+00
0.000000000000000e+00 0.000000000000000e+00 0.000000000000000e+00

0.000000000000000e+00 0.000000000000000e+00 0.000000000000000e+00
0.000000000000000e+00 0.000000000000000e+00 0.000000000000000e+00
0.000000000000000e+00 0.000000000000000e+00 0.000000000000000e+00

0.000000000000000e+00 0.000000000000000e+00 0.000000000000000e+00
0.000000000000000e+00 0.000000000000000e+00 0.000000000000000e+00
0.000000000000000e+00 0.000000000000000e+00 0.000000000000000e+00

0.000000000000000e+00 0.000000000000000e+00 0.000000000000000e+00
0.000000000000000e+00 0.000000000000000e+00 0.000000000000000e+00
0.000000000000000e+00 0.000000000000000e+00 0.000000000000000e+00

0.000000000000000e+00 0.000000000000000e+00 0.000000000000000e+00
0.000000000000000e+00 0.000000000000000e+00 0.000000000000000e+00
0.000000000000000e+00 0.000000000000000e+00 0.000000000000000e+00

0.000000000000000e+00 0.000000000000000e+00 0.000000000000000e+00
0.000000000000000e+00 0.000000000000000e+00 0.000000000000000e+00
0.000000000000000e+00 0.000000000000000e+00 0.000000000000000e+00

0.000000000000000e+00 0.000000000000000e+00 0.000000000000000e+00
0.000000000000000e+00 0.000000000000000e+00 0.000000000000000e+00
0.000000000000000e+00 0.000000000000000e+00 0.000000000000000e+00

0.000000000000000e+00 0.000000000000000e+00 0.000000000000000e+00
0.000000000000000e+00 0.000000000000000e+00 0.000000000000000e+00
0.000000000000000e+00 0.000000000000000e+00 0.000000000000000e+00

0.000000000000000e+00 0.000000000000000e+00 0.000000000000000e+00
0.000000000000000e+00 0.000000000000000e+00 0.000000000000000e+00
0.000000000000000e+00 0.000000000000000e+00 0.000000000000000e+00

0.000000000000000e+00 0.000000000000000e+00 0.000000000000000e+00
0.000000000000000e+00 0.000000000000000e+00 0.000000000000000e+00
0.000000000000000e+00 0.000000000000000e+00 0.000000000000000e+00

0.000000000000000e+00 0.000000000000000e+00 0.000000000000000e+00
0.000000000000000e+00 0.000000000000000e+00 0.000000000000000e+00
0.000000000000000e+00 0.000000000000000e+00 0.000000000000000e+00

0.000000000000000e+00 0.000000000000000e+00 0.000000000000000e+00
0.000000000000000e+00 0.000000000000000e+00 0.000000000000000e+00
0.000000000000000e+00 0.000000000000000e+00 0.000000000000000e+00

0.000000000000000e+00 0.000000000000000e+00 0.000000000000000e+00
0.000000000000000e+00 0.000000000000000e+00 0.000000000000000e+00
0.000000000000000e+00 0.000000000000000e+00 0.000000000000000e+00

0.000000000000000e+00 0.000000000000000e+00 0.000000000000000e+00
0.000000000000000e+00 0.000000000000000e+00 0.000000000000000e+00
0.000000000000000e+00 0.000000000000000e+00 0.000000000000000e+00

0.000000000000000e+00 0.000000000000000e+00 0.000000000000000e+00
0.000000000000000e+00 0.000000000000000e+00 0.000000000000000e+00
0.000000000000000e+00 0.000000000000000e+00 0.000000000000000e+00

0.000000000000000e+00 0.000000000000000e+00 0.000000000000000e+00
0.000000000000000e+00 0.000000000000000e+00 0.000000000000000e+00
0.000000000000000e+00 0.000000000000000e+00 0.000000000000000e+00

0.000000000000000e+00 0.000000000000000e+00 0.000000000000000e+00
0.000000000000000e+00 0.000000000000000e+00 0.000000000000000e+00
0.000000000000000e+00 0.000000000000000e+00 0.000000000000000e+00

0.000000000000000e+00 0.000000000000000e+00 0.000000000000000e+00
0.000000000000000e+00 0.000000000000000e+00 0.000000000000000e+00
0.000000000000000e+00 0.000000000000000e+00 0.000000000000000e+00

0.000000000000000e+00 0.000000000000000e+00 0.000000000000000e+00
0.000000000000000e+00 0.000000000000000e+00 0.000000000000000e+00
0.000000000000000e+00 0.000000000000000e+00 0.000000000000000e+00

0.000000000000000e+00 0.000000000000000e+00 0.000000000000000e+00
0.000000000000000e+00 0.000000000000000e+00 0.000000000000000e+00
0.000000000000000e+00 0.000000000000000e+00 0.000000000000000e+00

0.000000000000000e+00 0.000000000000000e+00 0.000000000000000e+00
0.000000000000000e+00 0.000000000000000e+00 0.000000000000000e+00
0.000000000000000e+00 0.000000000000000e+00 0.000000000000000e+00

0.000000000000000e+00 0.000000000000000e+00 0.000000000000000e+00
0.000000000000000e+00 0.000000000000000e+00 0.000000000000000e+00
0.000000000000000e+00 0.000000000000000e+00 0.000000000000000e+00

0.000000000000000e+00 0.000000000000000e+00 0.000000000000000e+00
0.000000000000000e+00 0.000000000000000e+00 0.000000000000000e+00
0.000000000000000e+00 0.000000000000000e+00 0.000000000000000e+00

0.000000000000000e+00 0.000000000000000e+00 0.000000000000000e+00
0.000000000000000e+00 0.000000000000000e+00 0.000000000000000e+00
0.000000000000000e+00 0.000000000000000e+00 0.000000000000000e+00

0.000000000000000e+00 0.000000000000000e+00 0.000000000000000e+00
0.000000000000000e+00 0.000000000000000e+00 0.000000000000000e+00
0.000000000000000e+00 0.000000000000000e+00 0.000000000000000e+00

0.000000000000000e+00 0.000000000000000e+00 0.000000000000000e+00
0.000000000000000e+00 0.000000000000000e+00 0.000000000000000e+00
0.000000000000000e+00 0.000000000000000e+00 0.000000000000000e+00

0.000000000000000e+00 0.000000000000000e+00 0.000000000000000e+00
0.000000000000000e+00 0.000000000000000e+00 0.000000000000000e+00
0.000000000000000e+00 0.000000000000000e+00 0.000000000000000e+00

0.000000000000000e+00 0.000000000000000e+00 0.000000000000000e+00
0.000000000000000e+00 0.000000000000000e+00 0.000000000000000e+00
0.000000000000000e+00 0.000000000000000e+00 0.000000000000000e+00

0.000000000000000e+00 0.000000000000000e+00 0.000000000000000e+00
0.000000000000000e+00 0.000000000000000e+00 0.000000000000000e+00
0.000000000000000e+00 0.000000000000000e+00 0.000000000000000e+00

0.000000000000000e+00 0.000000000000000e+00 0.000000000000000e+00
0.000000000000000e+00 0.000000000000000e+00 0.000000000000000e+00
0.000000000000000e+00 0.000000000000000e+00 0.000000000000000e+00

0.000000000000000e+00 0.000000000000000e+00 0.000000000000000e+00
0.000000000000000e+00 0.000000000000000e+00 0.000000000000000e+00
0.000000000000000e+00 0.000000000000000e+00 0.000000000000000e+00

0.000000000000000e+00 0.000000000000000e+00 0.000000000000000e+00
0.000000000000000e+00 0.000000000000000e+00 0.000000000000000e+00
0.000000000000000e+00 0.000000000000000e+00 0.000000000000000e+00

0.000000000000000e+00 0.000000000000000e+00 0.000000000000000e+00
0.000000000000000e+00 0.000000000000000e+00 0.000000000000000e+00
0.000000000000000e+00 0.000000000000000e+00 0.000000000000000e+00

0.000000000000000e+00 0.000000000000000e+00 0.000000000000000e+00
0.000000000000000e+00 0.000000000000000e+00 0.000000000000000e+00
0.000000000000000e+00 0.000000000000000e+00 0.000000000000000e+00

0.000000000000000e+00 0.000000000000000e+00 0.000000000000000e+00
0.000000000000000e+00 0.000000000000000e+00 0.000000000000000e+00
0.000000000000000e+00 0.000000000000000e+00 0.000000000000000e+00

0.000000000000000e+00 0.000000000000000e+00 0.000000000000000e+00
0.000000000000000e+00 0.000000000000000e+00 0.000000000000000e+00
0.000000000000000e+00 0.000000000000000e+00 0.000000000000000e+00

0.000000000000000e+00 0.000000000000000e+00 0.000000000000000e+00
0.000000000000000e+00 0.000000000000000e+00 0.000000000000000e+00
0.000000000000000e+00 0.000000000000000e+00 0.000000000000000e+00

0.000000000000000e+00 0.000000000000000e+00 0.000000000000000e+00
0.000000000000000e+00 0.000000000000000e+00 0.000000000000000e+00
0.000000000000000e+00 0.000000000000000e+00 0.000000000000000e+00

0.000000000000000e+00 0.000000000000000e+00 0.000000000000000e+00
0.000000000000000e+00 0.000000000000000e+00 0.000000000000000e+00
0.000000000000000e+00 0.000000000000000e+00 0.000000000000000e+00

0.000000000000000e+00 0.000000000000000e+00 0.000000000000000e+00
0.000000000000000e+00 0.000000000000000e+00 0.000000000000000e+00
0.000000000000000e+00 0.000000000000000e+00 0.000000000000000e+00

0.000000000000000e+00 0.000000000000000e+00 0.000000000000000e+00
0.000000000000000e+00 0.000000000000000e+00 0.000000000000000e+00
0.000000000000000e+00 0.000000000000000e+00 0.000000000000000e+00

0.000000000000000e+00 0.000000000000000e+00 0.000000000000000e+00
0.000000000000000e+00 0.000000000000000e+00 0.000000000000000e+00
0.000000000000000e+00 0.000000000000000e+00 0.000000000000000e+00

0.000000000000000e+00 0.000000000000000e+00 0.000000000000000e+00
0.000000000000000e+00 0.000000000000000e+00 0.000000000000000e+00
0.000000000000000e+00 0.000000000000000e+00 0.000000000000000e+00

0.000000000000000e+00 0.000000000000000e+00 0.000000000000000e+00
0.000000000000000e+00 0.000000000000000e+00 0.000000000000000e+00
0.000000000000000e+00 0.000000000000000e+00 0.000000000000000e+00

0.000000000000000e+00 0.000000000000000e+00 0.000000000000000e+00
0.000000000000000e+00 0.000000000000000e+00 0.000000000000000e+00
0.000000000000000e+00 0.000000000000000e+00 0.000000000000000e+00

0.000000000000000e+00 0.000000000000000e+00 0.000000000000000e+00
0.000000000000000e+00 0.000000000000000e+00 0.000000000000000e+00
0.000000000000000e+00 0.000000000000000e+00 0.000000000000000e+00

0.000000000000000e+00 0.000000000000000e+00 0.000000000000000e+00
0.000000000000000e+00 0.000000000000000e+00 0.000000000000000e+00
0.000000000000000e+00 0.000000000000000e+00 0.000000000000000e+00

0.000000000000000e+00 0.000000000000000e+00 0.000000000000000e+00
0.000000000000000e+00 0.000000000000000e+00 0.000000000000000e+00
0.000000000000000e+00 0.000000000000000e+00 0.000000000000000e+00

0.000000000000000e+00 0.000000000000000e+00 0.000000000000000e+00
0.000000000000000e+00 0.000000000000000e+00 0.000000000000000e+00
0.000000000000000e+00 0.000000000000000e+00 0.000000000000000e+00

0.000000000000000e+00 0.000000000000000e+00 0.000000000000000e+00
0.000000000000000e+00 0.000000000000000e+00 0.000000000000000e+00
0.000000000000000e+00 0.000000000000000e+00 0.000000000000000e+00

0.000000000000000e+00 0.000000000000000e+00 0.000000000000000e+00
0.000000000000000e+00 0.000000000000000e+00 0.000000000000000e+00
0.000000000000000e+00 0.000000000000000e+00 0.000000000000000e+00

0.000000000000000e+00 0.000000000000000e+00 0.000000000000000e+00
0.000000000000000e+00 0.000000000000000e+00 0.000000000000000e+00
0.000000000000000e+00 0.000000000000000e+00 0.000000000000000e+00

0.000000000000000e+00 0.000000000000000e+00 0.000000000000000e+00
0.000000000000000e+00 0.000000000000000e+00 0.000000000000000e+00
0.000000000000000e+00 0.000000000000000e+00 0.000000000000000e+00

0.000000000000000e+00 0.000000000000000e+00 0.000000000000000e+00
0.000000000000000e+00 0.000000000000000e+00 0.000000000000000e+00
0.000000000000000e+00 0.000000000000000e+00 0.000000000000000e+00

0.000000000000000e+00 0.000000000000000e+00 0.000000000000000e+00
0.000000000000000e+00 0.000000000000000e+00 0.000000000000000e+00
0.000000000000000e+00 0.000000000000000e+00 0.000000000000000e+00

0.000000000000000e+00 0.000000000000000e+00 0.000000000000000e+00
0.000000000000000e+00 0.000000000000000e+00 0.000000000000000e+00
0.000000000000000e+00 0.000000000000000e+00 0.000000000000000e+00

0.000000000000000e+00 0.000000000000000e+00 0.000000000000000e+00
0.000000000000000e+00 0.000000000000000e+00 0.000000000000000e+00
0.000000000000000e+00 0.000000000000000e+00 0.000000000000000e+00

0.000000000000000e+00 0.000000000000000e+00 0.000000000000000e+00
0.000000000000000e+00 0.000000000000000e+00 0.000000000000000e+00
0.000000000000000e+00 0.000000000000000e+00 0.000000000000000e+00

0.000000000000000e+00 0.000000000000000e+00 0.000000000000000e+00
0.000000000000000e+00 0.000000000000000e+00 0.000000000000000e+00
0.000000000000000e+00 0.000000000000000e+00 0.000000000000000e+00

0.000000000000000e+00 0.000000000000000e+00 0.000000000000000e+00
0.000000000000000e+00 0.000000000000000e+00 0.000000000000000e+00
0.000000000000000e+00 0.000000000000000e+00 0.000000000000000e+00

0.000000000000000e+00 0.000000000000000e+00 0.000000000000000e+00
0.000000000000000e+00 0.000000000000000e+00 0.000000000000000e+00
0.000000000000000e+00 0.000000000000000e+00 0.000000000000000e+00

0.000000000000000e+00 0.000000000000000e+00 0.000000000000000e+00
0.000000000000000e+00 0.000000000000000e+00 0.000000000000000e+00
0.000000000000000e+00 0.000000000000000e+00 0.000000000000000e+00

0.000000000000000e+00 0.000000000000000e+00 0.000000000000000e+00
0.000000000000000e+00 0.000000000000000e+00 0.000000000000000e+00
0.000000000000000e+00 0.000000000000000e+00 0.000000000000000e+00

0.000000000000000e+00 0.000000000000000e+00 0.000000000000000e+00
0.000000000000000e+00 0.000000000000000e+00 0.000000000000000e+00
0.000000000000000e+00 0.000000000000000e+00 0.000000000000000e+00

0.000000000000000e+00 0.000000000000000e+00 0.000000000000000e+00
0.000000000000000e+00 0.000000000000000e+00 0.000000000000000e+00
0.000000000000000e+00 0.000000000000000e+00 0.000000000000000e+00

0.000000000000000e+00 0.000000000000000e+00 0.000000000000000e+00
0.000000000000000e+00 0.000000000000000e+00 0.000000000000000e+00
0.000000000000000e+00 0.000000000000000e+00 0.000000000000000e+00

0.000000000000000e+00 0.000000000000000e+00 0.000000000000000e+00
0.000000000000000e+00 0.000000000000000e+00 0.000000000000000e+00
0.000000000000000e+00 0.000000000000000e+00 0.000000000000000e+00

0.000000000000000e+00 0.000000000000000e+00 0.000000000000000e+00
0.000000000000000e+00 0.000000000000000e+00 0.000000000000000e+00
0.000000000000000e+00 0.000000000000000e+00 0.000000000000000e+00

0.000000000000000e+00 0.000000000000000e+00 0.000000000000000e+00
0.000000000000000e+00 0.000000000000000e+00 0.000000000000000e+00
0.000000000000000e+00 0.000000000000000e+00 0.000000000000000e+00

0.000000000000000e+00 0.000000000000000e+00 0.000000000000000e+00
0.000000000000000e+00 0.000000000000000e+00 0.000000000000000e+00
0.000000000000000e+00 0.000000000000000e+00 0.000000000000000e+00

0.000000000000000e+00 0.000000000000000e+00 0.000000000000000e+00
0.000000000000000e+00 0.000000000000000e+00 0.000000000000000e+00
0.000000000000000e+00 0.000000000000000e+00 0.000000000000000e+00

0.000000000000000e+00 0.000000000000000e+00 0.000000000000000e+00
0.000000000000000e+00 0.000000000000000e+00 0.000000000000000e+00
0.000000000000000e+00 0.000000000000000e+00 0.000000000000000e+00

0.000000000000000e+00 0.000000000000000e+00 0.000000000000000e+00
0.000000000000000e+00 0.000000000000000e+00 0.000000000000000e+00
0.000000000000000e+00 0.000000000000000e+00 0.000000000000000e+00

0.000000000000000e+00 0.000000000000000e+00 0.000000000000000e+00
0.000000000000000e+00 0.000000000000000e+00 0.000000000000000e+00
0.000000000000000e+00 0.000000000000000e+00 0.000000000000000e+00

0.000000000000000e+00 0.000000000000000e+00 0.000000000000000e+00
0.000000000000000e+00 0.000000000000000e+00 0.000000000000000e+00
0.000000000000000e+00 0.000000000000000e+00 0.000000000000000e+00

0.000000000000000e+00 0.000000000000000e+00 0.000000000000000e+00
0.000000000000000e+00 0.000000000000000e+00 0.000000000000000e+00
0.000000000000000e+00 0.000000000000000e+00 0.000000000000000e+00

0.000000000000000e+00 0.000000000000000e+00 0.000000000000000e+00
0.000000000000000e+00 0.000000000000000e+00 0.000000000000000e+00
0.000000000000000e+00 0.000000000000000e+00 0.000000000000000e+00

0.000000000000000e+00 0.000000000000000e+00 0.000000000000000e+00
0.000000000000000e+00 0.000000000000000e+00 0.000000000000000e+00
0.000000000000000e+00 0.000000000000000e+00 0.000000000000000e+00

0.000000000000000e+00 0.000000000000000e+00 0.000000000000000e+00
0.000000000000000e+00 0.000000000000000e+00 0.000000000000000e+00
0.000000000000000e+00 0.000000000000000e+00 0.000000000000000e+00

0.000000000000000e+00 0.000000000000000e+00 0.000000000000000e+00
0.000000000000000e+00 0.000000000000000e+00 0.000000000000000e+00
0.000000000000000e+00 0.000000000000000e+00 0.000000000000000e+00

0.000000000000000e+00 0.000000000000000e+00 0.000000000000000e+00
0.000000000000000e+00 0.000000000000000e+00 0.000000000000000e+00
0.000000000000000e+00 0.000000000000000e+00 0.000000000000000e+00

0.000000000000000e+00 0.000000000000000e+00 0.000000000000000e+00
0.000000000000000e+00 0.000000000000000e+00 0.000000000000000e+00
0.000000000000000e+00 0.000000000000000e+00 0.000000000000000e+00

0.000000000000000e+00 0.000000000000000e+00 0.000000000000000e+00
0.000000000000000e+00 0.000000000000000e+00 0.000000000000000e+00
0.000000000000000e+00 0.000000000000000e+00 0.000000000000000e+00

0.000000000000000e+00 0.000000000000000e+00 0.000000000000000e+00
0.000000000000000e+00 0.000000000000000e+00 0.000000000000000e+00
0.000000000000000e+00 0.000000000000000e+00 0.000000000000000e+00

0.000000000000000e+00 0.000000000000000e+00 0.000000000000000e+00
0.000000000000000e+00 0.000000000000000e+00 0.000000000000000e+00
0.000000000000000e+00 0.000000000000000e+00 0.000000000000000e+00

0.000000000000000e+00 0.000000000000000e+00 0.000000000000000e+00
0.000000000000000e+00 0.000000000000000e+00 0.000000000000000e+00
0.000000000000000e+00 0.000000000000000e+00 0.000000000000000e+00

0.000000000000000e+00 0.000000000000000e+00 0.000000000000000e+00
0.000000000000000e+00 0.000000000000000e+00 0.000000000000000e+00
0.000000000000000e+00 0.000000000000000e+00 0.000000000000000e+00

0.000000000000000e+00 0.000000000000000e+00 0.000000000000000e+00
0.000000000000000e+00 0.000000000000000e+00 0.000000000000000e+00
0.000000000000000e+00 0.000000000000000e+00 0.000000000000000e+00

0.000000000000000e+00 0.000000000000000e+00 0.000000000000000e+00
0.000000000000000e+00 0.000000000000000e+00 0.000000000000000e+00
0.000000000000000e+00 0.000000000000000e+00 0.000000000000000e+00

0.000000000000000e+00 0.000000000000000e+00 0.000000000000000e+00
0.000000000000000e+00 0.000000000000000e+00 0.000000000000000e+00
0.000000000000000e+00 0.000000000000000e+00 0.000000000000000e+00

0.000000000000000e+00 0.000000000000000e+00 0.000000000000000e+00
0.000000000000000e+00 0.000000000000000e+00 0.000000000000000e+00
0.000000000000000e+00 0.000000000000000e+00 0.000000000000000e+00

0.000000000000000e+00 0.000000000000000e+00 0.000000000000000e+00
0.000000000000000e+00 0.000000000000000e+00 0.000000000000000e+00
0.000000000000000e+00 0.000000000000000e+00 0.000000000000000e+00

0.000000000000000e+00 0.000000000000000e+00 0.000000000000000e+00
0.000000000000000e+00 0.000000000000000e+00 0.000000000000000e+00
0.000000000000000e+00 0.000000000000000e+00 0.000000000000000e+00

0.000000000000000e+00 0.000000000000000e+00 0.000000000000000e+00
0.000000000000000e+00 0.000000000000000e+00 0.000000000000000e+00
0.000000000000000e+00 0.000000000000000e+00 0.000000000000000e+00

0.000000000000000e+00 0.000000000000000e+00 0.000000000000000e+00
0.000000000000000e+00 0.000000000000000e+00 0.000000000000000e+00
0.000000000000000e+00 0.000000000000000e+00 0.000000000000000e+00

0.000000000000000e+00 0.000000000000000e+00 0.000000000000000e+00
0.000000000000000e+00 0.000000000000000e+00 0.000000000000000e+00
0.000000000000000e+00 0.000000000000000e+00 0.000000000000000e+00

0.000000000000000e+00 0.000000000000000e+00 0.000000000000000e+00
0.000000000000000e+00 0.000000000000000e+00 0.000000000000000e+00
0.000000000000000e+00 0.000000000000000e+00 0.000000000000000e+00

0.000000000000000e+00 0.000000000000000e+00 0.000000000000000e+00
0.000000000000000e+00 0.000000000000000e+00 0.000000000000000e+00
0.000000000000000e+00 0.000000000000000e+00 0.000000000000000e+00

0.000000000000000e+00 0.000000000000000e+00 0.000000000000000e+00
0.000000000000000e+00 0.000000000000000e+00 0.000000000000000e+00
0.000000000000000e+00 0.000000000000000e+00 0.000000000000000e+00

0.000000000000000e+00 0.000000000000000e+00 0.000000000000000e+00
0.000000000000000e+00 0.000000000000000e+00 0.000000000000000e+00
0.000000000000000e+00 0.000000000000000e+00 0.000000000000000e+00

0.000000000000000e+00 0.000000000000000e+00 0.000000000000000e+00
0.000000000000000e+00 0.000000000000000e+00 0.000000000000000e+00
0.000000000000000e+00 0.000000000000000e+00 0.000000000000000e+00

0.000000000000000e+00 0.000000000000000e+00 0.000000000000000e+00
0.000000000000000e+00 0.000000000000000e+00 0.000000000000000e+00
0.000000000000000e+00 0.000000000000000e+00 0.000000000000000e+00

0.000000000000000e+00 0.000000000000000e+00 0.000000000000000e+00
0.000000000000000e+00 0.000000000000000e+00 0.000000000000000e+00
0.000000000000000e+00 0.000000000000000e+00 0.000000000000000e+00

0.000000000000000e+00 0.000000000000000e+00 0.000000000000000e+00
0.000000000000000e+00 0.000000000000000e+00 0.000000000000000e+00
0.000000000000000e+00 0.000000000000000e+00 0.000000000000000e+00

0.000000000000000e+00 0.000000000000000e+00 0.000000000000000e+00
0.000000000000000e+00 0.000000000000000e+00 0.000000000000000e+00
0.000000000000000e+00 0.000000000000000e+00 0.000000000000000e+00

0.000000000000000e+00 0.000000000000000e+00 0.000000000000000e+00
0.000000000000000e+00 0.000000000000000e+00 0.000000000000000e+00
0.000000000000000e+00 0.000000000000000e+00 0.000000000000000e+00

0.000000000000000e+00 0.000000000000000e+00 0.000000000000000e+00
0.000000000000000e+00 0.000000000000000e+00 0.000000000000000e+00
0.000000000000000e+00 0.000000000000000e+00 0.000000000000000e+00

0.000000000000000e+00 0.000000000000000e+00 0.000000000000000e+00
0.000000000000000e+00 0.000000000000000e+00 0.000000000000000e+00
0.000000000000000e+00 0.000000000000000e+00 0.000000000000000e+00

0.000000000000000e+00 0.000000000000000e+00 0.000000000000000e+00
0.000000000000000e+00 0.000000000000000e+00 0.000000000000000e+00
0.000000000000000e+00 0.000000000000000e+00 0.000000000000000e+00

0.000000000000000e+00 0.000000000000000e+00 0.000000000000000e+00
0.000000000000000e+00 0.000000000000000e+00 0.000000000000000e+00
0.000000000000000e+00 0.000000000000000e+00 0.000000000000000e+00

0.000000000000000e+00 0.000000000000000e+00 0.000000000000000e+00
0.000000000000000e+00 0.000000000000000e+00 0.000000000000000e+00
0.000000000000000e+00 0.000000000000000e+00 0.000000000000000e+00

0.000000000000000e+00 0.000000000000000e+00 0.000000000000000e+00
0.000000000000000e+00 0.000000000000000e+00 0.000000000000000e+00
0.000000000000000e+00 0.000000000000000e+00 0.000000000000000e+00

0.000000000000000e+00 0.000000000000000e+00 0.000000000000000e+00
0.000000000000000e+00 0.000000000000000e+00 0.000000000000000e+00
0.000000000000000e+00 0.000000000000000e+00 0.000000000000000e+00

0.000000000000000e+00 0.000000000000000e+00 0.000000000000000e+00
0.000000000000000e+00 0.000000000000000e+00 0.000000000000000e+00
0.000000000000000e+00 0.000000000000000e+00 0.000000000000000e+00

0.000000000000000e+00 0.000000000000000e+00 0.000000000000000e+00
0.000000000000000e+00 0.000000000000000e+00 0.000000000000000e+00
0.000000000000000e+00 0.000000000000000e+00 0.000000000000000e+00

0.000000000000000e+00 0.000000000000000e+00 0.000000000000000e+00
0.000000000000000e+00 0.000000000000000e+00 0.000000000000000e+00
0.000000000000000e+00 0.000000000000000e+00 0.000000000000000e+00

0.000000000000000e+00 0.000000000000000e+00 0.000000000000000e+00
0.000000000000000e+00 0.000000000000000e+00 0.000000000000000e+00
0.000000000000000e+00 0.000000000000000e+00 0.000000000000000e+00

0.000000000000000e+00 0.000000000000000e+00 0.000000000000000e+00
0.000000000000000e+00 0.000000000000000e+00 0.000000000000000e+00
0.000000000000000e+00 0.000000000000000e+00 0.000000000000000e+00

0.000000000000000e+00 0.000000000000000e+00 0.000000000000000e+00
0.000000000000000e+00 0.000000000000000e+00 0.000000000000000e+00
0.000000000000000e+00 0.000000000000000e+00 0.000000000000000e+00

0.000000000000000e+00 0.000000000000000e+00 0.000000000000000e+00
0.000000000000000e+00 0.000000000000000e+00 0.000000000000000e+00
0.000000000000000e+00 0.000000000000000e+00 0.000000000000000e+00

0.000000000000000e+00 0.000000000000000e+00 0.000000000000000e+00
0.000000000000000e+00 0.000000000000000e+00 0.000000000000000e+00
0.000000000000000e+00 0.000000000000000e+00 0.000000000000000e+00

0.000000000000000e+00 0.000000000000000e+00 0.000000000000000e+00
0.000000000000000e+00 0.000000000000000e+00 0.000000000000000e+00
0.000000000000000e+00 0.000000000000000e+00 0.000000000000000e+00

0.000000000000000e+00 0.000000000000000e+00 0.000000000000000e+00
0.000000000000000e+00 0.000000000000000e+00 0.000000000000000e+00
0.000000000000000e+00 0.000000000000000e+00 0.000000000000000e+00

0.000000000000000e+00 0.000000000000000e+00 0.000000000000000e+00
0.000000000000000e+00 0.000000000000000e+00 0.000000000000000e+00
0.000000000000000e+00 0.000000000000000e+00 0.000000000000000e+00

0.000000000000000e+00 0.000000000000000e+00 0.000000000000000e+00
0.000000000000000e+00 0.000000000000000e+00 0.000000000000000e+00
0.000000000000000e+00 0.000000000000000e+00 0.000000000000000e+00

0.000000000000000e+00 0.000000000000000e+00 0.000000000000000e+00
0.000000000000000e+00 0.000000000000000e+00 0.000000000000000e+00
0.000000000000000e+00 0.000000000000000e+00 0.000000000000000e+00

0.000000000000000e+00 0.000000000000000e+00 0.000000000000000e+00
0.000000000000000e+00 0.000000000000000e+00 0.000000000000000e+00
0.000000000000000e+00 0.000000000000000e+00 0.000000000000000e+00

0.000000000000000e+00 0.000000000000000e+00 0.000000000000000e+00
0.000000000000000e+00 0.000000000000000e+00 0.000000000000000e+00
0.000000000000000e+00 0.000000000000000e+00 0.000000000000000e+00

0.000000000000000e+00 0.000000000000000e+00 0.000000000000000e+00
0.000000000000000e+00 0.000000000000000e+00 0.000000000000000e+00
0.000000000000000e+00 0.000000000000000e+00 0.000000000000000e+00

0.000000000000000e+00 0.000000000000000e+00 0.000000000000000e+00
0.000000000000000e+00 0.000000000000000e+00 0.000000000000000e+00
0.000000000000000e+00 0.000000000000000e+00 0.000000000000000e+00

0.000000000000000e+00 0.000000000000000e+00 0.000000000000000e+00
0.000000000000000e+00 0.000000000000000e+00 0.000000000000000e+00
0.000000000000000e+00 0.000000000000000e+00 0.000000000000000e+00

0.000000000000000e+00 0.000000000000000e+00 0.000000000000000e+00
0.000000000000000e+00 0.000000000000000e+00 0.000000000000000e+00
0.000000000000000e+00 0.000000000000000e+00 0.000000000000000e+00

0.000000000000000e+00 0.000000000000000e+00 0.000000000000000e+00
0.000000000000000e+00 0.000000000000000e+00 0.000000000000000e+00
0.000000000000000e+00 0.000000000000000e+00 0.000000000000000e+00

0.000000000000000e+00 0.000000000000000e+00 0.000000000000000e+00
0.000000000000000e+00 0.000000000000000e+00 0.000000000000000e+00
0.000000000000000e+00 0.000000000000000e+00 0.000000000000000e+00

0.000000000000000e+00 0.000000000000000e+00 0.000000000000000e+00
0.000000000000000e+00 0.000000000000000e+00 0.000000000000000e+00
0.000000000000000e+00 0.000000000000000e+00 0.000000000000000e+00

0.000000000000000e+00 0.000000000000000e+00 0.000000000000000e+00
0.000000000000000e+00 0.000000000000000e+00 0.000000000000000e+00
0.000000000000000e+00 0.000000000000000e+00 0.000000000000000e+00

0.000000000000000e+00 0.000000000000000e+00 0.000000000000000e+00
0.000000000000000e+00 0.000000000000000e+00 0.000000000000000e+00
0.000000000000000e+00 0.000000000000000e+00 0.000000000000000e+00

0.000000000000000e+00 0.000000000000000e+00 0.000000000000000e+00
0.000000000000000e+00 0.000000000000000e+00 0.000000000000000e+00
0.000000000000000e+00 0.000000000000000e+00 0.000000000000000e+00

0.000000000000000e+00 0.000000000000000e+00 0.000000000000000e+00
0.000000000000000e+00 0.000000000000000e+00 0.000000000000000e+00
0.000000000000000e+00 0.000000000000000e+00 0.000000000000000e+00

0.000000000000000e+00 0.000000000000000e+00 0.000000000000000e+00
0.000000000000000e+00 0.000000000000000e+00 0.000000000000000e+00
0.000000000000000e+00 0.000000000000000e+00 0.000000000000000e+00

0.000000000000000e+00 0.000000000000000e+00 0.000000000000000e+00
0.000000000000000e+00 0.000000000000000e+00 0.000000000000000e+00
0.000000000000000e+00 0.000000000000000e+00 0.000000000000000e+00

0.000000000000000e+00 0.000000000000000e+00 0.000000000000000e+00
0.000000000000000e+00 0.000000000000000e+00 0.000000000000000e+00
0.000000000000000e+00 0.000000000000000e+00 0.000000000000000e+00

0.000000000000000e+00 0.000000000000000e+00 0.000000000000000e+00
0.000000000000000e+00 0.000000000000000e+00 0.000000000000000e+00
0.000000000000000e+00 0.000000000000000e+00 0.000000000000000e+00

0.000000000000000e+00 0.000000000000000e+00 0.000000000000000e+00
0.000000000000000e+00 0.000000000000000e+00 0.000000000000000e+00
0.000000000000000e+00 0.000000000000000e+00 0.000000000000000e+00

0.000000000000000e+00 0.000000000000000e+00 0.000000000000000e+00
0.000000000000000e+00 0.000000000000000e+00 0.000000000000000e+00
0.000000000000000e+00 0.000000000000000e+00 0.000000000000000e+00

0.000000000000000e+00 0.000000000000000e+00 0.000000000000000e+00
0.000000000000000e+00 0.000000000000000e+00 0.000000000000000e+00
0.000000000000000e+00 0.000000000000000e+00 0.000000000000000e+00

0.000000000000000e+00 0.000000000000000e+00 0.000000000000000e+00
0.000000000000000e+00 0.000000000000000e+00 0.000000000000000e+00
0.000000000000000e+00 0.000000000000000e+00 0.000000000000000e+00

0.000000000000000e+00 0.000000000000000e+00 0.000000000000000e+00
0.000000000000000e+00 0.000000000000000e+00 0.000000000000000e+00
0.000000000000000e+00 0.000000000000000e+00 0.000000000000000e+00

0.000000000000000e+00 0.000000000000000e+00 0.000000000000000e+00
0.000000000000000e+00 0.000000000000000e+00 0.000000000000000e+00
0.000000000000000e+00 0.000000000000000e+00 0.000000000000000e+00

0.000000000000000e+00 0.000000000000000e+00 0.000000000000000e+00
0.000000000000000e+00 0.000000000000000e+00 0.000000000000000e+00
0.000000000000000e+00 0.000000000000000e+00 0.000000000000000e+00

0.000000000000000e+00 0.000000000000000e+00 0.000000000000000e+00
0.000000000000000e+00 0.000000000000000e+00 0.000000000000000e+00
0.000000000000000e+00 0.000000000000000e+00 0.000000000000000e+00

0.000000000000000e+00 0.000000000000000e+00 0.000000000000000e+00
0.000000000000000e+00 0.000000000000000e+00 0.000000000000000e+00
0.000000000000000e+00 0.000000000000000e+00 0.000000000000000e+00

0.000000000000000e+00 0.000000000000000e+00 0.000000000000000e+00
0.000000000000000e+00 0.000000000000000e+00 0.000000000000000e+00
0.000000000000000e+00 0.000000000000000e+00 0.000000000000000e+00

0.000000000000000e+00 0.000000000000000e+00 0.000000000000000e+00
0.000000000000000e+00 0.000000000000000e+00 0.000000000000000e+00
0.000000000000000e+00 0.000000000000000e+00 0.000000000000000e+00

0.000000000000000e+00 0.000000000000000e+00 0.000000000000000e+00
0.000000000000000e+00 0.000000000000000e+00 0.000000000000000e+00
0.000000000000000e+00 0.000000000000000e+00 0.000000000000000e+00

0.000000000000000e+00 0.000000000000000e+00 0.000000000000000e+00
0.000000000000000e+00 0.000000000000000e+00 0.000000000000000e+00
0.000000000000000e+00 0.000000000000000e+00 0.000000000000000e+00

0.000000000000000e+00 0.000000000000000e+00 0.000000000000000e+00
0.000000000000000e+00 0.000000000000000e+00 0.000000000000000e+00
0.000000000000000e+00 0.000000000000000e+00 0.000000000000000e+00

0.000000000000000e+00 0.000000000000000e+00 0.000000000000000e+00
0.000000000000000e+00 0.000000000000000e+00 0.000000000000000e+00
0.000000000000000e+00 0.000000000000000e+00 0.000000000000000e+00

0.000000000000000e+00 0.000000000000000e+00 0.000000000000000e+00
0.000000000000000e+00 0.000000000000000e+00 0.000000000000000e+00
0.000000000000000e+00 0.000000000000000e+00 0.000000000000000e+00

0.000000000000000e+00 0.000000000000000e+00 0.000000000000000e+00
0.000000000000000e+00 0.000000000000000e+00 0.000000000000000e+00
0.000000000000000e+00 0.000000000000000e+00 0.000000000000000e+00

0.000000000000000e+00 0.000000000000000e+00 0.000000000000000e+00
0.000000000000000e+00 0.000000000000000e+00 0.000000000000000e+00
0.000000000000000e+00 0.000000000000000e+00 0.000000000000000e+00

0.000000000000000e+00 0.000000000000000e+00 0.000000000000000e+00
0.000000000000000e+00 0.000000000000000e+00 0.000000000000000e+00
0.000000000000000e+00 0.000000000000000e+00 0.000000000000000e+00

0.000000000000000e+00 0.000000000000000e+00 0.000000000000000e+00
0.000000000000000e+00 0.000000000000000e+00 0.000000000000000e+00
0.000000000000000e+00 0.000000000000000e+00 0.000000000000000e+00

0.000000000000000e+00 0.000000000000000e+00 0.000000000000000e+00
0.000000000000000e+00 0.000000000000000e+00 0.000000000000000e+00
0.000000000000000e+00 0.000000000000000e+00 0.000000000000000e+00

0.000000000000000e+00 0.000000000000000e+00 0.000000000000000e+00
0.000000000000000e+00 0.000000000000000e+00 0.000000000000000e+00
0.000000000000000e+00 0.000000000000000e+00 0.000000000000000e+00

0.000000000000000e+00 0.000000000000000e+00 0.000000000000000e+00
0.000000000000000e+00 0.000000000000000e+00 0.000000000000000e+00
0.000000000000000e+00 0.000000000000000e+00 0.000000000000000e+00

0.000000000000000e+00 0.000000000000000e+00 0.000000000000000e+00
0.000000000000000e+00 0.000000000000000e+00 0.000000000000000e+00
0.000000000000000e+00 0.000000000000000e+00 0.000000000000000e+00

0.000000000000000e+00 0.000000000000000e+00 0.000000000000000e+00
0.000000000000000e+00 0.000000000000000e+00 0.000000000000000e+00
0.000000000000000e+00 0.000000000000000e+00 0.000000000000000e+00

0.000000000000000e+00 0.000000000000000e+00 0.000000000000000e+00
0.000000000000000e+00 0.000000000000000e+00 0.000000000000000e+00
0.000000000000000e+00 0.000000000000000e+00 0.000000000000000e+00

0.000000000000000e+00 0.000000000000000e+00 0.000000000000000e+00
0.000000000000000e+00 0.000000000000000e+00 0.000000000000000e+00
0.000000000000000e+00 0.000000000000000e+00 0.000000000000000e+00

0.000000000000000e+00 0.000000000000000e+00 0.000000000000000e+00
0.000000000000000e+00 0.000000000000000e+00 0.000000000000000e+00
0.000000000000000e+00 0.000000000000000e+00 0.000000000000000e+00

0.000000000000000e+00 0.000000000000000e+00 0.000000000000000e+00
0.000000000000000e+00 0.000000000000000e+00 0.000000000000000e+00
0.000000000000000e+00 0.000000000000000e+00 0.000000000000000e+00

0.000000000000000e+00 0.000000000000000e+00 0.000000000000000e+00
0.000000000000000e+00 0.000000000000000e+00 0.000000000000000e+00
0.000000000000000e+00 0.000000000000000e+00 0.000000000000000e+00

0.000000000000000e+00 0.000000000000000e+00 0.000000000000000e+00
0.000000000000000e+00 0.000000000000000e+00 0.000000000000000e+00
0.000000000000000e+00 0.000000000000000e+00 0.000000000000000e+00

0.000000000000000e+00 0.000000000000000e+00 0.000000000000000e+00
0.000000000000000e+00 0.000000000000000e+00 0.000000000000000e+00
0.000000000000000e+00 0.000000000000000e+00 0.000000000000000e+00

0.000000000000000e+00 0.000000000000000e+00 0.000000000000000e+00
0.000000000000000e+00 0.000000000000000e+00 0.000000000000000e+00
0.000000000000000e+00 0.000000000000000e+00 0.000000000000000e+00

0.000000000000000e+00 0.000000000000000e+00 0.000000000000000e+00
0.000000000000000e+00 0.000000000000000e+00 0.000000000000000e+00
0.000000000000000e+00 0.000000000000000e+00 0.000000000000000e+00

0.000000000000000e+00 0.000000000000000e+00 0.000000000000000e+00
0.000000000000000e+00 0.000000000000000e+00 0.000000000000000e+00
0.000000000000000e+00 0.000000000000000e+00 0.000000000000000e+00

0.000000000000000e+00 0.000000000000000e+00 0.000000000000000e+00
0.000000000000000e+00 0.000000000000000e+00 0.000000000000000e+00
0.000000000000000e+00 0.000000000000000e+00 0.000000000000000e+00

0.000000000000000e+00 0.000000000000000e+00 0.000000000000000e+00
0.000000000000000e+00 0.000000000000000e+00 0.000000000000000e+00
0.000000000000000e+00 0.000000000000000e+00 0.000000000000000e+00

0.000000000000000e+00 0.000000000000000e+00 0.000000000000000e+00
0.000000000000000e+00 0.000000000000000e+00 0.000000000000000e+00
0.000000000000000e+00 0.000000000000000e+00 0.000000000000000e+00

0.000000000000000e+00 0.000000000000000e+00 0.000000000000000e+00
0.000000000000000e+00 0.000000000000000e+00 0.000000000000000e+00
0.000000000000000e+00 0.000000000000000e+00 0.000000000000000e+00

0.000000000000000e+00 0.000000000000000e+00 0.000000000000000e+00
0.000000000000000e+00 0.000000000000000e+00 0.000000000000000e+00
0.000000000000000e+00 0.000000000000000e+00 0.000000000000000e+00

0.000000000000000e+00 0.000000000000000e+00 0.000000000000000e+00
0.000000000000000e+00 0.000000000000000e+00 0.000000000000000e+00
0.000000000000000e+00 0.000000000000000e+00 0.000000000000000e+00

0.000000000000000e+00 0.000000000000000e+00 0.000000000000000e+00
0.000000000000000e+00 0.000000000000000e+00 0.000000000000000e+00
0.000000000000000e+00 0.000000000000000e+00 0.000000000000000e+00

0.000000000000000e+00 0.000000000000000e+00 0.000000000000000e+00
0.000000000000000e+00 0.000000000000000e+00 0.000000000000000e+00
0.000000000000000e+00 0.000000000000000e+00 0.000000000000000e+00

0.000000000000000e+00 0.000000000000000e+00 0.000000000000000e+00
0.000000000000000e+00 0.000000000000000e+00 0.000000000000000e+00
0.000000000000000e+00 0.000000000000000e+00 0.000000000000000e+00

0.000000000000000e+00 0.000000000000000e+00 0.000000000000000e+00
0.000000000000000e+00 0.000000000000000e+00 0.000000000000000e+00
0.000000000000000e+00 0.000000000000000e+00 0.000000000000000e+00

0.000000000000000e+00 0.000000000000000e+00 0.000000000000000e+00
0.000000000000000e+00 0.000000000000000e+00 0.000000000000000e+00
0.000000000000000e+00 0.000000000000000e+00 0.000000000000000e+00

0.000000000000000e+00 0.000000000000000e+00 0.000000000000000e+00
0.000000000000000e+00 0.000000000000000e+00 0.000000000000000e+00
0.000000000000000e+00 0.000000000000000e+00 0.000000000000000e+00

0.000000000000000e+00 0.000000000000000e+00 0.000000000000000e+00
0.000000000000000e+00 0.000000000000000e+00 0.000000000000000e+00
0.000000000000000e+00 0.000000000000000e+00 0.000000000000000e+00

0.000000000000000e+00 0.000000000000000e+00 0.000000000000000e+00
0.000000000000000e+00 0.000000000000000e+00 0.000000000000000e+00
0.000000000000000e+00 0.000000000000000e+00 0.000000000000000e+00

0.000000000000000e+00 0.000000000000000e+00 0.000000000000000e+00
0.000000000000000e+00 0.000000000000000e+00 0.000000000000000e+00
0.000000000000000e+00 0.000000000000000e+00 0.000000000000000e+00

0.000000000000000e+00 0.000000000000000e+00 0.000000000000000e+00
0.000000000000000e+00 0.000000000000000e+00 0.000000000000000e+00
0.000000000000000e+00 0.000000000000000e+00 0.000000000000000e+00

0.000000000000000e+00 0.000000000000000e+00 0.000000000000000e+00
0.000000000000000e+00 0.000000000000000e+00 0.000000000000000e+00
0.000000000000000e+00 0.000000000000000e+00 0.000000000000000e+00

0.000000000000000e+00 0.000000000000000e+00 0.000000000000000e+00
0.000000000000000e+00 0.000000000000000e+00 0.000000000000000e+00
0.000000000000000e+00 0.000000000000000e+00 0.000000000000000e+00

0.000000000000000e+00 0.000000000000000e+00 0.000000000000000e+00
0.000000000000000e+00 0.000000000000000e+00 0.000000000000000e+00
0.000000000000000e+00 0.000000000000000e+00 0.000000000000000e+00

0.000000000000000e+00 0.000000000000000e+00 0.000000000000000e+00
0.000000000000000e+00 0.000000000000000e+00 0.000000000000000e+00
0.000000000000000e+00 0.000000000000000e+00 0.000000000000000e+00

0.000000000000000e+00 0.000000000000000e+00 0.000000000000000e+00
0.000000000000000e+00 0.000000000000000e+00 0.000000000000000e+00
0.000000000000000e+00 0.000000000000000e+00 0.000000000000000e+00

0.000000000000000e+00 0.000000000000000e+00 0.000000000000000e+00
0.000000000000000e+00 0.000000000000000e+00 0.000000000000000e+00
0.000000000000000e+00 0.000000000000000e+00 0.000000000000000e+00

0.000000000000000e+00 0.000000000000000e+00 0.000000000000000e+00
0.000000000000000e+00 0.000000000000000e+00 0.000000000000000e+00
0.000000000000000e+00 0.000000000000000e+00 0.000000000000000e+00

0.000000000000000e+00 0.000000000000000e+00 0.000000000000000e+00
0.000000000000000e+00 0.000000000000000e+00 0.000000000000000e+00
0.000000000000000e+00 0.000000000000000e+00 0.000000000000000e+00

0.000000000000000e+00 0.000000000000000e+00 0.000000000000000e+00
0.000000000000000e+00 0.000000000000000e+00 0.000000000000000e+00
0.000000000000000e+00 0.000000000000000e+00 0.000000000000000e+00

0.000000000000000e+00 0.000000000000000e+00 0.000000000000000e+00
0.000000000000000e+00 0.000000000000000e+00 0.000000000000000e+00
0.000000000000000e+00 0.000000000000000e+00 0.000000000000000e+00

0.000000000000000e+00 0.000000000000000e+00 0.000000000000000e+00
0.000000000000000e+00 0.000000000000000e+00 0.000000000000000e+00
0.000000000000000e+00 0.000000000000000e+00 0.000000000000000e+00

0.000000000000000e+00 0.000000000000000e+00 0.000000000000000e+00
0.000000000000000e+00 0.000000000000000e+00 0.000000000000000e+00
0.000000000000000e+00 0.000000000000000e+00 0.000000000000000e+00

0.000000000000000e+00 0.000000000000000e+00 0.000000000000000e+00
0.000000000000000e+00 0.000000000000000e+00 0.000000000000000e+00
0.000000000000000e+00 0.000000000000000e+00 0.000000000000000e+00

0.000000000000000e+00 0.000000000000000e+00 0.000000000000000e+00
0.000000000000000e+00 0.000000000000000e+00 0.000000000000000e+00
0.000000000000000e+00 0.000000000000000e+00 0.000000000000000e+00

0.000000000000000e+00 0.000000000000000e+00 0.000000000000000e+00
0.000000000000000e+00 0.000000000000000e+00 0.000000000000000e+00
0.000000000000000e+00 0.000000000000000e+00 0.000000000000000e+00

0.000000000000000e+00 0.000000000000000e+00 0.000000000000000e+00
0.000000000000000e+00 0.000000000000000e+00 0.000000000000000e+00
0.000000000000000e+00 0.000000000000000e+00 0.000000000000000e+00

0.000000000000000e+00 0.000000000000000e+00 0.000000000000000e+00
0.000000000000000e+00 0.000000000000000e+00 0.000000000000000e+00
0.000000000000000e+00 0.000000000000000e+00 0.000000000000000e+00

0.000000000000000e+00 0.000000000000000e+00 0.000000000000000e+00
0.000000000000000e+00 0.000000000000000e+00 0.000000000000000e+00
0.000000000000000e+00 0.000000000000000e+00 0.000000000000000e+00

0.000000000000000e+00 0.000000000000000e+00 0.000000000000000e+00
0.000000000000000e+00 0.000000000000000e+00 0.000000000000000e+00
0.000000000000000e+00 0.000000000000000e+00 0.000000000000000e+00

0.000000000000000e+00 0.000000000000000e+00 0.000000000000000e+00
0.000000000000000e+00 0.000000000000000e+00 0.000000000000000e+00
0.000000000000000e+00 0.000000000000000e+00 0.000000000000000e+00

0.000000000000000e+00 0.000000000000000e+00 0.000000000000000e+00
0.000000000000000e+00 0.000000000000000e+00 0.000000000000000e+00
0.000000000000000e+00 0.000000000000000e+00 0.000000000000000e+00

0.000000000000000e+00 0.000000000000000e+00 0.000000000000000e+00
0.000000000000000e+00 0.000000000000000e+00 0.000000000000000e+00
0.000000000000000e+00 0.000000000000000e+00 0.000000000000000e+00

0.000000000000000e+00 0.000000000000000e+00 0.000000000000000e+00
0.000000000000000e+00 0.000000000000000e+00 0.000000000000000e+00
0.000000000000000e+00 0.000000000000000e+00 0.000000000000000e+00

0.000000000000000e+00 0.000000000000000e+00 0.000000000000000e+00
0.000000000000000e+00 0.000000000000000e+00 0.000000000000000e+00
0.000000000000000e+00 0.000000000000000e+00 0.000000000000000e+00

0.000000000000000e+00 0.000000000000000e+00 0.000000000000000e+00
0.000000000000000e+00 0.000000000000000e+00 0.000000000000000e+00
0.000000000000000e+00 0.000000000000000e+00 0.000000000000000e+00

0.000000000000000e+00 0.000000000000000e+00 0.000000000000000e+00
0.000000000000000e+00 0.000000000000000e+00 0.000000000000000e+00
0.000000000000000e+00 0.000000000000000e+00 0.000000000000000e+00

0.000000000000000e+00 0.000000000000000e+00 0.000000000000000e+00
0.000000000000000e+00 0.000000000000000e+00 0.000000000000000e+00
0.000000000000000e+00 0.000000000000000e+00 0.000000000000000e+00

0.000000000000000e+00 0.000000000000000e+00 0.000000000000000e+00
0.000000000000000e+00 0.000000000000000e+00 0.000000000000000e+00
0.000000000000000e+00 0.000000000000000e+00 0.000000000000000e+00

0.000000000000000e+00 0.000000000000000e+00 0.000000000000000e+00
0.000000000000000e+00 0.000000000000000e+00 0.000000000000000e+00
0.000000000000000e+00 0.000000000000000e+00 0.000000000000000e+00

0.000000000000000e+00 0.000000000000000e+00 0.000000000000000e+00
0.000000000000000e+00 0.000000000000000e+00 0.000000000000000e+00
0.000000000000000e+00 0.000000000000000e+00 0.000000000000000e+00

0.000000000000000e+00 0.000000000000000e+00 0.000000000000000e+00
0.000000000000000e+00 0.000000000000000e+00 0.000000000000000e+00
0.000000000000000e+00 0.000000000000000e+00 0.000000000000000e+00

0.000000000000000e+00 0.000000000000000e+00 0.000000000000000e+00
0.000000000000000e+00 0.000000000000000e+00 0.000000000000000e+00
0.000000000000000e+00 0.000000000000000e+00 0.000000000000000e+00

0.000000000000000e+00 0.000000000000000e+00 0.000000000000000e+00
0.000000000000000e+00 0.000000000000000e+00 0.000000000000000e+00
0.000000000000000e+00 0.000000000000000e+00 0.000000000000000e+00

0.000000000000000e+00 0.000000000000000e+00 0.000000000000000e+00
0.000000000000000e+00 0.000000000000000e+00 0.000000000000000e+00
0.000000000000000e+00 0.000000000000000e+00 0.000000000000000e+00

0.000000000000000e+00 0.000000000000000e+00 0.000000000000000e+00
0.000000000000000e+00 0.000000000000000e+00 0.000000000000000e+00
0.000000000000000e+00 0.000000000000000e+00 0.000000000000000e+00

0.000000000000000e+00 0.000000000000000e+00 0.000000000000000e+00
0.000000000000000e+00 0.000000000000000e+00 0.000000000000000e+00
0.000000000000000e+00 0.000000000000000e+00 0.000000000000000e+00

0.000000000000000e+00 0.000000000000000e+00 0.000000000000000e+00
0.000000000000000e+00 0.000000000000000e+00 0.000000000000000e+00
0.000000000000000e+00 0.000000000000000e+00 0.000000000000000e+00

0.000000000000000e+00 0.000000000000000e+00 0.000000000000000e+00
0.000000000000000e+00 0.000000000000000e+00 0.000000000000000e+00
0.000000000000000e+00 0.000000000000000e+00 0.000000000000000e+00

0.000000000000000e+00 0.000000000000000e+00 0.000000000000000e+00
0.000000000000000e+00 0.000000000000000e+00 0.000000000000000e+00
0.000000000000000e+00 0.000000000000000e+00 0.000000000000000e+00

0.000000000000000e+00 0.000000000000000e+00 0.000000000000000e+00
0.000000000000000e+00 0.000000000000000e+00 0.000000000000000e+00
0.000000000000000e+00 0.000000000000000e+00 0.000000000000000e+00

0.000000000000000e+00 0.000000000000000e+00 0.000000000000000e+00
0.000000000000000e+00 0.000000000000000e+00 0.000000000000000e+00
0.000000000000000e+00 0.000000000000000e+00 0.000000000000000e+00

0.000000000000000e+00 0.000000000000000e+00 0.000000000000000e+00
0.000000000000000e+00 0.000000000000000e+00 0.000000000000000e+00
0.000000000000000e+00 0.000000000000000e+00 0.000000000000000e+00

0.000000000000000e+00 0.000000000000000e+00 0.000000000000000e+00
0.000000000000000e+00 0.000000000000000e+00 0.000000000000000e+00
0.000000000000000e+00 0.000000000000000e+00 0.000000000000000e+00

0.000000000000000e+00 0.000000000000000e+00 0.000000000000000e+00
0.000000000000000e+00 0.000000000000000e+00 0.000000000000000e+00
0.000000000000000e+00 0.000000000000000e+00 0.000000000000000e+00

0.000000000000000e+00 0.000000000000000e+00 0.000000000000000e+00
0.000000000000000e+00 0.000000000000000e+00 0.000000000000000e+00
0.000000000000000e+00 0.000000000000000e+00 0.000000000000000e+00

0.000000000000000e+00 0.000000000000000e+00 0.000000000000000e+00
0.000000000000000e+00 0.000000000000000e+00 0.000000000000000e+00
0.000000000000000e+00 0.000000000000000e+00 0.000000000000000e+00

0.000000000000000e+00 0.000000000000000e+00 0.000000000000000e+00
0.000000000000000e+00 0.000000000000000e+00 0.000000000000000e+00
0.000000000000000e+00 0.000000000000000e+00 0.000000000000000e+00

0.000000000000000e+00 0.000000000000000e+00 0.000000000000000e+00
0.000000000000000e+00 0.000000000000000e+00 0.000000000000000e+00
0.000000000000000e+00 0.000000000000000e+00 0.000000000000000e+00

0.000000000000000e+00 0.000000000000000e+00 0.000000000000000e+00
0.000000000000000e+00 0.000000000000000e+00 0.000000000000000e+00
0.000000000000000e+00 0.000000000000000e+00 0.000000000000000e+00

0.000000000000000e+00 0.000000000000000e+00 0.000000000000000e+00
0.000000000000000e+00 0.000000000000000e+00 0.000000000000000e+00
0.000000000000000e+00 0.000000000000000e+00 0.000000000000000e+00

0.000000000000000e+00 0.000000000000000e+00 0.000000000000000e+00
0.000000000000000e+00 0.000000000000000e+00 0.000000000000000e+00
0.000000000000000e+00 0.000000000000000e+00 0.000000000000000e+00

0.000000000000000e+00 0.000000000000000e+00 0.000000000000000e+00
0.000000000000000e+00 0.000000000000000e+00 0.000000000000000e+00
0.000000000000000e+00 0.000000000000000e+00 0.000000000000000e+00

0.000000000000000e+00 0.000000000000000e+00 0.000000000000000e+00
0.000000000000000e+00 0.000000000000000e+00 0.000000000000000e+00
0.000000000000000e+00 0.000000000000000e+00 0.000000000000000e+00

0.000000000000000e+00 0.000000000000000e+00 0.000000000000000e+00
0.000000000000000e+00 0.000000000000000e+00 0.000000000000000e+00
0.000000000000000e+00 0.000000000000000e+00 0.000000000000000e+00

0.000000000000000e+00 0.000000000000000e+00 0.000000000000000e+00
0.000000000000000e+00 0.000000000000000e+00 0.000000000000000e+00
0.000000000000000e+00 0.000000000000000e+00 0.000000000000000e+00

0.000000000000000e+00 0.000000000000000e+00 0.000000000000000e+00
0.000000000000000e+00 0.000000000000000e+00 0.000000000000000e+00
0.000000000000000e+00 0.000000000000000e+00 0.000000000000000e+00

0.000000000000000e+00 0.000000000000000e+00 0.000000000000000e+00
0.000000000000000e+00 0.000000000000000e+00 0.000000000000000e+00
0.000000000000000e+00 0.000000000000000e+00 0.000000000000000e+00

0.000000000000000e+00 0.000000000000000e+00 0.000000000000000e+00
0.000000000000000e+00 0.000000000000000e+00 0.000000000000000e+00
0.000000000000000e+00 0.000000000000000e+00 0.000000000000000e+00

0.000000000000000e+00 0.000000000000000e+00 0.000000000000000e+00
0.000000000000000e+00 0.000000000000000e+00 0.000000000000000e+00
0.000000000000000e+00 0.000000000000000e+00 0.000000000000000e+00

0.000000000000000e+00 0.000000000000000e+00 0.000000000000000e+00
0.000000000000000e+00 0.000000000000000e+00 0.000000000000000e+00
0.000000000000000e+00 0.000000000000000e+00 0.000000000000000e+00

0.000000000000000e+00 0.000000000000000e+00 0.000000000000000e+00
0.000000000000000e+00 0.000000000000000e+00 0.000000000000000e+00
0.000000000000000e+00 0.000000000000000e+00 0.000000000000000e+00

0.000000000000000e+00 0.000000000000000e+00 0.000000000000000e+00
0.000000000000000e+00 0.000000000000000e+00 0.000000000000000e+00
0.000000000000000e+00 0.000000000000000e+00 0.000000000000000e+00

0.000000000000000e+00 0.000000000000000e+00 0.000000000000000e+00
0.000000000000000e+00 0.000000000000000e+00 0.000000000000000e+00
0.000000000000000e+00 0.000000000000000e+00 0.000000000000000e+00

0.000000000000000e+00 0.000000000000000e+00 0.000000000000000e+00
0.000000000000000e+00 0.000000000000000e+00 0.000000000000000e+00
0.000000000000000e+00 0.000000000000000e+00 0.000000000000000e+00

0.000000000000000e+00 0.000000000000000e+00 0.000000000000000e+00
0.000000000000000e+00 0.000000000000000e+00 0.000000000000000e+00
0.000000000000000e+00 0.000000000000000e+00 0.000000000000000e+00

0.000000000000000e+00 0.000000000000000e+00 0.000000000000000e+00
0.000000000000000e+00 0.000000000000000e+00 0.000000000000000e+00
0.000000000000000e+00 0.000000000000000e+00 0.000000000000000e+00

0.000000000000000e+00 0.000000000000000e+00 0.000000000000000e+00
0.000000000000000e+00 0.000000000000000e+00 0.000000000000000e+00
0.000000000000000e+00 0.000000000000000e+00 0.000000000000000e+00

0.000000000000000e+00 0.000000000000000e+00 0.000000000000000e+00
0.000000000000000e+00 0.000000000000000e+00 0.000000000000000e+00
0.000000000000000e+00 0.000000000000000e+00 0.000000000000000e+00

0.000000000000000e+00 0.000000000000000e+00 0.000000000000000e+00
0.000000000000000e+00 0.000000000000000e+00 0.000000000000000e+00
0.000000000000000e+00 0.000000000000000e+00 0.000000000000000e+00

0.000000000000000e+00 0.000000000000000e+00 0.000000000000000e+00
0.000000000000000e+00 0.000000000000000e+00 0.000000000000000e+00
0.000000000000000e+00 0.000000000000000e+00 0.000000000000000e+00

0.000000000000000e+00 0.000000000000000e+00 0.000000000000000e+00
0.000000000000000e+00 0.000000000000000e+00 0.000000000000000e+00
0.000000000000000e+00 0.000000000000000e+00 0.000000000000000e+00

0.000000000000000e+00 0.000000000000000e+00 0.000000000000000e+00
0.000000000000000e+00 0.000000000000000e+00 0.000000000000000e+00
0.000000000000000e+00 0.000000000000000e+00 0.000000000000000e+00

0.000000000000000e+00 0.000000000000000e+00 0.000000000000000e+00
0.000000000000000e+00 0.000000000000000e+00 0.000000000000000e+00
0.000000000000000e+00 0.000000000000000e+00 0.000000000000000e+00

0.000000000000000e+00 0.000000000000000e+00 0.000000000000000e+00
0.000000000000000e+00 0.000000000000000e+00 0.000000000000000e+00
0.000000000000000e+00 0.000000000000000e+00 0.000000000000000e+00

0.000000000000000e+00 0.000000000000000e+00 0.000000000000000e+00
0.000000000000000e+00 0.000000000000000e+00 0.000000000000000e+00
0.000000000000000e+00 0.000000000000000e+00 0.000000000000000e+00

0.000000000000000e+00 0.000000000000000e+00 0.000000000000000e+00
0.000000000000000e+00 0.000000000000000e+00 0.000000000000000e+00
0.000000000000000e+00 0.000000000000000e+00 0.000000000000000e+00

0.000000000000000e+00 0.000000000000000e+00 0.000000000000000e+00
0.000000000000000e+00 0.000000000000000e+00 0.000000000000000e+00
0.000000000000000e+00 0.000000000000000e+00 0.000000000000000e+00

0.000000000000000e+00 0.000000000000000e+00 0.000000000000000e+00
0.000000000000000e+00 0.000000000000000e+00 0.000000000000000e+00
0.000000000000000e+00 0.000000000000000e+00 0.000000000000000e+00

0.000000000000000e+00 0.000000000000000e+00 0.000000000000000e+00
0.000000000000000e+00 0.000000000000000e+00 0.000000000000000e+00
0.000000000000000e+00 0.000000000000000e+00 0.000000000000000e+00

0.000000000000000e+00 0.000000000000000e+00 0.000000000000000e+00
0.000000000000000e+00 0.000000000000000e+00 0.000000000000000e+00
0.000000000000000e+00 0.000000000000000e+00 0.000000000000000e+00

0.000000000000000e+00 0.000000000000000e+00 0.000000000000000e+00
0.000000000000000e+00 0.000000000000000e+00 0.000000000000000e+00
0.000000000000000e+00 0.000000000000000e+00 0.000000000000000e+00

0.000000000000000e+00 0.000000000000000e+00 0.000000000000000e+00
0.000000000000000e+00 0.000000000000000e+00 0.000000000000000e+00
0.000000000000000e+00 0.000000000000000e+00 0.000000000000000e+00

0.000000000000000e+00 0.000000000000000e+00 0.000000000000000e+00
0.000000000000000e+00 0.000000000000000e+00 0.000000000000000e+00
0.000000000000000e+00 0.000000000000000e+00 0.000000000000000e+00

0.000000000000000e+00 0.000000000000000e+00 0.000000000000000e+00
0.000000000000000e+00 0.000000000000000e+00 0.000000000000000e+00
0.000000000000000e+00 0.000000000000000e+00 0.000000000000000e+00

0.000000000000000e+00 0.000000000000000e+00 0.000000000000000e+00
0.000000000000000e+00 0.000000000000000e+00 0.000000000000000e+00
0.000000000000000e+00 0.000000000000000e+00 0.000000000000000e+00

0.000000000000000e+00 0.000000000000000e+00 0.000000000000000e+00
0.000000000000000e+00 0.000000000000000e+00 0.000000000000000e+00
0.000000000000000e+00 0.000000000000000e+00 0.000000000000000e+00

0.000000000000000e+00 0.000000000000000e+00 0.000000000000000e+00
0.000000000000000e+00 0.000000000000000e+00 0.000000000000000e+00
0.000000000000000e+00 0.000000000000000e+00 0.000000000000000e+00

0.000000000000000e+00 0.000000000000000e+00 0.000000000000000e+00
0.000000000000000e+00 0.000000000000000e+00 0.000000000000000e+00
0.000000000000000e+00 0.000000000000000e+00 0.000000000000000e+00

0.000000000000000e+00 0.000000000000000e+00 0.000000000000000e+00
0.000000000000000e+00 0.000000000000000e+00 0.000000000000000e+00
0.000000000000000e+00 0.000000000000000e+00 0.000000000000000e+00

0.000000000000000e+00 0.000000000000000e+00 0.000000000000000e+00
0.000000000000000e+00 0.000000000000000e+00 0.000000000000000e+00
0.000000000000000e+00 0.000000000000000e+00 0.000000000000000e+00

0.000000000000000e+00 0.000000000000000e+00 0.000000000000000e+00
0.000000000000000e+00 0.000000000000000e+00 0.000000000000000e+00
0.000000000000000e+00 0.000000000000000e+00 0.000000000000000e+00

0.000000000000000e+00 0.000000000000000e+00 0.000000000000000e+00
0.000000000000000e+00 0.000000000000000e+00 0.000000000000000e+00
0.000000000000000e+00 0.000000000000000e+00 0.000000000000000e+00

0.000000000000000e+00 0.000000000000000e+00 0.000000000000000e+00
0.000000000000000e+00 0.000000000000000e+00 0.000000000000000e+00
0.000000000000000e+00 0.000000000000000e+00 0.000000000000000e+00

0.000000000000000e+00 0.000000000000000e+00 0.000000000000000e+00
0.000000000000000e+00 0.000000000000000e+00 0.000000000000000e+00
0.000000000000000e+00 0.000000000000000e+00 0.000000000000000e+00

0.000000000000000e+00 0.000000000000000e+00 0.000000000000000e+00
0.000000000000000e+00 0.000000000000000e+00 0.000000000000000e+00
0.000000000000000e+00 0.000000000000000e+00 0.000000000000000e+00

0.000000000000000e+00 0.000000000000000e+00 0.000000000000000e+00
0.000000000000000e+00 0.000000000000000e+00 0.000000000000000e+00
0.000000000000000e+00 0.000000000000000e+00 0.000000000000000e+00

0.000000000000000e+00 0.000000000000000e+00 0.000000000000000e+00
0.000000000000000e+00 0.000000000000000e+00 0.000000000000000e+00
0.000000000000000e+00 0.000000000000000e+00 0.000000000000000e+00

0.000000000000000e+00 0.000000000000000e+00 0.000000000000000e+00
0.000000000000000e+00 0.000000000000000e+00 0.000000000000000e+00
0.000000000000000e+00 0.000000000000000e+00 0.000000000000000e+00

0.000000000000000e+00 0.000000000000000e+00 0.000000000000000e+00
0.000000000000000e+00 0.000000000000000e+00 0.000000000000000e+00
0.000000000000000e+00 0.000000000000000e+00 0.000000000000000e+00

0.000000000000000e+00 0.000000000000000e+00 0.000000000000000e+00
0.000000000000000e+00 0.000000000000000e+00 0.000000000000000e+00
0.000000000000000e+00 0.000000000000000e+00 0.000000000000000e+00

0.000000000000000e+00 0.000000000000000e+00 0.000000000000000e+00
0.000000000000000e+00 0.000000000000000e+00 0.000000000000000e+00
0.000000000000000e+00 0.000000000000000e+00 0.000000000000000e+00

0.000000000000000e+00 0.000000000000000e+00 0.000000000000000e+00
0.000000000000000e+00 0.000000000000000e+00 0.000000000000000e+00
0.000000000000000e+00 0.000000000000000e+00 0.000000000000000e+00

0.000000000000000e+00 0.000000000000000e+00 0.000000000000000e+00
0.000000000000000e+00 0.000000000000000e+00 0.000000000000000e+00
0.000000000000000e+00 0.000000000000000e+00 0.000000000000000e+00

0.000000000000000e+00 0.000000000000000e+00 0.000000000000000e+00
0.000000000000000e+00 0.000000000000000e+00 0.000000000000000e+00
0.000000000000000e+00 0.000000000000000e+00 0.000000000000000e+00

0.000000000000000e+00 0.000000000000000e+00 0.000000000000000e+00
0.000000000000000e+00 0.000000000000000e+00 0.000000000000000e+00
0.000000000000000e+00 0.000000000000000e+00 0.000000000000000e+00

0.000000000000000e+00 0.000000000000000e+00 0.000000000000000e+00
0.000000000000000e+00 0.000000000000000e+00 0.000000000000000e+00
0.000000000000000e+00 0.000000000000000e+00 0.000000000000000e+00

0.000000000000000e+00 0.000000000000000e+00 0.000000000000000e+00
0.000000000000000e+00 0.000000000000000e+00 0.000000000000000e+00
0.000000000000000e+00 0.000000000000000e+00 0.000000000000000e+00

0.000000000000000e+00 0.000000000000000e+00 0.000000000000000e+00
0.000000000000000e+00 0.000000000000000e+00 0.000000000000000e+00
0.000000000000000e+00 0.000000000000000e+00 0.000000000000000e+00

0.000000000000000e+00 0.000000000000000e+00 0.000000000000000e+00
0.000000000000000e+00 0.000000000000000e+00 0.000000000000000e+00
0.000000000000000e+00 0.000000000000000e+00 0.000000000000000e+00

0.000000000000000e+00 0.000000000000000e+00 0.000000000000000e+00
0.000000000000000e+00 0.000000000000000e+00 0.000000000000000e+00
0.000000000000000e+00 0.000000000000000e+00 0.000000000000000e+00

0.000000000000000e+00 0.000000000000000e+00 0.000000000000000e+00
0.000000000000000e+00 0.000000000000000e+00 0.000000000000000e+00
0.000000000000000e+00 0.000000000000000e+00 0.000000000000000e+00

0.000000000000000e+00 0.000000000000000e+00 0.000000000000000e+00
0.000000000000000e+00 0.000000000000000e+00 0.000000000000000e+00
0.000000000000000e+00 0.000000000000000e+00 0.000000000000000e+00

0.000000000000000e+00 0.000000000000000e+00 0.000000000000000e+00
0.000000000000000e+00 0.000000000000000e+00 0.000000000000000e+00
0.000000000000000e+00 0.000000000000000e+00 0.000000000000000e+00

0.000000000000000e+00 0.000000000000000e+00 0.000000000000000e+00
0.000000000000000e+00 0.000000000000000e+00 0.000000000000000e+00
0.000000000000000e+00 0.000000000000000e+00 0.000000000000000e+00

0.000000000000000e+00 0.000000000000000e+00 0.000000000000000e+00
0.000000000000000e+00 0.000000000000000e+00 0.000000000000000e+00
0.000000000000000e+00 0.000000000000000e+00 0.000000000000000e+00

0.000000000000000e+00 0.000000000000000e+00 0.000000000000000e+00
0.000000000000000e+00 0.000000000000000e+00 0.000000000000000e+00
0.000000000000000e+00 0.000000000000000e+00 0.000000000000000e+00

0.000000000000000e+00 0.000000000000000e+00 0.000000000000000e+00
0.000000000000000e+00 0.000000000000000e+00 0.000000000000000e+00
0.000000000000000e+00 0.000000000000000e+00 0.000000000000000e+00

0.000000000000000e+00 0.000000000000000e+00 0.000000000000000e+00
0.000000000000000e+00 0.000000000000000e+00 0.000000000000000e+00
0.000000000000000e+00 0.000000000000000e+00 0.000000000000000e+00

0.000000000000000e+00 0.000000000000000e+00 0.000000000000000e+00
0.000000000000000e+00 0.000000000000000e+00 0.000000000000000e+00
0.000000000000000e+00 0.000000000000000e+00 0.000000000000000e+00

0.000000000000000e+00 0.000000000000000e+00 0.000000000000000e+00
0.000000000000000e+00 0.000000000000000e+00 0.000000000000000e+00
0.000000000000000e+00 0.000000000000000e+00 0.000000000000000e+00

0.000000000000000e+00 0.000000000000000e+00 0.000000000000000e+00
0.000000000000000e+00 0.000000000000000e+00 0.000000000000000e+00
0.000000000000000e+00 0.000000000000000e+00 0.000000000000000e+00

0.000000000000000e+00 0.000000000000000e+00 0.000000000000000e+00
0.000000000000000e+00 0.000000000000000e+00 0.000000000000000e+00
0.000000000000000e+00 0.000000000000000e+00 0.000000000000000e+00

0.000000000000000e+00 0.000000000000000e+00 0.000000000000000e+00
0.000000000000000e+00 0.000000000000000e+00 0.000000000000000e+00
0.000000000000000e+00 0.000000000000000e+00 0.000000000000000e+00

0.000000000000000e+00 0.000000000000000e+00 0.000000000000000e+00
0.000000000000000e+00 0.000000000000000e+00 0.000000000000000e+00
0.000000000000000e+00 0.000000000000000e+00 0.000000000000000e+00

0.000000000000000e+00 0.000000000000000e+00 0.000000000000000e+00
0.000000000000000e+00 0.000000000000000e+00 0.000000000000000e+00
0.000000000000000e+00 0.000000000000000e+00 0.000000000000000e+00

0.000000000000000e+00 0.000000000000000e+00 0.000000000000000e+00
0.000000000000000e+00 0.000000000000000e+00 0.000000000000000e+00
0.000000000000000e+00 0.000000000000000e+00 0.000000000000000e+00

0.000000000000000e+00 0.000000000000000e+00 0.000000000000000e+00
0.000000000000000e+00 0.000000000000000e+00 0.000000000000000e+00
0.000000000000000e+00 0.000000000000000e+00 0.000000000000000e+00

0.000000000000000e+00 0.000000000000000e+00 0.000000000000000e+00
0.000000000000000e+00 0.000000000000000e+00 0.000000000000000e+00
0.000000000000000e+00 0.000000000000000e+00 0.000000000000000e+00

0.000000000000000e+00 0.000000000000000e+00 0.000000000000000e+00
0.000000000000000e+00 0.000000000000000e+00 0.000000000000000e+00
0.000000000000000e+00 0.000000000000000e+00 0.000000000000000e+00

0.000000000000000e+00 0.000000000000000e+00 0.000000000000000e+00
0.000000000000000e+00 0.000000000000000e+00 0.000000000000000e+00
0.000000000000000e+00 0.000000000000000e+00 0.000000000000000e+00

0.000000000000000e+00 0.000000000000000e+00 0.000000000000000e+00
0.000000000000000e+00 0.000000000000000e+00 0.000000000000000e+00
0.000000000000000e+00 0.000000000000000e+00 0.000000000000000e+00

0.000000000000000e+00 0.000000000000000e+00 0.000000000000000e+00
0.000000000000000e+00 0.000000000000000e+00 0.000000000000000e+00
0.000000000000000e+00 0.000000000000000e+00 0.000000000000000e+00

0.000000000000000e+00 0.000000000000000e+00 0.000000000000000e+00
0.000000000000000e+00 0.000000000000000e+00 0.000000000000000e+00
0.000000000000000e+00 0.000000000000000e+00 0.000000000000000e+00

0.000000000000000e+00 0.000000000000000e+00 0.000000000000000e+00
0.000000000000000e+00 0.000000000000000e+00 0.000000000000000e+00
0.000000000000000e+00 0.000000000000000e+00 0.000000000000000e+00

0.000000000000000e+00 0.000000000000000e+00 0.000000000000000e+00
0.000000000000000e+00 0.000000000000000e+00 0.000000000000000e+00
0.000000000000000e+00 0.000000000000000e+00 0.000000000000000e+00

0.000000000000000e+00 0.000000000000000e+00 0.000000000000000e+00
0.000000000000000e+00 0.000000000000000e+00 0.000000000000000e+00
0.000000000000000e+00 0.000000000000000e+00 0.000000000000000e+00

0.000000000000000e+00 0.000000000000000e+00 0.000000000000000e+00
0.000000000000000e+00 0.000000000000000e+00 0.000000000000000e+00
0.000000000000000e+00 0.000000000000000e+00 0.000000000000000e+00

0.000000000000000e+00 0.000000000000000e+00 0.000000000000000e+00
0.000000000000000e+00 0.000000000000000e+00 0.000000000000000e+00
0.000000000000000e+00 0.000000000000000e+00 0.000000000000000e+00

0.000000000000000e+00 0.000000000000000e+00 0.000000000000000e+00
0.000000000000000e+00 0.000000000000000e+00 0.000000000000000e+00
0.000000000000000e+00 0.000000000000000e+00 0.000000000000000e+00

0.000000000000000e+00 0.000000000000000e+00 0.000000000000000e+00
0.000000000000000e+00 0.000000000000000e+00 0.000000000000000e+00
0.000000000000000e+00 0.000000000000000e+00 0.000000000000000e+00

0.000000000000000e+00 0.000000000000000e+00 0.000000000000000e+00
0.000000000000000e+00 0.000000000000000e+00 0.000000000000000e+00
0.000000000000000e+00 0.000000000000000e+00 0.000000000000000e+00

0.000000000000000e+00 0.000000000000000e+00 0.000000000000000e+00
0.000000000000000e+00 0.000000000000000e+00 0.000000000000000e+00
0.000000000000000e+00 0.000000000000000e+00 0.000000000000000e+00

0.000000000000000e+00 0.000000000000000e+00 0.000000000000000e+00
0.000000000000000e+00 0.000000000000000e+00 0.000000000000000e+00
0.000000000000000e+00 0.000000000000000e+00 0.000000000000000e+00

0.000000000000000e+00 0.000000000000000e+00 0.000000000000000e+00
0.000000000000000e+00 0.000000000000000e+00 0.000000000000000e+00
0.000000000000000e+00 0.000000000000000e+00 0.000000000000000e+00

0.000000000000000e+00 0.000000000000000e+00 0.000000000000000e+00
0.000000000000000e+00 0.000000000000000e+00 0.000000000000000e+00
0.000000000000000e+00 0.000000000000000e+00 0.000000000000000e+00

0.000000000000000e+00 0.000000000000000e+00 0.000000000000000e+00
0.000000000000000e+00 0.000000000000000e+00 0.000000000000000e+00
0.000000000000000e+00 0.000000000000000e+00 0.000000000000000e+00

0.000000000000000e+00 0.000000000000000e+00 0.000000000000000e+00
0.000000000000000e+00 0.000000000000000e+00 0.000000000000000e+00
0.000000000000000e+00 0.000000000000000e+00 0.000000000000000e+00

0.000000000000000e+00 0.000000000000000e+00 0.000000000000000e+00
0.000000000000000e+00 0.000000000000000e+00 0.000000000000000e+00
0.000000000000000e+00 0.000000000000000e+00 0.000000000000000e+00

0.000000000000000e+00 0.000000000000000e+00 0.000000000000000e+00
0.000000000000000e+00 0.000000000000000e+00 0.000000000000000e+00
0.000000000000000e+00 0.000000000000000e+00 0.000000000000000e+00

0.000000000000000e+00 0.000000000000000e+00 0.000000000000000e+00
0.000000000000000e+00 0.000000000000000e+00 0.000000000000000e+00
0.000000000000000e+00 0.000000000000000e+00 0.000000000000000e+00

0.000000000000000e+00 0.000000000000000e+00 0.000000000000000e+00
0.000000000000000e+00 0.000000000000000e+00 0.000000000000000e+00
0.000000000000000e+00 0.000000000000000e+00 0.000000000000000e+00

0.000000000000000e+00 0.000000000000000e+00 0.000000000000000e+00
0.000000000000000e+00 0.000000000000000e+00 0.000000000000000e+00
0.000000000000000e+00 0.000000000000000e+00 0.000000000000000e+00

0.000000000000000e+00 0.000000000000000e+00 0.000000000000000e+00
0.000000000000000e+00 0.000000000000000e+00 0.000000000000000e+00
0.000000000000000e+00 0.000000000000000e+00 0.000000000000000e+00

0.000000000000000e+00 0.000000000000000e+00 0.000000000000000e+00
0.000000000000000e+00 0.000000000000000e+00 0.000000000000000e+00
0.000000000000000e+00 0.000000000000000e+00 0.000000000000000e+00

0.000000000000000e+00 0.000000000000000e+00 0.000000000000000e+00
0.000000000000000e+00 0.000000000000000e+00 0.000000000000000e+00
0.000000000000000e+00 0.000000000000000e+00 0.000000000000000e+00

0.000000000000000e+00 0.000000000000000e+00 0.000000000000000e+00
0.000000000000000e+00 0.000000000000000e+00 0.000000000000000e+00
0.000000000000000e+00 0.000000000000000e+00 0.000000000000000e+00

0.000000000000000e+00 0.000000000000000e+00 0.000000000000000e+00
0.000000000000000e+00 0.000000000000000e+00 0.000000000000000e+00
0.000000000000000e+00 0.000000000000000e+00 0.000000000000000e+00

0.000000000000000e+00 0.000000000000000e+00 0.000000000000000e+00
0.000000000000000e+00 0.000000000000000e+00 0.000000000000000e+00
0.000000000000000e+00 0.000000000000000e+00 0.000000000000000e+00

0.000000000000000e+00 0.000000000000000e+00 0.000000000000000e+00
0.000000000000000e+00 0.000000000000000e+00 0.000000000000000e+00
0.000000000000000e+00 0.000000000000000e+00 0.000000000000000e+00

0.000000000000000e+00 0.000000000000000e+00 0.000000000000000e+00
0.000000000000000e+00 0.000000000000000e+00 0.000000000000000e+00
0.000000000000000e+00 0.000000000000000e+00 0.000000000000000e+00

0.000000000000000e+00 0.000000000000000e+00 0.000000000000000e+00
0.000000000000000e+00 0.000000000000000e+00 0.000000000000000e+00
0.000000000000000e+00 0.000000000000000e+00 0.000000000000000e+00

0.000000000000000e+00 0.000000000000000e+00 0.000000000000000e+00
0.000000000000000e+00 0.000000000000000e+00 0.000000000000000e+00
0.000000000000000e+00 0.000000000000000e+00 0.000000000000000e+00

0.000000000000000e+00 0.000000000000000e+00 0.000000000000000e+00
0.000000000000000e+00 0.000000000000000e+00 0.000000000000000e+00
0.000000000000000e+00 0.000000000000000e+00 0.000000000000000e+00

0.000000000000000e+00 0.000000000000000e+00 0.000000000000000e+00
0.000000000000000e+00 0.000000000000000e+00 0.000000000000000e+00
0.000000000000000e+00 0.000000000000000e+00 0.000000000000000e+00

0.000000000000000e+00 0.000000000000000e+00 0.000000000000000e+00
0.000000000000000e+00 0.000000000000000e+00 0.000000000000000e+00
0.000000000000000e+00 0.000000000000000e+00 0.000000000000000e+00

0.000000000000000e+00 0.000000000000000e+00 0.000000000000000e+00
0.000000000000000e+00 0.000000000000000e+00 0.000000000000000e+00
0.000000000000000e+00 0.000000000000000e+00 0.000000000000000e+00

0.000000000000000e+00 0.000000000000000e+00 0.000000000000000e+00
0.000000000000000e+00 0.000000000000000e+00 0.000000000000000e+00
0.000000000000000e+00 0.000000000000000e+00 0.000000000000000e+00

0.000000000000000e+00 0.000000000000000e+00 0.000000000000000e+00
0.000000000000000e+00 0.000000000000000e+00 0.000000000000000e+00
0.000000000000000e+00 0.000000000000000e+00 0.000000000000000e+00

0.000000000000000e+00 0.000000000000000e+00 0.000000000000000e+00
0.000000000000000e+00 0.000000000000000e+00 0.000000000000000e+00
0.000000000000000e+00 0.000000000000000e+00 0.000000000000000e+00

0.000000000000000e+00 0.000000000000000e+00 0.000000000000000e+00
0.000000000000000e+00 0.000000000000000e+00 0.000000000000000e+00
0.000000000000000e+00 0.000000000000000e+00 0.000000000000000e+00

0.000000000000000e+00 0.000000000000000e+00 0.000000000000000e+00
0.000000000000000e+00 0.000000000000000e+00 0.000000000000000e+00
0.000000000000000e+00 0.000000000000000e+00 0.000000000000000e+00

0.000000000000000e+00 0.000000000000000e+00 0.000000000000000e+00
0.000000000000000e+00 0.000000000000000e+00 0.000000000000000e+00
0.000000000000000e+00 0.000000000000000e+00 0.000000000000000e+00

0.000000000000000e+00 0.000000000000000e+00 0.000000000000000e+00
0.000000000000000e+00 0.000000000000000e+00 0.000000000000000e+00
0.000000000000000e+00 0.000000000000000e+00 0.000000000000000e+00

0.000000000000000e+00 0.000000000000000e+00 0.000000000000000e+00
0.000000000000000e+00 0.000000000000000e+00 0.000000000000000e+00
0.000000000000000e+00 0.000000000000000e+00 0.000000000000000e+00

0.000000000000000e+00 0.000000000000000e+00 0.000000000000000e+00
0.000000000000000e+00 0.000000000000000e+00 0.000000000000000e+00
0.000000000000000e+00 0.000000000000000e+00 0.000000000000000e+00

0.000000000000000e+00 0.000000000000000e+00 0.000000000000000e+00
0.000000000000000e+00 0.000000000000000e+00 0.000000000000000e+00
0.000000000000000e+00 0.000000000000000e+00 0.000000000000000e+00

0.000000000000000e+00 0.000000000000000e+00 0.000000000000000e+00
0.000000000000000e+00 0.000000000000000e+00 0.000000000000000e+00
0.000000000000000e+00 0.000000000000000e+00 0.000000000000000e+00

0.000000000000000e+00 0.000000000000000e+00 0.000000000000000e+00
0.000000000000000e+00 0.000000000000000e+00 0.000000000000000e+00
0.000000000000000e+00 0.000000000000000e+00 0.000000000000000e+00

0.000000000000000e+00 0.000000000000000e+00 0.000000000000000e+00
0.000000000000000e+00 0.000000000000000e+00 0.000000000000000e+00
0.000000000000000e+00 0.000000000000000e+00 0.000000000000000e+00

0.000000000000000e+00 0.000000000000000e+00 0.000000000000000e+00
0.000000000000000e+00 0.000000000000000e+00 0.000000000000000e+00
0.000000000000000e+00 0.000000000000000e+00 0.000000000000000e+00

0.000000000000000e+00 0.000000000000000e+00 0.000000000000000e+00
0.000000000000000e+00 0.000000000000000e+00 0.000000000000000e+00
0.000000000000000e+00 0.000000000000000e+00 0.000000000000000e+00

0.000000000000000e+00 0.000000000000000e+00 0.000000000000000e+00
0.000000000000000e+00 0.000000000000000e+00 0.000000000000000e+00
0.000000000000000e+00 0.000000000000000e+00 0.000000000000000e+00

0.000000000000000e+00 0.000000000000000e+00 0.000000000000000e+00
0.000000000000000e+00 0.000000000000000e+00 0.000000000000000e+00
0.000000000000000e+00 0.000000000000000e+00 0.000000000000000e+00

0.000000000000000e+00 0.000000000000000e+00 0.000000000000000e+00
0.000000000000000e+00 0.000000000000000e+00 0.000000000000000e+00
0.000000000000000e+00 0.000000000000000e+00 0.000000000000000e+00

0.000000000000000e+00 0.000000000000000e+00 0.000000000000000e+00
0.000000000000000e+00 0.000000000000000e+00 0.000000000000000e+00
0.000000000000000e+00 0.000000000000000e+00 0.000000000000000e+00

0.000000000000000e+00 0.000000000000000e+00 0.000000000000000e+00
0.000000000000000e+00 0.000000000000000e+00 0.000000000000000e+00
0.000000000000000e+00 0.000000000000000e+00 0.000000000000000e+00

0.000000000000000e+00 0.000000000000000e+00 0.000000000000000e+00
0.000000000000000e+00 0.000000000000000e+00 0.000000000000000e+00
0.000000000000000e+00 0.000000000000000e+00 0.000000000000000e+00

0.000000000000000e+00 0.000000000000000e+00 0.000000000000000e+00
0.000000000000000e+00 0.000000000000000e+00 0.000000000000000e+00
0.000000000000000e+00 0.000000000000000e+00 0.000000000000000e+00

0.000000000000000e+00 0.000000000000000e+00 0.000000000000000e+00
0.000000000000000e+00 0.000000000000000e+00 0.000000000000000e+00
0.000000000000000e+00 0.000000000000000e+00 0.000000000000000e+00

0.000000000000000e+00 0.000000000000000e+00 0.000000000000000e+00
0.000000000000000e+00 0.000000000000000e+00 0.000000000000000e+00
0.000000000000000e+00 0.000000000000000e+00 0.000000000000000e+00

0.000000000000000e+00 0.000000000000000e+00 0.000000000000000e+00
0.000000000000000e+00 0.000000000000000e+00 0.000000000000000e+00
0.000000000000000e+00 0.000000000000000e+00 0.000000000000000e+00

0.000000000000000e+00 0.000000000000000e+00 0.000000000000000e+00
0.000000000000000e+00 0.000000000000000e+00 0.000000000000000e+00
0.000000000000000e+00 0.000000000000000e+00 0.000000000000000e+00

0.000000000000000e+00 0.000000000000000e+00 0.000000000000000e+00
0.000000000000000e+00 0.000000000000000e+00 0.000000000000000e+00
0.000000000000000e+00 0.000000000000000e+00 0.000000000000000e+00

0.000000000000000e+00 0.000000000000000e+00 0.000000000000000e+00
0.000000000000000e+00 0.000000000000000e+00 0.000000000000000e+00
0.000000000000000e+00 0.000000000000000e+00 0.000000000000000e+00

0.000000000000000e+00 0.000000000000000e+00 0.000000000000000e+00
0.000000000000000e+00 0.000000000000000e+00 0.000000000000000e+00
0.000000000000000e+00 0.000000000000000e+00 0.000000000000000e+00

0.000000000000000e+00 0.000000000000000e+00 0.000000000000000e+00
0.000000000000000e+00 0.000000000000000e+00 0.000000000000000e+00
0.000000000000000e+00 0.000000000000000e+00 0.000000000000000e+00

0.000000000000000e+00 0.000000000000000e+00 0.000000000000000e+00
0.000000000000000e+00 0.000000000000000e+00 0.000000000000000e+00
0.000000000000000e+00 0.000000000000000e+00 0.000000000000000e+00

0.000000000000000e+00 0.000000000000000e+00 0.000000000000000e+00
0.000000000000000e+00 0.000000000000000e+00 0.000000000000000e+00
0.000000000000000e+00 0.000000000000000e+00 0.000000000000000e+00

0.000000000000000e+00 0.000000000000000e+00 0.000000000000000e+00
0.000000000000000e+00 0.000000000000000e+00 0.000000000000000e+00
0.000000000000000e+00 0.000000000000000e+00 0.000000000000000e+00

0.000000000000000e+00 0.000000000000000e+00 0.000000000000000e+00
0.000000000000000e+00 0.000000000000000e+00 0.000000000000000e+00
0.000000000000000e+00 0.000000000000000e+00 0.000000000000000e+00

0.000000000000000e+00 0.000000000000000e+00 0.000000000000000e+00
0.000000000000000e+00 0.000000000000000e+00 0.000000000000000e+00
0.000000000000000e+00 0.000000000000000e+00 0.000000000000000e+00

0.000000000000000e+00 0.000000000000000e+00 0.000000000000000e+00
0.000000000000000e+00 0.000000000000000e+00 0.000000000000000e+00
0.000000000000000e+00 0.000000000000000e+00 0.000000000000000e+00

0.000000000000000e+00 0.000000000000000e+00 0.000000000000000e+00
0.000000000000000e+00 0.000000000000000e+00 0.000000000000000e+00
0.000000000000000e+00 0.000000000000000e+00 0.000000000000000e+00

0.000000000000000e+00 0.000000000000000e+00 0.000000000000000e+00
0.000000000000000e+00 0.000000000000000e+00 0.000000000000000e+00
0.000000000000000e+00 0.000000000000000e+00 0.000000000000000e+00

0.000000000000000e+00 0.000000000000000e+00 0.000000000000000e+00
0.000000000000000e+00 0.000000000000000e+00 0.000000000000000e+00
0.000000000000000e+00 0.000000000000000e+00 0.000000000000000e+00

0.000000000000000e+00 0.000000000000000e+00 0.000000000000000e+00
0.000000000000000e+00 0.000000000000000e+00 0.000000000000000e+00
0.000000000000000e+00 0.000000000000000e+00 0.000000000000000e+00

0.000000000000000e+00 0.000000000000000e+00 0.000000000000000e+00
0.000000000000000e+00 0.000000000000000e+00 0.000000000000000e+00
0.000000000000000e+00 0.000000000000000e+00 0.000000000000000e+00

0.000000000000000e+00 0.000000000000000e+00 0.000000000000000e+00
0.000000000000000e+00 0.000000000000000e+00 0.000000000000000e+00
0.000000000000000e+00 0.000000000000000e+00 0.000000000000000e+00

0.000000000000000e+00 0.000000000000000e+00 0.000000000000000e+00
0.000000000000000e+00 0.000000000000000e+00 0.000000000000000e+00
0.000000000000000e+00 0.000000000000000e+00 0.000000000000000e+00

0.000000000000000e+00 0.000000000000000e+00 0.000000000000000e+00
0.000000000000000e+00 0.000000000000000e+00 0.000000000000000e+00
0.000000000000000e+00 0.000000000000000e+00 0.000000000000000e+00

0.000000000000000e+00 0.000000000000000e+00 0.000000000000000e+00
0.000000000000000e+00 0.000000000000000e+00 0.000000000000000e+00
0.000000000000000e+00 0.000000000000000e+00 0.000000000000000e+00

0.000000000000000e+00 0.000000000000000e+00 0.000000000000000e+00
0.000000000000000e+00 0.000000000000000e+00 0.000000000000000e+00
0.000000000000000e+00 0.000000000000000e+00 0.000000000000000e+00

0.000000000000000e+00 0.000000000000000e+00 0.000000000000000e+00
0.000000000000000e+00 0.000000000000000e+00 0.000000000000000e+00
0.000000000000000e+00 0.000000000000000e+00 0.000000000000000e+00

0.000000000000000e+00 0.000000000000000e+00 0.000000000000000e+00
0.000000000000000e+00 0.000000000000000e+00 0.000000000000000e+00
0.000000000000000e+00 0.000000000000000e+00 0.000000000000000e+00

0.000000000000000e+00 0.000000000000000e+00 0.000000000000000e+00
0.000000000000000e+00 0.000000000000000e+00 0.000000000000000e+00
0.000000000000000e+00 0.000000000000000e+00 0.000000000000000e+00

0.000000000000000e+00 0.000000000000000e+00 0.000000000000000e+00
0.000000000000000e+00 0.000000000000000e+00 0.000000000000000e+00
0.000000000000000e+00 0.000000000000000e+00 0.000000000000000e+00

0.000000000000000e+00 0.000000000000000e+00 0.000000000000000e+00
0.000000000000000e+00 0.000000000000000e+00 0.000000000000000e+00
0.000000000000000e+00 0.000000000000000e+00 0.000000000000000e+00

0.000000000000000e+00 0.000000000000000e+00 0.000000000000000e+00
0.000000000000000e+00 0.000000000000000e+00 0.000000000000000e+00
0.000000000000000e+00 0.000000000000000e+00 0.000000000000000e+00

0.000000000000000e+00 0.000000000000000e+00 0.000000000000000e+00
0.000000000000000e+00 0.000000000000000e+00 0.000000000000000e+00
0.000000000000000e+00 0.000000000000000e+00 0.000000000000000e+00

0.000000000000000e+00 0.000000000000000e+00 0.000000000000000e+00
0.000000000000000e+00 0.000000000000000e+00 0.000000000000000e+00
0.000000000000000e+00 0.000000000000000e+00 0.000000000000000e+00

0.000000000000000e+00 0.000000000000000e+00 0.000000000000000e+00
0.000000000000000e+00 0.000000000000000e+00 0.000000000000000e+00
0.000000000000000e+00 0.000000000000000e+00 0.000000000000000e+00

0.000000000000000e+00 0.000000000000000e+00 0.000000000000000e+00
0.000000000000000e+00 0.000000000000000e+00 0.000000000000000e+00
0.000000000000000e+00 0.000000000000000e+00 0.000000000000000e+00

0.000000000000000e+00 0.000000000000000e+00 0.000000000000000e+00
0.000000000000000e+00 0.000000000000000e+00 0.000000000000000e+00
0.000000000000000e+00 0.000000000000000e+00 0.000000000000000e+00

0.000000000000000e+00 0.000000000000000e+00 0.000000000000000e+00
0.000000000000000e+00 0.000000000000000e+00 0.000000000000000e+00
0.000000000000000e+00 0.000000000000000e+00 0.000000000000000e+00

0.000000000000000e+00 0.000000000000000e+00 0.000000000000000e+00
0.000000000000000e+00 0.000000000000000e+00 0.000000000000000e+00
0.000000000000000e+00 0.000000000000000e+00 0.000000000000000e+00

0.000000000000000e+00 0.000000000000000e+00 0.000000000000000e+00
0.000000000000000e+00 0.000000000000000e+00 0.000000000000000e+00
0.000000000000000e+00 0.000000000000000e+00 0.000000000000000e+00

0.000000000000000e+00 0.000000000000000e+00 0.000000000000000e+00
0.000000000000000e+00 0.000000000000000e+00 0.000000000000000e+00
0.000000000000000e+00 0.000000000000000e+00 0.000000000000000e+00

0.000000000000000e+00 0.000000000000000e+00 0.000000000000000e+00
0.000000000000000e+00 0.000000000000000e+00 0.000000000000000e+00
0.000000000000000e+00 0.000000000000000e+00 0.000000000000000e+00

0.000000000000000e+00 0.000000000000000e+00 0.000000000000000e+00
0.000000000000000e+00 0.000000000000000e+00 0.000000000000000e+00
0.000000000000000e+00 0.000000000000000e+00 0.000000000000000e+00

0.000000000000000e+00 0.000000000000000e+00 0.000000000000000e+00
0.000000000000000e+00 0.000000000000000e+00 0.000000000000000e+00
0.000000000000000e+00 0.000000000000000e+00 0.000000000000000e+00

0.000000000000000e+00 0.000000000000000e+00 0.000000000000000e+00
0.000000000000000e+00 0.000000000000000e+00 0.000000000000000e+00
0.000000000000000e+00 0.000000000000000e+00 0.000000000000000e+00

0.000000000000000e+00 0.000000000000000e+00 0.000000000000000e+00
0.000000000000000e+00 0.000000000000000e+00 0.000000000000000e+00
0.000000000000000e+00 0.000000000000000e+00 0.000000000000000e+00

0.000000000000000e+00 0.000000000000000e+00 0.000000000000000e+00
0.000000000000000e+00 0.000000000000000e+00 0.000000000000000e+00
0.000000000000000e+00 0.000000000000000e+00 0.000000000000000e+00

0.000000000000000e+00 0.000000000000000e+00 0.000000000000000e+00
0.000000000000000e+00 0.000000000000000e+00 0.000000000000000e+00
0.000000000000000e+00 0.000000000000000e+00 0.000000000000000e+00

0.000000000000000e+00 0.000000000000000e+00 0.000000000000000e+00
0.000000000000000e+00 0.000000000000000e+00 0.000000000000000e+00
0.000000000000000e+00 0.000000000000000e+00 0.000000000000000e+00

0.000000000000000e+00 0.000000000000000e+00 0.000000000000000e+00
0.000000000000000e+00 0.000000000000000e+00 0.000000000000000e+00
0.000000000000000e+00 0.000000000000000e+00 0.000000000000000e+00

0.000000000000000e+00 0.000000000000000e+00 0.000000000000000e+00
0.000000000000000e+00 0.000000000000000e+00 0.000000000000000e+00
0.000000000000000e+00 0.000000000000000e+00 0.000000000000000e+00

0.000000000000000e+00 0.000000000000000e+00 0.000000000000000e+00
0.000000000000000e+00 0.000000000000000e+00 0.000000000000000e+00
0.000000000000000e+00 0.000000000000000e+00 0.000000000000000e+00

0.000000000000000e+00 0.000000000000000e+00 0.000000000000000e+00
0.000000000000000e+00 0.000000000000000e+00 0.000000000000000e+00
0.000000000000000e+00 0.000000000000000e+00 0.000000000000000e+00

0.000000000000000e+00 0.000000000000000e+00 0.000000000000000e+00
0.000000000000000e+00 0.000000000000000e+00 0.000000000000000e+00
0.000000000000000e+00 0.000000000000000e+00 0.000000000000000e+00

0.000000000000000e+00 0.000000000000000e+00 0.000000000000000e+00
0.000000000000000e+00 0.000000000000000e+00 0.000000000000000e+00
0.000000000000000e+00 0.000000000000000e+00 0.000000000000000e+00

0.000000000000000e+00 0.000000000000000e+00 0.000000000000000e+00
0.000000000000000e+00 0.000000000000000e+00 0.000000000000000e+00
0.000000000000000e+00 0.000000000000000e+00 0.000000000000000e+00

0.000000000000000e+00 0.000000000000000e+00 0.000000000000000e+00
0.000000000000000e+00 0.000000000000000e+00 0.000000000000000e+00
0.000000000000000e+00 0.000000000000000e+00 0.000000000000000e+00

0.000000000000000e+00 0.000000000000000e+00 0.000000000000000e+00
0.000000000000000e+00 0.000000000000000e+00 0.000000000000000e+00
0.000000000000000e+00 0.000000000000000e+00 0.000000000000000e+00

0.000000000000000e+00 0.000000000000000e+00 0.000000000000000e+00
0.000000000000000e+00 0.000000000000000e+00 0.000000000000000e+00
0.000000000000000e+00 0.000000000000000e+00 0.000000000000000e+00

0.000000000000000e+00 0.000000000000000e+00 0.000000000000000e+00
0.000000000000000e+00 0.000000000000000e+00 0.000000000000000e+00
0.000000000000000e+00 0.000000000000000e+00 0.000000000000000e+00

0.000000000000000e+00 0.000000000000000e+00 0.000000000000000e+00
0.000000000000000e+00 0.000000000000000e+00 0.000000000000000e+00
0.000000000000000e+00 0.000000000000000e+00 0.000000000000000e+00

0.000000000000000e+00 0.000000000000000e+00 0.000000000000000e+00
0.000000000000000e+00 0.000000000000000e+00 0.000000000000000e+00
0.000000000000000e+00 0.000000000000000e+00 0.000000000000000e+00

0.000000000000000e+00 0.000000000000000e+00 0.000000000000000e+00
0.000000000000000e+00 0.000000000000000e+00 0.000000000000000e+00
0.000000000000000e+00 0.000000000000000e+00 0.000000000000000e+00

0.000000000000000e+00 0.000000000000000e+00 0.000000000000000e+00
0.000000000000000e+00 0.000000000000000e+00 0.000000000000000e+00
0.000000000000000e+00 0.000000000000000e+00 0.000000000000000e+00

0.000000000000000e+00 0.000000000000000e+00 0.000000000000000e+00
0.000000000000000e+00 0.000000000000000e+00 0.000000000000000e+00
0.000000000000000e+00 0.000000000000000e+00 0.000000000000000e+00

0.000000000000000e+00 0.000000000000000e+00 0.000000000000000e+00
0.000000000000000e+00 0.000000000000000e+00 0.000000000000000e+00
0.000000000000000e+00 0.000000000000000e+00 0.000000000000000e+00

0.000000000000000e+00 0.000000000000000e+00 0.000000000000000e+00
0.000000000000000e+00 0.000000000000000e+00 0.000000000000000e+00
0.000000000000000e+00 0.000000000000000e+00 0.000000000000000e+00

0.000000000000000e+00 0.000000000000000e+00 0.000000000000000e+00
0.000000000000000e+00 0.000000000000000e+00 0.000000000000000e+00
0.000000000000000e+00 0.000000000000000e+00 0.000000000000000e+00

0.000000000000000e+00 0.000000000000000e+00 0.000000000000000e+00
0.000000000000000e+00 0.000000000000000e+00 0.000000000000000e+00
0.000000000000000e+00 0.000000000000000e+00 0.000000000000000e+00

0.000000000000000e+00 0.000000000000000e+00 0.000000000000000e+00
0.000000000000000e+00 0.000000000000000e+00 0.000000000000000e+00
0.000000000000000e+00 0.000000000000000e+00 0.000000000000000e+00

0.000000000000000e+00 0.000000000000000e+00 0.000000000000000e+00
0.000000000000000e+00 0.000000000000000e+00 0.000000000000000e+00
0.000000000000000e+00 0.000000000000000e+00 0.000000000000000e+00

0.000000000000000e+00 0.000000000000000e+00 0.000000000000000e+00
0.000000000000000e+00 0.000000000000000e+00 0.000000000000000e+00
0.000000000000000e+00 0.000000000000000e+00 0.000000000000000e+00

0.000000000000000e+00 0.000000000000000e+00 0.000000000000000e+00
0.000000000000000e+00 0.000000000000000e+00 0.000000000000000e+00
0.000000000000000e+00 0.000000000000000e+00 0.000000000000000e+00

0.000000000000000e+00 0.000000000000000e+00 0.000000000000000e+00
0.000000000000000e+00 0.000000000000000e+00 0.000000000000000e+00
0.000000000000000e+00 0.000000000000000e+00 0.000000000000000e+00

0.000000000000000e+00 0.000000000000000e+00 0.000000000000000e+00
0.000000000000000e+00 0.000000000000000e+00 0.000000000000000e+00
0.000000000000000e+00 0.000000000000000e+00 0.000000000000000e+00

0.000000000000000e+00 0.000000000000000e+00 0.000000000000000e+00
0.000000000000000e+00 0.000000000000000e+00 0.000000000000000e+00
0.000000000000000e+00 0.000000000000000e+00 0.000000000000000e+00

0.000000000000000e+00 0.000000000000000e+00 0.000000000000000e+00
0.000000000000000e+00 0.000000000000000e+00 0.000000000000000e+00
0.000000000000000e+00 0.000000000000000e+00 0.000000000000000e+00

0.000000000000000e+00 0.000000000000000e+00 0.000000000000000e+00
0.000000000000000e+00 0.000000000000000e+00 0.000000000000000e+00
0.000000000000000e+00 0.000000000000000e+00 0.000000000000000e+00

0.000000000000000e+00 0.000000000000000e+00 0.000000000000000e+00
0.000000000000000e+00 0.000000000000000e+00 0.000000000000000e+00
0.000000000000000e+00 0.000000000000000e+00 0.000000000000000e+00

0.000000000000000e+00 0.000000000000000e+00 0.000000000000000e+00
0.000000000000000e+00 0.000000000000000e+00 0.000000000000000e+00
0.000000000000000e+00 0.000000000000000e+00 0.000000000000000e+00

0.000000000000000e+00 0.000000000000000e+00 0.000000000000000e+00
0.000000000000000e+00 0.000000000000000e+00 0.000000000000000e+00
0.000000000000000e+00 0.000000000000000e+00 0.000000000000000e+00

0.000000000000000e+00 0.000000000000000e+00 0.000000000000000e+00
0.000000000000000e+00 0.000000000000000e+00 0.000000000000000e+00
0.000000000000000e+00 0.000000000000000e+00 0.000000000000000e+00

0.000000000000000e+00 0.000000000000000e+00 0.000000000000000e+00
0.000000000000000e+00 0.000000000000000e+00 0.000000000000000e+00
0.000000000000000e+00 0.000000000000000e+00 0.000000000000000e+00

0.000000000000000e+00 0.000000000000000e+00 0.000000000000000e+00
0.000000000000000e+00 0.000000000000000e+00 0.000000000000000e+00
0.000000000000000e+00 0.000000000000000e+00 0.000000000000000e+00

0.000000000000000e+00 0.000000000000000e+00 0.000000000000000e+00
0.000000000000000e+00 0.000000000000000e+00 0.000000000000000e+00
0.000000000000000e+00 0.000000000000000e+00 0.000000000000000e+00

0.000000000000000e+00 0.000000000000000e+00 0.000000000000000e+00
0.000000000000000e+00 0.000000000000000e+00 0.000000000000000e+00
0.000000000000000e+00 0.000000000000000e+00 0.000000000000000e+00

0.000000000000000e+00 0.000000000000000e+00 0.000000000000000e+00
0.000000000000000e+00 0.000000000000000e+00 0.000000000000000e+00
0.000000000000000e+00 0.000000000000000e+00 0.000000000000000e+00

0.000000000000000e+00 0.000000000000000e+00 0.000000000000000e+00
0.000000000000000e+00 0.000000000000000e+00 0.000000000000000e+00
0.000000000000000e+00 0.000000000000000e+00 0.000000000000000e+00

0.000000000000000e+00 0.000000000000000e+00 0.000000000000000e+00
0.000000000000000e+00 0.000000000000000e+00 0.000000000000000e+00
0.000000000000000e+00 0.000000000000000e+00 0.000000000000000e+00

0.000000000000000e+00 0.000000000000000e+00 0.000000000000000e+00
0.000000000000000e+00 0.000000000000000e+00 0.000000000000000e+00
0.000000000000000e+00 0.000000000000000e+00 0.000000000000000e+00

0.000000000000000e+00 0.000000000000000e+00 0.000000000000000e+00
0.000000000000000e+00 0.000000000000000e+00 0.000000000000000e+00
0.000000000000000e+00 0.000000000000000e+00 0.000000000000000e+00

0.000000000000000e+00 0.000000000000000e+00 0.000000000000000e+00
0.000000000000000e+00 0.000000000000000e+00 0.000000000000000e+00
0.000000000000000e+00 0.000000000000000e+00 0.000000000000000e+00

0.000000000000000e+00 0.000000000000000e+00 0.000000000000000e+00
0.000000000000000e+00 0.000000000000000e+00 0.000000000000000e+00
0.000000000000000e+00 0.000000000000000e+00 0.000000000000000e+00

0.000000000000000e+00 0.000000000000000e+00 0.000000000000000e+00
0.000000000000000e+00 0.000000000000000e+00 0.000000000000000e+00
0.000000000000000e+00 0.000000000000000e+00 0.000000000000000e+00

0.000000000000000e+00 0.000000000000000e+00 0.000000000000000e+00
0.000000000000000e+00 0.000000000000000e+00 0.000000000000000e+00
0.000000000000000e+00 0.000000000000000e+00 0.000000000000000e+00

0.000000000000000e+00 0.000000000000000e+00 0.000000000000000e+00
0.000000000000000e+00 0.000000000000000e+00 0.000000000000000e+00
0.000000000000000e+00 0.000000000000000e+00 0.000000000000000e+00

0.000000000000000e+00 0.000000000000000e+00 0.000000000000000e+00
0.000000000000000e+00 0.000000000000000e+00 0.000000000000000e+00
0.000000000000000e+00 0.000000000000000e+00 0.000000000000000e+00

0.000000000000000e+00 0.000000000000000e+00 0.000000000000000e+00
0.000000000000000e+00 0.000000000000000e+00 0.000000000000000e+00
0.000000000000000e+00 0.000000000000000e+00 0.000000000000000e+00

0.000000000000000e+00 0.000000000000000e+00 0.000000000000000e+00
0.000000000000000e+00 0.000000000000000e+00 0.000000000000000e+00
0.000000000000000e+00 0.000000000000000e+00 0.000000000000000e+00

0.000000000000000e+00 0.000000000000000e+00 0.000000000000000e+00
0.000000000000000e+00 0.000000000000000e+00 0.000000000000000e+00
0.000000000000000e+00 0.000000000000000e+00 0.000000000000000e+00

0.000000000000000e+00 0.000000000000000e+00 0.000000000000000e+00
0.000000000000000e+00 0.000000000000000e+00 0.000000000000000e+00
0.000000000000000e+00 0.000000000000000e+00 0.000000000000000e+00

0.000000000000000e+00 0.000000000000000e+00 0.000000000000000e+00
0.000000000000000e+00 0.000000000000000e+00 0.000000000000000e+00
0.000000000000000e+00 0.000000000000000e+00 0.000000000000000e+00

0.000000000000000e+00 0.000000000000000e+00 0.000000000000000e+00
0.000000000000000e+00 0.000000000000000e+00 0.000000000000000e+00
0.000000000000000e+00 0.000000000000000e+00 0.000000000000000e+00

0.000000000000000e+00 0.000000000000000e+00 0.000000000000000e+00
0.000000000000000e+00 0.000000000000000e+00 0.000000000000000e+00
0.000000000000000e+00 0.000000000000000e+00 0.000000000000000e+00

0.000000000000000e+00 0.000000000000000e+00 0.000000000000000e+00
0.000000000000000e+00 0.000000000000000e+00 0.000000000000000e+00
0.000000000000000e+00 0.000000000000000e+00 0.000000000000000e+00

0.000000000000000e+00 0.000000000000000e+00 0.000000000000000e+00
0.000000000000000e+00 0.000000000000000e+00 0.000000000000000e+00
0.000000000000000e+00 0.000000000000000e+00 0.000000000000000e+00

0.000000000000000e+00 0.000000000000000e+00 0.000000000000000e+00
0.000000000000000e+00 0.000000000000000e+00 0.000000000000000e+00
0.000000000000000e+00 0.000000000000000e+00 0.000000000000000e+00

0.000000000000000e+00 0.000000000000000e+00 0.000000000000000e+00
0.000000000000000e+00 0.000000000000000e+00 0.000000000000000e+00
0.000000000000000e+00 0.000000000000000e+00 0.000000000000000e+00

0.000000000000000e+00 0.000000000000000e+00 0.000000000000000e+00
0.000000000000000e+00 0.000000000000000e+00 0.000000000000000e+00
0.000000000000000e+00 0.000000000000000e+00 0.000000000000000e+00

0.000000000000000e+00 0.000000000000000e+00 0.000000000000000e+00
0.000000000000000e+00 0.000000000000000e+00 0.000000000000000e+00
0.000000000000000e+00 0.000000000000000e+00 0.000000000000000e+00

0.000000000000000e+00 0.000000000000000e+00 0.000000000000000e+00
0.000000000000000e+00 0.000000000000000e+00 0.000000000000000e+00
0.000000000000000e+00 0.000000000000000e+00 0.000000000000000e+00

0.000000000000000e+00 0.000000000000000e+00 0.000000000000000e+00
0.000000000000000e+00 0.000000000000000e+00 0.000000000000000e+00
0.000000000000000e+00 0.000000000000000e+00 0.000000000000000e+00

0.000000000000000e+00 0.000000000000000e+00 0.000000000000000e+00
0.000000000000000e+00 0.000000000000000e+00 0.000000000000000e+00
0.000000000000000e+00 0.000000000000000e+00 0.000000000000000e+00

0.000000000000000e+00 0.000000000000000e+00 0.000000000000000e+00
0.000000000000000e+00 0.000000000000000e+00 0.000000000000000e+00
0.000000000000000e+00 0.000000000000000e+00 0.000000000000000e+00

0.000000000000000e+00 0.000000000000000e+00 0.000000000000000e+00
0.000000000000000e+00 0.000000000000000e+00 0.000000000000000e+00
0.000000000000000e+00 0.000000000000000e+00 0.000000000000000e+00

0.000000000000000e+00 0.000000000000000e+00 0.000000000000000e+00
0.000000000000000e+00 0.000000000000000e+00 0.000000000000000e+00
0.000000000000000e+00 0.000000000000000e+00 0.000000000000000e+00

0.000000000000000e+00 0.000000000000000e+00 0.000000000000000e+00
0.000000000000000e+00 0.000000000000000e+00 0.000000000000000e+00
0.000000000000000e+00 0.000000000000000e+00 0.000000000000000e+00

0.000000000000000e+00 0.000000000000000e+00 0.000000000000000e+00
0.000000000000000e+00 0.000000000000000e+00 0.000000000000000e+00
0.000000000000000e+00 0.000000000000000e+00 0.000000000000000e+00

0.000000000000000e+00 0.000000000000000e+00 0.000000000000000e+00
0.000000000000000e+00 0.000000000000000e+00 0.000000000000000e+00
0.000000000000000e+00 0.000000000000000e+00 0.000000000000000e+00

0.000000000000000e+00 0.000000000000000e+00 0.000000000000000e+00
0.000000000000000e+00 0.000000000000000e+00 0.000000000000000e+00
0.000000000000000e+00 0.000000000000000e+00 0.000000000000000e+00

0.000000000000000e+00 0.000000000000000e+00 0.000000000000000e+00
0.000000000000000e+00 0.000000000000000e+00 0.000000000000000e+00
0.000000000000000e+00 0.000000000000000e+00 0.000000000000000e+00

0.000000000000000e+00 0.000000000000000e+00 0.000000000000000e+00
0.000000000000000e+00 0.000000000000000e+00 0.000000000000000e+00
0.000000000000000e+00 0.000000000000000e+00 0.000000000000000e+00

0.000000000000000e+00 0.000000000000000e+00 0.000000000000000e+00
0.000000000000000e+00 0.000000000000000e+00 0.000000000000000e+00
0.000000000000000e+00 0.000000000000000e+00 0.000000000000000e+00

0.000000000000000e+00 0.000000000000000e+00 0.000000000000000e+00
0.000000000000000e+00 0.000000000000000e+00 0.000000000000000e+00
0.000000000000000e+00 0.000000000000000e+00 0.000000000000000e+00

0.000000000000000e+00 0.000000000000000e+00 0.000000000000000e+00
0.000000000000000e+00 0.000000000000000e+00 0.000000000000000e+00
0.000000000000000e+00 0.000000000000000e+00 0.000000000000000e+00

0.000000000000000e+00 0.000000000000000e+00 0.000000000000000e+00
0.000000000000000e+00 0.000000000000000e+00 0.000000000000000e+00
0.000000000000000e+00 0.000000000000000e+00 0.000000000000000e+00

0.000000000000000e+00 0.000000000000000e+00 0.000000000000000e+00
0.000000000000000e+00 0.000000000000000e+00 0.000000000000000e+00
0.000000000000000e+00 0.000000000000000e+00 0.000000000000000e+00

0.000000000000000e+00 0.000000000000000e+00 0.000000000000000e+00
0.000000000000000e+00 0.000000000000000e+00 0.000000000000000e+00
0.000000000000000e+00 0.000000000000000e+00 0.000000000000000e+00

0.000000000000000e+00 0.000000000000000e+00 0.000000000000000e+00
0.000000000000000e+00 0.000000000000000e+00 0.000000000000000e+00
0.000000000000000e+00 0.000000000000000e+00 0.000000000000000e+00

0.000000000000000e+00 0.000000000000000e+00 0.000000000000000e+00
0.000000000000000e+00 0.000000000000000e+00 0.000000000000000e+00
0.000000000000000e+00 0.000000000000000e+00 0.000000000000000e+00

0.000000000000000e+00 0.000000000000000e+00 0.000000000000000e+00
0.000000000000000e+00 0.000000000000000e+00 0.000000000000000e+00
0.000000000000000e+00 0.000000000000000e+00 0.000000000000000e+00

0.000000000000000e+00 0.000000000000000e+00 0.000000000000000e+00
0.000000000000000e+00 0.000000000000000e+00 0.000000000000000e+00
0.000000000000000e+00 0.000000000000000e+00 0.000000000000000e+00

0.000000000000000e+00 0.000000000000000e+00 0.000000000000000e+00
0.000000000000000e+00 0.000000000000000e+00 0.000000000000000e+00
0.000000000000000e+00 0.000000000000000e+00 0.000000000000000e+00

0.000000000000000e+00 0.000000000000000e+00 0.000000000000000e+00
0.000000000000000e+00 0.000000000000000e+00 0.000000000000000e+00
0.000000000000000e+00 0.000000000000000e+00 0.000000000000000e+00

0.000000000000000e+00 0.000000000000000e+00 0.000000000000000e+00
0.000000000000000e+00 0.000000000000000e+00 0.000000000000000e+00
0.000000000000000e+00 0.000000000000000e+00 0.000000000000000e+00

0.000000000000000e+00 0.000000000000000e+00 0.000000000000000e+00
0.000000000000000e+00 0.000000000000000e+00 0.000000000000000e+00
0.000000000000000e+00 0.000000000000000e+00 0.000000000000000e+00

0.000000000000000e+00 0.000000000000000e+00 0.000000000000000e+00
0.000000000000000e+00 0.000000000000000e+00 0.000000000000000e+00
0.000000000000000e+00 0.000000000000000e+00 0.000000000000000e+00

0.000000000000000e+00 0.000000000000000e+00 0.000000000000000e+00
0.000000000000000e+00 0.000000000000000e+00 0.000000000000000e+00
0.000000000000000e+00 0.000000000000000e+00 0.000000000000000e+00

0.000000000000000e+00 0.000000000000000e+00 0.000000000000000e+00
0.000000000000000e+00 0.000000000000000e+00 0.000000000000000e+00
0.000000000000000e+00 0.000000000000000e+00 0.000000000000000e+00

0.000000000000000e+00 0.000000000000000e+00 0.000000000000000e+00
0.000000000000000e+00 0.000000000000000e+00 0.000000000000000e+00
0.000000000000000e+00 0.000000000000000e+00 0.000000000000000e+00

0.000000000000000e+00 0.000000000000000e+00 0.000000000000000e+00
0.000000000000000e+00 0.000000000000000e+00 0.000000000000000e+00
0.000000000000000e+00 0.000000000000000e+00 0.000000000000000e+00

0.000000000000000e+00 0.000000000000000e+00 0.000000000000000e+00
0.000000000000000e+00 0.000000000000000e+00 0.000000000000000e+00
0.000000000000000e+00 0.000000000000000e+00 0.000000000000000e+00

0.000000000000000e+00 0.000000000000000e+00 0.000000000000000e+00
0.000000000000000e+00 0.000000000000000e+00 0.000000000000000e+00
0.000000000000000e+00 0.000000000000000e+00 0.000000000000000e+00

0.000000000000000e+00 0.000000000000000e+00 0.000000000000000e+00
0.000000000000000e+00 0.000000000000000e+00 0.000000000000000e+00
0.000000000000000e+00 0.000000000000000e+00 0.000000000000000e+00

0.000000000000000e+00 0.000000000000000e+00 0.000000000000000e+00
0.000000000000000e+00 0.000000000000000e+00 0.000000000000000e+00
0.000000000000000e+00 0.000000000000000e+00 0.000000000000000e+00

0.000000000000000e+00 0.000000000000000e+00 0.000000000000000e+00
0.000000000000000e+00 0.000000000000000e+00 0.000000000000000e+00
0.000000000000000e+00 0.000000000000000e+00 0.000000000000000e+00

0.000000000000000e+00 0.000000000000000e+00 0.000000000000000e+00
0.000000000000000e+00 0.000000000000000e+00 0.000000000000000e+00
0.000000000000000e+00 0.000000000000000e+00 0.000000000000000e+00

0.000000000000000e+00 0.000000000000000e+00 0.000000000000000e+00
0.000000000000000e+00 0.000000000000000e+00 0.000000000000000e+00
0.000000000000000e+00 0.000000000000000e+00 0.000000000000000e+00

0.000000000000000e+00 0.000000000000000e+00 0.000000000000000e+00
0.000000000000000e+00 0.000000000000000e+00 0.000000000000000e+00
0.000000000000000e+00 0.000000000000000e+00 0.000000000000000e+00

0.000000000000000e+00 0.000000000000000e+00 0.000000000000000e+00
0.000000000000000e+00 0.000000000000000e+00 0.000000000000000e+00
0.000000000000000e+00 0.000000000000000e+00 0.000000000000000e+00

0.000000000000000e+00 0.000000000000000e+00 0.000000000000000e+00
0.000000000000000e+00 0.000000000000000e+00 0.000000000000000e+00
0.000000000000000e+00 0.000000000000000e+00 0.000000000000000e+00

0.000000000000000e+00 0.000000000000000e+00 0.000000000000000e+00
0.000000000000000e+00 0.000000000000000e+00 0.000000000000000e+00
0.000000000000000e+00 0.000000000000000e+00 0.000000000000000e+00

0.000000000000000e+00 0.000000000000000e+00 0.000000000000000e+00
0.000000000000000e+00 0.000000000000000e+00 0.000000000000000e+00
0.000000000000000e+00 0.000000000000000e+00 0.000000000000000e+00

0.000000000000000e+00 0.000000000000000e+00 0.000000000000000e+00
0.000000000000000e+00 0.000000000000000e+00 0.000000000000000e+00
0.000000000000000e+00 0.000000000000000e+00 0.000000000000000e+00

0.000000000000000e+00 0.000000000000000e+00 0.000000000000000e+00
0.000000000000000e+00 0.000000000000000e+00 0.000000000000000e+00
0.000000000000000e+00 0.000000000000000e+00 0.000000000000000e+00

0.000000000000000e+00 0.000000000000000e+00 0.000000000000000e+00
0.000000000000000e+00 0.000000000000000e+00 0.000000000000000e+00
0.000000000000000e+00 0.000000000000000e+00 0.000000000000000e+00

0.000000000000000e+00 0.000000000000000e+00 0.000000000000000e+00
0.000000000000000e+00 0.000000000000000e+00 0.000000000000000e+00
0.000000000000000e+00 0.000000000000000e+00 0.000000000000000e+00

0.000000000000000e+00 0.000000000000000e+00 0.000000000000000e+00
0.000000000000000e+00 0.000000000000000e+00 0.000000000000000e+00
0.000000000000000e+00 0.000000000000000e+00 0.000000000000000e+00

0.000000000000000e+00 0.000000000000000e+00 0.000000000000000e+00
0.000000000000000e+00 0.000000000000000e+00 0.000000000000000e+00
0.000000000000000e+00 0.000000000000000e+00 0.000000000000000e+00

0.000000000000000e+00 0.000000000000000e+00 0.000000000000000e+00
0.000000000000000e+00 0.000000000000000e+00 0.000000000000000e+00
0.000000000000000e+00 0.000000000000000e+00 0.000000000000000e+00

0.000000000000000e+00 0.000000000000000e+00 0.000000000000000e+00
0.000000000000000e+00 0.000000000000000e+00 0.000000000000000e+00
0.000000000000000e+00 0.000000000000000e+00 0.000000000000000e+00

0.000000000000000e+00 0.000000000000000e+00 0.000000000000000e+00
0.000000000000000e+00 0.000000000000000e+00 0.000000000000000e+00
0.000000000000000e+00 0.000000000000000e+00 0.000000000000000e+00

0.000000000000000e+00 0.000000000000000e+00 0.000000000000000e+00
0.000000000000000e+00 0.000000000000000e+00 0.000000000000000e+00
0.000000000000000e+00 0.000000000000000e+00 0.000000000000000e+00

0.000000000000000e+00 0.000000000000000e+00 0.000000000000000e+00
0.000000000000000e+00 0.000000000000000e+00 0.000000000000000e+00
0.000000000000000e+00 0.000000000000000e+00 0.000000000000000e+00

0.000000000000000e+00 0.000000000000000e+00 0.000000000000000e+00
0.000000000000000e+00 0.000000000000000e+00 0.000000000000000e+00
0.000000000000000e+00 0.000000000000000e+00 0.000000000000000e+00

0.000000000000000e+00 0.000000000000000e+00 0.000000000000000e+00
0.000000000000000e+00 0.000000000000000e+00 0.000000000000000e+00
0.000000000000000e+00 0.000000000000000e+00 0.000000000000000e+00

0.000000000000000e+00 0.000000000000000e+00 0.000000000000000e+00
0.000000000000000e+00 0.000000000000000e+00 0.000000000000000e+00
0.000000000000000e+00 0.000000000000000e+00 0.000000000000000e+00

0.000000000000000e+00 0.000000000000000e+00 0.000000000000000e+00
0.000000000000000e+00 0.000000000000000e+00 0.000000000000000e+00
0.000000000000000e+00 0.000000000000000e+00 0.000000000000000e+00

0.000000000000000e+00 0.000000000000000e+00 0.000000000000000e+00
0.000000000000000e+00 0.000000000000000e+00 0.000000000000000e+00
0.000000000000000e+00 0.000000000000000e+00 0.000000000000000e+00

0.000000000000000e+00 0.000000000000000e+00 0.000000000000000e+00
0.000000000000000e+00 0.000000000000000e+00 0.000000000000000e+00
0.000000000000000e+00 0.000000000000000e+00 0.000000000000000e+00

0.000000000000000e+00 0.000000000000000e+00 0.000000000000000e+00
0.000000000000000e+00 0.000000000000000e+00 0.000000000000000e+00
0.000000000000000e+00 0.000000000000000e+00 0.000000000000000e+00

0.000000000000000e+00 0.000000000000000e+00 0.000000000000000e+00
0.000000000000000e+00 0.000000000000000e+00 0.000000000000000e+00
0.000000000000000e+00 0.000000000000000e+00 0.000000000000000e+00

0.000000000000000e+00 0.000000000000000e+00 0.000000000000000e+00
0.000000000000000e+00 0.000000000000000e+00 0.000000000000000e+00
0.000000000000000e+00 0.000000000000000e+00 0.000000000000000e+00

0.000000000000000e+00 0.000000000000000e+00 0.000000000000000e+00
0.000000000000000e+00 0.000000000000000e+00 0.000000000000000e+00
0.000000000000000e+00 0.000000000000000e+00 0.000000000000000e+00

0.000000000000000e+00 0.000000000000000e+00 0.000000000000000e+00
0.000000000000000e+00 0.000000000000000e+00 0.000000000000000e+00
0.000000000000000e+00 0.000000000000000e+00 0.000000000000000e+00

0.000000000000000e+00 0.000000000000000e+00 0.000000000000000e+00
0.000000000000000e+00 0.000000000000000e+00 0.000000000000000e+00
0.000000000000000e+00 0.000000000000000e+00 0.000000000000000e+00

0.000000000000000e+00 0.000000000000000e+00 0.000000000000000e+00
0.000000000000000e+00 0.000000000000000e+00 0.000000000000000e+00
0.000000000000000e+00 0.000000000000000e+00 0.000000000000000e+00

0.000000000000000e+00 0.000000000000000e+00 0.000000000000000e+00
0.000000000000000e+00 0.000000000000000e+00 0.000000000000000e+00
0.000000000000000e+00 0.000000000000000e+00 0.000000000000000e+00

0.000000000000000e+00 0.000000000000000e+00 0.000000000000000e+00
0.000000000000000e+00 0.000000000000000e+00 0.000000000000000e+00
0.000000000000000e+00 0.000000000000000e+00 0.000000000000000e+00

0.000000000000000e+00 0.000000000000000e+00 0.000000000000000e+00
0.000000000000000e+00 0.000000000000000e+00 0.000000000000000e+00
0.000000000000000e+00 0.000000000000000e+00 0.000000000000000e+00

0.000000000000000e+00 0.000000000000000e+00 0.000000000000000e+00
0.000000000000000e+00 0.000000000000000e+00 0.000000000000000e+00
0.000000000000000e+00 0.000000000000000e+00 0.000000000000000e+00

0.000000000000000e+00 0.000000000000000e+00 0.000000000000000e+00
0.000000000000000e+00 0.000000000000000e+00 0.000000000000000e+00
0.000000000000000e+00 0.000000000000000e+00 0.000000000000000e+00

0.000000000000000e+00 0.000000000000000e+00 0.000000000000000e+00
0.000000000000000e+00 0.000000000000000e+00 0.000000000000000e+00
0.000000000000000e+00 0.000000000000000e+00 0.000000000000000e+00

0.000000000000000e+00 0.000000000000000e+00 0.000000000000000e+00
0.000000000000000e+00 0.000000000000000e+00 0.000000000000000e+00
0.000000000000000e+00 0.000000000000000e+00 0.000000000000000e+00

0.000000000000000e+00 0.000000000000000e+00 0.000000000000000e+00
0.000000000000000e+00 0.000000000000000e+00 0.000000000000000e+00
0.000000000000000e+00 0.000000000000000e+00 0.000000000000000e+00

0.000000000000000e+00 0.000000000000000e+00 0.000000000000000e+00
0.000000000000000e+00 0.000000000000000e+00 0.000000000000000e+00
0.000000000000000e+00 0.000000000000000e+00 0.000000000000000e+00

0.000000000000000e+00 0.000000000000000e+00 0.000000000000000e+00
0.000000000000000e+00 0.000000000000000e+00 0.000000000000000e+00
0.000000000000000e+00 0.000000000000000e+00 0.000000000000000e+00

0.000000000000000e+00 0.000000000000000e+00 0.000000000000000e+00
0.000000000000000e+00 0.000000000000000e+00 0.000000000000000e+00
0.000000000000000e+00 0.000000000000000e+00 0.000000000000000e+00

0.000000000000000e+00 0.000000000000000e+00 0.000000000000000e+00
0.000000000000000e+00 0.000000000000000e+00 0.000000000000000e+00
0.000000000000000e+00 0.000000000000000e+00 0.000000000000000e+00

0.000000000000000e+00 0.000000000000000e+00 0.000000000000000e+00
0.000000000000000e+00 0.000000000000000e+00 0.000000000000000e+00
0.000000000000000e+00 0.000000000000000e+00 0.000000000000000e+00

0.000000000000000e+00 0.000000000000000e+00 0.000000000000000e+00
0.000000000000000e+00 0.000000000000000e+00 0.000000000000000e+00
0.000000000000000e+00 0.000000000000000e+00 0.000000000000000e+00

0.000000000000000e+00 0.000000000000000e+00 0.000000000000000e+00
0.000000000000000e+00 0.000000000000000e+00 0.000000000000000e+00
0.000000000000000e+00 0.000000000000000e+00 0.000000000000000e+00

0.000000000000000e+00 0.000000000000000e+00 0.000000000000000e+00
0.000000000000000e+00 0.000000000000000e+00 0.000000000000000e+00
0.000000000000000e+00 0.000000000000000e+00 0.000000000000000e+00

0.000000000000000e+00 0.000000000000000e+00 0.000000000000000e+00
0.000000000000000e+00 0.000000000000000e+00 0.000000000000000e+00
0.000000000000000e+00 0.000000000000000e+00 0.000000000000000e+00

0.000000000000000e+00 0.000000000000000e+00 0.000000000000000e+00
0.000000000000000e+00 0.000000000000000e+00 0.000000000000000e+00
0.000000000000000e+00 0.000000000000000e+00 0.000000000000000e+00

0.000000000000000e+00 0.000000000000000e+00 0.000000000000000e+00
0.000000000000000e+00 0.000000000000000e+00 0.000000000000000e+00
0.000000000000000e+00 0.000000000000000e+00 0.000000000000000e+00

0.000000000000000e+00 0.000000000000000e+00 0.000000000000000e+00
0.000000000000000e+00 0.000000000000000e+00 0.000000000000000e+00
0.000000000000000e+00 0.000000000000000e+00 0.000000000000000e+00

0.000000000000000e+00 0.000000000000000e+00 0.000000000000000e+00
0.000000000000000e+00 0.000000000000000e+00 0.000000000000000e+00
0.000000000000000e+00 0.000000000000000e+00 0.000000000000000e+00

0.000000000000000e+00 0.000000000000000e+00 0.000000000000000e+00
0.000000000000000e+00 0.000000000000000e+00 0.000000000000000e+00
0.000000000000000e+00 0.000000000000000e+00 0.000000000000000e+00

0.000000000000000e+00 0.000000000000000e+00 0.000000000000000e+00
0.000000000000000e+00 0.000000000000000e+00 0.000000000000000e+00
0.000000000000000e+00 0.000000000000000e+00 0.000000000000000e+00

0.000000000000000e+00 0.000000000000000e+00 0.000000000000000e+00
0.000000000000000e+00 0.000000000000000e+00 0.000000000000000e+00
0.000000000000000e+00 0.000000000000000e+00 0.000000000000000e+00

0.000000000000000e+00 0.000000000000000e+00 0.000000000000000e+00
0.000000000000000e+00 0.000000000000000e+00 0.000000000000000e+00
0.000000000000000e+00 0.000000000000000e+00 0.000000000000000e+00

0.000000000000000e+00 0.000000000000000e+00 0.000000000000000e+00
0.000000000000000e+00 0.000000000000000e+00 0.000000000000000e+00
0.000000000000000e+00 0.000000000000000e+00 0.000000000000000e+00

0.000000000000000e+00 0.000000000000000e+00 0.000000000000000e+00
0.000000000000000e+00 0.000000000000000e+00 0.000000000000000e+00
0.000000000000000e+00 0.000000000000000e+00 0.000000000000000e+00

0.000000000000000e+00 0.000000000000000e+00 0.000000000000000e+00
0.000000000000000e+00 0.000000000000000e+00 0.000000000000000e+00
0.000000000000000e+00 0.000000000000000e+00 0.000000000000000e+00

0.000000000000000e+00 0.000000000000000e+00 0.000000000000000e+00
0.000000000000000e+00 0.000000000000000e+00 0.000000000000000e+00
0.000000000000000e+00 0.000000000000000e+00 0.000000000000000e+00

0.000000000000000e+00 0.000000000000000e+00 0.000000000000000e+00
0.000000000000000e+00 0.000000000000000e+00 0.000000000000000e+00
0.000000000000000e+00 0.000000000000000e+00 0.000000000000000e+00

0.000000000000000e+00 0.000000000000000e+00 0.000000000000000e+00
0.000000000000000e+00 0.000000000000000e+00 0.000000000000000e+00
0.000000000000000e+00 0.000000000000000e+00 0.000000000000000e+00

0.000000000000000e+00 0.000000000000000e+00 0.000000000000000e+00
0.000000000000000e+00 0.000000000000000e+00 0.000000000000000e+00
0.000000000000000e+00 0.000000000000000e+00 0.000000000000000e+00

0.000000000000000e+00 0.000000000000000e+00 0.000000000000000e+00
0.000000000000000e+00 0.000000000000000e+00 0.000000000000000e+00
0.000000000000000e+00 0.000000000000000e+00 0.000000000000000e+00

0.000000000000000e+00 0.000000000000000e+00 0.000000000000000e+00
0.000000000000000e+00 0.000000000000000e+00 0.000000000000000e+00
0.000000000000000e+00 0.000000000000000e+00 0.000000000000000e+00

0.000000000000000e+00 0.000000000000000e+00 0.000000000000000e+00
0.000000000000000e+00 0.000000000000000e+00 0.000000000000000e+00
0.000000000000000e+00 0.000000000000000e+00 0.000000000000000e+00

0.000000000000000e+00 0.000000000000000e+00 0.000000000000000e+00
0.000000000000000e+00 0.000000000000000e+00 0.000000000000000e+00
0.000000000000000e+00 0.000000000000000e+00 0.000000000000000e+00

0.000000000000000e+00 0.000000000000000e+00 0.000000000000000e+00
0.000000000000000e+00 0.000000000000000e+00 0.000000000000000e+00
0.000000000000000e+00 0.000000000000000e+00 0.000000000000000e+00

0.000000000000000e+00 0.000000000000000e+00 0.000000000000000e+00
0.000000000000000e+00 0.000000000000000e+00 0.000000000000000e+00
0.000000000000000e+00 0.000000000000000e+00 0.000000000000000e+00

0.000000000000000e+00 0.000000000000000e+00 0.000000000000000e+00
0.000000000000000e+00 0.000000000000000e+00 0.000000000000000e+00
0.000000000000000e+00 0.000000000000000e+00 0.000000000000000e+00

0.000000000000000e+00 0.000000000000000e+00 0.000000000000000e+00
0.000000000000000e+00 0.000000000000000e+00 0.000000000000000e+00
0.000000000000000e+00 0.000000000000000e+00 0.000000000000000e+00

0.000000000000000e+00 0.000000000000000e+00 0.000000000000000e+00
0.000000000000000e+00 0.000000000000000e+00 0.000000000000000e+00
0.000000000000000e+00 0.000000000000000e+00 0.000000000000000e+00

0.000000000000000e+00 0.000000000000000e+00 0.000000000000000e+00
0.000000000000000e+00 0.000000000000000e+00 0.000000000000000e+00
0.000000000000000e+00 0.000000000000000e+00 0.000000000000000e+00

0.000000000000000e+00 0.000000000000000e+00 0.000000000000000e+00
0.000000000000000e+00 0.000000000000000e+00 0.000000000000000e+00
0.000000000000000e+00 0.000000000000000e+00 0.000000000000000e+00

0.000000000000000e+00 0.000000000000000e+00 0.000000000000000e+00
0.000000000000000e+00 0.000000000000000e+00 0.000000000000000e+00
0.000000000000000e+00 0.000000000000000e+00 0.000000000000000e+00

0.000000000000000e+00 0.000000000000000e+00 0.000000000000000e+00
0.000000000000000e+00 0.000000000000000e+00 0.000000000000000e+00
0.000000000000000e+00 0.000000000000000e+00 0.000000000000000e+00

0.000000000000000e+00 0.000000000000000e+00 0.000000000000000e+00
0.000000000000000e+00 0.000000000000000e+00 0.000000000000000e+00
0.000000000000000e+00 0.000000000000000e+00 0.000000000000000e+00

0.000000000000000e+00 0.000000000000000e+00 0.000000000000000e+00
0.000000000000000e+00 0.000000000000000e+00 0.000000000000000e+00
0.000000000000000e+00 0.000000000000000e+00 0.000000000000000e+00

0.000000000000000e+00 0.000000000000000e+00 0.000000000000000e+00
0.000000000000000e+00 0.000000000000000e+00 0.000000000000000e+00
0.000000000000000e+00 0.000000000000000e+00 0.000000000000000e+00

0.000000000000000e+00 0.000000000000000e+00 0.000000000000000e+00
0.000000000000000e+00 0.000000000000000e+00 0.000000000000000e+00
0.000000000000000e+00 0.000000000000000e+00 0.000000000000000e+00

0.000000000000000e+00 0.000000000000000e+00 0.000000000000000e+00
0.000000000000000e+00 0.000000000000000e+00 0.000000000000000e+00
0.000000000000000e+00 0.000000000000000e+00 0.000000000000000e+00

0.000000000000000e+00 0.000000000000000e+00 0.000000000000000e+00
0.000000000000000e+00 0.000000000000000e+00 0.000000000000000e+00
0.000000000000000e+00 0.000000000000000e+00 0.000000000000000e+00

0.000000000000000e+00 0.000000000000000e+00 0.000000000000000e+00
0.000000000000000e+00 0.000000000000000e+00 0.000000000000000e+00
0.000000000000000e+00 0.000000000000000e+00 0.000000000000000e+00

0.000000000000000e+00 0.000000000000000e+00 0.000000000000000e+00
0.000000000000000e+00 0.000000000000000e+00 0.000000000000000e+00
0.000000000000000e+00 0.000000000000000e+00 0.000000000000000e+00

0.000000000000000e+00 0.000000000000000e+00 0.000000000000000e+00
0.000000000000000e+00 0.000000000000000e+00 0.000000000000000e+00
0.000000000000000e+00 0.000000000000000e+00 0.000000000000000e+00

0.000000000000000e+00 0.000000000000000e+00 0.000000000000000e+00
0.000000000000000e+00 0.000000000000000e+00 0.000000000000000e+00
0.000000000000000e+00 0.000000000000000e+00 0.000000000000000e+00

0.000000000000000e+00 0.000000000000000e+00 0.000000000000000e+00
0.000000000000000e+00 0.000000000000000e+00 0.000000000000000e+00
0.000000000000000e+00 0.000000000000000e+00 0.000000000000000e+00

0.000000000000000e+00 0.000000000000000e+00 0.000000000000000e+00
0.000000000000000e+00 0.000000000000000e+00 0.000000000000000e+00
0.000000000000000e+00 0.000000000000000e+00 0.000000000000000e+00

0.000000000000000e+00 0.000000000000000e+00 0.000000000000000e+00
0.000000000000000e+00 0.000000000000000e+00 0.000000000000000e+00
0.000000000000000e+00 0.000000000000000e+00 0.000000000000000e+00

0.000000000000000e+00 0.000000000000000e+00 0.000000000000000e+00
0.000000000000000e+00 0.000000000000000e+00 0.000000000000000e+00
0.000000000000000e+00 0.000000000000000e+00 0.000000000000000e+00

0.000000000000000e+00 0.000000000000000e+00 0.000000000000000e+00
0.000000000000000e+00 0.000000000000000e+00 0.000000000000000e+00
0.000000000000000e+00 0.000000000000000e+00 0.000000000000000e+00

0.000000000000000e+00 0.000000000000000e+00 0.000000000000000e+00
0.000000000000000e+00 0.000000000000000e+00 0.000000000000000e+00
0.000000000000000e+00 0.000000000000000e+00 0.000000000000000e+00

0.000000000000000e+00 0.000000000000000e+00 0.000000000000000e+00
0.000000000000000e+00 0.000000000000000e+00 0.000000000000000e+00
0.000000000000000e+00 0.000000000000000e+00 0.000000000000000e+00

0.000000000000000e+00 0.000000000000000e+00 0.000000000000000e+00
0.000000000000000e+00 0.000000000000000e+00 0.000000000000000e+00
0.000000000000000e+00 0.000000000000000e+00 0.000000000000000e+00

0.000000000000000e+00 0.000000000000000e+00 0.000000000000000e+00
0.000000000000000e+00 0.000000000000000e+00 0.000000000000000e+00
0.000000000000000e+00 0.000000000000000e+00 0.000000000000000e+00

0.000000000000000e+00 0.000000000000000e+00 0.000000000000000e+00
0.000000000000000e+00 0.000000000000000e+00 0.000000000000000e+00
0.000000000000000e+00 0.000000000000000e+00 0.000000000000000e+00

0.000000000000000e+00 0.000000000000000e+00 0.000000000000000e+00
0.000000000000000e+00 0.000000000000000e+00 0.000000000000000e+00
0.000000000000000e+00 0.000000000000000e+00 0.000000000000000e+00

0.000000000000000e+00 0.000000000000000e+00 0.000000000000000e+00
0.000000000000000e+00 0.000000000000000e+00 0.000000000000000e+00
0.000000000000000e+00 0.000000000000000e+00 0.000000000000000e+00

0.000000000000000e+00 0.000000000000000e+00 0.000000000000000e+00
0.000000000000000e+00 0.000000000000000e+00 0.000000000000000e+00
0.000000000000000e+00 0.000000000000000e+00 0.000000000000000e+00

0.000000000000000e+00 0.000000000000000e+00 0.000000000000000e+00
0.000000000000000e+00 0.000000000000000e+00 0.000000000000000e+00
0.000000000000000e+00 0.000000000000000e+00 0.000000000000000e+00

0.000000000000000e+00 0.000000000000000e+00 0.000000000000000e+00
0.000000000000000e+00 0.000000000000000e+00 0.000000000000000e+00
0.000000000000000e+00 0.000000000000000e+00 0.000000000000000e+00

0.000000000000000e+00 0.000000000000000e+00 0.000000000000000e+00
0.000000000000000e+00 0.000000000000000e+00 0.000000000000000e+00
0.000000000000000e+00 0.000000000000000e+00 0.000000000000000e+00

0.000000000000000e+00 0.000000000000000e+00 0.000000000000000e+00
0.000000000000000e+00 0.000000000000000e+00 0.000000000000000e+00
0.000000000000000e+00 0.000000000000000e+00 0.000000000000000e+00

0.000000000000000e+00 0.000000000000000e+00 0.000000000000000e+00
0.000000000000000e+00 0.000000000000000e+00 0.000000000000000e+00
0.000000000000000e+00 0.000000000000000e+00 0.000000000000000e+00

0.000000000000000e+00 0.000000000000000e+00 0.000000000000000e+00
0.000000000000000e+00 0.000000000000000e+00 0.000000000000000e+00
0.000000000000000e+00 0.000000000000000e+00 0.000000000000000e+00

0.000000000000000e+00 0.000000000000000e+00 0.000000000000000e+00
0.000000000000000e+00 0.000000000000000e+00 0.000000000000000e+00
0.000000000000000e+00 0.000000000000000e+00 0.000000000000000e+00

0.000000000000000e+00 0.000000000000000e+00 0.000000000000000e+00
0.000000000000000e+00 0.000000000000000e+00 0.000000000000000e+00
0.000000000000000e+00 0.000000000000000e+00 0.000000000000000e+00

0.000000000000000e+00 0.000000000000000e+00 0.000000000000000e+00
0.000000000000000e+00 0.000000000000000e+00 0.000000000000000e+00
0.000000000000000e+00 0.000000000000000e+00 0.000000000000000e+00

0.000000000000000e+00 0.000000000000000e+00 0.000000000000000e+00
0.000000000000000e+00 0.000000000000000e+00 0.000000000000000e+00
0.000000000000000e+00 0.000000000000000e+00 0.000000000000000e+00

0.000000000000000e+00 0.000000000000000e+00 0.000000000000000e+00
0.000000000000000e+00 0.000000000000000e+00 0.000000000000000e+00
0.000000000000000e+00 0.000000000000000e+00 0.000000000000000e+00

0.000000000000000e+00 0.000000000000000e+00 0.000000000000000e+00
0.000000000000000e+00 0.000000000000000e+00 0.000000000000000e+00
0.000000000000000e+00 0.000000000000000e+00 0.000000000000000e+00

0.000000000000000e+00 0.000000000000000e+00 0.000000000000000e+00
0.000000000000000e+00 0.000000000000000e+00 0.000000000000000e+00
0.000000000000000e+00 0.000000000000000e+00 0.000000000000000e+00

0.000000000000000e+00 0.000000000000000e+00 0.000000000000000e+00
0.000000000000000e+00 0.000000000000000e+00 0.000000000000000e+00
0.000000000000000e+00 0.000000000000000e+00 0.000000000000000e+00

0.000000000000000e+00 0.000000000000000e+00 0.000000000000000e+00
0.000000000000000e+00 0.000000000000000e+00 0.000000000000000e+00
0.000000000000000e+00 0.000000000000000e+00 0.000000000000000e+00

0.000000000000000e+00 0.000000000000000e+00 0.000000000000000e+00
0.000000000000000e+00 0.000000000000000e+00 0.000000000000000e+00
0.000000000000000e+00 0.000000000000000e+00 0.000000000000000e+00

0.000000000000000e+00 0.000000000000000e+00 0.000000000000000e+00
0.000000000000000e+00 0.000000000000000e+00 0.000000000000000e+00
0.000000000000000e+00 0.000000000000000e+00 0.000000000000000e+00

0.000000000000000e+00 0.000000000000000e+00 0.000000000000000e+00
0.000000000000000e+00 0.000000000000000e+00 0.000000000000000e+00
0.000000000000000e+00 0.000000000000000e+00 0.000000000000000e+00

0.000000000000000e+00 0.000000000000000e+00 0.000000000000000e+00
0.000000000000000e+00 0.000000000000000e+00 0.000000000000000e+00
0.000000000000000e+00 0.000000000000000e+00 0.000000000000000e+00

0.000000000000000e+00 0.000000000000000e+00 0.000000000000000e+00
0.000000000000000e+00 0.000000000000000e+00 0.000000000000000e+00
0.000000000000000e+00 0.000000000000000e+00 0.000000000000000e+00

0.000000000000000e+00 0.000000000000000e+00 0.000000000000000e+00
0.000000000000000e+00 0.000000000000000e+00 0.000000000000000e+00
0.000000000000000e+00 0.000000000000000e+00 0.000000000000000e+00

0.000000000000000e+00 0.000000000000000e+00 0.000000000000000e+00
0.000000000000000e+00 0.000000000000000e+00 0.000000000000000e+00
0.000000000000000e+00 0.000000000000000e+00 0.000000000000000e+00

0.000000000000000e+00 0.000000000000000e+00 0.000000000000000e+00
0.000000000000000e+00 0.000000000000000e+00 0.000000000000000e+00
0.000000000000000e+00 0.000000000000000e+00 0.000000000000000e+00

0.000000000000000e+00 0.000000000000000e+00 0.000000000000000e+00
0.000000000000000e+00 0.000000000000000e+00 0.000000000000000e+00
0.000000000000000e+00 0.000000000000000e+00 0.000000000000000e+00

0.000000000000000e+00 0.000000000000000e+00 0.000000000000000e+00
0.000000000000000e+00 0.000000000000000e+00 0.000000000000000e+00
0.000000000000000e+00 0.000000000000000e+00 0.000000000000000e+00

0.000000000000000e+00 0.000000000000000e+00 0.000000000000000e+00
0.000000000000000e+00 0.000000000000000e+00 0.000000000000000e+00
0.000000000000000e+00 0.000000000000000e+00 0.000000000000000e+00

0.000000000000000e+00 0.000000000000000e+00 0.000000000000000e+00
0.000000000000000e+00 0.000000000000000e+00 0.000000000000000e+00
0.000000000000000e+00 0.000000000000000e+00 0.000000000000000e+00

0.000000000000000e+00 0.000000000000000e+00 0.000000000000000e+00
0.000000000000000e+00 0.000000000000000e+00 0.000000000000000e+00
0.000000000000000e+00 0.000000000000000e+00 0.000000000000000e+00

0.000000000000000e+00 0.000000000000000e+00 0.000000000000000e+00
0.000000000000000e+00 0.000000000000000e+00 0.000000000000000e+00
0.000000000000000e+00 0.000000000000000e+00 0.000000000000000e+00

0.000000000000000e+00 0.000000000000000e+00 0.000000000000000e+00
0.000000000000000e+00 0.000000000000000e+00 0.000000000000000e+00
0.000000000000000e+00 0.000000000000000e+00 0.000000000000000e+00

0.000000000000000e+00 0.000000000000000e+00 0.000000000000000e+00
0.000000000000000e+00 0.000000000000000e+00 0.000000000000000e+00
0.000000000000000e+00 0.000000000000000e+00 0.000000000000000e+00

0.000000000000000e+00 0.000000000000000e+00 0.000000000000000e+00
0.000000000000000e+00 0.000000000000000e+00 0.000000000000000e+00
0.000000000000000e+00 0.000000000000000e+00 0.000000000000000e+00

0.000000000000000e+00 0.000000000000000e+00 0.000000000000000e+00
0.000000000000000e+00 0.000000000000000e+00 0.000000000000000e+00
0.000000000000000e+00 0.000000000000000e+00 0.000000000000000e+00

0.000000000000000e+00 0.000000000000000e+00 0.000000000000000e+00
0.000000000000000e+00 0.000000000000000e+00 0.000000000000000e+00
0.000000000000000e+00 0.000000000000000e+00 0.000000000000000e+00

0.000000000000000e+00 0.000000000000000e+00 0.000000000000000e+00
0.000000000000000e+00 0.000000000000000e+00 0.000000000000000e+00
0.000000000000000e+00 0.000000000000000e+00 0.000000000000000e+00

0.000000000000000e+00 0.000000000000000e+00 0.000000000000000e+00
0.000000000000000e+00 0.000000000000000e+00 0.000000000000000e+00
0.000000000000000e+00 0.000000000000000e+00 0.000000000000000e+00

0.000000000000000e+00 0.000000000000000e+00 0.000000000000000e+00
0.000000000000000e+00 0.000000000000000e+00 0.000000000000000e+00
0.000000000000000e+00 0.000000000000000e+00 0.000000000000000e+00

0.000000000000000e+00 0.000000000000000e+00 0.000000000000000e+00
0.000000000000000e+00 0.000000000000000e+00 0.000000000000000e+00
0.000000000000000e+00 0.000000000000000e+00 0.000000000000000e+00

0.000000000000000e+00 0.000000000000000e+00 0.000000000000000e+00
0.000000000000000e+00 0.000000000000000e+00 0.000000000000000e+00
0.000000000000000e+00 0.000000000000000e+00 0.000000000000000e+00

0.000000000000000e+00 0.000000000000000e+00 0.000000000000000e+00
0.000000000000000e+00 0.000000000000000e+00 0.000000000000000e+00
0.000000000000000e+00 0.000000000000000e+00 0.000000000000000e+00

0.000000000000000e+00 0.000000000000000e+00 0.000000000000000e+00
0.000000000000000e+00 0.000000000000000e+00 0.000000000000000e+00
0.000000000000000e+00 0.000000000000000e+00 0.000000000000000e+00

0.000000000000000e+00 0.000000000000000e+00 0.000000000000000e+00
0.000000000000000e+00 0.000000000000000e+00 0.000000000000000e+00
0.000000000000000e+00 0.000000000000000e+00 0.000000000000000e+00

0.000000000000000e+00 0.000000000000000e+00 0.000000000000000e+00
0.000000000000000e+00 0.000000000000000e+00 0.000000000000000e+00
0.000000000000000e+00 0.000000000000000e+00 0.000000000000000e+00

0.000000000000000e+00 0.000000000000000e+00 0.000000000000000e+00
0.000000000000000e+00 0.000000000000000e+00 0.000000000000000e+00
0.000000000000000e+00 0.000000000000000e+00 0.000000000000000e+00

0.000000000000000e+00 0.000000000000000e+00 0.000000000000000e+00
0.000000000000000e+00 0.000000000000000e+00 0.000000000000000e+00
0.000000000000000e+00 0.000000000000000e+00 0.000000000000000e+00

0.000000000000000e+00 0.000000000000000e+00 0.000000000000000e+00
0.000000000000000e+00 0.000000000000000e+00 0.000000000000000e+00
0.000000000000000e+00 0.000000000000000e+00 0.000000000000000e+00

0.000000000000000e+00 0.000000000000000e+00 0.000000000000000e+00
0.000000000000000e+00 0.000000000000000e+00 0.000000000000000e+00
0.000000000000000e+00 0.000000000000000e+00 0.000000000000000e+00

0.000000000000000e+00 0.000000000000000e+00 0.000000000000000e+00
0.000000000000000e+00 0.000000000000000e+00 0.000000000000000e+00
0.000000000000000e+00 0.000000000000000e+00 0.000000000000000e+00

0.000000000000000e+00 0.000000000000000e+00 0.000000000000000e+00
0.000000000000000e+00 0.000000000000000e+00 0.000000000000000e+00
0.000000000000000e+00 0.000000000000000e+00 0.000000000000000e+00

0.000000000000000e+00 0.000000000000000e+00 0.000000000000000e+00
0.000000000000000e+00 0.000000000000000e+00 0.000000000000000e+00
0.000000000000000e+00 0.000000000000000e+00 0.000000000000000e+00

0.000000000000000e+00 0.000000000000000e+00 0.000000000000000e+00
0.000000000000000e+00 0.000000000000000e+00 0.000000000000000e+00
0.000000000000000e+00 0.000000000000000e+00 0.000000000000000e+00

0.000000000000000e+00 0.000000000000000e+00 0.000000000000000e+00
0.000000000000000e+00 0.000000000000000e+00 0.000000000000000e+00
0.000000000000000e+00 0.000000000000000e+00 0.000000000000000e+00

0.000000000000000e+00 0.000000000000000e+00 0.000000000000000e+00
0.000000000000000e+00 0.000000000000000e+00 0.000000000000000e+00
0.000000000000000e+00 0.000000000000000e+00 0.000000000000000e+00

0.000000000000000e+00 0.000000000000000e+00 0.000000000000000e+00
0.000000000000000e+00 0.000000000000000e+00 0.000000000000000e+00
0.000000000000000e+00 0.000000000000000e+00 0.000000000000000e+00

0.000000000000000e+00 0.000000000000000e+00 0.000000000000000e+00
0.000000000000000e+00 0.000000000000000e+00 0.000000000000000e+00
0.000000000000000e+00 0.000000000000000e+00 0.000000000000000e+00

0.000000000000000e+00 0.000000000000000e+00 0.000000000000000e+00
0.000000000000000e+00 0.000000000000000e+00 0.000000000000000e+00
0.000000000000000e+00 0.000000000000000e+00 0.000000000000000e+00

0.000000000000000e+00 0.000000000000000e+00 0.000000000000000e+00
0.000000000000000e+00 0.000000000000000e+00 0.000000000000000e+00
0.000000000000000e+00 0.000000000000000e+00 0.000000000000000e+00

0.000000000000000e+00 0.000000000000000e+00 0.000000000000000e+00
0.000000000000000e+00 0.000000000000000e+00 0.000000000000000e+00
0.000000000000000e+00 0.000000000000000e+00 0.000000000000000e+00

0.000000000000000e+00 0.000000000000000e+00 0.000000000000000e+00
0.000000000000000e+00 0.000000000000000e+00 0.000000000000000e+00
0.000000000000000e+00 0.000000000000000e+00 0.000000000000000e+00

0.000000000000000e+00 0.000000000000000e+00 0.000000000000000e+00
0.000000000000000e+00 0.000000000000000e+00 0.000000000000000e+00
0.000000000000000e+00 0.000000000000000e+00 0.000000000000000e+00

0.000000000000000e+00 0.000000000000000e+00 0.000000000000000e+00
0.000000000000000e+00 0.000000000000000e+00 0.000000000000000e+00
0.000000000000000e+00 0.000000000000000e+00 0.000000000000000e+00

0.000000000000000e+00 0.000000000000000e+00 0.000000000000000e+00
0.000000000000000e+00 0.000000000000000e+00 0.000000000000000e+00
0.000000000000000e+00 0.000000000000000e+00 0.000000000000000e+00

0.000000000000000e+00 0.000000000000000e+00 0.000000000000000e+00
0.000000000000000e+00 0.000000000000000e+00 0.000000000000000e+00
0.000000000000000e+00 0.000000000000000e+00 0.000000000000000e+00

0.000000000000000e+00 0.000000000000000e+00 0.000000000000000e+00
0.000000000000000e+00 0.000000000000000e+00 0.000000000000000e+00
0.000000000000000e+00 0.000000000000000e+00 0.000000000000000e+00

0.000000000000000e+00 0.000000000000000e+00 0.000000000000000e+00
0.000000000000000e+00 0.000000000000000e+00 0.000000000000000e+00
0.000000000000000e+00 0.000000000000000e+00 0.000000000000000e+00

0.000000000000000e+00 0.000000000000000e+00 0.000000000000000e+00
0.000000000000000e+00 0.000000000000000e+00 0.000000000000000e+00
0.000000000000000e+00 0.000000000000000e+00 0.000000000000000e+00

0.000000000000000e+00 0.000000000000000e+00 0.000000000000000e+00
0.000000000000000e+00 0.000000000000000e+00 0.000000000000000e+00
0.000000000000000e+00 0.000000000000000e+00 0.000000000000000e+00

0.000000000000000e+00 0.000000000000000e+00 0.000000000000000e+00
0.000000000000000e+00 0.000000000000000e+00 0.000000000000000e+00
0.000000000000000e+00 0.000000000000000e+00 0.000000000000000e+00

0.000000000000000e+00 0.000000000000000e+00 0.000000000000000e+00
0.000000000000000e+00 0.000000000000000e+00 0.000000000000000e+00
0.000000000000000e+00 0.000000000000000e+00 0.000000000000000e+00

0.000000000000000e+00 0.000000000000000e+00 0.000000000000000e+00
0.000000000000000e+00 0.000000000000000e+00 0.000000000000000e+00
0.000000000000000e+00 0.000000000000000e+00 0.000000000000000e+00

0.000000000000000e+00 0.000000000000000e+00 0.000000000000000e+00
0.000000000000000e+00 0.000000000000000e+00 0.000000000000000e+00
0.000000000000000e+00 0.000000000000000e+00 0.000000000000000e+00

0.000000000000000e+00 0.000000000000000e+00 0.000000000000000e+00
0.000000000000000e+00 0.000000000000000e+00 0.000000000000000e+00
0.000000000000000e+00 0.000000000000000e+00 0.000000000000000e+00

0.000000000000000e+00 0.000000000000000e+00 0.000000000000000e+00
0.000000000000000e+00 0.000000000000000e+00 0.000000000000000e+00
0.000000000000000e+00 0.000000000000000e+00 0.000000000000000e+00

0.000000000000000e+00 0.000000000000000e+00 0.000000000000000e+00
0.000000000000000e+00 0.000000000000000e+00 0.000000000000000e+00
0.000000000000000e+00 0.000000000000000e+00 0.000000000000000e+00

0.000000000000000e+00 0.000000000000000e+00 0.000000000000000e+00
0.000000000000000e+00 0.000000000000000e+00 0.000000000000000e+00
0.000000000000000e+00 0.000000000000000e+00 0.000000000000000e+00

0.000000000000000e+00 0.000000000000000e+00 0.000000000000000e+00
0.000000000000000e+00 0.000000000000000e+00 0.000000000000000e+00
0.000000000000000e+00 0.000000000000000e+00 0.000000000000000e+00

0.000000000000000e+00 0.000000000000000e+00 0.000000000000000e+00
0.000000000000000e+00 0.000000000000000e+00 0.000000000000000e+00
0.000000000000000e+00 0.000000000000000e+00 0.000000000000000e+00

0.000000000000000e+00 0.000000000000000e+00 0.000000000000000e+00
0.000000000000000e+00 0.000000000000000e+00 0.000000000000000e+00
0.000000000000000e+00 0.000000000000000e+00 0.000000000000000e+00

0.000000000000000e+00 0.000000000000000e+00 0.000000000000000e+00
0.000000000000000e+00 0.000000000000000e+00 0.000000000000000e+00
0.000000000000000e+00 0.000000000000000e+00 0.000000000000000e+00

0.000000000000000e+00 0.000000000000000e+00 0.000000000000000e+00
0.000000000000000e+00 0.000000000000000e+00 0.000000000000000e+00
0.000000000000000e+00 0.000000000000000e+00 0.000000000000000e+00

0.000000000000000e+00 0.000000000000000e+00 0.000000000000000e+00
0.000000000000000e+00 0.000000000000000e+00 0.000000000000000e+00
0.000000000000000e+00 0.000000000000000e+00 0.000000000000000e+00

0.000000000000000e+00 0.000000000000000e+00 0.000000000000000e+00
0.000000000000000e+00 0.000000000000000e+00 0.000000000000000e+00
0.000000000000000e+00 0.000000000000000e+00 0.000000000000000e+00

0.000000000000000e+00 0.000000000000000e+00 0.000000000000000e+00
0.000000000000000e+00 0.000000000000000e+00 0.000000000000000e+00
0.000000000000000e+00 0.000000000000000e+00 0.000000000000000e+00

0.000000000000000e+00 0.000000000000000e+00 0.000000000000000e+00
0.000000000000000e+00 0.000000000000000e+00 0.000000000000000e+00
0.000000000000000e+00 0.000000000000000e+00 0.000000000000000e+00

0.000000000000000e+00 0.000000000000000e+00 0.000000000000000e+00
0.000000000000000e+00 0.000000000000000e+00 0.000000000000000e+00
0.000000000000000e+00 0.000000000000000e+00 0.000000000000000e+00

0.000000000000000e+00 0.000000000000000e+00 0.000000000000000e+00
0.000000000000000e+00 0.000000000000000e+00 0.000000000000000e+00
0.000000000000000e+00 0.000000000000000e+00 0.000000000000000e+00

0.000000000000000e+00 0.000000000000000e+00 0.000000000000000e+00
0.000000000000000e+00 0.000000000000000e+00 0.000000000000000e+00
0.000000000000000e+00 0.000000000000000e+00 0.000000000000000e+00

0.000000000000000e+00 0.000000000000000e+00 0.000000000000000e+00
0.000000000000000e+00 0.000000000000000e+00 0.000000000000000e+00
0.000000000000000e+00 0.000000000000000e+00 0.000000000000000e+00

0.000000000000000e+00 0.000000000000000e+00 0.000000000000000e+00
0.000000000000000e+00 0.000000000000000e+00 0.000000000000000e+00
0.000000000000000e+00 0.000000000000000e+00 0.000000000000000e+00

0.000000000000000e+00 0.000000000000000e+00 0.000000000000000e+00
0.000000000000000e+00 0.000000000000000e+00 0.000000000000000e+00
0.000000000000000e+00 0.000000000000000e+00 0.000000000000000e+00

0.000000000000000e+00 0.000000000000000e+00 0.000000000000000e+00
0.000000000000000e+00 0.000000000000000e+00 0.000000000000000e+00
0.000000000000000e+00 0.000000000000000e+00 0.000000000000000e+00

0.000000000000000e+00 0.000000000000000e+00 0.000000000000000e+00
0.000000000000000e+00 0.000000000000000e+00 0.000000000000000e+00
0.000000000000000e+00 0.000000000000000e+00 0.000000000000000e+00

0.000000000000000e+00 0.000000000000000e+00 0.000000000000000e+00
0.000000000000000e+00 0.000000000000000e+00 0.000000000000000e+00
0.000000000000000e+00 0.000000000000000e+00 0.000000000000000e+00

0.000000000000000e+00 0.000000000000000e+00 0.000000000000000e+00
0.000000000000000e+00 0.000000000000000e+00 0.000000000000000e+00
0.000000000000000e+00 0.000000000000000e+00 0.000000000000000e+00

0.000000000000000e+00 0.000000000000000e+00 0.000000000000000e+00
0.000000000000000e+00 0.000000000000000e+00 0.000000000000000e+00
0.000000000000000e+00 0.000000000000000e+00 0.000000000000000e+00

0.000000000000000e+00 0.000000000000000e+00 0.000000000000000e+00
0.000000000000000e+00 0.000000000000000e+00 0.000000000000000e+00
0.000000000000000e+00 0.000000000000000e+00 0.000000000000000e+00

0.000000000000000e+00 0.000000000000000e+00 0.000000000000000e+00
0.000000000000000e+00 0.000000000000000e+00 0.000000000000000e+00
0.000000000000000e+00 0.000000000000000e+00 0.000000000000000e+00

0.000000000000000e+00 0.000000000000000e+00 0.000000000000000e+00
0.000000000000000e+00 0.000000000000000e+00 0.000000000000000e+00
0.000000000000000e+00 0.000000000000000e+00 0.000000000000000e+00

0.000000000000000e+00 0.000000000000000e+00 0.000000000000000e+00
0.000000000000000e+00 0.000000000000000e+00 0.000000000000000e+00
0.000000000000000e+00 0.000000000000000e+00 0.000000000000000e+00

0.000000000000000e+00 0.000000000000000e+00 0.000000000000000e+00
0.000000000000000e+00 0.000000000000000e+00 0.000000000000000e+00
0.000000000000000e+00 0.000000000000000e+00 0.000000000000000e+00

0.000000000000000e+00 0.000000000000000e+00 0.000000000000000e+00
0.000000000000000e+00 0.000000000000000e+00 0.000000000000000e+00
0.000000000000000e+00 0.000000000000000e+00 0.000000000000000e+00

0.000000000000000e+00 0.000000000000000e+00 0.000000000000000e+00
0.000000000000000e+00 0.000000000000000e+00 0.000000000000000e+00
0.000000000000000e+00 0.000000000000000e+00 0.000000000000000e+00

0.000000000000000e+00 0.000000000000000e+00 0.000000000000000e+00
0.000000000000000e+00 0.000000000000000e+00 0.000000000000000e+00
0.000000000000000e+00 0.000000000000000e+00 0.000000000000000e+00

0.000000000000000e+00 0.000000000000000e+00 0.000000000000000e+00
0.000000000000000e+00 0.000000000000000e+00 0.000000000000000e+00
0.000000000000000e+00 0.000000000000000e+00 0.000000000000000e+00

0.000000000000000e+00 0.000000000000000e+00 0.000000000000000e+00
0.000000000000000e+00 0.000000000000000e+00 0.000000000000000e+00
0.000000000000000e+00 0.000000000000000e+00 0.000000000000000e+00

0.000000000000000e+00 0.000000000000000e+00 0.000000000000000e+00
0.000000000000000e+00 0.000000000000000e+00 0.000000000000000e+00
0.000000000000000e+00 0.000000000000000e+00 0.000000000000000e+00

0.000000000000000e+00 0.000000000000000e+00 0.000000000000000e+00
0.000000000000000e+00 0.000000000000000e+00 0.000000000000000e+00
0.000000000000000e+00 0.000000000000000e+00 0.000000000000000e+00

0.000000000000000e+00 0.000000000000000e+00 0.000000000000000e+00
0.000000000000000e+00 0.000000000000000e+00 0.000000000000000e+00
0.000000000000000e+00 0.000000000000000e+00 0.000000000000000e+00

0.000000000000000e+00 0.000000000000000e+00 0.000000000000000e+00
0.000000000000000e+00 0.000000000000000e+00 0.000000000000000e+00
0.000000000000000e+00 0.000000000000000e+00 0.000000000000000e+00

0.000000000000000e+00 0.000000000000000e+00 0.000000000000000e+00
0.000000000000000e+00 0.000000000000000e+00 0.000000000000000e+00
0.000000000000000e+00 0.000000000000000e+00 0.000000000000000e+00

0.000000000000000e+00 0.000000000000000e+00 0.000000000000000e+00
0.000000000000000e+00 0.000000000000000e+00 0.000000000000000e+00
0.000000000000000e+00 0.000000000000000e+00 0.000000000000000e+00

0.000000000000000e+00 0.000000000000000e+00 0.000000000000000e+00
0.000000000000000e+00 0.000000000000000e+00 0.000000000000000e+00
0.000000000000000e+00 0.000000000000000e+00 0.000000000000000e+00

0.000000000000000e+00 0.000000000000000e+00 0.000000000000000e+00
0.000000000000000e+00 0.000000000000000e+00 0.000000000000000e+00
0.000000000000000e+00 0.000000000000000e+00 0.000000000000000e+00

0.000000000000000e+00 0.000000000000000e+00 0.000000000000000e+00
0.000000000000000e+00 0.000000000000000e+00 0.000000000000000e+00
0.000000000000000e+00 0.000000000000000e+00 0.000000000000000e+00

0.000000000000000e+00 0.000000000000000e+00 0.000000000000000e+00
0.000000000000000e+00 0.000000000000000e+00 0.000000000000000e+00
0.000000000000000e+00 0.000000000000000e+00 0.000000000000000e+00

0.000000000000000e+00 0.000000000000000e+00 0.000000000000000e+00
0.000000000000000e+00 0.000000000000000e+00 0.000000000000000e+00
0.000000000000000e+00 0.000000000000000e+00 0.000000000000000e+00

0.000000000000000e+00 0.000000000000000e+00 0.000000000000000e+00
0.000000000000000e+00 0.000000000000000e+00 0.000000000000000e+00
0.000000000000000e+00 0.000000000000000e+00 0.000000000000000e+00

0.000000000000000e+00 0.000000000000000e+00 0.000000000000000e+00
0.000000000000000e+00 0.000000000000000e+00 0.000000000000000e+00
0.000000000000000e+00 0.000000000000000e+00 0.000000000000000e+00

0.000000000000000e+00 0.000000000000000e+00 0.000000000000000e+00
0.000000000000000e+00 0.000000000000000e+00 0.000000000000000e+00
0.000000000000000e+00 0.000000000000000e+00 0.000000000000000e+00

0.000000000000000e+00 0.000000000000000e+00 0.000000000000000e+00
0.000000000000000e+00 0.000000000000000e+00 0.000000000000000e+00
0.000000000000000e+00 0.000000000000000e+00 0.000000000000000e+00

0.000000000000000e+00 0.000000000000000e+00 0.000000000000000e+00
0.000000000000000e+00 0.000000000000000e+00 0.000000000000000e+00
0.000000000000000e+00 0.000000000000000e+00 0.000000000000000e+00

0.000000000000000e+00 0.000000000000000e+00 0.000000000000000e+00
0.000000000000000e+00 0.000000000000000e+00 0.000000000000000e+00
0.000000000000000e+00 0.000000000000000e+00 0.000000000000000e+00

0.000000000000000e+00 0.000000000000000e+00 0.000000000000000e+00
0.000000000000000e+00 0.000000000000000e+00 0.000000000000000e+00
0.000000000000000e+00 0.000000000000000e+00 0.000000000000000e+00

0.000000000000000e+00 0.000000000000000e+00 0.000000000000000e+00
0.000000000000000e+00 0.000000000000000e+00 0.000000000000000e+00
0.000000000000000e+00 0.000000000000000e+00 0.000000000000000e+00

0.000000000000000e+00 0.000000000000000e+00 0.000000000000000e+00
0.000000000000000e+00 0.000000000000000e+00 0.000000000000000e+00
0.000000000000000e+00 0.000000000000000e+00 0.000000000000000e+00

0.000000000000000e+00 0.000000000000000e+00 0.000000000000000e+00
0.000000000000000e+00 0.000000000000000e+00 0.000000000000000e+00
0.000000000000000e+00 0.000000000000000e+00 0.000000000000000e+00

0.000000000000000e+00 0.000000000000000e+00 0.000000000000000e+00
0.000000000000000e+00 0.000000000000000e+00 0.000000000000000e+00
0.000000000000000e+00 0.000000000000000e+00 0.000000000000000e+00

0.000000000000000e+00 0.000000000000000e+00 0.000000000000000e+00
0.000000000000000e+00 0.000000000000000e+00 0.000000000000000e+00
0.000000000000000e+00 0.000000000000000e+00 0.000000000000000e+00

0.000000000000000e+00 0.000000000000000e+00 0.000000000000000e+00
0.000000000000000e+00 0.000000000000000e+00 0.000000000000000e+00
0.000000000000000e+00 0.000000000000000e+00 0.000000000000000e+00

0.000000000000000e+00 0.000000000000000e+00 0.000000000000000e+00
0.000000000000000e+00 0.000000000000000e+00 0.000000000000000e+00
0.000000000000000e+00 0.000000000000000e+00 0.000000000000000e+00

0.000000000000000e+00 0.000000000000000e+00 0.000000000000000e+00
0.000000000000000e+00 0.000000000000000e+00 0.000000000000000e+00
0.000000000000000e+00 0.000000000000000e+00 0.000000000000000e+00

0.000000000000000e+00 0.000000000000000e+00 0.000000000000000e+00
0.000000000000000e+00 0.000000000000000e+00 0.000000000000000e+00
0.000000000000000e+00 0.000000000000000e+00 0.000000000000000e+00

0.000000000000000e+00 0.000000000000000e+00 0.000000000000000e+00
0.000000000000000e+00 0.000000000000000e+00 0.000000000000000e+00
0.000000000000000e+00 0.000000000000000e+00 0.000000000000000e+00

0.000000000000000e+00 0.000000000000000e+00 0.000000000000000e+00
0.000000000000000e+00 0.000000000000000e+00 0.000000000000000e+00
0.000000000000000e+00 0.000000000000000e+00 0.000000000000000e+00

0.000000000000000e+00 0.000000000000000e+00 0.000000000000000e+00
0.000000000000000e+00 0.000000000000000e+00 0.000000000000000e+00
0.000000000000000e+00 0.000000000000000e+00 0.000000000000000e+00

0.000000000000000e+00 0.000000000000000e+00 0.000000000000000e+00
0.000000000000000e+00 0.000000000000000e+00 0.000000000000000e+00
0.000000000000000e+00 0.000000000000000e+00 0.000000000000000e+00

0.000000000000000e+00 0.000000000000000e+00 0.000000000000000e+00
0.000000000000000e+00 0.000000000000000e+00 0.000000000000000e+00
0.000000000000000e+00 0.000000000000000e+00 0.000000000000000e+00

0.000000000000000e+00 0.000000000000000e+00 0.000000000000000e+00
0.000000000000000e+00 0.000000000000000e+00 0.000000000000000e+00
0.000000000000000e+00 0.000000000000000e+00 0.000000000000000e+00

0.000000000000000e+00 0.000000000000000e+00 0.000000000000000e+00
0.000000000000000e+00 0.000000000000000e+00 0.000000000000000e+00
0.000000000000000e+00 0.000000000000000e+00 0.000000000000000e+00

0.000000000000000e+00 0.000000000000000e+00 0.000000000000000e+00
0.000000000000000e+00 0.000000000000000e+00 0.000000000000000e+00
0.000000000000000e+00 0.000000000000000e+00 0.000000000000000e+00

0.000000000000000e+00 0.000000000000000e+00 0.000000000000000e+00
0.000000000000000e+00 0.000000000000000e+00 0.000000000000000e+00
0.000000000000000e+00 0.000000000000000e+00 0.000000000000000e+00

0.000000000000000e+00 0.000000000000000e+00 0.000000000000000e+00
0.000000000000000e+00 0.000000000000000e+00 0.000000000000000e+00
0.000000000000000e+00 0.000000000000000e+00 0.000000000000000e+00

0.000000000000000e+00 0.000000000000000e+00 0.000000000000000e+00
0.000000000000000e+00 0.000000000000000e+00 0.000000000000000e+00
0.000000000000000e+00 0.000000000000000e+00 0.000000000000000e+00

0.000000000000000e+00 0.000000000000000e+00 0.000000000000000e+00
0.000000000000000e+00 0.000000000000000e+00 0.000000000000000e+00
0.000000000000000e+00 0.000000000000000e+00 0.000000000000000e+00

0.000000000000000e+00 0.000000000000000e+00 0.000000000000000e+00
0.000000000000000e+00 0.000000000000000e+00 0.000000000000000e+00
0.000000000000000e+00 0.000000000000000e+00 0.000000000000000e+00

0.000000000000000e+00 0.000000000000000e+00 0.000000000000000e+00
0.000000000000000e+00 0.000000000000000e+00 0.000000000000000e+00
0.000000000000000e+00 0.000000000000000e+00 0.000000000000000e+00

0.000000000000000e+00 0.000000000000000e+00 0.000000000000000e+00
0.000000000000000e+00 0.000000000000000e+00 0.000000000000000e+00
0.000000000000000e+00 0.000000000000000e+00 0.000000000000000e+00

0.000000000000000e+00 0.000000000000000e+00 0.000000000000000e+00
0.000000000000000e+00 0.000000000000000e+00 0.000000000000000e+00
0.000000000000000e+00 0.000000000000000e+00 0.000000000000000e+00

0.000000000000000e+00 0.000000000000000e+00 0.000000000000000e+00
0.000000000000000e+00 0.000000000000000e+00 0.000000000000000e+00
0.000000000000000e+00 0.000000000000000e+00 0.000000000000000e+00

0.000000000000000e+00 0.000000000000000e+00 0.000000000000000e+00
0.000000000000000e+00 0.000000000000000e+00 0.000000000000000e+00
0.000000000000000e+00 0.000000000000000e+00 0.000000000000000e+00

0.000000000000000e+00 0.000000000000000e+00 0.000000000000000e+00
0.000000000000000e+00 0.000000000000000e+00 0.000000000000000e+00
0.000000000000000e+00 0.000000000000000e+00 0.000000000000000e+00

0.000000000000000e+00 0.000000000000000e+00 0.000000000000000e+00
0.000000000000000e+00 0.000000000000000e+00 0.000000000000000e+00
0.000000000000000e+00 0.000000000000000e+00 0.000000000000000e+00

0.000000000000000e+00 0.000000000000000e+00 0.000000000000000e+00
0.000000000000000e+00 0.000000000000000e+00 0.000000000000000e+00
0.000000000000000e+00 0.000000000000000e+00 0.000000000000000e+00

0.000000000000000e+00 0.000000000000000e+00 0.000000000000000e+00
0.000000000000000e+00 0.000000000000000e+00 0.000000000000000e+00
0.000000000000000e+00 0.000000000000000e+00 0.000000000000000e+00

0.000000000000000e+00 0.000000000000000e+00 0.000000000000000e+00
0.000000000000000e+00 0.000000000000000e+00 0.000000000000000e+00
0.000000000000000e+00 0.000000000000000e+00 0.000000000000000e+00

0.000000000000000e+00 0.000000000000000e+00 0.000000000000000e+00
0.000000000000000e+00 0.000000000000000e+00 0.000000000000000e+00
0.000000000000000e+00 0.000000000000000e+00 0.000000000000000e+00

0.000000000000000e+00 0.000000000000000e+00 0.000000000000000e+00
0.000000000000000e+00 0.000000000000000e+00 0.000000000000000e+00
0.000000000000000e+00 0.000000000000000e+00 0.000000000000000e+00

0.000000000000000e+00 0.000000000000000e+00 0.000000000000000e+00
0.000000000000000e+00 0.000000000000000e+00 0.000000000000000e+00
0.000000000000000e+00 0.000000000000000e+00 0.000000000000000e+00

0.000000000000000e+00 0.000000000000000e+00 0.000000000000000e+00
0.000000000000000e+00 0.000000000000000e+00 0.000000000000000e+00
0.000000000000000e+00 0.000000000000000e+00 0.000000000000000e+00

0.000000000000000e+00 0.000000000000000e+00 0.000000000000000e+00
0.000000000000000e+00 0.000000000000000e+00 0.000000000000000e+00
0.000000000000000e+00 0.000000000000000e+00 0.000000000000000e+00

0.000000000000000e+00 0.000000000000000e+00 0.000000000000000e+00
0.000000000000000e+00 0.000000000000000e+00 0.000000000000000e+00
0.000000000000000e+00 0.000000000000000e+00 0.000000000000000e+00

0.000000000000000e+00 0.000000000000000e+00 0.000000000000000e+00
0.000000000000000e+00 0.000000000000000e+00 0.000000000000000e+00
0.000000000000000e+00 0.000000000000000e+00 0.000000000000000e+00

0.000000000000000e+00 0.000000000000000e+00 0.000000000000000e+00
0.000000000000000e+00 0.000000000000000e+00 0.000000000000000e+00
0.000000000000000e+00 0.000000000000000e+00 0.000000000000000e+00

0.000000000000000e+00 0.000000000000000e+00 0.000000000000000e+00
0.000000000000000e+00 0.000000000000000e+00 0.000000000000000e+00
0.000000000000000e+00 0.000000000000000e+00 0.000000000000000e+00

0.000000000000000e+00 0.000000000000000e+00 0.000000000000000e+00
0.000000000000000e+00 0.000000000000000e+00 0.000000000000000e+00
0.000000000000000e+00 0.000000000000000e+00 0.000000000000000e+00

0.000000000000000e+00 0.000000000000000e+00 0.000000000000000e+00
0.000000000000000e+00 0.000000000000000e+00 0.000000000000000e+00
0.000000000000000e+00 0.000000000000000e+00 0.000000000000000e+00

0.000000000000000e+00 0.000000000000000e+00 0.000000000000000e+00
0.000000000000000e+00 0.000000000000000e+00 0.000000000000000e+00
0.000000000000000e+00 0.000000000000000e+00 0.000000000000000e+00

0.000000000000000e+00 0.000000000000000e+00 0.000000000000000e+00
0.000000000000000e+00 0.000000000000000e+00 0.000000000000000e+00
0.000000000000000e+00 0.000000000000000e+00 0.000000000000000e+00

0.000000000000000e+00 0.000000000000000e+00 0.000000000000000e+00
0.000000000000000e+00 0.000000000000000e+00 0.000000000000000e+00
0.000000000000000e+00 0.000000000000000e+00 0.000000000000000e+00

0.000000000000000e+00 0.000000000000000e+00 0.000000000000000e+00
0.000000000000000e+00 0.000000000000000e+00 0.000000000000000e+00
0.000000000000000e+00 0.000000000000000e+00 0.000000000000000e+00

0.000000000000000e+00 0.000000000000000e+00 0.000000000000000e+00
0.000000000000000e+00 0.000000000000000e+00 0.000000000000000e+00
0.000000000000000e+00 0.000000000000000e+00 0.000000000000000e+00

0.000000000000000e+00 0.000000000000000e+00 0.000000000000000e+00
0.000000000000000e+00 0.000000000000000e+00 0.000000000000000e+00
0.000000000000000e+00 0.000000000000000e+00 0.000000000000000e+00

0.000000000000000e+00 0.000000000000000e+00 0.000000000000000e+00
0.000000000000000e+00 0.000000000000000e+00 0.000000000000000e+00
0.000000000000000e+00 0.000000000000000e+00 0.000000000000000e+00

0.000000000000000e+00 0.000000000000000e+00 0.000000000000000e+00
0.000000000000000e+00 0.000000000000000e+00 0.000000000000000e+00
0.000000000000000e+00 0.000000000000000e+00 0.000000000000000e+00

0.000000000000000e+00 0.000000000000000e+00 0.000000000000000e+00
0.000000000000000e+00 0.000000000000000e+00 0.000000000000000e+00
0.000000000000000e+00 0.000000000000000e+00 0.000000000000000e+00

0.000000000000000e+00 0.000000000000000e+00 0.000000000000000e+00
0.000000000000000e+00 0.000000000000000e+00 0.000000000000000e+00
0.000000000000000e+00 0.000000000000000e+00 0.000000000000000e+00

0.000000000000000e+00 0.000000000000000e+00 0.000000000000000e+00
0.000000000000000e+00 0.000000000000000e+00 0.000000000000000e+00
0.000000000000000e+00 0.000000000000000e+00 0.000000000000000e+00

0.000000000000000e+00 0.000000000000000e+00 0.000000000000000e+00
0.000000000000000e+00 0.000000000000000e+00 0.000000000000000e+00
0.000000000000000e+00 0.000000000000000e+00 0.000000000000000e+00

0.000000000000000e+00 0.000000000000000e+00 0.000000000000000e+00
0.000000000000000e+00 0.000000000000000e+00 0.000000000000000e+00
0.000000000000000e+00 0.000000000000000e+00 0.000000000000000e+00

0.000000000000000e+00 0.000000000000000e+00 0.000000000000000e+00
0.000000000000000e+00 0.000000000000000e+00 0.000000000000000e+00
0.000000000000000e+00 0.000000000000000e+00 0.000000000000000e+00

0.000000000000000e+00 0.000000000000000e+00 0.000000000000000e+00
0.000000000000000e+00 0.000000000000000e+00 0.000000000000000e+00
0.000000000000000e+00 0.000000000000000e+00 0.000000000000000e+00

0.000000000000000e+00 0.000000000000000e+00 0.000000000000000e+00
0.000000000000000e+00 0.000000000000000e+00 0.000000000000000e+00
0.000000000000000e+00 0.000000000000000e+00 0.000000000000000e+00

0.000000000000000e+00 0.000000000000000e+00 0.000000000000000e+00
0.000000000000000e+00 0.000000000000000e+00 0.000000000000000e+00
0.000000000000000e+00 0.000000000000000e+00 0.000000000000000e+00

0.000000000000000e+00 0.000000000000000e+00 0.000000000000000e+00
0.000000000000000e+00 0.000000000000000e+00 0.000000000000000e+00
0.000000000000000e+00 0.000000000000000e+00 0.000000000000000e+00

0.000000000000000e+00 0.000000000000000e+00 0.000000000000000e+00
0.000000000000000e+00 0.000000000000000e+00 0.000000000000000e+00
0.000000000000000e+00 0.000000000000000e+00 0.000000000000000e+00

0.000000000000000e+00 0.000000000000000e+00 0.000000000000000e+00
0.000000000000000e+00 0.000000000000000e+00 0.000000000000000e+00
0.000000000000000e+00 0.000000000000000e+00 0.000000000000000e+00

0.000000000000000e+00 0.000000000000000e+00 0.000000000000000e+00
0.000000000000000e+00 0.000000000000000e+00 0.000000000000000e+00
0.000000000000000e+00 0.000000000000000e+00 0.000000000000000e+00

0.000000000000000e+00 0.000000000000000e+00 0.000000000000000e+00
0.000000000000000e+00 0.000000000000000e+00 0.000000000000000e+00
0.000000000000000e+00 0.000000000000000e+00 0.000000000000000e+00

0.000000000000000e+00 0.000000000000000e+00 0.000000000000000e+00
0.000000000000000e+00 0.000000000000000e+00 0.000000000000000e+00
0.000000000000000e+00 0.000000000000000e+00 0.000000000000000e+00

0.000000000000000e+00 0.000000000000000e+00 0.000000000000000e+00
0.000000000000000e+00 0.000000000000000e+00 0.000000000000000e+00
0.000000000000000e+00 0.000000000000000e+00 0.000000000000000e+00

0.000000000000000e+00 0.000000000000000e+00 0.000000000000000e+00
0.000000000000000e+00 0.000000000000000e+00 0.000000000000000e+00
0.000000000000000e+00 0.000000000000000e+00 0.000000000000000e+00

0.000000000000000e+00 0.000000000000000e+00 0.000000000000000e+00
0.000000000000000e+00 0.000000000000000e+00 0.000000000000000e+00
0.000000000000000e+00 0.000000000000000e+00 0.000000000000000e+00

0.000000000000000e+00 0.000000000000000e+00 0.000000000000000e+00
0.000000000000000e+00 0.000000000000000e+00 0.000000000000000e+00
0.000000000000000e+00 0.000000000000000e+00 0.000000000000000e+00

0.000000000000000e+00 0.000000000000000e+00 0.000000000000000e+00
0.000000000000000e+00 0.000000000000000e+00 0.000000000000000e+00
0.000000000000000e+00 0.000000000000000e+00 0.000000000000000e+00

0.000000000000000e+00 0.000000000000000e+00 0.000000000000000e+00
0.000000000000000e+00 0.000000000000000e+00 0.000000000000000e+00
0.000000000000000e+00 0.000000000000000e+00 0.000000000000000e+00

0.000000000000000e+00 0.000000000000000e+00 0.000000000000000e+00
0.000000000000000e+00 0.000000000000000e+00 0.000000000000000e+00
0.000000000000000e+00 0.000000000000000e+00 0.000000000000000e+00

0.000000000000000e+00 0.000000000000000e+00 0.000000000000000e+00
0.000000000000000e+00 0.000000000000000e+00 0.000000000000000e+00
0.000000000000000e+00 0.000000000000000e+00 0.000000000000000e+00

0.000000000000000e+00 0.000000000000000e+00 0.000000000000000e+00
0.000000000000000e+00 0.000000000000000e+00 0.000000000000000e+00
0.000000000000000e+00 0.000000000000000e+00 0.000000000000000e+00

0.000000000000000e+00 0.000000000000000e+00 0.000000000000000e+00
0.000000000000000e+00 0.000000000000000e+00 0.000000000000000e+00
0.000000000000000e+00 0.000000000000000e+00 0.000000000000000e+00

0.000000000000000e+00 0.000000000000000e+00 0.000000000000000e+00
0.000000000000000e+00 0.000000000000000e+00 0.000000000000000e+00
0.000000000000000e+00 0.000000000000000e+00 0.000000000000000e+00

0.000000000000000e+00 0.000000000000000e+00 0.000000000000000e+00
0.000000000000000e+00 0.000000000000000e+00 0.000000000000000e+00
0.000000000000000e+00 0.000000000000000e+00 0.000000000000000e+00

0.000000000000000e+00 0.000000000000000e+00 0.000000000000000e+00
0.000000000000000e+00 0.000000000000000e+00 0.000000000000000e+00
0.000000000000000e+00 0.000000000000000e+00 0.000000000000000e+00

0.000000000000000e+00 0.000000000000000e+00 0.000000000000000e+00
0.000000000000000e+00 0.000000000000000e+00 0.000000000000000e+00
0.000000000000000e+00 0.000000000000000e+00 0.000000000000000e+00

0.000000000000000e+00 0.000000000000000e+00 0.000000000000000e+00
0.000000000000000e+00 0.000000000000000e+00 0.000000000000000e+00
0.000000000000000e+00 0.000000000000000e+00 0.000000000000000e+00

0.000000000000000e+00 0.000000000000000e+00 0.000000000000000e+00
0.000000000000000e+00 0.000000000000000e+00 0.000000000000000e+00
0.000000000000000e+00 0.000000000000000e+00 0.000000000000000e+00

0.000000000000000e+00 0.000000000000000e+00 0.000000000000000e+00
0.000000000000000e+00 0.000000000000000e+00 0.000000000000000e+00
0.000000000000000e+00 0.000000000000000e+00 0.000000000000000e+00

0.000000000000000e+00 0.000000000000000e+00 0.000000000000000e+00
0.000000000000000e+00 0.000000000000000e+00 0.000000000000000e+00
0.000000000000000e+00 0.000000000000000e+00 0.000000000000000e+00

0.000000000000000e+00 0.000000000000000e+00 0.000000000000000e+00
0.000000000000000e+00 0.000000000000000e+00 0.000000000000000e+00
0.000000000000000e+00 0.000000000000000e+00 0.000000000000000e+00

0.000000000000000e+00 0.000000000000000e+00 0.000000000000000e+00
0.000000000000000e+00 0.000000000000000e+00 0.000000000000000e+00
0.000000000000000e+00 0.000000000000000e+00 0.000000000000000e+00

0.000000000000000e+00 0.000000000000000e+00 0.000000000000000e+00
0.000000000000000e+00 0.000000000000000e+00 0.000000000000000e+00
0.000000000000000e+00 0.000000000000000e+00 0.000000000000000e+00

0.000000000000000e+00 0.000000000000000e+00 0.000000000000000e+00
0.000000000000000e+00 0.000000000000000e+00 0.000000000000000e+00
0.000000000000000e+00 0.000000000000000e+00 0.000000000000000e+00

0.000000000000000e+00 0.000000000000000e+00 0.000000000000000e+00
0.000000000000000e+00 0.000000000000000e+00 0.000000000000000e+00
0.000000000000000e+00 0.000000000000000e+00 0.000000000000000e+00

0.000000000000000e+00 0.000000000000000e+00 0.000000000000000e+00
0.000000000000000e+00 0.000000000000000e+00 0.000000000000000e+00
0.000000000000000e+00 0.000000000000000e+00 0.000000000000000e+00

0.000000000000000e+00 0.000000000000000e+00 0.000000000000000e+00
0.000000000000000e+00 0.000000000000000e+00 0.000000000000000e+00
0.000000000000000e+00 0.000000000000000e+00 0.000000000000000e+00

0.000000000000000e+00 0.000000000000000e+00 0.000000000000000e+00
0.000000000000000e+00 0.000000000000000e+00 0.000000000000000e+00
0.000000000000000e+00 0.000000000000000e+00 0.000000000000000e+00

0.000000000000000e+00 0.000000000000000e+00 0.000000000000000e+00
0.000000000000000e+00 0.000000000000000e+00 0.000000000000000e+00
0.000000000000000e+00 0.000000000000000e+00 0.000000000000000e+00

0.000000000000000e+00 0.000000000000000e+00 0.000000000000000e+00
0.000000000000000e+00 0.000000000000000e+00 0.000000000000000e+00
0.000000000000000e+00 0.000000000000000e+00 0.000000000000000e+00

0.000000000000000e+00 0.000000000000000e+00 0.000000000000000e+00
0.000000000000000e+00 0.000000000000000e+00 0.000000000000000e+00
0.000000000000000e+00 0.000000000000000e+00 0.000000000000000e+00

0.000000000000000e+00 0.000000000000000e+00 0.000000000000000e+00
0.000000000000000e+00 0.000000000000000e+00 0.000000000000000e+00
0.000000000000000e+00 0.000000000000000e+00 0.000000000000000e+00

0.000000000000000e+00 0.000000000000000e+00 0.000000000000000e+00
0.000000000000000e+00 0.000000000000000e+00 0.000000000000000e+00
0.000000000000000e+00 0.000000000000000e+00 0.000000000000000e+00

0.000000000000000e+00 0.000000000000000e+00 0.000000000000000e+00
0.000000000000000e+00 0.000000000000000e+00 0.000000000000000e+00
0.000000000000000e+00 0.000000000000000e+00 0.000000000000000e+00

0.000000000000000e+00 0.000000000000000e+00 0.000000000000000e+00
0.000000000000000e+00 0.000000000000000e+00 0.000000000000000e+00
0.000000000000000e+00 0.000000000000000e+00 0.000000000000000e+00

0.000000000000000e+00 0.000000000000000e+00 0.000000000000000e+00
0.000000000000000e+00 0.000000000000000e+00 0.000000000000000e+00
0.000000000000000e+00 0.000000000000000e+00 0.000000000000000e+00

0.000000000000000e+00 0.000000000000000e+00 0.000000000000000e+00
0.000000000000000e+00 0.000000000000000e+00 0.000000000000000e+00
0.000000000000000e+00 0.000000000000000e+00 0.000000000000000e+00

0.000000000000000e+00 0.000000000000000e+00 0.000000000000000e+00
0.000000000000000e+00 0.000000000000000e+00 0.000000000000000e+00
0.000000000000000e+00 0.000000000000000e+00 0.000000000000000e+00

0.000000000000000e+00 0.000000000000000e+00 0.000000000000000e+00
0.000000000000000e+00 0.000000000000000e+00 0.000000000000000e+00
0.000000000000000e+00 0.000000000000000e+00 0.000000000000000e+00

0.000000000000000e+00 0.000000000000000e+00 0.000000000000000e+00
0.000000000000000e+00 0.000000000000000e+00 0.000000000000000e+00
0.000000000000000e+00 0.000000000000000e+00 0.000000000000000e+00

0.000000000000000e+00 0.000000000000000e+00 0.000000000000000e+00
0.000000000000000e+00 0.000000000000000e+00 0.000000000000000e+00
0.000000000000000e+00 0.000000000000000e+00 0.000000000000000e+00

0.000000000000000e+00 0.000000000000000e+00 0.000000000000000e+00
0.000000000000000e+00 0.000000000000000e+00 0.000000000000000e+00
0.000000000000000e+00 0.000000000000000e+00 0.000000000000000e+00

0.000000000000000e+00 0.000000000000000e+00 0.000000000000000e+00
0.000000000000000e+00 0.000000000000000e+00 0.000000000000000e+00
0.000000000000000e+00 0.000000000000000e+00 0.000000000000000e+00

0.000000000000000e+00 0.000000000000000e+00 0.000000000000000e+00
0.000000000000000e+00 0.000000000000000e+00 0.000000000000000e+00
0.000000000000000e+00 0.000000000000000e+00 0.000000000000000e+00

0.000000000000000e+00 0.000000000000000e+00 0.000000000000000e+00
0.000000000000000e+00 0.000000000000000e+00 0.000000000000000e+00
0.000000000000000e+00 0.000000000000000e+00 0.000000000000000e+00

0.000000000000000e+00 0.000000000000000e+00 0.000000000000000e+00
0.000000000000000e+00 0.000000000000000e+00 0.000000000000000e+00
0.000000000000000e+00 0.000000000000000e+00 0.000000000000000e+00

0.000000000000000e+00 0.000000000000000e+00 0.000000000000000e+00
0.000000000000000e+00 0.000000000000000e+00 0.000000000000000e+00
0.000000000000000e+00 0.000000000000000e+00 0.000000000000000e+00

0.000000000000000e+00 0.000000000000000e+00 0.000000000000000e+00
0.000000000000000e+00 0.000000000000000e+00 0.000000000000000e+00
0.000000000000000e+00 0.000000000000000e+00 0.000000000000000e+00

0.000000000000000e+00 0.000000000000000e+00 0.000000000000000e+00
0.000000000000000e+00 0.000000000000000e+00 0.000000000000000e+00
0.000000000000000e+00 0.000000000000000e+00 0.000000000000000e+00

0.000000000000000e+00 0.000000000000000e+00 0.000000000000000e+00
0.000000000000000e+00 0.000000000000000e+00 0.000000000000000e+00
0.000000000000000e+00 0.000000000000000e+00 0.000000000000000e+00

0.000000000000000e+00 0.000000000000000e+00 0.000000000000000e+00
0.000000000000000e+00 0.000000000000000e+00 0.000000000000000e+00
0.000000000000000e+00 0.000000000000000e+00 0.000000000000000e+00

0.000000000000000e+00 0.000000000000000e+00 0.000000000000000e+00
0.000000000000000e+00 0.000000000000000e+00 0.000000000000000e+00
0.000000000000000e+00 0.000000000000000e+00 0.000000000000000e+00

0.000000000000000e+00 0.000000000000000e+00 0.000000000000000e+00
0.000000000000000e+00 0.000000000000000e+00 0.000000000000000e+00
0.000000000000000e+00 0.000000000000000e+00 0.000000000000000e+00

0.000000000000000e+00 0.000000000000000e+00 0.000000000000000e+00
0.000000000000000e+00 0.000000000000000e+00 0.000000000000000e+00
0.000000000000000e+00 0.000000000000000e+00 0.000000000000000e+00

0.000000000000000e+00 0.000000000000000e+00 0.000000000000000e+00
0.000000000000000e+00 0.000000000000000e+00 0.000000000000000e+00
0.000000000000000e+00 0.000000000000000e+00 0.000000000000000e+00

0.000000000000000e+00 0.000000000000000e+00 0.000000000000000e+00
0.000000000000000e+00 0.000000000000000e+00 0.000000000000000e+00
0.000000000000000e+00 0.000000000000000e+00 0.000000000000000e+00

0.000000000000000e+00 0.000000000000000e+00 0.000000000000000e+00
0.000000000000000e+00 0.000000000000000e+00 0.000000000000000e+00
0.000000000000000e+00 0.000000000000000e+00 0.000000000000000e+00

0.000000000000000e+00 0.000000000000000e+00 0.000000000000000e+00
0.000000000000000e+00 0.000000000000000e+00 0.000000000000000e+00
0.000000000000000e+00 0.000000000000000e+00 0.000000000000000e+00

0.000000000000000e+00 0.000000000000000e+00 0.000000000000000e+00
0.000000000000000e+00 0.000000000000000e+00 0.000000000000000e+00
0.000000000000000e+00 0.000000000000000e+00 0.000000000000000e+00

0.000000000000000e+00 0.000000000000000e+00 0.000000000000000e+00
0.000000000000000e+00 0.000000000000000e+00 0.000000000000000e+00
0.000000000000000e+00 0.000000000000000e+00 0.000000000000000e+00

0.000000000000000e+00 0.000000000000000e+00 0.000000000000000e+00
0.000000000000000e+00 0.000000000000000e+00 0.000000000000000e+00
0.000000000000000e+00 0.000000000000000e+00 0.000000000000000e+00

0.000000000000000e+00 0.000000000000000e+00 0.000000000000000e+00
0.000000000000000e+00 0.000000000000000e+00 0.000000000000000e+00
0.000000000000000e+00 0.000000000000000e+00 0.000000000000000e+00

0.000000000000000e+00 0.000000000000000e+00 0.000000000000000e+00
0.000000000000000e+00 0.000000000000000e+00 0.000000000000000e+00
0.000000000000000e+00 0.000000000000000e+00 0.000000000000000e+00

0.000000000000000e+00 0.000000000000000e+00 0.000000000000000e+00
0.000000000000000e+00 0.000000000000000e+00 0.000000000000000e+00
0.000000000000000e+00 0.000000000000000e+00 0.000000000000000e+00

0.000000000000000e+00 0.000000000000000e+00 0.000000000000000e+00
0.000000000000000e+00 0.000000000000000e+00 0.000000000000000e+00
0.000000000000000e+00 0.000000000000000e+00 0.000000000000000e+00

0.000000000000000e+00 0.000000000000000e+00 0.000000000000000e+00
0.000000000000000e+00 0.000000000000000e+00 0.000000000000000e+00
0.000000000000000e+00 0.000000000000000e+00 0.000000000000000e+00

0.000000000000000e+00 0.000000000000000e+00 0.000000000000000e+00
0.000000000000000e+00 0.000000000000000e+00 0.000000000000000e+00
0.000000000000000e+00 0.000000000000000e+00 0.000000000000000e+00

0.000000000000000e+00 0.000000000000000e+00 0.000000000000000e+00
0.000000000000000e+00 0.000000000000000e+00 0.000000000000000e+00
0.000000000000000e+00 0.000000000000000e+00 0.000000000000000e+00

0.000000000000000e+00 0.000000000000000e+00 0.000000000000000e+00
0.000000000000000e+00 0.000000000000000e+00 0.000000000000000e+00
0.000000000000000e+00 0.000000000000000e+00 0.000000000000000e+00

0.000000000000000e+00 0.000000000000000e+00 0.000000000000000e+00
0.000000000000000e+00 0.000000000000000e+00 0.000000000000000e+00
0.000000000000000e+00 0.000000000000000e+00 0.000000000000000e+00

0.000000000000000e+00 0.000000000000000e+00 0.000000000000000e+00
0.000000000000000e+00 0.000000000000000e+00 0.000000000000000e+00
0.000000000000000e+00 0.000000000000000e+00 0.000000000000000e+00

0.000000000000000e+00 0.000000000000000e+00 0.000000000000000e+00
0.000000000000000e+00 0.000000000000000e+00 0.000000000000000e+00
0.000000000000000e+00 0.000000000000000e+00 0.000000000000000e+00

0.000000000000000e+00 0.000000000000000e+00 0.000000000000000e+00
0.000000000000000e+00 0.000000000000000e+00 0.000000000000000e+00
0.000000000000000e+00 0.000000000000000e+00 0.000000000000000e+00

0.000000000000000e+00 0.000000000000000e+00 0.000000000000000e+00
0.000000000000000e+00 0.000000000000000e+00 0.000000000000000e+00
0.000000000000000e+00 0.000000000000000e+00 0.000000000000000e+00

0.000000000000000e+00 0.000000000000000e+00 0.000000000000000e+00
0.000000000000000e+00 0.000000000000000e+00 0.000000000000000e+00
0.000000000000000e+00 0.000000000000000e+00 0.000000000000000e+00

0.000000000000000e+00 0.000000000000000e+00 0.000000000000000e+00
0.000000000000000e+00 0.000000000000000e+00 0.000000000000000e+00
0.000000000000000e+00 0.000000000000000e+00 0.000000000000000e+00

0.000000000000000e+00 0.000000000000000e+00 0.000000000000000e+00
0.000000000000000e+00 0.000000000000000e+00 0.000000000000000e+00
0.000000000000000e+00 0.000000000000000e+00 0.000000000000000e+00

0.000000000000000e+00 0.000000000000000e+00 0.000000000000000e+00
0.000000000000000e+00 0.000000000000000e+00 0.000000000000000e+00
0.000000000000000e+00 0.000000000000000e+00 0.000000000000000e+00

0.000000000000000e+00 0.000000000000000e+00 0.000000000000000e+00
0.000000000000000e+00 0.000000000000000e+00 0.000000000000000e+00
0.000000000000000e+00 0.000000000000000e+00 0.000000000000000e+00

0.000000000000000e+00 0.000000000000000e+00 0.000000000000000e+00
0.000000000000000e+00 0.000000000000000e+00 0.000000000000000e+00
0.000000000000000e+00 0.000000000000000e+00 0.000000000000000e+00

0.000000000000000e+00 0.000000000000000e+00 0.000000000000000e+00
0.000000000000000e+00 0.000000000000000e+00 0.000000000000000e+00
0.000000000000000e+00 0.000000000000000e+00 0.000000000000000e+00

0.000000000000000e+00 0.000000000000000e+00 0.000000000000000e+00
0.000000000000000e+00 0.000000000000000e+00 0.000000000000000e+00
0.000000000000000e+00 0.000000000000000e+00 0.000000000000000e+00

0.000000000000000e+00 0.000000000000000e+00 0.000000000000000e+00
0.000000000000000e+00 0.000000000000000e+00 0.000000000000000e+00
0.000000000000000e+00 0.000000000000000e+00 0.000000000000000e+00

0.000000000000000e+00 0.000000000000000e+00 0.000000000000000e+00
0.000000000000000e+00 0.000000000000000e+00 0.000000000000000e+00
0.000000000000000e+00 0.000000000000000e+00 0.000000000000000e+00

0.000000000000000e+00 0.000000000000000e+00 0.000000000000000e+00
0.000000000000000e+00 0.000000000000000e+00 0.000000000000000e+00
0.000000000000000e+00 0.000000000000000e+00 0.000000000000000e+00

0.000000000000000e+00 0.000000000000000e+00 0.000000000000000e+00
0.000000000000000e+00 0.000000000000000e+00 0.000000000000000e+00
0.000000000000000e+00 0.000000000000000e+00 0.000000000000000e+00

0.000000000000000e+00 0.000000000000000e+00 0.000000000000000e+00
0.000000000000000e+00 0.000000000000000e+00 0.000000000000000e+00
0.000000000000000e+00 0.000000000000000e+00 0.000000000000000e+00

0.000000000000000e+00 0.000000000000000e+00 0.000000000000000e+00
0.000000000000000e+00 0.000000000000000e+00 0.000000000000000e+00
0.000000000000000e+00 0.000000000000000e+00 0.000000000000000e+00

0.000000000000000e+00 0.000000000000000e+00 0.000000000000000e+00
0.000000000000000e+00 0.000000000000000e+00 0.000000000000000e+00
0.000000000000000e+00 0.000000000000000e+00 0.000000000000000e+00

0.000000000000000e+00 0.000000000000000e+00 0.000000000000000e+00
0.000000000000000e+00 0.000000000000000e+00 0.000000000000000e+00
0.000000000000000e+00 0.000000000000000e+00 0.000000000000000e+00

0.000000000000000e+00 0.000000000000000e+00 0.000000000000000e+00
0.000000000000000e+00 0.000000000000000e+00 0.000000000000000e+00
0.000000000000000e+00 0.000000000000000e+00 0.000000000000000e+00

0.000000000000000e+00 0.000000000000000e+00 0.000000000000000e+00
0.000000000000000e+00 0.000000000000000e+00 0.000000000000000e+00
0.000000000000000e+00 0.000000000000000e+00 0.000000000000000e+00

0.000000000000000e+00 0.000000000000000e+00 0.000000000000000e+00
0.000000000000000e+00 0.000000000000000e+00 0.000000000000000e+00
0.000000000000000e+00 0.000000000000000e+00 0.000000000000000e+00

0.000000000000000e+00 0.000000000000000e+00 0.000000000000000e+00
0.000000000000000e+00 0.000000000000000e+00 0.000000000000000e+00
0.000000000000000e+00 0.000000000000000e+00 0.000000000000000e+00

0.000000000000000e+00 0.000000000000000e+00 0.000000000000000e+00
0.000000000000000e+00 0.000000000000000e+00 0.000000000000000e+00
0.000000000000000e+00 0.000000000000000e+00 0.000000000000000e+00

0.000000000000000e+00 0.000000000000000e+00 0.000000000000000e+00
0.000000000000000e+00 0.000000000000000e+00 0.000000000000000e+00
0.000000000000000e+00 0.000000000000000e+00 0.000000000000000e+00

0.000000000000000e+00 0.000000000000000e+00 0.000000000000000e+00
0.000000000000000e+00 0.000000000000000e+00 0.000000000000000e+00
0.000000000000000e+00 0.000000000000000e+00 0.000000000000000e+00

0.000000000000000e+00 0.000000000000000e+00 0.000000000000000e+00
0.000000000000000e+00 0.000000000000000e+00 0.000000000000000e+00
0.000000000000000e+00 0.000000000000000e+00 0.000000000000000e+00

0.000000000000000e+00 0.000000000000000e+00 0.000000000000000e+00
0.000000000000000e+00 0.000000000000000e+00 0.000000000000000e+00
0.000000000000000e+00 0.000000000000000e+00 0.000000000000000e+00

0.000000000000000e+00 0.000000000000000e+00 0.000000000000000e+00
0.000000000000000e+00 0.000000000000000e+00 0.000000000000000e+00
0.000000000000000e+00 0.000000000000000e+00 0.000000000000000e+00

0.000000000000000e+00 0.000000000000000e+00 0.000000000000000e+00
0.000000000000000e+00 0.000000000000000e+00 0.000000000000000e+00
0.000000000000000e+00 0.000000000000000e+00 0.000000000000000e+00

0.000000000000000e+00 0.000000000000000e+00 0.000000000000000e+00
0.000000000000000e+00 0.000000000000000e+00 0.000000000000000e+00
0.000000000000000e+00 0.000000000000000e+00 0.000000000000000e+00

0.000000000000000e+00 0.000000000000000e+00 0.000000000000000e+00
0.000000000000000e+00 0.000000000000000e+00 0.000000000000000e+00
0.000000000000000e+00 0.000000000000000e+00 0.000000000000000e+00

0.000000000000000e+00 0.000000000000000e+00 0.000000000000000e+00
0.000000000000000e+00 0.000000000000000e+00 0.000000000000000e+00
0.000000000000000e+00 0.000000000000000e+00 0.000000000000000e+00

0.000000000000000e+00 0.000000000000000e+00 0.000000000000000e+00
0.000000000000000e+00 0.000000000000000e+00 0.000000000000000e+00
0.000000000000000e+00 0.000000000000000e+00 0.000000000000000e+00

0.000000000000000e+00 0.000000000000000e+00 0.000000000000000e+00
0.000000000000000e+00 0.000000000000000e+00 0.000000000000000e+00
0.000000000000000e+00 0.000000000000000e+00 0.000000000000000e+00

0.000000000000000e+00 0.000000000000000e+00 0.000000000000000e+00
0.000000000000000e+00 0.000000000000000e+00 0.000000000000000e+00
0.000000000000000e+00 0.000000000000000e+00 0.000000000000000e+00

0.000000000000000e+00 0.000000000000000e+00 0.000000000000000e+00
0.000000000000000e+00 0.000000000000000e+00 0.000000000000000e+00
0.000000000000000e+00 0.000000000000000e+00 0.000000000000000e+00

0.000000000000000e+00 0.000000000000000e+00 0.000000000000000e+00
0.000000000000000e+00 0.000000000000000e+00 0.000000000000000e+00
0.000000000000000e+00 0.000000000000000e+00 0.000000000000000e+00

0.000000000000000e+00 0.000000000000000e+00 0.000000000000000e+00
0.000000000000000e+00 0.000000000000000e+00 0.000000000000000e+00
0.000000000000000e+00 0.000000000000000e+00 0.000000000000000e+00

0.000000000000000e+00 0.000000000000000e+00 0.000000000000000e+00
0.000000000000000e+00 0.000000000000000e+00 0.000000000000000e+00
0.000000000000000e+00 0.000000000000000e+00 0.000000000000000e+00

0.000000000000000e+00 0.000000000000000e+00 0.000000000000000e+00
0.000000000000000e+00 0.000000000000000e+00 0.000000000000000e+00
0.000000000000000e+00 0.000000000000000e+00 0.000000000000000e+00

0.000000000000000e+00 0.000000000000000e+00 0.000000000000000e+00
0.000000000000000e+00 0.000000000000000e+00 0.000000000000000e+00
0.000000000000000e+00 0.000000000000000e+00 0.000000000000000e+00

0.000000000000000e+00 0.000000000000000e+00 0.000000000000000e+00
0.000000000000000e+00 0.000000000000000e+00 0.000000000000000e+00
0.000000000000000e+00 0.000000000000000e+00 0.000000000000000e+00

0.000000000000000e+00 0.000000000000000e+00 0.000000000000000e+00
0.000000000000000e+00 0.000000000000000e+00 0.000000000000000e+00
0.000000000000000e+00 0.000000000000000e+00 0.000000000000000e+00

0.000000000000000e+00 0.000000000000000e+00 0.000000000000000e+00
0.000000000000000e+00 0.000000000000000e+00 0.000000000000000e+00
0.000000000000000e+00 0.000000000000000e+00 0.000000000000000e+00

0.000000000000000e+00 0.000000000000000e+00 0.000000000000000e+00
0.000000000000000e+00 0.000000000000000e+00 0.000000000000000e+00
0.000000000000000e+00 0.000000000000000e+00 0.000000000000000e+00

0.000000000000000e+00 0.000000000000000e+00 0.000000000000000e+00
0.000000000000000e+00 0.000000000000000e+00 0.000000000000000e+00
0.000000000000000e+00 0.000000000000000e+00 0.000000000000000e+00

0.000000000000000e+00 0.000000000000000e+00 0.000000000000000e+00
0.000000000000000e+00 0.000000000000000e+00 0.000000000000000e+00
0.000000000000000e+00 0.000000000000000e+00 0.000000000000000e+00

0.000000000000000e+00 0.000000000000000e+00 0.000000000000000e+00
0.000000000000000e+00 0.000000000000000e+00 0.000000000000000e+00
0.000000000000000e+00 0.000000000000000e+00 0.000000000000000e+00

0.000000000000000e+00 0.000000000000000e+00 0.000000000000000e+00
0.000000000000000e+00 0.000000000000000e+00 0.000000000000000e+00
0.000000000000000e+00 0.000000000000000e+00 0.000000000000000e+00

0.000000000000000e+00 0.000000000000000e+00 0.000000000000000e+00
0.000000000000000e+00 0.000000000000000e+00 0.000000000000000e+00
0.000000000000000e+00 0.000000000000000e+00 0.000000000000000e+00

0.000000000000000e+00 0.000000000000000e+00 0.000000000000000e+00
0.000000000000000e+00 0.000000000000000e+00 0.000000000000000e+00
0.000000000000000e+00 0.000000000000000e+00 0.000000000000000e+00

0.000000000000000e+00 0.000000000000000e+00 0.000000000000000e+00
0.000000000000000e+00 0.000000000000000e+00 0.000000000000000e+00
0.000000000000000e+00 0.000000000000000e+00 0.000000000000000e+00

0.000000000000000e+00 0.000000000000000e+00 0.000000000000000e+00
0.000000000000000e+00 0.000000000000000e+00 0.000000000000000e+00
0.000000000000000e+00 0.000000000000000e+00 0.000000000000000e+00

0.000000000000000e+00 0.000000000000000e+00 0.000000000000000e+00
0.000000000000000e+00 0.000000000000000e+00 0.000000000000000e+00
0.000000000000000e+00 0.000000000000000e+00 0.000000000000000e+00

0.000000000000000e+00 0.000000000000000e+00 0.000000000000000e+00
0.000000000000000e+00 0.000000000000000e+00 0.000000000000000e+00
0.000000000000000e+00 0.000000000000000e+00 0.000000000000000e+00

0.000000000000000e+00 0.000000000000000e+00 0.000000000000000e+00
0.000000000000000e+00 0.000000000000000e+00 0.000000000000000e+00
0.000000000000000e+00 0.000000000000000e+00 0.000000000000000e+00

0.000000000000000e+00 0.000000000000000e+00 0.000000000000000e+00
0.000000000000000e+00 0.000000000000000e+00 0.000000000000000e+00
0.000000000000000e+00 0.000000000000000e+00 0.000000000000000e+00

0.000000000000000e+00 0.000000000000000e+00 0.000000000000000e+00
0.000000000000000e+00 0.000000000000000e+00 0.000000000000000e+00
0.000000000000000e+00 0.000000000000000e+00 0.000000000000000e+00

0.000000000000000e+00 0.000000000000000e+00 0.000000000000000e+00
0.000000000000000e+00 0.000000000000000e+00 0.000000000000000e+00
0.000000000000000e+00 0.000000000000000e+00 0.000000000000000e+00

0.000000000000000e+00 0.000000000000000e+00 0.000000000000000e+00
0.000000000000000e+00 0.000000000000000e+00 0.000000000000000e+00
0.000000000000000e+00 0.000000000000000e+00 0.000000000000000e+00

0.000000000000000e+00 0.000000000000000e+00 0.000000000000000e+00
0.000000000000000e+00 0.000000000000000e+00 0.000000000000000e+00
0.000000000000000e+00 0.000000000000000e+00 0.000000000000000e+00

0.000000000000000e+00 0.000000000000000e+00 0.000000000000000e+00
0.000000000000000e+00 0.000000000000000e+00 0.000000000000000e+00
0.000000000000000e+00 0.000000000000000e+00 0.000000000000000e+00

0.000000000000000e+00 0.000000000000000e+00 0.000000000000000e+00
0.000000000000000e+00 0.000000000000000e+00 0.000000000000000e+00
0.000000000000000e+00 0.000000000000000e+00 0.000000000000000e+00

0.000000000000000e+00 0.000000000000000e+00 0.000000000000000e+00
0.000000000000000e+00 0.000000000000000e+00 0.000000000000000e+00
0.000000000000000e+00 0.000000000000000e+00 0.000000000000000e+00

0.000000000000000e+00 0.000000000000000e+00 0.000000000000000e+00
0.000000000000000e+00 0.000000000000000e+00 0.000000000000000e+00
0.000000000000000e+00 0.000000000000000e+00 0.000000000000000e+00

0.000000000000000e+00 0.000000000000000e+00 0.000000000000000e+00
0.000000000000000e+00 0.000000000000000e+00 0.000000000000000e+00
0.000000000000000e+00 0.000000000000000e+00 0.000000000000000e+00

0.000000000000000e+00 0.000000000000000e+00 0.000000000000000e+00
0.000000000000000e+00 0.000000000000000e+00 0.000000000000000e+00
0.000000000000000e+00 0.000000000000000e+00 0.000000000000000e+00

0.000000000000000e+00 0.000000000000000e+00 0.000000000000000e+00
0.000000000000000e+00 0.000000000000000e+00 0.000000000000000e+00
0.000000000000000e+00 0.000000000000000e+00 0.000000000000000e+00

0.000000000000000e+00 0.000000000000000e+00 0.000000000000000e+00
0.000000000000000e+00 0.000000000000000e+00 0.000000000000000e+00
0.000000000000000e+00 0.000000000000000e+00 0.000000000000000e+00

0.000000000000000e+00 0.000000000000000e+00 0.000000000000000e+00
0.000000000000000e+00 0.000000000000000e+00 0.000000000000000e+00
0.000000000000000e+00 0.000000000000000e+00 0.000000000000000e+00

0.000000000000000e+00 0.000000000000000e+00 0.000000000000000e+00
0.000000000000000e+00 0.000000000000000e+00 0.000000000000000e+00
0.000000000000000e+00 0.000000000000000e+00 0.000000000000000e+00

0.000000000000000e+00 0.000000000000000e+00 0.000000000000000e+00
0.000000000000000e+00 0.000000000000000e+00 0.000000000000000e+00
0.000000000000000e+00 0.000000000000000e+00 0.000000000000000e+00

0.000000000000000e+00 0.000000000000000e+00 0.000000000000000e+00
0.000000000000000e+00 0.000000000000000e+00 0.000000000000000e+00
0.000000000000000e+00 0.000000000000000e+00 0.000000000000000e+00

0.000000000000000e+00 0.000000000000000e+00 0.000000000000000e+00
0.000000000000000e+00 0.000000000000000e+00 0.000000000000000e+00
0.000000000000000e+00 0.000000000000000e+00 0.000000000000000e+00

0.000000000000000e+00 0.000000000000000e+00 0.000000000000000e+00
0.000000000000000e+00 0.000000000000000e+00 0.000000000000000e+00
0.000000000000000e+00 0.000000000000000e+00 0.000000000000000e+00

0.000000000000000e+00 0.000000000000000e+00 0.000000000000000e+00
0.000000000000000e+00 0.000000000000000e+00 0.000000000000000e+00
0.000000000000000e+00 0.000000000000000e+00 0.000000000000000e+00

0.000000000000000e+00 0.000000000000000e+00 0.000000000000000e+00
0.000000000000000e+00 0.000000000000000e+00 0.000000000000000e+00
0.000000000000000e+00 0.000000000000000e+00 0.000000000000000e+00

0.000000000000000e+00 0.000000000000000e+00 0.000000000000000e+00
0.000000000000000e+00 0.000000000000000e+00 0.000000000000000e+00
0.000000000000000e+00 0.000000000000000e+00 0.000000000000000e+00

0.000000000000000e+00 0.000000000000000e+00 0.000000000000000e+00
0.000000000000000e+00 0.000000000000000e+00 0.000000000000000e+00
0.000000000000000e+00 0.000000000000000e+00 0.000000000000000e+00

0.000000000000000e+00 0.000000000000000e+00 0.000000000000000e+00
0.000000000000000e+00 0.000000000000000e+00 0.000000000000000e+00
0.000000000000000e+00 0.000000000000000e+00 0.000000000000000e+00

0.000000000000000e+00 0.000000000000000e+00 0.000000000000000e+00
0.000000000000000e+00 0.000000000000000e+00 0.000000000000000e+00
0.000000000000000e+00 0.000000000000000e+00 0.000000000000000e+00

0.000000000000000e+00 0.000000000000000e+00 0.000000000000000e+00
0.000000000000000e+00 0.000000000000000e+00 0.000000000000000e+00
0.000000000000000e+00 0.000000000000000e+00 0.000000000000000e+00

0.000000000000000e+00 0.000000000000000e+00 0.000000000000000e+00
0.000000000000000e+00 0.000000000000000e+00 0.000000000000000e+00
0.000000000000000e+00 0.000000000000000e+00 0.000000000000000e+00

0.000000000000000e+00 0.000000000000000e+00 0.000000000000000e+00
0.000000000000000e+00 0.000000000000000e+00 0.000000000000000e+00
0.000000000000000e+00 0.000000000000000e+00 0.000000000000000e+00

0.000000000000000e+00 0.000000000000000e+00 0.000000000000000e+00
0.000000000000000e+00 0.000000000000000e+00 0.000000000000000e+00
0.000000000000000e+00 0.000000000000000e+00 0.000000000000000e+00

0.000000000000000e+00 0.000000000000000e+00 0.000000000000000e+00
0.000000000000000e+00 0.000000000000000e+00 0.000000000000000e+00
0.000000000000000e+00 0.000000000000000e+00 0.000000000000000e+00

0.000000000000000e+00 0.000000000000000e+00 0.000000000000000e+00
0.000000000000000e+00 0.000000000000000e+00 0.000000000000000e+00
0.000000000000000e+00 0.000000000000000e+00 0.000000000000000e+00

0.000000000000000e+00 0.000000000000000e+00 0.000000000000000e+00
0.000000000000000e+00 0.000000000000000e+00 0.000000000000000e+00
0.000000000000000e+00 0.000000000000000e+00 0.000000000000000e+00

0.000000000000000e+00 0.000000000000000e+00 0.000000000000000e+00
0.000000000000000e+00 0.000000000000000e+00 0.000000000000000e+00
0.000000000000000e+00 0.000000000000000e+00 0.000000000000000e+00

0.000000000000000e+00 0.000000000000000e+00 0.000000000000000e+00
0.000000000000000e+00 0.000000000000000e+00 0.000000000000000e+00
0.000000000000000e+00 0.000000000000000e+00 0.000000000000000e+00

0.000000000000000e+00 0.000000000000000e+00 0.000000000000000e+00
0.000000000000000e+00 0.000000000000000e+00 0.000000000000000e+00
0.000000000000000e+00 0.000000000000000e+00 0.000000000000000e+00

0.000000000000000e+00 0.000000000000000e+00 0.000000000000000e+00
0.000000000000000e+00 0.000000000000000e+00 0.000000000000000e+00
0.000000000000000e+00 0.000000000000000e+00 0.000000000000000e+00

0.000000000000000e+00 0.000000000000000e+00 0.000000000000000e+00
0.000000000000000e+00 0.000000000000000e+00 0.000000000000000e+00
0.000000000000000e+00 0.000000000000000e+00 0.000000000000000e+00

0.000000000000000e+00 0.000000000000000e+00 0.000000000000000e+00
0.000000000000000e+00 0.000000000000000e+00 0.000000000000000e+00
0.000000000000000e+00 0.000000000000000e+00 0.000000000000000e+00

0.000000000000000e+00 0.000000000000000e+00 0.000000000000000e+00
0.000000000000000e+00 0.000000000000000e+00 0.000000000000000e+00
0.000000000000000e+00 0.000000000000000e+00 0.000000000000000e+00

0.000000000000000e+00 0.000000000000000e+00 0.000000000000000e+00
0.000000000000000e+00 0.000000000000000e+00 0.000000000000000e+00
0.000000000000000e+00 0.000000000000000e+00 0.000000000000000e+00

0.000000000000000e+00 0.000000000000000e+00 0.000000000000000e+00
0.000000000000000e+00 0.000000000000000e+00 0.000000000000000e+00
0.000000000000000e+00 0.000000000000000e+00 0.000000000000000e+00

0.000000000000000e+00 0.000000000000000e+00 0.000000000000000e+00
0.000000000000000e+00 0.000000000000000e+00 0.000000000000000e+00
0.000000000000000e+00 0.000000000000000e+00 0.000000000000000e+00

0.000000000000000e+00 0.000000000000000e+00 0.000000000000000e+00
0.000000000000000e+00 0.000000000000000e+00 0.000000000000000e+00
0.000000000000000e+00 0.000000000000000e+00 0.000000000000000e+00

0.000000000000000e+00 0.000000000000000e+00 0.000000000000000e+00
0.000000000000000e+00 0.000000000000000e+00 0.000000000000000e+00
0.000000000000000e+00 0.000000000000000e+00 0.000000000000000e+00

0.000000000000000e+00 0.000000000000000e+00 0.000000000000000e+00
0.000000000000000e+00 0.000000000000000e+00 0.000000000000000e+00
0.000000000000000e+00 0.000000000000000e+00 0.000000000000000e+00

0.000000000000000e+00 0.000000000000000e+00 0.000000000000000e+00
0.000000000000000e+00 0.000000000000000e+00 0.000000000000000e+00
0.000000000000000e+00 0.000000000000000e+00 0.000000000000000e+00

0.000000000000000e+00 0.000000000000000e+00 0.000000000000000e+00
0.000000000000000e+00 0.000000000000000e+00 0.000000000000000e+00
0.000000000000000e+00 0.000000000000000e+00 0.000000000000000e+00

0.000000000000000e+00 0.000000000000000e+00 0.000000000000000e+00
0.000000000000000e+00 0.000000000000000e+00 0.000000000000000e+00
0.000000000000000e+00 0.000000000000000e+00 0.000000000000000e+00

0.000000000000000e+00 0.000000000000000e+00 0.000000000000000e+00
0.000000000000000e+00 0.000000000000000e+00 0.000000000000000e+00
0.000000000000000e+00 0.000000000000000e+00 0.000000000000000e+00

0.000000000000000e+00 0.000000000000000e+00 0.000000000000000e+00
0.000000000000000e+00 0.000000000000000e+00 0.000000000000000e+00
0.000000000000000e+00 0.000000000000000e+00 0.000000000000000e+00

0.000000000000000e+00 0.000000000000000e+00 0.000000000000000e+00
0.000000000000000e+00 0.000000000000000e+00 0.000000000000000e+00
0.000000000000000e+00 0.000000000000000e+00 0.000000000000000e+00

0.000000000000000e+00 0.000000000000000e+00 0.000000000000000e+00
0.000000000000000e+00 0.000000000000000e+00 0.000000000000000e+00
0.000000000000000e+00 0.000000000000000e+00 0.000000000000000e+00

0.000000000000000e+00 0.000000000000000e+00 0.000000000000000e+00
0.000000000000000e+00 0.000000000000000e+00 0.000000000000000e+00
0.000000000000000e+00 0.000000000000000e+00 0.000000000000000e+00

0.000000000000000e+00 0.000000000000000e+00 0.000000000000000e+00
0.000000000000000e+00 0.000000000000000e+00 0.000000000000000e+00
0.000000000000000e+00 0.000000000000000e+00 0.000000000000000e+00

0.000000000000000e+00 0.000000000000000e+00 0.000000000000000e+00
0.000000000000000e+00 0.000000000000000e+00 0.000000000000000e+00
0.000000000000000e+00 0.000000000000000e+00 0.000000000000000e+00

0.000000000000000e+00 0.000000000000000e+00 0.000000000000000e+00
0.000000000000000e+00 0.000000000000000e+00 0.000000000000000e+00
0.000000000000000e+00 0.000000000000000e+00 0.000000000000000e+00

0.000000000000000e+00 0.000000000000000e+00 0.000000000000000e+00
0.000000000000000e+00 0.000000000000000e+00 0.000000000000000e+00
0.000000000000000e+00 0.000000000000000e+00 0.000000000000000e+00

0.000000000000000e+00 0.000000000000000e+00 0.000000000000000e+00
0.000000000000000e+00 0.000000000000000e+00 0.000000000000000e+00
0.000000000000000e+00 0.000000000000000e+00 0.000000000000000e+00

0.000000000000000e+00 0.000000000000000e+00 0.000000000000000e+00
0.000000000000000e+00 0.000000000000000e+00 0.000000000000000e+00
0.000000000000000e+00 0.000000000000000e+00 0.000000000000000e+00

0.000000000000000e+00 0.000000000000000e+00 0.000000000000000e+00
0.000000000000000e+00 0.000000000000000e+00 0.000000000000000e+00
0.000000000000000e+00 0.000000000000000e+00 0.000000000000000e+00

0.000000000000000e+00 0.000000000000000e+00 0.000000000000000e+00
0.000000000000000e+00 0.000000000000000e+00 0.000000000000000e+00
0.000000000000000e+00 0.000000000000000e+00 0.000000000000000e+00

0.000000000000000e+00 0.000000000000000e+00 0.000000000000000e+00
0.000000000000000e+00 0.000000000000000e+00 0.000000000000000e+00
0.000000000000000e+00 0.000000000000000e+00 0.000000000000000e+00

0.000000000000000e+00 0.000000000000000e+00 0.000000000000000e+00
0.000000000000000e+00 0.000000000000000e+00 0.000000000000000e+00
0.000000000000000e+00 0.000000000000000e+00 0.000000000000000e+00

0.000000000000000e+00 0.000000000000000e+00 0.000000000000000e+00
0.000000000000000e+00 0.000000000000000e+00 0.000000000000000e+00
0.000000000000000e+00 0.000000000000000e+00 0.000000000000000e+00

0.000000000000000e+00 0.000000000000000e+00 0.000000000000000e+00
0.000000000000000e+00 0.000000000000000e+00 0.000000000000000e+00
0.000000000000000e+00 0.000000000000000e+00 0.000000000000000e+00

0.000000000000000e+00 0.000000000000000e+00 0.000000000000000e+00
0.000000000000000e+00 0.000000000000000e+00 0.000000000000000e+00
0.000000000000000e+00 0.000000000000000e+00 0.000000000000000e+00

0.000000000000000e+00 0.000000000000000e+00 0.000000000000000e+00
0.000000000000000e+00 0.000000000000000e+00 0.000000000000000e+00
0.000000000000000e+00 0.000000000000000e+00 0.000000000000000e+00

0.000000000000000e+00 0.000000000000000e+00 0.000000000000000e+00
0.000000000000000e+00 0.000000000000000e+00 0.000000000000000e+00
0.000000000000000e+00 0.000000000000000e+00 0.000000000000000e+00

0.000000000000000e+00 0.000000000000000e+00 0.000000000000000e+00
0.000000000000000e+00 0.000000000000000e+00 0.000000000000000e+00
0.000000000000000e+00 0.000000000000000e+00 0.000000000000000e+00

0.000000000000000e+00 0.000000000000000e+00 0.000000000000000e+00
0.000000000000000e+00 0.000000000000000e+00 0.000000000000000e+00
0.000000000000000e+00 0.000000000000000e+00 0.000000000000000e+00

0.000000000000000e+00 0.000000000000000e+00 0.000000000000000e+00
0.000000000000000e+00 0.000000000000000e+00 0.000000000000000e+00
0.000000000000000e+00 0.000000000000000e+00 0.000000000000000e+00

0.000000000000000e+00 0.000000000000000e+00 0.000000000000000e+00
0.000000000000000e+00 0.000000000000000e+00 0.000000000000000e+00
0.000000000000000e+00 0.000000000000000e+00 0.000000000000000e+00

0.000000000000000e+00 0.000000000000000e+00 0.000000000000000e+00
0.000000000000000e+00 0.000000000000000e+00 0.000000000000000e+00
0.000000000000000e+00 0.000000000000000e+00 0.000000000000000e+00

0.000000000000000e+00 0.000000000000000e+00 0.000000000000000e+00
0.000000000000000e+00 0.000000000000000e+00 0.000000000000000e+00
0.000000000000000e+00 0.000000000000000e+00 0.000000000000000e+00

0.000000000000000e+00 0.000000000000000e+00 0.000000000000000e+00
0.000000000000000e+00 0.000000000000000e+00 0.000000000000000e+00
0.000000000000000e+00 0.000000000000000e+00 0.000000000000000e+00

0.000000000000000e+00 0.000000000000000e+00 0.000000000000000e+00
0.000000000000000e+00 0.000000000000000e+00 0.000000000000000e+00
0.000000000000000e+00 0.000000000000000e+00 0.000000000000000e+00

0.000000000000000e+00 0.000000000000000e+00 0.000000000000000e+00
0.000000000000000e+00 0.000000000000000e+00 0.000000000000000e+00
0.000000000000000e+00 0.000000000000000e+00 0.000000000000000e+00

0.000000000000000e+00 0.000000000000000e+00 0.000000000000000e+00
0.000000000000000e+00 0.000000000000000e+00 0.000000000000000e+00
0.000000000000000e+00 0.000000000000000e+00 0.000000000000000e+00

0.000000000000000e+00 0.000000000000000e+00 0.000000000000000e+00
0.000000000000000e+00 0.000000000000000e+00 0.000000000000000e+00
0.000000000000000e+00 0.000000000000000e+00 0.000000000000000e+00

0.000000000000000e+00 0.000000000000000e+00 0.000000000000000e+00
0.000000000000000e+00 0.000000000000000e+00 0.000000000000000e+00
0.000000000000000e+00 0.000000000000000e+00 0.000000000000000e+00

0.000000000000000e+00 0.000000000000000e+00 0.000000000000000e+00
0.000000000000000e+00 0.000000000000000e+00 0.000000000000000e+00
0.000000000000000e+00 0.000000000000000e+00 0.000000000000000e+00

0.000000000000000e+00 0.000000000000000e+00 0.000000000000000e+00
0.000000000000000e+00 0.000000000000000e+00 0.000000000000000e+00
0.000000000000000e+00 0.000000000000000e+00 0.000000000000000e+00

0.000000000000000e+00 0.000000000000000e+00 0.000000000000000e+00
0.000000000000000e+00 0.000000000000000e+00 0.000000000000000e+00
0.000000000000000e+00 0.000000000000000e+00 0.000000000000000e+00

0.000000000000000e+00 0.000000000000000e+00 0.000000000000000e+00
0.000000000000000e+00 0.000000000000000e+00 0.000000000000000e+00
0.000000000000000e+00 0.000000000000000e+00 0.000000000000000e+00

0.000000000000000e+00 0.000000000000000e+00 0.000000000000000e+00
0.000000000000000e+00 0.000000000000000e+00 0.000000000000000e+00
0.000000000000000e+00 0.000000000000000e+00 0.000000000000000e+00

0.000000000000000e+00 0.000000000000000e+00 0.000000000000000e+00
0.000000000000000e+00 0.000000000000000e+00 0.000000000000000e+00
0.000000000000000e+00 0.000000000000000e+00 0.000000000000000e+00

0.000000000000000e+00 0.000000000000000e+00 0.000000000000000e+00
0.000000000000000e+00 0.000000000000000e+00 0.000000000000000e+00
0.000000000000000e+00 0.000000000000000e+00 0.000000000000000e+00

0.000000000000000e+00 0.000000000000000e+00 0.000000000000000e+00
0.000000000000000e+00 0.000000000000000e+00 0.000000000000000e+00
0.000000000000000e+00 0.000000000000000e+00 0.000000000000000e+00

0.000000000000000e+00 0.000000000000000e+00 0.000000000000000e+00
0.000000000000000e+00 0.000000000000000e+00 0.000000000000000e+00
0.000000000000000e+00 0.000000000000000e+00 0.000000000000000e+00

0.000000000000000e+00 0.000000000000000e+00 0.000000000000000e+00
0.000000000000000e+00 0.000000000000000e+00 0.000000000000000e+00
0.000000000000000e+00 0.000000000000000e+00 0.000000000000000e+00

0.000000000000000e+00 0.000000000000000e+00 0.000000000000000e+00
0.000000000000000e+00 0.000000000000000e+00 0.000000000000000e+00
0.000000000000000e+00 0.000000000000000e+00 0.000000000000000e+00

0.000000000000000e+00 0.000000000000000e+00 0.000000000000000e+00
0.000000000000000e+00 0.000000000000000e+00 0.000000000000000e+00
0.000000000000000e+00 0.000000000000000e+00 0.000000000000000e+00

0.000000000000000e+00 0.000000000000000e+00 0.000000000000000e+00
0.000000000000000e+00 0.000000000000000e+00 0.000000000000000e+00
0.000000000000000e+00 0.000000000000000e+00 0.000000000000000e+00

0.000000000000000e+00 0.000000000000000e+00 0.000000000000000e+00
0.000000000000000e+00 0.000000000000000e+00 0.000000000000000e+00
0.000000000000000e+00 0.000000000000000e+00 0.000000000000000e+00

0.000000000000000e+00 0.000000000000000e+00 0.000000000000000e+00
0.000000000000000e+00 0.000000000000000e+00 0.000000000000000e+00
0.000000000000000e+00 0.000000000000000e+00 0.000000000000000e+00

0.000000000000000e+00 0.000000000000000e+00 0.000000000000000e+00
0.000000000000000e+00 0.000000000000000e+00 0.000000000000000e+00
0.000000000000000e+00 0.000000000000000e+00 0.000000000000000e+00

0.000000000000000e+00 0.000000000000000e+00 0.000000000000000e+00
0.000000000000000e+00 0.000000000000000e+00 0.000000000000000e+00
0.000000000000000e+00 0.000000000000000e+00 0.000000000000000e+00

0.000000000000000e+00 0.000000000000000e+00 0.000000000000000e+00
0.000000000000000e+00 0.000000000000000e+00 0.000000000000000e+00
0.000000000000000e+00 0.000000000000000e+00 0.000000000000000e+00

0.000000000000000e+00 0.000000000000000e+00 0.000000000000000e+00
0.000000000000000e+00 0.000000000000000e+00 0.000000000000000e+00
0.000000000000000e+00 0.000000000000000e+00 0.000000000000000e+00

0.000000000000000e+00 0.000000000000000e+00 0.000000000000000e+00
0.000000000000000e+00 0.000000000000000e+00 0.000000000000000e+00
0.000000000000000e+00 0.000000000000000e+00 0.000000000000000e+00

0.000000000000000e+00 0.000000000000000e+00 0.000000000000000e+00
0.000000000000000e+00 0.000000000000000e+00 0.000000000000000e+00
0.000000000000000e+00 0.000000000000000e+00 0.000000000000000e+00

0.000000000000000e+00 0.000000000000000e+00 0.000000000000000e+00
0.000000000000000e+00 0.000000000000000e+00 0.000000000000000e+00
0.000000000000000e+00 0.000000000000000e+00 0.000000000000000e+00

0.000000000000000e+00 0.000000000000000e+00 0.000000000000000e+00
0.000000000000000e+00 0.000000000000000e+00 0.000000000000000e+00
0.000000000000000e+00 0.000000000000000e+00 0.000000000000000e+00

0.000000000000000e+00 0.000000000000000e+00 0.000000000000000e+00
0.000000000000000e+00 0.000000000000000e+00 0.000000000000000e+00
0.000000000000000e+00 0.000000000000000e+00 0.000000000000000e+00

0.000000000000000e+00 0.000000000000000e+00 0.000000000000000e+00
0.000000000000000e+00 0.000000000000000e+00 0.000000000000000e+00
0.000000000000000e+00 0.000000000000000e+00 0.000000000000000e+00

0.000000000000000e+00 0.000000000000000e+00 0.000000000000000e+00
0.000000000000000e+00 0.000000000000000e+00 0.000000000000000e+00
0.000000000000000e+00 0.000000000000000e+00 0.000000000000000e+00

0.000000000000000e+00 0.000000000000000e+00 0.000000000000000e+00
0.000000000000000e+00 0.000000000000000e+00 0.000000000000000e+00
0.000000000000000e+00 0.000000000000000e+00 0.000000000000000e+00

0.000000000000000e+00 0.000000000000000e+00 0.000000000000000e+00
0.000000000000000e+00 0.000000000000000e+00 0.000000000000000e+00
0.000000000000000e+00 0.000000000000000e+00 0.000000000000000e+00

0.000000000000000e+00 0.000000000000000e+00 0.000000000000000e+00
0.000000000000000e+00 0.000000000000000e+00 0.000000000000000e+00
0.000000000000000e+00 0.000000000000000e+00 0.000000000000000e+00

0.000000000000000e+00 0.000000000000000e+00 0.000000000000000e+00
0.000000000000000e+00 0.000000000000000e+00 0.000000000000000e+00
0.000000000000000e+00 0.000000000000000e+00 0.000000000000000e+00

0.000000000000000e+00 0.000000000000000e+00 0.000000000000000e+00
0.000000000000000e+00 0.000000000000000e+00 0.000000000000000e+00
0.000000000000000e+00 0.000000000000000e+00 0.000000000000000e+00

0.000000000000000e+00 0.000000000000000e+00 0.000000000000000e+00
0.000000000000000e+00 0.000000000000000e+00 0.000000000000000e+00
0.000000000000000e+00 0.000000000000000e+00 0.000000000000000e+00

0.000000000000000e+00 0.000000000000000e+00 0.000000000000000e+00
0.000000000000000e+00 0.000000000000000e+00 0.000000000000000e+00
0.000000000000000e+00 0.000000000000000e+00 0.000000000000000e+00

0.000000000000000e+00 0.000000000000000e+00 0.000000000000000e+00
0.000000000000000e+00 0.000000000000000e+00 0.000000000000000e+00
0.000000000000000e+00 0.000000000000000e+00 0.000000000000000e+00

0.000000000000000e+00 0.000000000000000e+00 0.000000000000000e+00
0.000000000000000e+00 0.000000000000000e+00 0.000000000000000e+00
0.000000000000000e+00 0.000000000000000e+00 0.000000000000000e+00

0.000000000000000e+00 0.000000000000000e+00 0.000000000000000e+00
0.000000000000000e+00 0.000000000000000e+00 0.000000000000000e+00
0.000000000000000e+00 0.000000000000000e+00 0.000000000000000e+00

0.000000000000000e+00 0.000000000000000e+00 0.000000000000000e+00
0.000000000000000e+00 0.000000000000000e+00 0.000000000000000e+00
0.000000000000000e+00 0.000000000000000e+00 0.000000000000000e+00

0.000000000000000e+00 0.000000000000000e+00 0.000000000000000e+00
0.000000000000000e+00 0.000000000000000e+00 0.000000000000000e+00
0.000000000000000e+00 0.000000000000000e+00 0.000000000000000e+00

0.000000000000000e+00 0.000000000000000e+00 0.000000000000000e+00
0.000000000000000e+00 0.000000000000000e+00 0.000000000000000e+00
0.000000000000000e+00 0.000000000000000e+00 0.000000000000000e+00

0.000000000000000e+00 0.000000000000000e+00 0.000000000000000e+00
0.000000000000000e+00 0.000000000000000e+00 0.000000000000000e+00
0.000000000000000e+00 0.000000000000000e+00 0.000000000000000e+00

0.000000000000000e+00 0.000000000000000e+00 0.000000000000000e+00
0.000000000000000e+00 0.000000000000000e+00 0.000000000000000e+00
0.000000000000000e+00 0.000000000000000e+00 0.000000000000000e+00

0.000000000000000e+00 0.000000000000000e+00 0.000000000000000e+00
0.000000000000000e+00 0.000000000000000e+00 0.000000000000000e+00
0.000000000000000e+00 0.000000000000000e+00 0.000000000000000e+00

0.000000000000000e+00 0.000000000000000e+00 0.000000000000000e+00
0.000000000000000e+00 0.000000000000000e+00 0.000000000000000e+00
0.000000000000000e+00 0.000000000000000e+00 0.000000000000000e+00

0.000000000000000e+00 0.000000000000000e+00 0.000000000000000e+00
0.000000000000000e+00 0.000000000000000e+00 0.000000000000000e+00
0.000000000000000e+00 0.000000000000000e+00 0.000000000000000e+00

0.000000000000000e+00 0.000000000000000e+00 0.000000000000000e+00
0.000000000000000e+00 0.000000000000000e+00 0.000000000000000e+00
0.000000000000000e+00 0.000000000000000e+00 0.000000000000000e+00

0.000000000000000e+00 0.000000000000000e+00 0.000000000000000e+00
0.000000000000000e+00 0.000000000000000e+00 0.000000000000000e+00
0.000000000000000e+00 0.000000000000000e+00 0.000000000000000e+00

0.000000000000000e+00 0.000000000000000e+00 0.000000000000000e+00
0.000000000000000e+00 0.000000000000000e+00 0.000000000000000e+00
0.000000000000000e+00 0.000000000000000e+00 0.000000000000000e+00

0.000000000000000e+00 0.000000000000000e+00 0.000000000000000e+00
0.000000000000000e+00 0.000000000000000e+00 0.000000000000000e+00
0.000000000000000e+00 0.000000000000000e+00 0.000000000000000e+00

0.000000000000000e+00 0.000000000000000e+00 0.000000000000000e+00
0.000000000000000e+00 0.000000000000000e+00 0.000000000000000e+00
0.000000000000000e+00 0.000000000000000e+00 0.000000000000000e+00

0.000000000000000e+00 0.000000000000000e+00 0.000000000000000e+00
0.000000000000000e+00 0.000000000000000e+00 0.000000000000000e+00
0.000000000000000e+00 0.000000000000000e+00 0.000000000000000e+00

0.000000000000000e+00 0.000000000000000e+00 0.000000000000000e+00
0.000000000000000e+00 0.000000000000000e+00 0.000000000000000e+00
0.000000000000000e+00 0.000000000000000e+00 0.000000000000000e+00

0.000000000000000e+00 0.000000000000000e+00 0.000000000000000e+00
0.000000000000000e+00 0.000000000000000e+00 0.000000000000000e+00
0.000000000000000e+00 0.000000000000000e+00 0.000000000000000e+00

0.000000000000000e+00 0.000000000000000e+00 0.000000000000000e+00
0.000000000000000e+00 0.000000000000000e+00 0.000000000000000e+00
0.000000000000000e+00 0.000000000000000e+00 0.000000000000000e+00

0.000000000000000e+00 0.000000000000000e+00 0.000000000000000e+00
0.000000000000000e+00 0.000000000000000e+00 0.000000000000000e+00
0.000000000000000e+00 0.000000000000000e+00 0.000000000000000e+00

0.000000000000000e+00 0.000000000000000e+00 0.000000000000000e+00
0.000000000000000e+00 0.000000000000000e+00 0.000000000000000e+00
0.000000000000000e+00 0.000000000000000e+00 0.000000000000000e+00

0.000000000000000e+00 0.000000000000000e+00 0.000000000000000e+00
0.000000000000000e+00 0.000000000000000e+00 0.000000000000000e+00
0.000000000000000e+00 0.000000000000000e+00 0.000000000000000e+00

0.000000000000000e+00 0.000000000000000e+00 0.000000000000000e+00
0.000000000000000e+00 0.000000000000000e+00 0.000000000000000e+00
0.000000000000000e+00 0.000000000000000e+00 0.000000000000000e+00

0.000000000000000e+00 0.000000000000000e+00 0.000000000000000e+00
0.000000000000000e+00 0.000000000000000e+00 0.000000000000000e+00
0.000000000000000e+00 0.000000000000000e+00 0.000000000000000e+00

0.000000000000000e+00 0.000000000000000e+00 0.000000000000000e+00
0.000000000000000e+00 0.000000000000000e+00 0.000000000000000e+00
0.000000000000000e+00 0.000000000000000e+00 0.000000000000000e+00

0.000000000000000e+00 0.000000000000000e+00 0.000000000000000e+00
0.000000000000000e+00 0.000000000000000e+00 0.000000000000000e+00
0.000000000000000e+00 0.000000000000000e+00 0.000000000000000e+00

0.000000000000000e+00 0.000000000000000e+00 0.000000000000000e+00
0.000000000000000e+00 0.000000000000000e+00 0.000000000000000e+00
0.000000000000000e+00 0.000000000000000e+00 0.000000000000000e+00

0.000000000000000e+00 0.000000000000000e+00 0.000000000000000e+00
0.000000000000000e+00 0.000000000000000e+00 0.000000000000000e+00
0.000000000000000e+00 0.000000000000000e+00 0.000000000000000e+00

0.000000000000000e+00 0.000000000000000e+00 0.000000000000000e+00
0.000000000000000e+00 0.000000000000000e+00 0.000000000000000e+00
0.000000000000000e+00 0.000000000000000e+00 0.000000000000000e+00

0.000000000000000e+00 0.000000000000000e+00 0.000000000000000e+00
0.000000000000000e+00 0.000000000000000e+00 0.000000000000000e+00
0.000000000000000e+00 0.000000000000000e+00 0.000000000000000e+00

0.000000000000000e+00 0.000000000000000e+00 0.000000000000000e+00
0.000000000000000e+00 0.000000000000000e+00 0.000000000000000e+00
0.000000000000000e+00 0.000000000000000e+00 0.000000000000000e+00

0.000000000000000e+00 0.000000000000000e+00 0.000000000000000e+00
0.000000000000000e+00 0.000000000000000e+00 0.000000000000000e+00
0.000000000000000e+00 0.000000000000000e+00 0.000000000000000e+00

0.000000000000000e+00 0.000000000000000e+00 0.000000000000000e+00
0.000000000000000e+00 0.000000000000000e+00 0.000000000000000e+00
0.000000000000000e+00 0.000000000000000e+00 0.000000000000000e+00

0.000000000000000e+00 0.000000000000000e+00 0.000000000000000e+00
0.000000000000000e+00 0.000000000000000e+00 0.000000000000000e+00
0.000000000000000e+00 0.000000000000000e+00 0.000000000000000e+00

0.000000000000000e+00 0.000000000000000e+00 0.000000000000000e+00
0.000000000000000e+00 0.000000000000000e+00 0.000000000000000e+00
0.000000000000000e+00 0.000000000000000e+00 0.000000000000000e+00

0.000000000000000e+00 0.000000000000000e+00 0.000000000000000e+00
0.000000000000000e+00 0.000000000000000e+00 0.000000000000000e+00
0.000000000000000e+00 0.000000000000000e+00 0.000000000000000e+00

0.000000000000000e+00 0.000000000000000e+00 0.000000000000000e+00
0.000000000000000e+00 0.000000000000000e+00 0.000000000000000e+00
0.000000000000000e+00 0.000000000000000e+00 0.000000000000000e+00

0.000000000000000e+00 0.000000000000000e+00 0.000000000000000e+00
0.000000000000000e+00 0.000000000000000e+00 0.000000000000000e+00
0.000000000000000e+00 0.000000000000000e+00 0.000000000000000e+00

0.000000000000000e+00 0.000000000000000e+00 0.000000000000000e+00
0.000000000000000e+00 0.000000000000000e+00 0.000000000000000e+00
0.000000000000000e+00 0.000000000000000e+00 0.000000000000000e+00

0.000000000000000e+00 0.000000000000000e+00 0.000000000000000e+00
0.000000000000000e+00 0.000000000000000e+00 0.000000000000000e+00
0.000000000000000e+00 0.000000000000000e+00 0.000000000000000e+00

0.000000000000000e+00 0.000000000000000e+00 0.000000000000000e+00
0.000000000000000e+00 0.000000000000000e+00 0.000000000000000e+00
0.000000000000000e+00 0.000000000000000e+00 0.000000000000000e+00

0.000000000000000e+00 0.000000000000000e+00 0.000000000000000e+00
0.000000000000000e+00 0.000000000000000e+00 0.000000000000000e+00
0.000000000000000e+00 0.000000000000000e+00 0.000000000000000e+00

0.000000000000000e+00 0.000000000000000e+00 0.000000000000000e+00
0.000000000000000e+00 0.000000000000000e+00 0.000000000000000e+00
0.000000000000000e+00 0.000000000000000e+00 0.000000000000000e+00

0.000000000000000e+00 0.000000000000000e+00 0.000000000000000e+00
0.000000000000000e+00 0.000000000000000e+00 0.000000000000000e+00
0.000000000000000e+00 0.000000000000000e+00 0.000000000000000e+00

0.000000000000000e+00 0.000000000000000e+00 0.000000000000000e+00
0.000000000000000e+00 0.000000000000000e+00 0.000000000000000e+00
0.000000000000000e+00 0.000000000000000e+00 0.000000000000000e+00

0.000000000000000e+00 0.000000000000000e+00 0.000000000000000e+00
0.000000000000000e+00 0.000000000000000e+00 0.000000000000000e+00
0.000000000000000e+00 0.000000000000000e+00 0.000000000000000e+00

0.000000000000000e+00 0.000000000000000e+00 0.000000000000000e+00
0.000000000000000e+00 0.000000000000000e+00 0.000000000000000e+00
0.000000000000000e+00 0.000000000000000e+00 0.000000000000000e+00

0.000000000000000e+00 0.000000000000000e+00 0.000000000000000e+00
0.000000000000000e+00 0.000000000000000e+00 0.000000000000000e+00
0.000000000000000e+00 0.000000000000000e+00 0.000000000000000e+00

0.000000000000000e+00 0.000000000000000e+00 0.000000000000000e+00
0.000000000000000e+00 0.000000000000000e+00 0.000000000000000e+00
0.000000000000000e+00 0.000000000000000e+00 0.000000000000000e+00

0.000000000000000e+00 0.000000000000000e+00 0.000000000000000e+00
0.000000000000000e+00 0.000000000000000e+00 0.000000000000000e+00
0.000000000000000e+00 0.000000000000000e+00 0.000000000000000e+00

0.000000000000000e+00 0.000000000000000e+00 0.000000000000000e+00
0.000000000000000e+00 0.000000000000000e+00 0.000000000000000e+00
0.000000000000000e+00 0.000000000000000e+00 0.000000000000000e+00

0.000000000000000e+00 0.000000000000000e+00 0.000000000000000e+00
0.000000000000000e+00 0.000000000000000e+00 0.000000000000000e+00
0.000000000000000e+00 0.000000000000000e+00 0.000000000000000e+00

0.000000000000000e+00 0.000000000000000e+00 0.000000000000000e+00
0.000000000000000e+00 0.000000000000000e+00 0.000000000000000e+00
0.000000000000000e+00 0.000000000000000e+00 0.000000000000000e+00

0.000000000000000e+00 0.000000000000000e+00 0.000000000000000e+00
0.000000000000000e+00 0.000000000000000e+00 0.000000000000000e+00
0.000000000000000e+00 0.000000000000000e+00 0.000000000000000e+00

0.000000000000000e+00 0.000000000000000e+00 0.000000000000000e+00
0.000000000000000e+00 0.000000000000000e+00 0.000000000000000e+00
0.000000000000000e+00 0.000000000000000e+00 0.000000000000000e+00

0.000000000000000e+00 0.000000000000000e+00 0.000000000000000e+00
0.000000000000000e+00 0.000000000000000e+00 0.000000000000000e+00
0.000000000000000e+00 0.000000000000000e+00 0.000000000000000e+00

0.000000000000000e+00 0.000000000000000e+00 0.000000000000000e+00
0.000000000000000e+00 0.000000000000000e+00 0.000000000000000e+00
0.000000000000000e+00 0.000000000000000e+00 0.000000000000000e+00

0.000000000000000e+00 0.000000000000000e+00 0.000000000000000e+00
0.000000000000000e+00 0.000000000000000e+00 0.000000000000000e+00
0.000000000000000e+00 0.000000000000000e+00 0.000000000000000e+00

0.000000000000000e+00 0.000000000000000e+00 0.000000000000000e+00
0.000000000000000e+00 0.000000000000000e+00 0.000000000000000e+00
0.000000000000000e+00 0.000000000000000e+00 0.000000000000000e+00

0.000000000000000e+00 0.000000000000000e+00 0.000000000000000e+00
0.000000000000000e+00 0.000000000000000e+00 0.000000000000000e+00
0.000000000000000e+00 0.000000000000000e+00 0.000000000000000e+00

0.000000000000000e+00 0.000000000000000e+00 0.000000000000000e+00
0.000000000000000e+00 0.000000000000000e+00 0.000000000000000e+00
0.000000000000000e+00 0.000000000000000e+00 0.000000000000000e+00

0.000000000000000e+00 0.000000000000000e+00 0.000000000000000e+00
0.000000000000000e+00 0.000000000000000e+00 0.000000000000000e+00
0.000000000000000e+00 0.000000000000000e+00 0.000000000000000e+00

0.000000000000000e+00 0.000000000000000e+00 0.000000000000000e+00
0.000000000000000e+00 0.000000000000000e+00 0.000000000000000e+00
0.000000000000000e+00 0.000000000000000e+00 0.000000000000000e+00

0.000000000000000e+00 0.000000000000000e+00 0.000000000000000e+00
0.000000000000000e+00 0.000000000000000e+00 0.000000000000000e+00
0.000000000000000e+00 0.000000000000000e+00 0.000000000000000e+00

0.000000000000000e+00 0.000000000000000e+00 0.000000000000000e+00
0.000000000000000e+00 0.000000000000000e+00 0.000000000000000e+00
0.000000000000000e+00 0.000000000000000e+00 0.000000000000000e+00

0.000000000000000e+00 0.000000000000000e+00 0.000000000000000e+00
0.000000000000000e+00 0.000000000000000e+00 0.000000000000000e+00
0.000000000000000e+00 0.000000000000000e+00 0.000000000000000e+00

0.000000000000000e+00 0.000000000000000e+00 0.000000000000000e+00
0.000000000000000e+00 0.000000000000000e+00 0.000000000000000e+00
0.000000000000000e+00 0.000000000000000e+00 0.000000000000000e+00

0.000000000000000e+00 0.000000000000000e+00 0.000000000000000e+00
0.000000000000000e+00 0.000000000000000e+00 0.000000000000000e+00
0.000000000000000e+00 0.000000000000000e+00 0.000000000000000e+00

0.000000000000000e+00 0.000000000000000e+00 0.000000000000000e+00
0.000000000000000e+00 0.000000000000000e+00 0.000000000000000e+00
0.000000000000000e+00 0.000000000000000e+00 0.000000000000000e+00

0.000000000000000e+00 0.000000000000000e+00 0.000000000000000e+00
0.000000000000000e+00 0.000000000000000e+00 0.000000000000000e+00
0.000000000000000e+00 0.000000000000000e+00 0.000000000000000e+00

0.000000000000000e+00 0.000000000000000e+00 0.000000000000000e+00
0.000000000000000e+00 0.000000000000000e+00 0.000000000000000e+00
0.000000000000000e+00 0.000000000000000e+00 0.000000000000000e+00

0.000000000000000e+00 0.000000000000000e+00 0.000000000000000e+00
0.000000000000000e+00 0.000000000000000e+00 0.000000000000000e+00
0.000000000000000e+00 0.000000000000000e+00 0.000000000000000e+00

0.000000000000000e+00 0.000000000000000e+00 0.000000000000000e+00
0.000000000000000e+00 0.000000000000000e+00 0.000000000000000e+00
0.000000000000000e+00 0.000000000000000e+00 0.000000000000000e+00

0.000000000000000e+00 0.000000000000000e+00 0.000000000000000e+00
0.000000000000000e+00 0.000000000000000e+00 0.000000000000000e+00
0.000000000000000e+00 0.000000000000000e+00 0.000000000000000e+00

0.000000000000000e+00 0.000000000000000e+00 0.000000000000000e+00
0.000000000000000e+00 0.000000000000000e+00 0.000000000000000e+00
0.000000000000000e+00 0.000000000000000e+00 0.000000000000000e+00

0.000000000000000e+00 0.000000000000000e+00 0.000000000000000e+00
0.000000000000000e+00 0.000000000000000e+00 0.000000000000000e+00
0.000000000000000e+00 0.000000000000000e+00 0.000000000000000e+00

0.000000000000000e+00 0.000000000000000e+00 0.000000000000000e+00
0.000000000000000e+00 0.000000000000000e+00 0.000000000000000e+00
0.000000000000000e+00 0.000000000000000e+00 0.000000000000000e+00

0.000000000000000e+00 0.000000000000000e+00 0.000000000000000e+00
0.000000000000000e+00 0.000000000000000e+00 0.000000000000000e+00
0.000000000000000e+00 0.000000000000000e+00 0.000000000000000e+00

0.000000000000000e+00 0.000000000000000e+00 0.000000000000000e+00
0.000000000000000e+00 0.000000000000000e+00 0.000000000000000e+00
0.000000000000000e+00 0.000000000000000e+00 0.000000000000000e+00

0.000000000000000e+00 0.000000000000000e+00 0.000000000000000e+00
0.000000000000000e+00 0.000000000000000e+00 0.000000000000000e+00
0.000000000000000e+00 0.000000000000000e+00 0.000000000000000e+00

0.000000000000000e+00 0.000000000000000e+00 0.000000000000000e+00
0.000000000000000e+00 0.000000000000000e+00 0.000000000000000e+00
0.000000000000000e+00 0.000000000000000e+00 0.000000000000000e+00

0.000000000000000e+00 0.000000000000000e+00 0.000000000000000e+00
0.000000000000000e+00 0.000000000000000e+00 0.000000000000000e+00
0.000000000000000e+00 0.000000000000000e+00 0.000000000000000e+00

0.000000000000000e+00 0.000000000000000e+00 0.000000000000000e+00
0.000000000000000e+00 0.000000000000000e+00 0.000000000000000e+00
0.000000000000000e+00 0.000000000000000e+00 0.000000000000000e+00

0.000000000000000e+00 0.000000000000000e+00 0.000000000000000e+00
0.000000000000000e+00 0.000000000000000e+00 0.000000000000000e+00
0.000000000000000e+00 0.000000000000000e+00 0.000000000000000e+00

0.000000000000000e+00 0.000000000000000e+00 0.000000000000000e+00
0.000000000000000e+00 0.000000000000000e+00 0.000000000000000e+00
0.000000000000000e+00 0.000000000000000e+00 0.000000000000000e+00

0.000000000000000e+00 0.000000000000000e+00 0.000000000000000e+00
0.000000000000000e+00 0.000000000000000e+00 0.000000000000000e+00
0.000000000000000e+00 0.000000000000000e+00 0.000000000000000e+00

0.000000000000000e+00 0.000000000000000e+00 0.000000000000000e+00
0.000000000000000e+00 0.000000000000000e+00 0.000000000000000e+00
0.000000000000000e+00 0.000000000000000e+00 0.000000000000000e+00

0.000000000000000e+00 0.000000000000000e+00 0.000000000000000e+00
0.000000000000000e+00 0.000000000000000e+00 0.000000000000000e+00
0.000000000000000e+00 0.000000000000000e+00 0.000000000000000e+00

0.000000000000000e+00 0.000000000000000e+00 0.000000000000000e+00
0.000000000000000e+00 0.000000000000000e+00 0.000000000000000e+00
0.000000000000000e+00 0.000000000000000e+00 0.000000000000000e+00

0.000000000000000e+00 0.000000000000000e+00 0.000000000000000e+00
0.000000000000000e+00 0.000000000000000e+00 0.000000000000000e+00
0.000000000000000e+00 0.000000000000000e+00 0.000000000000000e+00

0.000000000000000e+00 0.000000000000000e+00 0.000000000000000e+00
0.000000000000000e+00 0.000000000000000e+00 0.000000000000000e+00
0.000000000000000e+00 0.000000000000000e+00 0.000000000000000e+00

0.000000000000000e+00 0.000000000000000e+00 0.000000000000000e+00
0.000000000000000e+00 0.000000000000000e+00 0.000000000000000e+00
0.000000000000000e+00 0.000000000000000e+00 0.000000000000000e+00

0.000000000000000e+00 0.000000000000000e+00 0.000000000000000e+00
0.000000000000000e+00 0.000000000000000e+00 0.000000000000000e+00
0.000000000000000e+00 0.000000000000000e+00 0.000000000000000e+00

0.000000000000000e+00 0.000000000000000e+00 0.000000000000000e+00
0.000000000000000e+00 0.000000000000000e+00 0.000000000000000e+00
0.000000000000000e+00 0.000000000000000e+00 0.000000000000000e+00

0.000000000000000e+00 0.000000000000000e+00 0.000000000000000e+00
0.000000000000000e+00 0.000000000000000e+00 0.000000000000000e+00
0.000000000000000e+00 0.000000000000000e+00 0.000000000000000e+00

0.000000000000000e+00 0.000000000000000e+00 0.000000000000000e+00
0.000000000000000e+00 0.000000000000000e+00 0.000000000000000e+00
0.000000000000000e+00 0.000000000000000e+00 0.000000000000000e+00

0.000000000000000e+00 0.000000000000000e+00 0.000000000000000e+00
0.000000000000000e+00 0.000000000000000e+00 0.000000000000000e+00
0.000000000000000e+00 0.000000000000000e+00 0.000000000000000e+00

0.000000000000000e+00 0.000000000000000e+00 0.000000000000000e+00
0.000000000000000e+00 0.000000000000000e+00 0.000000000000000e+00
0.000000000000000e+00 0.000000000000000e+00 0.000000000000000e+00

0.000000000000000e+00 0.000000000000000e+00 0.000000000000000e+00
0.000000000000000e+00 0.000000000000000e+00 0.000000000000000e+00
0.000000000000000e+00 0.000000000000000e+00 0.000000000000000e+00

0.000000000000000e+00 0.000000000000000e+00 0.000000000000000e+00
0.000000000000000e+00 0.000000000000000e+00 0.000000000000000e+00
0.000000000000000e+00 0.000000000000000e+00 0.000000000000000e+00

0.000000000000000e+00 0.000000000000000e+00 0.000000000000000e+00
0.000000000000000e+00 0.000000000000000e+00 0.000000000000000e+00
0.000000000000000e+00 0.000000000000000e+00 0.000000000000000e+00

0.000000000000000e+00 0.000000000000000e+00 0.000000000000000e+00
0.000000000000000e+00 0.000000000000000e+00 0.000000000000000e+00
0.000000000000000e+00 0.000000000000000e+00 0.000000000000000e+00

0.000000000000000e+00 0.000000000000000e+00 0.000000000000000e+00
0.000000000000000e+00 0.000000000000000e+00 0.000000000000000e+00
0.000000000000000e+00 0.000000000000000e+00 0.000000000000000e+00

0.000000000000000e+00 0.000000000000000e+00 0.000000000000000e+00
0.000000000000000e+00 0.000000000000000e+00 0.000000000000000e+00
0.000000000000000e+00 0.000000000000000e+00 0.000000000000000e+00

0.000000000000000e+00 0.000000000000000e+00 0.000000000000000e+00
0.000000000000000e+00 0.000000000000000e+00 0.000000000000000e+00
0.000000000000000e+00 0.000000000000000e+00 0.000000000000000e+00

0.000000000000000e+00 0.000000000000000e+00 0.000000000000000e+00
0.000000000000000e+00 0.000000000000000e+00 0.000000000000000e+00
0.000000000000000e+00 0.000000000000000e+00 0.000000000000000e+00

0.000000000000000e+00 0.000000000000000e+00 0.000000000000000e+00
0.000000000000000e+00 0.000000000000000e+00 0.000000000000000e+00
0.000000000000000e+00 0.000000000000000e+00 0.000000000000000e+00

0.000000000000000e+00 0.000000000000000e+00 0.000000000000000e+00
0.000000000000000e+00 0.000000000000000e+00 0.000000000000000e+00
0.000000000000000e+00 0.000000000000000e+00 0.000000000000000e+00

0.000000000000000e+00 0.000000000000000e+00 0.000000000000000e+00
0.000000000000000e+00 0.000000000000000e+00 0.000000000000000e+00
0.000000000000000e+00 0.000000000000000e+00 0.000000000000000e+00

0.000000000000000e+00 0.000000000000000e+00 0.000000000000000e+00
0.000000000000000e+00 0.000000000000000e+00 0.000000000000000e+00
0.000000000000000e+00 0.000000000000000e+00 0.000000000000000e+00

0.000000000000000e+00 0.000000000000000e+00 0.000000000000000e+00
0.000000000000000e+00 0.000000000000000e+00 0.000000000000000e+00
0.000000000000000e+00 0.000000000000000e+00 0.000000000000000e+00

0.000000000000000e+00 0.000000000000000e+00 0.000000000000000e+00
0.000000000000000e+00 0.000000000000000e+00 0.000000000000000e+00
0.000000000000000e+00 0.000000000000000e+00 0.000000000000000e+00

0.000000000000000e+00 0.000000000000000e+00 0.000000000000000e+00
0.000000000000000e+00 0.000000000000000e+00 0.000000000000000e+00
0.000000000000000e+00 0.000000000000000e+00 0.000000000000000e+00

0.000000000000000e+00 0.000000000000000e+00 0.000000000000000e+00
0.000000000000000e+00 0.000000000000000e+00 0.000000000000000e+00
0.000000000000000e+00 0.000000000000000e+00 0.000000000000000e+00

0.000000000000000e+00 0.000000000000000e+00 0.000000000000000e+00
0.000000000000000e+00 0.000000000000000e+00 0.000000000000000e+00
0.000000000000000e+00 0.000000000000000e+00 0.000000000000000e+00

0.000000000000000e+00 0.000000000000000e+00 0.000000000000000e+00
0.000000000000000e+00 0.000000000000000e+00 0.000000000000000e+00
0.000000000000000e+00 0.000000000000000e+00 0.000000000000000e+00

0.000000000000000e+00 0.000000000000000e+00 0.000000000000000e+00
0.000000000000000e+00 0.000000000000000e+00 0.000000000000000e+00
0.000000000000000e+00 0.000000000000000e+00 0.000000000000000e+00

0.000000000000000e+00 0.000000000000000e+00 0.000000000000000e+00
0.000000000000000e+00 0.000000000000000e+00 0.000000000000000e+00
0.000000000000000e+00 0.000000000000000e+00 0.000000000000000e+00

0.000000000000000e+00 0.000000000000000e+00 0.000000000000000e+00
0.000000000000000e+00 0.000000000000000e+00 0.000000000000000e+00
0.000000000000000e+00 0.000000000000000e+00 0.000000000000000e+00

0.000000000000000e+00 0.000000000000000e+00 0.000000000000000e+00
0.000000000000000e+00 0.000000000000000e+00 0.000000000000000e+00
0.000000000000000e+00 0.000000000000000e+00 0.000000000000000e+00

0.000000000000000e+00 0.000000000000000e+00 0.000000000000000e+00
0.000000000000000e+00 0.000000000000000e+00 0.000000000000000e+00
0.000000000000000e+00 0.000000000000000e+00 0.000000000000000e+00

0.000000000000000e+00 0.000000000000000e+00 0.000000000000000e+00
0.000000000000000e+00 0.000000000000000e+00 0.000000000000000e+00
0.000000000000000e+00 0.000000000000000e+00 0.000000000000000e+00

0.000000000000000e+00 0.000000000000000e+00 0.000000000000000e+00
0.000000000000000e+00 0.000000000000000e+00 0.000000000000000e+00
0.000000000000000e+00 0.000000000000000e+00 0.000000000000000e+00

0.000000000000000e+00 0.000000000000000e+00 0.000000000000000e+00
0.000000000000000e+00 0.000000000000000e+00 0.000000000000000e+00
0.000000000000000e+00 0.000000000000000e+00 0.000000000000000e+00

0.000000000000000e+00 0.000000000000000e+00 0.000000000000000e+00
0.000000000000000e+00 0.000000000000000e+00 0.000000000000000e+00
0.000000000000000e+00 0.000000000000000e+00 0.000000000000000e+00

0.000000000000000e+00 0.000000000000000e+00 0.000000000000000e+00
0.000000000000000e+00 0.000000000000000e+00 0.000000000000000e+00
0.000000000000000e+00 0.000000000000000e+00 0.000000000000000e+00

0.000000000000000e+00 0.000000000000000e+00 0.000000000000000e+00
0.000000000000000e+00 0.000000000000000e+00 0.000000000000000e+00
0.000000000000000e+00 0.000000000000000e+00 0.000000000000000e+00

0.000000000000000e+00 0.000000000000000e+00 0.000000000000000e+00
0.000000000000000e+00 0.000000000000000e+00 0.000000000000000e+00
0.000000000000000e+00 0.000000000000000e+00 0.000000000000000e+00

0.000000000000000e+00 0.000000000000000e+00 0.000000000000000e+00
0.000000000000000e+00 0.000000000000000e+00 0.000000000000000e+00
0.000000000000000e+00 0.000000000000000e+00 0.000000000000000e+00

0.000000000000000e+00 0.000000000000000e+00 0.000000000000000e+00
0.000000000000000e+00 0.000000000000000e+00 0.000000000000000e+00
0.000000000000000e+00 0.000000000000000e+00 0.000000000000000e+00

0.000000000000000e+00 0.000000000000000e+00 0.000000000000000e+00
0.000000000000000e+00 0.000000000000000e+00 0.000000000000000e+00
0.000000000000000e+00 0.000000000000000e+00 0.000000000000000e+00

0.000000000000000e+00 0.000000000000000e+00 0.000000000000000e+00
0.000000000000000e+00 0.000000000000000e+00 0.000000000000000e+00
0.000000000000000e+00 0.000000000000000e+00 0.000000000000000e+00

0.000000000000000e+00 0.000000000000000e+00 0.000000000000000e+00
0.000000000000000e+00 0.000000000000000e+00 0.000000000000000e+00
0.000000000000000e+00 0.000000000000000e+00 0.000000000000000e+00

0.000000000000000e+00 0.000000000000000e+00 0.000000000000000e+00
0.000000000000000e+00 0.000000000000000e+00 0.000000000000000e+00
0.000000000000000e+00 0.000000000000000e+00 0.000000000000000e+00

0.000000000000000e+00 0.000000000000000e+00 0.000000000000000e+00
0.000000000000000e+00 0.000000000000000e+00 0.000000000000000e+00
0.000000000000000e+00 0.000000000000000e+00 0.000000000000000e+00

0.000000000000000e+00 0.000000000000000e+00 0.000000000000000e+00
0.000000000000000e+00 0.000000000000000e+00 0.000000000000000e+00
0.000000000000000e+00 0.000000000000000e+00 0.000000000000000e+00

0.000000000000000e+00 0.000000000000000e+00 0.000000000000000e+00
0.000000000000000e+00 0.000000000000000e+00 0.000000000000000e+00
0.000000000000000e+00 0.000000000000000e+00 0.000000000000000e+00

0.000000000000000e+00 0.000000000000000e+00 0.000000000000000e+00
0.000000000000000e+00 0.000000000000000e+00 0.000000000000000e+00
0.000000000000000e+00 0.000000000000000e+00 0.000000000000000e+00

0.000000000000000e+00 0.000000000000000e+00 0.000000000000000e+00
0.000000000000000e+00 0.000000000000000e+00 0.000000000000000e+00
0.000000000000000e+00 0.000000000000000e+00 0.000000000000000e+00

0.000000000000000e+00 0.000000000000000e+00 0.000000000000000e+00
0.000000000000000e+00 0.000000000000000e+00 0.000000000000000e+00
0.000000000000000e+00 0.000000000000000e+00 0.000000000000000e+00

0.000000000000000e+00 0.000000000000000e+00 0.000000000000000e+00
0.000000000000000e+00 0.000000000000000e+00 0.000000000000000e+00
0.000000000000000e+00 0.000000000000000e+00 0.000000000000000e+00

0.000000000000000e+00 0.000000000000000e+00 0.000000000000000e+00
0.000000000000000e+00 0.000000000000000e+00 0.000000000000000e+00
0.000000000000000e+00 0.000000000000000e+00 0.000000000000000e+00

0.000000000000000e+00 0.000000000000000e+00 0.000000000000000e+00
0.000000000000000e+00 0.000000000000000e+00 0.000000000000000e+00
0.000000000000000e+00 0.000000000000000e+00 0.000000000000000e+00

0.000000000000000e+00 0.000000000000000e+00 0.000000000000000e+00
0.000000000000000e+00 0.000000000000000e+00 0.000000000000000e+00
0.000000000000000e+00 0.000000000000000e+00 0.000000000000000e+00

0.000000000000000e+00 0.000000000000000e+00 0.000000000000000e+00
0.000000000000000e+00 0.000000000000000e+00 0.000000000000000e+00
0.000000000000000e+00 0.000000000000000e+00 0.000000000000000e+00

0.000000000000000e+00 0.000000000000000e+00 0.000000000000000e+00
0.000000000000000e+00 0.000000000000000e+00 0.000000000000000e+00
0.000000000000000e+00 0.000000000000000e+00 0.000000000000000e+00

0.000000000000000e+00 0.000000000000000e+00 0.000000000000000e+00
0.000000000000000e+00 0.000000000000000e+00 0.000000000000000e+00
0.000000000000000e+00 0.000000000000000e+00 0.000000000000000e+00

0.000000000000000e+00 0.000000000000000e+00 0.000000000000000e+00
0.000000000000000e+00 0.000000000000000e+00 0.000000000000000e+00
0.000000000000000e+00 0.000000000000000e+00 0.000000000000000e+00

0.000000000000000e+00 0.000000000000000e+00 0.000000000000000e+00
0.000000000000000e+00 0.000000000000000e+00 0.000000000000000e+00
0.000000000000000e+00 0.000000000000000e+00 0.000000000000000e+00

0.000000000000000e+00 0.000000000000000e+00 0.000000000000000e+00
0.000000000000000e+00 0.000000000000000e+00 0.000000000000000e+00
0.000000000000000e+00 0.000000000000000e+00 0.000000000000000e+00

0.000000000000000e+00 0.000000000000000e+00 0.000000000000000e+00
0.000000000000000e+00 0.000000000000000e+00 0.000000000000000e+00
0.000000000000000e+00 0.000000000000000e+00 0.000000000000000e+00

0.000000000000000e+00 0.000000000000000e+00 0.000000000000000e+00
0.000000000000000e+00 0.000000000000000e+00 0.000000000000000e+00
0.000000000000000e+00 0.000000000000000e+00 0.000000000000000e+00

0.000000000000000e+00 0.000000000000000e+00 0.000000000000000e+00
0.000000000000000e+00 0.000000000000000e+00 0.000000000000000e+00
0.000000000000000e+00 0.000000000000000e+00 0.000000000000000e+00

0.000000000000000e+00 0.000000000000000e+00 0.000000000000000e+00
0.000000000000000e+00 0.000000000000000e+00 0.000000000000000e+00
0.000000000000000e+00 0.000000000000000e+00 0.000000000000000e+00

0.000000000000000e+00 0.000000000000000e+00 0.000000000000000e+00
0.000000000000000e+00 0.000000000000000e+00 0.000000000000000e+00
0.000000000000000e+00 0.000000000000000e+00 0.000000000000000e+00

0.000000000000000e+00 0.000000000000000e+00 0.000000000000000e+00
0.000000000000000e+00 0.000000000000000e+00 0.000000000000000e+00
0.000000000000000e+00 0.000000000000000e+00 0.000000000000000e+00

0.000000000000000e+00 0.000000000000000e+00 0.000000000000000e+00
0.000000000000000e+00 0.000000000000000e+00 0.000000000000000e+00
0.000000000000000e+00 0.000000000000000e+00 0.000000000000000e+00

0.000000000000000e+00 0.000000000000000e+00 0.000000000000000e+00
0.000000000000000e+00 0.000000000000000e+00 0.000000000000000e+00
0.000000000000000e+00 0.000000000000000e+00 0.000000000000000e+00

0.000000000000000e+00 0.000000000000000e+00 0.000000000000000e+00
0.000000000000000e+00 0.000000000000000e+00 0.000000000000000e+00
0.000000000000000e+00 0.000000000000000e+00 0.000000000000000e+00

0.000000000000000e+00 0.000000000000000e+00 0.000000000000000e+00
0.000000000000000e+00 0.000000000000000e+00 0.000000000000000e+00
0.000000000000000e+00 0.000000000000000e+00 0.000000000000000e+00

0.000000000000000e+00 0.000000000000000e+00 0.000000000000000e+00
0.000000000000000e+00 0.000000000000000e+00 0.000000000000000e+00
0.000000000000000e+00 0.000000000000000e+00 0.000000000000000e+00

0.000000000000000e+00 0.000000000000000e+00 0.000000000000000e+00
0.000000000000000e+00 0.000000000000000e+00 0.000000000000000e+00
0.000000000000000e+00 0.000000000000000e+00 0.000000000000000e+00

0.000000000000000e+00 0.000000000000000e+00 0.000000000000000e+00
0.000000000000000e+00 0.000000000000000e+00 0.000000000000000e+00
0.000000000000000e+00 0.000000000000000e+00 0.000000000000000e+00

0.000000000000000e+00 0.000000000000000e+00 0.000000000000000e+00
0.000000000000000e+00 0.000000000000000e+00 0.000000000000000e+00
0.000000000000000e+00 0.000000000000000e+00 0.000000000000000e+00

0.000000000000000e+00 0.000000000000000e+00 0.000000000000000e+00
0.000000000000000e+00 0.000000000000000e+00 0.000000000000000e+00
0.000000000000000e+00 0.000000000000000e+00 0.000000000000000e+00

0.000000000000000e+00 0.000000000000000e+00 0.000000000000000e+00
0.000000000000000e+00 0.000000000000000e+00 0.000000000000000e+00
0.000000000000000e+00 0.000000000000000e+00 0.000000000000000e+00

0.000000000000000e+00 0.000000000000000e+00 0.000000000000000e+00
0.000000000000000e+00 0.000000000000000e+00 0.000000000000000e+00
0.000000000000000e+00 0.000000000000000e+00 0.000000000000000e+00

0.000000000000000e+00 0.000000000000000e+00 0.000000000000000e+00
0.000000000000000e+00 0.000000000000000e+00 0.000000000000000e+00
0.000000000000000e+00 0.000000000000000e+00 0.000000000000000e+00

0.000000000000000e+00 0.000000000000000e+00 0.000000000000000e+00
0.000000000000000e+00 0.000000000000000e+00 0.000000000000000e+00
0.000000000000000e+00 0.000000000000000e+00 0.000000000000000e+00

0.000000000000000e+00 0.000000000000000e+00 0.000000000000000e+00
0.000000000000000e+00 0.000000000000000e+00 0.000000000000000e+00
0.000000000000000e+00 0.000000000000000e+00 0.000000000000000e+00

0.000000000000000e+00 0.000000000000000e+00 0.000000000000000e+00
0.000000000000000e+00 0.000000000000000e+00 0.000000000000000e+00
0.000000000000000e+00 0.000000000000000e+00 0.000000000000000e+00

0.000000000000000e+00 0.000000000000000e+00 0.000000000000000e+00
0.000000000000000e+00 0.000000000000000e+00 0.000000000000000e+00
0.000000000000000e+00 0.000000000000000e+00 0.000000000000000e+00

0.000000000000000e+00 0.000000000000000e+00 0.000000000000000e+00
0.000000000000000e+00 0.000000000000000e+00 0.000000000000000e+00
0.000000000000000e+00 0.000000000000000e+00 0.000000000000000e+00

0.000000000000000e+00 0.000000000000000e+00 0.000000000000000e+00
0.000000000000000e+00 0.000000000000000e+00 0.000000000000000e+00
0.000000000000000e+00 0.000000000000000e+00 0.000000000000000e+00

0.000000000000000e+00 0.000000000000000e+00 0.000000000000000e+00
0.000000000000000e+00 0.000000000000000e+00 0.000000000000000e+00
0.000000000000000e+00 0.000000000000000e+00 0.000000000000000e+00

0.000000000000000e+00 0.000000000000000e+00 0.000000000000000e+00
0.000000000000000e+00 0.000000000000000e+00 0.000000000000000e+00
0.000000000000000e+00 0.000000000000000e+00 0.000000000000000e+00

0.000000000000000e+00 0.000000000000000e+00 0.000000000000000e+00
0.000000000000000e+00 0.000000000000000e+00 0.000000000000000e+00
0.000000000000000e+00 0.000000000000000e+00 0.000000000000000e+00

0.000000000000000e+00 0.000000000000000e+00 0.000000000000000e+00
0.000000000000000e+00 0.000000000000000e+00 0.000000000000000e+00
0.000000000000000e+00 0.000000000000000e+00 0.000000000000000e+00

0.000000000000000e+00 0.000000000000000e+00 0.000000000000000e+00
0.000000000000000e+00 0.000000000000000e+00 0.000000000000000e+00
0.000000000000000e+00 0.000000000000000e+00 0.000000000000000e+00

0.000000000000000e+00 0.000000000000000e+00 0.000000000000000e+00
0.000000000000000e+00 0.000000000000000e+00 0.000000000000000e+00
0.000000000000000e+00 0.000000000000000e+00 0.000000000000000e+00

0.000000000000000e+00 0.000000000000000e+00 0.000000000000000e+00
0.000000000000000e+00 0.000000000000000e+00 0.000000000000000e+00
0.000000000000000e+00 0.000000000000000e+00 0.000000000000000e+00

0.000000000000000e+00 0.000000000000000e+00 0.000000000000000e+00
0.000000000000000e+00 0.000000000000000e+00 0.000000000000000e+00
0.000000000000000e+00 0.000000000000000e+00 0.000000000000000e+00

0.000000000000000e+00 0.000000000000000e+00 0.000000000000000e+00
0.000000000000000e+00 0.000000000000000e+00 0.000000000000000e+00
0.000000000000000e+00 0.000000000000000e+00 0.000000000000000e+00

0.000000000000000e+00 0.000000000000000e+00 0.000000000000000e+00
0.000000000000000e+00 0.000000000000000e+00 0.000000000000000e+00
0.000000000000000e+00 0.000000000000000e+00 0.000000000000000e+00

0.000000000000000e+00 0.000000000000000e+00 0.000000000000000e+00
0.000000000000000e+00 0.000000000000000e+00 0.000000000000000e+00
0.000000000000000e+00 0.000000000000000e+00 0.000000000000000e+00

0.000000000000000e+00 0.000000000000000e+00 0.000000000000000e+00
0.000000000000000e+00 0.000000000000000e+00 0.000000000000000e+00
0.000000000000000e+00 0.000000000000000e+00 0.000000000000000e+00

0.000000000000000e+00 0.000000000000000e+00 0.000000000000000e+00
0.000000000000000e+00 0.000000000000000e+00 0.000000000000000e+00
0.000000000000000e+00 0.000000000000000e+00 0.000000000000000e+00

0.000000000000000e+00 0.000000000000000e+00 0.000000000000000e+00
0.000000000000000e+00 0.000000000000000e+00 0.000000000000000e+00
0.000000000000000e+00 0.000000000000000e+00 0.000000000000000e+00

0.000000000000000e+00 0.000000000000000e+00 0.000000000000000e+00
0.000000000000000e+00 0.000000000000000e+00 0.000000000000000e+00
0.000000000000000e+00 0.000000000000000e+00 0.000000000000000e+00

0.000000000000000e+00 0.000000000000000e+00 0.000000000000000e+00
0.000000000000000e+00 0.000000000000000e+00 0.000000000000000e+00
0.000000000000000e+00 0.000000000000000e+00 0.000000000000000e+00

0.000000000000000e+00 0.000000000000000e+00 0.000000000000000e+00
0.000000000000000e+00 0.000000000000000e+00 0.000000000000000e+00
0.000000000000000e+00 0.000000000000000e+00 0.000000000000000e+00

0.000000000000000e+00 0.000000000000000e+00 0.000000000000000e+00
0.000000000000000e+00 0.000000000000000e+00 0.000000000000000e+00
0.000000000000000e+00 0.000000000000000e+00 0.000000000000000e+00

0.000000000000000e+00 0.000000000000000e+00 0.000000000000000e+00
0.000000000000000e+00 0.000000000000000e+00 0.000000000000000e+00
0.000000000000000e+00 0.000000000000000e+00 0.000000000000000e+00

0.000000000000000e+00 0.000000000000000e+00 0.000000000000000e+00
0.000000000000000e+00 0.000000000000000e+00 0.000000000000000e+00
0.000000000000000e+00 0.000000000000000e+00 0.000000000000000e+00

0.000000000000000e+00 0.000000000000000e+00 0.000000000000000e+00
0.000000000000000e+00 0.000000000000000e+00 0.000000000000000e+00
0.000000000000000e+00 0.000000000000000e+00 0.000000000000000e+00

0.000000000000000e+00 0.000000000000000e+00 0.000000000000000e+00
0.000000000000000e+00 0.000000000000000e+00 0.000000000000000e+00
0.000000000000000e+00 0.000000000000000e+00 0.000000000000000e+00

0.000000000000000e+00 0.000000000000000e+00 0.000000000000000e+00
0.000000000000000e+00 0.000000000000000e+00 0.000000000000000e+00
0.000000000000000e+00 0.000000000000000e+00 0.000000000000000e+00

0.000000000000000e+00 0.000000000000000e+00 0.000000000000000e+00
0.000000000000000e+00 0.000000000000000e+00 0.000000000000000e+00
0.000000000000000e+00 0.000000000000000e+00 0.000000000000000e+00

0.000000000000000e+00 0.000000000000000e+00 0.000000000000000e+00
0.000000000000000e+00 0.000000000000000e+00 0.000000000000000e+00
0.000000000000000e+00 0.000000000000000e+00 0.000000000000000e+00

0.000000000000000e+00 0.000000000000000e+00 0.000000000000000e+00
0.000000000000000e+00 0.000000000000000e+00 0.000000000000000e+00
0.000000000000000e+00 0.000000000000000e+00 0.000000000000000e+00

0.000000000000000e+00 0.000000000000000e+00 0.000000000000000e+00
0.000000000000000e+00 0.000000000000000e+00 0.000000000000000e+00
0.000000000000000e+00 0.000000000000000e+00 0.000000000000000e+00

0.000000000000000e+00 0.000000000000000e+00 0.000000000000000e+00
0.000000000000000e+00 0.000000000000000e+00 0.000000000000000e+00
0.000000000000000e+00 0.000000000000000e+00 0.000000000000000e+00

0.000000000000000e+00 0.000000000000000e+00 0.000000000000000e+00
0.000000000000000e+00 0.000000000000000e+00 0.000000000000000e+00
0.000000000000000e+00 0.000000000000000e+00 0.000000000000000e+00

0.000000000000000e+00 0.000000000000000e+00 0.000000000000000e+00
0.000000000000000e+00 0.000000000000000e+00 0.000000000000000e+00
0.000000000000000e+00 0.000000000000000e+00 0.000000000000000e+00

 1.116522510312130e-17 -8.155114057787947e-21 -1.010264921817649e+00
-8.155114057787947e-21  5.098396570305532e-17  4.140759535733698e-01
-1.010264921817649e+00  4.140759535733698e-01  8.431059224994308e-18

 1.113562955379432e-17 -3.465169140177113e-20 -1.008198911265267e+00
-3.465169140177113e-20  1.912633905908012e-17  4.129511432308443e-01
-1.008198911265267e+00  4.129511432308443e-01  8.370560788481969e-18

 1.116471410507507e-17  8.567433024963835e-20 -1.010084270693000e+00
 8.567433024963835e-20  1.189086342344246e-16  4.156184285411867e-01
-1.010084270693000e+00  4.156184285411867e-01  8.398200111354637e-18

 1.121598401800591e-17 -3.739689705687367e-20 -1.012836047597496e+00
-3.739689705687367e-20  2.571543551085932e-17  4.138645497997139e-01
-1.012836047597496e+00  4.138645497997139e-01  8.556802575457422e-18

 1.125023036051430e-17  8.753073373920234e-21 -1.014356130544829e+00
 8.753073373920234e-21  4.781414691417238e-17  4.130862126892890e-01
-1.014356130544829e+00  4.130862126892890e-01  8.633927729900527e-18

 1.123389244000610e-17 -1.292210196859024e-19 -1.013276614088320e+00
-1.292210196859024e-19 -5.027111287875959e-17  4.154687905879900e-01
-1.013276614088320e+00  4.154687905879900e-01  8.524342198061857e-18

 1.119407052773818e-17 -6.920653103009333e-20 -1.012087607161540e+00
-6.920653103009333e-20 -1.047658121230549e-17  4.152350128176060e-01
-1.012087607161540e+00  4.152350128176060e-01  8.485510896221967e-18

 1.118040254775193e-17 -3.419849173556422e-20 -1.010833361040865e+00
-3.419849173556422e-20  2.633003100098308e-17  4.133898920410419e-01
-1.010833361040865e+00  4.133898920410419e-01  8.466507045613760e-18

 1.114876811257289e-17 -1.075907517254562e-19 -1.009271768608242e+00
-1.075907517254562e-19 -3.946652994441889e-17  4.145281870156137e-01
-1.009271768608242e+00  4.145281870156137e-01  8.376959528744691e-18

 1.119222052812025e-17 -5.275076233149132e-20 -1.010816644242429e+00
-5.275076233149132e-20 -4.709106989300034e-19  4.119570904273357e-01
-1.010816644242429e+00  4.119570904273357e-01  8.515747712388165e-18

 1.118940446572373e-17 -7.453735018407451e-20 -1.011092324335607e+00
-7.453735018407451e-20 -2.683065623431558e-17  4.140897157236276e-01
-1.011092324335607e+00  4.140897157236276e-01  8.503954029417446e-18

 1.112864676649515e-17 -1.008757393548668e-19 -1.008126469113521e+00
-1.008757393548668e-19 -5.016013947876082e-17  4.135434649903589e-01
-1.008126469113521e+00  4.135434649903589e-01  8.353956215189404e-18

 1.113342855271276e-17 -8.667898050626169e-20 -1.008292986568593e+00
-8.667898050626169e-20 -3.930485769814594e-17  4.137079120667071e-01
-1.008292986568593e+00  4.137079120667071e-01  8.379224574060053e-18

 1.113478211005586e-17 -6.149711626106167e-20 -1.007952225693410e+00
-6.149711626106167e-20 -2.250008855507834e-17  4.138868344610865e-01
-1.007952225693410e+00  4.138868344610865e-01  8.396742300070118e-18

 1.108556475503826e-17  5.266288010652466e-20 -1.005489798018827e+00
 5.266288010652466e-20  1.571563840273344e-16  4.132106464252162e-01
-1.005489798018827e+00  4.132106464252162e-01  8.262390069610597e-18

 1.102332694673954e-17 -8.331533788816202e-20 -1.002722303351000e+00
-8.331533788816202e-20 -1.004126148072993e-16  4.158482170673262e-01
-1.002722303351000e+00  4.158482170673262e-01  8.129728165859884e-18

 1.095512788897362e-17 -6.610058606593293e-20 -9.995744873088134e-01
-6.610058606593293e-20 -9.071002799431064e-17  4.174309793783066e-01
-9.995744873088134e-01  4.174309793783066e-01  7.953916087482832e-18

 1.085620989483798e-17  6.180966151501227e-21 -9.956326523359311e-01
 6.180966151501227e-21  1.370365205073142e-16  4.190450421014236e-01
-9.956326523359311e-01  4.190450421014236e-01  7.698108976806065e-18

 1.075591914420110e-17 -2.391922493954539e-24 -9.922286860587568e-01
-2.391922493954539e-24  1.423330084639696e-16  4.166638233048637e-01
-9.922286860587568e-01  4.166638233048637e-01  7.451070794112238e-18

 1.109573726398255e-17 -3.892487344837870e-20 -1.008607045114513e+00
-3.892487344837870e-20 -3.091823316834231e-17  4.126167651242978e-01
-1.008607045114513e+00  4.126167651242978e-01  8.362951362190731e-18

 1.103897237526908e-17 -2.592913310615738e-20 -1.009762870405690e+00
-2.592913310615738e-20 -5.153592990246692e-17  4.537747369502160e-01
-1.009762870405690e+00  4.537747369502160e-01  7.899408719270200e-18

 1.054756180293787e-17 -4.386066954565452e-20 -9.873209504221949e-01
-4.386066954565452e-20 -2.160550423884026e-17  4.051709894001007e-01
-9.873209504221949e-01  4.051709894001007e-01  6.960086008909532e-18

 1.055255731506468e-17  2.072484956085125e-19 -9.938365060102520e-01
 2.072484956085125e-19 -1.101778731115346e-16  3.732843119761627e-01
-9.938365060102520e-01  3.732843119761627e-01  6.986834316835476e-18

 1.256165316724868e-17 -9.732824587302255e-20 -1.082595515331340e+00
-9.732824587302255e-20  5.898512820183718e-18  4.413026554082967e-01
-1.082595515331340e+00  4.413026554082967e-01  1.181244347149264e-17

 1.315105822191263e-17  9.977152617969570e-20 -1.114905085214900e+00
 9.977152617969570e-20  1.130822179062055e-17  4.189773312569601e-01
-1.114905085214900e+00  4.189773312569601e-01  1.341922540133282e-17

 1.131838603624129e-17 -5.203421634897533e-20 -1.026891041567246e+00
-5.203421634897533e-20 -9.682635613455574e-17  4.066043657069524e-01
-1.026891041567246e+00  4.066043657069524e-01  8.814234835919517e-18

 1.049806352220905e-17 -6.718626293044118e-20 -9.877422050990096e-01
-6.718626293044118e-20  1.275187847628730e-16  4.215376764261184e-01
-9.877422050990096e-01  4.215376764261184e-01  6.786878407257387e-18

 1.071224624336561e-17 -4.104104621930603e-20 -9.948218975745210e-01
-4.104104621930603e-20  4.029309227470438e-17  4.161198679123382e-01
-9.948218975745210e-01  4.161198679123382e-01  7.511521956411943e-18

 1.062696093030446e-17 -3.559833290535223e-20 -9.906925383449101e-01
-3.559833290535223e-20  3.676619374654195e-17  4.247507184531556e-01
-9.906925383449101e-01  4.247507184531556e-01  7.194645611370136e-18

 1.077489178691112e-17 -2.252520768843287e-20 -9.968696558068189e-01
-2.252520768843287e-20 -1.085671470001876e-18  4.204193980458441e-01
-9.968696558068189e-01  4.204193980458441e-01  7.679193345681772e-18

 1.077626469250246e-17 -1.332072129811951e-20 -9.966325608935347e-01
-1.332072129811951e-20 -3.687084559917933e-17  4.249077648817916e-01
-9.966325608935347e-01  4.249077648817916e-01  7.568039158024018e-18

 1.087390308765626e-17 -9.128574646821599e-20 -1.001683482369283e+00
-9.128574646821599e-20  1.949424000494813e-16  4.182520315131589e-01
-1.001683482369283e+00  4.182520315131589e-01  7.956685245855138e-18

 1.109949732248098e-17 -5.286990934353369e-20 -1.010589336009330e+00
-5.286990934353369e-20  8.886939951848730e-17  4.125124106374981e-01
-1.010589336009330e+00  4.125124106374981e-01  8.532442472753838e-18

 1.100485507456462e-17 -3.214127940920196e-20 -1.008113592044694e+00
-3.214127940920196e-20  9.450050170237966e-18  4.208355189886313e-01
-1.008113592044694e+00  4.208355189886313e-01  8.291625120668705e-18

 1.074192413296407e-17 -8.576418096930457e-20 -9.973113669269557e-01
-8.576418096930457e-20  1.777437390353740e-16  4.260060753229325e-01
-9.973113669269557e-01  4.260060753229325e-01  7.517420376609300e-18

 1.081143654232193e-17 -3.979752437807509e-20 -1.000868392708742e+00
-3.979752437807509e-20  3.336158446128547e-17  4.198057612562122e-01
-1.000868392708742e+00  4.198057612562122e-01  7.770861217551094e-18

 1.086693688433894e-17 -2.564111677560911e-20 -1.003467496203602e+00
-2.564111677560911e-20 -5.428217163710380e-18  4.196852984169896e-01
-1.003467496203602e+00  4.196852984169896e-01  7.951011419199221e-18

 1.122301496982790e-17 -6.956206022970669e-20 -1.018158281269331e+00
-6.956206022970669e-20  9.468489304074642e-17  4.087533295818147e-01
-1.018158281269331e+00  4.087533295818147e-01  8.988375156453964e-18

 1.118898895788202e-17 -3.825833778880642e-20 -1.016913976726603e+00
-3.825833778880642e-20  2.631250544188591e-17  4.099871461935382e-01
-1.016913976726603e+00  4.099871461935382e-01  8.885112646179774e-18

 1.082794754616630e-17 -3.512727098520773e-20 -1.003021342599211e+00
-3.512727098520773e-20  1.544090102387254e-17  4.204238799400573e-01
-1.003021342599211e+00  4.204238799400573e-01  7.874908174767718e-18

 1.075783894761052e-17  2.577001088525888e-20 -1.000823875872754e+00
 2.577001088525888e-20 -1.178867977511048e-16  4.260059556594274e-01
-1.000823875872754e+00  4.260059556594274e-01  7.662395528714332e-18

 1.095912426426993e-17 -2.289161942228070e-20 -1.008883997018489e+00
-2.289161942228070e-20 -1.490133925858069e-17  4.145357245340515e-01
-1.008883997018489e+00  4.145357245340515e-01  8.261894547932313e-18

 1.097837973111798e-17  6.562341862877944e-20 -1.010588483389285e+00
 6.562341862877944e-20 -1.923960551035567e-16  4.125248823307782e-01
-1.010588483389285e+00  4.125248823307782e-01  8.390092285251173e-18

 1.109117004014869e-17  8.107458219706583e-22 -1.016201110479703e+00
 8.107458219706583e-22 -6.017778401848381e-17  4.110004915046740e-01
-1.016201110479703e+00  4.110004915046740e-01  8.700595170562983e-18

 1.119593904301710e-17  8.599808452728307e-21 -1.021383669553916e+00
 8.599808452728307e-21 -8.896294363022278e-17  4.178660677000088e-01
-1.021383669553916e+00  4.178660677000088e-01  8.957256651090275e-18

 1.108288359753512e-17 -1.251639567776089e-19 -1.016404443017136e+00
-1.251639567776089e-19  1.952226101492292e-16  4.201204808920205e-01
-1.016404443017136e+00  4.201204808920205e-01  8.693162534846601e-18

 1.104567479628486e-17  4.283184173552739e-20 -1.012044774755104e+00
 4.283184173552739e-20 -1.232688489686678e-16  4.008044461754516e-01
-1.012044774755104e+00  4.008044461754516e-01  8.720368467706491e-18

 1.044867195842980e-17 -6.272746517324942e-20 -9.889916770334254e-01
-6.272746517324942e-20  4.603326386536237e-17  4.203694157181941e-01
-9.889916770334254e-01  4.203694157181941e-01  7.044534036476668e-18

 1.066811916461718e-17  2.083708085248517e-21 -9.986095337024132e-01
 2.083708085248517e-21 -4.609734530915997e-17  4.211346658321970e-01
-9.986095337024132e-01  4.211346658321970e-01  7.676680214354147e-18

 1.076474171799031e-17 -1.641094120872602e-19 -1.003279092919809e+00
-1.641094120872602e-19  2.132315109329551e-16  4.228989777092487e-01
-1.003279092919809e+00  4.228989777092487e-01  7.915154251489547e-18

 1.097240399812630e-17 -2.052308103927872e-19 -1.012979316644580e+00
-2.052308103927872e-19  2.745953080547393e-16  4.147793422626350e-01
-1.012979316644580e+00  4.147793422626350e-01  8.555978907266331e-18

 1.101730864481397e-17 -5.000717293571272e-20 -1.015851159719355e+00
-5.000717293571272e-20  3.729975274826901e-17  4.125314062285607e-01
-1.015851159719355e+00  4.125314062285607e-01  8.718530251688766e-18

 1.089934570291421e-17 -1.463584958607691e-19 -1.010793309048003e+00
-1.463584958607691e-19  1.728889742585743e-16  4.159387643821410e-01
-1.010793309048003e+00  4.159387643821410e-01  8.328060931766615e-18

 1.084948750562620e-17 -2.328696545441659e-20 -1.009709982016430e+00
-2.328696545441659e-20  5.429223289376356e-20  4.169470169875644e-01
-1.009709982016430e+00  4.169470169875644e-01  8.272100987993997e-18

 1.087466038824847e-17 -1.072905331607361e-20 -1.010336759804396e+00
-1.072905331607361e-20 -2.324310279002440e-17  4.173945545154112e-01
-1.010336759804396e+00  4.173945545154112e-01  8.289657791551050e-18

 1.081687496523606e-17  8.688249225724205e-20 -1.008984818154503e+00
 8.688249225724205e-20 -1.554775124072681e-16  4.172099269683522e-01
-1.008984818154503e+00  4.172099269683522e-01  8.233230960517779e-18

 1.088908661488256e-17  3.246621354116110e-20 -1.011692080879692e+00
 3.246621354116110e-20 -7.954311759784573e-17  4.163983640408802e-01
-1.011692080879692e+00  4.163983640408802e-01  8.402905868957433e-18

 1.077759281623112e-17  1.098047525237633e-20 -1.007938704141405e+00
 1.098047525237633e-20 -5.004616956955056e-17  4.196830830383649e-01
-1.007938704141405e+00  4.196830830383649e-01  8.181252525744151e-18

 1.061682760809312e-17 -1.486835138402928e-19 -1.001168478390078e+00
-1.486835138402928e-19  1.538718295088424e-16  4.220949457432607e-01
-1.001168478390078e+00  4.220949457432607e-01  7.755130774760348e-18

 1.051838489651431e-17  1.472895808339321e-19 -9.977974240724127e-01
 1.472895808339321e-19 -2.083551120405776e-16  4.227484441549392e-01
-9.977974240724127e-01  4.227484441549392e-01  7.508413007247813e-18

 1.067915561426017e-17 -2.218105533842608e-19 -1.004868093082324e+00
-2.218105533842608e-19  2.246449617695003e-16  4.116848684440537e-01
-1.004868093082324e+00  4.116848684440537e-01  8.065911841050016e-18

 1.073573835533750e-17  1.726386178091785e-20 -1.007254607108403e+00
 1.726386178091785e-20 -5.441043283117845e-17  4.163877019351406e-01
-1.007254607108403e+00  4.163877019351406e-01  8.187900736136150e-18

 1.072645618800723e-17 -5.108323047929141e-20 -1.008132248789614e+00
-5.108323047929141e-20  2.073597243683728e-17  4.235798006676407e-01
-1.008132248789614e+00  4.235798006676407e-01  8.117406941457373e-18

 1.077172888303033e-17 -8.199364166510925e-20 -1.010809591222769e+00
-8.199364166510925e-20  5.954983509979725e-17  4.199430312255243e-01
-1.010809591222769e+00  4.199430312255243e-01  8.297440615330595e-18

 1.070658724002114e-17 -1.708688191494214e-19 -1.009085655029200e+00
-1.708688191494214e-19  1.702320111595782e-16  4.187889412029289e-01
-1.009085655029200e+00  4.187889412029289e-01  8.163268036312846e-18

 1.067998788147934e-17 -1.275310244462700e-19 -1.008426980097375e+00
-1.275310244462700e-19  1.105331313771763e-16  4.216528505061067e-01
-1.008426980097375e+00  4.216528505061067e-01  8.067914506061072e-18

 1.072174213717354e-17 -3.892506130153674e-20 -1.010811678581405e+00
-3.892506130153674e-20  2.763567090425475e-18  4.180874237810840e-01
-1.010811678581405e+00  4.180874237810840e-01  8.275488267073799e-18

 1.065973951955016e-17 -2.456991361220655e-19 -1.008963133065188e+00
-2.456991361220655e-19  2.644843896441320e-16  4.227485136377121e-01
-1.008963133065188e+00  4.227485136377121e-01  8.083112041904529e-18

 1.064253984419718e-17  1.401006606970673e-20 -1.008601487440610e+00
 1.401006606970673e-20 -6.468819851684973e-17  4.200484469983513e-01
-1.008601487440610e+00  4.200484469983513e-01  8.132007550556827e-18

 1.054789391097792e-17  1.014408820883097e-20 -1.005074818716626e+00
 1.014408820883097e-20 -6.575898851155982e-17  4.213099980756198e-01
-1.005074818716626e+00  4.213099980756198e-01  7.894968966054719e-18

 1.069092978507546e-17  5.662041789985903e-20 -1.011419381552343e+00
 5.662041789985903e-20 -1.224243868170140e-16  4.141744735253070e-01
-1.011419381552343e+00  4.141744735253070e-01  8.386037835090546e-18

 1.055666458945209e-17 -5.807231618173039e-20 -1.007117151248652e+00
-5.807231618173039e-20  6.122484110446195e-18  4.211879404117005e-01
-1.007117151248652e+00  4.211879404117005e-01  7.998988235509131e-18

 1.055511708149663e-17  4.641823760994308e-20 -1.008151704438077e+00
 4.641823760994308e-20 -1.289390407229322e-16  4.223909106917441e-01
-1.008151704438077e+00  4.223909106917441e-01  8.029043718656935e-18

 1.065730312556677e-17 -1.217400423570874e-19 -1.012407848767176e+00
-1.217400423570874e-19  9.138242731767857e-17  4.167955544458727e-01
-1.012407848767176e+00  4.167955544458727e-01  8.370886702162204e-18

 1.054762998917020e-17  2.099094441450908e-19 -1.008883245694647e+00
 2.099094441450908e-19 -3.646538876942344e-16  4.219622381990087e-01
-1.008883245694647e+00  4.219622381990087e-01  8.030497887452776e-18

 1.056495669646349e-17 -2.152168239253511e-19 -1.010573305243043e+00
-2.152168239253511e-19  2.201467931329053e-16  4.224673708516834e-01
-1.010573305243043e+00  4.224673708516834e-01  8.142934134352658e-18

 1.057103828286316e-17 -1.138699871656506e-19 -1.011898426671315e+00
-1.138699871656506e-19  7.874999466987847e-17  4.227162320965969e-01
-1.011898426671315e+00  4.227162320965969e-01  8.198584448243250e-18

 1.059379398001356e-17 -2.427370489481541e-19 -1.013094426651835e+00
-2.427370489481541e-19  2.779392350539235e-16  4.214372789317696e-01
-1.013094426651835e+00  4.214372789317696e-01  8.272915595462242e-18

 1.055572460824102e-17  2.612247973371456e-20 -1.012236687915729e+00
 2.612247973371456e-20 -1.590375677532567e-16  4.217311023940910e-01
-1.012236687915729e+00  4.217311023940910e-01  8.238078898829515e-18

 1.057483624549304e-17 -1.268658475351419e-19 -1.012994909208734e+00
-1.268658475351419e-19  1.039376593210179e-16  4.216659496075847e-01
-1.012994909208734e+00  4.216659496075847e-01  8.276207252727581e-18

 1.052391376215456e-17 -1.379054649776971e-19 -1.011917167099882e+00
-1.379054649776971e-19  1.307782902161131e-16  4.221273882246627e-01
-1.011917167099882e+00  4.221273882246627e-01  8.227539327830672e-18

 1.055266494391150e-17  7.003706117973987e-20 -1.012880450905357e+00
 7.003706117973987e-20 -2.707620893277205e-16  4.208240552892095e-01
-1.012880450905357e+00  4.208240552892095e-01  8.287698983927102e-18

 1.049371870945185e-17  1.308442388880939e-19 -1.011457694460387e+00
 1.308442388880939e-19 -4.209108175560143e-16  4.209915305300297e-01
-1.011457694460387e+00  4.209915305300297e-01  8.235481221713359e-18

 1.054019854104351e-17  3.249580144551471e-20 -1.013495664681347e+00
 3.249580144551471e-20 -2.193739524478630e-16  4.189771391694321e-01
-1.013495664681347e+00  4.189771391694321e-01  8.413997882547472e-18

 1.050945998236734e-17 -9.417864478273526e-20 -1.013260927044110e+00
-9.417864478273526e-20  5.836225267213134e-17  4.210587831761989e-01
-1.013260927044110e+00  4.210587831761989e-01  8.355856094559786e-18

 1.043293665536251e-17 -5.512056591117971e-20 -1.010622985998129e+00
-5.512056591117971e-20 -2.850725517147328e-17  4.224130210693199e-01
-1.010622985998129e+00  4.224130210693199e-01  8.195253365182588e-18

 1.048713234568662e-17  1.463301360563947e-20 -1.012462177145685e+00
 1.463301360563947e-20 -1.992056802735744e-16  4.169244309786120e-01
-1.012462177145685e+00  4.169244309786120e-01  8.408748098152097e-18

 1.037791204083765e-17 -1.350358726672512e-19 -1.008931837990413e+00
-1.350358726672512e-19  1.651909760281340e-16  4.189619023312749e-01
-1.008931837990413e+00  4.189619023312749e-01  8.131207613603436e-18

 1.035792344796970e-17 -2.341864913646792e-19 -1.009277400391638e+00
-2.341864913646792e-19  4.770322403631319e-16  4.209502311881392e-01
-1.009277400391638e+00  4.209502311881392e-01  8.145514588436748e-18

 1.040011095856328e-17 -1.788176854425994e-20 -1.012198252402060e+00
-1.788176854425994e-20 -1.838981130703291e-16  4.206269154319576e-01
-1.012198252402060e+00  4.206269154319576e-01  8.274691457711539e-18

 1.037079852727217e-17 -1.407469616055605e-19 -1.012256879628955e+00
-1.407469616055605e-19  2.576777227248475e-16  4.194533661607187e-01
-1.012256879628955e+00  4.194533661607187e-01  8.306478313749931e-18

 1.032847268558729e-17 -5.287719193766241e-20 -1.011217165725003e+00
-5.287719193766241e-20 -8.192286716089296e-17  4.212000303137853e-01
-1.011217165725003e+00  4.212000303137853e-01  8.224319355101215e-18

 1.029705851854122e-17 -5.543955343597834e-20 -1.011282589770793e+00
-5.543955343597834e-20 -4.665192311695526e-17  4.195245799200364e-01
-1.011282589770793e+00  4.195245799200364e-01  8.264407150744731e-18

 1.028222703166575e-17 -7.690561345864979e-20 -1.011084249712759e+00
-7.690561345864979e-20  9.403043630381187e-17  4.194855249682173e-01
-1.011084249712759e+00  4.194855249682173e-01  8.254042947310077e-18

 1.027805280145225e-17 -9.844308255422795e-20 -1.011323144380325e+00
-9.844308255422795e-20  2.347104061592069e-16  4.195200157308653e-01
-1.011323144380325e+00  4.195200157308653e-01  8.269208686584317e-18

 1.021630958964587e-17 -5.391525085164610e-20 -1.011357600128194e+00
-5.391525085164610e-20 -1.338932922103595e-16  4.190220556013313e-01
-1.011357600128194e+00  4.190220556013313e-01  8.259222151017353e-18

 1.019061469666755e-17 -7.263844783029446e-20 -1.012086947562375e+00
-7.263844783029446e-20  2.092360847807267e-17  4.189859211753426e-01
-1.012086947562375e+00  4.189859211753426e-01  8.294515882861730e-18

 1.016542591850374e-17 -7.621927086523876e-20 -1.012569093030369e+00
-7.621927086523876e-20  1.092762180379762e-16  4.194887492865903e-01
-1.012569093030369e+00  4.194887492865903e-01  8.305629402574968e-18

 1.014923664108079e-17 -7.990049397126151e-20 -1.012162632601787e+00
-7.990049397126151e-20  2.257928881041742e-16  4.192812105139481e-01
-1.012162632601787e+00  4.192812105139481e-01  8.268418241131857e-18

 1.010577368697523e-17 -6.919319143199700e-20 -1.011556223028946e+00
-6.919319143199700e-20 -4.394670770673329e-17  4.179086572826547e-01
-1.011556223028946e+00  4.179086572826547e-01  8.269685262027013e-18

 1.008264209699539e-17 -6.861574591687225e-20 -1.011522911223583e+00
-6.861574591687225e-20 -2.019264589943448e-16  4.180511791713932e-01
-1.011522911223583e+00  4.180511791713932e-01  8.264156845112332e-18

 1.003960273740619e-17 -7.072744312128086e-20 -1.010708000707053e+00
-7.072744312128086e-20 -3.250329555490414e-16  4.184711508478696e-01
-1.010708000707053e+00  4.184711508478696e-01  8.247555265156702e-18

 1.001112770046543e-17 -6.923707719163295e-20 -1.010312181006078e+00
-6.923707719163295e-20 -3.249021586228074e-16  4.174815313301731e-01
-1.010312181006078e+00  4.174815313301731e-01  8.229120991472361e-18

 1.009694794484990e-17 -6.891803023860118e-20 -1.014925034211606e+00
-6.891803023860118e-20  2.257099911013534e-16  4.124867451343991e-01
-1.014925034211606e+00  4.124867451343991e-01  8.584792636944195e-18

 1.000980691119702e-17 -8.093591916147780e-20 -1.012778762692254e+00
-8.093591916147780e-20 -2.274702389034269e-16  4.176711448723255e-01
-1.012778762692254e+00  4.176711448723255e-01  8.363234668100287e-18

 1.001857298896428e-17 -6.551056152934519e-20 -1.014170966711629e+00
-6.551056152934519e-20  9.355943373289999e-17  4.166885234678318e-01
-1.014170966711629e+00  4.166885234678318e-01  8.486302206663567e-18

 9.929573528053855e-18 -7.762552180549877e-20 -1.010520777945909e+00
-7.762552180549877e-20 -6.742494787096019e-17  4.168977849537288e-01
-1.010520777945909e+00  4.168977849537288e-01  8.288669395074429e-18

 9.847750384739762e-18 -6.845031728197852e-20 -1.008100816426327e+00
-6.845031728197852e-20 -1.622412163997480e-17  4.178253637392728e-01
-1.008100816426327e+00  4.178253637392728e-01  8.119490233850153e-18

 9.820508618008534e-18 -6.452746168483553e-20 -1.007818300522813e+00
-6.452746168483553e-20  2.794781526723344e-16  4.157579894793093e-01
-1.007818300522813e+00  4.157579894793093e-01  8.217519091758202e-18

 9.909892622287478e-18 -6.749655923378365e-20 -1.012073641721520e+00
-6.749655923378365e-20  4.771502498794534e-16  4.099994377086144e-01
-1.012073641721520e+00  4.099994377086144e-01  8.551510236596031e-18

 9.733629878645430e-18 -5.524307542350126e-20 -1.006505997826298e+00
-5.524307542350126e-20 -3.579788217416542e-17  4.152513616935605e-01
-1.006505997826298e+00  4.152513616935605e-01  8.176284798178743e-18

 9.803603196899852e-18 -3.452635306219824e-20 -1.009476154707136e+00
-3.452635306219824e-20 -7.888403456344315e-16  4.133505060609773e-01
-1.009476154707136e+00  4.133505060609773e-01  8.356336882428649e-18

 9.753500790987489e-18 -2.939674525372271e-20 -1.009603485436798e+00
-2.939674525372271e-20 -4.884696529441041e-16  4.125356390433177e-01
-1.009603485436798e+00  4.125356390433177e-01  8.382021552382655e-18

 9.684472953295481e-18 -4.368295143716504e-20 -1.007663412390049e+00
-4.368295143716504e-20  5.323085039673931e-17  4.147290453196191e-01
-1.007663412390049e+00  4.147290453196191e-01  8.179240502632905e-18

 9.655742294384642e-18 -8.134784990835151e-20 -1.008564588272694e+00
-8.134784990835151e-20  4.220304717543654e-16  4.114356654377899e-01
-1.008564588272694e+00  4.114356654377899e-01  8.277010034723306e-18

 9.722436261505624e-18 -8.172306577320478e-20 -1.012702899418068e+00
-8.172306577320478e-20  3.154435535061459e-16  4.071142843787385e-01
-1.012702899418068e+00  4.071142843787385e-01  8.567259283435493e-18

 9.726964284777839e-18 -6.817146394150224e-20 -1.014972142794908e+00
-6.817146394150224e-20  1.748476305103548e-16  4.085845143686641e-01
-1.014972142794908e+00  4.085845143686641e-01  8.650275667085101e-18

 9.526828231884498e-18 -6.099776955545977e-20 -1.008975850745852e+00
-6.099776955545977e-20  7.603664428220885e-17  4.117812307196236e-01
-1.008975850745852e+00  4.117812307196236e-01  8.236768821355457e-18

 9.405566823280882e-18  1.258982502689711e-20 -1.006695961017956e+00
 1.258982502689711e-20 -1.895844562228010e-16  4.120601107278254e-01
-1.006695961017956e+00  4.120601107278254e-01  8.099423555521169e-18

 9.434470853987993e-18  4.434167201807927e-20 -1.009974321667299e+00
 4.434167201807927e-20 -2.583028470312411e-16  4.116525410248079e-01
-1.009974321667299e+00  4.116525410248079e-01  8.337692928364822e-18

 9.354987917969718e-18 -2.144798855779444e-19 -1.007481328249274e+00
-2.144798855779444e-19  3.557147108193369e-16  4.115757465583025e-01
-1.007481328249274e+00  4.115757465583025e-01  8.192161642294850e-18

 9.198215711901772e-18  2.740545168600733e-19 -1.002346265950535e+00
 2.740545168600733e-19 -6.531547426149239e-16  4.134962231694210e-01
-1.002346265950535e+00  4.134962231694210e-01  7.914294382841868e-18

 9.190141751618817e-18  7.490896045067385e-20 -1.003016478750093e+00
 7.490896045067385e-20 -2.314982757207442e-16  4.098542001058344e-01
-1.003016478750093e+00  4.098542001058344e-01  8.062582781914595e-18

 9.018139755514987e-18 -3.578774628347492e-19 -9.978184830547332e-01
-3.578774628347492e-19  4.114004788788003e-16  4.156983910496385e-01
-9.978184830547332e-01  4.156983910496385e-01  7.756588421057331e-18

 8.816584729619038e-18 -3.639167944019179e-19 -9.907929715793170e-01
-3.639167944019179e-19  4.111150031222039e-16  4.179485801588874e-01
-9.907929715793170e-01  4.179485801588874e-01  7.374620571739597e-18

 8.621477390947464e-18  3.427633004334800e-20 -9.844194693721959e-01
 3.427633004334800e-20 -1.207654332724961e-16  4.201343205045260e-01
-9.844194693721959e-01  4.201343205045260e-01  7.023498658993294e-18

 8.273660836887771e-18 -1.788088501259629e-19 -9.721021777430111e-01
-1.788088501259629e-19  1.011531357036980e-16  4.278097153367902e-01
-9.721021777430111e-01  4.278097153367902e-01  6.174277370392292e-18

 7.957790224475641e-18 -1.801092908599041e-19 -9.611329704457647e-01
-1.801092908599041e-19  6.441821162122744e-17  4.171335570994945e-01
-9.611329704457647e-01  4.171335570994945e-01  5.582234590925797e-18

 9.269865609479291e-18 -1.173948496634095e-19 -1.015591778744983e+00
-1.173948496634095e-19  1.086532242270105e-17  3.601549224268488e-01
-1.015591778744983e+00  3.601549224268488e-01  9.724948680965434e-18

 8.148519131810934e-18  7.722891602305912e-20 -9.736129502529277e-01
 7.722891602305912e-20 -1.609067602213996e-16  4.084198818596222e-01
-9.736129502529277e-01  4.084198818596222e-01  6.311680571605342e-18

 8.226061855006236e-18 -5.240123022118811e-19 -9.836862380233601e-01
-5.240123022118811e-19  4.056841812083016e-16  4.331193825127907e-01
-9.836862380233601e-01  4.331193825127907e-01  6.461867951443851e-18

 8.458303364597651e-18 -1.518498567038651e-19 -1.000879862448046e+00
-1.518498567038651e-19 -2.910148262817218e-17  4.312520659662875e-01
-1.000879862448046e+00  4.312520659662875e-01  7.202907854382290e-18

 8.690849854871616e-18 -6.644345714571510e-20 -1.015121306886167e+00
-6.644345714571510e-20 -1.548615124291074e-16  4.209692364725420e-01
-1.015121306886167e+00  4.209692364725420e-01  7.954718138695286e-18

 8.679357661597970e-18 -2.244312988695634e-19 -1.019925462905720e+00
-2.244312988695634e-19  6.552672345599998e-17  4.212881088098492e-01
-1.019925462905720e+00  4.212881088098492e-01  8.064544907294891e-18

 8.756867210254766e-18 -4.100935643347872e-19 -1.028199408632183e+00
-4.100935643347872e-19  4.643373558338092e-16  4.208922646762325e-01
-1.028199408632183e+00  4.208922646762325e-01  8.362309558900321e-18

 8.934794329247598e-18 -2.397263612372353e-20 -1.041299499896987e+00
-2.397263612372353e-20 -5.261787250925998e-16  4.215770358781804e-01
-1.041299499896987e+00  4.215770358781804e-01  9.010569010507692e-18

 8.285449698206216e-18 -2.595001845030406e-19 -1.018297141447068e+00
-2.595001845030406e-19  1.609402318607579e-16  4.551703832335242e-01
-1.018297141447068e+00  4.551703832335242e-01  7.068473552419130e-18

 8.970597527942947e-18 -2.326893031396359e-19 -1.049742075775682e+00
-2.326893031396359e-19  5.411258019715363e-17  4.218301674337372e-01
-1.049742075775682e+00  4.218301674337372e-01  9.384012582136376e-18

 8.643640901990187e-18 -1.140021727821973e-20 -1.039681443520204e+00
-1.140021727821973e-20 -7.847706053003700e-16  4.228909666383934e-01
-1.039681443520204e+00  4.228909666383934e-01  8.689551795814324e-18

 8.452798040856793e-18 -1.489500868778314e-19 -1.033349756128373e+00
-1.489500868778314e-19 -2.878199582082134e-16  4.246645335700138e-01
-1.033349756128373e+00  4.246645335700138e-01  8.322038597621247e-18

 8.327405125264140e-18 -3.983497530264214e-19 -1.031475188365121e+00
-3.983497530264214e-19  4.831096184405294e-16  4.216135862274300e-01
-1.031475188365121e+00  4.216135862274300e-01  8.249332592597211e-18

 8.157604776570169e-18 -6.790216629386181e-20 -1.028175753968279e+00
-6.790216629386181e-20 -5.562515373915497e-16  4.232876926437832e-01
-1.028175753968279e+00  4.232876926437832e-01  8.018505970411685e-18

 8.009004815401732e-18 -3.738976350624878e-19 -1.026506928327735e+00
-3.738976350624878e-19  2.962144797438280e-16  4.260933437876118e-01
-1.026506928327735e+00  4.260933437876118e-01  7.891498284527801e-18

 7.937152090788883e-18 -8.645495136054037e-20 -1.026228203781724e+00
-8.645495136054037e-20 -6.196805730946831e-16  4.274629873469276e-01
-1.026228203781724e+00  4.274629873469276e-01  7.864714820057555e-18

 7.823044349991458e-18 -5.090096623498962e-19 -1.025503069757863e+00
-5.090096623498962e-19  6.229201264408630e-16  4.290414296258865e-01
-1.025503069757863e+00  4.290414296258865e-01  7.778316692309661e-18

 7.749451806357502e-18 -9.302626877629296e-20 -1.026042890615246e+00
-9.302626877629296e-20 -7.158171546452758e-16  4.257214947403751e-01
-1.026042890615246e+00  4.257214947403751e-01  7.860942083316996e-18

 7.600711189763188e-18 -2.884404265051799e-19 -1.024603662206688e+00
-2.884404265051799e-19 -1.864336197023982e-16  4.262705303271407e-01
-1.024603662206688e+00  4.262705303271407e-01  7.754969257316136e-18

 7.425549392506327e-18 -2.281328039359682e-19 -1.024387594811493e+00
-2.281328039359682e-19 -5.324712635533656e-16  4.279407305803796e-01
-1.024387594811493e+00  4.279407305803796e-01  7.755939219671868e-18

 7.159081636383960e-18 -4.090165726325510e-19 -1.021117540787373e+00
-4.090165726325510e-19 -4.492800098841353e-17  4.275015577245603e-01
-1.021117540787373e+00  4.275015577245603e-01  7.608901109051792e-18

 6.878266335773877e-18 -4.427437937103027e-19 -1.015987682084905e+00
-4.427437937103027e-19 -4.520952609362526e-17  4.246652447583682e-01
-1.015987682084905e+00  4.246652447583682e-01  7.343912921221972e-18

 6.627909814976228e-18 -4.370578453343059e-19 -1.015565281937474e+00
-4.370578453343059e-19 -2.012340136605326e-16  4.245971923125743e-01
-1.015565281937474e+00  4.245971923125743e-01  7.295989843345247e-18

 6.454382459247867e-18 -3.716255537602067e-19 -1.017387578769242e+00
-3.716255537602067e-19 -6.974428318579425e-16  4.257039198790531e-01
-1.017387578769242e+00  4.257039198790531e-01  7.347458804789573e-18

 6.282306185790284e-18 -6.359870321986031e-19 -1.017863924079080e+00
-6.359870321986031e-19  3.266635634632269e-16  4.240445985899031e-01
-1.017863924079080e+00  4.240445985899031e-01  7.352868764467655e-18

 5.977839922526869e-18 -6.137562262458547e-19 -1.015682679829800e+00
-6.137562262458547e-19 -3.806683794838513e-17  4.225486047321819e-01
-1.015682679829800e+00  4.225486047321819e-01  7.205332804949063e-18

 5.508978381548121e-18 -7.384990449707164e-19 -1.013478822120233e+00
-7.384990449707164e-19  1.811566618948108e-16  4.216197294000216e-01
-1.013478822120233e+00  4.216197294000216e-01  7.024408954781604e-18

 5.129693821670395e-18 -8.405104012492192e-19 -1.013449265127973e+00
-8.405104012492192e-19  3.176444192313736e-16  4.206379434272426e-01
-1.013449265127973e+00  4.206379434272426e-01  6.930345321646091e-18

 4.860377243651322e-18 -9.124487611180135e-19 -1.012951805560295e+00
-9.124487611180135e-19  4.687532856170406e-16  4.199050796306111e-01
-1.012951805560295e+00  4.199050796306111e-01  6.850434429128675e-18

 4.440684177427374e-18 -8.959804864510551e-19 -1.011842369815229e+00
-8.959804864510551e-19 -1.624769441752418e-16  4.196867383497338e-01
-1.011842369815229e+00  4.196867383497338e-01  6.707604467082749e-18

 4.002859793938241e-18 -9.748637563561228e-19 -1.011088959977024e+00
-9.748637563561228e-19 -3.496297191659720e-16  4.184678023841284e-01
-1.011088959977024e+00  4.184678023841284e-01  6.551706177108112e-18

 3.569056591726834e-18 -1.053351930329383e-18 -1.010507057995683e+00
-1.053351930329383e-18 -5.368148514644904e-16  4.180604779178102e-01
-1.010507057995683e+00  4.180604779178102e-01  6.397510270708525e-18

 2.880974451476325e-18 -1.248596502029998e-18 -1.010180399532725e+00
-1.248596502029998e-18 -2.831426717115470e-16  4.169980256519240e-01
-1.010180399532725e+00  4.169980256519240e-01  6.187526394971788e-18

 2.239242799317639e-18 -1.503902802307667e-18 -1.010396098155837e+00
-1.503902802307667e-18  2.969410747662368e-16  4.167806268725021e-01
-1.010396098155837e+00  4.167806268725021e-01  5.985780547077214e-18

 1.520840488571954e-18 -1.638050346497432e-18 -1.009849678781753e+00
-1.638050346497432e-18 -1.035190688450493e-16  4.162172137009494e-01
-1.009849678781753e+00  4.162172137009494e-01  5.760242974870721e-18

 9.126558333710868e-19 -1.867171525239651e-18 -1.008790878251501e+00
-1.867171525239651e-18  2.495520486268674e-16  4.150518663758142e-01
-1.008790878251501e+00  4.150518663758142e-01  5.539827234377583e-18

 2.497064222960917e-19 -2.077941871590248e-18 -1.008511754351622e+00
-2.077941871590248e-18  2.890696914313210e-16  4.148032754314213e-01
-1.008511754351622e+00  4.148032754314213e-01  5.320397229317267e-18

-1.027796639552798e-18 -2.302669355942173e-18 -1.006213624698488e+00
-2.302669355942173e-18 -4.302595488242978e-16  4.146239646027352e-01
-1.006213624698488e+00  4.146239646027352e-01  4.819611036764642e-18

-2.569402038475192e-18 -3.142532165380203e-18 -1.003550438338837e+00
-3.142532165380203e-18  8.448158069939555e-16  4.138781810797846e-01
-1.003550438338837e+00  4.138781810797846e-01  4.230704793405056e-18

-4.644832010157406e-18 -3.350313979832515e-18 -1.002047806156560e+00
-3.350313979832515e-18 -8.099728476917463e-16  4.131416857999616e-01
-1.002047806156560e+00  4.131416857999616e-01  3.552204763067153e-18

-6.967887816754517e-18 -4.400807177516032e-18 -9.988814268089219e-01
-4.400807177516032e-18 -1.963836291841999e-16  4.132163419380759e-01
-9.988814268089219e-01  4.132163419380759e-01  2.722824289381787e-18

-9.055423828530797e-18 -5.191128220243022e-18 -9.934207344488741e-01
-5.191128220243022e-18 -2.000174742076801e-16  4.190556907553035e-01
-9.934207344488741e-01  4.190556907553035e-01  1.772094411699990e-18

-1.246927942633374e-17 -6.017611041906102e-18 -9.678663457851767e-01
-6.017611041906102e-18 -8.482016577675119e-16  4.182832412281644e-01
-9.678663457851767e-01  4.182832412281644e-01 -6.052058639209842e-19

-1.332752788516730e-17 -7.023013137243412e-18 -1.007199228719573e+00
-7.023013137243412e-18 -4.985687278796057e-16  3.641289690554845e-01
-1.007199228719573e+00  3.641289690554845e-01  1.912191802766819e-18

-1.653786833764472e-17 -8.292325160775121e-18 -9.801837931770910e-01
-8.292325160775121e-18 -4.343458055570811e-17  4.185857220601364e-01
-9.801837931770910e-01  4.185857220601364e-01 -1.446061218554263e-18

-2.161091737645105e-17 -1.044326428473819e-17 -1.006636806155743e+00
-1.044326428473819e-17 -5.701807942328104e-16  4.144016199885354e-01
-1.006636806155743e+00  4.144016199885354e-01 -1.975716185221030e-18

-2.550518743398497e-17 -1.254445490259764e-17 -1.007751168930495e+00
-1.254445490259764e-17  1.973841715198542e-16  4.102671480765975e-01
-1.007751168930495e+00  4.102671480765975e-01 -3.278132863126621e-18

-3.106613981122016e-17 -1.504421160794350e-17 -1.008581894267757e+00
-1.504421160794350e-17 -3.583018333200341e-17  4.191878214319316e-01
-1.008581894267757e+00  4.191878214319316e-01 -5.257769602964038e-18

-3.927919536881686e-17 -1.924396579744707e-17 -1.009117301527635e+00
-1.924396579744707e-17  5.552046356272309e-16  4.172367403031299e-01
-1.009117301527635e+00  4.172367403031299e-01 -8.018025929903370e-18

-4.709566654504236e-17 -2.318526835386176e-17 -1.012111286331910e+00
-2.318526835386176e-17  5.429721494976292e-16  4.208037306860379e-01
-1.012111286331910e+00  4.208037306860379e-01 -1.053163000316931e-17

-5.463276720192326e-17 -2.780955796301087e-17 -1.014854416927796e+00
-2.780955796301087e-17 -1.009502070940748e-15  4.212568166172502e-01
-1.014854416927796e+00  4.212568166172502e-01 -1.712868255909960e-17

-7.512862028621438e-17 -3.782541940545001e-17 -1.017062958920583e+00
-3.782541940545001e-17  4.288001173520108e-17  4.217651301278996e-01
-1.017062958920583e+00  4.217651301278996e-01 -1.938506114110724e-17

-8.665595915520107e-17 -4.412153016093728e-17 -1.017549595698552e+00
-4.412153016093728e-17  2.118241280324401e-16  4.246482925112820e-01
-1.017549595698552e+00  4.246482925112820e-01 -2.303508491027019e-17

-1.091570983367423e-16 -5.661438928131325e-17 -1.018792225057776e+00
-5.661438928131325e-17  1.814808163496320e-16  4.239480270798369e-01
-1.018792225057776e+00  4.239480270798369e-01 -2.997421826463241e-17

-1.334696942970176e-16 -7.060567844546788e-17 -1.019080621985561e+00
-7.060567844546788e-17  1.706097350580155e-15  4.252697886316619e-01
-1.019080621985561e+00  4.252697886316619e-01 -3.740966713993352e-17

-1.776220524748762e-16 -9.455575976443319e-17 -1.017151010421639e+00
-9.455575976443319e-17 -2.007339825213318e-15  4.253728152732975e-01
-1.017151010421639e+00  4.253728152732975e-01 -5.075971293018425e-17

-2.777586376777177e-16 -1.504941703400279e-16 -1.015745374760712e+00
-1.504941703400279e-16 -3.815009770445486e-16  4.252029366233109e-01
-1.015745374760712e+00  4.252029366233109e-01 -8.026941412502349e-17

-4.169852554946530e-16 -2.241081995045730e-16 -1.016729224334512e+00
-2.241081995045730e-16  1.176272289932122e-15  4.245667867745485e-01
-1.016729224334512e+00  4.245667867745485e-01 -1.203743247196563e-16

-5.987238824624892e-16 -3.122384451092601e-16 -1.017994357769944e+00
-3.122384451092601e-16  1.130924950800704e-15  4.239579995236533e-01
-1.017994357769944e+00  4.239579995236533e-01 -1.723465240029120e-16

-8.920409636745611e-16 -4.370675124579974e-16 -1.018891711787760e+00
-4.370675124579974e-16  1.046606026105283e-15  4.243323819412305e-01
-1.018891711787760e+00  4.243323819412305e-01 -2.567668329376910e-16

-1.335325823051295e-15 -5.901861502074118e-16 -1.018805022578839e+00
-5.901861502074118e-16 -1.594257406492699e-15  4.230380709305210e-01
-1.018805022578839e+00  4.230380709305210e-01 -3.878719025900823e-16

-2.032446882573403e-15 -7.598561150416472e-16 -1.018263732330491e+00
-7.598561150416472e-16 -2.436588710823007e-15  4.228278677570995e-01
-1.018263732330491e+00  4.228278677570995e-01 -6.065286928415017e-16

-2.645504493445418e-15 -8.498116603435028e-16 -1.017212185035510e+00
-8.498116603435028e-16 -1.942564663796430e-15  4.243085451532056e-01
-1.017212185035510e+00  4.243085451532056e-01 -8.136108120347121e-16

-3.356512606125294e-15 -8.992033446508284e-16 -1.019823063688933e+00
-8.992033446508284e-16  1.899655026958801e-16  4.221256432462857e-01
-1.019823063688933e+00  4.221256432462857e-01 -1.071875984312683e-15

-4.723665823081893e-15 -8.310241444900990e-16 -1.019382089648561e+00
-8.310241444900990e-16  2.134814511667110e-16  4.231538630450961e-01
-1.019382089648561e+00  4.231538630450961e-01 -1.637584282822858e-15

-6.963919622270117e-15 -5.587860810999317e-16 -1.019291653319648e+00
-5.587860810999317e-16 -1.899332265494743e-15  4.218526886279537e-01
-1.019291653319648e+00  4.218526886279537e-01 -2.672729002976781e-15

-9.570820508626107e-15 -1.767482202087820e-17 -1.014730966942511e+00
-1.767482202087820e-17 -1.613386654472149e-15  4.246527217807896e-01
-1.014730966942511e+00  4.246527217807896e-01 -4.036962437050878e-15

-1.410420561249521e-14  1.173879225879676e-15 -1.015389226352313e+00
 1.173879225879676e-15 -1.043136186568450e-15  4.219357288792427e-01
-1.015389226352313e+00  4.219357288792427e-01 -6.566194585634207e-15

 1.382272394410477e-14  2.405147650705538e-14 -1.012838298543164e+00
 2.405147650705538e-14  2.979371938283801e-14  4.209755256066503e-01
-1.012838298543164e+00  4.209755256066503e-01 -2.352633151740397e-15

-6.428312478035705e-13 -1.549277285565512e-13 -1.012898030999559e+00
-1.549277285565512e-13 -2.827726930127759e-13  4.211885186553934e-01
-1.012898030999559e+00  4.211885186553934e-01 -2.125445426731889e-13

 1.744406505401842e-14  3.373402380810659e-15 -1.011912489429355e+00
 3.373402380810659e-15  2.324856594362632e-14  4.172548805742404e-01
-1.011912489429355e+00  4.172548805742404e-01 -4.229162036651959e-15

-8.067413740121230e-15 -1.143238311752133e-14 -1.008661618216464e+00
-1.143238311752133e-14 -6.870655200303761e-16  4.165793564813425e-01
-1.008661618216464e+00  4.165793564813425e-01 -8.205883985447411e-15

-6.461163570660660e-13 -1.499369823572040e-13 -1.013992398161960e+00
-1.499369823572040e-13 -3.251927987825228e-13  4.172321259002736e-01
-1.013992398161960e+00  4.172321259002736e-01 -1.594517339456913e-13

-4.253637821380541e-15 -8.566624658460702e-15 -1.007856910081956e+00
-8.566624658460702e-15  5.716593917742544e-16  4.160648289729924e-01
-1.007856910081956e+00  4.160648289729924e-01 -4.383418806458513e-15

-3.263216390562334e-15 -6.682208160952103e-15 -1.007425467609328e+00
-6.682208160952103e-15  1.080470100501422e-15  4.148671074429240e-01
-1.007425467609328e+00  4.148671074429240e-01 -3.174359142904779e-15

-2.664516770879730e-15 -4.355118997023804e-15 -1.007201346809425e+00
-4.355118997023804e-15  1.408558509625154e-15  4.163244272108836e-01
-1.007201346809425e+00  4.163244272108836e-01 -2.017178367180994e-15

-1.939809536795387e-15 -2.119432169844379e-15 -1.009137501618294e+00
-2.119432169844379e-15  9.586704010040497e-16  4.155559847690520e-01
-1.009137501618294e+00  4.155559847690520e-01 -1.093813639492548e-15

-1.384769021465266e-15 -1.031296913787624e-15 -1.011096106781902e+00
-1.031296913787624e-15  5.572822634475296e-16  4.154017023095731e-01
-1.011096106781902e+00  4.154017023095731e-01 -6.464456879150475e-16

-9.673572726839309e-16 -5.022297996220778e-16 -1.010793495137774e+00
-5.022297996220778e-16  1.035944041452512e-16  4.151021675151783e-01
-1.010793495137774e+00  4.151021675151783e-01 -4.010327759837573e-16

-6.738976923952033e-16 -2.468393502726732e-16 -1.008085250699985e+00
-2.468393502726732e-16 -7.510828422422528e-17  4.150355097880855e-01
-1.008085250699985e+00  4.150355097880855e-01 -2.588168895663723e-16

-4.780354282131377e-16 -1.244157883102348e-16 -1.005523696486014e+00
-1.244157883102348e-16 -1.707728518609902e-16  4.146648833166607e-01
-1.005523696486014e+00  4.146648833166607e-01 -1.743810070337894e-16

-3.813314100652402e-16 -7.838015552897133e-17 -1.008305464538270e+00
-7.838015552897133e-17 -1.785889858946983e-16  4.121980822124247e-01
-1.008305464538270e+00  4.121980822124247e-01 -1.351650348205116e-16

-2.822679198773654e-16 -4.046882586329925e-17 -1.011773183269029e+00
-4.046882586329925e-17 -1.186812094993778e-16  4.146261463133987e-01
-1.011773183269029e+00  4.146261463133987e-01 -9.646352669169540e-17

-2.042737913261648e-16 -1.903841955873331e-17 -1.011476657408033e+00
-1.903841955873331e-17 -9.372278176929587e-17  4.117139769051242e-01
-1.011476657408033e+00  4.117139769051242e-01 -6.733593902586505e-17

-1.686474106304670e-16 -1.135302793769599e-17 -1.009200315861640e+00
-1.135302793769599e-17 -1.187648627369973e-16  4.135842272939128e-01
-1.009200315861640e+00  4.135842272939128e-01 -5.443704942867551e-17

-1.386939159392669e-16 -6.233952710847920e-18 -1.006848198368147e+00
-6.233952710847920e-18  9.742337308537330e-17  4.144124453739066e-01
-1.006848198368147e+00  4.144124453739066e-01 -4.371405784138533e-17

-1.101879611846485e-16 -2.451703706247938e-18 -1.007319902232791e+00
-2.451703706247938e-18  2.875482604855580e-16  4.149456350996392e-01
-1.007319902232791e+00  4.149456350996392e-01 -3.347940434615607e-17

-9.138253245639831e-17 -5.553620068031254e-19 -1.007336879764590e+00
-5.553620068031254e-19 -1.638804861493006e-16  4.152799212101395e-01
-1.007336879764590e+00  4.152799212101395e-01 -2.679508442582822e-17

-7.607658905802655e-17  5.943046592959479e-19 -1.005822616478770e+00
 5.943046592959479e-19  1.018857328079680e-16  4.130162455704787e-01
-1.005822616478770e+00  4.130162455704787e-01 -2.142076446891991e-17

-6.432733335734221e-17  1.256778612370016e-18 -1.006311348428229e+00
 1.256778612370016e-18 -4.616196072200278e-19  4.140530173200969e-01
-1.006311348428229e+00  4.140530173200969e-01 -1.728134954735690e-17

-5.713180735525560e-17  1.493327336649063e-18 -1.007552654686554e+00
 1.493327336649063e-18  4.525148528665252e-17  4.094996411141819e-01
-1.007552654686554e+00  4.094996411141819e-01 -1.459316729954999e-17

-4.686481384937964e-17  1.721185237122619e-18 -1.004927861613942e+00
 1.721185237122619e-18 -5.133499088758652e-17  4.131618640075090e-01
-1.004927861613942e+00  4.131618640075090e-01 -1.112066075953634e-17

-3.756218149341715e-17  1.795937393760570e-18 -1.002093111319416e+00
 1.795937393760570e-18 -2.555966907592269e-17  4.116668323153179e-01
-1.002093111319416e+00  4.116668323153179e-01 -7.936718104079350e-18

-3.019759276956523e-17  1.749903977841789e-18 -9.987746258706030e-01
 1.749903977841789e-18  8.924858434469572e-20  4.130708745411134e-01
-9.987746258706030e-01  4.130708745411134e-01 -5.448783156989925e-18

-2.525634078504481e-17  1.682561110335713e-18 -9.934323460821471e-01
 1.682561110335713e-18  4.617250111292533e-17  4.139931892844971e-01
-9.934323460821471e-01  4.139931892844971e-01 -3.910221214870150e-18

-2.213937050258994e-17  1.536161909632999e-18 -9.852841014554139e-01
 1.536161909632999e-18 -9.420614893105850e-17  4.178950102867070e-01
-9.852841014554139e-01  4.178950102867070e-01 -3.212374187499683e-18

-1.913484829313201e-17  1.501672785166115e-18 -9.734503561996567e-01
 1.501672785166115e-18  8.871261587112574e-17  4.152420160920837e-01
-9.734503561996567e-01  4.152420160920837e-01 -2.693103473416430e-18

-1.661573095389572e-17  1.475215752096685e-18 -9.978295239108049e-01
 1.475215752096685e-18  8.635802900870899e-17  3.843540418701413e-01
-9.978295239108049e-01  3.843540418701413e-01 -9.202743723286097e-20

-1.559607963379773e-17  1.250272992513623e-18 -9.768369049478449e-01
 1.250272992513623e-18 -1.955915857974412e-16  4.109319857727509e-01
-9.768369049478449e-01  4.109319857727509e-01 -1.284776191445585e-18

-1.352217294649925e-17  1.257705554389095e-18 -9.809638321987801e-01
 1.257705554389095e-18  9.391858434121706e-17  4.235168775017553e-01
-9.809638321987801e-01  4.235168775017553e-01 -5.475601009329630e-19

-1.134642178477450e-17  1.093805902511524e-18 -9.963036426957481e-01
 1.093805902511524e-18 -2.476479681786633e-17  4.145344144506669e-01
-9.963036426957481e-01  4.145344144506669e-01  9.796439984361553e-19

-8.164247347153119e-18  9.459933413273255e-19 -1.007897237215859e+00
 9.459933413273255e-19 -9.338698723455494e-18  4.123874762150057e-01
-1.007897237215859e+00  4.123874762150057e-01  2.489681561694842e-18

-5.504438695934306e-18  7.790857780618971e-19 -1.009303224723118e+00
 7.790857780618971e-19  5.435656241882816e-18  4.113303074208404e-01
-1.009303224723118e+00  4.113303074208404e-01  3.284058282469462e-18

-3.578647241134257e-18  6.725303170035800e-19 -1.016908078624277e+00
 6.725303170035800e-19 -2.670715801930167e-17  4.161818713860151e-01
-1.016908078624277e+00  4.161818713860151e-01  4.164077272383586e-18

-2.379628842513271e-18  5.822498185346501e-19 -1.019356671454387e+00
 5.822498185346501e-19 -1.151584949319618e-16  4.199428437881274e-01
-1.019356671454387e+00  4.199428437881274e-01  4.572963204273684e-18

-1.471441537980366e-18  5.164338177829823e-19 -1.018911298231859e+00
 5.164338177829823e-19 -5.363740420528750e-17  4.091037857975682e-01
-1.018911298231859e+00  4.091037857975682e-01  4.922278370754569e-18

-6.631308835317323e-19  4.535458230556731e-19 -1.017126276018586e+00
 4.535458230556731e-19 -7.405700000369163e-17  4.180817599152526e-01
-1.017126276018586e+00  4.180817599152526e-01  4.992066598916078e-18

 2.549065361695087e-19  4.067240907169618e-19 -1.019253934478903e+00
 4.067240907169618e-19 -1.468690613079626e-17  4.187550791211948e-01
-1.019253934478903e+00  4.187550791211948e-01  5.410751440910024e-18

 9.851302271210091e-19  3.521443527736805e-19 -1.017308875567217e+00
 3.521443527736805e-19 -1.420218949787434e-17  4.179834109768436e-01
-1.017308875567217e+00  4.179834109768436e-01  5.600049925680043e-18

 1.704436396170959e-18  2.991907845349200e-19 -1.014525980910435e+00
 2.991907845349200e-19 -1.378008906099925e-17  4.182982284475745e-01
-1.014525980910435e+00  4.182982284475745e-01  5.757361977170720e-18

 2.405052287953440e-18  2.577224532485342e-19 -1.012598685816470e+00
 2.577224532485342e-19  7.210406991887062e-17  4.182402062848721e-01
-1.012598685816470e+00  4.182402062848721e-01  5.928198895637450e-18

 2.937288552769273e-18  2.226716709603826e-19 -1.011410548677355e+00
 2.226716709603826e-19  7.237906904776185e-17  4.178736869530450e-01
-1.011410548677355e+00  4.178736869530450e-01  6.112697137546504e-18

 3.286858441288412e-18  1.961195640474649e-19 -1.010861765217238e+00
 1.961195640474649e-19 -2.514849823208435e-17  4.176182152765854e-01
-1.010861765217238e+00  4.176182152765854e-01  6.232202958801691e-18

 3.565630737356906e-18  1.762216751566633e-19 -1.010228869258009e+00
 1.762216751566633e-19 -2.065113908443194e-17  4.180201853125040e-01
-1.010228869258009e+00  4.180201853125040e-01  6.303438363068406e-18

 4.078256792902015e-18  1.372859299308120e-19 -1.008557682773081e+00
 1.372859299308120e-19 -1.124355184559840e-16  4.159404775122990e-01
-1.008557682773081e+00  4.159404775122990e-01  6.470930760939227e-18

 4.449276289557784e-18  1.332306274269925e-19 -1.007338174858265e+00
 1.332306274269925e-19  2.627704358209352e-18  4.179806957819378e-01
-1.007338174858265e+00  4.179806957819378e-01  6.512804535222318e-18

 4.696752573414267e-18  1.108724973318724e-19 -1.006791501040760e+00
 1.108724973318724e-19 -3.215619595160973e-18  4.162758206193564e-01
-1.006791501040760e+00  4.162758206193564e-01  6.640549410486266e-18

 5.008425384799421e-18  1.161341564943622e-19 -1.006009980093588e+00
 1.161341564943622e-19  2.031085548580996e-17  4.150781311858456e-01
-1.006009980093588e+00  4.150781311858456e-01  6.751589192231401e-18

 5.296510094444136e-18  8.707140473841762e-20 -1.005823295796682e+00
 8.707140473841762e-20 -2.222043320970782e-17  4.145851023730157e-01
-1.005823295796682e+00  4.145851023730157e-01  6.859846326709912e-18

 5.390993484809698e-18  8.649159434705953e-20 -1.002185789422906e+00
 8.649159434705953e-20 -1.936881876115620e-17  4.150612645257073e-01
-1.002185789422906e+00  4.150612645257073e-01  6.716204528984822e-18

 5.516009579606161e-18  7.050401024985525e-20 -1.002427096006939e+00
 7.050401024985525e-20 -4.509897852338943e-17  4.144942650194318e-01
-1.002427096006939e+00  4.144942650194318e-01  6.744515373416043e-18

 5.762741134706971e-18  6.779680240945617e-20 -1.002261049206611e+00
 6.779680240945617e-20  5.386878662730233e-17  4.144898371891735e-01
-1.002261049206611e+00  4.144898371891735e-01  6.846714531455379e-18

 6.004348826961627e-18  5.916576838041724e-20 -1.003844473587499e+00
 5.916576838041724e-20 -8.776800887186089e-18  4.133938730629081e-01
-1.003844473587499e+00  4.133938730629081e-01  7.037369794692244e-18

 6.164629047981244e-18  2.684684476583561e-20 -1.005022174811485e+00
 2.684684476583561e-20 -4.511440223033322e-17  4.134072834602345e-01
-1.005022174811485e+00  4.134072834602345e-01  7.131290313844133e-18

 6.357072212962239e-18  2.763458613402243e-20 -1.003309752453266e+00
 2.763458613402243e-20  4.354759397901927e-17  4.125874993186697e-01
-1.003309752453266e+00  4.125874993186697e-01  7.118885324274055e-18

 6.539553498264735e-18  9.552700431019515e-22 -1.003690387004473e+00
 9.552700431019515e-22 -8.649133227142868e-17  4.131020774594449e-01
-1.003690387004473e+00  4.131020774594449e-01  7.184921377959476e-18

 6.683311400574966e-18  4.861496910328067e-21 -1.001889809716404e+00
 4.861496910328067e-21  1.781973284020045e-17  4.146957974511400e-01
-1.001889809716404e+00  4.146957974511400e-01  7.156538622119949e-18

 6.882317885637780e-18 -4.689217224359090e-22 -1.001630892496314e+00
-4.689217224359090e-22  4.101591732327122e-17  4.131996422893663e-01
-1.001630892496314e+00  4.131996422893663e-01  7.246646085404683e-18

 7.039979445941436e-18 -1.373284237860515e-20 -1.001920451635244e+00
-1.373284237860515e-20  1.565916801644068e-17  4.132559179136129e-01
-1.001920451635244e+00  4.132559179136129e-01  7.318312360206916e-18

 7.173216455039397e-18 -3.489415333178849e-20 -1.001768048194216e+00
-3.489415333178849e-20 -3.523385242920680e-17  4.116311603142639e-01
-1.001768048194216e+00  4.116311603142639e-01  7.439439116486132e-18

 7.271236742696814e-18 -1.221456742392184e-20 -9.996463556347726e-01
-1.221456742392184e-20  6.677470265287120e-17  4.140091858329619e-01
-9.996463556347726e-01  4.140091858329619e-01  7.360403617842186e-18

 7.427831070948483e-18 -3.134240597657730e-20 -9.986234317468476e-01
-3.134240597657730e-20 -3.467558266325033e-18  4.102064721053092e-01
-9.986234317468476e-01  4.102064721053092e-01  7.499207723119387e-18

 7.539163257148162e-18 -2.727667026328538e-20 -9.951713494576648e-01
-2.727667026328538e-20 -3.702221048634016e-18  4.119219763950766e-01
-9.951713494576648e-01  4.119219763950766e-01  7.454282836433614e-18

 7.827667801508994e-18 -2.124382751989709e-20 -1.000179558653187e+00
-2.124382751989709e-20  4.637531166809127e-19  4.054513373202475e-01
-1.000179558653187e+00  4.054513373202475e-01  7.935449862425763e-18

 7.736141550360623e-18 -1.019644962576202e-20 -9.933775428690979e-01
-1.019644962576202e-20  2.295424980471903e-17  4.105660063867549e-01
-9.933775428690979e-01  4.105660063867549e-01  7.544102585010382e-18

 7.735367349411448e-18  8.514487983552758e-21 -9.893273039669406e-01
 8.514487983552758e-21  4.748142846548307e-17  4.137841729330711e-01
-9.893273039669406e-01  4.137841729330711e-01  7.314001117370681e-18

 7.756597433875793e-18  3.456228750155404e-21 -9.853985500534903e-01
 3.456228750155404e-21  2.619048710613274e-17  4.165808663156364e-01
-9.853985500534903e-01  4.165808663156364e-01  7.089471399000497e-18

 7.739834651386901e-18 -3.322739759697836e-20 -9.802916351002419e-01
-3.322739759697836e-20 -5.219420457260174e-17  4.190098407122949e-01
-9.802916351002419e-01  4.190098407122949e-01  6.847462048977988e-18

 7.508579057401859e-18 -1.825374038602909e-20 -9.678846496675541e-01
-1.825374038602909e-20 -5.589965993572421e-18  4.277736453391958e-01
-9.678846496675541e-01  4.277736453391958e-01  6.006485029911793e-18

 7.326462709927069e-18 -7.782284460954794e-20 -9.581023325866873e-01
-7.782284460954794e-20 -6.997764573468044e-17  4.289386061365896e-01
-9.581023325866873e-01  4.289386061365896e-01  5.356470209598213e-18

 7.644612224334830e-18  2.171079501573532e-20 -9.690874180846484e-01
 2.171079501573532e-20  8.484291893125031e-17  4.107750005243683e-01
-9.690874180846484e-01  4.107750005243683e-01  6.166354734307440e-18

 7.521777337853706e-18 -1.726445166646320e-20 -9.651981025768303e-01
-1.726445166646320e-20  4.942356789777172e-18  4.255959612260501e-01
-9.651981025768303e-01  4.255959612260501e-01  5.544315548524866e-18

 6.449428287711158e-18  2.935535674490084e-20 -9.262035879523560e-01
 2.935535674490084e-20 -1.115662876509454e-16  4.954068671512418e-01
-9.262035879523560e-01  4.954068671512418e-01  1.704292362577261e-18

 7.129961694961869e-18  7.273222664761062e-19 -9.678865526089108e-01
 7.273222664761062e-19  3.031022741089456e-17  3.649876218074548e-01
-9.678865526089108e-01  3.649876218074548e-01  3.064208714342976e-18

 1.099322007068560e-17  2.165263075127749e-18 -1.161808146440368e+00
 2.165263075127749e-18  1.361144690435888e-17  1.483663748110925e-01
-1.161808146440368e+00  1.483663748110925e-01  1.135305938910703e-17

 2.631147776077104e-17  2.881643085122826e-18 -1.810536267258598e+00
 2.881643085122826e-18  1.431371934113619e-17 -1.898641890476326e-01
-1.810536267258598e+00 -1.898641890476326e-01  4.986029650902632e-17

 9.575820401316525e-18 -9.606797304096431e-19 -1.065649421663581e+00
-9.606797304096431e-19  3.906144108087768e-17  5.212633109534159e-01
-1.065649421663581e+00  5.212633109534159e-01  9.811140181889575e-18

 1.195004783370505e-17 -1.925490309957612e-18 -1.168518035963863e+00
-1.925490309957612e-18  3.794320306072558e-17  6.294730696390473e-01
-1.168518035963863e+00  6.294730696390473e-01  1.665880344808175e-17

 1.351095532721305e-17  4.115185389800542e-19 -1.271871707031646e+00
 4.115185389800542e-19  2.010293549725563e-17  4.173253390020609e-01
-1.271871707031646e+00  4.173253390020609e-01  1.909339858379899e-17

 1.005675317656347e-17  6.274532204195239e-19 -1.115388925843463e+00
 6.274532204195239e-19 -8.893062293495203e-19  4.595799902449235e-01
-1.115388925843463e+00  4.595799902449235e-01  9.795936179853909e-18

 1.239309917449424e-17 -1.227854898799179e-18 -1.146815744423611e+00
-1.227854898799179e-18  6.700411799731929e-17  3.112966131664892e-01
-1.146815744423611e+00  3.112966131664892e-01  1.637803419453911e-17

 8.703423401550926e-18 -3.606261234183430e-19 -1.004656131707803e+00
-3.606261234183430e-19  5.016005711570622e-17  4.100227082258807e-01
-1.004656131707803e+00  4.100227082258807e-01  6.502493614772357e-18

 8.543246856264062e-18  4.603447607667230e-20 -9.943141220559853e-01
 4.603447607667230e-20  2.711568209799687e-17  4.457338768249421e-01
-9.943141220559853e-01  4.457338768249421e-01  6.172287581770184e-18

 8.002895617820039e-18 -1.936915912964950e-20 -9.537862690920480e-01
-1.936915912964950e-20  3.688874793335534e-17  4.239842642376873e-01
-9.537862690920480e-01  4.239842642376873e-01  4.933381878981923e-18

 8.488497551414160e-18 -6.346277563906726e-21 -9.677915653535277e-01
-6.346277563906726e-21  3.453268137374493e-17  4.034556603444336e-01
-9.677915653535277e-01  4.034556603444336e-01  6.385391578163055e-18

 8.087546178661183e-18 -3.670713900387474e-21 -9.502163671255438e-01
-3.670713900387474e-21  1.913807090970417e-17  4.366911236085997e-01
-9.502163671255438e-01  4.366911236085997e-01  4.939388068678023e-18

 8.448311330138531e-18 -1.018348130765088e-19 -9.619201346898401e-01
-1.018348130765088e-19 -4.344992623594906e-17  4.349675709415742e-01
-9.619201346898401e-01  4.349675709415742e-01  5.762155867837730e-18

 8.600977777208896e-18 -1.362227018196232e-19 -9.672321881000745e-01
-1.362227018196232e-19 -5.480910509661468e-17  4.266885220128092e-01
-9.672321881000745e-01  4.266885220128092e-01  6.195885226199889e-18

 8.949307580460688e-18 -2.263343992325744e-19 -9.788863090422208e-01
-2.263343992325744e-19 -9.431148279797467e-17  4.079801917691628e-01
-9.788863090422208e-01  4.079801917691628e-01  7.156500412855201e-18

 8.910800183390307e-18  6.100447576574852e-20 -9.756622216616878e-01
 6.100447576574852e-20  8.073424658519052e-17  4.190006556873094e-01
-9.756622216616878e-01  4.190006556873094e-01  6.856066338379146e-18

 8.958513474923712e-18 -6.197311587807541e-20 -9.769710752790874e-01
-6.197311587807541e-20  3.152781422941993e-18  4.265320695110058e-01
-9.769710752790874e-01  4.265320695110058e-01  6.849369412657083e-18

 8.893415369777520e-18 -1.198651290955089e-19 -9.709906906890816e-01
-1.198651290955089e-19 -2.020919307863848e-17  4.139537487432716e-01
-9.709906906890816e-01  4.139537487432716e-01  6.638939902033412e-18

 8.886207384411170e-18  3.081313422860621e-20 -9.679165964029494e-01
 3.081313422860621e-20  6.183028198224678e-17  4.119358994858987e-01
-9.679165964029494e-01  4.119358994858987e-01  6.400493017486107e-18

 9.413006461481369e-18 -1.138336852087980e-19 -9.912823407865640e-01
-1.138336852087980e-19 -1.054112670445740e-17  4.129916559732032e-01
-9.912823407865640e-01  4.129916559732032e-01  7.630009115595542e-18

 9.757031602799557e-18 -3.227982289530466e-20 -1.005498274419418e+00
-3.227982289530466e-20  4.797591737331311e-17  4.138961973512767e-01
-1.005498274419418e+00  4.138961973512767e-01  8.305135723039913e-18

 9.751988649268568e-18 -1.355623229971144e-19 -1.003003973308590e+00
-1.355623229971144e-19 -1.879898678213933e-17  4.101687101771260e-01
-1.003003973308590e+00  4.101687101771260e-01  8.143606594403754e-18

 9.639665556278158e-18 -1.517223207657041e-19 -9.958267655182641e-01
-1.517223207657041e-19 -2.519520944943507e-17  4.096641570982626e-01
-9.958267655182641e-01  4.096641570982626e-01  7.727115140921950e-18

 9.670627603641491e-18 -4.443088917191564e-20 -9.956023039232910e-01
-4.443088917191564e-20  3.921794913802431e-17  4.125897263158268e-01
-9.956023039232910e-01  4.125897263158268e-01  7.670870574962364e-18

 9.719995565242239e-18 -6.773185556428343e-20 -9.971591321884620e-01
-6.773185556428343e-20  2.961838771319425e-17  4.126443436512947e-01
-9.971591321884620e-01  4.126443436512947e-01  7.782092924740053e-18

 9.797945675217870e-18 -1.206565804733377e-19 -9.989019110323366e-01
-1.206565804733377e-19 -1.042482069113138e-17  4.138391245191286e-01
-9.989019110323366e-01  4.138391245191286e-01  7.851936083139111e-18

 9.818648549668670e-18 -4.113238630690329e-20 -9.996339426162092e-01
-4.113238630690329e-20  4.754634329230297e-17  4.141311797286272e-01
-9.996339426162092e-01  4.141311797286272e-01  7.899194738934900e-18

 9.897983374173520e-18 -1.001743911795144e-19 -1.001712192478106e+00
-1.001743911795144e-19  5.198779294967336e-18  4.129556535984712e-01
-1.001712192478106e+00  4.129556535984712e-01  8.026142542975060e-18

 9.893536346623491e-18 -5.072810056469653e-20 -1.000354154051771e+00
-5.072810056469653e-20  3.835639820977527e-17  4.145963043599133e-01
-1.000354154051771e+00  4.145963043599133e-01  7.958040204907599e-18

 9.904545352259595e-18 -6.043265704102468e-20 -9.992922807841748e-01
-6.043265704102468e-20  3.370390443730982e-17  4.126432620033086e-01
-9.992922807841748e-01  4.126432620033086e-01  7.922025985971851e-18

 9.891935527730605e-18 -8.571996046753403e-20 -9.973509575669900e-01
-8.571996046753403e-20  1.923147438371701e-17  4.117464722992417e-01
-9.973509575669900e-01  4.117464722992417e-01  7.858082490663261e-18

 9.786659050026136e-18 -3.821078579865314e-20 -9.926217008645714e-01
-3.821078579865314e-20  5.229967591157116e-17  4.154258110572100e-01
-9.926217008645714e-01  4.154258110572100e-01  7.499738085211533e-18

 9.868101332837845e-18 -9.277129872839923e-20 -9.948179243667371e-01
-9.277129872839923e-20  1.736297747692949e-17  4.139597931080803e-01
-9.948179243667371e-01  4.139597931080803e-01  7.635612997690829e-18

 9.919186008577444e-18 -1.099258252956273e-19 -9.965834627578205e-01
-1.099258252956273e-19  1.361643136123953e-17  4.191678230295325e-01
-9.965834627578205e-01  4.191678230295325e-01  7.635507096122668e-18

 1.010200284405132e-17  1.086909400835295e-20 -1.003723905934747e+00
 1.086909400835295e-20  7.221683375609142e-17  4.119723269441195e-01
-1.003723905934747e+00  4.119723269441195e-01  8.108013039361367e-18

 9.976084198786222e-18 -3.476419496217369e-20 -9.980995418775376e-01
-3.476419496217369e-20  5.581966338036423e-17  4.192400164749291e-01
-9.980995418775376e-01  4.192400164749291e-01  7.591057848493797e-18

 1.025640781333276e-17 -5.683505712746149e-20 -1.009680407085536e+00
-5.683505712746149e-20  3.016715146884003e-17  4.058607451378616e-01
-1.009680407085536e+00  4.058607451378616e-01  8.430280850768800e-18

 1.046481096073785e-17 -7.994565163923902e-20 -1.018091712737012e+00
-7.994565163923902e-20  3.048901739333065e-17  4.070856367600442e-01
-1.018091712737012e+00  4.070856367600442e-01  8.908283822286702e-18

 1.010726829629809e-17 -1.985091071765727e-19 -1.003695088514840e+00
-1.985091071765727e-19 -4.464538501300180e-17  4.359730954814675e-01
-1.003695088514840e+00  4.359730954814675e-01  7.664222758434102e-18

 1.045405239022727e-17 -1.272754792337750e-19 -1.016035967430872e+00
-1.272754792337750e-19 -1.016848039537437e-17  4.079205420188528e-01
-1.016035967430872e+00  4.079205420188528e-01  8.780385418033400e-18

 1.034828604754319e-17 -2.433696630528287e-19 -1.010784922648152e+00
-2.433696630528287e-19 -7.374821177695135e-17  4.015606114095056e-01
-1.010784922648152e+00  4.015606114095056e-01  8.497873937432664e-18

 1.014565115086700e-17  1.300256026895066e-20 -1.001572118956819e+00
 1.300256026895066e-20  9.121293652045844e-17  4.214293319130502e-01
-1.001572118956819e+00  4.214293319130502e-01  7.734388371191072e-18

 1.032519117395267e-17 -5.768993207032816e-20 -1.008778916065225e+00
-5.768993207032816e-20  4.488297900859026e-17  4.189549390008058e-01
-1.008778916065225e+00  4.189549390008058e-01  8.218433335373030e-18

 1.035745110321614e-17 -1.477900565325079e-19 -1.007742015272334e+00
-1.477900565325079e-19 -1.568491190559334e-17  4.143568991426863e-01
-1.007742015272334e+00  4.143568991426863e-01  8.261053485558094e-18

 1.027778408372339e-17 -1.517467934890534e-19 -1.002879999701938e+00
-1.517467934890534e-19 -1.471740531090622e-17  4.144214022735700e-01
-1.002879999701938e+00  4.144214022735700e-01  8.039774937421717e-18

 1.021835578052849e-17 -1.282395035726058e-19 -9.989523219663496e-01
-1.282395035726058e-19  7.758689528751972e-18  4.182650176787410e-01
-9.989523219663496e-01  4.182650176787410e-01  7.799356152940091e-18

 1.022088208366360e-17 -1.253043076261971e-19 -9.977595696092862e-01
-1.253043076261971e-19 -1.150469637775362e-18  4.164629324659911e-01
-9.977595696092862e-01  4.164629324659911e-01  7.797623831110302e-18

 1.011252150250593e-17 -7.782730789957764e-20 -9.917771091047806e-01
-7.782730789957764e-20  4.520100815112036e-17  4.172740018873320e-01
-9.917771091047806e-01  4.172740018873320e-01  7.468352607079169e-18

 1.016889558841392e-17 -1.700282026930250e-19 -9.938556617988977e-01
-1.700282026930250e-19 -2.832622815071435e-17  4.117091384005158e-01
-9.938556617988977e-01  4.117091384005158e-01  7.640511572517906e-18

 1.039678895492674e-17 -2.307265853107307e-20 -1.002178776894932e+00
-2.307265853107307e-20  6.058801964641707e-17  4.070465909716440e-01
-1.002178776894932e+00  4.070465909716440e-01  8.199827435589271e-18

 1.023072586558230e-17 -7.451518956691575e-20 -9.957621535945879e-01
-7.451518956691575e-20  4.305233892140517e-17  4.255746737863500e-01
-9.957621535945879e-01  4.255746737863500e-01  7.616352537949992e-18

 1.031043497183249e-17 -9.197225835450871e-20 -9.979312617266276e-01
-9.197225835450871e-20  2.601978358434842e-17  4.239323851632553e-01
-9.979312617266276e-01  4.239323851632553e-01  7.734995673768226e-18

 1.036287336863567e-17 -1.124631182270750e-19 -9.995436532334834e-01
-1.124631182270750e-19  2.739896728276964e-17  4.122805821267547e-01
-9.995436532334834e-01  4.122805821267547e-01  7.996707614882367e-18

 1.031966782315109e-17 -1.217415768635118e-19 -9.967292159874160e-01
-1.217415768635118e-19  1.511101761273643e-17  4.129053351282979e-01
-9.967292159874160e-01  4.129053351282979e-01  7.838041120658447e-18

 1.026862896299020e-17 -1.378001874490273e-19 -9.948668251697332e-01
-1.378001874490273e-19  1.413472348062106e-17  4.158703572869019e-01
-9.948668251697332e-01  4.158703572869019e-01  7.655780301350438e-18

 1.031864915890005e-17 -1.515233544597837e-19 -9.966571632421358e-01
-1.515233544597837e-19 -7.288380556221772e-18  4.179604433797464e-01
-9.966571632421358e-01  4.179604433797464e-01  7.708356509446677e-18

 1.034696871296994e-17 -1.696485283579771e-19 -9.971486623017984e-01
-1.696485283579771e-19 -1.331028332546986e-17  4.186058243872918e-01
-9.971486623017984e-01  4.186058243872918e-01  7.752389732320903e-18

 1.043466667433397e-17 -8.280476466947224e-20 -1.001047484123435e+00
-8.280476466947224e-20  3.925618480604575e-17  4.180323975117584e-01
-1.001047484123435e+00  4.180323975117584e-01  7.963980973218551e-18

 1.047126801514255e-17 -1.432716029306951e-19 -1.001640270667774e+00
-1.432716029306951e-19 -4.666307239662656e-18  4.177912807914250e-01
-1.001640270667774e+00  4.177912807914250e-01  7.941027113328573e-18

 1.044967209987946e-17 -1.375646534395124e-19 -1.001028952169690e+00
-1.375646534395124e-19  7.212377375874191e-18  4.156164329972422e-01
-1.001028952169690e+00  4.156164329972422e-01  7.929478622542987e-18

 1.055703238431813e-17 -1.202967737927766e-19 -1.005100471025177e+00
-1.202967737927766e-19  1.849376548939458e-17  4.145747457075531e-01
-1.005100471025177e+00  4.145747457075531e-01  8.147001390895420e-18

 1.052935497006013e-17 -1.228459350327096e-19 -1.004001527986546e+00
-1.228459350327096e-19  1.397625460276705e-17  4.194645115989461e-01
-1.004001527986546e+00  4.194645115989461e-01  8.032401591807511e-18

 1.053252305794036e-17 -1.857392921185110e-19 -1.003705159580306e+00
-1.857392921185110e-19 -5.168320172622883e-18  4.199012647910915e-01
-1.003705159580306e+00  4.199012647910915e-01  8.000673458024291e-18

 1.055469873923172e-17 -1.823965732046647e-19 -1.003148189944758e+00
-1.823965732046647e-19 -2.724440063516082e-17  4.148747760348875e-01
-1.003148189944758e+00  4.148747760348875e-01  8.051439078237902e-18

 1.052583763187671e-17 -1.911847214034406e-19 -1.001454756424450e+00
-1.911847214034406e-19 -2.508684211683451e-17  4.181096512559134e-01
-1.001454756424450e+00  4.181096512559134e-01  7.942224725938407e-18

 1.073852550154593e-17 -1.603473207681858e-19 -1.008574319451952e+00
-1.603473207681858e-19 -9.258244793355074e-18  4.116434448600690e-01
-1.008574319451952e+00  4.116434448600690e-01  8.444844550538692e-18

 1.067320211843163e-17 -1.612047977886517e-19 -1.005863162715587e+00
-1.612047977886517e-19  3.505322092532996e-19  4.196783987825860e-01
-1.005863162715587e+00  4.196783987825860e-01  8.284416534650890e-18

 1.057106396224611e-17 -9.022576782039106e-20 -9.989152187413709e-01
-9.022576782039106e-20  4.310040810603251e-17  4.142179035326473e-01
-9.989152187413709e-01  4.142179035326473e-01  8.034953698947796e-18

 1.035784195620448e-17 -1.300750848500820e-19 -9.880009976547561e-01
-1.300750848500820e-19  3.086606093852876e-18  4.222736285001386e-01
-9.880009976547561e-01  4.222736285001386e-01  7.375923521435683e-18

 1.080516439277574e-17 -1.192787191214134e-19 -1.004577841226291e+00
-1.192787191214134e-19  2.995307185796184e-18  4.091183642316227e-01
-1.004577841226291e+00  4.091183642316227e-01  8.636474325091721e-18

 1.041366791854541e-17 -1.123796139166663e-19 -9.887578931109129e-01
-1.123796139166663e-19  2.682389502185049e-17  4.235125415409426e-01
-9.887578931109129e-01  4.235125415409426e-01  7.465939943227470e-18

 1.039617593252943e-17 -1.252950505668974e-19 -9.861882910685184e-01
-1.252950505668974e-19 -2.049377136589211e-19  4.185438175491037e-01
-9.861882910685184e-01  4.185438175491037e-01  7.338353087369340e-18

 1.064440455851096e-17 -1.158122399486908e-19 -9.968666453754279e-01
-1.158122399486908e-19  2.000313018746282e-17  4.054208767969452e-01
-9.968666453754279e-01  4.054208767969452e-01  8.163411988389958e-18

 1.081981139390379e-17 -8.031170096760736e-20 -1.003497468410497e+00
-8.031170096760736e-20  2.201909400407039e-17  4.157369606661075e-01
-1.003497468410497e+00  4.157369606661075e-01  8.424212118342732e-18

 1.063047585619307e-17 -7.876077949953780e-20 -9.969108106706066e-01
-7.876077949953780e-20  3.321127225700229e-17  4.230357443196733e-01
-9.969108106706066e-01  4.230357443196733e-01  7.860967419429642e-18

 1.061494060620741e-17 -9.910326068683732e-20 -9.963859415711809e-01
-9.910326068683732e-20  1.786270748431906e-17  4.125791352060977e-01
-9.963859415711809e-01  4.125791352060977e-01  7.869147726372622e-18

 1.075838175035080e-17 -7.831507345018169e-20 -1.002613384251365e+00
-7.831507345018169e-20  1.200599139174190e-17  4.067245145356898e-01
-1.002613384251365e+00  4.067245145356898e-01  8.269580096417478e-18

 1.081730407844771e-17 -9.139476250643502e-20 -1.005364837863993e+00
-9.139476250643502e-20 -3.964729211354667e-18  4.216995549713403e-01
-1.005364837863993e+00  4.216995549713403e-01  8.213437839293989e-18

 1.087769704176590e-17 -7.159185182959415e-20 -1.008486216621354e+00
-7.159185182959415e-20  1.394078913354051e-17  4.174758073459318e-01
-1.008486216621354e+00  4.174758073459318e-01  8.405477282475879e-18

 1.082098859540424e-17 -1.148672022862355e-19 -1.006030866770359e+00
-1.148672022862355e-19 -1.760721439600567e-17  4.095361094836636e-01
-1.006030866770359e+00  4.095361094836636e-01  8.295705620549396e-18

 1.091744313754534e-17 -7.193951817699371e-20 -1.009881402687952e+00
-7.193951817699371e-20  2.954120233252636e-17  4.067844418284605e-01
-1.009881402687952e+00  4.067844418284605e-01  8.554357683227755e-18

 1.089281156387446e-17 -1.014699693076681e-19 -1.008757500716619e+00
-1.014699693076681e-19  2.331963839119617e-17  4.161328020601757e-01
-1.008757500716619e+00  4.161328020601757e-01  8.368101047244584e-18

 1.085059973285126e-17 -8.523631928915037e-20 -1.006793359660110e+00
-8.523631928915037e-20  1.193479009631978e-17  4.144566899523132e-01
-1.006793359660110e+00  4.144566899523132e-01  8.216420183313252e-18

 1.091887355632196e-17 -9.769736146421075e-20 -1.009403285032614e+00
-9.769736146421075e-20  1.538055872397240e-17  4.166339102409265e-01
-1.009403285032614e+00  4.166339102409265e-01  8.338264300046064e-18

 1.089290048162581e-17 -8.381691104252881e-20 -1.007827533168965e+00
-8.381691104252881e-20  3.085378417279711e-17  4.160643478065419e-01
-1.007827533168965e+00  4.160643478065419e-01  8.227633898704418e-18

 1.091454743698345e-17 -8.139630496322802e-20 -1.008766731126698e+00
-8.139630496322802e-20  2.073066805779922e-17  4.184800140805872e-01
-1.008766731126698e+00  4.184800140805872e-01  8.222655814354229e-18

 1.093549031839855e-17 -1.013850294813393e-19 -1.009262238449785e+00
-1.013850294813393e-19  1.640239522345954e-17  4.159895091701663e-01
-1.009262238449785e+00  4.159895091701663e-01  8.292409349723877e-18

 1.093532631396096e-17 -1.057687078258979e-19 -1.008843255001088e+00
-1.057687078258979e-19 -1.704423284192437e-18  4.180333946845521e-01
-1.008843255001088e+00  4.180333946845521e-01  8.252139119307664e-18

 1.091798865630535e-17 -9.037053139372968e-20 -1.007690883799528e+00
-9.037053139372968e-20  7.165995549313450e-18  4.172612418798290e-01
-1.007690883799528e+00  4.172612418798290e-01  8.188137931290325e-18

 1.086855874946042e-17 -1.178575472622566e-19 -1.005305025917226e+00
-1.178575472622566e-19  3.339099886529758e-17  4.196034397427630e-01
-1.005305025917226e+00  4.196034397427630e-01  8.016927485135827e-18

 1.091577702483925e-17 -9.744129448724604e-20 -1.006628504490270e+00
-9.744129448724604e-20  2.765619302974931e-17  4.192250428250651e-01
-1.006628504490270e+00  4.192250428250651e-01  8.073141867995602e-18

 1.089052677702402e-17 -9.596936411937412e-20 -1.005828594294044e+00
-9.596936411937412e-20  1.852567576967356e-17  4.181745974406351e-01
-1.005828594294044e+00  4.181745974406351e-01  8.050252975211873e-18

 1.095425276714504e-17 -1.155873826432798e-19 -1.008016640737732e+00
-1.155873826432798e-19  2.746818553654338e-17  4.170827407868902e-01
-1.008016640737732e+00  4.170827407868902e-01  8.202446795871029e-18

 1.100445520220454e-17 -1.212419480917490e-19 -1.010681624863981e+00
-1.212419480917490e-19  2.833744108678005e-17  4.170250554073306e-01
-1.010681624863981e+00  4.170250554073306e-01  8.332143789296441e-18

 1.102433561197787e-17 -1.192594242155660e-19 -1.011104047275362e+00
-1.192594242155660e-19  1.618207626136330e-17  4.191187178725681e-01
-1.011104047275362e+00  4.191187178725681e-01  8.337900407126823e-18

 1.096196202762232e-17 -1.176504886564363e-19 -1.007193620236197e+00
-1.176504886564363e-19  5.199284202897955e-17  4.196676442779368e-01
-1.007193620236197e+00  4.196676442779368e-01  8.140657858309831e-18

 1.081715288296070e-17 -1.185812972139825e-19 -1.000426596544308e+00
-1.185812972139825e-19  2.318250596643722e-17  4.227572250684506e-01
-1.000426596544308e+00  4.227572250684506e-01  7.767155676612162e-18

 1.088859186293843e-17 -1.203444101695192e-19 -1.003011884050672e+00
-1.203444101695192e-19  2.597271795463081e-17  4.087897799558204e-01
-1.003011884050672e+00  4.087897799558204e-01  8.052354387341189e-18

 1.082114409535040e-17 -1.339149502360870e-19 -1.000697541478556e+00
-1.339149502360870e-19 -4.978282453153410e-18  4.291056877050793e-01
-1.000697541478556e+00  4.291056877050793e-01  7.697758635840498e-18

 1.083145250189532e-17 -1.431102455866693e-19 -1.001232964617967e+00
-1.431102455866693e-19 -2.121282836303836e-17  4.330774982996269e-01
-1.001232964617967e+00  4.330774982996269e-01  7.692627421719747e-18

 1.085420450241924e-17 -1.478131795513826e-19 -1.001469237639888e+00
-1.478131795513826e-19  6.875596754797736e-18  4.153298735227922e-01
-1.001469237639888e+00  4.153298735227922e-01  7.892648998509610e-18

 1.079249409068202e-17 -1.673899814168354e-19 -9.986988970413400e-01
-1.673899814168354e-19 -2.756596961916622e-17  4.220211151339618e-01
-9.986988970413400e-01  4.220211151339618e-01  7.685270906966388e-18

 1.100560300355613e-17 -1.878004369517908e-19 -1.006512904948922e+00
-1.878004369517908e-19  8.210482605565546e-18  4.241399599018164e-01
-1.006512904948922e+00  4.241399599018164e-01  8.272558163771281e-18

 1.090270670010039e-17 -1.934805718132530e-19 -9.999509581065171e-01
-1.934805718132530e-19  1.371173334161452e-17  4.260895507802843e-01
-9.999509581065171e-01  4.260895507802843e-01  8.036818020860144e-18

 1.086556166090965e-17 -1.799980910865937e-19 -9.955465347488173e-01
-1.799980910865937e-19  3.168604577697668e-18  4.141144830002106e-01
-9.955465347488173e-01  4.141144830002106e-01  8.067358355477858e-18

 1.056509575280682e-17 -1.356246807474115e-19 -9.799936449890829e-01
-1.356246807474115e-19  5.560015092997426e-17  4.139280411349165e-01
-9.799936449890829e-01  4.139280411349165e-01  7.288635716475549e-18

 1.119488693021156e-17 -1.135639008025700e-19 -1.003955534604834e+00
-1.135639008025700e-19  4.209033053528392e-17  4.112494065680474e-01
-1.003955534604834e+00  4.112494065680474e-01  8.925187614347226e-18

 1.123472351425811e-17 -1.243169083743315e-19 -1.005454654908222e+00
-1.243169083743315e-19 -9.717281843025086e-18  4.095770331301821e-01
-1.005454654908222e+00  4.095770331301821e-01  8.951329234938200e-18

 1.078744365784552e-17 -7.824547279966743e-20 -9.861999100429309e-01
-7.824547279966743e-20  2.203140306890439e-17  4.014383257883833e-01
-9.861999100429309e-01  4.014383257883833e-01  7.756271823766951e-18

 1.096882155734847e-17 -3.898287126537663e-20 -9.962732707559929e-01
-3.898287126537663e-20  4.291992713908370e-17  4.098589025648156e-01
-9.962732707559929e-01  4.098589025648156e-01  8.129898944775500e-18

 1.097824609336575e-17 -3.385139035963754e-20 -9.979154045755267e-01
-3.385139035963754e-20  2.754678231425704e-17  4.140672912980464e-01
-9.979154045755267e-01  4.140672912980464e-01  8.066284051940577e-18

 1.109760675833462e-17 -4.931437741316586e-20 -1.003941917483667e+00
-4.931437741316586e-20  1.119556097024099e-17  4.103801546084434e-01
-1.003941917483667e+00  4.103801546084434e-01  8.405384144075326e-18

 1.120481798759963e-17 -4.175148726467872e-20 -1.008513428306531e+00
-4.175148726467872e-20  4.933003192392600e-17  4.081355993015870e-01
-1.008513428306531e+00  4.081355993015870e-01  8.628156908229988e-18

 1.115600685379940e-17 -1.745703570090563e-19 -1.007689551107005e+00
-1.745703570090563e-19 -8.505430187307077e-17  4.121778118061578e-01
-1.007689551107005e+00  4.121778118061578e-01  8.513418657112745e-18

 1.113493223206844e-17 -7.797029941356461e-20 -1.007114106630964e+00
-7.797029941356461e-20  7.115269689723015e-18  4.126504504137010e-01
-1.007114106630964e+00  4.126504504137010e-01  8.441797915737313e-18

 1.109822573967988e-17 -1.782452663967125e-20 -1.005616573393731e+00
-1.782452663967125e-20  4.873054798322692e-17  4.104637189846245e-01
-1.005616573393731e+00  4.104637189846245e-01  8.359114851161563e-18

 1.108056360459672e-17 -6.699049176703053e-20 -1.004538003546796e+00
-6.699049176703053e-20  5.709360344266813e-18  4.126427042756239e-01
-1.004538003546796e+00  4.126427042756239e-01  8.275696684521412e-18

 1.114169258794135e-17 -1.033685089198702e-19 -1.007600665546541e+00
-1.033685089198702e-19 -1.111412292132235e-17  4.124831257886472e-01
-1.007600665546541e+00  4.124831257886472e-01  8.422931635241852e-18

 1.114324910830045e-17 -1.491306143980523e-19 -1.008540332248628e+00
-1.491306143980523e-19 -5.851598584839372e-17  4.161223790845526e-01
-1.008540332248628e+00  4.161223790845526e-01  8.376821591728690e-18

 1.117358267502994e-17  6.600093545567728e-21 -1.009038390692762e+00
 6.600093545567728e-21  6.612924711298081e-17  4.160538920971396e-01
-1.009038390692762e+00  4.160538920971396e-01  8.378334983232353e-18

 1.121969350210443e-17  1.410615351680222e-20 -1.021656221587474e+00
 1.410615351680222e-20  1.423647414491579e-17  4.310501054233601e-01
-1.021656221587474e+00  4.310501054233601e-01  8.560018548820340e-18

 1.122103464992908e-17  2.161306705859641e-20 -1.021629275066152e+00
 2.161306705859641e-20  1.277308445561886e-17  4.294655824650020e-01
-1.021629275066152e+00  4.294655824650020e-01  8.605826298784839e-18

 1.121444927513500e-17  1.778421170834170e-20 -1.021775106683942e+00
 1.778421170834170e-20  1.316724074177452e-17  4.309180312086548e-01
-1.021775106683942e+00  4.309180312086548e-01  8.578948904178439e-18

 1.124153098183662e-17  5.456683539540242e-21 -1.022354743576373e+00
 5.456683539540242e-21  1.444271805759803e-17  4.320941958216847e-01
-1.022354743576373e+00  4.320941958216847e-01  8.557338857891633e-18

 1.121127086851829e-17  8.863416003447258e-21 -1.021832011763222e+00
 8.863416003447258e-21  1.506210899137402e-17  4.314487209349528e-01
-1.021832011763222e+00  4.314487209349528e-01  8.564738776864374e-18

 1.119103617959925e-17  5.568223093912220e-21 -1.021144354842002e+00
 5.568223093912220e-21  1.356849033499912e-17  4.326102038982919e-01
-1.021144354842002e+00  4.326102038982919e-01  8.501686322364480e-18

 1.121195500684443e-17  6.419416425339011e-21 -1.021937135760475e+00
 6.419416425339011e-21  1.249777314189646e-17  4.324490869610995e-01
-1.021937135760475e+00  4.324490869610995e-01  8.508343220610220e-18

 1.117742107621628e-17  4.790807147375089e-21 -1.021100656641496e+00
 4.790807147375089e-21  1.283921742904794e-17  4.318453360831852e-01
-1.021100656641496e+00  4.318453360831852e-01  8.484084419223525e-18

 1.115951292640323e-17  2.956572685375986e-21 -1.020526647580214e+00
 2.956572685375986e-21  1.494182092012606e-17  4.331213417592919e-01
-1.020526647580214e+00  4.331213417592919e-01  8.425286780304438e-18

 1.115786572298570e-17  8.178331309200491e-22 -1.020245155598405e+00
 8.178331309200491e-22  1.251162787207383e-17  4.329068259311685e-01
-1.020245155598405e+00  4.329068259311685e-01  8.427681141850110e-18

 1.114230143091735e-17  4.409210027115479e-21 -1.019616848339377e+00
 4.409210027115479e-21  1.302791960674632e-17  4.332169651638438e-01
-1.019616848339377e+00  4.332169651638438e-01  8.391010021857253e-18

 1.112920043989353e-17  4.622743980499900e-21 -1.018893029587865e+00
 4.622743980499900e-21  1.303372242969474e-17  4.325723151865553e-01
-1.018893029587865e+00  4.325723151865553e-01  8.361341237610083e-18

 1.110544041120421e-17  6.865593273420037e-21 -1.018101091966601e+00
 6.865593273420037e-21  1.361689035933527e-17  4.339536255360713e-01
-1.018101091966601e+00  4.339536255360713e-01  8.309255868552293e-18

 1.106630542501970e-17  1.168701060349715e-20 -1.015970339222652e+00
 1.168701060349715e-20  1.346518856545390e-17  4.330699452710092e-01
-1.015970339222652e+00  4.330699452710092e-01  8.227590581779802e-18

 1.097217409520168e-17  1.115771283895371e-20 -1.011597080189806e+00
 1.115771283895371e-20  1.346220641956124e-17  4.351733499860382e-01
-1.011597080189806e+00  4.351733499860382e-01  7.974219499508668e-18

 1.094194446490181e-17  2.204551313953983e-20 -1.009777217930333e+00
 2.204551313953983e-20  1.418752760020480e-17  4.312114622726814e-01
-1.009777217930333e+00  4.312114622726814e-01  7.943802365992658e-18

 1.109757248508846e-17  2.618570306530904e-20 -1.015323746802461e+00
 2.618570306530904e-20  1.432428245788108e-17  4.225545283741044e-01
-1.015323746802461e+00  4.225545283741044e-01  8.439977775246567e-18

 1.088306027007974e-17  2.202964536974756e-20 -1.006990404754288e+00
 2.202964536974756e-20  1.309898198064050e-17  4.326639002117530e-01
-1.006990404754288e+00  4.326639002117530e-01  7.777118359409902e-18

 1.095792814814607e-17  2.304835044868143e-20 -1.010302018032454e+00
 2.304835044868143e-20  1.233260562970410e-17  4.334381281022978e-01
-1.010302018032454e+00  4.334381281022978e-01  7.968908551146409e-18

 1.101506445579514e-17  2.893943828769819e-20 -1.012647809372479e+00
 2.893943828769819e-20  1.302827870545982e-17  4.316394753278316e-01
-1.012647809372479e+00  4.316394753278316e-01  8.140306641627011e-18

 1.105510850540252e-17  3.112934716819635e-20 -1.014463873485017e+00
 3.112934716819635e-20  1.269545381590465e-17  4.295314582358416e-01
-1.014463873485017e+00  4.295314582358416e-01  8.247513824009062e-18

 1.111633545613811e-17  3.227679088013664e-20 -1.017788275938956e+00
 3.227679088013664e-20  1.284059336891038e-17  4.279071222299655e-01
-1.017788275938956e+00  4.279071222299655e-01  8.415536565258814e-18

 1.116492670771893e-17  3.232993571308826e-20 -1.019993234354359e+00
 3.232993571308826e-20  1.349029122628945e-17  4.286881600558770e-01
-1.019993234354359e+00  4.286881600558770e-01  8.560109234320102e-18

 1.116824160178778e-17  3.053230813181322e-20 -1.020210162686928e+00
 3.053230813181322e-20  1.205619772254778e-17  4.304192227800057e-01
-1.020210162686928e+00  4.304192227800057e-01  8.580225149200126e-18

 1.119095904502339e-17  3.256732435648440e-20 -1.020201635437951e+00
 3.256732435648440e-20  1.345795475773678e-17  4.261078852590710e-01
-1.020201635437951e+00  4.261078852590710e-01  8.707549420373567e-18

 1.087189193226163e-17  2.450040849632560e-20 -1.006801558345513e+00
 2.450040849632560e-20  1.306451035741666e-17  4.394659146464607e-01
-1.006801558345513e+00  4.394659146464607e-01  7.792279400811007e-18

 1.108592139330912e-17  4.017606826923901e-20 -1.013820903622777e+00
 4.017606826923901e-20  1.522592384522060e-17  4.000382795275639e-01
-1.013820903622777e+00  4.000382795275639e-01  8.722401418853764e-18

 1.103631791877038e-17  4.821115948910436e-20 -1.011868623659947e+00
 4.821115948910436e-20  1.365106846347804e-17  4.125459264429837e-01
-1.011868623659947e+00  4.125459264429837e-01  8.519663762748470e-18

 1.078412735561565e-17  4.600053239415458e-20 -1.002958444358677e+00
 4.600053239415458e-20  1.251925115769395e-17  4.365359980932800e-01
-1.002958444358677e+00  4.365359980932800e-01  7.617493835109027e-18

 1.088679319789793e-17  2.977947135577121e-20 -1.007320996200398e+00
 2.977947135577121e-20  1.221119594653233e-17  4.396902452181768e-01
-1.007320996200398e+00  4.396902452181768e-01  7.757483175460394e-18

 1.079541246014360e-17  4.596609656106369e-20 -1.005487928531478e+00
 4.596609656106369e-20  1.232651006911868e-17  4.473992772969605e-01
-1.005487928531478e+00  4.473992772969605e-01  7.534524079356315e-18

 1.109178511919165e-17  4.506298134658616e-20 -1.017342393138276e+00
 4.506298134658616e-20  1.283821307780880e-17  4.254398828050285e-01
-1.017342393138276e+00  4.254398828050285e-01  8.536726445777131e-18

 1.095638360837862e-17  4.317702112513841e-20 -1.011815080176406e+00
 4.317702112513841e-20  1.446644829428565e-17  4.264040325381437e-01
-1.011815080176406e+00  4.264040325381437e-01  8.191501887135065e-18

 1.089153531695127e-17  4.235958524957637e-20 -1.009253872529301e+00
 4.235958524957637e-20  1.398072393735701e-17  4.257730538308861e-01
-1.009253872529301e+00  4.257730538308861e-01  8.043682685877896e-18

 1.092072550654815e-17  4.146218738847469e-20 -1.011021039782363e+00
 4.146218738847469e-20  1.386639989635582e-17  4.321125888648790e-01
-1.011021039782363e+00  4.321125888648790e-01  8.073835768364383e-18

 1.090955935864606e-17  4.422285817155426e-20 -1.010312303769472e+00
 4.422285817155426e-20  1.314393710408959e-17  4.272325558157051e-01
-1.010312303769472e+00  4.272325558157051e-01  8.092642137481783e-18

 1.085924627038595e-17  4.485578229346595e-20 -1.008356175822283e+00
 4.485578229346595e-20  1.363413073367725e-17  4.278644173575392e-01
-1.008356175822283e+00  4.278644173575392e-01  7.945587650543167e-18

 1.100740361897049e-17  4.746655048173196e-20 -1.015383276328423e+00
 4.746655048173196e-20  1.320650948412566e-17  4.258776383544802e-01
-1.015383276328423e+00  4.258776383544802e-01  8.385551741288467e-18

 1.087545878905951e-17  4.999572289363764e-20 -1.010596920773415e+00
 4.999572289363764e-20  1.334215500831367e-17  4.326197678177741e-01
-1.010596920773415e+00  4.326197678177741e-01  7.977624857277279e-18

 1.100672345267133e-17  4.998449316762397e-20 -1.016332282270807e+00
 4.998449316762397e-20  1.376463618789381e-17  4.247129321604141e-01
-1.016332282270807e+00  4.247129321604141e-01  8.406882078701399e-18

 1.094590288058122e-17  5.228285917501061e-20 -1.014278459471131e+00
 5.228285917501061e-20  1.310522264817037e-17  4.298230439300103e-01
-1.014278459471131e+00  4.298230439300103e-01  8.221149905949912e-18

 1.096651623263249e-17  5.183597004185990e-20 -1.015382568512368e+00
 5.183597004185990e-20  1.317163231417361e-17  4.273461751012104e-01
-1.015382568512368e+00  4.273461751012104e-01  8.289542868748698e-18

 1.097940440065484e-17  5.428644649899836e-20 -1.017231423558416e+00
 5.428644649899836e-20  1.361127620850198e-17  4.283707625563464e-01
-1.017231423558416e+00  4.283707625563464e-01  8.355779020241611e-18

 1.099695012102018e-17  5.475483292028713e-20 -1.019171899857945e+00
 5.475483292028713e-20  1.229867544095518e-17  4.265705200047651e-01
-1.019171899857945e+00  4.265705200047651e-01  8.444695235187348e-18

 1.096127493151465e-17  5.381392788410687e-20 -1.018451855228310e+00
 5.381392788410687e-20  1.260960202224418e-17  4.287106965715103e-01
-1.018451855228310e+00  4.287106965715103e-01  8.340815618818447e-18

 1.101877485553044e-17  5.271548250334060e-20 -1.021418351985103e+00
 5.271548250334060e-20  1.292342267310708e-17  4.265440694167917e-01
-1.021418351985103e+00  4.265440694167917e-01  8.528737208222505e-18

 1.111539953857765e-17  5.154911965195738e-20 -1.025244525260846e+00
 5.154911965195738e-20  1.496461347638409e-17  4.254740783110755e-01
-1.025244525260846e+00  4.254740783110755e-01  8.728769877062356e-18

 1.100034570714812e-17  5.225409494179601e-20 -1.021136513887358e+00
 5.225409494179601e-20  1.306999098964750e-17  4.299446123595136e-01
-1.021136513887358e+00  4.299446123595136e-01  8.458070095425766e-18

 1.096859680057326e-17  5.481952618773764e-20 -1.020286589485261e+00
 5.481952618773764e-20  1.225826825810987e-17  4.344814576860314e-01
-1.020286589485261e+00  4.344814576860314e-01  8.296649409061473e-18

 1.105675771003054e-17  5.099060285553599e-20 -1.024294042677993e+00
 5.099060285553599e-20  1.334143595576887e-17  4.306993075058189e-01
-1.024294042677993e+00  4.306993075058189e-01  8.577848280815299e-18

 1.109825243744115e-17  4.984698223999827e-20 -1.026820727941606e+00
 4.984698223999827e-20  1.357437203081074e-17  4.267917369121548e-01
-1.026820727941606e+00  4.267917369121548e-01  8.790294242353320e-18

 1.099460357212125e-17  4.706648204387015e-20 -1.022924980823502e+00
 4.706648204387015e-20  1.344880904151109e-17  4.308568026686866e-01
-1.022924980823502e+00  4.308568026686866e-01  8.477441488716392e-18

 1.100149016173873e-17  4.672424875871152e-20 -1.023382612182952e+00
 4.672424875871152e-20  1.265686437240366e-17  4.271718490085114e-01
-1.023382612182952e+00  4.271718490085114e-01  8.584060180757318e-18

 1.096786294935729e-17  4.311719476556817e-20 -1.022549356025847e+00
 4.311719476556817e-20  1.254664285525398e-17  4.293409483657972e-01
-1.022549356025847e+00  4.293409483657972e-01  8.494039821530118e-18

 1.096416123315233e-17  4.000965315624861e-20 -1.023816402387623e+00
 4.000965315624861e-20  1.294400763626775e-17  4.287243520021027e-01
-1.023816402387623e+00  4.287243520021027e-01  8.536368335540027e-18

 1.097654802139397e-17  3.541468227539808e-20 -1.025912122412591e+00
 3.541468227539808e-20  1.386401465206295e-17  4.315830044615215e-01
-1.025912122412591e+00  4.315830044615215e-01  8.557458679071649e-18

 1.106193720789664e-17  3.378716030276919e-20 -1.030156063646971e+00
 3.378716030276919e-20  1.393763000135900e-17  4.270184856419625e-01
-1.030156063646971e+00  4.270184856419625e-01  8.860293956885250e-18

 1.107776552171393e-17  3.186804916900482e-20 -1.031317507536376e+00
 3.186804916900482e-20  1.378712934547763e-17  4.318409202093560e-01
-1.031317507536376e+00  4.318409202093560e-01  8.817693647896220e-18

 1.088368476522584e-17  2.818108806107955e-20 -1.024498416551738e+00
 2.818108806107955e-20  1.131006736358453e-17  4.411182421887122e-01
-1.024498416551738e+00  4.411182421887122e-01  8.277485171876021e-18

 1.096347800069905e-17  2.950748840999516e-20 -1.027328215477243e+00
 2.950748840999516e-20  1.285009707516445e-17  4.341856606197547e-01
-1.027328215477243e+00  4.341856606197547e-01  8.582323362452305e-18

 1.117815254719294e-17  3.425938387408081e-20 -1.036564397298951e+00
 3.425938387408081e-20  1.297254505176295e-17  4.233829411606554e-01
-1.036564397298951e+00  4.233829411606554e-01  9.257633837864415e-18

 1.103367060728966e-17  2.967753588807914e-20 -1.030335250880244e+00
 2.967753588807914e-20  1.439272188849952e-17  4.261660929788734e-01
-1.030335250880244e+00  4.261660929788734e-01  8.877772604689910e-18

 1.085366330885001e-17  3.026507585908098e-20 -1.023591831905251e+00
 3.026507585908098e-20  1.401085426112392e-17  4.346842786297287e-01
-1.023591831905251e+00  4.346842786297287e-01  8.316223620232283e-18

 1.091217590153962e-17  2.631433926183499e-20 -1.026152216247262e+00
 2.631433926183499e-20  1.488929699800502e-17  4.300254651304857e-01
-1.026152216247262e+00  4.300254651304857e-01  8.595390689707126e-18

 1.086372753663842e-17  2.772647713640607e-20 -1.024136331738619e+00
 2.772647713640607e-20  1.314417895501980e-17  4.316575119699812e-01
-1.024136331738619e+00  4.316575119699812e-01  8.476831456442027e-18

 1.083786294897633e-17  2.472926737559706e-20 -1.023588644958794e+00
 2.472926737559706e-20  1.232162926615170e-17  4.320166242713083e-01
-1.023588644958794e+00  4.320166242713083e-01  8.447330185422867e-18

 1.080537383807326e-17  2.247116033633386e-20 -1.022326452400591e+00
 2.247116033633386e-20  1.232924504422892e-17  4.314137800740551e-01
-1.022326452400591e+00  4.314137800740551e-01  8.392091629450291e-18

 1.075540584271468e-17  2.337374305169846e-20 -1.021155928319830e+00
 2.337374305169846e-20  1.265118986653186e-17  4.318514654489609e-01
-1.021155928319830e+00  4.318514654489609e-01  8.328236690371057e-18

 1.073727555558709e-17  2.244364733277857e-20 -1.020757916509995e+00
 2.244364733277857e-20  1.261031040540594e-17  4.320236611755763e-01
-1.020757916509995e+00  4.320236611755763e-01  8.300075985613051e-18

 1.071133790353391e-17  2.555383728818627e-20 -1.020960305553061e+00
 2.555383728818627e-20  1.295139708534284e-17  4.315832314930498e-01
-1.020960305553061e+00  4.315832314930498e-01  8.297402151950234e-18

 1.069534881696781e-17  2.881762083481045e-20 -1.020873121485472e+00
 2.881762083481045e-20  1.373609294959662e-17  4.312030030649811e-01
-1.020873121485472e+00  4.312030030649811e-01  8.307206608218111e-18

 1.069029634901823e-17  3.326798195550946e-20 -1.020779056088602e+00
 3.326798195550946e-20  1.256154601939434e-17  4.306001601597200e-01
-1.020779056088602e+00  4.306001601597200e-01  8.317320036797226e-18

 1.065412837058331e-17  3.697526217023836e-20 -1.020114728897902e+00
 3.697526217023836e-20  1.399537762333447e-17  4.298836768490586e-01
-1.020114728897902e+00  4.298836768490586e-01  8.299473388218001e-18

 1.063531477826451e-17  4.062608619982379e-20 -1.019452835259972e+00
 4.062608619982379e-20  1.256889567108437e-17  4.289643158298287e-01
-1.019452835259972e+00  4.289643158298287e-01  8.294874233095581e-18

 1.059169315392364e-17  4.449831358690173e-20 -1.017565052710268e+00
 4.449831358690173e-20  1.176648311160479e-17  4.285043616059648e-01
-1.017565052710268e+00  4.285043616059648e-01  8.248661242831974e-18

 1.057503771106975e-17  4.465576354901428e-20 -1.016703906328177e+00
 4.465576354901428e-20  1.197663212192856e-17  4.275823012291203e-01
-1.016703906328177e+00  4.275823012291203e-01  8.246237404947046e-18

 1.054924194128064e-17  4.623263387822574e-20 -1.016578507848901e+00
 4.623263387822574e-20  1.340930520944983e-17  4.275087096511268e-01
-1.016578507848901e+00  4.275087096511268e-01  8.274184659305288e-18

 1.053696699629977e-17  4.239708444905203e-20 -1.016804647380160e+00
 4.239708444905203e-20  1.200032262499476e-17  4.267576784475992e-01
-1.016804647380160e+00  4.267576784475992e-01  8.297457014464164e-18

 1.050301998200094e-17  4.316774003214027e-20 -1.015935877713357e+00
 4.316774003214027e-20  1.305616483897521e-17  4.262460407761168e-01
-1.015935877713357e+00  4.262460407761168e-01  8.293835643625600e-18

 1.047925370059524e-17  4.088959596220789e-20 -1.016250615814960e+00
 4.088959596220789e-20  1.293341230208309e-17  4.256195954525451e-01
-1.016250615814960e+00  4.256195954525451e-01  8.317282426474535e-18

 1.045442057514239e-17  4.025804144920846e-20 -1.015984717103011e+00
 4.025804144920846e-20  1.198648618966908e-17  4.255025523335678e-01
-1.015984717103011e+00  4.255025523335678e-01  8.309283638780788e-18

 1.043082059420553e-17  3.717659561836416e-20 -1.015797522508773e+00
 3.717659561836416e-20  1.197654927509111e-17  4.260572406322317e-01
-1.015797522508773e+00  4.260572406322317e-01  8.300045111763752e-18

 1.042552841425057e-17  3.434026290595454e-20 -1.016400514149528e+00
 3.434026290595454e-20  1.212950148802000e-17  4.252647374518428e-01
-1.016400514149528e+00  4.252647374518428e-01  8.336069018994384e-18

 1.037922823904493e-17  3.506642533254508e-20 -1.015252209240966e+00
 3.506642533254508e-20  1.188183361450062e-17  4.255889597496204e-01
-1.015252209240966e+00  4.255889597496204e-01  8.288538470763662e-18

 1.035978871432330e-17  3.206237123362015e-20 -1.015075364938216e+00
 3.206237123362015e-20  1.164181670145164e-17  4.249755153398636e-01
-1.015075364938216e+00  4.249755153398636e-01  8.281169655159849e-18

 1.032064432853411e-17  3.059434238252310e-20 -1.015429483841934e+00
 3.059434238252310e-20  1.283909362352464e-17  4.253148570474760e-01
-1.015429483841934e+00  4.253148570474760e-01  8.291992716356083e-18

 1.029989035180076e-17  2.487264651921828e-20 -1.016165257727587e+00
 2.487264651921828e-20  1.405863027710167e-17  4.241005073533864e-01
-1.016165257727587e+00  4.241005073533864e-01  8.336072571396809e-18

 1.026519458951730e-17  2.746840575523928e-20 -1.016000962783933e+00
 2.746840575523928e-20  1.211978817480608e-17  4.256637699576363e-01
-1.016000962783933e+00  4.256637699576363e-01  8.288512381576915e-18

 1.025366879743964e-17  2.386806279587090e-20 -1.016481723356722e+00
 2.386806279587090e-20  1.227515617428835e-17  4.252339359102800e-01
-1.016481723356722e+00  4.252339359102800e-01  8.324546700875045e-18

 1.024335006883950e-17  2.264568196236935e-20 -1.016698409087162e+00
 2.264568196236935e-20  1.202126478998669e-17  4.248764894515438e-01
-1.016698409087162e+00  4.248764894515438e-01  8.320209904312272e-18

 1.018485112994580e-17  2.185487538135911e-20 -1.014439909229560e+00
 2.185487538135911e-20  1.192333082906040e-17  4.259705672930247e-01
-1.014439909229560e+00  4.259705672930247e-01  8.207246199971316e-18

 1.021500653073174e-17  2.049558966460217e-20 -1.016903608853985e+00
 2.049558966460217e-20  1.165518710274759e-17  4.252837124141182e-01
-1.016903608853985e+00  4.252837124141182e-01  8.336903867972360e-18

 1.017522021094056e-17  2.165034972313562e-20 -1.016080422222764e+00
 2.165034972313562e-20  1.197786209119159e-17  4.255059627467696e-01
-1.016080422222764e+00  4.255059627467696e-01  8.286557729799226e-18

 1.015979643878443e-17  1.872740078497036e-20 -1.016345466125069e+00
 1.872740078497036e-20  1.256889892290967e-17  4.247418113651030e-01
-1.016345466125069e+00  4.247418113651030e-01  8.311920670954741e-18

 1.009945582201157e-17  1.600257876228401e-20 -1.015009220612799e+00
 1.600257876228401e-20  1.148831966551663e-17  4.253563616343733e-01
-1.015009220612799e+00  4.253563616343733e-01  8.245393686578705e-18

 1.006958775132859e-17  1.245417309744721e-20 -1.014774557027398e+00
 1.245417309744721e-20  1.147350890846887e-17  4.251221359019865e-01
-1.014774557027398e+00  4.251221359019865e-01  8.225627294131492e-18

 1.001181984502466e-17  1.028063337977313e-20 -1.014762138802622e+00
 1.028063337977313e-20  1.164697315884390e-17  4.254365042808884e-01
-1.014762138802622e+00  4.254365042808884e-01  8.213618000284033e-18

 9.970644740901412e-18  9.540406305567205e-21 -1.015279860507670e+00
 9.540406305567205e-21  1.141079137663038e-17  4.252512890886492e-01
-1.015279860507670e+00  4.252512890886492e-01  8.219549265288501e-18

 9.956622564378917e-18  7.447247710656677e-21 -1.015741571748336e+00
 7.447247710656677e-21  1.130820952165226e-17  4.256370357863514e-01
-1.015741571748336e+00  4.256370357863514e-01  8.216997922488570e-18

 9.882122023846317e-18  5.267003411359833e-21 -1.014445853369224e+00
 5.267003411359833e-21  1.152510565469912e-17  4.256179880582043e-01
-1.014445853369224e+00  4.256179880582043e-01  8.169196035372805e-18

 9.824471521971731e-18  6.094140194292478e-21 -1.014659960995570e+00
 6.094140194292478e-21  1.118922371187486e-17  4.255269100979442e-01
-1.014659960995570e+00  4.255269100979442e-01  8.152730732785394e-18

 9.787583380919133e-18  4.695135657152896e-21 -1.014506801311043e+00
 4.695135657152896e-21  1.085328465428288e-17  4.260886785465423e-01
-1.014506801311043e+00  4.260886785465423e-01  8.128163633092171e-18

 9.773331849586212e-18 -5.882502869182398e-23 -1.015202586502142e+00
-5.882502869182398e-23  1.190388284244881e-17  4.259324463068299e-01
-1.015202586502142e+00  4.259324463068299e-01  8.145128817862675e-18

 9.715014896592635e-18  8.249576539056708e-22 -1.014371272023099e+00
 8.249576539056708e-22  1.115918267518917e-17  4.255749660917023e-01
-1.014371272023099e+00  4.255749660917023e-01  8.122430736250904e-18

 9.681391495021243e-18 -1.281242885172175e-21 -1.014452744952517e+00
-1.281242885172175e-21  1.110446594759466e-17  4.255535248718444e-01
-1.014452744952517e+00  4.255535248718444e-01  8.110684153756626e-18

 9.608271021547261e-18 -1.017862991403950e-21 -1.014699291267957e+00
-1.017862991403950e-21  1.217026702484577e-17  4.255284761761375e-01
-1.014699291267957e+00  4.255284761761375e-01  8.108078593080481e-18

 9.508717809634685e-18 -2.133899721167545e-21 -1.014414275820900e+00
-2.133899721167545e-21  1.131929837269937e-17  4.254091584894023e-01
-1.014414275820900e+00  4.254091584894023e-01  8.076066693507044e-18

 9.399270741169696e-18 -4.232449814402834e-21 -1.013951044044998e+00
-4.232449814402834e-21  1.195483296132871e-17  4.252857838814602e-01
-1.013951044044998e+00  4.252857838814602e-01  8.036317762318704e-18

 9.330091029938898e-18 -5.923786786605824e-21 -1.014385233804081e+00
-5.923786786605824e-21  1.061067856884166e-17  4.253401215896765e-01
-1.014385233804081e+00  4.253401215896765e-01  8.030894309080692e-18

 9.281809265982554e-18 -7.467723100172364e-21 -1.014266481083782e+00
-7.467723100172364e-21  1.089303575651142e-17  4.253099764204156e-01
-1.014266481083782e+00  4.253099764204156e-01  8.017745304701214e-18

 9.209241245541923e-18 -6.472899009288831e-21 -1.013630359205289e+00
-6.472899009288831e-21  1.058624387067000e-17  4.251615115422403e-01
-1.013630359205289e+00  4.251615115422403e-01  7.992806860324127e-18

 9.151080635117888e-18 -8.780494724676412e-21 -1.013388563810741e+00
-8.780494724676412e-21  1.047983330420801e-17  4.249458592033394e-01
-1.013388563810741e+00  4.249458592033394e-01  7.964394184745616e-18

 9.069806099124099e-18 -7.498474074705072e-21 -1.013565331108819e+00
-7.498474074705072e-21  1.083153188254336e-17  4.250249717454712e-01
-1.013565331108819e+00  4.250249717454712e-01  7.949264450699467e-18

 9.009038400014890e-18 -1.039505348526019e-20 -1.013770051810545e+00
-1.039505348526019e-20  1.030226431489192e-17  4.252171813997448e-01
-1.013770051810545e+00  4.252171813997448e-01  7.936619999124290e-18

 8.921931514376352e-18 -1.050009222982905e-20 -1.013135842335724e+00
-1.050009222982905e-20  1.060116559005227e-17  4.250567012790339e-01
-1.013135842335724e+00  4.250567012790339e-01  7.909230580351283e-18

 8.840055588029254e-18 -1.252702119201107e-20 -1.012677578027093e+00
-1.252702119201107e-20  1.043463153428087e-17  4.249979921357359e-01
-1.012677578027093e+00  4.249979921357359e-01  7.857754673796263e-18

 8.763910380941011e-18 -1.135332957436644e-20 -1.013247560621009e+00
-1.135332957436644e-20  9.782290369897784e-18  4.246442262570101e-01
-1.013247560621009e+00  4.246442262570101e-01  7.857193258129406e-18

 8.651600158764201e-18 -1.336302933349872e-20 -1.012599482143478e+00
-1.336302933349872e-20  1.081124380141180e-17  4.253263999345360e-01
-1.012599482143478e+00  4.253263999345360e-01  7.804944628719460e-18

 8.572180355168208e-18 -1.526529460500145e-20 -1.013778054538691e+00
-1.526529460500145e-20  9.545246680600412e-18  4.237106881832589e-01
-1.013778054538691e+00  4.237106881832589e-01  7.834623114814045e-18

 8.447355675777851e-18 -1.441594977826244e-20 -1.012213712776975e+00
-1.441594977826244e-20  1.055332852750674e-17  4.255725568593834e-01
-1.012213712776975e+00  4.255725568593834e-01  7.720293741818280e-18

 8.399260211187296e-18 -1.755636331917643e-20 -1.014129471143082e+00
-1.755636331917643e-20  9.364100042070965e-18  4.235446467676061e-01
-1.014129471143082e+00  4.235446467676061e-01  7.805088364059982e-18

 8.306412467351936e-18 -1.541237497925886e-20 -1.014282676329516e+00
-1.541237497925886e-20  9.989604717768931e-18  4.242258439981181e-01
-1.014282676329516e+00  4.242258439981181e-01  7.793037497984178e-18

 8.191705970095625e-18 -1.803087912473612e-20 -1.014599369352920e+00
-1.803087912473612e-20  9.937717223407775e-18  4.246778525243690e-01
-1.014599369352920e+00  4.246778525243690e-01  7.764630442147315e-18

 8.075699198817042e-18 -1.877358772636876e-20 -1.014959498882395e+00
-1.877358772636876e-20  1.054318746457796e-17  4.236437098398543e-01
-1.014959498882395e+00  4.236437098398543e-01  7.756996620225387e-18

 7.889124538520074e-18 -2.047474719289268e-20 -1.014351084983658e+00
-2.047474719289268e-20  8.708756053314777e-18  4.246572228181616e-01
-1.014351084983658e+00  4.246572228181616e-01  7.663360686217652e-18

 7.677001662677708e-18 -2.279324742496120e-20 -1.014189592155806e+00
-2.279324742496120e-20  9.217332659984008e-18  4.242332786251907e-01
-1.014189592155806e+00  4.242332786251907e-01  7.581434719794245e-18

 7.611088248180974e-18 -2.699517329525891e-20 -1.016301545994351e+00
-2.699517329525891e-20  9.139904032904249e-18  4.265391746611719e-01
-1.016301545994351e+00  4.265391746611719e-01  7.593581090815540e-18

 7.492090463515722e-18 -2.645204349650024e-20 -1.017464777457227e+00
-2.645204349650024e-20  9.660115760010913e-18  4.237366822025779e-01
-1.017464777457227e+00  4.237366822025779e-01  7.689349540520211e-18

 7.358764275884524e-18 -3.044772395026227e-20 -1.018422506914027e+00
-3.044772395026227e-20  9.538368321193723e-18  4.230476404730723e-01
-1.018422506914027e+00  4.230476404730723e-01  7.679087109593636e-18

 7.134089575278703e-18 -3.380721525528711e-20 -1.019405773406844e+00
-3.380721525528711e-20  7.810961707188635e-18  4.269593961722743e-01
-1.019405773406844e+00  4.269593961722743e-01  7.621988743228545e-18

 6.982912554089857e-18 -3.531902890946892e-20 -1.018708831449479e+00
-3.531902890946892e-20  9.081968712608033e-18  4.227259740838832e-01
-1.018708831449479e+00  4.227259740838832e-01  7.591916100988525e-18

 6.781208587313205e-18 -3.720478772263314e-20 -1.017323566656821e+00
-3.720478772263314e-20  9.087677039915667e-18  4.212084509969359e-01
-1.017323566656821e+00  4.212084509969359e-01  7.464035478190635e-18

 6.496873812865869e-18 -4.033424675201025e-20 -1.018300369858904e+00
-4.033424675201025e-20  7.531114790110516e-18  4.255016658015450e-01
-1.018300369858904e+00  4.255016658015450e-01  7.406340904569531e-18

 6.222639506614825e-18 -4.377385775235626e-20 -1.016803948841277e+00
-4.377385775235626e-20  7.395492075582000e-18  4.238173572367701e-01
-1.016803948841277e+00  4.238173572367701e-01  7.251545767442774e-18

 5.873683694952985e-18 -4.528396960522806e-20 -1.016257696153158e+00
-4.528396960522806e-20  7.418136773977351e-18  4.250657896519747e-01
-1.016257696153158e+00  4.250657896519747e-01  7.114033404125747e-18

 5.656030207827536e-18 -4.733366843710765e-20 -1.017359678231021e+00
-4.733366843710765e-20  7.033309249504609e-18  4.243050119041041e-01
-1.017359678231021e+00  4.243050119041041e-01  7.087637457954948e-18

 5.371812812372700e-18 -4.898178214440049e-20 -1.016054661036164e+00
-4.898178214440049e-20  6.791684308547840e-18  4.247886142295674e-01
-1.016054661036164e+00  4.247886142295674e-01  6.950118884462506e-18

 5.146353259000489e-18 -4.903518516815005e-20 -1.015860581553543e+00
-4.903518516815005e-20  7.225826167829258e-18  4.248869682911242e-01
-1.015860581553543e+00  4.248869682911242e-01  6.877401344505579e-18

 4.938653253278879e-18 -5.186723273475151e-20 -1.017174232907360e+00
-5.186723273475151e-20  8.425808241832511e-18  4.238531088005507e-01
-1.017174232907360e+00  4.238531088005507e-01  6.882312276819040e-18

 4.514299978442857e-18 -5.168251950632209e-20 -1.016400920802760e+00
-5.168251950632209e-20  4.973524865822995e-18  4.248575060555239e-01
-1.016400920802760e+00  4.248575060555239e-01  6.698554591171307e-18

 4.044428839856067e-18 -5.120136636370322e-20 -1.015778171355518e+00
-5.120136636370322e-20  5.233891746862619e-18  4.242016695901527e-01
-1.015778171355518e+00  4.242016695901527e-01  6.533442152436462e-18

 3.621096828458381e-18 -5.298464883381483e-20 -1.015975289809623e+00
-5.298464883381483e-20  4.872267685954049e-18  4.248087285476494e-01
-1.015975289809623e+00  4.248087285476494e-01  6.388152842262625e-18

 3.004550933154930e-18 -5.303573978873634e-20 -1.016033151730050e+00
-5.303573978873634e-20  4.531405265372945e-18  4.242156561609217e-01
-1.016033151730050e+00  4.242156561609217e-01  6.194664408508436e-18

 2.412119879745311e-18 -5.251060946275349e-20 -1.016825708963923e+00
-5.251060946275349e-20  4.171797787880397e-18  4.257864889411677e-01
-1.016825708963923e+00  4.257864889411677e-01  6.013680018781847e-18

 1.886944293154455e-18 -5.397134927732393e-20 -1.016568448189732e+00
-5.397134927732393e-20  4.434764703134398e-18  4.254945623617608e-01
-1.016568448189732e+00  4.254945623617608e-01  5.830429283063575e-18

 1.235547446512982e-18 -5.144260933681798e-20 -1.015920287028971e+00
-5.144260933681798e-20  4.087329315047229e-18  4.236797959538608e-01
-1.015920287028971e+00  4.236797959538608e-01  5.591595183900570e-18

 6.060501454638710e-19 -5.254119703605790e-20 -1.017172271045493e+00
-5.254119703605790e-20  2.816900773539956e-18  4.247920866569359e-01
-1.017172271045493e+00  4.247920866569359e-01  5.417577684758608e-18

-3.169800505472611e-19 -5.382564381676033e-20 -1.019846969222749e+00
-5.382564381676033e-20  2.709918459341919e-18  4.253034567099194e-01
-1.019846969222749e+00  4.253034567099194e-01  5.229737684255098e-18

-1.085392313296105e-18 -5.366957291459787e-20 -1.018051514284567e+00
-5.366957291459787e-20  1.633961904132766e-18  4.268951485343647e-01
-1.018051514284567e+00  4.268951485343647e-01  4.835440324454283e-18

-1.897745924290233e-18 -5.056165397600681e-20 -1.019827756259629e+00
-5.056165397600681e-20  1.785156958108602e-18  4.231453818795028e-01
-1.019827756259629e+00  4.231453818795028e-01  4.671235202348118e-18

-2.887971142801208e-18 -5.010569875215502e-20 -1.022258166642319e+00
-5.010569875215502e-20  4.067141906598320e-19  4.271427987251289e-01
-1.022258166642319e+00  4.271427987251289e-01  4.355809299879471e-18

-3.795355028809891e-18 -4.814383046597913e-20 -1.022596971733857e+00
-4.814383046597913e-20 -4.602023913653692e-19  4.275345486846837e-01
-1.022596971733857e+00  4.275345486846837e-01  4.114556837805230e-18

-5.056994439109294e-18 -4.084553578989918e-20 -1.022168321081568e+00
-4.084553578989918e-20 -1.128439705548580e-18  4.235961588027263e-01
-1.022168321081568e+00  4.235961588027263e-01  3.692017886834908e-18

-6.388263776578671e-18 -3.280710898677883e-20 -1.019577781128377e+00
-3.280710898677883e-20 -1.969959706861322e-18  4.273870614275816e-01
-1.019577781128377e+00  4.273870614275816e-01  3.074043003660740e-18

-7.867976796724030e-18 -2.397682583102005e-20 -1.017826785019025e+00
-2.397682583102005e-20 -3.354654210623182e-18  4.249695091641443e-01
-1.017826785019025e+00  4.249695091641443e-01  2.533368239914195e-18

-9.377407876573963e-18 -1.861372561702987e-20 -1.012520640382452e+00
-1.861372561702987e-20 -4.296117178339215e-18  4.280998741473777e-01
-1.012520640382452e+00  4.280998741473777e-01  1.691179400086244e-18

-1.039070103911028e-17 -8.205732925780165e-21 -1.015681131001196e+00
-8.205732925780165e-21 -3.647040457500942e-18  4.235372640801383e-01
-1.015681131001196e+00  4.235372640801383e-01  1.560158921090430e-18

-1.240879050137394e-17 -1.619927166450290e-20 -1.017784334907053e+00
-1.619927166450290e-20 -5.869401067889615e-18  4.290460124832702e-01
-1.017784334907053e+00  4.290460124832702e-01  9.601133245826059e-19

-1.445349329705464e-17 -7.241627005426987e-21 -1.021174101436925e+00
-7.241627005426987e-21 -5.512824058508359e-18  4.242078360396571e-01
-1.021174101436925e+00  4.242078360396571e-01  4.471343788116775e-19

-1.672748688774063e-17 -1.279095915541093e-20 -1.017735426295240e+00
-1.279095915541093e-20 -8.102139666894762e-18  4.254902721395774e-01
-1.017735426295240e+00  4.254902721395774e-01 -4.670736438242942e-19

-1.983240859187410e-17 -1.199274053388703e-20 -1.009299607684123e+00
-1.199274053388703e-20 -8.936435962076642e-18  4.282288781746003e-01
-1.009299607684123e+00  4.282288781746003e-01 -1.991022947026461e-18

-2.360810055790016e-17 -3.197161858533240e-20 -1.003090062141810e+00
-3.197161858533240e-20 -1.098417856039965e-17  4.246144919993788e-01
-1.003090062141810e+00  4.246144919993788e-01 -3.600794075172697e-18

-2.594327241599326e-17 -6.898979044793118e-20 -1.014560546787950e+00
-6.898979044793118e-20 -1.183022707023959e-17  4.215663780227457e-01
-1.014560546787950e+00  4.215663780227457e-01 -3.738631677258996e-18

-2.879801690903348e-17 -1.407456524568344e-19 -1.019940285596731e+00
-1.407456524568344e-19 -1.254306369594212e-17  4.276174566771649e-01
-1.019940285596731e+00  4.276174566771649e-01 -4.540718761984343e-18

-3.487289776272330e-17 -2.562063364131955e-19 -1.014529789248881e+00
-2.562063364131955e-19 -1.530643393763986e-17  4.244629894545497e-01
-1.014529789248881e+00  4.244629894545497e-01 -6.964807834435238e-18

-4.245207980817031e-17 -4.959890478584354e-19 -1.016027795918150e+00
-4.959890478584354e-19 -1.773531149245705e-17  4.238840292603447e-01
-1.016027795918150e+00  4.238840292603447e-01 -9.538872933531684e-18

-5.268548631139264e-17 -9.387769471721407e-19 -1.023676697036462e+00
-9.387769471721407e-19 -2.046896126723980e-17  4.204968643837542e-01
-1.023676697036462e+00  4.204968643837542e-01 -1.266023270918698e-17

-6.076129678187363e-17 -1.324301918290802e-18 -1.003759074526593e+00
-1.324301918290802e-18 -2.419366906315352e-17  4.378901684932634e-01
-1.003759074526593e+00  4.378901684932634e-01 -1.671099078263720e-17

-6.833693996328391e-17 -1.784219881400808e-18 -1.003355870296025e+00
-1.784219881400808e-18 -2.439754362108625e-17  4.298426517199684e-01
-1.003355870296025e+00  4.298426517199684e-01 -1.928520184430265e-17

-8.255949827189714e-17 -2.890090192050388e-18 -1.010540074887238e+00
-2.890090192050388e-18 -2.699747515837676e-17  4.283535150397691e-01
-1.010540074887238e+00  4.283535150397691e-01 -2.382583859379379e-17

-9.845999115522020e-17 -4.383560420194231e-18 -1.008848289898403e+00
-4.383560420194231e-18 -2.888001136121779e-17  4.303378530585426e-01
-1.008848289898403e+00  4.303378530585426e-01 -2.954783804430468e-17

-1.086333657534381e-16 -8.701220657832385e-18 -1.011239300640607e+00
-8.701220657832385e-18 -1.512549088987928e-17  4.230489685499861e-01
-1.011239300640607e+00  4.230489685499861e-01 -4.171557941257911e-17

-1.649532464830196e-16 -1.397266209725868e-17 -1.014880314705163e+00
-1.397266209725868e-17 -3.126086608489715e-17  4.210043902105710e-01
-1.014880314705163e+00  4.210043902105710e-01 -5.282915970107820e-17

-2.031936685151878e-16 -2.140037800951462e-17 -1.012934413996442e+00
-2.140037800951462e-17 -2.963699815344614e-17  4.200889386789978e-01
-1.012934413996442e+00  4.200889386789978e-01 -6.668896488489488e-17

-2.686373574866776e-16 -3.748347909364696e-17 -1.007483770369244e+00
-3.748347909364696e-17 -2.054319716443772e-17  4.274055885571174e-01
-1.007483770369244e+00  4.274055885571174e-01 -9.096313472750351e-17

-3.480386400785965e-16 -7.354058681483188e-17 -9.966254924192814e-01
-7.354058681483188e-17  2.703937217528072e-17  4.238508776778223e-01
-9.966254924192814e-01  4.238508776778223e-01 -1.378179673748400e-16

-4.428074920745394e-16 -9.918674552816842e-17 -1.004633540613884e+00
-9.918674552816842e-17  2.352443858726002e-17  4.270319382687468e-01
-1.004633540613884e+00  4.270319382687468e-01 -1.573933675703059e-16

-5.037339311472811e-16 -1.276489850243591e-16 -1.014242898227393e+00
-1.276489850243591e-16  4.541910441669118e-17  4.238236504254591e-01
-1.014242898227393e+00  4.238236504254591e-01 -1.811571916573056e-16

-6.520445270997045e-16 -2.047424397333983e-16 -1.015015001040296e+00
-2.047424397333983e-16  9.830348487690790e-17  4.262929192813414e-01
-1.015015001040296e+00  4.262929192813414e-01 -2.415740920745180e-16

-9.008446544821832e-16 -3.748156049823031e-16 -1.011589153561150e+00
-3.748156049823031e-16  2.098910165686730e-16  4.211985592585177e-01
-1.011589153561150e+00  4.211985592585177e-01 -3.512261752970952e-16

-1.164992232194429e-15 -6.319728562388394e-16 -1.010391434914046e+00
-6.319728562388394e-16  4.209377996286738e-16  4.227046923489294e-01
-1.010391434914046e+00  4.227046923489294e-01 -5.035929258510321e-16

-1.627488275155151e-15 -1.134334311636556e-15 -1.009587091074096e+00
-1.134334311636556e-15  5.914122842970045e-16  4.236594465589630e-01
-1.009587091074096e+00  4.236594465589630e-01 -7.350831264093968e-16

-2.022411385991778e-15 -1.722754413534170e-15 -1.010408684284550e+00
-1.722754413534170e-15  7.924024478493236e-16  4.212601251345742e-01
-1.010408684284550e+00  4.212601251345742e-01 -9.953790611615002e-16

-2.655799397332991e-15 -2.919901629731550e-15 -1.008784122546711e+00
-2.919901629731550e-15  1.045360544316110e-15  4.234256085562213e-01
-1.008784122546711e+00  4.234256085562213e-01 -1.506080532641652e-15

-4.295159615928865e-15 -6.687731206503877e-15 -1.010643570915795e+00
-6.687731206503877e-15  8.945878588770780e-16  4.231139008534284e-01
-1.010643570915795e+00  4.231139008534284e-01 -3.278279351086164e-15

-8.464452213429441e-15 -1.182354154387619e-14 -1.011467289372985e+00
-1.182354154387619e-14 -7.936764832121777e-16  4.233840148032320e-01
-1.011467289372985e+00  4.233840148032320e-01 -7.308702872299411e-15

-1.003461026554986e-14 -8.239764005445439e-15 -1.011691280247639e+00
-8.239764005445439e-15  8.623850970847479e-15  4.218861754275239e-01
-1.011691280247639e+00  4.218861754275239e-01 -1.275673014742341e-14

 1.205532184007465e-13  3.180128905545437e-14 -1.012130985173226e+00
 3.180128905545437e-14  7.470757826316982e-14  4.222368457611629e-01
-1.012130985173226e+00  4.222368457611629e-01  2.809680371793137e-14

-6.171926656908069e-13 -1.396525079065607e-13 -1.012543374693535e+00
-1.396525079065607e-13 -3.055120628764316e-13  4.234548233326307e-01
-1.012543374693535e+00  4.234548233326307e-01 -1.527631357894844e-13

-1.104727757906158e-14  1.710571196339404e-14 -1.013920230111846e+00
 1.710571196339404e-14  1.882473865699714e-14  4.264291083284697e-01
-1.013920230111846e+00  4.264291083284697e-01 -1.026261599472302e-14

-6.502884032265436e-13 -1.385983800053482e-13 -1.013703247918694e+00
-1.385983800053482e-13 -3.099470189674016e-13  4.259896742641041e-01
-1.013703247918694e+00  4.259896742641041e-01 -1.663981009253361e-13

-1.562926733560695e-14  1.939025086785193e-16 -1.014332041470808e+00
 1.939025086785193e-16 -3.995620483419339e-15  4.261999978371654e-01
-1.014332041470808e+00  4.261999978371654e-01 -6.794613729714628e-15

-9.457667076686859e-15 -8.575002762870319e-16 -1.014125580110543e+00
-8.575002762870319e-16 -3.161228299046571e-15  4.272007484337250e-01
-1.014125580110543e+00  4.272007484337250e-01 -3.679812493466972e-15

-6.992361732472631e-15 -1.163182887266534e-15 -1.013776143304990e+00
-1.163182887266534e-15 -2.670448662015823e-15  4.269815381366387e-01
-1.013776143304990e+00  4.269815381366387e-01 -2.504602685096873e-15

-4.302505580753165e-15 -1.204370026414482e-15 -1.013784974111461e+00
-1.204370026414482e-15 -2.098765169076346e-15  4.274058642588301e-01
-1.013784974111461e+00  4.274058642588301e-01 -1.394927299999563e-15

-2.952067535524511e-15 -1.053092588620433e-15 -1.016602456496967e+00
-1.053092588620433e-15 -1.736241609382100e-15  4.242745969817348e-01
-1.016602456496967e+00  4.242745969817348e-01 -9.109497153712707e-16

-2.289543913423783e-15 -9.221460709582750e-16 -1.016982315695175e+00
-9.221460709582750e-16 -1.543160775000254e-15  4.257299841183486e-01
-1.016982315695175e+00  4.257299841183486e-01 -6.908556647351429e-16

-1.359651871758621e-15 -6.453807679580802e-16 -1.014458822313832e+00
-6.453807679580802e-16 -1.189179274212936e-15  4.269343869031785e-01
-1.014458822313832e+00  4.269343869031785e-01 -4.023694866084128e-16

-8.382425992894677e-16 -4.308795728404657e-16 -1.015376137648507e+00
-4.308795728404657e-16 -8.828131700569101e-16  4.286137702226164e-01
-1.015376137648507e+00  4.286137702226164e-01 -2.478089235459748e-16

-5.856247269691408e-16 -3.119585921480921e-16 -1.015162665699568e+00
-3.119585921480921e-16 -7.046801186088551e-16  4.275176374844981e-01
-1.015162665699568e+00  4.275176374844981e-01 -1.744040314217095e-16

-4.044976655550310e-16 -2.175096817461723e-16 -1.015543159838477e+00
-2.175096817461723e-16 -5.183143008865895e-16  4.285545305692276e-01
-1.015543159838477e+00  4.285545305692276e-01 -1.212230969274031e-16

-3.088411522901847e-16 -1.642862704226900e-16 -1.019979030315417e+00
-1.642862704226900e-16 -4.812630006078186e-16  4.255655088303189e-01
-1.019979030315417e+00  4.255655088303189e-01 -9.247880097928541e-17

-2.606141979423856e-16 -1.378591584616297e-16 -1.016642890579022e+00
-1.378591584616297e-16 -3.847872681755908e-16  4.285971357831642e-01
-1.016642890579022e+00  4.285971357831642e-01 -7.823533897180241e-17

-2.243781339320367e-16 -1.173238219440470e-16 -1.015641503282829e+00
-1.173238219440470e-16 -3.435401944589698e-16  4.282931626267709e-01
-1.015641503282829e+00  4.282931626267709e-01 -6.725629298543957e-17

-1.871775225901143e-16 -9.648016099030004e-17 -1.018042054707725e+00
-9.648016099030004e-17 -2.902595861641418e-16  4.281674898743510e-01
-1.018042054707725e+00  4.281674898743510e-01 -5.570567891897550e-17

-1.550170648552275e-16 -7.836456214171276e-17 -1.020800560891556e+00
-7.836456214171276e-17 -2.490238790483566e-16  4.264669430559150e-01
-1.020800560891556e+00  4.264669430559150e-01 -4.557503092146869e-17

-1.314509844139307e-16 -6.513375478645916e-17 -1.021579673727913e+00
-6.513375478645916e-17 -2.174520073319523e-16  4.289999241385092e-01
-1.021579673727913e+00  4.289999241385092e-01 -3.820640426559605e-17

-1.116383911288706e-16 -5.395166283597441e-17 -1.021984084458283e+00
-5.395166283597441e-17 -2.110400500398393e-16  4.288381835805048e-01
-1.021984084458283e+00  4.288381835805048e-01 -3.189197973708162e-17

-9.449429758430708e-17 -4.501679448010076e-17 -1.023565939220482e+00
-4.501679448010076e-17 -1.590074710606897e-16  4.281580794476111e-01
-1.023565939220482e+00  4.281580794476111e-01 -2.635451090651977e-17

-8.159636961845677e-17 -3.832119452411324e-17 -1.027191636981734e+00
-3.832119452411324e-17 -1.267078810771820e-16  4.264705170408519e-01
-1.027191636981734e+00  4.264705170408519e-01 -2.197568056295847e-17

-7.095202945031237e-17 -3.247630603504494e-17 -1.028701034579494e+00
-3.247630603504494e-17 -1.337698062697336e-16  4.309146798966263e-01
-1.028701034579494e+00  4.309146798966263e-01 -1.853034597267566e-17

-6.281342983168760e-17 -2.834372906376656e-17 -1.026345318449879e+00
-2.834372906376656e-17 -1.143966597415652e-16  4.359692106172150e-01
-1.026345318449879e+00  4.359692106172150e-01 -1.605535995141044e-17

-5.425585471253268e-17 -2.429816825757097e-17 -1.034235290021188e+00
-2.429816825757097e-17 -1.050692509952279e-16  4.221620748308788e-01
-1.034235290021188e+00  4.221620748308788e-01 -1.265838202749589e-17

-4.772404849113510e-17 -2.120625223312143e-17 -1.029371553356212e+00
-2.120625223312143e-17 -7.732860364103159e-17  4.334391161218895e-01
-1.029371553356212e+00  4.334391161218895e-01 -1.089197865544333e-17

-3.920242303066647e-17 -1.720765400747389e-17 -1.028985455731886e+00
-1.720765400747389e-17 -7.011215618584215e-17  4.300241870723203e-01
-1.028985455731886e+00  4.300241870723203e-01 -8.017460823902997e-18

-3.037892622020808e-17 -1.326613239400330e-17 -1.032536396173718e+00
-1.326613239400330e-17 -5.652545210442060e-17  4.309143586496185e-01
-1.032536396173718e+00  4.309143586496185e-01 -4.904308373412150e-18

-2.401598970718620e-17 -1.058346817225453e-17 -1.048403341649608e+00
-1.058346817225453e-17 -5.773954841528709e-17  4.164776180435607e-01
-1.048403341649608e+00  4.164776180435607e-01 -1.736923565464583e-18

-2.211130840183032e-17 -9.443291721069873e-18 -1.022076251859370e+00
-9.443291721069873e-18 -5.638662905901213e-17  4.511753967829408e-01
-1.022076251859370e+00  4.511753967829408e-01 -2.946034032764558e-18

-1.988844325743018e-17 -8.944384821532897e-18 -1.027697291131452e+00
-8.944384821532897e-18 -2.475170568648133e-17  4.441413253107593e-01
-1.027697291131452e+00  4.441413253107593e-01 -1.748761318596869e-18

-1.614967080129347e-17 -7.465667469372027e-18 -1.030912465826631e+00
-7.465667469372027e-18 -3.334190700238790e-17  4.282619830686888e-01
-1.030912465826631e+00  4.282619830686888e-01 -4.859101560152472e-20

-1.338352471337954e-17 -6.318812586391887e-18 -1.031558397336073e+00
-6.318812586391887e-18 -3.899258881795790e-17  4.299890036764619e-01
-1.031558397336073e+00  4.299890036764619e-01  9.528628483229946e-19

-1.135802022907319e-17 -5.724454868530854e-18 -1.026959466524776e+00
-5.724454868530854e-18 -2.164834287830882e-17  4.342153227762092e-01
-1.026959466524776e+00  4.342153227762092e-01  1.356677472289415e-18

-1.010111867095574e-17 -5.113037110851951e-18 -1.024196737511062e+00
-5.113037110851951e-18 -3.064347383379093e-17  4.403073310775604e-01
-1.024196737511062e+00  4.403073310775604e-01  1.585504931038741e-18

-8.524313484125973e-18 -4.852152786512380e-18 -1.035451104434582e+00
-4.852152786512380e-18 -1.318616450784565e-17  4.271099103827328e-01
-1.035451104434582e+00  4.271099103827328e-01  2.894548217487633e-18

-6.734068674855788e-18 -4.180663928679636e-18 -1.030144599944837e+00
-4.180663928679636e-18 -1.438726713178324e-17  4.280444723135874e-01
-1.030144599944837e+00  4.280444723135874e-01  3.197883725584909e-18

-5.414469940868211e-18 -3.831525393265147e-18 -1.026763387363119e+00
-3.831525393265147e-18 -1.775358356797657e-18  4.341614613182150e-01
-1.026763387363119e+00  4.341614613182150e-01  3.346705924552793e-18

-4.898194614923270e-18 -3.500650960929402e-18 -1.024898113922101e+00
-3.500650960929402e-18 -1.369935168395214e-17  4.421143301178928e-01
-1.024898113922101e+00  4.421143301178928e-01  3.336315662580795e-18

-3.849512488409855e-18 -3.236403800039790e-18 -1.042556380663223e+00
-3.236403800039790e-18 -1.907126316465829e-17  4.320407566024229e-01
-1.042556380663223e+00  4.320407566024229e-01  4.797261476606721e-18

-2.948568282191454e-18 -2.956117970199578e-18 -1.037231331836169e+00
-2.956117970199578e-18 -1.607686261288346e-17  4.328469830662673e-01
-1.037231331836169e+00  4.328469830662673e-01  4.800428296509271e-18

-2.169325028937712e-18 -2.832054968828045e-18 -1.036981134806162e+00
-2.832054968828045e-18 -5.387378808034195e-18  4.252348950411019e-01
-1.036981134806162e+00  4.252348950411019e-01  5.156324948132855e-18

-1.624125534121433e-18 -2.677870027894381e-18 -1.026870950780335e+00
-2.677870027894381e-18 -2.799868106557536e-19  4.336900421777735e-01
-1.026870950780335e+00  4.336900421777735e-01  4.780625802479561e-18

-7.088080305147559e-19 -2.436902247497999e-18 -1.027781642226413e+00
-2.436902247497999e-18  1.436806879373666e-18  4.270580728535912e-01
-1.027781642226413e+00  4.270580728535912e-01  5.283878254466600e-18

-2.517220918382378e-19 -2.183163547735950e-18 -1.025318398576186e+00
-2.183163547735950e-18 -8.105357714403994e-18  4.309667934983687e-01
-1.025318398576186e+00  4.309667934983687e-01  5.286152268624408e-18

 2.645154642465177e-19 -2.127697303657847e-18 -1.023989265028521e+00
-2.127697303657847e-18 -1.050062906192455e-18  4.350354053583269e-01
-1.023989265028521e+00  4.350354053583269e-01  5.370457342412983e-18

 9.975989215632880e-19 -1.896995525125663e-18 -1.024473028197650e+00
-1.896995525125663e-18 -1.212736987977818e-18  4.319220309605155e-01
-1.024473028197650e+00  4.319220309605155e-01  5.694972547021415e-18

 1.461881083526811e-18 -1.773139729123077e-18 -1.021248838344218e+00
-1.773139729123077e-18  3.526809154786076e-19  4.339562398524989e-01
-1.021248838344218e+00  4.339562398524989e-01  5.695328344772541e-18

 1.969001285174993e-18 -1.585510017228400e-18 -1.020721575623809e+00
-1.585510017228400e-18 -2.734469550881366e-18  4.317222318203213e-01
-1.020721575623809e+00  4.317222318203213e-01  5.861271043843634e-18

 2.385775378385618e-18 -1.428695486473991e-18 -1.020437083335538e+00
-1.428695486473991e-18 -7.827932767418302e-18  4.305512725126479e-01
-1.020437083335538e+00  4.305512725126479e-01  6.009194263099543e-18

 2.912150431213628e-18 -1.298528469277838e-18 -1.021586510292370e+00
-1.298528469277838e-18 -8.575565571394995e-18  4.324937282693377e-01
-1.021586510292370e+00  4.324937282693377e-01  6.224415841949212e-18

 3.511805344199711e-18 -1.170390031180507e-18 -1.025899522873805e+00
-1.170390031180507e-18 -7.705765004360102e-18  4.326533359760276e-01
-1.025899522873805e+00  4.326533359760276e-01  6.653459982632901e-18

 3.932060762537261e-18 -1.114403955108276e-18 -1.023778705625394e+00
-1.114403955108276e-18 -1.917285283547836e-18  4.376249108011084e-01
-1.023778705625394e+00  4.376249108011084e-01  6.627645743514075e-18

 4.235491761962421e-18 -1.077980991375613e-18 -1.019342373395946e+00
-1.077980991375613e-18  4.175109223854924e-18  4.274812679894989e-01
-1.019342373395946e+00  4.274812679894989e-01  6.600637833808668e-18

 4.556776824200202e-18 -9.949225362763902e-19 -1.019366563070191e+00
-9.949225362763902e-19  3.559508582262394e-18  4.281308476491285e-01
-1.019366563070191e+00  4.281308476491285e-01  6.716212982095727e-18

 5.030006804490091e-18 -8.786905395937555e-19 -1.022255273896911e+00
-8.786905395937555e-19  1.116558917964843e-18  4.350351162237139e-01
-1.022255273896911e+00  4.350351162237139e-01  6.965847322322650e-18

 5.394184983709919e-18 -8.145422137595072e-19 -1.020073455639565e+00
-8.145422137595072e-19  6.801653705778091e-18  4.325677718225702e-01
-1.020073455639565e+00  4.325677718225702e-01  6.964786596736458e-18

 5.777216248073509e-18 -7.485018129606037e-19 -1.019640922613758e+00
-7.485018129606037e-19  8.018118486892980e-18  4.338091915977268e-01
-1.019640922613758e+00  4.338091915977268e-01  7.062613032179969e-18

 6.121283647851341e-18 -6.558057388014039e-19 -1.017977705166043e+00
-6.558057388014039e-19  3.986147491843931e-18  4.352402793503350e-01
-1.017977705166043e+00  4.352402793503350e-01  7.070510167758186e-18

 6.307988281257414e-18 -6.031443092956592e-19 -1.016301013786507e+00
-6.031443092956592e-19  4.466329559167503e-18  4.308889884845503e-01
-1.016301013786507e+00  4.308889884845503e-01  7.089191467188501e-18

 6.548787310452473e-18 -4.939251246074701e-19 -1.018662991757791e+00
-4.939251246074701e-19  1.184964786934327e-18  4.329467267402342e-01
-1.018662991757791e+00  4.329467267402342e-01  7.226625042078962e-18

 6.773612327693700e-18 -5.205927712207097e-19 -1.020106081239007e+00
-5.205927712207097e-19  6.162076142248136e-18  4.356881481421470e-01
-1.020106081239007e+00  4.356881481421470e-01  7.364361429746119e-18

 7.055372303859867e-18 -4.196249091445572e-19 -1.019700225042124e+00
-4.196249091445572e-19  6.157501009370827e-18  4.333719590814729e-01
-1.019700225042124e+00  4.333719590814729e-01  7.432043984630948e-18

 7.252758129049558e-18 -3.837393144702195e-19 -1.020209446977920e+00
-3.837393144702195e-19  4.572115374818625e-18  4.326674349427871e-01
-1.020209446977920e+00  4.326674349427871e-01  7.529535360184469e-18

 7.350072997721243e-18 -4.072907199305057e-19 -1.019821753082638e+00
-4.072907199305057e-19  6.938299288021384e-18  4.347873134371490e-01
-1.019821753082638e+00  4.347873134371490e-01  7.511293479645075e-18

 7.408571023303971e-18 -3.768541420201289e-19 -1.016033330181520e+00
-3.768541420201289e-19  6.942663407223130e-18  4.398681099606359e-01
-1.016033330181520e+00  4.398681099606359e-01  7.300758761349988e-18

 7.623254348195769e-18 -3.056469369099020e-19 -1.018079153102198e+00
-3.056469369099020e-19  7.028146275723187e-18  4.239830078209867e-01
-1.018079153102198e+00  4.239830078209867e-01  7.632059963778999e-18

 7.383109400614201e-18 -2.937741810598552e-19 -1.003757360006212e+00
-2.937741810598552e-19  6.236232688212449e-18  4.410337555612832e-01
-1.003757360006212e+00  4.410337555612832e-01  6.506424010688659e-18

 7.779073283541990e-18 -2.842371174884263e-19 -1.017621040714978e+00
-2.842371174884263e-19  7.014651455921785e-18  4.274583899674490e-01
-1.017621040714978e+00  4.274583899674490e-01  7.553548401767342e-18

 7.755138677857774e-18 -2.675550674576136e-19 -1.014275054093907e+00
-2.675550674576136e-19  6.220180557262527e-18  4.473797138405769e-01
-1.014275054093907e+00  4.473797138405769e-01  7.048255800231573e-18

 8.157647669897475e-18 -2.463164268680144e-19 -1.028125828016991e+00
-2.463164268680144e-19  9.366072535512094e-18  4.398971946359147e-01
-1.028125828016991e+00  4.398971946359147e-01  7.976565329220856e-18

 8.614469787567154e-18 -1.999906604690593e-19 -1.043608457650265e+00
-1.999906604690593e-19  5.390557977563781e-18  4.210292765473376e-01
-1.043608457650265e+00  4.210292765473376e-01  9.178642031166700e-18

 7.958142388854357e-18 -1.896427519212105e-19 -1.013827134662636e+00
-1.896427519212105e-19  8.847114480622953e-18  4.486615056106538e-01
-1.013827134662636e+00  4.486615056106538e-01  6.997286084446731e-18

 8.295058831025046e-18 -1.663566537907067e-19 -1.020898125090897e+00
-1.663566537907067e-19  6.229282237710111e-18  4.242539218000709e-01
-1.020898125090897e+00  4.242539218000709e-01  7.780162443621815e-18

 8.428910215946896e-18 -1.441264943807138e-19 -1.023451362746738e+00
-1.441264943807138e-19  5.901393437673238e-18  4.327578458554616e-01
-1.023451362746738e+00  4.327578458554616e-01  7.850945902336664e-18

 8.697769425698837e-18 -1.188228707583430e-19 -1.031682426698340e+00
-1.188228707583430e-19  5.899611975998087e-18  4.332351211220252e-01
-1.031682426698340e+00  4.332351211220252e-01  8.330218645032195e-18

 8.845992744604389e-18 -1.392481108522940e-19 -1.033437389061036e+00
-1.392481108522940e-19  1.041828412660521e-17  4.320333732084893e-01
-1.033437389061036e+00  4.320333732084893e-01  8.433640822596023e-18

 8.915962412811122e-18 -8.509275247833581e-20 -1.031952627593105e+00
-8.509275247833581e-20  8.289238998136613e-18  4.299528069708326e-01
-1.031952627593105e+00  4.299528069708326e-01  8.445648497115708e-18

 8.894766318927895e-18 -1.149752210614018e-19 -1.025372723803793e+00
-1.149752210614018e-19  1.316559933577717e-17  4.304417300325298e-01
-1.025372723803793e+00  4.304417300325298e-01  8.156719832088462e-18

 8.866765414577288e-18 -8.521976974387530e-20 -1.020074109249286e+00
-8.521976974387530e-20  1.164290855797750e-17  4.299357376878196e-01
-1.020074109249286e+00  4.299357376878196e-01  7.895157607224661e-18

 8.924854118723815e-18 -5.120966615684495e-20 -1.020238914623751e+00
-5.120966615684495e-20  6.946384146697063e-18  4.286432658812940e-01
-1.020238914623751e+00  4.286432658812940e-01  7.959360253465853e-18

 8.995291103249468e-18 -5.157350381388780e-20 -1.020263363104701e+00
-5.157350381388780e-20  7.638853052169635e-18  4.308941038247507e-01
-1.020263363104701e+00  4.308941038247507e-01  8.028690405281744e-18

 9.045097587141540e-18 -6.794762565779187e-20 -1.018960488643724e+00
-6.794762565779187e-20  9.343670371029154e-18  4.341612866271560e-01
-1.018960488643724e+00  4.341612866271560e-01  7.963063144441925e-18

 9.100737442509523e-18 -4.439187026466325e-21 -1.018212097531477e+00
-4.439187026466325e-21  6.715733276618827e-18  4.277302895082331e-01
-1.018212097531477e+00  4.277302895082331e-01  8.027571026550681e-18

 9.095074287699013e-18 -5.354530668211683e-20 -1.014448612830442e+00
-5.354530668211683e-20  1.084972156759304e-17  4.293805998922691e-01
-1.014448612830442e+00  4.293805998922691e-01  7.831440241439108e-18

 9.181777911017574e-18 -4.655132086572118e-20 -1.016064431663556e+00
-4.655132086572118e-20  1.092859705713624e-17  4.298853911207553e-01
-1.016064431663556e+00  4.298853911207553e-01  7.937038434602604e-18

 9.343488163021478e-18 -2.755105175821616e-20 -1.020009145979724e+00
-2.755105175821616e-20  1.070079368725778e-17  4.301887545625546e-01
-1.020009145979724e+00  4.301887545625546e-01  8.143731192818243e-18

 9.478647630158877e-18 -1.372782586916203e-20 -1.023676999910606e+00
-1.372782586916203e-20  1.016869542004527e-17  4.271112258057611e-01
-1.023676999910606e+00  4.271112258057611e-01  8.343320097854863e-18

 9.569664500814462e-18 -1.760048203248976e-20 -1.025741489185330e+00
-1.760048203248976e-20  1.213425466139971e-17  4.274371160722589e-01
-1.025741489185330e+00  4.274371160722589e-01  8.438611629867500e-18

 9.793037198717324e-18 -2.734612094643212e-20 -1.033314410786198e+00
-2.734612094643212e-20  1.274608667326110e-17  4.254344108304103e-01
-1.033314410786198e+00  4.254344108304103e-01  8.881186022934669e-18

 9.772604623007403e-18  1.615620752063616e-20 -1.031960686282203e+00
 1.615620752063616e-20  1.136938544138826e-17  4.292048875610621e-01
-1.031960686282203e+00  4.292048875610621e-01  8.748835347430210e-18

 9.516700254622760e-18  1.412351256157736e-20 -1.020492018805113e+00
 1.412351256157736e-20  8.460697910272503e-18  4.401623782628697e-01
-1.020492018805113e+00  4.401623782628697e-01  7.901210846108423e-18

 9.787936424777953e-18  9.216387557494013e-22 -1.031131535906264e+00
 9.216387557494013e-22  1.167592054191750e-17  4.302390732855324e-01
-1.031131535906264e+00  4.302390732855324e-01  8.672967029750837e-18

 1.008295810630600e-17 -1.241048424962538e-20 -1.041206802207084e+00
-1.241048424962538e-20  1.291699721399218e-17  4.163708660216522e-01
-1.041206802207084e+00  4.163708660216522e-01  9.538395142191495e-18

 9.909995708873477e-18 -2.487787059512445e-20 -1.033553418670045e+00
-2.487787059512445e-20  1.201025510168997e-17  4.261371992789541e-01
-1.033553418670045e+00  4.261371992789541e-01  8.934802605658131e-18

 9.646772354001998e-18 -1.066115962541185e-20 -1.020804693816048e+00
-1.066115962541185e-20  9.316065812117051e-18  4.383459594697987e-01
-1.020804693816048e+00  4.383459594697987e-01  8.053264231258373e-18

 9.908222869747975e-18 -1.318488910152909e-21 -1.029245297015478e+00
-1.318488910152909e-21  1.112737070650886e-17  4.208042429567582e-01
-1.029245297015478e+00  4.208042429567582e-01  8.867102553244400e-18

 9.748703106763168e-18  2.478823228123776e-20 -1.020259403384957e+00
 2.478823228123776e-20  1.034895940977455e-17  4.229844870583004e-01
-1.020259403384957e+00  4.229844870583004e-01  8.328036704949786e-18

 9.769244905717981e-18  2.328101145351951e-20 -1.019018463344964e+00
 2.328101145351951e-20  1.010964336719236e-17  4.276507373254651e-01
-1.019018463344964e+00  4.276507373254651e-01  8.287523232219134e-18

 9.890709419222999e-18  1.661084363863740e-20 -1.020935057117083e+00
 1.661084363863740e-20  1.183261773973515e-17  4.264895294955909e-01
-1.020935057117083e+00  4.264895294955909e-01  8.472405018486646e-18

 9.958052350525189e-18  1.215221701711222e-20 -1.020416090010768e+00
 1.215221701711222e-20  1.252266922138206e-17  4.261791592411087e-01
-1.020416090010768e+00  4.261791592411087e-01  8.522499965251689e-18

 9.838396231415270e-18  7.259262464529339e-21 -1.013421308585296e+00
 7.259262464529339e-21  1.230354579653899e-17  4.329468676908093e-01
-1.013421308585296e+00  4.329468676908093e-01  8.117067779471168e-18

 9.806610117577864e-18  1.963433136448287e-20 -1.009492513996679e+00
 1.963433136448287e-20  1.310630768526706e-17  4.207992830447477e-01
-1.009492513996679e+00  4.207992830447477e-01  8.040030087752528e-18

 9.824021460690658e-18  1.636204452341463e-20 -1.007738451272685e+00
 1.636204452341463e-20  9.575348259377037e-18  4.193146677952427e-01
-1.007738451272685e+00  4.193146677952427e-01  8.010271704364507e-18

 9.938244068661472e-18  7.872083251011686e-21 -1.010814428499900e+00
 7.872083251011686e-21  1.142483530096376e-17  4.402818249315871e-01
-1.010814428499900e+00  4.402818249315871e-01  8.066624642427608e-18

 9.950493410029554e-18  2.953976822165712e-20 -1.008820978588576e+00
 2.953976822165712e-20  1.179194202751918e-17  4.297311961630304e-01
-1.008820978588576e+00  4.297311961630304e-01  8.102117071444675e-18

 9.907502947751039e-18  2.468904538562679e-20 -1.003693602247200e+00
 2.468904538562679e-20  1.126866683804359e-17  4.141368972043807e-01
-1.003693602247200e+00  4.141368972043807e-01  8.063537122291502e-18

 9.814606424024844e-18  1.944568440759486e-20 -9.969251752611358e-01
 1.944568440759486e-20  1.081889245113435e-17  4.237203594127560e-01
-9.969251752611358e-01  4.237203594127560e-01  7.737202682760184e-18

 9.907798833812199e-18  2.882133859783031e-20 -9.964027146400455e-01
 2.882133859783031e-20  1.134841440021473e-17  4.331702936153700e-01
-9.964027146400455e-01  4.331702936153700e-01  7.884364991333446e-18

 9.425414983671203e-18  5.123408602753642e-20 -9.719384311077037e-01
 5.123408602753642e-20  8.226663857963562e-18  4.334462778420720e-01
-9.719384311077037e-01  4.334462778420720e-01  6.604943429057743e-18

 8.697644937108943e-18  6.217469705872566e-20 -9.385928660466843e-01
 6.217469705872566e-20  1.053072510844818e-17  4.325371338771907e-01
-9.385928660466843e-01  4.325371338771907e-01  4.646202452826314e-18

 9.548740742995176e-18  2.193103325774320e-20 -9.702516741288167e-01
 2.193103325774320e-20  1.540256835426696e-17  3.867333437331837e-01
-9.702516741288167e-01  3.867333437331837e-01  7.260679738845054e-18

 9.405092138215796e-18  1.011038395853651e-20 -9.656722672336880e-01
 1.011038395853651e-20  1.200060579429950e-17  4.118684049685545e-01
-9.656722672336880e-01  4.118684049685545e-01  6.599306758297893e-18

 9.866698406213127e-18  1.086600164641974e-19 -9.892899248359800e-01
 1.086600164641974e-19  8.261414019725733e-18  4.399359835487460e-01
-9.892899248359800e-01  4.399359835487460e-01  7.315527386132525e-18

 1.023053636283902e-17  7.197485081501089e-20 -1.008179275311338e+00
 7.197485081501089e-20  1.089150176838347e-17  4.259598821057138e-01
-1.008179275311338e+00  4.259598821057138e-01  8.178454244907708e-18

 1.044010265194911e-17  6.518546742307174e-20 -1.021282707012267e+00
 6.518546742307174e-20  1.279860170198523e-17  4.285297143221878e-01
-1.021282707012267e+00  4.285297143221878e-01  8.572476163518967e-18

 1.059005252605700e-17  5.940597828374697e-20 -1.030505828682547e+00
 5.940597828374697e-20  1.403746760119792e-17  4.332004821579395e-01
-1.030505828682547e+00  4.332004821579395e-01  8.714315119516782e-18

 1.062687502227621e-17  4.600509338486940e-20 -1.035154520870220e+00
 4.600509338486940e-20  1.095472886443911e-17  4.348609479767589e-01
-1.035154520870220e+00  4.348609479767589e-01  8.581508496294589e-18

 1.094754535186676e-17  1.973601023472901e-20 -1.055322726447919e+00
 1.973601023472901e-20  1.462808103072976e-17  4.318809246023689e-01
-1.055322726447919e+00  4.318809246023689e-01  9.280482065834614e-18

 1.208696178691398e-17  7.131515390836556e-20 -1.108453967850292e+00
 7.131515390836556e-20  1.441055146064273e-17  4.300417441761204e-01
-1.108453967850292e+00  4.300417441761204e-01  1.207747001676684e-17

 1.156161217511350e-17  4.102843947683277e-20 -1.086301671910312e+00
 4.102843947683277e-20  1.022285195489431e-17  4.877782291192182e-01
-1.086301671910312e+00  4.877782291192182e-01  9.701199034735530e-18

 1.040576199905939e-17  1.619114411955179e-20 -1.039580867248437e+00
 1.619114411955179e-20  9.190862261611066e-18  5.321076323726701e-01
-1.039580867248437e+00  5.321076323726701e-01  6.195456208848208e-18

 1.182324657069649e-17  5.682547577005536e-21 -1.099469660472768e+00
 5.682547577005536e-21  1.322434194052286e-17  4.728454422976153e-01
-1.099469660472768e+00  4.728454422976153e-01  1.077846186350420e-17

 1.375507718147891e-17 -5.203560918444451e-19 -1.106852527732634e+00
-5.203560918444451e-19  1.352929169263792e-17  4.279735744616717e-01
-1.106852527732634e+00  4.279735744616717e-01  1.178932910363088e-17

 1.172440922869769e-17 -6.854856396874609e-20 -1.077691347236695e+00
-6.854856396874609e-20  1.304897652038477e-17  4.366240772442986e-01
-1.077691347236695e+00  4.366240772442986e-01  1.002380413219010e-17

 1.784442330045362e-16 -5.525534872976769e-17 -1.060560571880417e+00
-5.525534872976769e-17  3.218050980682076e-17  4.449619552209746e-01
-1.060560571880417e+00  4.449619552209746e-01  9.104817291028122e-18

 1.782704918786769e-16 -5.525994357223662e-17 -1.051072550992390e+00
-5.525994357223662e-17  3.192658007486014e-17  4.488981291941863e-01
-1.051072550992390e+00  4.488981291941863e-01  8.652200285275847e-18

-2.789106006516524e-17  1.289608999257647e-17 -1.048557932072705e+00
 1.289608999257647e-17  9.434697101329648e-18  4.546941841151763e-01
-1.048557932072705e+00  4.546941841151763e-01  8.517476198839025e-18

 4.777155047712250e-18  2.070453095053534e-18 -1.051120478166941e+00
 2.070453095053534e-18  1.246130558343722e-17  4.513509097321691e-01
-1.051120478166941e+00  4.513509097321691e-01  8.658411079326461e-18

 1.192637554746953e-17 -2.829692008930823e-19 -1.052958782610703e+00
-2.829692008930823e-19  1.334231377070478e-17  4.502054292317284e-01
-1.052958782610703e+00  4.502054292317284e-01  8.683784802864243e-18

 1.158551575655245e-17 -5.896034808451434e-20 -1.068212950765813e+00
-5.896034808451434e-20  1.439969140368951e-17  4.449395409665567e-01
-1.068212950765813e+00  4.449395409665567e-01  9.519241881713291e-18

 1.149995079559122e-17  4.383472536745489e-20 -1.079302829298348e+00
 4.383472536745489e-20  1.466122838167477e-17  4.444420632094181e-01
-1.079302829298348e+00  4.444420632094181e-01  1.013128337723982e-17

 1.167353973462488e-17  3.135630342254110e-20 -1.083996336978515e+00
 3.135630342254110e-20  1.407923123569242e-17  4.505685245359320e-01
-1.083996336978515e+00  4.505685245359320e-01  1.034646182709408e-17

 1.149251903232368e-17  1.733233297740630e-20 -1.076415847894321e+00
 1.733233297740630e-20  1.347805171433463e-17  4.689988080633890e-01
-1.076415847894321e+00  4.689988080633890e-01  9.573663886757167e-18

 1.043026210594072e-17  1.334527059969423e-20 -1.033582218943181e+00
 1.334527059969423e-20  1.076958925099343e-17  5.089306719830455e-01
-1.033582218943181e+00  5.089306719830455e-01  6.360223151439938e-18

 1.142681578144632e-17  6.516407257809913e-21 -1.074109104116331e+00
 6.516407257809913e-21  1.501066998988473e-17  4.679389133960261e-01
-1.074109104116331e+00  4.679389133960261e-01  9.436740422571242e-18

 1.154464414580412e-17  5.569119247645718e-20 -1.077992339282785e+00
 5.569119247645718e-20  1.234798681789776e-17  4.413762319917531e-01
-1.077992339282785e+00  4.413762319917531e-01  1.003018070355701e-17

 1.119236129275003e-17  6.307649495900513e-20 -1.060545789517317e+00
 6.307649495900513e-20  1.309905706174148e-17  4.445441741931532e-01
-1.060545789517317e+00  4.445441741931532e-01  9.028601711552636e-18

 1.104876759473670e-17  8.515263141561277e-20 -1.050792295543347e+00
 8.515263141561277e-20  1.145774780977753e-17  4.453490196702806e-01
-1.050792295543347e+00  4.453490196702806e-01  8.635292634074051e-18

 1.097125770270008e-17  1.024447425687631e-19 -1.043609109227586e+00
 1.024447425687631e-19  1.116089314806322e-17  4.486492686965491e-01
-1.043609109227586e+00  4.486492686965491e-01  8.430320163042915e-18

 1.078313680077983e-17  1.426820748993304e-19 -1.029214548284561e+00
 1.426820748993304e-19  1.018892257938893e-17  4.430633266559917e-01
-1.029214548284561e+00  4.430633266559917e-01  7.980651746491940e-18

 1.063340905442648e-17  1.525747337336718e-19 -1.017887494212898e+00
 1.525747337336718e-19  1.204174251097164e-17  4.436851381135702e-01
-1.017887494212898e+00  4.436851381135702e-01  7.600916503808734e-18

 1.064009463126104e-17  1.578956957865762e-19 -1.015473347836674e+00
 1.578956957865762e-19  1.042738899741901e-17  4.397796923821016e-01
-1.015473347836674e+00  4.397796923821016e-01  7.650099902177651e-18

 1.066409928345631e-17  1.575488668235643e-19 -1.014012183192874e+00
 1.575488668235643e-19  1.207549073095835e-17  4.345134822455247e-01
-1.014012183192874e+00  4.345134822455247e-01  7.757464322631499e-18

 1.067058289582807e-17  1.685691080927839e-19 -1.012898726092741e+00
 1.685691080927839e-19  1.181876464773967e-17  4.369475490505654e-01
-1.012898726092741e+00  4.369475490505654e-01  7.726813426583834e-18

 1.076509780143119e-17  1.685049457979238e-19 -1.014902720199919e+00
 1.685049457979238e-19  1.265602709895297e-17  4.324664580373253e-01
-1.014902720199919e+00  4.324664580373253e-01  7.965372519152864e-18

 1.082725597270703e-17  1.948296699827376e-19 -1.015898550131182e+00
 1.948296699827376e-19  1.333577312735315e-17  4.295224002486469e-01
-1.015898550131182e+00  4.295224002486469e-01  8.107937004049468e-18

 1.084611914236587e-17  1.927893984685704e-19 -1.014163112109655e+00
 1.927893984685704e-19  1.287633493048896e-17  4.259116188722324e-01
-1.014163112109655e+00  4.259116188722324e-01  8.144337852144944e-18

 1.087070661682273e-17  1.965879765926166e-19 -1.013606386654943e+00
 1.965879765926166e-19  1.427850756126134e-17  4.243547351315657e-01
-1.013606386654943e+00  4.243547351315657e-01  8.228496635559345e-18

 1.092090159295522e-17  2.031612913780959e-19 -1.014287703088453e+00
 2.031612913780959e-19  1.339439492270108e-17  4.231071016839330e-01
-1.014287703088453e+00  4.231071016839330e-01  8.343088794472592e-18

 1.097251903445989e-17  1.967630057567112e-19 -1.014314862860571e+00
 1.967630057567112e-19  1.411808428351764e-17  4.223346031603195e-01
-1.014314862860571e+00  4.223346031603195e-01  8.418102254713554e-18

 1.098176031737169e-17  1.921200304884799e-19 -1.014388980444788e+00
 1.921200304884799e-19  1.354822812364688e-17  4.212615627229908e-01
-1.014388980444788e+00  4.212615627229908e-01  8.455255040522086e-18

 1.099455472493532e-17  1.885583883943872e-19 -1.014875502060644e+00
 1.885583883943872e-19  1.295457228357387e-17  4.208431399190927e-01
-1.014875502060644e+00  4.208431399190927e-01  8.490610863069433e-18

 1.102403441196086e-17  1.853893170526644e-19 -1.016205570530480e+00
 1.853893170526644e-19  1.237047757962297e-17  4.203651032587591e-01
-1.016205570530480e+00  4.203651032587591e-01  8.566143640299627e-18

 1.110639697171808e-17  1.722456580475137e-19 -1.019007295739660e+00
 1.722456580475137e-19  1.234219238062351e-17  4.211740028100504e-01
-1.019007295739660e+00  4.211740028100504e-01  8.710405255477832e-18

 1.106063230088877e-17  1.649776246064142e-19 -1.016594695170302e+00
 1.649776246064142e-19  1.352944128781057e-17  4.232424581832301e-01
-1.016594695170302e+00  4.232424581832301e-01  8.538636419209154e-18

 1.099816717544875e-17  1.517312371612619e-19 -1.013701540941596e+00
 1.517312371612619e-19  1.362401785015459e-17  4.188224110446915e-01
-1.013701540941596e+00  4.188224110446915e-01  8.394485230608418e-18

 1.109873157109918e-17  1.544240046382603e-19 -1.018128323174814e+00
 1.544240046382603e-19  1.357360876467111e-17  4.190046904765203e-01
-1.018128323174814e+00  4.190046904765203e-01  8.589902092258179e-18

 1.145082853210985e-17  1.627788365335864e-19 -1.034948222257574e+00
 1.627788365335864e-19  1.392102956102646e-17  4.228924884024693e-01
-1.034948222257574e+00  4.228924884024693e-01  9.464366755290957e-18

 1.142084619870533e-17  1.500145934250621e-19 -1.032899101131630e+00
 1.500145934250621e-19  1.411132320361167e-17  4.244326387590167e-01
-1.032899101131630e+00  4.244326387590167e-01  9.334116389384127e-18

 1.096549072208567e-17  1.327226877755002e-19 -1.012741430024592e+00
 1.327226877755002e-19  1.427434799258843e-17  4.183572601071107e-01
-1.012741430024592e+00  4.183572601071107e-01  8.192766429170472e-18

 1.115895648034884e-17  1.316232969977131e-19 -1.021805005936289e+00
 1.316232969977131e-19  1.297918975388783e-17  4.218790499186743e-01
-1.021805005936289e+00  4.218790499186743e-01  8.653839247721045e-18

 1.144162712121981e-17  1.217621840643326e-19 -1.035351866850045e+00
 1.217621840643326e-19  1.355032998435404e-17  4.300481438030435e-01
-1.035351866850045e+00  4.300481438030435e-01  9.277358072055457e-18

 1.156031630524986e-17  1.011092011366217e-19 -1.041674300678506e+00
 1.011092011366217e-19  1.398370503857617e-17  4.248402292099008e-01
-1.041674300678506e+00  4.248402292099008e-01  9.600799230023692e-18

 1.136446644372409e-17  9.250075331041838e-20 -1.033973792457407e+00
 9.250075331041838e-20  1.402383344225728e-17  4.334715364989265e-01
-1.033973792457407e+00  4.334715364989265e-01  8.967480229191523e-18

 1.150556803037492e-17  9.956309833785809e-20 -1.040272982940737e+00
 9.956309833785809e-20  1.155385799790412e-17  4.244130968696541e-01
-1.040272982940737e+00  4.244130968696541e-01  9.431635505128806e-18

 1.140109869990577e-17  8.947103951317008e-20 -1.036179267983316e+00
 8.947103951317008e-20  1.339644047071889e-17  4.290216831723964e-01
-1.036179267983316e+00  4.290216831723964e-01  9.104044408308698e-18

 1.140868584058404e-17  8.426294533429876e-20 -1.036420860282853e+00
 8.426294533429876e-20  1.332614422820149e-17  4.249699958303649e-01
-1.036420860282853e+00  4.249699958303649e-01  9.143313648131916e-18

 1.129697989648463e-17  7.100388744139466e-20 -1.032108626448954e+00
 7.100388744139466e-20  1.575221940765784e-17  4.347788368619695e-01
-1.032108626448954e+00  4.347788368619695e-01  8.711691029792073e-18

 1.141911569091824e-17  8.533725744357386e-20 -1.037198123654569e+00
 8.533725744357386e-20  1.313190555394470e-17  4.313550400292845e-01
-1.037198123654569e+00  4.313550400292845e-01  9.095150153466483e-18

 1.157378497251413e-17  7.428603607024730e-20 -1.042541077145230e+00
 7.428603607024730e-20  1.384729377596090e-17  4.230806021052092e-01
-1.042541077145230e+00  4.230806021052092e-01  9.574709182083770e-18

 1.130318997940310e-17  8.018502764392797e-20 -1.031027429597507e+00
 8.018502764392797e-20  1.526560502353982e-17  4.322369515669153e-01
-1.031027429597507e+00  4.322369515669153e-01  8.769600147065503e-18

 1.127783794021314e-17  9.432558328527678e-20 -1.028687819950890e+00
 9.432558328527678e-20  1.231723332988532e-17  4.267882593536267e-01
-1.028687819950890e+00  4.267882593536267e-01  8.748717081979117e-18

 1.120001546425069e-17  9.864360039524902e-20 -1.024326366487149e+00
 9.864360039524902e-20  1.235660094108656e-17  4.305722299913775e-01
-1.024326366487149e+00  4.305722299913775e-01  8.505124352305812e-18

 1.124571708041042e-17  8.964479061346480e-20 -1.026124312784834e+00
 8.964479061346480e-20  1.436278214067799e-17  4.295019349164904e-01
-1.026124312784834e+00  4.295019349164904e-01  8.648857508420909e-18

 1.124256121526959e-17  8.617145469942169e-20 -1.024734714390933e+00
 8.617145469942169e-20  1.521631314963223e-17  4.282909107741416e-01
-1.024734714390933e+00  4.282909107741416e-01  8.660019923698784e-18

 1.122945106460851e-17  9.076474930305628e-20 -1.023049890114228e+00
 9.076474930305628e-20  1.265446176978652e-17  4.280314815839693e-01
-1.023049890114228e+00  4.280314815839693e-01  8.637620904265264e-18

 1.120814917584107e-17  7.766084419375548e-20 -1.021038792941759e+00
 7.766084419375548e-20  1.485877150694419e-17  4.272100128324325e-01
-1.021038792941759e+00  4.272100128324325e-01  8.598069059555125e-18

 1.119775683838506e-17  9.017470099447180e-20 -1.019210535175677e+00
 9.017470099447180e-20  1.358856056944572e-17  4.260319430186552e-01
-1.019210535175677e+00  4.260319430186552e-01  8.577374611976058e-18

 1.119274500829917e-17  8.564226581703331e-20 -1.018509023120954e+00
 8.564226581703331e-20  1.282821257043892e-17  4.269925252120383e-01
-1.018509023120954e+00  4.269925252120383e-01  8.573828698582523e-18

 1.119244619242588e-17  7.392929403296131e-20 -1.018431892653863e+00
 7.392929403296131e-20  1.254284285355534e-17  4.258515254268722e-01
-1.018431892653863e+00  4.258515254268722e-01  8.588392824490197e-18

 1.121862956069602e-17  6.743317109484960e-20 -1.018899614480658e+00
 6.743317109484960e-20  1.356753484832692e-17  4.261615567133822e-01
-1.018899614480658e+00  4.261615567133822e-01  8.656478521935554e-18

 1.117464336145771e-17  7.005795653912318e-20 -1.017013745484270e+00
 7.005795653912318e-20  1.008699954200594e-17  4.267098104619886e-01
-1.017013745484270e+00  4.267098104619886e-01  8.542578239036286e-18

 1.114433796347000e-17  5.635694356439293e-20 -1.015816915952688e+00
 5.635694356439293e-20  1.083794756563259e-17  4.268211757791420e-01
-1.015816915952688e+00  4.268211757791420e-01  8.456126865721858e-18

 1.120882678952935e-17  5.201207656969429e-20 -1.018891145342398e+00
 5.201207656969429e-20  1.248282573727751e-17  4.283654660758341e-01
-1.018891145342398e+00  4.283654660758341e-01  8.600699478748254e-18

 1.122123047033425e-17  4.185694277972663e-20 -1.019812061399952e+00
 4.185694277972663e-20  1.356258015936354e-17  4.275590008954232e-01
-1.019812061399952e+00  4.275590008954232e-01  8.634076642798970e-18

 1.121474006084624e-17  4.397946275332332e-20 -1.020173727952801e+00
 4.397946275332332e-20  1.283557115122292e-17  4.287983874343212e-01
-1.020173727952801e+00  4.287983874343212e-01  8.607761861417017e-18

 1.122722918460803e-17  3.706778773792805e-20 -1.020006686053883e+00
 3.706778773792805e-20  1.320332474018162e-17  4.299505073797730e-01
-1.020006686053883e+00  4.299505073797730e-01  8.543733711298364e-18

 1.119985058160717e-17  3.466248952297623e-20 -1.019701679192053e+00
 3.466248952297623e-20  1.152957955497313e-17  4.278554705748302e-01
-1.019701679192053e+00  4.278554705748302e-01  8.568882061674862e-18

 1.122571108639411e-17  1.731399525404443e-20 -1.021094378734909e+00
 1.731399525404443e-20  1.690302810249904e-17  4.293167859146471e-01
-1.021094378734909e+00  4.293167859146471e-01  8.621093459018234e-18

 1.122988402346288e-17  2.094716397296096e-20 -1.021733996246936e+00
 2.094716397296096e-20  1.436720819168522e-17  4.308067617174271e-01
-1.021733996246936e+00  4.308067617174271e-01  8.616055346288107e-18

-2.473931276064865e-17 -8.915772100385351e-20  1.007343873228019e+00
-8.915772100385351e-20 -8.230277601751385e-18  4.170439199991093e-01
 1.007343873228019e+00  4.170439199991093e-01 -3.429489115583479e-17

-2.476898012174924e-17 -9.419881184700304e-20  1.009064643507882e+00
-9.419881184700304e-20 -4.320566679671865e-18  4.179358694374710e-01
 1.009064643507882e+00  4.179358694374710e-01 -3.435184234700943e-17

-2.468399928778531e-17 -8.222887054406974e-20  1.004285944768518e+00
-8.222887054406974e-20 -9.865059043066846e-18  4.169776391212099e-01
 1.004285944768518e+00  4.169776391212099e-01 -3.418739994972206e-17

-2.459544556252022e-17 -7.445206690238949e-20  9.993873642737537e-01
-7.445206690238949e-20 -9.265387404194457e-18  4.157164750238956e-01
 9.993873642737537e-01  4.157164750238956e-01 -3.400951450301342e-17

-2.474554325614216e-17 -1.124514354672934e-19  1.007709855879310e+00
-1.124514354672934e-19 -1.353695566054043e-17  4.195930051027880e-01
 1.007709855879310e+00  4.195930051027880e-01 -3.429572501440632e-17

-2.469756531733237e-17 -1.399039095139083e-19  1.005475386142137e+00
-1.399039095139083e-19 -3.595453590023183e-17  4.184672972707197e-01
 1.005475386142137e+00  4.184672972707197e-01 -3.420520854821088e-17

-2.470879813952436e-17 -1.429139696241983e-19  1.006837781052912e+00
-1.429139696241983e-19 -3.729247294510380e-17  4.165489694433401e-01
 1.006837781052912e+00  4.165489694433401e-01 -3.425099752000098e-17

-2.467637267331788e-17 -1.811847131951856e-19  1.004300564761994e+00
-1.811847131951856e-19 -6.830568044902777e-17  4.201888458880237e-01
 1.004300564761994e+00  4.201888458880237e-01 -3.415802414419638e-17

-2.475278796459964e-17 -4.174019846190264e-20  1.006825674644105e+00
-4.174019846190264e-20  6.707998446419656e-17  4.208983989353547e-01
 1.006825674644105e+00  4.208983989353547e-01 -3.424696429887281e-17

-2.472152327649984e-17 -7.743443161587960e-20  1.006914888831208e+00
-7.743443161587960e-20  3.894592353270837e-17  4.213492052220972e-01
 1.006914888831208e+00  4.213492052220972e-01 -3.425253525216318e-17

-2.473253770788453e-17 -1.223489994628833e-19  1.007444352465775e+00
-1.223489994628833e-19  6.985338602789163e-19  4.201962009380267e-01
 1.007444352465775e+00  4.201962009380267e-01 -3.427482907501390e-17

-2.473309704201089e-17 -1.251421610299567e-19  1.007565684557056e+00
-1.251421610299567e-19  4.391545524501660e-19  4.204026288589431e-01
 1.007565684557056e+00  4.204026288589431e-01 -3.427975610310479e-17

-2.473436957353419e-17 -1.391137957341861e-19  1.007286381286595e+00
-1.391137957341861e-19 -1.964184279974010e-17  4.207413396038602e-01
 1.007286381286595e+00  4.207413396038602e-01 -3.427247234634316e-17

-2.472709266311273e-17 -1.213609839436753e-19  1.007145452657485e+00
-1.213609839436753e-19  3.884034184741138e-18  4.207729055387064e-01
 1.007145452657485e+00  4.207729055387064e-01 -3.426763528561036e-17

-2.472495691094147e-17 -2.158878705898849e-19  1.007082414134125e+00
-2.158878705898849e-19 -1.245047637324756e-16  4.206920720924806e-01
 1.007082414134125e+00  4.206920720924806e-01 -3.427170860553855e-17

-2.474745088890539e-17 -1.441549979739532e-19  1.007560208963729e+00
-1.441549979739532e-19 -2.779353116624810e-17  4.207672354840661e-01
 1.007560208963729e+00  4.207672354840661e-01 -3.430266007379889e-17

-2.475303429918387e-17 -1.233704567064863e-19  1.007262562670897e+00
-1.233704567064863e-19 -6.626411868992011e-18  4.215806104181831e-01
 1.007262562670897e+00  4.215806104181831e-01 -3.430449401846760e-17

-2.479830294363098e-17 -1.120712756208362e-19  1.010644884340759e+00
-1.120712756208362e-19 -4.034560662941114e-18  4.174523128651328e-01
 1.010644884340759e+00  4.174523128651328e-01 -3.442981134706990e-17

-2.477791331758233e-17 -1.357607234019130e-19  1.006444328698885e+00
-1.357607234019130e-19 -6.786179687274116e-17  4.245609426245553e-01
 1.006444328698885e+00  4.245609426245553e-01 -3.429630651067765e-17

-2.486726879500751e-17 -9.435498673752993e-20  1.009712513859124e+00
-9.435498673752993e-20  1.977482103969266e-17  4.212139261798987e-01
 1.009712513859124e+00  4.212139261798987e-01 -3.441892841731229e-17

-2.490491716514106e-17 -7.426060729310002e-20  1.012568471428043e+00
-7.426060729310002e-20  3.569982132352123e-17  4.211311309647379e-01
 1.012568471428043e+00  4.211311309647379e-01 -3.454693822625885e-17

-2.506021473672594e-17 -7.845581048343229e-20  1.022481745527826e+00
-7.845581048343229e-20 -3.187932804511028e-18  4.128002499088673e-01
 1.022481745527826e+00  4.128002499088673e-01 -3.491189793028242e-17

-2.511505191700485e-17 -7.040639131102947e-20  1.023290426611324e+00
-7.040639131102947e-20  1.769322553383134e-17  4.190414487479810e-01
 1.023290426611324e+00  4.190414487479810e-01 -3.495485297838358e-17

-2.522418128384955e-17 -6.083202578538461e-20  1.028221536477246e+00
-6.083202578538461e-20  8.942537135005168e-19  4.218794754753523e-01
 1.028221536477246e+00  4.218794754753523e-01 -3.513559612856304e-17

-2.512231525794867e-17 -5.854384617510246e-20  1.019181799258046e+00
-5.854384617510246e-20  5.068194692502839e-17  4.241800547223707e-01
 1.019181799258046e+00  4.241800547223707e-01 -3.480706570523630e-17

-2.507316053178873e-17 -7.661414395218878e-20  1.016599112276191e+00
-7.661414395218878e-20 -6.190384018106248e-17  4.204064027394371e-01
 1.016599112276191e+00  4.204064027394371e-01 -3.468880871234994e-17

-2.515877689182997e-17 -9.319265584744045e-20  1.019981698557976e+00
-9.319265584744045e-20  1.097277165286955e-17  4.268478549720703e-01
 1.019981698557976e+00  4.268478549720703e-01 -3.479899373367636e-17

-2.535165855167492e-17 -1.194943650415594e-19  1.033391852079725e+00
-1.194943650415594e-19 -4.872090484728621e-17  4.232946565280582e-01
 1.033391852079725e+00  4.232946565280582e-01 -3.526678996239524e-17

-2.547254378946307e-17 -1.454568736097445e-19  1.043479794601043e+00
-1.454568736097445e-19  3.748225999534096e-17  4.187532198744400e-01
 1.043479794601043e+00  4.187532198744400e-01 -3.559984993202555e-17

-2.530746287797620e-17 -1.757965550948909e-19  1.032967548882078e+00
-1.757965550948909e-19 -4.346283502707117e-17  4.238585667394588e-01
 1.032967548882078e+00  4.238585667394588e-01 -3.518592551969881e-17

-2.523357187616475e-17 -1.988788249303718e-19  1.025719900852868e+00
-1.988788249303718e-19  3.977977016104822e-18  4.340443846264020e-01
 1.025719900852868e+00  4.340443846264020e-01 -3.492049094964403e-17

-2.510300510791642e-17 -1.960960517361871e-19  1.021053483043552e+00
-1.960960517361871e-19 -2.570215763688181e-17  4.332432170358735e-01
 1.021053483043552e+00  4.332432170358735e-01 -3.475807381681443e-17

-2.493726634731025e-17 -1.862891878504649e-19  1.012919394450486e+00
-1.862891878504649e-19 -4.898628007335195e-17  4.257609743273204e-01
 1.012919394450486e+00  4.257609743273204e-01 -3.446883397100138e-17

-2.492423254760689e-17 -1.782971876794284e-19  1.010956893884220e+00
-1.782971876794284e-19 -6.357267345272389e-18  4.285553324435770e-01
 1.010956893884220e+00  4.285553324435770e-01 -3.442365451997452e-17

-2.499034348930705e-17 -1.705224612550241e-19  1.017426824102551e+00
-1.705224612550241e-19  2.621522967296558e-17  4.222556061071486e-01
 1.017426824102551e+00  4.222556061071486e-01 -3.466509189403312e-17

-2.496619584519932e-17 -1.499499379532364e-19  1.013856292708958e+00
-1.499499379532364e-19 -2.531721827504959e-18  4.263962020249530e-01
 1.013856292708958e+00  4.263962020249530e-01 -3.455307073826242e-17

-2.497582803342953e-17 -1.489859339672594e-19  1.016615822305942e+00
-1.489859339672594e-19 -8.731330423276688e-18  4.174003845044625e-01
 1.016615822305942e+00  4.174003845044625e-01 -3.465454931192969e-17

-2.486925450304464e-17 -1.406581128183537e-19  1.007881004103460e+00
-1.406581128183537e-19  1.380147229319463e-17  4.228101625561074e-01
 1.007881004103460e+00  4.228101625561074e-01 -3.434003650705413e-17

-2.488080033275670e-17 -1.166212337432661e-19  1.008720030174648e+00
-1.166212337432661e-19 -5.808088210034593e-17  4.209919919413556e-01
 1.008720030174648e+00  4.209919919413556e-01 -3.437795340010756e-17

-2.491602602079862e-17 -1.271856924745468e-19  1.009303167138945e+00
-1.271856924745468e-19  1.591425349990278e-18  4.224522403741509e-01
 1.009303167138945e+00  4.224522403741509e-01 -3.441008642643160e-17

-2.497094394626886e-17 -1.094753845312887e-19  1.013506180523441e+00
-1.094753845312887e-19 -4.401517610595484e-17  4.198097717575189e-01
 1.013506180523441e+00  4.198097717575189e-01 -3.455562059427978e-17

-2.498746524336826e-17 -1.072796413821651e-19  1.012365197453081e+00
-1.072796413821651e-19 -4.865857207573198e-17  4.221174085930933e-01
 1.012365197453081e+00  4.221174085930933e-01 -3.451900444909733e-17

-2.498979114049179e-17 -9.001728468898134e-20  1.013352794310706e+00
-9.001728468898134e-20 -6.218149248852595e-17  4.200462390891498e-01
 1.013352794310706e+00  4.200462390891498e-01 -3.455960295434701e-17

-2.507356749856322e-17 -8.928124795674021e-20  1.013917621627964e+00
-8.928124795674021e-20 -7.768804107703627e-17  4.205331857112672e-01
 1.013917621627964e+00  4.205331857112672e-01 -3.458085465593670e-17

-2.500944987178001e-17 -1.206961566816041e-19  1.013199884448212e+00
-1.206961566816041e-19 -1.921115533702903e-18  4.195538286832198e-01
 1.013199884448212e+00  4.195538286832198e-01 -3.455986901954949e-17

-2.501467594997659e-17 -1.208717959952623e-19  1.013442689608065e+00
-1.208717959952623e-19 -1.544409138361276e-18  4.201886982383788e-01
 1.013442689608065e+00  4.201886982383788e-01 -3.456354004570012e-17

-2.503878182147545e-17 -7.888243049721473e-20  1.015144300071916e+00
-7.888243049721473e-20 -7.413293346329519e-17  4.176972383744988e-01
 1.015144300071916e+00  4.176972383744988e-01 -3.462488871915287e-17

-2.505682045318727e-17 -8.097634277645544e-20  1.015061914142370e+00
-8.097634277645544e-20 -7.770662558934063e-17  4.187734393930687e-01
 1.015061914142370e+00  4.187734393930687e-01 -3.463003635999996e-17

-2.505584122608573e-17 -1.114635584799289e-19  1.014182518397282e+00
-1.114635584799289e-19 -1.747951524719362e-17  4.231780423073886e-01
 1.014182518397282e+00  4.231780423073886e-01 -3.459728517250686e-17

-2.502559216384650e-17 -1.005694702335710e-19  1.010795227888915e+00
-1.005694702335710e-19 -3.054843322434864e-17  4.234344337005717e-01
 1.010795227888915e+00  4.234344337005717e-01 -3.446668556899443e-17

-2.504583002331592e-17 -1.178758889553221e-19  1.013252562812760e+00
-1.178758889553221e-19 -1.831739317245470e-18  4.153138091503304e-01
 1.013252562812760e+00  4.153138091503304e-01 -3.454405437980606e-17

-2.501879486238084e-17 -1.142215871769168e-19  1.012983393613999e+00
-1.142215871769168e-19 -1.745248444165205e-17  4.138760161001824e-01
 1.012983393613999e+00  4.138760161001824e-01 -3.453004069729471e-17

-2.498651485541562e-17 -1.137273887499459e-19  1.007802536061310e+00
-1.137273887499459e-19 -2.167938179346056e-17  4.265266601092648e-01
 1.007802536061310e+00  4.265266601092648e-01 -3.436402102872086e-17

-2.507267874712018e-17 -1.469373495947470e-19  1.014626156274294e+00
-1.469373495947470e-19  3.994218043335250e-17  4.171844349082345e-01
 1.014626156274294e+00  4.171844349082345e-01 -3.460979052928807e-17

-2.510329403198011e-17 -7.582213058800316e-20  1.017883176508847e+00
-7.582213058800316e-20 -9.702067493046504e-17  4.135617590529802e-01
 1.017883176508847e+00  4.135617590529802e-01 -3.471810229216244e-17

-2.504012800197071e-17 -9.491186263072749e-20  1.010933874229387e+00
-9.491186263072749e-20 -4.178554885318824e-17  4.198356124237456e-01
 1.010933874229387e+00  4.198356124237456e-01 -3.448405483452755e-17

-2.509399339838406e-17 -7.659250843633055e-20  1.010584298834090e+00
-7.659250843633055e-20 -5.859656231202976e-17  4.227626331007314e-01
 1.010584298834090e+00  4.227626331007314e-01 -3.447362941144233e-17

-2.504143588093277e-17 -6.899768967831597e-20  1.009270938918011e+00
-6.899768967831597e-20 -7.412085042426609e-17  4.212701725556078e-01
 1.009270938918011e+00  4.212701725556078e-01 -3.442913707214288e-17

-2.505591367441210e-17 -1.375610608974478e-19  1.009434989381511e+00
-1.375610608974478e-19  3.149483783031524e-17  4.182302666857496e-01
 1.009434989381511e+00  4.182302666857496e-01 -3.443247842078378e-17

-2.511364654993875e-17 -1.490175439529360e-19  1.011346075990594e+00
-1.490175439529360e-19  4.628609897138623e-17  4.207064379449221e-01
 1.011346075990594e+00  4.207064379449221e-01 -3.451397313777816e-17

-2.517165871600693e-17 -1.204608244507158e-19  1.015063250020047e+00
-1.204608244507158e-19  3.417177100414882e-18  4.217757721065036e-01
 1.015063250020047e+00  4.217757721065036e-01 -3.464990661887464e-17

-2.519782884525973e-17 -1.222590235241544e-19  1.016181899063539e+00
-1.222590235241544e-19  1.764069767635633e-17  4.192113735219569e-01
 1.016181899063539e+00  4.192113735219569e-01 -3.468903406557188e-17

-2.519003713556165e-17 -8.585325867603022e-20  1.014118938126398e+00
-8.585325867603022e-20 -4.053783505227234e-17  4.186730978286474e-01
 1.014118938126398e+00  4.186730978286474e-01 -3.461372441194033e-17

-2.513976238649618e-17 -8.065315096443258e-20  1.010144757832482e+00
-8.065315096443258e-20 -3.699115965929304e-17  4.216472670959667e-01
 1.010144757832482e+00  4.216472670959667e-01 -3.448252412587701e-17

-2.518837036992548e-17 -9.041348093975714e-20  1.014170086179859e+00
-9.041348093975714e-20 -3.466337849929040e-17  4.193160036674232e-01
 1.014170086179859e+00  4.193160036674232e-01 -3.462648964657190e-17

-2.520799179720479e-17 -7.227419218853662e-20  1.013369474228021e+00
-7.227419218853662e-20 -4.114279946278679e-17  4.197553859466852e-01
 1.013369474228021e+00  4.197553859466852e-01 -3.460038043759990e-17

-2.521745910863552e-17 -1.401337625841897e-19  1.014861020156555e+00
-1.401337625841897e-19  3.427938624688389e-17  4.163799833330772e-01
 1.014861020156555e+00  4.163799833330772e-01 -3.465873679752866e-17

-2.520161602770627e-17 -5.688726866496128e-20  1.011031418965383e+00
-5.688726866496128e-20 -4.940349995873187e-17  4.220470075329250e-01
 1.011031418965383e+00  4.220470075329250e-01 -3.453766343106551e-17

-2.525018961548262e-17 -1.341706612791046e-19  1.013665328289393e+00
-1.341706612791046e-19  4.157988699810439e-17  4.202503139190246e-01
 1.013665328289393e+00  4.202503139190246e-01 -3.463507901494706e-17

-2.524009215095863e-17 -1.292146992027506e-19  1.012814290557013e+00
-1.292146992027506e-19  4.115799824336838e-17  4.178722561994673e-01
 1.012814290557013e+00  4.178722561994673e-01 -3.460733231722050e-17

-2.526376639337974e-17 -7.189016279572715e-20  1.013271518393687e+00
-7.189016279572715e-20 -3.203260997853877e-17  4.184647375198927e-01
 1.013271518393687e+00  4.184647375198927e-01 -3.462500455880502e-17

-2.529684822507260e-17 -6.378764876681413e-20  1.013740015299628e+00
-6.378764876681413e-20 -3.941574020572364e-17  4.190352105521544e-01
 1.013740015299628e+00  4.190352105521544e-01 -3.465266465903913e-17

-2.531441661527301e-17 -5.941743192023805e-20  1.014318681442683e+00
-5.941743192023805e-20 -3.608501541003603e-17  4.201845113392713e-01
 1.014318681442683e+00  4.201845113392713e-01 -3.467479939344641e-17

-2.539706137151497e-17 -9.182702969058705e-20  1.019984814206844e+00
-9.182702969058705e-20  5.930661705731624e-18  4.135341994579478e-01
 1.019984814206844e+00  4.135341994579478e-01 -3.487600406296660e-17

-2.535320137781048e-17 -8.048666910138997e-20  1.008026000894364e+00
-8.048666910138997e-20  5.099885850085298e-18  4.262529419461338e-01
 1.008026000894364e+00  4.262529419461338e-01 -3.446374054271239e-17

-2.533303516252397e-17 -4.963616721268488e-20  1.011745833200155e+00
-4.963616721268488e-20 -2.227142977665885e-17  4.192972763078815e-01
 1.011745833200155e+00  4.192972763078815e-01 -3.459091564941995e-17

-2.541340080843657e-17 -4.569651367589191e-20  1.017233143506813e+00
-4.569651367589191e-20 -2.490625461609013e-17  4.158559857100709e-01
 1.017233143506813e+00  4.158559857100709e-01 -3.480229972466280e-17

-2.559422391953664e-17 -7.333389779222293e-20  1.028663210116671e+00
-7.333389779222293e-20  1.065758846906112e-17  4.112668680076784e-01
 1.028663210116671e+00  4.112668680076784e-01 -3.522385274779871e-17

-2.533572474551431e-17 -4.375640966187016e-20  1.003051175385030e+00
-4.375640966187016e-20 -2.371342521185264e-17  4.336050642439167e-01
 1.003051175385030e+00  4.336050642439167e-01 -3.433069509258753e-17

-2.540900867594654e-17 -1.116268538185421e-19  1.009383789528212e+00
-1.116268538185421e-19  6.247679005352559e-17  4.262529987140016e-01
 1.009383789528212e+00  4.262529987140016e-01 -3.455597506707391e-17

-2.553076363926064e-17 -7.943211410077270e-20  1.021186333758289e+00
-7.943211410077270e-20  1.730390134994304e-17  4.150481777648969e-01
 1.021186333758289e+00  4.150481777648969e-01 -3.496691025783467e-17

-2.551096010454166e-17  1.038890605807232e-20  1.014954069157484e+00
 1.038890605807232e-20 -7.677843675810605e-17  4.175629483438110e-01
 1.014954069157484e+00  4.175629483438110e-01 -3.474334819213240e-17

-2.549622913793218e-17 -8.723651010139184e-20  1.018044746192187e+00
-8.723651010139184e-20  4.482738398979637e-17  4.131572696551719e-01
 1.018044746192187e+00  4.131572696551719e-01 -3.485398978719451e-17

-2.550408543970367e-17 -2.104416556905491e-20  1.018275448672346e+00
-2.104416556905491e-20 -4.084065782743582e-17  4.131392418454817e-01
 1.018275448672346e+00  4.131392418454817e-01 -3.486002912808483e-17

-2.549401812773004e-17 -8.057575692319452e-20  1.011867814082047e+00
-8.057575692319452e-20  6.592598802657877e-17  4.165775920309619e-01
 1.011867814082047e+00  4.165775920309619e-01 -3.462744516271993e-17

-2.534446972240493e-17 -7.353587881555212e-20  1.005595969603295e+00
-7.353587881555212e-20  6.067641535288535e-17  4.171100827502795e-01
 1.005595969603295e+00  4.171100827502795e-01 -3.439524781100430e-17

-2.526959933523547e-17 -2.591525150176192e-21  9.976326852313836e-01
-2.591525150176192e-21 -6.923622890663342e-17  4.230199302837598e-01
 9.976326852313836e-01  4.230199302837598e-01 -3.411058658093291e-17

-2.538600146136012e-17 -3.571410766048875e-20  1.006001845151318e+00
-3.571410766048875e-20 -1.523251584256554e-17  4.168425982244638e-01
 1.006001845151318e+00  4.168425982244638e-01 -3.441739007646873e-17

-2.559079357352286e-17 -8.835158163040726e-20  1.021330797874903e+00
-8.835158163040726e-20  8.812132821383441e-17  4.100268480759457e-01
 1.021330797874903e+00  4.100268480759457e-01 -3.496455780541119e-17

-2.541234864941787e-17 -2.534632669204963e-20  1.006198396202173e+00
-2.534632669204963e-20 -3.876689569346403e-17  4.182710686946336e-01
 1.006198396202173e+00  4.182710686946336e-01 -3.442071837231270e-17

-2.540554367747940e-17 -5.634287541324984e-20  1.002985069160170e+00
-5.634287541324984e-20  3.026290503142497e-17  4.216669535233852e-01
 1.002985069160170e+00  4.216669535233852e-01 -3.430673160948651e-17

-2.560639183428674e-17 -3.480459740068111e-20  1.014828793745581e+00
-3.480459740068111e-20 -1.775973545594154e-17  4.100742288132352e-01
 1.014828793745581e+00  4.100742288132352e-01 -3.472799844016039e-17

-2.559451532597815e-17 -1.283869573281388e-20  1.013738341204013e+00
-1.283869573281388e-20 -6.591313772070767e-17  4.122694521909801e-01
 1.013738341204013e+00  4.122694521909801e-01 -3.470029142061494e-17

-2.572359017367271e-17 -6.479206158554825e-20  1.020965325098310e+00
-6.479206158554825e-20  9.923622337548840e-17  4.123726448558689e-01
 1.020965325098310e+00  4.123726448558689e-01 -3.496591602521338e-17

-2.565839356617077e-17 -1.889229634699204e-20  1.016470323776776e+00
-1.889229634699204e-20 -5.307579947265423e-17  4.079732600753195e-01
 1.016470323776776e+00  4.079732600753195e-01 -3.480375704535684e-17

-2.548081177920644e-17 -1.297452089260359e-20  1.002275691354332e+00
-1.297452089260359e-20 -3.406289743180044e-17  4.164981557956583e-01
 1.002275691354332e+00  4.164981557956583e-01 -3.428231840448451e-17

-2.552785204373798e-17 -3.564375323158874e-20  1.001820174131678e+00
-3.564375323158874e-20 -4.273956965750210e-18  4.189210597208359e-01
 1.001820174131678e+00  4.189210597208359e-01 -3.426357879371729e-17

-2.551587571702197e-17 -2.948988499972526e-20  1.001168066556724e+00
-2.948988499972526e-20 -3.041611961529365e-17  4.219195761813516e-01
 1.001168066556724e+00  4.219195761813516e-01 -3.424462397038265e-17

-2.567228004193253e-17 -3.778446527487058e-20  1.013077671864218e+00
-3.778446527487058e-20 -1.942319224692358e-17  4.103371074480788e-01
 1.013077671864218e+00  4.103371074480788e-01 -3.466641365027347e-17

-2.558500603023048e-17 -1.463565966102525e-20  1.004197687837425e+00
-1.463565966102525e-20 -1.163644885693375e-16  4.194653652184971e-01
 1.004197687837425e+00  4.194653652184971e-01 -3.435610742776192e-17

-2.560823131143205e-17 -4.012750827046116e-20  1.004055396851919e+00
-4.012750827046116e-20 -4.835835803204319e-17  4.179052722572711e-01
 1.004055396851919e+00  4.179052722572711e-01 -3.434754470182741e-17

-2.566202962062679e-17 -6.155383435868072e-20  1.001232318457207e+00
-6.155383435868072e-20 -7.095793386552703e-17  4.252870884596955e-01
 1.001232318457207e+00  4.252870884596955e-01 -3.425528585448358e-17

-2.569023871743689e-17 -4.414548712018881e-20  1.006238049299217e+00
-4.414548712018881e-20 -3.625960816442819e-17  4.154947394000839e-01
 1.006238049299217e+00  4.154947394000839e-01 -3.442978098527426e-17

-2.577565356096464e-17 -4.141043331779351e-20  1.007742326266069e+00
-4.141043331779351e-20  1.358573753765644e-16  4.170866073651996e-01
 1.007742326266069e+00  4.170866073651996e-01 -3.448760159694822e-17

-2.576920631051114e-17 -4.364261199952211e-20  1.006230573201706e+00
-4.364261199952211e-20  1.358111444109434e-16  4.176322783876434e-01
 1.006230573201706e+00  4.176322783876434e-01 -3.443336216905491e-17

-2.576152500972068e-17 -4.153395697607283e-20  1.004574359302108e+00
-4.153395697607283e-20 -6.380589281681378e-17  4.157413893928124e-01
 1.004574359302108e+00  4.157413893928124e-01 -3.436314421604116e-17

-2.577308261386471e-17 -4.736001733241084e-20  1.002799072735267e+00
-4.736001733241084e-20 -1.983434778151970e-17  4.187469725205619e-01
 1.002799072735267e+00  4.187469725205619e-01 -3.430002875365490e-17

-2.575903167626415e-17 -6.612463710612543e-20  9.991308862494759e-01
-6.612463710612543e-20 -7.666958009215302e-17  4.226539232843923e-01
 9.991308862494759e-01  4.226539232843923e-01 -3.417643654831924e-17

-2.582857713043802e-17 -4.768303758259840e-20  1.004678662152330e+00
-4.768303758259840e-20  4.570132579746572e-17  4.151008195996601e-01
 1.004678662152330e+00  4.151008195996601e-01 -3.436569600834011e-17

-2.589059859251775e-17 -6.995941211460579e-20  1.005879951861588e+00
-6.995941211460579e-20 -8.500991932791758e-17  4.180327574223744e-01
 1.005879951861588e+00  4.180327574223744e-01 -3.441383997651230e-17

-2.593084344685458e-17 -7.855077721472388e-20  1.006034521937045e+00
-7.855077721472388e-20 -1.457152446356396e-17  4.169982870572146e-01
 1.006034521937045e+00  4.169982870572146e-01 -3.441901971167420e-17

-2.593730782814823e-17 -8.029336930093100e-20  1.004322407184512e+00
-8.029336930093100e-20 -2.841277315249001e-17  4.180450393320682e-01
 1.004322407184512e+00  4.180450393320682e-01 -3.435169474181856e-17

-2.601853204028604e-17 -1.000721047596460e-19  1.007720009939986e+00
-1.000721047596460e-19 -1.677153124021991e-16  4.184132275998979e-01
 1.007720009939986e+00  4.184132275998979e-01 -3.447077347397144e-17

-2.590124345726455e-17 -8.786876262273026e-20  9.983549671284511e-01
-8.786876262273026e-20 -9.881972115125248e-17  4.311533563714183e-01
 9.983549671284511e-01  4.311533563714183e-01 -3.412949135456439e-17

-2.544467474721688e-17 -8.460901665492467e-20  9.602414428381114e-01
-8.460901665492467e-20 -1.257516561257119e-16  4.583999323082001e-01
 9.602414428381114e-01  4.583999323082001e-01 -3.275039033938438e-17

-2.541983953029088e-17 -1.476702075357117e-19  9.709097321402508e-01
-1.476702075357117e-19 -1.825510828056597e-16  4.099215121408261e-01
 9.709097321402508e-01  4.099215121408261e-01 -3.309324350169427e-17

-2.581578326976168e-17  1.173853899078460e-20  1.007470724202635e+00
 1.173853899078460e-20  1.454117121613122e-16  3.618667407611406e-01
 1.007470724202635e+00  3.618667407611406e-01 -3.429150131454350e-17

-2.564537829078198e-17 -1.165645230777261e-19  9.680977762035137e-01
-1.165645230777261e-19  2.469674841742936e-17  4.454904198435284e-01
 9.680977762035137e-01  4.454904198435284e-01 -3.307131601176930e-17

-2.617555591294794e-17 -1.378950084921358e-19  1.001495016447063e+00
-1.378950084921358e-19 -7.723725783266036e-17  4.484170146209767e-01
 1.001495016447063e+00  4.484170146209767e-01 -3.433138940459588e-17

-2.629106054909284e-17 -9.415905109582433e-20  1.007292369267792e+00
-9.415905109582433e-20  1.923264249992802e-17  4.439901707697632e-01
 1.007292369267792e+00  4.439901707697632e-01 -3.448267440732628e-17

-2.647749310925885e-17 -7.862149388507242e-20  1.044269217363578e+00
-7.862149388507242e-20 -1.521941618620550e-17  3.366254130683340e-01
 1.044269217363578e+00  3.366254130683340e-01 -3.564347306243311e-17

-2.661886306081713e-17 -8.438308837242626e-20  1.046945943391984e+00
-8.438308837242626e-20  5.338362823824788e-17  3.572295067016964e-01
 1.046945943391984e+00  3.572295067016964e-01 -3.578726066079977e-17

-2.641136804085355e-17 -1.598652547126918e-19  1.002138361327575e+00
-1.598652547126918e-19 -2.430501997851337e-17  4.549758497647924e-01
 1.002138361327575e+00  4.549758497647924e-01 -3.443154753429437e-17

-2.662050284802304e-17 -1.395458495814599e-19  1.022264029811355e+00
-1.395458495814599e-19 -2.732744701424335e-17  4.151130650181929e-01
 1.022264029811355e+00  4.151130650181929e-01 -3.505511327982434e-17

-2.647642448743101e-17 -1.299215190753627e-19  1.008099774604730e+00
-1.299215190753627e-19  7.009740065077231e-18  4.266336922049897e-01
 1.008099774604730e+00  4.266336922049897e-01 -3.454627419136718e-17

-2.649863724637730e-17 -1.326026439725000e-19  1.006686851078200e+00
-1.326026439725000e-19 -2.912537267032685e-17  4.279600877346860e-01
 1.006686851078200e+00  4.279600877346860e-01 -3.451000771329209e-17

-2.623447609720921e-17 -1.445767944639693e-19  9.789484106520916e-01
-1.445767944639693e-19  1.938163043590075e-17  4.572345547875105e-01
 9.789484106520916e-01  4.572345547875105e-01 -3.354554992356310e-17

-2.649674881254713e-17 -1.417120395038034e-19  1.006976719981782e+00
-1.417120395038034e-19 -1.955369472209883e-17  4.183401312523320e-01
 1.006976719981782e+00  4.183401312523320e-01 -3.452492080511802e-17

-2.613082833039933e-17 -1.126674974128749e-19  9.758532640519934e-01
-1.126674974128749e-19 -3.500815125780910e-17  4.314222460730827e-01
 9.758532640519934e-01  4.314222460730827e-01 -3.341329302896017e-17

-2.679220097743144e-17 -9.366869968855213e-20  1.035234843179700e+00
-9.366869968855213e-20 -1.001342420327334e-17  3.685537755319103e-01
 1.035234843179700e+00  3.685537755319103e-01 -3.550139723053491e-17

-2.670366483861843e-17 -8.917364005461381e-20  1.018969929669190e+00
-8.917364005461381e-20 -8.644813800768918e-18  3.947462361802104e-01
 1.018969929669190e+00  3.947462361802104e-01 -3.496695125499088e-17

-2.663950851718130e-17 -9.358020768953725e-20  9.953152535007790e-01
-9.358020768953725e-20 -4.587586131296670e-17  4.428703771626115e-01
 9.953152535007790e-01  4.428703771626115e-01 -3.425724137688982e-17

-2.740921596191143e-17 -9.404486646112476e-21  1.064348597841690e+00
-9.404486646112476e-21 -2.578277605445135e-17  3.429334045088313e-01
 1.064348597841690e+00  3.429334045088313e-01 -3.660529361943830e-17

-2.735149995494713e-17 -1.279708592769845e-19  1.038611924472176e+00
-1.279708592769845e-19  8.253048777761447e-17  3.993317106668013e-01
 1.038611924472176e+00  3.993317106668013e-01 -3.587484968156508e-17

-2.774128190220013e-17 -4.212297061458435e-20  1.043517307518857e+00
-4.212297061458435e-20 -5.353306682033986e-18  4.383175849918134e-01
 1.043517307518857e+00  4.383175849918134e-01 -3.623972675973519e-17

-2.760596289056607e-17  5.360138418059372e-20  1.034276389645124e+00
 5.360138418059372e-20 -1.407338398740498e-18  4.077312817316038e-01
 1.034276389645124e+00  4.077312817316038e-01 -3.587804576516489e-17

-2.742265234855799e-17  1.056836434447289e-19  1.015955311453871e+00
 1.056836434447289e-19  3.176620494774554e-18  4.119367558201569e-01
 1.015955311453871e+00  4.119367558201569e-01 -3.523839953200355e-17

-2.766169341381537e-17  9.931463051203289e-20  1.019729082244751e+00
 9.931463051203289e-20 -1.648797734766522e-17  4.201662013770224e-01
 1.019729082244751e+00  4.201662013770224e-01 -3.539997683476550e-17

-2.770141017502104e-17  1.188231727276907e-19  1.014636391473567e+00
 1.188231727276907e-19 -5.429884168500928e-17  4.185989621339357e-01
 1.014636391473567e+00  4.185989621339357e-01 -3.520981025924041e-17

-2.773731167809705e-17  1.365195596986587e-19  1.007428539257225e+00
 1.365195596986587e-19 -5.215043472799834e-17  4.279620803870437e-01
 1.007428539257225e+00  4.279620803870437e-01 -3.495290952563726e-17

-2.811311867704047e-17  1.337576194058900e-19  1.026443893091393e+00
 1.337576194058900e-19 -5.700620248276153e-17  4.159045748396253e-01
 1.026443893091393e+00  4.159045748396253e-01 -3.563590781135627e-17

-2.816582648652198e-17  8.617431517136605e-20  1.027126717100304e+00
 8.617431517136605e-20  7.826846535995954e-18  4.213997385594301e-01
 1.027126717100304e+00  4.213997385594301e-01 -3.568366246210532e-17

-2.816998570469809e-17  1.443211629203601e-19  1.018499499682223e+00
 1.443211629203601e-19 -4.507177171428376e-17  4.208697543602651e-01
 1.018499499682223e+00  4.208697543602651e-01 -3.539030342607354e-17

-2.856824252850313e-17  1.311291453753070e-19  1.034101477707347e+00
 1.311291453753070e-19 -6.530064036451402e-17  4.204868123134854e-01
 1.034101477707347e+00  4.204868123134854e-01 -3.601280064428434e-17

-2.901277646223700e-17  1.837042285129486e-19  1.051287520798772e+00
 1.837042285129486e-19 -9.506375270722208e-17  4.142578391424878e-01
 1.051287520798772e+00  4.142578391424878e-01 -3.670516807992006e-17

-2.848862717343157e-17  1.848401249282644e-19  9.907679686452848e-01
 1.848401249282644e-19 -3.751436346177874e-17  4.768510651619663e-01
 9.907679686452848e-01  4.768510651619663e-01 -3.459553992074338e-17

-2.877643527127215e-17  1.851605468940013e-19  1.018382973916557e+00
 1.851605468940013e-19 -3.412922132524433e-17  4.309877198553424e-01
 1.018382973916557e+00  4.309877198553424e-01 -3.556229843435200e-17

-2.891941186652136e-17  1.186796470259987e-19  1.023077287300619e+00
 1.186796470259987e-19  1.163483321061263e-16  4.230747839237299e-01
 1.023077287300619e+00  4.230747839237299e-01 -3.576083763560645e-17

-2.906442127057228e-17  1.664016194279997e-19  1.027385562700139e+00
 1.664016194279997e-19  3.783450922185480e-17  4.156747759337126e-01
 1.027385562700139e+00  4.156747759337126e-01 -3.594239758036957e-17

-2.884340085019187e-17  1.895767834638639e-19  9.998975328331242e-01
 1.895767834638639e-19  5.991152188412421e-17  4.303123075684968e-01
 9.998975328331242e-01  4.303123075684968e-01 -3.498898368654132e-17

-2.916814693752716e-17  2.386965686429141e-19  1.017985735548568e+00
 2.386965686429141e-19  5.182238730408135e-17  4.239690552162109e-01
 1.017985735548568e+00  4.239690552162109e-01 -3.567059231724898e-17

-2.928309209459416e-17  2.688536826371468e-19  1.020720221739058e+00
 2.688536826371468e-19 -4.879971325376856e-17  4.171501586847450e-01
 1.020720221739058e+00  4.171501586847450e-01 -3.579153411015560e-17

-2.909983345154834e-17  2.876521478901089e-19  9.991433542068444e-01
 2.876521478901089e-19  1.863102852176894e-17  4.231918122852951e-01
 9.991433542068444e-01  4.231918122852951e-01 -3.504434537351380e-17

-2.951065460975640e-17  2.720518476028914e-19  1.020706300659398e+00
 2.720518476028914e-19  4.544249686040221e-17  4.118549488523842e-01
 1.020706300659398e+00  4.118549488523842e-01 -3.586363660784504e-17

-2.976858454968132e-17  3.371421355943476e-19  1.024863537844277e+00
 3.371421355943476e-19 -5.287440001718845e-17  4.189607553477706e-01
 1.024863537844277e+00  4.189607553477706e-01 -3.608733573696956e-17

-2.960145310162794e-17  3.842967555927837e-19  9.951958947875088e-01
 3.842967555927837e-19 -7.624733316014487e-17  4.379046043218195e-01
 9.951958947875088e-01  4.379046043218195e-01 -3.507476489087227e-17

-2.961089414653796e-17  3.437510608899440e-19  9.852488429144515e-01
 3.437510608899440e-19  4.913482061873272e-17  4.450988971706559e-01
 9.852488429144515e-01  4.450988971706559e-01 -3.476042745913784e-17

-3.031928515118938e-17  3.641190403812983e-19  1.033448610147848e+00
 3.641190403812983e-19  5.607817034866239e-17  4.089079464247496e-01
 1.033448610147848e+00  4.089079464247496e-01 -3.652947504983880e-17

-3.021640764918741e-17  4.475215954192937e-19  1.004740288398573e+00
 4.475215954192937e-19  3.224117479353216e-17  4.321230063515712e-01
 1.004740288398573e+00  4.321230063515712e-01 -3.557028810295361e-17

-3.040765810651825e-17  5.462116766064187e-19  9.918200126147021e-01
 5.462116766064187e-19 -1.227620603341629e-16  4.201695051180028e-01
 9.918200126147021e-01  4.201695051180028e-01 -3.521950958150632e-17

-3.116964277242231e-17  6.284254938565108e-19  1.012546470154239e+00
 6.284254938565108e-19 -1.165645183223731e-16  4.265212604516639e-01
 1.012546470154239e+00  4.265212604516639e-01 -3.611816089474884e-17

-3.143915647738292e-17  6.582810004366626e-19  1.017731715542820e+00
 6.582810004366626e-19 -3.279490126550499e-17  4.144186742377897e-01
 1.017731715542820e+00  4.144186742377897e-01 -3.637341693826202e-17

-3.169642768312317e-17  7.711101744932852e-19  9.991423139535948e-01
 7.711101744932852e-19  3.207548702516294e-18  4.196160507041923e-01
 9.991423139535948e-01  4.196160507041923e-01 -3.586029388363444e-17

-3.221157808628338e-17  8.647923222358666e-19  9.993851214939958e-01
 8.647923222358666e-19 -7.586200097103930e-17  4.145376513449061e-01
 9.993851214939958e-01  4.145376513449061e-01 -3.602569884524459e-17

-3.293186384952923e-17  1.010741597915827e-18  1.006567730483118e+00
 1.010741597915827e-18 -1.933528307494880e-17  4.233527604953680e-01
 1.006567730483118e+00  4.233527604953680e-01 -3.649089877252880e-17

-3.365167406790777e-17  1.187443607271424e-18  1.006483348183839e+00
 1.187443607271424e-18 -2.067506534651212e-17  4.194133609206087e-01
 1.006483348183839e+00  4.194133609206087e-01 -3.673709428108705e-17

-3.408121821110130e-17  1.276975230068948e-18  1.001189619895426e+00
 1.276975230068948e-18  3.672167173584817e-17  4.210722110922369e-01
 1.001189619895426e+00  4.210722110922369e-01 -3.669909305145704e-17

-3.449986720171162e-17  1.405038952642948e-18  1.002457637748139e+00
 1.405038952642948e-18 -1.319633640086080e-18  4.155126585886482e-01
 1.002457637748139e+00  4.155126585886482e-01 -3.687452412609341e-17

-3.508218515721877e-17  1.537592653248668e-18  1.001766103849495e+00
 1.537592653248668e-18  5.568371863584948e-17  4.187232784527159e-01
 1.001766103849495e+00  4.187232784527159e-01 -3.704319937665010e-17

-3.579152450824401e-17  1.736151218134873e-18  1.002681675613778e+00
 1.736151218134873e-18  2.894632582282015e-18  4.206396719955594e-01
 1.002681675613778e+00  4.206396719955594e-01 -3.731599115294335e-17

-3.659713667901245e-17  1.938761088678054e-18  1.004487250412428e+00
 1.938761088678054e-18 -4.822062351613223e-17  4.179368671779113e-01
 1.004487250412428e+00  4.179368671779113e-01 -3.764391982149939e-17

-3.765244893685387e-17  2.210647254767931e-18  1.004229930826718e+00
 2.210647254767931e-18  4.891084279919466e-17  4.186057021343700e-01
 1.004229930826718e+00  4.186057021343700e-01 -3.798809529733757e-17

-3.901200273066082e-17  2.616261961466936e-18  1.005177607798833e+00
 2.616261961466936e-18  4.649660288714762e-17  4.162881803480937e-01
 1.005177607798833e+00  4.162881803480937e-01 -3.850163432486876e-17

-4.021763124456308e-17  3.037224888617399e-18  9.939096022299355e-01
 3.037224888617399e-18 -1.561626425912617e-16  4.353205850195144e-01
 9.939096022299355e-01  4.353205850195144e-01 -3.854953716226888e-17

-4.137506389285077e-17  3.491151975771717e-18  9.995848398588665e-01
 3.491151975771717e-18  5.591484791929637e-17  3.964832737454752e-01
 9.995848398588665e-01  3.964832737454752e-01 -3.912543249633865e-17

-4.245997704778172e-17  3.797195240144423e-18  1.000082038512129e+00
 3.797195240144423e-18 -7.628810617123137e-17  3.960677424727295e-01
 1.000082038512129e+00  3.960677424727295e-01 -3.950960071637607e-17

-4.346725998709207e-17  4.117853504493694e-18  9.801136026889929e-01
 4.117853504493694e-18 -8.867080412463970e-17  4.451649689592725e-01
 9.801136026889929e-01  4.451649689592725e-01 -3.926529329986530e-17

-4.507376265812500e-17  4.570162121780931e-18  9.993561516763901e-01
 4.570162121780931e-18 -1.626413421713911e-17  4.232353731916762e-01
 9.993561516763901e-01  4.232353731916762e-01 -4.041933026410525e-17

-4.628295418346994e-17  5.041438543054381e-18  1.007991031905891e+00
 5.041438543054381e-18 -1.311340068579520e-16  4.069046143243382e-01
 1.007991031905891e+00  4.069046143243382e-01 -4.111299868025867e-17

-4.743281114806983e-17  5.519424152996974e-18  9.958308171085331e-01
 5.519424152996974e-18 -2.249454572970938e-16  4.181394010358007e-01
 9.958308171085331e-01  4.181394010358007e-01 -4.112500806631697e-17

-4.888705693878908e-17  5.959058580302641e-18  1.000843492258729e+00
 5.959058580302641e-18  4.552194029502670e-18  4.116150346077257e-01
 1.000843492258729e+00  4.116150346077257e-01 -4.178571940182287e-17

-5.050116158106669e-17  6.569744529700432e-18  9.998022047293096e-01
 6.569744529700432e-18 -8.921293490920168e-17  4.151019632986498e-01
 9.998022047293096e-01  4.151019632986498e-01 -4.230631548863959e-17

-5.256933737557293e-17  7.235392729045162e-18  1.007921109246115e+00
 7.235392729045162e-18  5.940199114456143e-17  4.093791981536219e-01
 1.007921109246115e+00  4.093791981536219e-01 -4.324773060374643e-17

-5.437100675406999e-17  7.957519411831526e-18  1.015472211949818e+00
 7.957519411831526e-18 -1.452614299755203e-16  4.056957110654925e-01
 1.015472211949818e+00  4.056957110654925e-01 -4.410920215652291e-17

-5.834628105342492e-17  9.543951753518057e-18  1.007619288669395e+00
 9.543951753518057e-18 -4.648762371343812e-17  4.157430929113829e-01
 1.007619288669395e+00  4.157430929113829e-01 -4.519907666742330e-17

-6.183113357583513e-17  1.113822913703226e-17  9.930400043681978e-01
 1.113822913703226e-17 -2.552919909091758e-16  4.242053549445963e-01
 9.930400043681978e-01  4.242053549445963e-01 -4.589863163273006e-17

-6.398411843302793e-17  1.192525048520922e-17  9.978835808669112e-01
 1.192525048520922e-17  1.665972527773010e-17  4.210557524868805e-01
 9.978835808669112e-01  4.210557524868805e-01 -4.675282499966242e-17

-6.807945731238272e-17  1.358240101043349e-17  1.012519258718929e+00
 1.358240101043349e-17 -2.638185599419897e-17  4.133374084280210e-01
 1.012519258718929e+00  4.133374084280210e-01 -4.858191087838406e-17

-7.512292665138570e-17  1.675446776864452e-17  1.013175061880387e+00
 1.675446776864452e-17 -2.561779824800688e-16  4.184248760386525e-01
 1.013175061880387e+00  4.184248760386525e-01 -5.092594823822489e-17

-8.236970330697817e-17  1.995553116237167e-17  1.014130406074305e+00
 1.995553116237167e-17 -8.156158357646137e-17  4.179656562325061e-01
 1.014130406074305e+00  4.179656562325061e-01 -5.332209670829278e-17

-8.794632734954463e-17  2.256391535143001e-17  1.013697984238675e+00
 2.256391535143001e-17 -1.956782638064064e-16  4.238899592030311e-01
 1.013697984238675e+00  4.238899592030311e-01 -5.512542223399102e-17

-9.635626291577590e-17  2.648700325296483e-17  1.025364776831413e+00
 2.648700325296483e-17 -2.158633654556751e-16  4.120080524453953e-01
 1.025364776831413e+00  4.120080524453953e-01 -5.821394934930155e-17

-1.091377686535807e-16  3.253623493540813e-17  1.031668443170382e+00
 3.253623493540813e-17 -2.361098806289064e-16  4.211981886437225e-01
 1.031668443170382e+00  4.211981886437225e-01 -6.254684730178658e-17

-1.167193833409953e-16  3.626888837486536e-17  1.019494828114055e+00
 3.626888837486536e-17 -8.122303206440559e-17  4.360610028320699e-01
 1.019494828114055e+00  4.360610028320699e-01 -6.456626198359520e-17

-1.262753407803382e-16  4.131954255333892e-17  1.033153467733726e+00
 4.131954255333892e-17 -2.859691817786659e-16  4.200843318075857e-01
 1.033153467733726e+00  4.200843318075857e-01 -6.798590996229456e-17

-1.488303638921740e-16  5.371773204178992e-17  1.023247792869038e+00
 5.371773204178992e-17 -3.178718930722573e-16  4.167499880618063e-01
 1.023247792869038e+00  4.167499880618063e-01 -7.466126763529686e-17

-1.939368552153690e-16  7.859551057608935e-17  1.014922011234046e+00
 7.859551057608935e-17 -1.489486766120736e-16  4.203273628784857e-01
 1.014922011234046e+00  4.203273628784857e-01 -8.806736694441895e-17

-2.494354231989081e-16  1.091873776966179e-16  1.015241412500745e+00
 1.091873776966179e-16 -2.168732427931129e-16  4.219925045970790e-01
 1.015241412500745e+00  4.219925045970790e-01 -1.045414608864596e-16

-3.183915437812454e-16  1.469111027780148e-16  1.013126481838310e+00
 1.469111027780148e-16 -4.467723822281766e-16  4.221681881217946e-01
 1.013126481838310e+00  4.221681881217946e-01 -1.245725760234733e-16

-4.073326051482629e-16  1.941217576391110e-16  1.008184708100898e+00
 1.941217576391110e-16 -6.470402512633666e-16  4.207956666201299e-01
 1.008184708100898e+00  4.207956666201299e-01 -1.499037236816576e-16

-4.799839234868009e-16  2.308611373775654e-16  1.011812702389869e+00
 2.308611373775654e-16 -5.498316386154860e-16  4.139645725943474e-01
 1.011812702389869e+00  4.139645725943474e-01 -1.706340202409301e-16

-6.374563588691447e-16  3.055937457404996e-16  1.017025459529447e+00
 3.055937457404996e-16 -4.889231379807170e-16  4.210726025411585e-01
 1.017025459529447e+00  4.210726025411585e-01 -2.155371015340978e-16

-1.042562904278259e-15  4.706424724839663e-16  1.019027561821389e+00
 4.706424724839663e-16 -9.418915594979505e-16  4.210458149830140e-01
 1.019027561821389e+00  4.210458149830140e-01 -3.312763256696239e-16

-1.674897383200738e-15  6.541366922992909e-16  1.008419137864201e+00
 6.541366922992909e-16 -1.073781697327787e-15  4.165082437289076e-01
 1.008419137864201e+00  4.165082437289076e-01 -5.201688366756888e-16

-2.244634183055871e-15  7.708380786187718e-16  1.007832888975372e+00
 7.708380786187718e-16 -1.104156881055306e-15  4.159795583600287e-01
 1.007832888975372e+00  4.159795583600287e-01 -7.022356979795396e-16

-3.460071944562978e-15  8.529643767142636e-16  1.008469511074062e+00
 8.529643767142636e-16 -1.520564936289840e-15  4.264111718837991e-01
 1.008469511074062e+00  4.264111718837991e-01 -1.135419337762051e-15

-5.040999115803623e-15  7.261458063026270e-16  1.008360985815312e+00
 7.261458063026270e-16 -1.664891753440981e-15  4.250462405480431e-01
 1.008360985815312e+00  4.250462405480431e-01 -1.802318656610331e-15

-7.125295483116851e-15  3.330185745880107e-16  1.010505634039355e+00
 3.330185745880107e-16 -2.007812154603949e-15  4.165634722451620e-01
 1.010505634039355e+00  4.165634722451620e-01 -2.827453908152306e-15

-1.002099954170149e-14 -4.350647435408814e-16  1.010286895803717e+00
-4.350647435408814e-16 -2.040993836101015e-15  4.173993798819254e-01
 1.010286895803717e+00  4.173993798819254e-01 -4.441441774410868e-15

-1.449520393728457e-14 -1.892741515253025e-15  1.011420655272768e+00
-1.892741515253025e-15 -2.301627284848665e-15  4.206581495926198e-01
 1.011420655272768e+00  4.206581495926198e-01 -7.107516417117146e-15

 2.238476425193836e-14 -2.571955709915236e-14  1.011290980916677e+00
-2.571955709915236e-14  3.359566685170609e-14  4.212704684000220e-01
 1.011290980916677e+00  4.212704684000220e-01 -4.867322362166417e-17

-6.175060987039203e-13  1.484197765280310e-13  1.009417949307913e+00
 1.484197765280310e-13 -2.533958994293549e-13  4.183047610037225e-01
 1.009417949307913e+00  4.183047610037225e-01 -2.203160498242151e-13

 8.840549058672425e-14 -2.318664943482760e-14  1.007774524221190e+00
-2.318664943482760e-14  5.588178061016482e-14  4.168734082301955e-01
 1.007774524221190e+00  4.168734082301955e-01  1.806160828898586e-14

-6.535645538059940e-13  1.529812845415187e-13  1.005935961446660e+00
 1.529812845415187e-13 -3.312799481090300e-13  4.166381095054585e-01
 1.005935961446660e+00  4.166381095054585e-01 -1.630730201300304e-13

-8.597264297141559e-15  1.138217044068819e-14  1.007421603155296e+00
 1.138217044068819e-14  1.313890974329086e-15  4.175987097913433e-01
 1.007421603155296e+00  4.175987097913433e-01 -1.011930974710383e-14

-4.165002941209856e-15  9.298571220667525e-15  1.006853975735065e+00
 9.298571220667525e-15  8.065153788861362e-16  4.177623722513076e-01
 1.006853975735065e+00  4.177623722513076e-01 -4.843848067155178e-15

-3.181154640018792e-15  7.419728721777742e-15  1.008074243669110e+00
 7.419728721777742e-15  1.370489495325725e-15  4.153027664046487e-01
 1.008074243669110e+00  4.153027664046487e-01 -3.507676555778134e-15

-2.570106804002283e-15  4.444081199484248e-15  1.005774813196994e+00
 4.444081199484248e-15  1.689676451861638e-15  4.163064364114303e-01
 1.005774813196994e+00  4.163064364114303e-01 -2.062175227063042e-15

-1.745898205152417e-15  1.658174108712736e-15  1.006598352799629e+00
 1.658174108712736e-15  1.107511873496275e-15  4.164315365754216e-01
 1.006598352799629e+00  4.164315365754216e-01 -9.499895104161736e-16

-1.142728592100013e-15  6.486546571538714e-16  1.006154850314391e+00
 6.486546571538714e-16  5.673662044977664e-16  4.164299040997107e-01
 1.006154850314391e+00  4.164299040997107e-01 -5.217707852333888e-16

-8.225301985725403e-16  3.213404411603161e-16  1.005719762540842e+00
 3.213404411603161e-16  3.146083255714184e-16  4.163127216013346e-01
 1.005719762540842e+00  4.163127216013346e-01 -3.536712488377071e-16

-5.539379818319253e-16  1.342485377110234e-16  1.006548266277349e+00
 1.342485377110234e-16  1.441441544435858e-16  4.164474217568586e-01
 1.006548266277349e+00  4.164474217568586e-01 -2.330077141573796e-16

-3.645604446262746e-16  4.810740731445910e-17  1.007199518337139e+00
 4.810740731445910e-17  1.628109554010449e-17  4.162251975698906e-01
 1.007199518337139e+00  4.162251975698906e-01 -1.567221389972656e-16

-2.891693038750138e-16  2.478944611006218e-17  1.008265032981228e+00
 2.478944611006218e-17  8.695114317220878e-18  4.162172171293188e-01
 1.008265032981228e+00  4.162172171293188e-01 -1.280937377114078e-16

-2.523364346819832e-16  1.588107492965507e-17  1.007743291222254e+00
 1.588107492965507e-17 -2.160697350118631e-17  4.169971645345468e-01
 1.007743291222254e+00  4.169971645345468e-01 -1.144221520562110e-16

-2.027121771376677e-16  5.974443498823861e-18  1.007596306205865e+00
 5.974443498823861e-18 -3.713411709424471e-17  4.162595877418288e-01
 1.007596306205865e+00  4.162595877418288e-01 -9.626819885678092e-17

-1.609596158730159e-16  3.465495013280953e-19  1.006915812432606e+00
 3.465495013280953e-19 -4.507191156426621e-17  4.160185616931644e-01
 1.006915812432606e+00  4.160185616931644e-01 -8.122742378673246e-17

-1.149232616908892e-16 -7.667296554670351e-19  1.007581655540436e+00
-7.667296554670351e-19 -2.121329327261896e-17  4.157578576608244e-01
 1.007581655540436e+00  4.157578576608244e-01 -7.252349781599632e-17

-1.067523261738318e-16 -3.282756661824535e-18  1.007343837404117e+00
-3.282756661824535e-18 -3.558000293110177e-17  4.155743295541608e-01
 1.007343837404117e+00  4.155743295541608e-01 -6.210652275244182e-17

-9.313169906531159e-17 -3.487270552422804e-18  1.005588136791068e+00
-3.487270552422804e-18 -3.485800311925250e-17  4.149586163527970e-01
 1.005588136791068e+00  4.149586163527970e-01 -5.726818231399942e-17

-8.259247357956478e-17 -3.420058979069464e-18  1.004300438532025e+00
-3.420058979069464e-18 -4.786322923974556e-17  4.143427091999677e-01
 1.004300438532025e+00  4.143427091999677e-01 -5.356595420263763e-17

-7.378472277982134e-17 -3.250022309806156e-18  1.003892017337118e+00
-3.250022309806156e-18 -3.258279201052054e-17  4.132356884075443e-01
 1.003892017337118e+00  4.132356884075443e-01 -5.050918564487193e-17

-6.705628575012091e-17 -3.007836852242345e-18  1.005928686008610e+00
-3.007836852242345e-18 -3.018557082643983e-17  4.118475075784926e-01
 1.005928686008610e+00  4.118475075784926e-01 -4.823508173563763e-17

-6.149168377442203e-17 -2.739431532897286e-18  1.003091181845649e+00
-2.739431532897286e-18 -2.756726104166696e-17  4.209689204291999e-01
 1.003091181845649e+00  4.209689204291999e-01 -4.621805902741817e-17

-5.779255108973137e-17 -2.562349814824845e-18  9.888474814161298e-01
-2.562349814824845e-18 -2.149792390497705e-17  4.199231799771865e-01
 9.888474814161298e-01  4.199231799771865e-01 -4.450429652163266e-17

-5.397859040435048e-17 -2.364050443229224e-18  9.721057726117158e-01
-2.364050443229224e-18 -3.338399953293220e-17  4.038854300185505e-01
 9.721057726117158e-01  4.038854300185505e-01 -4.268123907042190e-17

-5.105870092773328e-17 -2.098706945942663e-18  9.969037053585015e-01
-2.098706945942663e-18 -3.268136313560647e-17  4.105693009579948e-01
 9.969037053585015e-01  4.105693009579948e-01 -4.246658145648657e-17

-4.938667070898178e-17 -1.941493082006314e-18  9.937284687971034e-01
-1.941493082006314e-18 -4.528466653853561e-17  4.477773399936916e-01
 9.937284687971034e-01  4.477773399936916e-01 -4.182316148054932e-17

-4.718783073263182e-17 -1.774514945194765e-18  1.005550474855051e+00
-1.774514945194765e-18 -1.626187592977890e-17  4.090291368058921e-01
 1.005550474855051e+00  4.090291368058921e-01 -4.141641000087185e-17

-4.462701269564027e-17 -1.608141703152924e-18  9.902639310677543e-01
-1.608141703152924e-18 -2.179596877602063e-17  4.063602867688969e-01
 9.902639310677543e-01  4.063602867688969e-01 -4.004825077924921e-17

-4.285771455983953e-17 -1.439011075669772e-18  9.978524976060698e-01
-1.439011075669772e-18 -2.084360777452812e-17  4.159138303663480e-01
 9.978524976060698e-01  4.159138303663480e-01 -3.965229538005609e-17

-4.137743919648953e-17 -1.310270421414739e-18  1.005739312939626e+00
-1.310270421414739e-18 -2.782223983941356e-17  4.157641581469963e-01
 1.005739312939626e+00  4.157641581469963e-01 -3.938563323049048e-17

-4.004516353459168e-17 -1.183417355324507e-18  1.010556732507322e+00
-1.183417355324507e-18 -1.984430457586822e-17  4.135870120040033e-01
 1.010556732507322e+00  4.135870120040033e-01 -3.906871449150711e-17

-3.881140598171092e-17 -1.067644544902192e-18  1.018588735876045e+00
-1.067644544902192e-18 -2.344882561315733e-17  4.124928216903116e-01
 1.018588735876045e+00  4.124928216903116e-01 -3.889781971757731e-17

-3.783682725781145e-17 -9.681100739123826e-19  1.025694678518187e+00
-9.681100739123826e-19 -2.286264956344321e-17  4.184839543541573e-01
 1.025694678518187e+00  4.184839543541573e-01 -3.877217760852177e-17

-3.716246982937439e-17 -9.167591401729571e-19  1.018068016778041e+00
-9.167591401729571e-19 -2.232171090646707e-17  4.266536539465185e-01
 1.018068016778041e+00  4.266536539465185e-01 -3.830477787493106e-17

-3.676159712039071e-17 -8.806017310940200e-19  1.027519391619896e+00
-8.806017310940200e-19 -1.630774983574720e-17  4.136807205806934e-01
 1.027519391619896e+00  4.136807205806934e-01 -3.847233396656421e-17

-3.574367212537973e-17 -8.088620740534650e-19  1.019320764554974e+00
-8.088620740534650e-19 -1.570778157547946e-17  4.147322874849552e-01
 1.019320764554974e+00  4.147322874849552e-01 -3.785050693169659e-17

-3.483167070195301e-17 -7.485552482727699e-19  1.014732233239159e+00
-7.485552482727699e-19 -3.496070233345335e-17  4.178470443171550e-01
 1.014732233239159e+00  4.178470443171550e-01 -3.740339283941854e-17

-3.432728357327797e-17 -7.047311005175267e-19  1.014696186357619e+00
-7.047311005175267e-19 -2.155418875853332e-17  4.159008156054271e-01
 1.014696186357619e+00  4.159008156054271e-01 -3.721828535406276e-17

-3.375100583346375e-17 -6.625575835539253e-19  1.012034817978660e+00
-6.625575835539253e-19 -2.392962806188998e-17  4.164959935500215e-01
 1.012034817978660e+00  4.164959935500215e-01 -3.695897466348774e-17

-3.323485632046216e-17 -6.186819765532130e-19  1.012685684193090e+00
-6.186819765532130e-19 -2.733789141876716e-17  4.165937306291786e-01
 1.012685684193090e+00  4.165937306291786e-01 -3.680512153638990e-17

-3.275173546465271e-17 -5.778187638791934e-19  1.010112973944713e+00
-5.778187638791934e-19 -1.069795120213169e-17  4.190434683625222e-01
 1.010112973944713e+00  4.190434683625222e-01 -3.656971406216425e-17

-3.234100986356190e-17 -5.423763945051252e-19  1.011034572712260e+00
-5.423763945051252e-19 -6.313484855582652e-18  4.132921577647429e-01
 1.011034572712260e+00  4.132921577647429e-01 -3.645951277040609e-17

-3.193809335629122e-17 -5.181835105381072e-19  1.007504381189830e+00
-5.181835105381072e-19 -2.699309319237411e-17  4.166719754877403e-01
 1.007504381189830e+00  4.166719754877403e-01 -3.622086895632811e-17

-3.139822779646219e-17 -4.850368435847497e-19  1.000159975028028e+00
-4.850368435847497e-19 -1.315654057387548e-17  4.181600612462714e-01
 1.000159975028028e+00  4.181600612462714e-01 -3.581395868736319e-17

-3.077068712478745e-17 -4.429351406638670e-19  9.947432857564404e-01
-4.429351406638670e-19 -1.882249507065364e-17  4.190277103483467e-01
 9.947432857564404e-01  4.190277103483467e-01 -3.544074717150655e-17

-3.067268876651151e-17 -4.128247484395594e-19  1.015691116979826e+00
-4.128247484395594e-19 -2.076849032949898e-17  3.988843850884745e-01
 1.015691116979826e+00  3.988843850884745e-01 -3.607591186237327e-17

-3.036813170612329e-17 -3.991217314217708e-19  1.002790005642535e+00
-3.991217314217708e-19 -2.091842734105441e-17  4.194388391759017e-01
 1.002790005642535e+00  4.194388391759017e-01 -3.556899783685949e-17

-3.007076021125479e-17 -3.741223705738099e-19  9.997305618857448e-01
-3.741223705738099e-19 -8.753244709058318e-18  4.141474442240300e-01
 9.997305618857448e-01  4.141474442240300e-01 -3.536620482325327e-17

-2.972194426140801e-17 -3.570465416428668e-19  9.923140896716989e-01
-3.570465416428668e-19 -1.525704164452946e-17  4.110346313078985e-01
 9.923140896716989e-01  4.110346313078985e-01 -3.502556139569039e-17

-2.986508105608825e-17 -3.416738718579590e-19  1.014860222733031e+00
-3.416738718579590e-19 -2.017536697340270e-17  4.011406186939362e-01
 1.014860222733031e+00  4.011406186939362e-01 -3.579229664535143e-17

-2.988844984796925e-17 -3.395433893410838e-19  1.023110064101909e+00
-3.395433893410838e-19 -2.329824506935180e-17  4.065173934842334e-01
 1.023110064101909e+00  4.065173934842334e-01 -3.606856304201927e-17

-2.944410096290955e-17 -3.128535059715995e-19  1.009978875138475e+00
-3.128535059715995e-19 -1.736958387724130e-17  4.096669315196929e-01
 1.009978875138475e+00  4.096669315196929e-01 -3.551080870579774e-17

-2.907569828952428e-17 -3.063573617277751e-19  9.982009163752917e-01
-3.063573617277751e-19 -1.480836610726518e-17  4.213782353270562e-01
 9.982009163752917e-01  4.213782353270562e-01 -3.501189250625626e-17

-2.887666513971817e-17 -2.790467844155061e-19  9.993884559947266e-01
-2.790467844155061e-19 -2.861840428484503e-17  4.170008295449187e-01
 9.993884559947266e-01  4.170008295449187e-01 -3.499646365387558e-17

-2.853137326646623e-17 -2.805346296594860e-19  9.878578800966904e-01
-2.805346296594860e-19 -1.738092877527895e-17  4.195078636277143e-01
 9.878578800966904e-01  4.195078636277143e-01 -3.451903246512758e-17

-2.848414980363580e-17 -2.655675843019878e-19  9.918357243968196e-01
-2.655675843019878e-19 -2.567623506410780e-17  4.203194217710225e-01
 9.918357243968196e-01  4.203194217710225e-01 -3.464069064453071e-17

-2.848317038066271e-17 -2.603194739401242e-19  1.003039204458076e+00
-2.603194739401242e-19 -1.760603368238955e-17  4.141704575162886e-01
 1.003039204458076e+00  4.141704575162886e-01 -3.499894076910616e-17

-2.849383920371850e-17 -2.423425751920181e-19  1.010846508211210e+00
-2.423425751920181e-19 -2.001976649091058e-17  4.080000425594439e-01
 1.010846508211210e+00  4.080000425594439e-01 -3.523720577019560e-17

-2.819391956137902e-17 -2.492248504700995e-19  1.000506234995634e+00
-2.492248504700995e-19 -2.268862554155740e-17  4.145451898908288e-01
 1.000506234995634e+00  4.145451898908288e-01 -3.483186445239148e-17

-2.784605574846318e-17 -2.444855112693681e-19  9.796317750049993e-01
-2.444855112693681e-19 -1.352397070333520e-17  4.278016725986850e-01
 9.796317750049993e-01  4.278016725986850e-01 -3.404849750663365e-17

-2.753485982939505e-17 -2.362261247461851e-19  9.745844600211194e-01
-2.362261247461851e-19 -1.642690318276395e-17  4.234186250583419e-01
 9.745844600211194e-01  4.234186250583419e-01 -3.381961254267848e-17

-2.730234649352077e-17 -2.315318708370175e-19  9.731470472082526e-01
-2.315318708370175e-19 -1.873171733667695e-17  4.045608519476520e-01
 9.731470472082526e-01  4.045608519476520e-01 -3.371579294445345e-17

-2.785543389931646e-17 -2.323307873747358e-19  1.035206720439766e+00
-2.323307873747358e-19 -2.495426451144757e-17  3.327405288764781e-01
 1.035206720439766e+00  3.327405288764781e-01 -3.590102654785095e-17

-2.682961854589085e-17 -2.009067113331729e-19  9.479862873242674e-01
-2.009067113331729e-19 -1.906822684132145e-17  4.162489572586014e-01
 9.479862873242674e-01  4.162489572586014e-01 -3.277423627524513e-17

-2.719425888421132e-17 -1.937416298485204e-19  9.707507822005441e-01
-1.937416298485204e-19 -1.411017520740108e-17  4.305176301491530e-01
 9.707507822005441e-01  4.305176301491530e-01 -3.364205172090892e-17

-2.742966339785226e-17 -1.643298865091994e-19  9.914970016507774e-01
-1.643298865091994e-19 -1.466556170322026e-17  4.230186961420189e-01
 9.914970016507774e-01  4.230186961420189e-01 -3.441252895401491e-17

-2.761654260737515e-17 -1.306753412553484e-19  1.005579547611374e+00
-1.306753412553484e-19 -1.688423201521482e-17  4.165734701063724e-01
 1.005579547611374e+00  4.165734701063724e-01 -3.493866529460706e-17

-2.772388727298112e-17 -8.741925307322580e-20  1.012895192028173e+00
-8.741925307322580e-20 -2.389456254212435e-17  4.194607249868380e-01
 1.012895192028173e+00  4.194607249868380e-01 -3.524331462027860e-17

-2.776435986080516e-17 -4.467152972394635e-20  1.014164528901523e+00
-4.467152972394635e-20 -2.015103320510149e-17  4.213408834517895e-01
 1.014164528901523e+00  4.213408834517895e-01 -3.532139742619295e-17

-2.783270664533578e-17 -2.090710259053634e-21  1.019548659878933e+00
-2.090710259053634e-21 -1.881351125656197e-17  4.184516108564084e-01
 1.019548659878933e+00  4.184516108564084e-01 -3.552274426605327e-17

-2.803163983230840e-17  4.207647047361928e-20  1.031373034333766e+00
 4.207647047361928e-20 -1.568143376551427e-17  4.173316702238486e-01
 1.031373034333766e+00  4.173316702238486e-01 -3.597938734800684e-17

-2.834994981915745e-17  3.666126004810519e-20  1.047480091567510e+00
 3.666126004810519e-20 -1.203018657790426e-17  4.277485938326989e-01
 1.047480091567510e+00  4.277485938326989e-01 -3.657687653730676e-17

-2.854342465485026e-17 -2.548375979750020e-20  1.062337066325973e+00
-2.548375979750020e-20 -1.937575443468682e-17  4.299532661080112e-01
 1.062337066325973e+00  4.299532661080112e-01 -3.707255488682134e-17

-2.872059816400551e-17 -1.521750557481060e-19  1.078469114836975e+00
-1.521750557481060e-19 -3.127770742340267e-17  4.348559447312963e-01
 1.078469114836975e+00  4.348559447312963e-01 -3.752201531489497e-17

-2.877448788225426e-17 -2.369526332779826e-19  1.085489853857974e+00
-2.369526332779826e-19 -1.762545604884321e-17  4.411532182301142e-01
 1.085489853857974e+00  4.411532182301142e-01 -3.768787651202262e-17

-2.872337923659076e-17 -3.398837557177791e-19  1.087818737913370e+00
-3.398837557177791e-19 -1.436470637898039e-17  4.521427347948339e-01
 1.087818737913370e+00  4.521427347948339e-01 -3.766102718001051e-17

-2.859973169876084e-17 -4.476854604402817e-19  1.090986601907488e+00
-4.476854604402817e-19 -3.914603810832801e-17  4.484199947583615e-01
 1.090986601907488e+00  4.484199947583615e-01 -3.761819750710062e-17

-2.834443949372088e-17 -5.102368997557004e-19  1.078952538964659e+00
-5.102368997557004e-19 -1.446413896328998e-17  4.534909933565333e-01
 1.078952538964659e+00  4.534909933565333e-01 -3.712672494940007e-17

-2.805227405883293e-17 -4.986022713244368e-19  1.068188936803546e+00
-4.986022713244368e-19 -1.169210756803344e-17  4.533177705136574e-01
 1.068188936803546e+00  4.533177705136574e-01 -3.666885861703355e-17

-2.762099777971159e-17 -5.217396850510047e-19  1.053784285254615e+00
-5.217396850510047e-19 -3.138791641730793e-17  4.486498763476964e-01
 1.053784285254615e+00  4.486498763476964e-01 -3.611951928013353e-17

-2.742959262592403e-17 -5.017436634822952e-19  1.049573979661946e+00
-5.017436634822952e-19 -1.254304532766452e-17  4.377899736695673e-01
 1.049573979661946e+00  4.377899736695673e-01 -3.597229582779855e-17

-2.720241589215259e-17 -4.382055397646217e-19  1.041462440839718e+00
-4.382055397646217e-19 -9.472500098692777e-18  4.364419187398008e-01
 1.041462440839718e+00  4.364419187398008e-01 -3.569926251873070e-17

-2.682771318415847e-17 -3.641622806444824e-19  1.024378080341884e+00
-3.641622806444824e-19  5.301203897726269e-18  4.325860435950004e-01
 1.024378080341884e+00  4.325860435950004e-01 -3.512502373560837e-17

-2.662822086336351e-17 -3.359357700127584e-19  1.013698225610169e+00
-3.359357700127584e-19 -1.836704191562337e-17  4.317857236795105e-01
 1.013698225610169e+00  4.317857236795105e-01 -3.477340135486603e-17

-2.642342903831529e-17 -2.968859414321149e-19  1.007461068198088e+00
-2.968859414321149e-19 -2.344611824782452e-17  4.268801191587562e-01
 1.007461068198088e+00  4.268801191587562e-01 -3.457413577771995e-17

-2.625628726799250e-17 -2.336255432722447e-19  1.000670217649452e+00
-2.336255432722447e-19 -1.579407015286775e-17  4.228397262934100e-01
 1.000670217649452e+00  4.228397262934100e-01 -3.434776728569475e-17

-2.625167830941473e-17 -2.022402048285634e-19  1.002766361050741e+00
-2.022402048285634e-19 -7.111978954857422e-18  4.187585467945479e-01
 1.002766361050741e+00  4.187585467945479e-01 -3.443800455099222e-17

-2.625052019434435e-17 -1.837375663306785e-19  1.006051901053037e+00
-1.837375663306785e-19 -1.538666992874183e-17  4.153246846247729e-01
 1.006051901053037e+00  4.153246846247729e-01 -3.456067432828972e-17

-2.620776421947327e-17 -1.418626189458796e-19  1.005632153075661e+00
-1.418626189458796e-19 -7.076006588912635e-18  4.139224610786140e-01
 1.005632153075661e+00  4.139224610786140e-01 -3.455090681181949e-17

-2.609922774401265e-17 -1.195595409332559e-19  9.990976599885418e-01
-1.195595409332559e-19 -9.582960866055690e-19  4.137724155145820e-01
 9.990976599885418e-01  4.137724155145820e-01 -3.432092070734810e-17

-2.603365783258379e-17 -1.590853972931888e-19  9.940548417969384e-01
-1.590853972931888e-19 -3.690263920946010e-17  4.170036977275714e-01
 9.940548417969384e-01  4.170036977275714e-01 -3.413451889911529e-17

-2.605152436499652e-17 -9.989993839276413e-20  1.000054880069689e+00
-9.989993839276413e-20 -1.139054676867448e-17  4.112569543961018e-01
 1.000054880069689e+00  4.112569543961018e-01 -3.434945118564409e-17

-2.610800583851339e-17 -1.019138320075881e-19  1.002010565320018e+00
-1.019138320075881e-19 -2.108655611404111e-17  4.125578597898754e-01
 1.002010565320018e+00  4.125578597898754e-01 -3.441713171641556e-17

-2.609827589406748e-17 -1.001282080206933e-19  1.006737463280736e+00
-1.001282080206933e-19 -2.096149019123043e-17  4.079818423571100e-01
 1.006737463280736e+00  4.079818423571100e-01 -3.457739139407174e-17

-2.604375934323583e-17 -8.938152165204596e-20  1.004658948726814e+00
-8.938152165204596e-20 -2.287191487990655e-17  4.126301893158965e-01
 1.004658948726814e+00  4.126301893158965e-01 -3.449294161456181e-17

-2.591378738727026e-17 -6.749601818151348e-20  1.000370748049845e+00
-6.749601818151348e-20 -6.850023593627780e-18  4.114186006615892e-01
 1.000370748049845e+00  4.114186006615892e-01 -3.431359661542421e-17

-2.585197723968217e-17 -7.175040836742049e-20  9.985068586404777e-01
-7.175040836742049e-20 -5.277525693282594e-18  4.112585435862237e-01
 9.985068586404777e-01  4.112585435862237e-01 -3.422699788728625e-17

-2.588446778208910e-17 -7.313115332657511e-20  1.004142043763041e+00
-7.313115332657511e-20 -1.291735623807990e-17  4.069928906825708e-01
 1.004142043763041e+00  4.069928906825708e-01 -3.442294579330400e-17

-2.584034652801033e-17 -6.845846604977240e-20  1.000701733314602e+00
-6.845846604977240e-20 -8.741887989343521e-18  4.171848335426463e-01
 1.000701733314602e+00  4.171848335426463e-01 -3.430188110935394e-17

-2.587761318849549e-17 -4.020721504326193e-20  1.004988575376106e+00
-4.020721504326193e-20  2.622924936511322e-18  4.127248574861407e-01
 1.004988575376106e+00  4.127248574861407e-01 -3.444524953079563e-17

-2.583127341572677e-17 -1.066579285928664e-19  1.003751813018960e+00
-1.066579285928664e-19 -3.440796721986268e-17  4.112588772599586e-01
 1.003751813018960e+00  4.112588772599586e-01 -3.439317980444768e-17

-2.575893760151161e-17 -6.484591910401637e-20  1.000083451458484e+00
-6.484591910401637e-20 -8.627002863972918e-18  4.133696910172925e-01
 1.000083451458484e+00  4.133696910172925e-01 -3.425786215697224e-17

-2.572182787041326e-17 -9.198058892418129e-20  1.000559465212463e+00
-9.198058892418129e-20 -3.113121074803711e-17  4.125684879120478e-01
 1.000559465212463e+00  4.125684879120478e-01 -3.427361283099101e-17

-2.576448894714263e-17 -7.513369052108183e-20  1.004848274527836e+00
-7.513369052108183e-20 -1.830914094059814e-17  4.100441389371259e-01
 1.004848274527836e+00  4.100441389371259e-01 -3.443120077008877e-17

-2.577541149666212e-17 -8.071224950694034e-20  1.006678167455426e+00
-8.071224950694034e-20 -2.687413638729589e-17  4.109909100760608e-01
 1.006678167455426e+00  4.109909100760608e-01 -3.449347356985148e-17

-2.570691825264459e-17 -3.622586521567564e-20  1.003920234154574e+00
-3.622586521567564e-20  9.774121148160048e-19  4.116455845076535e-01
 1.003920234154574e+00  4.116455845076535e-01 -3.439586308282750e-17

-2.573910692273732e-17 -3.507349107194063e-20  1.003174237786512e+00
-3.507349107194063e-20 -7.423928097604738e-18  4.138924316322579e-01
 1.003174237786512e+00  4.138924316322579e-01 -3.436540524739716e-17

-2.564446279585209e-17 -5.575682610541566e-20  1.002688748603277e+00
-5.575682610541566e-20 -2.181314325672050e-17  4.136041553647712e-01
 1.002688748603277e+00  4.136041553647712e-01 -3.434715716243465e-17

-2.562269132893850e-17 -5.048822286701263e-20  1.002731033063170e+00
-5.048822286701263e-20 -2.186729771940669e-17  4.132132332199844e-01
 1.002731033063170e+00  4.132132332199844e-01 -3.434162196670771e-17

-2.569516567429780e-17 -4.190768959496552e-20  1.004608943855325e+00
-4.190768959496552e-20 -1.408184477442833e-17  4.139889938065086e-01
 1.004608943855325e+00  4.139889938065086e-01 -3.440735694588411e-17

-2.564743578684950e-17 -6.529644993514180e-20  1.006848568370713e+00
-6.529644993514180e-20 -2.432637807969296e-17  4.120779122907615e-01
 1.006848568370713e+00  4.120779122907615e-01 -3.448167640931129e-17

-2.565248831276651e-17 -4.940192733873789e-20  1.007465120843308e+00
-4.940192733873789e-20 -2.193088158259587e-17  4.134380296146566e-01
 1.007465120843308e+00  4.134380296146566e-01 -3.449512758695761e-17

-2.565438923100939e-17 -5.601602099358427e-20  1.008017412202013e+00
-5.601602099358427e-20 -1.886331510463488e-17  4.123801415710833e-01
 1.008017412202013e+00  4.123801415710833e-01 -3.450801643398650e-17

-2.559333979551595e-17 -7.601753110497790e-20  1.005240454802020e+00
-7.601753110497790e-20 -2.739871955645384e-17  4.149208043656525e-01
 1.005240454802020e+00  4.149208043656525e-01 -3.440123316389340e-17

-2.555861498357051e-17 -3.401159451700010e-20  1.006105732571477e+00
-3.401159451700010e-20  4.589707856896294e-18  4.131444353812777e-01
 1.006105732571477e+00  4.131444353812777e-01 -3.442454180283815e-17

-2.553944078101790e-17 -6.358078020462642e-20  1.005568395699237e+00
-6.358078020462642e-20 -1.741112980322290e-17  4.138546417507207e-01
 1.005568395699237e+00  4.138546417507207e-01 -3.440424643308892e-17

-2.554662648383483e-17 -7.052508909141818e-20  1.007429779036847e+00
-7.052508909141818e-20 -2.113128743554004e-17  4.131931520571757e-01
 1.007429779036847e+00  4.131931520571757e-01 -3.445994391368321e-17

-2.548742576809816e-17 -6.882607754142335e-20  1.005829995404202e+00
-6.882607754142335e-20 -1.364120743962084e-17  4.140989917807573e-01
 1.005829995404202e+00  4.140989917807573e-01 -3.440227975899544e-17

-2.549991557137940e-17 -6.026657922856656e-20  1.006471744381008e+00
-6.026657922856656e-20 -9.581130715392442e-18  4.133386553238344e-01
 1.006471744381008e+00  4.133386553238344e-01 -3.441793106110405e-17

-2.541549541212594e-17 -7.178997461858095e-20  1.004869544229360e+00
-7.178997461858095e-20 -2.010836002763639e-17  4.135129314605069e-01
 1.004869544229360e+00  4.135129314605069e-01 -3.436525401889846e-17

-2.539129893632390e-17 -6.576580504254407e-20  1.005166289668062e+00
-6.576580504254407e-20 -1.796468018451143e-17  4.127029423091362e-01
 1.005166289668062e+00  4.127029423091362e-01 -3.437614997165349e-17

-2.534715437588307e-17 -5.935853304536264e-20  1.002407612797318e+00
-5.935853304536264e-20 -1.356642721622295e-17  4.136727243556932e-01
 1.002407612797318e+00  4.136727243556932e-01 -3.428619815946555e-17

-2.531665879048304e-17 -3.659903136967758e-20  1.002587301442634e+00
-3.659903136967758e-20 -4.255031576398742e-18  4.120373741883142e-01
 1.002587301442634e+00  4.120373741883142e-01 -3.428895861498161e-17

-2.529527053194576e-17 -2.901900685118736e-20  1.001596161018915e+00
-2.901900685118736e-20 -1.098577080233188e-17  4.126081005743351e-01
 1.001596161018915e+00  4.126081005743351e-01 -3.425569971097037e-17

-2.529526196229456e-17 -5.189540993495542e-21  1.002525889943121e+00
-5.189540993495542e-21  1.308392540713038e-18  4.114608317403701e-01
 1.002525889943121e+00  4.114608317403701e-01 -3.429869062031846e-17

-2.530184591179261e-17 -1.023899147825151e-20  1.003582031724563e+00
-1.023899147825151e-20 -1.204340303061425e-18  4.122520354199091e-01
 1.003582031724563e+00  4.122520354199091e-01 -3.433364404614771e-17

-2.527566388523862e-17 -1.548331332727876e-20  1.004021343406859e+00
-1.548331332727876e-20 -4.314885356120798e-18  4.093699465095289e-01
 1.004021343406859e+00  4.093699465095289e-01 -3.435241957435366e-17

-2.516488543313240e-17 -4.165538706733149e-20  9.944076506985230e-01
-4.165538706733149e-20 -3.293444276556178e-17  4.186716035293627e-01
 9.944076506985230e-01  4.186716035293627e-01 -3.401708415831793e-17

-2.518939519535088e-17 -1.425179366273112e-20  9.980351413300266e-01
-1.425179366273112e-20  1.093028229899321e-18  4.135659922830848e-01
 9.980351413300266e-01  4.135659922830848e-01 -3.413703794171264e-17

-2.521480694147228e-17 -1.258374469564287e-20  1.001440960504925e+00
-1.258374469564287e-20 -1.141119726523455e-17  4.121269785145511e-01
 1.001440960504925e+00  4.121269785145511e-01 -3.426846952221343e-17

-2.531651614346913e-17 -1.325650003238312e-20  1.008115904368944e+00
-1.325650003238312e-20 -1.343120586289222e-17  4.049520453022696e-01
 1.008115904368944e+00  4.049520453022696e-01 -3.450258628443087e-17

-2.530383410649052e-17  1.154992323836463e-20  1.009114003473079e+00
 1.154992323836463e-20 -1.070462211454958e-17  4.080970511803467e-01
 1.009114003473079e+00  4.080970511803467e-01 -3.455069314575381e-17

-2.537670629436161e-17 -1.655310405830987e-21  1.016061293555663e+00
-1.655310405830987e-21 -2.576837542615526e-17  4.050364553672385e-01
 1.016061293555663e+00  4.050364553672385e-01 -3.479940226284309e-17

-2.520049624570537e-17  3.690219472385241e-21  1.002464336609731e+00
 3.690219472385241e-21 -1.411926791770858e-17  4.112675406024047e-01
 1.002464336609731e+00  4.112675406024047e-01 -3.431094814527412e-17

-2.515350338235916e-17  1.009551226622562e-20  1.002186739409481e+00
 1.009551226622562e-20 -1.693433482632139e-17  4.057146459834814e-01
 1.002186739409481e+00  4.057146459834814e-01 -3.428564524170854e-17

-2.510378881964072e-17  1.308128853716905e-20  9.955331364089077e-01
 1.308128853716905e-20 -2.089983613157657e-19  4.158657834450414e-01
 9.955331364089077e-01  4.158657834450414e-01 -3.405151945855513e-17

-2.525439779894622e-17  1.805167143565584e-20  1.009548843783181e+00
 1.805167143565584e-20 -1.331470565899489e-17  4.053330595750173e-01
 1.009548843783181e+00  4.053330595750173e-01 -3.455158136690629e-17

-2.539531440287654e-17  1.408606376237313e-20  1.019651769581377e+00
 1.408606376237313e-20 -1.143210496005619e-17  4.026848065042170e-01
 1.019651769581377e+00  4.026848065042170e-01 -3.491860624247056e-17

-2.534481805406141e-17  1.031054425532231e-20  1.017935110352109e+00
 1.031054425532231e-20 -1.673580637684844e-17  4.092564401931003e-01
 1.017935110352109e+00  4.092564401931003e-01 -3.485860554548443e-17

-2.492477018298414e-17  3.245320570703012e-20  9.848850186910799e-01
 3.245320570703012e-20 -5.353825889655445e-18  4.318599624394299e-01
 9.848850186910799e-01  4.318599624394299e-01 -3.366252313970012e-17

-2.484633639870944e-17  2.010176709067922e-22  9.843091742301937e-01
 2.010176709067922e-22 -2.268592718886934e-17  4.196574441204405e-01
 9.843091742301937e-01  4.196574441204405e-01 -3.361788866892588e-17

-2.481469095787958e-17 -3.995505918572486e-21  9.895770497230915e-01
-3.995505918572486e-21 -1.206673839462019e-17  4.150963950120828e-01
 9.895770497230915e-01  4.150963950120828e-01 -3.378907963419882e-17

-2.481594939343971e-17 -2.224818435953678e-20  9.950750821660771e-01
-2.224818435953678e-20 -9.532608945648621e-18  3.938401518152871e-01
 9.950750821660771e-01  3.938401518152871e-01 -3.396377526842611e-17

-2.450763245590778e-17  3.056345828186237e-22  9.764795223423575e-01
 3.056345828186237e-22 -1.678179106170656e-17  4.093065723522866e-01
 9.764795223423575e-01  4.093065723522866e-01 -3.328860792397444e-17

-2.468472270968329e-17 -2.180890863097479e-21  9.962081180057689e-01
-2.180890863097479e-21  5.077918006289521e-20  3.882861831021689e-01
 9.962081180057689e-01  3.882861831021689e-01 -3.397827770011026e-17

-2.471656289340198e-17 -8.759087895712287e-21  1.002631589277573e+00
-8.759087895712287e-21 -3.340658394761086e-18  3.718153563743173e-01
 1.002631589277573e+00  3.718153563743173e-01 -3.420484052412024e-17

-2.423738522158813e-17 -2.095267267198876e-21  9.557034709851413e-01
-2.095267267198876e-21 -1.916852620222166e-17  4.269908185871798e-01
 9.557034709851413e-01  4.269908185871798e-01 -3.254830368022099e-17

-2.460405120447015e-17 -7.886856147020382e-21  9.823526203008777e-01
-7.886856147020382e-21 -1.742231051607580e-17  4.107887494328630e-01
 9.823526203008777e-01  4.107887494328630e-01 -3.349517403584293e-17

-2.469909554695636e-17 -1.243685160950288e-20  9.850832232520695e-01
-1.243685160950288e-20 -4.725764980983943e-18  4.205048697160102e-01
 9.850832232520695e-01  4.205048697160102e-01 -3.361930121873366e-17

-2.501660022367471e-17 -3.567487543487038e-21  1.010415850915206e+00
-3.567487543487038e-21 -4.023885903043633e-18  4.008974787727425e-01
 1.010415850915206e+00  4.008974787727425e-01 -3.452043863759009e-17

-2.500447191274821e-17 -1.134065974041657e-20  1.005321983159449e+00
-1.134065974041657e-20 -8.650377463482218e-18  4.167363816386586e-01
 1.005321983159449e+00  4.167363816386586e-01 -3.435798647374115e-17

-2.492784001003284e-17 -1.407235469933903e-20  1.000002934253645e+00
-1.407235469933903e-20 -1.910600048524691e-17  4.149612827778035e-01
 1.000002934253645e+00  4.149612827778035e-01 -3.415634925732377e-17

-2.489170074060404e-17 -6.677790135428551e-21  1.001437547335529e+00
-6.677790135428551e-21 -1.548886217010574e-17  4.043339221978930e-01
 1.001437547335529e+00  4.043339221978930e-01 -3.418384795714389e-17

-2.489879720395227e-17 -1.504578935562242e-20  1.000671827282257e+00
-1.504578935562242e-20 -1.171340141514476e-17  4.087831579555719e-01
 1.000671827282257e+00  4.087831579555719e-01 -3.415241461769660e-17

-2.484484610689708e-17 -2.106109669390262e-20  9.951108137534096e-01
-2.106109669390262e-20 -2.755966725622917e-17  4.215951560829912e-01
 9.951108137534096e-01  4.215951560829912e-01 -3.396259432927365e-17

-2.492946701378849e-17 -2.550579058955049e-20  1.003313926443431e+00
-2.550579058955049e-20 -1.875778291397363e-17  4.124520261759652e-01
 1.003313926443431e+00  4.124520261759652e-01 -3.425156466273177e-17

-2.502152904432081e-17 -3.001630587852399e-20  1.008065462336232e+00
-3.001630587852399e-20 -1.867732195238680e-17  4.130294638818459e-01
 1.008065462336232e+00  4.130294638818459e-01 -3.441742897070494e-17

-2.497633453240646e-17 -3.024859374801668e-20  1.007600234233790e+00
-3.024859374801668e-20 -1.589365850310600e-17  4.119993143406093e-01
 1.007600234233790e+00  4.119993143406093e-01 -3.439910768043851e-17

-2.499253121992186e-17 -3.831599840839429e-20  1.006827844027672e+00
-3.831599840839429e-20  6.404948973466929e-18  4.156735180681798e-01
 1.006827844027672e+00  4.156735180681798e-01 -3.437210846980985e-17

-2.496308869686464e-17 -3.581791766052018e-20  1.006577299018671e+00
-3.581791766052018e-20 -5.852006401652595e-18  4.135814360449372e-01
 1.006577299018671e+00  4.135814360449372e-01 -3.436802656963034e-17

-2.495359076119287e-17 -2.916193583331938e-20  1.005403192194641e+00
-2.916193583331938e-20 -1.709401894834972e-17  4.143734362958150e-01
 1.005403192194641e+00  4.143734362958150e-01 -3.431708577259434e-17

-2.494861498069868e-17 -4.258946881761438e-20  1.006748541394797e+00
-4.258946881761438e-20 -1.325633021923186e-17  4.135530938798542e-01
 1.006748541394797e+00  4.135530938798542e-01 -3.437010781045841e-17

-2.496908203772467e-17 -3.580967772861942e-20  1.008349544923614e+00
-3.580967772861942e-20 -1.453068390260521e-17  4.149838784191461e-01
 1.008349544923614e+00  4.149838784191461e-01 -3.443291712555622e-17

-2.494956450328588e-17 -4.389919746124398e-20  1.007952431313502e+00
-4.389919746124398e-20 -1.476472652213547e-17  4.144315971639274e-01
 1.007952431313502e+00  4.144315971639274e-01 -3.442042105879141e-17

-2.497062717754056e-17 -3.519497303775222e-20  1.009101971481775e+00
-3.519497303775222e-20 -2.145473083955950e-17  4.146011499988332e-01
 1.009101971481775e+00  4.146011499988332e-01 -3.446882179661832e-17

-2.497431339800311e-17 -2.382714173748021e-20  1.010273538560466e+00
-2.382714173748021e-20 -2.193428137169736e-17  4.151478490075153e-01
 1.010273538560466e+00  4.151478490075153e-01 -3.451119737773823e-17

-2.496798522929960e-17 -2.882189036307615e-20  1.010397852394908e+00
-2.882189036307615e-20 -2.560064913682513e-17  4.142193820200600e-01
 1.010397852394908e+00  4.142193820200600e-01 -3.452095254554457e-17

-2.497272371989172e-17 -2.473798187927469e-20  1.011106748006990e+00
-2.473798187927469e-20 -2.854448256565893e-17  4.134911197932417e-01
 1.011106748006990e+00  4.134911197932417e-01 -3.454971300792020e-17

-2.500206243535833e-17 -2.573862891885588e-20  1.013068034256198e+00
-2.573862891885588e-20 -1.486385653586574e-17  4.133653818808147e-01
 1.013068034256198e+00  4.133653818808147e-01 -3.463108937685614e-17

-2.498235904421360e-17 -2.260423481831913e-20  1.011038124471714e+00
-2.260423481831913e-20 -5.732788741295653e-18  4.161366663968369e-01
 1.011038124471714e+00  4.161366663968369e-01 -3.456634331794856e-17

-2.497252061318607e-17 -2.514436894094042e-20  1.011962444555875e+00
-2.514436894094042e-20 -4.868250263101426e-18  4.133231529854433e-01
 1.011962444555875e+00  4.133231529854433e-01 -3.459775201924409e-17

-2.493795226056529e-17 -1.840151763442082e-20  1.010521205363456e+00
-1.840151763442082e-20 -6.472272588858560e-18  4.100125924851764e-01
 1.010521205363456e+00  4.100125924851764e-01 -3.454895118700222e-17

-2.494439070768630e-17 -1.234197675671854e-20  1.010973283131473e+00
-1.234197675671854e-20 -2.930367514037834e-18  4.141566345030251e-01
 1.010973283131473e+00  4.141566345030251e-01 -3.457484862634435e-17

-2.491229711318556e-17  1.843589594008817e-21  1.009606202210807e+00
 1.843589594008817e-21 -2.065278657436501e-17  4.106410618591761e-01
 1.009606202210807e+00  4.106410618591761e-01 -3.453601342857994e-17

-2.491811072879342e-17  6.976102599858171e-21  1.010113239656157e+00
 6.976102599858171e-21  1.856542613469636e-18  4.081442355577082e-01
 1.010113239656157e+00  4.081442355577082e-01 -3.456766029527011e-17

-2.503830657020063e-17  2.325698061284590e-20  1.016424536546903e+00
 2.325698061284590e-20 -1.734083769054833e-17  4.074811313560689e-01
 1.016424536546903e+00  4.074811313560689e-01 -3.480871537807635e-17

-2.503661099446156e-17  2.445947651772443e-20  1.016683422327130e+00
 2.445947651772443e-20 -5.552459207711422e-18  4.072163352276657e-01
 1.016683422327130e+00  4.072163352276657e-01 -3.482928377908837e-17

-2.509097872304662e-17  3.661124625811284e-20  1.020787697872356e+00
 3.661124625811284e-20 -1.009419011931121e-17  3.999716876875900e-01
 1.020787697872356e+00  3.999716876875900e-01 -3.498109123619188e-17

-2.521118262730682e-17  3.357227617611343e-20  1.030678145926078e+00
 3.357227617611343e-20 -1.703494907106694e-17  3.934607933470228e-01
 1.030678145926078e+00  3.934607933470228e-01 -3.534904895866991e-17

-2.540158260225708e-17  6.290039608260662e-20  1.043884565341217e+00
 6.290039608260662e-20 -2.274418252543549e-17  4.049930740088807e-01
 1.043884565341217e+00  4.049930740088807e-01 -3.581853152775644e-17

-2.474971211118583e-17  1.291504433584442e-19  9.916912353153745e-01
 1.291504433584442e-19 -1.238797979607975e-17  4.521792431143805e-01
 9.916912353153745e-01  4.521792431143805e-01 -3.388819177734825e-17

-2.448496335142847e-17  5.082623468554388e-20  9.933622253769175e-01
 5.082623468554388e-20 -1.925970959217550e-17  4.054906754265911e-01
 9.933622253769175e-01  4.054906754265911e-01 -3.391942353296256e-17

-2.343751753288353e-17  6.936686672066657e-21  9.344501697832873e-01
 6.936686672066657e-21 -2.159015207666509e-17  4.078737332329675e-01
 9.344501697832873e-01  4.078737332329675e-01 -3.175027482084073e-17

-2.312657162391087e-17  3.720745763244234e-20  9.178681443018616e-01
 3.720745763244234e-20 -1.150168151213682e-17  4.286156515072890e-01
 9.178681443018616e-01  4.286156515072890e-01 -3.109141080864355e-17

-2.279462962179091e-17  5.913851862461298e-20  9.047153097790840e-01
 5.913851862461298e-20 -1.933863876500604e-17  3.866702765137656e-01
 9.047153097790840e-01  3.866702765137656e-01 -3.044260751437446e-17

-2.390914150081282e-17 -4.075589249935608e-20  9.644857663213700e-01
-4.075589249935608e-20 -4.008438351400065e-17  4.072438304353380e-01
 9.644857663213700e-01  4.072438304353380e-01 -3.274728068892203e-17

-2.480632658901864e-17 -6.198453751874583e-20  1.003269177771945e+00
-6.198453751874583e-20  6.037370570039868e-18  4.601434156819230e-01
 1.003269177771945e+00  4.601434156819230e-01 -3.445290197589135e-17

-2.482153384124064e-17  8.433961892059844e-21  1.016674964037724e+00
 8.433961892059844e-21 -2.523663830401898e-18  3.963044440277074e-01
 1.016674964037724e+00  3.963044440277074e-01 -3.469381067565826e-17

-2.451949926344641e-17  9.030518388245271e-21  9.962095211327809e-01
 9.030518388245271e-21  2.606043168948974e-18  4.030366497798566e-01
 9.962095211327809e-01  4.030366497798566e-01 -3.392672916198902e-17

-2.450798808071778e-17  2.731188160508019e-20  9.964127197525490e-01
 2.731188160508019e-20  1.985906534292256e-17  4.005078538351321e-01
 9.964127197525490e-01  4.005078538351321e-01 -3.391680260428995e-17

-2.464572296505410e-17 -6.633413515489841e-20  1.001601112273687e+00
-6.633413515489841e-20 -3.197845471250555e-17  4.192668035375009e-01
 1.001601112273687e+00  4.192668035375009e-01 -3.412376864790499e-17

-2.451051429730819e-17  3.274556254276948e-21  9.860714569084998e-01
 3.274556254276948e-21  1.131636498930579e-17  4.410451000920433e-01
 9.860714569084998e-01  4.410451000920433e-01 -3.357042777367883e-17

-2.463655015891463e-17 -1.349339758548265e-19  1.005583708815711e+00
-1.349339758548265e-19 -6.828861452010171e-17  4.002639343837995e-01
 1.005583708815711e+00  4.002639343837995e-01 -3.423625323689260e-17

-2.455753859970591e-17 -1.462984270054157e-19  1.004079182230444e+00
-1.462984270054157e-19 -7.326948413971284e-17  3.893075345747617e-01
 1.004079182230444e+00  3.893075345747617e-01 -3.415665938033501e-17

-2.447575410096405e-17 -1.605171386583364e-19  9.906702041151962e-01
-1.605171386583364e-19 -6.909107922529260e-17  4.177078073631070e-01
 9.906702041151962e-01  4.177078073631070e-01 -3.369648176798555e-17

-2.458825869292237e-17  3.068992086040841e-20  9.977781520492769e-01
 3.068992086040841e-20  5.135235095173866e-17  4.230729354589510e-01
 9.977781520492769e-01  4.230729354589510e-01 -3.397195373407665e-17

-2.460355986000655e-17 -3.511498833190258e-20  1.000613355291681e+00
-3.511498833190258e-20  1.105573542296861e-17  4.139227053478757e-01
 1.000613355291681e+00  4.139227053478757e-01 -3.405810847678818e-17

-2.488146213772986e-17  1.800121269956565e-19  1.006949241046068e+00
 1.800121269956565e-19 -4.588285073205220e-18  4.215790065269127e-01
 1.006949241046068e+00  4.215790065269127e-01 -3.444413245458578e-17

-2.486124502786006e-17  1.879615949911982e-19  1.006248562134043e+00
 1.879615949911982e-19 -6.565119826680770e-18  4.229937957463130e-01
 1.006248562134043e+00  4.229937957463130e-01 -3.440839217477498e-17

-2.488848667691849e-17  1.774355428518429e-19  1.007722838163695e+00
 1.774355428518429e-19 -1.295522342217826e-17  4.208994291132445e-01
 1.007722838163695e+00  4.208994291132445e-01 -3.447539659740762e-17

-2.492287278261048e-17  1.944094572690674e-19  1.008774068405452e+00
 1.944094572690674e-19 -1.325399072577826e-17  4.213860565703106e-01
 1.008774068405452e+00  4.213860565703106e-01 -3.452854805472731e-17

-2.495578021513735e-17  1.975485619977933e-19  1.010377797189715e+00
 1.975485619977933e-19 -9.193578343411770e-18  4.210451230571545e-01
 1.010377797189715e+00  4.210451230571545e-01 -3.459728043594607e-17

-2.498383288974348e-17  2.020174474285053e-19  1.011409796737599e+00
 2.020174474285053e-19 -8.526963660200231e-18  4.208138896916384e-01
 1.011409796737599e+00  4.208138896916384e-01 -3.464530722756550e-17

-2.500071356134842e-17  2.044450891317782e-19  1.012193726744661e+00
 2.044450891317782e-19 -1.125365164251995e-17  4.206327578042553e-01
 1.012193726744661e+00  4.206327578042553e-01 -3.468139189775721e-17

-2.501637866748286e-17  2.057823404845006e-19  1.012830818714900e+00
 2.057823404845006e-19 -1.397377173639665e-17  4.206086061441447e-01
 1.012830818714900e+00  4.206086061441447e-01 -3.471169117918878e-17

-2.503322809079925e-17  2.041423494740553e-19  1.013393671540656e+00
 2.041423494740553e-19 -1.504470986011483e-17  4.206944469660839e-01
 1.013393671540656e+00  4.206944469660839e-01 -3.473838848589235e-17

-2.504928757114253e-17  1.956559866794756e-19  1.014244401920782e+00
 1.956559866794756e-19 -1.446508099933468e-17  4.198536822557045e-01
 1.014244401920782e+00  4.198536822557045e-01 -3.477402569966569e-17

-2.510801086790952e-17  1.915052849297388e-19  1.017295215874047e+00
 1.915052849297388e-19 -1.439475189694730e-17  4.191236991235919e-01
 1.017295215874047e+00  4.191236991235919e-01 -3.489188019321071e-17

-2.520191348321045e-17  1.876877590190530e-19  1.022712454292721e+00
 1.876877590190530e-19 -1.477063568280653e-17  4.206593852778786e-01
 1.022712454292721e+00  4.206593852778786e-01 -3.509427339341007e-17

-2.515552775417001e-17  1.846221185140367e-19  1.017415350418025e+00
 1.846221185140367e-19 -1.392649433307061e-17  4.270346054064295e-01
 1.017415350418025e+00  4.270346054064295e-01 -3.490780187314733e-17

-2.518546996220965e-17  1.765704377753347e-19  1.022371926844147e+00
 1.765704377753347e-19 -1.623729438809939e-17  4.193284203723016e-01
 1.022371926844147e+00  4.193284203723016e-01 -3.507013495062492e-17

-2.511865155144437e-17  1.616838102138263e-19  1.018174990516506e+00
 1.616838102138263e-19 -1.462981021888997e-17  4.203036697302924e-01
 1.018174990516506e+00  4.203036697302924e-01 -3.490268663505201e-17

-2.510204807564494e-17  1.506486368371997e-19  1.017512907337512e+00
 1.506486368371997e-19 -1.408317042666722e-17  4.213541219765078e-01
 1.017512907337512e+00  4.213541219765078e-01 -3.486722252655615e-17

-2.510407622980725e-17  1.524205080369829e-19  1.017849678691213e+00
 1.524205080369829e-19 -1.726839900549380e-17  4.224437988575874e-01
 1.017849678691213e+00  4.224437988575874e-01 -3.486884124059073e-17

-2.506706099048274e-17  1.395225310620830e-19  1.014987787068214e+00
 1.395225310620830e-19 -1.426206598915226e-17  4.235963553368111e-01
 1.014987787068214e+00  4.235963553368111e-01 -3.475982467717177e-17

-2.498033382535066e-17  1.419587764582521e-19  1.010073362764963e+00
 1.419587764582521e-19 -1.217720893676283e-17  4.225784783625396e-01
 1.010073362764963e+00  4.225784783625396e-01 -3.457329011157065e-17

-2.496996513243646e-17  1.384620832562804e-19  1.009370973402121e+00
 1.384620832562804e-19 -1.240102278254831e-17  4.206216285185635e-01
 1.009370973402121e+00  4.206216285185635e-01 -3.454743148125302e-17

-2.522276649224998e-17  1.359821163743257e-19  1.024025779262219e+00
 1.359821163743257e-19 -1.728643762127908e-17  4.235550954451319e-01
 1.024025779262219e+00  4.235550954451319e-01 -3.509361396520579e-17

-2.524152309720127e-17  1.260968771536595e-19  1.025363670194853e+00
 1.260968771536595e-19 -1.148466532277888e-17  4.232708729672573e-01
 1.025363670194853e+00  4.232708729672573e-01 -3.513265140360483e-17

-2.506341820772159e-17  1.065224624754263e-19  1.013558431391931e+00
 1.065224624754263e-19 -1.600079800879062e-17  4.250364160021360e-01
 1.013558431391931e+00  4.250364160021360e-01 -3.468671832091743e-17

-2.503579842229556e-17  1.057333494226641e-19  1.014450588685143e+00
 1.057333494226641e-19 -1.818193882096881e-17  4.155945112550687e-01
 1.014450588685143e+00  4.155945112550687e-01 -3.469340018973737e-17

-2.505264333036158e-17  1.068933819918710e-19  1.013195354849465e+00
 1.068933819918710e-19 -9.312509786934948e-18  4.288473378757396e-01
 1.013195354849465e+00  4.288473378757396e-01 -3.466248932359973e-17

-2.497665893236265e-17  9.455718382801305e-20  1.009639175597025e+00
 9.455718382801305e-20 -1.261738044261308e-17  4.218650403178725e-01
 1.009639175597025e+00  4.218650403178725e-01 -3.451300255368387e-17

-2.498733677968062e-17  1.033249978907066e-19  1.011505318337826e+00
 1.033249978907066e-19 -1.432551644888405e-17  4.129465226588542e-01
 1.011505318337826e+00  4.129465226588542e-01 -3.456951109776997e-17

-2.507206090396325e-17  9.283922129206588e-20  1.007635699787376e+00
 9.283922129206588e-20 -1.251608165092097e-17  4.410820323143784e-01
 1.007635699787376e+00  4.410820323143784e-01 -3.445455532124441e-17

-2.527798590729548e-17  1.019583138486409e-19  1.024973793426889e+00
 1.019583138486409e-19 -1.262458674608094e-17  4.288787117897370e-01
 1.024973793426889e+00  4.288787117897370e-01 -3.508373225318377e-17

-2.527047204172184e-17  7.837419469483874e-20  1.024833228027554e+00
 7.837419469483874e-20 -1.443438661012047e-17  4.240458441948119e-01
 1.024833228027554e+00  4.240458441948119e-01 -3.507220114226728e-17

-2.529973641439506e-17  8.207938903539812e-20  1.024623081750441e+00
 8.207938903539812e-20 -1.621625348150890e-17  4.215578260793266e-01
 1.024623081750441e+00  4.215578260793266e-01 -3.505413949970804e-17

-2.519150549312082e-17  7.522169361929803e-20  1.018608293545530e+00
 7.522169361929803e-20 -1.593909031265444e-17  4.252924465056302e-01
 1.018608293545530e+00  4.252924465056302e-01 -3.483442794873546e-17

-2.523801076709351e-17  6.344514270474666e-20  1.020888060777113e+00
 6.344514270474666e-20 -1.558295828674721e-17  4.257833397280569e-01
 1.020888060777113e+00  4.257833397280569e-01 -3.490832927405943e-17

-2.528811294972154e-17  5.945905983617851e-20  1.018298682677759e+00
 5.945905983617851e-20 -9.467475673459774e-18  4.340742901954716e-01
 1.018298682677759e+00  4.340742901954716e-01 -3.482196589445319e-17

-2.527815140054035e-17  7.238319115254011e-20  1.022627165281542e+00
 7.238319115254011e-20 -2.006807709626615e-17  4.266269104718756e-01
 1.022627165281542e+00  4.266269104718756e-01 -3.496926990222454e-17

-2.525231885628303e-17  5.804137522061680e-20  1.019749292896865e+00
 5.804137522061680e-20 -1.462949939229771e-17  4.275082558778001e-01
 1.019749292896865e+00  4.275082558778001e-01 -3.485802434792443e-17

-2.527842375056222e-17  5.541520011585623e-20  1.020273953012851e+00
 5.541520011585623e-20 -7.952119621895913e-18  4.289749816569439e-01
 1.020273953012851e+00  4.289749816569439e-01 -3.487299395184200e-17

-2.533717953826703e-17  5.038782667444346e-20  1.021465996018222e+00
 5.038782667444346e-20 -1.577748040311380e-17  4.289268791760576e-01
 1.021465996018222e+00  4.289268791760576e-01 -3.491138580515150e-17

-2.531014271160162e-17  5.239261248680135e-20  1.020814572277127e+00
 5.239261248680135e-20 -1.170535680477319e-17  4.291776129227499e-01
 1.020814572277127e+00  4.291776129227499e-01 -3.489095703165398e-17

-2.533966749039655e-17  6.373761806106876e-20  1.020886828879675e+00
 6.373761806106876e-20 -1.198534732415968e-17  4.295862834569616e-01
 1.020886828879675e+00  4.295862834569616e-01 -3.489000175639704e-17

-2.531584952378145e-17  5.993362599649787e-20  1.019463898703103e+00
 5.993362599649787e-20 -1.597850606852004e-17  4.292407102596807e-01
 1.019463898703103e+00  4.292407102596807e-01 -3.484381143181277e-17

-2.533922210203650e-17  7.129799144484981e-20  1.020313358249679e+00
 7.129799144484981e-20 -1.097780271456507e-17  4.284086832036443e-01
 1.020313358249679e+00  4.284086832036443e-01 -3.487360629637579e-17

-2.535121792691755e-17  6.275588783559394e-20  1.019700467631778e+00
 6.275588783559394e-20 -1.153983549468878e-17  4.307301012470766e-01
 1.019700467631778e+00  4.307301012470766e-01 -3.485589860761691e-17

-2.534726136152811e-17  6.960703936950513e-20  1.018806552404639e+00
 6.960703936950513e-20 -1.607669369007401e-17  4.301339608753593e-01
 1.018806552404639e+00  4.301339608753593e-01 -3.482850206943061e-17

-2.535731436256940e-17  7.702610824752442e-20  1.017979253344420e+00
 7.702610824752442e-20 -1.161707753288086e-17  4.301853625220774e-01
 1.017979253344420e+00  4.301853625220774e-01 -3.480433872597251e-17

-2.540989206218308e-17  9.338224396067129e-20  1.020335510750800e+00
 9.338224396067129e-20 -1.431561832805439e-17  4.286283605689659e-01
 1.020335510750800e+00  4.286283605689659e-01 -3.489734304213546e-17

-2.544349330955464e-17  8.323693056560945e-20  1.021983616901209e+00
 8.323693056560945e-20 -1.826695820854082e-17  4.289622208916057e-01
 1.021983616901209e+00  4.289622208916057e-01 -3.496097166830648e-17

-2.545174332956434e-17  8.983770674312694e-20  1.020717375278771e+00
 8.983770674312694e-20 -1.174157881024161e-17  4.286893076217921e-01
 1.020717375278771e+00  4.286893076217921e-01 -3.492641902415227e-17

-2.544489320491488e-17  9.427549601075465e-20  1.017867583481145e+00
 9.427549601075465e-20 -1.079290928550217e-17  4.316553194049730e-01
 1.017867583481145e+00  4.316553194049730e-01 -3.483210355568309e-17

-2.554120616598053e-17  8.351906360540652e-20  1.019339443174179e+00
 8.351906360540652e-20 -1.309521544290304e-17  4.309134643847015e-01
 1.019339443174179e+00  4.309134643847015e-01 -3.489588969201527e-17

-2.552097035872600e-17  1.096926722534469e-19  1.022035808393197e+00
 1.096926722534469e-19 -1.199461091041003e-17  4.281231334479089e-01
 1.022035808393197e+00  4.281231334479089e-01 -3.500174415579316e-17

-2.556467085521144e-17  1.024833030262996e-19  1.023890567721953e+00
 1.024833030262996e-19 -1.158976940065469e-17  4.268210218187312e-01
 1.023890567721953e+00  4.268210218187312e-01 -3.507427067760265e-17

-2.557768963005090e-17  1.037957046560383e-19  1.023797968371347e+00
 1.037957046560383e-19 -1.282883927744802e-17  4.272904525582959e-01
 1.023797968371347e+00  4.272904525582959e-01 -3.507679733356584e-17

-2.556750539421929e-17  1.151186001338017e-19  1.021791185589729e+00
 1.151186001338017e-19 -1.446115321230557e-17  4.292088595097477e-01
 1.021791185589729e+00  4.292088595097477e-01 -3.501288620442174e-17

-2.559207963298793e-17  1.051251530659469e-19  1.022434716083596e+00
 1.051251530659469e-19 -1.655327813885991e-17  4.272654179318702e-01
 1.022434716083596e+00  4.272654179318702e-01 -3.503923227881309e-17

-2.565281095764212e-17  8.944929115277764e-20  1.024209953209753e+00
 8.944929115277764e-20 -1.304381109672521e-17  4.278145131292244e-01
 1.024209953209753e+00  4.278145131292244e-01 -3.511099790219842e-17

-2.574214213501377e-17  9.475096049815287e-20  1.027928013461535e+00
 9.475096049815287e-20 -1.550189206533734e-17  4.250526205534990e-01
 1.027928013461535e+00  4.250526205534990e-01 -3.524988608192281e-17

-2.586363580846286e-17  9.049524743103846e-20  1.033828776440680e+00
 9.049524743103846e-20 -1.715344545532119e-17  4.283395182265033e-01
 1.033828776440680e+00  4.283395182265033e-01 -3.547678277709398e-17

-2.583678738807719e-17  6.357426426210638e-20  1.028548708833082e+00
 6.357426426210638e-20 -1.372219787446126e-17  4.353706484746302e-01
 1.028548708833082e+00  4.353706484746302e-01 -3.529592169984316e-17

-2.590211637840985e-17  5.888381807840314e-20  1.035311369007522e+00
 5.888381807840314e-20 -1.762617327850480e-17  4.255568957628207e-01
 1.035311369007522e+00  4.255568957628207e-01 -3.552444875389983e-17

-2.576123535350896e-17  4.837862024397188e-20  1.025505872380002e+00
 4.837862024397188e-20 -1.404315615563873e-17  4.271286567037998e-01
 1.025505872380002e+00  4.271286567037998e-01 -3.515052928332634e-17

-2.568572843352596e-17  4.828260837987125e-20  1.020147926122884e+00
 4.828260837987125e-20 -1.481595107596957e-17  4.276402579532960e-01
 1.020147926122884e+00  4.276402579532960e-01 -3.494385655035885e-17

-2.568700835032667e-17  4.157998359553535e-20  1.019088103978772e+00
 4.157998359553535e-20 -1.507345999340527e-17  4.283389628245062e-01
 1.019088103978772e+00  4.283389628245062e-01 -3.490291322507501e-17

-2.569216146915400e-17  3.606963563815265e-20  1.018210722883532e+00
 3.606963563815265e-20 -1.535256837530352e-17  4.281235855873303e-01
 1.018210722883532e+00  4.281235855873303e-01 -3.486888900174470e-17

-2.569273816627421e-17  3.147285453372203e-20  1.016830715827002e+00
 3.147285453372203e-20 -1.562593364620375e-17  4.282571297852910e-01
 1.016830715827002e+00  4.282571297852910e-01 -3.481783882398267e-17

-2.567863752889625e-17  7.219628982887373e-20  1.015634005507398e+00
 7.219628982887373e-20 -1.427157746774733e-17  4.271391419849774e-01
 1.015634005507398e+00  4.271391419849774e-01 -3.476649938979287e-17

-2.571903698924723e-17  5.125971676173314e-20  1.016050037789420e+00
 5.125971676173314e-20 -1.905654207527530e-17  4.283415671766683e-01
 1.016050037789420e+00  4.283415671766683e-01 -3.478796452583690e-17

-2.575634605020932e-17  4.811270194118369e-20  1.017584423857677e+00
 4.811270194118369e-20 -1.569178493134095e-17  4.252862212277680e-01
 1.017584423857677e+00  4.252862212277680e-01 -3.483973852119787e-17

-2.575493283168396e-17  3.582661823435273e-20  1.015361410489217e+00
 3.582661823435273e-20 -1.374869894248056e-17  4.284532861882721e-01
 1.015361410489217e+00  4.284532861882721e-01 -3.476426161736243e-17

-2.574776491484612e-17  5.507065303162921e-20  1.013681485428563e+00
 5.507065303162921e-20 -9.129593360749720e-18  4.278565104637728e-01
 1.013681485428563e+00  4.278565104637728e-01 -3.470644756265355e-17

-2.581322505176712e-17  4.002164000658169e-20  1.015757923522171e+00
 4.002164000658169e-20 -1.733533183096505e-17  4.267845587375424e-01
 1.015757923522171e+00  4.267845587375424e-01 -3.478993871742677e-17

-2.585353018650143e-17  5.083387106023774e-20  1.016528636277619e+00
 5.083387106023774e-20 -1.946431981047345e-17  4.245295948760588e-01
 1.016528636277619e+00  4.245295948760588e-01 -3.482029218867810e-17

-2.581889932038121e-17  4.902414523476679e-20  1.010646223241992e+00
 4.902414523476679e-20 -9.856814350676953e-18  4.281168704529849e-01
 1.010646223241992e+00  4.281168704529849e-01 -3.461059960042767e-17

-2.588423212007373e-17  1.819200901487255e-20  1.015307693362885e+00
 1.819200901487255e-20 -1.752020204788677e-17  4.258663904209554e-01
 1.015307693362885e+00  4.258663904209554e-01 -3.478820504330288e-17

-2.592955720555421e-17  1.231140950785913e-20  1.017016459368422e+00
 1.231140950785913e-20 -1.141407296524188e-17  4.275627050157824e-01
 1.017016459368422e+00  4.275627050157824e-01 -3.484989769036075e-17

-2.592314093178010e-17  6.164470425977947e-20  1.016514994241696e+00
 6.164470425977947e-20 -1.483777617914406e-17  4.242611677049374e-01
 1.016514994241696e+00  4.242611677049374e-01 -3.483225927976847e-17

-2.591441185258069e-17 -3.634471231326327e-21  1.013942504925149e+00
-3.634471231326327e-21 -7.629230628054147e-18  4.250318169980430e-01
 1.013942504925149e+00  4.250318169980430e-01 -3.474794103072818e-17

-2.588056584891992e-17  1.748838827066447e-20  1.010077311536392e+00
 1.748838827066447e-20 -1.304853757079308e-17  4.277077131462251e-01
 1.010077311536392e+00  4.277077131462251e-01 -3.460946204449481e-17

-2.592514220765605e-17  3.234146511098135e-21  1.010523874795681e+00
 3.234146511098135e-21 -1.031441902224077e-17  4.295156936637531e-01
 1.010523874795681e+00  4.295156936637531e-01 -3.463481938728422e-17

-2.598051625376920e-17 -2.029388315476339e-20  1.012941188489558e+00
-2.029388315476339e-20 -1.133335263890479e-17  4.253503377514256e-01
 1.012941188489558e+00  4.253503377514256e-01 -3.472435417147512e-17

-2.607070500557103e-17  4.346299964141757e-21  1.017596721185248e+00
 4.346299964141757e-21 -8.906478781433000e-18  4.228216139748420e-01
 1.017596721185248e+00  4.228216139748420e-01 -3.490308588926475e-17

-2.607031231236653e-17 -2.674223351291055e-20  1.013463786135450e+00
-2.674223351291055e-20 -1.362641234273383e-17  4.258592887043223e-01
 1.013463786135450e+00  4.258592887043223e-01 -3.476788194685192e-17

-2.613874633208058e-17  2.625033347275620e-20  1.014406527965214e+00
 2.625033347275620e-20 -8.180662695667955e-18  4.258284861342596e-01
 1.014406527965214e+00  4.258284861342596e-01 -3.481368037440405e-17

-2.620426873926432e-17 -1.448448745597063e-20  1.015166420564510e+00
-1.448448745597063e-20 -1.068503129546085e-17  4.251397350583106e-01
 1.015166420564510e+00  4.251397350583106e-01 -3.485385683694654e-17

-2.622065218066225e-17  2.037521796682552e-20  1.012595262462784e+00
 2.037521796682552e-20 -1.124986491407634e-17  4.271785192116849e-01
 1.012595262462784e+00  4.271785192116849e-01 -3.476931864001759e-17

-2.629286826948267e-17 -3.793096285041442e-20  1.013831171300239e+00
-3.793096285041442e-20 -1.297347595499638e-17  4.280765880666688e-01
 1.013831171300239e+00  4.280765880666688e-01 -3.482301199592114e-17

-2.636509077946003e-17 -1.404865282467138e-20  1.015935015819849e+00
-1.404865282467138e-20 -1.527490059154846e-17  4.236754444509680e-01
 1.015935015819849e+00  4.236754444509680e-01 -3.491282929097845e-17

-2.645915681506894e-17 -2.694831390884909e-20  1.017326442336424e+00
-2.694831390884909e-20 -9.126983723065009e-18  4.261849727019706e-01
 1.017326442336424e+00  4.261849727019706e-01 -3.498071794805641e-17

-2.648925757699058e-17  3.244450298622260e-21  1.014771155104915e+00
 3.244450298622260e-21 -1.749330690530856e-17  4.245944819894483e-01
 1.014771155104915e+00  4.245944819894483e-01 -3.489938411458789e-17

-2.663255502280257e-17  2.880265658765356e-20  1.018640222131024e+00
 2.880265658765356e-20 -2.134338937299030e-17  4.258181467904795e-01
 1.018640222131024e+00  4.258181467904795e-01 -3.506169815491221e-17

-2.667829937016185e-17 -2.117161566515098e-20  1.015381689912052e+00
-2.117161566515098e-20 -1.593434504387449e-17  4.245358637855469e-01
 1.015381689912052e+00  4.245358637855469e-01 -3.495871277936775e-17

-2.672205442243088e-17 -4.397667271844439e-20  1.015405884204879e+00
-4.397667271844439e-20 -1.532071487483304e-17  4.255084568127872e-01
 1.015405884204879e+00  4.255084568127872e-01 -3.497283817898073e-17

-2.677286301606050e-17 -6.687630399393527e-20  1.015888493636856e+00
-6.687630399393527e-20 -1.472531532578634e-17  4.255707361965735e-01
 1.015888493636856e+00  4.255707361965735e-01 -3.500349806684797e-17

-2.686345427966142e-17 -2.767330025864690e-20  1.016249688714012e+00
-2.767330025864690e-20 -1.722461996580920e-17  4.256408258853582e-01
 1.016249688714012e+00  4.256408258853582e-01 -3.502985546223643e-17

-2.696664933037391e-17 -4.121688229399217e-20  1.015719027293874e+00
-4.121688229399217e-20 -2.186460077674960e-17  4.254509726007574e-01
 1.015719027293874e+00  4.254509726007574e-01 -3.503571901755944e-17

-2.704469870764413e-17 -5.864733967479756e-20  1.016064682339566e+00
-5.864733967479756e-20 -2.356147289980328e-17  4.257649495863704e-01
 1.016064682339566e+00  4.257649495863704e-01 -3.507013505217020e-17

-2.714519948726677e-17 -9.318223398383169e-20  1.015629129531136e+00
-9.318223398383169e-20 -1.872404003693700e-17  4.255089380054905e-01
 1.015629129531136e+00  4.255089380054905e-01 -3.507411483745714e-17

-2.725483075765534e-17 -6.207461727049304e-20  1.015957916637785e+00
-6.207461727049304e-20 -1.525416695168320e-17  4.262029040086794e-01
 1.015957916637785e+00  4.262029040086794e-01 -3.511146533063475e-17

-2.735196381139272e-17 -1.358635272594360e-19  1.017580871538527e+00
-1.358635272594360e-19 -1.405751936140118e-17  4.252878688569735e-01
 1.017580871538527e+00  4.252878688569735e-01 -3.518901031113800e-17

-2.741719511194587e-17 -5.830593501990837e-20  1.019130192378668e+00
-5.830593501990837e-20 -1.428207247732211e-17  4.251991840336227e-01
 1.019130192378668e+00  4.251991840336227e-01 -3.524869110561295e-17

-2.749443317192217e-17 -3.281200440949031e-20  1.017906059067270e+00
-3.281200440949031e-20 -2.626356928734685e-17  4.260516531533530e-01
 1.017906059067270e+00  4.260516531533530e-01 -3.523203639699926e-17

-2.760170504615751e-17 -1.798151782439871e-19  1.018559663775588e+00
-1.798151782439871e-19 -1.524446653261830e-17  4.260308149532667e-01
 1.018559663775588e+00  4.260308149532667e-01 -3.527315494430677e-17

-2.766861064049971e-17 -2.353047930452593e-19  1.017999773763348e+00
-2.353047930452593e-19 -6.591281879845068e-18  4.274756362682868e-01
 1.017999773763348e+00  4.274756362682868e-01 -3.527042873528182e-17

-2.774758558803592e-17 -1.002265736123334e-19  1.017915644022534e+00
-1.002265736123334e-19 -2.037630523493315e-17  4.264673483207562e-01
 1.017915644022534e+00  4.264673483207562e-01 -3.529048389212621e-17

-2.788068844176429e-17 -2.211073636386297e-19  1.017272369000417e+00
-2.211073636386297e-19 -1.168581797165023e-17  4.264738965095470e-01
 1.017272369000417e+00  4.264738965095470e-01 -3.529902900394158e-17

-2.799573071840180e-17 -2.396116265473481e-19  1.017301832111717e+00
-2.396116265473481e-19 -1.180232263670584e-17  4.272702532120910e-01
 1.017301832111717e+00  4.272702532120910e-01 -3.533846325587651e-17

-2.815997975141788e-17 -2.269561337195726e-19  1.018350503272077e+00
-2.269561337195726e-19 -1.488528835323317e-17  4.274461003771698e-01
 1.018350503272077e+00  4.274461003771698e-01 -3.539241646616003e-17

-2.824295062591313e-17 -2.994426083836168e-19  1.017157768866163e+00
-2.994426083836168e-19 -1.316998465686350e-17  4.270628472253553e-01
 1.017157768866163e+00  4.270628472253553e-01 -3.539319781551974e-17

-2.846186296031552e-17 -2.923623367709004e-19  1.017543419672992e+00
-2.923623367709004e-19 -1.660662273468008e-17  4.274932454995897e-01
 1.017543419672992e+00  4.274932454995897e-01 -3.546427008328353e-17

-2.866096525601815e-17 -1.840536492643029e-19  1.016920149806546e+00
-1.840536492643029e-19 -2.820656209788304e-17  4.274456398508542e-01
 1.016920149806546e+00  4.274456398508542e-01 -3.549488182179021e-17

-2.882074363877780e-17 -2.068992367290696e-19  1.016619775013170e+00
-2.068992367290696e-19 -2.828138626666769e-17  4.275550887689269e-01
 1.016619775013170e+00  4.275550887689269e-01 -3.554216173853233e-17

-2.902298164486682e-17 -3.441916238810550e-19  1.016370919664140e+00
-3.441916238810550e-19 -1.211387161480460e-17  4.275343471882934e-01
 1.016370919664140e+00  4.275343471882934e-01 -3.558938049886585e-17

-2.920999828709683e-17 -3.118757163425911e-19  1.016517137961990e+00
-3.118757163425911e-19 -2.355262664193171e-17  4.275226600831582e-01
 1.016517137961990e+00  4.275226600831582e-01 -3.564843879365922e-17

-2.944579787128180e-17 -3.504524763795019e-19  1.015812403933071e+00
-3.504524763795019e-19 -2.099805640820961e-17  4.270647493572660e-01
 1.015812403933071e+00  4.270647493572660e-01 -3.570411364032271e-17

-2.965411410655716e-17 -2.873758882550600e-19  1.016225289231124e+00
-2.873758882550600e-19 -2.947880705119878e-17  4.267067966533271e-01
 1.016225289231124e+00  4.267067966533271e-01 -3.578338647066500e-17

-2.981012265001789e-17 -3.560884136910971e-19  1.016255136971279e+00
-3.560884136910971e-19 -2.371945653129079e-17  4.273433485195233e-01
 1.016255136971279e+00  4.273433485195233e-01 -3.582940577834679e-17

-3.002274088681629e-17 -3.877636453890577e-19  1.016406191612951e+00
-3.877636453890577e-19 -2.391199529919019e-17  4.268773855880972e-01
 1.016406191612951e+00  4.268773855880972e-01 -3.591199928700318e-17

-3.029442748553148e-17 -4.074428287440395e-19  1.015693883657781e+00
-4.074428287440395e-19 -2.697011214870829e-17  4.264738435652838e-01
 1.015693883657781e+00  4.264738435652838e-01 -3.596936325952221e-17

-3.064639898338037e-17 -6.742264803137283e-19  1.015237690121260e+00
-6.742264803137283e-19 -9.999851838415118e-18  4.267294828699130e-01
 1.015237690121260e+00  4.267294828699130e-01 -3.606864588122947e-17

-3.091393803297120e-17 -6.074456410099589e-19  1.016193475764761e+00
-6.074456410099589e-19 -1.960863242064896e-17  4.254721179911897e-01
 1.016193475764761e+00  4.254721179911897e-01 -3.618506947809893e-17

-3.111873573388920e-17 -4.755562245630158e-19  1.016722433354075e+00
-4.755562245630158e-19 -2.945484932423321e-17  4.261324747441641e-01
 1.016722433354075e+00  4.261324747441641e-01 -3.626470987047698e-17

-3.150300846176439e-17 -7.078869391204954e-19  1.015623617164752e+00
-7.078869391204954e-19 -1.940421794090596e-17  4.261808966339388e-01
 1.015623617164752e+00  4.261808966339388e-01 -3.635686405494470e-17

-3.191666739468131e-17 -7.458686304343832e-19  1.014860173204927e+00
-7.458686304343832e-19 -1.522374659975622e-17  4.263687251309154e-01
 1.014860173204927e+00  4.263687251309154e-01 -3.646504391743077e-17

-3.215567422235191e-17 -6.143643245406830e-19  1.014145678749623e+00
-6.143643245406830e-19 -3.485446103901282e-17  4.268009561932509e-01
 1.014145678749623e+00  4.268009561932509e-01 -3.652214609358050e-17

-3.255523230450285e-17 -7.991825364451567e-19  1.015317093353113e+00
-7.991825364451567e-19 -2.886093100138613e-17  4.256845934505473e-01
 1.015317093353113e+00  4.256845934505473e-01 -3.669044642029562e-17

-3.317410958404759e-17 -9.283623863070429e-19  1.015114929175915e+00
-9.283623863070429e-19 -1.699036971466986e-17  4.259814696247091e-01
 1.015114929175915e+00  4.259814696247091e-01 -3.688755903727741e-17

-3.381861719511954e-17 -1.025095163057181e-18  1.014200612664206e+00
-1.025095163057181e-18 -2.183727968919705e-17  4.256437039515676e-01
 1.014200612664206e+00  4.256437039515676e-01 -3.706618844997261e-17

-3.448056891744369e-17 -1.128633262210210e-18  1.013867106841658e+00
-1.128633262210210e-18 -2.225327480251989e-17  4.256841240480723e-01
 1.013867106841658e+00  4.256841240480723e-01 -3.729087727168922e-17

-3.542109133604479e-17 -1.307982350551571e-18  1.013477943738106e+00
-1.307982350551571e-18 -1.963263443889407e-17  4.264406007446768e-01
 1.013477943738106e+00  4.264406007446768e-01 -3.758675301715754e-17

-3.625798720245039e-17 -1.197006919808676e-18  1.012912304818241e+00
-1.197006919808676e-18 -4.226307187223869e-17  4.247823875432605e-01
 1.012912304818241e+00  4.247823875432605e-01 -3.784034913163923e-17

-3.673309919860807e-17 -1.372760068633162e-18  1.013042730262923e+00
-1.372760068633162e-18 -2.664775551125047e-17  4.233588107826315e-01
 1.013042730262923e+00  4.233588107826315e-01 -3.799283222266318e-17

-3.689935012613033e-17 -1.573492243924721e-18  1.011157989834512e+00
-1.573492243924721e-18 -1.289187437979607e-17  4.240014105356573e-01
 1.011157989834512e+00  4.240014105356573e-01 -3.801325682570316e-17

-3.724096729705317e-17 -1.509194554443349e-18  1.012882398288528e+00
-1.509194554443349e-18 -3.367090010692128e-17  4.250693410418426e-01
 1.012882398288528e+00  4.250693410418426e-01 -3.815900199914461e-17

-3.787931187791629e-17 -1.487021098146812e-18  1.011745878439343e+00
-1.487021098146812e-18 -3.667417202704545e-17  4.265227451599370e-01
 1.011745878439343e+00  4.265227451599370e-01 -3.836065664703042e-17

-3.887707270412335e-17 -1.629888094383923e-18  1.012730785682911e+00
-1.629888094383923e-18 -3.724201609552581e-17  4.255890181887078e-01
 1.012730785682911e+00  4.255890181887078e-01 -3.874858117973439e-17

-3.954182249513139e-17 -1.907994852757932e-18  1.013502736208189e+00
-1.907994852757932e-18 -1.642962875036630e-17  4.239446913282292e-01
 1.013502736208189e+00  4.239446913282292e-01 -3.899657529644180e-17

-4.069881318363440e-17 -2.123828817129685e-18  1.013274598901498e+00
-2.123828817129685e-18 -1.935152194187124e-17  4.243869312370213e-01
 1.013274598901498e+00  4.243869312370213e-01 -3.939082183557706e-17

-4.238804133055134e-17 -2.218617768800902e-18  1.014008825243591e+00
-2.218617768800902e-18 -2.994799846554775e-17  4.238145053283380e-01
 1.014008825243591e+00  4.238145053283380e-01 -3.999798548895952e-17

-4.327034038379571e-17 -2.104219672065357e-18  1.013046478452745e+00
-2.104219672065357e-18 -5.436475443670580e-17  4.235281316523122e-01
 1.013046478452745e+00  4.235281316523122e-01 -4.027542962387169e-17

-4.392430836157597e-17 -2.446529820253245e-18  1.013924821761510e+00
-2.446529820253245e-18 -3.300955432220530e-17  4.241522398448250e-01
 1.013924821761510e+00  4.241522398448250e-01 -4.051037454580787e-17

-4.444233157119285e-17 -2.463133942292740e-18  1.013353682904048e+00
-2.463133942292740e-18 -3.327766210160698e-17  4.229295323340614e-01
 1.013353682904048e+00  4.229295323340614e-01 -4.069238892083124e-17

-4.536915061661319e-17 -2.715556753266658e-18  1.013348106050660e+00
-2.715556753266658e-18 -2.162001818748085e-17  4.234472040918310e-01
 1.013348106050660e+00  4.234472040918310e-01 -4.101070205968854e-17

-4.664305568506178e-17 -2.872084628768314e-18  1.013977671980722e+00
-2.872084628768314e-18 -1.966267597459138e-17  4.233859574862230e-01
 1.013977671980722e+00  4.233859574862230e-01 -4.145912614498777e-17

-4.867465307771776e-17 -2.918051750093240e-18  1.013012517514140e+00
-2.918051750093240e-18 -4.913390912607241e-17  4.229827344130757e-01
 1.013012517514140e+00  4.229827344130757e-01 -4.214763279926126e-17

-5.255818073070112e-17 -3.809146099452946e-18  1.012951871938910e+00
-3.809146099452946e-18 -1.190340227749692e-17  4.225630558578591e-01
 1.012951871938910e+00  4.225630558578591e-01 -4.349313971484172e-17

-5.676991034090355e-17 -3.827397290290074e-18  1.013139321874888e+00
-3.827397290290074e-18 -5.027299564032949e-17  4.225045866657386e-01
 1.013139321874888e+00  4.225045866657386e-01 -4.494660624700152e-17

-6.052286330807270e-17 -4.269324101155689e-18  1.013578501864289e+00
-4.269324101155689e-18 -5.143778762074218e-17  4.223582847726627e-01
 1.013578501864289e+00  4.223582847726627e-01 -4.627334730684370e-17

-6.500052060357707e-17 -4.945685719571599e-18  1.014598894495438e+00
-4.945685719571599e-18 -4.621127380548091e-17  4.227540105934289e-01
 1.014598894495438e+00  4.227540105934289e-01 -4.784626065069149e-17

-7.121372296763763e-17 -5.729372467068270e-18  1.014919096121203e+00
-5.729372467068270e-18 -3.486485371668776e-17  4.227054545511310e-01
 1.014919096121203e+00  4.227054545511310e-01 -5.001113403123492e-17

-7.607917971008302e-17 -6.156751038868774e-18  1.014167965397058e+00
-6.156751038868774e-18 -2.849590939223995e-17  4.227709902888864e-01
 1.014167965397058e+00  4.227709902888864e-01 -5.167677652117701e-17

-8.146640580566092e-17 -6.274275216913491e-18  1.014332148699705e+00
-6.274275216913491e-18 -5.379706343951313e-17  4.224876951120804e-01
 1.014332148699705e+00  4.224876951120804e-01 -5.355369154518011e-17

-9.351776012247546e-17 -7.176759397886868e-18  1.014702825745652e+00
-7.176759397886868e-18 -6.003816894390341e-17  4.223349466101644e-01
 1.014702825745652e+00  4.223349466101644e-01 -5.776707676182688e-17

-1.042938837735431e-16 -8.036949301031021e-18  1.015657073219828e+00
-8.036949301031021e-18 -2.827208810190069e-17  4.234642980378192e-01
 1.015657073219828e+00  4.234642980378192e-01 -6.154051866206449e-17

-1.133524282807525e-16 -8.058074686192456e-18  1.015044484384650e+00
-8.058074686192456e-18 -6.704839128943495e-17  4.220017423569450e-01
 1.015044484384650e+00  4.220017423569450e-01 -6.469490495274773e-17

-1.278348179086494e-16 -8.373170402541407e-18  1.014616432797232e+00
-8.373170402541407e-18 -6.672749201715298e-17  4.221242689501338e-01
 1.014616432797232e+00  4.221242689501338e-01 -6.977065222657184e-17

-1.488436754908613e-16 -8.198749091531525e-18  1.014733035362545e+00
-8.198749091531525e-18 -6.399759267566636e-17  4.224451616067889e-01
 1.014733035362545e+00  4.224451616067889e-01 -7.715963745576227e-17

-1.848640806345660e-16 -6.527049192851249e-18  1.014176819824923e+00
-6.527049192851249e-18 -9.809916020764380e-17  4.222931313563751e-01
 1.014176819824923e+00  4.222931313563751e-01 -8.989104760059734e-17

-2.338659384875767e-16 -2.245760660832579e-18  1.014552225779269e+00
-2.245760660832579e-18 -6.414002008259247e-17  4.227690437742115e-01
 1.014552225779269e+00  4.227690437742115e-01 -1.074765824975695e-16

-2.792548326976737e-16  4.192481065515742e-18  1.015110214544694e+00
 4.192481065515742e-18 -3.481031391161968e-17  4.221293223569134e-01
 1.015110214544694e+00  4.221293223569134e-01 -1.239946000505068e-16

-3.423727072138135e-16  1.697069407863574e-17  1.015720878534048e+00
 1.697069407863574e-17 -3.024259294397156e-18  4.230842528401710e-01
 1.015720878534048e+00  4.230842528401710e-01 -1.473650119562406e-16

-4.393745970021921e-16  4.263142175117254e-17  1.015488111618291e+00
 4.263142175117254e-17  7.422822608832962e-17  4.230374253254608e-01
 1.015488111618291e+00  4.230374253254608e-01 -1.840704202054972e-16

-6.031126776567841e-16  1.078871729194372e-16  1.016029067859800e+00
 1.078871729194372e-16  1.204241580918856e-16  4.237561347097450e-01
 1.016029067859800e+00  4.237561347097450e-01 -2.491258629284754e-16

-7.864567578677546e-16  2.109060874918682e-16  1.018758960725700e+00
 2.109060874918682e-16  2.531797338346962e-16  4.230826948926111e-01
 1.018758960725700e+00  4.230826948926111e-01 -3.274567426653198e-16

-9.270656664035739e-16  3.073554284228337e-16  1.018249466372153e+00
 3.073554284228337e-16  4.763198591012487e-16  4.235927145890888e-01
 1.018249466372153e+00  4.235927145890888e-01 -3.911465087654716e-16

-1.054341856269348e-15  4.122136625902464e-16  1.017813308498778e+00
 4.122136625902464e-16  5.017968049784816e-16  4.236731368600246e-01
 1.017813308498778e+00  4.236731368600246e-01 -4.521653562759689e-16

-1.259488348746849e-15  6.123768566450652e-16  1.020631762175085e+00
 6.123768566450652e-16  7.148709424591585e-16  4.241611805388528e-01
 1.020631762175085e+00  4.241611805388528e-01 -5.582232288600230e-16

-1.630415705108083e-15  1.104101998875839e-15  1.018751770211358e+00
 1.104101998875839e-15  1.105393877175765e-15  4.266287574072509e-01
 1.018751770211358e+00  4.266287574072509e-01 -7.831865806197419e-16

-2.229573288847570e-15  2.443278827558674e-15  1.013707396981842e+00
 2.443278827558674e-15  1.834122959204254e-15  4.239541128544758e-01
 1.013707396981842e+00  4.239541128544758e-01 -1.309358707022921e-15

-2.773726800852553e-15  5.042919664353180e-15  1.015782818827723e+00
 5.042919664353180e-15  2.587987568131933e-15  4.249616958636675e-01
 1.015782818827723e+00  4.249616958636675e-01 -2.283136065528226e-15

-3.178188169130524e-15  9.105289750460159e-15  1.018259099809854e+00
 9.105289750460159e-15  2.581956699027346e-15  4.269765816951271e-01
 1.018259099809854e+00  4.269765816951271e-01 -4.059210543011702e-15

-5.808952703776183e-15  1.484226722870479e-14  1.018851416829565e+00
 1.484226722870479e-14  9.440756540490885e-16  4.256139900455898e-01
 1.018851416829565e+00  4.256139900455898e-01 -9.391612697121237e-15

 1.663722607900843e-14  7.848762163609232e-16  1.017748443457261e+00
 7.848762163609232e-16  2.198804324821144e-14  4.271704093559389e-01
 1.017748443457261e+00  4.271704093559389e-01 -7.856632275764220e-15

 1.677038692353110e-13 -4.040137740050142e-14  1.018350016682037e+00
-4.040137740050142e-14  8.576440658725644e-14  4.248769520623970e-01
 1.018350016682037e+00  4.248769520623970e-01  4.042455396581424e-14

-6.326593800378548e-13  1.473882036714800e-13  1.017981091228846e+00
 1.473882036714800e-13 -3.142618978190676e-13  4.256499028868092e-01
 1.017981091228846e+00  4.256499028868092e-01 -1.586567433804008e-13

 1.697642430672417e-13 -6.296206861764468e-14  1.019342040160501e+00
-6.296206861764468e-14  9.297272498209957e-14  4.317416210393220e-01
 1.019342040160501e+00  4.317416210393220e-01  4.514259164222306e-14

-6.651005310766635e-13  1.471741221348050e-13  1.019488737773319e+00
 1.471741221348050e-13 -3.102783542779188e-13  4.307512869449631e-01
 1.019488737773319e+00  4.307512869449631e-01 -1.787298630561512e-13

-1.756451111220534e-14 -1.221931172051066e-14  1.019740752555905e+00
-1.221931172051066e-14  7.234499522420890e-15  4.308003147084512e-01
 1.019740752555905e+00  4.308003147084512e-01 -1.259758021988878e-14

-1.742283858814337e-14 -4.052302170188228e-15  1.019306315758642e+00
-4.052302170188228e-15 -1.810493361626268e-15  4.305462494522668e-01
 1.019306315758642e+00  4.305462494522668e-01 -9.403008065435363e-15

-1.243437523727138e-14 -1.410567465529101e-15  1.018889931619990e+00
-1.410567465529101e-15 -2.433512634166981e-15  4.312316128482103e-01
 1.018889931619990e+00  4.312316128482103e-01 -5.853724383505336e-15

-7.264904914773411e-15  3.937782000996802e-16  1.018900936880109e+00
 3.937782000996802e-16 -1.847728711517660e-15  4.307375257873207e-01
 1.018900936880109e+00  4.307375257873207e-01 -2.777966597396127e-15

-4.088024508353026e-15  9.377813630229292e-16  1.019872453020879e+00
 9.377813630229292e-16 -1.532352677573447e-15  4.320202739513819e-01
 1.019872453020879e+00  4.320202739513819e-01 -1.325430602212638e-15

-2.701970106211633e-15  8.812242726950690e-16  1.022901008794604e+00
 8.812242726950690e-16 -1.372039110748078e-15  4.308387828858317e-01
 1.022901008794604e+00  4.308387828858317e-01 -8.306825144181536e-16

-2.132323460806164e-15  7.857265042853027e-16  1.022458047257561e+00
 7.857265042853027e-16 -1.271073120540998e-15  4.314035250677619e-01
 1.022458047257561e+00  4.314035250677619e-01 -6.477951767218289e-16

-1.389154217586711e-15  6.031287050889342e-16  1.021235726340248e+00
 6.031287050889342e-16 -1.065655006540581e-15  4.318723245594928e-01
 1.021235726340248e+00  4.318723245594928e-01 -4.250202243361828e-16

-9.801765566922728e-16  4.555714691241499e-16  1.020921330702279e+00
 4.555714691241499e-16 -8.967501722932528e-16  4.346573306354570e-01
 1.020921330702279e+00  4.346573306354570e-01 -3.089605202377543e-16

-8.057751408603293e-16  3.823417325536965e-16  1.021652205569288e+00
 3.823417325536965e-16 -7.911630437713420e-16  4.334995739662237e-01
 1.021652205569288e+00  4.334995739662237e-01 -2.603358395093205e-16

-5.811017501321102e-16  2.803140237026096e-16  1.023919487093173e+00
 2.803140237026096e-16 -6.287074696349219e-16  4.325145770103717e-01
 1.023919487093173e+00  4.325145770103717e-01 -2.099380035550908e-16

-4.291794245521759e-16  2.033145913528378e-16  1.023997693325973e+00
 2.033145913528378e-16 -5.131835025351433e-16  4.332548019306504e-01
 1.023997693325973e+00  4.332548019306504e-01 -1.555279175972054e-16

-3.317258228821359e-16  1.518096821062273e-16  1.023803736135284e+00
 1.518096821062273e-16 -4.349663495809838e-16  4.342819084173641e-01
 1.023803736135284e+00  4.342819084173641e-01 -1.278910342423018e-16

-2.793231813128719e-16  1.234850282166565e-16  1.023296686896485e+00
 1.234850282166565e-16 -3.538971138769483e-16  4.353798623701778e-01
 1.023296686896485e+00  4.353798623701778e-01 -1.128241089099477e-16

-2.266579561531823e-16  9.484795772402123e-17  1.023865245860489e+00
 9.484795772402123e-17 -3.014038556488603e-16  4.348518543646769e-01
 1.023865245860489e+00  4.348518543646769e-01 -9.747489478561054e-17

-1.929173446509119e-16  7.639087101267621e-17  1.024936117816884e+00
 7.639087101267621e-17 -2.706583290389869e-16  4.364941635357064e-01
 1.024936117816884e+00  4.364941635357064e-01 -8.753054346670198e-17

-1.738082424472588e-16  6.613377847478647e-17  1.025396583094934e+00
 6.613377847478647e-17 -2.232046939164250e-16  4.351314696046128e-01
 1.025396583094934e+00  4.351314696046128e-01 -8.182517707751499e-17

-1.480507046879238e-16  5.233589391382181e-17  1.024290035514727e+00
 5.233589391382181e-17 -2.099625732606298e-16  4.364038425261636e-01
 1.024290035514727e+00  4.364038425261636e-01 -7.399899073794429e-17

-1.248348290243597e-16  4.018055033262376e-17  1.024202067578345e+00
 4.018055033262376e-17 -1.770116674201649e-16  4.364517093366602e-01
 1.024202067578345e+00  4.364517093366602e-01 -6.681865611720630e-17

-1.090313265556679e-16  3.215533711624480e-17  1.025251256634801e+00
 3.215533711624480e-17 -1.471012434160323e-16  4.366672280479688e-01
 1.025251256634801e+00  4.366672280479688e-01 -6.190953550576249e-17

-9.966923066701731e-17  2.745840555548881e-17  1.025394789980124e+00
 2.745840555548881e-17 -1.370741878177085e-16  4.387556679473126e-01
 1.025394789980124e+00  4.387556679473126e-01 -5.895438443512085e-17

-9.194215976146443e-17  2.373839635765264e-17  1.025497106448723e+00
 2.373839635765264e-17 -1.200959843345761e-16  4.373769226115213e-01
 1.025497106448723e+00  4.373769226115213e-01 -5.650304127035277e-17

-8.264142409561742e-17  1.935645213126167e-17  1.025509601842875e+00
 1.935645213126167e-17 -1.108167551396367e-16  4.365638505269203e-01
 1.025509601842875e+00  4.365638505269203e-01 -5.356009607646003e-17

-7.500619108115804e-17  1.580273189858186e-17  1.027084964035582e+00
 1.580273189858186e-17 -9.857660332637671e-17  4.366489148999610e-01
 1.027084964035582e+00  4.366489148999610e-01 -5.109984610725671e-17

-6.884815708210674e-17  1.299861017508648e-17  1.036742757919749e+00
 1.299861017508648e-17 -8.851506147868846e-17  4.290078594659960e-01
 1.036742757919749e+00  4.290078594659960e-01 -4.935972654437629e-17

-6.584042150559024e-17  1.170884404831017e-17  1.028576100248844e+00
 1.170884404831017e-17 -9.089051881908085e-17  4.442858818059364e-01
 1.028576100248844e+00  4.442858818059364e-01 -4.816257647314496e-17

-6.364696870082332e-17  1.080595373696484e-17  1.031298052663895e+00
 1.080595373696484e-17 -7.255587565246987e-17  4.459141077592604e-01
 1.031298052663895e+00  4.459141077592604e-01 -4.753761901107951e-17

-5.937501999174362e-17  9.196495684038532e-18  1.029455450129446e+00
 9.196495684038532e-18 -6.550454346137051e-17  4.347859676945681e-01
 1.029455450129446e+00  4.347859676945681e-01 -4.604076186007067e-17

-5.618940270460291e-17  8.033154723261368e-18  1.025020782168852e+00
 8.033154723261368e-18 -6.264990741086670e-17  4.310344994509069e-01
 1.025020782168852e+00  4.310344994509069e-01 -4.483550611900096e-17

-5.358111188764408e-17  7.107602192436528e-18  1.018956056040444e+00
 7.107602192436528e-18 -6.622857413856168e-17  4.345072258151395e-01
 1.018956056040444e+00  4.345072258151395e-01 -4.379988004279875e-17

-5.059097662481376e-17  5.987535729077238e-18  1.019762992329988e+00
 5.987535729077238e-18 -6.107951411792580e-17  4.366207991435734e-01
 1.019762992329988e+00  4.366207991435734e-01 -4.282042169719165e-17

-4.787627191240568e-17  5.042536185909032e-18  1.019536881739689e+00
 5.042536185909032e-18 -4.795270874342083e-17  4.346221327130512e-01
 1.019536881739689e+00  4.346221327130512e-01 -4.191668994253952e-17

-4.546537402477052e-17  4.234118178476100e-18  1.018736144334509e+00
 4.234118178476100e-18 -4.616589580148693e-17  4.340898524945210e-01
 1.018736144334509e+00  4.340898524945210e-01 -4.108908260337276e-17

-4.330165933343803e-17  3.544728708683552e-18  1.017991315209980e+00
 3.544728708683552e-18 -4.141041000434529e-17  4.331807851088768e-01
 1.017991315209980e+00  4.331807851088768e-01 -4.034501524517652e-17

-4.160415519690014e-17  3.021141278685505e-18  1.017301402873654e+00
 3.021141278685505e-18 -4.813744820206820e-17  4.317426706598594e-01
 1.017301402873654e+00  4.317426706598594e-01 -3.976090340311333e-17

-4.009007769710535e-17  2.586903669159924e-18  1.017651183000559e+00
 2.586903669159924e-18 -3.501559739224923e-17  4.314039928400151e-01
 1.017651183000559e+00  4.314039928400151e-01 -3.927645332595689e-17

-3.859507050641185e-17  2.178502306299781e-18  1.016841018925427e+00
 2.178502306299781e-18 -4.391758944291971e-17  4.297432330882849e-01
 1.016841018925427e+00  4.297432330882849e-01 -3.877677839514775e-17

-3.718314015516669e-17  1.806640192559565e-18  1.015735429814123e+00
 1.806640192559565e-18 -4.152887859028186e-17  4.284166523420406e-01
 1.015735429814123e+00  4.284166523420406e-01 -3.826436592227083e-17

-3.609043840858268e-17  1.542917213231455e-18  1.015602239529217e+00
 1.542917213231455e-18 -2.761990918807565e-17  4.279136523597061e-01
 1.015602239529217e+00  4.279136523597061e-01 -3.791162970353822e-17

-3.534839740266855e-17  1.373748424710367e-18  1.014458432198172e+00
 1.373748424710367e-18 -2.919884887670616e-17  4.277622742718775e-01
 1.014458432198172e+00  4.277622742718775e-01 -3.764423548163269e-17

-3.460871195420613e-17  1.206740541750375e-18  1.012811685937921e+00
 1.206740541750375e-18 -2.797603975305284e-17  4.269328689828796e-01
 1.012811685937921e+00  4.269328689828796e-01 -3.733647858891728e-17

-3.414232570964003e-17  1.096152598572208e-18  1.013934945816317e+00
 1.096152598572208e-18 -2.464880717546092e-17  4.261118293781843e-01
 1.013934945816317e+00  4.261118293781843e-01 -3.720583781995126e-17

-3.359613911498836e-17  9.933114264405823e-19  1.012233007229489e+00
 9.933114264405823e-19 -3.004654225035351e-17  4.265602195120872e-01
 1.012233007229489e+00  4.265602195120872e-01 -3.700306475394483e-17

-3.299093662206806e-17  8.610365360170866e-19  1.013298067280608e+00
 8.610365360170866e-19 -2.898734721768006e-17  4.264199839232617e-01
 1.013298067280608e+00  4.264199839232617e-01 -3.682640748006812e-17

-3.263428801994773e-17  7.912852911228315e-19  1.013499437034519e+00
 7.912852911228315e-19 -2.837055860785880e-17  4.259164222765797e-01
 1.013499437034519e+00  4.259164222765797e-01 -3.672615121855966e-17

-3.232361070374786e-17  7.371337834707990e-19  1.013466099436012e+00
 7.371337834707990e-19 -3.261409028331137e-17  4.256600761958181e-01
 1.013466099436012e+00  4.256600761958181e-01 -3.663516072545112e-17

-3.181240815723964e-17  6.401859274174579e-19  1.013676762743409e+00
 6.401859274174579e-19 -3.176179703523957e-17  4.246253059159738e-01
 1.013676762743409e+00  4.246253059159738e-01 -3.646438492490775e-17

-3.141043460423792e-17  5.670139487498524e-19  1.015516218564184e+00
 5.670139487498524e-19 -2.243627763671888e-17  4.274910814266622e-01
 1.015516218564184e+00  4.274910814266622e-01 -3.640083925339219e-17

-3.102986281739952e-17  5.128844139575953e-19  1.014357506565611e+00
 5.128844139575953e-19 -2.051472674480366e-17  4.248241164430097e-01
 1.014357506565611e+00  4.248241164430097e-01 -3.624522691365094e-17

-3.070606959164658e-17  4.583517769567355e-19  1.015337622424082e+00
 4.583517769567355e-19 -2.771001262331041e-17  4.246233716850701e-01
 1.015337622424082e+00  4.246233716850701e-01 -3.617392960085791e-17

-3.038348399842352e-17  4.028640961093169e-19  1.017171426228538e+00
 4.028640961093169e-19 -2.436632371158516e-17  4.252650317316811e-01
 1.017171426228538e+00  4.252650317316811e-01 -3.613318783966663e-17

-3.009161468078098e-17  3.493220279305713e-19  1.022062366508450e+00
 3.493220279305713e-19 -1.626832557723270e-17  4.260543273791145e-01
 1.022062366508450e+00  4.260543273791145e-01 -3.619705902242731e-17

-2.974530739672377e-17  3.000415222864452e-19  1.021549239903016e+00
 3.000415222864452e-19 -2.926808685404912e-17  4.228532271647347e-01
 1.021549239903016e+00  4.228532271647347e-01 -3.607060014026710e-17

-2.948177267818179e-17  2.727448091304477e-19  1.016013052016776e+00
 2.727448091304477e-19 -2.726827320689593e-17  4.318033315550898e-01
 1.016013052016776e+00  4.318033315550898e-01 -3.581025532518931e-17

-2.930537503922755e-17  2.541201713306633e-19  1.016288366089179e+00
 2.541201713306633e-19 -1.393168938905633e-17  4.301354344847546e-01
 1.016288366089179e+00  4.301354344847546e-01 -3.576130091488074e-17

-2.911581867899987e-17  2.259528030172974e-19  1.019726551989850e+00
 2.259528030172974e-19 -1.549125024448808e-17  4.300585956408019e-01
 1.019726551989850e+00  4.300585956408019e-01 -3.581130347946903e-17

-2.905755558598080e-17  2.025375625658942e-19  1.027913023101720e+00
 2.025375625658942e-19 -1.878625829654933e-17  4.240935926310541e-01
 1.027913023101720e+00  4.240935926310541e-01 -3.605433285794886e-17

-2.891771802757935e-17  1.942660898370153e-19  1.025647150558516e+00
 1.942660898370153e-19 -1.883982552953045e-17  4.255030304414638e-01
 1.025647150558516e+00  4.255030304414638e-01 -3.593447735495060e-17

-2.889584286106620e-17  1.714736438426195e-19  1.031599456010214e+00
 1.714736438426195e-19 -2.968629960730167e-17  4.267096321807434e-01
 1.031599456010214e+00  4.267096321807434e-01 -3.611700114452612e-17

-2.876149439151265e-17  1.590693322287719e-19  1.025796973479259e+00
 1.590693322287719e-19 -1.664409049514440e-17  4.314192988368741e-01
 1.025796973479259e+00  4.314192988368741e-01 -3.588847090377353e-17

-2.860631409628871e-17  1.453997354205939e-19  1.021341870614157e+00
 1.453997354205939e-19 -1.432619262558669e-17  4.306241372552921e-01
 1.021341870614157e+00  4.306241372552921e-01 -3.568914520990013e-17

-2.852818583932182e-17  1.328061934275099e-19  1.023465761220985e+00
 1.328061934275099e-19 -2.587082694932185e-17  4.289323080776120e-01
 1.023465761220985e+00  4.289323080776120e-01 -3.572415496455390e-17

-2.855936907049193e-17  1.208641467803642e-19  1.028408502160519e+00
 1.208641467803642e-19 -1.473486573230378e-17  4.328528869536435e-01
 1.028408502160519e+00  4.328528869536435e-01 -3.589472373823117e-17

-2.856427919101279e-17  1.179161700419793e-19  1.032487665053856e+00
 1.179161700419793e-19 -1.675670964445441e-17  4.369973570856434e-01
 1.032487665053856e+00  4.369973570856434e-01 -3.602444267469380e-17

-2.850830801722887e-17  1.070806324288350e-19  1.033950791254810e+00
 1.070806324288350e-19 -2.574063650700891e-17  4.310567010077871e-01
 1.033950791254810e+00  4.310567010077871e-01 -3.605442023284677e-17

-2.845500239082301e-17  9.570647669068184e-20  1.037447008797751e+00
 9.570647669068184e-20 -1.596673078720452e-17  4.302287936069228e-01
 1.037447008797751e+00  4.302287936069228e-01 -3.614503503303782e-17

-2.832732817137055e-17  8.439983309671446e-20  1.037241427665747e+00
 8.439983309671446e-20 -2.326876075885871e-17  4.242949789610082e-01
 1.037241427665747e+00  4.242949789610082e-01 -3.608657201760890e-17

-2.816411974910595e-17  8.458836989018909e-20  1.031294303249912e+00
 8.458836989018909e-20 -4.530000897510895e-18  4.293384962726009e-01
 1.031294303249912e+00  4.293384962726009e-01 -3.584337388299552e-17

-2.797606498170972e-17  7.572725855140413e-20  1.023599409390265e+00
 7.572725855140413e-20 -3.439003639245141e-17  4.333196209548266e-01
 1.023599409390265e+00  4.333196209548266e-01 -3.553771129221296e-17

-2.799001465256525e-17  7.688758192242586e-20  1.032409945988375e+00
 7.688758192242586e-20 -2.028116526275448e-17  4.248536123951666e-01
 1.032409945988375e+00  4.248536123951666e-01 -3.582809335127166e-17

-2.801642259193140e-17  7.325191829009828e-20  1.039244825146365e+00
 7.325191829009828e-20 -2.545706366955871e-17  4.340129447277577e-01
 1.039244825146365e+00  4.340129447277577e-01 -3.606882215719328e-17

-2.784764386800240e-17  7.204090243573531e-20  1.033970921460262e+00
 7.204090243573531e-20 -4.517250124760215e-18  4.267414502576387e-01
 1.033970921460262e+00  4.267414502576387e-01 -3.584636918826554e-17

-2.761760366157057e-17  7.165244798874246e-20  1.023188161249167e+00
 7.165244798874246e-20 -6.514382820610413e-18  4.294700386746255e-01
 1.023188161249167e+00  4.294700386746255e-01 -3.543188424738602e-17

-2.754028572302886e-17  7.219559087600225e-20  1.023553238706464e+00
 7.219559087600225e-20 -1.331384319834866e-17  4.316654758449827e-01
 1.023553238706464e+00  4.316654758449827e-01 -3.542277815726703e-17

-2.748448168184641e-17  6.846012585183939e-20  1.023524130462213e+00
 6.846012585183939e-20 -9.219564174829652e-18  4.362392918473284e-01
 1.023524130462213e+00  4.362392918473284e-01 -3.541457327302797e-17

-2.745702622693558e-17  5.655019490101493e-20  1.026842412736407e+00
 5.655019490101493e-20 -3.566777612865083e-17  4.291019477692503e-01
 1.026842412736407e+00  4.291019477692503e-01 -3.550975334647019e-17

-2.736915767681450e-17  6.326139715664848e-20  1.021329879146478e+00
 6.326139715664848e-20 -1.551191079660908e-17  4.345482953971980e-01
 1.021329879146478e+00  4.345482953971980e-01 -3.530099763689520e-17

-2.726862171019661e-17  5.610894452451165e-20  1.023077849054783e+00
 5.610894452451165e-20  1.655224887756865e-18  4.298301365626363e-01
 1.023077849054783e+00  4.298301365626363e-01 -3.534110480308082e-17

-2.714499483251198e-17  4.848075133568025e-20  1.022213145369295e+00
 4.848075133568025e-20 -1.633324058969349e-17  4.309583559683210e-01
 1.022213145369295e+00  4.309583559683210e-01 -3.527496415159924e-17

-2.700836298897615e-17  4.203746396624101e-20  1.020596162527647e+00
 4.203746396624101e-20 -1.529806334235204e-17  4.307096023252423e-01
 1.020596162527647e+00  4.307096023252423e-01 -3.518420694294110e-17

-2.695207736107630e-17  3.872360796216543e-20  1.020086367876827e+00
 3.872360796216543e-20 -1.707191268479571e-17  4.311062117173878e-01
 1.020086367876827e+00  4.311062117173878e-01 -3.514338220533773e-17

-2.689811563202328e-17  3.991007451956336e-20  1.019539636355596e+00
 3.991007451956336e-20 -1.885293513021106e-17  4.307696544023036e-01
 1.019539636355596e+00  4.307696544023036e-01 -3.510447445673519e-17

-2.687166037223090e-17  4.291333600949061e-20  1.020456791529527e+00
 4.291333600949061e-20 -2.988795425746323e-17  4.305376022852725e-01
 1.020456791529527e+00  4.305376022852725e-01 -3.511818611345624e-17

-2.675364657762854e-17  5.159511703793051e-20  1.018672632643844e+00
 5.159511703793051e-20 -3.191736055102575e-17  4.304923634370848e-01
 1.018672632643844e+00  4.304923634370848e-01 -3.505338054423352e-17

-2.667450128383146e-17  6.560940889287929e-20  1.016921382974443e+00
 6.560940889287929e-20 -3.173735015754552e-17  4.289923588835937e-01
 1.016921382974443e+00  4.289923588835937e-01 -3.498025415579663e-17

-2.657655926998905e-17  8.103878344427652e-20  1.016160674284366e+00
 8.103878344427652e-20 -1.628825769636895e-17  4.280049214557861e-01
 1.016160674284366e+00  4.280049214557861e-01 -3.495102366059828e-17

-2.648250637925656e-17  9.401906012163303e-20  1.014609813505661e+00
 9.401906012163303e-20 -2.555670858358691e-17  4.274178628714297e-01
 1.014609813505661e+00  4.274178628714297e-01 -3.489861636826475e-17

-2.637557701818296e-17  1.024527984690916e-19  1.011054130132281e+00
 1.024527984690916e-19 -2.540247747823540e-17  4.260966923003185e-01
 1.011054130132281e+00  4.260966923003185e-01 -3.476254295833675e-17

-2.622554341601773e-17  1.125841517257594e-19  1.007113191840857e+00
 1.125841517257594e-19 -1.645548326573674e-17  4.246371225852938e-01
 1.007113191840857e+00  4.246371225852938e-01 -3.461498500507118e-17

-2.618385914589801e-17  1.164291847643032e-19  1.007015470958582e+00
 1.164291847643032e-19 -1.393373250941976e-17  4.229712942264507e-01
 1.007015470958582e+00  4.229712942264507e-01 -3.461306690964450e-17

-2.612943900697919e-17  1.191593334659073e-19  1.005194702102234e+00
 1.191593334659073e-19 -8.201765639086848e-18  4.248363801730157e-01
 1.005194702102234e+00  4.248363801730157e-01 -3.454575139396077e-17

-2.608842679648423e-17  1.290722210030954e-19  1.005992048803077e+00
 1.290722210030954e-19 -2.551872382928533e-17  4.224266081834074e-01
 1.005992048803077e+00  4.224266081834074e-01 -3.457765020664387e-17

-2.603656436891397e-17  1.313318576460545e-19  1.006414638886431e+00
 1.313318576460545e-19 -2.818827114249175e-17  4.209349801428767e-01
 1.006414638886431e+00  4.209349801428767e-01 -3.459651557323973e-17

-2.599859629122192e-17  1.316820925814138e-19  1.007616688910578e+00
 1.316820925814138e-19 -5.269996296731426e-18  4.198153016998128e-01
 1.007616688910578e+00  4.198153016998128e-01 -3.464362538225891e-17

-2.593003382670963e-17  1.303461501611578e-19  1.007300583345910e+00
 1.303461501611578e-19 -1.393450719118746e-17  4.184993797477445e-01
 1.007300583345910e+00  4.184993797477445e-01 -3.463612513188611e-17

-2.584861569496463e-17  1.219083812259215e-19  1.005057565082821e+00
 1.219083812259215e-19 -1.515280732943965e-17  4.177154360712768e-01
 1.005057565082821e+00  4.177154360712768e-01 -3.455465140855526e-17

-2.570047875768966e-17  1.015342487644482e-19  1.002335632513810e+00
 1.015342487644482e-19 -1.251864118397669e-17  4.185495025868957e-01
 1.002335632513810e+00  4.185495025868957e-01 -3.444015054200176e-17

-2.562039690630799e-17  6.503850768556074e-20  1.000212114231336e+00
 6.503850768556074e-20 -6.256210963522586e-18  4.198388455697240e-01
 1.000212114231336e+00  4.198388455697240e-01 -3.433646704375327e-17

-2.560935213719193e-17  1.434402493651638e-20  1.001885875718245e+00
 1.434402493651638e-20 -3.082297843114357e-20  4.218314165934921e-01
 1.001885875718245e+00  4.218314165934921e-01 -3.435150965881267e-17

-2.563837067708067e-17 -2.053886507765714e-20  1.007413487604961e+00
-2.053886507765714e-20 -2.195791708187855e-17  4.259530893666312e-01
 1.007413487604961e+00  4.259530893666312e-01 -3.449771424682599e-17

-2.569866802326750e-17 -6.204559474212846e-20  1.013132693335340e+00
-6.204559474212846e-20 -3.895913070455254e-18  4.277971097839977e-01
 1.013132693335340e+00  4.277971097839977e-01 -3.466630074046103e-17

-2.583568708856613e-17 -9.017640694610347e-20  1.021628052246960e+00
-9.017640694610347e-20 -4.734577354090361e-18  4.291536528418138e-01
 1.021628052246960e+00  4.291536528418138e-01 -3.493396969555702e-17

-2.588956234116643e-17 -1.117137132876260e-19  1.021103773519706e+00
-1.117137132876260e-19 -5.229970268601673e-18  4.475772315894041e-01
 1.021103773519706e+00  4.475772315894041e-01 -3.491117117814021e-17

-2.567531909779319e-17 -1.008236264484419e-19  1.012186259687450e+00
-1.008236264484419e-19 -2.986909539450388e-17  4.395944477119760e-01
 1.012186259687450e+00  4.395944477119760e-01 -3.451117223798449e-17

-2.544747313817044e-17 -9.541359092372975e-20  1.000551462559588e+00
-9.541359092372975e-20 -1.386468513100332e-17  4.309507740948803e-01
 1.000551462559588e+00  4.309507740948803e-01 -3.404657014347259e-17

-2.585667377580043e-17 -1.131693028351667e-19  1.027140928945264e+00
-1.131693028351667e-19 -1.408576481516252e-17  4.212585302354103e-01
 1.027140928945264e+00  4.212585302354103e-01 -3.503492790389718e-17

-2.597504494999054e-17 -8.789991953958208e-20  1.023865249780051e+00
-8.789991953958208e-20 -1.222315661223390e-17  4.577585994436926e-01
 1.023865249780051e+00  4.577585994436926e-01 -3.495314670651398e-17

-2.636603030890047e-17 -7.159644921483221e-20  1.045850851038823e+00
-7.159644921483221e-20 -9.060694710965659e-18  4.629995014700990e-01
 1.045850851038823e+00  4.629995014700990e-01 -3.577851706742839e-17

-2.643633913197735e-17 -5.650696117397367e-20  1.053738482577335e+00
-5.650696117397367e-20 -1.459734620589133e-17  4.357137564159385e-01
 1.053738482577335e+00  4.357137564159385e-01 -3.605233966418465e-17

-2.637913326177511e-17 -1.591907524827514e-20  1.046608742392326e+00
-1.591907524827514e-20 -1.028736950322304e-17  4.456971889453599e-01
 1.046608742392326e+00  4.456971889453599e-01 -3.584915344322291e-17

-2.679821285118640e-17  1.722325310051515e-19  1.049036287326122e+00
 1.722325310051515e-19 -2.609762773427379e-17  4.442342723532113e-01
 1.049036287326122e+00  4.442342723532113e-01 -3.602013204794481e-17

-2.629268169225491e-17  7.256229686470878e-21  1.055174025828675e+00
 7.256229686470878e-21  8.690968030775252e-19  4.462286234486952e-01
 1.055174025828675e+00  4.462286234486952e-01 -3.631261540037862e-17

-2.798643179552736e-17  5.983984705040044e-19  1.047659452205419e+00
 5.983984705040044e-19 -2.444593974536526e-18  4.588873462683172e-01
 1.047659452205419e+00  4.588873462683172e-01 -3.608374739604098e-17

-1.995872695397726e-17 -2.059146371638969e-18  1.059180201874930e+00
-2.059146371638969e-18 -2.323057198365493e-17  4.416454580275354e-01
 1.059180201874930e+00  4.416454580275354e-01 -3.649210623594941e-17

-2.175646894538275e-17 -1.440258059685465e-18  1.053406312684000e+00
-1.440258059685465e-18 -1.544237094787999e-17  4.431153769578419e-01
 1.053406312684000e+00  4.431153769578419e-01 -3.629094227406329e-17

-2.178962428683409e-17 -1.450637672931787e-18  1.055511650872127e+00
-1.450637672931787e-18 -1.159754352975810e-17  4.454653331981600e-01
 1.055511650872127e+00  4.454653331981600e-01 -3.637443719961294e-17

-2.663375788531323e-17  1.554604618953901e-19  1.053918131034096e+00
 1.554604618953901e-19 -4.966191746544112e-18  4.491353412482593e-01
 1.053918131034096e+00  4.491353412482593e-01 -3.631893443457688e-17

-2.701329198432059e-17  2.575824836556090e-19  1.061369821876980e+00
 2.575824836556090e-19 -1.482432966798243e-17  4.353881461087862e-01
 1.061369821876980e+00  4.353881461087862e-01 -3.658605937009266e-17

-2.660160600233396e-17  5.496251192476913e-20  1.075893478902326e+00
 5.496251192476913e-20 -1.021365322956269e-17  4.244661973297787e-01
 1.075893478902326e+00  4.244661973297787e-01 -3.712100007663487e-17

-2.654221898972464e-17  1.092532523796498e-19  1.062772621729531e+00
 1.092532523796498e-19 -3.476318727571269e-17  4.514630104834058e-01
 1.062772621729531e+00  4.514630104834058e-01 -3.668667033340623e-17

-2.681517747503505e-17  1.073645306686621e-19  1.079336111142165e+00
 1.073645306686621e-19 -2.166653632949266e-17  4.399352653846442e-01
 1.079336111142165e+00  4.399352653846442e-01 -3.732399850483229e-17

-2.702279395181750e-17  1.297962899596255e-19  1.085927717289816e+00
 1.297962899596255e-19 -1.188194166133928e-17  4.405603057864066e-01
 1.085927717289816e+00  4.405603057864066e-01 -3.758863462206240e-17

-2.708847902257074e-17  1.394648993294792e-19  1.088468883329735e+00
 1.394648993294792e-19 -2.718156956058777e-17  4.461038398128589e-01
 1.088468883329735e+00  4.461038398128589e-01 -3.769841335249739e-17

-2.723494009248000e-17  1.268612992288487e-19  1.103554854620679e+00
 1.268612992288487e-19 -2.311326457122494e-17  4.327573041886061e-01
 1.103554854620679e+00  4.327573041886061e-01 -3.824062156202838e-17

-2.710219203978643e-17  7.744815759489694e-20  1.099941490833926e+00
 7.744815759489694e-20 -1.701897662209909e-17  4.367711868856675e-01
 1.099941490833926e+00  4.367711868856675e-01 -3.808422115086822e-17

-2.637561845484531e-17  1.775136440414684e-20  1.053349908096026e+00
 1.775136440414684e-20 -9.240441225262902e-18  4.662732160314466e-01
 1.053349908096026e+00  4.662732160314466e-01 -3.637347436631723e-17

-2.604543125897350e-17  4.344961032749041e-20  1.047285128279576e+00
 4.344961032749041e-20 -1.054492176134179e-17  4.298923658121044e-01
 1.047285128279576e+00  4.298923658121044e-01 -3.594811011818283e-17

-2.539901449488730e-17  1.625274254251388e-20  1.010587566279511e+00
 1.625274254251388e-20 -2.031780623188890e-17  4.320794130239263e-01
 1.010587566279511e+00  4.320794130239263e-01 -3.456024410541392e-17

-2.621884433236150e-17 -4.807857162141729e-20  1.070333443784985e+00
-4.807857162141729e-20 -2.713166050511029e-18  4.119026883413894e-01
 1.070333443784985e+00  4.119026883413894e-01 -3.674792924260426e-17

-2.607026306095359e-17 -4.021177499509436e-20  1.040584115919396e+00
-4.021177499509436e-20 -1.261106300621366e-18  4.868783955272294e-01
 1.040584115919396e+00  4.868783955272294e-01 -3.573595275686214e-17

-2.627206779802928e-17 -5.631583550225156e-20  1.068483493247185e+00
-5.631583550225156e-20 -2.547582247270371e-17  4.376627090662346e-01
 1.068483493247185e+00  4.376627090662346e-01 -3.667892608535408e-17

-2.606016062477257e-17 -8.168211907862580e-20  1.058283158596548e+00
-8.168211907862580e-20 -1.068411718882965e-17  4.376293077479541e-01
 1.058283158596548e+00  4.376293077479541e-01 -3.625726249874185e-17

-2.589715058678817e-17 -1.093861754071231e-19  1.052229224741896e+00
-1.093861754071231e-19 -1.950615857567392e-17  4.426346277824181e-01
 1.052229224741896e+00  4.426346277824181e-01 -3.600569333052631e-17

-2.577412142521115e-17 -6.965090981281415e-20  1.061074905960308e+00
-6.965090981281415e-20 -2.440248227616918e-17  3.978906251402175e-01
 1.061074905960308e+00  3.978906251402175e-01 -3.614659735030248e-17

-2.508034774977655e-17 -1.000223503235398e-19  1.005794552002346e+00
-1.000223503235398e-19 -4.617389949042405e-18  4.405930442695762e-01
 1.005794552002346e+00  4.405930442695762e-01 -3.420066085408863e-17

-2.519516652724426e-17 -1.185548046776291e-19  1.015896719377552e+00
-1.185548046776291e-19 -1.360870153843606e-17  4.425775851795012e-01
 1.015896719377552e+00  4.425775851795012e-01 -3.457305484358081e-17

-2.532115366978234e-17 -1.289106998305994e-19  1.024998388072900e+00
-1.289106998305994e-19 -1.427728129616059e-17  4.427605613203903e-01
 1.024998388072900e+00  4.427605613203903e-01 -3.490161945417335e-17

-2.524025290156606e-17 -1.206229449711081e-19  1.021675292427642e+00
-1.206229449711081e-19 -1.347632985010454e-17  4.400297655944024e-01
 1.021675292427642e+00  4.400297655944024e-01 -3.475587734533110e-17

-2.518727428470719e-17 -1.244208511706027e-19  1.019197706318522e+00
-1.244208511706027e-19 -1.621766069387712e-17  4.409121707522113e-01
 1.019197706318522e+00  4.409121707522113e-01 -3.465839745336401e-17

-2.515190935584652e-17 -1.182821497868620e-19  1.018111774141247e+00
-1.182821497868620e-19 -1.099349990971154e-17  4.403996206774185e-01
 1.018111774141247e+00  4.403996206774185e-01 -3.460841750374453e-17

-2.516153183112900e-17 -1.109437377792627e-19  1.018671572515081e+00
-1.109437377792627e-19 -1.197429930010572e-17  4.422624734835513e-01
 1.018671572515081e+00  4.422624734835513e-01 -3.462367864717530e-17

-2.510212988720931e-17 -1.167695226707793e-19  1.017164449630345e+00
-1.167695226707793e-19 -1.323577694588952e-17  4.371206295075774e-01
 1.017164449630345e+00  4.371206295075774e-01 -3.455808909919796e-17

-2.513007592643396e-17 -1.097253341635971e-19  1.018123883884497e+00
-1.097253341635971e-19 -1.351844930811675e-17  4.391320290134823e-01
 1.018123883884497e+00  4.391320290134823e-01 -3.459958957081020e-17

-2.515788017943064e-17 -9.671285659452035e-20  1.019611608485006e+00
-9.671285659452035e-20 -1.384262936633499e-17  4.382264443266770e-01
 1.019611608485006e+00  4.382264443266770e-01 -3.466070117424670e-17

-2.511866741095216e-17 -8.369805144609662e-20  1.016136593338538e+00
-8.369805144609662e-20 -1.405067603192857e-17  4.421577650281017e-01
 1.016136593338538e+00  4.421577650281017e-01 -3.454842702355939e-17

-2.500188076417137e-17 -5.390340768981778e-20  1.013246267693300e+00
-5.390340768981778e-20 -1.548789750290736e-17  4.313004417385541e-01
 1.013246267693300e+00  4.313004417385541e-01 -3.440955646955454e-17

-2.504491877314969e-17 -5.551501438086102e-20  1.014291897514769e+00
-5.551501438086102e-20 -1.592229536933446e-17  4.398019546655323e-01
 1.014291897514769e+00  4.398019546655323e-01 -3.447792233947117e-17

-2.491644613356267e-17 -3.365464548524496e-20  1.007608547947495e+00
-3.365464548524496e-20 -1.217806268998113e-17  4.334412910599328e-01
 1.007608547947495e+00  4.334412910599328e-01 -3.422692913382347e-17

-2.464488785694890e-17 -4.156893346136408e-21  9.815922126494782e-01
-4.156893346136408e-21 -9.457355860825392e-18  4.603626862423860e-01
 9.815922126494782e-01  4.603626862423860e-01 -3.332860047383421e-17

-2.504136631348802e-17 -2.316710959756962e-21  1.014187551105979e+00
-2.316710959756962e-21 -1.305093904458759e-17  4.343030184171749e-01
 1.014187551105979e+00  4.343030184171749e-01 -3.450856081253679e-17

-2.514915086838769e-17 -1.280430346551466e-21  1.021956488482598e+00
-1.280430346551466e-21 -1.169342196384601e-17  4.310028165924740e-01
 1.021956488482598e+00  4.310028165924740e-01 -3.479298749022086e-17

-2.503324776036013e-17  2.204181414716469e-20  1.008438992583116e+00
 2.204181414716469e-20 -1.706507354518725e-17  4.424669156118420e-01
 1.008438992583116e+00  4.424669156118420e-01 -3.433864946047830e-17

-2.527878520897474e-17  3.850966248399576e-20  1.026588940010067e+00
 3.850966248399576e-20 -1.514134728946218e-17  4.343837320876281e-01
 1.026588940010067e+00  4.343837320876281e-01 -3.501236816520096e-17

-2.524667463711946e-17  3.252639736920828e-20  1.024459641214676e+00
 3.252639736920828e-20 -9.815440443853670e-18  4.269712227951991e-01
 1.024459641214676e+00  4.269712227951991e-01 -3.493601130113042e-17

-2.513248998983856e-17  6.694765631506943e-20  1.016135569234788e+00
 6.694765631506943e-20 -1.236028155691284e-17  4.247346456047716e-01
 1.016135569234788e+00  4.247346456047716e-01 -3.464919770522947e-17

-2.515263009347018e-17  7.649957118605422e-20  1.008486938422063e+00
 7.649957118605422e-20 -1.160111969218742e-17  4.525383269301589e-01
 1.008486938422063e+00  4.525383269301589e-01 -3.442216015153872e-17

-2.567262737107531e-17  8.665415044461516e-20  1.049863588503438e+00
 8.665415044461516e-20 -1.242383581186063e-17  4.280114706346073e-01
 1.049863588503438e+00  4.280114706346073e-01 -3.593139065975224e-17

-2.558057647388102e-17  8.112102068279732e-20  1.046265007274620e+00
 8.112102068279732e-20 -1.674434930642420e-17  4.214913555126023e-01
 1.046265007274620e+00  4.214913555126023e-01 -3.579418135174575e-17

-2.523369208713269e-17  8.388504565447472e-20  1.022666367311131e+00
 8.388504565447472e-20 -1.746958056139454e-17  4.236355536946093e-01
 1.022666367311131e+00  4.236355536946093e-01 -3.492703967079330e-17

-2.510367458491996e-17  7.462641298671875e-20  1.013936828709661e+00
 7.462641298671875e-20 -1.108154115246564e-17  4.265964768432940e-01
 1.013936828709661e+00  4.265964768432940e-01 -3.460157287505072e-17

-2.526189889881479e-17  9.815915810139410e-20  1.029707314365299e+00
 9.815915810139410e-20 -1.823548443489773e-17  4.182114825222686e-01
 1.029707314365299e+00  4.182114825222686e-01 -3.516716702261129e-17

-2.508731725000389e-17  8.232142513989647e-20  1.017092476264806e+00
 8.232142513989647e-20 -1.404781600792694e-17  4.296379901289569e-01
 1.017092476264806e+00  4.296379901289569e-01 -3.472516651315679e-17

-2.495222380248926e-17  8.849232199473390e-20  1.009511013304456e+00
 8.849232199473390e-20 -7.019100474651171e-18  4.298441301349498e-01
 1.009511013304456e+00  4.298441301349498e-01 -3.443744167550469e-17

-2.490022061962607e-17  1.004689039500821e-19  1.007069649576339e+00
 1.004689039500821e-19 -1.513332238053871e-17  4.330189734073315e-01
 1.007069649576339e+00  4.330189734073315e-01 -3.435479398587612e-17

-2.489530281496016e-17  1.061655460569353e-19  1.010133218841815e+00
 1.061655460569353e-19 -1.243923664762805e-17  4.230514573366989e-01
 1.010133218841815e+00  4.230514573366989e-01 -3.445274634128436e-17

-2.483394637670442e-17  1.079612926169551e-19  1.004296678329197e+00
 1.079612926169551e-19 -1.403834543013800e-17  4.336692604118629e-01
 1.004296678329197e+00  4.336692604118629e-01 -3.425562453029171e-17

-2.474421935387446e-17  1.157762487510263e-19  1.001363357350721e+00
 1.157762487510263e-19 -1.848672212302845e-17  4.249479976553168e-01
 1.001363357350721e+00  4.249479976553168e-01 -3.413908284765487e-17

-2.471287641881759e-17  1.233056646053389e-19  9.993916287152030e-01
 1.233056646053389e-19 -1.192028454216998e-17  4.260227408503337e-01
 9.993916287152030e-01  4.260227408503337e-01 -3.407672084536078e-17

-2.476249687926862e-17  1.436352689764579e-19  1.002369813975714e+00
 1.436352689764579e-19 -1.605929706866848e-17  4.254101533058000e-01
 1.002369813975714e+00  4.254101533058000e-01 -3.419537880947844e-17

-2.476790433958782e-17  1.635680179957423e-19  1.002191016473743e+00
 1.635680179957423e-19 -2.019640927367191e-17  4.244386828476922e-01
 1.002191016473743e+00  4.244386828476922e-01 -3.419810224400717e-17

-2.486336327256960e-17  1.128864765505061e-19  1.010648697829317e+00
 1.128864765505061e-19 -5.222211617574315e-18  4.153691147636780e-01
 1.010648697829317e+00  4.153691147636780e-01 -3.450013374825431e-17

-2.490200348514861e-17  1.464753725505892e-19  1.007099815534339e+00
 1.464753725505892e-19 -1.207301280254424e-17  4.259012341672046e-01
 1.007099815534339e+00  4.259012341672046e-01 -3.438774391493040e-17

-2.483169178571090e-17  1.482820868771948e-19  1.003843802137081e+00
 1.482820868771948e-19 -1.408690676365356e-17  4.324926176972368e-01
 1.003843802137081e+00  4.324926176972368e-01 -3.428321638662000e-17

-2.487204164608778e-17  1.540560364488099e-19  1.009139892125905e+00
 1.540560364488099e-19 -1.119682534138253e-17  4.187191063056613e-01
 1.009139892125905e+00  4.187191063056613e-01 -3.446172637628879e-17

-2.478943755081871e-17  1.518639142919543e-19  1.003557171803171e+00
 1.518639142919543e-19 -1.018164738299305e-17  4.198436465514522e-01
 1.003557171803171e+00  4.198436465514522e-01 -3.427147497342935e-17

-2.484267649652296e-17  1.494707281190226e-19  1.005696679620798e+00
 1.494707281190226e-19 -7.372279893425782e-18  4.238676707483939e-01
 1.005696679620798e+00  4.238676707483939e-01 -3.436400198960420e-17

-2.490155364723515e-17  1.792139489129104e-19  1.006818041193484e+00
 1.792139489129104e-19 -1.096810784531951e-17  4.249483082353034e-01
 1.006818041193484e+00  4.249483082353034e-01 -3.440741048480293e-17

-2.486012830914453e-17  1.615269967032508e-19  1.007143752324601e+00
 1.615269967032508e-19 -6.586066009225582e-18  4.213823392292437e-01
 1.007143752324601e+00  4.213823392292437e-01 -3.442432767561160e-17

-2.486741041039677e-17  1.559817539913920e-19  1.007154242576410e+00
 1.559817539913920e-19 -7.622149367351752e-18  4.209490342261297e-01
 1.007154242576410e+00  4.209490342261297e-01 -3.442869982459929e-17


CELL_DATA 1380
SCALARS dislocation_index int
LOOKUP_TABLE default
0
1
2
3
4
5
6
7
8
9
10
11
12
13
14
15
16
17
18
19
20
21
22
23
24
25
26
27
28
29
30
31
32
33
34
35
36
37
38
39
40
41
42
43
44
45
46
47
48
49
50
51
52
53
54
55
56
57
58
59
60
61
62
63
64
65
66
67
68
69
70
71
72
73
74
75
76
77
78
79
80
81
82
83
84
85
86
87
88
89
90
91
92
93
94
95
96
97
98
99
100
101
102
103
104
105
106
107
108
109
110
111
112
113
114
115
116
117
118
119
120
121
122
123
124
125
126
127
128
129
130
131
132
133
134
135
136
137
138
139
140
141
142
143
144
145
146
147
148
149
150
151
152
153
154
155
156
157
158
159
160
161
162
163
164
165
166
167
168
169
170
171
172
173
174
175
176
177
178
179
180
181
182
183
184
185
186
187
188
189
190
191
192
193
194
195
196
197
198
199
200
201
202
203
204
205
206
207
208
209
210
211
212
213
214
215
216
217
218
219
220
221
222
223
224
225
226
227
228
229
230
231
232
233
234
235
236
237
238
239
240
241
242
243
244
245
246
247
248
249
250
251
252
253
254
255
256
257
258
259
260
261
262
263
264
265
266
267
268
269
270
271
272
273
274
275
276
277
278
279
280
281
282
283
284
285
286
287
288
289
290
291
292
293
294
295
296
297
298
299
300
301
302
303
304
305
306
307
308
309
310
311
312
313
314
315
316
317
318
319
320
321
322
323
324
325
326
327
328
329
330
331
332
333
334
335
336
337
338
339
340
341
342
343
344
345
346
347
348
349
350
351
352
353
354
355
356
357
358
359
360
361
362
363
364
365
366
367
368
369
370
371
372
373
374
375
376
377
378
379
380
381
382
383
384
385
386
387
388
389
390
391
392
393
394
395
396
397
398
399
400
401
402
403
404
405
406
407
408
409
410
411
412
413
414
415
416
417
418
419
420
421
422
423
424
425
426
427
428
429
430
431
432
433
434
435
436
437
438
439
440
441
442
443
444
445
446
447
448
449
450
451
452
453
454
455
456
457
458
459
460
461
462
463
464
465
466
467
468
469
470
471
472
473
474
475
476
477
478
479
480
481
482
483
484
485
486
487
488
489
490
491
492
493
494
495
496
497
498
499
500
501
502
503
504
505
506
507
508
509
510
511
512
513
514
515
516
517
518
519
520
521
522
523
524
525
526
527
528
529
530
531
532
533
534
535
536
537
538
539
540
541
542
543
544
545
546
547
548
549
550
551
552
553
554
555
556
557
558
559
560
561
562
563
564
565
566
567
568
569
570
571
572
573
574
575
576
577
578
579
580
581
582
583
584
585
586
587
588
589
590
591
592
593
594
595
596
597
598
599
600
601
602
603
604
605
606
607
608
609
610
611
612
613
614
615
616
617
618
619
620
621
622
623
624
625
626
627
628
629
630
631
632
633
634
635
636
637
638
639
640
641
642
643
644
645
646
647
648
649
650
651
652
653
654
655
656
657
658
659
660
661
662
663
664
665
666
667
668
669
670
671
672
673
674
675
676
677
678
679
680
681
682
683
684
685
686
687
688
689
690
691
692
693
694
695
696
697
698
699
700
701
702
703
704
705
706
707
708
709
710
711
712
713
714
715
716
717
718
719
720
721
722
723
724
725
726
727
728
729
730
731
732
733
734
735
736
737
738
739
740
741
742
743
744
745
746
747
748
749
750
751
752
753
754
755
756
757
758
759
760
761
762
763
764
765
766
767
768
769
770
771
772
773
774
775
776
777
778
779
780
781
782
783
784
785
786
787
788
789
790
791
792
793
794
795
796
797
798
799
800
801
802
803
804
805
806
807
808
809
810
811
812
813
814
815
816
817
818
819
820
821
822
823
824
825
826
827
828
829
830
831
832
833
834
835
836
837
838
839
840
841
842
843
844
845
846
847
848
849
850
851
852
853
854
855
856
857
858
859
860
861
862
863
864
865
866
867
868
869
870
871
872
873
874
875
876
877
878
879
880
881
882
883
884
885
886
887
888
889
890
891
892
893
894
895
896
897
898
899
900
901
902
903
904
905
906
907
908
909
910
911
912
913
914
915
916
917
918
919
920
921
922
923
924
925
926
927
928
929
930
931
932
933
934
935
936
937
938
939
940
941
942
943
944
945
946
947
948
949
950
951
952
953
954
955
956
957
958
959
960
961
962
963
964
965
966
967
968
969
970
971
972
973
974
975
976
977
978
979
980
981
982
983
984
985
986
987
988
989
990
991
992
993
994
995
996
997
998
999
1000
1001
1002
1003
1004
1005
1006
1007
1008
1009
1010
1011
1012
1013
1014
1015
1016
1017
1018
1019
1020
1021
1022
1023
1024
1025
1026
1027
1028
1029
1030
1031
1032
1033
1034
1035
1036
1037
1038
1039
1040
1041
1042
1043
1044
1045
1046
1047
1048
1049
1050
1051
1052
1053
1054
1055
1056
1057
1058
1059
1060
1061
1062
1063
1064
1065
1066
1067
1068
1069
1070
1071
1072
1073
1074
1075
1076
1077
1078
1079
1080
1081
1082
1083
1084
1085
1086
1087
1088
1089
1090
1091
1092
1093
1094
1095
1096
1097
1098
1099
1100
1101
1102
1103
1104
1105
1106
1107
1108
1109
1110
1111
1112
1113
1114
1115
1116
1117
1118
1119
1120
1121
1122
1123
1124
1125
1126
1127
1128
1129
1130
1131
1132
1133
1134
1135
1136
1137
1138
1139
1140
1141
1142
1143
1144
1145
1146
1147
1148
1149
1150
1151
1152
1153
1154
1155
1156
1157
1158
1159
1160
1161
1162
1163
1164
1165
1166
1167
1168
1169
1170
1171
1172
1173
1174
1175
1176
1177
1178
1179
1180
1181
1182
1183
1184
1185
1186
1187
1188
1189
1190
1191
1192
1193
1194
1195
1196
1197
1198
1199
1200
1201
1202
1203
1204
1205
1206
1207
1208
1209
1210
1211
1212
1213
1214
1215
1216
1217
1218
1219
1220
1221
1222
1223
1224
1225
1226
1227
1228
1229
1230
1231
1232
1233
1234
1235
1236
1237
1238
1239
1240
1241
1242
1243
1244
1245
1246
1247
1248
1249
1250
1251
1252
1253
1254
1255
1256
1257
1258
1259
1260
1261
1262
1263
1264
1265
1266
1267
1268
1269
1270
1271
1272
1273
1274
1275
1276
1277
1278
1279
1280
1281
1282
1283
1284
1285
1286
1287
1288
1289
1290
1291
1292
1293
1294
1295
1296
1297
1298
1299
1300
1301
1302
1303
1304
1305
1306
1307
1308
1309
1310
1311
1312
1313
1314
1315
1316
1317
1318
1319
1320
1321
1322
1323
1324
1325
1326
1327
1328
1329
1330
1331
1332
1333
1334
1335
1336
1337
1338
1339
1340
1341
1342
1343
1344
1345
1346
1347
1348
1349
1350
1351
1352
1353
1354
1355
1356
1357
1358
1359
1360
1361
1362
1363
1364
1365
1366
1367
1368
1369
1370
1371
1372
1373
1374
1375
1376
1377
1378
1379

VECTORS burgers_vector_global double
-1.429999999999999e+00 -8.256108849411650e-01  3.393140768766017e-17
 1.429999999999999e+00  8.256108849411650e-01 -3.393140768766017e-17
-1.429999999999999e+00 -8.256108849411650e-01  3.393140768766017e-17
-1.429999999999999e+00 -8.256108849411650e-01  3.393140768766017e-17
-1.429999999999999e+00 -8.256108849411650e-01  3.393140768766017e-17
-1.429999999999999e+00 -8.256108849411650e-01  3.393140768766017e-17
-1.429999999999999e+00 -8.256108849411650e-01  3.393140768766017e-17
-1.429999999999999e+00 -8.256108849411650e-01  3.393140768766017e-17
-1.429999999999999e+00 -8.256108849411650e-01  3.393140768766017e-17
-1.429999999999999e+00 -8.256108849411650e-01  3.393140768766017e-17
-1.429999999999999e+00 -8.256108849411650e-01  3.393140768766017e-17
-1.429999999999999e+00 -8.256108849411650e-01  3.393140768766017e-17
-1.429999999999999e+00 -8.256108849411650e-01  3.393140768766017e-17
-1.429999999999999e+00 -8.256108849411650e-01  3.393140768766017e-17
-1.429999999999999e+00 -8.256108849411650e-01  3.393140768766017e-17
-1.429999999999999e+00 -8.256108849411650e-01  3.393140768766017e-17
-1.429999999999999e+00 -8.256108849411650e-01  3.393140768766017e-17
-1.429999999999999e+00 -8.256108849411650e-01  3.393140768766017e-17
-1.429999999999999e+00 -8.256108849411650e-01  3.393140768766017e-17
-1.429999999999999e+00 -8.256108849411650e-01  3.393140768766017e-17
-1.429999999999999e+00 -8.256108849411650e-01  3.393140768766017e-17
-1.429999999999999e+00 -8.256108849411650e-01  3.393140768766017e-17
-1.429999999999999e+00 -8.256108849411650e-01  3.393140768766017e-17
-1.429999999999999e+00 -8.256108849411650e-01  3.393140768766017e-17
-1.429999999999999e+00 -8.256108849411650e-01  3.393140768766017e-17
-1.429999999999999e+00 -8.256108849411650e-01  3.393140768766017e-17
-1.429999999999999e+00 -8.256108849411650e-01  3.393140768766017e-17
-1.429999999999999e+00 -8.256108849411650e-01  3.393140768766017e-17
-1.429999999999999e+00 -8.256108849411650e-01  3.393140768766017e-17
-1.429999999999999e+00 -8.256108849411650e-01  3.393140768766017e-17
-1.429999999999999e+00 -8.256108849411650e-01  3.393140768766017e-17
-1.429999999999999e+00 -8.256108849411650e-01  3.393140768766017e-17
-1.429999999999999e+00 -8.256108849411650e-01  3.393140768766017e-17
-1.429999999999999e+00 -8.256108849411650e-01  3.393140768766017e-17
-1.429999999999999e+00 -8.256108849411650e-01  3.393140768766017e-17
-1.429999999999999e+00 -8.256108849411650e-01  3.393140768766017e-17
-1.429999999999999e+00 -8.256108849411650e-01  3.393140768766017e-17
-1.429999999999999e+00 -8.256108849411650e-01  3.393140768766017e-17
-1.429999999999999e+00 -8.256108849411650e-01  3.393140768766017e-17
-1.429999999999999e+00 -8.256108849411650e-01  3.393140768766017e-17
-1.429999999999999e+00 -8.256108849411650e-01  3.393140768766017e-17
-1.429999999999999e+00 -8.256108849411650e-01  3.393140768766017e-17
-1.429999999999999e+00 -8.256108849411650e-01  3.393140768766017e-17
-1.429999999999999e+00 -8.256108849411650e-01  3.393140768766017e-17
-1.429999999999999e+00 -8.256108849411650e-01  3.393140768766017e-17
-1.429999999999999e+00 -8.256108849411650e-01  3.393140768766017e-17
-1.429999999999999e+00 -8.256108849411650e-01  3.393140768766017e-17
-1.429999999999999e+00 -8.256108849411650e-01  3.393140768766017e-17
-1.429999999999999e+00 -8.256108849411650e-01  3.393140768766017e-17
-1.429999999999999e+00 -8.256108849411650e-01  3.393140768766017e-17
-1.429999999999999e+00 -8.256108849411650e-01  3.393140768766017e-17
-1.429999999999999e+00 -8.256108849411650e-01  3.393140768766017e-17
-1.429999999999999e+00 -8.256108849411650e-01  3.393140768766017e-17
-1.429999999999999e+00 -8.256108849411650e-01  3.393140768766017e-17
-1.429999999999999e+00 -8.256108849411650e-01  3.393140768766017e-17
-1.429999999999999e+00 -8.256108849411650e-01  3.393140768766017e-17
-1.429999999999999e+00 -8.256108849411650e-01  3.393140768766017e-17
-1.429999999999999e+00 -8.256108849411650e-01  3.393140768766017e-17
-1.429999999999999e+00 -8.256108849411650e-01  3.393140768766017e-17
-1.429999999999999e+00 -8.256108849411650e-01  3.393140768766017e-17
-1.429999999999999e+00 -8.256108849411650e-01  3.393140768766017e-17
-1.429999999999999e+00 -8.256108849411650e-01  3.393140768766017e-17
-1.429999999999999e+00 -8.256108849411650e-01  3.393140768766017e-17
-1.429999999999999e+00 -8.256108849411650e-01  3.393140768766017e-17
-1.429999999999999e+00 -8.256108849411650e-01  3.393140768766017e-17
-1.429999999999999e+00 -8.256108849411650e-01  3.393140768766017e-17
-1.429999999999999e+00 -8.256108849411650e-01  3.393140768766017e-17
-1.429999999999999e+00 -8.256108849411650e-01  3.393140768766017e-17
-1.429999999999999e+00 -8.256108849411650e-01  3.393140768766017e-17
-1.429999999999999e+00 -8.256108849411650e-01  3.393140768766017e-17
-1.429999999999999e+00 -8.256108849411650e-01  3.393140768766017e-17
-1.429999999999999e+00 -8.256108849411650e-01  3.393140768766017e-17
-1.429999999999999e+00 -8.256108849411650e-01  3.393140768766017e-17
-1.429999999999999e+00 -8.256108849411650e-01  3.393140768766017e-17
-1.429999999999999e+00 -8.256108849411650e-01  3.393140768766017e-17
-1.429999999999999e+00 -8.256108849411650e-01  3.393140768766017e-17
-1.429999999999999e+00 -8.256108849411650e-01  3.393140768766017e-17
-1.429999999999999e+00 -8.256108849411650e-01  3.393140768766017e-17
-1.429999999999999e+00 -8.256108849411650e-01  3.393140768766017e-17
-1.429999999999999e+00 -8.256108849411650e-01  3.393140768766017e-17
-1.429999999999999e+00 -8.256108849411650e-01  3.393140768766017e-17
-1.429999999999999e+00 -8.256108849411650e-01  3.393140768766017e-17
-1.429999999999999e+00 -8.256108849411650e-01  3.393140768766017e-17
-1.429999999999999e+00 -8.256108849411650e-01  3.393140768766017e-17
-1.429999999999999e+00 -8.256108849411650e-01  3.393140768766017e-17
-1.429999999999999e+00 -8.256108849411650e-01  3.393140768766017e-17
-1.429999999999999e+00 -8.256108849411650e-01  3.393140768766017e-17
-1.429999999999999e+00 -8.256108849411650e-01  3.393140768766017e-17
-1.429999999999999e+00 -8.256108849411650e-01  3.393140768766017e-17
-1.429999999999999e+00 -8.256108849411650e-01  3.393140768766017e-17
-1.429999999999999e+00 -8.256108849411650e-01  3.393140768766017e-17
-1.429999999999999e+00 -8.256108849411650e-01  3.393140768766017e-17
-1.429999999999999e+00 -8.256108849411650e-01  3.393140768766017e-17
-1.429999999999999e+00 -8.256108849411650e-01  3.393140768766017e-17
-1.429999999999999e+00 -8.256108849411650e-01  3.393140768766017e-17
-1.429999999999999e+00 -8.256108849411650e-01  3.393140768766017e-17
-1.429999999999999e+00 -8.256108849411650e-01  3.393140768766017e-17
-1.429999999999999e+00 -8.256108849411650e-01  3.393140768766017e-17
-1.429999999999999e+00 -8.256108849411650e-01  3.393140768766017e-17
-1.429999999999999e+00 -8.256108849411650e-01  3.393140768766017e-17
-1.429999999999999e+00 -8.256108849411650e-01  3.393140768766017e-17
-1.429999999999999e+00 -8.256108849411650e-01  3.393140768766017e-17
-1.429999999999999e+00 -8.256108849411650e-01  3.393140768766017e-17
-1.429999999999999e+00 -8.256108849411650e-01  3.393140768766017e-17
-1.429999999999999e+00 -8.256108849411650e-01  3.393140768766017e-17
-1.429999999999999e+00 -8.256108849411650e-01  3.393140768766017e-17
-1.429999999999999e+00 -8.256108849411650e-01  3.393140768766017e-17
-1.429999999999999e+00 -8.256108849411650e-01  3.393140768766017e-17
-1.429999999999999e+00 -8.256108849411650e-01  3.393140768766017e-17
-1.429999999999999e+00 -8.256108849411650e-01  3.393140768766017e-17
-1.429999999999999e+00 -8.256108849411650e-01  3.393140768766017e-17
-1.429999999999999e+00 -8.256108849411650e-01  3.393140768766017e-17
-1.429999999999999e+00 -8.256108849411650e-01  3.393140768766017e-17
-1.429999999999999e+00 -8.256108849411650e-01  3.393140768766017e-17
-1.429999999999999e+00 -8.256108849411650e-01  3.393140768766017e-17
-1.429999999999999e+00 -8.256108849411650e-01  3.393140768766017e-17
-1.429999999999999e+00 -8.256108849411650e-01  3.393140768766017e-17
-1.429999999999999e+00 -8.256108849411650e-01  3.393140768766017e-17
-1.429999999999999e+00 -8.256108849411650e-01  3.393140768766017e-17
-1.429999999999999e+00 -8.256108849411650e-01  3.393140768766017e-17
-1.429999999999999e+00 -8.256108849411650e-01  3.393140768766017e-17
-1.429999999999999e+00 -8.256108849411650e-01  3.393140768766017e-17
-1.429999999999999e+00 -8.256108849411650e-01  3.393140768766017e-17
-1.429999999999999e+00 -8.256108849411650e-01  3.393140768766017e-17
-1.429999999999999e+00 -8.256108849411650e-01  3.393140768766017e-17
-1.429999999999999e+00 -8.256108849411650e-01  3.393140768766017e-17
-1.429999999999999e+00 -8.256108849411650e-01  3.393140768766017e-17
-1.429999999999999e+00 -8.256108849411650e-01  3.393140768766017e-17
-1.429999999999999e+00 -8.256108849411650e-01  3.393140768766017e-17
-1.429999999999999e+00 -8.256108849411650e-01  3.393140768766017e-17
-1.429999999999999e+00 -8.256108849411650e-01  3.393140768766017e-17
-1.429999999999999e+00 -8.256108849411650e-01  3.393140768766017e-17
-1.429999999999999e+00 -8.256108849411650e-01  3.393140768766017e-17
-1.429999999999999e+00 -8.256108849411650e-01  3.393140768766017e-17
-1.429999999999999e+00 -8.256108849411650e-01  3.393140768766017e-17
-1.429999999999999e+00 -8.256108849411650e-01  3.393140768766017e-17
-1.429999999999999e+00 -8.256108849411650e-01  3.393140768766017e-17
-1.429999999999999e+00 -8.256108849411650e-01  3.393140768766017e-17
-1.429999999999999e+00 -8.256108849411650e-01  3.393140768766017e-17
-1.429999999999999e+00 -8.256108849411650e-01  3.393140768766017e-17
-1.429999999999999e+00 -8.256108849411650e-01  3.393140768766017e-17
-1.429999999999999e+00 -8.256108849411650e-01  3.393140768766017e-17
-1.429999999999999e+00 -8.256108849411650e-01  3.393140768766017e-17
-1.429999999999999e+00 -8.256108849411650e-01  3.393140768766017e-17
-1.429999999999999e+00 -8.256108849411650e-01  3.393140768766017e-17
-1.429999999999999e+00 -8.256108849411650e-01  3.393140768766017e-17
-1.429999999999999e+00 -8.256108849411650e-01  3.393140768766017e-17
-1.429999999999999e+00 -8.256108849411650e-01  3.393140768766017e-17
-1.429999999999999e+00 -8.256108849411650e-01  3.393140768766017e-17
-1.429999999999999e+00 -8.256108849411650e-01  3.393140768766017e-17
-1.429999999999999e+00 -8.256108849411650e-01  3.393140768766017e-17
-1.429999999999999e+00 -8.256108849411650e-01  3.393140768766017e-17
-1.429999999999999e+00 -8.256108849411650e-01  3.393140768766017e-17
-1.429999999999999e+00 -8.256108849411650e-01  3.393140768766017e-17
-1.429999999999999e+00 -8.256108849411650e-01  3.393140768766017e-17
-1.429999999999999e+00 -8.256108849411650e-01  3.393140768766017e-17
-1.429999999999999e+00 -8.256108849411650e-01  3.393140768766017e-17
-1.429999999999999e+00 -8.256108849411650e-01  3.393140768766017e-17
-1.429999999999999e+00 -8.256108849411650e-01  3.393140768766017e-17
-1.429999999999999e+00 -8.256108849411650e-01  3.393140768766017e-17
-1.429999999999999e+00 -8.256108849411650e-01  3.393140768766017e-17
-1.429999999999999e+00 -8.256108849411650e-01  3.393140768766017e-17
-1.429999999999999e+00 -8.256108849411650e-01  3.393140768766017e-17
-1.429999999999999e+00 -8.256108849411650e-01  3.393140768766017e-17
-1.429999999999999e+00 -8.256108849411650e-01  3.393140768766017e-17
-1.429999999999999e+00 -8.256108849411650e-01  3.393140768766017e-17
-1.429999999999999e+00 -8.256108849411650e-01  3.393140768766017e-17
-1.429999999999999e+00 -8.256108849411650e-01  3.393140768766017e-17
-1.429999999999999e+00 -8.256108849411650e-01  3.393140768766017e-17
-1.429999999999999e+00 -8.256108849411650e-01  3.393140768766017e-17
-1.429999999999999e+00 -8.256108849411650e-01  3.393140768766017e-17
-1.429999999999999e+00 -8.256108849411650e-01  3.393140768766017e-17
-1.429999999999999e+00 -8.256108849411650e-01  3.393140768766017e-17
-1.429999999999999e+00 -8.256108849411650e-01  3.393140768766017e-17
-1.429999999999999e+00 -8.256108849411650e-01  3.393140768766017e-17
-1.429999999999999e+00 -8.256108849411650e-01  3.393140768766017e-17
-1.429999999999999e+00 -8.256108849411650e-01  3.393140768766017e-17
-1.429999999999999e+00 -8.256108849411650e-01  3.393140768766017e-17
-1.429999999999999e+00 -8.256108849411650e-01  3.393140768766017e-17
-1.429999999999999e+00 -8.256108849411650e-01  3.393140768766017e-17
-1.429999999999999e+00 -8.256108849411650e-01  3.393140768766017e-17
 1.429999999999999e+00  8.256108849411650e-01 -3.393140768766017e-17
-1.429999999999999e+00 -8.256108849411650e-01  3.393140768766017e-17
-1.429999999999999e+00 -8.256108849411650e-01  3.393140768766017e-17
-1.429999999999999e+00 -8.256108849411650e-01  3.393140768766017e-17
-1.429999999999999e+00 -8.256108849411650e-01  3.393140768766017e-17
-1.429999999999999e+00 -8.256108849411650e-01  3.393140768766017e-17
-1.429999999999999e+00 -8.256108849411650e-01  3.393140768766017e-17
-1.429999999999999e+00 -8.256108849411650e-01  3.393140768766017e-17
-1.429999999999999e+00 -8.256108849411650e-01  3.393140768766017e-17
-1.429999999999999e+00 -8.256108849411650e-01  3.393140768766017e-17
-1.429999999999999e+00 -8.256108849411650e-01  3.393140768766017e-17
-1.429999999999999e+00 -8.256108849411650e-01  3.393140768766017e-17
-1.429999999999999e+00 -8.256108849411650e-01  3.393140768766017e-17
-1.429999999999999e+00 -8.256108849411650e-01  3.393140768766017e-17
-1.429999999999999e+00 -8.256108849411650e-01  3.393140768766017e-17
-1.429999999999999e+00 -8.256108849411650e-01  3.393140768766017e-17
-1.429999999999999e+00 -8.256108849411650e-01  3.393140768766017e-17
-1.429999999999999e+00 -8.256108849411650e-01  3.393140768766017e-17
-1.429999999999999e+00 -8.256108849411650e-01  3.393140768766017e-17
-1.429999999999999e+00 -8.256108849411650e-01  3.393140768766017e-17
-1.429999999999999e+00 -8.256108849411650e-01  3.393140768766017e-17
-1.429999999999999e+00 -8.256108849411650e-01  3.393140768766017e-17
-1.429999999999999e+00 -8.256108849411650e-01  3.393140768766017e-17
-1.429999999999999e+00 -8.256108849411650e-01  3.393140768766017e-17
-1.429999999999999e+00 -8.256108849411650e-01  3.393140768766017e-17
-1.429999999999999e+00 -8.256108849411650e-01  3.393140768766017e-17
-1.429999999999999e+00 -8.256108849411650e-01  3.393140768766017e-17
-1.429999999999999e+00 -8.256108849411650e-01  3.393140768766017e-17
-1.429999999999999e+00 -8.256108849411650e-01  3.393140768766017e-17
-1.429999999999999e+00 -8.256108849411650e-01  3.393140768766017e-17
-1.429999999999999e+00 -8.256108849411650e-01  3.393140768766017e-17
-1.429999999999999e+00 -8.256108849411650e-01  3.393140768766017e-17
-1.429999999999999e+00 -8.256108849411650e-01  3.393140768766017e-17
-1.429999999999999e+00 -8.256108849411650e-01  3.393140768766017e-17
-1.429999999999999e+00 -8.256108849411650e-01  3.393140768766017e-17
-1.429999999999999e+00 -8.256108849411650e-01  3.393140768766017e-17
-1.429999999999999e+00 -8.256108849411650e-01  3.393140768766017e-17
-1.429999999999999e+00 -8.256108849411650e-01  3.393140768766017e-17
-1.429999999999999e+00 -8.256108849411650e-01  3.393140768766017e-17
-1.429999999999999e+00 -8.256108849411650e-01  3.393140768766017e-17
-1.429999999999999e+00 -8.256108849411650e-01  3.393140768766017e-17
-1.429999999999999e+00 -8.256108849411650e-01  3.393140768766017e-17
-1.429999999999999e+00 -8.256108849411650e-01  3.393140768766017e-17
-1.429999999999999e+00 -8.256108849411650e-01  3.393140768766017e-17
-1.429999999999999e+00 -8.256108849411650e-01  3.393140768766017e-17
-1.429999999999999e+00 -8.256108849411650e-01  3.393140768766017e-17
-1.429999999999999e+00 -8.256108849411650e-01  3.393140768766017e-17
-1.429999999999999e+00 -8.256108849411650e-01  3.393140768766017e-17
-1.429999999999999e+00 -8.256108849411650e-01  3.393140768766017e-17
-1.429999999999999e+00 -8.256108849411650e-01  3.393140768766017e-17
-1.429999999999999e+00 -8.256108849411650e-01  3.393140768766017e-17
-1.429999999999999e+00 -8.256108849411650e-01  3.393140768766017e-17
-1.429999999999999e+00 -8.256108849411650e-01  3.393140768766017e-17
-1.429999999999999e+00 -8.256108849411650e-01  3.393140768766017e-17
-1.429999999999999e+00 -8.256108849411650e-01  3.393140768766017e-17
-1.429999999999999e+00 -8.256108849411650e-01  3.393140768766017e-17
-1.429999999999999e+00 -8.256108849411650e-01  3.393140768766017e-17
-1.429999999999999e+00 -8.256108849411650e-01  3.393140768766017e-17
-1.429999999999999e+00 -8.256108849411650e-01  3.393140768766017e-17
-1.429999999999999e+00 -8.256108849411650e-01  3.393140768766017e-17
-1.429999999999999e+00 -8.256108849411650e-01  3.393140768766017e-17
-1.429999999999999e+00 -8.256108849411650e-01  3.393140768766017e-17
-1.429999999999999e+00 -8.256108849411650e-01  3.393140768766017e-17
-1.429999999999999e+00 -8.256108849411650e-01  3.393140768766017e-17
-1.429999999999999e+00 -8.256108849411650e-01  3.393140768766017e-17
-1.429999999999999e+00 -8.256108849411650e-01  3.393140768766017e-17
-1.429999999999999e+00 -8.256108849411650e-01  3.393140768766017e-17
-1.429999999999999e+00 -8.256108849411650e-01  3.393140768766017e-17
-1.429999999999999e+00 -8.256108849411650e-01  3.393140768766017e-17
-1.429999999999999e+00 -8.256108849411650e-01  3.393140768766017e-17
-1.429999999999999e+00 -8.256108849411650e-01  3.393140768766017e-17
-1.429999999999999e+00 -8.256108849411650e-01  3.393140768766017e-17
-1.429999999999999e+00 -8.256108849411650e-01  3.393140768766017e-17
-1.429999999999999e+00 -8.256108849411650e-01  3.393140768766017e-17
-1.429999999999999e+00 -8.256108849411650e-01  3.393140768766017e-17
-1.429999999999999e+00 -8.256108849411650e-01  3.393140768766017e-17
-1.429999999999999e+00 -8.256108849411650e-01  3.393140768766017e-17
-1.429999999999999e+00 -8.256108849411650e-01  3.393140768766017e-17
-1.429999999999999e+00 -8.256108849411650e-01  3.393140768766017e-17
-1.429999999999999e+00 -8.256108849411650e-01  3.393140768766017e-17
-1.429999999999999e+00 -8.256108849411650e-01  3.393140768766017e-17
-1.429999999999999e+00 -8.256108849411650e-01  3.393140768766017e-17
-1.429999999999999e+00 -8.256108849411650e-01  3.393140768766017e-17
-1.429999999999999e+00 -8.256108849411650e-01  3.393140768766017e-17
-1.429999999999999e+00 -8.256108849411650e-01  3.393140768766017e-17
-1.429999999999999e+00 -8.256108849411650e-01  3.393140768766017e-17
-1.429999999999999e+00 -8.256108849411650e-01  3.393140768766017e-17
-1.429999999999999e+00 -8.256108849411650e-01  3.393140768766017e-17
-1.429999999999999e+00 -8.256108849411650e-01  3.393140768766017e-17
-1.429999999999999e+00 -8.256108849411650e-01  3.393140768766017e-17
-1.429999999999999e+00 -8.256108849411650e-01  3.393140768766017e-17
-1.429999999999999e+00 -8.256108849411650e-01  3.393140768766017e-17
-1.429999999999999e+00 -8.256108849411650e-01  3.393140768766017e-17
-1.429999999999999e+00 -8.256108849411650e-01  3.393140768766017e-17
-1.429999999999999e+00 -8.256108849411650e-01  3.393140768766017e-17
-1.429999999999999e+00 -8.256108849411650e-01  3.393140768766017e-17
-1.429999999999999e+00 -8.256108849411650e-01  3.393140768766017e-17
-1.429999999999999e+00 -8.256108849411650e-01  3.393140768766017e-17
-1.429999999999999e+00 -8.256108849411650e-01  3.393140768766017e-17
-1.429999999999999e+00 -8.256108849411650e-01  3.393140768766017e-17
-1.429999999999999e+00 -8.256108849411650e-01  3.393140768766017e-17
-1.429999999999999e+00 -8.256108849411650e-01  3.393140768766017e-17
-1.429999999999999e+00 -8.256108849411650e-01  3.393140768766017e-17
-1.429999999999999e+00 -8.256108849411650e-01  3.393140768766017e-17
-1.429999999999999e+00 -8.256108849411650e-01  3.393140768766017e-17
-1.429999999999999e+00 -8.256108849411650e-01  3.393140768766017e-17
-1.429999999999999e+00 -8.256108849411650e-01  3.393140768766017e-17
-1.429999999999999e+00 -8.256108849411650e-01  3.393140768766017e-17
-1.429999999999999e+00 -8.256108849411650e-01  3.393140768766017e-17
-1.429999999999999e+00 -8.256108849411650e-01  3.393140768766017e-17
-1.429999999999999e+00 -8.256108849411650e-01  3.393140768766017e-17
-1.429999999999999e+00 -8.256108849411650e-01  3.393140768766017e-17
-1.429999999999999e+00 -8.256108849411650e-01  3.393140768766017e-17
-1.429999999999999e+00 -8.256108849411650e-01  3.393140768766017e-17
-1.429999999999999e+00 -8.256108849411650e-01  3.393140768766017e-17
-1.429999999999999e+00 -8.256108849411650e-01  3.393140768766017e-17
-1.429999999999999e+00 -8.256108849411650e-01  3.393140768766017e-17
-1.429999999999999e+00 -8.256108849411650e-01  3.393140768766017e-17
-1.429999999999999e+00 -8.256108849411650e-01  3.393140768766017e-17
-1.429999999999999e+00 -8.256108849411650e-01  3.393140768766017e-17
-1.429999999999999e+00 -8.256108849411650e-01  3.393140768766017e-17
-1.429999999999999e+00 -8.256108849411650e-01  3.393140768766017e-17
-1.429999999999999e+00 -8.256108849411650e-01  3.393140768766017e-17
-1.429999999999999e+00 -8.256108849411650e-01  3.393140768766017e-17
-1.429999999999999e+00 -8.256108849411650e-01  3.393140768766017e-17
-1.429999999999999e+00 -8.256108849411650e-01  3.393140768766017e-17
-1.429999999999999e+00 -8.256108849411650e-01  3.393140768766017e-17
-1.429999999999999e+00 -8.256108849411650e-01  3.393140768766017e-17
-1.429999999999999e+00 -8.256108849411650e-01  3.393140768766017e-17
-1.429999999999999e+00 -8.256108849411650e-01  3.393140768766017e-17
-1.429999999999999e+00 -8.256108849411650e-01  3.393140768766017e-17
-1.429999999999999e+00 -8.256108849411650e-01  3.393140768766017e-17
-1.429999999999999e+00 -8.256108849411650e-01  3.393140768766017e-17
-1.429999999999999e+00 -8.256108849411650e-01  3.393140768766017e-17
-1.429999999999999e+00 -8.256108849411650e-01  3.393140768766017e-17
-1.429999999999999e+00 -8.256108849411650e-01  3.393140768766017e-17
-1.429999999999999e+00 -8.256108849411650e-01  3.393140768766017e-17
-1.429999999999999e+00 -8.256108849411650e-01  3.393140768766017e-17
-1.429999999999999e+00 -8.256108849411650e-01  3.393140768766017e-17
-1.429999999999999e+00 -8.256108849411650e-01  3.393140768766017e-17
-1.429999999999999e+00 -8.256108849411650e-01  3.393140768766017e-17
-1.429999999999999e+00 -8.256108849411650e-01  3.393140768766017e-17
-1.429999999999999e+00 -8.256108849411650e-01  3.393140768766017e-17
-1.429999999999999e+00 -8.256108849411650e-01  3.393140768766017e-17
-1.429999999999999e+00 -8.256108849411650e-01  3.393140768766017e-17
-1.429999999999999e+00 -8.256108849411650e-01  3.393140768766017e-17
-1.429999999999999e+00 -8.256108849411650e-01  3.393140768766017e-17
-1.429999999999999e+00 -8.256108849411650e-01  3.393140768766017e-17
-1.429999999999999e+00 -8.256108849411650e-01  3.393140768766017e-17
-1.429999999999999e+00 -8.256108849411650e-01  3.393140768766017e-17
-1.429999999999999e+00 -8.256108849411650e-01  3.393140768766017e-17
-1.429999999999999e+00 -8.256108849411650e-01  3.393140768766017e-17
-1.429999999999999e+00 -8.256108849411650e-01  3.393140768766017e-17
-1.429999999999999e+00 -8.256108849411650e-01  3.393140768766017e-17
-1.429999999999999e+00 -8.256108849411650e-01  3.393140768766017e-17
-1.429999999999999e+00 -8.256108849411650e-01  3.393140768766017e-17
-1.429999999999999e+00 -8.256108849411650e-01  3.393140768766017e-17
-1.429999999999999e+00 -8.256108849411650e-01  3.393140768766017e-17
-1.429999999999999e+00 -8.256108849411650e-01  3.393140768766017e-17
-1.429999999999999e+00 -8.256108849411650e-01  3.393140768766017e-17
-1.429999999999999e+00 -8.256108849411650e-01  3.393140768766017e-17
-1.429999999999999e+00 -8.256108849411650e-01  3.393140768766017e-17
-1.429999999999999e+00 -8.256108849411650e-01  3.393140768766017e-17
-1.429999999999999e+00 -8.256108849411650e-01  3.393140768766017e-17
-1.429999999999999e+00 -8.256108849411650e-01  3.393140768766017e-17
-1.429999999999999e+00 -8.256108849411650e-01  3.393140768766017e-17
-1.429999999999999e+00 -8.256108849411650e-01  3.393140768766017e-17
-1.429999999999999e+00 -8.256108849411650e-01  3.393140768766017e-17
-1.429999999999999e+00 -8.256108849411650e-01  3.393140768766017e-17
-1.429999999999999e+00 -8.256108849411650e-01  3.393140768766017e-17
-1.429999999999999e+00 -8.256108849411650e-01  3.393140768766017e-17
-1.429999999999999e+00 -8.256108849411650e-01  3.393140768766017e-17
-1.429999999999999e+00 -8.256108849411650e-01  3.393140768766017e-17
-1.429999999999999e+00 -8.256108849411650e-01  3.393140768766017e-17
-1.429999999999999e+00 -8.256108849411650e-01  3.393140768766017e-17
-1.429999999999999e+00 -8.256108849411650e-01  3.393140768766017e-17
-1.429999999999999e+00 -8.256108849411650e-01  3.393140768766017e-17
 1.429999999999999e+00  8.256108849411650e-01 -3.393140768766017e-17
-1.429999999999999e+00 -8.256108849411650e-01  3.393140768766017e-17
 1.429999999999999e+00  8.256108849411650e-01 -3.393140768766017e-17
 1.429999999999999e+00  8.256108849411650e-01 -3.393140768766017e-17
 1.429999999999999e+00  8.256108849411650e-01 -3.393140768766017e-17
 1.429999999999999e+00  8.256108849411650e-01 -3.393140768766017e-17
 1.429999999999999e+00  8.256108849411650e-01 -3.393140768766017e-17
 1.429999999999999e+00  8.256108849411650e-01 -3.393140768766017e-17
 1.429999999999999e+00  8.256108849411650e-01 -3.393140768766017e-17
 1.429999999999999e+00  8.256108849411650e-01 -3.393140768766017e-17
 1.429999999999999e+00  8.256108849411650e-01 -3.393140768766017e-17
 1.429999999999999e+00  8.256108849411650e-01 -3.393140768766017e-17
 1.429999999999999e+00  8.256108849411650e-01 -3.393140768766017e-17
 1.429999999999999e+00  8.256108849411650e-01 -3.393140768766017e-17
 1.429999999999999e+00  8.256108849411650e-01 -3.393140768766017e-17
 1.429999999999999e+00  8.256108849411650e-01 -3.393140768766017e-17
 1.429999999999999e+00  8.256108849411650e-01 -3.393140768766017e-17
 1.429999999999999e+00  8.256108849411650e-01 -3.393140768766017e-17
 1.429999999999999e+00  8.256108849411650e-01 -3.393140768766017e-17
 1.429999999999999e+00  8.256108849411650e-01 -3.393140768766017e-17
 1.429999999999999e+00  8.256108849411650e-01 -3.393140768766017e-17
 1.429999999999999e+00  8.256108849411650e-01 -3.393140768766017e-17
 1.429999999999999e+00  8.256108849411650e-01 -3.393140768766017e-17
 1.429999999999999e+00  8.256108849411650e-01 -3.393140768766017e-17
 1.429999999999999e+00  8.256108849411650e-01 -3.393140768766017e-17
 1.429999999999999e+00  8.256108849411650e-01 -3.393140768766017e-17
 1.429999999999999e+00  8.256108849411650e-01 -3.393140768766017e-17
 1.429999999999999e+00  8.256108849411650e-01 -3.393140768766017e-17
 1.429999999999999e+00  8.256108849411650e-01 -3.393140768766017e-17
 1.429999999999999e+00  8.256108849411650e-01 -3.393140768766017e-17
 1.429999999999999e+00  8.256108849411650e-01 -3.393140768766017e-17
 1.429999999999999e+00  8.256108849411650e-01 -3.393140768766017e-17
 1.429999999999999e+00  8.256108849411650e-01 -3.393140768766017e-17
 1.429999999999999e+00  8.256108849411650e-01 -3.393140768766017e-17
 1.429999999999999e+00  8.256108849411650e-01 -3.393140768766017e-17
 1.429999999999999e+00  8.256108849411650e-01 -3.393140768766017e-17
 1.429999999999999e+00  8.256108849411650e-01 -3.393140768766017e-17
 1.429999999999999e+00  8.256108849411650e-01 -3.393140768766017e-17
 1.429999999999999e+00  8.256108849411650e-01 -3.393140768766017e-17
 1.429999999999999e+00  8.256108849411650e-01 -3.393140768766017e-17
 1.429999999999999e+00  8.256108849411650e-01 -3.393140768766017e-17
 1.429999999999999e+00  8.256108849411650e-01 -3.393140768766017e-17
 1.429999999999999e+00  8.256108849411650e-01 -3.393140768766017e-17
 1.429999999999999e+00  8.256108849411650e-01 -3.393140768766017e-17
 1.429999999999999e+00  8.256108849411650e-01 -3.393140768766017e-17
 1.429999999999999e+00  8.256108849411650e-01 -3.393140768766017e-17
 1.429999999999999e+00  8.256108849411650e-01 -3.393140768766017e-17
 1.429999999999999e+00  8.256108849411650e-01 -3.393140768766017e-17
 1.429999999999999e+00  8.256108849411650e-01 -3.393140768766017e-17
 1.429999999999999e+00  8.256108849411650e-01 -3.393140768766017e-17
 1.429999999999999e+00  8.256108849411650e-01 -3.393140768766017e-17
 1.429999999999999e+00  8.256108849411650e-01 -3.393140768766017e-17
 1.429999999999999e+00  8.256108849411650e-01 -3.393140768766017e-17
 1.429999999999999e+00  8.256108849411650e-01 -3.393140768766017e-17
 1.429999999999999e+00  8.256108849411650e-01 -3.393140768766017e-17
 1.429999999999999e+00  8.256108849411650e-01 -3.393140768766017e-17
 1.429999999999999e+00  8.256108849411650e-01 -3.393140768766017e-17
 1.429999999999999e+00  8.256108849411650e-01 -3.393140768766017e-17
 1.429999999999999e+00  8.256108849411650e-01 -3.393140768766017e-17
 1.429999999999999e+00  8.256108849411650e-01 -3.393140768766017e-17
 1.429999999999999e+00  8.256108849411650e-01 -3.393140768766017e-17
 1.429999999999999e+00  8.256108849411650e-01 -3.393140768766017e-17
 1.429999999999999e+00  8.256108849411650e-01 -3.393140768766017e-17
 1.429999999999999e+00  8.256108849411650e-01 -3.393140768766017e-17
 1.429999999999999e+00  8.256108849411650e-01 -3.393140768766017e-17
 1.429999999999999e+00  8.256108849411650e-01 -3.393140768766017e-17
 1.429999999999999e+00  8.256108849411650e-01 -3.393140768766017e-17
 1.429999999999999e+00  8.256108849411650e-01 -3.393140768766017e-17
 1.429999999999999e+00  8.256108849411650e-01 -3.393140768766017e-17
 1.429999999999999e+00  8.256108849411650e-01 -3.393140768766017e-17
 1.429999999999999e+00  8.256108849411650e-01 -3.393140768766017e-17
 1.429999999999999e+00  8.256108849411650e-01 -3.393140768766017e-17
 1.429999999999999e+00  8.256108849411650e-01 -3.393140768766017e-17
 1.429999999999999e+00  8.256108849411650e-01 -3.393140768766017e-17
 1.429999999999999e+00  8.256108849411650e-01 -3.393140768766017e-17
 1.429999999999999e+00  8.256108849411650e-01 -3.393140768766017e-17
 1.429999999999999e+00  8.256108849411650e-01 -3.393140768766017e-17
 1.429999999999999e+00  8.256108849411650e-01 -3.393140768766017e-17
 1.429999999999999e+00  8.256108849411650e-01 -3.393140768766017e-17
 1.429999999999999e+00  8.256108849411650e-01 -3.393140768766017e-17
 1.429999999999999e+00  8.256108849411650e-01 -3.393140768766017e-17
 1.429999999999999e+00  8.256108849411650e-01 -3.393140768766017e-17
 1.429999999999999e+00  8.256108849411650e-01 -3.393140768766017e-17
 1.429999999999999e+00  8.256108849411650e-01 -3.393140768766017e-17
 1.429999999999999e+00  8.256108849411650e-01 -3.393140768766017e-17
 1.429999999999999e+00  8.256108849411650e-01 -3.393140768766017e-17
 1.429999999999999e+00  8.256108849411650e-01 -3.393140768766017e-17
 1.429999999999999e+00  8.256108849411650e-01 -3.393140768766017e-17
 1.429999999999999e+00  8.256108849411650e-01 -3.393140768766017e-17
 1.429999999999999e+00  8.256108849411650e-01 -3.393140768766017e-17
 1.429999999999999e+00  8.256108849411650e-01 -3.393140768766017e-17
 1.429999999999999e+00  8.256108849411650e-01 -3.393140768766017e-17
 1.429999999999999e+00  8.256108849411650e-01 -3.393140768766017e-17
 1.429999999999999e+00  8.256108849411650e-01 -3.393140768766017e-17
 1.429999999999999e+00  8.256108849411650e-01 -3.393140768766017e-17
 1.429999999999999e+00  8.256108849411650e-01 -3.393140768766017e-17
 1.429999999999999e+00  8.256108849411650e-01 -3.393140768766017e-17
 1.429999999999999e+00  8.256108849411650e-01 -3.393140768766017e-17
 1.429999999999999e+00  8.256108849411650e-01 -3.393140768766017e-17
 1.429999999999999e+00  8.256108849411650e-01 -3.393140768766017e-17
 1.429999999999999e+00  8.256108849411650e-01 -3.393140768766017e-17
 1.429999999999999e+00  8.256108849411650e-01 -3.393140768766017e-17
 1.429999999999999e+00  8.256108849411650e-01 -3.393140768766017e-17
 1.429999999999999e+00  8.256108849411650e-01 -3.393140768766017e-17
 1.429999999999999e+00  8.256108849411650e-01 -3.393140768766017e-17
 1.429999999999999e+00  8.256108849411650e-01 -3.393140768766017e-17
 1.429999999999999e+00  8.256108849411650e-01 -3.393140768766017e-17
 1.429999999999999e+00  8.256108849411650e-01 -3.393140768766017e-17
 1.429999999999999e+00  8.256108849411650e-01 -3.393140768766017e-17
 1.429999999999999e+00  8.256108849411650e-01 -3.393140768766017e-17
 1.429999999999999e+00  8.256108849411650e-01 -3.393140768766017e-17
 1.429999999999999e+00  8.256108849411650e-01 -3.393140768766017e-17
 1.429999999999999e+00  8.256108849411650e-01 -3.393140768766017e-17
 1.429999999999999e+00  8.256108849411650e-01 -3.393140768766017e-17
 1.429999999999999e+00  8.256108849411650e-01 -3.393140768766017e-17
 1.429999999999999e+00  8.256108849411650e-01 -3.393140768766017e-17
 1.429999999999999e+00  8.256108849411650e-01 -3.393140768766017e-17
 1.429999999999999e+00  8.256108849411650e-01 -3.393140768766017e-17
 1.429999999999999e+00  8.256108849411650e-01 -3.393140768766017e-17
 1.429999999999999e+00  8.256108849411650e-01 -3.393140768766017e-17
 1.429999999999999e+00  8.256108849411650e-01 -3.393140768766017e-17
 1.429999999999999e+00  8.256108849411650e-01 -3.393140768766017e-17
 1.429999999999999e+00  8.256108849411650e-01 -3.393140768766017e-17
 1.429999999999999e+00  8.256108849411650e-01 -3.393140768766017e-17
 1.429999999999999e+00  8.256108849411650e-01 -3.393140768766017e-17
 1.429999999999999e+00  8.256108849411650e-01 -3.393140768766017e-17
 1.429999999999999e+00  8.256108849411650e-01 -3.393140768766017e-17
 1.429999999999999e+00  8.256108849411650e-01 -3.393140768766017e-17
 1.429999999999999e+00  8.256108849411650e-01 -3.393140768766017e-17
 1.429999999999999e+00  8.256108849411650e-01 -3.393140768766017e-17
 1.429999999999999e+00  8.256108849411650e-01 -3.393140768766017e-17
 1.429999999999999e+00  8.256108849411650e-01 -3.393140768766017e-17
 1.429999999999999e+00  8.256108849411650e-01 -3.393140768766017e-17
 1.429999999999999e+00  8.256108849411650e-01 -3.393140768766017e-17
 1.429999999999999e+00  8.256108849411650e-01 -3.393140768766017e-17
 1.429999999999999e+00  8.256108849411650e-01 -3.393140768766017e-17
 1.429999999999999e+00  8.256108849411650e-01 -3.393140768766017e-17
 1.429999999999999e+00  8.256108849411650e-01 -3.393140768766017e-17
 1.429999999999999e+00  8.256108849411650e-01 -3.393140768766017e-17
 1.429999999999999e+00  8.256108849411650e-01 -3.393140768766017e-17
 1.429999999999999e+00  8.256108849411650e-01 -3.393140768766017e-17
 1.429999999999999e+00  8.256108849411650e-01 -3.393140768766017e-17
 1.429999999999999e+00  8.256108849411650e-01 -3.393140768766017e-17
 1.429999999999999e+00  8.256108849411650e-01 -3.393140768766017e-17
 1.429999999999999e+00  8.256108849411650e-01 -3.393140768766017e-17
 1.429999999999999e+00  8.256108849411650e-01 -3.393140768766017e-17
 1.429999999999999e+00  8.256108849411650e-01 -3.393140768766017e-17
 1.429999999999999e+00  8.256108849411650e-01 -3.393140768766017e-17
 1.429999999999999e+00  8.256108849411650e-01 -3.393140768766017e-17
 1.429999999999999e+00  8.256108849411650e-01 -3.393140768766017e-17
 1.429999999999999e+00  8.256108849411650e-01 -3.393140768766017e-17
 1.429999999999999e+00  8.256108849411650e-01 -3.393140768766017e-17
 1.429999999999999e+00  8.256108849411650e-01 -3.393140768766017e-17
 1.429999999999999e+00  8.256108849411650e-01 -3.393140768766017e-17
 1.429999999999999e+00  8.256108849411650e-01 -3.393140768766017e-17
 1.429999999999999e+00  8.256108849411650e-01 -3.393140768766017e-17
 1.429999999999999e+00  8.256108849411650e-01 -3.393140768766017e-17
 1.429999999999999e+00  8.256108849411650e-01 -3.393140768766017e-17
 1.429999999999999e+00  8.256108849411650e-01 -3.393140768766017e-17
 1.429999999999999e+00  8.256108849411650e-01 -3.393140768766017e-17
 1.429999999999999e+00  8.256108849411650e-01 -3.393140768766017e-17
 1.429999999999999e+00  8.256108849411650e-01 -3.393140768766017e-17
 1.429999999999999e+00  8.256108849411650e-01 -3.393140768766017e-17
 1.429999999999999e+00  8.256108849411650e-01 -3.393140768766017e-17
 1.429999999999999e+00  8.256108849411650e-01 -3.393140768766017e-17
 1.429999999999999e+00  8.256108849411650e-01 -3.393140768766017e-17
 1.429999999999999e+00  8.256108849411650e-01 -3.393140768766017e-17
 1.429999999999999e+00  8.256108849411650e-01 -3.393140768766017e-17
 1.429999999999999e+00  8.256108849411650e-01 -3.393140768766017e-17
 1.429999999999999e+00  8.256108849411650e-01 -3.393140768766017e-17
-1.429999999999999e+00 -8.256108849411650e-01  3.393140768766017e-17
 1.429999999999999e+00  8.256108849411650e-01 -3.393140768766017e-17
 1.429999999999999e+00  8.256108849411650e-01 -3.393140768766017e-17
 1.429999999999999e+00  8.256108849411650e-01 -3.393140768766017e-17
 1.429999999999999e+00  8.256108849411650e-01 -3.393140768766017e-17
 1.429999999999999e+00  8.256108849411650e-01 -3.393140768766017e-17
 1.429999999999999e+00  8.256108849411650e-01 -3.393140768766017e-17
 1.429999999999999e+00  8.256108849411650e-01 -3.393140768766017e-17
 1.429999999999999e+00  8.256108849411650e-01 -3.393140768766017e-17
 1.429999999999999e+00  8.256108849411650e-01 -3.393140768766017e-17
 1.429999999999999e+00  8.256108849411650e-01 -3.393140768766017e-17
 1.429999999999999e+00  8.256108849411650e-01 -3.393140768766017e-17
 1.429999999999999e+00  8.256108849411650e-01 -3.393140768766017e-17
 1.429999999999999e+00  8.256108849411650e-01 -3.393140768766017e-17
 1.429999999999999e+00  8.256108849411650e-01 -3.393140768766017e-17
 1.429999999999999e+00  8.256108849411650e-01 -3.393140768766017e-17
 1.429999999999999e+00  8.256108849411650e-01 -3.393140768766017e-17
 1.429999999999999e+00  8.256108849411650e-01 -3.393140768766017e-17
 1.429999999999999e+00  8.256108849411650e-01 -3.393140768766017e-17
 1.429999999999999e+00  8.256108849411650e-01 -3.393140768766017e-17
 1.429999999999999e+00  8.256108849411650e-01 -3.393140768766017e-17
 1.429999999999999e+00  8.256108849411650e-01 -3.393140768766017e-17
 1.429999999999999e+00  8.256108849411650e-01 -3.393140768766017e-17
 1.429999999999999e+00  8.256108849411650e-01 -3.393140768766017e-17
 1.429999999999999e+00  8.256108849411650e-01 -3.393140768766017e-17
 1.429999999999999e+00  8.256108849411650e-01 -3.393140768766017e-17
 1.429999999999999e+00  8.256108849411650e-01 -3.393140768766017e-17
 1.429999999999999e+00  8.256108849411650e-01 -3.393140768766017e-17
 1.429999999999999e+00  8.256108849411650e-01 -3.393140768766017e-17
 1.429999999999999e+00  8.256108849411650e-01 -3.393140768766017e-17
 1.429999999999999e+00  8.256108849411650e-01 -3.393140768766017e-17
 1.429999999999999e+00  8.256108849411650e-01 -3.393140768766017e-17
 1.429999999999999e+00  8.256108849411650e-01 -3.393140768766017e-17
 1.429999999999999e+00  8.256108849411650e-01 -3.393140768766017e-17
 1.429999999999999e+00  8.256108849411650e-01 -3.393140768766017e-17
 1.429999999999999e+00  8.256108849411650e-01 -3.393140768766017e-17
 1.429999999999999e+00  8.256108849411650e-01 -3.393140768766017e-17
 1.429999999999999e+00  8.256108849411650e-01 -3.393140768766017e-17
 1.429999999999999e+00  8.256108849411650e-01 -3.393140768766017e-17
 1.429999999999999e+00  8.256108849411650e-01 -3.393140768766017e-17
 1.429999999999999e+00  8.256108849411650e-01 -3.393140768766017e-17
 1.429999999999999e+00  8.256108849411650e-01 -3.393140768766017e-17
 1.429999999999999e+00  8.256108849411650e-01 -3.393140768766017e-17
 1.429999999999999e+00  8.256108849411650e-01 -3.393140768766017e-17
 1.429999999999999e+00  8.256108849411650e-01 -3.393140768766017e-17
 1.429999999999999e+00  8.256108849411650e-01 -3.393140768766017e-17
 1.429999999999999e+00  8.256108849411650e-01 -3.393140768766017e-17
 1.429999999999999e+00  8.256108849411650e-01 -3.393140768766017e-17
 1.429999999999999e+00  8.256108849411650e-01 -3.393140768766017e-17
 1.429999999999999e+00  8.256108849411650e-01 -3.393140768766017e-17
 1.429999999999999e+00  8.256108849411650e-01 -3.393140768766017e-17
 1.429999999999999e+00  8.256108849411650e-01 -3.393140768766017e-17
 1.429999999999999e+00  8.256108849411650e-01 -3.393140768766017e-17
 1.429999999999999e+00  8.256108849411650e-01 -3.393140768766017e-17
 1.429999999999999e+00  8.256108849411650e-01 -3.393140768766017e-17
 1.429999999999999e+00  8.256108849411650e-01 -3.393140768766017e-17
 1.429999999999999e+00  8.256108849411650e-01 -3.393140768766017e-17
 1.429999999999999e+00  8.256108849411650e-01 -3.393140768766017e-17
 1.429999999999999e+00  8.256108849411650e-01 -3.393140768766017e-17
 1.429999999999999e+00  8.256108849411650e-01 -3.393140768766017e-17
 1.429999999999999e+00  8.256108849411650e-01 -3.393140768766017e-17
 1.429999999999999e+00  8.256108849411650e-01 -3.393140768766017e-17
 1.429999999999999e+00  8.256108849411650e-01 -3.393140768766017e-17
 1.429999999999999e+00  8.256108849411650e-01 -3.393140768766017e-17
 1.429999999999999e+00  8.256108849411650e-01 -3.393140768766017e-17
 1.429999999999999e+00  8.256108849411650e-01 -3.393140768766017e-17
 1.429999999999999e+00  8.256108849411650e-01 -3.393140768766017e-17
 1.429999999999999e+00  8.256108849411650e-01 -3.393140768766017e-17
 1.429999999999999e+00  8.256108849411650e-01 -3.393140768766017e-17
 1.429999999999999e+00  8.256108849411650e-01 -3.393140768766017e-17
 1.429999999999999e+00  8.256108849411650e-01 -3.393140768766017e-17
 1.429999999999999e+00  8.256108849411650e-01 -3.393140768766017e-17
 1.429999999999999e+00  8.256108849411650e-01 -3.393140768766017e-17
 1.429999999999999e+00  8.256108849411650e-01 -3.393140768766017e-17
 1.429999999999999e+00  8.256108849411650e-01 -3.393140768766017e-17
 1.429999999999999e+00  8.256108849411650e-01 -3.393140768766017e-17
 1.429999999999999e+00  8.256108849411650e-01 -3.393140768766017e-17
 1.429999999999999e+00  8.256108849411650e-01 -3.393140768766017e-17
 1.429999999999999e+00  8.256108849411650e-01 -3.393140768766017e-17
 1.429999999999999e+00  8.256108849411650e-01 -3.393140768766017e-17
 1.429999999999999e+00  8.256108849411650e-01 -3.393140768766017e-17
 1.429999999999999e+00  8.256108849411650e-01 -3.393140768766017e-17
 1.429999999999999e+00  8.256108849411650e-01 -3.393140768766017e-17
 1.429999999999999e+00  8.256108849411650e-01 -3.393140768766017e-17
 1.429999999999999e+00  8.256108849411650e-01 -3.393140768766017e-17
 1.429999999999999e+00  8.256108849411650e-01 -3.393140768766017e-17
 1.429999999999999e+00  8.256108849411650e-01 -3.393140768766017e-17
 1.429999999999999e+00  8.256108849411650e-01 -3.393140768766017e-17
 1.429999999999999e+00  8.256108849411650e-01 -3.393140768766017e-17
 1.429999999999999e+00  8.256108849411650e-01 -3.393140768766017e-17
 1.429999999999999e+00  8.256108849411650e-01 -3.393140768766017e-17
 1.429999999999999e+00  8.256108849411650e-01 -3.393140768766017e-17
 1.429999999999999e+00  8.256108849411650e-01 -3.393140768766017e-17
 1.429999999999999e+00  8.256108849411650e-01 -3.393140768766017e-17
 1.429999999999999e+00  8.256108849411650e-01 -3.393140768766017e-17
 1.429999999999999e+00  8.256108849411650e-01 -3.393140768766017e-17
 1.429999999999999e+00  8.256108849411650e-01 -3.393140768766017e-17
 1.429999999999999e+00  8.256108849411650e-01 -3.393140768766017e-17
 1.429999999999999e+00  8.256108849411650e-01 -3.393140768766017e-17
 1.429999999999999e+00  8.256108849411650e-01 -3.393140768766017e-17
 1.429999999999999e+00  8.256108849411650e-01 -3.393140768766017e-17
 1.429999999999999e+00  8.256108849411650e-01 -3.393140768766017e-17
 1.429999999999999e+00  8.256108849411650e-01 -3.393140768766017e-17
 1.429999999999999e+00  8.256108849411650e-01 -3.393140768766017e-17
 1.429999999999999e+00  8.256108849411650e-01 -3.393140768766017e-17
 1.429999999999999e+00  8.256108849411650e-01 -3.393140768766017e-17
 1.429999999999999e+00  8.256108849411650e-01 -3.393140768766017e-17
 1.429999999999999e+00  8.256108849411650e-01 -3.393140768766017e-17
 1.429999999999999e+00  8.256108849411650e-01 -3.393140768766017e-17
 1.429999999999999e+00  8.256108849411650e-01 -3.393140768766017e-17
 1.429999999999999e+00  8.256108849411650e-01 -3.393140768766017e-17
 1.429999999999999e+00  8.256108849411650e-01 -3.393140768766017e-17
 1.429999999999999e+00  8.256108849411650e-01 -3.393140768766017e-17
 1.429999999999999e+00  8.256108849411650e-01 -3.393140768766017e-17
 1.429999999999999e+00  8.256108849411650e-01 -3.393140768766017e-17
 1.429999999999999e+00  8.256108849411650e-01 -3.393140768766017e-17
 1.429999999999999e+00  8.256108849411650e-01 -3.393140768766017e-17
 1.429999999999999e+00  8.256108849411650e-01 -3.393140768766017e-17
 1.429999999999999e+00  8.256108849411650e-01 -3.393140768766017e-17
 1.429999999999999e+00  8.256108849411650e-01 -3.393140768766017e-17
 1.429999999999999e+00  8.256108849411650e-01 -3.393140768766017e-17
 1.429999999999999e+00  8.256108849411650e-01 -3.393140768766017e-17
 1.429999999999999e+00  8.256108849411650e-01 -3.393140768766017e-17
 1.429999999999999e+00  8.256108849411650e-01 -3.393140768766017e-17
 1.429999999999999e+00  8.256108849411650e-01 -3.393140768766017e-17
 1.429999999999999e+00  8.256108849411650e-01 -3.393140768766017e-17
 1.429999999999999e+00  8.256108849411650e-01 -3.393140768766017e-17
 1.429999999999999e+00  8.256108849411650e-01 -3.393140768766017e-17
 1.429999999999999e+00  8.256108849411650e-01 -3.393140768766017e-17
 1.429999999999999e+00  8.256108849411650e-01 -3.393140768766017e-17
 1.429999999999999e+00  8.256108849411650e-01 -3.393140768766017e-17
 1.429999999999999e+00  8.256108849411650e-01 -3.393140768766017e-17
 1.429999999999999e+00  8.256108849411650e-01 -3.393140768766017e-17
 1.429999999999999e+00  8.256108849411650e-01 -3.393140768766017e-17
 1.429999999999999e+00  8.256108849411650e-01 -3.393140768766017e-17
 1.429999999999999e+00  8.256108849411650e-01 -3.393140768766017e-17
 1.429999999999999e+00  8.256108849411650e-01 -3.393140768766017e-17
 1.429999999999999e+00  8.256108849411650e-01 -3.393140768766017e-17
 1.429999999999999e+00  8.256108849411650e-01 -3.393140768766017e-17
 1.429999999999999e+00  8.256108849411650e-01 -3.393140768766017e-17
 1.429999999999999e+00  8.256108849411650e-01 -3.393140768766017e-17
 1.429999999999999e+00  8.256108849411650e-01 -3.393140768766017e-17
 1.429999999999999e+00  8.256108849411650e-01 -3.393140768766017e-17
 1.429999999999999e+00  8.256108849411650e-01 -3.393140768766017e-17
 1.429999999999999e+00  8.256108849411650e-01 -3.393140768766017e-17
 1.429999999999999e+00  8.256108849411650e-01 -3.393140768766017e-17
 1.429999999999999e+00  8.256108849411650e-01 -3.393140768766017e-17
 1.429999999999999e+00  8.256108849411650e-01 -3.393140768766017e-17
 1.429999999999999e+00  8.256108849411650e-01 -3.393140768766017e-17
 1.429999999999999e+00  8.256108849411650e-01 -3.393140768766017e-17
 1.429999999999999e+00  8.256108849411650e-01 -3.393140768766017e-17
 1.429999999999999e+00  8.256108849411650e-01 -3.393140768766017e-17
 1.429999999999999e+00  8.256108849411650e-01 -3.393140768766017e-17
 1.429999999999999e+00  8.256108849411650e-01 -3.393140768766017e-17
 1.429999999999999e+00  8.256108849411650e-01 -3.393140768766017e-17
 1.429999999999999e+00  8.256108849411650e-01 -3.393140768766017e-17
 1.429999999999999e+00  8.256108849411650e-01 -3.393140768766017e-17
 1.429999999999999e+00  8.256108849411650e-01 -3.393140768766017e-17
 1.429999999999999e+00  8.256108849411650e-01 -3.393140768766017e-17
 1.429999999999999e+00  8.256108849411650e-01 -3.393140768766017e-17
 1.429999999999999e+00  8.256108849411650e-01 -3.393140768766017e-17
 1.429999999999999e+00  8.256108849411650e-01 -3.393140768766017e-17
 1.429999999999999e+00  8.256108849411650e-01 -3.393140768766017e-17
 1.429999999999999e+00  8.256108849411650e-01 -3.393140768766017e-17
 1.429999999999999e+00  8.256108849411650e-01 -3.393140768766017e-17
-1.429999999999999e+00  8.256108849411650e-01  1.696570384383008e-17
 1.429999999999999e+00 -8.256108849411650e-01 -1.696570384383008e-17
-1.429999999999999e+00  8.256108849411650e-01  1.696570384383008e-17
-1.429999999999999e+00  8.256108849411650e-01  1.696570384383008e-17
-1.429999999999999e+00  8.256108849411650e-01  1.696570384383008e-17
-1.429999999999999e+00  8.256108849411650e-01  1.696570384383008e-17
-1.429999999999999e+00  8.256108849411650e-01  1.696570384383008e-17
-1.429999999999999e+00  8.256108849411650e-01  1.696570384383008e-17
-1.429999999999999e+00  8.256108849411650e-01  1.696570384383008e-17
-1.429999999999999e+00  8.256108849411650e-01  1.696570384383008e-17
-1.429999999999999e+00  8.256108849411650e-01  1.696570384383008e-17
-1.429999999999999e+00  8.256108849411650e-01  1.696570384383008e-17
-1.429999999999999e+00  8.256108849411650e-01  1.696570384383008e-17
-1.429999999999999e+00  8.256108849411650e-01  1.696570384383008e-17
-1.429999999999999e+00  8.256108849411650e-01  1.696570384383008e-17
-1.429999999999999e+00  8.256108849411650e-01  1.696570384383008e-17
-1.429999999999999e+00  8.256108849411650e-01  1.696570384383008e-17
-1.429999999999999e+00  8.256108849411650e-01  1.696570384383008e-17
-1.429999999999999e+00  8.256108849411650e-01  1.696570384383008e-17
-1.429999999999999e+00  8.256108849411650e-01  1.696570384383008e-17
-1.429999999999999e+00  8.256108849411650e-01  1.696570384383008e-17
-1.429999999999999e+00  8.256108849411650e-01  1.696570384383008e-17
-1.429999999999999e+00  8.256108849411650e-01  1.696570384383008e-17
-1.429999999999999e+00  8.256108849411650e-01  1.696570384383008e-17
-1.429999999999999e+00  8.256108849411650e-01  1.696570384383008e-17
-1.429999999999999e+00  8.256108849411650e-01  1.696570384383008e-17
-1.429999999999999e+00  8.256108849411650e-01  1.696570384383008e-17
-1.429999999999999e+00  8.256108849411650e-01  1.696570384383008e-17
-1.429999999999999e+00  8.256108849411650e-01  1.696570384383008e-17
-1.429999999999999e+00  8.256108849411650e-01  1.696570384383008e-17
-1.429999999999999e+00  8.256108849411650e-01  1.696570384383008e-17
-1.429999999999999e+00  8.256108849411650e-01  1.696570384383008e-17
-1.429999999999999e+00  8.256108849411650e-01  1.696570384383008e-17
-1.429999999999999e+00  8.256108849411650e-01  1.696570384383008e-17
-1.429999999999999e+00  8.256108849411650e-01  1.696570384383008e-17
-1.429999999999999e+00  8.256108849411650e-01  1.696570384383008e-17
-1.429999999999999e+00  8.256108849411650e-01  1.696570384383008e-17
-1.429999999999999e+00  8.256108849411650e-01  1.696570384383008e-17
-1.429999999999999e+00  8.256108849411650e-01  1.696570384383008e-17
-1.429999999999999e+00  8.256108849411650e-01  1.696570384383008e-17
-1.429999999999999e+00  8.256108849411650e-01  1.696570384383008e-17
-1.429999999999999e+00  8.256108849411650e-01  1.696570384383008e-17
-1.429999999999999e+00  8.256108849411650e-01  1.696570384383008e-17
-1.429999999999999e+00  8.256108849411650e-01  1.696570384383008e-17
-1.429999999999999e+00  8.256108849411650e-01  1.696570384383008e-17
-1.429999999999999e+00  8.256108849411650e-01  1.696570384383008e-17
-1.429999999999999e+00  8.256108849411650e-01  1.696570384383008e-17
-1.429999999999999e+00  8.256108849411650e-01  1.696570384383008e-17
-1.429999999999999e+00  8.256108849411650e-01  1.696570384383008e-17
-1.429999999999999e+00  8.256108849411650e-01  1.696570384383008e-17
-1.429999999999999e+00  8.256108849411650e-01  1.696570384383008e-17
-1.429999999999999e+00  8.256108849411650e-01  1.696570384383008e-17
-1.429999999999999e+00  8.256108849411650e-01  1.696570384383008e-17
-1.429999999999999e+00  8.256108849411650e-01  1.696570384383008e-17
-1.429999999999999e+00  8.256108849411650e-01  1.696570384383008e-17
-1.429999999999999e+00  8.256108849411650e-01  1.696570384383008e-17
-1.429999999999999e+00  8.256108849411650e-01  1.696570384383008e-17
-1.429999999999999e+00  8.256108849411650e-01  1.696570384383008e-17
-1.429999999999999e+00  8.256108849411650e-01  1.696570384383008e-17
-1.429999999999999e+00  8.256108849411650e-01  1.696570384383008e-17
-1.429999999999999e+00  8.256108849411650e-01  1.696570384383008e-17
-1.429999999999999e+00  8.256108849411650e-01  1.696570384383008e-17
-1.429999999999999e+00  8.256108849411650e-01  1.696570384383008e-17
-1.429999999999999e+00  8.256108849411650e-01  1.696570384383008e-17
-1.429999999999999e+00  8.256108849411650e-01  1.696570384383008e-17
-1.429999999999999e+00  8.256108849411650e-01  1.696570384383008e-17
-1.429999999999999e+00  8.256108849411650e-01  1.696570384383008e-17
-1.429999999999999e+00  8.256108849411650e-01  1.696570384383008e-17
-1.429999999999999e+00  8.256108849411650e-01  1.696570384383008e-17
-1.429999999999999e+00  8.256108849411650e-01  1.696570384383008e-17
-1.429999999999999e+00  8.256108849411650e-01  1.696570384383008e-17
-1.429999999999999e+00  8.256108849411650e-01  1.696570384383008e-17
-1.429999999999999e+00  8.256108849411650e-01  1.696570384383008e-17
-1.429999999999999e+00  8.256108849411650e-01  1.696570384383008e-17
-1.429999999999999e+00  8.256108849411650e-01  1.696570384383008e-17
-1.429999999999999e+00  8.256108849411650e-01  1.696570384383008e-17
-1.429999999999999e+00  8.256108849411650e-01  1.696570384383008e-17
-1.429999999999999e+00  8.256108849411650e-01  1.696570384383008e-17
-1.429999999999999e+00  8.256108849411650e-01  1.696570384383008e-17
-1.429999999999999e+00  8.256108849411650e-01  1.696570384383008e-17
-1.429999999999999e+00  8.256108849411650e-01  1.696570384383008e-17
-1.429999999999999e+00  8.256108849411650e-01  1.696570384383008e-17
-1.429999999999999e+00  8.256108849411650e-01  1.696570384383008e-17
-1.429999999999999e+00  8.256108849411650e-01  1.696570384383008e-17
-1.429999999999999e+00  8.256108849411650e-01  1.696570384383008e-17
-1.429999999999999e+00  8.256108849411650e-01  1.696570384383008e-17
-1.429999999999999e+00  8.256108849411650e-01  1.696570384383008e-17
-1.429999999999999e+00  8.256108849411650e-01  1.696570384383008e-17
-1.429999999999999e+00  8.256108849411650e-01  1.696570384383008e-17
-1.429999999999999e+00  8.256108849411650e-01  1.696570384383008e-17
-1.429999999999999e+00  8.256108849411650e-01  1.696570384383008e-17
-1.429999999999999e+00  8.256108849411650e-01  1.696570384383008e-17
-1.429999999999999e+00  8.256108849411650e-01  1.696570384383008e-17
-1.429999999999999e+00  8.256108849411650e-01  1.696570384383008e-17
-1.429999999999999e+00  8.256108849411650e-01  1.696570384383008e-17
-1.429999999999999e+00  8.256108849411650e-01  1.696570384383008e-17
-1.429999999999999e+00  8.256108849411650e-01  1.696570384383008e-17
-1.429999999999999e+00  8.256108849411650e-01  1.696570384383008e-17
-1.429999999999999e+00  8.256108849411650e-01  1.696570384383008e-17
-1.429999999999999e+00  8.256108849411650e-01  1.696570384383008e-17
-1.429999999999999e+00  8.256108849411650e-01  1.696570384383008e-17
-1.429999999999999e+00  8.256108849411650e-01  1.696570384383008e-17
-1.429999999999999e+00  8.256108849411650e-01  1.696570384383008e-17
-1.429999999999999e+00  8.256108849411650e-01  1.696570384383008e-17
-1.429999999999999e+00  8.256108849411650e-01  1.696570384383008e-17
-1.429999999999999e+00  8.256108849411650e-01  1.696570384383008e-17
-1.429999999999999e+00  8.256108849411650e-01  1.696570384383008e-17
-1.429999999999999e+00  8.256108849411650e-01  1.696570384383008e-17
-1.429999999999999e+00  8.256108849411650e-01  1.696570384383008e-17
-1.429999999999999e+00  8.256108849411650e-01  1.696570384383008e-17
-1.429999999999999e+00  8.256108849411650e-01  1.696570384383008e-17
-1.429999999999999e+00  8.256108849411650e-01  1.696570384383008e-17
-1.429999999999999e+00  8.256108849411650e-01  1.696570384383008e-17
-1.429999999999999e+00  8.256108849411650e-01  1.696570384383008e-17
-1.429999999999999e+00  8.256108849411650e-01  1.696570384383008e-17
-1.429999999999999e+00  8.256108849411650e-01  1.696570384383008e-17
-1.429999999999999e+00  8.256108849411650e-01  1.696570384383008e-17
-1.429999999999999e+00  8.256108849411650e-01  1.696570384383008e-17
-1.429999999999999e+00  8.256108849411650e-01  1.696570384383008e-17
-1.429999999999999e+00  8.256108849411650e-01  1.696570384383008e-17
-1.429999999999999e+00  8.256108849411650e-01  1.696570384383008e-17
-1.429999999999999e+00  8.256108849411650e-01  1.696570384383008e-17
-1.429999999999999e+00  8.256108849411650e-01  1.696570384383008e-17
-1.429999999999999e+00  8.256108849411650e-01  1.696570384383008e-17
-1.429999999999999e+00  8.256108849411650e-01  1.696570384383008e-17
-1.429999999999999e+00  8.256108849411650e-01  1.696570384383008e-17
-1.429999999999999e+00  8.256108849411650e-01  1.696570384383008e-17
-1.429999999999999e+00  8.256108849411650e-01  1.696570384383008e-17
-1.429999999999999e+00  8.256108849411650e-01  1.696570384383008e-17
-1.429999999999999e+00  8.256108849411650e-01  1.696570384383008e-17
-1.429999999999999e+00  8.256108849411650e-01  1.696570384383008e-17
-1.429999999999999e+00  8.256108849411650e-01  1.696570384383008e-17
-1.429999999999999e+00  8.256108849411650e-01  1.696570384383008e-17
-1.429999999999999e+00  8.256108849411650e-01  1.696570384383008e-17
-1.429999999999999e+00  8.256108849411650e-01  1.696570384383008e-17
-1.429999999999999e+00  8.256108849411650e-01  1.696570384383008e-17
-1.429999999999999e+00  8.256108849411650e-01  1.696570384383008e-17
-1.429999999999999e+00  8.256108849411650e-01  1.696570384383008e-17
-1.429999999999999e+00  8.256108849411650e-01  1.696570384383008e-17
-1.429999999999999e+00  8.256108849411650e-01  1.696570384383008e-17
-1.429999999999999e+00  8.256108849411650e-01  1.696570384383008e-17
-1.429999999999999e+00  8.256108849411650e-01  1.696570384383008e-17
-1.429999999999999e+00  8.256108849411650e-01  1.696570384383008e-17
-1.429999999999999e+00  8.256108849411650e-01  1.696570384383008e-17
-1.429999999999999e+00  8.256108849411650e-01  1.696570384383008e-17
-1.429999999999999e+00  8.256108849411650e-01  1.696570384383008e-17
-1.429999999999999e+00  8.256108849411650e-01  1.696570384383008e-17
-1.429999999999999e+00  8.256108849411650e-01  1.696570384383008e-17
-1.429999999999999e+00  8.256108849411650e-01  1.696570384383008e-17
-1.429999999999999e+00  8.256108849411650e-01  1.696570384383008e-17
-1.429999999999999e+00  8.256108849411650e-01  1.696570384383008e-17
-1.429999999999999e+00  8.256108849411650e-01  1.696570384383008e-17
-1.429999999999999e+00  8.256108849411650e-01  1.696570384383008e-17
-1.429999999999999e+00  8.256108849411650e-01  1.696570384383008e-17
-1.429999999999999e+00  8.256108849411650e-01  1.696570384383008e-17
-1.429999999999999e+00  8.256108849411650e-01  1.696570384383008e-17
-1.429999999999999e+00  8.256108849411650e-01  1.696570384383008e-17
-1.429999999999999e+00  8.256108849411650e-01  1.696570384383008e-17
-1.429999999999999e+00  8.256108849411650e-01  1.696570384383008e-17
-1.429999999999999e+00  8.256108849411650e-01  1.696570384383008e-17
-1.429999999999999e+00  8.256108849411650e-01  1.696570384383008e-17
-1.429999999999999e+00  8.256108849411650e-01  1.696570384383008e-17
-1.429999999999999e+00  8.256108849411650e-01  1.696570384383008e-17
-1.429999999999999e+00  8.256108849411650e-01  1.696570384383008e-17
-1.429999999999999e+00  8.256108849411650e-01  1.696570384383008e-17
-1.429999999999999e+00  8.256108849411650e-01  1.696570384383008e-17
-1.429999999999999e+00  8.256108849411650e-01  1.696570384383008e-17
-1.429999999999999e+00  8.256108849411650e-01  1.696570384383008e-17
-1.429999999999999e+00  8.256108849411650e-01  1.696570384383008e-17
-1.429999999999999e+00  8.256108849411650e-01  1.696570384383008e-17
-1.429999999999999e+00  8.256108849411650e-01  1.696570384383008e-17
-1.429999999999999e+00  8.256108849411650e-01  1.696570384383008e-17
-1.429999999999999e+00  8.256108849411650e-01  1.696570384383008e-17
-1.429999999999999e+00  8.256108849411650e-01  1.696570384383008e-17
-1.429999999999999e+00  8.256108849411650e-01  1.696570384383008e-17
-1.429999999999999e+00  8.256108849411650e-01  1.696570384383008e-17
-1.429999999999999e+00  8.256108849411650e-01  1.696570384383008e-17
-1.429999999999999e+00  8.256108849411650e-01  1.696570384383008e-17
-1.429999999999999e+00  8.256108849411650e-01  1.696570384383008e-17
-1.429999999999999e+00  8.256108849411650e-01  1.696570384383008e-17
-1.429999999999999e+00  8.256108849411650e-01  1.696570384383008e-17
-1.429999999999999e+00  8.256108849411650e-01  1.696570384383008e-17
-1.429999999999999e+00  8.256108849411650e-01  1.696570384383008e-17
-1.429999999999999e+00  8.256108849411650e-01  1.696570384383008e-17
-1.429999999999999e+00  8.256108849411650e-01  1.696570384383008e-17
-1.429999999999999e+00  8.256108849411650e-01  1.696570384383008e-17
-1.429999999999999e+00  8.256108849411650e-01  1.696570384383008e-17
-1.429999999999999e+00  8.256108849411650e-01  1.696570384383008e-17
-1.429999999999999e+00  8.256108849411650e-01  1.696570384383008e-17
-1.429999999999999e+00  8.256108849411650e-01  1.696570384383008e-17
-1.429999999999999e+00  8.256108849411650e-01  1.696570384383008e-17
-1.429999999999999e+00  8.256108849411650e-01  1.696570384383008e-17
-1.429999999999999e+00  8.256108849411650e-01  1.696570384383008e-17
-1.429999999999999e+00  8.256108849411650e-01  1.696570384383008e-17
-1.429999999999999e+00  8.256108849411650e-01  1.696570384383008e-17
-1.429999999999999e+00  8.256108849411650e-01  1.696570384383008e-17
-1.429999999999999e+00  8.256108849411650e-01  1.696570384383008e-17
-1.429999999999999e+00  8.256108849411650e-01  1.696570384383008e-17
-1.429999999999999e+00  8.256108849411650e-01  1.696570384383008e-17
-1.429999999999999e+00  8.256108849411650e-01  1.696570384383008e-17
 1.429999999999999e+00 -8.256108849411650e-01 -1.696570384383008e-17
-1.429999999999999e+00  8.256108849411650e-01  1.696570384383008e-17
-1.429999999999999e+00  8.256108849411650e-01  1.696570384383008e-17
-1.429999999999999e+00  8.256108849411650e-01  1.696570384383008e-17
-1.429999999999999e+00  8.256108849411650e-01  1.696570384383008e-17
-1.429999999999999e+00  8.256108849411650e-01  1.696570384383008e-17
-1.429999999999999e+00  8.256108849411650e-01  1.696570384383008e-17
-1.429999999999999e+00  8.256108849411650e-01  1.696570384383008e-17
-1.429999999999999e+00  8.256108849411650e-01  1.696570384383008e-17
-1.429999999999999e+00  8.256108849411650e-01  1.696570384383008e-17
-1.429999999999999e+00  8.256108849411650e-01  1.696570384383008e-17
-1.429999999999999e+00  8.256108849411650e-01  1.696570384383008e-17
-1.429999999999999e+00  8.256108849411650e-01  1.696570384383008e-17
-1.429999999999999e+00  8.256108849411650e-01  1.696570384383008e-17
-1.429999999999999e+00  8.256108849411650e-01  1.696570384383008e-17
-1.429999999999999e+00  8.256108849411650e-01  1.696570384383008e-17
-1.429999999999999e+00  8.256108849411650e-01  1.696570384383008e-17
-1.429999999999999e+00  8.256108849411650e-01  1.696570384383008e-17
-1.429999999999999e+00  8.256108849411650e-01  1.696570384383008e-17
-1.429999999999999e+00  8.256108849411650e-01  1.696570384383008e-17
-1.429999999999999e+00  8.256108849411650e-01  1.696570384383008e-17
-1.429999999999999e+00  8.256108849411650e-01  1.696570384383008e-17
-1.429999999999999e+00  8.256108849411650e-01  1.696570384383008e-17
-1.429999999999999e+00  8.256108849411650e-01  1.696570384383008e-17
-1.429999999999999e+00  8.256108849411650e-01  1.696570384383008e-17
-1.429999999999999e+00  8.256108849411650e-01  1.696570384383008e-17
-1.429999999999999e+00  8.256108849411650e-01  1.696570384383008e-17
-1.429999999999999e+00  8.256108849411650e-01  1.696570384383008e-17
-1.429999999999999e+00  8.256108849411650e-01  1.696570384383008e-17
-1.429999999999999e+00  8.256108849411650e-01  1.696570384383008e-17
-1.429999999999999e+00  8.256108849411650e-01  1.696570384383008e-17
-1.429999999999999e+00  8.256108849411650e-01  1.696570384383008e-17
-1.429999999999999e+00  8.256108849411650e-01  1.696570384383008e-17
-1.429999999999999e+00  8.256108849411650e-01  1.696570384383008e-17
-1.429999999999999e+00  8.256108849411650e-01  1.696570384383008e-17
-1.429999999999999e+00  8.256108849411650e-01  1.696570384383008e-17
-1.429999999999999e+00  8.256108849411650e-01  1.696570384383008e-17
-1.429999999999999e+00  8.256108849411650e-01  1.696570384383008e-17
-1.429999999999999e+00  8.256108849411650e-01  1.696570384383008e-17
-1.429999999999999e+00  8.256108849411650e-01  1.696570384383008e-17
-1.429999999999999e+00  8.256108849411650e-01  1.696570384383008e-17
-1.429999999999999e+00  8.256108849411650e-01  1.696570384383008e-17
-1.429999999999999e+00  8.256108849411650e-01  1.696570384383008e-17
-1.429999999999999e+00  8.256108849411650e-01  1.696570384383008e-17
-1.429999999999999e+00  8.256108849411650e-01  1.696570384383008e-17
-1.429999999999999e+00  8.256108849411650e-01  1.696570384383008e-17
-1.429999999999999e+00  8.256108849411650e-01  1.696570384383008e-17
-1.429999999999999e+00  8.256108849411650e-01  1.696570384383008e-17
-1.429999999999999e+00  8.256108849411650e-01  1.696570384383008e-17
-1.429999999999999e+00  8.256108849411650e-01  1.696570384383008e-17
-1.429999999999999e+00  8.256108849411650e-01  1.696570384383008e-17
-1.429999999999999e+00  8.256108849411650e-01  1.696570384383008e-17
-1.429999999999999e+00  8.256108849411650e-01  1.696570384383008e-17
-1.429999999999999e+00  8.256108849411650e-01  1.696570384383008e-17
-1.429999999999999e+00  8.256108849411650e-01  1.696570384383008e-17
-1.429999999999999e+00  8.256108849411650e-01  1.696570384383008e-17
-1.429999999999999e+00  8.256108849411650e-01  1.696570384383008e-17
-1.429999999999999e+00  8.256108849411650e-01  1.696570384383008e-17
-1.429999999999999e+00  8.256108849411650e-01  1.696570384383008e-17
-1.429999999999999e+00  8.256108849411650e-01  1.696570384383008e-17
-1.429999999999999e+00  8.256108849411650e-01  1.696570384383008e-17
-1.429999999999999e+00  8.256108849411650e-01  1.696570384383008e-17
-1.429999999999999e+00  8.256108849411650e-01  1.696570384383008e-17
-1.429999999999999e+00  8.256108849411650e-01  1.696570384383008e-17
-1.429999999999999e+00  8.256108849411650e-01  1.696570384383008e-17
-1.429999999999999e+00  8.256108849411650e-01  1.696570384383008e-17
-1.429999999999999e+00  8.256108849411650e-01  1.696570384383008e-17
-1.429999999999999e+00  8.256108849411650e-01  1.696570384383008e-17
-1.429999999999999e+00  8.256108849411650e-01  1.696570384383008e-17
-1.429999999999999e+00  8.256108849411650e-01  1.696570384383008e-17
-1.429999999999999e+00  8.256108849411650e-01  1.696570384383008e-17
-1.429999999999999e+00  8.256108849411650e-01  1.696570384383008e-17
-1.429999999999999e+00  8.256108849411650e-01  1.696570384383008e-17
-1.429999999999999e+00  8.256108849411650e-01  1.696570384383008e-17
-1.429999999999999e+00  8.256108849411650e-01  1.696570384383008e-17
-1.429999999999999e+00  8.256108849411650e-01  1.696570384383008e-17
-1.429999999999999e+00  8.256108849411650e-01  1.696570384383008e-17
-1.429999999999999e+00  8.256108849411650e-01  1.696570384383008e-17
-1.429999999999999e+00  8.256108849411650e-01  1.696570384383008e-17
-1.429999999999999e+00  8.256108849411650e-01  1.696570384383008e-17
-1.429999999999999e+00  8.256108849411650e-01  1.696570384383008e-17
-1.429999999999999e+00  8.256108849411650e-01  1.696570384383008e-17
-1.429999999999999e+00  8.256108849411650e-01  1.696570384383008e-17
-1.429999999999999e+00  8.256108849411650e-01  1.696570384383008e-17
-1.429999999999999e+00  8.256108849411650e-01  1.696570384383008e-17
-1.429999999999999e+00  8.256108849411650e-01  1.696570384383008e-17
-1.429999999999999e+00  8.256108849411650e-01  1.696570384383008e-17
-1.429999999999999e+00  8.256108849411650e-01  1.696570384383008e-17
-1.429999999999999e+00  8.256108849411650e-01  1.696570384383008e-17
-1.429999999999999e+00  8.256108849411650e-01  1.696570384383008e-17
-1.429999999999999e+00  8.256108849411650e-01  1.696570384383008e-17
-1.429999999999999e+00  8.256108849411650e-01  1.696570384383008e-17
-1.429999999999999e+00  8.256108849411650e-01  1.696570384383008e-17
-1.429999999999999e+00  8.256108849411650e-01  1.696570384383008e-17
-1.429999999999999e+00  8.256108849411650e-01  1.696570384383008e-17
-1.429999999999999e+00  8.256108849411650e-01  1.696570384383008e-17
-1.429999999999999e+00  8.256108849411650e-01  1.696570384383008e-17
-1.429999999999999e+00  8.256108849411650e-01  1.696570384383008e-17
-1.429999999999999e+00  8.256108849411650e-01  1.696570384383008e-17
-1.429999999999999e+00  8.256108849411650e-01  1.696570384383008e-17
-1.429999999999999e+00  8.256108849411650e-01  1.696570384383008e-17
-1.429999999999999e+00  8.256108849411650e-01  1.696570384383008e-17
-1.429999999999999e+00  8.256108849411650e-01  1.696570384383008e-17
-1.429999999999999e+00  8.256108849411650e-01  1.696570384383008e-17
-1.429999999999999e+00  8.256108849411650e-01  1.696570384383008e-17
-1.429999999999999e+00  8.256108849411650e-01  1.696570384383008e-17
-1.429999999999999e+00  8.256108849411650e-01  1.696570384383008e-17
-1.429999999999999e+00  8.256108849411650e-01  1.696570384383008e-17
-1.429999999999999e+00  8.256108849411650e-01  1.696570384383008e-17
-1.429999999999999e+00  8.256108849411650e-01  1.696570384383008e-17
-1.429999999999999e+00  8.256108849411650e-01  1.696570384383008e-17
-1.429999999999999e+00  8.256108849411650e-01  1.696570384383008e-17
-1.429999999999999e+00  8.256108849411650e-01  1.696570384383008e-17
-1.429999999999999e+00  8.256108849411650e-01  1.696570384383008e-17
-1.429999999999999e+00  8.256108849411650e-01  1.696570384383008e-17
-1.429999999999999e+00  8.256108849411650e-01  1.696570384383008e-17
-1.429999999999999e+00  8.256108849411650e-01  1.696570384383008e-17
-1.429999999999999e+00  8.256108849411650e-01  1.696570384383008e-17
-1.429999999999999e+00  8.256108849411650e-01  1.696570384383008e-17
-1.429999999999999e+00  8.256108849411650e-01  1.696570384383008e-17
-1.429999999999999e+00  8.256108849411650e-01  1.696570384383008e-17
-1.429999999999999e+00  8.256108849411650e-01  1.696570384383008e-17
-1.429999999999999e+00  8.256108849411650e-01  1.696570384383008e-17
-1.429999999999999e+00  8.256108849411650e-01  1.696570384383008e-17
-1.429999999999999e+00  8.256108849411650e-01  1.696570384383008e-17
-1.429999999999999e+00  8.256108849411650e-01  1.696570384383008e-17
-1.429999999999999e+00  8.256108849411650e-01  1.696570384383008e-17
-1.429999999999999e+00  8.256108849411650e-01  1.696570384383008e-17
-1.429999999999999e+00  8.256108849411650e-01  1.696570384383008e-17
-1.429999999999999e+00  8.256108849411650e-01  1.696570384383008e-17
-1.429999999999999e+00  8.256108849411650e-01  1.696570384383008e-17
-1.429999999999999e+00  8.256108849411650e-01  1.696570384383008e-17
-1.429999999999999e+00  8.256108849411650e-01  1.696570384383008e-17
-1.429999999999999e+00  8.256108849411650e-01  1.696570384383008e-17
-1.429999999999999e+00  8.256108849411650e-01  1.696570384383008e-17
-1.429999999999999e+00  8.256108849411650e-01  1.696570384383008e-17
-1.429999999999999e+00  8.256108849411650e-01  1.696570384383008e-17
-1.429999999999999e+00  8.256108849411650e-01  1.696570384383008e-17
-1.429999999999999e+00  8.256108849411650e-01  1.696570384383008e-17
-1.429999999999999e+00  8.256108849411650e-01  1.696570384383008e-17
-1.429999999999999e+00  8.256108849411650e-01  1.696570384383008e-17
-1.429999999999999e+00  8.256108849411650e-01  1.696570384383008e-17
-1.429999999999999e+00  8.256108849411650e-01  1.696570384383008e-17
-1.429999999999999e+00  8.256108849411650e-01  1.696570384383008e-17
-1.429999999999999e+00  8.256108849411650e-01  1.696570384383008e-17
-1.429999999999999e+00  8.256108849411650e-01  1.696570384383008e-17
-1.429999999999999e+00  8.256108849411650e-01  1.696570384383008e-17
-1.429999999999999e+00  8.256108849411650e-01  1.696570384383008e-17
-1.429999999999999e+00  8.256108849411650e-01  1.696570384383008e-17
-1.429999999999999e+00  8.256108849411650e-01  1.696570384383008e-17
-1.429999999999999e+00  8.256108849411650e-01  1.696570384383008e-17
-1.429999999999999e+00  8.256108849411650e-01  1.696570384383008e-17
-1.429999999999999e+00  8.256108849411650e-01  1.696570384383008e-17
-1.429999999999999e+00  8.256108849411650e-01  1.696570384383008e-17
-1.429999999999999e+00  8.256108849411650e-01  1.696570384383008e-17
-1.429999999999999e+00  8.256108849411650e-01  1.696570384383008e-17
-1.429999999999999e+00  8.256108849411650e-01  1.696570384383008e-17
-1.429999999999999e+00  8.256108849411650e-01  1.696570384383008e-17
-1.429999999999999e+00  8.256108849411650e-01  1.696570384383008e-17
-1.429999999999999e+00  8.256108849411650e-01  1.696570384383008e-17
-1.429999999999999e+00  8.256108849411650e-01  1.696570384383008e-17
-1.429999999999999e+00  8.256108849411650e-01  1.696570384383008e-17
-1.429999999999999e+00  8.256108849411650e-01  1.696570384383008e-17
-1.429999999999999e+00  8.256108849411650e-01  1.696570384383008e-17
-1.429999999999999e+00  8.256108849411650e-01  1.696570384383008e-17
-1.429999999999999e+00  8.256108849411650e-01  1.696570384383008e-17
-1.429999999999999e+00  8.256108849411650e-01  1.696570384383008e-17
-1.429999999999999e+00  8.256108849411650e-01  1.696570384383008e-17
-1.429999999999999e+00  8.256108849411650e-01  1.696570384383008e-17
-1.429999999999999e+00  8.256108849411650e-01  1.696570384383008e-17
-1.429999999999999e+00  8.256108849411650e-01  1.696570384383008e-17
-1.429999999999999e+00  8.256108849411650e-01  1.696570384383008e-17
-1.429999999999999e+00  8.256108849411650e-01  1.696570384383008e-17
-1.429999999999999e+00  8.256108849411650e-01  1.696570384383008e-17
-1.429999999999999e+00  8.256108849411650e-01  1.696570384383008e-17
-1.429999999999999e+00  8.256108849411650e-01  1.696570384383008e-17
-1.429999999999999e+00  8.256108849411650e-01  1.696570384383008e-17
-1.429999999999999e+00  8.256108849411650e-01  1.696570384383008e-17
-1.429999999999999e+00  8.256108849411650e-01  1.696570384383008e-17
-1.429999999999999e+00  8.256108849411650e-01  1.696570384383008e-17
-1.429999999999999e+00  8.256108849411650e-01  1.696570384383008e-17
 1.429999999999999e+00 -8.256108849411650e-01 -1.696570384383008e-17
-1.429999999999999e+00  8.256108849411650e-01  1.696570384383008e-17
 1.429999999999999e+00 -8.256108849411650e-01 -1.696570384383008e-17
 1.429999999999999e+00 -8.256108849411650e-01 -1.696570384383008e-17
 1.429999999999999e+00 -8.256108849411650e-01 -1.696570384383008e-17
 1.429999999999999e+00 -8.256108849411650e-01 -1.696570384383008e-17
 1.429999999999999e+00 -8.256108849411650e-01 -1.696570384383008e-17
 1.429999999999999e+00 -8.256108849411650e-01 -1.696570384383008e-17
 1.429999999999999e+00 -8.256108849411650e-01 -1.696570384383008e-17
 1.429999999999999e+00 -8.256108849411650e-01 -1.696570384383008e-17
 1.429999999999999e+00 -8.256108849411650e-01 -1.696570384383008e-17
 1.429999999999999e+00 -8.256108849411650e-01 -1.696570384383008e-17
 1.429999999999999e+00 -8.256108849411650e-01 -1.696570384383008e-17
 1.429999999999999e+00 -8.256108849411650e-01 -1.696570384383008e-17
 1.429999999999999e+00 -8.256108849411650e-01 -1.696570384383008e-17
 1.429999999999999e+00 -8.256108849411650e-01 -1.696570384383008e-17
 1.429999999999999e+00 -8.256108849411650e-01 -1.696570384383008e-17
 1.429999999999999e+00 -8.256108849411650e-01 -1.696570384383008e-17
 1.429999999999999e+00 -8.256108849411650e-01 -1.696570384383008e-17
 1.429999999999999e+00 -8.256108849411650e-01 -1.696570384383008e-17
 1.429999999999999e+00 -8.256108849411650e-01 -1.696570384383008e-17
 1.429999999999999e+00 -8.256108849411650e-01 -1.696570384383008e-17
 1.429999999999999e+00 -8.256108849411650e-01 -1.696570384383008e-17
 1.429999999999999e+00 -8.256108849411650e-01 -1.696570384383008e-17
 1.429999999999999e+00 -8.256108849411650e-01 -1.696570384383008e-17
 1.429999999999999e+00 -8.256108849411650e-01 -1.696570384383008e-17
 1.429999999999999e+00 -8.256108849411650e-01 -1.696570384383008e-17
 1.429999999999999e+00 -8.256108849411650e-01 -1.696570384383008e-17
 1.429999999999999e+00 -8.256108849411650e-01 -1.696570384383008e-17
 1.429999999999999e+00 -8.256108849411650e-01 -1.696570384383008e-17
 1.429999999999999e+00 -8.256108849411650e-01 -1.696570384383008e-17
 1.429999999999999e+00 -8.256108849411650e-01 -1.696570384383008e-17
 1.429999999999999e+00 -8.256108849411650e-01 -1.696570384383008e-17
 1.429999999999999e+00 -8.256108849411650e-01 -1.696570384383008e-17
 1.429999999999999e+00 -8.256108849411650e-01 -1.696570384383008e-17
 1.429999999999999e+00 -8.256108849411650e-01 -1.696570384383008e-17
 1.429999999999999e+00 -8.256108849411650e-01 -1.696570384383008e-17
 1.429999999999999e+00 -8.256108849411650e-01 -1.696570384383008e-17
 1.429999999999999e+00 -8.256108849411650e-01 -1.696570384383008e-17
 1.429999999999999e+00 -8.256108849411650e-01 -1.696570384383008e-17
 1.429999999999999e+00 -8.256108849411650e-01 -1.696570384383008e-17
 1.429999999999999e+00 -8.256108849411650e-01 -1.696570384383008e-17
 1.429999999999999e+00 -8.256108849411650e-01 -1.696570384383008e-17
 1.429999999999999e+00 -8.256108849411650e-01 -1.696570384383008e-17
 1.429999999999999e+00 -8.256108849411650e-01 -1.696570384383008e-17
 1.429999999999999e+00 -8.256108849411650e-01 -1.696570384383008e-17
 1.429999999999999e+00 -8.256108849411650e-01 -1.696570384383008e-17
 1.429999999999999e+00 -8.256108849411650e-01 -1.696570384383008e-17
 1.429999999999999e+00 -8.256108849411650e-01 -1.696570384383008e-17
 1.429999999999999e+00 -8.256108849411650e-01 -1.696570384383008e-17
 1.429999999999999e+00 -8.256108849411650e-01 -1.696570384383008e-17
 1.429999999999999e+00 -8.256108849411650e-01 -1.696570384383008e-17
 1.429999999999999e+00 -8.256108849411650e-01 -1.696570384383008e-17
 1.429999999999999e+00 -8.256108849411650e-01 -1.696570384383008e-17
 1.429999999999999e+00 -8.256108849411650e-01 -1.696570384383008e-17
 1.429999999999999e+00 -8.256108849411650e-01 -1.696570384383008e-17
 1.429999999999999e+00 -8.256108849411650e-01 -1.696570384383008e-17
 1.429999999999999e+00 -8.256108849411650e-01 -1.696570384383008e-17
 1.429999999999999e+00 -8.256108849411650e-01 -1.696570384383008e-17
 1.429999999999999e+00 -8.256108849411650e-01 -1.696570384383008e-17
 1.429999999999999e+00 -8.256108849411650e-01 -1.696570384383008e-17
 1.429999999999999e+00 -8.256108849411650e-01 -1.696570384383008e-17
 1.429999999999999e+00 -8.256108849411650e-01 -1.696570384383008e-17
 1.429999999999999e+00 -8.256108849411650e-01 -1.696570384383008e-17
 1.429999999999999e+00 -8.256108849411650e-01 -1.696570384383008e-17
 1.429999999999999e+00 -8.256108849411650e-01 -1.696570384383008e-17
 1.429999999999999e+00 -8.256108849411650e-01 -1.696570384383008e-17
 1.429999999999999e+00 -8.256108849411650e-01 -1.696570384383008e-17
 1.429999999999999e+00 -8.256108849411650e-01 -1.696570384383008e-17
 1.429999999999999e+00 -8.256108849411650e-01 -1.696570384383008e-17
 1.429999999999999e+00 -8.256108849411650e-01 -1.696570384383008e-17
 1.429999999999999e+00 -8.256108849411650e-01 -1.696570384383008e-17
 1.429999999999999e+00 -8.256108849411650e-01 -1.696570384383008e-17
 1.429999999999999e+00 -8.256108849411650e-01 -1.696570384383008e-17
 1.429999999999999e+00 -8.256108849411650e-01 -1.696570384383008e-17
 1.429999999999999e+00 -8.256108849411650e-01 -1.696570384383008e-17
 1.429999999999999e+00 -8.256108849411650e-01 -1.696570384383008e-17
 1.429999999999999e+00 -8.256108849411650e-01 -1.696570384383008e-17
 1.429999999999999e+00 -8.256108849411650e-01 -1.696570384383008e-17
 1.429999999999999e+00 -8.256108849411650e-01 -1.696570384383008e-17
 1.429999999999999e+00 -8.256108849411650e-01 -1.696570384383008e-17
 1.429999999999999e+00 -8.256108849411650e-01 -1.696570384383008e-17
 1.429999999999999e+00 -8.256108849411650e-01 -1.696570384383008e-17
 1.429999999999999e+00 -8.256108849411650e-01 -1.696570384383008e-17
 1.429999999999999e+00 -8.256108849411650e-01 -1.696570384383008e-17
 1.429999999999999e+00 -8.256108849411650e-01 -1.696570384383008e-17
 1.429999999999999e+00 -8.256108849411650e-01 -1.696570384383008e-17
 1.429999999999999e+00 -8.256108849411650e-01 -1.696570384383008e-17
 1.429999999999999e+00 -8.256108849411650e-01 -1.696570384383008e-17
 1.429999999999999e+00 -8.256108849411650e-01 -1.696570384383008e-17
 1.429999999999999e+00 -8.256108849411650e-01 -1.696570384383008e-17
 1.429999999999999e+00 -8.256108849411650e-01 -1.696570384383008e-17
 1.429999999999999e+00 -8.256108849411650e-01 -1.696570384383008e-17
 1.429999999999999e+00 -8.256108849411650e-01 -1.696570384383008e-17
 1.429999999999999e+00 -8.256108849411650e-01 -1.696570384383008e-17
 1.429999999999999e+00 -8.256108849411650e-01 -1.696570384383008e-17
 1.429999999999999e+00 -8.256108849411650e-01 -1.696570384383008e-17
 1.429999999999999e+00 -8.256108849411650e-01 -1.696570384383008e-17
 1.429999999999999e+00 -8.256108849411650e-01 -1.696570384383008e-17
 1.429999999999999e+00 -8.256108849411650e-01 -1.696570384383008e-17
 1.429999999999999e+00 -8.256108849411650e-01 -1.696570384383008e-17
 1.429999999999999e+00 -8.256108849411650e-01 -1.696570384383008e-17
 1.429999999999999e+00 -8.256108849411650e-01 -1.696570384383008e-17
 1.429999999999999e+00 -8.256108849411650e-01 -1.696570384383008e-17
 1.429999999999999e+00 -8.256108849411650e-01 -1.696570384383008e-17
 1.429999999999999e+00 -8.256108849411650e-01 -1.696570384383008e-17
 1.429999999999999e+00 -8.256108849411650e-01 -1.696570384383008e-17
 1.429999999999999e+00 -8.256108849411650e-01 -1.696570384383008e-17
 1.429999999999999e+00 -8.256108849411650e-01 -1.696570384383008e-17
 1.429999999999999e+00 -8.256108849411650e-01 -1.696570384383008e-17
 1.429999999999999e+00 -8.256108849411650e-01 -1.696570384383008e-17
 1.429999999999999e+00 -8.256108849411650e-01 -1.696570384383008e-17
 1.429999999999999e+00 -8.256108849411650e-01 -1.696570384383008e-17
 1.429999999999999e+00 -8.256108849411650e-01 -1.696570384383008e-17
 1.429999999999999e+00 -8.256108849411650e-01 -1.696570384383008e-17
 1.429999999999999e+00 -8.256108849411650e-01 -1.696570384383008e-17
 1.429999999999999e+00 -8.256108849411650e-01 -1.696570384383008e-17
 1.429999999999999e+00 -8.256108849411650e-01 -1.696570384383008e-17
 1.429999999999999e+00 -8.256108849411650e-01 -1.696570384383008e-17
 1.429999999999999e+00 -8.256108849411650e-01 -1.696570384383008e-17
 1.429999999999999e+00 -8.256108849411650e-01 -1.696570384383008e-17
 1.429999999999999e+00 -8.256108849411650e-01 -1.696570384383008e-17
 1.429999999999999e+00 -8.256108849411650e-01 -1.696570384383008e-17
 1.429999999999999e+00 -8.256108849411650e-01 -1.696570384383008e-17
 1.429999999999999e+00 -8.256108849411650e-01 -1.696570384383008e-17
 1.429999999999999e+00 -8.256108849411650e-01 -1.696570384383008e-17
 1.429999999999999e+00 -8.256108849411650e-01 -1.696570384383008e-17
 1.429999999999999e+00 -8.256108849411650e-01 -1.696570384383008e-17
 1.429999999999999e+00 -8.256108849411650e-01 -1.696570384383008e-17
 1.429999999999999e+00 -8.256108849411650e-01 -1.696570384383008e-17
 1.429999999999999e+00 -8.256108849411650e-01 -1.696570384383008e-17
 1.429999999999999e+00 -8.256108849411650e-01 -1.696570384383008e-17
 1.429999999999999e+00 -8.256108849411650e-01 -1.696570384383008e-17
 1.429999999999999e+00 -8.256108849411650e-01 -1.696570384383008e-17
 1.429999999999999e+00 -8.256108849411650e-01 -1.696570384383008e-17
 1.429999999999999e+00 -8.256108849411650e-01 -1.696570384383008e-17
 1.429999999999999e+00 -8.256108849411650e-01 -1.696570384383008e-17
 1.429999999999999e+00 -8.256108849411650e-01 -1.696570384383008e-17
 1.429999999999999e+00 -8.256108849411650e-01 -1.696570384383008e-17
 1.429999999999999e+00 -8.256108849411650e-01 -1.696570384383008e-17
 1.429999999999999e+00 -8.256108849411650e-01 -1.696570384383008e-17
 1.429999999999999e+00 -8.256108849411650e-01 -1.696570384383008e-17
 1.429999999999999e+00 -8.256108849411650e-01 -1.696570384383008e-17
 1.429999999999999e+00 -8.256108849411650e-01 -1.696570384383008e-17
 1.429999999999999e+00 -8.256108849411650e-01 -1.696570384383008e-17
 1.429999999999999e+00 -8.256108849411650e-01 -1.696570384383008e-17
 1.429999999999999e+00 -8.256108849411650e-01 -1.696570384383008e-17
 1.429999999999999e+00 -8.256108849411650e-01 -1.696570384383008e-17
 1.429999999999999e+00 -8.256108849411650e-01 -1.696570384383008e-17
 1.429999999999999e+00 -8.256108849411650e-01 -1.696570384383008e-17
 1.429999999999999e+00 -8.256108849411650e-01 -1.696570384383008e-17
 1.429999999999999e+00 -8.256108849411650e-01 -1.696570384383008e-17
 1.429999999999999e+00 -8.256108849411650e-01 -1.696570384383008e-17
-1.429999999999999e+00  8.256108849411650e-01  1.696570384383008e-17
 1.429999999999999e+00 -8.256108849411650e-01 -1.696570384383008e-17
 1.429999999999999e+00 -8.256108849411650e-01 -1.696570384383008e-17
 1.429999999999999e+00 -8.256108849411650e-01 -1.696570384383008e-17
 1.429999999999999e+00 -8.256108849411650e-01 -1.696570384383008e-17
 1.429999999999999e+00 -8.256108849411650e-01 -1.696570384383008e-17
 1.429999999999999e+00 -8.256108849411650e-01 -1.696570384383008e-17
 1.429999999999999e+00 -8.256108849411650e-01 -1.696570384383008e-17
 1.429999999999999e+00 -8.256108849411650e-01 -1.696570384383008e-17
 1.429999999999999e+00 -8.256108849411650e-01 -1.696570384383008e-17
 1.429999999999999e+00 -8.256108849411650e-01 -1.696570384383008e-17
 1.429999999999999e+00 -8.256108849411650e-01 -1.696570384383008e-17
 1.429999999999999e+00 -8.256108849411650e-01 -1.696570384383008e-17
 1.429999999999999e+00 -8.256108849411650e-01 -1.696570384383008e-17
 1.429999999999999e+00 -8.256108849411650e-01 -1.696570384383008e-17
 1.429999999999999e+00 -8.256108849411650e-01 -1.696570384383008e-17
 1.429999999999999e+00 -8.256108849411650e-01 -1.696570384383008e-17
 1.429999999999999e+00 -8.256108849411650e-01 -1.696570384383008e-17
 1.429999999999999e+00 -8.256108849411650e-01 -1.696570384383008e-17
 1.429999999999999e+00 -8.256108849411650e-01 -1.696570384383008e-17
 1.429999999999999e+00 -8.256108849411650e-01 -1.696570384383008e-17
 1.429999999999999e+00 -8.256108849411650e-01 -1.696570384383008e-17
 1.429999999999999e+00 -8.256108849411650e-01 -1.696570384383008e-17
 1.429999999999999e+00 -8.256108849411650e-01 -1.696570384383008e-17
 1.429999999999999e+00 -8.256108849411650e-01 -1.696570384383008e-17
 1.429999999999999e+00 -8.256108849411650e-01 -1.696570384383008e-17
 1.429999999999999e+00 -8.256108849411650e-01 -1.696570384383008e-17
 1.429999999999999e+00 -8.256108849411650e-01 -1.696570384383008e-17
 1.429999999999999e+00 -8.256108849411650e-01 -1.696570384383008e-17
 1.429999999999999e+00 -8.256108849411650e-01 -1.696570384383008e-17
 1.429999999999999e+00 -8.256108849411650e-01 -1.696570384383008e-17
 1.429999999999999e+00 -8.256108849411650e-01 -1.696570384383008e-17
 1.429999999999999e+00 -8.256108849411650e-01 -1.696570384383008e-17
 1.429999999999999e+00 -8.256108849411650e-01 -1.696570384383008e-17
 1.429999999999999e+00 -8.256108849411650e-01 -1.696570384383008e-17
 1.429999999999999e+00 -8.256108849411650e-01 -1.696570384383008e-17
 1.429999999999999e+00 -8.256108849411650e-01 -1.696570384383008e-17
 1.429999999999999e+00 -8.256108849411650e-01 -1.696570384383008e-17
 1.429999999999999e+00 -8.256108849411650e-01 -1.696570384383008e-17
 1.429999999999999e+00 -8.256108849411650e-01 -1.696570384383008e-17
 1.429999999999999e+00 -8.256108849411650e-01 -1.696570384383008e-17
 1.429999999999999e+00 -8.256108849411650e-01 -1.696570384383008e-17
 1.429999999999999e+00 -8.256108849411650e-01 -1.696570384383008e-17
 1.429999999999999e+00 -8.256108849411650e-01 -1.696570384383008e-17
 1.429999999999999e+00 -8.256108849411650e-01 -1.696570384383008e-17
 1.429999999999999e+00 -8.256108849411650e-01 -1.696570384383008e-17
 1.429999999999999e+00 -8.256108849411650e-01 -1.696570384383008e-17
 1.429999999999999e+00 -8.256108849411650e-01 -1.696570384383008e-17
 1.429999999999999e+00 -8.256108849411650e-01 -1.696570384383008e-17
 1.429999999999999e+00 -8.256108849411650e-01 -1.696570384383008e-17
 1.429999999999999e+00 -8.256108849411650e-01 -1.696570384383008e-17
 1.429999999999999e+00 -8.256108849411650e-01 -1.696570384383008e-17
 1.429999999999999e+00 -8.256108849411650e-01 -1.696570384383008e-17
 1.429999999999999e+00 -8.256108849411650e-01 -1.696570384383008e-17
 1.429999999999999e+00 -8.256108849411650e-01 -1.696570384383008e-17
 1.429999999999999e+00 -8.256108849411650e-01 -1.696570384383008e-17
 1.429999999999999e+00 -8.256108849411650e-01 -1.696570384383008e-17
 1.429999999999999e+00 -8.256108849411650e-01 -1.696570384383008e-17
 1.429999999999999e+00 -8.256108849411650e-01 -1.696570384383008e-17
 1.429999999999999e+00 -8.256108849411650e-01 -1.696570384383008e-17
 1.429999999999999e+00 -8.256108849411650e-01 -1.696570384383008e-17
 1.429999999999999e+00 -8.256108849411650e-01 -1.696570384383008e-17
 1.429999999999999e+00 -8.256108849411650e-01 -1.696570384383008e-17
 1.429999999999999e+00 -8.256108849411650e-01 -1.696570384383008e-17
 1.429999999999999e+00 -8.256108849411650e-01 -1.696570384383008e-17
 1.429999999999999e+00 -8.256108849411650e-01 -1.696570384383008e-17
 1.429999999999999e+00 -8.256108849411650e-01 -1.696570384383008e-17
 1.429999999999999e+00 -8.256108849411650e-01 -1.696570384383008e-17
 1.429999999999999e+00 -8.256108849411650e-01 -1.696570384383008e-17
 1.429999999999999e+00 -8.256108849411650e-01 -1.696570384383008e-17
 1.429999999999999e+00 -8.256108849411650e-01 -1.696570384383008e-17
 1.429999999999999e+00 -8.256108849411650e-01 -1.696570384383008e-17
 1.429999999999999e+00 -8.256108849411650e-01 -1.696570384383008e-17
 1.429999999999999e+00 -8.256108849411650e-01 -1.696570384383008e-17
 1.429999999999999e+00 -8.256108849411650e-01 -1.696570384383008e-17
 1.429999999999999e+00 -8.256108849411650e-01 -1.696570384383008e-17
 1.429999999999999e+00 -8.256108849411650e-01 -1.696570384383008e-17
 1.429999999999999e+00 -8.256108849411650e-01 -1.696570384383008e-17
 1.429999999999999e+00 -8.256108849411650e-01 -1.696570384383008e-17
 1.429999999999999e+00 -8.256108849411650e-01 -1.696570384383008e-17
 1.429999999999999e+00 -8.256108849411650e-01 -1.696570384383008e-17
 1.429999999999999e+00 -8.256108849411650e-01 -1.696570384383008e-17
 1.429999999999999e+00 -8.256108849411650e-01 -1.696570384383008e-17
 1.429999999999999e+00 -8.256108849411650e-01 -1.696570384383008e-17
 1.429999999999999e+00 -8.256108849411650e-01 -1.696570384383008e-17
 1.429999999999999e+00 -8.256108849411650e-01 -1.696570384383008e-17
 1.429999999999999e+00 -8.256108849411650e-01 -1.696570384383008e-17
 1.429999999999999e+00 -8.256108849411650e-01 -1.696570384383008e-17
 1.429999999999999e+00 -8.256108849411650e-01 -1.696570384383008e-17
 1.429999999999999e+00 -8.256108849411650e-01 -1.696570384383008e-17
 1.429999999999999e+00 -8.256108849411650e-01 -1.696570384383008e-17
 1.429999999999999e+00 -8.256108849411650e-01 -1.696570384383008e-17
 1.429999999999999e+00 -8.256108849411650e-01 -1.696570384383008e-17
 1.429999999999999e+00 -8.256108849411650e-01 -1.696570384383008e-17
 1.429999999999999e+00 -8.256108849411650e-01 -1.696570384383008e-17
 1.429999999999999e+00 -8.256108849411650e-01 -1.696570384383008e-17
 1.429999999999999e+00 -8.256108849411650e-01 -1.696570384383008e-17
 1.429999999999999e+00 -8.256108849411650e-01 -1.696570384383008e-17
 1.429999999999999e+00 -8.256108849411650e-01 -1.696570384383008e-17
 1.429999999999999e+00 -8.256108849411650e-01 -1.696570384383008e-17
 1.429999999999999e+00 -8.256108849411650e-01 -1.696570384383008e-17
 1.429999999999999e+00 -8.256108849411650e-01 -1.696570384383008e-17
 1.429999999999999e+00 -8.256108849411650e-01 -1.696570384383008e-17
 1.429999999999999e+00 -8.256108849411650e-01 -1.696570384383008e-17
 1.429999999999999e+00 -8.256108849411650e-01 -1.696570384383008e-17
 1.429999999999999e+00 -8.256108849411650e-01 -1.696570384383008e-17
 1.429999999999999e+00 -8.256108849411650e-01 -1.696570384383008e-17
 1.429999999999999e+00 -8.256108849411650e-01 -1.696570384383008e-17
 1.429999999999999e+00 -8.256108849411650e-01 -1.696570384383008e-17
 1.429999999999999e+00 -8.256108849411650e-01 -1.696570384383008e-17
 1.429999999999999e+00 -8.256108849411650e-01 -1.696570384383008e-17
 1.429999999999999e+00 -8.256108849411650e-01 -1.696570384383008e-17
 1.429999999999999e+00 -8.256108849411650e-01 -1.696570384383008e-17
 1.429999999999999e+00 -8.256108849411650e-01 -1.696570384383008e-17
 1.429999999999999e+00 -8.256108849411650e-01 -1.696570384383008e-17
 1.429999999999999e+00 -8.256108849411650e-01 -1.696570384383008e-17
 1.429999999999999e+00 -8.256108849411650e-01 -1.696570384383008e-17
 1.429999999999999e+00 -8.256108849411650e-01 -1.696570384383008e-17
 1.429999999999999e+00 -8.256108849411650e-01 -1.696570384383008e-17
 1.429999999999999e+00 -8.256108849411650e-01 -1.696570384383008e-17
 1.429999999999999e+00 -8.256108849411650e-01 -1.696570384383008e-17
 1.429999999999999e+00 -8.256108849411650e-01 -1.696570384383008e-17
 1.429999999999999e+00 -8.256108849411650e-01 -1.696570384383008e-17
 1.429999999999999e+00 -8.256108849411650e-01 -1.696570384383008e-17
 1.429999999999999e+00 -8.256108849411650e-01 -1.696570384383008e-17
 1.429999999999999e+00 -8.256108849411650e-01 -1.696570384383008e-17
 1.429999999999999e+00 -8.256108849411650e-01 -1.696570384383008e-17
 1.429999999999999e+00 -8.256108849411650e-01 -1.696570384383008e-17
 1.429999999999999e+00 -8.256108849411650e-01 -1.696570384383008e-17
 1.429999999999999e+00 -8.256108849411650e-01 -1.696570384383008e-17
 1.429999999999999e+00 -8.256108849411650e-01 -1.696570384383008e-17
 1.429999999999999e+00 -8.256108849411650e-01 -1.696570384383008e-17
 1.429999999999999e+00 -8.256108849411650e-01 -1.696570384383008e-17
 1.429999999999999e+00 -8.256108849411650e-01 -1.696570384383008e-17
 1.429999999999999e+00 -8.256108849411650e-01 -1.696570384383008e-17
 1.429999999999999e+00 -8.256108849411650e-01 -1.696570384383008e-17
 1.429999999999999e+00 -8.256108849411650e-01 -1.696570384383008e-17
 1.429999999999999e+00 -8.256108849411650e-01 -1.696570384383008e-17
 1.429999999999999e+00 -8.256108849411650e-01 -1.696570384383008e-17
 1.429999999999999e+00 -8.256108849411650e-01 -1.696570384383008e-17
 1.429999999999999e+00 -8.256108849411650e-01 -1.696570384383008e-17
 1.429999999999999e+00 -8.256108849411650e-01 -1.696570384383008e-17
 1.429999999999999e+00 -8.256108849411650e-01 -1.696570384383008e-17
 1.429999999999999e+00 -8.256108849411650e-01 -1.696570384383008e-17
 1.429999999999999e+00 -8.256108849411650e-01 -1.696570384383008e-17
 1.429999999999999e+00 -8.256108849411650e-01 -1.696570384383008e-17
 1.429999999999999e+00 -8.256108849411650e-01 -1.696570384383008e-17
 1.429999999999999e+00 -8.256108849411650e-01 -1.696570384383008e-17
 1.429999999999999e+00 -8.256108849411650e-01 -1.696570384383008e-17
 1.429999999999999e+00 -8.256108849411650e-01 -1.696570384383008e-17
 1.429999999999999e+00 -8.256108849411650e-01 -1.696570384383008e-17
 1.429999999999999e+00 -8.256108849411650e-01 -1.696570384383008e-17
 1.429999999999999e+00 -8.256108849411650e-01 -1.696570384383008e-17

VECTORS burgers_vector_local double
-1.666666666666667e-01 -3.333333333333333e-01 -1.666666666666665e-01
1.666666666666667e-01 3.333333333333333e-01 1.666666666666665e-01
-1.666666666666667e-01 -3.333333333333333e-01 -1.666666666666665e-01
-1.666666666666667e-01 -3.333333333333333e-01 -1.666666666666665e-01
-1.666666666666667e-01 -3.333333333333333e-01 -1.666666666666665e-01
-1.666666666666667e-01 -3.333333333333333e-01 -1.666666666666665e-01
-1.666666666666667e-01 -3.333333333333333e-01 -1.666666666666665e-01
-1.666666666666667e-01 -3.333333333333333e-01 -1.666666666666665e-01
-1.666666666666667e-01 -3.333333333333333e-01 -1.666666666666665e-01
-1.666666666666667e-01 -3.333333333333333e-01 -1.666666666666665e-01
-1.666666666666667e-01 -3.333333333333333e-01 -1.666666666666665e-01
-1.666666666666667e-01 -3.333333333333333e-01 -1.666666666666665e-01
-1.666666666666667e-01 -3.333333333333333e-01 -1.666666666666665e-01
-1.666666666666667e-01 -3.333333333333333e-01 -1.666666666666665e-01
-1.666666666666667e-01 -3.333333333333333e-01 -1.666666666666665e-01
-1.666666666666667e-01 -3.333333333333333e-01 -1.666666666666665e-01
-1.666666666666667e-01 -3.333333333333333e-01 -1.666666666666665e-01
-1.666666666666667e-01 -3.333333333333333e-01 -1.666666666666665e-01
-1.666666666666667e-01 -3.333333333333333e-01 -1.666666666666665e-01
-1.666666666666667e-01 -3.333333333333333e-01 -1.666666666666665e-01
-1.666666666666667e-01 -3.333333333333333e-01 -1.666666666666665e-01
-1.666666666666667e-01 -3.333333333333333e-01 -1.666666666666665e-01
-1.666666666666667e-01 -3.333333333333333e-01 -1.666666666666665e-01
-1.666666666666667e-01 -3.333333333333333e-01 -1.666666666666665e-01
-1.666666666666667e-01 -3.333333333333333e-01 -1.666666666666665e-01
-1.666666666666667e-01 -3.333333333333333e-01 -1.666666666666665e-01
-1.666666666666667e-01 -3.333333333333333e-01 -1.666666666666665e-01
-1.666666666666667e-01 -3.333333333333333e-01 -1.666666666666665e-01
-1.666666666666667e-01 -3.333333333333333e-01 -1.666666666666665e-01
-1.666666666666667e-01 -3.333333333333333e-01 -1.666666666666665e-01
-1.666666666666667e-01 -3.333333333333333e-01 -1.666666666666665e-01
-1.666666666666667e-01 -3.333333333333333e-01 -1.666666666666665e-01
-1.666666666666667e-01 -3.333333333333333e-01 -1.666666666666665e-01
-1.666666666666667e-01 -3.333333333333333e-01 -1.666666666666665e-01
-1.666666666666667e-01 -3.333333333333333e-01 -1.666666666666665e-01
-1.666666666666667e-01 -3.333333333333333e-01 -1.666666666666665e-01
-1.666666666666667e-01 -3.333333333333333e-01 -1.666666666666665e-01
-1.666666666666667e-01 -3.333333333333333e-01 -1.666666666666665e-01
-1.666666666666667e-01 -3.333333333333333e-01 -1.666666666666665e-01
-1.666666666666667e-01 -3.333333333333333e-01 -1.666666666666665e-01
-1.666666666666667e-01 -3.333333333333333e-01 -1.666666666666665e-01
-1.666666666666667e-01 -3.333333333333333e-01 -1.666666666666665e-01
-1.666666666666667e-01 -3.333333333333333e-01 -1.666666666666665e-01
-1.666666666666667e-01 -3.333333333333333e-01 -1.666666666666665e-01
-1.666666666666667e-01 -3.333333333333333e-01 -1.666666666666665e-01
-1.666666666666667e-01 -3.333333333333333e-01 -1.666666666666665e-01
-1.666666666666667e-01 -3.333333333333333e-01 -1.666666666666665e-01
-1.666666666666667e-01 -3.333333333333333e-01 -1.666666666666665e-01
-1.666666666666667e-01 -3.333333333333333e-01 -1.666666666666665e-01
-1.666666666666667e-01 -3.333333333333333e-01 -1.666666666666665e-01
-1.666666666666667e-01 -3.333333333333333e-01 -1.666666666666665e-01
-1.666666666666667e-01 -3.333333333333333e-01 -1.666666666666665e-01
-1.666666666666667e-01 -3.333333333333333e-01 -1.666666666666665e-01
-1.666666666666667e-01 -3.333333333333333e-01 -1.666666666666665e-01
-1.666666666666667e-01 -3.333333333333333e-01 -1.666666666666665e-01
-1.666666666666667e-01 -3.333333333333333e-01 -1.666666666666665e-01
-1.666666666666667e-01 -3.333333333333333e-01 -1.666666666666665e-01
-1.666666666666667e-01 -3.333333333333333e-01 -1.666666666666665e-01
-1.666666666666667e-01 -3.333333333333333e-01 -1.666666666666665e-01
-1.666666666666667e-01 -3.333333333333333e-01 -1.666666666666665e-01
-1.666666666666667e-01 -3.333333333333333e-01 -1.666666666666665e-01
-1.666666666666667e-01 -3.333333333333333e-01 -1.666666666666665e-01
-1.666666666666667e-01 -3.333333333333333e-01 -1.666666666666665e-01
-1.666666666666667e-01 -3.333333333333333e-01 -1.666666666666665e-01
-1.666666666666667e-01 -3.333333333333333e-01 -1.666666666666665e-01
-1.666666666666667e-01 -3.333333333333333e-01 -1.666666666666665e-01
-1.666666666666667e-01 -3.333333333333333e-01 -1.666666666666665e-01
-1.666666666666667e-01 -3.333333333333333e-01 -1.666666666666665e-01
-1.666666666666667e-01 -3.333333333333333e-01 -1.666666666666665e-01
-1.666666666666667e-01 -3.333333333333333e-01 -1.666666666666665e-01
-1.666666666666667e-01 -3.333333333333333e-01 -1.666666666666665e-01
-1.666666666666667e-01 -3.333333333333333e-01 -1.666666666666665e-01
-1.666666666666667e-01 -3.333333333333333e-01 -1.666666666666665e-01
-1.666666666666667e-01 -3.333333333333333e-01 -1.666666666666665e-01
-1.666666666666667e-01 -3.333333333333333e-01 -1.666666666666665e-01
-1.666666666666667e-01 -3.333333333333333e-01 -1.666666666666665e-01
-1.666666666666667e-01 -3.333333333333333e-01 -1.666666666666665e-01
-1.666666666666667e-01 -3.333333333333333e-01 -1.666666666666665e-01
-1.666666666666667e-01 -3.333333333333333e-01 -1.666666666666665e-01
-1.666666666666667e-01 -3.333333333333333e-01 -1.666666666666665e-01
-1.666666666666667e-01 -3.333333333333333e-01 -1.666666666666665e-01
-1.666666666666667e-01 -3.333333333333333e-01 -1.666666666666665e-01
-1.666666666666667e-01 -3.333333333333333e-01 -1.666666666666665e-01
-1.666666666666667e-01 -3.333333333333333e-01 -1.666666666666665e-01
-1.666666666666667e-01 -3.333333333333333e-01 -1.666666666666665e-01
-1.666666666666667e-01 -3.333333333333333e-01 -1.666666666666665e-01
-1.666666666666667e-01 -3.333333333333333e-01 -1.666666666666665e-01
-1.666666666666667e-01 -3.333333333333333e-01 -1.666666666666665e-01
-1.666666666666667e-01 -3.333333333333333e-01 -1.666666666666665e-01
-1.666666666666667e-01 -3.333333333333333e-01 -1.666666666666665e-01
-1.666666666666667e-01 -3.333333333333333e-01 -1.666666666666665e-01
-1.666666666666667e-01 -3.333333333333333e-01 -1.666666666666665e-01
-1.666666666666667e-01 -3.333333333333333e-01 -1.666666666666665e-01
-1.666666666666667e-01 -3.333333333333333e-01 -1.666666666666665e-01
-1.666666666666667e-01 -3.333333333333333e-01 -1.666666666666665e-01
-1.666666666666667e-01 -3.333333333333333e-01 -1.666666666666665e-01
-1.666666666666667e-01 -3.333333333333333e-01 -1.666666666666665e-01
-1.666666666666667e-01 -3.333333333333333e-01 -1.666666666666665e-01
-1.666666666666667e-01 -3.333333333333333e-01 -1.666666666666665e-01
-1.666666666666667e-01 -3.333333333333333e-01 -1.666666666666665e-01
-1.666666666666667e-01 -3.333333333333333e-01 -1.666666666666665e-01
-1.666666666666667e-01 -3.333333333333333e-01 -1.666666666666665e-01
-1.666666666666667e-01 -3.333333333333333e-01 -1.666666666666665e-01
-1.666666666666667e-01 -3.333333333333333e-01 -1.666666666666665e-01
-1.666666666666667e-01 -3.333333333333333e-01 -1.666666666666665e-01
-1.666666666666667e-01 -3.333333333333333e-01 -1.666666666666665e-01
-1.666666666666667e-01 -3.333333333333333e-01 -1.666666666666665e-01
-1.666666666666667e-01 -3.333333333333333e-01 -1.666666666666665e-01
-1.666666666666667e-01 -3.333333333333333e-01 -1.666666666666665e-01
-1.666666666666667e-01 -3.333333333333333e-01 -1.666666666666665e-01
-1.666666666666667e-01 -3.333333333333333e-01 -1.666666666666665e-01
-1.666666666666667e-01 -3.333333333333333e-01 -1.666666666666665e-01
-1.666666666666667e-01 -3.333333333333333e-01 -1.666666666666665e-01
-1.666666666666667e-01 -3.333333333333333e-01 -1.666666666666665e-01
-1.666666666666667e-01 -3.333333333333333e-01 -1.666666666666665e-01
-1.666666666666667e-01 -3.333333333333333e-01 -1.666666666666665e-01
-1.666666666666667e-01 -3.333333333333333e-01 -1.666666666666665e-01
-1.666666666666667e-01 -3.333333333333333e-01 -1.666666666666665e-01
-1.666666666666667e-01 -3.333333333333333e-01 -1.666666666666665e-01
-1.666666666666667e-01 -3.333333333333333e-01 -1.666666666666665e-01
-1.666666666666667e-01 -3.333333333333333e-01 -1.666666666666665e-01
-1.666666666666667e-01 -3.333333333333333e-01 -1.666666666666665e-01
-1.666666666666667e-01 -3.333333333333333e-01 -1.666666666666665e-01
-1.666666666666667e-01 -3.333333333333333e-01 -1.666666666666665e-01
-1.666666666666667e-01 -3.333333333333333e-01 -1.666666666666665e-01
-1.666666666666667e-01 -3.333333333333333e-01 -1.666666666666665e-01
-1.666666666666667e-01 -3.333333333333333e-01 -1.666666666666665e-01
-1.666666666666667e-01 -3.333333333333333e-01 -1.666666666666665e-01
-1.666666666666667e-01 -3.333333333333333e-01 -1.666666666666665e-01
-1.666666666666667e-01 -3.333333333333333e-01 -1.666666666666665e-01
-1.666666666666667e-01 -3.333333333333333e-01 -1.666666666666665e-01
-1.666666666666667e-01 -3.333333333333333e-01 -1.666666666666665e-01
-1.666666666666667e-01 -3.333333333333333e-01 -1.666666666666665e-01
-1.666666666666667e-01 -3.333333333333333e-01 -1.666666666666665e-01
-1.666666666666667e-01 -3.333333333333333e-01 -1.666666666666665e-01
-1.666666666666667e-01 -3.333333333333333e-01 -1.666666666666665e-01
-1.666666666666667e-01 -3.333333333333333e-01 -1.666666666666665e-01
-1.666666666666667e-01 -3.333333333333333e-01 -1.666666666666665e-01
-1.666666666666667e-01 -3.333333333333333e-01 -1.666666666666665e-01
-1.666666666666667e-01 -3.333333333333333e-01 -1.666666666666665e-01
-1.666666666666667e-01 -3.333333333333333e-01 -1.666666666666665e-01
-1.666666666666667e-01 -3.333333333333333e-01 -1.666666666666665e-01
-1.666666666666667e-01 -3.333333333333333e-01 -1.666666666666665e-01
-1.666666666666667e-01 -3.333333333333333e-01 -1.666666666666665e-01
-1.666666666666667e-01 -3.333333333333333e-01 -1.666666666666665e-01
-1.666666666666667e-01 -3.333333333333333e-01 -1.666666666666665e-01
-1.666666666666667e-01 -3.333333333333333e-01 -1.666666666666665e-01
-1.666666666666667e-01 -3.333333333333333e-01 -1.666666666666665e-01
-1.666666666666667e-01 -3.333333333333333e-01 -1.666666666666665e-01
-1.666666666666667e-01 -3.333333333333333e-01 -1.666666666666665e-01
-1.666666666666667e-01 -3.333333333333333e-01 -1.666666666666665e-01
-1.666666666666667e-01 -3.333333333333333e-01 -1.666666666666665e-01
-1.666666666666667e-01 -3.333333333333333e-01 -1.666666666666665e-01
-1.666666666666667e-01 -3.333333333333333e-01 -1.666666666666665e-01
-1.666666666666667e-01 -3.333333333333333e-01 -1.666666666666665e-01
-1.666666666666667e-01 -3.333333333333333e-01 -1.666666666666665e-01
-1.666666666666667e-01 -3.333333333333333e-01 -1.666666666666665e-01
-1.666666666666667e-01 -3.333333333333333e-01 -1.666666666666665e-01
-1.666666666666667e-01 -3.333333333333333e-01 -1.666666666666665e-01
-1.666666666666667e-01 -3.333333333333333e-01 -1.666666666666665e-01
-1.666666666666667e-01 -3.333333333333333e-01 -1.666666666666665e-01
-1.666666666666667e-01 -3.333333333333333e-01 -1.666666666666665e-01
-1.666666666666667e-01 -3.333333333333333e-01 -1.666666666666665e-01
-1.666666666666667e-01 -3.333333333333333e-01 -1.666666666666665e-01
-1.666666666666667e-01 -3.333333333333333e-01 -1.666666666666665e-01
-1.666666666666667e-01 -3.333333333333333e-01 -1.666666666666665e-01
-1.666666666666667e-01 -3.333333333333333e-01 -1.666666666666665e-01
-1.666666666666667e-01 -3.333333333333333e-01 -1.666666666666665e-01
-1.666666666666667e-01 -3.333333333333333e-01 -1.666666666666665e-01
-1.666666666666667e-01 -3.333333333333333e-01 -1.666666666666665e-01
-1.666666666666667e-01 -3.333333333333333e-01 -1.666666666666665e-01
-1.666666666666667e-01 -3.333333333333333e-01 -1.666666666666665e-01
-1.666666666666667e-01 -3.333333333333333e-01 -1.666666666666665e-01
-1.666666666666667e-01 -3.333333333333333e-01 -1.666666666666665e-01
-1.666666666666667e-01 -3.333333333333333e-01 -1.666666666666665e-01
-1.666666666666667e-01 -3.333333333333333e-01 -1.666666666666665e-01
-1.666666666666667e-01 -3.333333333333333e-01 -1.666666666666665e-01
-1.666666666666667e-01 -3.333333333333333e-01 -1.666666666666665e-01
-1.666666666666667e-01 -3.333333333333333e-01 -1.666666666666665e-01
-1.666666666666667e-01 -3.333333333333333e-01 -1.666666666666665e-01
-1.666666666666667e-01 -3.333333333333333e-01 -1.666666666666665e-01
1.666666666666667e-01 3.333333333333333e-01 1.666666666666665e-01
-1.666666666666667e-01 -3.333333333333333e-01 -1.666666666666665e-01
-1.666666666666667e-01 -3.333333333333333e-01 -1.666666666666665e-01
-1.666666666666667e-01 -3.333333333333333e-01 -1.666666666666665e-01
-1.666666666666667e-01 -3.333333333333333e-01 -1.666666666666665e-01
-1.666666666666667e-01 -3.333333333333333e-01 -1.666666666666665e-01
-1.666666666666667e-01 -3.333333333333333e-01 -1.666666666666665e-01
-1.666666666666667e-01 -3.333333333333333e-01 -1.666666666666665e-01
-1.666666666666667e-01 -3.333333333333333e-01 -1.666666666666665e-01
-1.666666666666667e-01 -3.333333333333333e-01 -1.666666666666665e-01
-1.666666666666667e-01 -3.333333333333333e-01 -1.666666666666665e-01
-1.666666666666667e-01 -3.333333333333333e-01 -1.666666666666665e-01
-1.666666666666667e-01 -3.333333333333333e-01 -1.666666666666665e-01
-1.666666666666667e-01 -3.333333333333333e-01 -1.666666666666665e-01
-1.666666666666667e-01 -3.333333333333333e-01 -1.666666666666665e-01
-1.666666666666667e-01 -3.333333333333333e-01 -1.666666666666665e-01
-1.666666666666667e-01 -3.333333333333333e-01 -1.666666666666665e-01
-1.666666666666667e-01 -3.333333333333333e-01 -1.666666666666665e-01
-1.666666666666667e-01 -3.333333333333333e-01 -1.666666666666665e-01
-1.666666666666667e-01 -3.333333333333333e-01 -1.666666666666665e-01
-1.666666666666667e-01 -3.333333333333333e-01 -1.666666666666665e-01
-1.666666666666667e-01 -3.333333333333333e-01 -1.666666666666665e-01
-1.666666666666667e-01 -3.333333333333333e-01 -1.666666666666665e-01
-1.666666666666667e-01 -3.333333333333333e-01 -1.666666666666665e-01
-1.666666666666667e-01 -3.333333333333333e-01 -1.666666666666665e-01
-1.666666666666667e-01 -3.333333333333333e-01 -1.666666666666665e-01
-1.666666666666667e-01 -3.333333333333333e-01 -1.666666666666665e-01
-1.666666666666667e-01 -3.333333333333333e-01 -1.666666666666665e-01
-1.666666666666667e-01 -3.333333333333333e-01 -1.666666666666665e-01
-1.666666666666667e-01 -3.333333333333333e-01 -1.666666666666665e-01
-1.666666666666667e-01 -3.333333333333333e-01 -1.666666666666665e-01
-1.666666666666667e-01 -3.333333333333333e-01 -1.666666666666665e-01
-1.666666666666667e-01 -3.333333333333333e-01 -1.666666666666665e-01
-1.666666666666667e-01 -3.333333333333333e-01 -1.666666666666665e-01
-1.666666666666667e-01 -3.333333333333333e-01 -1.666666666666665e-01
-1.666666666666667e-01 -3.333333333333333e-01 -1.666666666666665e-01
-1.666666666666667e-01 -3.333333333333333e-01 -1.666666666666665e-01
-1.666666666666667e-01 -3.333333333333333e-01 -1.666666666666665e-01
-1.666666666666667e-01 -3.333333333333333e-01 -1.666666666666665e-01
-1.666666666666667e-01 -3.333333333333333e-01 -1.666666666666665e-01
-1.666666666666667e-01 -3.333333333333333e-01 -1.666666666666665e-01
-1.666666666666667e-01 -3.333333333333333e-01 -1.666666666666665e-01
-1.666666666666667e-01 -3.333333333333333e-01 -1.666666666666665e-01
-1.666666666666667e-01 -3.333333333333333e-01 -1.666666666666665e-01
-1.666666666666667e-01 -3.333333333333333e-01 -1.666666666666665e-01
-1.666666666666667e-01 -3.333333333333333e-01 -1.666666666666665e-01
-1.666666666666667e-01 -3.333333333333333e-01 -1.666666666666665e-01
-1.666666666666667e-01 -3.333333333333333e-01 -1.666666666666665e-01
-1.666666666666667e-01 -3.333333333333333e-01 -1.666666666666665e-01
-1.666666666666667e-01 -3.333333333333333e-01 -1.666666666666665e-01
-1.666666666666667e-01 -3.333333333333333e-01 -1.666666666666665e-01
-1.666666666666667e-01 -3.333333333333333e-01 -1.666666666666665e-01
-1.666666666666667e-01 -3.333333333333333e-01 -1.666666666666665e-01
-1.666666666666667e-01 -3.333333333333333e-01 -1.666666666666665e-01
-1.666666666666667e-01 -3.333333333333333e-01 -1.666666666666665e-01
-1.666666666666667e-01 -3.333333333333333e-01 -1.666666666666665e-01
-1.666666666666667e-01 -3.333333333333333e-01 -1.666666666666665e-01
-1.666666666666667e-01 -3.333333333333333e-01 -1.666666666666665e-01
-1.666666666666667e-01 -3.333333333333333e-01 -1.666666666666665e-01
-1.666666666666667e-01 -3.333333333333333e-01 -1.666666666666665e-01
-1.666666666666667e-01 -3.333333333333333e-01 -1.666666666666665e-01
-1.666666666666667e-01 -3.333333333333333e-01 -1.666666666666665e-01
-1.666666666666667e-01 -3.333333333333333e-01 -1.666666666666665e-01
-1.666666666666667e-01 -3.333333333333333e-01 -1.666666666666665e-01
-1.666666666666667e-01 -3.333333333333333e-01 -1.666666666666665e-01
-1.666666666666667e-01 -3.333333333333333e-01 -1.666666666666665e-01
-1.666666666666667e-01 -3.333333333333333e-01 -1.666666666666665e-01
-1.666666666666667e-01 -3.333333333333333e-01 -1.666666666666665e-01
-1.666666666666667e-01 -3.333333333333333e-01 -1.666666666666665e-01
-1.666666666666667e-01 -3.333333333333333e-01 -1.666666666666665e-01
-1.666666666666667e-01 -3.333333333333333e-01 -1.666666666666665e-01
-1.666666666666667e-01 -3.333333333333333e-01 -1.666666666666665e-01
-1.666666666666667e-01 -3.333333333333333e-01 -1.666666666666665e-01
-1.666666666666667e-01 -3.333333333333333e-01 -1.666666666666665e-01
-1.666666666666667e-01 -3.333333333333333e-01 -1.666666666666665e-01
-1.666666666666667e-01 -3.333333333333333e-01 -1.666666666666665e-01
-1.666666666666667e-01 -3.333333333333333e-01 -1.666666666666665e-01
-1.666666666666667e-01 -3.333333333333333e-01 -1.666666666666665e-01
-1.666666666666667e-01 -3.333333333333333e-01 -1.666666666666665e-01
-1.666666666666667e-01 -3.333333333333333e-01 -1.666666666666665e-01
-1.666666666666667e-01 -3.333333333333333e-01 -1.666666666666665e-01
-1.666666666666667e-01 -3.333333333333333e-01 -1.666666666666665e-01
-1.666666666666667e-01 -3.333333333333333e-01 -1.666666666666665e-01
-1.666666666666667e-01 -3.333333333333333e-01 -1.666666666666665e-01
-1.666666666666667e-01 -3.333333333333333e-01 -1.666666666666665e-01
-1.666666666666667e-01 -3.333333333333333e-01 -1.666666666666665e-01
-1.666666666666667e-01 -3.333333333333333e-01 -1.666666666666665e-01
-1.666666666666667e-01 -3.333333333333333e-01 -1.666666666666665e-01
-1.666666666666667e-01 -3.333333333333333e-01 -1.666666666666665e-01
-1.666666666666667e-01 -3.333333333333333e-01 -1.666666666666665e-01
-1.666666666666667e-01 -3.333333333333333e-01 -1.666666666666665e-01
-1.666666666666667e-01 -3.333333333333333e-01 -1.666666666666665e-01
-1.666666666666667e-01 -3.333333333333333e-01 -1.666666666666665e-01
-1.666666666666667e-01 -3.333333333333333e-01 -1.666666666666665e-01
-1.666666666666667e-01 -3.333333333333333e-01 -1.666666666666665e-01
-1.666666666666667e-01 -3.333333333333333e-01 -1.666666666666665e-01
-1.666666666666667e-01 -3.333333333333333e-01 -1.666666666666665e-01
-1.666666666666667e-01 -3.333333333333333e-01 -1.666666666666665e-01
-1.666666666666667e-01 -3.333333333333333e-01 -1.666666666666665e-01
-1.666666666666667e-01 -3.333333333333333e-01 -1.666666666666665e-01
-1.666666666666667e-01 -3.333333333333333e-01 -1.666666666666665e-01
-1.666666666666667e-01 -3.333333333333333e-01 -1.666666666666665e-01
-1.666666666666667e-01 -3.333333333333333e-01 -1.666666666666665e-01
-1.666666666666667e-01 -3.333333333333333e-01 -1.666666666666665e-01
-1.666666666666667e-01 -3.333333333333333e-01 -1.666666666666665e-01
-1.666666666666667e-01 -3.333333333333333e-01 -1.666666666666665e-01
-1.666666666666667e-01 -3.333333333333333e-01 -1.666666666666665e-01
-1.666666666666667e-01 -3.333333333333333e-01 -1.666666666666665e-01
-1.666666666666667e-01 -3.333333333333333e-01 -1.666666666666665e-01
-1.666666666666667e-01 -3.333333333333333e-01 -1.666666666666665e-01
-1.666666666666667e-01 -3.333333333333333e-01 -1.666666666666665e-01
-1.666666666666667e-01 -3.333333333333333e-01 -1.666666666666665e-01
-1.666666666666667e-01 -3.333333333333333e-01 -1.666666666666665e-01
-1.666666666666667e-01 -3.333333333333333e-01 -1.666666666666665e-01
-1.666666666666667e-01 -3.333333333333333e-01 -1.666666666666665e-01
-1.666666666666667e-01 -3.333333333333333e-01 -1.666666666666665e-01
-1.666666666666667e-01 -3.333333333333333e-01 -1.666666666666665e-01
-1.666666666666667e-01 -3.333333333333333e-01 -1.666666666666665e-01
-1.666666666666667e-01 -3.333333333333333e-01 -1.666666666666665e-01
-1.666666666666667e-01 -3.333333333333333e-01 -1.666666666666665e-01
-1.666666666666667e-01 -3.333333333333333e-01 -1.666666666666665e-01
-1.666666666666667e-01 -3.333333333333333e-01 -1.666666666666665e-01
-1.666666666666667e-01 -3.333333333333333e-01 -1.666666666666665e-01
-1.666666666666667e-01 -3.333333333333333e-01 -1.666666666666665e-01
-1.666666666666667e-01 -3.333333333333333e-01 -1.666666666666665e-01
-1.666666666666667e-01 -3.333333333333333e-01 -1.666666666666665e-01
-1.666666666666667e-01 -3.333333333333333e-01 -1.666666666666665e-01
-1.666666666666667e-01 -3.333333333333333e-01 -1.666666666666665e-01
-1.666666666666667e-01 -3.333333333333333e-01 -1.666666666666665e-01
-1.666666666666667e-01 -3.333333333333333e-01 -1.666666666666665e-01
-1.666666666666667e-01 -3.333333333333333e-01 -1.666666666666665e-01
-1.666666666666667e-01 -3.333333333333333e-01 -1.666666666666665e-01
-1.666666666666667e-01 -3.333333333333333e-01 -1.666666666666665e-01
-1.666666666666667e-01 -3.333333333333333e-01 -1.666666666666665e-01
-1.666666666666667e-01 -3.333333333333333e-01 -1.666666666666665e-01
-1.666666666666667e-01 -3.333333333333333e-01 -1.666666666666665e-01
-1.666666666666667e-01 -3.333333333333333e-01 -1.666666666666665e-01
-1.666666666666667e-01 -3.333333333333333e-01 -1.666666666666665e-01
-1.666666666666667e-01 -3.333333333333333e-01 -1.666666666666665e-01
-1.666666666666667e-01 -3.333333333333333e-01 -1.666666666666665e-01
-1.666666666666667e-01 -3.333333333333333e-01 -1.666666666666665e-01
-1.666666666666667e-01 -3.333333333333333e-01 -1.666666666666665e-01
-1.666666666666667e-01 -3.333333333333333e-01 -1.666666666666665e-01
-1.666666666666667e-01 -3.333333333333333e-01 -1.666666666666665e-01
-1.666666666666667e-01 -3.333333333333333e-01 -1.666666666666665e-01
-1.666666666666667e-01 -3.333333333333333e-01 -1.666666666666665e-01
-1.666666666666667e-01 -3.333333333333333e-01 -1.666666666666665e-01
-1.666666666666667e-01 -3.333333333333333e-01 -1.666666666666665e-01
-1.666666666666667e-01 -3.333333333333333e-01 -1.666666666666665e-01
-1.666666666666667e-01 -3.333333333333333e-01 -1.666666666666665e-01
-1.666666666666667e-01 -3.333333333333333e-01 -1.666666666666665e-01
-1.666666666666667e-01 -3.333333333333333e-01 -1.666666666666665e-01
-1.666666666666667e-01 -3.333333333333333e-01 -1.666666666666665e-01
-1.666666666666667e-01 -3.333333333333333e-01 -1.666666666666665e-01
-1.666666666666667e-01 -3.333333333333333e-01 -1.666666666666665e-01
-1.666666666666667e-01 -3.333333333333333e-01 -1.666666666666665e-01
-1.666666666666667e-01 -3.333333333333333e-01 -1.666666666666665e-01
-1.666666666666667e-01 -3.333333333333333e-01 -1.666666666666665e-01
-1.666666666666667e-01 -3.333333333333333e-01 -1.666666666666665e-01
-1.666666666666667e-01 -3.333333333333333e-01 -1.666666666666665e-01
-1.666666666666667e-01 -3.333333333333333e-01 -1.666666666666665e-01
-1.666666666666667e-01 -3.333333333333333e-01 -1.666666666666665e-01
-1.666666666666667e-01 -3.333333333333333e-01 -1.666666666666665e-01
-1.666666666666667e-01 -3.333333333333333e-01 -1.666666666666665e-01
-1.666666666666667e-01 -3.333333333333333e-01 -1.666666666666665e-01
-1.666666666666667e-01 -3.333333333333333e-01 -1.666666666666665e-01
-1.666666666666667e-01 -3.333333333333333e-01 -1.666666666666665e-01
-1.666666666666667e-01 -3.333333333333333e-01 -1.666666666666665e-01
-1.666666666666667e-01 -3.333333333333333e-01 -1.666666666666665e-01
-1.666666666666667e-01 -3.333333333333333e-01 -1.666666666666665e-01
-1.666666666666667e-01 -3.333333333333333e-01 -1.666666666666665e-01
-1.666666666666667e-01 -3.333333333333333e-01 -1.666666666666665e-01
-1.666666666666667e-01 -3.333333333333333e-01 -1.666666666666665e-01
-1.666666666666667e-01 -3.333333333333333e-01 -1.666666666666665e-01
-1.666666666666667e-01 -3.333333333333333e-01 -1.666666666666665e-01
-1.666666666666667e-01 -3.333333333333333e-01 -1.666666666666665e-01
-1.666666666666667e-01 -3.333333333333333e-01 -1.666666666666665e-01
1.666666666666667e-01 3.333333333333333e-01 1.666666666666665e-01
-1.666666666666667e-01 -3.333333333333333e-01 -1.666666666666665e-01
1.666666666666667e-01 3.333333333333333e-01 1.666666666666665e-01
1.666666666666667e-01 3.333333333333333e-01 1.666666666666665e-01
1.666666666666667e-01 3.333333333333333e-01 1.666666666666665e-01
1.666666666666667e-01 3.333333333333333e-01 1.666666666666665e-01
1.666666666666667e-01 3.333333333333333e-01 1.666666666666665e-01
1.666666666666667e-01 3.333333333333333e-01 1.666666666666665e-01
1.666666666666667e-01 3.333333333333333e-01 1.666666666666665e-01
1.666666666666667e-01 3.333333333333333e-01 1.666666666666665e-01
1.666666666666667e-01 3.333333333333333e-01 1.666666666666665e-01
1.666666666666667e-01 3.333333333333333e-01 1.666666666666665e-01
1.666666666666667e-01 3.333333333333333e-01 1.666666666666665e-01
1.666666666666667e-01 3.333333333333333e-01 1.666666666666665e-01
1.666666666666667e-01 3.333333333333333e-01 1.666666666666665e-01
1.666666666666667e-01 3.333333333333333e-01 1.666666666666665e-01
1.666666666666667e-01 3.333333333333333e-01 1.666666666666665e-01
1.666666666666667e-01 3.333333333333333e-01 1.666666666666665e-01
1.666666666666667e-01 3.333333333333333e-01 1.666666666666665e-01
1.666666666666667e-01 3.333333333333333e-01 1.666666666666665e-01
1.666666666666667e-01 3.333333333333333e-01 1.666666666666665e-01
1.666666666666667e-01 3.333333333333333e-01 1.666666666666665e-01
1.666666666666667e-01 3.333333333333333e-01 1.666666666666665e-01
1.666666666666667e-01 3.333333333333333e-01 1.666666666666665e-01
1.666666666666667e-01 3.333333333333333e-01 1.666666666666665e-01
1.666666666666667e-01 3.333333333333333e-01 1.666666666666665e-01
1.666666666666667e-01 3.333333333333333e-01 1.666666666666665e-01
1.666666666666667e-01 3.333333333333333e-01 1.666666666666665e-01
1.666666666666667e-01 3.333333333333333e-01 1.666666666666665e-01
1.666666666666667e-01 3.333333333333333e-01 1.666666666666665e-01
1.666666666666667e-01 3.333333333333333e-01 1.666666666666665e-01
1.666666666666667e-01 3.333333333333333e-01 1.666666666666665e-01
1.666666666666667e-01 3.333333333333333e-01 1.666666666666665e-01
1.666666666666667e-01 3.333333333333333e-01 1.666666666666665e-01
1.666666666666667e-01 3.333333333333333e-01 1.666666666666665e-01
1.666666666666667e-01 3.333333333333333e-01 1.666666666666665e-01
1.666666666666667e-01 3.333333333333333e-01 1.666666666666665e-01
1.666666666666667e-01 3.333333333333333e-01 1.666666666666665e-01
1.666666666666667e-01 3.333333333333333e-01 1.666666666666665e-01
1.666666666666667e-01 3.333333333333333e-01 1.666666666666665e-01
1.666666666666667e-01 3.333333333333333e-01 1.666666666666665e-01
1.666666666666667e-01 3.333333333333333e-01 1.666666666666665e-01
1.666666666666667e-01 3.333333333333333e-01 1.666666666666665e-01
1.666666666666667e-01 3.333333333333333e-01 1.666666666666665e-01
1.666666666666667e-01 3.333333333333333e-01 1.666666666666665e-01
1.666666666666667e-01 3.333333333333333e-01 1.666666666666665e-01
1.666666666666667e-01 3.333333333333333e-01 1.666666666666665e-01
1.666666666666667e-01 3.333333333333333e-01 1.666666666666665e-01
1.666666666666667e-01 3.333333333333333e-01 1.666666666666665e-01
1.666666666666667e-01 3.333333333333333e-01 1.666666666666665e-01
1.666666666666667e-01 3.333333333333333e-01 1.666666666666665e-01
1.666666666666667e-01 3.333333333333333e-01 1.666666666666665e-01
1.666666666666667e-01 3.333333333333333e-01 1.666666666666665e-01
1.666666666666667e-01 3.333333333333333e-01 1.666666666666665e-01
1.666666666666667e-01 3.333333333333333e-01 1.666666666666665e-01
1.666666666666667e-01 3.333333333333333e-01 1.666666666666665e-01
1.666666666666667e-01 3.333333333333333e-01 1.666666666666665e-01
1.666666666666667e-01 3.333333333333333e-01 1.666666666666665e-01
1.666666666666667e-01 3.333333333333333e-01 1.666666666666665e-01
1.666666666666667e-01 3.333333333333333e-01 1.666666666666665e-01
1.666666666666667e-01 3.333333333333333e-01 1.666666666666665e-01
1.666666666666667e-01 3.333333333333333e-01 1.666666666666665e-01
1.666666666666667e-01 3.333333333333333e-01 1.666666666666665e-01
1.666666666666667e-01 3.333333333333333e-01 1.666666666666665e-01
1.666666666666667e-01 3.333333333333333e-01 1.666666666666665e-01
1.666666666666667e-01 3.333333333333333e-01 1.666666666666665e-01
1.666666666666667e-01 3.333333333333333e-01 1.666666666666665e-01
1.666666666666667e-01 3.333333333333333e-01 1.666666666666665e-01
1.666666666666667e-01 3.333333333333333e-01 1.666666666666665e-01
1.666666666666667e-01 3.333333333333333e-01 1.666666666666665e-01
1.666666666666667e-01 3.333333333333333e-01 1.666666666666665e-01
1.666666666666667e-01 3.333333333333333e-01 1.666666666666665e-01
1.666666666666667e-01 3.333333333333333e-01 1.666666666666665e-01
1.666666666666667e-01 3.333333333333333e-01 1.666666666666665e-01
1.666666666666667e-01 3.333333333333333e-01 1.666666666666665e-01
1.666666666666667e-01 3.333333333333333e-01 1.666666666666665e-01
1.666666666666667e-01 3.333333333333333e-01 1.666666666666665e-01
1.666666666666667e-01 3.333333333333333e-01 1.666666666666665e-01
1.666666666666667e-01 3.333333333333333e-01 1.666666666666665e-01
1.666666666666667e-01 3.333333333333333e-01 1.666666666666665e-01
1.666666666666667e-01 3.333333333333333e-01 1.666666666666665e-01
1.666666666666667e-01 3.333333333333333e-01 1.666666666666665e-01
1.666666666666667e-01 3.333333333333333e-01 1.666666666666665e-01
1.666666666666667e-01 3.333333333333333e-01 1.666666666666665e-01
1.666666666666667e-01 3.333333333333333e-01 1.666666666666665e-01
1.666666666666667e-01 3.333333333333333e-01 1.666666666666665e-01
1.666666666666667e-01 3.333333333333333e-01 1.666666666666665e-01
1.666666666666667e-01 3.333333333333333e-01 1.666666666666665e-01
1.666666666666667e-01 3.333333333333333e-01 1.666666666666665e-01
1.666666666666667e-01 3.333333333333333e-01 1.666666666666665e-01
1.666666666666667e-01 3.333333333333333e-01 1.666666666666665e-01
1.666666666666667e-01 3.333333333333333e-01 1.666666666666665e-01
1.666666666666667e-01 3.333333333333333e-01 1.666666666666665e-01
1.666666666666667e-01 3.333333333333333e-01 1.666666666666665e-01
1.666666666666667e-01 3.333333333333333e-01 1.666666666666665e-01
1.666666666666667e-01 3.333333333333333e-01 1.666666666666665e-01
1.666666666666667e-01 3.333333333333333e-01 1.666666666666665e-01
1.666666666666667e-01 3.333333333333333e-01 1.666666666666665e-01
1.666666666666667e-01 3.333333333333333e-01 1.666666666666665e-01
1.666666666666667e-01 3.333333333333333e-01 1.666666666666665e-01
1.666666666666667e-01 3.333333333333333e-01 1.666666666666665e-01
1.666666666666667e-01 3.333333333333333e-01 1.666666666666665e-01
1.666666666666667e-01 3.333333333333333e-01 1.666666666666665e-01
1.666666666666667e-01 3.333333333333333e-01 1.666666666666665e-01
1.666666666666667e-01 3.333333333333333e-01 1.666666666666665e-01
1.666666666666667e-01 3.333333333333333e-01 1.666666666666665e-01
1.666666666666667e-01 3.333333333333333e-01 1.666666666666665e-01
1.666666666666667e-01 3.333333333333333e-01 1.666666666666665e-01
1.666666666666667e-01 3.333333333333333e-01 1.666666666666665e-01
1.666666666666667e-01 3.333333333333333e-01 1.666666666666665e-01
1.666666666666667e-01 3.333333333333333e-01 1.666666666666665e-01
1.666666666666667e-01 3.333333333333333e-01 1.666666666666665e-01
1.666666666666667e-01 3.333333333333333e-01 1.666666666666665e-01
1.666666666666667e-01 3.333333333333333e-01 1.666666666666665e-01
1.666666666666667e-01 3.333333333333333e-01 1.666666666666665e-01
1.666666666666667e-01 3.333333333333333e-01 1.666666666666665e-01
1.666666666666667e-01 3.333333333333333e-01 1.666666666666665e-01
1.666666666666667e-01 3.333333333333333e-01 1.666666666666665e-01
1.666666666666667e-01 3.333333333333333e-01 1.666666666666665e-01
1.666666666666667e-01 3.333333333333333e-01 1.666666666666665e-01
1.666666666666667e-01 3.333333333333333e-01 1.666666666666665e-01
1.666666666666667e-01 3.333333333333333e-01 1.666666666666665e-01
1.666666666666667e-01 3.333333333333333e-01 1.666666666666665e-01
1.666666666666667e-01 3.333333333333333e-01 1.666666666666665e-01
1.666666666666667e-01 3.333333333333333e-01 1.666666666666665e-01
1.666666666666667e-01 3.333333333333333e-01 1.666666666666665e-01
1.666666666666667e-01 3.333333333333333e-01 1.666666666666665e-01
1.666666666666667e-01 3.333333333333333e-01 1.666666666666665e-01
1.666666666666667e-01 3.333333333333333e-01 1.666666666666665e-01
1.666666666666667e-01 3.333333333333333e-01 1.666666666666665e-01
1.666666666666667e-01 3.333333333333333e-01 1.666666666666665e-01
1.666666666666667e-01 3.333333333333333e-01 1.666666666666665e-01
1.666666666666667e-01 3.333333333333333e-01 1.666666666666665e-01
1.666666666666667e-01 3.333333333333333e-01 1.666666666666665e-01
1.666666666666667e-01 3.333333333333333e-01 1.666666666666665e-01
1.666666666666667e-01 3.333333333333333e-01 1.666666666666665e-01
1.666666666666667e-01 3.333333333333333e-01 1.666666666666665e-01
1.666666666666667e-01 3.333333333333333e-01 1.666666666666665e-01
1.666666666666667e-01 3.333333333333333e-01 1.666666666666665e-01
1.666666666666667e-01 3.333333333333333e-01 1.666666666666665e-01
1.666666666666667e-01 3.333333333333333e-01 1.666666666666665e-01
1.666666666666667e-01 3.333333333333333e-01 1.666666666666665e-01
1.666666666666667e-01 3.333333333333333e-01 1.666666666666665e-01
1.666666666666667e-01 3.333333333333333e-01 1.666666666666665e-01
1.666666666666667e-01 3.333333333333333e-01 1.666666666666665e-01
1.666666666666667e-01 3.333333333333333e-01 1.666666666666665e-01
1.666666666666667e-01 3.333333333333333e-01 1.666666666666665e-01
1.666666666666667e-01 3.333333333333333e-01 1.666666666666665e-01
1.666666666666667e-01 3.333333333333333e-01 1.666666666666665e-01
1.666666666666667e-01 3.333333333333333e-01 1.666666666666665e-01
1.666666666666667e-01 3.333333333333333e-01 1.666666666666665e-01
1.666666666666667e-01 3.333333333333333e-01 1.666666666666665e-01
1.666666666666667e-01 3.333333333333333e-01 1.666666666666665e-01
1.666666666666667e-01 3.333333333333333e-01 1.666666666666665e-01
1.666666666666667e-01 3.333333333333333e-01 1.666666666666665e-01
1.666666666666667e-01 3.333333333333333e-01 1.666666666666665e-01
1.666666666666667e-01 3.333333333333333e-01 1.666666666666665e-01
1.666666666666667e-01 3.333333333333333e-01 1.666666666666665e-01
1.666666666666667e-01 3.333333333333333e-01 1.666666666666665e-01
1.666666666666667e-01 3.333333333333333e-01 1.666666666666665e-01
1.666666666666667e-01 3.333333333333333e-01 1.666666666666665e-01
1.666666666666667e-01 3.333333333333333e-01 1.666666666666665e-01
1.666666666666667e-01 3.333333333333333e-01 1.666666666666665e-01
1.666666666666667e-01 3.333333333333333e-01 1.666666666666665e-01
1.666666666666667e-01 3.333333333333333e-01 1.666666666666665e-01
1.666666666666667e-01 3.333333333333333e-01 1.666666666666665e-01
1.666666666666667e-01 3.333333333333333e-01 1.666666666666665e-01
1.666666666666667e-01 3.333333333333333e-01 1.666666666666665e-01
1.666666666666667e-01 3.333333333333333e-01 1.666666666666665e-01
1.666666666666667e-01 3.333333333333333e-01 1.666666666666665e-01
-1.666666666666667e-01 -3.333333333333333e-01 -1.666666666666665e-01
1.666666666666667e-01 3.333333333333333e-01 1.666666666666665e-01
1.666666666666667e-01 3.333333333333333e-01 1.666666666666665e-01
1.666666666666667e-01 3.333333333333333e-01 1.666666666666665e-01
1.666666666666667e-01 3.333333333333333e-01 1.666666666666665e-01
1.666666666666667e-01 3.333333333333333e-01 1.666666666666665e-01
1.666666666666667e-01 3.333333333333333e-01 1.666666666666665e-01
1.666666666666667e-01 3.333333333333333e-01 1.666666666666665e-01
1.666666666666667e-01 3.333333333333333e-01 1.666666666666665e-01
1.666666666666667e-01 3.333333333333333e-01 1.666666666666665e-01
1.666666666666667e-01 3.333333333333333e-01 1.666666666666665e-01
1.666666666666667e-01 3.333333333333333e-01 1.666666666666665e-01
1.666666666666667e-01 3.333333333333333e-01 1.666666666666665e-01
1.666666666666667e-01 3.333333333333333e-01 1.666666666666665e-01
1.666666666666667e-01 3.333333333333333e-01 1.666666666666665e-01
1.666666666666667e-01 3.333333333333333e-01 1.666666666666665e-01
1.666666666666667e-01 3.333333333333333e-01 1.666666666666665e-01
1.666666666666667e-01 3.333333333333333e-01 1.666666666666665e-01
1.666666666666667e-01 3.333333333333333e-01 1.666666666666665e-01
1.666666666666667e-01 3.333333333333333e-01 1.666666666666665e-01
1.666666666666667e-01 3.333333333333333e-01 1.666666666666665e-01
1.666666666666667e-01 3.333333333333333e-01 1.666666666666665e-01
1.666666666666667e-01 3.333333333333333e-01 1.666666666666665e-01
1.666666666666667e-01 3.333333333333333e-01 1.666666666666665e-01
1.666666666666667e-01 3.333333333333333e-01 1.666666666666665e-01
1.666666666666667e-01 3.333333333333333e-01 1.666666666666665e-01
1.666666666666667e-01 3.333333333333333e-01 1.666666666666665e-01
1.666666666666667e-01 3.333333333333333e-01 1.666666666666665e-01
1.666666666666667e-01 3.333333333333333e-01 1.666666666666665e-01
1.666666666666667e-01 3.333333333333333e-01 1.666666666666665e-01
1.666666666666667e-01 3.333333333333333e-01 1.666666666666665e-01
1.666666666666667e-01 3.333333333333333e-01 1.666666666666665e-01
1.666666666666667e-01 3.333333333333333e-01 1.666666666666665e-01
1.666666666666667e-01 3.333333333333333e-01 1.666666666666665e-01
1.666666666666667e-01 3.333333333333333e-01 1.666666666666665e-01
1.666666666666667e-01 3.333333333333333e-01 1.666666666666665e-01
1.666666666666667e-01 3.333333333333333e-01 1.666666666666665e-01
1.666666666666667e-01 3.333333333333333e-01 1.666666666666665e-01
1.666666666666667e-01 3.333333333333333e-01 1.666666666666665e-01
1.666666666666667e-01 3.333333333333333e-01 1.666666666666665e-01
1.666666666666667e-01 3.333333333333333e-01 1.666666666666665e-01
1.666666666666667e-01 3.333333333333333e-01 1.666666666666665e-01
1.666666666666667e-01 3.333333333333333e-01 1.666666666666665e-01
1.666666666666667e-01 3.333333333333333e-01 1.666666666666665e-01
1.666666666666667e-01 3.333333333333333e-01 1.666666666666665e-01
1.666666666666667e-01 3.333333333333333e-01 1.666666666666665e-01
1.666666666666667e-01 3.333333333333333e-01 1.666666666666665e-01
1.666666666666667e-01 3.333333333333333e-01 1.666666666666665e-01
1.666666666666667e-01 3.333333333333333e-01 1.666666666666665e-01
1.666666666666667e-01 3.333333333333333e-01 1.666666666666665e-01
1.666666666666667e-01 3.333333333333333e-01 1.666666666666665e-01
1.666666666666667e-01 3.333333333333333e-01 1.666666666666665e-01
1.666666666666667e-01 3.333333333333333e-01 1.666666666666665e-01
1.666666666666667e-01 3.333333333333333e-01 1.666666666666665e-01
1.666666666666667e-01 3.333333333333333e-01 1.666666666666665e-01
1.666666666666667e-01 3.333333333333333e-01 1.666666666666665e-01
1.666666666666667e-01 3.333333333333333e-01 1.666666666666665e-01
1.666666666666667e-01 3.333333333333333e-01 1.666666666666665e-01
1.666666666666667e-01 3.333333333333333e-01 1.666666666666665e-01
1.666666666666667e-01 3.333333333333333e-01 1.666666666666665e-01
1.666666666666667e-01 3.333333333333333e-01 1.666666666666665e-01
1.666666666666667e-01 3.333333333333333e-01 1.666666666666665e-01
1.666666666666667e-01 3.333333333333333e-01 1.666666666666665e-01
1.666666666666667e-01 3.333333333333333e-01 1.666666666666665e-01
1.666666666666667e-01 3.333333333333333e-01 1.666666666666665e-01
1.666666666666667e-01 3.333333333333333e-01 1.666666666666665e-01
1.666666666666667e-01 3.333333333333333e-01 1.666666666666665e-01
1.666666666666667e-01 3.333333333333333e-01 1.666666666666665e-01
1.666666666666667e-01 3.333333333333333e-01 1.666666666666665e-01
1.666666666666667e-01 3.333333333333333e-01 1.666666666666665e-01
1.666666666666667e-01 3.333333333333333e-01 1.666666666666665e-01
1.666666666666667e-01 3.333333333333333e-01 1.666666666666665e-01
1.666666666666667e-01 3.333333333333333e-01 1.666666666666665e-01
1.666666666666667e-01 3.333333333333333e-01 1.666666666666665e-01
1.666666666666667e-01 3.333333333333333e-01 1.666666666666665e-01
1.666666666666667e-01 3.333333333333333e-01 1.666666666666665e-01
1.666666666666667e-01 3.333333333333333e-01 1.666666666666665e-01
1.666666666666667e-01 3.333333333333333e-01 1.666666666666665e-01
1.666666666666667e-01 3.333333333333333e-01 1.666666666666665e-01
1.666666666666667e-01 3.333333333333333e-01 1.666666666666665e-01
1.666666666666667e-01 3.333333333333333e-01 1.666666666666665e-01
1.666666666666667e-01 3.333333333333333e-01 1.666666666666665e-01
1.666666666666667e-01 3.333333333333333e-01 1.666666666666665e-01
1.666666666666667e-01 3.333333333333333e-01 1.666666666666665e-01
1.666666666666667e-01 3.333333333333333e-01 1.666666666666665e-01
1.666666666666667e-01 3.333333333333333e-01 1.666666666666665e-01
1.666666666666667e-01 3.333333333333333e-01 1.666666666666665e-01
1.666666666666667e-01 3.333333333333333e-01 1.666666666666665e-01
1.666666666666667e-01 3.333333333333333e-01 1.666666666666665e-01
1.666666666666667e-01 3.333333333333333e-01 1.666666666666665e-01
1.666666666666667e-01 3.333333333333333e-01 1.666666666666665e-01
1.666666666666667e-01 3.333333333333333e-01 1.666666666666665e-01
1.666666666666667e-01 3.333333333333333e-01 1.666666666666665e-01
1.666666666666667e-01 3.333333333333333e-01 1.666666666666665e-01
1.666666666666667e-01 3.333333333333333e-01 1.666666666666665e-01
1.666666666666667e-01 3.333333333333333e-01 1.666666666666665e-01
1.666666666666667e-01 3.333333333333333e-01 1.666666666666665e-01
1.666666666666667e-01 3.333333333333333e-01 1.666666666666665e-01
1.666666666666667e-01 3.333333333333333e-01 1.666666666666665e-01
1.666666666666667e-01 3.333333333333333e-01 1.666666666666665e-01
1.666666666666667e-01 3.333333333333333e-01 1.666666666666665e-01
1.666666666666667e-01 3.333333333333333e-01 1.666666666666665e-01
1.666666666666667e-01 3.333333333333333e-01 1.666666666666665e-01
1.666666666666667e-01 3.333333333333333e-01 1.666666666666665e-01
1.666666666666667e-01 3.333333333333333e-01 1.666666666666665e-01
1.666666666666667e-01 3.333333333333333e-01 1.666666666666665e-01
1.666666666666667e-01 3.333333333333333e-01 1.666666666666665e-01
1.666666666666667e-01 3.333333333333333e-01 1.666666666666665e-01
1.666666666666667e-01 3.333333333333333e-01 1.666666666666665e-01
1.666666666666667e-01 3.333333333333333e-01 1.666666666666665e-01
1.666666666666667e-01 3.333333333333333e-01 1.666666666666665e-01
1.666666666666667e-01 3.333333333333333e-01 1.666666666666665e-01
1.666666666666667e-01 3.333333333333333e-01 1.666666666666665e-01
1.666666666666667e-01 3.333333333333333e-01 1.666666666666665e-01
1.666666666666667e-01 3.333333333333333e-01 1.666666666666665e-01
1.666666666666667e-01 3.333333333333333e-01 1.666666666666665e-01
1.666666666666667e-01 3.333333333333333e-01 1.666666666666665e-01
1.666666666666667e-01 3.333333333333333e-01 1.666666666666665e-01
1.666666666666667e-01 3.333333333333333e-01 1.666666666666665e-01
1.666666666666667e-01 3.333333333333333e-01 1.666666666666665e-01
1.666666666666667e-01 3.333333333333333e-01 1.666666666666665e-01
1.666666666666667e-01 3.333333333333333e-01 1.666666666666665e-01
1.666666666666667e-01 3.333333333333333e-01 1.666666666666665e-01
1.666666666666667e-01 3.333333333333333e-01 1.666666666666665e-01
1.666666666666667e-01 3.333333333333333e-01 1.666666666666665e-01
1.666666666666667e-01 3.333333333333333e-01 1.666666666666665e-01
1.666666666666667e-01 3.333333333333333e-01 1.666666666666665e-01
1.666666666666667e-01 3.333333333333333e-01 1.666666666666665e-01
1.666666666666667e-01 3.333333333333333e-01 1.666666666666665e-01
1.666666666666667e-01 3.333333333333333e-01 1.666666666666665e-01
1.666666666666667e-01 3.333333333333333e-01 1.666666666666665e-01
1.666666666666667e-01 3.333333333333333e-01 1.666666666666665e-01
1.666666666666667e-01 3.333333333333333e-01 1.666666666666665e-01
1.666666666666667e-01 3.333333333333333e-01 1.666666666666665e-01
1.666666666666667e-01 3.333333333333333e-01 1.666666666666665e-01
1.666666666666667e-01 3.333333333333333e-01 1.666666666666665e-01
1.666666666666667e-01 3.333333333333333e-01 1.666666666666665e-01
1.666666666666667e-01 3.333333333333333e-01 1.666666666666665e-01
1.666666666666667e-01 3.333333333333333e-01 1.666666666666665e-01
1.666666666666667e-01 3.333333333333333e-01 1.666666666666665e-01
1.666666666666667e-01 3.333333333333333e-01 1.666666666666665e-01
1.666666666666667e-01 3.333333333333333e-01 1.666666666666665e-01
1.666666666666667e-01 3.333333333333333e-01 1.666666666666665e-01
1.666666666666667e-01 3.333333333333333e-01 1.666666666666665e-01
1.666666666666667e-01 3.333333333333333e-01 1.666666666666665e-01
1.666666666666667e-01 3.333333333333333e-01 1.666666666666665e-01
1.666666666666667e-01 3.333333333333333e-01 1.666666666666665e-01
1.666666666666667e-01 3.333333333333333e-01 1.666666666666665e-01
1.666666666666667e-01 3.333333333333333e-01 1.666666666666665e-01
1.666666666666667e-01 3.333333333333333e-01 1.666666666666665e-01
1.666666666666667e-01 3.333333333333333e-01 1.666666666666665e-01
1.666666666666667e-01 3.333333333333333e-01 1.666666666666665e-01
1.666666666666667e-01 3.333333333333333e-01 1.666666666666665e-01
1.666666666666667e-01 3.333333333333333e-01 1.666666666666665e-01
1.666666666666667e-01 3.333333333333333e-01 1.666666666666665e-01
1.666666666666667e-01 3.333333333333333e-01 1.666666666666665e-01
1.666666666666667e-01 3.333333333333333e-01 1.666666666666665e-01
1.666666666666667e-01 3.333333333333333e-01 1.666666666666665e-01
1.666666666666667e-01 3.333333333333333e-01 1.666666666666665e-01
1.666666666666667e-01 3.333333333333333e-01 1.666666666666665e-01
1.666666666666667e-01 3.333333333333333e-01 1.666666666666665e-01
1.666666666666667e-01 3.333333333333333e-01 1.666666666666665e-01
1.666666666666667e-01 3.333333333333333e-01 1.666666666666665e-01
1.666666666666667e-01 3.333333333333333e-01 1.666666666666665e-01
1.666666666666667e-01 3.333333333333333e-01 1.666666666666665e-01
 1.666666666666667e-01 -1.666666666666665e-01 -3.333333333333333e-01
-1.666666666666667e-01  1.666666666666665e-01  3.333333333333333e-01
 1.666666666666667e-01 -1.666666666666665e-01 -3.333333333333333e-01
 1.666666666666667e-01 -1.666666666666665e-01 -3.333333333333333e-01
 1.666666666666667e-01 -1.666666666666665e-01 -3.333333333333333e-01
 1.666666666666667e-01 -1.666666666666665e-01 -3.333333333333333e-01
 1.666666666666667e-01 -1.666666666666665e-01 -3.333333333333333e-01
 1.666666666666667e-01 -1.666666666666665e-01 -3.333333333333333e-01
 1.666666666666667e-01 -1.666666666666665e-01 -3.333333333333333e-01
 1.666666666666667e-01 -1.666666666666665e-01 -3.333333333333333e-01
 1.666666666666667e-01 -1.666666666666665e-01 -3.333333333333333e-01
 1.666666666666667e-01 -1.666666666666665e-01 -3.333333333333333e-01
 1.666666666666667e-01 -1.666666666666665e-01 -3.333333333333333e-01
 1.666666666666667e-01 -1.666666666666665e-01 -3.333333333333333e-01
 1.666666666666667e-01 -1.666666666666665e-01 -3.333333333333333e-01
 1.666666666666667e-01 -1.666666666666665e-01 -3.333333333333333e-01
 1.666666666666667e-01 -1.666666666666665e-01 -3.333333333333333e-01
 1.666666666666667e-01 -1.666666666666665e-01 -3.333333333333333e-01
 1.666666666666667e-01 -1.666666666666665e-01 -3.333333333333333e-01
 1.666666666666667e-01 -1.666666666666665e-01 -3.333333333333333e-01
 1.666666666666667e-01 -1.666666666666665e-01 -3.333333333333333e-01
 1.666666666666667e-01 -1.666666666666665e-01 -3.333333333333333e-01
 1.666666666666667e-01 -1.666666666666665e-01 -3.333333333333333e-01
 1.666666666666667e-01 -1.666666666666665e-01 -3.333333333333333e-01
 1.666666666666667e-01 -1.666666666666665e-01 -3.333333333333333e-01
 1.666666666666667e-01 -1.666666666666665e-01 -3.333333333333333e-01
 1.666666666666667e-01 -1.666666666666665e-01 -3.333333333333333e-01
 1.666666666666667e-01 -1.666666666666665e-01 -3.333333333333333e-01
 1.666666666666667e-01 -1.666666666666665e-01 -3.333333333333333e-01
 1.666666666666667e-01 -1.666666666666665e-01 -3.333333333333333e-01
 1.666666666666667e-01 -1.666666666666665e-01 -3.333333333333333e-01
 1.666666666666667e-01 -1.666666666666665e-01 -3.333333333333333e-01
 1.666666666666667e-01 -1.666666666666665e-01 -3.333333333333333e-01
 1.666666666666667e-01 -1.666666666666665e-01 -3.333333333333333e-01
 1.666666666666667e-01 -1.666666666666665e-01 -3.333333333333333e-01
 1.666666666666667e-01 -1.666666666666665e-01 -3.333333333333333e-01
 1.666666666666667e-01 -1.666666666666665e-01 -3.333333333333333e-01
 1.666666666666667e-01 -1.666666666666665e-01 -3.333333333333333e-01
 1.666666666666667e-01 -1.666666666666665e-01 -3.333333333333333e-01
 1.666666666666667e-01 -1.666666666666665e-01 -3.333333333333333e-01
 1.666666666666667e-01 -1.666666666666665e-01 -3.333333333333333e-01
 1.666666666666667e-01 -1.666666666666665e-01 -3.333333333333333e-01
 1.666666666666667e-01 -1.666666666666665e-01 -3.333333333333333e-01
 1.666666666666667e-01 -1.666666666666665e-01 -3.333333333333333e-01
 1.666666666666667e-01 -1.666666666666665e-01 -3.333333333333333e-01
 1.666666666666667e-01 -1.666666666666665e-01 -3.333333333333333e-01
 1.666666666666667e-01 -1.666666666666665e-01 -3.333333333333333e-01
 1.666666666666667e-01 -1.666666666666665e-01 -3.333333333333333e-01
 1.666666666666667e-01 -1.666666666666665e-01 -3.333333333333333e-01
 1.666666666666667e-01 -1.666666666666665e-01 -3.333333333333333e-01
 1.666666666666667e-01 -1.666666666666665e-01 -3.333333333333333e-01
 1.666666666666667e-01 -1.666666666666665e-01 -3.333333333333333e-01
 1.666666666666667e-01 -1.666666666666665e-01 -3.333333333333333e-01
 1.666666666666667e-01 -1.666666666666665e-01 -3.333333333333333e-01
 1.666666666666667e-01 -1.666666666666665e-01 -3.333333333333333e-01
 1.666666666666667e-01 -1.666666666666665e-01 -3.333333333333333e-01
 1.666666666666667e-01 -1.666666666666665e-01 -3.333333333333333e-01
 1.666666666666667e-01 -1.666666666666665e-01 -3.333333333333333e-01
 1.666666666666667e-01 -1.666666666666665e-01 -3.333333333333333e-01
 1.666666666666667e-01 -1.666666666666665e-01 -3.333333333333333e-01
 1.666666666666667e-01 -1.666666666666665e-01 -3.333333333333333e-01
 1.666666666666667e-01 -1.666666666666665e-01 -3.333333333333333e-01
 1.666666666666667e-01 -1.666666666666665e-01 -3.333333333333333e-01
 1.666666666666667e-01 -1.666666666666665e-01 -3.333333333333333e-01
 1.666666666666667e-01 -1.666666666666665e-01 -3.333333333333333e-01
 1.666666666666667e-01 -1.666666666666665e-01 -3.333333333333333e-01
 1.666666666666667e-01 -1.666666666666665e-01 -3.333333333333333e-01
 1.666666666666667e-01 -1.666666666666665e-01 -3.333333333333333e-01
 1.666666666666667e-01 -1.666666666666665e-01 -3.333333333333333e-01
 1.666666666666667e-01 -1.666666666666665e-01 -3.333333333333333e-01
 1.666666666666667e-01 -1.666666666666665e-01 -3.333333333333333e-01
 1.666666666666667e-01 -1.666666666666665e-01 -3.333333333333333e-01
 1.666666666666667e-01 -1.666666666666665e-01 -3.333333333333333e-01
 1.666666666666667e-01 -1.666666666666665e-01 -3.333333333333333e-01
 1.666666666666667e-01 -1.666666666666665e-01 -3.333333333333333e-01
 1.666666666666667e-01 -1.666666666666665e-01 -3.333333333333333e-01
 1.666666666666667e-01 -1.666666666666665e-01 -3.333333333333333e-01
 1.666666666666667e-01 -1.666666666666665e-01 -3.333333333333333e-01
 1.666666666666667e-01 -1.666666666666665e-01 -3.333333333333333e-01
 1.666666666666667e-01 -1.666666666666665e-01 -3.333333333333333e-01
 1.666666666666667e-01 -1.666666666666665e-01 -3.333333333333333e-01
 1.666666666666667e-01 -1.666666666666665e-01 -3.333333333333333e-01
 1.666666666666667e-01 -1.666666666666665e-01 -3.333333333333333e-01
 1.666666666666667e-01 -1.666666666666665e-01 -3.333333333333333e-01
 1.666666666666667e-01 -1.666666666666665e-01 -3.333333333333333e-01
 1.666666666666667e-01 -1.666666666666665e-01 -3.333333333333333e-01
 1.666666666666667e-01 -1.666666666666665e-01 -3.333333333333333e-01
 1.666666666666667e-01 -1.666666666666665e-01 -3.333333333333333e-01
 1.666666666666667e-01 -1.666666666666665e-01 -3.333333333333333e-01
 1.666666666666667e-01 -1.666666666666665e-01 -3.333333333333333e-01
 1.666666666666667e-01 -1.666666666666665e-01 -3.333333333333333e-01
 1.666666666666667e-01 -1.666666666666665e-01 -3.333333333333333e-01
 1.666666666666667e-01 -1.666666666666665e-01 -3.333333333333333e-01
 1.666666666666667e-01 -1.666666666666665e-01 -3.333333333333333e-01
 1.666666666666667e-01 -1.666666666666665e-01 -3.333333333333333e-01
 1.666666666666667e-01 -1.666666666666665e-01 -3.333333333333333e-01
 1.666666666666667e-01 -1.666666666666665e-01 -3.333333333333333e-01
 1.666666666666667e-01 -1.666666666666665e-01 -3.333333333333333e-01
 1.666666666666667e-01 -1.666666666666665e-01 -3.333333333333333e-01
 1.666666666666667e-01 -1.666666666666665e-01 -3.333333333333333e-01
 1.666666666666667e-01 -1.666666666666665e-01 -3.333333333333333e-01
 1.666666666666667e-01 -1.666666666666665e-01 -3.333333333333333e-01
 1.666666666666667e-01 -1.666666666666665e-01 -3.333333333333333e-01
 1.666666666666667e-01 -1.666666666666665e-01 -3.333333333333333e-01
 1.666666666666667e-01 -1.666666666666665e-01 -3.333333333333333e-01
 1.666666666666667e-01 -1.666666666666665e-01 -3.333333333333333e-01
 1.666666666666667e-01 -1.666666666666665e-01 -3.333333333333333e-01
 1.666666666666667e-01 -1.666666666666665e-01 -3.333333333333333e-01
 1.666666666666667e-01 -1.666666666666665e-01 -3.333333333333333e-01
 1.666666666666667e-01 -1.666666666666665e-01 -3.333333333333333e-01
 1.666666666666667e-01 -1.666666666666665e-01 -3.333333333333333e-01
 1.666666666666667e-01 -1.666666666666665e-01 -3.333333333333333e-01
 1.666666666666667e-01 -1.666666666666665e-01 -3.333333333333333e-01
 1.666666666666667e-01 -1.666666666666665e-01 -3.333333333333333e-01
 1.666666666666667e-01 -1.666666666666665e-01 -3.333333333333333e-01
 1.666666666666667e-01 -1.666666666666665e-01 -3.333333333333333e-01
 1.666666666666667e-01 -1.666666666666665e-01 -3.333333333333333e-01
 1.666666666666667e-01 -1.666666666666665e-01 -3.333333333333333e-01
 1.666666666666667e-01 -1.666666666666665e-01 -3.333333333333333e-01
 1.666666666666667e-01 -1.666666666666665e-01 -3.333333333333333e-01
 1.666666666666667e-01 -1.666666666666665e-01 -3.333333333333333e-01
 1.666666666666667e-01 -1.666666666666665e-01 -3.333333333333333e-01
 1.666666666666667e-01 -1.666666666666665e-01 -3.333333333333333e-01
 1.666666666666667e-01 -1.666666666666665e-01 -3.333333333333333e-01
 1.666666666666667e-01 -1.666666666666665e-01 -3.333333333333333e-01
 1.666666666666667e-01 -1.666666666666665e-01 -3.333333333333333e-01
 1.666666666666667e-01 -1.666666666666665e-01 -3.333333333333333e-01
 1.666666666666667e-01 -1.666666666666665e-01 -3.333333333333333e-01
 1.666666666666667e-01 -1.666666666666665e-01 -3.333333333333333e-01
 1.666666666666667e-01 -1.666666666666665e-01 -3.333333333333333e-01
 1.666666666666667e-01 -1.666666666666665e-01 -3.333333333333333e-01
 1.666666666666667e-01 -1.666666666666665e-01 -3.333333333333333e-01
 1.666666666666667e-01 -1.666666666666665e-01 -3.333333333333333e-01
 1.666666666666667e-01 -1.666666666666665e-01 -3.333333333333333e-01
 1.666666666666667e-01 -1.666666666666665e-01 -3.333333333333333e-01
 1.666666666666667e-01 -1.666666666666665e-01 -3.333333333333333e-01
 1.666666666666667e-01 -1.666666666666665e-01 -3.333333333333333e-01
 1.666666666666667e-01 -1.666666666666665e-01 -3.333333333333333e-01
 1.666666666666667e-01 -1.666666666666665e-01 -3.333333333333333e-01
 1.666666666666667e-01 -1.666666666666665e-01 -3.333333333333333e-01
 1.666666666666667e-01 -1.666666666666665e-01 -3.333333333333333e-01
 1.666666666666667e-01 -1.666666666666665e-01 -3.333333333333333e-01
 1.666666666666667e-01 -1.666666666666665e-01 -3.333333333333333e-01
 1.666666666666667e-01 -1.666666666666665e-01 -3.333333333333333e-01
 1.666666666666667e-01 -1.666666666666665e-01 -3.333333333333333e-01
 1.666666666666667e-01 -1.666666666666665e-01 -3.333333333333333e-01
 1.666666666666667e-01 -1.666666666666665e-01 -3.333333333333333e-01
 1.666666666666667e-01 -1.666666666666665e-01 -3.333333333333333e-01
 1.666666666666667e-01 -1.666666666666665e-01 -3.333333333333333e-01
 1.666666666666667e-01 -1.666666666666665e-01 -3.333333333333333e-01
 1.666666666666667e-01 -1.666666666666665e-01 -3.333333333333333e-01
 1.666666666666667e-01 -1.666666666666665e-01 -3.333333333333333e-01
 1.666666666666667e-01 -1.666666666666665e-01 -3.333333333333333e-01
 1.666666666666667e-01 -1.666666666666665e-01 -3.333333333333333e-01
 1.666666666666667e-01 -1.666666666666665e-01 -3.333333333333333e-01
 1.666666666666667e-01 -1.666666666666665e-01 -3.333333333333333e-01
 1.666666666666667e-01 -1.666666666666665e-01 -3.333333333333333e-01
 1.666666666666667e-01 -1.666666666666665e-01 -3.333333333333333e-01
 1.666666666666667e-01 -1.666666666666665e-01 -3.333333333333333e-01
 1.666666666666667e-01 -1.666666666666665e-01 -3.333333333333333e-01
 1.666666666666667e-01 -1.666666666666665e-01 -3.333333333333333e-01
 1.666666666666667e-01 -1.666666666666665e-01 -3.333333333333333e-01
 1.666666666666667e-01 -1.666666666666665e-01 -3.333333333333333e-01
 1.666666666666667e-01 -1.666666666666665e-01 -3.333333333333333e-01
 1.666666666666667e-01 -1.666666666666665e-01 -3.333333333333333e-01
 1.666666666666667e-01 -1.666666666666665e-01 -3.333333333333333e-01
 1.666666666666667e-01 -1.666666666666665e-01 -3.333333333333333e-01
 1.666666666666667e-01 -1.666666666666665e-01 -3.333333333333333e-01
 1.666666666666667e-01 -1.666666666666665e-01 -3.333333333333333e-01
 1.666666666666667e-01 -1.666666666666665e-01 -3.333333333333333e-01
 1.666666666666667e-01 -1.666666666666665e-01 -3.333333333333333e-01
 1.666666666666667e-01 -1.666666666666665e-01 -3.333333333333333e-01
 1.666666666666667e-01 -1.666666666666665e-01 -3.333333333333333e-01
 1.666666666666667e-01 -1.666666666666665e-01 -3.333333333333333e-01
 1.666666666666667e-01 -1.666666666666665e-01 -3.333333333333333e-01
 1.666666666666667e-01 -1.666666666666665e-01 -3.333333333333333e-01
 1.666666666666667e-01 -1.666666666666665e-01 -3.333333333333333e-01
 1.666666666666667e-01 -1.666666666666665e-01 -3.333333333333333e-01
 1.666666666666667e-01 -1.666666666666665e-01 -3.333333333333333e-01
 1.666666666666667e-01 -1.666666666666665e-01 -3.333333333333333e-01
 1.666666666666667e-01 -1.666666666666665e-01 -3.333333333333333e-01
 1.666666666666667e-01 -1.666666666666665e-01 -3.333333333333333e-01
 1.666666666666667e-01 -1.666666666666665e-01 -3.333333333333333e-01
 1.666666666666667e-01 -1.666666666666665e-01 -3.333333333333333e-01
 1.666666666666667e-01 -1.666666666666665e-01 -3.333333333333333e-01
 1.666666666666667e-01 -1.666666666666665e-01 -3.333333333333333e-01
 1.666666666666667e-01 -1.666666666666665e-01 -3.333333333333333e-01
 1.666666666666667e-01 -1.666666666666665e-01 -3.333333333333333e-01
 1.666666666666667e-01 -1.666666666666665e-01 -3.333333333333333e-01
 1.666666666666667e-01 -1.666666666666665e-01 -3.333333333333333e-01
 1.666666666666667e-01 -1.666666666666665e-01 -3.333333333333333e-01
 1.666666666666667e-01 -1.666666666666665e-01 -3.333333333333333e-01
 1.666666666666667e-01 -1.666666666666665e-01 -3.333333333333333e-01
 1.666666666666667e-01 -1.666666666666665e-01 -3.333333333333333e-01
 1.666666666666667e-01 -1.666666666666665e-01 -3.333333333333333e-01
 1.666666666666667e-01 -1.666666666666665e-01 -3.333333333333333e-01
 1.666666666666667e-01 -1.666666666666665e-01 -3.333333333333333e-01
 1.666666666666667e-01 -1.666666666666665e-01 -3.333333333333333e-01
 1.666666666666667e-01 -1.666666666666665e-01 -3.333333333333333e-01
 1.666666666666667e-01 -1.666666666666665e-01 -3.333333333333333e-01
-1.666666666666667e-01  1.666666666666665e-01  3.333333333333333e-01
 1.666666666666667e-01 -1.666666666666665e-01 -3.333333333333333e-01
 1.666666666666667e-01 -1.666666666666665e-01 -3.333333333333333e-01
 1.666666666666667e-01 -1.666666666666665e-01 -3.333333333333333e-01
 1.666666666666667e-01 -1.666666666666665e-01 -3.333333333333333e-01
 1.666666666666667e-01 -1.666666666666665e-01 -3.333333333333333e-01
 1.666666666666667e-01 -1.666666666666665e-01 -3.333333333333333e-01
 1.666666666666667e-01 -1.666666666666665e-01 -3.333333333333333e-01
 1.666666666666667e-01 -1.666666666666665e-01 -3.333333333333333e-01
 1.666666666666667e-01 -1.666666666666665e-01 -3.333333333333333e-01
 1.666666666666667e-01 -1.666666666666665e-01 -3.333333333333333e-01
 1.666666666666667e-01 -1.666666666666665e-01 -3.333333333333333e-01
 1.666666666666667e-01 -1.666666666666665e-01 -3.333333333333333e-01
 1.666666666666667e-01 -1.666666666666665e-01 -3.333333333333333e-01
 1.666666666666667e-01 -1.666666666666665e-01 -3.333333333333333e-01
 1.666666666666667e-01 -1.666666666666665e-01 -3.333333333333333e-01
 1.666666666666667e-01 -1.666666666666665e-01 -3.333333333333333e-01
 1.666666666666667e-01 -1.666666666666665e-01 -3.333333333333333e-01
 1.666666666666667e-01 -1.666666666666665e-01 -3.333333333333333e-01
 1.666666666666667e-01 -1.666666666666665e-01 -3.333333333333333e-01
 1.666666666666667e-01 -1.666666666666665e-01 -3.333333333333333e-01
 1.666666666666667e-01 -1.666666666666665e-01 -3.333333333333333e-01
 1.666666666666667e-01 -1.666666666666665e-01 -3.333333333333333e-01
 1.666666666666667e-01 -1.666666666666665e-01 -3.333333333333333e-01
 1.666666666666667e-01 -1.666666666666665e-01 -3.333333333333333e-01
 1.666666666666667e-01 -1.666666666666665e-01 -3.333333333333333e-01
 1.666666666666667e-01 -1.666666666666665e-01 -3.333333333333333e-01
 1.666666666666667e-01 -1.666666666666665e-01 -3.333333333333333e-01
 1.666666666666667e-01 -1.666666666666665e-01 -3.333333333333333e-01
 1.666666666666667e-01 -1.666666666666665e-01 -3.333333333333333e-01
 1.666666666666667e-01 -1.666666666666665e-01 -3.333333333333333e-01
 1.666666666666667e-01 -1.666666666666665e-01 -3.333333333333333e-01
 1.666666666666667e-01 -1.666666666666665e-01 -3.333333333333333e-01
 1.666666666666667e-01 -1.666666666666665e-01 -3.333333333333333e-01
 1.666666666666667e-01 -1.666666666666665e-01 -3.333333333333333e-01
 1.666666666666667e-01 -1.666666666666665e-01 -3.333333333333333e-01
 1.666666666666667e-01 -1.666666666666665e-01 -3.333333333333333e-01
 1.666666666666667e-01 -1.666666666666665e-01 -3.333333333333333e-01
 1.666666666666667e-01 -1.666666666666665e-01 -3.333333333333333e-01
 1.666666666666667e-01 -1.666666666666665e-01 -3.333333333333333e-01
 1.666666666666667e-01 -1.666666666666665e-01 -3.333333333333333e-01
 1.666666666666667e-01 -1.666666666666665e-01 -3.333333333333333e-01
 1.666666666666667e-01 -1.666666666666665e-01 -3.333333333333333e-01
 1.666666666666667e-01 -1.666666666666665e-01 -3.333333333333333e-01
 1.666666666666667e-01 -1.666666666666665e-01 -3.333333333333333e-01
 1.666666666666667e-01 -1.666666666666665e-01 -3.333333333333333e-01
 1.666666666666667e-01 -1.666666666666665e-01 -3.333333333333333e-01
 1.666666666666667e-01 -1.666666666666665e-01 -3.333333333333333e-01
 1.666666666666667e-01 -1.666666666666665e-01 -3.333333333333333e-01
 1.666666666666667e-01 -1.666666666666665e-01 -3.333333333333333e-01
 1.666666666666667e-01 -1.666666666666665e-01 -3.333333333333333e-01
 1.666666666666667e-01 -1.666666666666665e-01 -3.333333333333333e-01
 1.666666666666667e-01 -1.666666666666665e-01 -3.333333333333333e-01
 1.666666666666667e-01 -1.666666666666665e-01 -3.333333333333333e-01
 1.666666666666667e-01 -1.666666666666665e-01 -3.333333333333333e-01
 1.666666666666667e-01 -1.666666666666665e-01 -3.333333333333333e-01
 1.666666666666667e-01 -1.666666666666665e-01 -3.333333333333333e-01
 1.666666666666667e-01 -1.666666666666665e-01 -3.333333333333333e-01
 1.666666666666667e-01 -1.666666666666665e-01 -3.333333333333333e-01
 1.666666666666667e-01 -1.666666666666665e-01 -3.333333333333333e-01
 1.666666666666667e-01 -1.666666666666665e-01 -3.333333333333333e-01
 1.666666666666667e-01 -1.666666666666665e-01 -3.333333333333333e-01
 1.666666666666667e-01 -1.666666666666665e-01 -3.333333333333333e-01
 1.666666666666667e-01 -1.666666666666665e-01 -3.333333333333333e-01
 1.666666666666667e-01 -1.666666666666665e-01 -3.333333333333333e-01
 1.666666666666667e-01 -1.666666666666665e-01 -3.333333333333333e-01
 1.666666666666667e-01 -1.666666666666665e-01 -3.333333333333333e-01
 1.666666666666667e-01 -1.666666666666665e-01 -3.333333333333333e-01
 1.666666666666667e-01 -1.666666666666665e-01 -3.333333333333333e-01
 1.666666666666667e-01 -1.666666666666665e-01 -3.333333333333333e-01
 1.666666666666667e-01 -1.666666666666665e-01 -3.333333333333333e-01
 1.666666666666667e-01 -1.666666666666665e-01 -3.333333333333333e-01
 1.666666666666667e-01 -1.666666666666665e-01 -3.333333333333333e-01
 1.666666666666667e-01 -1.666666666666665e-01 -3.333333333333333e-01
 1.666666666666667e-01 -1.666666666666665e-01 -3.333333333333333e-01
 1.666666666666667e-01 -1.666666666666665e-01 -3.333333333333333e-01
 1.666666666666667e-01 -1.666666666666665e-01 -3.333333333333333e-01
 1.666666666666667e-01 -1.666666666666665e-01 -3.333333333333333e-01
 1.666666666666667e-01 -1.666666666666665e-01 -3.333333333333333e-01
 1.666666666666667e-01 -1.666666666666665e-01 -3.333333333333333e-01
 1.666666666666667e-01 -1.666666666666665e-01 -3.333333333333333e-01
 1.666666666666667e-01 -1.666666666666665e-01 -3.333333333333333e-01
 1.666666666666667e-01 -1.666666666666665e-01 -3.333333333333333e-01
 1.666666666666667e-01 -1.666666666666665e-01 -3.333333333333333e-01
 1.666666666666667e-01 -1.666666666666665e-01 -3.333333333333333e-01
 1.666666666666667e-01 -1.666666666666665e-01 -3.333333333333333e-01
 1.666666666666667e-01 -1.666666666666665e-01 -3.333333333333333e-01
 1.666666666666667e-01 -1.666666666666665e-01 -3.333333333333333e-01
 1.666666666666667e-01 -1.666666666666665e-01 -3.333333333333333e-01
 1.666666666666667e-01 -1.666666666666665e-01 -3.333333333333333e-01
 1.666666666666667e-01 -1.666666666666665e-01 -3.333333333333333e-01
 1.666666666666667e-01 -1.666666666666665e-01 -3.333333333333333e-01
 1.666666666666667e-01 -1.666666666666665e-01 -3.333333333333333e-01
 1.666666666666667e-01 -1.666666666666665e-01 -3.333333333333333e-01
 1.666666666666667e-01 -1.666666666666665e-01 -3.333333333333333e-01
 1.666666666666667e-01 -1.666666666666665e-01 -3.333333333333333e-01
 1.666666666666667e-01 -1.666666666666665e-01 -3.333333333333333e-01
 1.666666666666667e-01 -1.666666666666665e-01 -3.333333333333333e-01
 1.666666666666667e-01 -1.666666666666665e-01 -3.333333333333333e-01
 1.666666666666667e-01 -1.666666666666665e-01 -3.333333333333333e-01
 1.666666666666667e-01 -1.666666666666665e-01 -3.333333333333333e-01
 1.666666666666667e-01 -1.666666666666665e-01 -3.333333333333333e-01
 1.666666666666667e-01 -1.666666666666665e-01 -3.333333333333333e-01
 1.666666666666667e-01 -1.666666666666665e-01 -3.333333333333333e-01
 1.666666666666667e-01 -1.666666666666665e-01 -3.333333333333333e-01
 1.666666666666667e-01 -1.666666666666665e-01 -3.333333333333333e-01
 1.666666666666667e-01 -1.666666666666665e-01 -3.333333333333333e-01
 1.666666666666667e-01 -1.666666666666665e-01 -3.333333333333333e-01
 1.666666666666667e-01 -1.666666666666665e-01 -3.333333333333333e-01
 1.666666666666667e-01 -1.666666666666665e-01 -3.333333333333333e-01
 1.666666666666667e-01 -1.666666666666665e-01 -3.333333333333333e-01
 1.666666666666667e-01 -1.666666666666665e-01 -3.333333333333333e-01
 1.666666666666667e-01 -1.666666666666665e-01 -3.333333333333333e-01
 1.666666666666667e-01 -1.666666666666665e-01 -3.333333333333333e-01
 1.666666666666667e-01 -1.666666666666665e-01 -3.333333333333333e-01
 1.666666666666667e-01 -1.666666666666665e-01 -3.333333333333333e-01
 1.666666666666667e-01 -1.666666666666665e-01 -3.333333333333333e-01
 1.666666666666667e-01 -1.666666666666665e-01 -3.333333333333333e-01
 1.666666666666667e-01 -1.666666666666665e-01 -3.333333333333333e-01
 1.666666666666667e-01 -1.666666666666665e-01 -3.333333333333333e-01
 1.666666666666667e-01 -1.666666666666665e-01 -3.333333333333333e-01
 1.666666666666667e-01 -1.666666666666665e-01 -3.333333333333333e-01
 1.666666666666667e-01 -1.666666666666665e-01 -3.333333333333333e-01
 1.666666666666667e-01 -1.666666666666665e-01 -3.333333333333333e-01
 1.666666666666667e-01 -1.666666666666665e-01 -3.333333333333333e-01
 1.666666666666667e-01 -1.666666666666665e-01 -3.333333333333333e-01
 1.666666666666667e-01 -1.666666666666665e-01 -3.333333333333333e-01
 1.666666666666667e-01 -1.666666666666665e-01 -3.333333333333333e-01
 1.666666666666667e-01 -1.666666666666665e-01 -3.333333333333333e-01
 1.666666666666667e-01 -1.666666666666665e-01 -3.333333333333333e-01
 1.666666666666667e-01 -1.666666666666665e-01 -3.333333333333333e-01
 1.666666666666667e-01 -1.666666666666665e-01 -3.333333333333333e-01
 1.666666666666667e-01 -1.666666666666665e-01 -3.333333333333333e-01
 1.666666666666667e-01 -1.666666666666665e-01 -3.333333333333333e-01
 1.666666666666667e-01 -1.666666666666665e-01 -3.333333333333333e-01
 1.666666666666667e-01 -1.666666666666665e-01 -3.333333333333333e-01
 1.666666666666667e-01 -1.666666666666665e-01 -3.333333333333333e-01
 1.666666666666667e-01 -1.666666666666665e-01 -3.333333333333333e-01
 1.666666666666667e-01 -1.666666666666665e-01 -3.333333333333333e-01
 1.666666666666667e-01 -1.666666666666665e-01 -3.333333333333333e-01
 1.666666666666667e-01 -1.666666666666665e-01 -3.333333333333333e-01
 1.666666666666667e-01 -1.666666666666665e-01 -3.333333333333333e-01
 1.666666666666667e-01 -1.666666666666665e-01 -3.333333333333333e-01
 1.666666666666667e-01 -1.666666666666665e-01 -3.333333333333333e-01
 1.666666666666667e-01 -1.666666666666665e-01 -3.333333333333333e-01
 1.666666666666667e-01 -1.666666666666665e-01 -3.333333333333333e-01
 1.666666666666667e-01 -1.666666666666665e-01 -3.333333333333333e-01
 1.666666666666667e-01 -1.666666666666665e-01 -3.333333333333333e-01
 1.666666666666667e-01 -1.666666666666665e-01 -3.333333333333333e-01
 1.666666666666667e-01 -1.666666666666665e-01 -3.333333333333333e-01
 1.666666666666667e-01 -1.666666666666665e-01 -3.333333333333333e-01
 1.666666666666667e-01 -1.666666666666665e-01 -3.333333333333333e-01
 1.666666666666667e-01 -1.666666666666665e-01 -3.333333333333333e-01
 1.666666666666667e-01 -1.666666666666665e-01 -3.333333333333333e-01
 1.666666666666667e-01 -1.666666666666665e-01 -3.333333333333333e-01
 1.666666666666667e-01 -1.666666666666665e-01 -3.333333333333333e-01
 1.666666666666667e-01 -1.666666666666665e-01 -3.333333333333333e-01
 1.666666666666667e-01 -1.666666666666665e-01 -3.333333333333333e-01
 1.666666666666667e-01 -1.666666666666665e-01 -3.333333333333333e-01
 1.666666666666667e-01 -1.666666666666665e-01 -3.333333333333333e-01
 1.666666666666667e-01 -1.666666666666665e-01 -3.333333333333333e-01
 1.666666666666667e-01 -1.666666666666665e-01 -3.333333333333333e-01
 1.666666666666667e-01 -1.666666666666665e-01 -3.333333333333333e-01
 1.666666666666667e-01 -1.666666666666665e-01 -3.333333333333333e-01
 1.666666666666667e-01 -1.666666666666665e-01 -3.333333333333333e-01
 1.666666666666667e-01 -1.666666666666665e-01 -3.333333333333333e-01
 1.666666666666667e-01 -1.666666666666665e-01 -3.333333333333333e-01
 1.666666666666667e-01 -1.666666666666665e-01 -3.333333333333333e-01
 1.666666666666667e-01 -1.666666666666665e-01 -3.333333333333333e-01
 1.666666666666667e-01 -1.666666666666665e-01 -3.333333333333333e-01
 1.666666666666667e-01 -1.666666666666665e-01 -3.333333333333333e-01
 1.666666666666667e-01 -1.666666666666665e-01 -3.333333333333333e-01
 1.666666666666667e-01 -1.666666666666665e-01 -3.333333333333333e-01
 1.666666666666667e-01 -1.666666666666665e-01 -3.333333333333333e-01
 1.666666666666667e-01 -1.666666666666665e-01 -3.333333333333333e-01
 1.666666666666667e-01 -1.666666666666665e-01 -3.333333333333333e-01
 1.666666666666667e-01 -1.666666666666665e-01 -3.333333333333333e-01
 1.666666666666667e-01 -1.666666666666665e-01 -3.333333333333333e-01
 1.666666666666667e-01 -1.666666666666665e-01 -3.333333333333333e-01
 1.666666666666667e-01 -1.666666666666665e-01 -3.333333333333333e-01
 1.666666666666667e-01 -1.666666666666665e-01 -3.333333333333333e-01
-1.666666666666667e-01  1.666666666666665e-01  3.333333333333333e-01
 1.666666666666667e-01 -1.666666666666665e-01 -3.333333333333333e-01
-1.666666666666667e-01  1.666666666666665e-01  3.333333333333333e-01
-1.666666666666667e-01  1.666666666666665e-01  3.333333333333333e-01
-1.666666666666667e-01  1.666666666666665e-01  3.333333333333333e-01
-1.666666666666667e-01  1.666666666666665e-01  3.333333333333333e-01
-1.666666666666667e-01  1.666666666666665e-01  3.333333333333333e-01
-1.666666666666667e-01  1.666666666666665e-01  3.333333333333333e-01
-1.666666666666667e-01  1.666666666666665e-01  3.333333333333333e-01
-1.666666666666667e-01  1.666666666666665e-01  3.333333333333333e-01
-1.666666666666667e-01  1.666666666666665e-01  3.333333333333333e-01
-1.666666666666667e-01  1.666666666666665e-01  3.333333333333333e-01
-1.666666666666667e-01  1.666666666666665e-01  3.333333333333333e-01
-1.666666666666667e-01  1.666666666666665e-01  3.333333333333333e-01
-1.666666666666667e-01  1.666666666666665e-01  3.333333333333333e-01
-1.666666666666667e-01  1.666666666666665e-01  3.333333333333333e-01
-1.666666666666667e-01  1.666666666666665e-01  3.333333333333333e-01
-1.666666666666667e-01  1.666666666666665e-01  3.333333333333333e-01
-1.666666666666667e-01  1.666666666666665e-01  3.333333333333333e-01
-1.666666666666667e-01  1.666666666666665e-01  3.333333333333333e-01
-1.666666666666667e-01  1.666666666666665e-01  3.333333333333333e-01
-1.666666666666667e-01  1.666666666666665e-01  3.333333333333333e-01
-1.666666666666667e-01  1.666666666666665e-01  3.333333333333333e-01
-1.666666666666667e-01  1.666666666666665e-01  3.333333333333333e-01
-1.666666666666667e-01  1.666666666666665e-01  3.333333333333333e-01
-1.666666666666667e-01  1.666666666666665e-01  3.333333333333333e-01
-1.666666666666667e-01  1.666666666666665e-01  3.333333333333333e-01
-1.666666666666667e-01  1.666666666666665e-01  3.333333333333333e-01
-1.666666666666667e-01  1.666666666666665e-01  3.333333333333333e-01
-1.666666666666667e-01  1.666666666666665e-01  3.333333333333333e-01
-1.666666666666667e-01  1.666666666666665e-01  3.333333333333333e-01
-1.666666666666667e-01  1.666666666666665e-01  3.333333333333333e-01
-1.666666666666667e-01  1.666666666666665e-01  3.333333333333333e-01
-1.666666666666667e-01  1.666666666666665e-01  3.333333333333333e-01
-1.666666666666667e-01  1.666666666666665e-01  3.333333333333333e-01
-1.666666666666667e-01  1.666666666666665e-01  3.333333333333333e-01
-1.666666666666667e-01  1.666666666666665e-01  3.333333333333333e-01
-1.666666666666667e-01  1.666666666666665e-01  3.333333333333333e-01
-1.666666666666667e-01  1.666666666666665e-01  3.333333333333333e-01
-1.666666666666667e-01  1.666666666666665e-01  3.333333333333333e-01
-1.666666666666667e-01  1.666666666666665e-01  3.333333333333333e-01
-1.666666666666667e-01  1.666666666666665e-01  3.333333333333333e-01
-1.666666666666667e-01  1.666666666666665e-01  3.333333333333333e-01
-1.666666666666667e-01  1.666666666666665e-01  3.333333333333333e-01
-1.666666666666667e-01  1.666666666666665e-01  3.333333333333333e-01
-1.666666666666667e-01  1.666666666666665e-01  3.333333333333333e-01
-1.666666666666667e-01  1.666666666666665e-01  3.333333333333333e-01
-1.666666666666667e-01  1.666666666666665e-01  3.333333333333333e-01
-1.666666666666667e-01  1.666666666666665e-01  3.333333333333333e-01
-1.666666666666667e-01  1.666666666666665e-01  3.333333333333333e-01
-1.666666666666667e-01  1.666666666666665e-01  3.333333333333333e-01
-1.666666666666667e-01  1.666666666666665e-01  3.333333333333333e-01
-1.666666666666667e-01  1.666666666666665e-01  3.333333333333333e-01
-1.666666666666667e-01  1.666666666666665e-01  3.333333333333333e-01
-1.666666666666667e-01  1.666666666666665e-01  3.333333333333333e-01
-1.666666666666667e-01  1.666666666666665e-01  3.333333333333333e-01
-1.666666666666667e-01  1.666666666666665e-01  3.333333333333333e-01
-1.666666666666667e-01  1.666666666666665e-01  3.333333333333333e-01
-1.666666666666667e-01  1.666666666666665e-01  3.333333333333333e-01
-1.666666666666667e-01  1.666666666666665e-01  3.333333333333333e-01
-1.666666666666667e-01  1.666666666666665e-01  3.333333333333333e-01
-1.666666666666667e-01  1.666666666666665e-01  3.333333333333333e-01
-1.666666666666667e-01  1.666666666666665e-01  3.333333333333333e-01
-1.666666666666667e-01  1.666666666666665e-01  3.333333333333333e-01
-1.666666666666667e-01  1.666666666666665e-01  3.333333333333333e-01
-1.666666666666667e-01  1.666666666666665e-01  3.333333333333333e-01
-1.666666666666667e-01  1.666666666666665e-01  3.333333333333333e-01
-1.666666666666667e-01  1.666666666666665e-01  3.333333333333333e-01
-1.666666666666667e-01  1.666666666666665e-01  3.333333333333333e-01
-1.666666666666667e-01  1.666666666666665e-01  3.333333333333333e-01
-1.666666666666667e-01  1.666666666666665e-01  3.333333333333333e-01
-1.666666666666667e-01  1.666666666666665e-01  3.333333333333333e-01
-1.666666666666667e-01  1.666666666666665e-01  3.333333333333333e-01
-1.666666666666667e-01  1.666666666666665e-01  3.333333333333333e-01
-1.666666666666667e-01  1.666666666666665e-01  3.333333333333333e-01
-1.666666666666667e-01  1.666666666666665e-01  3.333333333333333e-01
-1.666666666666667e-01  1.666666666666665e-01  3.333333333333333e-01
-1.666666666666667e-01  1.666666666666665e-01  3.333333333333333e-01
-1.666666666666667e-01  1.666666666666665e-01  3.333333333333333e-01
-1.666666666666667e-01  1.666666666666665e-01  3.333333333333333e-01
-1.666666666666667e-01  1.666666666666665e-01  3.333333333333333e-01
-1.666666666666667e-01  1.666666666666665e-01  3.333333333333333e-01
-1.666666666666667e-01  1.666666666666665e-01  3.333333333333333e-01
-1.666666666666667e-01  1.666666666666665e-01  3.333333333333333e-01
-1.666666666666667e-01  1.666666666666665e-01  3.333333333333333e-01
-1.666666666666667e-01  1.666666666666665e-01  3.333333333333333e-01
-1.666666666666667e-01  1.666666666666665e-01  3.333333333333333e-01
-1.666666666666667e-01  1.666666666666665e-01  3.333333333333333e-01
-1.666666666666667e-01  1.666666666666665e-01  3.333333333333333e-01
-1.666666666666667e-01  1.666666666666665e-01  3.333333333333333e-01
-1.666666666666667e-01  1.666666666666665e-01  3.333333333333333e-01
-1.666666666666667e-01  1.666666666666665e-01  3.333333333333333e-01
-1.666666666666667e-01  1.666666666666665e-01  3.333333333333333e-01
-1.666666666666667e-01  1.666666666666665e-01  3.333333333333333e-01
-1.666666666666667e-01  1.666666666666665e-01  3.333333333333333e-01
-1.666666666666667e-01  1.666666666666665e-01  3.333333333333333e-01
-1.666666666666667e-01  1.666666666666665e-01  3.333333333333333e-01
-1.666666666666667e-01  1.666666666666665e-01  3.333333333333333e-01
-1.666666666666667e-01  1.666666666666665e-01  3.333333333333333e-01
-1.666666666666667e-01  1.666666666666665e-01  3.333333333333333e-01
-1.666666666666667e-01  1.666666666666665e-01  3.333333333333333e-01
-1.666666666666667e-01  1.666666666666665e-01  3.333333333333333e-01
-1.666666666666667e-01  1.666666666666665e-01  3.333333333333333e-01
-1.666666666666667e-01  1.666666666666665e-01  3.333333333333333e-01
-1.666666666666667e-01  1.666666666666665e-01  3.333333333333333e-01
-1.666666666666667e-01  1.666666666666665e-01  3.333333333333333e-01
-1.666666666666667e-01  1.666666666666665e-01  3.333333333333333e-01
-1.666666666666667e-01  1.666666666666665e-01  3.333333333333333e-01
-1.666666666666667e-01  1.666666666666665e-01  3.333333333333333e-01
-1.666666666666667e-01  1.666666666666665e-01  3.333333333333333e-01
-1.666666666666667e-01  1.666666666666665e-01  3.333333333333333e-01
-1.666666666666667e-01  1.666666666666665e-01  3.333333333333333e-01
-1.666666666666667e-01  1.666666666666665e-01  3.333333333333333e-01
-1.666666666666667e-01  1.666666666666665e-01  3.333333333333333e-01
-1.666666666666667e-01  1.666666666666665e-01  3.333333333333333e-01
-1.666666666666667e-01  1.666666666666665e-01  3.333333333333333e-01
-1.666666666666667e-01  1.666666666666665e-01  3.333333333333333e-01
-1.666666666666667e-01  1.666666666666665e-01  3.333333333333333e-01
-1.666666666666667e-01  1.666666666666665e-01  3.333333333333333e-01
-1.666666666666667e-01  1.666666666666665e-01  3.333333333333333e-01
-1.666666666666667e-01  1.666666666666665e-01  3.333333333333333e-01
-1.666666666666667e-01  1.666666666666665e-01  3.333333333333333e-01
-1.666666666666667e-01  1.666666666666665e-01  3.333333333333333e-01
-1.666666666666667e-01  1.666666666666665e-01  3.333333333333333e-01
-1.666666666666667e-01  1.666666666666665e-01  3.333333333333333e-01
-1.666666666666667e-01  1.666666666666665e-01  3.333333333333333e-01
-1.666666666666667e-01  1.666666666666665e-01  3.333333333333333e-01
-1.666666666666667e-01  1.666666666666665e-01  3.333333333333333e-01
-1.666666666666667e-01  1.666666666666665e-01  3.333333333333333e-01
-1.666666666666667e-01  1.666666666666665e-01  3.333333333333333e-01
-1.666666666666667e-01  1.666666666666665e-01  3.333333333333333e-01
-1.666666666666667e-01  1.666666666666665e-01  3.333333333333333e-01
-1.666666666666667e-01  1.666666666666665e-01  3.333333333333333e-01
-1.666666666666667e-01  1.666666666666665e-01  3.333333333333333e-01
-1.666666666666667e-01  1.666666666666665e-01  3.333333333333333e-01
-1.666666666666667e-01  1.666666666666665e-01  3.333333333333333e-01
-1.666666666666667e-01  1.666666666666665e-01  3.333333333333333e-01
-1.666666666666667e-01  1.666666666666665e-01  3.333333333333333e-01
-1.666666666666667e-01  1.666666666666665e-01  3.333333333333333e-01
-1.666666666666667e-01  1.666666666666665e-01  3.333333333333333e-01
-1.666666666666667e-01  1.666666666666665e-01  3.333333333333333e-01
-1.666666666666667e-01  1.666666666666665e-01  3.333333333333333e-01
-1.666666666666667e-01  1.666666666666665e-01  3.333333333333333e-01
-1.666666666666667e-01  1.666666666666665e-01  3.333333333333333e-01
-1.666666666666667e-01  1.666666666666665e-01  3.333333333333333e-01
-1.666666666666667e-01  1.666666666666665e-01  3.333333333333333e-01
-1.666666666666667e-01  1.666666666666665e-01  3.333333333333333e-01
-1.666666666666667e-01  1.666666666666665e-01  3.333333333333333e-01
-1.666666666666667e-01  1.666666666666665e-01  3.333333333333333e-01
-1.666666666666667e-01  1.666666666666665e-01  3.333333333333333e-01
-1.666666666666667e-01  1.666666666666665e-01  3.333333333333333e-01
-1.666666666666667e-01  1.666666666666665e-01  3.333333333333333e-01
-1.666666666666667e-01  1.666666666666665e-01  3.333333333333333e-01
 1.666666666666667e-01 -1.666666666666665e-01 -3.333333333333333e-01
-1.666666666666667e-01  1.666666666666665e-01  3.333333333333333e-01
-1.666666666666667e-01  1.666666666666665e-01  3.333333333333333e-01
-1.666666666666667e-01  1.666666666666665e-01  3.333333333333333e-01
-1.666666666666667e-01  1.666666666666665e-01  3.333333333333333e-01
-1.666666666666667e-01  1.666666666666665e-01  3.333333333333333e-01
-1.666666666666667e-01  1.666666666666665e-01  3.333333333333333e-01
-1.666666666666667e-01  1.666666666666665e-01  3.333333333333333e-01
-1.666666666666667e-01  1.666666666666665e-01  3.333333333333333e-01
-1.666666666666667e-01  1.666666666666665e-01  3.333333333333333e-01
-1.666666666666667e-01  1.666666666666665e-01  3.333333333333333e-01
-1.666666666666667e-01  1.666666666666665e-01  3.333333333333333e-01
-1.666666666666667e-01  1.666666666666665e-01  3.333333333333333e-01
-1.666666666666667e-01  1.666666666666665e-01  3.333333333333333e-01
-1.666666666666667e-01  1.666666666666665e-01  3.333333333333333e-01
-1.666666666666667e-01  1.666666666666665e-01  3.333333333333333e-01
-1.666666666666667e-01  1.666666666666665e-01  3.333333333333333e-01
-1.666666666666667e-01  1.666666666666665e-01  3.333333333333333e-01
-1.666666666666667e-01  1.666666666666665e-01  3.333333333333333e-01
-1.666666666666667e-01  1.666666666666665e-01  3.333333333333333e-01
-1.666666666666667e-01  1.666666666666665e-01  3.333333333333333e-01
-1.666666666666667e-01  1.666666666666665e-01  3.333333333333333e-01
-1.666666666666667e-01  1.666666666666665e-01  3.333333333333333e-01
-1.666666666666667e-01  1.666666666666665e-01  3.333333333333333e-01
-1.666666666666667e-01  1.666666666666665e-01  3.333333333333333e-01
-1.666666666666667e-01  1.666666666666665e-01  3.333333333333333e-01
-1.666666666666667e-01  1.666666666666665e-01  3.333333333333333e-01
-1.666666666666667e-01  1.666666666666665e-01  3.333333333333333e-01
-1.666666666666667e-01  1.666666666666665e-01  3.333333333333333e-01
-1.666666666666667e-01  1.666666666666665e-01  3.333333333333333e-01
-1.666666666666667e-01  1.666666666666665e-01  3.333333333333333e-01
-1.666666666666667e-01  1.666666666666665e-01  3.333333333333333e-01
-1.666666666666667e-01  1.666666666666665e-01  3.333333333333333e-01
-1.666666666666667e-01  1.666666666666665e-01  3.333333333333333e-01
-1.666666666666667e-01  1.666666666666665e-01  3.333333333333333e-01
-1.666666666666667e-01  1.666666666666665e-01  3.333333333333333e-01
-1.666666666666667e-01  1.666666666666665e-01  3.333333333333333e-01
-1.666666666666667e-01  1.666666666666665e-01  3.333333333333333e-01
-1.666666666666667e-01  1.666666666666665e-01  3.333333333333333e-01
-1.666666666666667e-01  1.666666666666665e-01  3.333333333333333e-01
-1.666666666666667e-01  1.666666666666665e-01  3.333333333333333e-01
-1.666666666666667e-01  1.666666666666665e-01  3.333333333333333e-01
-1.666666666666667e-01  1.666666666666665e-01  3.333333333333333e-01
-1.666666666666667e-01  1.666666666666665e-01  3.333333333333333e-01
-1.666666666666667e-01  1.666666666666665e-01  3.333333333333333e-01
-1.666666666666667e-01  1.666666666666665e-01  3.333333333333333e-01
-1.666666666666667e-01  1.666666666666665e-01  3.333333333333333e-01
-1.666666666666667e-01  1.666666666666665e-01  3.333333333333333e-01
-1.666666666666667e-01  1.666666666666665e-01  3.333333333333333e-01
-1.666666666666667e-01  1.666666666666665e-01  3.333333333333333e-01
-1.666666666666667e-01  1.666666666666665e-01  3.333333333333333e-01
-1.666666666666667e-01  1.666666666666665e-01  3.333333333333333e-01
-1.666666666666667e-01  1.666666666666665e-01  3.333333333333333e-01
-1.666666666666667e-01  1.666666666666665e-01  3.333333333333333e-01
-1.666666666666667e-01  1.666666666666665e-01  3.333333333333333e-01
-1.666666666666667e-01  1.666666666666665e-01  3.333333333333333e-01
-1.666666666666667e-01  1.666666666666665e-01  3.333333333333333e-01
-1.666666666666667e-01  1.666666666666665e-01  3.333333333333333e-01
-1.666666666666667e-01  1.666666666666665e-01  3.333333333333333e-01
-1.666666666666667e-01  1.666666666666665e-01  3.333333333333333e-01
-1.666666666666667e-01  1.666666666666665e-01  3.333333333333333e-01
-1.666666666666667e-01  1.666666666666665e-01  3.333333333333333e-01
-1.666666666666667e-01  1.666666666666665e-01  3.333333333333333e-01
-1.666666666666667e-01  1.666666666666665e-01  3.333333333333333e-01
-1.666666666666667e-01  1.666666666666665e-01  3.333333333333333e-01
-1.666666666666667e-01  1.666666666666665e-01  3.333333333333333e-01
-1.666666666666667e-01  1.666666666666665e-01  3.333333333333333e-01
-1.666666666666667e-01  1.666666666666665e-01  3.333333333333333e-01
-1.666666666666667e-01  1.666666666666665e-01  3.333333333333333e-01
-1.666666666666667e-01  1.666666666666665e-01  3.333333333333333e-01
-1.666666666666667e-01  1.666666666666665e-01  3.333333333333333e-01
-1.666666666666667e-01  1.666666666666665e-01  3.333333333333333e-01
-1.666666666666667e-01  1.666666666666665e-01  3.333333333333333e-01
-1.666666666666667e-01  1.666666666666665e-01  3.333333333333333e-01
-1.666666666666667e-01  1.666666666666665e-01  3.333333333333333e-01
-1.666666666666667e-01  1.666666666666665e-01  3.333333333333333e-01
-1.666666666666667e-01  1.666666666666665e-01  3.333333333333333e-01
-1.666666666666667e-01  1.666666666666665e-01  3.333333333333333e-01
-1.666666666666667e-01  1.666666666666665e-01  3.333333333333333e-01
-1.666666666666667e-01  1.666666666666665e-01  3.333333333333333e-01
-1.666666666666667e-01  1.666666666666665e-01  3.333333333333333e-01
-1.666666666666667e-01  1.666666666666665e-01  3.333333333333333e-01
-1.666666666666667e-01  1.666666666666665e-01  3.333333333333333e-01
-1.666666666666667e-01  1.666666666666665e-01  3.333333333333333e-01
-1.666666666666667e-01  1.666666666666665e-01  3.333333333333333e-01
-1.666666666666667e-01  1.666666666666665e-01  3.333333333333333e-01
-1.666666666666667e-01  1.666666666666665e-01  3.333333333333333e-01
-1.666666666666667e-01  1.666666666666665e-01  3.333333333333333e-01
-1.666666666666667e-01  1.666666666666665e-01  3.333333333333333e-01
-1.666666666666667e-01  1.666666666666665e-01  3.333333333333333e-01
-1.666666666666667e-01  1.666666666666665e-01  3.333333333333333e-01
-1.666666666666667e-01  1.666666666666665e-01  3.333333333333333e-01
-1.666666666666667e-01  1.666666666666665e-01  3.333333333333333e-01
-1.666666666666667e-01  1.666666666666665e-01  3.333333333333333e-01
-1.666666666666667e-01  1.666666666666665e-01  3.333333333333333e-01
-1.666666666666667e-01  1.666666666666665e-01  3.333333333333333e-01
-1.666666666666667e-01  1.666666666666665e-01  3.333333333333333e-01
-1.666666666666667e-01  1.666666666666665e-01  3.333333333333333e-01
-1.666666666666667e-01  1.666666666666665e-01  3.333333333333333e-01
-1.666666666666667e-01  1.666666666666665e-01  3.333333333333333e-01
-1.666666666666667e-01  1.666666666666665e-01  3.333333333333333e-01
-1.666666666666667e-01  1.666666666666665e-01  3.333333333333333e-01
-1.666666666666667e-01  1.666666666666665e-01  3.333333333333333e-01
-1.666666666666667e-01  1.666666666666665e-01  3.333333333333333e-01
-1.666666666666667e-01  1.666666666666665e-01  3.333333333333333e-01
-1.666666666666667e-01  1.666666666666665e-01  3.333333333333333e-01
-1.666666666666667e-01  1.666666666666665e-01  3.333333333333333e-01
-1.666666666666667e-01  1.666666666666665e-01  3.333333333333333e-01
-1.666666666666667e-01  1.666666666666665e-01  3.333333333333333e-01
-1.666666666666667e-01  1.666666666666665e-01  3.333333333333333e-01
-1.666666666666667e-01  1.666666666666665e-01  3.333333333333333e-01
-1.666666666666667e-01  1.666666666666665e-01  3.333333333333333e-01
-1.666666666666667e-01  1.666666666666665e-01  3.333333333333333e-01
-1.666666666666667e-01  1.666666666666665e-01  3.333333333333333e-01
-1.666666666666667e-01  1.666666666666665e-01  3.333333333333333e-01
-1.666666666666667e-01  1.666666666666665e-01  3.333333333333333e-01
-1.666666666666667e-01  1.666666666666665e-01  3.333333333333333e-01
-1.666666666666667e-01  1.666666666666665e-01  3.333333333333333e-01
-1.666666666666667e-01  1.666666666666665e-01  3.333333333333333e-01
-1.666666666666667e-01  1.666666666666665e-01  3.333333333333333e-01
-1.666666666666667e-01  1.666666666666665e-01  3.333333333333333e-01
-1.666666666666667e-01  1.666666666666665e-01  3.333333333333333e-01
-1.666666666666667e-01  1.666666666666665e-01  3.333333333333333e-01
-1.666666666666667e-01  1.666666666666665e-01  3.333333333333333e-01
-1.666666666666667e-01  1.666666666666665e-01  3.333333333333333e-01
-1.666666666666667e-01  1.666666666666665e-01  3.333333333333333e-01
-1.666666666666667e-01  1.666666666666665e-01  3.333333333333333e-01
-1.666666666666667e-01  1.666666666666665e-01  3.333333333333333e-01
-1.666666666666667e-01  1.666666666666665e-01  3.333333333333333e-01
-1.666666666666667e-01  1.666666666666665e-01  3.333333333333333e-01
-1.666666666666667e-01  1.666666666666665e-01  3.333333333333333e-01
-1.666666666666667e-01  1.666666666666665e-01  3.333333333333333e-01
-1.666666666666667e-01  1.666666666666665e-01  3.333333333333333e-01
-1.666666666666667e-01  1.666666666666665e-01  3.333333333333333e-01
-1.666666666666667e-01  1.666666666666665e-01  3.333333333333333e-01
-1.666666666666667e-01  1.666666666666665e-01  3.333333333333333e-01
-1.666666666666667e-01  1.666666666666665e-01  3.333333333333333e-01
-1.666666666666667e-01  1.666666666666665e-01  3.333333333333333e-01
-1.666666666666667e-01  1.666666666666665e-01  3.333333333333333e-01
-1.666666666666667e-01  1.666666666666665e-01  3.333333333333333e-01
-1.666666666666667e-01  1.666666666666665e-01  3.333333333333333e-01
-1.666666666666667e-01  1.666666666666665e-01  3.333333333333333e-01
-1.666666666666667e-01  1.666666666666665e-01  3.333333333333333e-01
-1.666666666666667e-01  1.666666666666665e-01  3.333333333333333e-01
-1.666666666666667e-01  1.666666666666665e-01  3.333333333333333e-01
-1.666666666666667e-01  1.666666666666665e-01  3.333333333333333e-01
-1.666666666666667e-01  1.666666666666665e-01  3.333333333333333e-01
-1.666666666666667e-01  1.666666666666665e-01  3.333333333333333e-01
-1.666666666666667e-01  1.666666666666665e-01  3.333333333333333e-01
-1.666666666666667e-01  1.666666666666665e-01  3.333333333333333e-01
-1.666666666666667e-01  1.666666666666665e-01  3.333333333333333e-01
-1.666666666666667e-01  1.666666666666665e-01  3.333333333333333e-01
-1.666666666666667e-01  1.666666666666665e-01  3.333333333333333e-01
