# vtk DataFile Version 3.0
# Dislocation lines converted from MoDELib file
ASCII
DATASET UNSTRUCTURED_GRID
POINTS 2954 double
-1.429999999999877e+00  3.863858941524650e+02 -2.918975276816622e+03
-1.429999999999897e+00 -3.863858941524674e+02 -2.918975276816622e+03
-1.429999999999897e+00  0.000000000000000e+00 -2.918975276816622e+03
-1.430000000000221e+00  0.000000000000000e+00  2.918975276816619e+03
-1.430000000000221e+00 -3.863858941524674e+02  2.918975276816619e+03
-1.430000000000201e+00  3.863858941524653e+02  2.918975276816619e+03
-1.148473401597226e+03  1.104902197066087e+00 -2.918975276816622e+03
-1.148508949809790e+03 -1.052655435572913e+00 -2.918975276816622e+03
-1.148617257924113e+03 -1.741557269614730e+00 -2.918975276816622e+03
-1.148551112873841e+03 -3.939002781273760e+00 -2.918975276816622e+03
-1.148429914895590e+03 -5.248569592630198e+00 -2.918975276816622e+03
-1.148465547494767e+03 -6.326376543360393e+00 -2.918975276816622e+03
-1.148511476163089e+03 -8.209160019661253e+00 -2.918975276816622e+03
-1.148527301870981e+03 -1.299193018321197e+01 -2.918975276816622e+03
-1.148446165311922e+03 -1.366519983892807e+01 -2.918975276816622e+03
-1.148370200992234e+03 -1.660939287084391e+01 -2.918975276816622e+03
-1.148191823048133e+03 -2.009582373230555e+01 -2.918975276816622e+03
-1.148386053215916e+03 -2.290411574797066e+01 -2.918975276816622e+03
-1.148349698772613e+03 -2.692794328250358e+01 -2.918975276816622e+03
-1.148201607026393e+03 -2.804534663727000e+01 -2.918975276816622e+03
-1.148149170346870e+03 -3.476320728856589e+01 -2.918975276816622e+03
-1.147859480740462e+03 -3.561114388354735e+01 -2.918975276816622e+03
-1.148163472464170e+03 -3.849323184693835e+01 -2.918975276816622e+03
-1.148852115562031e+03 -4.064065835694747e+01 -2.918975276816622e+03
-1.146949393825987e+03 -4.070899340538691e+01 -2.918975276816622e+03
-1.147900974905473e+03 -4.335177966704573e+01 -2.918975276816622e+03
-1.147628118949549e+03 -4.515013304451058e+01 -2.918975276816622e+03
-1.147058060068151e+03 -4.976505863937622e+01 -2.918975276816622e+03
-1.145802960123712e+03 -5.253282963005667e+01 -2.918975276816622e+03
-1.148028687224103e+03 -5.287282157005697e+01 -2.918975276816622e+03
-1.147944529796556e+03 -5.577682055813848e+01 -2.918975276816622e+03
-1.148254780628445e+03 -5.843969963893756e+01 -2.918975276816622e+03
-1.148049109024912e+03 -6.012792340784532e+01 -2.918975276816622e+03
-1.148018900716141e+03 -6.131871359429601e+01 -2.918975276816622e+03
-1.147931769792991e+03 -6.331715731164092e+01 -2.918975276816622e+03
-1.147908997735291e+03 -6.434745265611463e+01 -2.918975276816622e+03
-1.147804248933375e+03 -6.637761874519238e+01 -2.918975276816622e+03
-1.147939153424003e+03 -6.741090101884826e+01 -2.918975276816622e+03
-1.147790190069694e+03 -6.993949405867905e+01 -2.918975276816622e+03
-1.147778761466104e+03 -7.060963754038809e+01 -2.918975276816622e+03
-1.147743522396839e+03 -7.211786878663798e+01 -2.918975276816622e+03
-1.147997029476191e+03 -7.418707111675104e+01 -2.918975276816622e+03
-1.147748288264559e+03 -7.529024135303877e+01 -2.918975276816622e+03
-1.147626760148995e+03 -7.632462588204322e+01 -2.918975276816622e+03
-1.147918585710591e+03 -7.831018994039985e+01 -2.918975276816622e+03
-1.147902670811075e+03 -8.029269756096400e+01 -2.918975276816622e+03
-1.146860160817378e+03 -8.132368307493890e+01 -2.918975276816622e+03
-1.147515826510875e+03 -8.371951505913438e+01 -2.918975276816622e+03
-1.148230513013487e+03 -8.518638257940032e+01 -2.918975276816622e+03
-1.147760307914276e+03 -8.745741470842627e+01 -2.918975276816622e+03
-1.147551911844901e+03 -8.950954857388862e+01 -2.918975276816622e+03
-1.147724254156923e+03 -9.041501512232323e+01 -2.918975276816622e+03
-1.147720362610333e+03 -9.211844204731955e+01 -2.918975276816622e+03
-1.147700994165918e+03 -9.485526119879783e+01 -2.918975276816622e+03
-1.147629896742489e+03 -9.555338264932243e+01 -2.918975276816622e+03
-1.147725259985722e+03 -9.845306674146617e+01 -2.918975276816622e+03
-1.147644088741929e+03 -1.003483506343720e+02 -2.918975276816622e+03
-1.147508844068854e+03 -1.013858259972744e+02 -2.918975276816622e+03
-1.147580660365264e+03 -1.032439973500129e+02 -2.918975276816622e+03
-1.147733339743670e+03 -1.042468762001993e+02 -2.918975276816622e+03
-1.147601113440829e+03 -1.062367366604935e+02 -2.918975276816622e+03
-1.147604176013897e+03 -1.072787679367629e+02 -2.918975276816622e+03
-1.147537332475984e+03 -1.097279033806303e+02 -2.918975276816622e+03
-1.147622462888459e+03 -1.105326083757894e+02 -2.918975276816622e+03
-1.147508531160419e+03 -1.122565887549897e+02 -2.918975276816622e+03
-1.147564580017928e+03 -1.141212994615994e+02 -2.918975276816622e+03
-1.147546241098813e+03 -1.141953959168602e+02 -2.918975276816622e+03
-1.147606259775585e+03 -1.157503795924015e+02 -2.918975276816622e+03
-1.147536458526057e+03 -1.183314559931501e+02 -2.918975276816622e+03
-1.147600298166621e+03 -1.201223755627248e+02 -2.918975276816622e+03
-1.147567226664221e+03 -1.213457472515735e+02 -2.918975276816622e+03
-1.147574936691124e+03 -1.236108296244979e+02 -2.918975276816622e+03
-1.147527008769413e+03 -1.248575915483688e+02 -2.918975276816622e+03
-1.147504690265128e+03 -1.295122537444521e+02 -2.918975276816622e+03
-1.147791214637362e+03 -1.297286391573474e+02 -2.918975276816622e+03
-1.148427720201545e+03 -1.319971426670985e+02 -2.918975276816622e+03
-1.147645537948794e+03 -1.341211081491157e+02 -2.918975276816622e+03
-1.147543216441680e+03 -1.343750163685202e+02 -2.918975276816622e+03
-1.147585640190113e+03 -1.357604192715941e+02 -2.918975276816622e+03
-1.147574153388805e+03 -1.383931062747342e+02 -2.918975276816622e+03
-1.147657487324935e+03 -1.400660945073696e+02 -2.918975276816622e+03
-1.147822165121320e+03 -1.412806424853704e+02 -2.918975276816622e+03
-1.147694632749013e+03 -1.431656427460067e+02 -2.918975276816622e+03
-1.147545240324287e+03 -1.441580997872401e+02 -2.918975276816622e+03
-1.147667496645817e+03 -1.461393649313351e+02 -2.918975276816622e+03
-1.147646969107909e+03 -1.471543451301262e+02 -2.918975276816622e+03
-1.147718083768448e+03 -1.496592414594878e+02 -2.918975276816622e+03
-1.147852883084665e+03 -1.503618274944179e+02 -2.918975276816622e+03
-1.147776999328659e+03 -1.520371770870636e+02 -2.918975276816622e+03
-1.147750522843771e+03 -1.540285849699562e+02 -2.918975276816622e+03
-1.147771517366452e+03 -1.540620891555009e+02 -2.918975276816622e+03
-1.147776083347853e+03 -1.559575009499728e+02 -2.918975276816622e+03
-1.147819868129472e+03 -1.601707062619603e+02 -2.918975276816622e+03
-1.147832949007656e+03 -1.612250283907721e+02 -2.918975276816622e+03
-1.147866874963662e+03 -1.631883787891143e+02 -2.918975276816622e+03
-1.147865802473213e+03 -1.647264634960499e+02 -2.918975276816622e+03
-1.147899883738930e+03 -1.723225749240766e+02 -2.918975276816622e+03
-1.147938650404657e+03 -1.756641210080374e+02 -2.918975276816622e+03
-1.147983258647870e+03 -1.783160255280566e+02 -2.918975276816622e+03
-1.147977996833032e+03 -1.802137670388833e+02 -2.918975276816622e+03
-1.147961248420705e+03 -1.812738820311132e+02 -2.918975276816622e+03
-1.147982823680884e+03 -1.831428915694951e+02 -2.918975276816622e+03
-1.148046128404395e+03 -1.847062445000862e+02 -2.918975276816622e+03
-1.148066919683345e+03 -1.894889064852010e+02 -2.918975276816622e+03
-1.148002110447101e+03 -1.901228114236796e+02 -2.918975276816622e+03
-1.147984624821550e+03 -1.919408295494960e+02 -2.918975276816622e+03
-1.147925119687073e+03 -1.938987326604198e+02 -2.918975276816622e+03
-1.148054970625459e+03 -1.942966942701964e+02 -2.918975276816622e+03
-1.148014904605157e+03 -1.960477861831228e+02 -2.918975276816622e+03
-1.148013453313370e+03 -2.000599447078757e+02 -2.918975276816622e+03
-1.147917514375551e+03 -2.010821219972395e+02 -2.918975276816622e+03
-1.148014936164885e+03 -2.030841947309240e+02 -2.918975276816622e+03
-1.148005522091770e+03 -2.040536944874834e+02 -2.918975276816622e+03
-1.147995353652542e+03 -2.060197022998858e+02 -2.918975276816622e+03
-1.147832218060633e+03 -2.070721882804658e+02 -2.918975276816622e+03
-1.147910596957606e+03 -2.096194308677339e+02 -2.918975276816622e+03
-1.148058173136504e+03 -2.104080646759212e+02 -2.918975276816622e+03
-1.147940011980929e+03 -2.124200785040953e+02 -2.918975276816622e+03
-1.147768308395498e+03 -2.155980601018984e+02 -2.918975276816622e+03
-1.147875314799820e+03 -2.182425262779762e+02 -2.918975276816622e+03
-1.147823895322930e+03 -2.200930471233074e+02 -2.918975276816622e+03
-1.147739952880429e+03 -2.212143867985722e+02 -2.918975276816622e+03
-1.147488164959939e+03 -2.231259549548246e+02 -2.918975276816622e+03
-1.147689820634621e+03 -2.246429062981299e+02 -2.918975276816622e+03
-1.147512426392742e+03 -2.294545708021343e+02 -2.918975276816622e+03
-1.147441944953999e+03 -2.301869097321758e+02 -2.918975276816622e+03
-1.147333530009851e+03 -2.319840970358357e+02 -2.918975276816622e+03
-1.147155245369775e+03 -2.337688372683237e+02 -2.918975276816622e+03
-1.147329214083002e+03 -2.339108713180430e+02 -2.918975276816622e+03
-1.147417345452543e+03 -2.355555271779257e+02 -2.918975276816622e+03
-1.147286321161431e+03 -2.381255527520711e+02 -2.918975276816622e+03
-1.147564271475522e+03 -2.401184368491535e+02 -2.918975276816622e+03
-1.147641533380757e+03 -2.411839618572773e+02 -2.918975276816622e+03
-1.147737573964365e+03 -2.431470438551113e+02 -2.918975276816622e+03
-1.147833763359693e+03 -2.444664701608158e+02 -2.918975276816622e+03
-1.147912494173220e+03 -2.470168234233234e+02 -2.918975276816622e+03
-1.147768518093252e+03 -2.470570437873179e+02 -2.918975276816622e+03
-1.147574897910022e+03 -2.497851597396126e+02 -2.918975276816622e+03
-1.147772137694259e+03 -2.507528073171142e+02 -2.918975276816622e+03
-1.148096991795905e+03 -2.516550059953703e+02 -2.918975276816622e+03
-1.147810152211369e+03 -2.538743316174712e+02 -2.918975276816622e+03
-1.147779225957721e+03 -2.551936723304196e+02 -2.918975276816622e+03
-1.147836846805017e+03 -2.574882100831455e+02 -2.918975276816622e+03
-1.147757402196416e+03 -2.577455494385324e+02 -2.918975276816622e+03
-1.147779570770921e+03 -2.601475962853486e+02 -2.918975276816622e+03
-1.147804570935683e+03 -2.609344886242187e+02 -2.918975276816622e+03
-1.147811584642743e+03 -2.634051336672895e+02 -2.918975276816622e+03
-1.147826271487274e+03 -2.661323268037638e+02 -2.918975276816622e+03
-1.147836050035152e+03 -2.710877750600466e+02 -2.918975276816622e+03
-1.147872342337912e+03 -2.738736885787956e+02 -2.918975276816622e+03
-1.147854129388428e+03 -2.755621222779800e+02 -2.918975276816622e+03
-1.147831663071216e+03 -2.773757877832959e+02 -2.918975276816622e+03
-1.147911453578230e+03 -2.802810476646299e+02 -2.918975276816622e+03
-1.147969008504126e+03 -2.843446222986574e+02 -2.918975276816622e+03
-1.147830778983143e+03 -2.858596630813925e+02 -2.918975276816622e+03
-1.147743952142022e+03 -2.877678917225515e+02 -2.918975276816622e+03
-1.147953107363993e+03 -2.950736415035509e+02 -2.918975276816622e+03
-1.147953163691787e+03 -2.986175073803310e+02 -2.918975276816622e+03
-1.147909624728163e+03 -3.003118075484275e+02 -2.918975276816622e+03
-1.147908517616086e+03 -3.036468718316282e+02 -2.918975276816622e+03
-1.147898735823749e+03 -3.042733604092007e+02 -2.918975276816622e+03
-1.147843806045768e+03 -3.073855516128114e+02 -2.918975276816622e+03
-1.147839706244841e+03 -3.106710408149311e+02 -2.918975276816622e+03
-1.147812766989434e+03 -3.139505020457654e+02 -2.918975276816622e+03
-1.147744571712546e+03 -3.181091744459243e+02 -2.918975276816622e+03
-1.147644023747471e+03 -3.231523365847108e+02 -2.918975276816622e+03
-1.147415278751114e+03 -3.266239221985128e+02 -2.918975276816622e+03
-1.147457685190213e+03 -3.266349965964334e+02 -2.918975276816622e+03
-1.147738352477099e+03 -3.304413793244218e+02 -2.918975276816622e+03
-1.147668622764979e+03 -3.340844843414112e+02 -2.918975276816622e+03
-1.147709453150456e+03 -3.348337649965543e+02 -2.918975276816622e+03
-1.147692679769839e+03 -3.387127648250449e+02 -2.918975276816622e+03
-1.147774877158134e+03 -3.432151075049266e+02 -2.918975276816622e+03
-1.147795327154190e+03 -3.472149113827334e+02 -2.918975276816622e+03
-1.147772598745437e+03 -3.479317313008045e+02 -2.918975276816622e+03
-1.147844021762647e+03 -3.528658626186663e+02 -2.918975276816622e+03
-1.147828609901348e+03 -3.543973909908904e+02 -2.918975276816622e+03
-1.147756170512153e+03 -3.583847985028688e+02 -2.918975276816622e+03
-1.147897531974639e+03 -3.621293840385181e+02 -2.918975276816622e+03
-1.148055637340684e+03 -3.696697186456517e+02 -2.918975276816622e+03
-1.147980254262422e+03 -3.717835560537591e+02 -2.918975276816622e+03
-1.147984575554300e+03 -3.741009806263882e+02 -2.918975276816622e+03
-1.147989968947295e+03 -3.743965324611744e+02 -2.918975276816622e+03
-1.148000119522548e+03 -3.763774798852803e+02 -2.918975276816622e+03
-1.148000360082701e+03 -3.775423500044985e+02 -2.918975276816622e+03
-1.148030403941280e+03 -3.796411006451218e+02 -2.918975276816622e+03
-1.148009631853422e+03 -3.799742639206551e+02 -2.918975276816622e+03
-1.147808720414414e+03 -3.823243152493467e+02 -2.918975276816622e+03
-1.147969752173899e+03 -3.860525012897587e+02 -2.918975276816622e+03
-1.148517925488452e+03  3.832786386313476e+02 -2.918975276816622e+03
-1.147615914788542e+03  3.785386113362634e+02 -2.918975276816622e+03
-1.147806994924717e+03  3.771435912372165e+02 -2.918975276816622e+03
-1.148320871742087e+03  3.764623045262831e+02 -2.918975276816622e+03
-1.148008864577674e+03  3.737190072711615e+02 -2.918975276816622e+03
-1.147646698085545e+03  3.684901613840962e+02 -2.918975276816622e+03
-1.149008054212342e+03  3.599542489618327e+02 -2.918975276816622e+03
-1.147810784215863e+03  3.581731439273810e+02 -2.918975276816622e+03
-1.147532047237864e+03  3.548131624557643e+02 -2.918975276816622e+03
-1.147727822478883e+03  3.527670145919614e+02 -2.918975276816622e+03
-1.148006142520933e+03  3.510091770770559e+02 -2.918975276816622e+03
-1.147994449318275e+03  3.485408393708135e+02 -2.918975276816622e+03
-1.148006024358991e+03  3.459043105783800e+02 -2.918975276816622e+03
-1.147848601544196e+03  3.443479615352474e+02 -2.918975276816622e+03
-1.147934961173406e+03  3.413822948849267e+02 -2.918975276816622e+03
-1.147983460045951e+03  3.404324970900543e+02 -2.918975276816622e+03
-1.147971668638611e+03  3.383490743423668e+02 -2.918975276816622e+03
-1.147692986526757e+03  3.296869857421589e+02 -2.918975276816622e+03
-1.147720983853334e+03  3.276906372925682e+02 -2.918975276816622e+03
-1.147702404261619e+03  3.260477824792746e+02 -2.918975276816622e+03
-1.147588195927173e+03  3.234679274302382e+02 -2.918975276816622e+03
-1.147597780960698e+03  3.234207482442053e+02 -2.918975276816622e+03
-1.147835576290760e+03  3.209104585963267e+02 -2.918975276816622e+03
-1.147922814842923e+03  3.200708696568174e+02 -2.918975276816622e+03
-1.147754407349334e+03  3.172217183668988e+02 -2.918975276816622e+03
-1.147922508088470e+03  3.132496868413821e+02 -2.918975276816622e+03
-1.147796962147797e+03  3.098680837322053e+02 -2.918975276816622e+03
-1.147695813496922e+03  3.073068880606113e+02 -2.918975276816622e+03
-1.147907136720633e+03  3.053946649522240e+02 -2.918975276816622e+03
-1.148675727749101e+03  3.033621364144683e+02 -2.918975276816622e+03
-1.147932875379388e+03  3.011911745919977e+02 -2.918975276816622e+03
-1.147874918447981e+03  2.936929437786299e+02 -2.918975276816622e+03
-1.147880763068165e+03  2.890540843495153e+02 -2.918975276816622e+03
-1.147884586875804e+03  2.885603742572016e+02 -2.918975276816622e+03
-1.147891285826755e+03  2.862413849666720e+02 -2.918975276816622e+03
-1.147883031087984e+03  2.831822087991835e+02 -2.918975276816622e+03
-1.147910490079374e+03  2.820407872167622e+02 -2.918975276816622e+03
-1.147886036472441e+03  2.800981170855154e+02 -2.918975276816622e+03
-1.147889322954611e+03  2.780113934889932e+02 -2.918975276816622e+03
-1.147880187650955e+03  2.761735595607021e+02 -2.918975276816622e+03
-1.147911858539170e+03  2.756777533198205e+02 -2.918975276816622e+03
-1.147850400583691e+03  2.742089577411265e+02 -2.918975276816622e+03
-1.147730538862174e+03  2.717421408423640e+02 -2.918975276816622e+03
-1.147926155132186e+03  2.709645840884876e+02 -2.918975276816622e+03
-1.147952614777197e+03  2.691435252258084e+02 -2.918975276816622e+03
-1.147865849829990e+03  2.666825285412824e+02 -2.918975276816622e+03
-1.147653736084996e+03  2.655689474742677e+02 -2.918975276816622e+03
-1.147494956859916e+03  2.630394161453295e+02 -2.918975276816622e+03
-1.147757093402935e+03  2.610292308549473e+02 -2.918975276816622e+03
-1.147927480927759e+03  2.599889900386328e+02 -2.918975276816622e+03
-1.148037037577944e+03  2.580459517517465e+02 -2.918975276816622e+03
-1.147516254808531e+03  2.567063150844187e+02 -2.918975276816622e+03
-1.147588232038724e+03  2.513746489841163e+02 -2.918975276816622e+03
-1.147871245799676e+03  2.502331308610931e+02 -2.918975276816622e+03
-1.147759984736969e+03  2.494517014930435e+02 -2.918975276816622e+03
-1.147639613030914e+03  2.471171771357701e+02 -2.918975276816622e+03
-1.147779459846604e+03  2.457630693645382e+02 -2.918975276816622e+03
-1.147711657515749e+03  2.435331080838409e+02 -2.918975276816622e+03
-1.147640295462904e+03  2.432832142330253e+02 -2.918975276816622e+03
-1.147547384565835e+03  2.406704542420194e+02 -2.918975276816622e+03
-1.147713375146975e+03  2.400315708172188e+02 -2.918975276816622e+03
-1.147487363412254e+03  2.385303429618924e+02 -2.918975276816622e+03
-1.147445484030406e+03  2.362855460535798e+02 -2.918975276816622e+03
-1.147392236531188e+03  2.353700809155365e+02 -2.918975276816622e+03
-1.147127901593010e+03  2.340412282730811e+02 -2.918975276816622e+03
-1.146646647763466e+03  2.319459586426030e+02 -2.918975276816622e+03
-1.146346617436503e+03  2.315454344330007e+02 -2.918975276816622e+03
-1.146575457165715e+03  2.299251930692913e+02 -2.918975276816622e+03
-1.146930932644495e+03  2.271598315278446e+02 -2.918975276816622e+03
-1.145905129043231e+03  2.262507540723424e+02 -2.918975276816622e+03
-1.147224576404720e+03  2.243587006311822e+02 -2.918975276816622e+03
-1.147604566797401e+03  2.232995026634601e+02 -2.918975276816622e+03
-1.147614334860262e+03  2.200874295725189e+02 -2.918975276816622e+03
-1.147622619294820e+03  2.168148178290712e+02 -2.918975276816622e+03
-1.146971980138029e+03  2.164378430265409e+02 -2.918975276816622e+03
-1.146404688573880e+03  2.143989581277008e+02 -2.918975276816622e+03
-1.147061204173250e+03  2.132700320888059e+02 -2.918975276816622e+03
-1.147097408526089e+03  2.119759325225586e+02 -2.918975276816622e+03
-1.147046881653368e+03  2.102044626485532e+02 -2.918975276816622e+03
-1.147311491471903e+03  2.093467036655915e+02 -2.918975276816622e+03
-1.146929521236101e+03  2.072447720569432e+02 -2.918975276816622e+03
-1.146830071666913e+03  2.050665877224528e+02 -2.918975276816622e+03
-1.147094156213839e+03  2.028204637983412e+02 -2.918975276816622e+03
-1.145779141375371e+03  2.027971070364321e+02 -2.918975276816622e+03
-1.146761989060982e+03  1.985958530741386e+02 -2.918975276816622e+03
-1.146813689240771e+03  1.962481601546146e+02 -2.918975276816622e+03
-1.147057662464026e+03  1.921922390139972e+02 -2.918975276816622e+03
-1.147121785877478e+03  1.902522730809798e+02 -2.918975276816622e+03
-1.147202808156775e+03  1.891426866329272e+02 -2.918975276816622e+03
-1.147120730645616e+03  1.872485225430948e+02 -2.918975276816622e+03
-1.146866078112406e+03  1.862749427229157e+02 -2.918975276816622e+03
-1.147040205897505e+03  1.844411692580099e+02 -2.918975276816622e+03
-1.147123486740876e+03  1.833546735385786e+02 -2.918975276816622e+03
-1.146901835579489e+03  1.805293322394283e+02 -2.918975276816622e+03
-1.146709491979091e+03  1.789516137492787e+02 -2.918975276816622e+03
-1.147172552289099e+03  1.783160135263668e+02 -2.918975276816622e+03
-1.147270277855418e+03  1.760851284056200e+02 -2.918975276816622e+03
-1.146851099007468e+03  1.760728867500501e+02 -2.918975276816622e+03
-1.146815280017757e+03  1.734988053088221e+02 -2.918975276816622e+03
-1.147192442253437e+03  1.718198781736249e+02 -2.918975276816622e+03
-1.147118534941112e+03  1.701911367818618e+02 -2.918975276816622e+03
-1.147093440636197e+03  1.690552381876778e+02 -2.918975276816622e+03
-1.147158654798644e+03  1.674050288882016e+02 -2.918975276816622e+03
-1.147053571092050e+03  1.662631745765190e+02 -2.918975276816622e+03
-1.146876571352794e+03  1.643175101233667e+02 -2.918975276816622e+03
-1.147896735559748e+03  1.634905508026214e+02 -2.918975276816622e+03
-1.147275513341143e+03  1.609708284758452e+02 -2.918975276816622e+03
-1.146897439815199e+03  1.604627668311533e+02 -2.918975276816622e+03
-1.146959023785999e+03  1.582063186670972e+02 -2.918975276816622e+03
-1.146767408419653e+03  1.531915752270125e+02 -2.918975276816622e+03
-1.147138581107384e+03  1.516493592912645e+02 -2.918975276816622e+03
-1.147567622092383e+03  1.499044300995268e+02 -2.918975276816622e+03
-1.147061733965039e+03  1.491353690617333e+02 -2.918975276816622e+03
-1.146684193174611e+03  1.474821383368176e+02 -2.918975276816622e+03
-1.147139180259537e+03  1.463280821478092e+02 -2.918975276816622e+03
-1.147235170368318e+03  1.443588406856254e+02 -2.918975276816622e+03
-1.147141324330018e+03  1.433130287304278e+02 -2.918975276816622e+03
-1.147182675140462e+03  1.409950051444870e+02 -2.918975276816622e+03
-1.147179904680803e+03  1.407823496665889e+02 -2.918975276816622e+03
-1.147167189022933e+03  1.386095746227583e+02 -2.918975276816622e+03
-1.147098532077343e+03  1.370697604426952e+02 -2.918975276816622e+03
-1.147214096437911e+03  1.365723908444240e+02 -2.918975276816622e+03
-1.147512648231381e+03  1.340718218902292e+02 -2.918975276816622e+03
-1.147591044631993e+03  1.330181432660004e+02 -2.918975276816622e+03
-1.147368656292772e+03  1.304303710069015e+02 -2.918975276816622e+03
-1.147065200971088e+03  1.293563486871234e+02 -2.918975276816622e+03
-1.146465947894297e+03  1.276299266433004e+02 -2.918975276816622e+03
-1.147039814075573e+03  1.256586218760556e+02 -2.918975276816622e+03
-1.147175370653771e+03  1.211061243364102e+02 -2.918975276816622e+03
-1.147592572785783e+03  1.201440985133462e+02 -2.918975276816622e+03
-1.147885881382052e+03  1.178520094892297e+02 -2.918975276816622e+03
-1.147363608021553e+03  1.148445467899476e+02 -2.918975276816622e+03
-1.147529098697393e+03  1.128589022178879e+02 -2.918975276816622e+03
-1.147942695406048e+03  1.119752684269399e+02 -2.918975276816622e+03
-1.147711091679580e+03  1.104208377648543e+02 -2.918975276816622e+03
-1.147113201365980e+03  1.094949621326751e+02 -2.918975276816622e+03
-1.147541190180676e+03  1.070343595381342e+02 -2.918975276816622e+03
-1.147746440689336e+03  1.060289380270945e+02 -2.918975276816622e+03
-1.147664467882631e+03  1.047428798474990e+02 -2.918975276816622e+03
-1.147507908719371e+03  1.034394285030975e+02 -2.918975276816622e+03
-1.147841995638687e+03  1.010530390748711e+02 -2.918975276816622e+03
-1.147696292246417e+03  9.996272758371897e+01 -2.918975276816622e+03
-1.147729773201295e+03  9.862749181423229e+01 -2.918975276816622e+03
-1.147726473903930e+03  9.706996685146049e+01 -2.918975276816622e+03
-1.147796057917465e+03  9.517710871916586e+01 -2.918975276816622e+03
-1.147647519250065e+03  9.149042262236006e+01 -2.918975276816622e+03
-1.147760566956012e+03  8.882018622997860e+01 -2.918975276816622e+03
-1.147776617423916e+03  8.565070561082700e+01 -2.918975276816622e+03
-1.147764627566903e+03  8.233430314977956e+01 -2.918975276816622e+03
-1.147718398764481e+03  8.086844071081347e+01 -2.918975276816622e+03
-1.147746616322675e+03  7.895372352054684e+01 -2.918975276816622e+03
-1.147781708819821e+03  7.617674276829608e+01 -2.918975276816622e+03
-1.147742733227199e+03  7.382346087484127e+01 -2.918975276816622e+03
-1.147785316855538e+03  7.168830120478620e+01 -2.918975276816622e+03
-1.147733203128386e+03  7.060236240658098e+01 -2.918975276816622e+03
-1.147706432109343e+03  6.816805748739249e+01 -2.918975276816622e+03
-1.147801073985591e+03  6.759384140132882e+01 -2.918975276816622e+03
-1.147810680826078e+03  6.561919907337115e+01 -2.918975276816622e+03
-1.147808707877795e+03  6.196916332352450e+01 -2.918975276816622e+03
-1.148760315746035e+03  5.498420837953732e+01 -2.918975276816622e+03
-1.147296568567607e+03  5.301284012842149e+01 -2.918975276816622e+03
-1.147851506084912e+03  5.132429230124369e+01 -2.918975276816622e+03
-1.147996484356197e+03  4.950877647711939e+01 -2.918975276816622e+03
-1.147898540180563e+03  4.739919815111847e+01 -2.918975276816622e+03
-1.148163272855632e+03  4.456624860277493e+01 -2.918975276816622e+03
-1.148547381168083e+03  4.177309195838900e+01 -2.918975276816622e+03
-1.147236285398171e+03  3.980396191232264e+01 -2.918975276816622e+03
-1.147965114964864e+03  3.821981346351871e+01 -2.918975276816622e+03
-1.148243409638685e+03  3.544191138163490e+01 -2.918975276816622e+03
-1.148264270182828e+03  3.169151858268087e+01 -2.918975276816622e+03
-1.148380346598410e+03  2.906981852068528e+01 -2.918975276816622e+03
-1.148714319705395e+03  2.321664158572548e+01 -2.918975276816622e+03
-1.148422095980986e+03  2.286952009618293e+01 -2.918975276816622e+03
-1.148236332164813e+03  2.119046058244876e+01 -2.918975276816622e+03
-1.148307023657274e+03  2.014535379272315e+01 -2.918975276816622e+03
-1.148488994402891e+03  1.800532117960499e+01 -2.918975276816622e+03
-1.149257902735772e+03  1.633813415929098e+01 -2.918975276816622e+03
-1.148259152339155e+03  1.379561634422786e+01 -2.918975276816622e+03
-1.148510453595536e+03  7.651377695962689e+00 -2.918975276816622e+03
-1.148622672666253e+03  6.191643587560522e+00 -2.918975276816622e+03
-1.148523868041445e+03  5.227741855247372e+00 -2.918975276816622e+03
1.145762025595707e+03 5.235608233268954e-01 2.918975276816622e+03
1.145803605199232e+03 1.703102993638277e-01 2.918975276816622e+03
 1.146038841868872e+03 -9.047704636800721e-01  2.918975276816622e+03
 1.145830288060824e+03 -3.521131834560889e+00  2.918975276816622e+03
 1.145680897349542e+03 -4.445256645824526e+00  2.918975276816622e+03
 1.145827519717145e+03 -8.832582491285967e+00  2.918975276816622e+03
 1.145653941216916e+03 -9.850950792326007e+00  2.918975276816622e+03
 1.145544388614336e+03 -1.176989541804503e+01  2.918975276816622e+03
 1.145556695591967e+03 -1.343041818736845e+01  2.918975276816622e+03
 1.145567378183058e+03 -1.702100909487722e+01  2.918975276816622e+03
 1.145306560184794e+03 -2.153960989073225e+01  2.918975276816622e+03
 1.145333940618427e+03 -2.385652143581670e+01  2.918975276816622e+03
 1.145239227747231e+03 -2.614632902614365e+01  2.918975276816622e+03
 1.145012280883773e+03 -2.778782062398064e+01  2.918975276816622e+03
 1.145108250381565e+03 -2.979373375675737e+01  2.918975276816622e+03
 1.144960580112335e+03 -3.015703769472682e+01  2.918975276816622e+03
 1.144703834194423e+03 -3.190666964481496e+01  2.918975276816622e+03
 1.145139505436378e+03 -3.332822780360001e+01  2.918975276816622e+03
 1.145098809354447e+03 -3.800718132053981e+01  2.918975276816622e+03
 1.145074591812015e+03 -3.935932388365572e+01  2.918975276816622e+03
 1.145596612869511e+03 -4.204742136492746e+01  2.918975276816622e+03
 1.145362149325744e+03 -4.468721066144352e+01  2.918975276816622e+03
 1.144854733578113e+03 -4.553803358401206e+01  2.918975276816622e+03
 1.144988590916267e+03 -4.750401157411180e+01  2.918975276816622e+03
 1.145798276101345e+03 -4.954303074881083e+01  2.918975276816622e+03
 1.144896565912763e+03 -5.033447872820090e+01  2.918975276816622e+03
 1.144412300877229e+03 -5.375087381643090e+01  2.918975276816622e+03
 1.144601164410516e+03 -5.487139069842104e+01  2.918975276816622e+03
 1.144787918931770e+03 -5.633667539645909e+01  2.918975276816622e+03
 1.144963789517711e+03 -5.866029340539799e+01  2.918975276816622e+03
 1.144871424564951e+03 -6.038664045501216e+01  2.918975276816622e+03
 1.144899649641762e+03 -6.238134682253388e+01  2.918975276816622e+03
 1.144762611916361e+03 -6.371348817385157e+01  2.918975276816622e+03
 1.144883784173176e+03 -6.462529329826873e+01  2.918975276816622e+03
 1.144815227241914e+03 -6.539820963706728e+01  2.918975276816622e+03
 1.144881176205215e+03 -6.694849088977212e+01  2.918975276816622e+03
 1.144824747920072e+03 -6.858295732731763e+01  2.918975276816622e+03
 1.144842304028710e+03 -7.029188369554805e+01  2.918975276816622e+03
 1.144877016762948e+03 -7.501370403792201e+01  2.918975276816622e+03
 1.144979509513096e+03 -7.872429589050621e+01  2.918975276816622e+03
 1.144901325474910e+03 -8.070548317953435e+01  2.918975276816622e+03
 1.144910767662204e+03 -8.229719901293140e+01  2.918975276816622e+03
 1.144890106850572e+03 -8.397366616149660e+01  2.918975276816622e+03
 1.144942534490388e+03 -8.500936808952960e+01  2.918975276816622e+03
 1.144954177600120e+03 -8.509804504247489e+01  2.918975276816622e+03
 1.144965455943991e+03 -8.617243575272040e+01  2.918975276816622e+03
 1.144954814518438e+03 -8.724974904874685e+01  2.918975276816622e+03
 1.145245061739817e+03 -8.889126327443856e+01  2.918975276816622e+03
 1.144816098874404e+03 -9.021248306969321e+01  2.918975276816622e+03
 1.144690629855345e+03 -9.473387042275165e+01  2.918975276816622e+03
 1.145047762097958e+03 -9.802036189487126e+01  2.918975276816622e+03
 1.145092159372330e+03 -9.937719235143554e+01  2.918975276816622e+03
 1.144890118190892e+03 -1.017477820449008e+02  2.918975276816622e+03
 1.144997906883862e+03 -1.027955610391620e+02  2.918975276816622e+03
 1.145008677953368e+03 -1.041375318426291e+02  2.918975276816622e+03
 1.144977994487674e+03 -1.042588460400146e+02  2.918975276816622e+03
 1.144942309881015e+03 -1.055367006599600e+02  2.918975276816622e+03
 1.144980804138755e+03 -1.063490044218269e+02  2.918975276816622e+03
 1.144897383523914e+03 -1.075159000414194e+02  2.918975276816622e+03
 1.144744523664687e+03 -1.099993176649714e+02  2.918975276816622e+03
 1.144916000773583e+03 -1.101903578718798e+02  2.918975276816622e+03
 1.144853854763367e+03 -1.145886567641606e+02  2.918975276816622e+03
 1.144778291745402e+03 -1.194496516013920e+02  2.918975276816622e+03
 1.144778084288390e+03 -1.217885568252114e+02  2.918975276816622e+03
 1.144766181560232e+03 -1.264639905131104e+02  2.918975276816622e+03
 1.144665653492099e+03 -1.287409265494037e+02  2.918975276816622e+03
 1.144734505992649e+03 -1.302032673982350e+02  2.918975276816622e+03
 1.144957209625674e+03 -1.347692754271520e+02  2.918975276816622e+03
 1.144802083078834e+03 -1.379731777361486e+02  2.918975276816622e+03
 1.144665265100190e+03 -1.392835588075783e+02  2.918975276816622e+03
 1.144782018136637e+03 -1.430065306424244e+02  2.918975276816622e+03
 1.144724997591889e+03 -1.448018235850794e+02  2.918975276816622e+03
 1.144741073273973e+03 -1.468268220091589e+02  2.918975276816622e+03
 1.144971955692425e+03 -1.487998136685538e+02  2.918975276816622e+03
 1.145032710905035e+03 -1.502636529389848e+02  2.918975276816622e+03
 1.144528502417219e+03 -1.549527910760897e+02  2.918975276816622e+03
 1.144244458506322e+03 -1.586893154039927e+02  2.918975276816622e+03
 1.144867304769490e+03 -1.604957876706313e+02  2.918975276816622e+03
 1.144959275822536e+03 -1.621615140071592e+02  2.918975276816622e+03
 1.144902776296878e+03 -1.639397423187175e+02  2.918975276816622e+03
 1.144858230546381e+03 -1.651463262425201e+02  2.918975276816622e+03
 1.144818233687593e+03 -1.655882666150337e+02  2.918975276816622e+03
 1.144856163666017e+03 -1.671754159393014e+02  2.918975276816622e+03
 1.144849163833029e+03 -1.686641264525953e+02  2.918975276816622e+03
 1.144854182816025e+03 -1.701598904148298e+02  2.918975276816622e+03
 1.144846655797861e+03 -1.750467699679717e+02  2.918975276816622e+03
 1.144846428477995e+03 -1.785302708018745e+02  2.918975276816622e+03
 1.144838331975786e+03 -1.802645270026538e+02  2.918975276816622e+03
 1.144840524980440e+03 -1.815586012917962e+02  2.918975276816622e+03
 1.144831014675684e+03 -1.856939028941607e+02  2.918975276816622e+03
 1.144833151974269e+03 -1.873636414494766e+02  2.918975276816622e+03
 1.144827870319120e+03 -1.889527786164165e+02  2.918975276816622e+03
 1.144828256547139e+03 -1.902484935993876e+02  2.918975276816622e+03
 1.144827024637286e+03 -1.949424744267380e+02  2.918975276816622e+03
 1.144825910853465e+03 -1.987743527831484e+02  2.918975276816622e+03
 1.144823954752158e+03 -2.029070209734962e+02  2.918975276816622e+03
 1.144822494482618e+03 -2.067942097053002e+02  2.918975276816622e+03
 1.144822669596080e+03 -2.083980106479512e+02  2.918975276816622e+03
 1.144835896241991e+03 -2.101017331101978e+02  2.918975276816622e+03
 1.144852356900242e+03 -2.148037503565499e+02  2.918975276816622e+03
 1.144874117622742e+03 -2.169535255048340e+02  2.918975276816622e+03
 1.144832422956081e+03 -2.186599422319009e+02  2.918975276816622e+03
 1.144768615450155e+03 -2.237465223040602e+02  2.918975276816622e+03
 1.144959801353724e+03 -2.251421786565074e+02  2.918975276816622e+03
 1.144910028372847e+03 -2.288521801872863e+02  2.918975276816622e+03
 1.144494183624274e+03 -2.301832955614655e+02  2.918975276816622e+03
 1.144527519371419e+03 -2.329608493670186e+02  2.918975276816622e+03
 1.144915938822738e+03 -2.341838782681236e+02  2.918975276816622e+03
 1.145168552423938e+03 -2.368060730838079e+02  2.918975276816622e+03
 1.144914937711820e+03 -2.389391468399364e+02  2.918975276816622e+03
 1.144850506033889e+03 -2.414104353126134e+02  2.918975276816622e+03
 1.144798338352459e+03 -2.449666885063882e+02  2.918975276816622e+03
 1.145027115794262e+03 -2.480088662049038e+02  2.918975276816622e+03
 1.145078821597268e+03 -2.489265303833197e+02  2.918975276816622e+03
 1.144848391059045e+03 -2.534921064019464e+02  2.918975276816622e+03
 1.144447379948286e+03 -2.567523861696678e+02  2.918975276816622e+03
 1.145463484817348e+03 -2.572831350818266e+02  2.918975276816622e+03
 1.145144508460269e+03 -2.607294080749577e+02  2.918975276816622e+03
 1.145042011519592e+03 -2.658378916739149e+02  2.918975276816622e+03
 1.145058772621024e+03 -2.690383720835155e+02  2.918975276816622e+03
 1.145086060427263e+03 -2.700190881154203e+02  2.918975276816622e+03
 1.145111361675001e+03 -2.727491404220904e+02  2.918975276816622e+03
 1.145091908877770e+03 -2.733900284771673e+02  2.918975276816622e+03
 1.145181619539423e+03 -2.758362256473922e+02  2.918975276816622e+03
 1.145099805039491e+03 -2.785659457613581e+02  2.918975276816622e+03
 1.145037446889352e+03 -2.833283342442951e+02  2.918975276816622e+03
 1.145162807669559e+03 -2.867415816053709e+02  2.918975276816622e+03
 1.145293955832309e+03 -2.885843500713136e+02  2.918975276816622e+03
 1.145084439970683e+03 -2.907846539246294e+02  2.918975276816622e+03
 1.144848004137157e+03 -2.931428273270479e+02  2.918975276816622e+03
 1.145373630651215e+03 -2.950451872595459e+02  2.918975276816622e+03
 1.145628858989674e+03 -2.987313413756806e+02  2.918975276816622e+03
 1.144977413244590e+03 -2.990369015477160e+02  2.918975276816622e+03
 1.144989592613024e+03 -3.026232908794896e+02  2.918975276816622e+03
 1.145478159604657e+03 -3.036437798223309e+02  2.918975276816622e+03
 1.144988235824706e+03 -3.082017133471173e+02  2.918975276816622e+03
 1.144890102482822e+03 -3.101060297448459e+02  2.918975276816622e+03
 1.145109830607013e+03 -3.123391629040838e+02  2.918975276816622e+03
 1.145356141661480e+03 -3.136208683914687e+02  2.918975276816622e+03
 1.144985730434825e+03 -3.149436904836482e+02  2.918975276816622e+03
 1.144943179139880e+03 -3.179794119781642e+02  2.918975276816622e+03
 1.144916761069167e+03 -3.190855866352643e+02  2.918975276816622e+03
 1.145035607488711e+03 -3.215583967196753e+02  2.918975276816622e+03
 1.145307903064099e+03 -3.233982876959872e+02  2.918975276816622e+03
 1.145048116831893e+03 -3.261253791112449e+02  2.918975276816622e+03
 1.144659721147982e+03 -3.264315125261634e+02  2.918975276816622e+03
 1.144815265668088e+03 -3.290536427026408e+02  2.918975276816622e+03
 1.144724262587113e+03 -3.316955432636003e+02  2.918975276816622e+03
 1.145024545257819e+03 -3.344465819606738e+02  2.918975276816622e+03
 1.145375492966411e+03 -3.376818215552341e+02  2.918975276816622e+03
 1.144827718681135e+03 -3.383563680945454e+02  2.918975276816622e+03
 1.144578636166526e+03 -3.405826343905122e+02  2.918975276816622e+03
 1.144934282179122e+03 -3.431418284435101e+02  2.918975276816622e+03
 1.144613205088975e+03 -3.450412030029053e+02  2.918975276816622e+03
 1.144876829048554e+03 -3.487578117218902e+02  2.918975276816622e+03
 1.144769857774775e+03 -3.513607336937746e+02  2.918975276816622e+03
 1.144850742509666e+03 -3.532870555453253e+02  2.918975276816622e+03
 1.144651722449908e+03 -3.571208379202372e+02  2.918975276816622e+03
 1.144736606900507e+03 -3.597268968148636e+02  2.918975276816622e+03
 1.144750638697325e+03 -3.599955255248481e+02  2.918975276816622e+03
 1.144765302281116e+03 -3.618105345170676e+02  2.918975276816622e+03
 1.144788967898272e+03 -3.669005173611973e+02  2.918975276816622e+03
 1.144872785634939e+03 -3.685835564044265e+02  2.918975276816622e+03
 1.144945523537722e+03 -3.713541406938500e+02  2.918975276816622e+03
 1.144825404463447e+03 -3.716886112059780e+02  2.918975276816622e+03
 1.144846985471184e+03 -3.752699512374392e+02  2.918975276816622e+03
 1.144900664591940e+03 -3.778670060335721e+02  2.918975276816622e+03
 1.144934412943177e+03 -3.828975205326760e+02  2.918975276816622e+03
 1.144960622094236e+03 -3.834844572920487e+02  2.918975276816622e+03
1.145003002940995e+03 3.848370496181246e+02 2.918975276816622e+03
1.145079271167151e+03 3.813364287568032e+02 2.918975276816622e+03
1.145011522931610e+03 3.788380315690745e+02 2.918975276816622e+03
1.144961109427546e+03 3.778920879392156e+02 2.918975276816622e+03
1.145142471567666e+03 3.763882656662742e+02 2.918975276816622e+03
1.145207496068278e+03 3.736790995118000e+02 2.918975276816622e+03
1.145065241933441e+03 3.728242947274182e+02 2.918975276816622e+03
1.145100681381487e+03 3.712234152998059e+02 2.918975276816622e+03
1.145168683081543e+03 3.673000217994061e+02 2.918975276816622e+03
1.145284329160154e+03 3.653834638794563e+02 2.918975276816622e+03
1.145175192691551e+03 3.626174963305572e+02 2.918975276816622e+03
1.145276746355946e+03 3.599568213883405e+02 2.918975276816622e+03
1.145277777273704e+03 3.581795437897128e+02 2.918975276816622e+03
1.145348450572344e+03 3.571333605986097e+02 2.918975276816622e+03
1.145300760427560e+03 3.554397368600976e+02 2.918975276816622e+03
1.145392527490108e+03 3.537431973215926e+02 2.918975276816622e+03
1.145362350103512e+03 3.517023781279397e+02 2.918975276816622e+03
1.145462756131002e+03 3.504186608280753e+02 2.918975276816622e+03
1.145432630896069e+03 3.480831975106346e+02 2.918975276816622e+03
1.145502332558895e+03 3.467899804401770e+02 2.918975276816622e+03
1.145504519564380e+03 3.446504048981565e+02 2.918975276816622e+03
1.145467733793954e+03 3.435763830732499e+02 2.918975276816622e+03
1.145589554290566e+03 3.416511084656653e+02 2.918975276816622e+03
1.146607529130885e+03 3.399638369144852e+02 2.918975276816622e+03
1.145595056575014e+03 3.381717948746454e+02 2.918975276816622e+03
1.144662415138523e+03 3.346433386798258e+02 2.918975276816622e+03
1.145594011645174e+03 3.315395304261452e+02 2.918975276816622e+03
1.145510680968856e+03 3.288731094009458e+02 2.918975276816622e+03
1.146229217829344e+03 3.286137012896978e+02 2.918975276816622e+03
1.145820865366949e+03 3.260035174767683e+02 2.918975276816622e+03
1.145394324808629e+03 3.234867287143077e+02 2.918975276816622e+03
1.145789890276169e+03 3.214125172378257e+02 2.918975276816622e+03
1.145949812877476e+03 3.193283388951353e+02 2.918975276816622e+03
1.145818440302544e+03 3.186263976130066e+02 2.918975276816622e+03
1.145937233786697e+03 3.161493312333565e+02 2.918975276816622e+03
1.145769200656679e+03 3.135069135300065e+02 2.918975276816622e+03
1.145868105102870e+03 3.119010101141629e+02 2.918975276816622e+03
1.145843471707062e+03 3.116481375684625e+02 2.918975276816622e+03
1.145842764944493e+03 3.096641537515821e+02 2.918975276816622e+03
1.145756858792396e+03 3.078269982324007e+02 2.918975276816622e+03
1.145728598822496e+03 3.065128353569414e+02 2.918975276816622e+03
1.145458638009030e+03 3.020847262663462e+02 2.918975276816622e+03
1.145870233304740e+03 3.017339121497381e+02 2.918975276816622e+03
1.145694605552117e+03 2.989103065860252e+02 2.918975276816622e+03
1.145336228797215e+03 2.975100778372689e+02 2.918975276816622e+03
1.145511580315735e+03 2.953180003357178e+02 2.918975276816622e+03
1.145910384840656e+03 2.937814039010928e+02 2.918975276816622e+03
1.145347021830694e+03 2.919665383918732e+02 2.918975276816622e+03
1.145036495477590e+03 2.870932610650902e+02 2.918975276816622e+03
1.145378512790820e+03 2.849705428366802e+02 2.918975276816622e+03
1.145908063675236e+03 2.829658085303210e+02 2.918975276816622e+03
1.145058479460222e+03 2.811496539763918e+02 2.918975276816622e+03
1.145094158905566e+03 2.773460071475356e+02 2.918975276816622e+03
1.145216652812003e+03 2.752973928759316e+02 2.918975276816622e+03
1.145246297843308e+03 2.711772640048663e+02 2.918975276816622e+03
1.145371541676277e+03 2.665763417680230e+02 2.918975276816622e+03
1.144558995274297e+03 2.651172923218354e+02 2.918975276816622e+03
1.144958036661819e+03 2.623962696368628e+02 2.918975276816622e+03
1.145342106676780e+03 2.584530783674508e+02 2.918975276816622e+03
1.145031771761756e+03 2.579478446907588e+02 2.918975276816622e+03
1.144876500523052e+03 2.533564495665451e+02 2.918975276816622e+03
1.144865473674495e+03 2.515499719275147e+02 2.918975276816622e+03
1.145492517964416e+03 2.503434620349321e+02 2.918975276816622e+03
1.144844487423130e+03 2.485875563285601e+02 2.918975276816622e+03
1.144425929877487e+03 2.471383601804601e+02 2.918975276816622e+03
1.144730145456095e+03 2.457756664436154e+02 2.918975276816622e+03
1.145401297515234e+03 2.445128142382187e+02 2.918975276816622e+03
1.144944902246187e+03 2.428709969369489e+02 2.918975276816622e+03
1.144693334507182e+03 2.417475005092675e+02 2.918975276816622e+03
1.145841931856121e+03 2.404566300806871e+02 2.918975276816622e+03
1.144935250919823e+03 2.355587361712857e+02 2.918975276816622e+03
1.144880024214603e+03 2.339648427510918e+02 2.918975276816622e+03
1.144872342070926e+03 2.313383722751015e+02 2.918975276816622e+03
1.144875490651859e+03 2.285786378428714e+02 2.918975276816622e+03
1.144904324531748e+03 2.274214414741175e+02 2.918975276816622e+03
1.144892163627356e+03 2.262916321044196e+02 2.918975276816622e+03
1.144928697525661e+03 2.237793694867765e+02 2.918975276816622e+03
1.144930779539426e+03 2.218164815308998e+02 2.918975276816622e+03
1.144956831609162e+03 2.202326876823961e+02 2.918975276816622e+03
1.144999429140384e+03 2.158081643378575e+02 2.918975276816622e+03
1.145062006285280e+03 2.127180055991613e+02 2.918975276816622e+03
1.145041658647050e+03 2.111800053088917e+02 2.918975276816622e+03
1.145126718458766e+03 2.086691979409019e+02 2.918975276816622e+03
1.145067865301933e+03 2.076312722062868e+02 2.918975276816622e+03
1.145139096770490e+03 2.062637218124979e+02 2.918975276816622e+03
1.145172203708901e+03 2.060638753947216e+02 2.918975276816622e+03
1.145208876153515e+03 2.046432403768048e+02 2.918975276816622e+03
1.145035681293813e+03 2.039881699046867e+02 2.918975276816622e+03
1.145152971793436e+03 2.025809802767719e+02 2.918975276816622e+03
1.145587895572563e+03 2.012433569376407e+02 2.918975276816622e+03
1.145052129217223e+03 2.002740613143261e+02 2.918975276816622e+03
1.144569586301000e+03 1.953978830155814e+02 2.918975276816622e+03
1.145046361523379e+03 1.922156231115015e+02 2.918975276816622e+03
1.145069869987605e+03 1.879298741455830e+02 2.918975276816622e+03
1.144907783312090e+03 1.863231416833830e+02 2.918975276816622e+03
1.144893482721025e+03 1.836074391540078e+02 2.918975276816622e+03
1.144909690445549e+03 1.815234936730380e+02 2.918975276816622e+03
1.144888847317744e+03 1.803936828790021e+02 2.918975276816622e+03
1.144666693953938e+03 1.757017148108640e+02 2.918975276816622e+03
1.144664380914268e+03 1.729013476459897e+02 2.918975276816622e+03
1.144418719656841e+03 1.711435590071887e+02 2.918975276816622e+03
1.144498929241718e+03 1.686471967331620e+02 2.918975276816622e+03
1.144218624668893e+03 1.679195457354324e+02 2.918975276816622e+03
1.144406690613050e+03 1.663848078879862e+02 2.918975276816622e+03
1.143773377129326e+03 1.655510092450395e+02 2.918975276816622e+03
1.144121285989026e+03 1.644611934900548e+02 2.918975276816622e+03
1.143340899787752e+03 1.624967165768701e+02 2.918975276816622e+03
1.143830981627041e+03 1.625313361685491e+02 2.918975276816622e+03
1.144375942426809e+03 1.568372550746119e+02 2.918975276816622e+03
1.144866656946578e+03 1.537635891315138e+02 2.918975276816622e+03
1.145256240822468e+03 1.510782529625652e+02 2.918975276816622e+03
1.145359866770569e+03 1.475046935786881e+02 2.918975276816622e+03
1.145477628818880e+03 1.460695186004286e+02 2.918975276816622e+03
1.145600099457143e+03 1.450737772068389e+02 2.918975276816622e+03
1.145594672249988e+03 1.449964674758587e+02 2.918975276816622e+03
1.145428744664455e+03 1.438777841726823e+02 2.918975276816622e+03
1.145316339789362e+03 1.418336945066814e+02 2.918975276816622e+03
1.145237925082316e+03 1.404054847916924e+02 2.918975276816622e+03
1.145069049198873e+03 1.360060954470977e+02 2.918975276816622e+03
1.145038294223765e+03 1.329017008162753e+02 2.918975276816622e+03
1.144979676235842e+03 1.312714156468333e+02 2.918975276816622e+03
1.145017622263827e+03 1.289090543475431e+02 2.918975276816622e+03
1.145036253943163e+03 1.277943929213740e+02 2.918975276816622e+03
1.145073269087372e+03 1.264640782929165e+02 2.918975276816622e+03
1.145021183988645e+03 1.262934915132072e+02 2.918975276816622e+03
1.145090573342811e+03 1.249993683519411e+02 2.918975276816622e+03
1.145156266744479e+03 1.249688006955350e+02 2.918975276816622e+03
1.144993295449930e+03 1.236531106036713e+02 2.918975276816622e+03
1.144888433349929e+03 1.219635048822047e+02 2.918975276816622e+03
1.144969584686537e+03 1.204710869893369e+02 2.918975276816622e+03
1.144718427968449e+03 1.158920397905875e+02 2.918975276816622e+03
1.144661715601101e+03 1.123685831381504e+02 2.918975276816622e+03
1.144672448080000e+03 1.106730727497248e+02 2.918975276816622e+03
1.144679702140446e+03 1.091525395621502e+02 2.918975276816622e+03
1.144712319004831e+03 1.069936446667917e+02 2.918975276816622e+03
1.144751725342618e+03 1.053103873587407e+02 2.918975276816622e+03
1.144872098446786e+03 1.020348770214339e+02 2.918975276816622e+03
1.144934688147686e+03 1.006254677044120e+02 2.918975276816622e+03
1.145168890174436e+03 9.560644128788869e+01 2.918975276816622e+03
1.145250270018779e+03 9.375657530635665e+01 2.918975276816622e+03
1.145785485119627e+03 8.350469490200182e+01 2.918975276816622e+03
1.146013518115770e+03 8.033763529681001e+01 2.918975276816622e+03
1.146017760140494e+03 7.594986249614186e+01 2.918975276816622e+03
1.146729341628663e+03 7.034443254584394e+01 2.918975276816622e+03
1.145073775034851e+03 6.441386335615294e+01 2.918975276816622e+03
1.146375475472705e+03 6.247725605301017e+01 2.918975276816622e+03
1.146579454181054e+03 5.764649994843545e+01 2.918975276816622e+03
1.146552439638687e+03 5.711566704188903e+01 2.918975276816622e+03
1.146474402331922e+03 5.503932921117087e+01 2.918975276816622e+03
1.146489509356477e+03 5.313275966114072e+01 2.918975276816622e+03
1.146365556284131e+03 5.065026875032444e+01 2.918975276816622e+03
1.146445713521914e+03 4.938593743471593e+01 2.918975276816622e+03
1.146311121525856e+03 4.777714097484088e+01 2.918975276816622e+03
1.146264628113246e+03 4.702048507278155e+01 2.918975276816622e+03
1.146260079044469e+03 4.420098609209277e+01 2.918975276816622e+03
1.146706325824525e+03 4.236453069815724e+01 2.918975276816622e+03
1.146146083509042e+03 4.191850721044146e+01 2.918975276816622e+03
1.146029361179095e+03 4.030338190494459e+01 2.918975276816622e+03
1.146222481375672e+03 3.823097479669068e+01 2.918975276816622e+03
1.146268239053335e+03 3.610069881656306e+01 2.918975276816622e+03
1.146228328739938e+03 3.385423263316649e+01 2.918975276816622e+03
1.146223604349452e+03 2.914595211630237e+01 2.918975276816622e+03
1.146212964893416e+03 2.724460819039849e+01 2.918975276816622e+03
1.146196196260622e+03 2.362202000482941e+01 2.918975276816622e+03
1.146173132828637e+03 2.074397613973048e+01 2.918975276816622e+03
1.146134910220758e+03 1.747974009754401e+01 2.918975276816622e+03
1.146076789431455e+03 1.291581543358443e+01 2.918975276816622e+03
1.146149258477901e+03 1.085598450111049e+01 2.918975276816622e+03
1.146033154191119e+03 9.858249778507163e+00 2.918975276816622e+03
1.145974564980644e+03 7.783174273204226e+00 2.918975276816622e+03
1.145956865336276e+03 4.468275028396925e+00 2.918975276816622e+03
1.145807244814328e+03 2.828797623764114e+00 2.918975276816622e+03
-1.157427958930033e+03  1.137345547427324e+00 -2.918975276816622e+03
-1.157361319872263e+03 -5.926144513294941e+00 -2.918975276816622e+03
-1.157325241247283e+03 -1.050130413773235e+01 -2.918975276816622e+03
-1.157318902276941e+03 -1.062480308789867e+01 -2.918975276816622e+03
-1.157291080403892e+03 -1.380776384781944e+01 -2.918975276816622e+03
-1.157293752926007e+03 -1.486282970709028e+01 -2.918975276816622e+03
-1.157311296829457e+03 -1.681223550918565e+01 -2.918975276816622e+03
-1.157252081026890e+03 -2.137939335656745e+01 -2.918975276816622e+03
-1.157196071915050e+03 -2.198715065067411e+01 -2.918975276816622e+03
-1.157177610544043e+03 -2.576992641279479e+01 -2.918975276816622e+03
-1.157173617604080e+03 -2.845146420340533e+01 -2.918975276816622e+03
-1.157078427331955e+03 -3.287965590972691e+01 -2.918975276816622e+03
-1.157048104383188e+03 -3.444042705663820e+01 -2.918975276816622e+03
-1.156994859835301e+03 -3.598489642172414e+01 -2.918975276816622e+03
-1.157065891891550e+03 -3.716358629959539e+01 -2.918975276816622e+03
-1.156944023542973e+03 -4.050784944318143e+01 -2.918975276816622e+03
-1.157018476798239e+03 -4.130282125497660e+01 -2.918975276816622e+03
-1.156858122410585e+03 -4.358506810629817e+01 -2.918975276816622e+03
-1.156944407001545e+03 -4.524519556960362e+01 -2.918975276816622e+03
-1.156903311369056e+03 -4.564290705246544e+01 -2.918975276816622e+03
-1.157049043061309e+03 -4.739770008881273e+01 -2.918975276816622e+03
-1.156866516253285e+03 -4.974256789165845e+01 -2.918975276816622e+03
-1.156869065758107e+03 -5.039954946462061e+01 -2.918975276816622e+03
-1.156855933329774e+03 -5.206567055657653e+01 -2.918975276816622e+03
-1.156948205448141e+03 -5.511405038330859e+01 -2.918975276816622e+03
-1.156803795242587e+03 -5.622320980755911e+01 -2.918975276816622e+03
-1.156700744912738e+03 -5.862021969816249e+01 -2.918975276816622e+03
-1.156621665665574e+03 -6.047872922557824e+01 -2.918975276816622e+03
-1.157016783694665e+03 -6.141866112259992e+01 -2.918975276816622e+03
-1.156745414893249e+03 -6.357015615872801e+01 -2.918975276816622e+03
-1.156555656055402e+03 -6.493224575869134e+01 -2.918975276816622e+03
-1.156825272960183e+03 -6.580241614399399e+01 -2.918975276816622e+03
-1.156682772948190e+03 -6.744316026954466e+01 -2.918975276816622e+03
-1.156576434562755e+03 -6.993065128177160e+01 -2.918975276816622e+03
-1.156734737727727e+03 -7.046985768884736e+01 -2.918975276816622e+03
-1.156697113642049e+03 -7.198221761652464e+01 -2.918975276816622e+03
-1.156589409182930e+03 -7.331208681531770e+01 -2.918975276816622e+03
-1.156635400523092e+03 -7.528648709350134e+01 -2.918975276816622e+03
-1.156620413898168e+03 -7.623787696631869e+01 -2.918975276816622e+03
-1.156547815629743e+03 -7.687039347722505e+01 -2.918975276816622e+03
-1.156588381751482e+03 -7.863847419250071e+01 -2.918975276816622e+03
-1.156583706609962e+03 -8.042411223886999e+01 -2.918975276816622e+03
-1.156646715579137e+03 -8.127915619711396e+01 -2.918975276816622e+03
-1.156774079897938e+03 -8.344822647422782e+01 -2.918975276816622e+03
-1.156713842983346e+03 -8.483311414845747e+01 -2.918975276816622e+03
-1.156550909584846e+03 -8.595560417026863e+01 -2.918975276816622e+03
-1.156341458099124e+03 -8.734075861340905e+01 -2.918975276816622e+03
-1.156187178626805e+03 -8.981217638013945e+01 -2.918975276816622e+03
-1.156780385195200e+03 -9.054190545901837e+01 -2.918975276816622e+03
-1.156509032902640e+03 -9.200693444603370e+01 -2.918975276816622e+03
-1.156184361189057e+03 -9.526809050200740e+01 -2.918975276816622e+03
-1.156585785781802e+03 -9.645113036607776e+01 -2.918975276816622e+03
-1.156851400020812e+03 -9.895642741135113e+01 -2.918975276816622e+03
-1.156498038819743e+03 -1.012037646871236e+02 -2.918975276816622e+03
-1.156483811758823e+03 -1.013821897733614e+02 -2.918975276816622e+03
-1.156421038942939e+03 -1.035833012502785e+02 -2.918975276816622e+03
-1.156469645571596e+03 -1.052625443572148e+02 -2.918975276816622e+03
-1.156457713097146e+03 -1.065720075665095e+02 -2.918975276816622e+03
-1.156448835231026e+03 -1.071416971649814e+02 -2.918975276816622e+03
-1.156412268788810e+03 -1.095349859401253e+02 -2.918975276816622e+03
-1.156446101442727e+03 -1.108323651149211e+02 -2.918975276816622e+03
-1.156415976049220e+03 -1.128363408246113e+02 -2.918975276816622e+03
-1.156377005909253e+03 -1.134689636070740e+02 -2.918975276816622e+03
-1.156421707956075e+03 -1.182530219957287e+02 -2.918975276816622e+03
-1.156396241949579e+03 -1.204100979937511e+02 -2.918975276816622e+03
-1.156407539694070e+03 -1.212108093368609e+02 -2.918975276816622e+03
-1.156436447466286e+03 -1.234238640652006e+02 -2.918975276816622e+03
-1.156441680126625e+03 -1.247969904102510e+02 -2.918975276816622e+03
-1.155897565811387e+03 -1.258930696599500e+02 -2.918975276816622e+03
-1.156449783379950e+03 -1.273196157295412e+02 -2.918975276816622e+03
-1.156570440933231e+03 -1.298277991417968e+02 -2.918975276816622e+03
-1.156523854876409e+03 -1.315283121168495e+02 -2.918975276816622e+03
-1.156633236026517e+03 -1.324460132944640e+02 -2.918975276816622e+03
-1.156434233373979e+03 -1.332819130648580e+02 -2.918975276816622e+03
-1.156116276343485e+03 -1.351605268797399e+02 -2.918975276816622e+03
-1.156548495814606e+03 -1.362270355430866e+02 -2.918975276816622e+03
-1.156455947873462e+03 -1.385064812678364e+02 -2.918975276816622e+03
-1.156413594017280e+03 -1.403802491896383e+02 -2.918975276816622e+03
-1.156462248946152e+03 -1.413208154244728e+02 -2.918975276816622e+03
-1.156528517211078e+03 -1.434743519418940e+02 -2.918975276816622e+03
-1.156455345587931e+03 -1.448726333764025e+02 -2.918975276816622e+03
-1.156786655118851e+03 -1.457871018045691e+02 -2.918975276816622e+03
-1.156487372847953e+03 -1.476750801206268e+02 -2.918975276816622e+03
-1.156489533807935e+03 -1.516202762092190e+02 -2.918975276816622e+03
-1.156541359374514e+03 -1.549997907271189e+02 -2.918975276816622e+03
-1.156751621770795e+03 -1.561952783181654e+02 -2.918975276816622e+03
-1.156563561984323e+03 -1.586031497753932e+02 -2.918975276816622e+03
-1.156748898139110e+03 -1.604354659757518e+02 -2.918975276816622e+03
-1.156626814223575e+03 -1.610606364811492e+02 -2.918975276816622e+03
-1.156801403039052e+03 -1.633275607887181e+02 -2.918975276816622e+03
-1.156642828459839e+03 -1.645156468150931e+02 -2.918975276816622e+03
-1.156776996625071e+03 -1.660917632859669e+02 -2.918975276816622e+03
-1.156678866065045e+03 -1.674492774695622e+02 -2.918975276816622e+03
-1.156884876864330e+03 -1.701188761850141e+02 -2.918975276816622e+03
-1.156850703983453e+03 -1.721999997161577e+02 -2.918975276816622e+03
-1.156689982237014e+03 -1.731004325615957e+02 -2.918975276816622e+03
-1.156804791317517e+03 -1.770672464526706e+02 -2.918975276816622e+03
-1.156874341365779e+03 -1.823111303447206e+02 -2.918975276816622e+03
-1.156921771554764e+03 -1.844873114773788e+02 -2.918975276816622e+03
-1.156821715814457e+03 -1.863596789737693e+02 -2.918975276816622e+03
-1.156664115792986e+03 -1.869476975371824e+02 -2.918975276816622e+03
-1.156919687347818e+03 -1.894380008861824e+02 -2.918975276816622e+03
-1.156914763777177e+03 -1.914792945030109e+02 -2.918975276816622e+03
-1.156925221488729e+03 -1.949116618619924e+02 -2.918975276816622e+03
-1.156901172047110e+03 -1.973362343689539e+02 -2.918975276816622e+03
-1.156964726128827e+03 -1.985269934961669e+02 -2.918975276816622e+03
-1.156899282308833e+03 -2.003234718927413e+02 -2.918975276816622e+03
-1.156855959049639e+03 -2.009028802823899e+02 -2.918975276816622e+03
-1.156888282598868e+03 -2.031860574374260e+02 -2.918975276816622e+03
-1.157118227399785e+03 -2.044500527092562e+02 -2.918975276816622e+03
-1.157228055562238e+03 -2.055576591486432e+02 -2.918975276816622e+03
-1.157477957416978e+03 -2.072240061347044e+02 -2.918975276816622e+03
-1.158158720344642e+03 -2.095370008441774e+02 -2.918975276816622e+03
-1.157528229279007e+03 -2.112473621717761e+02 -2.918975276816622e+03
-1.155892470726630e+03 -2.119281718436373e+02 -2.918975276816622e+03
-1.156661561719123e+03 -2.152499088265612e+02 -2.918975276816622e+03
-1.157193443874526e+03 -2.158292480483206e+02 -2.918975276816622e+03
-1.156755969508792e+03 -2.183107720653569e+02 -2.918975276816622e+03
-1.156420804511974e+03 -2.207686815304582e+02 -2.918975276816622e+03
-1.156779297161977e+03 -2.209013724302560e+02 -2.918975276816622e+03
-1.156735688747066e+03 -2.232330029353177e+02 -2.918975276816622e+03
-1.156416751614735e+03 -2.250628391082426e+02 -2.918975276816622e+03
-1.156411391167382e+03 -2.256177416552003e+02 -2.918975276816622e+03
-1.156226536683706e+03 -2.270956194510675e+02 -2.918975276816622e+03
-1.156462666147403e+03 -2.297137626105862e+02 -2.918975276816622e+03
-1.156519196245734e+03 -2.312289476271133e+02 -2.918975276816622e+03
-1.156553959552859e+03 -2.318991257157612e+02 -2.918975276816622e+03
-1.156325881733105e+03 -2.409979152897956e+02 -2.918975276816622e+03
-1.156740996983765e+03 -2.440662768208175e+02 -2.918975276816622e+03
-1.156911911687190e+03 -2.467203940559037e+02 -2.918975276816622e+03
-1.156764284786945e+03 -2.490164685185439e+02 -2.918975276816622e+03
-1.156580738078761e+03 -2.499461019668186e+02 -2.918975276816622e+03
-1.156329459349807e+03 -2.517301418296599e+02 -2.918975276816622e+03
-1.156638094054889e+03 -2.544647160614172e+02 -2.918975276816622e+03
-1.156286017353236e+03 -2.565274848743107e+02 -2.918975276816622e+03
-1.156461132929740e+03 -2.602957652705800e+02 -2.918975276816622e+03
-1.156315081169412e+03 -2.607011205969986e+02 -2.918975276816622e+03
-1.156719868903817e+03 -2.628530446288929e+02 -2.918975276816622e+03
-1.156252319445337e+03 -2.648339658529020e+02 -2.918975276816622e+03
-1.156855814837164e+03 -2.666796242934519e+02 -2.918975276816622e+03
-1.156448058821749e+03 -2.681366727838671e+02 -2.918975276816622e+03
-1.156857140796388e+03 -2.693205119006606e+02 -2.918975276816622e+03
-1.156508841251383e+03 -2.703211136180801e+02 -2.918975276816622e+03
-1.156861111170224e+03 -2.718037911862114e+02 -2.918975276816622e+03
-1.156420477096678e+03 -2.733821219254692e+02 -2.918975276816622e+03
-1.156778913996697e+03 -2.753109768965118e+02 -2.918975276816622e+03
-1.156474124571142e+03 -2.763531721515510e+02 -2.918975276816622e+03
-1.156806534838069e+03 -2.774685833851532e+02 -2.918975276816622e+03
-1.156466532628971e+03 -2.796380465872281e+02 -2.918975276816622e+03
-1.157019883448870e+03 -2.819769182145930e+02 -2.918975276816622e+03
-1.156619798733710e+03 -2.861792467686584e+02 -2.918975276816622e+03
-1.156296464197766e+03 -2.878877148608604e+02 -2.918975276816622e+03
-1.156783814135081e+03 -2.893217289794231e+02 -2.918975276816622e+03
-1.157165518917695e+03 -2.932627266803103e+02 -2.918975276816622e+03
-1.156524138121307e+03 -2.949079604119174e+02 -2.918975276816622e+03
-1.156797846495771e+03 -3.010692945837828e+02 -2.918975276816622e+03
-1.156726028771287e+03 -3.018231186653823e+02 -2.918975276816622e+03
-1.156641169114184e+03 -3.039651768935842e+02 -2.918975276816622e+03
-1.156954634753498e+03 -3.053351000093371e+02 -2.918975276816622e+03
-1.157230049339202e+03 -3.075601218228427e+02 -2.918975276816622e+03
-1.156490638054091e+03 -3.095737493635072e+02 -2.918975276816622e+03
-1.156676937225689e+03 -3.152516463752087e+02 -2.918975276816622e+03
-1.156707364821790e+03 -3.172914894236482e+02 -2.918975276816622e+03
-1.156674198233590e+03 -3.189950179407680e+02 -2.918975276816622e+03
-1.156608481756068e+03 -3.203968739755698e+02 -2.918975276816622e+03
-1.156689394980528e+03 -3.218842372695455e+02 -2.918975276816622e+03
-1.156618462631702e+03 -3.236487294284927e+02 -2.918975276816622e+03
-1.156659335004795e+03 -3.243546222299998e+02 -2.918975276816622e+03
-1.156550803756400e+03 -3.261591623809510e+02 -2.918975276816622e+03
-1.156560663177814e+03 -3.269130665491124e+02 -2.918975276816622e+03
-1.156589919520891e+03 -3.288471633124587e+02 -2.918975276816622e+03
-1.156755856168704e+03 -3.298885738526592e+02 -2.918975276816622e+03
-1.156463783580023e+03 -3.312527769032665e+02 -2.918975276816622e+03
-1.156369662808703e+03 -3.346693107540351e+02 -2.918975276816622e+03
-1.156598671492038e+03 -3.352319598185781e+02 -2.918975276816622e+03
-1.156981250041321e+03 -3.365128688530846e+02 -2.918975276816622e+03
-1.156500124014419e+03 -3.385123290351680e+02 -2.918975276816622e+03
-1.156451820159775e+03 -3.413765871918631e+02 -2.918975276816622e+03
-1.156460786687330e+03 -3.427978359105151e+02 -2.918975276816622e+03
-1.156520045221891e+03 -3.441121794098334e+02 -2.918975276816622e+03
-1.156509398522250e+03 -3.485530813430966e+02 -2.918975276816622e+03
-1.156380566406609e+03 -3.485924785079076e+02 -2.918975276816622e+03
-1.156525999399192e+03 -3.533162573151689e+02 -2.918975276816622e+03
-1.156630407326119e+03 -3.575662934648456e+02 -2.918975276816622e+03
-1.156635452186989e+03 -3.587043689966774e+02 -2.918975276816622e+03
-1.156692097276491e+03 -3.622791837277190e+02 -2.918975276816622e+03
-1.156685245848181e+03 -3.629103751629911e+02 -2.918975276816622e+03
-1.156737659907375e+03 -3.647353933175658e+02 -2.918975276816622e+03
-1.156726568135334e+03 -3.672137842848017e+02 -2.918975276816622e+03
-1.156786936958074e+03 -3.710753119539228e+02 -2.918975276816622e+03
-1.156774613158614e+03 -3.725465717483959e+02 -2.918975276816622e+03
-1.156797942834158e+03 -3.741870036223021e+02 -2.918975276816622e+03
-1.156812216798635e+03 -3.768211308469211e+02 -2.918975276816622e+03
-1.156846628608060e+03 -3.776514256583654e+02 -2.918975276816622e+03
-1.156827876487708e+03 -3.798907826089968e+02 -2.918975276816622e+03
-1.156801169348429e+03 -3.803202262906977e+02 -2.918975276816622e+03
-1.156882617365198e+03 -3.825126861806432e+02 -2.918975276816622e+03
-1.156854927816071e+03 -3.861344115931147e+02 -2.918975276816622e+03
-1.156523184215514e+03  3.833172495146717e+02 -2.918975276816622e+03
-1.156967271649831e+03  3.822955834770779e+02 -2.918975276816622e+03
-1.157085936402704e+03  3.786755357541144e+02 -2.918975276816622e+03
-1.156906320756618e+03  3.775646562682689e+02 -2.918975276816622e+03
-1.156822709891961e+03  3.765382532303466e+02 -2.918975276816622e+03
-1.156833194840086e+03  3.736131332512996e+02 -2.918975276816622e+03
-1.156825877767132e+03  3.694471825741222e+02 -2.918975276816622e+03
-1.156818943032530e+03  3.642083158285949e+02 -2.918975276816622e+03
-1.157016925610502e+03  3.601532533202140e+02 -2.918975276816622e+03
-1.156881310864120e+03  3.563816639555627e+02 -2.918975276816622e+03
-1.156790512642812e+03  3.553024144783319e+02 -2.918975276816622e+03
-1.156772717559571e+03  3.532566086974190e+02 -2.918975276816622e+03
-1.156823333745115e+03  3.470834216381589e+02 -2.918975276816622e+03
-1.156799202967842e+03  3.433411406093011e+02 -2.918975276816622e+03
-1.156766348702005e+03  3.380515434171413e+02 -2.918975276816622e+03
-1.156750389474509e+03  3.354007805746072e+02 -2.918975276816622e+03
-1.156634604000498e+03  3.276825250320471e+02 -2.918975276816622e+03
-1.156554198468343e+03  3.264901251548279e+02 -2.918975276816622e+03
-1.157316955174654e+03  3.234930880176367e+02 -2.918975276816622e+03
-1.157960015552423e+03  3.219225412824627e+02 -2.918975276816622e+03
-1.156406516024942e+03  3.203744493977207e+02 -2.918975276816622e+03
-1.155383620714038e+03  3.175305515299972e+02 -2.918975276816622e+03
-1.156735495718656e+03  3.125164145091191e+02 -2.918975276816622e+03
-1.156781272056638e+03  3.105057025697264e+02 -2.918975276816622e+03
-1.156719745291638e+03  3.077048182961805e+02 -2.918975276816622e+03
-1.156720685874487e+03  3.027685105920186e+02 -2.918975276816622e+03
-1.156301608791459e+03  3.027080221485243e+02 -2.918975276816622e+03
-1.156684921819246e+03  2.977520063208619e+02 -2.918975276816622e+03
-1.156716588382088e+03  2.954067264733885e+02 -2.918975276816622e+03
-1.156576977082369e+03  2.942817813434341e+02 -2.918975276816622e+03
-1.156652741795840e+03  2.917862056443806e+02 -2.918975276816622e+03
-1.157076308039682e+03  2.902066381068706e+02 -2.918975276816622e+03
-1.156837833000931e+03  2.879625369707458e+02 -2.918975276816622e+03
-1.156397357667544e+03  2.865197623464674e+02 -2.918975276816622e+03
-1.156776115946166e+03  2.844858548054450e+02 -2.918975276816622e+03
-1.157021761680912e+03  2.820113449304748e+02 -2.918975276816622e+03
-1.156831403120448e+03  2.780394170523192e+02 -2.918975276816622e+03
-1.156855973675963e+03  2.777348125875258e+02 -2.918975276816622e+03
-1.156714274925964e+03  2.753745512353792e+02 -2.918975276816622e+03
-1.156983186670821e+03  2.739860865269722e+02 -2.918975276816622e+03
-1.156818741911568e+03  2.717364215111984e+02 -2.918975276816622e+03
-1.156881720981459e+03  2.713681664370405e+02 -2.918975276816622e+03
-1.156687642588801e+03  2.695825873095767e+02 -2.918975276816622e+03
-1.157111889215581e+03  2.661240688968573e+02 -2.918975276816622e+03
-1.156714801581141e+03  2.648683992035687e+02 -2.918975276816622e+03
-1.156736045548411e+03  2.626222091170719e+02 -2.918975276816622e+03
-1.156466444970314e+03  2.609866499392965e+02 -2.918975276816622e+03
-1.157053974481429e+03  2.600187226376677e+02 -2.918975276816622e+03
-1.156820939726255e+03  2.576720087352004e+02 -2.918975276816622e+03
-1.156903961232068e+03  2.568139345476603e+02 -2.918975276816622e+03
-1.156730291062252e+03  2.551908212613477e+02 -2.918975276816622e+03
-1.156946554557749e+03  2.540708014784923e+02 -2.918975276816622e+03
-1.156813839276575e+03  2.515672417336912e+02 -2.918975276816622e+03
-1.157132028897717e+03  2.502330726110022e+02 -2.918975276816622e+03
-1.157075880560981e+03  2.500844487176283e+02 -2.918975276816622e+03
-1.156928593101672e+03  2.473624227160044e+02 -2.918975276816622e+03
-1.156757662132288e+03  2.459944832946456e+02 -2.918975276816622e+03
-1.156732160895431e+03  2.443572946828442e+02 -2.918975276816622e+03
-1.156652054302906e+03  2.431281349379330e+02 -2.918975276816622e+03
-1.156631981270080e+03  2.409176222898818e+02 -2.918975276816622e+03
-1.156565999556531e+03  2.400941968462394e+02 -2.918975276816622e+03
-1.156559891870475e+03  2.385297152881132e+02 -2.918975276816622e+03
-1.156454063777370e+03  2.353639864274775e+02 -2.918975276816622e+03
-1.156438635452040e+03  2.341482537324420e+02 -2.918975276816622e+03
-1.156379613622318e+03  2.317100852687895e+02 -2.918975276816622e+03
-1.156329771740771e+03  2.298772895572120e+02 -2.918975276816622e+03
-1.156347980117236e+03  2.292165430443085e+02 -2.918975276816622e+03
-1.156284142978127e+03  2.269971164369751e+02 -2.918975276816622e+03
-1.156303639017702e+03  2.257098624879047e+02 -2.918975276816622e+03
-1.156251286575411e+03  2.249067375015058e+02 -2.918975276816622e+03
-1.156270430642738e+03  2.232952563356016e+02 -2.918975276816622e+03
-1.156192519027459e+03  2.207397686597454e+02 -2.918975276816622e+03
-1.156319327698595e+03  2.197750411335223e+02 -2.918975276816622e+03
-1.156057138694671e+03  2.184167020551894e+02 -2.918975276816622e+03
-1.155850236480859e+03  2.154264496227304e+02 -2.918975276816622e+03
-1.156199757200945e+03  2.142989269408322e+02 -2.918975276816622e+03
-1.156233329932722e+03  2.119791559238217e+02 -2.918975276816622e+03
-1.156058426383390e+03  2.100020268672922e+02 -2.918975276816622e+03
-1.156096581538904e+03  2.091484438177389e+02 -2.918975276816622e+03
-1.156032468768344e+03  2.070673103002501e+02 -2.918975276816622e+03
-1.156091994445255e+03  2.054088345454621e+02 -2.918975276816622e+03
-1.156011958615726e+03  2.045327181885616e+02 -2.918975276816622e+03
-1.156060823177505e+03  2.033335078786987e+02 -2.918975276816622e+03
-1.155952461473437e+03  2.009040269753633e+02 -2.918975276816622e+03
-1.156113382916710e+03  1.998752650887903e+02 -2.918975276816622e+03
-1.156122992826087e+03  1.979653908699491e+02 -2.918975276816622e+03
-1.156023621251534e+03  1.949833462460161e+02 -2.918975276816622e+03
-1.156195572684427e+03  1.901024422752404e+02 -2.918975276816622e+03
-1.155958111492750e+03  1.892833119788520e+02 -2.918975276816622e+03
-1.155996073336996e+03  1.872187297378507e+02 -2.918975276816622e+03
-1.156214087420409e+03  1.859218641641033e+02 -2.918975276816622e+03
-1.156018909373760e+03  1.845645654610049e+02 -2.918975276816622e+03
-1.156016857998166e+03  1.832148335522496e+02 -2.918975276816622e+03
-1.156016430704001e+03  1.809064046983614e+02 -2.918975276816622e+03
-1.156035229266117e+03  1.802736861890925e+02 -2.918975276816622e+03
-1.155963542129405e+03  1.787265987898973e+02 -2.918975276816622e+03
-1.156043461959920e+03  1.753855617645270e+02 -2.918975276816622e+03
-1.155995535984068e+03  1.743671588060513e+02 -2.918975276816622e+03
-1.156033996667697e+03  1.719375013333723e+02 -2.918975276816622e+03
-1.155978521867279e+03  1.701111855419315e+02 -2.918975276816622e+03
-1.156032692608715e+03  1.691476536662219e+02 -2.918975276816622e+03
-1.156069376388362e+03  1.671078985619688e+02 -2.918975276816622e+03
-1.156041954639880e+03  1.657484412901066e+02 -2.918975276816622e+03
-1.155949552217999e+03  1.646226439678126e+02 -2.918975276816622e+03
-1.156054244597606e+03  1.632496447165455e+02 -2.918975276816622e+03
-1.156073777741875e+03  1.608830542551007e+02 -2.918975276816622e+03
-1.156054969196171e+03  1.600760557062671e+02 -2.918975276816622e+03
-1.156007684623277e+03  1.585817385136346e+02 -2.918975276816622e+03
-1.156084874167577e+03  1.556750051411811e+02 -2.918975276816622e+03
-1.156124249422769e+03  1.544751164460251e+02 -2.918975276816622e+03
-1.156091945541986e+03  1.519136283843142e+02 -2.918975276816622e+03
-1.156104804866019e+03  1.501732275705484e+02 -2.918975276816622e+03
-1.156103271416984e+03  1.493674988382631e+02 -2.918975276816622e+03
-1.156141672770176e+03  1.471007358486528e+02 -2.918975276816622e+03
-1.156093133438403e+03  1.456142226473597e+02 -2.918975276816622e+03
-1.156067446286711e+03  1.447881226209602e+02 -2.918975276816622e+03
-1.156105923383339e+03  1.433554254980144e+02 -2.918975276816622e+03
-1.156168175021322e+03  1.408477545016976e+02 -2.918975276816622e+03
-1.156182639935408e+03  1.400878889743341e+02 -2.918975276816622e+03
-1.156404108044115e+03  1.385461714868229e+02 -2.918975276816622e+03
-1.156194332294326e+03  1.355413602996359e+02 -2.918975276816622e+03
-1.156035224892556e+03  1.343815791793300e+02 -2.918975276816622e+03
-1.156063284382575e+03  1.318940956111414e+02 -2.918975276816622e+03
-1.156349605284591e+03  1.297442326513366e+02 -2.918975276816622e+03
-1.156231661469966e+03  1.292603331153932e+02 -2.918975276816622e+03
-1.156354451761995e+03  1.270970028190430e+02 -2.918975276816622e+03
-1.156210122275753e+03  1.259274664151393e+02 -2.918975276816622e+03
-1.156356994803797e+03  1.245913483425805e+02 -2.918975276816622e+03
-1.155842224961665e+03  1.231679836411274e+02 -2.918975276816622e+03
-1.156261289542318e+03  1.209580354136893e+02 -2.918975276816622e+03
-1.156343431457481e+03  1.202278573378294e+02 -2.918975276816622e+03
-1.156774138637970e+03  1.188330807029782e+02 -2.918975276816622e+03
-1.156412303838029e+03  1.154344717176623e+02 -2.918975276816622e+03
-1.155689574392276e+03  1.143372822554716e+02 -2.918975276816622e+03
-1.156383841495365e+03  1.119612974299402e+02 -2.918975276816622e+03
-1.157355195792068e+03  1.105483225808920e+02 -2.918975276816622e+03
-1.156425464840417e+03  1.094979211525982e+02 -2.918975276816622e+03
-1.156263463008878e+03  1.073564113558129e+02 -2.918975276816622e+03
-1.156536735385967e+03  1.060834558414364e+02 -2.918975276816622e+03
-1.156829545383473e+03  1.046732702088898e+02 -2.918975276816622e+03
-1.156441063779604e+03  1.032639131686688e+02 -2.918975276816622e+03
-1.156537396582408e+03  1.010621679760363e+02 -2.918975276816622e+03
-1.156789646253734e+03  1.003426046599282e+02 -2.918975276816622e+03
-1.156671081642017e+03  9.822903092351903e+01 -2.918975276816622e+03
-1.156307317983744e+03  9.694787402805591e+01 -2.918975276816622e+03
-1.156640131033258e+03  9.515051486452182e+01 -2.918975276816622e+03
-1.156632356569825e+03  9.117852693736471e+01 -2.918975276816622e+03
-1.156654084842830e+03  8.992398918046850e+01 -2.918975276816622e+03
-1.156612349435265e+03  8.808931778997872e+01 -2.918975276816622e+03
-1.156647543820924e+03  8.682282889859701e+01 -2.918975276816622e+03
-1.156612855057072e+03  8.648072564370987e+01 -2.918975276816622e+03
-1.156640392389891e+03  8.512408868089481e+01 -2.918975276816622e+03
-1.156610900758153e+03  8.267066573861482e+01 -2.918975276816622e+03
-1.156614807434415e+03  7.913845706821526e+01 -2.918975276816622e+03
-1.156619034238647e+03  7.354772792409702e+01 -2.918975276816622e+03
-1.156618045619376e+03  7.173625827012233e+01 -2.918975276816622e+03
-1.156612343393018e+03  6.918070833581253e+01 -2.918975276816622e+03
-1.156699004864373e+03  6.717594133251777e+01 -2.918975276816622e+03
-1.156676379950263e+03  6.350223405390064e+01 -2.918975276816622e+03
-1.156483539418577e+03  6.292746628155656e+01 -2.918975276816622e+03
-1.156641476699831e+03  5.828389212939777e+01 -2.918975276816622e+03
-1.156706024076524e+03  5.633611450784752e+01 -2.918975276816622e+03
-1.156804266919680e+03  5.355963875760926e+01 -2.918975276816622e+03
-1.156745720637304e+03  5.095583163391564e+01 -2.918975276816622e+03
-1.156829296437271e+03  4.968423425400160e+01 -2.918975276816622e+03
-1.156774783176413e+03  4.800999060139934e+01 -2.918975276816622e+03
-1.156847913033383e+03  4.666818485470238e+01 -2.918975276816622e+03
-1.156978500731420e+03  4.423562286627621e+01 -2.918975276816622e+03
-1.157091692761663e+03  4.212153220314239e+01 -2.918975276816622e+03
-1.156997816268409e+03  4.156508335927756e+01 -2.918975276816622e+03
-1.157204681809342e+03  3.898574816326144e+01 -2.918975276816622e+03
-1.157206700635995e+03  3.637349836387024e+01 -2.918975276816622e+03
-1.155719671759904e+03  3.459299706778716e+01 -2.918975276816622e+03
-1.157236026197299e+03  3.336102081440546e+01 -2.918975276816622e+03
-1.157556735927063e+03  2.996101658621388e+01 -2.918975276816622e+03
-1.157497542689473e+03  2.882277363160041e+01 -2.918975276816622e+03
-1.157583814458073e+03  2.364919784217465e+01 -2.918975276816622e+03
-1.157797119750341e+03  1.903795045509258e+01 -2.918975276816622e+03
-1.157622735123548e+03  1.711532796013030e+01 -2.918975276816622e+03
-1.157707886073106e+03  1.587076077121976e+01 -2.918975276816622e+03
-1.157601038921536e+03  1.465406623937051e+01 -2.918975276816622e+03
-1.157638343697935e+03  1.324552927761901e+01 -2.918975276816622e+03
-1.157602034913341e+03  1.195653920757450e+01 -2.918975276816622e+03
-1.157473799833239e+03  7.573598952529891e+00 -2.918975276816622e+03
1.154291405676900e+03 5.926847561672343e-01 2.918975276816622e+03
 1.154651501328587e+03 -1.437187424740446e+00  2.918975276816622e+03
 1.154626669526240e+03 -2.053073816482988e+00  2.918975276816622e+03
 1.154565636949780e+03 -4.623662115191949e+00  2.918975276816622e+03
 1.154436386253007e+03 -9.298403299676572e+00  2.918975276816622e+03
 1.154233720605812e+03 -1.650283004751476e+01  2.918975276816622e+03
 1.154108266940263e+03 -2.117605840644849e+01  2.918975276816622e+03
 1.153917350558307e+03 -2.666466512057007e+01  2.918975276816622e+03
 1.153932296661121e+03 -2.681959609252715e+01  2.918975276816622e+03
 1.153919659337912e+03 -3.025280802492783e+01  2.918975276816622e+03
 1.153717006865491e+03 -3.481621867728250e+01  2.918975276816622e+03
 1.153669790976521e+03 -3.784023221610240e+01  2.918975276816622e+03
 1.154360255503395e+03 -4.292770830266862e+01  2.918975276816622e+03
 1.153642978139357e+03 -4.590789878138686e+01  2.918975276816622e+03
 1.153196060273348e+03 -4.896571511587238e+01  2.918975276816622e+03
 1.153637514346112e+03 -5.099482041256057e+01  2.918975276816622e+03
 1.154180474698152e+03 -5.256736833311218e+01  2.918975276816622e+03
 1.153686609481385e+03 -5.425431079683784e+01  2.918975276816622e+03
 1.153381212037764e+03 -5.662238932152774e+01  2.918975276816622e+03
 1.153200420584597e+03 -5.882215310212544e+01  2.918975276816622e+03
 1.153581542245805e+03 -6.055594472073713e+01  2.918975276816622e+03
 1.153830765743957e+03 -6.168538766039912e+01  2.918975276816622e+03
 1.153198649241883e+03 -6.346312150013401e+01  2.918975276816622e+03
 1.153610332264248e+03 -6.531091962681300e+01  2.918975276816622e+03
 1.153842355896767e+03 -6.634932210377127e+01  2.918975276816622e+03
 1.153673004851956e+03 -6.920939683832569e+01  2.918975276816622e+03
 1.153095163574518e+03 -7.093866427785483e+01  2.918975276816622e+03
 1.153662405876183e+03 -7.203264975699874e+01  2.918975276816622e+03
 1.153875510585243e+03 -7.449478924144273e+01  2.918975276816622e+03
 1.153498281204531e+03 -7.812188136577072e+01  2.918975276816622e+03
 1.153536348533294e+03 -8.072678914496225e+01  2.918975276816622e+03
 1.153843410075169e+03 -8.183798113918350e+01  2.918975276816622e+03
 1.153734813092787e+03 -8.478259526928079e+01  2.918975276816622e+03
 1.153336070612957e+03 -8.602672425947493e+01  2.918975276816622e+03
 1.153292237103444e+03 -8.895049808778693e+01  2.918975276816622e+03
 1.153725545262356e+03 -9.070913794665584e+01  2.918975276816622e+03
 1.153770959828031e+03 -9.233788580782686e+01  2.918975276816622e+03
 1.153706563873126e+03 -9.467571053919494e+01  2.918975276816622e+03
 1.153653975573649e+03 -9.736909549604263e+01  2.918975276816622e+03
 1.153647530818534e+03 -9.787265847928963e+01  2.918975276816622e+03
 1.153646063405018e+03 -1.004401323100754e+02  2.918975276816622e+03
 1.153669571570163e+03 -1.036499313463676e+02  2.918975276816622e+03
 1.153597292603156e+03 -1.052027784199127e+02  2.918975276816622e+03
 1.153636125121878e+03 -1.060982151451471e+02  2.918975276816622e+03
 1.153594203957787e+03 -1.089817136910911e+02  2.918975276816622e+03
 1.153602429663227e+03 -1.105914478464419e+02  2.918975276816622e+03
 1.153516629909796e+03 -1.122058439100878e+02  2.918975276816622e+03
 1.153524167474819e+03 -1.146151248291272e+02  2.918975276816622e+03
 1.153554930386732e+03 -1.172131837908285e+02  2.918975276816622e+03
 1.153464578866818e+03 -1.204429820943262e+02  2.918975276816622e+03
 1.153471399092821e+03 -1.250809951639508e+02  2.918975276816622e+03
 1.153391502477541e+03 -1.252575659007002e+02  2.918975276816622e+03
 1.153398592257682e+03 -1.290068372950224e+02  2.918975276816622e+03
 1.153359723399144e+03 -1.331221820409314e+02  2.918975276816622e+03
 1.153605054628096e+03 -1.433364484562735e+02  2.918975276816622e+03
 1.153613735097390e+03 -1.457930624560344e+02  2.918975276816622e+03
 1.153574269271868e+03 -1.488925181104495e+02  2.918975276816622e+03
 1.153602034831262e+03 -1.506984894130372e+02  2.918975276816622e+03
 1.153616462168488e+03 -1.523201192629402e+02  2.918975276816622e+03
 1.153673350104776e+03 -1.543363415351489e+02  2.918975276816622e+03
 1.153586001185752e+03 -1.578210521717028e+02  2.918975276816622e+03
 1.153678087704188e+03 -1.603520152060979e+02  2.918975276816622e+03
 1.153627366380051e+03 -1.616037205348281e+02  2.918975276816622e+03
 1.153680585481914e+03 -1.624318657171156e+02  2.918975276816622e+03
 1.153606430079755e+03 -1.636287440303067e+02  2.918975276816622e+03
 1.153691133505489e+03 -1.656084581965513e+02  2.918975276816622e+03
 1.153621356786663e+03 -1.664499575301966e+02  2.918975276816622e+03
 1.153707325494780e+03 -1.686906889304877e+02  2.918975276816622e+03
 1.153612796448800e+03 -1.705110423168557e+02  2.918975276816622e+03
 1.153705530818279e+03 -1.721179600096562e+02  2.918975276816622e+03
 1.153592190527072e+03 -1.743256755398338e+02  2.918975276816622e+03
 1.153700794485156e+03 -1.779434721765055e+02  2.918975276816622e+03
 1.153574567255194e+03 -1.806182614578692e+02  2.918975276816622e+03
 1.153653949665833e+03 -1.839180176037235e+02  2.918975276816622e+03
 1.153569420102554e+03 -1.862028801033046e+02  2.918975276816622e+03
 1.153897234140927e+03 -1.881455837653490e+02  2.918975276816622e+03
 1.153587937593171e+03 -1.913954702652912e+02  2.918975276816622e+03
 1.153640260270148e+03 -1.942766755276296e+02  2.918975276816622e+03
 1.153589396994836e+03 -1.978438651856789e+02  2.918975276816622e+03
 1.153624829401614e+03 -2.009862220858960e+02  2.918975276816622e+03
 1.153616476831603e+03 -2.087259779056879e+02  2.918975276816622e+03
 1.153619088894812e+03 -2.110708590382654e+02  2.918975276816622e+03
 1.153622776310286e+03 -2.178609378350569e+02  2.918975276816622e+03
 1.153646729106616e+03 -2.204440902485781e+02  2.918975276816622e+03
 1.153633550023245e+03 -2.234146148342124e+02  2.918975276816622e+03
 1.153635950126190e+03 -2.241709295710695e+02  2.918975276816622e+03
 1.153625216687689e+03 -2.257201779191788e+02  2.918975276816622e+03
 1.153656997570910e+03 -2.287982606999774e+02  2.918975276816622e+03
 1.153657113297063e+03 -2.304355246451434e+02  2.918975276816622e+03
 1.153679744860032e+03 -2.317930706767266e+02  2.918975276816622e+03
 1.153672476527531e+03 -2.344304910034000e+02  2.918975276816622e+03
 1.153516440980791e+03 -2.396170640101624e+02  2.918975276816622e+03
 1.154180603144351e+03 -2.409578770365809e+02  2.918975276816622e+03
 1.153771140911914e+03 -2.446259612305943e+02  2.918975276816622e+03
 1.153701219194101e+03 -2.476479215301153e+02  2.918975276816622e+03
 1.153837474768733e+03 -2.527727735679463e+02  2.918975276816622e+03
 1.153885143611963e+03 -2.554450645296515e+02  2.918975276816622e+03
 1.153717788675154e+03 -2.572487852154688e+02  2.918975276816622e+03
 1.153762071199411e+03 -2.607920770744165e+02  2.918975276816622e+03
 1.154039773641292e+03 -2.614237769428622e+02  2.918975276816622e+03
 1.153837268979817e+03 -2.657812995427373e+02  2.918975276816622e+03
 1.153841652275667e+03 -2.685535293718279e+02  2.918975276816622e+03
 1.153864504260714e+03 -2.715197163272774e+02  2.918975276816622e+03
 1.153893812270411e+03 -2.723148647064926e+02  2.918975276816622e+03
 1.153875712119411e+03 -2.743172238857967e+02  2.918975276816622e+03
 1.153896538533818e+03 -2.774877738471450e+02  2.918975276816622e+03
 1.153892993016726e+03 -2.794508218672192e+02  2.918975276816622e+03
 1.153908207933697e+03 -2.801625059765057e+02  2.918975276816622e+03
 1.153907146538289e+03 -2.834666822512081e+02  2.918975276816622e+03
 1.153919429065194e+03 -2.861098818745805e+02  2.918975276816622e+03
 1.153939130378556e+03 -2.914039977428677e+02  2.918975276816622e+03
 1.153960776539437e+03 -2.951258529196437e+02  2.918975276816622e+03
 1.153970519277879e+03 -2.965537877275208e+02  2.918975276816622e+03
 1.153969047867850e+03 -2.975087418255541e+02  2.918975276816622e+03
 1.153965287378016e+03 -2.978325967094964e+02  2.918975276816622e+03
 1.153956915991267e+03 -2.988003150901520e+02  2.918975276816622e+03
 1.153792924869923e+03 -3.032782984215954e+02  2.918975276816622e+03
 1.153953903821223e+03 -3.038468344593550e+02  2.918975276816622e+03
 1.153931246040619e+03 -3.074019794724799e+02  2.918975276816622e+03
 1.153889000820456e+03 -3.094284100106851e+02  2.918975276816622e+03
 1.153850008396175e+03 -3.100670186576834e+02  2.918975276816622e+03
 1.153873667088163e+03 -3.110971020123392e+02  2.918975276816622e+03
 1.153888069244782e+03 -3.116015427120645e+02  2.918975276816622e+03
 1.153869525952092e+03 -3.134187280817985e+02  2.918975276816622e+03
 1.153852142084867e+03 -3.145290224540807e+02  2.918975276816622e+03
 1.153750657666688e+03 -3.176865687963613e+02  2.918975276816622e+03
 1.153807576176525e+03 -3.214122538924332e+02  2.918975276816622e+03
 1.153698733906675e+03 -3.260628157179368e+02  2.918975276816622e+03
 1.153886783437310e+03 -3.285477337046876e+02  2.918975276816622e+03
 1.153914165618854e+03 -3.314676848495012e+02  2.918975276816622e+03
 1.153601345879461e+03 -3.323195183914966e+02  2.918975276816622e+03
 1.153405255659124e+03 -3.348185305648234e+02  2.918975276816622e+03
 1.153656748875325e+03 -3.385151972765133e+02  2.918975276816622e+03
 1.153873416436501e+03 -3.395965930323258e+02  2.918975276816622e+03
 1.153850846014838e+03 -3.439644936712381e+02  2.918975276816622e+03
 1.153485825022985e+03 -3.466267297471181e+02  2.918975276816622e+03
 1.153366458218649e+03 -3.505798893147245e+02  2.918975276816622e+03
 1.153717872952617e+03 -3.527315265010654e+02  2.918975276816622e+03
 1.153717006639517e+03 -3.548390833823170e+02  2.918975276816622e+03
 1.153590354395856e+03 -3.572104630533985e+02  2.918975276816622e+03
 1.153649744100215e+03 -3.601388366847428e+02  2.918975276816622e+03
 1.153702764182193e+03 -3.631554621563983e+02  2.918975276816622e+03
 1.153641276219141e+03 -3.646708957671005e+02  2.918975276816622e+03
 1.153591793763679e+03 -3.659119137683927e+02  2.918975276816622e+03
 1.153755550688012e+03 -3.667922627377051e+02  2.918975276816622e+03
 1.153722404712289e+03 -3.687901754053040e+02  2.918975276816622e+03
 1.153538219442843e+03 -3.709042864037087e+02  2.918975276816622e+03
 1.153103539231019e+03 -3.742804818401315e+02  2.918975276816622e+03
 1.153804995932290e+03 -3.760417409549884e+02  2.918975276816622e+03
 1.153865538389904e+03 -3.815136122667421e+02  2.918975276816622e+03
 1.153779899662924e+03 -3.833837790353276e+02  2.918975276816622e+03
 1.153569330391718e+03 -3.838435143470702e+02  2.918975276816622e+03
1.153723462528095e+03 3.851939996678357e+02 2.918975276816622e+03
1.153835736914121e+03 3.840005688969421e+02 2.918975276816622e+03
1.153830757547687e+03 3.815511044597701e+02 2.918975276816622e+03
1.153758303579521e+03 3.811164157410289e+02 2.918975276816622e+03
1.153861626870973e+03 3.765633960334990e+02 2.918975276816622e+03
1.153859321266132e+03 3.733480401144331e+02 2.918975276816622e+03
1.153899839139604e+03 3.723185908529696e+02 2.918975276816622e+03
1.153881712438012e+03 3.708632095343847e+02 2.918975276816622e+03
1.153937803994417e+03 3.675270155583306e+02 2.918975276816622e+03
1.153988415538119e+03 3.665075358425432e+02 2.918975276816622e+03
1.153959007951184e+03 3.648392895156944e+02 2.918975276816622e+03
1.153906622405991e+03 3.625578748134683e+02 2.918975276816622e+03
1.153996554557066e+03 3.593188347123140e+02 2.918975276816622e+03
1.154302886319016e+03 3.578346733196361e+02 2.918975276816622e+03
1.154043907730782e+03 3.558288382637299e+02 2.918975276816622e+03
1.154029636171535e+03 3.532104081154686e+02 2.918975276816622e+03
1.154100355592872e+03 3.522040453076751e+02 2.918975276816622e+03
1.154134813869860e+03 3.504876137660809e+02 2.918975276816622e+03
1.154004000986645e+03 3.452019274358641e+02 2.918975276816622e+03
1.154219673561531e+03 3.430719607974593e+02 2.918975276816622e+03
1.154391142978498e+03 3.419153743912524e+02 2.918975276816622e+03
1.154387114037711e+03 3.397106796882630e+02 2.918975276816622e+03
1.154239171231347e+03 3.324746744184975e+02 2.918975276816622e+03
1.154893773592821e+03 3.317657483553081e+02 2.918975276816622e+03
1.154666157005529e+03 3.279111225934400e+02 2.918975276816622e+03
1.154398491123142e+03 3.266231447048957e+02 2.918975276816622e+03
1.154479943506287e+03 3.216897650280100e+02 2.918975276816622e+03
1.154513809725550e+03 3.192908772482715e+02 2.918975276816622e+03
1.154487453868316e+03 3.163320340656376e+02 2.918975276816622e+03
1.154498160345193e+03 3.137393900077674e+02 2.918975276816622e+03
1.154482735501779e+03 3.112627631127609e+02 2.918975276816622e+03
1.154498005970573e+03 3.084410422337842e+02 2.918975276816622e+03
1.154354008730240e+03 3.017677588407651e+02 2.918975276816622e+03
1.154202012162750e+03 2.997501003128677e+02 2.918975276816622e+03
1.154631215016026e+03 2.947872648300165e+02 2.918975276816622e+03
1.154257640658250e+03 2.937377636447811e+02 2.918975276816622e+03
1.153826303559557e+03 2.880168167922262e+02 2.918975276816622e+03
1.154366991390938e+03 2.878009792674633e+02 2.918975276816622e+03
1.154212477295468e+03 2.817502309875772e+02 2.918975276816622e+03
1.153830356866380e+03 2.798137380263653e+02 2.918975276816622e+03
1.154039689848536e+03 2.769403904532003e+02 2.918975276816622e+03
1.154358477418899e+03 2.749995916406627e+02 2.918975276816622e+03
1.153829584938981e+03 2.708663049943947e+02 2.918975276816622e+03
1.153841444093771e+03 2.682878904809409e+02 2.918975276816622e+03
1.153960217108360e+03 2.644332366061208e+02 2.918975276816622e+03
1.153606412189978e+03 2.638040774037840e+02 2.918975276816622e+03
1.153784365512565e+03 2.606696233493799e+02 2.918975276816622e+03
1.153689329247795e+03 2.579367610078856e+02 2.918975276816622e+03
1.153796367016359e+03 2.562749141872047e+02 2.918975276816622e+03
1.153604250352628e+03 2.546516169488908e+02 2.918975276816622e+03
1.153667015600385e+03 2.531583752888194e+02 2.918975276816622e+03
1.153588507675599e+03 2.524655785003248e+02 2.918975276816622e+03
1.153730136183256e+03 2.505543357966339e+02 2.918975276816622e+03
1.153567429028805e+03 2.488317742027753e+02 2.918975276816622e+03
1.153719835601516e+03 2.483481616834333e+02 2.918975276816622e+03
1.153675774455637e+03 2.464859839347845e+02 2.918975276816622e+03
1.153555386333045e+03 2.456944695466493e+02 2.918975276816622e+03
1.153118787655040e+03 2.433127260550628e+02 2.918975276816622e+03
1.153065169576535e+03 2.417912562218178e+02 2.918975276816622e+03
1.153572185269030e+03 2.401041027602128e+02 2.918975276816622e+03
1.154243408887415e+03 2.383295484956747e+02 2.918975276816622e+03
1.153487762588413e+03 2.358916306538335e+02 2.918975276816622e+03
1.153552734613205e+03 2.330812842928776e+02 2.918975276816622e+03
1.153728783645005e+03 2.328359500077846e+02 2.918975276816622e+03
1.153879661406434e+03 2.299350229399740e+02 2.918975276816622e+03
1.153615076271048e+03 2.286290022393378e+02 2.918975276816622e+03
1.153514080644751e+03 2.267295259660814e+02 2.918975276816622e+03
1.153654090860902e+03 2.254792463904215e+02 2.918975276816622e+03
1.153740598930189e+03 2.243422246016109e+02 2.918975276816622e+03
1.153688467890233e+03 2.212582196286326e+02 2.918975276816622e+03
1.153733763231829e+03 2.181448630646803e+02 2.918975276816622e+03
1.153796140324855e+03 2.106038362372659e+02 2.918975276816622e+03
1.153810280619682e+03 2.095702983998983e+02 2.918975276816622e+03
1.153711849826452e+03 2.037242176929233e+02 2.918975276816622e+03
1.153789494209640e+03 2.009238417348790e+02 2.918975276816622e+03
1.153915732532015e+03 1.957065642128857e+02 2.918975276816622e+03
1.153901505832123e+03 1.923822219771152e+02 2.918975276816622e+03
1.153787437751512e+03 1.922382147648467e+02 2.918975276816622e+03
1.153741944679245e+03 1.898886356424403e+02 2.918975276816622e+03
1.153737202199732e+03 1.875404788263585e+02 2.918975276816622e+03
1.153724320414465e+03 1.841719657589933e+02 2.918975276816622e+03
1.153730561915127e+03 1.819518005124006e+02 2.918975276816622e+03
1.153618557615651e+03 1.760073955124029e+02 2.918975276816622e+03
1.153576052223998e+03 1.679839953000311e+02 2.918975276816622e+03
1.153514018438487e+03 1.662652563025496e+02 2.918975276816622e+03
1.153447434581543e+03 1.590722460538663e+02 2.918975276816622e+03
1.153630362308166e+03 1.575838961170376e+02 2.918975276816622e+03
1.153751881559841e+03 1.530813646951355e+02 2.918975276816622e+03
1.154263554577166e+03 1.524770626130904e+02 2.918975276816622e+03
1.153647917273249e+03 1.497012422316132e+02 2.918975276816622e+03
1.154071652491674e+03 1.483440297305718e+02 2.918975276816622e+03
1.153803460029894e+03 1.469555843009036e+02 2.918975276816622e+03
1.152882725100220e+03 1.470367197591794e+02 2.918975276816622e+03
1.153669775612832e+03 1.450134956391475e+02 2.918975276816622e+03
1.153819214536784e+03 1.416263012178004e+02 2.918975276816622e+03
1.153462488137314e+03 1.393237111499241e+02 2.918975276816622e+03
1.153512744094151e+03 1.388732969923337e+02 2.918975276816622e+03
1.153509147984139e+03 1.363073089566231e+02 2.918975276816622e+03
1.153441418389906e+03 1.303007526629138e+02 2.918975276816622e+03
1.153506887793708e+03 1.280529800494081e+02 2.918975276816622e+03
1.153352843623707e+03 1.269023095660431e+02 2.918975276816622e+03
1.153031557476040e+03 1.259447856619413e+02 2.918975276816622e+03
1.152825036866695e+03 1.246594349191589e+02 2.918975276816622e+03
1.152973219675975e+03 1.214028370582160e+02 2.918975276816622e+03
1.153131129651493e+03 1.199093358165866e+02 2.918975276816622e+03
1.152911684090090e+03 1.186882722490971e+02 2.918975276816622e+03
1.152002096716295e+03 1.163479102008772e+02 2.918975276816622e+03
1.152587427186901e+03 1.131187356638193e+02 2.918975276816622e+03
1.152730502129428e+03 1.115010931414121e+02 2.918975276816622e+03
1.152457692761573e+03 1.102853659256793e+02 2.918975276816622e+03
1.152396568883741e+03 1.069335845400239e+02 2.918975276816622e+03
1.152465902150424e+03 1.056180651948040e+02 2.918975276816622e+03
1.152721125077279e+03 1.045461994802471e+02 2.918975276816622e+03
1.153382657300278e+03 1.014884647052732e+02 2.918975276816622e+03
1.153434902866264e+03 9.937859150644319e+01 2.918975276816622e+03
1.153885896479588e+03 9.658111515734539e+01 2.918975276816622e+03
1.153731640728352e+03 9.655184065368981e+01 2.918975276816622e+03
1.153746397265906e+03 9.355429011855036e+01 2.918975276816622e+03
1.154287216176077e+03 9.131991794412377e+01 2.918975276816622e+03
1.154484256010261e+03 8.763086226451226e+01 2.918975276816622e+03
1.153889443104144e+03 8.580026034485292e+01 2.918975276816622e+03
1.154000546892943e+03 8.266839971654490e+01 2.918975276816622e+03
1.154497486555244e+03 8.002784452473722e+01 2.918975276816622e+03
1.155138768471011e+03 7.835130468698276e+01 2.918975276816622e+03
1.154930758450349e+03 6.764867405830530e+01 2.918975276816622e+03
1.154916074305451e+03 6.601651980289826e+01 2.918975276816622e+03
1.154893140583280e+03 6.259249909681331e+01 2.918975276816622e+03
1.155186006757747e+03 5.972570028415408e+01 2.918975276816622e+03
1.154918303924702e+03 5.816189197851556e+01 2.918975276816622e+03
1.155179215965307e+03 5.736469841871695e+01 2.918975276816622e+03
1.154920292480081e+03 5.520214229282058e+01 2.918975276816622e+03
1.155099982493801e+03 5.441599080463256e+01 2.918975276816622e+03
1.154791057822578e+03 5.151252356790749e+01 2.918975276816622e+03
1.155027462217636e+03 5.009330091227427e+01 2.918975276816622e+03
1.154757925604467e+03 4.770890421683369e+01 2.918975276816622e+03
1.154888936065591e+03 4.750707314671887e+01 2.918975276816622e+03
1.154739219609776e+03 4.457240369444034e+01 2.918975276816622e+03
1.155137508675988e+03 4.261084919266990e+01 2.918975276816622e+03
1.154745194057647e+03 4.167212649731056e+01 2.918975276816622e+03
1.154966750518555e+03 4.059990657199322e+01 2.918975276816622e+03
1.155085486746789e+03 3.903972859094019e+01 2.918975276816622e+03
1.155095702555336e+03 3.552674442488217e+01 2.918975276816622e+03
1.154910742656731e+03 3.411586180787433e+01 2.918975276816622e+03
1.154816383382834e+03 3.207236805966699e+01 2.918975276816622e+03
1.154838812108626e+03 3.019141529718337e+01 2.918975276816622e+03
1.155131310531724e+03 2.830963705514421e+01 2.918975276816622e+03
1.155083620302757e+03 2.545239494617204e+01 2.918975276816622e+03
1.155079144083732e+03 1.597299513473150e+01 2.918975276816622e+03
1.154886447206761e+03 1.443890995496385e+01 2.918975276816622e+03
1.155076201111304e+03 1.345703654727121e+01 2.918975276816622e+03
1.154998593925274e+03 1.159927266219226e+01 2.918975276816622e+03
1.154871182043163e+03 1.024637872291247e+01 2.918975276816622e+03
1.154818187887817e+03 5.442551380585758e+00 2.918975276816622e+03
1.154786961528215e+03 4.350398913646331e+00 2.918975276816622e+03
1.154695158297875e+03 2.471825361090262e+00 2.918975276816622e+03
1.154722569808582e+03 9.394190551177370e-01 2.918975276816622e+03
-1.148022869217610e+03 -3.863858941524650e+02 -2.918975276816622e+03
-1.148022869217610e+03  3.863858941524653e+02 -2.918975276816622e+03
 1.144988253010139e+03 -3.863858941524653e+02  2.918975276816622e+03
1.144988253010139e+03 3.863858941524650e+02 2.918975276816622e+03
-1.156829799944528e+03 -3.863858941524650e+02 -2.918975276816622e+03
-1.156829799944528e+03  3.863858941524653e+02 -2.918975276816622e+03
 1.153674267094395e+03 -3.863858941524653e+02  2.918975276816622e+03
1.153674267094395e+03 3.863858941524650e+02 2.918975276816622e+03
-1.148491175703509e+03  2.612338074658737e-02 -2.918975276816622e+03
-1.148498634819335e+03  3.166322026156729e+00 -2.918975276816622e+03
-1.148563103866952e+03 -1.397106352593821e+00 -2.918975276816622e+03
-1.148584185398978e+03 -2.840280025444244e+00 -2.918975276816622e+03
-1.148490513884716e+03 -4.593786186951979e+00 -2.918975276816622e+03
-1.148447731195178e+03 -5.787473067995297e+00 -2.918975276816622e+03
-1.148488511828928e+03 -7.267768281510824e+00 -2.918975276816622e+03
-1.148515432590062e+03 -9.404852560548930e+00 -2.918975276816622e+03
-1.148523345444008e+03 -1.179623764232429e+01 -2.918975276816622e+03
-1.148486733591451e+03 -1.332856501107002e+01 -2.918975276816622e+03
-1.148408183152078e+03 -1.513729635488599e+01 -2.918975276816622e+03
-1.148281012020184e+03 -1.835260830157473e+01 -2.918975276816622e+03
-1.148288938132025e+03 -2.149996974013810e+01 -2.918975276816622e+03
-1.148367875994265e+03 -2.491602951523712e+01 -2.918975276816622e+03
-1.148275652899503e+03 -2.748664495988679e+01 -2.918975276816622e+03
-1.148188497856512e+03 -2.972481180009398e+01 -2.918975276816622e+03
-1.148162279516750e+03 -3.308374212574191e+01 -2.918975276816622e+03
-1.148004325543666e+03 -3.518717558605661e+01 -2.918975276816622e+03
-1.148011476602316e+03 -3.705218786524284e+01 -2.918975276816622e+03
-1.148507794013101e+03 -3.956694510194291e+01 -2.918975276816622e+03
-1.147900754694009e+03 -4.067482588116719e+01 -2.918975276816622e+03
-1.147425184365730e+03 -4.203038653621633e+01 -2.918975276816622e+03
-1.147764546927511e+03 -4.425095635577817e+01 -2.918975276816622e+03
-1.147485604229200e+03 -4.630386444322698e+01 -2.918975276816622e+03
-1.147200574788501e+03 -4.861132724065982e+01 -2.918975276816622e+03
-1.146430510095932e+03 -5.114894413471643e+01 -2.918975276816622e+03
-1.146915823673908e+03 -5.270282560005680e+01 -2.918975276816622e+03
-1.147986608510330e+03 -5.432482106409773e+01 -2.918975276816622e+03
-1.148099655212500e+03 -5.710826009853802e+01 -2.918975276816622e+03
-1.148151944826679e+03 -5.928381152339146e+01 -2.918975276816622e+03
-1.148034004870526e+03 -6.072331850107066e+01 -2.918975276816622e+03
-1.147975335254566e+03 -6.231793545296845e+01 -2.918975276816622e+03
-1.147920383764141e+03 -6.383230498387778e+01 -2.918975276816622e+03
-1.147856623334332e+03 -6.536253570065351e+01 -2.918975276816622e+03
-1.147871701178689e+03 -6.689425988202032e+01 -2.918975276816622e+03
-1.147864671746848e+03 -6.867519753876364e+01 -2.918975276816622e+03
-1.147784475767899e+03 -7.027456579953358e+01 -2.918975276816622e+03
-1.147761141931471e+03 -7.136375316351304e+01 -2.918975276816622e+03
-1.147870275936515e+03 -7.315246995169453e+01 -2.918975276816622e+03
-1.147872658870375e+03 -7.473865623489490e+01 -2.918975276816622e+03
-1.147687524206777e+03 -7.580743361754099e+01 -2.918975276816622e+03
-1.147772672929793e+03 -7.731740791122152e+01 -2.918975276816622e+03
-1.147910628260833e+03 -7.930144375068193e+01 -2.918975276816622e+03
-1.147381415814227e+03 -8.080819031795143e+01 -2.918975276816622e+03
-1.147187993664126e+03 -8.252159906703665e+01 -2.918975276816622e+03
-1.147873169762181e+03 -8.445294881926738e+01 -2.918975276816622e+03
-1.147995410463881e+03 -8.632189864391330e+01 -2.918975276816622e+03
-1.147656109879588e+03 -8.848348164115747e+01 -2.918975276816622e+03
-1.147638083000912e+03 -8.996228184810592e+01 -2.918975276816622e+03
-1.147722308383628e+03 -9.126672858482139e+01 -2.918975276816622e+03
-1.147710678388126e+03 -9.348685162305870e+01 -2.918975276816622e+03
-1.147665445454204e+03 -9.520432192406012e+01 -2.918975276816622e+03
-1.147677578364105e+03 -9.700322469539429e+01 -2.918975276816622e+03
-1.147684674363825e+03 -9.940070868791909e+01 -2.918975276816622e+03
-1.147576466405392e+03 -1.008670883158232e+02 -2.918975276816622e+03
-1.147544752217059e+03 -1.023149116736437e+02 -2.918975276816622e+03
-1.147657000054466e+03 -1.037454367751062e+02 -2.918975276816622e+03
-1.147667226592249e+03 -1.052418064303464e+02 -2.918975276816622e+03
-1.147602644727363e+03 -1.067577522986282e+02 -2.918975276816622e+03
-1.147570754244940e+03 -1.085033356586966e+02 -2.918975276816622e+03
-1.147579897682221e+03 -1.101302558782098e+02 -2.918975276816622e+03
-1.147565497024439e+03 -1.113945985653895e+02 -2.918975276816622e+03
-1.147536555589174e+03 -1.131889441082945e+02 -2.918975276816622e+03
-1.147555410558371e+03 -1.141583476892298e+02 -2.918975276816622e+03
-1.147576250437199e+03 -1.149728877546308e+02 -2.918975276816622e+03
-1.147571359150821e+03 -1.170409177927758e+02 -2.918975276816622e+03
-1.147568378346339e+03 -1.192269157779374e+02 -2.918975276816622e+03
-1.147583762415421e+03 -1.207340614071492e+02 -2.918975276816622e+03
-1.147571081677673e+03 -1.224782884380357e+02 -2.918975276816622e+03
-1.147550972730269e+03 -1.242342105864333e+02 -2.918975276816622e+03
-1.147521429143342e+03 -1.260212570973896e+02 -2.918975276816622e+03
-1.147510269891200e+03 -1.283485881954313e+02 -2.918975276816622e+03
-1.147647952451245e+03 -1.296204464508997e+02 -2.918975276816622e+03
-1.148109467419454e+03 -1.308628909122230e+02 -2.918975276816622e+03
-1.148036629075169e+03 -1.330591254081071e+02 -2.918975276816622e+03
-1.147594377195237e+03 -1.342480622588179e+02 -2.918975276816622e+03
-1.147564428315897e+03 -1.350677178200571e+02 -2.918975276816622e+03
-1.147579896789459e+03 -1.370767627731641e+02 -2.918975276816622e+03
-1.147615820356870e+03 -1.392296003910519e+02 -2.918975276816622e+03
-1.147739826223128e+03 -1.406733684963700e+02 -2.918975276816622e+03
-1.147758398935167e+03 -1.422231426156885e+02 -2.918975276816622e+03
-1.147619936536650e+03 -1.436618712666234e+02 -2.918975276816622e+03
-1.147606368485052e+03 -1.451487323592876e+02 -2.918975276816622e+03
-1.147657232876863e+03 -1.466468550307307e+02 -2.918975276816622e+03
-1.147682526438178e+03 -1.484067932948070e+02 -2.918975276816622e+03
-1.147785483426557e+03 -1.500105344769528e+02 -2.918975276816622e+03
-1.147814941206662e+03 -1.511995022907408e+02 -2.918975276816622e+03
-1.147763761086215e+03 -1.530328810285099e+02 -2.918975276816622e+03
-1.147761020105111e+03 -1.540453370627285e+02 -2.918975276816622e+03
-1.147773800357152e+03 -1.550097950527368e+02 -2.918975276816622e+03
-1.147797975738662e+03 -1.580641036059666e+02 -2.918975276816622e+03
-1.147826408568564e+03 -1.606978673263662e+02 -2.918975276816622e+03
-1.147849911985659e+03 -1.622067035899432e+02 -2.918975276816622e+03
-1.147866338718438e+03 -1.639574211425821e+02 -2.918975276816622e+03
-1.147871482684166e+03 -1.659924820673876e+02 -2.918975276816622e+03
-1.147882843106072e+03 -1.685245192100632e+02 -2.918975276816622e+03
-1.147894203527978e+03 -1.710565563527388e+02 -2.918975276816622e+03
-1.147919267071794e+03 -1.739933479660570e+02 -2.918975276816622e+03
-1.147960954526264e+03 -1.769900732680470e+02 -2.918975276816622e+03
-1.147980627740451e+03 -1.792648962834699e+02 -2.918975276816622e+03
-1.147969622626868e+03 -1.807438245349983e+02 -2.918975276816622e+03
-1.147972036050794e+03 -1.822083868003042e+02 -2.918975276816622e+03
-1.148014476042640e+03 -1.839245680347906e+02 -2.918975276816622e+03
-1.148051326224133e+03 -1.859019099963649e+02 -2.918975276816622e+03
-1.148061721863607e+03 -1.882932409889223e+02 -2.918975276816622e+03
-1.148034515065223e+03 -1.898058589544403e+02 -2.918975276816622e+03
-1.147993367634325e+03 -1.910318204865878e+02 -2.918975276816622e+03
-1.147954872254312e+03 -1.929197811049579e+02 -2.918975276816622e+03
-1.147990045156266e+03 -1.940977134653081e+02 -2.918975276816622e+03
-1.148034937615308e+03 -1.951722402266596e+02 -2.918975276816622e+03
-1.148014178959263e+03 -1.980538654454993e+02 -2.918975276816622e+03
-1.147965483844460e+03 -2.005710333525576e+02 -2.918975276816622e+03
-1.147966225270218e+03 -2.020831583640817e+02 -2.918975276816622e+03
-1.148010229128328e+03 -2.035689446092036e+02 -2.918975276816622e+03
-1.148000437872156e+03 -2.050366983936846e+02 -2.918975276816622e+03
-1.147913785856588e+03 -2.065459452901758e+02 -2.918975276816622e+03
-1.147871407509120e+03 -2.083458095740998e+02 -2.918975276816622e+03
-1.147984385047055e+03 -2.100137477718275e+02 -2.918975276816622e+03
-1.147999092558716e+03 -2.114140715900082e+02 -2.918975276816622e+03
-1.147854160188213e+03 -2.140090693029968e+02 -2.918975276816622e+03
-1.147821811597659e+03 -2.169202931899373e+02 -2.918975276816622e+03
-1.147849605061375e+03 -2.191677867006418e+02 -2.918975276816622e+03
-1.147781924101679e+03 -2.206537169609398e+02 -2.918975276816622e+03
-1.147614058920184e+03 -2.221701708766984e+02 -2.918975276816622e+03
-1.147588992797280e+03 -2.238844306264772e+02 -2.918975276816622e+03
-1.147645472074151e+03 -2.258458224241310e+02 -2.918975276816622e+03
-1.147556774953212e+03 -2.282516546761332e+02 -2.918975276816622e+03
-1.147477185673370e+03 -2.298207402671550e+02 -2.918975276816622e+03
-1.147387737481925e+03 -2.310855033840057e+02 -2.918975276816622e+03
-1.147244387689813e+03 -2.328764671520797e+02 -2.918975276816622e+03
-1.147242229726389e+03 -2.338398542931833e+02 -2.918975276816622e+03
-1.147373279767773e+03 -2.347331992479843e+02 -2.918975276816622e+03
-1.147351833306987e+03 -2.368405399649984e+02 -2.918975276816622e+03
-1.147425296318477e+03 -2.391219948006123e+02 -2.918975276816622e+03
-1.147602902428139e+03 -2.406511993532154e+02 -2.918975276816622e+03
-1.147689553672561e+03 -2.421655028561943e+02 -2.918975276816622e+03
-1.147785668662029e+03 -2.438067570079636e+02 -2.918975276816622e+03
-1.147873128766457e+03 -2.457416467920696e+02 -2.918975276816622e+03
-1.147840506133236e+03 -2.470369336053206e+02 -2.918975276816622e+03
-1.147671708001637e+03 -2.484211017634653e+02 -2.918975276816622e+03
-1.147673517802140e+03 -2.502689835283634e+02 -2.918975276816622e+03
-1.147934564745082e+03 -2.512039066562423e+02 -2.918975276816622e+03
-1.147953572003637e+03 -2.527646688064208e+02 -2.918975276816622e+03
-1.147794689084545e+03 -2.545340019739454e+02 -2.918975276816622e+03
-1.147808036381369e+03 -2.563409412067826e+02 -2.918975276816622e+03
-1.147797124500717e+03 -2.576168797608390e+02 -2.918975276816622e+03
-1.147768486483669e+03 -2.589465728619405e+02 -2.918975276816622e+03
-1.147792070853302e+03 -2.605410424547836e+02 -2.918975276816622e+03
-1.147808077789213e+03 -2.621698111457541e+02 -2.918975276816622e+03
-1.147818928065009e+03 -2.647687302355266e+02 -2.918975276816622e+03
-1.147828716124244e+03 -2.673711888678345e+02 -2.918975276816622e+03
-1.147833605398183e+03 -2.698489129959759e+02 -2.918975276816622e+03
-1.147854196186532e+03 -2.724807318194211e+02 -2.918975276816622e+03
-1.147863235863170e+03 -2.747179054283878e+02 -2.918975276816622e+03
-1.147842896229822e+03 -2.764689550306380e+02 -2.918975276816622e+03
-1.147871558324723e+03 -2.788284177239629e+02 -2.918975276816622e+03
-1.147940231041178e+03 -2.823128349816437e+02 -2.918975276816622e+03
-1.147899893743634e+03 -2.851021426900249e+02 -2.918975276816622e+03
-1.147787365562582e+03 -2.868137774019721e+02 -2.918975276816622e+03
-1.147778811345684e+03 -2.889855166860513e+02 -2.918975276816622e+03
-1.147848529753007e+03 -2.914207666130512e+02 -2.918975276816622e+03
-1.147918248160331e+03 -2.938560165400511e+02 -2.918975276816622e+03
-1.147953135527890e+03 -2.968455744419411e+02 -2.918975276816622e+03
-1.147931394209975e+03 -2.994646574643793e+02 -2.918975276816622e+03
-1.147909071172125e+03 -3.019793396900277e+02 -2.918975276816622e+03
-1.147903626719918e+03 -3.039601161204145e+02 -2.918975276816622e+03
-1.147871270934759e+03 -3.058294560110061e+02 -2.918975276816622e+03
-1.147841756145305e+03 -3.090282962138712e+02 -2.918975276816622e+03
-1.147826236617138e+03 -3.123107714303483e+02 -2.918975276816622e+03
-1.147778669350990e+03 -3.160298382458448e+02 -2.918975276816622e+03
-1.147719434721277e+03 -3.193699649806209e+02 -2.918975276816622e+03
-1.147669160738740e+03 -3.218915460500142e+02 -2.918975276816622e+03
-1.147529651249293e+03 -3.248881293916118e+02 -2.918975276816622e+03
-1.147436481970664e+03 -3.266294593974729e+02 -2.918975276816622e+03
-1.147598018833656e+03 -3.285381879604276e+02 -2.918975276816622e+03
-1.147703487621039e+03 -3.322629318329166e+02 -2.918975276816622e+03
-1.147689037957718e+03 -3.344591246689828e+02 -2.918975276816622e+03
-1.147701066460148e+03 -3.367732649107995e+02 -2.918975276816622e+03
-1.147713229116913e+03 -3.398383504950151e+02 -2.918975276816622e+03
-1.147754327811061e+03 -3.420895218349560e+02 -2.918975276816622e+03
-1.147785102156163e+03 -3.452150094438300e+02 -2.918975276816622e+03
-1.147783962949813e+03 -3.475733213417688e+02 -2.918975276816622e+03
-1.147790454499740e+03 -3.491652641302697e+02 -2.918975276816622e+03
-1.147826166008344e+03 -3.516323297892008e+02 -2.918975276816622e+03
-1.147836315831997e+03 -3.536316268047783e+02 -2.918975276816622e+03
-1.147792390206750e+03 -3.563910947468797e+02 -2.918975276816622e+03
-1.147826851243396e+03 -3.602570912706935e+02 -2.918975276816622e+03
-1.147923882868980e+03 -3.633861064730405e+02 -2.918975276816622e+03
-1.147976584657662e+03 -3.658995513420851e+02 -2.918975276816622e+03
-1.148029286446344e+03 -3.684129962111293e+02 -2.918975276816622e+03
-1.148017945801553e+03 -3.707266373497052e+02 -2.918975276816622e+03
-1.147982414908361e+03 -3.729422683400734e+02 -2.918975276816622e+03
-1.147987272250798e+03 -3.742487565437813e+02 -2.918975276816622e+03
-1.147995044234921e+03 -3.753870061732273e+02 -2.918975276816622e+03
-1.148000239802624e+03 -3.769599149448896e+02 -2.918975276816622e+03
-1.148015382011990e+03 -3.785917253248101e+02 -2.918975276816622e+03
-1.148020017897351e+03 -3.798076822828883e+02 -2.918975276816622e+03
-1.147909176133918e+03 -3.811492895850008e+02 -2.918975276816622e+03
-1.147889236294156e+03 -3.841884082695527e+02 -2.918975276816622e+03
-1.147996310695754e+03 -3.862191977211119e+02 -2.918975276816622e+03
-1.148292422813474e+03  3.820936318075766e+02 -2.918975276816622e+03
-1.147841417463520e+03  3.797236181600344e+02 -2.918975276816622e+03
-1.148270397353031e+03  3.848322663919062e+02 -2.918975276816622e+03
-1.147711454856630e+03  3.778411012867400e+02 -2.918975276816622e+03
-1.148063933333402e+03  3.768029478817498e+02 -2.918975276816622e+03
-1.148164868159881e+03  3.750906558987222e+02 -2.918975276816622e+03
-1.147918322954642e+03  3.724117957993951e+02 -2.918975276816622e+03
-1.147737239708578e+03  3.697973728558624e+02 -2.918975276816622e+03
-1.147873590773345e+03  3.670675093137189e+02 -2.918975276816622e+03
-1.148327376148944e+03  3.642222051729644e+02 -2.918975276816622e+03
-1.148781161524543e+03  3.613769010322099e+02 -2.918975276816622e+03
-1.148409419214102e+03  3.590636964446069e+02 -2.918975276816622e+03
-1.147671415726863e+03  3.564931531915728e+02 -2.918975276816622e+03
-1.147629934858373e+03  3.537900885238628e+02 -2.918975276816622e+03
-1.147866982499908e+03  3.518880958345086e+02 -2.918975276816622e+03
-1.148000295919604e+03  3.497750082239347e+02 -2.918975276816622e+03
-1.148000236838633e+03  3.472225749745967e+02 -2.918975276816622e+03
-1.147927312951594e+03  3.451261360568135e+02 -2.918975276816622e+03
-1.147891781358801e+03  3.428651282100871e+02 -2.918975276816622e+03
-1.147959210609678e+03  3.409073959874903e+02 -2.918975276816622e+03
-1.147977564342281e+03  3.393907857162105e+02 -2.918975276816622e+03
-1.147925221619969e+03  3.369053929089989e+02 -2.918975276816622e+03
-1.147832327582684e+03  3.340180300422629e+02 -2.918975276816622e+03
-1.147739433545399e+03  3.311306671755270e+02 -2.918975276816622e+03
-1.147706985190046e+03  3.286888115173637e+02 -2.918975276816622e+03
-1.147711694057477e+03  3.268692098859215e+02 -2.918975276816622e+03
-1.147645300094396e+03  3.247578549547563e+02 -2.918975276816622e+03
-1.147592988443935e+03  3.234443378372217e+02 -2.918975276816622e+03
-1.147716678625729e+03  3.221656034202661e+02 -2.918975276816622e+03
-1.147879195566842e+03  3.204906641265721e+02 -2.918975276816622e+03
-1.147838611096128e+03  3.186462940118581e+02 -2.918975276816622e+03
-1.147838457718902e+03  3.152357026041403e+02 -2.918975276816622e+03
-1.147859735118134e+03  3.115588852867937e+02 -2.918975276816622e+03
-1.147746387822359e+03  3.085874858964083e+02 -2.918975276816622e+03
-1.147801475108777e+03  3.063507765064175e+02 -2.918975276816622e+03
-1.148291432234867e+03  3.043784006833461e+02 -2.918975276816622e+03
-1.148304301564244e+03  3.022766555032330e+02 -2.918975276816622e+03
-1.147923215890820e+03  2.999414694564366e+02 -2.918975276816622e+03
-1.147903896913684e+03  2.974420591853138e+02 -2.918975276816622e+03
-1.147884577936548e+03  2.949426489141913e+02 -2.918975276816622e+03
-1.147876379603027e+03  2.925332289213514e+02 -2.918975276816622e+03
-1.147879301913119e+03  2.902137992067940e+02 -2.918975276816622e+03
-1.147882674971985e+03  2.888072293033584e+02 -2.918975276816622e+03
-1.147887936351280e+03  2.874008796119367e+02 -2.918975276816622e+03
-1.147887158457369e+03  2.847117968829277e+02 -2.918975276816622e+03
-1.147896760583679e+03  2.826114980079728e+02 -2.918975276816622e+03
-1.147898263275907e+03  2.810694521511388e+02 -2.918975276816622e+03
-1.147887679713526e+03  2.790547552872543e+02 -2.918975276816622e+03
-1.147884755302783e+03  2.770924765248477e+02 -2.918975276816622e+03
-1.147896023095063e+03  2.759256564402613e+02 -2.918975276816622e+03
-1.147881129561431e+03  2.749433555304735e+02 -2.918975276816622e+03
-1.147790469722933e+03  2.729755492917453e+02 -2.918975276816622e+03
-1.147828346997180e+03  2.713533624654258e+02 -2.918975276816622e+03
-1.147939384954691e+03  2.700540546571480e+02 -2.918975276816622e+03
-1.147909232303593e+03  2.679130268835454e+02 -2.918975276816622e+03
-1.147759792957492e+03  2.661257380077750e+02 -2.918975276816622e+03
-1.147574346472456e+03  2.643041818097986e+02 -2.918975276816622e+03
-1.147626025131425e+03  2.620343235001384e+02 -2.918975276816622e+03
-1.147842287165347e+03  2.605091104467900e+02 -2.918975276816622e+03
-1.147982259252852e+03  2.590174708951896e+02 -2.918975276816622e+03
-1.147776646193238e+03  2.573761334180826e+02 -2.918975276816622e+03
-1.147534249116079e+03  2.553733985593431e+02 -2.918975276816622e+03
-1.147570237731176e+03  2.527075655091919e+02 -2.918975276816622e+03
-1.147729738919200e+03  2.508038899226047e+02 -2.918975276816622e+03
-1.147815615268322e+03  2.498424161770683e+02 -2.918975276816622e+03
-1.147699798883941e+03  2.482844393144068e+02 -2.918975276816622e+03
-1.147709536438759e+03  2.464401232501542e+02 -2.918975276816622e+03
-1.147745558681177e+03  2.446480887241896e+02 -2.918975276816622e+03
-1.147675976489327e+03  2.434081611584331e+02 -2.918975276816622e+03
-1.147593840014370e+03  2.419768342375224e+02 -2.918975276816622e+03
-1.147630379856405e+03  2.403510125296191e+02 -2.918975276816622e+03
-1.147600369279615e+03  2.392809568895556e+02 -2.918975276816622e+03
-1.147466423721330e+03  2.374079445077361e+02 -2.918975276816622e+03
-1.147418860280797e+03  2.358278134845582e+02 -2.918975276816622e+03
-1.147260069062099e+03  2.347056545943088e+02 -2.918975276816622e+03
-1.146887274678239e+03  2.329935934578421e+02 -2.918975276816622e+03
-1.146496632599985e+03  2.317456965378019e+02 -2.918975276816622e+03
-1.146461037301109e+03  2.307353137511460e+02 -2.918975276816622e+03
-1.146753194905105e+03  2.285425122985679e+02 -2.918975276816622e+03
-1.146418030843863e+03  2.267052928000935e+02 -2.918975276816622e+03
-1.146564852723975e+03  2.253047273517623e+02 -2.918975276816622e+03
-1.147414571601060e+03  2.238291016473212e+02 -2.918975276816622e+03
-1.147609450828832e+03  2.216934661179895e+02 -2.918975276816622e+03
-1.147618477077541e+03  2.184511237007951e+02 -2.918975276816622e+03
-1.147297299716425e+03  2.166263304278061e+02 -2.918975276816622e+03
-1.146688334355954e+03  2.154184005771208e+02 -2.918975276816622e+03
-1.146732946373565e+03  2.138344951082533e+02 -2.918975276816622e+03
-1.147079306349669e+03  2.126229823056822e+02 -2.918975276816622e+03
-1.147072145089728e+03  2.110901975855559e+02 -2.918975276816622e+03
-1.147179186562636e+03  2.097755831570723e+02 -2.918975276816622e+03
-1.147120506354002e+03  2.082957378612674e+02 -2.918975276816622e+03
-1.146879796451507e+03  2.061556798896980e+02 -2.918975276816622e+03
-1.146962113940376e+03  2.039435257603970e+02 -2.918975276816622e+03
-1.146436648794604e+03  2.028087854173866e+02 -2.918975276816622e+03
-1.146024853296773e+03  2.017467935458587e+02 -2.918975276816622e+03
-1.146516277139579e+03  1.996461665647119e+02 -2.918975276816622e+03
-1.146787839150877e+03  1.974220066143766e+02 -2.918975276816622e+03
-1.146935675852399e+03  1.942201995843059e+02 -2.918975276816622e+03
-1.147089724170752e+03  1.912222560474885e+02 -2.918975276816622e+03
-1.147162297017127e+03  1.896974798569535e+02 -2.918975276816622e+03
-1.147161769401196e+03  1.881956045880110e+02 -2.918975276816622e+03
-1.146993404379011e+03  1.867617326330052e+02 -2.918975276816622e+03
-1.146953142004955e+03  1.853580559904628e+02 -2.918975276816622e+03
-1.147081846319190e+03  1.838979213982942e+02 -2.918975276816622e+03
-1.147012661160183e+03  1.819420028890034e+02 -2.918975276816622e+03
-1.146805663779290e+03  1.797404729943535e+02 -2.918975276816622e+03
-1.146941022134095e+03  1.786338136378227e+02 -2.918975276816622e+03
-1.147221415072259e+03  1.772005709659934e+02 -2.918975276816622e+03
-1.147060688431443e+03  1.760790075778350e+02 -2.918975276816622e+03
-1.146833189512613e+03  1.747858460294361e+02 -2.918975276816622e+03
-1.147003861135597e+03  1.726593417412235e+02 -2.918975276816622e+03
-1.147155488597274e+03  1.710055074777434e+02 -2.918975276816622e+03
-1.147105987788654e+03  1.696231874847698e+02 -2.918975276816622e+03
-1.147126047717420e+03  1.682301335379397e+02 -2.918975276816622e+03
-1.147106112945347e+03  1.668341017323603e+02 -2.918975276816622e+03
-1.146965071222422e+03  1.652903423499428e+02 -2.918975276816622e+03
-1.147386653456271e+03  1.639040304629940e+02 -2.918975276816622e+03
-1.147586124450445e+03  1.622306896392332e+02 -2.918975276816622e+03
-1.147086476578171e+03  1.607167976534992e+02 -2.918975276816622e+03
-1.146928231800599e+03  1.593345427491252e+02 -2.918975276816622e+03
-1.146911119944413e+03  1.569526328070760e+02 -2.918975276816622e+03
-1.146815312261240e+03  1.544452610870337e+02 -2.918975276816622e+03
-1.146952994763519e+03  1.524204672591385e+02 -2.918975276816622e+03
-1.147353101599884e+03  1.507768946953957e+02 -2.918975276816622e+03
-1.147314678028711e+03  1.495198995806301e+02 -2.918975276816622e+03
-1.146872963569825e+03  1.483087536992755e+02 -2.918975276816622e+03
-1.146911686717074e+03  1.469051102423134e+02 -2.918975276816622e+03
-1.147187175313928e+03  1.453434614167173e+02 -2.918975276816622e+03
-1.147188247349168e+03  1.438359347080266e+02 -2.918975276816622e+03
-1.147161999735240e+03  1.421540169374574e+02 -2.918975276816622e+03
-1.147181289910633e+03  1.408886774055379e+02 -2.918975276816622e+03
-1.147173546851868e+03  1.396959621446736e+02 -2.918975276816622e+03
-1.147132860550138e+03  1.378396675327267e+02 -2.918975276816622e+03
-1.147156314257627e+03  1.368210756435596e+02 -2.918975276816622e+03
-1.147363372334646e+03  1.353221063673267e+02 -2.918975276816622e+03
-1.147551846431687e+03  1.335449825781148e+02 -2.918975276816622e+03
-1.147479850462383e+03  1.317242571364509e+02 -2.918975276816622e+03
-1.147216928631930e+03  1.298933598470125e+02 -2.918975276816622e+03
-1.146765574432693e+03  1.284931376652119e+02 -2.918975276816622e+03
-1.146752880984935e+03  1.266442742596780e+02 -2.918975276816622e+03
-1.147073703220123e+03  1.245204974911443e+02 -2.918975276816622e+03
-1.147141481509222e+03  1.222442487213216e+02 -2.918975276816622e+03
-1.147383971719777e+03  1.206251114248782e+02 -2.918975276816622e+03
-1.147739227083917e+03  1.189980540012880e+02 -2.918975276816622e+03
-1.147624744701803e+03  1.163482781395887e+02 -2.918975276816622e+03
-1.147446353359473e+03  1.138517245039177e+02 -2.918975276816622e+03
-1.147735897051720e+03  1.124170853224139e+02 -2.918975276816622e+03
-1.147826893542814e+03  1.111980530958971e+02 -2.918975276816622e+03
-1.147412146522780e+03  1.099578999487647e+02 -2.918975276816622e+03
-1.147327195773328e+03  1.082646608354047e+02 -2.918975276816622e+03
-1.147643815435006e+03  1.065316487826144e+02 -2.918975276816622e+03
-1.147705454285983e+03  1.053859089372968e+02 -2.918975276816622e+03
-1.147586188301001e+03  1.040911541752982e+02 -2.918975276816622e+03
-1.147674952179029e+03  1.022462337889843e+02 -2.918975276816622e+03
-1.147769143942552e+03  1.005078833292950e+02 -2.918975276816622e+03
-1.147713032723856e+03  9.929510969897561e+01 -2.918975276816622e+03
-1.147728123552613e+03  9.784872933284636e+01 -2.918975276816622e+03
-1.147761265910698e+03  9.612353778531318e+01 -2.918975276816622e+03
-1.147721788583765e+03  9.333376567076297e+01 -2.918975276816622e+03
-1.147704043103038e+03  9.015530442616932e+01 -2.918975276816622e+03
-1.147768592189965e+03  8.723544592040281e+01 -2.918975276816622e+03
-1.147770622495410e+03  8.399250438030329e+01 -2.918975276816622e+03
-1.147741513165692e+03  8.160137193029651e+01 -2.918975276816622e+03
-1.147732507543577e+03  7.991108211568014e+01 -2.918975276816622e+03
-1.147764162571248e+03  7.756523314442148e+01 -2.918975276816622e+03
-1.147762221023510e+03  7.500010182156869e+01 -2.918975276816622e+03
-1.147764025041368e+03  7.275588103981373e+01 -2.918975276816622e+03
-1.147759259991962e+03  7.114533180568360e+01 -2.918975276816622e+03
-1.147719817618864e+03  6.938520994698673e+01 -2.918975276816622e+03
-1.147753753047467e+03  6.788094944436064e+01 -2.918975276816622e+03
-1.147805877405835e+03  6.660652023734998e+01 -2.918975276816622e+03
-1.147809694351936e+03  6.379418119844782e+01 -2.918975276816622e+03
-1.148046609844855e+03  6.022292458752770e+01 -2.918975276816622e+03
-1.148522413778975e+03  5.673044711553410e+01 -2.918975276816622e+03
-1.148028442156821e+03  5.399852425397939e+01 -2.918975276816622e+03
-1.147574037326259e+03  5.216856621483262e+01 -2.918975276816622e+03
-1.147923995220554e+03  5.041653438918153e+01 -2.918975276816622e+03
-1.147947512268380e+03  4.845398731411893e+01 -2.918975276816622e+03
-1.148030906518097e+03  4.598272337694669e+01 -2.918975276816622e+03
-1.148355327011858e+03  4.316967028058195e+01 -2.918975276816622e+03
-1.147891833283127e+03  4.078852693535579e+01 -2.918975276816622e+03
-1.147600700181518e+03  3.901188768792066e+01 -2.918975276816622e+03
-1.148104262301774e+03  3.683086242257679e+01 -2.918975276816622e+03
-1.148253839910757e+03  3.356671498215787e+01 -2.918975276816622e+03
-1.148322308390619e+03  3.038066855168308e+01 -2.918975276816622e+03
-1.148463839875157e+03  2.760652428694534e+01 -2.918975276816622e+03
-1.148630826428649e+03  2.467993581946543e+01 -2.918975276816622e+03
-1.148568207843191e+03  2.304308084095420e+01 -2.918975276816622e+03
-1.148329214072900e+03  2.202999033931585e+01 -2.918975276816622e+03
-1.148271677911044e+03  2.066790718758595e+01 -2.918975276816622e+03
-1.148398009030083e+03  1.907533748616407e+01 -2.918975276816622e+03
-1.148873448569332e+03  1.717172766944799e+01 -2.918975276816622e+03
-1.148758527537464e+03  1.506687525175942e+01 -2.918975276816622e+03
-1.148321977653251e+03  1.225955668216157e+01 -2.918975276816622e+03
-1.148447628281441e+03  9.187437358028982e+00 -2.918975276816622e+03
-1.148566563130894e+03  6.921510641761607e+00 -2.918975276816622e+03
-1.148573270353849e+03  5.709692721403946e+00 -2.918975276816622e+03
 1.145921223534052e+03 -3.672300821581224e-01  2.918975276816622e+03
1.145805425006780e+03 1.499553961563971e+00 2.918975276816622e+03
 1.145934564964848e+03 -2.212951149120481e+00  2.918975276816622e+03
 1.145755592705183e+03 -3.983194240192707e+00  2.918975276816622e+03
 1.145717552941443e+03 -5.542088107189886e+00  2.918975276816622e+03
 1.145790864125244e+03 -7.735751029920608e+00  2.918975276816622e+03
 1.145740730467030e+03 -9.341766641805988e+00  2.918975276816622e+03
 1.145599164915626e+03 -1.081042310518551e+01  2.918975276816622e+03
 1.145550542103152e+03 -1.260015680270674e+01  2.918975276816622e+03
 1.145562036887513e+03 -1.522571364112283e+01  2.918975276816622e+03
 1.145502173683492e+03 -1.815065929384098e+01  2.918975276816622e+03
 1.145371764684360e+03 -2.040995969176850e+01  2.918975276816622e+03
 1.145320250401610e+03 -2.269806566327447e+01  2.918975276816622e+03
 1.145286584182829e+03 -2.500142523098018e+01  2.918975276816622e+03
 1.145125754315502e+03 -2.696707482506215e+01  2.918975276816622e+03
 1.145060265632669e+03 -2.879077719036900e+01  2.918975276816622e+03
 1.145034415246950e+03 -2.997538572574208e+01  2.918975276816622e+03
 1.144832207153379e+03 -3.103185366977090e+01  2.918975276816622e+03
 1.144921669815400e+03 -3.261744872420749e+01  2.918975276816622e+03
 1.145129331415895e+03 -3.449796618283495e+01  2.918975276816622e+03
 1.145108983374930e+03 -3.683744294130483e+01  2.918975276816622e+03
 1.145086700583232e+03 -3.868325260209776e+01  2.918975276816622e+03
 1.145335602340763e+03 -4.070337262429157e+01  2.918975276816622e+03
 1.145479381097628e+03 -4.336731601318547e+01  2.918975276816622e+03
 1.145108441451929e+03 -4.511262212272779e+01  2.918975276816622e+03
 1.144921662247190e+03 -4.652102257906192e+01  2.918975276816622e+03
 1.145393433508806e+03 -4.852352116146131e+01  2.918975276816622e+03
 1.145347421007054e+03 -4.993875473850586e+01  2.918975276816622e+03
 1.144654433394996e+03 -5.204267627231589e+01  2.918975276816622e+03
 1.144506732643873e+03 -5.431113225742598e+01  2.918975276816622e+03
 1.144694541671143e+03 -5.560403304744008e+01  2.918975276816622e+03
 1.144875854224740e+03 -5.749848440092855e+01  2.918975276816622e+03
 1.144917607041331e+03 -5.952346693020508e+01  2.918975276816622e+03
 1.144885537103357e+03 -6.138399363877303e+01  2.918975276816622e+03
 1.144831130779062e+03 -6.304741749819272e+01  2.918975276816622e+03
 1.144823198044769e+03 -6.416939073606017e+01  2.918975276816622e+03
 1.144849505707545e+03 -6.501175146766801e+01  2.918975276816622e+03
 1.144848201723564e+03 -6.617335026341972e+01  2.918975276816622e+03
 1.144852962062643e+03 -6.776572410854489e+01  2.918975276816622e+03
 1.144833525974391e+03 -6.943742051143286e+01  2.918975276816622e+03
 1.144850982212269e+03 -7.147233878114156e+01  2.918975276816622e+03
 1.144868338579388e+03 -7.383324895232852e+01  2.918975276816622e+03
 1.144928263138022e+03 -7.686899996421413e+01  2.918975276816622e+03
 1.144940417494003e+03 -7.971488953502028e+01  2.918975276816622e+03
 1.144906046568557e+03 -8.150134109623288e+01  2.918975276816622e+03
 1.144900437256388e+03 -8.313543258721400e+01  2.918975276816622e+03
 1.144916320670480e+03 -8.449151712551310e+01  2.918975276816622e+03
 1.144948356045254e+03 -8.505370656600223e+01  2.918975276816622e+03
 1.144959816772056e+03 -8.563524039759763e+01  2.918975276816622e+03
 1.144960135231215e+03 -8.671109240073362e+01  2.918975276816622e+03
 1.145099938129128e+03 -8.807050616159273e+01  2.918975276816622e+03
 1.145030580307111e+03 -8.955187317206588e+01  2.918975276816622e+03
 1.144784731619639e+03 -9.134282990795782e+01  2.918975276816622e+03
 1.144721997110110e+03 -9.360352358448702e+01  2.918975276816622e+03
 1.144869195976651e+03 -9.637711615881146e+01  2.918975276816622e+03
 1.145069960735144e+03 -9.869877712315342e+01  2.918975276816622e+03
 1.144991138781611e+03 -1.005624871981681e+02  2.918975276816622e+03
 1.144944012537376e+03 -1.022716715420314e+02  2.918975276816622e+03
 1.145003292418615e+03 -1.034665464408956e+02  2.918975276816622e+03
 1.144993336220521e+03 -1.041981889413219e+02  2.918975276816622e+03
 1.144960152184344e+03 -1.048977733499873e+02  2.918975276816622e+03
 1.144961557009885e+03 -1.059428525408935e+02  2.918975276816622e+03
 1.144939093831335e+03 -1.069324522316231e+02  2.918975276816622e+03
 1.144820953594300e+03 -1.087576088531954e+02  2.918975276816622e+03
 1.144830262219135e+03 -1.100948377684256e+02  2.918975276816622e+03
 1.144900464271029e+03 -1.112899325949500e+02  2.918975276816622e+03
 1.144869391265921e+03 -1.134890820410904e+02  2.918975276816622e+03
 1.144834964008875e+03 -1.158039054734684e+02  2.918975276816622e+03
 1.144797182499893e+03 -1.182344028920842e+02  2.918975276816622e+03
 1.144778188016895e+03 -1.206191042133017e+02  2.918975276816622e+03
 1.144775108606350e+03 -1.229574152471862e+02  2.918975276816622e+03
 1.144769157242271e+03 -1.252951320911357e+02  2.918975276816622e+03
 1.144715917526166e+03 -1.276024585312571e+02  2.918975276816622e+03
 1.144700079742374e+03 -1.294720969738193e+02  2.918975276816622e+03
 1.144790181900906e+03 -1.313447694054643e+02  2.918975276816622e+03
 1.144901533717418e+03 -1.336277734199228e+02  2.918975276816622e+03
 1.144879646352254e+03 -1.363712265816503e+02  2.918975276816622e+03
 1.144733674089511e+03 -1.386283682718635e+02  2.918975276816622e+03
 1.144723641618413e+03 -1.411450447250014e+02  2.918975276816622e+03
 1.144753507864262e+03 -1.439041771137519e+02  2.918975276816622e+03
 1.144733035432931e+03 -1.458143227971191e+02  2.918975276816622e+03
 1.144856514483199e+03 -1.478133178388563e+02  2.918975276816622e+03
 1.145002333298730e+03 -1.495317333037693e+02  2.918975276816622e+03
 1.144906658783081e+03 -1.514359374732610e+02  2.918975276816622e+03
 1.144654554539173e+03 -1.537805065418134e+02  2.918975276816622e+03
 1.144386480461770e+03 -1.568210532400412e+02  2.918975276816622e+03
 1.144555881637906e+03 -1.595925515373120e+02  2.918975276816622e+03
 1.144913290296013e+03 -1.613286508388953e+02  2.918975276816622e+03
 1.144931026059707e+03 -1.630506281629384e+02  2.918975276816622e+03
 1.144880503421629e+03 -1.645430342806188e+02  2.918975276816622e+03
 1.144838232116987e+03 -1.653672964287769e+02  2.918975276816622e+03
 1.144837198676805e+03 -1.663818412771676e+02  2.918975276816622e+03
 1.144852663749524e+03 -1.679197711959483e+02  2.918975276816622e+03
 1.144851673324527e+03 -1.694120084337125e+02  2.918975276816622e+03
 1.144852301061484e+03 -1.713816103031153e+02  2.918975276816622e+03
 1.144848537552402e+03 -1.738250500796862e+02  2.918975276816622e+03
 1.144846542137928e+03 -1.767885203849231e+02  2.918975276816622e+03
 1.144842380226891e+03 -1.793973989022641e+02  2.918975276816622e+03
 1.144839428478113e+03 -1.809115641472249e+02  2.918975276816622e+03
 1.144835769828062e+03 -1.836262520929784e+02  2.918975276816622e+03
 1.144832083324976e+03 -1.865287721718186e+02  2.918975276816622e+03
 1.144830511146694e+03 -1.881582100329466e+02  2.918975276816622e+03
 1.144828063433130e+03 -1.896006361079021e+02  2.918975276816622e+03
 1.144827948569676e+03 -1.914219888062252e+02  2.918975276816622e+03
 1.144827332614749e+03 -1.937689792199004e+02  2.918975276816622e+03
 1.144826467745376e+03 -1.968584136049432e+02  2.918975276816622e+03
 1.144824932802812e+03 -2.008406868783223e+02  2.918975276816622e+03
 1.144823224617388e+03 -2.048506153393982e+02  2.918975276816622e+03
 1.144822582039348e+03 -2.075961101766257e+02  2.918975276816622e+03
 1.144829282919035e+03 -2.092498718790745e+02  2.918975276816622e+03
 1.144840011406554e+03 -2.112772374217858e+02  2.918975276816622e+03
 1.144848241735679e+03 -2.136282460449619e+02  2.918975276816622e+03
 1.144863237261492e+03 -2.158786379306919e+02  2.918975276816622e+03
 1.144853270289412e+03 -2.178067338683674e+02  2.918975276816622e+03
 1.144816471079600e+03 -2.199315872499407e+02  2.918975276816622e+03
 1.144784567326637e+03 -2.224748772860204e+02  2.918975276816622e+03
 1.144864208401940e+03 -2.244443504802838e+02  2.918975276816622e+03
 1.144934914863285e+03 -2.269971794218968e+02  2.918975276816622e+03
 1.144702105998560e+03 -2.295177378743759e+02  2.918975276816622e+03
 1.144510851497847e+03 -2.315720724642420e+02  2.918975276816622e+03
 1.144721729097078e+03 -2.335723638175711e+02  2.918975276816622e+03
 1.145042245623338e+03 -2.354949756759658e+02  2.918975276816622e+03
 1.145041745067879e+03 -2.378726099618722e+02  2.918975276816622e+03
 1.144882721872855e+03 -2.401747910762749e+02  2.918975276816622e+03
 1.144824422193174e+03 -2.431885619095008e+02  2.918975276816622e+03
 1.144912727073360e+03 -2.464877773556460e+02  2.918975276816622e+03
 1.145052968695765e+03 -2.484676982941118e+02  2.918975276816622e+03
 1.145021213962712e+03 -2.500679243879764e+02  2.918975276816622e+03
 1.144905998693601e+03 -2.523507123972897e+02  2.918975276816622e+03
 1.144647885503665e+03 -2.551222462858071e+02  2.918975276816622e+03
 1.144955432382817e+03 -2.570177606257471e+02  2.918975276816622e+03
 1.145303996638808e+03 -2.590062715783921e+02  2.918975276816622e+03
 1.145118884225099e+03 -2.620065289746970e+02  2.918975276816622e+03
 1.145067635754761e+03 -2.645607707741756e+02  2.918975276816622e+03
 1.145050392070308e+03 -2.674381318787152e+02  2.918975276816622e+03
 1.145072416524144e+03 -2.695287300994679e+02  2.918975276816622e+03
 1.145098711051133e+03 -2.713841142687554e+02  2.918975276816622e+03
 1.145101635276386e+03 -2.730695844496288e+02  2.918975276816622e+03
 1.145136764208597e+03 -2.746131270622798e+02  2.918975276816622e+03
 1.145140712289457e+03 -2.772010857043752e+02  2.918975276816622e+03
 1.145084215501956e+03 -2.797565428820924e+02  2.918975276816622e+03
 1.145053036426886e+03 -2.821377371235608e+02  2.918975276816622e+03
 1.145100127279455e+03 -2.850349579248330e+02  2.918975276816622e+03
 1.145228381750934e+03 -2.876629658383421e+02  2.918975276816622e+03
 1.145189197901496e+03 -2.896845019979713e+02  2.918975276816622e+03
 1.144966222053920e+03 -2.919637406258387e+02  2.918975276816622e+03
 1.145110817394186e+03 -2.940940072932968e+02  2.918975276816622e+03
 1.145501244820445e+03 -2.968882643176133e+02  2.918975276816622e+03
 1.145303136117132e+03 -2.988841214616984e+02  2.918975276816622e+03
 1.144983502928807e+03 -3.008300962136030e+02  2.918975276816622e+03
 1.145233876108841e+03 -3.031335353509103e+02  2.918975276816622e+03
 1.145355678659669e+03 -3.047832632035274e+02  2.918975276816622e+03
 1.145110716769694e+03 -3.070622299659206e+02  2.918975276816622e+03
 1.144939169153764e+03 -3.091538715459818e+02  2.918975276816622e+03
 1.144999966544917e+03 -3.112225963244649e+02  2.918975276816622e+03
 1.145232986134246e+03 -3.129800156477763e+02  2.918975276816622e+03
 1.145170936048152e+03 -3.142822794375584e+02  2.918975276816622e+03
 1.144964454787352e+03 -3.164615512309062e+02  2.918975276816622e+03
 1.144929970104524e+03 -3.185324993067143e+02  2.918975276816622e+03
 1.144976184278939e+03 -3.203219916774698e+02  2.918975276816622e+03
 1.145171755276405e+03 -3.224783422078312e+02  2.918975276816622e+03
 1.145178009947996e+03 -3.247618334036162e+02  2.918975276816622e+03
 1.144853918989937e+03 -3.262784458187043e+02  2.918975276816622e+03
 1.144737493408035e+03 -3.277425776144022e+02  2.918975276816622e+03
 1.144769764127600e+03 -3.303745929831207e+02  2.918975276816622e+03
 1.144874403922466e+03 -3.330710626121370e+02  2.918975276816622e+03
 1.145200019112115e+03 -3.360642017579538e+02  2.918975276816622e+03
 1.145101605823773e+03 -3.380190948248897e+02  2.918975276816622e+03
 1.144703177423831e+03 -3.394695012425288e+02  2.918975276816622e+03
 1.144756459172824e+03 -3.418622314170112e+02  2.918975276816622e+03
 1.144773743634048e+03 -3.440915157232078e+02  2.918975276816622e+03
 1.144745017068765e+03 -3.468995073623977e+02  2.918975276816622e+03
 1.144823343411664e+03 -3.500592727078324e+02  2.918975276816622e+03
 1.144810300142221e+03 -3.523238946195499e+02  2.918975276816622e+03
 1.144751232479787e+03 -3.552039467327812e+02  2.918975276816622e+03
 1.144694164675207e+03 -3.584238673675505e+02  2.918975276816622e+03
 1.144743622798916e+03 -3.598612111698558e+02  2.918975276816622e+03
 1.144757970489220e+03 -3.609030300209580e+02  2.918975276816622e+03
 1.144771218685405e+03 -3.630830302281002e+02  2.918975276816622e+03
 1.144783051493983e+03 -3.656280216501647e+02  2.918975276816622e+03
 1.144830876766605e+03 -3.677420368828120e+02  2.918975276816622e+03
 1.144909154586330e+03 -3.699688485491384e+02  2.918975276816622e+03
 1.144885464000584e+03 -3.715213759499139e+02  2.918975276816622e+03
 1.144836194967315e+03 -3.734792812217087e+02  2.918975276816622e+03
 1.144873825031562e+03 -3.765684786355057e+02  2.918975276816622e+03
 1.144909101679749e+03 -3.791246346583481e+02  2.918975276816622e+03
 1.144925975855368e+03 -3.816398919079001e+02  2.918975276816622e+03
 1.144947517518707e+03 -3.831909889123621e+02  2.918975276816622e+03
 1.144974437552188e+03 -3.849351757222569e+02  2.918975276816622e+03
1.145041137054073e+03 3.830867391874637e+02 2.918975276816622e+03
1.144995627975567e+03 3.856114718852947e+02 2.918975276816622e+03
1.145045397049381e+03 3.800872301629389e+02 2.918975276816622e+03
1.144986316179577e+03 3.783650597541452e+02 2.918975276816622e+03
1.145051790497606e+03 3.771401768027447e+02 2.918975276816622e+03
1.145174983817973e+03 3.750336825890372e+02 2.918975276816622e+03
1.145136369000860e+03 3.732516971196090e+02 2.918975276816622e+03
1.145082961657464e+03 3.720238550136120e+02 2.918975276816622e+03
1.145134682231515e+03 3.692617185496059e+02 2.918975276816622e+03
1.145226506120849e+03 3.663417428394312e+02 2.918975276816622e+03
1.145229760925852e+03 3.640004801050066e+02 2.918975276816622e+03
1.145225969523748e+03 3.612871588594488e+02 2.918975276816622e+03
1.145277261814825e+03 3.590681825890265e+02 2.918975276816622e+03
1.145313113923024e+03 3.576564521941611e+02 2.918975276816622e+03
1.145324605499952e+03 3.562865487293537e+02 2.918975276816622e+03
1.145346643958834e+03 3.545914670908452e+02 2.918975276816622e+03
1.145377438796810e+03 3.527227877247660e+02 2.918975276816622e+03
1.145412553117257e+03 3.510605194780074e+02 2.918975276816622e+03
1.145447693513535e+03 3.492509291693551e+02 2.918975276816622e+03
1.145467481727482e+03 3.474365889754059e+02 2.918975276816622e+03
1.145503426061638e+03 3.457201926691667e+02 2.918975276816622e+03
1.145486126679167e+03 3.441133939857031e+02 2.918975276816622e+03
1.145528644042260e+03 3.426137457694574e+02 2.918975276816622e+03
1.146098541710725e+03 3.408074726900752e+02 2.918975276816622e+03
1.146101292852950e+03 3.390678158945655e+02 2.918975276816622e+03
1.145128735856769e+03 3.364075667772357e+02 2.918975276816622e+03
1.145128213391848e+03 3.330914345529857e+02 2.918975276816622e+03
1.145552346307015e+03 3.302063199135455e+02 2.918975276816622e+03
1.145869949399100e+03 3.287434053453218e+02 2.918975276816622e+03
1.146025041598146e+03 3.273086093832332e+02 2.918975276816622e+03
1.145607595087789e+03 3.247451230955380e+02 2.918975276816622e+03
1.145592107542399e+03 3.224496229760668e+02 2.918975276816622e+03
1.145869851576822e+03 3.203704280664805e+02 2.918975276816622e+03
1.145884126590010e+03 3.189773682540708e+02 2.918975276816622e+03
1.145877837044620e+03 3.173878644231815e+02 2.918975276816622e+03
1.145853217221688e+03 3.148281223816815e+02 2.918975276816622e+03
1.145818652879774e+03 3.127039618220847e+02 2.918975276816622e+03
1.145855788404966e+03 3.117745738413129e+02 2.918975276816622e+03
1.145843118325777e+03 3.106561456600224e+02 2.918975276816622e+03
1.145799811868445e+03 3.087455759919914e+02 2.918975276816622e+03
1.145742728807446e+03 3.071699167946712e+02 2.918975276816622e+03
1.145661108619129e+03 3.054058080842926e+02 2.918975276816622e+03
1.145526128212396e+03 3.031917535389952e+02 2.918975276816622e+03
1.145664435656885e+03 3.019093192080423e+02 2.918975276816622e+03
1.145782419428429e+03 3.003221093678818e+02 2.918975276816622e+03
1.145515417174666e+03 2.982101922116469e+02 2.918975276816622e+03
1.145423904556475e+03 2.964140390864933e+02 2.918975276816622e+03
1.145710982578196e+03 2.945497021184055e+02 2.918975276816622e+03
1.145628703335675e+03 2.928739711464830e+02 2.918975276816622e+03
1.145269390242418e+03 2.907482190601775e+02 2.918975276816622e+03
1.145114127065866e+03 2.883115803967859e+02 2.918975276816622e+03
1.145207504134205e+03 2.860319019508854e+02 2.918975276816622e+03
1.145643288233028e+03 2.839681756835006e+02 2.918975276816622e+03
1.145483271567729e+03 2.820577312533564e+02 2.918975276816622e+03
1.145076319182894e+03 2.792478305619637e+02 2.918975276816622e+03
1.145155405858784e+03 2.763217000117336e+02 2.918975276816622e+03
1.145231475327655e+03 2.732373284403990e+02 2.918975276816622e+03
1.145277608801550e+03 2.700270334456555e+02 2.918975276816622e+03
1.145340230718035e+03 2.677265723272338e+02 2.918975276816622e+03
1.144965268475287e+03 2.658468170449292e+02 2.918975276816622e+03
1.144758515968058e+03 2.637567809793491e+02 2.918975276816622e+03
1.145150071669299e+03 2.604246740021568e+02 2.918975276816622e+03
1.145186939219268e+03 2.582004615291048e+02 2.918975276816622e+03
1.144992953952080e+03 2.567999959097053e+02 2.918975276816622e+03
1.144915318332728e+03 2.545042983475985e+02 2.918975276816622e+03
1.144870987098773e+03 2.524532107470299e+02 2.918975276816622e+03
1.145178995819456e+03 2.509467169812234e+02 2.918975276816622e+03
1.145168502693773e+03 2.494655091817462e+02 2.918975276816622e+03
1.144635208650309e+03 2.478629582545101e+02 2.918975276816622e+03
1.144578037666791e+03 2.464570133120377e+02 2.918975276816622e+03
1.145065721485664e+03 2.451442403409170e+02 2.918975276816622e+03
1.145173099880710e+03 2.436919055875838e+02 2.918975276816622e+03
1.144819118376684e+03 2.423092487231082e+02 2.918975276816622e+03
1.145267633181651e+03 2.411020652949773e+02 2.918975276816622e+03
1.145615261622047e+03 2.392321566033368e+02 2.918975276816622e+03
1.145161921153898e+03 2.367832096486361e+02 2.918975276816622e+03
1.144907637567213e+03 2.347617894611888e+02 2.918975276816622e+03
1.144876183142765e+03 2.326516075130966e+02 2.918975276816622e+03
1.144873916361393e+03 2.299585050589864e+02 2.918975276816622e+03
1.144889907591803e+03 2.280000396584944e+02 2.918975276816622e+03
1.144898244079552e+03 2.268565367892685e+02 2.918975276816622e+03
1.144910430576509e+03 2.250355007955981e+02 2.918975276816622e+03
1.144929738532544e+03 2.227979255088382e+02 2.918975276816622e+03
1.144943805574294e+03 2.210245846066479e+02 2.918975276816622e+03
1.144967480991967e+03 2.191265568462615e+02 2.918975276816622e+03
1.144988779757578e+03 2.169142951739922e+02 2.918975276816622e+03
1.145030717712832e+03 2.142630849685094e+02 2.918975276816622e+03
1.145051832466165e+03 2.119490054540265e+02 2.918975276816622e+03
1.145084188552908e+03 2.099246016248968e+02 2.918975276816622e+03
1.145097291880350e+03 2.081502350735944e+02 2.918975276816622e+03
1.145103481036211e+03 2.069474970093924e+02 2.918975276816622e+03
1.145155650239696e+03 2.061637986036098e+02 2.918975276816622e+03
1.145190539931208e+03 2.053535578857633e+02 2.918975276816622e+03
1.145122278723664e+03 2.043157051407458e+02 2.918975276816622e+03
1.145094326543625e+03 2.032845750907293e+02 2.918975276816622e+03
1.145370433682999e+03 2.019121686072063e+02 2.918975276816622e+03
1.145320012394893e+03 2.007587091259834e+02 2.918975276816622e+03
1.144931493488167e+03 1.990550167396399e+02 2.918975276816622e+03
1.144690222030056e+03 1.966169275902676e+02 2.918975276816622e+03
1.144807973912190e+03 1.938067530635414e+02 2.918975276816622e+03
1.145058115755492e+03 1.900727486285423e+02 2.918975276816622e+03
1.144988826649847e+03 1.871265079144830e+02 2.918975276816622e+03
1.144900633016558e+03 1.849652904186954e+02 2.918975276816622e+03
1.144901586583287e+03 1.825654664135230e+02 2.918975276816622e+03
1.144899268881646e+03 1.809585882760200e+02 2.918975276816622e+03
1.144833308976792e+03 1.792206908619675e+02 2.918975276816622e+03
1.144722232294889e+03 1.768747068278985e+02 2.918975276816622e+03
1.144665537434103e+03 1.743015312284269e+02 2.918975276816622e+03
1.144541550285555e+03 1.720224533265892e+02 2.918975276816622e+03
1.144458824449280e+03 1.698953778701754e+02 2.918975276816622e+03
1.144358776955306e+03 1.682833712342972e+02 2.918975276816622e+03
1.144312657640972e+03 1.671521768117093e+02 2.918975276816622e+03
1.144090033871188e+03 1.659679085665129e+02 2.918975276816622e+03
1.143947331559176e+03 1.650061013675471e+02 2.918975276816622e+03
1.143731092888389e+03 1.634789550334624e+02 2.918975276816622e+03
1.143585940707397e+03 1.625140263727096e+02 2.918975276816622e+03
1.143967221826983e+03 1.611078158950648e+02 2.918975276816622e+03
1.144239702226868e+03 1.582607753480962e+02 2.918975276816622e+03
1.144621299686694e+03 1.553004221030629e+02 2.918975276816622e+03
1.145061448884523e+03 1.524209210470395e+02 2.918975276816622e+03
1.145308053796519e+03 1.492914732706267e+02 2.918975276816622e+03
1.145418747794725e+03 1.467871060895583e+02 2.918975276816622e+03
1.145538864138012e+03 1.455716479036337e+02 2.918975276816622e+03
1.145597385853566e+03 1.450351223413489e+02 2.918975276816622e+03
1.145511708457221e+03 1.444371258242705e+02 2.918975276816622e+03
1.145372542226908e+03 1.428557393396818e+02 2.918975276816622e+03
1.145277132435838e+03 1.411195896491869e+02 2.918975276816622e+03
1.145195706111455e+03 1.393056374555437e+02 2.918975276816622e+03
1.145111268169734e+03 1.371059427832464e+02 2.918975276816622e+03
1.145053671711319e+03 1.344538981316865e+02 2.918975276816622e+03
1.145008985229804e+03 1.320865582315543e+02 2.918975276816622e+03
1.144998649249834e+03 1.300902349971882e+02 2.918975276816622e+03
1.145026938103495e+03 1.283517236344585e+02 2.918975276816622e+03
1.145054761515268e+03 1.271292356071452e+02 2.918975276816622e+03
1.145047226538009e+03 1.263787849030618e+02 2.918975276816622e+03
1.145055878665728e+03 1.256464299325742e+02 2.918975276816622e+03
1.145123420043645e+03 1.249840845237381e+02 2.918975276816622e+03
1.145074781097204e+03 1.243109556496031e+02 2.918975276816622e+03
1.144940864399929e+03 1.228083077429380e+02 2.918975276816622e+03
1.144929009018233e+03 1.212172959357708e+02 2.918975276816622e+03
1.144906795507015e+03 1.193263251896495e+02 2.918975276816622e+03
1.144781217147971e+03 1.170368015902749e+02 2.918975276816622e+03
1.144690071784775e+03 1.141303114643690e+02 2.918975276816622e+03
1.144667081840551e+03 1.115208279439376e+02 2.918975276816622e+03
1.144676075110223e+03 1.099128061559375e+02 2.918975276816622e+03
1.144696010572638e+03 1.080730921144710e+02 2.918975276816622e+03
1.144732022173724e+03 1.061520160127662e+02 2.918975276816622e+03
1.144811911894702e+03 1.036726321900873e+02 2.918975276816622e+03
1.144903393297236e+03 1.013301723629230e+02 2.918975276816622e+03
1.144993238654373e+03 9.937071110028120e+01 2.918975276816622e+03
1.145110339667748e+03 9.686119789201955e+01 2.918975276816622e+03
1.145209580096607e+03 9.468150829712269e+01 2.918975276816622e+03
1.145317171906385e+03 9.247509025581229e+01 2.918975276816622e+03
1.145450975681597e+03 8.991212015472358e+01 2.918975276816622e+03
1.145584779456809e+03 8.734915005363487e+01 2.918975276816622e+03
1.145718583232021e+03 8.478617995254619e+01 2.918975276816622e+03
1.145899501617699e+03 8.192116509940593e+01 2.918975276816622e+03
1.146014578621951e+03 7.924069209664296e+01 2.918975276816622e+03
1.146016699634313e+03 7.704680569630891e+01 2.918975276816622e+03
1.146195655512536e+03 7.454850500856739e+01 2.918975276816622e+03
1.146551446256621e+03 7.174579003341842e+01 2.918975276816622e+03
1.146315449980210e+03 6.886179024842119e+01 2.918975276816622e+03
1.145487666683304e+03 6.589650565357569e+01 2.918975276816622e+03
1.145724625253778e+03 6.344555970458158e+01 2.918975276816622e+03
1.146426470149793e+03 6.126956702686648e+01 2.918975276816622e+03
1.146528459503967e+03 5.885418897457914e+01 2.918975276816622e+03
1.146565946909870e+03 5.738108349516224e+01 2.918975276816622e+03
1.146513420985304e+03 5.607749812652997e+01 2.918975276816622e+03
1.146481955844200e+03 5.408604443615582e+01 2.918975276816622e+03
1.146427532820305e+03 5.189151420573260e+01 2.918975276816622e+03
1.146405634903023e+03 5.001810309252019e+01 2.918975276816622e+03
1.146378417523885e+03 4.858153920477840e+01 2.918975276816622e+03
1.146287874819551e+03 4.739881302381122e+01 2.918975276816622e+03
1.146262353578857e+03 4.561073558243717e+01 2.918975276816622e+03
1.146483202434497e+03 4.328275839512501e+01 2.918975276816622e+03
1.146426204666783e+03 4.214151895429936e+01 2.918975276816622e+03
1.146087722344068e+03 4.111094455769305e+01 2.918975276816622e+03
1.146125921277384e+03 3.926717835081765e+01 2.918975276816622e+03
1.146245360214504e+03 3.716583680662687e+01 2.918975276816622e+03
1.146248283896637e+03 3.497746572486477e+01 2.918975276816622e+03
1.146227147642317e+03 3.267716250395045e+01 2.918975276816622e+03
1.146224785447074e+03 3.032302224551837e+01 2.918975276816622e+03
1.146218284621434e+03 2.819528015335042e+01 2.918975276816622e+03
1.146204580577019e+03 2.543331409761395e+01 2.918975276816622e+03
1.146184664544629e+03 2.218299807227995e+01 2.918975276816622e+03
1.146154021524697e+03 1.911185811863725e+01 2.918975276816622e+03
1.146120380023432e+03 1.633875893155411e+01 2.918975276816622e+03
1.146091319628781e+03 1.405679659957432e+01 2.918975276816622e+03
1.146113023954678e+03 1.188589996734746e+01 2.918975276816622e+03
1.146091206334510e+03 1.035711713980883e+01 2.918975276816622e+03
1.146003859585881e+03 8.820712025855697e+00 2.918975276816622e+03
1.145965715158459e+03 6.125724650800578e+00 2.918975276816622e+03
1.145882055075301e+03 3.648536326080520e+00 2.918975276816622e+03
-1.157411299165591e+03 -6.285269677532425e-01 -2.918975276816622e+03
-1.157377979636706e+03 -4.160271998114375e+00 -2.918975276816622e+03
-1.157439419155834e+03  2.746408898702965e+00 -2.918975276816622e+03
-1.157462339607438e+03  5.964535601254246e+00 -2.918975276816622e+03
-1.157352300216018e+03 -7.069934419404294e+00 -2.918975276816622e+03
-1.157334260903528e+03 -9.357514231623000e+00 -2.918975276816622e+03
-1.157322071762112e+03 -1.056305361281551e+01 -2.918975276816622e+03
-1.157304991340417e+03 -1.221628346785905e+01 -2.918975276816622e+03
-1.157292416664950e+03 -1.433529677745486e+01 -2.918975276816622e+03
-1.157302524877732e+03 -1.583753260813797e+01 -2.918975276816622e+03
-1.157296492878815e+03 -1.795402497103110e+01 -2.918975276816622e+03
-1.157266884977532e+03 -2.023760389472200e+01 -2.918975276816622e+03
-1.157224076470970e+03 -2.168327200362077e+01 -2.918975276816622e+03
-1.157186841229547e+03 -2.387853853173445e+01 -2.918975276816622e+03
-1.157175614074062e+03 -2.711069530810006e+01 -2.918975276816622e+03
-1.157149820036049e+03 -2.955851212998573e+01 -2.918975276816622e+03
-1.157102224899987e+03 -3.177260798314651e+01 -2.918975276816622e+03
-1.157063265857572e+03 -3.366004148318257e+01 -2.918975276816622e+03
-1.157021482109245e+03 -3.521266173918118e+01 -2.918975276816622e+03
-1.157030375863425e+03 -3.657424136065977e+01 -2.918975276816622e+03
-1.157004957717262e+03 -3.883571787138840e+01 -2.918975276816622e+03
-1.156981250170606e+03 -4.090533534907903e+01 -2.918975276816622e+03
-1.156938299604412e+03 -4.244394468063739e+01 -2.918975276816622e+03
-1.156901264706065e+03 -4.441513183795090e+01 -2.918975276816622e+03
-1.156923859185301e+03 -4.544405131103452e+01 -2.918975276816622e+03
-1.156976177215183e+03 -4.652030357063907e+01 -2.918975276816622e+03
-1.156957779657297e+03 -4.857013399023560e+01 -2.918975276816622e+03
-1.156867791005696e+03 -5.007105867813953e+01 -2.918975276816622e+03
-1.156862499543940e+03 -5.123261001059855e+01 -2.918975276816622e+03
-1.156902069388957e+03 -5.358986046994257e+01 -2.918975276816622e+03
-1.156876000345364e+03 -5.566863009543384e+01 -2.918975276816622e+03
-1.156752270077662e+03 -5.742171475286079e+01 -2.918975276816622e+03
-1.156661205289156e+03 -5.954947446187037e+01 -2.918975276816622e+03
-1.156819224680120e+03 -6.094869517408910e+01 -2.918975276816622e+03
-1.156881099293957e+03 -6.249440864066398e+01 -2.918975276816622e+03
-1.156650535474325e+03 -6.425120095870969e+01 -2.918975276816622e+03
-1.156690464507792e+03 -6.536733095134268e+01 -2.918975276816622e+03
-1.156754022954186e+03 -6.662278820676934e+01 -2.918975276816622e+03
-1.156629603755473e+03 -6.868690577565813e+01 -2.918975276816622e+03
-1.156655586145241e+03 -7.020025448530946e+01 -2.918975276816622e+03
-1.156715925684888e+03 -7.122603765268600e+01 -2.918975276816622e+03
-1.156643261412490e+03 -7.264715221592117e+01 -2.918975276816622e+03
-1.156612404853011e+03 -7.429928695440951e+01 -2.918975276816622e+03
-1.156627907210630e+03 -7.576218202991004e+01 -2.918975276816622e+03
-1.156584114763956e+03 -7.655413522177190e+01 -2.918975276816622e+03
-1.156568098690613e+03 -7.775443383486289e+01 -2.918975276816622e+03
-1.156586044180722e+03 -7.953129321568538e+01 -2.918975276816622e+03
-1.156615211094549e+03 -8.085163421799197e+01 -2.918975276816622e+03
-1.156710397738537e+03 -8.236369133567089e+01 -2.918975276816622e+03
-1.156743961440642e+03 -8.414067031134265e+01 -2.918975276816622e+03
-1.156632376284096e+03 -8.539435915936306e+01 -2.918975276816622e+03
-1.156446183841985e+03 -8.664818139183883e+01 -2.918975276816622e+03
-1.156264318362964e+03 -8.857646749677423e+01 -2.918975276816622e+03
-1.156483781911002e+03 -9.017704091957890e+01 -2.918975276816622e+03
-1.156644709048920e+03 -9.127441995252603e+01 -2.918975276816622e+03
-1.156346697045848e+03 -9.363751247402055e+01 -2.918975276816622e+03
-1.156385073485429e+03 -9.585961043404257e+01 -2.918975276816622e+03
-1.156718592901307e+03 -9.770377888871445e+01 -2.918975276816622e+03
-1.156674719420277e+03 -1.000800960492374e+02 -2.918975276816622e+03
-1.156490925289283e+03 -1.012929772302425e+02 -2.918975276816622e+03
-1.156452425350881e+03 -1.024827455118200e+02 -2.918975276816622e+03
-1.156445342257268e+03 -1.044229228037466e+02 -2.918975276816622e+03
-1.156463679334370e+03 -1.059172759618622e+02 -2.918975276816622e+03
-1.156453274164086e+03 -1.068568523657454e+02 -2.918975276816622e+03
-1.156430552009918e+03 -1.083383415525533e+02 -2.918975276816622e+03
-1.156429185115768e+03 -1.101836755275232e+02 -2.918975276816622e+03
-1.156431038745974e+03 -1.118343529697662e+02 -2.918975276816622e+03
-1.156396490979237e+03 -1.131526522158427e+02 -2.918975276816622e+03
-1.156388181420959e+03 -1.146649782042377e+02 -2.918975276816622e+03
-1.156410532444370e+03 -1.170570073985650e+02 -2.918975276816622e+03
-1.156408974952827e+03 -1.193315599947399e+02 -2.918975276816622e+03
-1.156401890821824e+03 -1.208104536653060e+02 -2.918975276816622e+03
-1.156421993580178e+03 -1.223173367010308e+02 -2.918975276816622e+03
-1.156439063796455e+03 -1.241104272377258e+02 -2.918975276816622e+03
-1.156169622969006e+03 -1.253450300351005e+02 -2.918975276816622e+03
-1.156173674595668e+03 -1.266063426947456e+02 -2.918975276816622e+03
-1.156510112156590e+03 -1.285737074356690e+02 -2.918975276816622e+03
-1.156547147904820e+03 -1.306780556293232e+02 -2.918975276816622e+03
-1.156578545451463e+03 -1.319871627056568e+02 -2.918975276816622e+03
-1.156533734700248e+03 -1.328639631796611e+02 -2.918975276816622e+03
-1.156275254858732e+03 -1.342212199722990e+02 -2.918975276816622e+03
-1.156332386079045e+03 -1.356937812114133e+02 -2.918975276816622e+03
-1.156502221844034e+03 -1.373667584054615e+02 -2.918975276816622e+03
-1.156434770945371e+03 -1.394433652287374e+02 -2.918975276816622e+03
-1.156437921481716e+03 -1.408505323070555e+02 -2.918975276816622e+03
-1.156495383078615e+03 -1.423975836831834e+02 -2.918975276816622e+03
-1.156491931399504e+03 -1.441734926591483e+02 -2.918975276816622e+03
-1.156621000353391e+03 -1.453298675904858e+02 -2.918975276816622e+03
-1.156637013983402e+03 -1.467310909625980e+02 -2.918975276816622e+03
-1.156488453327944e+03 -1.496476781649229e+02 -2.918975276816622e+03
-1.156515446591224e+03 -1.533100334681690e+02 -2.918975276816622e+03
-1.156646490572654e+03 -1.555975345226422e+02 -2.918975276816622e+03
-1.156657591877559e+03 -1.573992140467793e+02 -2.918975276816622e+03
-1.156656230061717e+03 -1.595193078755725e+02 -2.918975276816622e+03
-1.156687856181342e+03 -1.607480512284505e+02 -2.918975276816622e+03
-1.156714108631314e+03 -1.621940986349337e+02 -2.918975276816622e+03
-1.156722115749445e+03 -1.639216038019056e+02 -2.918975276816622e+03
-1.156709912542455e+03 -1.653037050505300e+02 -2.918975276816622e+03
-1.156727931345058e+03 -1.667705203777646e+02 -2.918975276816622e+03
-1.156781871464688e+03 -1.687840768272882e+02 -2.918975276816622e+03
-1.156867790423892e+03 -1.711594379505859e+02 -2.918975276816622e+03
-1.156770343110233e+03 -1.726502161388767e+02 -2.918975276816622e+03
-1.156747386777265e+03 -1.750838395071331e+02 -2.918975276816622e+03
-1.156822178829582e+03 -1.783782174256831e+02 -2.918975276816622e+03
-1.156856953853713e+03 -1.810001593717081e+02 -2.918975276816622e+03
-1.156898056460272e+03 -1.833992209110497e+02 -2.918975276816622e+03
-1.156871743684611e+03 -1.854234952255741e+02 -2.918975276816622e+03
-1.156742915803722e+03 -1.866536882554759e+02 -2.918975276816622e+03
-1.156791901570402e+03 -1.881928492116824e+02 -2.918975276816622e+03
-1.156917225562498e+03 -1.904586476945967e+02 -2.918975276816622e+03
-1.156919992632953e+03 -1.931954781825016e+02 -2.918975276816622e+03
-1.156913196767920e+03 -1.961239481154732e+02 -2.918975276816622e+03
-1.156932949087969e+03 -1.979316139325604e+02 -2.918975276816622e+03
-1.156932004218831e+03 -1.994252326944541e+02 -2.918975276816622e+03
-1.156877620679237e+03 -2.006131760875656e+02 -2.918975276816622e+03
-1.156872120824254e+03 -2.020444688599080e+02 -2.918975276816622e+03
-1.157003254999326e+03 -2.038180550733411e+02 -2.918975276816622e+03
-1.157173141481012e+03 -2.050038559289497e+02 -2.918975276816622e+03
-1.157353006489608e+03 -2.063908326416739e+02 -2.918975276816622e+03
-1.157818338880810e+03 -2.083805034894409e+02 -2.918975276816622e+03
-1.157843474811824e+03 -2.103921815079767e+02 -2.918975276816622e+03
-1.156710350002818e+03 -2.115877670077067e+02 -2.918975276816622e+03
-1.156277016222876e+03 -2.135890403350992e+02 -2.918975276816622e+03
-1.156927502796824e+03 -2.155395784374409e+02 -2.918975276816622e+03
-1.156974706691659e+03 -2.170700100568388e+02 -2.918975276816622e+03
-1.156588387010383e+03 -2.195397267979075e+02 -2.918975276816622e+03
-1.156600050836976e+03 -2.208350269803571e+02 -2.918975276816622e+03
-1.156757492954522e+03 -2.220671876827869e+02 -2.918975276816622e+03
-1.156576220180901e+03 -2.241479210217801e+02 -2.918975276816622e+03
-1.156414071391058e+03 -2.253402903817214e+02 -2.918975276816622e+03
-1.156318963925544e+03 -2.263566805531339e+02 -2.918975276816622e+03
-1.156344601415554e+03 -2.284046910308269e+02 -2.918975276816622e+03
-1.156490931196568e+03 -2.304713551188497e+02 -2.918975276816622e+03
-1.156536577899296e+03 -2.315640366714372e+02 -2.918975276816622e+03
-1.156515946582900e+03 -2.334155906447670e+02 -2.918975276816622e+03
-1.156439920642982e+03 -2.364485205027784e+02 -2.918975276816622e+03
-1.156363894703064e+03 -2.394814503607899e+02 -2.918975276816622e+03
-1.156533439358435e+03 -2.425320960553065e+02 -2.918975276816622e+03
-1.156826454335477e+03 -2.453933354383606e+02 -2.918975276816622e+03
-1.156838098237067e+03 -2.478684312872238e+02 -2.918975276816622e+03
-1.156672511432853e+03 -2.494812852426812e+02 -2.918975276816622e+03
-1.156455098714284e+03 -2.508381218982392e+02 -2.918975276816622e+03
-1.156483776702348e+03 -2.530974289455386e+02 -2.918975276816622e+03
-1.156462055704062e+03 -2.554961004678640e+02 -2.918975276816622e+03
-1.156373575141488e+03 -2.584116250724454e+02 -2.918975276816622e+03
-1.156388107049576e+03 -2.604984429337894e+02 -2.918975276816622e+03
-1.156517475036615e+03 -2.617770826129458e+02 -2.918975276816622e+03
-1.156486094174577e+03 -2.638435052408975e+02 -2.918975276816622e+03
-1.156554067141250e+03 -2.657567950731769e+02 -2.918975276816622e+03
-1.156651936829456e+03 -2.674081485386595e+02 -2.918975276816622e+03
-1.156652599809068e+03 -2.687285923422638e+02 -2.918975276816622e+03
-1.156682991023885e+03 -2.698208127593704e+02 -2.918975276816622e+03
-1.156684976210804e+03 -2.710624524021458e+02 -2.918975276816622e+03
-1.156640794133451e+03 -2.725929565558403e+02 -2.918975276816622e+03
-1.156599695546688e+03 -2.743465494109905e+02 -2.918975276816622e+03
-1.156626519283919e+03 -2.758320745240314e+02 -2.918975276816622e+03
-1.156640329704605e+03 -2.769108777683521e+02 -2.918975276816622e+03
-1.156636533733520e+03 -2.785533149861906e+02 -2.918975276816622e+03
-1.156743208038921e+03 -2.808074824009105e+02 -2.918975276816622e+03
-1.156819841091290e+03 -2.840780824916257e+02 -2.918975276816622e+03
-1.156458131465738e+03 -2.870334808147595e+02 -2.918975276816622e+03
-1.156540139166423e+03 -2.886047219201417e+02 -2.918975276816622e+03
-1.156974666526388e+03 -2.912922278298666e+02 -2.918975276816622e+03
-1.156844828519501e+03 -2.940853435461138e+02 -2.918975276816622e+03
-1.156592565214923e+03 -2.964482939548840e+02 -2.918975276816622e+03
-1.156729419402155e+03 -2.995289610408163e+02 -2.918975276816622e+03
-1.156761937633530e+03 -3.014462066245825e+02 -2.918975276816622e+03
-1.156683598942736e+03 -3.028941477794833e+02 -2.918975276816622e+03
-1.156797901933842e+03 -3.046501384514608e+02 -2.918975276816622e+03
-1.157092342046350e+03 -3.064476109160901e+02 -2.918975276816622e+03
-1.156860343696646e+03 -3.085669355931751e+02 -2.918975276816622e+03
-1.156537212846990e+03 -3.109932236164328e+02 -2.918975276816622e+03
-1.156630362432790e+03 -3.138321721222834e+02 -2.918975276816622e+03
-1.156692151023739e+03 -3.162715678994286e+02 -2.918975276816622e+03
-1.156690781527690e+03 -3.181432536822082e+02 -2.918975276816622e+03
-1.156641339994829e+03 -3.196959459581690e+02 -2.918975276816622e+03
-1.156648938368298e+03 -3.211405556225575e+02 -2.918975276816622e+03
-1.156653928806115e+03 -3.227664833490191e+02 -2.918975276816622e+03
-1.156638898818248e+03 -3.240016758292462e+02 -2.918975276816622e+03
-1.156605069380597e+03 -3.252568923054754e+02 -2.918975276816622e+03
-1.156555733467107e+03 -3.265361144650319e+02 -2.918975276816622e+03
-1.156575291349352e+03 -3.278801149307856e+02 -2.918975276816622e+03
-1.156672887844798e+03 -3.293678685825591e+02 -2.918975276816622e+03
-1.156609819874364e+03 -3.305706753779627e+02 -2.918975276816622e+03
-1.156416723194363e+03 -3.329610438286507e+02 -2.918975276816622e+03
-1.156484167150370e+03 -3.349506352863065e+02 -2.918975276816622e+03
-1.156789960766680e+03 -3.358724143358315e+02 -2.918975276816622e+03
-1.156740687027870e+03 -3.375125989441263e+02 -2.918975276816622e+03
-1.156475972087097e+03 -3.399444581135154e+02 -2.918975276816622e+03
-1.156456303423553e+03 -3.420872115511891e+02 -2.918975276816622e+03
-1.156490415954610e+03 -3.434550076601744e+02 -2.918975276816622e+03
-1.156517383546980e+03 -3.452224048931492e+02 -2.918975276816622e+03
-1.156512060197161e+03 -3.474428558597808e+02 -2.918975276816622e+03
-1.156444982464429e+03 -3.485727799255021e+02 -2.918975276816622e+03
-1.156416924654754e+03 -3.497734232097231e+02 -2.918975276816622e+03
-1.156489641151046e+03 -3.521353126133537e+02 -2.918975276816622e+03
-1.156578203362656e+03 -3.554412753900071e+02 -2.918975276816622e+03
-1.156632929756554e+03 -3.581353312307614e+02 -2.918975276816622e+03
-1.156663774731740e+03 -3.604917763621983e+02 -2.918975276816622e+03
-1.156688671562336e+03 -3.625947794453550e+02 -2.918975276816622e+03
-1.156711452877778e+03 -3.638228842402783e+02 -2.918975276816622e+03
-1.156732114021355e+03 -3.659745888011836e+02 -2.918975276816622e+03
-1.156756752546704e+03 -3.691445481193625e+02 -2.918975276816622e+03
-1.156780775058344e+03 -3.718109418511594e+02 -2.918975276816622e+03
-1.156786277996386e+03 -3.733667876853491e+02 -2.918975276816622e+03
-1.156805079816397e+03 -3.755040672346117e+02 -2.918975276816622e+03
-1.156829422703348e+03 -3.772362782526432e+02 -2.918975276816622e+03
-1.156837252547884e+03 -3.787711041336811e+02 -2.918975276816622e+03
-1.156814522918068e+03 -3.801055044498474e+02 -2.918975276816622e+03
-1.156841893356813e+03 -3.814164562356705e+02 -2.918975276816622e+03
-1.156868772590634e+03 -3.843235488868790e+02 -2.918975276816622e+03
-1.156842363880299e+03 -3.862601528727899e+02 -2.918975276816622e+03
-1.156745227932673e+03  3.828064164958748e+02 -2.918975276816622e+03
-1.156676492080021e+03  3.848515718335685e+02 -2.918975276816622e+03
-1.157026604026267e+03  3.804855596155959e+02 -2.918975276816622e+03
-1.156996128579661e+03  3.781200960111918e+02 -2.918975276816622e+03
-1.156864515324289e+03  3.770514547493076e+02 -2.918975276816622e+03
-1.156827952366024e+03  3.750756932408232e+02 -2.918975276816622e+03
-1.156829536303609e+03  3.715301579127110e+02 -2.918975276816622e+03
-1.156824144083482e+03  3.681374658877405e+02 -2.918975276816622e+03
-1.156820676716180e+03  3.655180325149768e+02 -2.918975276816622e+03
-1.156917934321516e+03  3.621807845744045e+02 -2.918975276816622e+03
-1.156949118237311e+03  3.582674586378882e+02 -2.918975276816622e+03
-1.156835911753466e+03  3.558420392169471e+02 -2.918975276816622e+03
-1.156781615101191e+03  3.542795115878753e+02 -2.918975276816622e+03
-1.156785371605957e+03  3.517133119326040e+02 -2.918975276816622e+03
-1.156810679698729e+03  3.486267184029738e+02 -2.918975276816622e+03
-1.156811268356479e+03  3.452122811237300e+02 -2.918975276816622e+03
-1.156790989401383e+03  3.420187413112610e+02 -2.918975276816622e+03
-1.156774562268465e+03  3.393739427151810e+02 -2.918975276816622e+03
-1.156758369088257e+03  3.367261619958742e+02 -2.918975276816622e+03
-1.156731091895507e+03  3.341144046508471e+02 -2.918975276816622e+03
-1.156692496737503e+03  3.315416528033272e+02 -2.918975276816622e+03
-1.156653901579499e+03  3.289689009558071e+02 -2.918975276816622e+03
-1.156594401234420e+03  3.270863250934376e+02 -2.918975276816622e+03
-1.156935576821499e+03  3.249916065862323e+02 -2.918975276816622e+03
-1.157638485363539e+03  3.227078146500497e+02 -2.918975276816622e+03
-1.157183265788682e+03  3.211484953400916e+02 -2.918975276816622e+03
-1.155895068369490e+03  3.189525004638589e+02 -2.918975276816622e+03
-1.155721589465192e+03  3.162770172747777e+02 -2.918975276816622e+03
-1.156397526967501e+03  3.137699487643387e+02 -2.918975276816622e+03
-1.156758383887647e+03  3.115110585394227e+02 -2.918975276816622e+03
-1.156750508674138e+03  3.091052604329535e+02 -2.918975276816622e+03
-1.156719980437350e+03  3.064707413701402e+02 -2.918975276816622e+03
-1.156720450728775e+03  3.040025875180592e+02 -2.918975276816622e+03
-1.156511147332973e+03  3.027382663702714e+02 -2.918975276816622e+03
-1.156397437048405e+03  3.014690181916087e+02 -2.918975276816622e+03
-1.156589093562299e+03  2.989910102777775e+02 -2.918975276816622e+03
-1.156700755100667e+03  2.965793663971252e+02 -2.918975276816622e+03
-1.156646782732229e+03  2.948442539084113e+02 -2.918975276816622e+03
-1.156614859439105e+03  2.930339934939074e+02 -2.918975276816622e+03
-1.156864524917761e+03  2.909964218756255e+02 -2.918975276816622e+03
-1.156957070520306e+03  2.890845875388082e+02 -2.918975276816622e+03
-1.156617595334238e+03  2.872411496586066e+02 -2.918975276816622e+03
-1.156586736806855e+03  2.855028085759561e+02 -2.918975276816622e+03
-1.156898938813539e+03  2.832485998679599e+02 -2.918975276816622e+03
-1.156926582400680e+03  2.800253809913970e+02 -2.918975276816622e+03
-1.156843688398206e+03  2.778871148199225e+02 -2.918975276816622e+03
-1.156785124300963e+03  2.765546819114525e+02 -2.918975276816622e+03
-1.156848730798392e+03  2.746803188811757e+02 -2.918975276816622e+03
-1.156900964291195e+03  2.728612540190853e+02 -2.918975276816622e+03
-1.156850231446514e+03  2.715522939741195e+02 -2.918975276816622e+03
-1.156784681785130e+03  2.704753768733086e+02 -2.918975276816622e+03
-1.156899765902191e+03  2.678533281032170e+02 -2.918975276816622e+03
-1.156913345398361e+03  2.654962340502130e+02 -2.918975276816622e+03
-1.156725423564776e+03  2.637453041603203e+02 -2.918975276816622e+03
-1.156601245259362e+03  2.618044295281842e+02 -2.918975276816622e+03
-1.156760209725871e+03  2.605026862884821e+02 -2.918975276816622e+03
-1.156937457103842e+03  2.588453656864341e+02 -2.918975276816622e+03
-1.156862450479161e+03  2.572429716414304e+02 -2.918975276816622e+03
-1.156817126147160e+03  2.560023779045039e+02 -2.918975276816622e+03
-1.156838422810001e+03  2.546308113699200e+02 -2.918975276816622e+03
-1.156880196917162e+03  2.528190216060917e+02 -2.918975276816622e+03
-1.156972934087146e+03  2.509001571723467e+02 -2.918975276816622e+03
-1.157103954729349e+03  2.501587606643153e+02 -2.918975276816622e+03
-1.157002236831327e+03  2.487234357168163e+02 -2.918975276816622e+03
-1.156843127616980e+03  2.466784530053250e+02 -2.918975276816622e+03
-1.156744911513860e+03  2.451758889887449e+02 -2.918975276816622e+03
-1.156692107599169e+03  2.437427148103886e+02 -2.918975276816622e+03
-1.156642017786493e+03  2.420228786139074e+02 -2.918975276816622e+03
-1.156598990413305e+03  2.405059095680606e+02 -2.918975276816622e+03
-1.156562945713503e+03  2.393119560671763e+02 -2.918975276816622e+03
-1.156506977823922e+03  2.369468508577953e+02 -2.918975276816622e+03
-1.156446349614705e+03  2.347561200799597e+02 -2.918975276816622e+03
-1.156409124537179e+03  2.329291695006157e+02 -2.918975276816622e+03
-1.156354692681545e+03  2.307936874130007e+02 -2.918975276816622e+03
-1.156338875929004e+03  2.295469163007603e+02 -2.918975276816622e+03
-1.156316061547681e+03  2.281068297406418e+02 -2.918975276816622e+03
-1.156293890997914e+03  2.263534894624399e+02 -2.918975276816622e+03
-1.156277462796556e+03  2.253082999947053e+02 -2.918975276816622e+03
-1.156260858609075e+03  2.241009969185537e+02 -2.918975276816622e+03
-1.156231474835099e+03  2.220175124976735e+02 -2.918975276816622e+03
-1.156255923363027e+03  2.202574048966339e+02 -2.918975276816622e+03
-1.156188233196633e+03  2.190958715943559e+02 -2.918975276816622e+03
-1.155953687587765e+03  2.169215758389599e+02 -2.918975276816622e+03
-1.156024996840902e+03  2.148626882817813e+02 -2.918975276816622e+03
-1.156216543566833e+03  2.131390414323270e+02 -2.918975276816622e+03
-1.156145878158056e+03  2.109905913955569e+02 -2.918975276816622e+03
-1.156077503961147e+03  2.095752353425156e+02 -2.918975276816622e+03
-1.156064525153624e+03  2.081078770589945e+02 -2.918975276816622e+03
-1.156062231606799e+03  2.062380724228561e+02 -2.918975276816622e+03
-1.156051976530490e+03  2.049707763670118e+02 -2.918975276816622e+03
-1.156036390896615e+03  2.039331130336301e+02 -2.918975276816622e+03
-1.156006642325471e+03  2.021187674270310e+02 -2.918975276816622e+03
-1.156032922195074e+03  2.003896460320768e+02 -2.918975276816622e+03
-1.156118187871399e+03  1.989203279793697e+02 -2.918975276816622e+03
-1.156073307038811e+03  1.964743685579826e+02 -2.918975276816622e+03
-1.156066609109757e+03  1.937631202533221e+02 -2.918975276816622e+03
-1.156152584826204e+03  1.913226682679343e+02 -2.918975276816622e+03
-1.156076842088589e+03  1.896928771270462e+02 -2.918975276816622e+03
-1.155977092414873e+03  1.882510208583513e+02 -2.918975276816622e+03
-1.156105080378703e+03  1.865702969509770e+02 -2.918975276816622e+03
-1.156116498397085e+03  1.852432148125541e+02 -2.918975276816622e+03
-1.156017883685963e+03  1.838896995066273e+02 -2.918975276816622e+03
-1.156016644351084e+03  1.820606191253055e+02 -2.918975276816622e+03
-1.156025829985059e+03  1.805900454437269e+02 -2.918975276816622e+03
-1.155999385697761e+03  1.795001424894948e+02 -2.918975276816622e+03
-1.156003502044662e+03  1.770560802772121e+02 -2.918975276816622e+03
-1.156019498971994e+03  1.748763602852891e+02 -2.918975276816622e+03
-1.156014766325883e+03  1.731523300697118e+02 -2.918975276816622e+03
-1.156006259267488e+03  1.710243434376519e+02 -2.918975276816622e+03
-1.156005607237996e+03  1.696294196040767e+02 -2.918975276816622e+03
-1.156051034498538e+03  1.681277761140953e+02 -2.918975276816622e+03
-1.156055665514121e+03  1.664281699260378e+02 -2.918975276816622e+03
-1.155995753428939e+03  1.651855426289596e+02 -2.918975276816622e+03
-1.156001898407803e+03  1.639361443421791e+02 -2.918975276816622e+03
-1.156064011169741e+03  1.620663494858231e+02 -2.918975276816622e+03
-1.156064373469023e+03  1.604795549806839e+02 -2.918975276816622e+03
-1.156031326909724e+03  1.593288971099509e+02 -2.918975276816622e+03
-1.156046279395427e+03  1.571283718274078e+02 -2.918975276816622e+03
-1.156104561795173e+03  1.550750607936031e+02 -2.918975276816622e+03
-1.156108097482377e+03  1.531943724151697e+02 -2.918975276816622e+03
-1.156098375204002e+03  1.510434279774313e+02 -2.918975276816622e+03
-1.156104038141502e+03  1.497703632044058e+02 -2.918975276816622e+03
-1.156122472093580e+03  1.482341173434580e+02 -2.918975276816622e+03
-1.156117403104289e+03  1.463574792480063e+02 -2.918975276816622e+03
-1.156080289862557e+03  1.452011726341599e+02 -2.918975276816622e+03
-1.156086684835024e+03  1.440717740594873e+02 -2.918975276816622e+03
-1.156137049202330e+03  1.421015899998560e+02 -2.918975276816622e+03
-1.156175407478365e+03  1.404678217380159e+02 -2.918975276816622e+03
-1.156293373989762e+03  1.393170302305785e+02 -2.918975276816622e+03
-1.156299220169220e+03  1.370437658932294e+02 -2.918975276816622e+03
-1.156114778593441e+03  1.349614697394830e+02 -2.918975276816622e+03
-1.156049254637566e+03  1.331378373952357e+02 -2.918975276816622e+03
-1.156206444833583e+03  1.308191641312390e+02 -2.918975276816622e+03
-1.156290633377278e+03  1.295022828833649e+02 -2.918975276816622e+03
-1.156293056615980e+03  1.281786679672181e+02 -2.918975276816622e+03
-1.156282287018874e+03  1.265122346170912e+02 -2.918975276816622e+03
-1.156283558539775e+03  1.252594073788599e+02 -2.918975276816622e+03
-1.156099609882731e+03  1.238796659918540e+02 -2.918975276816622e+03
-1.156051757251992e+03  1.220630095274083e+02 -2.918975276816622e+03
-1.156302360499900e+03  1.205929463757594e+02 -2.918975276816622e+03
-1.156558785047725e+03  1.195304690204038e+02 -2.918975276816622e+03
-1.156593221237999e+03  1.171337762103203e+02 -2.918975276816622e+03
-1.156050939115152e+03  1.148858769865670e+02 -2.918975276816622e+03
-1.156036707943820e+03  1.131492898427059e+02 -2.918975276816622e+03
-1.156869518643716e+03  1.112548100054162e+02 -2.918975276816622e+03
-1.156890330316243e+03  1.100231218667451e+02 -2.918975276816622e+03
-1.156344463924647e+03  1.084271662542056e+02 -2.918975276816622e+03
-1.156400099197422e+03  1.067199335986247e+02 -2.918975276816622e+03
-1.156683140384720e+03  1.053783630251631e+02 -2.918975276816622e+03
-1.156635304581538e+03  1.039685916887793e+02 -2.918975276816622e+03
-1.156489230181006e+03  1.021630405723525e+02 -2.918975276816622e+03
-1.156663521418071e+03  1.007023863179822e+02 -2.918975276816622e+03
-1.156730363947875e+03  9.928581779172357e+01 -2.918975276816622e+03
-1.156489199812880e+03  9.758845247578748e+01 -2.918975276816622e+03
-1.156473724508501e+03  9.604919444628885e+01 -2.918975276816622e+03
-1.156636243801542e+03  9.316452090094327e+01 -2.918975276816622e+03
-1.156643220706328e+03  9.055125805891660e+01 -2.918975276816622e+03
-1.156633217139047e+03  8.900665348522362e+01 -2.918975276816622e+03
-1.156629946628095e+03  8.745607334428787e+01 -2.918975276816622e+03
-1.156630199438998e+03  8.665177727115346e+01 -2.918975276816622e+03
-1.156626623723481e+03  8.580240716230233e+01 -2.918975276816622e+03
-1.156625646574022e+03  8.389737720975482e+01 -2.918975276816622e+03
-1.156612854096284e+03  8.090456140341504e+01 -2.918975276816622e+03
-1.156615864135473e+03  7.774077478218568e+01 -2.918975276816622e+03
-1.156617977537589e+03  7.494541021012660e+01 -2.918975276816622e+03
-1.156618539929012e+03  7.264199309710966e+01 -2.918975276816622e+03
-1.156615194506197e+03  7.045848330296741e+01 -2.918975276816622e+03
-1.156655674128695e+03  6.817832483416515e+01 -2.918975276816622e+03
-1.156687692407318e+03  6.533908769320918e+01 -2.918975276816622e+03
-1.156579959684420e+03  6.321485016772859e+01 -2.918975276816622e+03
-1.156523023738891e+03  6.176657274351687e+01 -2.918975276816622e+03
-1.156601992379517e+03  5.944478566743745e+01 -2.918975276816622e+03
-1.156673750388177e+03  5.731000331862262e+01 -2.918975276816622e+03
-1.156755145498102e+03  5.494787663272839e+01 -2.918975276816622e+03
-1.156774993778492e+03  5.225773519576244e+01 -2.918975276816622e+03
-1.156787508537288e+03  5.032003294395861e+01 -2.918975276816622e+03
-1.156802039806842e+03  4.884711242770048e+01 -2.918975276816622e+03
-1.156811348104898e+03  4.733908772805086e+01 -2.918975276816622e+03
-1.156913206882401e+03  4.545190386048930e+01 -2.918975276816622e+03
-1.157035096746542e+03  4.317857753470930e+01 -2.918975276816622e+03
-1.157044754515035e+03  4.184330778120996e+01 -2.918975276816622e+03
-1.157101249038875e+03  4.027541576126952e+01 -2.918975276816622e+03
-1.157205691222669e+03  3.767962326356586e+01 -2.918975276816622e+03
-1.156463186197949e+03  3.548324771582868e+01 -2.918975276816622e+03
-1.156477848978601e+03  3.397700894109631e+01 -2.918975276816622e+03
-1.157396381062181e+03  3.166101870030965e+01 -2.918975276816622e+03
-1.157527139308268e+03  2.939189510890716e+01 -2.918975276816622e+03
-1.157519110631623e+03  2.752937968424396e+01 -2.918975276816622e+03
-1.157562246515923e+03  2.494259178953109e+01 -2.918975276816622e+03
-1.157637140781140e+03  2.249638599540414e+01 -2.918975276816622e+03
-1.157743793427274e+03  2.019076230186310e+01 -2.918975276816622e+03
-1.157709927436944e+03  1.807663920761144e+01 -2.918975276816622e+03
-1.157665310598327e+03  1.649304436567503e+01 -2.918975276816622e+03
-1.157654462497321e+03  1.526241350529514e+01 -2.918975276816622e+03
-1.157619691309736e+03  1.394979775849476e+01 -2.918975276816622e+03
-1.157620189305638e+03  1.260103424259676e+01 -2.918975276816622e+03
-1.157569976143315e+03  1.086080414381335e+01 -2.918975276816622e+03
-1.157505858603265e+03  8.669334016291042e+00 -2.918975276816622e+03
 1.154639085427414e+03 -1.745130620611717e+00  2.918975276816622e+03
 1.154687035568585e+03 -2.488841848113543e-01  2.918975276816622e+03
 1.154596153238010e+03 -3.338367965837468e+00  2.918975276816622e+03
 1.154533324275586e+03 -5.792347411313102e+00  2.918975276816622e+03
 1.154468698927200e+03 -8.129718003555414e+00  2.918975276816622e+03
 1.154402608645141e+03 -1.049914109098294e+01  2.918975276816622e+03
 1.154335053429410e+03 -1.290061667359566e+01  2.918975276816622e+03
 1.154267498213678e+03 -1.530209225620839e+01  2.918975276816622e+03
 1.154202357189425e+03 -1.767113713724819e+01  2.918975276816622e+03
 1.154139630356650e+03 -2.000775131671505e+01  2.918975276816622e+03
 1.154060537844774e+03 -2.254821008497888e+01  2.918975276816622e+03
 1.153965079653796e+03 -2.529251344203967e+01  2.918975276816622e+03
 1.153924823609714e+03 -2.674213060654861e+01  2.918975276816622e+03
 1.153925977999517e+03 -2.853620205872749e+01  2.918975276816622e+03
 1.153868996219807e+03 -3.139366068801651e+01  2.918975276816622e+03
 1.153767669983596e+03 -3.367536601419382e+01  2.918975276816622e+03
 1.153693398921006e+03 -3.632822544669246e+01  2.918975276816622e+03
 1.153842407108240e+03 -3.911210123774396e+01  2.918975276816622e+03
 1.154187639371677e+03 -4.165583928102709e+01  2.918975276816622e+03
 1.154001616821376e+03 -4.441780354202774e+01  2.918975276816622e+03
 1.153419519206352e+03 -4.743680694862961e+01  2.918975276816622e+03
 1.153416787309730e+03 -4.998026776421647e+01  2.918975276816622e+03
 1.153908994522132e+03 -5.178109437283637e+01  2.918975276816622e+03
 1.153933542089768e+03 -5.341083956497501e+01  2.918975276816622e+03
 1.153533910759575e+03 -5.543835005918278e+01  2.918975276816622e+03
 1.153290816311181e+03 -5.772227121182659e+01  2.918975276816622e+03
 1.153390981415201e+03 -5.968904891143128e+01  2.918975276816622e+03
 1.153706153994881e+03 -6.112066619056813e+01  2.918975276816622e+03
 1.153514707492920e+03 -6.257425458026658e+01  2.918975276816622e+03
 1.153404490753065e+03 -6.438702056347353e+01  2.918975276816622e+03
 1.153726344080508e+03 -6.583012086529216e+01  2.918975276816622e+03
 1.153757680374362e+03 -6.777935947104848e+01  2.918975276816622e+03
 1.153384084213237e+03 -7.007403055809024e+01  2.918975276816622e+03
 1.153378784725350e+03 -7.148565701742680e+01  2.918975276816622e+03
 1.153768958230713e+03 -7.326371949922074e+01  2.918975276816622e+03
 1.153686895894887e+03 -7.630833530360675e+01  2.918975276816622e+03
 1.153517314868913e+03 -7.942433525536650e+01  2.918975276816622e+03
 1.153689879304231e+03 -8.128238514207288e+01  2.918975276816622e+03
 1.153789111583978e+03 -8.331028820423215e+01  2.918975276816622e+03
 1.153535441852872e+03 -8.540465976437787e+01  2.918975276816622e+03
 1.153314153858200e+03 -8.748861117363093e+01  2.918975276816622e+03
 1.153508891182900e+03 -8.982981801722140e+01  2.918975276816622e+03
 1.153748252545194e+03 -9.152351187724136e+01  2.918975276816622e+03
 1.153738761850578e+03 -9.350679817351089e+01  2.918975276816622e+03
 1.153680269723387e+03 -9.602240301761876e+01  2.918975276816622e+03
 1.153650753196091e+03 -9.762087698766612e+01  2.918975276816622e+03
 1.153646797111776e+03 -9.915639539468248e+01  2.918975276816622e+03
 1.153657817487590e+03 -1.020450318282215e+02  2.918975276816622e+03
 1.153633432086659e+03 -1.044263548831402e+02  2.918975276816622e+03
 1.153616708862517e+03 -1.056504967825299e+02  2.918975276816622e+03
 1.153615164539833e+03 -1.075399644181191e+02  2.918975276816622e+03
 1.153598316810507e+03 -1.097865807687665e+02  2.918975276816622e+03
 1.153559529786512e+03 -1.113986458782649e+02  2.918975276816622e+03
 1.153520398692307e+03 -1.134104843696075e+02  2.918975276816622e+03
 1.153539548930775e+03 -1.159141543099778e+02  2.918975276816622e+03
 1.153509754626775e+03 -1.188280829425774e+02  2.918975276816622e+03
 1.153466283923319e+03 -1.216024853617324e+02  2.918975276816622e+03
 1.153469694036320e+03 -1.239214918965446e+02  2.918975276816622e+03
 1.153431450785181e+03 -1.251692805323255e+02  2.918975276816622e+03
 1.153395047367612e+03 -1.271322015978613e+02  2.918975276816622e+03
 1.153379157828413e+03 -1.310645096679769e+02  2.918975276816622e+03
 1.153390389802763e+03 -1.343989653428492e+02  2.918975276816622e+03
 1.153451722610001e+03 -1.369525319466847e+02  2.918975276816622e+03
 1.153513055417239e+03 -1.395060985505202e+02  2.918975276816622e+03
 1.153574388224476e+03 -1.420596651543558e+02  2.918975276816622e+03
 1.153609394862743e+03 -1.445647554561539e+02  2.918975276816622e+03
 1.153594002184629e+03 -1.473427902832419e+02  2.918975276816622e+03
 1.153588152051565e+03 -1.497955037617434e+02  2.918975276816622e+03
 1.153609248499875e+03 -1.515093043379887e+02  2.918975276816622e+03
 1.153644906136632e+03 -1.533282303990445e+02  2.918975276816622e+03
 1.153629675645264e+03 -1.560786968534258e+02  2.918975276816622e+03
 1.153632044444970e+03 -1.590865336889003e+02  2.918975276816622e+03
 1.153652727042119e+03 -1.609778678704630e+02  2.918975276816622e+03
 1.153653975930983e+03 -1.620177931259719e+02  2.918975276816622e+03
 1.153643507780835e+03 -1.630303048737112e+02  2.918975276816622e+03
 1.153648781792622e+03 -1.646186011134290e+02  2.918975276816622e+03
 1.153656245146076e+03 -1.660292078633739e+02  2.918975276816622e+03
 1.153664341140722e+03 -1.675703232303422e+02  2.918975276816622e+03
 1.153660060971790e+03 -1.696008656236717e+02  2.918975276816622e+03
 1.153659163633539e+03 -1.713145011632559e+02  2.918975276816622e+03
 1.153648860672676e+03 -1.732218177747450e+02  2.918975276816622e+03
 1.153646492506114e+03 -1.761345738581696e+02  2.918975276816622e+03
 1.153637680870175e+03 -1.792808668171873e+02  2.918975276816622e+03
 1.153614258460513e+03 -1.822681395307963e+02  2.918975276816622e+03
 1.153611684884193e+03 -1.850604488535141e+02  2.918975276816622e+03
 1.153733327121741e+03 -1.871742319343268e+02  2.918975276816622e+03
 1.153742585867049e+03 -1.897705270153201e+02  2.918975276816622e+03
 1.153614098931659e+03 -1.928360728964604e+02  2.918975276816622e+03
 1.153614828632492e+03 -1.960602703566543e+02  2.918975276816622e+03
 1.153607113198225e+03 -1.994150436357874e+02  2.918975276816622e+03
 1.153623437306612e+03 -2.022761813891947e+02  2.918975276816622e+03
 1.153620653116609e+03 -2.048560999957919e+02  2.918975276816622e+03
 1.153617868926605e+03 -2.074360186023893e+02  2.918975276816622e+03
 1.153617782863207e+03 -2.098984184719766e+02  2.918975276816622e+03
 1.153620010748680e+03 -2.127683787374633e+02  2.918975276816622e+03
 1.153621854456417e+03 -2.161634181358590e+02  2.918975276816622e+03
 1.153634752708451e+03 -2.191525140418175e+02  2.918975276816622e+03
 1.153640139564931e+03 -2.219293525413952e+02  2.918975276816622e+03
 1.153634750074717e+03 -2.237927722026409e+02  2.918975276816622e+03
 1.153630583406939e+03 -2.249455537451241e+02  2.918975276816622e+03
 1.153641107129299e+03 -2.272592193095781e+02  2.918975276816622e+03
 1.153657055433987e+03 -2.296168926725604e+02  2.918975276816622e+03
 1.153668429078548e+03 -2.311142976609350e+02  2.918975276816622e+03
 1.153676110693782e+03 -2.331117808400633e+02  2.918975276816622e+03
 1.153633467640846e+03 -2.357271342550906e+02  2.918975276816622e+03
 1.153555449867476e+03 -2.383204207584718e+02  2.918975276816622e+03
 1.153848522062571e+03 -2.402874705233716e+02  2.918975276816622e+03
 1.153975872028133e+03 -2.427919191335876e+02  2.918975276816622e+03
 1.153736180053008e+03 -2.461369413803548e+02  2.918975276816622e+03
 1.153735283087758e+03 -2.489291345395731e+02  2.918975276816622e+03
 1.153803410875074e+03 -2.514915605584886e+02  2.918975276816622e+03
 1.153861309190348e+03 -2.541089190487989e+02  2.918975276816622e+03
 1.153801466143559e+03 -2.563469248725602e+02  2.918975276816622e+03
 1.153739929937283e+03 -2.590204311449427e+02  2.918975276816622e+03
 1.153900922420352e+03 -2.611079270086394e+02  2.918975276816622e+03
 1.153989147475923e+03 -2.625131575928310e+02  2.918975276816622e+03
 1.153887895145185e+03 -2.646919188927685e+02  2.918975276816622e+03
 1.153839460627742e+03 -2.671674144572826e+02  2.918975276816622e+03
 1.153853078268190e+03 -2.700366228495527e+02  2.918975276816622e+03
 1.153879158265562e+03 -2.719172905168850e+02  2.918975276816622e+03
 1.153884762194911e+03 -2.733160442961447e+02  2.918975276816622e+03
 1.153886125326615e+03 -2.759024988664709e+02  2.918975276816622e+03
 1.153894765775272e+03 -2.784692978571821e+02  2.918975276816622e+03
 1.153900600475212e+03 -2.798066639218624e+02  2.918975276816622e+03
 1.153907677235993e+03 -2.818145941138569e+02  2.918975276816622e+03
 1.153913287801742e+03 -2.847882820628943e+02  2.918975276816622e+03
 1.153924354393534e+03 -2.874334108416522e+02  2.918975276816622e+03
 1.153934205050216e+03 -2.900804687757960e+02  2.918975276816622e+03
 1.153949953458997e+03 -2.932649253312555e+02  2.918975276816622e+03
 1.153965647908658e+03 -2.958398203235821e+02  2.918975276816622e+03
 1.153969783572865e+03 -2.970312647765374e+02  2.918975276816622e+03
 1.153967167622933e+03 -2.976706692675252e+02  2.918975276816622e+03
 1.153961101684642e+03 -2.983164558998243e+02  2.918975276816622e+03
 1.153915918210931e+03 -2.999198109230128e+02  2.918975276816622e+03
 1.153833922650259e+03 -3.021588025887345e+02  2.918975276816622e+03
 1.153873414345573e+03 -3.035625664404753e+02  2.918975276816622e+03
 1.153942574930921e+03 -3.056244069659175e+02  2.918975276816622e+03
 1.153910123430538e+03 -3.084151947415825e+02  2.918975276816622e+03
 1.153869504608316e+03 -3.097477143341841e+02  2.918975276816622e+03
 1.153861837742169e+03 -3.105820603350113e+02  2.918975276816622e+03
 1.153880868166473e+03 -3.113493223622018e+02  2.918975276816622e+03
 1.153878797598437e+03 -3.125101353969314e+02  2.918975276816622e+03
 1.153860834018479e+03 -3.139738752679394e+02  2.918975276816622e+03
 1.153801399875777e+03 -3.161077956252210e+02  2.918975276816622e+03
 1.153779116921607e+03 -3.195494113443972e+02  2.918975276816622e+03
 1.153780365609063e+03 -3.225748943488091e+02  2.918975276816622e+03
 1.153725944474137e+03 -3.249001752615607e+02  2.918975276816622e+03
 1.153792758671993e+03 -3.273052747113123e+02  2.918975276816622e+03
 1.153900474528082e+03 -3.300077092770944e+02  2.918975276816622e+03
 1.153757755749157e+03 -3.318936016204989e+02  2.918975276816622e+03
 1.153503300769292e+03 -3.335690244781600e+02  2.918975276816622e+03
 1.153531002267224e+03 -3.366668639206684e+02  2.918975276816622e+03
 1.153765082655913e+03 -3.390558951544196e+02  2.918975276816622e+03
 1.153867773831086e+03 -3.406885681920538e+02  2.918975276816622e+03
 1.153856488620254e+03 -3.428725185115098e+02  2.918975276816622e+03
 1.153668335518911e+03 -3.452956117091781e+02  2.918975276816622e+03
 1.153426141620817e+03 -3.486033095309213e+02  2.918975276816622e+03
 1.153542165585633e+03 -3.516557079078950e+02  2.918975276816622e+03
 1.153717439796067e+03 -3.537853049416912e+02  2.918975276816622e+03
 1.153653680517686e+03 -3.560247732178577e+02  2.918975276816622e+03
 1.153620049248035e+03 -3.586746498690707e+02  2.918975276816622e+03
 1.153676254141204e+03 -3.616471494205704e+02  2.918975276816622e+03
 1.153672020200667e+03 -3.639131789617493e+02  2.918975276816622e+03
 1.153616534991410e+03 -3.652914047677465e+02  2.918975276816622e+03
 1.153673672225845e+03 -3.663520882530489e+02  2.918975276816622e+03
 1.153738977700150e+03 -3.677912190715045e+02  2.918975276816622e+03
 1.153630312077566e+03 -3.698472309045065e+02  2.918975276816622e+03
 1.153320879336930e+03 -3.725923841219202e+02  2.918975276816622e+03
 1.153454267581655e+03 -3.751611113975599e+02  2.918975276816622e+03
 1.153820131546694e+03 -3.774097087829268e+02  2.918975276816622e+03
 1.153850402775500e+03 -3.801456444388036e+02  2.918975276816622e+03
 1.153822719026414e+03 -3.824486956510349e+02  2.918975276816622e+03
 1.153674615027321e+03 -3.836136466911989e+02  2.918975276816622e+03
 1.153621798743056e+03 -3.851147042497678e+02  2.918975276816622e+03
1.153779599721108e+03 3.845972842823889e+02 2.918975276816622e+03
1.153698864811245e+03 3.857899469101504e+02 2.918975276816622e+03
1.153833247230904e+03 3.827758366783560e+02 2.918975276816622e+03
1.153794530563604e+03 3.813337601003994e+02 2.918975276816622e+03
1.153784134402384e+03 3.799781608141465e+02 2.918975276816622e+03
1.153835796048110e+03 3.777016509603815e+02 2.918975276816622e+03
1.153860474068552e+03 3.749557180739658e+02 2.918975276816622e+03
1.153879580202868e+03 3.728333154837013e+02 2.918975276816622e+03
1.153890775788808e+03 3.715909001936772e+02 2.918975276816622e+03
1.153909758216215e+03 3.691951125463576e+02 2.918975276816622e+03
1.153963109766268e+03 3.670172757004370e+02 2.918975276816622e+03
1.153973711744651e+03 3.656734126791188e+02 2.918975276816622e+03
1.153932815178588e+03 3.636985821645814e+02 2.918975276816622e+03
1.153951588481528e+03 3.609383547628913e+02 2.918975276816622e+03
1.154149720438041e+03 3.585767540159750e+02 2.918975276816622e+03
1.154173397024899e+03 3.568317557916829e+02 2.918975276816622e+03
1.154036771951158e+03 3.545196231895993e+02 2.918975276816622e+03
1.154064995882203e+03 3.527072267115720e+02 2.918975276816622e+03
1.154117584731366e+03 3.513458295368782e+02 2.918975276816622e+03
1.154102110649056e+03 3.491661921835267e+02 2.918975276816622e+03
1.154036704207449e+03 3.465233490184183e+02 2.918975276816622e+03
1.154111837274088e+03 3.441369441166617e+02 2.918975276816622e+03
1.154305408270015e+03 3.424936675943559e+02 2.918975276816622e+03
1.154389128508104e+03 3.408130270397576e+02 2.918975276816622e+03
1.154362456903317e+03 3.385046788099688e+02 2.918975276816622e+03
1.154313142634529e+03 3.360926770533804e+02 2.918975276816622e+03
1.154263828365741e+03 3.336806752967919e+02 2.918975276816622e+03
1.154566472412084e+03 3.321202113869028e+02 2.918975276816622e+03
1.154779965299175e+03 3.298384354743741e+02 2.918975276816622e+03
1.154532324064336e+03 3.272671336491676e+02 2.918975276816622e+03
1.154418854218928e+03 3.253897997856743e+02 2.918975276816622e+03
1.154459580410500e+03 3.229231099472315e+02 2.918975276816622e+03
1.154496876615918e+03 3.204903211381409e+02 2.918975276816622e+03
1.154500631796933e+03 3.178114556569547e+02 2.918975276816622e+03
1.154492807106755e+03 3.150357120367025e+02 2.918975276816622e+03
1.154490447923486e+03 3.125010765602643e+02 2.918975276816622e+03
1.154490370736176e+03 3.098519026732727e+02 2.918975276816622e+03
1.154462006660490e+03 3.067727213855296e+02 2.918975276816622e+03
1.154390008040323e+03 3.034360796890199e+02 2.918975276816622e+03
1.154278010446495e+03 3.007589295768162e+02 2.918975276816622e+03
1.154309312876069e+03 2.985093914421550e+02 2.918975276816622e+03
1.154523914302707e+03 2.960279737007293e+02 2.918975276816622e+03
1.154444427837138e+03 2.942625142373988e+02 2.918975276816622e+03
1.154149806383577e+03 2.923075269316425e+02 2.918975276816622e+03
1.153934137834230e+03 2.894470535053649e+02 2.918975276816622e+03
1.154096647475248e+03 2.879088980298448e+02 2.918975276816622e+03
1.154328362867070e+03 2.862882921974919e+02 2.918975276816622e+03
1.154251105819335e+03 2.832629180575487e+02 2.918975276816622e+03
1.154021417080924e+03 2.807819845069712e+02 2.918975276816622e+03
1.153935023357458e+03 2.783770642397828e+02 2.918975276816622e+03
1.154199083633717e+03 2.759699910469315e+02 2.918975276816622e+03
1.154094031178940e+03 2.729329483175287e+02 2.918975276816622e+03
1.153835514516376e+03 2.695770977376678e+02 2.918975276816622e+03
1.153900830601066e+03 2.663605635435309e+02 2.918975276816622e+03
1.153783314649170e+03 2.641186570049524e+02 2.918975276816622e+03
1.153695388851271e+03 2.622368503765820e+02 2.918975276816622e+03
1.153736847380180e+03 2.593031921786327e+02 2.918975276816622e+03
1.153742848132077e+03 2.571058375975451e+02 2.918975276816622e+03
1.153700308684494e+03 2.554632655680477e+02 2.918975276816622e+03
1.153635632976507e+03 2.539049961188551e+02 2.918975276816622e+03
1.153627761637992e+03 2.528119768945722e+02 2.918975276816622e+03
1.153659321929428e+03 2.515099571484794e+02 2.918975276816622e+03
1.153648782606030e+03 2.496930549997046e+02 2.918975276816622e+03
1.153643632315161e+03 2.485899679431043e+02 2.918975276816622e+03
1.153697805028577e+03 2.474170728091089e+02 2.918975276816622e+03
1.153615580394341e+03 2.460902267407169e+02 2.918975276816622e+03
1.153337086994042e+03 2.445035978008560e+02 2.918975276816622e+03
1.153091978615788e+03 2.425519911384403e+02 2.918975276816622e+03
1.153318677422782e+03 2.409476794910153e+02 2.918975276816622e+03
1.153907797078222e+03 2.392168256279438e+02 2.918975276816622e+03
1.153865585737914e+03 2.371105895747541e+02 2.918975276816622e+03
1.153520248600809e+03 2.344864574733555e+02 2.918975276816622e+03
1.153640759129105e+03 2.329586171503311e+02 2.918975276816622e+03
1.153804222525720e+03 2.313854864738794e+02 2.918975276816622e+03
1.153747368838741e+03 2.292820125896559e+02 2.918975276816622e+03
1.153564578457900e+03 2.276792641027096e+02 2.918975276816622e+03
1.153584085752827e+03 2.261043861782515e+02 2.918975276816622e+03
1.153697344895546e+03 2.249107354960162e+02 2.918975276816622e+03
1.153714533410211e+03 2.228002221151218e+02 2.918975276816622e+03
1.153711115561031e+03 2.197015413466565e+02 2.918975276816622e+03
1.153744159414000e+03 2.168880252601112e+02 2.918975276816622e+03
1.153764951778342e+03 2.143743496509731e+02 2.918975276816622e+03
1.153785744142684e+03 2.118606740418350e+02 2.918975276816622e+03
1.153803210472268e+03 2.100870673185821e+02 2.918975276816622e+03
1.153785672921375e+03 2.081087782231545e+02 2.918975276816622e+03
1.153736457524760e+03 2.051857378696671e+02 2.918975276816622e+03
1.153750672018046e+03 2.023240297139011e+02 2.918975276816622e+03
1.153821053790234e+03 1.996195223543806e+02 2.918975276816622e+03
1.153884172951421e+03 1.970108835933840e+02 2.918975276816622e+03
1.153908619182069e+03 1.940443930950005e+02 2.918975276816622e+03
1.153844471791817e+03 1.923102183709810e+02 2.918975276816622e+03
1.153764691215378e+03 1.910634252036435e+02 2.918975276816622e+03
1.153739573439489e+03 1.887145572343993e+02 2.918975276816622e+03
1.153730761307098e+03 1.858562222926759e+02 2.918975276816622e+03
1.153727441164796e+03 1.830618831356969e+02 2.918975276816622e+03
1.153702560840258e+03 1.804656992624011e+02 2.918975276816622e+03
1.153646558690521e+03 1.774934967624023e+02 2.918975276816622e+03
1.153611473383709e+03 1.746701621436743e+02 2.918975276816622e+03
1.153597304919825e+03 1.719956954062170e+02 2.918975276816622e+03
1.153583136455940e+03 1.693212286687597e+02 2.918975276816622e+03
1.153545035331243e+03 1.671246258012903e+02 2.918975276816622e+03
1.153502921128996e+03 1.650664212611024e+02 2.918975276816622e+03
1.153480726510015e+03 1.626687511782079e+02 2.918975276816622e+03
1.153458531891034e+03 1.602710810953135e+02 2.918975276816622e+03
1.153538898444855e+03 1.583280710854519e+02 2.918975276816622e+03
1.153660742121085e+03 1.564582632615621e+02 2.918975276816622e+03
1.153721501746922e+03 1.542069975506110e+02 2.918975276816622e+03
1.154007718068504e+03 1.527792136541129e+02 2.918975276816622e+03
1.153955735925207e+03 1.510891524223518e+02 2.918975276816622e+03
1.153859784882462e+03 1.490226359810925e+02 2.918975276816622e+03
1.153937556260784e+03 1.476498070157377e+02 2.918975276816622e+03
1.153343092565057e+03 1.469961520300415e+02 2.918975276816622e+03
1.153276250356526e+03 1.460251076991634e+02 2.918975276816622e+03
1.153744495074808e+03 1.433198984284739e+02 2.918975276816622e+03
1.153640851337049e+03 1.404750061838623e+02 2.918975276816622e+03
1.153487616115733e+03 1.390985040711289e+02 2.918975276816622e+03
1.153510946039145e+03 1.375903029744784e+02 2.918975276816622e+03
1.153492215585580e+03 1.348056698831958e+02 2.918975276816622e+03
1.153458350788464e+03 1.318023917363411e+02 2.918975276816622e+03
1.153474153091807e+03 1.291768663561610e+02 2.918975276816622e+03
1.153429865708707e+03 1.274776448077256e+02 2.918975276816622e+03
1.153192200549873e+03 1.264235476139922e+02 2.918975276816622e+03
1.152928297171368e+03 1.253021102905500e+02 2.918975276816622e+03
1.152899128271335e+03 1.230311359886874e+02 2.918975276816622e+03
1.153052174663734e+03 1.206560864374013e+02 2.918975276816622e+03
1.153021406870791e+03 1.192988040328419e+02 2.918975276816622e+03
1.152456890403192e+03 1.175180912249871e+02 2.918975276816622e+03
1.152294761951598e+03 1.147333229323482e+02 2.918975276816622e+03
1.152658964658164e+03 1.123099144026157e+02 2.918975276816622e+03
1.152594097445500e+03 1.108932295335457e+02 2.918975276816622e+03
1.152427130822657e+03 1.086094752328516e+02 2.918975276816622e+03
1.152431235517083e+03 1.062758248674140e+02 2.918975276816622e+03
1.152593513613851e+03 1.050821323375256e+02 2.918975276816622e+03
1.153051891188778e+03 1.030173320927602e+02 2.918975276816622e+03
1.153408780083271e+03 1.004335281058582e+02 2.918975276816622e+03
1.153660399672926e+03 9.797985333189430e+01 2.918975276816622e+03
1.153808768603970e+03 9.656647790551760e+01 2.918975276816622e+03
1.153739018997129e+03 9.505306538612010e+01 2.918975276816622e+03
1.154016806720992e+03 9.243710403133706e+01 2.918975276816622e+03
1.154385736093169e+03 8.947539010431802e+01 2.918975276816622e+03
1.154186849557202e+03 8.671556130468259e+01 2.918975276816622e+03
1.153944994998544e+03 8.423433003069890e+01 2.918975276816622e+03
1.154249016724094e+03 8.134812212064107e+01 2.918975276816622e+03
1.154818127513128e+03 7.918957460585999e+01 2.918975276816622e+03
1.155112767218429e+03 7.701347585839808e+01 2.918975276816622e+03
1.155060764713263e+03 7.433781820122871e+01 2.918975276816622e+03
1.155008762208098e+03 7.166216054405935e+01 2.918975276816622e+03
1.154956759702932e+03 6.898650288688999e+01 2.918975276816622e+03
1.154923416377900e+03 6.683259693060178e+01 2.918975276816622e+03
1.154904607444365e+03 6.430450944985579e+01 2.918975276816622e+03
1.155039573670514e+03 6.115909969048371e+01 2.918975276816622e+03
1.155052155341225e+03 5.894379613133482e+01 2.918975276816622e+03
1.155048759945004e+03 5.776329519861626e+01 2.918975276816622e+03
1.155049754222694e+03 5.628342035576878e+01 2.918975276816622e+03
1.155010137486940e+03 5.480906654872658e+01 2.918975276816622e+03
1.154945520158189e+03 5.296425718627003e+01 2.918975276816622e+03
1.154909260020107e+03 5.080291224009089e+01 2.918975276816622e+03
1.154892693911052e+03 4.890110256455399e+01 2.918975276816622e+03
1.154823430835029e+03 4.760798868177626e+01 2.918975276816622e+03
1.154814077837683e+03 4.603973842057959e+01 2.918975276816622e+03
1.154938364142882e+03 4.359162644355510e+01 2.918975276816622e+03
1.154941351366818e+03 4.214148784499022e+01 2.918975276816622e+03
1.154855972288101e+03 4.113601653465189e+01 2.918975276816622e+03
1.155026118632672e+03 3.981981758146669e+01 2.918975276816622e+03
1.155090594651062e+03 3.728323650791119e+01 2.918975276816622e+03
1.155003222606034e+03 3.482130311637826e+01 2.918975276816622e+03
1.154863563019782e+03 3.309411493377066e+01 2.918975276816622e+03
1.154827597745730e+03 3.113189167842516e+01 2.918975276816622e+03
1.154985061320175e+03 2.925052617616378e+01 2.918975276816622e+03
1.155107465417240e+03 2.688101600065812e+01 2.918975276816622e+03
1.155082874266253e+03 2.387249497759862e+01 2.918975276816622e+03
1.155081382193245e+03 2.071269504045177e+01 2.918975276816622e+03
1.155079890120237e+03 1.755289510330492e+01 2.918975276816622e+03
1.154982795645247e+03 1.520595254484767e+01 2.918975276816622e+03
1.154981324159032e+03 1.394797325111753e+01 2.918975276816622e+03
1.155037397518289e+03 1.252815460473173e+01 2.918975276816622e+03
1.154934887984219e+03 1.092282569255237e+01 2.918975276816622e+03
1.154857933504327e+03 9.045421887330791e+00 2.918975276816622e+03
1.154831436426654e+03 6.643508216167437e+00 2.918975276816622e+03
1.154802574708016e+03 4.896475147116047e+00 2.918975276816622e+03
1.154741059913045e+03 3.411112137368295e+00 2.918975276816622e+03
1.154708864053228e+03 1.705622208103999e+00 2.918975276816622e+03

CELLS 1397 5736
3 6 1409 7
3 6 1410 369
3 7 1411 8
3 8 1412 9
3 9 1413 10
3 10 1414 11
3 11 1415 12
4 12 1416 1417 13
3 13 1418 14
3 14 1419 15
3 15 1420 16
3 16 1421 17
3 17 1422 18
3 18 1423 19
4 19 1424 1425 20
3 20 1426 21
3 21 1427 22
3 22 1428 23
3 23 1429 24
3 24 1430 25
3 25 1431 26
4 26 1432 1433 27
3 27 1434 28
3 28 1435 29
3 29 1436 30
3 30 1437 31
3 31 1438 32
3 32 1439 33
3 33 1440 34
3 34 1441 35
3 35 1442 36
3 36 1443 37
3 37 1444 38
3 38 1445 39
3 39 1446 40
3 40 1447 41
3 41 1448 42
3 42 1449 43
3 43 1450 44
3 44 1451 45
3 45 1452 46
3 46 1453 47
3 47 1454 48
3 48 1455 49
3 49 1456 50
3 50 1457 51
3 51 1458 52
3 52 1459 53
3 53 1460 54
3 54 1461 55
3 55 1462 56
3 56 1463 57
3 57 1464 58
3 58 1465 59
3 59 1466 60
3 60 1467 61
3 61 1468 62
3 62 1469 63
3 63 1470 64
3 64 1471 65
3 65 1472 66
3 66 1473 67
3 67 1474 68
3 68 1475 69
3 69 1476 70
3 70 1477 71
3 71 1478 72
4 72 1479 1480 73
3 73 1481 74
3 74 1482 75
3 75 1483 76
3 76 1484 77
3 77 1485 78
3 78 1486 79
3 79 1487 80
3 80 1488 81
3 81 1489 82
3 82 1490 83
3 83 1491 84
3 84 1492 85
3 85 1493 86
3 86 1494 87
3 87 1495 88
3 88 1496 89
3 89 1497 90
3 90 1498 91
3 91 1499 92
3 92 1500 93
3 93 1501 94
3 94 1502 95
5 95 1503 1504 1505 96
3 96 1506 97
3 97 1507 98
3 98 1508 99
3 99 1509 100
3 100 1510 101
3 101 1511 102
4 102 1512 1513 103
3 103 1514 104
3 104 1515 105
3 105 1516 106
3 106 1517 107
3 107 1518 108
3 108 1519 109
3 109 1520 110
3 110 1521 111
3 111 1522 112
3 112 1523 113
3 113 1524 114
3 114 1525 115
3 115 1526 116
3 116 1527 117
3 117 1528 118
3 118 1529 119
3 119 1530 120
3 120 1531 121
3 121 1532 122
3 122 1533 123
4 123 1534 1535 124
3 124 1536 125
3 125 1537 126
3 126 1538 127
3 127 1539 128
3 128 1540 129
3 129 1541 130
3 130 1542 131
3 131 1543 132
3 132 1544 133
3 133 1545 134
3 134 1546 135
3 135 1547 136
3 136 1548 137
3 137 1549 138
3 138 1550 139
3 139 1551 140
3 140 1552 141
3 141 1553 142
3 142 1554 143
3 143 1555 144
3 144 1556 145
3 145 1557 146
3 146 1558 147
4 147 1559 1560 148
3 148 1561 149
3 149 1562 150
3 150 1563 151
3 151 1564 152
3 152 1565 153
3 153 1566 154
3 154 1567 155
5 155 1568 1569 1570 156
3 156 1571 157
3 157 1572 158
3 158 1573 159
3 159 1574 160
3 160 1575 161
3 161 1576 162
3 162 1577 163
3 163 1578 164
4 164 1579 1580 165
3 165 1581 166
3 166 1582 167
3 167 1583 168
3 168 1584 169
3 169 1585 170
3 170 1586 171
4 171 1587 1588 172
3 172 1589 173
3 173 1590 174
4 174 1591 1592 175
3 175 1593 176
3 176 1594 177
3 177 1595 178
5 178 1596 1597 1598 179
3 179 1599 180
3 180 1600 181
3 181 1601 182
3 182 1602 183
3 183 1603 184
3 184 1604 185
3 185 1605 186
3 186 1606 187
3 187 1607 188
3 188 1608 1401
4 189 1609 1610 190
3 189 1611 1402
3 190 1612 191
3 191 1613 192
3 192 1614 193
4 193 1615 1616 194
5 194 1617 1618 1619 195
3 195 1620 196
3 196 1621 197
3 197 1622 198
3 198 1623 199
3 199 1624 200
3 200 1625 201
3 201 1626 202
3 202 1627 203
3 203 1628 204
3 204 1629 205
5 205 1630 1631 1632 206
3 206 1633 207
3 207 1634 208
3 208 1635 209
3 209 1636 210
3 210 1637 211
3 211 1638 212
3 212 1639 213
3 213 1640 214
3 214 1641 215
3 215 1642 216
3 216 1643 217
3 217 1644 218
3 218 1645 219
5 219 1646 1647 1648 220
4 220 1649 1650 221
3 221 1651 222
3 222 1652 223
3 223 1653 224
3 224 1654 225
3 225 1655 226
3 226 1656 227
3 227 1657 228
3 228 1658 229
3 229 1659 230
3 230 1660 231
3 231 1661 232
3 232 1662 233
3 233 1663 234
3 234 1664 235
3 235 1665 236
3 236 1666 237
3 237 1667 238
3 238 1668 239
3 239 1669 240
4 240 1670 1671 241
3 241 1672 242
3 242 1673 243
3 243 1674 244
3 244 1675 245
3 245 1676 246
3 246 1677 247
3 247 1678 248
3 248 1679 249
3 249 1680 250
3 250 1681 251
3 251 1682 252
3 252 1683 253
3 253 1684 254
3 254 1685 255
3 255 1686 256
3 256 1687 257
3 257 1688 258
3 258 1689 259
3 259 1690 260
3 260 1691 261
3 261 1692 262
3 262 1693 263
3 263 1694 264
3 264 1695 265
3 265 1696 266
3 266 1697 267
3 267 1698 268
3 268 1699 269
3 269 1700 270
3 270 1701 271
3 271 1702 272
4 272 1703 1704 273
3 273 1705 274
3 274 1706 275
3 275 1707 276
3 276 1708 277
3 277 1709 278
3 278 1710 279
3 279 1711 280
3 280 1712 281
3 281 1713 282
3 282 1714 283
3 283 1715 284
3 284 1716 285
3 285 1717 286
3 286 1718 287
3 287 1719 288
3 288 1720 289
3 289 1721 290
3 290 1722 291
3 291 1723 292
3 292 1724 293
3 293 1725 294
3 294 1726 295
3 295 1727 296
3 296 1728 297
4 297 1729 1730 298
3 298 1731 299
3 299 1732 300
3 300 1733 301
3 301 1734 302
3 302 1735 303
3 303 1736 304
3 304 1737 305
3 305 1738 306
3 306 1739 307
3 307 1740 308
3 308 1741 309
3 309 1742 310
3 310 1743 311
3 311 1744 312
3 312 1745 313
3 313 1746 314
3 314 1747 315
3 315 1748 316
4 316 1749 1750 317
3 317 1751 318
3 318 1752 319
3 319 1753 320
3 320 1754 321
3 321 1755 322
3 322 1756 323
3 323 1757 324
3 324 1758 325
3 325 1759 326
3 326 1760 327
3 327 1761 328
3 328 1762 329
3 329 1763 330
3 330 1764 331
3 331 1765 332
3 332 1766 333
3 333 1767 334
3 334 1768 335
3 335 1769 336
3 336 1770 337
3 337 1771 338
3 338 1772 339
3 339 1773 340
3 340 1774 341
3 341 1775 342
3 342 1776 343
3 343 1777 344
3 344 1778 345
3 345 1779 346
3 346 1780 347
4 347 1781 1782 348
3 348 1783 349
3 349 1784 350
3 350 1785 351
3 351 1786 352
3 352 1787 353
3 353 1788 354
3 354 1789 355
3 355 1790 356
3 356 1791 357
3 357 1792 358
3 358 1793 359
4 359 1794 1795 360
3 360 1796 361
3 361 1797 362
3 362 1798 363
3 363 1799 364
3 364 1800 365
3 365 1801 366
4 366 1802 1803 367
3 367 1804 368
3 368 1805 369
3 371 1806 372
3 371 1807 710
3 372 1808 373
3 373 1809 374
4 374 1810 1811 375
3 375 1812 376
3 376 1813 377
3 377 1814 378
3 378 1815 379
4 379 1816 1817 380
3 380 1818 381
3 381 1819 382
3 382 1820 383
3 383 1821 384
3 384 1822 385
3 385 1823 386
3 386 1824 387
4 387 1825 1826 388
3 388 1827 389
3 389 1828 390
3 390 1829 391
3 391 1830 392
3 392 1831 393
3 393 1832 394
3 394 1833 395
3 395 1834 396
3 396 1835 397
3 397 1836 398
3 398 1837 399
3 399 1838 400
3 400 1839 401
3 401 1840 402
3 402 1841 403
3 403 1842 404
3 404 1843 405
3 405 1844 406
3 406 1845 407
4 407 1846 1847 408
3 408 1848 409
3 409 1849 410
3 410 1850 411
3 411 1851 412
3 412 1852 413
3 413 1853 414
3 414 1854 415
3 415 1855 416
3 416 1856 417
3 417 1857 418
4 418 1858 1859 419
3 419 1860 420
3 420 1861 421
3 421 1862 422
3 422 1863 423
3 423 1864 424
3 424 1865 425
3 425 1866 426
3 426 1867 427
3 427 1868 428
3 428 1869 429
3 429 1870 430
4 430 1871 1872 431
4 431 1873 1874 432
3 432 1875 433
4 433 1876 1877 434
3 434 1878 435
3 435 1879 436
4 436 1880 1881 437
3 437 1882 438
3 438 1883 439
3 439 1884 440
3 440 1885 441
3 441 1886 442
3 442 1887 443
3 443 1888 444
4 444 1889 1890 445
3 445 1891 446
3 446 1892 447
3 447 1893 448
3 448 1894 449
3 449 1895 450
3 450 1896 451
3 451 1897 452
3 452 1898 453
3 453 1899 454
4 454 1900 1901 455
3 455 1902 456
3 456 1903 457
3 457 1904 458
3 458 1905 459
3 459 1906 460
3 460 1907 461
3 461 1908 462
4 462 1909 1910 463
3 463 1911 464
3 464 1912 465
3 465 1913 466
3 466 1914 467
3 467 1915 468
4 468 1916 1917 469
3 469 1918 470
3 470 1919 471
4 471 1920 1921 472
3 472 1922 473
3 473 1923 474
3 474 1924 475
3 475 1925 476
3 476 1926 477
3 477 1927 478
3 478 1928 479
3 479 1929 480
3 480 1930 481
3 481 1931 482
3 482 1932 483
4 483 1933 1934 484
3 484 1935 485
3 485 1936 486
3 486 1937 487
4 487 1938 1939 488
3 488 1940 489
3 489 1941 490
3 490 1942 491
3 491 1943 492
3 492 1944 493
3 493 1945 494
4 494 1946 1947 495
3 495 1948 496
3 496 1949 497
3 497 1950 498
3 498 1951 499
3 499 1952 500
3 500 1953 501
3 501 1954 502
3 502 1955 503
3 503 1956 504
4 504 1957 1958 505
3 505 1959 506
3 506 1960 507
3 507 1961 508
3 508 1962 509
3 509 1963 510
3 510 1964 511
3 511 1965 512
3 512 1966 513
3 513 1967 514
3 514 1968 515
3 515 1969 516
3 516 1970 517
3 517 1971 518
3 518 1972 519
3 519 1973 520
3 520 1974 521
3 521 1975 522
3 522 1976 523
3 523 1977 524
3 524 1978 525
3 525 1979 526
3 526 1980 527
3 527 1981 528
3 528 1982 529
3 529 1983 530
4 530 1984 1985 531
3 531 1986 532
3 532 1987 533
3 533 1988 534
3 534 1989 535
3 535 1990 536
4 536 1991 1992 537
3 537 1993 538
3 538 1994 1403
3 539 1995 540
3 539 1996 1404
3 540 1997 541
3 541 1998 542
3 542 1999 543
3 543 2000 544
3 544 2001 545
3 545 2002 546
3 546 2003 547
3 547 2004 548
3 548 2005 549
3 549 2006 550
3 550 2007 551
3 551 2008 552
3 552 2009 553
3 553 2010 554
3 554 2011 555
3 555 2012 556
3 556 2013 557
3 557 2014 558
3 558 2015 559
3 559 2016 560
3 560 2017 561
3 561 2018 562
3 562 2019 563
3 563 2020 564
3 564 2021 565
3 565 2022 566
3 566 2023 567
3 567 2024 568
3 568 2025 569
3 569 2026 570
3 570 2027 571
3 571 2028 572
3 572 2029 573
3 573 2030 574
3 574 2031 575
3 575 2032 576
3 576 2033 577
3 577 2034 578
3 578 2035 579
4 579 2036 2037 580
3 580 2038 581
3 581 2039 582
3 582 2040 583
3 583 2041 584
3 584 2042 585
3 585 2043 586
4 586 2044 2045 587
3 587 2046 588
3 588 2047 589
3 589 2048 590
3 590 2049 591
3 591 2050 592
3 592 2051 593
4 593 2052 2053 594
3 594 2054 595
3 595 2055 596
3 596 2056 597
3 597 2057 598
4 598 2058 2059 599
3 599 2060 600
3 600 2061 601
3 601 2062 602
3 602 2063 603
3 603 2064 604
3 604 2065 605
3 605 2066 606
3 606 2067 607
3 607 2068 608
4 608 2069 2070 609
3 609 2071 610
3 610 2072 611
3 611 2073 612
3 612 2074 613
3 613 2075 614
3 614 2076 615
3 615 2077 616
3 616 2078 617
4 617 2079 2080 618
3 618 2081 619
3 619 2082 620
3 620 2083 621
3 621 2084 622
3 622 2085 623
3 623 2086 624
3 624 2087 625
3 625 2088 626
3 626 2089 627
3 627 2090 628
3 628 2091 629
4 629 2092 2093 630
3 630 2094 631
3 631 2095 632
3 632 2096 633
3 633 2097 634
3 634 2098 635
3 635 2099 636
4 636 2100 2101 637
3 637 2102 638
3 638 2103 639
3 639 2104 640
3 640 2105 641
3 641 2106 642
3 642 2107 643
3 643 2108 644
3 644 2109 645
3 645 2110 646
4 646 2111 2112 647
3 647 2113 648
3 648 2114 649
3 649 2115 650
3 650 2116 651
3 651 2117 652
3 652 2118 653
3 653 2119 654
3 654 2120 655
3 655 2121 656
4 656 2122 2123 657
3 657 2124 658
3 658 2125 659
3 659 2126 660
3 660 2127 661
3 661 2128 662
3 662 2129 663
3 663 2130 664
3 664 2131 665
3 665 2132 666
3 666 2133 667
3 667 2134 668
4 668 2135 2136 669
3 669 2137 670
3 670 2138 671
3 671 2139 672
3 672 2140 673
3 673 2141 674
3 674 2142 675
3 675 2143 676
4 676 2144 2145 677
3 677 2146 678
6 678 2147 2148 2149 2150 679
3 679 2151 680
4 680 2152 2153 681
4 681 2154 2155 682
4 682 2156 2157 683
3 683 2158 684
4 684 2159 2160 685
3 685 2161 686
3 686 2162 687
3 687 2163 688
3 688 2164 689
3 689 2165 690
3 690 2166 691
3 691 2167 692
3 692 2168 693
3 693 2169 694
3 694 2170 695
3 695 2171 696
3 696 2172 697
3 697 2173 698
3 698 2174 699
4 699 2175 2176 700
3 700 2177 701
3 701 2178 702
3 702 2179 703
3 703 2180 704
4 704 2181 2182 705
3 705 2183 706
3 706 2184 707
3 707 2185 708
3 708 2186 709
3 709 2187 710
4 711 2188 2189 712
4 711 2190 2191 1092
4 712 2192 2193 713
3 713 2194 714
3 714 2195 715
3 715 2196 716
3 716 2197 717
4 717 2198 2199 718
3 718 2200 719
3 719 2201 720
3 720 2202 721
4 721 2203 2204 722
3 722 2205 723
3 723 2206 724
3 724 2207 725
3 725 2208 726
3 726 2209 727
3 727 2210 728
3 728 2211 729
3 729 2212 730
3 730 2213 731
3 731 2214 732
3 732 2215 733
3 733 2216 734
3 734 2217 735
3 735 2218 736
3 736 2219 737
3 737 2220 738
3 738 2221 739
3 739 2222 740
3 740 2223 741
3 741 2224 742
3 742 2225 743
3 743 2226 744
3 744 2227 745
3 745 2228 746
3 746 2229 747
3 747 2230 748
3 748 2231 749
3 749 2232 750
3 750 2233 751
3 751 2234 752
3 752 2235 753
3 753 2236 754
3 754 2237 755
3 755 2238 756
3 756 2239 757
3 757 2240 758
3 758 2241 759
3 759 2242 760
3 760 2243 761
3 761 2244 762
3 762 2245 763
3 763 2246 764
3 764 2247 765
3 765 2248 766
3 766 2249 767
3 767 2250 768
3 768 2251 769
3 769 2252 770
3 770 2253 771
3 771 2254 772
3 772 2255 773
4 773 2256 2257 774
3 774 2258 775
3 775 2259 776
3 776 2260 777
3 777 2261 778
3 778 2262 779
3 779 2263 780
3 780 2264 781
3 781 2265 782
3 782 2266 783
3 783 2267 784
3 784 2268 785
3 785 2269 786
3 786 2270 787
3 787 2271 788
3 788 2272 789
3 789 2273 790
3 790 2274 791
3 791 2275 792
3 792 2276 793
3 793 2277 794
3 794 2278 795
3 795 2279 796
3 796 2280 797
3 797 2281 798
3 798 2282 799
3 799 2283 800
3 800 2284 801
3 801 2285 802
3 802 2286 803
3 803 2287 804
3 804 2288 805
3 805 2289 806
3 806 2290 807
4 807 2291 2292 808
3 808 2293 809
3 809 2294 810
3 810 2295 811
3 811 2296 812
3 812 2297 813
3 813 2298 814
3 814 2299 815
3 815 2300 816
3 816 2301 817
3 817 2302 818
3 818 2303 819
3 819 2304 820
3 820 2305 821
3 821 2306 822
3 822 2307 823
3 823 2308 824
3 824 2309 825
3 825 2310 826
3 826 2311 827
3 827 2312 828
3 828 2313 829
3 829 2314 830
3 830 2315 831
3 831 2316 832
3 832 2317 833
3 833 2318 834
3 834 2319 835
3 835 2320 836
3 836 2321 837
5 837 2322 2323 2324 838
3 838 2325 839
3 839 2326 840
3 840 2327 841
3 841 2328 842
3 842 2329 843
3 843 2330 844
3 844 2331 845
3 845 2332 846
3 846 2333 847
3 847 2334 848
3 848 2335 849
3 849 2336 850
3 850 2337 851
3 851 2338 852
3 852 2339 853
3 853 2340 854
3 854 2341 855
3 855 2342 856
3 856 2343 857
3 857 2344 858
3 858 2345 859
3 859 2346 860
3 860 2347 861
3 861 2348 862
3 862 2349 863
3 863 2350 864
3 864 2351 865
4 865 2352 2353 866
3 866 2354 867
3 867 2355 868
3 868 2356 869
3 869 2357 870
3 870 2358 871
4 871 2359 2360 872
3 872 2361 873
3 873 2362 874
3 874 2363 875
3 875 2364 876
3 876 2365 877
3 877 2366 878
3 878 2367 879
3 879 2368 880
3 880 2369 881
3 881 2370 882
3 882 2371 883
3 883 2372 884
3 884 2373 885
3 885 2374 886
3 886 2375 887
3 887 2376 888
3 888 2377 889
3 889 2378 890
4 890 2379 2380 891
3 891 2381 892
4 892 2382 2383 893
3 893 2384 894
3 894 2385 895
3 895 2386 896
3 896 2387 897
3 897 2388 898
3 898 2389 899
3 899 2390 900
3 900 2391 901
3 901 2392 902
3 902 2393 903
3 903 2394 904
3 904 2395 905
3 905 2396 906
3 906 2397 907
3 907 2398 908
3 908 2399 1405
3 909 2400 910
3 909 2401 1406
3 910 2402 911
3 911 2403 912
3 912 2404 913
3 913 2405 914
3 914 2406 915
4 915 2407 2408 916
3 916 2409 917
3 917 2410 918
3 918 2411 919
3 919 2412 920
4 920 2413 2414 921
3 921 2415 922
4 922 2416 2417 923
3 923 2418 924
5 924 2419 2420 2421 925
3 925 2422 926
3 926 2423 927
3 927 2424 928
3 928 2425 929
3 929 2426 930
4 930 2427 2428 931
3 931 2429 932
3 932 2430 933
4 933 2431 2432 934
3 934 2433 935
4 935 2434 2435 936
3 936 2436 937
3 937 2437 938
3 938 2438 939
3 939 2439 940
3 940 2440 941
3 941 2441 942
3 942 2442 943
3 943 2443 944
3 944 2444 945
3 945 2445 946
3 946 2446 947
3 947 2447 948
3 948 2448 949
3 949 2449 950
3 950 2450 951
3 951 2451 952
3 952 2452 953
3 953 2453 954
3 954 2454 955
3 955 2455 956
3 956 2456 957
3 957 2457 958
3 958 2458 959
3 959 2459 960
3 960 2460 961
3 961 2461 962
3 962 2462 963
3 963 2463 964
3 964 2464 965
3 965 2465 966
3 966 2466 967
3 967 2467 968
3 968 2468 969
3 969 2469 970
3 970 2470 971
3 971 2471 972
3 972 2472 973
3 973 2473 974
3 974 2474 975
3 975 2475 976
3 976 2476 977
3 977 2477 978
3 978 2478 979
3 979 2479 980
3 980 2480 981
3 981 2481 982
3 982 2482 983
3 983 2483 984
3 984 2484 985
3 985 2485 986
3 986 2486 987
3 987 2487 988
3 988 2488 989
3 989 2489 990
3 990 2490 991
3 991 2491 992
3 992 2492 993
3 993 2493 994
3 994 2494 995
4 995 2495 2496 996
3 996 2497 997
3 997 2498 998
3 998 2499 999
3 999 2500 1000
3 1000 2501 1001
3 1001 2502 1002
3 1002 2503 1003
3 1003 2504 1004
3 1004 2505 1005
3 1005 2506 1006
3 1006 2507 1007
3 1007 2508 1008
3 1008 2509 1009
3 1009 2510 1010
3 1010 2511 1011
3 1011 2512 1012
3 1012 2513 1013
3 1013 2514 1014
3 1014 2515 1015
3 1015 2516 1016
3 1016 2517 1017
3 1017 2518 1018
3 1018 2519 1019
3 1019 2520 1020
3 1020 2521 1021
3 1021 2522 1022
3 1022 2523 1023
3 1023 2524 1024
3 1024 2525 1025
3 1025 2526 1026
3 1026 2527 1027
3 1027 2528 1028
3 1028 2529 1029
3 1029 2530 1030
3 1030 2531 1031
3 1031 2532 1032
3 1032 2533 1033
3 1033 2534 1034
3 1034 2535 1035
3 1035 2536 1036
3 1036 2537 1037
3 1037 2538 1038
3 1038 2539 1039
3 1039 2540 1040
3 1040 2541 1041
3 1041 2542 1042
3 1042 2543 1043
3 1043 2544 1044
3 1044 2545 1045
3 1045 2546 1046
3 1046 2547 1047
3 1047 2548 1048
3 1048 2549 1049
3 1049 2550 1050
3 1050 2551 1051
3 1051 2552 1052
3 1052 2553 1053
3 1053 2554 1054
3 1054 2555 1055
3 1055 2556 1056
3 1056 2557 1057
3 1057 2558 1058
3 1058 2559 1059
3 1059 2560 1060
3 1060 2561 1061
3 1061 2562 1062
4 1062 2563 2564 1063
3 1063 2565 1064
3 1064 2566 1065
3 1065 2567 1066
3 1066 2568 1067
3 1067 2569 1068
4 1068 2570 2571 1069
3 1069 2572 1070
3 1070 2573 1071
3 1071 2574 1072
3 1072 2575 1073
3 1073 2576 1074
3 1074 2577 1075
3 1075 2578 1076
3 1076 2579 1077
3 1077 2580 1078
3 1078 2581 1079
3 1079 2582 1080
3 1080 2583 1081
3 1081 2584 1082
3 1082 2585 1083
3 1083 2586 1084
4 1084 2587 2588 1085
4 1085 2589 2590 1086
3 1086 2591 1087
3 1087 2592 1088
3 1088 2593 1089
3 1089 2594 1090
3 1090 2595 1091
4 1091 2596 2597 1092
3 1094 2598 1095
3 1094 2599 1400
3 1095 2600 1096
4 1096 2601 2602 1097
5 1097 2603 2604 2605 1098
4 1098 2606 2607 1099
4 1099 2608 2609 1100
3 1100 2610 1101
3 1101 2611 1102
4 1102 2612 2613 1103
3 1103 2614 1104
4 1104 2615 2616 1105
3 1105 2617 1106
3 1106 2618 1107
3 1107 2619 1108
3 1108 2620 1109
3 1109 2621 1110
3 1110 2622 1111
3 1111 2623 1112
3 1112 2624 1113
3 1113 2625 1114
3 1114 2626 1115
3 1115 2627 1116
3 1116 2628 1117
3 1117 2629 1118
3 1118 2630 1119
3 1119 2631 1120
3 1120 2632 1121
3 1121 2633 1122
3 1122 2634 1123
3 1123 2635 1124
3 1124 2636 1125
3 1125 2637 1126
3 1126 2638 1127
3 1127 2639 1128
3 1128 2640 1129
3 1129 2641 1130
3 1130 2642 1131
3 1131 2643 1132
3 1132 2644 1133
3 1133 2645 1134
3 1134 2646 1135
3 1135 2647 1136
3 1136 2648 1137
3 1137 2649 1138
3 1138 2650 1139
3 1139 2651 1140
3 1140 2652 1141
3 1141 2653 1142
4 1142 2654 2655 1143
3 1143 2656 1144
3 1144 2657 1145
3 1145 2658 1146
6 1146 2659 2660 2661 2662 1147
3 1147 2663 1148
3 1148 2664 1149
3 1149 2665 1150
3 1150 2666 1151
3 1151 2667 1152
3 1152 2668 1153
3 1153 2669 1154
3 1154 2670 1155
3 1155 2671 1156
3 1156 2672 1157
3 1157 2673 1158
3 1158 2674 1159
3 1159 2675 1160
3 1160 2676 1161
3 1161 2677 1162
3 1162 2678 1163
3 1163 2679 1164
3 1164 2680 1165
3 1165 2681 1166
3 1166 2682 1167
3 1167 2683 1168
3 1168 2684 1169
3 1169 2685 1170
3 1170 2686 1171
3 1171 2687 1172
5 1172 2688 2689 2690 1173
3 1173 2691 1174
4 1174 2692 2693 1175
3 1175 2694 1176
3 1176 2695 1177
3 1177 2696 1178
3 1178 2697 1179
3 1179 2698 1180
3 1180 2699 1181
3 1181 2700 1182
3 1182 2701 1183
4 1183 2702 2703 1184
3 1184 2704 1185
3 1185 2705 1186
3 1186 2706 1187
4 1187 2707 2708 1188
3 1188 2709 1189
3 1189 2710 1190
3 1190 2711 1191
3 1191 2712 1192
4 1192 2713 2714 1193
3 1193 2715 1194
3 1194 2716 1195
3 1195 2717 1196
3 1196 2718 1197
3 1197 2719 1198
3 1198 2720 1199
3 1199 2721 1200
3 1200 2722 1201
3 1201 2723 1202
4 1202 2724 2725 1203
3 1203 2726 1204
3 1204 2727 1205
3 1205 2728 1206
3 1206 2729 1207
3 1207 2730 1208
4 1208 2731 2732 1209
3 1209 2733 1210
3 1210 2734 1211
3 1211 2735 1212
3 1212 2736 1213
3 1213 2737 1214
3 1214 2738 1215
3 1215 2739 1216
3 1216 2740 1217
3 1217 2741 1218
3 1218 2742 1219
4 1219 2743 2744 1220
3 1220 2745 1221
3 1221 2746 1222
3 1222 2747 1223
3 1223 2748 1224
3 1224 2749 1225
3 1225 2750 1226
4 1226 2751 2752 1227
3 1227 2753 1228
3 1228 2754 1229
3 1229 2755 1230
3 1230 2756 1231
3 1231 2757 1232
3 1232 2758 1233
3 1233 2759 1234
3 1234 2760 1235
3 1235 2761 1236
3 1236 2762 1237
3 1237 2763 1238
3 1238 2764 1239
3 1239 2765 1240
3 1240 2766 1241
4 1241 2767 2768 1242
3 1242 2769 1243
3 1243 2770 1244
3 1244 2771 1407
3 1245 2772 1246
3 1245 2773 1408
3 1246 2774 1247
3 1247 2775 1248
4 1248 2776 2777 1249
3 1249 2778 1250
3 1250 2779 1251
3 1251 2780 1252
3 1252 2781 1253
3 1253 2782 1254
3 1254 2783 1255
3 1255 2784 1256
3 1256 2785 1257
3 1257 2786 1258
3 1258 2787 1259
3 1259 2788 1260
3 1260 2789 1261
3 1261 2790 1262
4 1262 2791 2792 1263
3 1263 2793 1264
3 1264 2794 1265
3 1265 2795 1266
5 1266 2796 2797 2798 1267
3 1267 2799 1268
3 1268 2800 1269
3 1269 2801 1270
4 1270 2802 2803 1271
3 1271 2804 1272
3 1272 2805 1273
3 1273 2806 1274
3 1274 2807 1275
3 1275 2808 1276
4 1276 2809 2810 1277
3 1277 2811 1278
4 1278 2812 2813 1279
3 1279 2814 1280
4 1280 2815 2816 1281
3 1281 2817 1282
4 1282 2818 2819 1283
3 1283 2820 1284
3 1284 2821 1285
3 1285 2822 1286
3 1286 2823 1287
3 1287 2824 1288
3 1288 2825 1289
3 1289 2826 1290
3 1290 2827 1291
3 1291 2828 1292
3 1292 2829 1293
3 1293 2830 1294
3 1294 2831 1295
3 1295 2832 1296
3 1296 2833 1297
3 1297 2834 1298
3 1298 2835 1299
3 1299 2836 1300
3 1300 2837 1301
3 1301 2838 1302
3 1302 2839 1303
3 1303 2840 1304
3 1304 2841 1305
3 1305 2842 1306
3 1306 2843 1307
3 1307 2844 1308
3 1308 2845 1309
3 1309 2846 1310
3 1310 2847 1311
3 1311 2848 1312
3 1312 2849 1313
3 1313 2850 1314
3 1314 2851 1315
5 1315 2852 2853 2854 1316
3 1316 2855 1317
4 1317 2856 2857 1318
3 1318 2858 1319
4 1319 2859 2860 1320
3 1320 2861 1321
3 1321 2862 1322
3 1322 2863 1323
3 1323 2864 1324
3 1324 2865 1325
3 1325 2866 1326
4 1326 2867 2868 1327
5 1327 2869 2870 2871 1328
3 1328 2872 1329
5 1329 2873 2874 2875 1330
3 1330 2876 1331
4 1331 2877 2878 1332
3 1332 2879 1333
3 1333 2880 1334
3 1334 2881 1335
3 1335 2882 1336
3 1336 2883 1337
3 1337 2884 1338
3 1338 2885 1339
3 1339 2886 1340
3 1340 2887 1341
3 1341 2888 1342
4 1342 2889 2890 1343
3 1343 2891 1344
3 1344 2892 1345
3 1345 2893 1346
3 1346 2894 1347
3 1347 2895 1348
3 1348 2896 1349
3 1349 2897 1350
3 1350 2898 1351
3 1351 2899 1352
3 1352 2900 1353
3 1353 2901 1354
3 1354 2902 1355
3 1355 2903 1356
3 1356 2904 1357
3 1357 2905 1358
3 1358 2906 1359
3 1359 2907 1360
3 1360 2908 1361
3 1361 2909 1362
3 1362 2910 1363
3 1363 2911 1364
3 1364 2912 1365
3 1365 2913 1366
3 1366 2914 1367
3 1367 2915 1368
6 1368 2916 2917 2918 2919 1369
3 1369 2920 1370
3 1370 2921 1371
3 1371 2922 1372
3 1372 2923 1373
3 1373 2924 1374
3 1374 2925 1375
3 1375 2926 1376
3 1376 2927 1377
3 1377 2928 1378
3 1378 2929 1379
3 1379 2930 1380
3 1380 2931 1381
3 1381 2932 1382
3 1382 2933 1383
3 1383 2934 1384
3 1384 2935 1385
3 1385 2936 1386
3 1386 2937 1387
3 1387 2938 1388
3 1388 2939 1389
3 1389 2940 1390
3 1390 2941 1391
5 1391 2942 2943 2944 1392
3 1392 2945 1393
3 1393 2946 1394
3 1394 2947 1395
3 1395 2948 1396
4 1396 2949 2950 1397
3 1397 2951 1398
3 1398 2952 1399
3 1399 2953 1400

CELL_TYPES 1397
4
4
4
4
4
4
4
4
4
4
4
4
4
4
4
4
4
4
4
4
4
4
4
4
4
4
4
4
4
4
4
4
4
4
4
4
4
4
4
4
4
4
4
4
4
4
4
4
4
4
4
4
4
4
4
4
4
4
4
4
4
4
4
4
4
4
4
4
4
4
4
4
4
4
4
4
4
4
4
4
4
4
4
4
4
4
4
4
4
4
4
4
4
4
4
4
4
4
4
4
4
4
4
4
4
4
4
4
4
4
4
4
4
4
4
4
4
4
4
4
4
4
4
4
4
4
4
4
4
4
4
4
4
4
4
4
4
4
4
4
4
4
4
4
4
4
4
4
4
4
4
4
4
4
4
4
4
4
4
4
4
4
4
4
4
4
4
4
4
4
4
4
4
4
4
4
4
4
4
4
4
4
4
4
4
4
4
4
4
4
4
4
4
4
4
4
4
4
4
4
4
4
4
4
4
4
4
4
4
4
4
4
4
4
4
4
4
4
4
4
4
4
4
4
4
4
4
4
4
4
4
4
4
4
4
4
4
4
4
4
4
4
4
4
4
4
4
4
4
4
4
4
4
4
4
4
4
4
4
4
4
4
4
4
4
4
4
4
4
4
4
4
4
4
4
4
4
4
4
4
4
4
4
4
4
4
4
4
4
4
4
4
4
4
4
4
4
4
4
4
4
4
4
4
4
4
4
4
4
4
4
4
4
4
4
4
4
4
4
4
4
4
4
4
4
4
4
4
4
4
4
4
4
4
4
4
4
4
4
4
4
4
4
4
4
4
4
4
4
4
4
4
4
4
4
4
4
4
4
4
4
4
4
4
4
4
4
4
4
4
4
4
4
4
4
4
4
4
4
4
4
4
4
4
4
4
4
4
4
4
4
4
4
4
4
4
4
4
4
4
4
4
4
4
4
4
4
4
4
4
4
4
4
4
4
4
4
4
4
4
4
4
4
4
4
4
4
4
4
4
4
4
4
4
4
4
4
4
4
4
4
4
4
4
4
4
4
4
4
4
4
4
4
4
4
4
4
4
4
4
4
4
4
4
4
4
4
4
4
4
4
4
4
4
4
4
4
4
4
4
4
4
4
4
4
4
4
4
4
4
4
4
4
4
4
4
4
4
4
4
4
4
4
4
4
4
4
4
4
4
4
4
4
4
4
4
4
4
4
4
4
4
4
4
4
4
4
4
4
4
4
4
4
4
4
4
4
4
4
4
4
4
4
4
4
4
4
4
4
4
4
4
4
4
4
4
4
4
4
4
4
4
4
4
4
4
4
4
4
4
4
4
4
4
4
4
4
4
4
4
4
4
4
4
4
4
4
4
4
4
4
4
4
4
4
4
4
4
4
4
4
4
4
4
4
4
4
4
4
4
4
4
4
4
4
4
4
4
4
4
4
4
4
4
4
4
4
4
4
4
4
4
4
4
4
4
4
4
4
4
4
4
4
4
4
4
4
4
4
4
4
4
4
4
4
4
4
4
4
4
4
4
4
4
4
4
4
4
4
4
4
4
4
4
4
4
4
4
4
4
4
4
4
4
4
4
4
4
4
4
4
4
4
4
4
4
4
4
4
4
4
4
4
4
4
4
4
4
4
4
4
4
4
4
4
4
4
4
4
4
4
4
4
4
4
4
4
4
4
4
4
4
4
4
4
4
4
4
4
4
4
4
4
4
4
4
4
4
4
4
4
4
4
4
4
4
4
4
4
4
4
4
4
4
4
4
4
4
4
4
4
4
4
4
4
4
4
4
4
4
4
4
4
4
4
4
4
4
4
4
4
4
4
4
4
4
4
4
4
4
4
4
4
4
4
4
4
4
4
4
4
4
4
4
4
4
4
4
4
4
4
4
4
4
4
4
4
4
4
4
4
4
4
4
4
4
4
4
4
4
4
4
4
4
4
4
4
4
4
4
4
4
4
4
4
4
4
4
4
4
4
4
4
4
4
4
4
4
4
4
4
4
4
4
4
4
4
4
4
4
4
4
4
4
4
4
4
4
4
4
4
4
4
4
4
4
4
4
4
4
4
4
4
4
4
4
4
4
4
4
4
4
4
4
4
4
4
4
4
4
4
4
4
4
4
4
4
4
4
4
4
4
4
4
4
4
4
4
4
4
4
4
4
4
4
4
4
4
4
4
4
4
4
4
4
4
4
4
4
4
4
4
4
4
4
4
4
4
4
4
4
4
4
4
4
4
4
4
4
4
4
4
4
4
4
4
4
4
4
4
4
4
4
4
4
4
4
4
4
4
4
4
4
4
4
4
4
4
4
4
4
4
4
4
4
4
4
4
4
4
4
4
4
4
4
4
4
4
4
4
4
4
4
4
4
4
4
4
4
4
4
4
4
4
4
4
4
4
4
4
4
4
4
4
4
4
4
4
4
4
4
4
4
4
4
4
4
4
4
4
4
4
4
4
4
4
4
4
4
4
4
4
4
4
4
4
4
4
4
4
4
4
4
4
4
4
4
4
4
4
4
4
4
4
4
4
4
4
4
4
4
4
4
4
4
4
4
4
4
4
4
4
4
4
4
4
4
4
4
4
4
4
4
4
4
4
4
4
4
4
4
4
4
4
4
4
4
4
4
4
4
4
4
4
4
4
4
4
4
4
4
4
4
4
4
4
4
4
4
4
4
4
4
4
4
4
4
4
4
4
4
4
4
4
4
4
4
4
4
4
4
4
4
4
4
4
4
4
4
4
4
4
4
4
4
4
4
4
4
4
4
4
4
4
4
4
4
4
4
4
4
4
4
4
4
4
4
4
4
4
4
4
4
4
4
4
4
4
4
4
4
4
4
4
4
4
4
4
4
4
4
4
4
4
4
4
4
4
4
4
4
4
4
4
4
4
4
4
4
4
4
4
4
4
4
4
4
4
4
4
4
4
4
4
4
4
4
4
4
4
4
4
4
4
4
4
4
4
4
4
4
4
4
4
4
4
4
4
4
4
4
4
4
4
4
4
4
4
4
4
4
4
4
4
4
4
4
4
4
4
4
4
4
4
4
4
4
4
4
4
4
4
4
4
4
4
4
4
4
4
4
4
4
4
4
4
4
4
4
4
4
4
4
4
4
4
4
4
4
4
4
4
4
4
4
4
4
4
4
4
4
4
4
4
4
4
4
4
4
4
4
4
4
4
4
4
4

POINT_DATA 2954
VECTORS PK_force double
0.000000000000000e+00 0.000000000000000e+00 0.000000000000000e+00
0.000000000000000e+00 0.000000000000000e+00 0.000000000000000e+00
0.000000000000000e+00 0.000000000000000e+00 0.000000000000000e+00
0.000000000000000e+00 0.000000000000000e+00 0.000000000000000e+00
0.000000000000000e+00 0.000000000000000e+00 0.000000000000000e+00
0.000000000000000e+00 0.000000000000000e+00 0.000000000000000e+00
0.000000000000000e+00 0.000000000000000e+00 0.000000000000000e+00
0.000000000000000e+00 0.000000000000000e+00 0.000000000000000e+00
0.000000000000000e+00 0.000000000000000e+00 0.000000000000000e+00
0.000000000000000e+00 0.000000000000000e+00 0.000000000000000e+00
0.000000000000000e+00 0.000000000000000e+00 0.000000000000000e+00
0.000000000000000e+00 0.000000000000000e+00 0.000000000000000e+00
0.000000000000000e+00 0.000000000000000e+00 0.000000000000000e+00
0.000000000000000e+00 0.000000000000000e+00 0.000000000000000e+00
0.000000000000000e+00 0.000000000000000e+00 0.000000000000000e+00
0.000000000000000e+00 0.000000000000000e+00 0.000000000000000e+00
0.000000000000000e+00 0.000000000000000e+00 0.000000000000000e+00
0.000000000000000e+00 0.000000000000000e+00 0.000000000000000e+00
0.000000000000000e+00 0.000000000000000e+00 0.000000000000000e+00
0.000000000000000e+00 0.000000000000000e+00 0.000000000000000e+00
0.000000000000000e+00 0.000000000000000e+00 0.000000000000000e+00
0.000000000000000e+00 0.000000000000000e+00 0.000000000000000e+00
0.000000000000000e+00 0.000000000000000e+00 0.000000000000000e+00
0.000000000000000e+00 0.000000000000000e+00 0.000000000000000e+00
0.000000000000000e+00 0.000000000000000e+00 0.000000000000000e+00
0.000000000000000e+00 0.000000000000000e+00 0.000000000000000e+00
0.000000000000000e+00 0.000000000000000e+00 0.000000000000000e+00
0.000000000000000e+00 0.000000000000000e+00 0.000000000000000e+00
0.000000000000000e+00 0.000000000000000e+00 0.000000000000000e+00
0.000000000000000e+00 0.000000000000000e+00 0.000000000000000e+00
0.000000000000000e+00 0.000000000000000e+00 0.000000000000000e+00
0.000000000000000e+00 0.000000000000000e+00 0.000000000000000e+00
0.000000000000000e+00 0.000000000000000e+00 0.000000000000000e+00
0.000000000000000e+00 0.000000000000000e+00 0.000000000000000e+00
0.000000000000000e+00 0.000000000000000e+00 0.000000000000000e+00
0.000000000000000e+00 0.000000000000000e+00 0.000000000000000e+00
0.000000000000000e+00 0.000000000000000e+00 0.000000000000000e+00
0.000000000000000e+00 0.000000000000000e+00 0.000000000000000e+00
0.000000000000000e+00 0.000000000000000e+00 0.000000000000000e+00
0.000000000000000e+00 0.000000000000000e+00 0.000000000000000e+00
0.000000000000000e+00 0.000000000000000e+00 0.000000000000000e+00
0.000000000000000e+00 0.000000000000000e+00 0.000000000000000e+00
0.000000000000000e+00 0.000000000000000e+00 0.000000000000000e+00
0.000000000000000e+00 0.000000000000000e+00 0.000000000000000e+00
0.000000000000000e+00 0.000000000000000e+00 0.000000000000000e+00
0.000000000000000e+00 0.000000000000000e+00 0.000000000000000e+00
0.000000000000000e+00 0.000000000000000e+00 0.000000000000000e+00
0.000000000000000e+00 0.000000000000000e+00 0.000000000000000e+00
0.000000000000000e+00 0.000000000000000e+00 0.000000000000000e+00
0.000000000000000e+00 0.000000000000000e+00 0.000000000000000e+00
0.000000000000000e+00 0.000000000000000e+00 0.000000000000000e+00
0.000000000000000e+00 0.000000000000000e+00 0.000000000000000e+00
0.000000000000000e+00 0.000000000000000e+00 0.000000000000000e+00
0.000000000000000e+00 0.000000000000000e+00 0.000000000000000e+00
0.000000000000000e+00 0.000000000000000e+00 0.000000000000000e+00
0.000000000000000e+00 0.000000000000000e+00 0.000000000000000e+00
0.000000000000000e+00 0.000000000000000e+00 0.000000000000000e+00
0.000000000000000e+00 0.000000000000000e+00 0.000000000000000e+00
0.000000000000000e+00 0.000000000000000e+00 0.000000000000000e+00
0.000000000000000e+00 0.000000000000000e+00 0.000000000000000e+00
0.000000000000000e+00 0.000000000000000e+00 0.000000000000000e+00
0.000000000000000e+00 0.000000000000000e+00 0.000000000000000e+00
0.000000000000000e+00 0.000000000000000e+00 0.000000000000000e+00
0.000000000000000e+00 0.000000000000000e+00 0.000000000000000e+00
0.000000000000000e+00 0.000000000000000e+00 0.000000000000000e+00
0.000000000000000e+00 0.000000000000000e+00 0.000000000000000e+00
0.000000000000000e+00 0.000000000000000e+00 0.000000000000000e+00
0.000000000000000e+00 0.000000000000000e+00 0.000000000000000e+00
0.000000000000000e+00 0.000000000000000e+00 0.000000000000000e+00
0.000000000000000e+00 0.000000000000000e+00 0.000000000000000e+00
0.000000000000000e+00 0.000000000000000e+00 0.000000000000000e+00
0.000000000000000e+00 0.000000000000000e+00 0.000000000000000e+00
0.000000000000000e+00 0.000000000000000e+00 0.000000000000000e+00
0.000000000000000e+00 0.000000000000000e+00 0.000000000000000e+00
0.000000000000000e+00 0.000000000000000e+00 0.000000000000000e+00
0.000000000000000e+00 0.000000000000000e+00 0.000000000000000e+00
0.000000000000000e+00 0.000000000000000e+00 0.000000000000000e+00
0.000000000000000e+00 0.000000000000000e+00 0.000000000000000e+00
0.000000000000000e+00 0.000000000000000e+00 0.000000000000000e+00
0.000000000000000e+00 0.000000000000000e+00 0.000000000000000e+00
0.000000000000000e+00 0.000000000000000e+00 0.000000000000000e+00
0.000000000000000e+00 0.000000000000000e+00 0.000000000000000e+00
0.000000000000000e+00 0.000000000000000e+00 0.000000000000000e+00
0.000000000000000e+00 0.000000000000000e+00 0.000000000000000e+00
0.000000000000000e+00 0.000000000000000e+00 0.000000000000000e+00
0.000000000000000e+00 0.000000000000000e+00 0.000000000000000e+00
0.000000000000000e+00 0.000000000000000e+00 0.000000000000000e+00
0.000000000000000e+00 0.000000000000000e+00 0.000000000000000e+00
0.000000000000000e+00 0.000000000000000e+00 0.000000000000000e+00
0.000000000000000e+00 0.000000000000000e+00 0.000000000000000e+00
0.000000000000000e+00 0.000000000000000e+00 0.000000000000000e+00
0.000000000000000e+00 0.000000000000000e+00 0.000000000000000e+00
0.000000000000000e+00 0.000000000000000e+00 0.000000000000000e+00
0.000000000000000e+00 0.000000000000000e+00 0.000000000000000e+00
0.000000000000000e+00 0.000000000000000e+00 0.000000000000000e+00
0.000000000000000e+00 0.000000000000000e+00 0.000000000000000e+00
0.000000000000000e+00 0.000000000000000e+00 0.000000000000000e+00
0.000000000000000e+00 0.000000000000000e+00 0.000000000000000e+00
0.000000000000000e+00 0.000000000000000e+00 0.000000000000000e+00
0.000000000000000e+00 0.000000000000000e+00 0.000000000000000e+00
0.000000000000000e+00 0.000000000000000e+00 0.000000000000000e+00
0.000000000000000e+00 0.000000000000000e+00 0.000000000000000e+00
0.000000000000000e+00 0.000000000000000e+00 0.000000000000000e+00
0.000000000000000e+00 0.000000000000000e+00 0.000000000000000e+00
0.000000000000000e+00 0.000000000000000e+00 0.000000000000000e+00
0.000000000000000e+00 0.000000000000000e+00 0.000000000000000e+00
0.000000000000000e+00 0.000000000000000e+00 0.000000000000000e+00
0.000000000000000e+00 0.000000000000000e+00 0.000000000000000e+00
0.000000000000000e+00 0.000000000000000e+00 0.000000000000000e+00
0.000000000000000e+00 0.000000000000000e+00 0.000000000000000e+00
0.000000000000000e+00 0.000000000000000e+00 0.000000000000000e+00
0.000000000000000e+00 0.000000000000000e+00 0.000000000000000e+00
0.000000000000000e+00 0.000000000000000e+00 0.000000000000000e+00
0.000000000000000e+00 0.000000000000000e+00 0.000000000000000e+00
0.000000000000000e+00 0.000000000000000e+00 0.000000000000000e+00
0.000000000000000e+00 0.000000000000000e+00 0.000000000000000e+00
0.000000000000000e+00 0.000000000000000e+00 0.000000000000000e+00
0.000000000000000e+00 0.000000000000000e+00 0.000000000000000e+00
0.000000000000000e+00 0.000000000000000e+00 0.000000000000000e+00
0.000000000000000e+00 0.000000000000000e+00 0.000000000000000e+00
0.000000000000000e+00 0.000000000000000e+00 0.000000000000000e+00
0.000000000000000e+00 0.000000000000000e+00 0.000000000000000e+00
0.000000000000000e+00 0.000000000000000e+00 0.000000000000000e+00
0.000000000000000e+00 0.000000000000000e+00 0.000000000000000e+00
0.000000000000000e+00 0.000000000000000e+00 0.000000000000000e+00
0.000000000000000e+00 0.000000000000000e+00 0.000000000000000e+00
0.000000000000000e+00 0.000000000000000e+00 0.000000000000000e+00
0.000000000000000e+00 0.000000000000000e+00 0.000000000000000e+00
0.000000000000000e+00 0.000000000000000e+00 0.000000000000000e+00
0.000000000000000e+00 0.000000000000000e+00 0.000000000000000e+00
0.000000000000000e+00 0.000000000000000e+00 0.000000000000000e+00
0.000000000000000e+00 0.000000000000000e+00 0.000000000000000e+00
0.000000000000000e+00 0.000000000000000e+00 0.000000000000000e+00
0.000000000000000e+00 0.000000000000000e+00 0.000000000000000e+00
0.000000000000000e+00 0.000000000000000e+00 0.000000000000000e+00
0.000000000000000e+00 0.000000000000000e+00 0.000000000000000e+00
0.000000000000000e+00 0.000000000000000e+00 0.000000000000000e+00
0.000000000000000e+00 0.000000000000000e+00 0.000000000000000e+00
0.000000000000000e+00 0.000000000000000e+00 0.000000000000000e+00
0.000000000000000e+00 0.000000000000000e+00 0.000000000000000e+00
0.000000000000000e+00 0.000000000000000e+00 0.000000000000000e+00
0.000000000000000e+00 0.000000000000000e+00 0.000000000000000e+00
0.000000000000000e+00 0.000000000000000e+00 0.000000000000000e+00
0.000000000000000e+00 0.000000000000000e+00 0.000000000000000e+00
0.000000000000000e+00 0.000000000000000e+00 0.000000000000000e+00
0.000000000000000e+00 0.000000000000000e+00 0.000000000000000e+00
0.000000000000000e+00 0.000000000000000e+00 0.000000000000000e+00
0.000000000000000e+00 0.000000000000000e+00 0.000000000000000e+00
0.000000000000000e+00 0.000000000000000e+00 0.000000000000000e+00
0.000000000000000e+00 0.000000000000000e+00 0.000000000000000e+00
0.000000000000000e+00 0.000000000000000e+00 0.000000000000000e+00
0.000000000000000e+00 0.000000000000000e+00 0.000000000000000e+00
0.000000000000000e+00 0.000000000000000e+00 0.000000000000000e+00
0.000000000000000e+00 0.000000000000000e+00 0.000000000000000e+00
0.000000000000000e+00 0.000000000000000e+00 0.000000000000000e+00
0.000000000000000e+00 0.000000000000000e+00 0.000000000000000e+00
0.000000000000000e+00 0.000000000000000e+00 0.000000000000000e+00
0.000000000000000e+00 0.000000000000000e+00 0.000000000000000e+00
0.000000000000000e+00 0.000000000000000e+00 0.000000000000000e+00
0.000000000000000e+00 0.000000000000000e+00 0.000000000000000e+00
0.000000000000000e+00 0.000000000000000e+00 0.000000000000000e+00
0.000000000000000e+00 0.000000000000000e+00 0.000000000000000e+00
0.000000000000000e+00 0.000000000000000e+00 0.000000000000000e+00
0.000000000000000e+00 0.000000000000000e+00 0.000000000000000e+00
0.000000000000000e+00 0.000000000000000e+00 0.000000000000000e+00
0.000000000000000e+00 0.000000000000000e+00 0.000000000000000e+00
0.000000000000000e+00 0.000000000000000e+00 0.000000000000000e+00
0.000000000000000e+00 0.000000000000000e+00 0.000000000000000e+00
0.000000000000000e+00 0.000000000000000e+00 0.000000000000000e+00
0.000000000000000e+00 0.000000000000000e+00 0.000000000000000e+00
0.000000000000000e+00 0.000000000000000e+00 0.000000000000000e+00
0.000000000000000e+00 0.000000000000000e+00 0.000000000000000e+00
0.000000000000000e+00 0.000000000000000e+00 0.000000000000000e+00
0.000000000000000e+00 0.000000000000000e+00 0.000000000000000e+00
0.000000000000000e+00 0.000000000000000e+00 0.000000000000000e+00
0.000000000000000e+00 0.000000000000000e+00 0.000000000000000e+00
0.000000000000000e+00 0.000000000000000e+00 0.000000000000000e+00
0.000000000000000e+00 0.000000000000000e+00 0.000000000000000e+00
0.000000000000000e+00 0.000000000000000e+00 0.000000000000000e+00
0.000000000000000e+00 0.000000000000000e+00 0.000000000000000e+00
0.000000000000000e+00 0.000000000000000e+00 0.000000000000000e+00
0.000000000000000e+00 0.000000000000000e+00 0.000000000000000e+00
0.000000000000000e+00 0.000000000000000e+00 0.000000000000000e+00
0.000000000000000e+00 0.000000000000000e+00 0.000000000000000e+00
0.000000000000000e+00 0.000000000000000e+00 0.000000000000000e+00
0.000000000000000e+00 0.000000000000000e+00 0.000000000000000e+00
0.000000000000000e+00 0.000000000000000e+00 0.000000000000000e+00
0.000000000000000e+00 0.000000000000000e+00 0.000000000000000e+00
0.000000000000000e+00 0.000000000000000e+00 0.000000000000000e+00
0.000000000000000e+00 0.000000000000000e+00 0.000000000000000e+00
0.000000000000000e+00 0.000000000000000e+00 0.000000000000000e+00
0.000000000000000e+00 0.000000000000000e+00 0.000000000000000e+00
0.000000000000000e+00 0.000000000000000e+00 0.000000000000000e+00
0.000000000000000e+00 0.000000000000000e+00 0.000000000000000e+00
0.000000000000000e+00 0.000000000000000e+00 0.000000000000000e+00
0.000000000000000e+00 0.000000000000000e+00 0.000000000000000e+00
0.000000000000000e+00 0.000000000000000e+00 0.000000000000000e+00
0.000000000000000e+00 0.000000000000000e+00 0.000000000000000e+00
0.000000000000000e+00 0.000000000000000e+00 0.000000000000000e+00
0.000000000000000e+00 0.000000000000000e+00 0.000000000000000e+00
0.000000000000000e+00 0.000000000000000e+00 0.000000000000000e+00
0.000000000000000e+00 0.000000000000000e+00 0.000000000000000e+00
0.000000000000000e+00 0.000000000000000e+00 0.000000000000000e+00
0.000000000000000e+00 0.000000000000000e+00 0.000000000000000e+00
0.000000000000000e+00 0.000000000000000e+00 0.000000000000000e+00
0.000000000000000e+00 0.000000000000000e+00 0.000000000000000e+00
0.000000000000000e+00 0.000000000000000e+00 0.000000000000000e+00
0.000000000000000e+00 0.000000000000000e+00 0.000000000000000e+00
0.000000000000000e+00 0.000000000000000e+00 0.000000000000000e+00
0.000000000000000e+00 0.000000000000000e+00 0.000000000000000e+00
0.000000000000000e+00 0.000000000000000e+00 0.000000000000000e+00
0.000000000000000e+00 0.000000000000000e+00 0.000000000000000e+00
0.000000000000000e+00 0.000000000000000e+00 0.000000000000000e+00
0.000000000000000e+00 0.000000000000000e+00 0.000000000000000e+00
0.000000000000000e+00 0.000000000000000e+00 0.000000000000000e+00
0.000000000000000e+00 0.000000000000000e+00 0.000000000000000e+00
0.000000000000000e+00 0.000000000000000e+00 0.000000000000000e+00
0.000000000000000e+00 0.000000000000000e+00 0.000000000000000e+00
0.000000000000000e+00 0.000000000000000e+00 0.000000000000000e+00
0.000000000000000e+00 0.000000000000000e+00 0.000000000000000e+00
0.000000000000000e+00 0.000000000000000e+00 0.000000000000000e+00
0.000000000000000e+00 0.000000000000000e+00 0.000000000000000e+00
0.000000000000000e+00 0.000000000000000e+00 0.000000000000000e+00
0.000000000000000e+00 0.000000000000000e+00 0.000000000000000e+00
0.000000000000000e+00 0.000000000000000e+00 0.000000000000000e+00
0.000000000000000e+00 0.000000000000000e+00 0.000000000000000e+00
0.000000000000000e+00 0.000000000000000e+00 0.000000000000000e+00
0.000000000000000e+00 0.000000000000000e+00 0.000000000000000e+00
0.000000000000000e+00 0.000000000000000e+00 0.000000000000000e+00
0.000000000000000e+00 0.000000000000000e+00 0.000000000000000e+00
0.000000000000000e+00 0.000000000000000e+00 0.000000000000000e+00
0.000000000000000e+00 0.000000000000000e+00 0.000000000000000e+00
0.000000000000000e+00 0.000000000000000e+00 0.000000000000000e+00
0.000000000000000e+00 0.000000000000000e+00 0.000000000000000e+00
0.000000000000000e+00 0.000000000000000e+00 0.000000000000000e+00
0.000000000000000e+00 0.000000000000000e+00 0.000000000000000e+00
0.000000000000000e+00 0.000000000000000e+00 0.000000000000000e+00
0.000000000000000e+00 0.000000000000000e+00 0.000000000000000e+00
0.000000000000000e+00 0.000000000000000e+00 0.000000000000000e+00
0.000000000000000e+00 0.000000000000000e+00 0.000000000000000e+00
0.000000000000000e+00 0.000000000000000e+00 0.000000000000000e+00
0.000000000000000e+00 0.000000000000000e+00 0.000000000000000e+00
0.000000000000000e+00 0.000000000000000e+00 0.000000000000000e+00
0.000000000000000e+00 0.000000000000000e+00 0.000000000000000e+00
0.000000000000000e+00 0.000000000000000e+00 0.000000000000000e+00
0.000000000000000e+00 0.000000000000000e+00 0.000000000000000e+00
0.000000000000000e+00 0.000000000000000e+00 0.000000000000000e+00
0.000000000000000e+00 0.000000000000000e+00 0.000000000000000e+00
0.000000000000000e+00 0.000000000000000e+00 0.000000000000000e+00
0.000000000000000e+00 0.000000000000000e+00 0.000000000000000e+00
0.000000000000000e+00 0.000000000000000e+00 0.000000000000000e+00
0.000000000000000e+00 0.000000000000000e+00 0.000000000000000e+00
0.000000000000000e+00 0.000000000000000e+00 0.000000000000000e+00
0.000000000000000e+00 0.000000000000000e+00 0.000000000000000e+00
0.000000000000000e+00 0.000000000000000e+00 0.000000000000000e+00
0.000000000000000e+00 0.000000000000000e+00 0.000000000000000e+00
0.000000000000000e+00 0.000000000000000e+00 0.000000000000000e+00
0.000000000000000e+00 0.000000000000000e+00 0.000000000000000e+00
0.000000000000000e+00 0.000000000000000e+00 0.000000000000000e+00
0.000000000000000e+00 0.000000000000000e+00 0.000000000000000e+00
0.000000000000000e+00 0.000000000000000e+00 0.000000000000000e+00
0.000000000000000e+00 0.000000000000000e+00 0.000000000000000e+00
0.000000000000000e+00 0.000000000000000e+00 0.000000000000000e+00
0.000000000000000e+00 0.000000000000000e+00 0.000000000000000e+00
0.000000000000000e+00 0.000000000000000e+00 0.000000000000000e+00
0.000000000000000e+00 0.000000000000000e+00 0.000000000000000e+00
0.000000000000000e+00 0.000000000000000e+00 0.000000000000000e+00
0.000000000000000e+00 0.000000000000000e+00 0.000000000000000e+00
0.000000000000000e+00 0.000000000000000e+00 0.000000000000000e+00
0.000000000000000e+00 0.000000000000000e+00 0.000000000000000e+00
0.000000000000000e+00 0.000000000000000e+00 0.000000000000000e+00
0.000000000000000e+00 0.000000000000000e+00 0.000000000000000e+00
0.000000000000000e+00 0.000000000000000e+00 0.000000000000000e+00
0.000000000000000e+00 0.000000000000000e+00 0.000000000000000e+00
0.000000000000000e+00 0.000000000000000e+00 0.000000000000000e+00
0.000000000000000e+00 0.000000000000000e+00 0.000000000000000e+00
0.000000000000000e+00 0.000000000000000e+00 0.000000000000000e+00
0.000000000000000e+00 0.000000000000000e+00 0.000000000000000e+00
0.000000000000000e+00 0.000000000000000e+00 0.000000000000000e+00
0.000000000000000e+00 0.000000000000000e+00 0.000000000000000e+00
0.000000000000000e+00 0.000000000000000e+00 0.000000000000000e+00
0.000000000000000e+00 0.000000000000000e+00 0.000000000000000e+00
0.000000000000000e+00 0.000000000000000e+00 0.000000000000000e+00
0.000000000000000e+00 0.000000000000000e+00 0.000000000000000e+00
0.000000000000000e+00 0.000000000000000e+00 0.000000000000000e+00
0.000000000000000e+00 0.000000000000000e+00 0.000000000000000e+00
0.000000000000000e+00 0.000000000000000e+00 0.000000000000000e+00
0.000000000000000e+00 0.000000000000000e+00 0.000000000000000e+00
0.000000000000000e+00 0.000000000000000e+00 0.000000000000000e+00
0.000000000000000e+00 0.000000000000000e+00 0.000000000000000e+00
0.000000000000000e+00 0.000000000000000e+00 0.000000000000000e+00
0.000000000000000e+00 0.000000000000000e+00 0.000000000000000e+00
0.000000000000000e+00 0.000000000000000e+00 0.000000000000000e+00
0.000000000000000e+00 0.000000000000000e+00 0.000000000000000e+00
0.000000000000000e+00 0.000000000000000e+00 0.000000000000000e+00
0.000000000000000e+00 0.000000000000000e+00 0.000000000000000e+00
0.000000000000000e+00 0.000000000000000e+00 0.000000000000000e+00
0.000000000000000e+00 0.000000000000000e+00 0.000000000000000e+00
0.000000000000000e+00 0.000000000000000e+00 0.000000000000000e+00
0.000000000000000e+00 0.000000000000000e+00 0.000000000000000e+00
0.000000000000000e+00 0.000000000000000e+00 0.000000000000000e+00
0.000000000000000e+00 0.000000000000000e+00 0.000000000000000e+00
0.000000000000000e+00 0.000000000000000e+00 0.000000000000000e+00
0.000000000000000e+00 0.000000000000000e+00 0.000000000000000e+00
0.000000000000000e+00 0.000000000000000e+00 0.000000000000000e+00
0.000000000000000e+00 0.000000000000000e+00 0.000000000000000e+00
0.000000000000000e+00 0.000000000000000e+00 0.000000000000000e+00
0.000000000000000e+00 0.000000000000000e+00 0.000000000000000e+00
0.000000000000000e+00 0.000000000000000e+00 0.000000000000000e+00
0.000000000000000e+00 0.000000000000000e+00 0.000000000000000e+00
0.000000000000000e+00 0.000000000000000e+00 0.000000000000000e+00
0.000000000000000e+00 0.000000000000000e+00 0.000000000000000e+00
0.000000000000000e+00 0.000000000000000e+00 0.000000000000000e+00
0.000000000000000e+00 0.000000000000000e+00 0.000000000000000e+00
0.000000000000000e+00 0.000000000000000e+00 0.000000000000000e+00
0.000000000000000e+00 0.000000000000000e+00 0.000000000000000e+00
0.000000000000000e+00 0.000000000000000e+00 0.000000000000000e+00
0.000000000000000e+00 0.000000000000000e+00 0.000000000000000e+00
0.000000000000000e+00 0.000000000000000e+00 0.000000000000000e+00
0.000000000000000e+00 0.000000000000000e+00 0.000000000000000e+00
0.000000000000000e+00 0.000000000000000e+00 0.000000000000000e+00
0.000000000000000e+00 0.000000000000000e+00 0.000000000000000e+00
0.000000000000000e+00 0.000000000000000e+00 0.000000000000000e+00
0.000000000000000e+00 0.000000000000000e+00 0.000000000000000e+00
0.000000000000000e+00 0.000000000000000e+00 0.000000000000000e+00
0.000000000000000e+00 0.000000000000000e+00 0.000000000000000e+00
0.000000000000000e+00 0.000000000000000e+00 0.000000000000000e+00
0.000000000000000e+00 0.000000000000000e+00 0.000000000000000e+00
0.000000000000000e+00 0.000000000000000e+00 0.000000000000000e+00
0.000000000000000e+00 0.000000000000000e+00 0.000000000000000e+00
0.000000000000000e+00 0.000000000000000e+00 0.000000000000000e+00
0.000000000000000e+00 0.000000000000000e+00 0.000000000000000e+00
0.000000000000000e+00 0.000000000000000e+00 0.000000000000000e+00
0.000000000000000e+00 0.000000000000000e+00 0.000000000000000e+00
0.000000000000000e+00 0.000000000000000e+00 0.000000000000000e+00
0.000000000000000e+00 0.000000000000000e+00 0.000000000000000e+00
0.000000000000000e+00 0.000000000000000e+00 0.000000000000000e+00
0.000000000000000e+00 0.000000000000000e+00 0.000000000000000e+00
0.000000000000000e+00 0.000000000000000e+00 0.000000000000000e+00
0.000000000000000e+00 0.000000000000000e+00 0.000000000000000e+00
0.000000000000000e+00 0.000000000000000e+00 0.000000000000000e+00
0.000000000000000e+00 0.000000000000000e+00 0.000000000000000e+00
0.000000000000000e+00 0.000000000000000e+00 0.000000000000000e+00
0.000000000000000e+00 0.000000000000000e+00 0.000000000000000e+00
0.000000000000000e+00 0.000000000000000e+00 0.000000000000000e+00
0.000000000000000e+00 0.000000000000000e+00 0.000000000000000e+00
0.000000000000000e+00 0.000000000000000e+00 0.000000000000000e+00
0.000000000000000e+00 0.000000000000000e+00 0.000000000000000e+00
0.000000000000000e+00 0.000000000000000e+00 0.000000000000000e+00
0.000000000000000e+00 0.000000000000000e+00 0.000000000000000e+00
0.000000000000000e+00 0.000000000000000e+00 0.000000000000000e+00
0.000000000000000e+00 0.000000000000000e+00 0.000000000000000e+00
0.000000000000000e+00 0.000000000000000e+00 0.000000000000000e+00
0.000000000000000e+00 0.000000000000000e+00 0.000000000000000e+00
0.000000000000000e+00 0.000000000000000e+00 0.000000000000000e+00
0.000000000000000e+00 0.000000000000000e+00 0.000000000000000e+00
0.000000000000000e+00 0.000000000000000e+00 0.000000000000000e+00
0.000000000000000e+00 0.000000000000000e+00 0.000000000000000e+00
0.000000000000000e+00 0.000000000000000e+00 0.000000000000000e+00
0.000000000000000e+00 0.000000000000000e+00 0.000000000000000e+00
0.000000000000000e+00 0.000000000000000e+00 0.000000000000000e+00
0.000000000000000e+00 0.000000000000000e+00 0.000000000000000e+00
0.000000000000000e+00 0.000000000000000e+00 0.000000000000000e+00
0.000000000000000e+00 0.000000000000000e+00 0.000000000000000e+00
0.000000000000000e+00 0.000000000000000e+00 0.000000000000000e+00
0.000000000000000e+00 0.000000000000000e+00 0.000000000000000e+00
0.000000000000000e+00 0.000000000000000e+00 0.000000000000000e+00
0.000000000000000e+00 0.000000000000000e+00 0.000000000000000e+00
0.000000000000000e+00 0.000000000000000e+00 0.000000000000000e+00
0.000000000000000e+00 0.000000000000000e+00 0.000000000000000e+00
0.000000000000000e+00 0.000000000000000e+00 0.000000000000000e+00
0.000000000000000e+00 0.000000000000000e+00 0.000000000000000e+00
0.000000000000000e+00 0.000000000000000e+00 0.000000000000000e+00
0.000000000000000e+00 0.000000000000000e+00 0.000000000000000e+00
0.000000000000000e+00 0.000000000000000e+00 0.000000000000000e+00
0.000000000000000e+00 0.000000000000000e+00 0.000000000000000e+00
0.000000000000000e+00 0.000000000000000e+00 0.000000000000000e+00
0.000000000000000e+00 0.000000000000000e+00 0.000000000000000e+00
0.000000000000000e+00 0.000000000000000e+00 0.000000000000000e+00
0.000000000000000e+00 0.000000000000000e+00 0.000000000000000e+00
0.000000000000000e+00 0.000000000000000e+00 0.000000000000000e+00
0.000000000000000e+00 0.000000000000000e+00 0.000000000000000e+00
0.000000000000000e+00 0.000000000000000e+00 0.000000000000000e+00
0.000000000000000e+00 0.000000000000000e+00 0.000000000000000e+00
0.000000000000000e+00 0.000000000000000e+00 0.000000000000000e+00
0.000000000000000e+00 0.000000000000000e+00 0.000000000000000e+00
0.000000000000000e+00 0.000000000000000e+00 0.000000000000000e+00
0.000000000000000e+00 0.000000000000000e+00 0.000000000000000e+00
0.000000000000000e+00 0.000000000000000e+00 0.000000000000000e+00
0.000000000000000e+00 0.000000000000000e+00 0.000000000000000e+00
0.000000000000000e+00 0.000000000000000e+00 0.000000000000000e+00
0.000000000000000e+00 0.000000000000000e+00 0.000000000000000e+00
0.000000000000000e+00 0.000000000000000e+00 0.000000000000000e+00
0.000000000000000e+00 0.000000000000000e+00 0.000000000000000e+00
0.000000000000000e+00 0.000000000000000e+00 0.000000000000000e+00
0.000000000000000e+00 0.000000000000000e+00 0.000000000000000e+00
0.000000000000000e+00 0.000000000000000e+00 0.000000000000000e+00
0.000000000000000e+00 0.000000000000000e+00 0.000000000000000e+00
0.000000000000000e+00 0.000000000000000e+00 0.000000000000000e+00
0.000000000000000e+00 0.000000000000000e+00 0.000000000000000e+00
0.000000000000000e+00 0.000000000000000e+00 0.000000000000000e+00
0.000000000000000e+00 0.000000000000000e+00 0.000000000000000e+00
0.000000000000000e+00 0.000000000000000e+00 0.000000000000000e+00
0.000000000000000e+00 0.000000000000000e+00 0.000000000000000e+00
0.000000000000000e+00 0.000000000000000e+00 0.000000000000000e+00
0.000000000000000e+00 0.000000000000000e+00 0.000000000000000e+00
0.000000000000000e+00 0.000000000000000e+00 0.000000000000000e+00
0.000000000000000e+00 0.000000000000000e+00 0.000000000000000e+00
0.000000000000000e+00 0.000000000000000e+00 0.000000000000000e+00
0.000000000000000e+00 0.000000000000000e+00 0.000000000000000e+00
0.000000000000000e+00 0.000000000000000e+00 0.000000000000000e+00
0.000000000000000e+00 0.000000000000000e+00 0.000000000000000e+00
0.000000000000000e+00 0.000000000000000e+00 0.000000000000000e+00
0.000000000000000e+00 0.000000000000000e+00 0.000000000000000e+00
0.000000000000000e+00 0.000000000000000e+00 0.000000000000000e+00
0.000000000000000e+00 0.000000000000000e+00 0.000000000000000e+00
0.000000000000000e+00 0.000000000000000e+00 0.000000000000000e+00
0.000000000000000e+00 0.000000000000000e+00 0.000000000000000e+00
0.000000000000000e+00 0.000000000000000e+00 0.000000000000000e+00
0.000000000000000e+00 0.000000000000000e+00 0.000000000000000e+00
0.000000000000000e+00 0.000000000000000e+00 0.000000000000000e+00
0.000000000000000e+00 0.000000000000000e+00 0.000000000000000e+00
0.000000000000000e+00 0.000000000000000e+00 0.000000000000000e+00
0.000000000000000e+00 0.000000000000000e+00 0.000000000000000e+00
0.000000000000000e+00 0.000000000000000e+00 0.000000000000000e+00
0.000000000000000e+00 0.000000000000000e+00 0.000000000000000e+00
0.000000000000000e+00 0.000000000000000e+00 0.000000000000000e+00
0.000000000000000e+00 0.000000000000000e+00 0.000000000000000e+00
0.000000000000000e+00 0.000000000000000e+00 0.000000000000000e+00
0.000000000000000e+00 0.000000000000000e+00 0.000000000000000e+00
0.000000000000000e+00 0.000000000000000e+00 0.000000000000000e+00
0.000000000000000e+00 0.000000000000000e+00 0.000000000000000e+00
0.000000000000000e+00 0.000000000000000e+00 0.000000000000000e+00
0.000000000000000e+00 0.000000000000000e+00 0.000000000000000e+00
0.000000000000000e+00 0.000000000000000e+00 0.000000000000000e+00
0.000000000000000e+00 0.000000000000000e+00 0.000000000000000e+00
0.000000000000000e+00 0.000000000000000e+00 0.000000000000000e+00
0.000000000000000e+00 0.000000000000000e+00 0.000000000000000e+00
0.000000000000000e+00 0.000000000000000e+00 0.000000000000000e+00
0.000000000000000e+00 0.000000000000000e+00 0.000000000000000e+00
0.000000000000000e+00 0.000000000000000e+00 0.000000000000000e+00
0.000000000000000e+00 0.000000000000000e+00 0.000000000000000e+00
0.000000000000000e+00 0.000000000000000e+00 0.000000000000000e+00
0.000000000000000e+00 0.000000000000000e+00 0.000000000000000e+00
0.000000000000000e+00 0.000000000000000e+00 0.000000000000000e+00
0.000000000000000e+00 0.000000000000000e+00 0.000000000000000e+00
0.000000000000000e+00 0.000000000000000e+00 0.000000000000000e+00
0.000000000000000e+00 0.000000000000000e+00 0.000000000000000e+00
0.000000000000000e+00 0.000000000000000e+00 0.000000000000000e+00
0.000000000000000e+00 0.000000000000000e+00 0.000000000000000e+00
0.000000000000000e+00 0.000000000000000e+00 0.000000000000000e+00
0.000000000000000e+00 0.000000000000000e+00 0.000000000000000e+00
0.000000000000000e+00 0.000000000000000e+00 0.000000000000000e+00
0.000000000000000e+00 0.000000000000000e+00 0.000000000000000e+00
0.000000000000000e+00 0.000000000000000e+00 0.000000000000000e+00
0.000000000000000e+00 0.000000000000000e+00 0.000000000000000e+00
0.000000000000000e+00 0.000000000000000e+00 0.000000000000000e+00
0.000000000000000e+00 0.000000000000000e+00 0.000000000000000e+00
0.000000000000000e+00 0.000000000000000e+00 0.000000000000000e+00
0.000000000000000e+00 0.000000000000000e+00 0.000000000000000e+00
0.000000000000000e+00 0.000000000000000e+00 0.000000000000000e+00
0.000000000000000e+00 0.000000000000000e+00 0.000000000000000e+00
0.000000000000000e+00 0.000000000000000e+00 0.000000000000000e+00
0.000000000000000e+00 0.000000000000000e+00 0.000000000000000e+00
0.000000000000000e+00 0.000000000000000e+00 0.000000000000000e+00
0.000000000000000e+00 0.000000000000000e+00 0.000000000000000e+00
0.000000000000000e+00 0.000000000000000e+00 0.000000000000000e+00
0.000000000000000e+00 0.000000000000000e+00 0.000000000000000e+00
0.000000000000000e+00 0.000000000000000e+00 0.000000000000000e+00
0.000000000000000e+00 0.000000000000000e+00 0.000000000000000e+00
0.000000000000000e+00 0.000000000000000e+00 0.000000000000000e+00
0.000000000000000e+00 0.000000000000000e+00 0.000000000000000e+00
0.000000000000000e+00 0.000000000000000e+00 0.000000000000000e+00
0.000000000000000e+00 0.000000000000000e+00 0.000000000000000e+00
0.000000000000000e+00 0.000000000000000e+00 0.000000000000000e+00
0.000000000000000e+00 0.000000000000000e+00 0.000000000000000e+00
0.000000000000000e+00 0.000000000000000e+00 0.000000000000000e+00
0.000000000000000e+00 0.000000000000000e+00 0.000000000000000e+00
0.000000000000000e+00 0.000000000000000e+00 0.000000000000000e+00
0.000000000000000e+00 0.000000000000000e+00 0.000000000000000e+00
0.000000000000000e+00 0.000000000000000e+00 0.000000000000000e+00
0.000000000000000e+00 0.000000000000000e+00 0.000000000000000e+00
0.000000000000000e+00 0.000000000000000e+00 0.000000000000000e+00
0.000000000000000e+00 0.000000000000000e+00 0.000000000000000e+00
0.000000000000000e+00 0.000000000000000e+00 0.000000000000000e+00
0.000000000000000e+00 0.000000000000000e+00 0.000000000000000e+00
0.000000000000000e+00 0.000000000000000e+00 0.000000000000000e+00
0.000000000000000e+00 0.000000000000000e+00 0.000000000000000e+00
0.000000000000000e+00 0.000000000000000e+00 0.000000000000000e+00
0.000000000000000e+00 0.000000000000000e+00 0.000000000000000e+00
0.000000000000000e+00 0.000000000000000e+00 0.000000000000000e+00
0.000000000000000e+00 0.000000000000000e+00 0.000000000000000e+00
0.000000000000000e+00 0.000000000000000e+00 0.000000000000000e+00
0.000000000000000e+00 0.000000000000000e+00 0.000000000000000e+00
0.000000000000000e+00 0.000000000000000e+00 0.000000000000000e+00
0.000000000000000e+00 0.000000000000000e+00 0.000000000000000e+00
0.000000000000000e+00 0.000000000000000e+00 0.000000000000000e+00
0.000000000000000e+00 0.000000000000000e+00 0.000000000000000e+00
0.000000000000000e+00 0.000000000000000e+00 0.000000000000000e+00
0.000000000000000e+00 0.000000000000000e+00 0.000000000000000e+00
0.000000000000000e+00 0.000000000000000e+00 0.000000000000000e+00
0.000000000000000e+00 0.000000000000000e+00 0.000000000000000e+00
0.000000000000000e+00 0.000000000000000e+00 0.000000000000000e+00
0.000000000000000e+00 0.000000000000000e+00 0.000000000000000e+00
0.000000000000000e+00 0.000000000000000e+00 0.000000000000000e+00
0.000000000000000e+00 0.000000000000000e+00 0.000000000000000e+00
0.000000000000000e+00 0.000000000000000e+00 0.000000000000000e+00
0.000000000000000e+00 0.000000000000000e+00 0.000000000000000e+00
0.000000000000000e+00 0.000000000000000e+00 0.000000000000000e+00
0.000000000000000e+00 0.000000000000000e+00 0.000000000000000e+00
0.000000000000000e+00 0.000000000000000e+00 0.000000000000000e+00
0.000000000000000e+00 0.000000000000000e+00 0.000000000000000e+00
0.000000000000000e+00 0.000000000000000e+00 0.000000000000000e+00
0.000000000000000e+00 0.000000000000000e+00 0.000000000000000e+00
0.000000000000000e+00 0.000000000000000e+00 0.000000000000000e+00
0.000000000000000e+00 0.000000000000000e+00 0.000000000000000e+00
0.000000000000000e+00 0.000000000000000e+00 0.000000000000000e+00
0.000000000000000e+00 0.000000000000000e+00 0.000000000000000e+00
0.000000000000000e+00 0.000000000000000e+00 0.000000000000000e+00
0.000000000000000e+00 0.000000000000000e+00 0.000000000000000e+00
0.000000000000000e+00 0.000000000000000e+00 0.000000000000000e+00
0.000000000000000e+00 0.000000000000000e+00 0.000000000000000e+00
0.000000000000000e+00 0.000000000000000e+00 0.000000000000000e+00
0.000000000000000e+00 0.000000000000000e+00 0.000000000000000e+00
0.000000000000000e+00 0.000000000000000e+00 0.000000000000000e+00
0.000000000000000e+00 0.000000000000000e+00 0.000000000000000e+00
0.000000000000000e+00 0.000000000000000e+00 0.000000000000000e+00
0.000000000000000e+00 0.000000000000000e+00 0.000000000000000e+00
0.000000000000000e+00 0.000000000000000e+00 0.000000000000000e+00
0.000000000000000e+00 0.000000000000000e+00 0.000000000000000e+00
0.000000000000000e+00 0.000000000000000e+00 0.000000000000000e+00
0.000000000000000e+00 0.000000000000000e+00 0.000000000000000e+00
0.000000000000000e+00 0.000000000000000e+00 0.000000000000000e+00
0.000000000000000e+00 0.000000000000000e+00 0.000000000000000e+00
0.000000000000000e+00 0.000000000000000e+00 0.000000000000000e+00
0.000000000000000e+00 0.000000000000000e+00 0.000000000000000e+00
0.000000000000000e+00 0.000000000000000e+00 0.000000000000000e+00
0.000000000000000e+00 0.000000000000000e+00 0.000000000000000e+00
0.000000000000000e+00 0.000000000000000e+00 0.000000000000000e+00
0.000000000000000e+00 0.000000000000000e+00 0.000000000000000e+00
0.000000000000000e+00 0.000000000000000e+00 0.000000000000000e+00
0.000000000000000e+00 0.000000000000000e+00 0.000000000000000e+00
0.000000000000000e+00 0.000000000000000e+00 0.000000000000000e+00
0.000000000000000e+00 0.000000000000000e+00 0.000000000000000e+00
0.000000000000000e+00 0.000000000000000e+00 0.000000000000000e+00
0.000000000000000e+00 0.000000000000000e+00 0.000000000000000e+00
0.000000000000000e+00 0.000000000000000e+00 0.000000000000000e+00
0.000000000000000e+00 0.000000000000000e+00 0.000000000000000e+00
0.000000000000000e+00 0.000000000000000e+00 0.000000000000000e+00
0.000000000000000e+00 0.000000000000000e+00 0.000000000000000e+00
0.000000000000000e+00 0.000000000000000e+00 0.000000000000000e+00
0.000000000000000e+00 0.000000000000000e+00 0.000000000000000e+00
0.000000000000000e+00 0.000000000000000e+00 0.000000000000000e+00
0.000000000000000e+00 0.000000000000000e+00 0.000000000000000e+00
0.000000000000000e+00 0.000000000000000e+00 0.000000000000000e+00
0.000000000000000e+00 0.000000000000000e+00 0.000000000000000e+00
0.000000000000000e+00 0.000000000000000e+00 0.000000000000000e+00
0.000000000000000e+00 0.000000000000000e+00 0.000000000000000e+00
0.000000000000000e+00 0.000000000000000e+00 0.000000000000000e+00
0.000000000000000e+00 0.000000000000000e+00 0.000000000000000e+00
0.000000000000000e+00 0.000000000000000e+00 0.000000000000000e+00
0.000000000000000e+00 0.000000000000000e+00 0.000000000000000e+00
0.000000000000000e+00 0.000000000000000e+00 0.000000000000000e+00
0.000000000000000e+00 0.000000000000000e+00 0.000000000000000e+00
0.000000000000000e+00 0.000000000000000e+00 0.000000000000000e+00
0.000000000000000e+00 0.000000000000000e+00 0.000000000000000e+00
0.000000000000000e+00 0.000000000000000e+00 0.000000000000000e+00
0.000000000000000e+00 0.000000000000000e+00 0.000000000000000e+00
0.000000000000000e+00 0.000000000000000e+00 0.000000000000000e+00
0.000000000000000e+00 0.000000000000000e+00 0.000000000000000e+00
0.000000000000000e+00 0.000000000000000e+00 0.000000000000000e+00
0.000000000000000e+00 0.000000000000000e+00 0.000000000000000e+00
0.000000000000000e+00 0.000000000000000e+00 0.000000000000000e+00
0.000000000000000e+00 0.000000000000000e+00 0.000000000000000e+00
0.000000000000000e+00 0.000000000000000e+00 0.000000000000000e+00
0.000000000000000e+00 0.000000000000000e+00 0.000000000000000e+00
0.000000000000000e+00 0.000000000000000e+00 0.000000000000000e+00
0.000000000000000e+00 0.000000000000000e+00 0.000000000000000e+00
0.000000000000000e+00 0.000000000000000e+00 0.000000000000000e+00
0.000000000000000e+00 0.000000000000000e+00 0.000000000000000e+00
0.000000000000000e+00 0.000000000000000e+00 0.000000000000000e+00
0.000000000000000e+00 0.000000000000000e+00 0.000000000000000e+00
0.000000000000000e+00 0.000000000000000e+00 0.000000000000000e+00
0.000000000000000e+00 0.000000000000000e+00 0.000000000000000e+00
0.000000000000000e+00 0.000000000000000e+00 0.000000000000000e+00
0.000000000000000e+00 0.000000000000000e+00 0.000000000000000e+00
0.000000000000000e+00 0.000000000000000e+00 0.000000000000000e+00
0.000000000000000e+00 0.000000000000000e+00 0.000000000000000e+00
0.000000000000000e+00 0.000000000000000e+00 0.000000000000000e+00
0.000000000000000e+00 0.000000000000000e+00 0.000000000000000e+00
0.000000000000000e+00 0.000000000000000e+00 0.000000000000000e+00
0.000000000000000e+00 0.000000000000000e+00 0.000000000000000e+00
0.000000000000000e+00 0.000000000000000e+00 0.000000000000000e+00
0.000000000000000e+00 0.000000000000000e+00 0.000000000000000e+00
0.000000000000000e+00 0.000000000000000e+00 0.000000000000000e+00
0.000000000000000e+00 0.000000000000000e+00 0.000000000000000e+00
0.000000000000000e+00 0.000000000000000e+00 0.000000000000000e+00
0.000000000000000e+00 0.000000000000000e+00 0.000000000000000e+00
0.000000000000000e+00 0.000000000000000e+00 0.000000000000000e+00
0.000000000000000e+00 0.000000000000000e+00 0.000000000000000e+00
0.000000000000000e+00 0.000000000000000e+00 0.000000000000000e+00
0.000000000000000e+00 0.000000000000000e+00 0.000000000000000e+00
0.000000000000000e+00 0.000000000000000e+00 0.000000000000000e+00
0.000000000000000e+00 0.000000000000000e+00 0.000000000000000e+00
0.000000000000000e+00 0.000000000000000e+00 0.000000000000000e+00
0.000000000000000e+00 0.000000000000000e+00 0.000000000000000e+00
0.000000000000000e+00 0.000000000000000e+00 0.000000000000000e+00
0.000000000000000e+00 0.000000000000000e+00 0.000000000000000e+00
0.000000000000000e+00 0.000000000000000e+00 0.000000000000000e+00
0.000000000000000e+00 0.000000000000000e+00 0.000000000000000e+00
0.000000000000000e+00 0.000000000000000e+00 0.000000000000000e+00
0.000000000000000e+00 0.000000000000000e+00 0.000000000000000e+00
0.000000000000000e+00 0.000000000000000e+00 0.000000000000000e+00
0.000000000000000e+00 0.000000000000000e+00 0.000000000000000e+00
0.000000000000000e+00 0.000000000000000e+00 0.000000000000000e+00
0.000000000000000e+00 0.000000000000000e+00 0.000000000000000e+00
0.000000000000000e+00 0.000000000000000e+00 0.000000000000000e+00
0.000000000000000e+00 0.000000000000000e+00 0.000000000000000e+00
0.000000000000000e+00 0.000000000000000e+00 0.000000000000000e+00
0.000000000000000e+00 0.000000000000000e+00 0.000000000000000e+00
0.000000000000000e+00 0.000000000000000e+00 0.000000000000000e+00
0.000000000000000e+00 0.000000000000000e+00 0.000000000000000e+00
0.000000000000000e+00 0.000000000000000e+00 0.000000000000000e+00
0.000000000000000e+00 0.000000000000000e+00 0.000000000000000e+00
0.000000000000000e+00 0.000000000000000e+00 0.000000000000000e+00
0.000000000000000e+00 0.000000000000000e+00 0.000000000000000e+00
0.000000000000000e+00 0.000000000000000e+00 0.000000000000000e+00
0.000000000000000e+00 0.000000000000000e+00 0.000000000000000e+00
0.000000000000000e+00 0.000000000000000e+00 0.000000000000000e+00
0.000000000000000e+00 0.000000000000000e+00 0.000000000000000e+00
0.000000000000000e+00 0.000000000000000e+00 0.000000000000000e+00
0.000000000000000e+00 0.000000000000000e+00 0.000000000000000e+00
0.000000000000000e+00 0.000000000000000e+00 0.000000000000000e+00
0.000000000000000e+00 0.000000000000000e+00 0.000000000000000e+00
0.000000000000000e+00 0.000000000000000e+00 0.000000000000000e+00
0.000000000000000e+00 0.000000000000000e+00 0.000000000000000e+00
0.000000000000000e+00 0.000000000000000e+00 0.000000000000000e+00
0.000000000000000e+00 0.000000000000000e+00 0.000000000000000e+00
0.000000000000000e+00 0.000000000000000e+00 0.000000000000000e+00
0.000000000000000e+00 0.000000000000000e+00 0.000000000000000e+00
0.000000000000000e+00 0.000000000000000e+00 0.000000000000000e+00
0.000000000000000e+00 0.000000000000000e+00 0.000000000000000e+00
0.000000000000000e+00 0.000000000000000e+00 0.000000000000000e+00
0.000000000000000e+00 0.000000000000000e+00 0.000000000000000e+00
0.000000000000000e+00 0.000000000000000e+00 0.000000000000000e+00
0.000000000000000e+00 0.000000000000000e+00 0.000000000000000e+00
0.000000000000000e+00 0.000000000000000e+00 0.000000000000000e+00
0.000000000000000e+00 0.000000000000000e+00 0.000000000000000e+00
0.000000000000000e+00 0.000000000000000e+00 0.000000000000000e+00
0.000000000000000e+00 0.000000000000000e+00 0.000000000000000e+00
0.000000000000000e+00 0.000000000000000e+00 0.000000000000000e+00
0.000000000000000e+00 0.000000000000000e+00 0.000000000000000e+00
0.000000000000000e+00 0.000000000000000e+00 0.000000000000000e+00
0.000000000000000e+00 0.000000000000000e+00 0.000000000000000e+00
0.000000000000000e+00 0.000000000000000e+00 0.000000000000000e+00
0.000000000000000e+00 0.000000000000000e+00 0.000000000000000e+00
0.000000000000000e+00 0.000000000000000e+00 0.000000000000000e+00
0.000000000000000e+00 0.000000000000000e+00 0.000000000000000e+00
0.000000000000000e+00 0.000000000000000e+00 0.000000000000000e+00
0.000000000000000e+00 0.000000000000000e+00 0.000000000000000e+00
0.000000000000000e+00 0.000000000000000e+00 0.000000000000000e+00
0.000000000000000e+00 0.000000000000000e+00 0.000000000000000e+00
0.000000000000000e+00 0.000000000000000e+00 0.000000000000000e+00
0.000000000000000e+00 0.000000000000000e+00 0.000000000000000e+00
0.000000000000000e+00 0.000000000000000e+00 0.000000000000000e+00
0.000000000000000e+00 0.000000000000000e+00 0.000000000000000e+00
0.000000000000000e+00 0.000000000000000e+00 0.000000000000000e+00
0.000000000000000e+00 0.000000000000000e+00 0.000000000000000e+00
0.000000000000000e+00 0.000000000000000e+00 0.000000000000000e+00
0.000000000000000e+00 0.000000000000000e+00 0.000000000000000e+00
0.000000000000000e+00 0.000000000000000e+00 0.000000000000000e+00
0.000000000000000e+00 0.000000000000000e+00 0.000000000000000e+00
0.000000000000000e+00 0.000000000000000e+00 0.000000000000000e+00
0.000000000000000e+00 0.000000000000000e+00 0.000000000000000e+00
0.000000000000000e+00 0.000000000000000e+00 0.000000000000000e+00
0.000000000000000e+00 0.000000000000000e+00 0.000000000000000e+00
0.000000000000000e+00 0.000000000000000e+00 0.000000000000000e+00
0.000000000000000e+00 0.000000000000000e+00 0.000000000000000e+00
0.000000000000000e+00 0.000000000000000e+00 0.000000000000000e+00
0.000000000000000e+00 0.000000000000000e+00 0.000000000000000e+00
0.000000000000000e+00 0.000000000000000e+00 0.000000000000000e+00
0.000000000000000e+00 0.000000000000000e+00 0.000000000000000e+00
0.000000000000000e+00 0.000000000000000e+00 0.000000000000000e+00
0.000000000000000e+00 0.000000000000000e+00 0.000000000000000e+00
0.000000000000000e+00 0.000000000000000e+00 0.000000000000000e+00
0.000000000000000e+00 0.000000000000000e+00 0.000000000000000e+00
0.000000000000000e+00 0.000000000000000e+00 0.000000000000000e+00
0.000000000000000e+00 0.000000000000000e+00 0.000000000000000e+00
0.000000000000000e+00 0.000000000000000e+00 0.000000000000000e+00
0.000000000000000e+00 0.000000000000000e+00 0.000000000000000e+00
0.000000000000000e+00 0.000000000000000e+00 0.000000000000000e+00
0.000000000000000e+00 0.000000000000000e+00 0.000000000000000e+00
0.000000000000000e+00 0.000000000000000e+00 0.000000000000000e+00
0.000000000000000e+00 0.000000000000000e+00 0.000000000000000e+00
0.000000000000000e+00 0.000000000000000e+00 0.000000000000000e+00
0.000000000000000e+00 0.000000000000000e+00 0.000000000000000e+00
0.000000000000000e+00 0.000000000000000e+00 0.000000000000000e+00
0.000000000000000e+00 0.000000000000000e+00 0.000000000000000e+00
0.000000000000000e+00 0.000000000000000e+00 0.000000000000000e+00
0.000000000000000e+00 0.000000000000000e+00 0.000000000000000e+00
0.000000000000000e+00 0.000000000000000e+00 0.000000000000000e+00
0.000000000000000e+00 0.000000000000000e+00 0.000000000000000e+00
0.000000000000000e+00 0.000000000000000e+00 0.000000000000000e+00
0.000000000000000e+00 0.000000000000000e+00 0.000000000000000e+00
0.000000000000000e+00 0.000000000000000e+00 0.000000000000000e+00
0.000000000000000e+00 0.000000000000000e+00 0.000000000000000e+00
0.000000000000000e+00 0.000000000000000e+00 0.000000000000000e+00
0.000000000000000e+00 0.000000000000000e+00 0.000000000000000e+00
0.000000000000000e+00 0.000000000000000e+00 0.000000000000000e+00
0.000000000000000e+00 0.000000000000000e+00 0.000000000000000e+00
0.000000000000000e+00 0.000000000000000e+00 0.000000000000000e+00
0.000000000000000e+00 0.000000000000000e+00 0.000000000000000e+00
0.000000000000000e+00 0.000000000000000e+00 0.000000000000000e+00
0.000000000000000e+00 0.000000000000000e+00 0.000000000000000e+00
0.000000000000000e+00 0.000000000000000e+00 0.000000000000000e+00
0.000000000000000e+00 0.000000000000000e+00 0.000000000000000e+00
0.000000000000000e+00 0.000000000000000e+00 0.000000000000000e+00
0.000000000000000e+00 0.000000000000000e+00 0.000000000000000e+00
0.000000000000000e+00 0.000000000000000e+00 0.000000000000000e+00
0.000000000000000e+00 0.000000000000000e+00 0.000000000000000e+00
0.000000000000000e+00 0.000000000000000e+00 0.000000000000000e+00
0.000000000000000e+00 0.000000000000000e+00 0.000000000000000e+00
0.000000000000000e+00 0.000000000000000e+00 0.000000000000000e+00
0.000000000000000e+00 0.000000000000000e+00 0.000000000000000e+00
0.000000000000000e+00 0.000000000000000e+00 0.000000000000000e+00
0.000000000000000e+00 0.000000000000000e+00 0.000000000000000e+00
0.000000000000000e+00 0.000000000000000e+00 0.000000000000000e+00
0.000000000000000e+00 0.000000000000000e+00 0.000000000000000e+00
0.000000000000000e+00 0.000000000000000e+00 0.000000000000000e+00
0.000000000000000e+00 0.000000000000000e+00 0.000000000000000e+00
0.000000000000000e+00 0.000000000000000e+00 0.000000000000000e+00
0.000000000000000e+00 0.000000000000000e+00 0.000000000000000e+00
0.000000000000000e+00 0.000000000000000e+00 0.000000000000000e+00
0.000000000000000e+00 0.000000000000000e+00 0.000000000000000e+00
0.000000000000000e+00 0.000000000000000e+00 0.000000000000000e+00
0.000000000000000e+00 0.000000000000000e+00 0.000000000000000e+00
0.000000000000000e+00 0.000000000000000e+00 0.000000000000000e+00
0.000000000000000e+00 0.000000000000000e+00 0.000000000000000e+00
0.000000000000000e+00 0.000000000000000e+00 0.000000000000000e+00
0.000000000000000e+00 0.000000000000000e+00 0.000000000000000e+00
0.000000000000000e+00 0.000000000000000e+00 0.000000000000000e+00
0.000000000000000e+00 0.000000000000000e+00 0.000000000000000e+00
0.000000000000000e+00 0.000000000000000e+00 0.000000000000000e+00
0.000000000000000e+00 0.000000000000000e+00 0.000000000000000e+00
0.000000000000000e+00 0.000000000000000e+00 0.000000000000000e+00
0.000000000000000e+00 0.000000000000000e+00 0.000000000000000e+00
0.000000000000000e+00 0.000000000000000e+00 0.000000000000000e+00
0.000000000000000e+00 0.000000000000000e+00 0.000000000000000e+00
0.000000000000000e+00 0.000000000000000e+00 0.000000000000000e+00
0.000000000000000e+00 0.000000000000000e+00 0.000000000000000e+00
0.000000000000000e+00 0.000000000000000e+00 0.000000000000000e+00
0.000000000000000e+00 0.000000000000000e+00 0.000000000000000e+00
0.000000000000000e+00 0.000000000000000e+00 0.000000000000000e+00
0.000000000000000e+00 0.000000000000000e+00 0.000000000000000e+00
0.000000000000000e+00 0.000000000000000e+00 0.000000000000000e+00
0.000000000000000e+00 0.000000000000000e+00 0.000000000000000e+00
0.000000000000000e+00 0.000000000000000e+00 0.000000000000000e+00
0.000000000000000e+00 0.000000000000000e+00 0.000000000000000e+00
0.000000000000000e+00 0.000000000000000e+00 0.000000000000000e+00
0.000000000000000e+00 0.000000000000000e+00 0.000000000000000e+00
0.000000000000000e+00 0.000000000000000e+00 0.000000000000000e+00
0.000000000000000e+00 0.000000000000000e+00 0.000000000000000e+00
0.000000000000000e+00 0.000000000000000e+00 0.000000000000000e+00
0.000000000000000e+00 0.000000000000000e+00 0.000000000000000e+00
0.000000000000000e+00 0.000000000000000e+00 0.000000000000000e+00
0.000000000000000e+00 0.000000000000000e+00 0.000000000000000e+00
0.000000000000000e+00 0.000000000000000e+00 0.000000000000000e+00
0.000000000000000e+00 0.000000000000000e+00 0.000000000000000e+00
0.000000000000000e+00 0.000000000000000e+00 0.000000000000000e+00
0.000000000000000e+00 0.000000000000000e+00 0.000000000000000e+00
0.000000000000000e+00 0.000000000000000e+00 0.000000000000000e+00
0.000000000000000e+00 0.000000000000000e+00 0.000000000000000e+00
0.000000000000000e+00 0.000000000000000e+00 0.000000000000000e+00
0.000000000000000e+00 0.000000000000000e+00 0.000000000000000e+00
0.000000000000000e+00 0.000000000000000e+00 0.000000000000000e+00
0.000000000000000e+00 0.000000000000000e+00 0.000000000000000e+00
0.000000000000000e+00 0.000000000000000e+00 0.000000000000000e+00
0.000000000000000e+00 0.000000000000000e+00 0.000000000000000e+00
0.000000000000000e+00 0.000000000000000e+00 0.000000000000000e+00
0.000000000000000e+00 0.000000000000000e+00 0.000000000000000e+00
0.000000000000000e+00 0.000000000000000e+00 0.000000000000000e+00
0.000000000000000e+00 0.000000000000000e+00 0.000000000000000e+00
0.000000000000000e+00 0.000000000000000e+00 0.000000000000000e+00
0.000000000000000e+00 0.000000000000000e+00 0.000000000000000e+00
0.000000000000000e+00 0.000000000000000e+00 0.000000000000000e+00
0.000000000000000e+00 0.000000000000000e+00 0.000000000000000e+00
0.000000000000000e+00 0.000000000000000e+00 0.000000000000000e+00
0.000000000000000e+00 0.000000000000000e+00 0.000000000000000e+00
0.000000000000000e+00 0.000000000000000e+00 0.000000000000000e+00
0.000000000000000e+00 0.000000000000000e+00 0.000000000000000e+00
0.000000000000000e+00 0.000000000000000e+00 0.000000000000000e+00
0.000000000000000e+00 0.000000000000000e+00 0.000000000000000e+00
0.000000000000000e+00 0.000000000000000e+00 0.000000000000000e+00
0.000000000000000e+00 0.000000000000000e+00 0.000000000000000e+00
0.000000000000000e+00 0.000000000000000e+00 0.000000000000000e+00
0.000000000000000e+00 0.000000000000000e+00 0.000000000000000e+00
0.000000000000000e+00 0.000000000000000e+00 0.000000000000000e+00
0.000000000000000e+00 0.000000000000000e+00 0.000000000000000e+00
0.000000000000000e+00 0.000000000000000e+00 0.000000000000000e+00
0.000000000000000e+00 0.000000000000000e+00 0.000000000000000e+00
0.000000000000000e+00 0.000000000000000e+00 0.000000000000000e+00
0.000000000000000e+00 0.000000000000000e+00 0.000000000000000e+00
0.000000000000000e+00 0.000000000000000e+00 0.000000000000000e+00
0.000000000000000e+00 0.000000000000000e+00 0.000000000000000e+00
0.000000000000000e+00 0.000000000000000e+00 0.000000000000000e+00
0.000000000000000e+00 0.000000000000000e+00 0.000000000000000e+00
0.000000000000000e+00 0.000000000000000e+00 0.000000000000000e+00
0.000000000000000e+00 0.000000000000000e+00 0.000000000000000e+00
0.000000000000000e+00 0.000000000000000e+00 0.000000000000000e+00
0.000000000000000e+00 0.000000000000000e+00 0.000000000000000e+00
0.000000000000000e+00 0.000000000000000e+00 0.000000000000000e+00
0.000000000000000e+00 0.000000000000000e+00 0.000000000000000e+00
0.000000000000000e+00 0.000000000000000e+00 0.000000000000000e+00
0.000000000000000e+00 0.000000000000000e+00 0.000000000000000e+00
0.000000000000000e+00 0.000000000000000e+00 0.000000000000000e+00
0.000000000000000e+00 0.000000000000000e+00 0.000000000000000e+00
0.000000000000000e+00 0.000000000000000e+00 0.000000000000000e+00
0.000000000000000e+00 0.000000000000000e+00 0.000000000000000e+00
0.000000000000000e+00 0.000000000000000e+00 0.000000000000000e+00
0.000000000000000e+00 0.000000000000000e+00 0.000000000000000e+00
0.000000000000000e+00 0.000000000000000e+00 0.000000000000000e+00
0.000000000000000e+00 0.000000000000000e+00 0.000000000000000e+00
0.000000000000000e+00 0.000000000000000e+00 0.000000000000000e+00
0.000000000000000e+00 0.000000000000000e+00 0.000000000000000e+00
0.000000000000000e+00 0.000000000000000e+00 0.000000000000000e+00
0.000000000000000e+00 0.000000000000000e+00 0.000000000000000e+00
0.000000000000000e+00 0.000000000000000e+00 0.000000000000000e+00
0.000000000000000e+00 0.000000000000000e+00 0.000000000000000e+00
0.000000000000000e+00 0.000000000000000e+00 0.000000000000000e+00
0.000000000000000e+00 0.000000000000000e+00 0.000000000000000e+00
0.000000000000000e+00 0.000000000000000e+00 0.000000000000000e+00
0.000000000000000e+00 0.000000000000000e+00 0.000000000000000e+00
0.000000000000000e+00 0.000000000000000e+00 0.000000000000000e+00
0.000000000000000e+00 0.000000000000000e+00 0.000000000000000e+00
0.000000000000000e+00 0.000000000000000e+00 0.000000000000000e+00
0.000000000000000e+00 0.000000000000000e+00 0.000000000000000e+00
0.000000000000000e+00 0.000000000000000e+00 0.000000000000000e+00
0.000000000000000e+00 0.000000000000000e+00 0.000000000000000e+00
0.000000000000000e+00 0.000000000000000e+00 0.000000000000000e+00
0.000000000000000e+00 0.000000000000000e+00 0.000000000000000e+00
0.000000000000000e+00 0.000000000000000e+00 0.000000000000000e+00
0.000000000000000e+00 0.000000000000000e+00 0.000000000000000e+00
0.000000000000000e+00 0.000000000000000e+00 0.000000000000000e+00
0.000000000000000e+00 0.000000000000000e+00 0.000000000000000e+00
0.000000000000000e+00 0.000000000000000e+00 0.000000000000000e+00
0.000000000000000e+00 0.000000000000000e+00 0.000000000000000e+00
0.000000000000000e+00 0.000000000000000e+00 0.000000000000000e+00
0.000000000000000e+00 0.000000000000000e+00 0.000000000000000e+00
0.000000000000000e+00 0.000000000000000e+00 0.000000000000000e+00
0.000000000000000e+00 0.000000000000000e+00 0.000000000000000e+00
0.000000000000000e+00 0.000000000000000e+00 0.000000000000000e+00
0.000000000000000e+00 0.000000000000000e+00 0.000000000000000e+00
0.000000000000000e+00 0.000000000000000e+00 0.000000000000000e+00
0.000000000000000e+00 0.000000000000000e+00 0.000000000000000e+00
0.000000000000000e+00 0.000000000000000e+00 0.000000000000000e+00
0.000000000000000e+00 0.000000000000000e+00 0.000000000000000e+00
0.000000000000000e+00 0.000000000000000e+00 0.000000000000000e+00
0.000000000000000e+00 0.000000000000000e+00 0.000000000000000e+00
0.000000000000000e+00 0.000000000000000e+00 0.000000000000000e+00
0.000000000000000e+00 0.000000000000000e+00 0.000000000000000e+00
0.000000000000000e+00 0.000000000000000e+00 0.000000000000000e+00
0.000000000000000e+00 0.000000000000000e+00 0.000000000000000e+00
0.000000000000000e+00 0.000000000000000e+00 0.000000000000000e+00
0.000000000000000e+00 0.000000000000000e+00 0.000000000000000e+00
0.000000000000000e+00 0.000000000000000e+00 0.000000000000000e+00
0.000000000000000e+00 0.000000000000000e+00 0.000000000000000e+00
0.000000000000000e+00 0.000000000000000e+00 0.000000000000000e+00
0.000000000000000e+00 0.000000000000000e+00 0.000000000000000e+00
0.000000000000000e+00 0.000000000000000e+00 0.000000000000000e+00
0.000000000000000e+00 0.000000000000000e+00 0.000000000000000e+00
0.000000000000000e+00 0.000000000000000e+00 0.000000000000000e+00
0.000000000000000e+00 0.000000000000000e+00 0.000000000000000e+00
0.000000000000000e+00 0.000000000000000e+00 0.000000000000000e+00
0.000000000000000e+00 0.000000000000000e+00 0.000000000000000e+00
0.000000000000000e+00 0.000000000000000e+00 0.000000000000000e+00
0.000000000000000e+00 0.000000000000000e+00 0.000000000000000e+00
0.000000000000000e+00 0.000000000000000e+00 0.000000000000000e+00
0.000000000000000e+00 0.000000000000000e+00 0.000000000000000e+00
0.000000000000000e+00 0.000000000000000e+00 0.000000000000000e+00
0.000000000000000e+00 0.000000000000000e+00 0.000000000000000e+00
0.000000000000000e+00 0.000000000000000e+00 0.000000000000000e+00
0.000000000000000e+00 0.000000000000000e+00 0.000000000000000e+00
0.000000000000000e+00 0.000000000000000e+00 0.000000000000000e+00
0.000000000000000e+00 0.000000000000000e+00 0.000000000000000e+00
0.000000000000000e+00 0.000000000000000e+00 0.000000000000000e+00
0.000000000000000e+00 0.000000000000000e+00 0.000000000000000e+00
0.000000000000000e+00 0.000000000000000e+00 0.000000000000000e+00
0.000000000000000e+00 0.000000000000000e+00 0.000000000000000e+00
0.000000000000000e+00 0.000000000000000e+00 0.000000000000000e+00
0.000000000000000e+00 0.000000000000000e+00 0.000000000000000e+00
0.000000000000000e+00 0.000000000000000e+00 0.000000000000000e+00
0.000000000000000e+00 0.000000000000000e+00 0.000000000000000e+00
0.000000000000000e+00 0.000000000000000e+00 0.000000000000000e+00
0.000000000000000e+00 0.000000000000000e+00 0.000000000000000e+00
0.000000000000000e+00 0.000000000000000e+00 0.000000000000000e+00
0.000000000000000e+00 0.000000000000000e+00 0.000000000000000e+00
0.000000000000000e+00 0.000000000000000e+00 0.000000000000000e+00
0.000000000000000e+00 0.000000000000000e+00 0.000000000000000e+00
0.000000000000000e+00 0.000000000000000e+00 0.000000000000000e+00
0.000000000000000e+00 0.000000000000000e+00 0.000000000000000e+00
0.000000000000000e+00 0.000000000000000e+00 0.000000000000000e+00
0.000000000000000e+00 0.000000000000000e+00 0.000000000000000e+00
0.000000000000000e+00 0.000000000000000e+00 0.000000000000000e+00
0.000000000000000e+00 0.000000000000000e+00 0.000000000000000e+00
0.000000000000000e+00 0.000000000000000e+00 0.000000000000000e+00
0.000000000000000e+00 0.000000000000000e+00 0.000000000000000e+00
0.000000000000000e+00 0.000000000000000e+00 0.000000000000000e+00
0.000000000000000e+00 0.000000000000000e+00 0.000000000000000e+00
0.000000000000000e+00 0.000000000000000e+00 0.000000000000000e+00
0.000000000000000e+00 0.000000000000000e+00 0.000000000000000e+00
0.000000000000000e+00 0.000000000000000e+00 0.000000000000000e+00
0.000000000000000e+00 0.000000000000000e+00 0.000000000000000e+00
0.000000000000000e+00 0.000000000000000e+00 0.000000000000000e+00
0.000000000000000e+00 0.000000000000000e+00 0.000000000000000e+00
0.000000000000000e+00 0.000000000000000e+00 0.000000000000000e+00
0.000000000000000e+00 0.000000000000000e+00 0.000000000000000e+00
0.000000000000000e+00 0.000000000000000e+00 0.000000000000000e+00
0.000000000000000e+00 0.000000000000000e+00 0.000000000000000e+00
0.000000000000000e+00 0.000000000000000e+00 0.000000000000000e+00
0.000000000000000e+00 0.000000000000000e+00 0.000000000000000e+00
0.000000000000000e+00 0.000000000000000e+00 0.000000000000000e+00
0.000000000000000e+00 0.000000000000000e+00 0.000000000000000e+00
0.000000000000000e+00 0.000000000000000e+00 0.000000000000000e+00
0.000000000000000e+00 0.000000000000000e+00 0.000000000000000e+00
0.000000000000000e+00 0.000000000000000e+00 0.000000000000000e+00
0.000000000000000e+00 0.000000000000000e+00 0.000000000000000e+00
0.000000000000000e+00 0.000000000000000e+00 0.000000000000000e+00
0.000000000000000e+00 0.000000000000000e+00 0.000000000000000e+00
0.000000000000000e+00 0.000000000000000e+00 0.000000000000000e+00
0.000000000000000e+00 0.000000000000000e+00 0.000000000000000e+00
0.000000000000000e+00 0.000000000000000e+00 0.000000000000000e+00
0.000000000000000e+00 0.000000000000000e+00 0.000000000000000e+00
0.000000000000000e+00 0.000000000000000e+00 0.000000000000000e+00
0.000000000000000e+00 0.000000000000000e+00 0.000000000000000e+00
0.000000000000000e+00 0.000000000000000e+00 0.000000000000000e+00
0.000000000000000e+00 0.000000000000000e+00 0.000000000000000e+00
0.000000000000000e+00 0.000000000000000e+00 0.000000000000000e+00
0.000000000000000e+00 0.000000000000000e+00 0.000000000000000e+00
0.000000000000000e+00 0.000000000000000e+00 0.000000000000000e+00
0.000000000000000e+00 0.000000000000000e+00 0.000000000000000e+00
0.000000000000000e+00 0.000000000000000e+00 0.000000000000000e+00
0.000000000000000e+00 0.000000000000000e+00 0.000000000000000e+00
0.000000000000000e+00 0.000000000000000e+00 0.000000000000000e+00
0.000000000000000e+00 0.000000000000000e+00 0.000000000000000e+00
0.000000000000000e+00 0.000000000000000e+00 0.000000000000000e+00
0.000000000000000e+00 0.000000000000000e+00 0.000000000000000e+00
0.000000000000000e+00 0.000000000000000e+00 0.000000000000000e+00
0.000000000000000e+00 0.000000000000000e+00 0.000000000000000e+00
0.000000000000000e+00 0.000000000000000e+00 0.000000000000000e+00
0.000000000000000e+00 0.000000000000000e+00 0.000000000000000e+00
0.000000000000000e+00 0.000000000000000e+00 0.000000000000000e+00
0.000000000000000e+00 0.000000000000000e+00 0.000000000000000e+00
0.000000000000000e+00 0.000000000000000e+00 0.000000000000000e+00
0.000000000000000e+00 0.000000000000000e+00 0.000000000000000e+00
0.000000000000000e+00 0.000000000000000e+00 0.000000000000000e+00
0.000000000000000e+00 0.000000000000000e+00 0.000000000000000e+00
0.000000000000000e+00 0.000000000000000e+00 0.000000000000000e+00
0.000000000000000e+00 0.000000000000000e+00 0.000000000000000e+00
0.000000000000000e+00 0.000000000000000e+00 0.000000000000000e+00
0.000000000000000e+00 0.000000000000000e+00 0.000000000000000e+00
0.000000000000000e+00 0.000000000000000e+00 0.000000000000000e+00
0.000000000000000e+00 0.000000000000000e+00 0.000000000000000e+00
0.000000000000000e+00 0.000000000000000e+00 0.000000000000000e+00
0.000000000000000e+00 0.000000000000000e+00 0.000000000000000e+00
0.000000000000000e+00 0.000000000000000e+00 0.000000000000000e+00
0.000000000000000e+00 0.000000000000000e+00 0.000000000000000e+00
0.000000000000000e+00 0.000000000000000e+00 0.000000000000000e+00
0.000000000000000e+00 0.000000000000000e+00 0.000000000000000e+00
0.000000000000000e+00 0.000000000000000e+00 0.000000000000000e+00
0.000000000000000e+00 0.000000000000000e+00 0.000000000000000e+00
0.000000000000000e+00 0.000000000000000e+00 0.000000000000000e+00
0.000000000000000e+00 0.000000000000000e+00 0.000000000000000e+00
0.000000000000000e+00 0.000000000000000e+00 0.000000000000000e+00
0.000000000000000e+00 0.000000000000000e+00 0.000000000000000e+00
0.000000000000000e+00 0.000000000000000e+00 0.000000000000000e+00
0.000000000000000e+00 0.000000000000000e+00 0.000000000000000e+00
0.000000000000000e+00 0.000000000000000e+00 0.000000000000000e+00
0.000000000000000e+00 0.000000000000000e+00 0.000000000000000e+00
0.000000000000000e+00 0.000000000000000e+00 0.000000000000000e+00
0.000000000000000e+00 0.000000000000000e+00 0.000000000000000e+00
0.000000000000000e+00 0.000000000000000e+00 0.000000000000000e+00
0.000000000000000e+00 0.000000000000000e+00 0.000000000000000e+00
0.000000000000000e+00 0.000000000000000e+00 0.000000000000000e+00
0.000000000000000e+00 0.000000000000000e+00 0.000000000000000e+00
0.000000000000000e+00 0.000000000000000e+00 0.000000000000000e+00
0.000000000000000e+00 0.000000000000000e+00 0.000000000000000e+00
0.000000000000000e+00 0.000000000000000e+00 0.000000000000000e+00
0.000000000000000e+00 0.000000000000000e+00 0.000000000000000e+00
0.000000000000000e+00 0.000000000000000e+00 0.000000000000000e+00
0.000000000000000e+00 0.000000000000000e+00 0.000000000000000e+00
0.000000000000000e+00 0.000000000000000e+00 0.000000000000000e+00
0.000000000000000e+00 0.000000000000000e+00 0.000000000000000e+00
0.000000000000000e+00 0.000000000000000e+00 0.000000000000000e+00
0.000000000000000e+00 0.000000000000000e+00 0.000000000000000e+00
0.000000000000000e+00 0.000000000000000e+00 0.000000000000000e+00
0.000000000000000e+00 0.000000000000000e+00 0.000000000000000e+00
0.000000000000000e+00 0.000000000000000e+00 0.000000000000000e+00
0.000000000000000e+00 0.000000000000000e+00 0.000000000000000e+00
0.000000000000000e+00 0.000000000000000e+00 0.000000000000000e+00
0.000000000000000e+00 0.000000000000000e+00 0.000000000000000e+00
0.000000000000000e+00 0.000000000000000e+00 0.000000000000000e+00
0.000000000000000e+00 0.000000000000000e+00 0.000000000000000e+00
0.000000000000000e+00 0.000000000000000e+00 0.000000000000000e+00
0.000000000000000e+00 0.000000000000000e+00 0.000000000000000e+00
0.000000000000000e+00 0.000000000000000e+00 0.000000000000000e+00
0.000000000000000e+00 0.000000000000000e+00 0.000000000000000e+00
0.000000000000000e+00 0.000000000000000e+00 0.000000000000000e+00
0.000000000000000e+00 0.000000000000000e+00 0.000000000000000e+00
0.000000000000000e+00 0.000000000000000e+00 0.000000000000000e+00
0.000000000000000e+00 0.000000000000000e+00 0.000000000000000e+00
0.000000000000000e+00 0.000000000000000e+00 0.000000000000000e+00
0.000000000000000e+00 0.000000000000000e+00 0.000000000000000e+00
0.000000000000000e+00 0.000000000000000e+00 0.000000000000000e+00
0.000000000000000e+00 0.000000000000000e+00 0.000000000000000e+00
0.000000000000000e+00 0.000000000000000e+00 0.000000000000000e+00
0.000000000000000e+00 0.000000000000000e+00 0.000000000000000e+00
0.000000000000000e+00 0.000000000000000e+00 0.000000000000000e+00
0.000000000000000e+00 0.000000000000000e+00 0.000000000000000e+00
0.000000000000000e+00 0.000000000000000e+00 0.000000000000000e+00
0.000000000000000e+00 0.000000000000000e+00 0.000000000000000e+00
0.000000000000000e+00 0.000000000000000e+00 0.000000000000000e+00
0.000000000000000e+00 0.000000000000000e+00 0.000000000000000e+00
0.000000000000000e+00 0.000000000000000e+00 0.000000000000000e+00
0.000000000000000e+00 0.000000000000000e+00 0.000000000000000e+00
0.000000000000000e+00 0.000000000000000e+00 0.000000000000000e+00
0.000000000000000e+00 0.000000000000000e+00 0.000000000000000e+00
0.000000000000000e+00 0.000000000000000e+00 0.000000000000000e+00
0.000000000000000e+00 0.000000000000000e+00 0.000000000000000e+00
0.000000000000000e+00 0.000000000000000e+00 0.000000000000000e+00
0.000000000000000e+00 0.000000000000000e+00 0.000000000000000e+00
0.000000000000000e+00 0.000000000000000e+00 0.000000000000000e+00
0.000000000000000e+00 0.000000000000000e+00 0.000000000000000e+00
0.000000000000000e+00 0.000000000000000e+00 0.000000000000000e+00
0.000000000000000e+00 0.000000000000000e+00 0.000000000000000e+00
0.000000000000000e+00 0.000000000000000e+00 0.000000000000000e+00
0.000000000000000e+00 0.000000000000000e+00 0.000000000000000e+00
0.000000000000000e+00 0.000000000000000e+00 0.000000000000000e+00
0.000000000000000e+00 0.000000000000000e+00 0.000000000000000e+00
0.000000000000000e+00 0.000000000000000e+00 0.000000000000000e+00
0.000000000000000e+00 0.000000000000000e+00 0.000000000000000e+00
0.000000000000000e+00 0.000000000000000e+00 0.000000000000000e+00
0.000000000000000e+00 0.000000000000000e+00 0.000000000000000e+00
0.000000000000000e+00 0.000000000000000e+00 0.000000000000000e+00
0.000000000000000e+00 0.000000000000000e+00 0.000000000000000e+00
0.000000000000000e+00 0.000000000000000e+00 0.000000000000000e+00
0.000000000000000e+00 0.000000000000000e+00 0.000000000000000e+00
0.000000000000000e+00 0.000000000000000e+00 0.000000000000000e+00
0.000000000000000e+00 0.000000000000000e+00 0.000000000000000e+00
0.000000000000000e+00 0.000000000000000e+00 0.000000000000000e+00
0.000000000000000e+00 0.000000000000000e+00 0.000000000000000e+00
0.000000000000000e+00 0.000000000000000e+00 0.000000000000000e+00
0.000000000000000e+00 0.000000000000000e+00 0.000000000000000e+00
0.000000000000000e+00 0.000000000000000e+00 0.000000000000000e+00
0.000000000000000e+00 0.000000000000000e+00 0.000000000000000e+00
0.000000000000000e+00 0.000000000000000e+00 0.000000000000000e+00
0.000000000000000e+00 0.000000000000000e+00 0.000000000000000e+00
0.000000000000000e+00 0.000000000000000e+00 0.000000000000000e+00
0.000000000000000e+00 0.000000000000000e+00 0.000000000000000e+00
0.000000000000000e+00 0.000000000000000e+00 0.000000000000000e+00
0.000000000000000e+00 0.000000000000000e+00 0.000000000000000e+00
0.000000000000000e+00 0.000000000000000e+00 0.000000000000000e+00
0.000000000000000e+00 0.000000000000000e+00 0.000000000000000e+00
0.000000000000000e+00 0.000000000000000e+00 0.000000000000000e+00
0.000000000000000e+00 0.000000000000000e+00 0.000000000000000e+00
0.000000000000000e+00 0.000000000000000e+00 0.000000000000000e+00
0.000000000000000e+00 0.000000000000000e+00 0.000000000000000e+00
0.000000000000000e+00 0.000000000000000e+00 0.000000000000000e+00
0.000000000000000e+00 0.000000000000000e+00 0.000000000000000e+00
0.000000000000000e+00 0.000000000000000e+00 0.000000000000000e+00
0.000000000000000e+00 0.000000000000000e+00 0.000000000000000e+00
0.000000000000000e+00 0.000000000000000e+00 0.000000000000000e+00
0.000000000000000e+00 0.000000000000000e+00 0.000000000000000e+00
0.000000000000000e+00 0.000000000000000e+00 0.000000000000000e+00
0.000000000000000e+00 0.000000000000000e+00 0.000000000000000e+00
0.000000000000000e+00 0.000000000000000e+00 0.000000000000000e+00
0.000000000000000e+00 0.000000000000000e+00 0.000000000000000e+00
0.000000000000000e+00 0.000000000000000e+00 0.000000000000000e+00
0.000000000000000e+00 0.000000000000000e+00 0.000000000000000e+00
0.000000000000000e+00 0.000000000000000e+00 0.000000000000000e+00
0.000000000000000e+00 0.000000000000000e+00 0.000000000000000e+00
0.000000000000000e+00 0.000000000000000e+00 0.000000000000000e+00
0.000000000000000e+00 0.000000000000000e+00 0.000000000000000e+00
0.000000000000000e+00 0.000000000000000e+00 0.000000000000000e+00
0.000000000000000e+00 0.000000000000000e+00 0.000000000000000e+00
0.000000000000000e+00 0.000000000000000e+00 0.000000000000000e+00
0.000000000000000e+00 0.000000000000000e+00 0.000000000000000e+00
0.000000000000000e+00 0.000000000000000e+00 0.000000000000000e+00
0.000000000000000e+00 0.000000000000000e+00 0.000000000000000e+00
0.000000000000000e+00 0.000000000000000e+00 0.000000000000000e+00
0.000000000000000e+00 0.000000000000000e+00 0.000000000000000e+00
0.000000000000000e+00 0.000000000000000e+00 0.000000000000000e+00
0.000000000000000e+00 0.000000000000000e+00 0.000000000000000e+00
0.000000000000000e+00 0.000000000000000e+00 0.000000000000000e+00
0.000000000000000e+00 0.000000000000000e+00 0.000000000000000e+00
0.000000000000000e+00 0.000000000000000e+00 0.000000000000000e+00
0.000000000000000e+00 0.000000000000000e+00 0.000000000000000e+00
0.000000000000000e+00 0.000000000000000e+00 0.000000000000000e+00
0.000000000000000e+00 0.000000000000000e+00 0.000000000000000e+00
0.000000000000000e+00 0.000000000000000e+00 0.000000000000000e+00
0.000000000000000e+00 0.000000000000000e+00 0.000000000000000e+00
0.000000000000000e+00 0.000000000000000e+00 0.000000000000000e+00
0.000000000000000e+00 0.000000000000000e+00 0.000000000000000e+00
0.000000000000000e+00 0.000000000000000e+00 0.000000000000000e+00
0.000000000000000e+00 0.000000000000000e+00 0.000000000000000e+00
0.000000000000000e+00 0.000000000000000e+00 0.000000000000000e+00
0.000000000000000e+00 0.000000000000000e+00 0.000000000000000e+00
0.000000000000000e+00 0.000000000000000e+00 0.000000000000000e+00
0.000000000000000e+00 0.000000000000000e+00 0.000000000000000e+00
0.000000000000000e+00 0.000000000000000e+00 0.000000000000000e+00
0.000000000000000e+00 0.000000000000000e+00 0.000000000000000e+00
0.000000000000000e+00 0.000000000000000e+00 0.000000000000000e+00
0.000000000000000e+00 0.000000000000000e+00 0.000000000000000e+00
0.000000000000000e+00 0.000000000000000e+00 0.000000000000000e+00
0.000000000000000e+00 0.000000000000000e+00 0.000000000000000e+00
0.000000000000000e+00 0.000000000000000e+00 0.000000000000000e+00
0.000000000000000e+00 0.000000000000000e+00 0.000000000000000e+00
0.000000000000000e+00 0.000000000000000e+00 0.000000000000000e+00
0.000000000000000e+00 0.000000000000000e+00 0.000000000000000e+00
0.000000000000000e+00 0.000000000000000e+00 0.000000000000000e+00
0.000000000000000e+00 0.000000000000000e+00 0.000000000000000e+00
0.000000000000000e+00 0.000000000000000e+00 0.000000000000000e+00
0.000000000000000e+00 0.000000000000000e+00 0.000000000000000e+00
0.000000000000000e+00 0.000000000000000e+00 0.000000000000000e+00
0.000000000000000e+00 0.000000000000000e+00 0.000000000000000e+00
0.000000000000000e+00 0.000000000000000e+00 0.000000000000000e+00
0.000000000000000e+00 0.000000000000000e+00 0.000000000000000e+00
0.000000000000000e+00 0.000000000000000e+00 0.000000000000000e+00
0.000000000000000e+00 0.000000000000000e+00 0.000000000000000e+00
0.000000000000000e+00 0.000000000000000e+00 0.000000000000000e+00
0.000000000000000e+00 0.000000000000000e+00 0.000000000000000e+00
0.000000000000000e+00 0.000000000000000e+00 0.000000000000000e+00
0.000000000000000e+00 0.000000000000000e+00 0.000000000000000e+00
0.000000000000000e+00 0.000000000000000e+00 0.000000000000000e+00
0.000000000000000e+00 0.000000000000000e+00 0.000000000000000e+00
0.000000000000000e+00 0.000000000000000e+00 0.000000000000000e+00
0.000000000000000e+00 0.000000000000000e+00 0.000000000000000e+00
0.000000000000000e+00 0.000000000000000e+00 0.000000000000000e+00
0.000000000000000e+00 0.000000000000000e+00 0.000000000000000e+00
0.000000000000000e+00 0.000000000000000e+00 0.000000000000000e+00
0.000000000000000e+00 0.000000000000000e+00 0.000000000000000e+00
0.000000000000000e+00 0.000000000000000e+00 0.000000000000000e+00
0.000000000000000e+00 0.000000000000000e+00 0.000000000000000e+00
0.000000000000000e+00 0.000000000000000e+00 0.000000000000000e+00
0.000000000000000e+00 0.000000000000000e+00 0.000000000000000e+00
0.000000000000000e+00 0.000000000000000e+00 0.000000000000000e+00
0.000000000000000e+00 0.000000000000000e+00 0.000000000000000e+00
0.000000000000000e+00 0.000000000000000e+00 0.000000000000000e+00
0.000000000000000e+00 0.000000000000000e+00 0.000000000000000e+00
0.000000000000000e+00 0.000000000000000e+00 0.000000000000000e+00
0.000000000000000e+00 0.000000000000000e+00 0.000000000000000e+00
0.000000000000000e+00 0.000000000000000e+00 0.000000000000000e+00
0.000000000000000e+00 0.000000000000000e+00 0.000000000000000e+00
0.000000000000000e+00 0.000000000000000e+00 0.000000000000000e+00
0.000000000000000e+00 0.000000000000000e+00 0.000000000000000e+00
0.000000000000000e+00 0.000000000000000e+00 0.000000000000000e+00
0.000000000000000e+00 0.000000000000000e+00 0.000000000000000e+00
0.000000000000000e+00 0.000000000000000e+00 0.000000000000000e+00
0.000000000000000e+00 0.000000000000000e+00 0.000000000000000e+00
0.000000000000000e+00 0.000000000000000e+00 0.000000000000000e+00
0.000000000000000e+00 0.000000000000000e+00 0.000000000000000e+00
0.000000000000000e+00 0.000000000000000e+00 0.000000000000000e+00
0.000000000000000e+00 0.000000000000000e+00 0.000000000000000e+00
0.000000000000000e+00 0.000000000000000e+00 0.000000000000000e+00
0.000000000000000e+00 0.000000000000000e+00 0.000000000000000e+00
0.000000000000000e+00 0.000000000000000e+00 0.000000000000000e+00
0.000000000000000e+00 0.000000000000000e+00 0.000000000000000e+00
0.000000000000000e+00 0.000000000000000e+00 0.000000000000000e+00
0.000000000000000e+00 0.000000000000000e+00 0.000000000000000e+00
0.000000000000000e+00 0.000000000000000e+00 0.000000000000000e+00
0.000000000000000e+00 0.000000000000000e+00 0.000000000000000e+00
0.000000000000000e+00 0.000000000000000e+00 0.000000000000000e+00
0.000000000000000e+00 0.000000000000000e+00 0.000000000000000e+00
0.000000000000000e+00 0.000000000000000e+00 0.000000000000000e+00
0.000000000000000e+00 0.000000000000000e+00 0.000000000000000e+00
0.000000000000000e+00 0.000000000000000e+00 0.000000000000000e+00
0.000000000000000e+00 0.000000000000000e+00 0.000000000000000e+00
0.000000000000000e+00 0.000000000000000e+00 0.000000000000000e+00
0.000000000000000e+00 0.000000000000000e+00 0.000000000000000e+00
0.000000000000000e+00 0.000000000000000e+00 0.000000000000000e+00
0.000000000000000e+00 0.000000000000000e+00 0.000000000000000e+00
0.000000000000000e+00 0.000000000000000e+00 0.000000000000000e+00
0.000000000000000e+00 0.000000000000000e+00 0.000000000000000e+00
0.000000000000000e+00 0.000000000000000e+00 0.000000000000000e+00
0.000000000000000e+00 0.000000000000000e+00 0.000000000000000e+00
0.000000000000000e+00 0.000000000000000e+00 0.000000000000000e+00
0.000000000000000e+00 0.000000000000000e+00 0.000000000000000e+00
0.000000000000000e+00 0.000000000000000e+00 0.000000000000000e+00
0.000000000000000e+00 0.000000000000000e+00 0.000000000000000e+00
0.000000000000000e+00 0.000000000000000e+00 0.000000000000000e+00
0.000000000000000e+00 0.000000000000000e+00 0.000000000000000e+00
0.000000000000000e+00 0.000000000000000e+00 0.000000000000000e+00
0.000000000000000e+00 0.000000000000000e+00 0.000000000000000e+00
0.000000000000000e+00 0.000000000000000e+00 0.000000000000000e+00
0.000000000000000e+00 0.000000000000000e+00 0.000000000000000e+00
0.000000000000000e+00 0.000000000000000e+00 0.000000000000000e+00
0.000000000000000e+00 0.000000000000000e+00 0.000000000000000e+00
0.000000000000000e+00 0.000000000000000e+00 0.000000000000000e+00
0.000000000000000e+00 0.000000000000000e+00 0.000000000000000e+00
0.000000000000000e+00 0.000000000000000e+00 0.000000000000000e+00
0.000000000000000e+00 0.000000000000000e+00 0.000000000000000e+00
0.000000000000000e+00 0.000000000000000e+00 0.000000000000000e+00
0.000000000000000e+00 0.000000000000000e+00 0.000000000000000e+00
0.000000000000000e+00 0.000000000000000e+00 0.000000000000000e+00
0.000000000000000e+00 0.000000000000000e+00 0.000000000000000e+00
0.000000000000000e+00 0.000000000000000e+00 0.000000000000000e+00
0.000000000000000e+00 0.000000000000000e+00 0.000000000000000e+00
0.000000000000000e+00 0.000000000000000e+00 0.000000000000000e+00
0.000000000000000e+00 0.000000000000000e+00 0.000000000000000e+00
0.000000000000000e+00 0.000000000000000e+00 0.000000000000000e+00
0.000000000000000e+00 0.000000000000000e+00 0.000000000000000e+00
0.000000000000000e+00 0.000000000000000e+00 0.000000000000000e+00
0.000000000000000e+00 0.000000000000000e+00 0.000000000000000e+00
0.000000000000000e+00 0.000000000000000e+00 0.000000000000000e+00
0.000000000000000e+00 0.000000000000000e+00 0.000000000000000e+00
0.000000000000000e+00 0.000000000000000e+00 0.000000000000000e+00
0.000000000000000e+00 0.000000000000000e+00 0.000000000000000e+00
0.000000000000000e+00 0.000000000000000e+00 0.000000000000000e+00
0.000000000000000e+00 0.000000000000000e+00 0.000000000000000e+00
0.000000000000000e+00 0.000000000000000e+00 0.000000000000000e+00
0.000000000000000e+00 0.000000000000000e+00 0.000000000000000e+00
0.000000000000000e+00 0.000000000000000e+00 0.000000000000000e+00
0.000000000000000e+00 0.000000000000000e+00 0.000000000000000e+00
0.000000000000000e+00 0.000000000000000e+00 0.000000000000000e+00
0.000000000000000e+00 0.000000000000000e+00 0.000000000000000e+00
0.000000000000000e+00 0.000000000000000e+00 0.000000000000000e+00
0.000000000000000e+00 0.000000000000000e+00 0.000000000000000e+00
0.000000000000000e+00 0.000000000000000e+00 0.000000000000000e+00
0.000000000000000e+00 0.000000000000000e+00 0.000000000000000e+00
0.000000000000000e+00 0.000000000000000e+00 0.000000000000000e+00
0.000000000000000e+00 0.000000000000000e+00 0.000000000000000e+00
0.000000000000000e+00 0.000000000000000e+00 0.000000000000000e+00
0.000000000000000e+00 0.000000000000000e+00 0.000000000000000e+00
0.000000000000000e+00 0.000000000000000e+00 0.000000000000000e+00
0.000000000000000e+00 0.000000000000000e+00 0.000000000000000e+00
0.000000000000000e+00 0.000000000000000e+00 0.000000000000000e+00
0.000000000000000e+00 0.000000000000000e+00 0.000000000000000e+00
0.000000000000000e+00 0.000000000000000e+00 0.000000000000000e+00
0.000000000000000e+00 0.000000000000000e+00 0.000000000000000e+00
0.000000000000000e+00 0.000000000000000e+00 0.000000000000000e+00
0.000000000000000e+00 0.000000000000000e+00 0.000000000000000e+00
0.000000000000000e+00 0.000000000000000e+00 0.000000000000000e+00
0.000000000000000e+00 0.000000000000000e+00 0.000000000000000e+00
0.000000000000000e+00 0.000000000000000e+00 0.000000000000000e+00
0.000000000000000e+00 0.000000000000000e+00 0.000000000000000e+00
0.000000000000000e+00 0.000000000000000e+00 0.000000000000000e+00
0.000000000000000e+00 0.000000000000000e+00 0.000000000000000e+00
0.000000000000000e+00 0.000000000000000e+00 0.000000000000000e+00
0.000000000000000e+00 0.000000000000000e+00 0.000000000000000e+00
0.000000000000000e+00 0.000000000000000e+00 0.000000000000000e+00
0.000000000000000e+00 0.000000000000000e+00 0.000000000000000e+00
0.000000000000000e+00 0.000000000000000e+00 0.000000000000000e+00
0.000000000000000e+00 0.000000000000000e+00 0.000000000000000e+00
0.000000000000000e+00 0.000000000000000e+00 0.000000000000000e+00
0.000000000000000e+00 0.000000000000000e+00 0.000000000000000e+00
0.000000000000000e+00 0.000000000000000e+00 0.000000000000000e+00
0.000000000000000e+00 0.000000000000000e+00 0.000000000000000e+00
0.000000000000000e+00 0.000000000000000e+00 0.000000000000000e+00
0.000000000000000e+00 0.000000000000000e+00 0.000000000000000e+00
0.000000000000000e+00 0.000000000000000e+00 0.000000000000000e+00
0.000000000000000e+00 0.000000000000000e+00 0.000000000000000e+00
0.000000000000000e+00 0.000000000000000e+00 0.000000000000000e+00
0.000000000000000e+00 0.000000000000000e+00 0.000000000000000e+00
0.000000000000000e+00 0.000000000000000e+00 0.000000000000000e+00
0.000000000000000e+00 0.000000000000000e+00 0.000000000000000e+00
0.000000000000000e+00 0.000000000000000e+00 0.000000000000000e+00
0.000000000000000e+00 0.000000000000000e+00 0.000000000000000e+00
0.000000000000000e+00 0.000000000000000e+00 0.000000000000000e+00
0.000000000000000e+00 0.000000000000000e+00 0.000000000000000e+00
0.000000000000000e+00 0.000000000000000e+00 0.000000000000000e+00
0.000000000000000e+00 0.000000000000000e+00 0.000000000000000e+00
0.000000000000000e+00 0.000000000000000e+00 0.000000000000000e+00
0.000000000000000e+00 0.000000000000000e+00 0.000000000000000e+00
0.000000000000000e+00 0.000000000000000e+00 0.000000000000000e+00
0.000000000000000e+00 0.000000000000000e+00 0.000000000000000e+00
0.000000000000000e+00 0.000000000000000e+00 0.000000000000000e+00
0.000000000000000e+00 0.000000000000000e+00 0.000000000000000e+00
0.000000000000000e+00 0.000000000000000e+00 0.000000000000000e+00
0.000000000000000e+00 0.000000000000000e+00 0.000000000000000e+00
0.000000000000000e+00 0.000000000000000e+00 0.000000000000000e+00
0.000000000000000e+00 0.000000000000000e+00 0.000000000000000e+00
0.000000000000000e+00 0.000000000000000e+00 0.000000000000000e+00
0.000000000000000e+00 0.000000000000000e+00 0.000000000000000e+00
0.000000000000000e+00 0.000000000000000e+00 0.000000000000000e+00
0.000000000000000e+00 0.000000000000000e+00 0.000000000000000e+00
0.000000000000000e+00 0.000000000000000e+00 0.000000000000000e+00
0.000000000000000e+00 0.000000000000000e+00 0.000000000000000e+00
0.000000000000000e+00 0.000000000000000e+00 0.000000000000000e+00
0.000000000000000e+00 0.000000000000000e+00 0.000000000000000e+00
0.000000000000000e+00 0.000000000000000e+00 0.000000000000000e+00
0.000000000000000e+00 0.000000000000000e+00 0.000000000000000e+00
0.000000000000000e+00 0.000000000000000e+00 0.000000000000000e+00
0.000000000000000e+00 0.000000000000000e+00 0.000000000000000e+00
0.000000000000000e+00 0.000000000000000e+00 0.000000000000000e+00
0.000000000000000e+00 0.000000000000000e+00 0.000000000000000e+00
0.000000000000000e+00 0.000000000000000e+00 0.000000000000000e+00
0.000000000000000e+00 0.000000000000000e+00 0.000000000000000e+00
0.000000000000000e+00 0.000000000000000e+00 0.000000000000000e+00
0.000000000000000e+00 0.000000000000000e+00 0.000000000000000e+00
0.000000000000000e+00 0.000000000000000e+00 0.000000000000000e+00
0.000000000000000e+00 0.000000000000000e+00 0.000000000000000e+00
0.000000000000000e+00 0.000000000000000e+00 0.000000000000000e+00
0.000000000000000e+00 0.000000000000000e+00 0.000000000000000e+00
0.000000000000000e+00 0.000000000000000e+00 0.000000000000000e+00
0.000000000000000e+00 0.000000000000000e+00 0.000000000000000e+00
0.000000000000000e+00 0.000000000000000e+00 0.000000000000000e+00
0.000000000000000e+00 0.000000000000000e+00 0.000000000000000e+00
0.000000000000000e+00 0.000000000000000e+00 0.000000000000000e+00
0.000000000000000e+00 0.000000000000000e+00 0.000000000000000e+00
0.000000000000000e+00 0.000000000000000e+00 0.000000000000000e+00
0.000000000000000e+00 0.000000000000000e+00 0.000000000000000e+00
0.000000000000000e+00 0.000000000000000e+00 0.000000000000000e+00
0.000000000000000e+00 0.000000000000000e+00 0.000000000000000e+00
0.000000000000000e+00 0.000000000000000e+00 0.000000000000000e+00
0.000000000000000e+00 0.000000000000000e+00 0.000000000000000e+00
0.000000000000000e+00 0.000000000000000e+00 0.000000000000000e+00
0.000000000000000e+00 0.000000000000000e+00 0.000000000000000e+00
0.000000000000000e+00 0.000000000000000e+00 0.000000000000000e+00
0.000000000000000e+00 0.000000000000000e+00 0.000000000000000e+00
0.000000000000000e+00 0.000000000000000e+00 0.000000000000000e+00
0.000000000000000e+00 0.000000000000000e+00 0.000000000000000e+00
0.000000000000000e+00 0.000000000000000e+00 0.000000000000000e+00
0.000000000000000e+00 0.000000000000000e+00 0.000000000000000e+00
0.000000000000000e+00 0.000000000000000e+00 0.000000000000000e+00
0.000000000000000e+00 0.000000000000000e+00 0.000000000000000e+00
0.000000000000000e+00 0.000000000000000e+00 0.000000000000000e+00
0.000000000000000e+00 0.000000000000000e+00 0.000000000000000e+00
0.000000000000000e+00 0.000000000000000e+00 0.000000000000000e+00
0.000000000000000e+00 0.000000000000000e+00 0.000000000000000e+00
0.000000000000000e+00 0.000000000000000e+00 0.000000000000000e+00
0.000000000000000e+00 0.000000000000000e+00 0.000000000000000e+00
0.000000000000000e+00 0.000000000000000e+00 0.000000000000000e+00
0.000000000000000e+00 0.000000000000000e+00 0.000000000000000e+00
0.000000000000000e+00 0.000000000000000e+00 0.000000000000000e+00
0.000000000000000e+00 0.000000000000000e+00 0.000000000000000e+00
0.000000000000000e+00 0.000000000000000e+00 0.000000000000000e+00
0.000000000000000e+00 0.000000000000000e+00 0.000000000000000e+00
0.000000000000000e+00 0.000000000000000e+00 0.000000000000000e+00
0.000000000000000e+00 0.000000000000000e+00 0.000000000000000e+00
0.000000000000000e+00 0.000000000000000e+00 0.000000000000000e+00
0.000000000000000e+00 0.000000000000000e+00 0.000000000000000e+00
0.000000000000000e+00 0.000000000000000e+00 0.000000000000000e+00
0.000000000000000e+00 0.000000000000000e+00 0.000000000000000e+00
0.000000000000000e+00 0.000000000000000e+00 0.000000000000000e+00
0.000000000000000e+00 0.000000000000000e+00 0.000000000000000e+00
0.000000000000000e+00 0.000000000000000e+00 0.000000000000000e+00
0.000000000000000e+00 0.000000000000000e+00 0.000000000000000e+00
0.000000000000000e+00 0.000000000000000e+00 0.000000000000000e+00
0.000000000000000e+00 0.000000000000000e+00 0.000000000000000e+00
0.000000000000000e+00 0.000000000000000e+00 0.000000000000000e+00
0.000000000000000e+00 0.000000000000000e+00 0.000000000000000e+00
0.000000000000000e+00 0.000000000000000e+00 0.000000000000000e+00
0.000000000000000e+00 0.000000000000000e+00 0.000000000000000e+00
0.000000000000000e+00 0.000000000000000e+00 0.000000000000000e+00
0.000000000000000e+00 0.000000000000000e+00 0.000000000000000e+00
0.000000000000000e+00 0.000000000000000e+00 0.000000000000000e+00
0.000000000000000e+00 0.000000000000000e+00 0.000000000000000e+00
0.000000000000000e+00 0.000000000000000e+00 0.000000000000000e+00
0.000000000000000e+00 0.000000000000000e+00 0.000000000000000e+00
0.000000000000000e+00 0.000000000000000e+00 0.000000000000000e+00
0.000000000000000e+00 0.000000000000000e+00 0.000000000000000e+00
0.000000000000000e+00 0.000000000000000e+00 0.000000000000000e+00
0.000000000000000e+00 0.000000000000000e+00 0.000000000000000e+00
0.000000000000000e+00 0.000000000000000e+00 0.000000000000000e+00
0.000000000000000e+00 0.000000000000000e+00 0.000000000000000e+00
0.000000000000000e+00 0.000000000000000e+00 0.000000000000000e+00
0.000000000000000e+00 0.000000000000000e+00 0.000000000000000e+00
0.000000000000000e+00 0.000000000000000e+00 0.000000000000000e+00
0.000000000000000e+00 0.000000000000000e+00 0.000000000000000e+00
0.000000000000000e+00 0.000000000000000e+00 0.000000000000000e+00
0.000000000000000e+00 0.000000000000000e+00 0.000000000000000e+00
0.000000000000000e+00 0.000000000000000e+00 0.000000000000000e+00
0.000000000000000e+00 0.000000000000000e+00 0.000000000000000e+00
0.000000000000000e+00 0.000000000000000e+00 0.000000000000000e+00
0.000000000000000e+00 0.000000000000000e+00 0.000000000000000e+00
0.000000000000000e+00 0.000000000000000e+00 0.000000000000000e+00
0.000000000000000e+00 0.000000000000000e+00 0.000000000000000e+00
0.000000000000000e+00 0.000000000000000e+00 0.000000000000000e+00
0.000000000000000e+00 0.000000000000000e+00 0.000000000000000e+00
0.000000000000000e+00 0.000000000000000e+00 0.000000000000000e+00
0.000000000000000e+00 0.000000000000000e+00 0.000000000000000e+00
0.000000000000000e+00 0.000000000000000e+00 0.000000000000000e+00
0.000000000000000e+00 0.000000000000000e+00 0.000000000000000e+00
0.000000000000000e+00 0.000000000000000e+00 0.000000000000000e+00
0.000000000000000e+00 0.000000000000000e+00 0.000000000000000e+00
0.000000000000000e+00 0.000000000000000e+00 0.000000000000000e+00
0.000000000000000e+00 0.000000000000000e+00 0.000000000000000e+00
0.000000000000000e+00 0.000000000000000e+00 0.000000000000000e+00
0.000000000000000e+00 0.000000000000000e+00 0.000000000000000e+00
0.000000000000000e+00 0.000000000000000e+00 0.000000000000000e+00
0.000000000000000e+00 0.000000000000000e+00 0.000000000000000e+00
0.000000000000000e+00 0.000000000000000e+00 0.000000000000000e+00
0.000000000000000e+00 0.000000000000000e+00 0.000000000000000e+00
0.000000000000000e+00 0.000000000000000e+00 0.000000000000000e+00
0.000000000000000e+00 0.000000000000000e+00 0.000000000000000e+00
0.000000000000000e+00 0.000000000000000e+00 0.000000000000000e+00
0.000000000000000e+00 0.000000000000000e+00 0.000000000000000e+00
0.000000000000000e+00 0.000000000000000e+00 0.000000000000000e+00
0.000000000000000e+00 0.000000000000000e+00 0.000000000000000e+00
0.000000000000000e+00 0.000000000000000e+00 0.000000000000000e+00
0.000000000000000e+00 0.000000000000000e+00 0.000000000000000e+00
0.000000000000000e+00 0.000000000000000e+00 0.000000000000000e+00
0.000000000000000e+00 0.000000000000000e+00 0.000000000000000e+00
0.000000000000000e+00 0.000000000000000e+00 0.000000000000000e+00
0.000000000000000e+00 0.000000000000000e+00 0.000000000000000e+00
0.000000000000000e+00 0.000000000000000e+00 0.000000000000000e+00
0.000000000000000e+00 0.000000000000000e+00 0.000000000000000e+00
0.000000000000000e+00 0.000000000000000e+00 0.000000000000000e+00
0.000000000000000e+00 0.000000000000000e+00 0.000000000000000e+00
0.000000000000000e+00 0.000000000000000e+00 0.000000000000000e+00
 6.993872412760386e-03 -1.152319916813322e-04  3.101129356319605e-19
6.820196825291774e-03 8.348398462648073e-05 3.043941671226609e-19
 6.709787704526589e-03 -1.054902771152425e-03  3.074349801233977e-19
6.781487877204609e-03 2.041287732390091e-04 3.076617441190314e-19
7.002539813161048e-03 6.480720652214007e-04 3.092438216135030e-19
 7.138479983728511e-03 -2.360001443844171e-04  3.139116784295314e-19
 6.828770662437040e-03 -1.665812063629246e-04  3.061105513184898e-19
 6.977293528952890e-03 -2.308716611693412e-05  3.123534349398564e-19
 6.980963882671998e-03 -2.309931095012327e-05  3.139161396185663e-19
6.860579991115516e-03 8.267769814104829e-04 3.058945190941432e-19
6.914785692586606e-03 1.784111928892956e-04 3.087128873914839e-19
6.631665507156787e-03 3.392991016142045e-04 2.960781953675109e-19
 6.770415983873692e-03 -4.682629246446301e-04  3.040355477792737e-19
7.088919401029248e-03 6.404690962324796e-05 3.173263919745172e-19
6.897167777768875e-03 9.140957164907792e-04 3.053491851990925e-19
6.852773932359001e-03 5.348975353773786e-05 3.045738996195941e-19
6.776653988547015e-03 5.289559457758548e-05 3.055959495381393e-19
6.707724588642874e-03 2.291631364269910e-03 2.905339266690745e-19
 7.370228509871123e-03 -7.773837916437896e-04  3.159333261886635e-19
 4.610258322384478e-03 -1.478431302897979e-03  2.761639389104377e-19
2.555492881948814e-04 7.115516801165304e-03 1.123867994471145e-21
 7.557324887681144e-03 -2.721146041578598e-03  2.953470642941175e-19
5.770558453855179e-03 8.755405154913760e-04 2.681384984621210e-19
6.425752955270185e-03 7.937414085062958e-04 2.882054677483865e-19
5.232942546196789e-03 6.463994517318189e-04 2.431542858749076e-19
5.825869016335260e-03 2.641854367045974e-03 2.436790588453190e-19
 1.085501982477452e-03 -7.106142515984969e-03  1.821191263110186e-20
5.229644618446117e-03 1.515542670232309e-04 2.704116524637811e-19
 7.698595834984508e-03 -8.969599030635456e-04  3.396837857655392e-19
7.373974649458900e-03 8.983508101844158e-04 3.263250298697886e-19
7.563898106578390e-03 1.918831479417909e-04 3.296621957569148e-19
7.099115941704291e-03 3.095171108300635e-04 3.128421979577972e-19
6.915304207946215e-03 1.528452082055377e-04 3.069613823776298e-19
7.018755046074801e-03 3.621409036306021e-04 3.082938456490036e-19
 6.805303237998349e-03 -8.884948385386268e-04  3.073622233725179e-19
6.753466590224129e-03 3.978572354862227e-04 3.026773550613265e-19
6.955420193765023e-03 1.186174936676890e-04 3.066369118755931e-19
7.122855738445138e-03 1.664219643733272e-04 3.110994512394783e-19
 6.695217698623154e-03 -8.202605708023950e-04  3.079457282890388e-19
6.292413044616110e-03 1.418804091446670e-03 2.804662518267568e-19
7.851966018914377e-03 9.225144102535579e-04 3.352494612334626e-19
 7.167385588587229e-03 -1.053416693236784e-03  3.183477280335099e-19
5.828611171022641e-03 4.679011577995373e-05 2.843428940383358e-19
4.757474874347341e-03 4.810654499061841e-03 2.001956027345758e-19
 6.861923053603979e-03 -1.877897768850091e-03  2.722155930472513e-19
 5.301494037519561e-03 -2.582991428978526e-03  2.885629342917416e-19
6.825998334144138e-03 1.413286577013125e-03 3.091263063601013e-19
7.335683358670062e-03 7.449453487706266e-04 3.155080811245742e-19
 6.981940548496817e-03 -1.328910249208660e-03  3.064051125444368e-19
6.594457545156538e-03 1.506530065449168e-05 2.983618185288096e-19
6.885875366955303e-03 4.873127777635948e-05 3.079714608971859e-19
7.001488428700582e-03 7.130389520003916e-04 3.073325002170021e-19
 6.930672586537444e-03 -2.279322142109858e-04  3.091727216960007e-19
6.658765201870520e-03 2.851816846971570e-04 2.999096660628672e-19
6.904155840328242e-03 9.000216611139073e-04 3.013799159384684e-19
 7.079069606804749e-03 -2.735983204331917e-04  3.084687035911618e-19
 6.467156760602825e-03 -9.845670532170668e-04  2.994423319394949e-19
6.739791733041096e-03 4.478594155515809e-04 3.023511976148218e-19
 6.994719462320463e-03 -2.055777012743611e-05  3.099500203451783e-19
6.867525546740815e-03 1.874333677216502e-04 3.036212174290631e-19
 6.614062343581796e-03 -6.997071707400419e-04  3.000839354822942e-19
6.666903935706460e-03 4.405919552413656e-04 2.964851624497753e-19
 6.859233762643030e-03 -2.061725791693763e-04  3.039934985308150e-19
6.634992465837479e-03 1.642164793617668e-03 2.887145373304141e-19
 6.780050899877968e-03 -2.616938620349874e-04  3.043215843212831e-19
6.837542260709678e-03 1.849108354004268e-04 3.035972888643752e-19
 6.832371303011804e-03 -2.435486973228361e-04  3.047893332329479e-19
6.763362588332327e-03 1.828345090095928e-04 3.018644078028627e-19
 6.785959671782250e-03 -2.309846752323489e-05  3.031491886736072e-19
6.652520064683421e-03 2.557356418507614e-04 2.965517329825324e-19
6.527036295760738e-03 3.129629635874833e-05 2.905478874720466e-19
7.347377518743891e-03 3.522972661199415e-05 3.094812351900509e-19
 5.280988664766629e-03 -6.992763244544065e-03  1.946832385303304e-19
 6.686602527328317e-03 -1.876153021507268e-03  3.280878378803752e-19
6.893484225905246e-03 2.538629307666607e-03 2.994441172824368e-19
8.181211115941759e-03 3.296915134785075e-03 3.483536677083074e-19
 7.446166424326588e-03 -2.280161897134240e-04  3.144892697794234e-19
6.487266579817744e-03 2.830489995388353e-05 2.870569834447750e-19
 6.958713517681563e-03 -3.466234708167631e-04  3.061733433221327e-19
 6.592132027185609e-03 -8.938121798214188e-04  3.044960319759919e-19
6.595670656615288e-03 4.462394745282650e-04 2.969480313909808e-19
7.079694573949321e-03 1.065691203529381e-03 3.050540746204375e-19
 6.804149377056964e-03 -4.198581277515436e-04  2.992470362552242e-19
6.584434098269881e-03 1.331673472220277e-04 2.925523303816910e-19
 6.939440661905962e-03 -1.970125315044318e-04  3.048661249055754e-19
 6.557591218677757e-03 -1.258150273932403e-03  3.015451849775854e-19
6.707841716887818e-03 3.038268707669198e-04 2.994393361042817e-19
7.036991509522622e-03 9.355933606526983e-05 3.077215648801722e-19
 5.910404728169613e-03 -3.703600732311372e-03  2.728333671365814e-19
 6.833445552473510e-03 -1.646153378855062e-05  3.011653311767650e-19
 6.843212673531252e-03 -7.111653724282518e-05  3.017010363571060e-19
 6.891563763357905e-03 -8.550300105312553e-05  3.033633612224250e-19
 6.869892228420353e-03 -1.187091523264702e-04  3.028993824013866e-19
6.866120636531092e-03 4.787674418621930e-06 3.020970419855922e-19
 6.869527818758905e-03 -3.082132287839474e-05  3.014342386717306e-19
 6.838960744166394e-03 -3.068417841951489e-05  3.002312233885785e-19
 6.826104858589619e-03 -3.062649826875293e-05  2.994747732373446e-19
 6.839437944418009e-03 -7.934716382485429e-05  2.995743271949961e-19
 6.883043852105617e-03 -1.157811270657184e-04  3.015838407968759e-19
6.846541906925180e-03 1.898321535879197e-05 2.996172983461246e-19
6.896586372690484e-03 1.089569273789061e-04 2.995495408491613e-19
 6.928048041099808e-03 -7.997521465413559e-05  3.003502535857790e-19
 6.897424277098831e-03 -2.792968422284729e-04  3.015350026931141e-19
 6.967089388493572e-03 -3.028746321411110e-05  3.034611258285649e-19
 6.923987425972399e-03 -3.010008954463128e-05  3.022886172853624e-19
6.820065380277175e-03 6.972705237051560e-04 2.933715549337254e-19
6.888753305281817e-03 6.625575350093280e-05 2.972566089350035e-19
7.000422994434408e-03 2.127587975896378e-04 2.984262664930755e-19
 6.502610657279975e-03 -2.121737562265319e-03  2.914034193065899e-19
6.592376177637596e-03 1.508374722219009e-04 2.885225277985456e-19
6.858676646751596e-03 2.480944116571617e-06 2.967075497303269e-19
6.887221870392425e-03 6.464169744758146e-04 2.920682308494985e-19
 6.859146934310106e-03 -3.337692764128307e-04  2.952383159827987e-19
6.644736827807675e-03 6.452197424516551e-05 2.894576082620830e-19
6.590586687281617e-03 3.408734176487295e-05 2.875431034363323e-19
6.653381211884524e-03 1.031275762546437e-03 2.795820309519257e-19
 6.840311763270740e-03 -2.104770443295728e-04  2.891078857956286e-19
 6.398814413050693e-03 -1.197403117577385e-03  2.877717968684834e-19
6.667382927885110e-03 3.915607638417036e-04 2.883040116474948e-19
6.804776189665296e-03 3.676561471060457e-04 2.869098326870947e-19
 6.865268464440673e-03 -2.777981052414592e-04  2.928708979197851e-19
6.836457217070775e-03 1.899611424375337e-04 2.935138888505485e-19
6.603094478269909e-03 4.943014956127598e-04 2.812400429176645e-19
6.882270039634378e-03 9.065187949800972e-04 2.825743028805002e-19
 6.807309946208010e-03 -9.049286162217065e-04  2.893562530844747e-19
6.717427401192991e-03 2.476550350137872e-04 2.861430310179957e-19
6.772757760562301e-03 2.496949293466233e-04 2.861867582744100e-19
6.512839503335985e-03 6.268058130834596e-04 2.725766264237135e-19
6.397141344236303e-03 3.859061991637729e-04 2.680363716237148e-19
6.800235958625109e-03 6.793020061113588e-04 2.753798156861343e-19
 4.467397873847516e-03 -5.471839049320640e-03  2.065183441515215e-19
 5.849628840384201e-03 -3.134612009641678e-04  2.579582834369385e-19
6.387988684418001e-03 3.256705681959450e-04 2.657695456903465e-19
 6.581175893881563e-03 -9.178857463265567e-04  2.788862286907316e-19
 6.472708120128113e-03 -4.693402384526604e-04  2.792838905068106e-19
 6.978097916637997e-03 -3.413920544977460e-04  2.935426383501871e-19
 7.122362033357681e-03 -5.192375613050121e-04  3.002656854200596e-19
 6.879683229178664e-03 -2.123796202696323e-04  2.933327599837671e-19
1.723411775172368e-03 6.169264693728331e-03 7.391321939622435e-21
7.001536636665480e-03 4.969139252842920e-04 2.784935196101174e-19
 7.775004653411528e-03 -1.584812772684992e-03  3.097306488492063e-19
 5.761527423424973e-03 -2.074549498193003e-03  2.779410064344901e-19
6.815005796722168e-03 8.808141589831838e-04 2.788271209675464e-19
7.416586585807910e-03 1.738498901056928e-04 2.967080777766442e-19
 6.835144041375882e-03 -1.716453741429531e-04  2.807820243931011e-19
6.514949876636063e-03 2.011265017057285e-03 2.471609700754831e-19
 7.004669384758795e-03 -6.464633916013077e-05  2.828738107080057e-19
 6.872388164466722e-03 -2.183409698271567e-04  2.803640746163992e-19
 6.908285129351949e-03 -1.961135142538361e-05  2.793681327668162e-19
 6.931437655522709e-03 -3.732810333991121e-05  2.783308546948254e-19
 6.908997581361639e-03 -1.363347171452232e-05  2.752354461176115e-19
 6.901078240861029e-03 -1.361784454090686e-05  2.728005116705249e-19
 6.904624906784233e-03 -8.994706256156292e-05  2.719116484051984e-19
6.849989217750339e-03 7.389008383907053e-05 2.664570086588137e-19
6.900911709393408e-03 8.548327740629563e-05 2.642730783738628e-19
 6.892450679806965e-03 -1.892953321810960e-04  2.656632233921901e-19
 7.055707475666727e-03 -9.993435767230922e-05  2.652580981299362e-19
6.772345313328707e-03 6.178962700296519e-04 2.227020896660775e-19
6.820559184411629e-03 3.103441568198374e-04 3.613752888050023e-19
 6.647644281474150e-03 -1.903144176782515e-04  5.376213414187365e-19
 6.752868856346562e-03 -1.933268763544915e-04  5.397895776600056e-19
 6.907845627428463e-03 -1.977636832432571e-04  5.423599482611453e-19
 7.008141408762081e-03 -1.113905435652202e-07  2.417696853569737e-19
6.954738227503371e-03 1.787180928168011e-04 2.272406228659380e-19
6.904569231000419e-03 2.292049366824255e-06 2.214698614269907e-19
6.813726598996743e-03 1.063873484996083e-04 2.110855939420197e-19
6.845893670612781e-03 1.208291505269775e-04 2.042841034987632e-19
6.835503299881656e-03 8.529689503551377e-06 1.940007553204329e-19
6.882365020058107e-03 5.653544165714862e-05 1.797649607865296e-19
6.867291341175246e-03 1.126121005507452e-04 1.558327578123553e-19
6.816998218911586e-03 1.359137937592070e-04 1.289443322534329e-19
6.712186461652874e-03 1.338241110129095e-04 1.047805539077781e-19
6.458366698344241e-03 4.255459122244156e-04 4.527309484529556e-20
 1.820183533706534e-03 -6.969905066258069e-03  3.476356888674454e-19
 6.596583046478393e-03 -4.864053876549027e-04  5.988973941916158e-20
 6.913141702608603e-03  1.323188265280792e-04 -2.661609834564081e-20
 6.886374551411348e-03 -3.752576895465459e-04 -3.238608756599497e-20
 6.808565660092385e-03  2.944126535658444e-05 -1.272614844928225e-19
 6.845151189839882e-03 -1.249690639503295e-04 -1.998529942133600e-19
 6.888891339519928e-03 -1.257676095793400e-04 -2.813440719936320e-19
 6.948360702845564e-03 -3.552522906379118e-05 -3.783525526477356e-19
 6.956220547152225e-03  2.205628219708401e-04 -6.507105483953383e-19
 6.957643801571935e-03 -1.007139617834963e-04 -7.220556031139093e-19
 6.956258394969635e-03 -1.006939076111963e-04 -9.715761320423689e-19
 6.901390627178597e-03  6.944910525232062e-05 -1.297644816131029e-18
 6.786292183108280e-03  1.232868371648375e-04 -1.846462204569906e-18
 6.765684582771965e-03 -2.554106611350680e-04 -2.803522464075909e-18
 6.916793853005117e-03 -1.450309941093659e-04 -4.385066303765587e-18
 7.006941699187301e-03 -1.469212097246455e-04 -6.339078387748931e-18
 7.027419196700285e-03 -1.473505808876867e-04 -9.401037795257946e-18
 6.976618455543901e-03  2.487982155236357e-04 -1.454257196307754e-17
 6.938442266773273e-03 -1.293808418828765e-05 -2.079230775388483e-17
 6.897725552363203e-03 -1.258735027039463e-04 -2.599807133832161e-17
 6.893994950325618e-03 -3.532552842167242e-05 -3.222991181472209e-17
 6.969371244084275e-03 -1.439261755241649e-06 -4.284616575616917e-17
 6.849290221305759e-03 -9.804838306841467e-05 -5.890628947143751e-17
 6.350358694239976e-03  3.959326204656310e-04 -7.860348403169558e-17
 6.661596022325391e-03  5.695155789133759e-04 -1.099621551860827e-16
 6.527375906907620e-03 -2.819373324488213e-04  2.483314113712166e-16
 7.440756876016417e-03 -1.185481311807393e-03 -6.016163824168264e-15
7.143917400381634e-03 1.359462621891657e-03 1.443766338465046e-16
 6.533061439429643e-03  1.243218858178827e-03 -1.506153312822569e-16
 7.329151181302153e-03 -1.167699993640885e-03 -6.059442363673040e-15
 7.932094988084934e-03 -1.086483120570428e-03 -6.060135361043497e-17
 4.692122240519455e-03 -3.539145568198908e-03 -1.217236454928490e-17
 6.712011845521824e-03  7.633863882309426e-04 -4.819495038600740e-17
 6.705529745937759e-03  4.644463115576661e-04 -2.614068168566367e-17
 6.218489249240376e-03  4.307123381296383e-04 -1.564720418544185e-17
 6.405317108005768e-03 -1.021556602000410e-03 -8.925500793485645e-18
 7.454514956882006e-03 -1.188888674909732e-03 -5.733363370460417e-18
 8.216551680269286e-03 -1.310422649358876e-03 -3.695718174112439e-18
 6.248980067630686e-03  4.200603669550859e-03 -2.876690608729264e-18
 5.940244555015349e-03  4.927901626316624e-04 -2.067780580627658e-18
 6.249100179453375e-03 -5.979133353114128e-04 -1.374183109107947e-18
 6.350541109154196e-03 -1.005487056426269e-03 -1.025090810001808e-18
 6.929279816262821e-03  3.282592692424373e-05 -8.541114336342503e-19
 7.002936750899596e-03 -3.074469668721844e-05 -6.152876432020537e-19
 6.877506735365864e-03  6.956514503166049e-04 -5.047359278957271e-19
 6.860042680698979e-03 -1.997630927949258e-04 -3.435932234170557e-19
 6.843939299559817e-03 -3.494673725158618e-04 -2.420901513725407e-19
 6.960662316253831e-03  3.939479148777514e-05 -1.999456420334309e-19
 6.986026854893041e-03  2.247588090180410e-04 -1.277921856521671e-19
 6.818236170373678e-03  2.193605425641295e-04 -6.274653876107594e-20
 6.673118244541059e-03  2.146917182302432e-04 -1.235376770777380e-20
 6.648050529415256e-03 -9.323404529511229e-05  3.415133848286825e-20
6.498775405855120e-03 7.349681341960315e-05 5.030390376640397e-20
6.565473294189738e-03 2.906487982964387e-04 6.740827369992938e-20
 7.205276212982196e-03 -1.463840728679029e-03  1.369379490443497e-19
 6.790344559048874e-03 -6.432374156581278e-04  1.240578642868990e-19
 6.471582510212224e-03 -6.724379774749162e-04  1.384790196613274e-19
7.044201072546209e-03 4.163682887480085e-04 1.413314748953460e-19
 7.059002001413402e-03 -2.987447220337297e-04  1.764716752529496e-19
6.940641238742429e-03 2.576793624366389e-04 1.838135738818230e-19
6.586869453424972e-03 2.601335642172598e-04 1.778233761966449e-19
 7.414813975361133e-03 -8.194244623554920e-04  2.222751849276871e-19
 6.681665192186557e-03 -2.526640008515108e-03  2.637748700200889e-19
7.070561535448119e-03 2.419380818882670e-03 2.026102788344181e-19
7.173610424428583e-03 5.544780597681559e-05 2.285718954072839e-19
6.787784725652061e-03 5.246559935826569e-05 2.260073635325494e-19
6.820185430990845e-03 5.271603782883261e-05 2.332066170788240e-19
 6.824717153470133e-03 -8.598639436838455e-06  2.393627788958426e-19
 6.833288711837664e-03 -8.609438967156969e-06  2.435379633433123e-19
 6.844446017371462e-03 -5.301055290139507e-05  2.468962523625259e-19
 6.840303204425308e-03 -1.975983927127912e-05  2.485567947852113e-19
6.852879216607313e-03 1.849149073704652e-05 2.518495907108828e-19
 6.831838579430974e-03 -1.643524177406961e-04  2.563123472961343e-19
6.829582105394696e-03 8.596823188657850e-05 2.553666933023947e-19
 6.861484793405896e-03 -1.080648509199080e-05  2.590774873738580e-19
6.898015764029705e-03 3.428790145752183e-05 2.625023928355072e-19
 6.667182723836007e-03 -4.258833014675995e-04  2.614945519200292e-19
6.619333446591609e-03 2.769689030674199e-04 2.533189331909449e-19
6.905440565941097e-03 3.355328052445968e-04 2.596133258311007e-19
 6.850657864589932e-03 -1.723475658743659e-03  2.746370304436009e-19
 6.678204903381412e-03 -9.703306942702681e-05  2.666144820570223e-19
6.905464281792004e-03 2.434591836790279e-04 2.730737399936882e-19
6.486073463130250e-03 1.235460419831410e-03 2.457922258598958e-19
6.475064016572466e-03 4.064411597252037e-04 2.471443290346864e-19
 6.751919801210400e-03 -8.804784931511011e-04  2.676943405008038e-19
 6.699524059850202e-03 -1.097356789078772e-03  2.825891702567682e-19
 6.564997704914162e-03 -3.701621125423701e-04  2.816726570832201e-19
6.370849643562071e-03 2.476663114566803e-03 2.393870373061079e-19
 6.560036449305776e-03 -8.856016950496581e-05  2.590245859545828e-19
 6.577486614374932e-03 -8.879574587536502e-05  2.641514393657813e-19
 6.211352239094249e-03 -1.539965176487663e-03  2.727014820180555e-19
5.850675479930558e-03 8.330277796938790e-04 2.400595990489598e-19
7.068593554746247e-03 3.644676753689748e-04 2.836897669855743e-19
 6.970362146194921e-03 -7.198710258211514e-04  2.870077320870416e-19
6.786081699883894e-03 2.063319038795851e-04 2.802257821980476e-19
6.696751603463951e-03 1.912387760860855e-03 2.641212310211009e-19
7.172630345569281e-03 2.550618970155102e-04 2.886095738217106e-19
 6.403856950760803e-03 -1.663808913378987e-03  2.794003998922711e-19
6.645306768410572e-03 1.000459260833248e-03 2.711620699710524e-19
7.203325432591234e-03 1.343866856049109e-04 2.959143871767989e-19
6.497762341846030e-03 3.779385809949838e-04 2.751264109391767e-19
6.290419637319300e-03 1.251288241310183e-03 2.582956487553077e-19
5.610778010358826e-03 1.288716432925378e-03 2.248579118051683e-19
5.580838003756943e-03 4.180572886370765e-03 2.145700231531854e-19
 6.372738997387759e-03 -9.000732231430027e-04  2.553002626637471e-19
 4.864485661202207e-03 -6.253089672057574e-04  2.346174577744347e-19
4.802430118950265e-03 5.419065318382047e-03 1.927883978999664e-19
 6.415979361532227e-03 -4.474264233650361e-03  2.242582429525451e-19
 4.644263356593581e-03 -1.666143167154711e-03  2.593747361634579e-19
 7.899089747862678e-03 -2.402149733976423e-05  3.347407243685605e-19
 7.707403807207604e-03 -1.951086393879238e-05  3.302069138216929e-19
2.944038843163218e-03 5.081259908142483e-03 7.745495197391615e-20
7.146051445103440e-03 1.988290120783103e-03 2.814189362870697e-19
 5.838713671846346e-03 -3.395445293808948e-03  2.394194028746240e-19
 5.076818846212403e-03 -1.420315295640914e-04  2.377515396416337e-19
7.230606724442312e-03 2.062354833242701e-04 3.056216822277532e-19
 6.391924655556024e-03 -1.971842973139765e-03  2.943038281266175e-19
6.702664450445386e-03 1.218031219524872e-03 2.831307433932250e-19
7.212877996325052e-03 3.293190562355747e-04 3.002427488726217e-19
 4.663994338550972e-03 -5.483619218597264e-04  2.377071667672464e-19
 1.114748262412024e-04  6.276171808109536e-03 -2.635638432018117e-20
 7.559756638968428e-03 -1.768540864960905e-03  2.830392244965217e-19
 5.261498558452453e-03 -1.230882904826656e-03  2.484294517457852e-19
 6.313936615624013e-03 -1.390435927505682e-04  2.798775933003669e-19
 6.799141813839106e-03 -4.089844171472362e-04  2.930558141108916e-19
 7.103539349082717e-03 -2.347995822514204e-04  3.049698043191960e-19
 6.945995344224169e-03 -5.071983131763534e-04  3.047766413339027e-19
6.665122647325825e-03 2.888116617777015e-04 2.914345860216084e-19
6.993295231709564e-03 1.829187817302324e-03 2.907086775076619e-19
 7.144353769825581e-03 -6.783992252659660e-04  3.006881738780210e-19
 6.307224389489400e-03 -4.834542438538084e-04  2.847442026089668e-19
6.570548580449838e-03 5.154668302354577e-04 2.847954967279080e-19
7.661352273468274e-03 9.340145846025847e-04 3.134985978365285e-19
 5.946481483692432e-03 -4.332250776567882e-03  2.587590726905080e-19
 5.543256226995292e-03 -2.428264230174844e-04  2.699349719453584e-19
 1.867589380176933e-04  6.395000744446444e-03 -3.791505926527971e-20
7.190976307060514e-03 1.000642412585020e-04 2.986885479400045e-19
 6.396277850587111e-03 -1.436890502023760e-03  2.872579031704332e-19
6.453247295775935e-03 2.928286625553663e-04 2.882749097880515e-19
7.134424412285265e-03 1.576139124691882e-04 3.084910037053147e-19
 6.695638669298121e-03 -2.646030827769092e-04  2.953671349203696e-19
6.370371044863956e-03 5.862588553748432e-04 2.760602756616246e-19
8.392734956890068e-03 7.634985038695285e-04 3.383202070059650e-19
 4.351937637381829e-03 -5.368693353079117e-03  2.272613074445281e-19
6.457940310522799e-03 1.592165916335342e-03 2.882921473274513e-19
6.504113093655838e-03 4.840028756645991e-03 2.757891230172367e-19
 6.985027218793195e-03 -1.906384197676486e-04  2.954543942438774e-19
6.185984683826365e-03 2.363689659428004e-04 2.739357511464380e-19
6.387266447386422e-03 2.440600231871267e-04 2.747174087904458e-19
 7.056867431109827e-03 -1.698410962206649e-03  3.027109165752493e-19
 5.678091855041350e-03 -1.396122051219343e-03  2.946711498138151e-19
4.627919491856099e-03 3.044244097907193e-03 1.807851793756923e-19
7.723667055565458e-03 1.763818758757137e-03 3.209279974045919e-19
 6.710226701893463e-03 -2.645509391456666e-03  2.803847730007919e-19
 6.092123936419068e-03 -2.969588293728914e-04  2.829856893856613e-19
6.744947940472598e-03 6.052585645141904e-04 2.971968223708861e-19
 6.881910153293164e-03 -1.227651711413846e-04  3.019920961974608e-19
6.612286925196211e-03 8.614437942795978e-05 2.927916506218309e-19
6.610360368088055e-03 3.868558831296361e-05 2.921432392285020e-19
7.017779824768700e-03 3.129074493729677e-04 3.002403501628942e-19
 7.302405646613226e-03 -1.696721798232056e-03  3.079944460307900e-19
 7.054633858701195e-03 -8.422777493302832e-04  3.121063363912266e-19
 7.004925097813106e-03 -5.211844499849348e-04  3.205135081490546e-19
7.294266347462805e-03 6.268556953355305e-04 3.239724066297751e-19
5.814036741305314e-03 1.642703654410313e-03 2.533198303240128e-19
6.169869467492253e-03 2.141604525393879e-03 2.582457712759088e-19
 5.849799979511727e-03 -1.702934234852686e-03  2.591107369405305e-19
 5.830781781899564e-03 -1.736191661151196e-04  2.724202430858348e-19
 6.905782464454848e-03 -2.056287197324097e-04  2.974461473144398e-19
 6.740216597930047e-03 -2.923032487757686e-03  2.960817929430811e-19
 6.926107215926883e-03 -8.863036137502039e-04  3.244510837626458e-19
7.125873125617511e-03 1.237472938465063e-03 3.098372787221992e-19
 7.613567518121402e-03 -6.345417764362063e-04  3.192085028498289e-19
 5.718373617855518e-03 -2.676561864692565e-03  2.920787402291117e-19
5.393586045441499e-03 8.036219675938862e-04 2.563762976824828e-19
6.301815610197315e-03 4.069439113066885e-03 2.688437816682567e-19
 6.890196932526621e-03 -1.198457331027654e-03  2.914451673298219e-19
 5.813728574066114e-03 -1.186836300928001e-03  2.854215706168567e-19
6.108339351212533e-03 3.893429775315599e-04 2.829972237710377e-19
7.256981891940919e-03 8.716451271249966e-04 3.140076131490813e-19
 6.841862257896581e-03 -9.578389248146215e-04  3.064848983462080e-19
6.621699569269181e-03 8.848884907333663e-04 2.955128751339008e-19
 7.227203043445172e-03 -1.812216722496525e-04  3.174377447607062e-19
7.000253918569507e-03 1.482860298142727e-05 3.091265959065811e-19
 6.920192735441724e-03 -2.543956024737455e-04  3.095230538327345e-19
6.833507997064581e-03 2.753259010662293e-04 3.032033456652382e-19
 6.787515838064005e-03 -2.873577398486890e-04  3.026942412101014e-19
 6.901516020664438e-03 -3.494975192771011e-05  3.082608487021508e-19
6.892110702151416e-03 2.491718746686353e-05 3.074701421344362e-19
6.856955324704138e-03 2.162473261494864e-04 3.044865959721861e-19
 6.857288392090698e-03 -1.010571875795363e-04  3.050883756726268e-19
 6.829732970619893e-03 -8.630682246926679e-05  3.060785505918337e-19
6.852169370535020e-03 1.134871953535211e-04 3.057955958687685e-19
 6.772193633477457e-03 -1.350646421282740e-04  3.046379962945189e-19
6.655243355582406e-03 3.193822128204082e-04 2.988657136020698e-19
6.811819343984174e-03 7.491228561341218e-05 3.025321428401595e-19
 6.660483163987717e-03 -1.097775974335239e-03  3.026366204302559e-19
 6.563293049257946e-03 -3.193110392685906e-05  2.986950369048389e-19
6.632889547371647e-03 3.585265717852921e-06 2.972081382545246e-19
 7.072767754911853e-03 -9.635712040783967e-04  3.143410359096081e-19
 8.070570929788920e-03 -1.099508709729114e-03  3.672718000990482e-19
5.723913619028463e-03 4.250024014883538e-03 2.433311476571400e-19
 6.870428743978636e-03 -2.257951245820427e-03  2.792627391642082e-19
 5.659980634807357e-03 -4.519785490368271e-04  2.746234524073960e-19
6.626269744313950e-03 3.076465659683132e-04 2.983048437451471e-19
 7.005041156257306e-03 -6.546051218427126e-04  3.105942460801118e-19
 7.096357916996123e-03 -9.758743998558890e-04  3.352622999851031e-19
5.601913021300924e-03 3.729893046074811e-03 2.379907865591504e-19
 6.532387916274110e-03 -3.005398552189193e-03  2.605303431198155e-19
 6.188549302274095e-03 -6.199787676933197e-04  2.941524067101625e-19
 6.930642118893751e-03 -3.854981960910338e-05  3.114072459125679e-19
 6.844934130420596e-03 -3.030611435203670e-04  3.061650173364812e-19
 6.999884587054383e-03 -3.994024493111161e-04  3.131627576207275e-19
 6.898592871390854e-03 -3.936229026874819e-04  3.179154438443312e-19
4.659923193029052e-03 3.922949606841477e-03 1.893404856299298e-19
7.115422923917500e-03 7.872193363150216e-04 3.077807013918839e-19
 6.827392358979187e-03 -4.618078843427149e-04  2.932105176810344e-19
 7.100592545123578e-03 -6.037759012831720e-04  3.043471314298844e-19
 6.033461756623747e-03 -2.782638638771259e-03  3.076942838427167e-19
6.606737789158009e-03 2.595254966619963e-03 2.916449974514393e-19
 6.394117338102730e-03 -2.615213718891789e-04  2.822171806070329e-19
 6.630447299700682e-03 -2.711873402328177e-04  2.990562099328847e-19
 6.633938801325947e-03 -5.099931851913794e-04  3.050913766166813e-19
6.656175448939090e-03 6.822904201143278e-04 3.001872515778943e-19
-6.633287432838629e-03 -1.451418812524965e-03 -3.033814319732313e-19
-6.906557466187966e-03  9.455456333235336e-06 -3.120317806726099e-19
-6.828217596312875e-03  5.442867326140416e-04 -3.216363243057530e-19
-7.184479740063225e-03  1.161417295022628e-03 -3.239680905658597e-19
-7.040400104651235e-03 -2.352868623341099e-04 -3.170435744823305e-19
-6.821477740718110e-03 -2.279705798304264e-04 -3.173537799648012e-19
-6.640356050140815e-03  1.131833191383973e-03 -3.151671170527152e-19
-7.068700908035778e-03  4.035523333786264e-04 -3.204482539245619e-19
-6.896054273396920e-03 -5.111016076166181e-05 -3.139368695376299e-19
-6.968131846194569e-03 -2.073132392256215e-05 -3.202353276623770e-19
-6.944075471140726e-03  4.008187370391897e-04 -3.212155595035915e-19
-6.933906024310601e-03  4.002317467549140e-04 -3.171883058427916e-19
-6.919067584423696e-03 -8.176707099598995e-05 -3.167926174326705e-19
-6.778846888926509e-03  2.803921407886728e-04 -3.171168474327425e-19
-6.840569392536453e-03  9.457531003832485e-04 -3.143292652984031e-19
-6.304724062674702e-03 -3.016387859124544e-04 -2.947727342313983e-19
-5.071708923468449e-03  2.061471247379014e-03 -2.693029461906246e-19
-6.942983667910561e-03  1.018832969286651e-03 -3.069246239169672e-19
-6.401225576276143e-03 -1.961812029717605e-03 -2.862225106028226e-19
-6.539112130649168e-03  5.687516280310040e-05 -3.094394886269863e-19
-6.796607698512358e-03  5.911477913796236e-05 -3.121616171392378e-19
-7.269822497290042e-03  1.302061184964297e-04 -3.225386554019666e-19
-7.245473977197571e-03 -1.407050902724428e-03 -3.268399935544952e-19
-7.098362353701673e-03  6.304697100585733e-04 -3.397263363406682e-19
-6.540793947804528e-03  3.900813862779056e-03 -2.800743466693823e-19
-8.042781457512077e-03 -5.476080213900811e-04 -3.408580015862041e-19
-5.846729303581240e-03 -2.321709455708719e-03 -2.671155628214184e-19
-3.599312756732169e-03  4.100758444214733e-03 -2.573135040355835e-19
-6.630236937340480e-03  9.398186811346600e-04 -2.953677349574140e-19
-6.567621793543634e-03 -1.106975072983754e-03 -2.901971682547983e-19
-6.158230524381325e-03 -7.848832345627992e-04 -2.841957082381296e-19
-6.763674055510848e-03 -5.119306678990466e-04 -3.129871692994938e-19
-7.016452845966209e-03  3.754021161663690e-04 -3.242433388857328e-19
-6.959998365737794e-03 -9.848391306145338e-05 -3.182401025785567e-19
-7.056202229103486e-03  7.258733485682049e-04 -3.205368779649880e-19
-6.918741597508389e-03 -9.194503422279355e-04 -3.113532509002710e-19
-6.653196123871558e-03  5.901320575604953e-04 -3.087459292778512e-19
-6.878730983144335e-03 -2.926212107440266e-04 -3.139527758374499e-19
-6.799882883626077e-03  2.347590146101735e-04 -3.131408912195999e-19
-6.893330704069500e-03 -7.081642893745521e-05 -3.138469210244149e-19
-6.815110659944979e-03 -5.010167858737849e-05 -3.117801852190496e-19
-6.864797717021839e-03 -5.046695584960238e-05 -3.131680188546681e-19
-6.971038366866624e-03 -1.925517335215733e-04 -3.176820369738431e-19
-6.950527264241261e-03  2.742902157955689e-04 -3.183911935643605e-19
-6.946492917576387e-03 -4.120715883444440e-05 -3.153299222137633e-19
-6.946492828290469e-03  8.560870396496518e-05 -3.151540805762136e-19
-7.032604008063076e-03 -3.559931867700075e-04 -3.172740434937392e-19
-6.756765077365589e-03 -8.871499822240551e-04 -3.058694465331419e-19
-6.939756445406617e-03 -7.284962428181586e-05 -3.158431343961550e-19
-7.605409500172773e-03  7.512429234522242e-05 -3.387688073620867e-19
-6.685625857700964e-03 -1.182130680322217e-03 -3.074781498801567e-19
-6.347872646103020e-03  2.060975508636602e-03 -3.100550449803397e-19
-6.990273010529670e-03  1.939808800049178e-04 -3.126969892698911e-19
-6.522689457022337e-03  1.810053826175409e-04 -2.967140813110304e-19
-6.779585143677124e-03 -7.367152682081745e-04 -3.029062506411180e-19
-6.802506634485650e-03 -2.225869503516038e-04 -1.706544102029784e-19
-7.181829665727266e-03  6.120946845224488e-04 -5.042083234238763e-19
-7.268637511140905e-03 -7.477501851927339e-04 -2.520528715820793e-19
-6.731732500699344e-03 -5.403095095342687e-05 -2.969070032396435e-19
-6.649107950003032e-03  1.681729592061855e-03 -3.145545499886588e-19
-7.206989184299136e-03  2.012580854089297e-04 -3.300941090775964e-19
-6.872442914483923e-03 -3.256781530245184e-04 -3.124241437326237e-19
-6.684878828773521e-03  4.778976736828645e-04 -3.121442092901129e-19
-7.086175032013226e-03  4.361697797344935e-04 -3.161665844891493e-19
-5.275057154394035e-03 -4.734875263876021e-03 -2.297686921561223e-19
-6.651462781921857e-03  9.398221542528084e-05 -3.074134399705833e-19
-6.980856208421858e-03  9.863639826956187e-05 -3.171717083136516e-19
-6.926428325495286e-03  1.076696942739972e-04 -3.145219954944477e-19
-6.885237503154264e-03  1.070293926582240e-04 -3.125197255220803e-19
-6.882128598527528e-03  6.104333858639878e-07 -3.118182373581480e-19
-6.899456157783921e-03  1.756464887827884e-05 -3.127794822611102e-19
-6.850488476879648e-03  1.743998686118683e-05 -3.118053096460030e-19
-6.807629648364097e-03  3.005608617052287e-04 -3.083675426635251e-19
-6.932254722059631e-03 -3.263965938226471e-04 -3.084483455786092e-19
-6.942202203370962e-03 -3.386007300233905e-04 -3.113377278742934e-19
-7.148104450485308e-03 -3.486434584176341e-04 -3.219137160955505e-19
-7.098698540659106e-03  3.437047966728222e-04 -3.216611618459094e-19
-6.964222180742708e-03  7.271402360532195e-04 -3.111274024289395e-19
-6.717610566774074e-03 -2.106654216399715e-04 -3.016968386540260e-19
-6.715853003299180e-03  2.133031259674002e-04 -3.044220113785219e-19
-6.956873827284498e-03 -5.522794023727002e-05 -3.073452749584504e-19
-7.102724295574290e-03 -8.311713610922218e-04 -3.128059847955071e-19
-6.958349935147982e-03 -2.887994865713101e-04 -3.177154965473985e-19
-7.088823654709358e-03  7.622392326335428e-04 -3.238187213820646e-19
-6.632443884714211e-03  7.131661307177581e-04 -3.007768283959179e-19
-5.926973191274767e-03  4.505579242329014e-04 -2.685651863145160e-19
-6.186029920097363e-03 -2.132856225213065e-03 -2.686816171616322e-19
-6.555705986219132e-03 -3.619653299567082e-04 -3.019150361888750e-19
-7.144079513760075e-03  2.269883463063167e-04 -3.215804832255748e-19
-7.107849766375950e-03  2.624139904578462e-04 -3.158727964056796e-19
-7.261775608850022e-03  6.572113154592003e-04 -3.187876999804972e-19
-7.062269858715959e-03 -1.687753882215572e-04 -3.102331175677085e-19
-6.867072264489049e-03  3.228858702725657e-05 -3.054592714445206e-19
-6.905139520932575e-03 -2.316995108543803e-05 -3.066957422892682e-19
-6.887912729353565e-03  1.060911030568100e-05 -3.058054858862519e-19
-6.882494019214379e-03  1.060076413524593e-05 -3.053703580419855e-19
-6.876263080274745e-03  4.487184809153984e-07 -3.045695656789567e-19
-6.876643532814961e-03  3.210411444829021e-05 -3.044299147424484e-19
-6.877370716434123e-03 -1.165474510733438e-05 -3.038482247369115e-19
-6.853966429156966e-03  1.576264945052230e-05 -3.027607309508606e-19
-6.844194783331590e-03 -8.760705546585293e-06 -3.017283788680865e-19
-6.840673260782692e-03  2.273565674402888e-05 -3.015237003990752e-19
-6.851659180204953e-03 -2.042349424119528e-06 -3.015595385481961e-19
-6.842146377514130e-03  1.795684270252340e-06 -3.008368870010673e-19
-6.851301382590618e-03  1.798086951765258e-06 -3.008635813602010e-19
-6.859512533039764e-03  1.993803917708801e-06 -3.005019866312570e-19
-6.860598760673798e-03  3.247303094128651e-06 -2.996272450207107e-19
-6.851736068998940e-03  2.573937663118036e-06 -2.982909692872912e-19
-6.865655299027340e-03 -7.496370865878748e-07 -2.979697743924279e-19
-6.867222587687130e-03 -5.331286261393037e-05 -2.973833527321846e-19
-6.875903616688258e-03 -2.407092396157509e-05 -2.974209864880021e-19
-6.913870311461964e-03 -2.420383644463437e-05 -2.981414582595178e-19
-6.907664937275254e-03 -6.992162875224960e-05 -2.978697630091360e-19
-6.867647139683998e-03  1.678044135918035e-04 -2.971243218044298e-19
-6.807803444345588e-03  8.539902104277633e-05 -2.924482879177070e-19
-6.864259066587327e-03  8.610721641169659e-05 -2.910259251198556e-19
-6.921479956942663e-03 -9.481484444808602e-04 -2.902344836079863e-19
-7.073698244131203e-03  9.489997362968167e-05 -3.060820304782211e-19
-6.269332313237253e-03  1.958559693690295e-03 -2.784294082531716e-19
-6.392505734470278e-03 -7.672180980280287e-05 -2.610253125239013e-19
-6.407505997600252e-03 -2.034947793680182e-03 -2.572526592723924e-19
-7.024496495578679e-03 -6.767168273506287e-04 -2.974478132437365e-19
-7.118035858026991e-03  8.463085769020119e-04 -3.048422541846101e-19
-6.923902267860192e-03  1.805206659932996e-04 -2.866513470917923e-19
-6.583092662426962e-03  9.656924356161642e-05 -2.731916512921106e-19
-6.836479097320569e-03 -5.141159898655695e-04 -2.779898776230208e-19
-6.719546811244758e-03 -3.786129739859090e-04 -2.792510124710748e-19
-6.974043595057719e-03  3.519890179552904e-04 -2.907610548973807e-19
-6.574926777137883e-03  3.318450749365513e-04 -2.732426574262616e-19
-6.440311959309124e-03  7.921518508954881e-04 -2.521072336258096e-19
-3.172983136805852e-03 -6.074592977770344e-03 -9.017783424177188e-20
-7.187202745526841e-03  6.652252314095571e-04 -3.030856902588284e-19
-7.143688328314708e-03  1.433314181426018e-04 -2.811030531571743e-19
-6.855196166720377e-03  1.375430930164278e-04 -2.694489712320917e-19
-6.797368455791813e-03 -3.559821263642224e-05 -2.633726499686212e-19
-6.848095766637597e-03 -1.905439539117246e-04 -2.625142227585159e-19
-6.858490242513076e-03 -6.356228425152907e-05 -2.620764123337927e-19
-7.029466867067731e-03  2.133645533338242e-04 -2.671135103874656e-19
-6.978056347188563e-03 -2.559098913091619e-04 -2.609414256493762e-19
-6.942821902390330e-03  2.080885505991214e-04 -2.605078896553942e-19
-6.822552822154663e-03  8.933369773268023e-05 -2.495776867171027e-19
-6.744953342432773e-03  8.831761934583691e-05 -2.420024787348826e-19
-6.845897264271399e-03 -2.514341714745115e-04 -2.373121603095119e-19
-6.905178053076202e-03 -4.914352681089927e-04 -2.369972607236436e-19
-6.696980731839845e-03  6.376954192992894e-04 -2.380167631871624e-19
-6.714058296855049e-03  6.731667688768278e-04 -2.178565987009778e-19
-6.721623039330043e-03 -1.857200220957139e-03 -1.936817158761056e-19
-7.384236791438753e-03 -5.112826072067124e-04 -2.370824560731311e-19
-2.895073220967045e-03  6.172215177588983e-03 -1.715108844276412e-19
-6.912351014230728e-03 -2.347432527879136e-05 -1.859208217670083e-19
-6.051058531793150e-03 -2.896991176445469e-03 -1.222513362975141e-19
-6.772097975563000e-03  7.279201902232704e-04 -2.022320580372915e-19
-6.927541410287466e-03  7.446285153216215e-04 -1.822115585321831e-19
-6.784308810273157e-03  3.496093909185991e-04 -1.538298197394545e-19
-6.918680356862552e-03 -6.807604152037411e-04 -1.349310099738708e-19
-6.162290679179390e-03 -1.184234857432738e-03 -9.371359243078032e-20
-6.384017768368557e-03  1.787626519507016e-03 -1.567223720077482e-19
-6.842313527922600e-03  9.590777729733364e-05 -1.032301744419188e-19
-6.775796134930088e-03  1.618220597242231e-04 -8.365473199768841e-20
-6.932514288235723e-03 -3.331855150494686e-04 -6.039238936979512e-20
-7.078191888983734e-03 -1.047540510783630e-03 -3.444949325510300e-20
-6.758665499824036e-03  6.438391595933393e-04 -3.432351174144926e-20
-4.702185396538485e-03  5.965727437671773e-03 -1.130995087349629e-19
-6.884331335733458e-03 -4.083778995700286e-04  5.546922632330556e-20
-6.399638963672414e-03  2.204423858437430e-04  1.038195431706420e-19
-6.831216764107933e-03 -7.456441875125481e-04  1.831763943812874e-19
-7.334295703302329e-03 -7.955992735561816e-04  2.521006533211680e-19
-4.950452165547372e-03  4.020079029009493e-03  8.703477787492269e-20
-7.464886272923091e-03  8.351977692428046e-04  3.552385221297194e-19
-6.428181142627024e-03 -8.933113098404547e-04  5.713877668475278e-19
-6.475831459583141e-03  1.094697784088567e-03  6.143849303332230e-19
-6.718454837649991e-03 -4.765488649654862e-04  8.011206240269342e-19
-6.945171483702144e-03  2.854230162281433e-04  1.282808596343216e-18
-6.926089237737798e-03 -2.908210231726646e-04  1.694032848340386e-18
-6.752801503265093e-03  3.505527511197496e-04  2.301622296954167e-18
-6.666756346620042e-03 -2.171493326287117e-04  3.234165451120369e-18
-6.565434650154005e-03 -3.429448960914563e-04  4.242197046276649e-18
-6.699314626665842e-03 -5.412422847103499e-05  4.878483660879411e-18
-6.775655591749741e-03 -3.150306712782039e-05  6.527900102568942e-18
-6.813551072464679e-03 -3.167926024399021e-05  9.608879591105088e-18
-6.930829252816795e-03 -3.451651484431436e-04  1.322941846526787e-17
-6.887099667723230e-03 -1.808113862486638e-04  2.033642357690377e-17
-6.467715654185186e-03  2.322763857744220e-03  2.152377756129714e-17
-6.886807108584986e-03 -4.149961639642615e-05  3.878279145380068e-17
-6.834504935750971e-03 -1.412639488016885e-04  7.477897255903737e-17
-6.846787641806763e-03 -4.593323291746640e-05  1.392532827841893e-16
-6.866381241131340e-03 -4.606468103716152e-05  1.348094447248577e-16
-6.860495622776211e-03 -3.063494716319284e-04 -1.267297849396896e-15
-6.864590336537501e-03 -6.537275406048888e-05  6.254020075729048e-15
-6.918676296001982e-03 -1.507375946575287e-04  4.742952489863089e-18
-6.903087346559633e-03 -6.573936815500423e-05  6.545736798250708e-15
-6.775485571478669e-03  1.837286699889127e-04  1.376061571921626e-16
-7.195349900377910e-03  3.834719004367771e-04  8.801058310157387e-17
-6.930470280772419e-03 -8.358201263412446e-04  7.096881605496210e-17
-6.851028756667029e-03 -1.644361025433834e-04  4.518203654003808e-17
-6.829704175957672e-03  1.136579575244539e-03  2.827278618655968e-17
-7.098125338260344e-03 -1.571346597443356e-04  2.490506236458939e-17
-6.789586726740444e-03 -1.176796158871621e-04  1.565532346200636e-17
-6.862314304782205e-03 -4.140755315965805e-04  1.009139893257544e-17
-6.880288298526997e-03  2.714747568787098e-04  6.439691700068511e-18
-6.818948598846587e-03 -2.602682524445838e-04  4.774331365513566e-18
-6.894414591857485e-03 -3.999135782917680e-06  3.446382874845957e-18
-6.793998748718339e-03 -4.589581505465492e-04  3.084602357769762e-18
-6.870510425010808e-03  1.934642444237166e-04  2.346128446487107e-18
-6.895436365431007e-03 -3.729791884480188e-04  2.116872081067662e-18
-6.925954308700960e-03  1.024133844723036e-04  1.566799444000458e-18
-6.910231453199622e-03 -5.404841777286032e-04  1.454230345086053e-18
-6.910934361397258e-03  8.914441930635980e-05  1.058077828111755e-18
-6.927967358076307e-03 -3.734027766044292e-04  9.479066257715189e-19
-6.737347487335964e-03 -6.886700481001183e-06  7.328315816713353e-19
-6.964750565808607e-03  2.385460979038759e-04  5.712532408504867e-19
-7.862783116393164e-03 -4.975124796336152e-04  5.412361145497388e-19
-6.271981938766804e-03 -3.784049940352527e-03  7.459761217982414e-19
-5.806718869220384e-03  3.280695075250761e-03 -1.361671342820883e-19
-5.938489863920446e-03  1.569661464241912e-03  1.112860474999294e-19
-5.438267619771694e-03 -1.632275805312575e-03  3.436860057007928e-19
-7.473000276004961e-03  2.335453258282724e-04  3.411568670223909e-20
-2.363476435677140e-03 -6.546614636520815e-03  4.085091869847988e-19
-6.661964059911492e-03  1.042236724777651e-03 -7.006076598147960e-20
-6.932331085506531e-03  1.174878247935581e-03 -7.882360282381467e-20
-6.699138034462868e-03 -1.277568704425886e-03  8.863694836496428e-21
-6.713289226013451e-03 -5.151222687424173e-04 -6.114411228908386e-20
-7.019307812186297e-03  1.313706096228611e-03 -1.563963158089637e-19
-7.302950383110407e-03 -3.502299848470747e-04 -1.158867221755760e-19
-7.113599486909578e-03  4.523586055192586e-04 -1.543685078814056e-19
-7.102577814372267e-03 -4.374338570630393e-04 -1.413749811398631e-19
-6.778552858533951e-03  6.603278149924477e-04 -1.714840782027960e-19
-7.076521450055230e-03  2.520897819243950e-06 -1.689283440186743e-19
-7.059546191697903e-03  3.301073004135435e-04 -1.868021546425253e-19
-6.945376280105533e-03  1.493544889201632e-04 -1.854555388127940e-19
-6.723801158872740e-03  4.099182728566023e-04 -1.904286231447276e-19
-7.378690885577474e-03  4.498437940520185e-04 -2.124500560100670e-19
-4.538847274579955e-03 -5.325236635939193e-03 -2.387383072962361e-20
-6.688249470271178e-03  4.160079008702098e-04 -2.208056838731339e-19
-6.937128674621538e-03  1.775499656720140e-03 -2.395392500329673e-19
-7.268160573029736e-03 -5.814041667896101e-04 -2.149624134913258e-19
-6.327919287062121e-03 -1.642332878138264e-03 -1.801017611934108e-19
-6.414040678406398e-03  1.991019854778333e-03 -2.632955043043944e-19
-6.774301909718446e-03  4.316600771494606e-04 -2.312468065825931e-19
-6.290826076744227e-03  4.008528857749289e-04 -2.168441827221767e-19
-6.846523898375884e-03 -1.103127903339150e-03 -2.225457629096511e-19
-6.593851418364430e-03 -1.741766896105935e-03 -2.231833003573878e-19
-6.242758865280205e-03  2.920318305843394e-03 -2.795532803729558e-19
-6.455857470871627e-03 -6.055804446176489e-05 -2.319897954926104e-19
-6.602312460992018e-03 -3.947756569283191e-04 -2.443469318412363e-19
-6.946177014410450e-03 -4.997893063253473e-05 -2.660286156654404e-19
-7.278742399259989e-03 -1.981380145876001e-04 -2.812961077555992e-19
-6.649870391469367e-03 -1.810191986962697e-04 -2.722001165612146e-19
-5.955738311397664e-03  3.316757871850580e-03 -2.609673168943604e-19
-6.441966607354751e-03 -9.447224778998715e-04 -2.371515619465673e-19
-7.091047783304830e-03 -6.906737822606932e-04 -2.839890308700221e-19
-5.685907310679905e-03  3.492513748584813e-03 -2.809099378768510e-19
-7.304495991249149e-03  2.470225519661393e-04 -2.932787219706053e-19
-6.641992283425180e-03  2.246180826105855e-04 -2.717902488906994e-19
-7.542624832006339e-03  4.604063728524880e-05 -2.999955202921747e-19
-5.608526986075166e-03 -2.914849553332884e-03 -2.033493295333257e-19
-5.386164778090364e-03  1.987805645790437e-03 -2.846488916966746e-19
-7.355275218254334e-03  2.124354213138624e-03 -2.856438019052035e-19
-7.592169607801555e-03 -1.694919560923138e-03 -2.920741814575768e-19
-5.001165292523624e-03 -2.657905944835011e-03 -1.804026243487988e-19
-5.662067054191889e-03  1.573951385798440e-03 -2.774373704650813e-19
-9.543621717121057e-03  2.136960365995657e-03 -3.542861437917309e-19
-5.808209673687471e-03 -5.168058765291266e-03 -2.183505227949776e-19
-7.334571904530947e-03  1.357750217695819e-03 -3.398145432452978e-19
-7.375682418726855e-03  1.365360451847945e-03 -3.122044801952704e-19
-7.016906712780116e-03  2.431283256947510e-04 -2.909880881443299e-19
-6.560070255611691e-03  1.918749999096139e-05 -2.801976354911397e-19
-6.667943430624535e-03 -7.607456464558747e-06 -2.862881943118004e-19
-6.705929562501056e-03 -1.670917510373720e-04 -2.879287842381503e-19
-6.744134067937122e-03  7.259168830302021e-05 -2.911244398070725e-19
-6.804524253750823e-03 -9.895294996552714e-05 -2.923999055402836e-19
-6.826782038879136e-03 -7.241092966812143e-06 -2.943977390396588e-19
-6.852000465272868e-03 -1.127096143988068e-04 -2.951063058206816e-19
-6.843103295687485e-03 -6.588264624081569e-05 -2.959008525671598e-19
-6.878745832084111e-03 -6.622579824584599e-05 -2.973188557265321e-19
-6.904061716640938e-03 -1.398104456596060e-04 -2.993023676921062e-19
-6.965350928858346e-03  9.215111449877139e-05 -3.027463106034477e-19
-6.933383043180441e-03 -2.348855048499391e-04 -3.010766053789733e-19
-7.060155764470803e-03  4.003296581039714e-04 -3.076890582034829e-19
-7.276994732601706e-03 -3.790361392480564e-04 -3.123005241526396e-19
-6.796366625592651e-03 -1.125899046845016e-03 -2.915030387865690e-19
-6.586762446110505e-03 -1.700314844721134e-04 -2.923487283025658e-19
-7.194153497281831e-03  1.902070782707034e-03 -3.103052784588185e-19
-8.249978199611104e-03 -6.876429769726672e-04 -3.447128835295857e-19
-5.940764593753169e-03 -1.931619845762121e-03 -2.569877500998554e-19
-5.343045956041556e-03  2.953303604625984e-03 -2.916460024172231e-19
-7.123894396875737e-03  7.049752011768427e-04 -3.081230460072579e-19
-6.267030254814094e-03  6.201805737893213e-04 -2.749389761306740e-19
-6.400917769525958e-03 -9.590036907686748e-04 -2.778289526699197e-19
-7.226190475132713e-03 -3.963756198113148e-05 -3.188184774892463e-19
-6.994619759058281e-03  7.056150852183531e-04 -3.104559956205188e-19
-6.953183904297938e-03  3.661470228636547e-05 -3.044726207660294e-19
-6.943125287552798e-03 -5.399961900139336e-05 -3.069449234153833e-19
-6.862482846551851e-03  1.266013812111269e-04 -3.069785625161224e-19
-6.925885585943093e-03  3.279239666403369e-04 -3.083660692096153e-19
-6.877998693579748e-03  3.256566378635322e-04 -3.042116847938583e-19
-6.790556873423807e-03  5.608845733491118e-06 -3.030271421093831e-19
-6.758508752778118e-03  9.445411819655381e-04 -3.027761699257698e-19
-6.567300530460547e-03 -2.110112201231848e-04 -2.942359062150769e-19
-6.326813562301910e-03  2.437205169042929e-03 -2.983771486355416e-19
-5.778577135097955e-03 -7.081037107437677e-04 -2.642110617506472e-19
-5.139885725592175e-03  3.904010833254530e-03 -2.560160051788155e-19
-5.966429512745507e-03 -1.904701486248888e-03 -2.600606328650078e-19
-5.911590586844865e-03  2.348372582336438e-03 -2.561999842412186e-19
 5.683424069568950e-04 -8.045568380211638e-03 -2.180274416435875e-20
-5.163315115767799e-03 -4.941630244675318e-04 -2.373911117488066e-19
-6.042856792061335e-03 -5.783409150586281e-04 -2.709696454366862e-19
-6.533024407704893e-03 -1.043005321402139e-03 -2.889136968095253e-19
-7.183801604346293e-03 -1.042213375370356e-03 -3.191554413619052e-19
-7.596153618327069e-03 -2.202729928533341e-04 -3.369853342033920e-19
-7.873739967886305e-03 -6.460729601142803e-04 -3.468716427461264e-19
-7.195027565706815e-03 -8.849482646404774e-04 -3.267324911536785e-19
-6.437477583804737e-03  4.519162589047542e-04 -3.116232298875739e-19
-7.327513750921938e-03  1.086846171029748e-03 -3.394424654309257e-19
-7.677558163332296e-03  4.221903670505345e-04 -3.419843558913328e-19
-7.352328186778920e-03  4.036736725844351e-04 -3.302184614406654e-19
-7.163575161407424e-03  2.749825008041866e-04 -3.242307194406900e-19
-7.060946639954527e-03  2.710429808232991e-04 -3.208867711870645e-19
-7.000444128972210e-03  6.935280804707872e-05 -3.194370567168848e-19
-7.044669640272484e-03  2.532957838502847e-04 -3.215865720126434e-19
-7.116771590251173e-03 -1.143149500479665e-04 -3.227701742428675e-19
-7.251687272598327e-03 -1.212126917989554e-04 -3.296532487929421e-19
-7.249769794586769e-03 -2.017201560379630e-04 -3.307000236026256e-19
-7.233334285052902e-03  2.208547057462411e-03 -3.347683120203299e-19
-7.588369509525334e-03 -4.068794031362151e-04 -3.433634529624992e-19
-2.778696355923095e-03 -5.971737361800020e-03 -7.909287974662491e-20
-6.955073872002076e-03  8.615078882287968e-04 -3.297980054449254e-19
-7.692482822694266e-03  4.774190172048471e-04 -3.454252252113015e-19
-7.441956089251270e-03 -4.046619157443234e-04 -3.365770530347297e-19
-7.341232515065213e-03  4.026601572718359e-04 -3.392646182732237e-19
-7.345673523774770e-03  4.029037427000002e-04 -3.358217032380174e-19
-7.182743615550313e-03  1.156110134656162e-04 -3.290747098444459e-19
-7.179792824940915e-03 -4.544765724625743e-05 -3.281983254834488e-19
-7.156045270553325e-03 -3.413959351348703e-05 -3.274445728460770e-19
-7.134639047443133e-03 -1.077910530721813e-04 -3.257031176340115e-19
-7.117839436258578e-03 -1.666340516082702e-04 -3.244237206648313e-19
-7.043500432855944e-03 -2.588445536726292e-04 -3.212786794601329e-19
-7.023829336589979e-03 -3.119174621886073e-04 -3.197625839858615e-19
-6.977331218670972e-03 -3.255820904515911e-04 -3.183213699269383e-19
-6.944727378361349e-03 -3.240607026670537e-04 -3.167706538775396e-19
-6.927498230567482e-03 -3.047565246976220e-04 -3.157383609529940e-19
-6.909170740535878e-03 -3.607038288412288e-04 -3.147891044602126e-19
-6.928827297761469e-03 -3.617300294837327e-04 -3.156270075359968e-19
-6.972060339962069e-03 -3.639870765939915e-04 -3.171177369487922e-19
-7.044662125601942e-03 -3.677773638867009e-04 -3.192686480433766e-19
-7.142578430223385e-03 -5.142762570562951e-04 -3.241916815413495e-19
-7.022166488266089e-03 -6.788912099993538e-06 -3.215616730319971e-19
-7.003890072878123e-03 -6.771242769911542e-06 -3.152388797194482e-19
-7.170651269912211e-03 -9.102785597225516e-04 -3.214104164297707e-19
-7.816100248779439e-03 -9.922151014315236e-04 -3.562294548564453e-19
-6.833489244928571e-03  1.907624066294075e-03 -3.280562601092166e-19
-5.444933376635622e-03  1.519997409280557e-03 -2.455998979547126e-19
-4.949459401638574e-03 -3.326804282829213e-03 -2.127601746533071e-19
-7.025933063640652e-03 -2.966700699110657e-04 -3.301510305916508e-19
-7.622476618872073e-03 -3.218591254617594e-04 -3.455628475026223e-19
-7.241949253591097e-03  3.685490151807244e-04 -3.320264497819274e-19
-7.491500306619383e-03  2.815613619848993e-04 -3.403475781970508e-19
-7.283694548443070e-03 -5.771357902864234e-05 -3.344825503862764e-19
-7.219968012982188e-03  3.604996955064378e-04 -2.931549696671479e-19
-7.023009597425313e-03 -4.452512116869392e-04  4.998041341322168e-20
-6.809795355379026e-03  5.697078359428424e-04 -1.144068500671652e-18
-7.195541957082389e-03  4.421366439554815e-04 -1.251199658257408e-18
-7.109760524655589e-03  1.147111236162522e-05 -5.503671339874867e-19
-5.863399607527449e-03 -1.424768172250704e-03 -2.765877772557809e-19
-3.520231888401844e-03  4.421701812819903e-03 -2.176109350242374e-19
-8.093086400314992e-03  5.848734447375040e-04 -3.531831511848649e-19
-6.715669812653918e-03 -6.258092192422350e-04 -3.020487850258158e-19
-6.751839360519527e-03 -1.450274480743930e-04 -3.130968968825308e-19
-6.946331879033428e-03  1.234072804218334e-04 -3.193979892646019e-19
-6.940428529175132e-03  6.964176071862517e-06 -3.174667401084400e-19
-6.910088635953398e-03  6.933732366908357e-06 -3.166179395212076e-19
-6.903675725553433e-03  3.863128251925935e-05 -3.165070373511474e-19
-6.887898343988711e-03  3.188345794087782e-05 -3.157211546148339e-19
-6.872994661331283e-03  5.507728594096352e-05 -3.152400526829547e-19
-6.853293180292512e-03  8.024871195731093e-05 -3.146638173319556e-19
-6.831484742119059e-03  8.699777374855649e-05 -3.138005421641202e-19
-6.907441252896248e-03  8.796506674396967e-05 -3.155911896007956e-19
-6.837272138674050e-03 -2.405491559382118e-04 -3.152354527474037e-19
-6.718270906431079e-03  7.817910255428424e-04 -3.143234356919801e-19
-6.993423961806767e-03  1.974574840238907e-04 -3.185462790146232e-19
-6.822337549954505e-03  3.642733593898146e-05 -3.145421537437172e-19
-6.707517765552364e-03  6.121354928234303e-04 -3.108318127078476e-19
-6.818021705619543e-03 -6.432323658812928e-05 -3.289458142420111e-19
-6.837682121103784e-03 -6.450871877214331e-05 -3.297560151715072e-19
-6.813071216202816e-03 -4.852471127260404e-05 -3.284519160775467e-19
-6.821006693037191e-03 -4.858123008915229e-05 -3.283973417628833e-19
-6.846232008256797e-03 -5.398776380110815e-05 -3.301208365449303e-19
-6.862991819057161e-03 -5.411992769881860e-05 -3.303715880137681e-19
-6.854665643908750e-03 -3.518371788697808e-04 -3.290825429777546e-19
-6.857803095658733e-03 -5.994322315337109e-05 -3.304826443678301e-19
-6.787130044049599e-03  1.719205960424293e-05 -3.297584887276423e-19
-6.800013527002138e-03  6.119750984994897e-05 -3.287971035533327e-19
-6.749679835474563e-03 -8.751344312714090e-05 -3.268524529814729e-19
-6.816452789586661e-03 -8.837919250556450e-05 -3.279777905354422e-19
-6.753088541112689e-03 -6.223446349847592e-04 -3.253849131491387e-19
-6.841931234190480e-03 -3.339120235063337e-05 -3.299835222305043e-19
-6.787002962247805e-03 -1.010617692990947e-05 -3.278634393733291e-19
-6.770165057752304e-03 -1.455343166953305e-04 -3.266503099499783e-19
-6.784025104599785e-03 -1.458322580941156e-04 -3.271306735574964e-19
-6.847501930616447e-03 -1.330345263234783e-04 -3.283691032932453e-19
-6.681466521648028e-03 -2.303390874632149e-04 -3.258108884159624e-19
-6.779434970950574e-03  4.085529325677703e-04 -3.278863992486922e-19
-6.717659201768172e-03 -2.447983301764011e-04 -3.236903280277380e-19
-6.822746680828259e-03  6.389858013876178e-04 -3.264569068443594e-19
-6.763022355349000e-03 -4.751809857258061e-04 -3.224737563835861e-19
-6.594309766041142e-03  3.427371291683624e-04 -3.227041321443762e-19
-6.405662198960696e-03 -6.618987656114404e-04 -3.140524688207035e-19
-6.514608901052422e-03  5.410239041565683e-04 -3.172633402901985e-19
-6.492135088665260e-03 -5.053541583682807e-04 -3.133266644172709e-19
-6.264071813100435e-03  2.430856808403605e-05 -3.155908215269817e-19
-6.506821085620233e-03 -5.128700548837271e-05 -3.198585685241744e-19
-6.570995884165525e-03  1.988990035627263e-04 -3.202347575123839e-19
-6.803196361749760e-03 -8.857617431260698e-04 -3.199524154646583e-19
-6.853545382424985e-03 -2.946421352116138e-04 -3.299704409157388e-19
-6.446877087254518e-03 -2.743134641470659e-04 -3.277554872699643e-19
-6.493015554945368e-03  2.729461056758673e-03 -3.174979396274861e-19
-7.184519513166926e-03 -9.061858922760674e-04 -3.252419087070323e-19
-5.960755878069859e-03 -8.304197522293235e-04 -3.172923081017408e-19
-6.426222064034867e-03  1.991125107917303e-03 -3.230447227982517e-19
-7.379889522475682e-03 -6.409496332062324e-04 -3.350678521280408e-19
-6.712234990263868e-03 -2.869430394003868e-04 -3.310324266950179e-19
-6.564836839210646e-03  1.927340690946319e-03 -3.256950318250579e-19
-7.349531600194699e-03 -1.828396809246887e-04 -3.372492635815684e-19
-6.753730877244105e-03 -5.469762979902689e-04 -3.281504707368773e-19
-6.839042798377136e-03  1.593074855168687e-04 -3.332403297856456e-19
-7.232686165094922e-03 -1.139317937328965e-04 -3.384193323446795e-19
-6.790236822842580e-03 -7.793621621460731e-04 -3.280650920878263e-19
-6.834951147531679e-03  1.568183273162598e-04 -3.340563511902168e-19
-6.811738918458103e-03 -1.783443375285309e-05 -3.326062804955945e-19
-6.500757911515128e-03  4.790467798893213e-04 -3.273898004251054e-19
-6.590848312907142e-03  3.870040148322384e-04 -3.251599788049980e-19
-6.928330582394520e-03 -3.013538681318362e-04 -3.259068101810415e-19
-6.971436924106626e-03 -1.011928737359725e-03 -3.252193938488212e-19
-6.863510773445933e-03 -1.037842773335116e-03 -3.306857698956354e-19
-6.763910503100430e-03 -4.222404472786024e-04 -3.403304279277150e-19
-5.806914488190135e-03  4.720518773619464e-03 -2.888901366334153e-19
-8.168657309242407e-03 -1.512996608011968e-03 -3.351368880099866e-19
-7.023434280126662e-03 -6.992337698146512e-04 -3.389736153953730e-19
-6.248220763870030e-03  2.120122534914266e-03 -3.228494528457603e-19
-6.679002335520523e-03  7.081148824434868e-04 -3.250512479277941e-19
-6.485008511396466e-03 -1.019673558232325e-03 -3.155465823367831e-19
-5.972507836406840e-03 -4.762291818019021e-04 -3.189419378720744e-19
-6.739247150946587e-03 -1.921945003862366e-04 -3.338559705885586e-19
-6.951800664396317e-03  2.012237489566700e-04 -3.373841859192097e-19
-7.032906387210205e-03 -6.408731087636893e-05 -3.365000509639752e-19
-6.943178270889427e-03 -1.082003380454216e-04 -3.348914587777866e-19
-6.868517138854479e-03 -1.049423026895887e-04 -3.344724502770671e-19
-6.891692785566087e-03  1.797194385746177e-04 -3.359145886776875e-19
-6.981728650870932e-03 -1.049550261238585e-04 -3.357344834511379e-19
-6.814111139429786e-03 -4.197554565110181e-04 -3.327701362455675e-19
-6.884912883834792e-03  6.433234569793426e-05 -3.366982657840368e-19
-6.904127616518668e-03  6.451188737789002e-05 -3.360923490704813e-19
-6.853814643372417e-03 -8.091476071904631e-05 -3.351431036345673e-19
-6.748186665303910e-03  9.521444822633821e-05 -3.344854156661322e-19
-6.870257184348249e-03  8.974194230424739e-05 -3.351870850621994e-19
-8.062806187539370e-03  3.072545094817149e-05 -3.544751331672612e-19
-5.645507759972018e-03 -2.802536029974283e-03 -2.950129371520241e-19
-5.881744523279228e-03  2.276829840121023e-03 -3.201657002375028e-19
-7.065475444066154e-03  3.398886124854296e-04 -3.387996256522179e-19
-6.538003196371238e-03 -1.791105348070422e-04 -3.278227609931795e-19
-7.327717138192425e-03  8.733933744366570e-04 -3.439983713817856e-19
-7.592998027732193e-03 -1.807664987778592e-03 -3.317505508932687e-19
-6.307292190557032e-03 -1.067514717225502e-03 -3.305549435317821e-19
-6.325198461367054e-03  2.563386522459376e-03 -3.265507301300535e-19
-7.317626718683138e-03 -2.971034929764274e-04 -3.408633047438693e-19
-6.825041031315222e-03 -1.542703356757983e-04 -3.377096901405957e-19
-6.816569630066672e-03  3.526170706693537e-04 -3.403900903145581e-19
-7.021306301985248e-03  2.160584612246009e-04 -3.411871209895595e-19
-6.249999347599205e-03 -3.270604798454188e-04 -3.270096636359575e-19
-6.599870794518031e-03  2.391116007636579e-03 -3.285821117482223e-19
-7.045881768759588e-03 -1.116912984805445e-03 -3.277289197735831e-19
-7.014472502911788e-03  3.842139663541042e-06 -3.425489073156013e-19
-6.995232295844055e-03  1.072733598760226e-04 -3.429496777490857e-19
-6.961200819880954e-03  1.224336225939126e-03 -3.412119381913199e-19
-6.839644160041874e-03 -5.341904844696531e-04 -3.335038578667578e-19
-6.890809545556059e-03  6.969954990798517e-04 -3.413721952982243e-19
-6.786735872953040e-03 -1.325320503640718e-03 -3.263282551871733e-19
-6.776637545201765e-03  5.219076428737051e-04 -3.377959684645166e-19
-6.751208532635460e-03 -9.010879923479906e-04 -3.301287677591715e-19
-6.748645735298020e-03  5.744838232681418e-04 -3.392071862192854e-19
-6.871650601887558e-03 -4.967306640411173e-04 -3.368135106798168e-19
-6.685992610629022e-03  5.159527062096503e-04 -3.369981264537526e-19
-6.938911656779775e-03 -1.139397051265240e-04 -3.357783568595888e-19
-6.582461637132864e-03 -1.174929074996680e-03 -3.267556801844150e-19
-6.959496298966946e-03  2.014244662821154e-04 -3.437827056106535e-19
-6.848550969353860e-03  9.083287506961901e-05 -3.398938669633144e-19
-6.756827248146487e-03  8.961633607521970e-05 -3.383065636083237e-19
-6.793733595828157e-03  1.480704264593591e-04 -3.380456989977734e-19
-7.148515966648774e-03 -3.820030301324238e-04 -3.421440089494486e-19
-6.175880497227270e-03 -1.655251992916546e-03 -3.193735273235640e-19
-6.822948691266389e-03  7.002165444074711e-04 -3.453872487579155e-19
-6.912511109899864e-03 -1.667287668776935e-05 -3.399745709850162e-19
-6.767930626284658e-03  2.062048111163006e-05 -3.388857035824745e-19
-6.789484104983693e-03 -6.734519224933761e-05 -3.395349104600208e-19
-6.928139699699949e-03  3.697738245780187e-04 -3.434339740051329e-19
-7.115212267903918e-03 -2.591997052488087e-04 -3.430461078227983e-19
-6.866857960278873e-03 -5.134455637470949e-04 -3.401022251676635e-19
-6.938796684695063e-03  9.823439925787116e-05 -3.469423133409501e-19
-6.617015529735447e-03  1.203761084048068e-03 -3.409257091250692e-19
-6.529796083596111e-03  6.474822459985747e-04 -3.358637560897977e-19
-5.446634149052529e-03  8.168310605907747e-04 -3.122737831203272e-19
-4.914041199815904e-03  1.446305544992117e-03 -2.862856185232688e-19
-8.148868343159359e-03 -3.003920050397337e-03 -2.932244144820301e-19
-1.850712830405014e-03 -4.446645612499303e-03 -1.215405923106657e-19
-7.141386818321128e-03  1.653465131077893e-03 -3.706042794211087e-19
-6.223146661551130e-03  5.713372296258091e-03 -3.133253587740699e-19
-7.034449454354232e-03 -1.240121510894951e-03 -3.233743094263872e-19
-6.080029403354120e-03 -8.290838472941598e-04 -3.319983317341724e-19
-2.143135964566638e-03  5.790137020875697e-03 -1.464659121859543e-19
-7.315931432247227e-03 -1.368296446029033e-04 -3.469350291436231e-19
-6.802111459050956e-03 -1.185595713239604e-03 -3.329470821215212e-19
-6.888705189705513e-03 -6.654599389553920e-05 -3.512750743865333e-19
-6.954593010411384e-03 -8.698876887554448e-04 -3.490814781863219e-19
-7.125039608844686e-03  6.426049605176670e-04 -3.600907902544806e-19
-6.932338138415038e-03  2.586388806338761e-04 -3.498516722338584e-19
-6.912594304140761e-03  3.585683311658015e-04 -3.490129633358942e-19
-6.688406239458745e-03 -1.676571482738520e-04 -3.435114188522974e-19
-6.917175984335172e-03 -1.733916807864021e-04 -3.506196697441520e-19
-7.177549461573739e-03 -1.799184187142553e-04 -3.598478694157333e-19
-6.809435412234281e-03  9.212410139495772e-04 -3.589345801318135e-19
-6.267142448435013e-03  4.035793064198949e-04 -3.414422837153955e-19
-6.486308766683903e-03 -4.170394614091612e-04 -3.389654837204712e-19
-6.808442967524207e-03 -1.344258101802556e-03 -3.399498319951891e-19
-6.524645875473451e-03 -9.189843548958167e-04 -3.499597402189109e-19
-7.083659229173294e-03  7.994893873083765e-04 -3.712588565676115e-19
-7.102173208699149e-03 -1.212210356419146e-03 -3.521523104228628e-19
-7.331410234422650e-03  3.406976113193225e-04 -3.790200935000654e-19
-6.123663686690112e-03 -2.206389808662339e-03 -3.216435975164800e-19
-6.927370219494728e-03  1.303073182403333e-03 -3.752757129717860e-19
-6.665705290164649e-03 -1.573281592943262e-03 -3.445406641496937e-19
-6.650155372173435e-03  2.174474991615008e-03 -3.757488011101147e-19
-6.574699296788966e-03 -1.839934089664587e-03 -3.336249600401536e-19
-6.375352735134504e-03  2.203037430436366e-03 -3.713668859840095e-19
-6.537926310932795e-03 -2.275787378464730e-03 -3.257092134854505e-19
-6.592597120292685e-03  1.566337619478143e-03 -3.767678134279840e-19
-6.705673588414562e-03 -1.872071673979721e-03 -3.407199384592654e-19
-6.833587067114587e-03  1.269877622277945e-03 -3.876238335516836e-19
-6.519000257181082e-03 -1.906478017410186e-03 -3.386557641911297e-19
-6.495625039007412e-03  1.935799450487315e-03 -3.841166736668625e-19
-6.968906064585370e-03 -1.092179602166468e-03 -3.681831329218012e-19
-6.457201829285529e-03  1.527701599645596e-03 -4.212941102544825e-19
-6.585589586449768e-03 -6.269842302806506e-04  4.831986651311768e-21
-6.618813456518109e-03 -1.252637369834467e-03 -2.044816101719983e-18
-6.376270952610285e-03  2.166976746487787e-03 -3.584134770427493e-19
-6.238070506448059e-03  6.041874487915096e-04 -3.819567821437077e-19
-6.233032203163414e-03 -2.429896179231503e-03 -3.270415207328519e-19
-7.038692494533088e-03  3.126837511637915e-04 -4.229596632229398e-19
-7.005016113031935e-03  3.111877265396753e-04 -4.237227617884721e-19
-7.205197097221606e-03 -6.864477702560859e-04 -4.104010877021208e-19
-6.632771732944761e-03 -2.627635082418653e-04 -4.194127581064946e-19
-6.093229562088322e-03  1.394252041009676e-03 -4.444872699344550e-19
-6.606206671304405e-03  8.177203757750816e-04 -4.414134911032896e-19
-6.223072930439162e-03 -2.285134792761182e-03 -3.486698683356501e-19
-7.018593131890482e-03  2.302891516987229e-04 -4.724155817614020e-19
-7.012808397807603e-03  2.300993470641309e-04 -4.816815280825560e-19
-6.815260439873807e-03  1.016607587249035e-04 -4.867896027116881e-19
-6.828878851129571e-03 -1.329538134790911e-04 -4.910140067948423e-19
-6.605632917950746e-03 -3.096601337031231e-04 -4.924805017947546e-19
-6.736030701221372e-03  3.664430649238049e-04 -5.340734316935958e-19
-6.766275167832553e-03 -2.720033569037204e-04 -5.204759293209497e-19
-6.825972331340417e-03  3.952352074697110e-04 -5.649662956585347e-19
-6.837450034923160e-03 -4.112277511488643e-04 -5.399096480161793e-19
-6.562727952539246e-03  8.582616099562352e-05 -5.779046238177704e-19
-6.610156957350835e-03  9.998931977098071e-05 -5.968060227151466e-19
-7.291116613019213e-03  1.161754565443052e-03 -6.828202730721259e-19
-7.099364208022887e-03 -1.519956784514061e-03 -5.302914908901535e-19
-7.042374475516091e-03 -1.940076541070425e-04 -6.737293408287725e-19
-5.338009419815670e-03  2.172669583759857e-03 -8.607897705516652e-19
-7.288150141113355e-03  2.176805559828428e-03 -8.999238666572823e-19
-6.681576827511700e-03 -1.607774208895801e-03 -6.102288533413350e-19
-6.854073292891632e-03 -1.155894971549729e-04 -8.604362153529979e-19
-6.979656124316728e-03  4.403400906682766e-05 -9.629692008028485e-19
-7.033506146635761e-03  3.171128911778170e-04 -1.064913456656322e-18
-6.975791256271260e-03 -1.672388973526979e-05 -1.115309160005917e-18
-7.226969038846266e-03 -1.732606795210757e-05 -1.269346289287502e-18
-2.018586840760325e-03 -6.600952493660501e-03  9.212746327369603e-19
-6.908226471484497e-03  2.126865143750197e-04 -1.512502770373503e-18
-7.097684784728631e-03  2.185194482589326e-04 -1.797121249122299e-18
-6.915984145489281e-03  1.699005706912388e-04 -2.344960000307269e-18
-6.890514533702220e-03  3.054427072072398e-05 -2.971625456795049e-18
-6.861802796441486e-03  1.087293923730342e-04 -3.846981017276053e-18
-6.802948976919084e-03 -7.384434358116331e-05 -4.785147761295092e-18
-6.844805885582170e-03  1.965810915135434e-04 -5.844118401961818e-18
-6.869305668339216e-03 -3.074283822227122e-05 -7.476169245938114e-18
-6.868763241061763e-03  1.073821518522978e-04 -1.210265730910957e-17
-6.864098080918052e-03 -5.749614618867135e-05 -1.824156000170439e-17
-6.839968978981916e-03  9.727575984707094e-05 -2.397518495568466e-17
-6.826304469514347e-03  3.699078260015419e-05 -3.431010768736881e-17
-6.853868043404244e-03  2.840605501562804e-04 -4.682161137305403e-17
-6.871632073174188e-03 -5.754226525422961e-05 -6.042914108355906e-17
-6.592718190787319e-03 -4.100017079142940e-04 -7.846934415164834e-17
-6.738345810115726e-03  2.503238052631191e-04 -1.082005069289799e-16
-6.780302749594868e-03 -5.183814472343745e-05  3.427180155873638e-16
-7.457921924204004e-03 -7.451876765256524e-04 -5.981524974636865e-15
-6.195152180482523e-03  2.692845935755069e-03  8.622867886469868e-16
-7.093894031246673e-03 -7.088143941937233e-04 -6.365826158487425e-15
-6.546535615920630e-03  2.145946933535227e-04 -1.543471259192260e-16
-6.755107533164152e-03 -1.092218390393081e-03 -7.049374233852206e-17
-6.290690978921545e-03 -5.124401356968537e-04 -6.323735423153852e-17
-6.905818808415407e-03  2.475356651496542e-05 -4.586728909362561e-17
-6.922959536301566e-03 -1.215948145076864e-05 -2.291106565038583e-17
-6.970097003559677e-03 -9.226379525001984e-06 -1.247721728729947e-17
-7.010580915472808e-03 -9.279968440016596e-06 -8.181602234427295e-18
-6.818610979436107e-03  3.329088459449895e-04 -5.124191157473590e-18
-6.692565624582600e-03 -2.406440633042084e-04 -3.137319422523478e-18
-6.796238794424263e-03 -5.717736326352634e-04 -2.417643039420563e-18
-6.878881093106516e-03 -5.983474228025687e-05 -2.151295742344210e-18
-6.945049592347433e-03  5.694496463552147e-05 -1.730978595742397e-18
-6.840026251168647e-03  5.608384041030063e-05 -1.381106837284026e-18
-6.808393044721773e-03 -4.390151751862395e-05 -1.001541109902421e-18
-6.830492953601887e-03 -4.242493769191440e-05 -9.452350596042903e-19
-6.834496598244716e-03 -4.244980476602843e-05 -8.412288109561860e-19
-6.835779088611921e-03 -4.115560692310334e-05 -7.615191631398142e-19
-6.858847799654800e-03 -1.028930616865154e-04 -6.935229438330323e-19
-6.942808761808320e-03 -1.041526027509134e-04 -6.453862634046583e-19
-7.167616452015694e-03 -1.075250571647983e-04 -6.100121807845261e-19
-6.443381759059760e-03 -4.344880850046281e-04 -5.671679909062560e-19
-5.694538944907875e-03  1.449280596386123e-03 -5.602810631313225e-19
-6.510313925159426e-03  2.665648107338668e-03 -5.356324715419858e-19
-5.141012817331856e-03 -5.158970899087151e-03 -2.284211999607340e-19
-7.167777622123663e-03 -2.578111613108825e-03 -4.583756448437793e-19
-8.496152864941778e-03  2.290670686839827e-03 -5.694950494968057e-19
-7.125540578918177e-03  1.921136212057481e-03 -5.047051616212969e-19
-6.651365990070155e-03  1.514265527762629e-04 -4.525816787855269e-19
-6.440989747469946e-03 -1.414886242547721e-04 -4.372352864851458e-19
-6.629294849762621e-03  1.263171060500897e-06 -4.346135924367226e-19
-7.577402847061066e-03  1.443827165193501e-06 -4.402456246272331e-19
-9.699286031955482e-04 -6.719876166275699e-03  3.743399613806902e-20
-6.699592957428350e-03  5.181664770149797e-04 -4.374255496561179e-19
-7.184579445536161e-03  5.556767767510337e-04 -4.306474122298609e-19
-7.068092436801300e-03  9.543517528133652e-05 -4.127429688900038e-19
-6.931738661952237e-03 -8.602633303059451e-04 -3.957316967387843e-19
-6.754459374955520e-03  2.050627754495264e-04 -4.070862877059731e-19
-6.549549282222987e-03  1.756283237309619e-03 -4.000509121157454e-19
-7.055799128844834e-03 -7.498022007918808e-04 -3.766108324461195e-19
-6.165104373866814e-03 -1.882190301070803e-03 -3.536819782123446e-19
-6.685329037263793e-03  1.244955174759159e-03 -4.005483021232147e-19
-6.770847855826706e-03  6.721451844763885e-04 -3.846273346180432e-19
-6.503749384086630e-03 -3.116986028833537e-04 -3.668556786051611e-19
-6.832409101519154e-03  5.511281236306323e-04 -3.807760383536557e-19
-6.725057333474132e-03 -4.037401268993573e-04 -3.710759658963048e-19
-6.677251104696465e-03  1.293220659155592e-03 -3.769275260756082e-19
-6.807573615883258e-03 -4.976162213118849e-04 -3.613126339100377e-19
-6.823243635350890e-03  1.166912740530788e-03 -3.753453904628841e-19
-6.712799743668059e-03 -7.296284798877206e-04 -3.608753475612430e-19
-6.572467889438603e-03  8.062259612264017e-04 -3.636581734774859e-19
-6.534570558109964e-03 -2.066464754915967e-03 -3.243977661557787e-19
-6.813058247102766e-03  6.443639266146591e-05 -3.652619225952373e-19
-6.166060682449334e-03 -1.016394605074329e-03 -3.467137415237807e-19
-5.713915243462686e-03  3.468332615371694e-03 -3.334102239381065e-19
-6.916440302434284e-03 -6.868203963265989e-04 -3.467759930942776e-19
-6.545825703781724e-03  6.333302115481936e-04 -3.545234151333084e-19
-6.446319406868719e-03 -6.897444531549151e-04 -3.443574595083631e-19
-6.441013847003649e-03  1.243688897657484e-03 -3.536066987261897e-19
-6.519576896415669e-03 -3.456068834537379e-04 -3.452121796769553e-19
-6.289849181159650e-03  1.500083230794731e-03 -3.444429574238215e-19
-7.121689274295048e-03 -2.690489385149740e-03 -3.120468208725610e-19
-6.292734016003274e-03 -3.404966759204358e-04 -3.337557127592672e-19
-6.324826242616847e-03 -7.903191208281273e-04 -3.344999704440662e-19
-6.547705936219308e-03 -1.019886155737956e-04 -3.455466601097844e-19
-6.711400158566880e-03 -4.373942443172982e-04 -3.450874271441025e-19
-6.766992647193479e-03 -6.144912387864385e-05 -3.475786609477543e-19
-6.705580046972790e-03 -5.373232819757091e-04 -3.419724854470312e-19
-6.666216617791575e-03 -2.602469685250577e-05 -3.449094558504507e-19
-6.697062044004816e-03 -2.238780820230522e-04 -3.421135700533278e-19
-6.650153903770066e-03 -8.439415863558491e-05 -3.414701595858644e-19
-6.653273869124490e-03 -1.610587632664315e-04 -3.393361453588594e-19
-6.572229443598234e-03 -1.787282015995521e-04 -3.375580361365597e-19
-6.627447023102008e-03  1.826344112932868e-04 -3.401604440310268e-19
-6.631435023936238e-03 -1.907392831653256e-04 -3.378109999258736e-19
-6.700674409449462e-03  1.014847253467742e-04 -3.414352267675692e-19
-6.652085811680729e-03 -4.336223433136071e-04 -3.369355137757917e-19
-6.645996220234358e-03  7.895307856639089e-05 -3.410051379709464e-19
-6.609909296070700e-03 -2.015226741152741e-04 -3.389121639930306e-19
-7.172629055789247e-03  9.428066831258310e-04 -3.517408054132510e-19
-7.195237044655542e-03 -1.388837341005347e-03 -3.354488042613723e-19
-7.023863705764309e-03 -4.859967454455963e-04 -3.509789034681364e-19
-6.503838922487438e-03  2.016124819486038e-03 -3.409976836393761e-19
-6.925965977767041e-03  1.002355820329252e-04 -3.394108789712242e-19
-6.521435231293242e-03 -5.769083029392296e-04 -3.304610982050316e-19
-6.495812631497825e-03  2.903627728701763e-04 -3.369017408334361e-19
-6.748771217690621e-03 -2.079070934216583e-04 -3.378163819961090e-19
-6.809752343090638e-03  2.444142560721683e-04 -3.395677727294796e-19
-6.704497529807155e-03 -6.124757483981938e-04 -3.316656220623964e-19
-6.678636464046215e-03  2.721362895346669e-04 -3.368860843546462e-19
-6.659649348744193e-03 -2.970391538923471e-04 -3.341531805549593e-19
-6.447801414067218e-03  1.008580822280083e-03 -3.339787916876797e-19
-6.787876003381413e-03  3.415453887702547e-05 -3.335759910343535e-19
-6.610815482445792e-03 -2.202942029432669e-04 -3.316819199549308e-19
-6.613441574164354e-03  2.329877337972678e-04 -3.350701221430032e-19
-6.816631237376062e-03  2.401459884868779e-04 -3.351207861572656e-19
-6.507829299168274e-03 -1.886582522253073e-03 -3.136515871645049e-19
-6.344871082167719e-03  1.166642834569030e-04 -3.340295395017363e-19
-6.996300028423396e-03  1.176137271938732e-03 -3.422001088476310e-19
-6.982489417042712e-03 -1.004074226296841e-03 -3.295931924080274e-19
-6.452043162159598e-03 -9.806068735296765e-06 -3.323960287584299e-19
-6.803072878774011e-03 -1.259260531793488e-06 -3.375707140581754e-19
-7.003414754752055e-03  2.080769336717826e-04 -3.410989259967104e-19
-6.844382139521445e-03 -3.171470198735024e-04 -3.365637987204270e-19
-6.833308290933171e-03  1.634572847639194e-04 -3.384697620551337e-19
-6.822597613633447e-03 -3.210709923348814e-04 -3.358505276931453e-19
-6.807847852819265e-03  1.077660062805091e-04 -3.375304774424901e-19
-6.795158841179975e-03 -2.064046548215474e-04 -3.364290027601466e-19
-6.687242034270033e-03  3.759635444262312e-04 -3.379334038987856e-19
-6.888375007995481e-03  1.238833183431868e-04 -3.379854663043493e-19
-7.031965110084538e-03 -1.418424709430515e-04 -3.391838172785602e-19
-6.626943914219070e-03 -5.439217656841481e-04 -3.328450579906728e-19
-6.695041301720166e-03  5.105026858544452e-04 -3.381205989357952e-19
-6.912646592317999e-03  5.705495959883900e-05 -3.372812724235646e-19
-6.949005533506774e-03 -1.619590126419248e-04 -3.366607005969097e-19
-6.767785112454641e-03 -2.141525440934536e-04 -3.347288224116582e-19
-6.796418275608268e-03  1.804817856841143e-04 -3.359822769694586e-19
-6.822227884696714e-03  2.238765687381074e-04 -3.346217142422160e-19
-6.726179026976368e-03 -8.482635100443608e-05 -3.314401787768040e-19
-6.733860165359483e-03  4.975456755649309e-05 -3.329568651305323e-19
-6.724421805375203e-03 -1.279780366913963e-05 -3.323855235165014e-19
-6.795620216876200e-03  1.151249659959300e-04 -3.333787981527204e-19
-6.906424733306347e-03 -2.255164913434171e-04 -3.341579563511209e-19
-6.693411316805628e-03 -2.081281519657935e-04 -3.324505464330440e-19
-6.809461114392619e-03  1.828776571729862e-04 -3.363249972439153e-19
-6.849284721513511e-03  1.700299574992481e-04 -3.359428801862988e-19
-6.278660508542450e-03  1.195215226407963e-04 -3.255107233760450e-19
-6.594025877175990e-03  9.472334922675123e-04 -3.284823065274097e-19
-6.646315170658446e-03 -4.640011173436851e-04 -3.238832393911300e-19
-6.706113088142901e-03 -9.199944806359698e-04 -3.297320114323199e-19
-6.975064394744406e-03  7.868062015418033e-05 -3.417826501674763e-19
-6.948321323833353e-03  9.253843924619876e-04 -3.368368107420151e-19
-6.753704565461704e-03 -1.646122015291899e-03 -3.146151113660939e-19
-6.517513947094812e-03  3.699330805923731e-04 -3.258632585916020e-19
-6.505864288831194e-03 -8.028720159799720e-04 -3.196282842617691e-19
-7.378641867298476e-03  8.110958206740793e-04 -3.422827543027922e-19
-6.621911558714527e-03 -2.394860828155683e-03 -3.118957647302403e-19
-6.734534840085868e-03  1.277045762256433e-03 -3.412370485804449e-19
-6.411608088958090e-03  7.212785279558657e-04 -3.282591453223600e-19
-6.422344753626425e-03  1.983220776602756e-03 -3.194885989558090e-19
-6.608981512744458e-03 -7.036289004723842e-04 -3.154953999428492e-19
-5.356164337615674e-03 -3.528157913002258e-03 -2.792517195511357e-19
-6.431799308448709e-03  1.879383498391232e-03 -3.365552438415157e-19
-6.856060146341183e-03  4.713221531216810e-03 -3.156971246195146e-19
-6.230920764384143e-03 -5.515110448148642e-03 -2.159286670064826e-19
-5.603399839072764e-03 -4.238883418325825e-04 -3.199620106890558e-19
-6.229346641381289e-03  1.337288181068980e-03 -3.266476701964543e-19
-7.517510704550390e-03  1.560930873106208e-03 -3.424039705086300e-19
-6.795735612726393e-03 -1.873207565550601e-03 -3.122412179672019e-19
-6.226739014413922e-03  2.724380748494706e-04 -3.273064124835427e-19
-6.621348755334984e-03  2.321175926950412e-03 -3.242126146842154e-19
-7.283934388831172e-03 -4.086050265046422e-04 -3.311033464698047e-19
-6.107386787443402e-03 -1.734093121736309e-03 -3.122611071735258e-19
-6.521622815695422e-03  1.207594576037304e-03 -3.324315107405272e-19
-6.778662047484529e-03 -1.326803131836662e-05 -3.301627165042434e-19
-6.811363274955930e-03  1.179710693904837e-04 -3.320646127913589e-19
-6.781094717142580e-03 -1.542574617026743e-04 -3.307294736407350e-19
-6.846219766278769e-03  1.902492002912450e-04 -3.334893273862093e-19
-6.805670289202344e-03 -6.900848973176440e-04 -3.282257702204271e-19
-6.781460564189888e-03  1.376516648710375e-04 -3.321344944832648e-19
-6.855464473905239e-03 -8.240684073389909e-05 -3.323560726497150e-19
-6.872201754675700e-03  7.600759175030932e-06 -3.334280016352273e-19
-6.872389434270477e-03  5.195788241790288e-06 -3.332723552110254e-19
-6.879010579535233e-03  5.200794079867831e-06 -3.335564813043831e-19
-6.908708431122625e-03 -3.770464649415916e-06 -3.341858875583004e-19
-6.882747750140944e-03 -1.535754989944693e-05 -3.344893752852322e-19
-6.823749437011903e-03  2.949750097628615e-04 -3.336234401787801e-19
-6.875510289891440e-03 -4.234355597084096e-05 -3.324078629515369e-19
-6.574290546034226e-03 -2.205742467403853e-03 -3.127568535829321e-19
-7.008204479653106e-03  2.383631068906998e-04 -3.435149309530149e-19
-7.234990568235095e-03  2.460765571518811e-04 -3.451672708114172e-19
-7.079435883788171e-03  2.346053315873534e-04 -3.411366423586119e-19
-6.958645097297411e-03  2.462247613078914e-04 -3.369605737674759e-19
-6.919282446760173e-03 -1.555792133320089e-04 -3.347594100970589e-19
-7.013407715022062e-03  4.609565649784892e-04 -3.382947552685431e-19
-7.043160446709263e-03 -2.293248310065609e-04 -3.362803972070630e-19
-6.822180849405345e-03  3.718161969177784e-04 -3.353009984945696e-19
-6.865749461057174e-03  3.685753628017030e-04 -3.333951261825597e-19
-6.831715618272195e-03  3.657817398064132e-04 -3.300823311435775e-19
-6.394992126774672e-03 -1.078876237893403e-03 -3.161641845936373e-19
-6.341748483821700e-03  5.086152558214406e-04 -3.210546977359159e-19
-7.461751254584190e-03  5.766669908203865e-06 -3.310909708802035e-19
-4.844205518075374e-03 -4.045755823344661e-03 -2.638712352235852e-19
-3.978952097858372e-03  4.897417180897369e-03 -2.208742020155153e-19
-6.603183509747539e-03  6.228536957205427e-04 -3.203762240884438e-19
-6.392900810382985e-03 -3.324567000557493e-04 -3.148008318452300e-19
-6.369560003439759e-03  1.062153584030294e-04 -3.187891332828704e-19
-6.549752871544120e-03  1.092201578015810e-04 -3.222606837503240e-19
-6.446316677841935e-03  2.981912154329164e-04 -3.197578414766674e-19
-6.434131848793577e-03  2.976275743390400e-04 -3.164784394746856e-19
-6.344976164605456e-03 -5.754984680424450e-04 -3.136470753092115e-19
-6.473128085548054e-03  4.428792659843309e-04 -3.208105129675110e-19
-6.631657551368711e-03 -5.823760204368855e-04 -3.200296099232905e-19
-6.490789822405992e-03  1.719070706353565e-04 -3.211749240126365e-19
-6.736897450840398e-03 -1.897676049334204e-04 -3.235152463621010e-19
-6.670073924300935e-03 -1.951515225385203e-04 -3.231403431411908e-19
-6.747665170329945e-03 -1.974216697617850e-04 -3.259414595098582e-19
 6.777314035004226e-03 -2.732531921710233e-04  3.311152842200513e-19
 6.839216240714161e-03 -2.045154326987230e-04  3.311288037184178e-19
 6.823780909513420e-03 -1.620146370071440e-04  3.319291743821622e-19
 6.849774755365525e-03 -1.893876312998517e-04  3.327313366066320e-19
 6.862029077898749e-03 -1.897264478596128e-04  3.332485604610907e-19
 6.875068780845164e-03 -1.934005733896287e-04  3.337895471700840e-19
 6.887690404811101e-03 -1.937556286465188e-04  3.342385329919719e-19
 6.897283306644554e-03 -1.940254837962199e-04  3.346199867974039e-19
 6.900063371966551e-03 -1.852334566280548e-04  3.347915033879292e-19
 6.908248187242676e-03 -1.854531794832996e-04  3.348272221816760e-19
 6.938437633670859e-03 -2.413474818740781e-04  3.358066596756636e-19
 6.959964958472487e-03 -2.420962910306446e-04  3.370408028615293e-19
6.782140122742613e-03 6.542692032312103e-04 3.297537373299505e-19
 6.921878089860660e-03 -2.547876809160188e-05  3.341287589963367e-19
 6.970179159365940e-03 -3.095325289508805e-04  3.359664552588964e-19
 7.145073234244377e-03 -3.172992454237138e-04  3.415506635959141e-19
 7.319809634306266e-03 -1.142889456470351e-04  3.470818618589837e-19
6.731426006535292e-03 9.135789129429601e-04 3.290815699122223e-19
6.235052224350716e-03 8.462118171892066e-04 3.076747816749481e-19
 6.265656250674032e-03 -1.508028910079554e-03  3.188842440992946e-19
 7.666220756602336e-03 -1.120463313068684e-03  3.618019665318086e-19
6.647617492253281e-03 1.446261966256061e-03 3.323904824661681e-19
7.062432974872879e-03 2.438476464966790e-03 2.997237894369880e-19
 6.658413407173544e-03 -1.949301088428005e-03  3.219775872340936e-19
 6.779445004779886e-03 -8.743059624263315e-04  3.369503007221442e-19
 7.240602378260497e-03 -5.950816343617047e-04  3.523450426899231e-19
6.684219920716271e-03 1.469323633080318e-03 3.263079190442724e-19
8.306734963384325e-03 1.832968690220783e-03 3.333489947228153e-19
 6.634239312035658e-03 -2.358965135337483e-03  3.306370043095953e-19
6.087127481312222e-03 1.356190918719168e-03 3.216708828811410e-19
7.364134432338831e-03 1.645463352857248e-03 3.229184872811789e-19
 6.815211475962911e-03 -4.035430158940255e-04  3.279247422292030e-19
 6.090865127816032e-03 -2.035285697115820e-03  3.248016078935437e-19
5.375259514538694e-03 2.787125274698976e-03 2.904172284303283e-19
7.162607018985985e-03 6.199426533442516e-04 3.287843285700522e-19
 6.697807247610054e-03 -6.965937432895575e-04  3.318160908879553e-19
6.869847382315802e-03 1.003938569122366e-04 3.402576756780669e-19
6.634438552474112e-03 1.833329381413810e-03 3.138139555905045e-19
 6.741285937773508e-03 -2.486177400068820e-04  3.270535567571634e-19
 6.722761474325222e-03 -2.154640397181776e-03  3.356431423394151e-19
 7.410730390894230e-03 -1.111024108449661e-04  3.560427240458839e-19
6.918115360558246e-03 1.704542186346398e-03 3.252101445766503e-19
7.193964270131276e-03 2.005901408025682e-04 3.340990500040403e-19
 6.594400585144158e-03 -1.816443794988893e-04  3.285309137994353e-19
 6.761171146936502e-03 -1.320117617008913e-04  3.333605503802720e-19
 6.788048007438442e-03 -8.687554202668110e-05  3.307474201492910e-19
 6.885761060839416e-03 -3.935486597940218e-06  3.339353880437137e-19
6.876384102946624e-03 5.036177382664548e-05 3.255911676727544e-19
 6.816137105683147e-03 -3.172645635027158e-04 -7.302717680991184e-20
6.786279436986019e-03 2.943014462807238e-04 3.979012568171799e-19
 6.895583540723343e-03 -1.002500554478868e-04  3.497777700823465e-19
6.965544993752687e-03 3.559377873386935e-05 3.351206922495416e-19
 6.947336983326919e-03 -3.692277338817624e-04  3.405674113884818e-19
6.937751214748509e-03 2.170512806334939e-05 3.396695547967720e-19
6.925257515715573e-03 8.200009702452374e-05 3.377307427806177e-19
 6.910456095984336e-03 -1.933155426120119e-04  3.395851433580920e-19
6.929847398934888e-03 1.019038211189452e-05 3.397378603388845e-19
7.082754772154511e-03 1.041523332017271e-05 3.412247017530268e-19
 6.373336229405507e-03 -2.883875335978009e-03  3.203916401762332e-19
7.035488380410924e-03 1.330393576625783e-05 3.431993893373494e-19
 7.122687379883295e-03 -6.727279128967932e-05  3.457606535579909e-19
7.105209360939556e-03 1.706563813389274e-04 3.442777330570333e-19
7.014640665636882e-03 1.684810582741475e-04 3.414910640425358e-19
6.895082348192460e-03 1.656094483359236e-04 3.385238377348731e-19
6.800362272587770e-03 1.633344153957671e-04 3.357791376742797e-19
6.782675708060328e-03 2.396665012415505e-05 3.355947860954277e-19
 6.835977023785200e-03 -8.704350265901567e-05  3.380832056747100e-19
6.844034414702445e-03 1.052222943768138e-04 3.375918630253352e-19
6.795287738638706e-03 6.045640301890027e-05 3.362915640963680e-19
6.773168342533682e-03 1.911057002241062e-04 3.337287286746705e-19
 6.760338488226695e-03 -1.694568992301819e-04  3.354009035109668e-19
6.799081776564957e-03 2.473776822718082e-04 3.350031525149195e-19
 6.760289828506480e-03 -2.739389565430885e-04  3.375912536511629e-19
6.829068662106592e-03 4.388565055232610e-04 3.346305470025971e-19
 6.802062505121311e-03 -4.214377309896448e-04  3.399264919374788e-19
6.837236419361106e-03 2.925358403472202e-04 3.371761182343596e-19
 6.807781711512581e-03 -5.644979755972251e-04  3.415253831013590e-19
6.786922998089201e-03 2.603895327036711e-04 3.366381221714305e-19
 6.778151066462199e-03 -3.519822901550012e-04  3.389459129024968e-19
6.822199209775714e-03 3.937055052775923e-04 3.382670357756184e-19
 6.895618321698083e-03 -3.540091003336557e-04  3.438012017787918e-19
6.849675528223317e-03 2.056229104789205e-04 3.400039248031996e-19
 6.876912099241361e-03 -3.245315700307342e-04  3.416399376983186e-19
6.969039042805279e-03 1.676545461546403e-04 3.437803172712467e-19
 6.769741454138206e-03 -2.504497704934197e-04  3.457652107999239e-19
6.636285422719750e-03 1.119814394097486e-03 3.264836274833788e-19
 6.633544054924933e-03 -6.313242864390795e-04  3.380842802694141e-19
6.902517854564673e-03 1.253496988767765e-04 3.451070408074476e-19
 6.922068618268144e-03 -9.869928868592191e-05  3.464342077455608e-19
6.910963059091117e-03 7.792623884246029e-05 3.460116429895191e-19
 6.873458050568263e-03 -7.417680986187678e-06  3.463104623554306e-19
 6.870076490471784e-03 -7.414031682758925e-06  3.468011216356220e-19
 6.880800185515232e-03 -7.425604452715509e-06  3.474481599536816e-19
6.888479830958914e-03 7.673371787658527e-06 3.476340927594414e-19
6.888682443116603e-03 3.740963102059332e-06 3.494701013249648e-19
6.890381781666732e-03 3.741885943671850e-06 3.497819916239301e-19
6.869938732867586e-03 6.370287808302495e-05 3.498371767869330e-19
 6.864107100232134e-03 -3.045342232709510e-05  3.498127735386535e-19
6.890355192955933e-03 2.186597851418015e-05 3.517846767751319e-19
 6.882893211541313e-03 -4.768577683741407e-05  3.518340530626804e-19
6.876176328671693e-03 7.099580241074430e-05 3.521292868421475e-19
6.830945989415272e-03 4.828293607156321e-07 3.526104713578423e-19
6.827360468692302e-03 1.138184892164306e-04 3.517167555752127e-19
 6.873780629051074e-03 -1.894310233638634e-05  3.547412392754228e-19
 7.092565483456243e-03 -2.133764108892581e-04  3.614712555691065e-19
 6.786298585982300e-03 -2.041625190317050e-04  3.631014195595955e-19
6.094111828790129e-03 3.018674802105909e-03 2.805705148990513e-19
 6.323034027465472e-03 -7.058299351159775e-04  3.493314154151415e-19
 6.914814056331959e-03 -1.599940532835467e-04  3.607377354550173e-19
6.960725732635576e-03 1.850663546097313e-04 3.627071688110017e-19
6.811267156605311e-03 1.810926663919354e-04 3.595565709512925e-19
6.774523113817535e-03 1.208452540930367e-04 3.595516704872520e-19
 6.891970575126661e-03 -6.394589301774065e-04  3.722810533792872e-19
6.973671629657351e-03 8.715392222719625e-05 3.735525237937397e-19
6.422813983027043e-03 2.823542026721147e-03 3.254038319486679e-19
 7.021113308484774e-03 -3.262881926892908e-04  3.689657894775803e-19
 6.694832844000870e-03 -3.111251468319307e-04  3.699097127870885e-19
6.918591934827295e-03 1.093929334387763e-05 3.775123789883620e-19
6.911105510896933e-03 5.324427696759660e-05 3.788801071351491e-19
6.932399267842738e-03 2.555181275317438e-04 3.781736537941016e-19
 6.902004360330311e-03 -6.239006588443529e-05  3.832828387440027e-19
6.870618358778066e-03 4.513108038391641e-05 3.846070431873476e-19
 6.854034436022192e-03 -1.237926733998248e-05  3.885840977493479e-19
6.852320565081844e-03 1.464940513631357e-04 3.894327451635569e-19
 6.864305674920919e-03 -2.205010240491669e-06  3.933412289170103e-19
6.865510773930451e-03 3.190293311470101e-05 3.983188825151088e-19
6.862916164904282e-03 2.553938472645074e-05 4.017927117472277e-19
6.856511414648571e-03 2.551555034221420e-05 4.070766065683320e-19
6.835151858969013e-03 3.975296989220902e-05 4.165229609431776e-19
6.819536911000484e-03 4.652941020344104e-05 4.217375432916341e-19
 6.855395069119714e-03 -1.056291300168932e-05  4.256374073470498e-19
 6.870954176706663e-03 -7.978312080734582e-05  4.296365714084665e-19
 6.926406336979619e-03 -5.991787216989514e-05  4.318552275808767e-19
 6.957667677298582e-03 -2.548012441956427e-04  4.458444997944604e-19
 6.798679129456765e-03 -2.489788218435189e-04  4.540854452097233e-19
6.573233377255186e-03 1.861187586073867e-03 4.356919116367329e-19
 6.838804033828094e-03 -4.358531672109531e-05  4.552426636667609e-19
 6.843505801889636e-03 -1.426673176495081e-04  4.776113912842293e-19
 6.659209507617644e-03 -4.066006993726775e-04  4.778367953929800e-19
6.671728449156859e-03 1.532345588246750e-04 4.809102423314066e-19
6.918441273003176e-03 1.975266365879190e-04 4.856761321990839e-19
 6.882799834165659e-03 -7.023486650315897e-05  4.988737590224890e-19
 6.898637531644887e-03 -1.080118947510631e-04  5.056058293297869e-19
 6.922471403318903e-03 -2.224901574104980e-04  5.305100147781462e-19
6.933424822752118e-03 1.059241988523361e-04 5.541979300661836e-19
 6.941408542613715e-03 -1.624575030043280e-04  5.999896600045089e-19
 6.886718105231998e-03 -1.611775218822395e-04  6.318619275934775e-19
6.683904172877985e-03 5.058134913209719e-04 6.472845751932418e-19
6.611245255376993e-03 6.199772147960555e-05 6.949090452278210e-19
 6.644065240153088e-03 -2.439907158464079e-03  7.334950922737859e-19
 7.077569462044771e-03 -5.553563004127881e-04  8.386038929852635e-19
7.266373465721079e-03 4.943490380775761e-04 8.857979290180956e-19
6.778660252266720e-03 1.358166773827531e-03 9.095609330585177e-19
 6.575791852211575e-03 -3.397934320059770e-05  1.047413298492916e-18
 6.440225785716524e-03 -3.327882742952125e-05  1.170850211142882e-18
 6.739534796380654e-03 -9.240621815228100e-04  1.364985124728492e-18
 7.400256125305759e-03 -2.234528887176712e-04  1.704266946840597e-18
6.908415902035924e-03 1.128312501644474e-03 2.196596984261459e-18
 6.891901797001358e-03 -2.832922261382649e-06  2.577976433653419e-18
 6.703361809324428e-03 -3.580176652346087e-04  3.214641022888376e-18
6.839903989063888e-03 1.387185949928619e-04 4.171879165286539e-18
6.784284685615972e-03 1.192403013149931e-04 5.925786042257734e-18
 6.856065849051499e-03 -2.781814529083526e-04  8.032273782642499e-18
 6.293340548654594e-03 -2.509310445775610e-04  9.904420134270778e-18
6.505296014226614e-03 1.210073850598267e-03 1.090724341998392e-17
 6.914655067690918e-03 -1.147162199460695e-04  1.511884239328730e-17
 6.945942479014179e-03 -6.051433855736329e-04  2.090036131274161e-17
 7.540118625716525e-03 -9.707792167613778e-04  3.463586756203269e-17
6.623544710856632e-03 2.637959278342171e-03 3.615440235805930e-17
6.817136904953986e-03 7.542688754882314e-05 7.082291894498272e-17
6.458134865459345e-03 7.145477919302897e-05 1.257402641445904e-16
 7.100418173663479e-03 -3.251425400284399e-04 -8.634605214282651e-17
 6.027063411352587e-03 -2.760532675276137e-03 -1.771614086980354e-15
6.920808723841709e-03 2.856563153152798e-04 6.337110884331939e-15
 6.982411380037760e-03  6.568843118433161e-04 -1.769362467863162e-15
6.932259266716655e-03 2.861289363644848e-04 6.555488102581486e-15
 6.946504188438335e-03 -1.412112348413122e-05  8.000448809950170e-17
 6.649716519630457e-03 -1.108375553011631e-03  1.274369370066608e-16
6.788427328192798e-03 1.540521896195694e-04 1.033456578559242e-16
6.911840787019515e-03 1.568528550228537e-04 6.635201183278525e-17
 6.870656170625662e-03 -4.926676400653603e-06  4.119833138135573e-17
6.927234715499113e-03 2.726475507092331e-04 2.793805418056297e-17
 6.943501767352916e-03 -8.648096752105973e-05  2.318570872358521e-17
6.867514954018828e-03 1.154637905263714e-04 1.529248304161460e-17
6.937338745918614e-03 3.444005973597845e-04 1.066917349225551e-17
 6.984064644228317e-03 -1.231140059340378e-04  9.326695381374608e-18
 6.960928023652466e-03 -1.598359163777790e-04  6.784870871913932e-18
6.923128336032615e-03 1.922210914282938e-04 4.795952837906546e-18
6.844857828038103e-03 1.412782578165798e-03 3.035042857119967e-18
 6.844959921553039e-03 -8.837706030623843e-04  3.578344403055933e-18
 6.821367914118988e-03 -3.717935970054308e-05  2.594078968764483e-18
6.889017824853858e-03 4.841070738911554e-04 2.045285210007553e-18
7.066306115766167e-03 1.418598572203752e-04 1.941299601895551e-18
 7.028032085325153e-03 -1.739333518816946e-04  1.715181929894740e-18
 7.202026394230186e-03 -1.782394525068444e-04  1.442993001184256e-18
6.916203560192772e-03 7.003092928162239e-04 1.121805559580625e-18
7.034429410476118e-03 1.042887503464802e-03 9.836720133699172e-19
 6.803467409867102e-03 -1.243290842230351e-05  1.040719316458397e-18
 6.754405569047260e-03 -1.380963222040937e-04  9.470157582662314e-19
 7.043914219211157e-03 -1.440154337269669e-04  8.634617073972710e-19
 6.285979086461638e-03 -1.285191693655799e-04  7.825424986561380e-19
4.871630157589120e-03 4.498326089238531e-03 2.099950741904554e-19
 6.150321562496090e-03 -3.631779818038082e-04  7.000292726778120e-19
 6.359466128289076e-03 -1.321615943780067e-03  7.013209461456689e-19
6.863037904013451e-03 1.133119341104887e-04 6.149119041945007e-19
6.985256415367029e-03 1.153298183330834e-04 5.833738050548266e-19
6.883620738649439e-03 9.717928918222711e-05 5.537565473478030e-19
 6.857859089513270e-03 -6.108629080321223e-05  5.347702601912873e-19
6.874000641449694e-03 2.838659194130496e-05 5.099846074357860e-19
 6.856470016504644e-03 -4.270323341399027e-05  4.943383057640382e-19
6.812169137964905e-03 3.686580661322059e-05 4.751009752858267e-19
 6.794589502751223e-03 -1.466148041328656e-04  4.638984380839018e-19
 6.918786202889105e-03 -1.492947415826984e-04  4.518038495517599e-19
 6.955638553088514e-03 -5.239901450870336e-04  4.509056676721067e-19
6.726505015089691e-03 5.817309792004911e-04 4.170784061372963e-19
6.632320394095764e-03 5.735855735740157e-04 3.984131452109409e-19
 6.487537241336755e-03 -2.309266147169702e-03  4.292069376896052e-19
 6.949832056796779e-03 -5.239902542432607e-04  4.239163372739683e-19
 6.829825355186754e-03 -5.149422165966484e-04  4.211852714787855e-19
2.505489658210228e-03 6.276423765204706e-03 5.772637602678502e-20
 7.000710616405140e-03 -1.787726771147739e-04  3.969674759570817e-19
 6.557428468814481e-03 -1.674528639437701e-04  3.872631655482838e-19
 6.828757499715270e-03 -1.347491469475399e-03  4.036460497554435e-19
6.967611431614355e-03 5.076137997047172e-04 3.872838017383340e-19
6.676802420295409e-03 1.096703897183824e-03 3.572457192091404e-19
 6.510555306464815e-03 -8.330861216180999e-04  3.787428479527590e-19
7.025329143116183e-03 3.231228544625609e-05 3.830874429900535e-19
6.876423593349628e-03 2.118824637172643e-04 3.698308698166346e-19
 5.976116773642577e-03 -3.360643060591309e-03  3.585299492506352e-19
6.929317948719156e-03 3.934002958179820e-04 3.719130770373018e-19
 6.924880059021980e-03 -2.408151793078478e-04  3.725871674004374e-19
7.016485992148603e-03 4.519243256461981e-04 3.648680707758822e-19
 6.943219388872685e-03 -8.217276005010355e-04  3.740784490169719e-19
6.917688996177166e-03 2.907703926031991e-04 3.667645712811825e-19
 6.822419912760642e-03 -7.731185222945528e-04  3.719003867862107e-19
6.933209198508089e-03 5.137704751801571e-04 3.613944688182167e-19
 6.591297530310495e-03 -6.225909535660959e-04  3.637342670372851e-19
6.170738145265801e-03 1.944658200949377e-03 3.245667185453603e-19
 7.209672620204534e-03 -1.705886762398060e-04  3.666241731723614e-19
 7.481763190357527e-03 -1.137964688532862e-03  3.783580257776578e-19
 7.540777283836419e-03 -1.382303931924405e-03  3.881922779301026e-19
 7.226581503096091e-03 -2.546717692897294e-04  3.887351415005209e-19
6.508484308764030e-03 1.955900132380991e-03 3.443391109498994e-19
7.055640439524351e-03 2.668789904303267e-03 3.109121509099546e-19
 6.377973500634648e-03 -1.976888633476327e-03  3.491612475969325e-19
6.885418416906495e-03 1.591830751895074e-04 3.648338862992971e-19
5.571831534389040e-03 3.998281555363047e-03 2.634635355236054e-19
6.927736396870512e-03 3.603128706439806e-04 3.479226286814353e-19
 6.860487231089004e-03 -1.389857712031782e-03  3.573030692288124e-19
 6.675461590821739e-03 -3.549359545469274e-04  3.572756044449812e-19
6.772114011006013e-03 7.583625014279374e-04 3.490589730586117e-19
7.285286488654159e-03 5.542867115990740e-04 3.541743236953013e-19
 6.879414352185383e-03 -1.162874339091050e-04  3.516802764794558e-19
6.897187924226291e-03 1.003452308337401e-04 3.509226504415797e-19
6.880459244748476e-03 5.691307778008367e-05 3.494601403573502e-19
6.858292842080780e-03 5.672972400175930e-05 3.487192494215357e-19
6.827751328296472e-03 5.647709383744946e-05 3.476688332119864e-19
6.901161930515090e-03 9.441789242849054e-05 3.479102593930965e-19
 6.891370414386651e-03 -1.160303954608445e-04  3.487146580811841e-19
 7.016311499694250e-03 -1.181340356174210e-04  3.521265132874315e-19
6.986831333002720e-03 1.937197781347450e-04 3.484521108302198e-19
6.809105820962810e-03 1.647545280248684e-04 3.426215469873928e-19
6.625139745412412e-03 1.603032469393869e-04 3.370043464820357e-19
 6.624011331359624e-03 -2.834780976458003e-05  3.357233194687558e-19
 5.309332326962763e-03 -4.205520948032972e-03  2.895263033593357e-19
 6.653588466155541e-03 -1.288282561059886e-04  3.406687797599508e-19
 6.908173177884619e-03 -1.395216432980043e-05  3.437154360636724e-19
 6.857875242854134e-03 -2.622571873766139e-05  3.418191437644188e-19
6.798595676488173e-03 1.911273923459222e-05 3.392305922494572e-19
 6.770463432379468e-03 -1.275688675090746e-04  3.385696538094708e-19
 6.798890253054590e-03 -1.281044848056788e-04  3.389239301302792e-19
 6.777202416043895e-03 -3.590343687044933e-05  3.365815255453984e-19
 6.705281707010196e-03 -3.552242410471633e-05  3.337403113829232e-19
 6.654325038393756e-03 -3.525247207694928e-05  3.311116942778104e-19
 6.662722059661570e-03 -2.404750644359418e-04  3.315224106396725e-19
 6.698446766653922e-03 -6.200580922825556e-05  3.311313440492751e-19
 6.817306673048025e-03 -6.310606499462968e-05  3.331745684130584e-19
 6.808768631008683e-03 -6.302703052226368e-05  3.354087085699659e-19
6.736362171053883e-03 8.279419961446392e-04 3.277264763059372e-19
6.827762533794169e-03 1.842751368010655e-04 3.322069927195365e-19
5.886905890545224e-03 1.588822667668838e-04 3.204906664383171e-19
5.533290397676137e-03 4.685132614356912e-03 2.297863125175394e-19
 6.266992014212379e-03 -1.389929295514126e-03  3.223101971957311e-19
6.404214183641223e-03 1.999459254808181e-03 3.100282038358514e-19
 9.568579629185951e-03 -1.848269202128356e-03  3.898739405332218e-19
-3.879353806986129e-04 -4.402337314115521e-03 -3.621797531882106e-20
4.780358046681879e-03 1.859597863556176e-03 3.098823389744398e-19
7.073546996626551e-03 3.120763440800307e-04 3.407798999325480e-19
 6.819575598824348e-03 -1.056515739915794e-03  3.448544194829742e-19
6.444564021832830e-03 7.190664988295227e-04 3.376988487919160e-19
 7.222440695579496e-03 -1.012190662751342e-05  3.523720293690762e-19
 7.072966867057851e-03 -7.975438046410402e-05  3.487291250567930e-19
 6.897547509448226e-03 -7.777636155767778e-05  3.459516080851875e-19
6.794761841735973e-03 1.979065872063417e-04 3.390972055516149e-19
 7.594225151779942e-03 -1.016664742182601e-03  3.570375693028084e-19
 6.936079116853290e-03 -2.327321678147824e-03  3.492922320996898e-19
 6.814956288860105e-03 -1.094976552776873e-03  3.577331994465350e-19
7.512998104410382e-03 3.418589622565648e-04 3.647662616756887e-19
7.404160448652291e-03 7.828522418240165e-04 3.474177188386265e-19
 8.056204798881547e-03 -1.447834848192719e-03  3.700157958785985e-19
 7.458378240794507e-03 -2.898716752808648e-03  3.717918372197569e-19
8.243420900115882e-03 1.494228750875502e-03 3.782323601857775e-19
8.381823754705772e-03 7.413436129210341e-04 3.684029524109815e-19
 7.804384241833925e-03 -1.751304983514345e-03  3.738538226584012e-19
 8.264593451776299e-03 -1.507150802370362e-04  3.854643206414050e-19
7.861674507758730e-03 4.143425006983935e-04 3.788909110896016e-19
7.498174753003639e-03 1.785397256899465e-03 3.564710689692890e-19
7.390190398290165e-03 1.598846676493209e-03 3.418574729672306e-19
6.956161472210505e-03 1.722513909416339e-04 3.419695014735993e-19
6.879835765531476e-03 1.109128944725802e-03 3.302777780654917e-19
 1.446610635860719e-03 -7.622606108222900e-03  1.045257071023365e-19
6.798177571975212e-03 3.346651256104359e-05 3.409006392136949e-19
6.453639368214543e-03 1.562071999330885e-03 3.195354777362390e-19
6.167201187132762e-03 3.294025368079695e-04 3.145895953375386e-19
 6.698584232693667e-03 -2.176554231441080e-03  3.320892589966469e-19
7.865172486508693e-03 2.790195882010951e-04 3.647433714150438e-19
7.123613060872878e-03 1.340629379692278e-03 3.403429815227099e-19
6.385862285240417e-03 2.442612998440106e-03 2.960171857068000e-19
 6.143650954727731e-03 -1.194043788270451e-04  3.114837512379950e-19
 6.218791165442055e-03 -1.208647596741003e-04  3.192905264058515e-19
 6.577285441411636e-03 -1.278322431217494e-04  3.273638069317339e-19
 6.764627494263476e-03 -1.314733128397065e-04  3.315471257157435e-19
 6.861096486908554e-03 -6.172782667207220e-05  3.333179086338627e-19
 6.935418693413277e-03 -4.645268796607922e-05  3.357023786397645e-19
6.769141780487784e-03 6.915213753132955e-04 3.257782177911449e-19
 6.278066124296400e-03 -1.074720016168277e-03  3.229238898234904e-19
6.205834830845325e-03 2.031096475218176e-03 3.051911868567514e-19
 6.786515583087908e-03 -8.125515200616059e-04  3.339716743164053e-19
6.637546830547124e-03 1.517138743574056e-03 3.198967606338665e-19
 6.981938339407628e-03 -7.428680367806242e-04  3.456164990828368e-19
6.993004353727925e-03 1.164846796465612e-03 3.674613909060205e-19
 7.027503087981285e-03 -7.944019487163222e-04  1.125081671193199e-19
5.773493208156700e-03 3.747629178525579e-03 8.683107145042558e-20
 7.240619257914105e-03 -3.693907851718386e-04 -1.370728720039505e-18
7.313609792231409e-03 1.485011409143011e-03 2.405067244331635e-19
 6.455170919308180e-03 -2.697769988996565e-03  2.844424322673278e-19
5.688019480016754e-03 1.175334869094982e-03 2.415835989086923e-19
7.015709952656895e-03 5.339255830274262e-04 3.530561306876893e-19
6.582606734288433e-03 1.914231518351520e-05 3.298547930065246e-19
 6.876152871157268e-03 -9.014304397182312e-04  3.325571235564637e-19
 7.015717261511224e-03 -3.239540063427485e-04  3.403673209430466e-19
6.958976485463419e-03 8.297974223413543e-05 3.394695920324501e-19
6.880466727140668e-03 1.069480783074396e-03 3.253382299538692e-19
 6.679736465031933e-03 -1.114914835023482e-04  3.254902249810646e-19
 6.653877757013327e-03 -3.141993669901664e-06  3.265113810875119e-19
 6.658552484162489e-03 -3.144201098959963e-06  3.260806242844360e-19
 6.669012155680299e-03 -3.149140207085831e-06  3.250800607106802e-19
 6.333995097195426e-03 -7.956149306977154e-04  3.232387949924794e-19
6.328412299115314e-03 1.223009945996985e-03 3.142479821078703e-19
 6.996179413824010e-03 -2.922620046738423e-04  3.302424148795962e-19
 6.626843218375011e-03 -6.240981221059272e-04  3.275060048419264e-19
 6.752628388318986e-03 -7.449265185871770e-05  3.300574819636018e-19
 6.809149911016672e-03 -7.511617767277352e-05  3.298065921943591e-19
 6.894940463075063e-03 -1.971372100981371e-04  3.319063325678842e-19
 6.753054012980954e-03 -3.300121904796471e-04  3.308205544330221e-19
6.787065823841992e-03 1.214062659321636e-04 3.298933113798388e-19

VECTORS velocity double
0.000000000000000e+00 0.000000000000000e+00 0.000000000000000e+00
0.000000000000000e+00 0.000000000000000e+00 0.000000000000000e+00
0.000000000000000e+00 0.000000000000000e+00 0.000000000000000e+00
0.000000000000000e+00 0.000000000000000e+00 0.000000000000000e+00
0.000000000000000e+00 0.000000000000000e+00 0.000000000000000e+00
0.000000000000000e+00 0.000000000000000e+00 0.000000000000000e+00
0.000000000000000e+00 0.000000000000000e+00 0.000000000000000e+00
0.000000000000000e+00 0.000000000000000e+00 0.000000000000000e+00
0.000000000000000e+00 0.000000000000000e+00 0.000000000000000e+00
0.000000000000000e+00 0.000000000000000e+00 0.000000000000000e+00
0.000000000000000e+00 0.000000000000000e+00 0.000000000000000e+00
0.000000000000000e+00 0.000000000000000e+00 0.000000000000000e+00
0.000000000000000e+00 0.000000000000000e+00 0.000000000000000e+00
0.000000000000000e+00 0.000000000000000e+00 0.000000000000000e+00
0.000000000000000e+00 0.000000000000000e+00 0.000000000000000e+00
0.000000000000000e+00 0.000000000000000e+00 0.000000000000000e+00
0.000000000000000e+00 0.000000000000000e+00 0.000000000000000e+00
0.000000000000000e+00 0.000000000000000e+00 0.000000000000000e+00
0.000000000000000e+00 0.000000000000000e+00 0.000000000000000e+00
0.000000000000000e+00 0.000000000000000e+00 0.000000000000000e+00
0.000000000000000e+00 0.000000000000000e+00 0.000000000000000e+00
0.000000000000000e+00 0.000000000000000e+00 0.000000000000000e+00
0.000000000000000e+00 0.000000000000000e+00 0.000000000000000e+00
0.000000000000000e+00 0.000000000000000e+00 0.000000000000000e+00
0.000000000000000e+00 0.000000000000000e+00 0.000000000000000e+00
0.000000000000000e+00 0.000000000000000e+00 0.000000000000000e+00
0.000000000000000e+00 0.000000000000000e+00 0.000000000000000e+00
0.000000000000000e+00 0.000000000000000e+00 0.000000000000000e+00
0.000000000000000e+00 0.000000000000000e+00 0.000000000000000e+00
0.000000000000000e+00 0.000000000000000e+00 0.000000000000000e+00
0.000000000000000e+00 0.000000000000000e+00 0.000000000000000e+00
0.000000000000000e+00 0.000000000000000e+00 0.000000000000000e+00
0.000000000000000e+00 0.000000000000000e+00 0.000000000000000e+00
0.000000000000000e+00 0.000000000000000e+00 0.000000000000000e+00
0.000000000000000e+00 0.000000000000000e+00 0.000000000000000e+00
0.000000000000000e+00 0.000000000000000e+00 0.000000000000000e+00
0.000000000000000e+00 0.000000000000000e+00 0.000000000000000e+00
0.000000000000000e+00 0.000000000000000e+00 0.000000000000000e+00
0.000000000000000e+00 0.000000000000000e+00 0.000000000000000e+00
0.000000000000000e+00 0.000000000000000e+00 0.000000000000000e+00
0.000000000000000e+00 0.000000000000000e+00 0.000000000000000e+00
0.000000000000000e+00 0.000000000000000e+00 0.000000000000000e+00
0.000000000000000e+00 0.000000000000000e+00 0.000000000000000e+00
0.000000000000000e+00 0.000000000000000e+00 0.000000000000000e+00
0.000000000000000e+00 0.000000000000000e+00 0.000000000000000e+00
0.000000000000000e+00 0.000000000000000e+00 0.000000000000000e+00
0.000000000000000e+00 0.000000000000000e+00 0.000000000000000e+00
0.000000000000000e+00 0.000000000000000e+00 0.000000000000000e+00
0.000000000000000e+00 0.000000000000000e+00 0.000000000000000e+00
0.000000000000000e+00 0.000000000000000e+00 0.000000000000000e+00
0.000000000000000e+00 0.000000000000000e+00 0.000000000000000e+00
0.000000000000000e+00 0.000000000000000e+00 0.000000000000000e+00
0.000000000000000e+00 0.000000000000000e+00 0.000000000000000e+00
0.000000000000000e+00 0.000000000000000e+00 0.000000000000000e+00
0.000000000000000e+00 0.000000000000000e+00 0.000000000000000e+00
0.000000000000000e+00 0.000000000000000e+00 0.000000000000000e+00
0.000000000000000e+00 0.000000000000000e+00 0.000000000000000e+00
0.000000000000000e+00 0.000000000000000e+00 0.000000000000000e+00
0.000000000000000e+00 0.000000000000000e+00 0.000000000000000e+00
0.000000000000000e+00 0.000000000000000e+00 0.000000000000000e+00
0.000000000000000e+00 0.000000000000000e+00 0.000000000000000e+00
0.000000000000000e+00 0.000000000000000e+00 0.000000000000000e+00
0.000000000000000e+00 0.000000000000000e+00 0.000000000000000e+00
0.000000000000000e+00 0.000000000000000e+00 0.000000000000000e+00
0.000000000000000e+00 0.000000000000000e+00 0.000000000000000e+00
0.000000000000000e+00 0.000000000000000e+00 0.000000000000000e+00
0.000000000000000e+00 0.000000000000000e+00 0.000000000000000e+00
0.000000000000000e+00 0.000000000000000e+00 0.000000000000000e+00
0.000000000000000e+00 0.000000000000000e+00 0.000000000000000e+00
0.000000000000000e+00 0.000000000000000e+00 0.000000000000000e+00
0.000000000000000e+00 0.000000000000000e+00 0.000000000000000e+00
0.000000000000000e+00 0.000000000000000e+00 0.000000000000000e+00
0.000000000000000e+00 0.000000000000000e+00 0.000000000000000e+00
0.000000000000000e+00 0.000000000000000e+00 0.000000000000000e+00
0.000000000000000e+00 0.000000000000000e+00 0.000000000000000e+00
0.000000000000000e+00 0.000000000000000e+00 0.000000000000000e+00
0.000000000000000e+00 0.000000000000000e+00 0.000000000000000e+00
0.000000000000000e+00 0.000000000000000e+00 0.000000000000000e+00
0.000000000000000e+00 0.000000000000000e+00 0.000000000000000e+00
0.000000000000000e+00 0.000000000000000e+00 0.000000000000000e+00
0.000000000000000e+00 0.000000000000000e+00 0.000000000000000e+00
0.000000000000000e+00 0.000000000000000e+00 0.000000000000000e+00
0.000000000000000e+00 0.000000000000000e+00 0.000000000000000e+00
0.000000000000000e+00 0.000000000000000e+00 0.000000000000000e+00
0.000000000000000e+00 0.000000000000000e+00 0.000000000000000e+00
0.000000000000000e+00 0.000000000000000e+00 0.000000000000000e+00
0.000000000000000e+00 0.000000000000000e+00 0.000000000000000e+00
0.000000000000000e+00 0.000000000000000e+00 0.000000000000000e+00
0.000000000000000e+00 0.000000000000000e+00 0.000000000000000e+00
0.000000000000000e+00 0.000000000000000e+00 0.000000000000000e+00
0.000000000000000e+00 0.000000000000000e+00 0.000000000000000e+00
0.000000000000000e+00 0.000000000000000e+00 0.000000000000000e+00
0.000000000000000e+00 0.000000000000000e+00 0.000000000000000e+00
0.000000000000000e+00 0.000000000000000e+00 0.000000000000000e+00
0.000000000000000e+00 0.000000000000000e+00 0.000000000000000e+00
0.000000000000000e+00 0.000000000000000e+00 0.000000000000000e+00
0.000000000000000e+00 0.000000000000000e+00 0.000000000000000e+00
0.000000000000000e+00 0.000000000000000e+00 0.000000000000000e+00
0.000000000000000e+00 0.000000000000000e+00 0.000000000000000e+00
0.000000000000000e+00 0.000000000000000e+00 0.000000000000000e+00
0.000000000000000e+00 0.000000000000000e+00 0.000000000000000e+00
0.000000000000000e+00 0.000000000000000e+00 0.000000000000000e+00
0.000000000000000e+00 0.000000000000000e+00 0.000000000000000e+00
0.000000000000000e+00 0.000000000000000e+00 0.000000000000000e+00
0.000000000000000e+00 0.000000000000000e+00 0.000000000000000e+00
0.000000000000000e+00 0.000000000000000e+00 0.000000000000000e+00
0.000000000000000e+00 0.000000000000000e+00 0.000000000000000e+00
0.000000000000000e+00 0.000000000000000e+00 0.000000000000000e+00
0.000000000000000e+00 0.000000000000000e+00 0.000000000000000e+00
0.000000000000000e+00 0.000000000000000e+00 0.000000000000000e+00
0.000000000000000e+00 0.000000000000000e+00 0.000000000000000e+00
0.000000000000000e+00 0.000000000000000e+00 0.000000000000000e+00
0.000000000000000e+00 0.000000000000000e+00 0.000000000000000e+00
0.000000000000000e+00 0.000000000000000e+00 0.000000000000000e+00
0.000000000000000e+00 0.000000000000000e+00 0.000000000000000e+00
0.000000000000000e+00 0.000000000000000e+00 0.000000000000000e+00
0.000000000000000e+00 0.000000000000000e+00 0.000000000000000e+00
0.000000000000000e+00 0.000000000000000e+00 0.000000000000000e+00
0.000000000000000e+00 0.000000000000000e+00 0.000000000000000e+00
0.000000000000000e+00 0.000000000000000e+00 0.000000000000000e+00
0.000000000000000e+00 0.000000000000000e+00 0.000000000000000e+00
0.000000000000000e+00 0.000000000000000e+00 0.000000000000000e+00
0.000000000000000e+00 0.000000000000000e+00 0.000000000000000e+00
0.000000000000000e+00 0.000000000000000e+00 0.000000000000000e+00
0.000000000000000e+00 0.000000000000000e+00 0.000000000000000e+00
0.000000000000000e+00 0.000000000000000e+00 0.000000000000000e+00
0.000000000000000e+00 0.000000000000000e+00 0.000000000000000e+00
0.000000000000000e+00 0.000000000000000e+00 0.000000000000000e+00
0.000000000000000e+00 0.000000000000000e+00 0.000000000000000e+00
0.000000000000000e+00 0.000000000000000e+00 0.000000000000000e+00
0.000000000000000e+00 0.000000000000000e+00 0.000000000000000e+00
0.000000000000000e+00 0.000000000000000e+00 0.000000000000000e+00
0.000000000000000e+00 0.000000000000000e+00 0.000000000000000e+00
0.000000000000000e+00 0.000000000000000e+00 0.000000000000000e+00
0.000000000000000e+00 0.000000000000000e+00 0.000000000000000e+00
0.000000000000000e+00 0.000000000000000e+00 0.000000000000000e+00
0.000000000000000e+00 0.000000000000000e+00 0.000000000000000e+00
0.000000000000000e+00 0.000000000000000e+00 0.000000000000000e+00
0.000000000000000e+00 0.000000000000000e+00 0.000000000000000e+00
0.000000000000000e+00 0.000000000000000e+00 0.000000000000000e+00
0.000000000000000e+00 0.000000000000000e+00 0.000000000000000e+00
0.000000000000000e+00 0.000000000000000e+00 0.000000000000000e+00
0.000000000000000e+00 0.000000000000000e+00 0.000000000000000e+00
0.000000000000000e+00 0.000000000000000e+00 0.000000000000000e+00
0.000000000000000e+00 0.000000000000000e+00 0.000000000000000e+00
0.000000000000000e+00 0.000000000000000e+00 0.000000000000000e+00
0.000000000000000e+00 0.000000000000000e+00 0.000000000000000e+00
0.000000000000000e+00 0.000000000000000e+00 0.000000000000000e+00
0.000000000000000e+00 0.000000000000000e+00 0.000000000000000e+00
0.000000000000000e+00 0.000000000000000e+00 0.000000000000000e+00
0.000000000000000e+00 0.000000000000000e+00 0.000000000000000e+00
0.000000000000000e+00 0.000000000000000e+00 0.000000000000000e+00
0.000000000000000e+00 0.000000000000000e+00 0.000000000000000e+00
0.000000000000000e+00 0.000000000000000e+00 0.000000000000000e+00
0.000000000000000e+00 0.000000000000000e+00 0.000000000000000e+00
0.000000000000000e+00 0.000000000000000e+00 0.000000000000000e+00
0.000000000000000e+00 0.000000000000000e+00 0.000000000000000e+00
0.000000000000000e+00 0.000000000000000e+00 0.000000000000000e+00
0.000000000000000e+00 0.000000000000000e+00 0.000000000000000e+00
0.000000000000000e+00 0.000000000000000e+00 0.000000000000000e+00
0.000000000000000e+00 0.000000000000000e+00 0.000000000000000e+00
0.000000000000000e+00 0.000000000000000e+00 0.000000000000000e+00
0.000000000000000e+00 0.000000000000000e+00 0.000000000000000e+00
0.000000000000000e+00 0.000000000000000e+00 0.000000000000000e+00
0.000000000000000e+00 0.000000000000000e+00 0.000000000000000e+00
0.000000000000000e+00 0.000000000000000e+00 0.000000000000000e+00
0.000000000000000e+00 0.000000000000000e+00 0.000000000000000e+00
0.000000000000000e+00 0.000000000000000e+00 0.000000000000000e+00
0.000000000000000e+00 0.000000000000000e+00 0.000000000000000e+00
0.000000000000000e+00 0.000000000000000e+00 0.000000000000000e+00
0.000000000000000e+00 0.000000000000000e+00 0.000000000000000e+00
0.000000000000000e+00 0.000000000000000e+00 0.000000000000000e+00
0.000000000000000e+00 0.000000000000000e+00 0.000000000000000e+00
0.000000000000000e+00 0.000000000000000e+00 0.000000000000000e+00
0.000000000000000e+00 0.000000000000000e+00 0.000000000000000e+00
0.000000000000000e+00 0.000000000000000e+00 0.000000000000000e+00
0.000000000000000e+00 0.000000000000000e+00 0.000000000000000e+00
0.000000000000000e+00 0.000000000000000e+00 0.000000000000000e+00
0.000000000000000e+00 0.000000000000000e+00 0.000000000000000e+00
0.000000000000000e+00 0.000000000000000e+00 0.000000000000000e+00
0.000000000000000e+00 0.000000000000000e+00 0.000000000000000e+00
0.000000000000000e+00 0.000000000000000e+00 0.000000000000000e+00
0.000000000000000e+00 0.000000000000000e+00 0.000000000000000e+00
0.000000000000000e+00 0.000000000000000e+00 0.000000000000000e+00
0.000000000000000e+00 0.000000000000000e+00 0.000000000000000e+00
0.000000000000000e+00 0.000000000000000e+00 0.000000000000000e+00
0.000000000000000e+00 0.000000000000000e+00 0.000000000000000e+00
0.000000000000000e+00 0.000000000000000e+00 0.000000000000000e+00
0.000000000000000e+00 0.000000000000000e+00 0.000000000000000e+00
0.000000000000000e+00 0.000000000000000e+00 0.000000000000000e+00
0.000000000000000e+00 0.000000000000000e+00 0.000000000000000e+00
0.000000000000000e+00 0.000000000000000e+00 0.000000000000000e+00
0.000000000000000e+00 0.000000000000000e+00 0.000000000000000e+00
0.000000000000000e+00 0.000000000000000e+00 0.000000000000000e+00
0.000000000000000e+00 0.000000000000000e+00 0.000000000000000e+00
0.000000000000000e+00 0.000000000000000e+00 0.000000000000000e+00
0.000000000000000e+00 0.000000000000000e+00 0.000000000000000e+00
0.000000000000000e+00 0.000000000000000e+00 0.000000000000000e+00
0.000000000000000e+00 0.000000000000000e+00 0.000000000000000e+00
0.000000000000000e+00 0.000000000000000e+00 0.000000000000000e+00
0.000000000000000e+00 0.000000000000000e+00 0.000000000000000e+00
0.000000000000000e+00 0.000000000000000e+00 0.000000000000000e+00
0.000000000000000e+00 0.000000000000000e+00 0.000000000000000e+00
0.000000000000000e+00 0.000000000000000e+00 0.000000000000000e+00
0.000000000000000e+00 0.000000000000000e+00 0.000000000000000e+00
0.000000000000000e+00 0.000000000000000e+00 0.000000000000000e+00
0.000000000000000e+00 0.000000000000000e+00 0.000000000000000e+00
0.000000000000000e+00 0.000000000000000e+00 0.000000000000000e+00
0.000000000000000e+00 0.000000000000000e+00 0.000000000000000e+00
0.000000000000000e+00 0.000000000000000e+00 0.000000000000000e+00
0.000000000000000e+00 0.000000000000000e+00 0.000000000000000e+00
0.000000000000000e+00 0.000000000000000e+00 0.000000000000000e+00
0.000000000000000e+00 0.000000000000000e+00 0.000000000000000e+00
0.000000000000000e+00 0.000000000000000e+00 0.000000000000000e+00
0.000000000000000e+00 0.000000000000000e+00 0.000000000000000e+00
0.000000000000000e+00 0.000000000000000e+00 0.000000000000000e+00
0.000000000000000e+00 0.000000000000000e+00 0.000000000000000e+00
0.000000000000000e+00 0.000000000000000e+00 0.000000000000000e+00
0.000000000000000e+00 0.000000000000000e+00 0.000000000000000e+00
0.000000000000000e+00 0.000000000000000e+00 0.000000000000000e+00
0.000000000000000e+00 0.000000000000000e+00 0.000000000000000e+00
0.000000000000000e+00 0.000000000000000e+00 0.000000000000000e+00
0.000000000000000e+00 0.000000000000000e+00 0.000000000000000e+00
0.000000000000000e+00 0.000000000000000e+00 0.000000000000000e+00
0.000000000000000e+00 0.000000000000000e+00 0.000000000000000e+00
0.000000000000000e+00 0.000000000000000e+00 0.000000000000000e+00
0.000000000000000e+00 0.000000000000000e+00 0.000000000000000e+00
0.000000000000000e+00 0.000000000000000e+00 0.000000000000000e+00
0.000000000000000e+00 0.000000000000000e+00 0.000000000000000e+00
0.000000000000000e+00 0.000000000000000e+00 0.000000000000000e+00
0.000000000000000e+00 0.000000000000000e+00 0.000000000000000e+00
0.000000000000000e+00 0.000000000000000e+00 0.000000000000000e+00
0.000000000000000e+00 0.000000000000000e+00 0.000000000000000e+00
0.000000000000000e+00 0.000000000000000e+00 0.000000000000000e+00
0.000000000000000e+00 0.000000000000000e+00 0.000000000000000e+00
0.000000000000000e+00 0.000000000000000e+00 0.000000000000000e+00
0.000000000000000e+00 0.000000000000000e+00 0.000000000000000e+00
0.000000000000000e+00 0.000000000000000e+00 0.000000000000000e+00
0.000000000000000e+00 0.000000000000000e+00 0.000000000000000e+00
0.000000000000000e+00 0.000000000000000e+00 0.000000000000000e+00
0.000000000000000e+00 0.000000000000000e+00 0.000000000000000e+00
0.000000000000000e+00 0.000000000000000e+00 0.000000000000000e+00
0.000000000000000e+00 0.000000000000000e+00 0.000000000000000e+00
0.000000000000000e+00 0.000000000000000e+00 0.000000000000000e+00
0.000000000000000e+00 0.000000000000000e+00 0.000000000000000e+00
0.000000000000000e+00 0.000000000000000e+00 0.000000000000000e+00
0.000000000000000e+00 0.000000000000000e+00 0.000000000000000e+00
0.000000000000000e+00 0.000000000000000e+00 0.000000000000000e+00
0.000000000000000e+00 0.000000000000000e+00 0.000000000000000e+00
0.000000000000000e+00 0.000000000000000e+00 0.000000000000000e+00
0.000000000000000e+00 0.000000000000000e+00 0.000000000000000e+00
0.000000000000000e+00 0.000000000000000e+00 0.000000000000000e+00
0.000000000000000e+00 0.000000000000000e+00 0.000000000000000e+00
0.000000000000000e+00 0.000000000000000e+00 0.000000000000000e+00
0.000000000000000e+00 0.000000000000000e+00 0.000000000000000e+00
0.000000000000000e+00 0.000000000000000e+00 0.000000000000000e+00
0.000000000000000e+00 0.000000000000000e+00 0.000000000000000e+00
0.000000000000000e+00 0.000000000000000e+00 0.000000000000000e+00
0.000000000000000e+00 0.000000000000000e+00 0.000000000000000e+00
0.000000000000000e+00 0.000000000000000e+00 0.000000000000000e+00
0.000000000000000e+00 0.000000000000000e+00 0.000000000000000e+00
0.000000000000000e+00 0.000000000000000e+00 0.000000000000000e+00
0.000000000000000e+00 0.000000000000000e+00 0.000000000000000e+00
0.000000000000000e+00 0.000000000000000e+00 0.000000000000000e+00
0.000000000000000e+00 0.000000000000000e+00 0.000000000000000e+00
0.000000000000000e+00 0.000000000000000e+00 0.000000000000000e+00
0.000000000000000e+00 0.000000000000000e+00 0.000000000000000e+00
0.000000000000000e+00 0.000000000000000e+00 0.000000000000000e+00
0.000000000000000e+00 0.000000000000000e+00 0.000000000000000e+00
0.000000000000000e+00 0.000000000000000e+00 0.000000000000000e+00
0.000000000000000e+00 0.000000000000000e+00 0.000000000000000e+00
0.000000000000000e+00 0.000000000000000e+00 0.000000000000000e+00
0.000000000000000e+00 0.000000000000000e+00 0.000000000000000e+00
0.000000000000000e+00 0.000000000000000e+00 0.000000000000000e+00
0.000000000000000e+00 0.000000000000000e+00 0.000000000000000e+00
0.000000000000000e+00 0.000000000000000e+00 0.000000000000000e+00
0.000000000000000e+00 0.000000000000000e+00 0.000000000000000e+00
0.000000000000000e+00 0.000000000000000e+00 0.000000000000000e+00
0.000000000000000e+00 0.000000000000000e+00 0.000000000000000e+00
0.000000000000000e+00 0.000000000000000e+00 0.000000000000000e+00
0.000000000000000e+00 0.000000000000000e+00 0.000000000000000e+00
0.000000000000000e+00 0.000000000000000e+00 0.000000000000000e+00
0.000000000000000e+00 0.000000000000000e+00 0.000000000000000e+00
0.000000000000000e+00 0.000000000000000e+00 0.000000000000000e+00
0.000000000000000e+00 0.000000000000000e+00 0.000000000000000e+00
0.000000000000000e+00 0.000000000000000e+00 0.000000000000000e+00
0.000000000000000e+00 0.000000000000000e+00 0.000000000000000e+00
0.000000000000000e+00 0.000000000000000e+00 0.000000000000000e+00
0.000000000000000e+00 0.000000000000000e+00 0.000000000000000e+00
0.000000000000000e+00 0.000000000000000e+00 0.000000000000000e+00
0.000000000000000e+00 0.000000000000000e+00 0.000000000000000e+00
0.000000000000000e+00 0.000000000000000e+00 0.000000000000000e+00
0.000000000000000e+00 0.000000000000000e+00 0.000000000000000e+00
0.000000000000000e+00 0.000000000000000e+00 0.000000000000000e+00
0.000000000000000e+00 0.000000000000000e+00 0.000000000000000e+00
0.000000000000000e+00 0.000000000000000e+00 0.000000000000000e+00
0.000000000000000e+00 0.000000000000000e+00 0.000000000000000e+00
0.000000000000000e+00 0.000000000000000e+00 0.000000000000000e+00
0.000000000000000e+00 0.000000000000000e+00 0.000000000000000e+00
0.000000000000000e+00 0.000000000000000e+00 0.000000000000000e+00
0.000000000000000e+00 0.000000000000000e+00 0.000000000000000e+00
0.000000000000000e+00 0.000000000000000e+00 0.000000000000000e+00
0.000000000000000e+00 0.000000000000000e+00 0.000000000000000e+00
0.000000000000000e+00 0.000000000000000e+00 0.000000000000000e+00
0.000000000000000e+00 0.000000000000000e+00 0.000000000000000e+00
0.000000000000000e+00 0.000000000000000e+00 0.000000000000000e+00
0.000000000000000e+00 0.000000000000000e+00 0.000000000000000e+00
0.000000000000000e+00 0.000000000000000e+00 0.000000000000000e+00
0.000000000000000e+00 0.000000000000000e+00 0.000000000000000e+00
0.000000000000000e+00 0.000000000000000e+00 0.000000000000000e+00
0.000000000000000e+00 0.000000000000000e+00 0.000000000000000e+00
0.000000000000000e+00 0.000000000000000e+00 0.000000000000000e+00
0.000000000000000e+00 0.000000000000000e+00 0.000000000000000e+00
0.000000000000000e+00 0.000000000000000e+00 0.000000000000000e+00
0.000000000000000e+00 0.000000000000000e+00 0.000000000000000e+00
0.000000000000000e+00 0.000000000000000e+00 0.000000000000000e+00
0.000000000000000e+00 0.000000000000000e+00 0.000000000000000e+00
0.000000000000000e+00 0.000000000000000e+00 0.000000000000000e+00
0.000000000000000e+00 0.000000000000000e+00 0.000000000000000e+00
0.000000000000000e+00 0.000000000000000e+00 0.000000000000000e+00
0.000000000000000e+00 0.000000000000000e+00 0.000000000000000e+00
0.000000000000000e+00 0.000000000000000e+00 0.000000000000000e+00
0.000000000000000e+00 0.000000000000000e+00 0.000000000000000e+00
0.000000000000000e+00 0.000000000000000e+00 0.000000000000000e+00
0.000000000000000e+00 0.000000000000000e+00 0.000000000000000e+00
0.000000000000000e+00 0.000000000000000e+00 0.000000000000000e+00
0.000000000000000e+00 0.000000000000000e+00 0.000000000000000e+00
0.000000000000000e+00 0.000000000000000e+00 0.000000000000000e+00
0.000000000000000e+00 0.000000000000000e+00 0.000000000000000e+00
0.000000000000000e+00 0.000000000000000e+00 0.000000000000000e+00
0.000000000000000e+00 0.000000000000000e+00 0.000000000000000e+00
0.000000000000000e+00 0.000000000000000e+00 0.000000000000000e+00
0.000000000000000e+00 0.000000000000000e+00 0.000000000000000e+00
0.000000000000000e+00 0.000000000000000e+00 0.000000000000000e+00
0.000000000000000e+00 0.000000000000000e+00 0.000000000000000e+00
0.000000000000000e+00 0.000000000000000e+00 0.000000000000000e+00
0.000000000000000e+00 0.000000000000000e+00 0.000000000000000e+00
0.000000000000000e+00 0.000000000000000e+00 0.000000000000000e+00
0.000000000000000e+00 0.000000000000000e+00 0.000000000000000e+00
0.000000000000000e+00 0.000000000000000e+00 0.000000000000000e+00
0.000000000000000e+00 0.000000000000000e+00 0.000000000000000e+00
0.000000000000000e+00 0.000000000000000e+00 0.000000000000000e+00
0.000000000000000e+00 0.000000000000000e+00 0.000000000000000e+00
0.000000000000000e+00 0.000000000000000e+00 0.000000000000000e+00
0.000000000000000e+00 0.000000000000000e+00 0.000000000000000e+00
0.000000000000000e+00 0.000000000000000e+00 0.000000000000000e+00
0.000000000000000e+00 0.000000000000000e+00 0.000000000000000e+00
0.000000000000000e+00 0.000000000000000e+00 0.000000000000000e+00
0.000000000000000e+00 0.000000000000000e+00 0.000000000000000e+00
0.000000000000000e+00 0.000000000000000e+00 0.000000000000000e+00
0.000000000000000e+00 0.000000000000000e+00 0.000000000000000e+00
0.000000000000000e+00 0.000000000000000e+00 0.000000000000000e+00
0.000000000000000e+00 0.000000000000000e+00 0.000000000000000e+00
0.000000000000000e+00 0.000000000000000e+00 0.000000000000000e+00
0.000000000000000e+00 0.000000000000000e+00 0.000000000000000e+00
0.000000000000000e+00 0.000000000000000e+00 0.000000000000000e+00
0.000000000000000e+00 0.000000000000000e+00 0.000000000000000e+00
0.000000000000000e+00 0.000000000000000e+00 0.000000000000000e+00
0.000000000000000e+00 0.000000000000000e+00 0.000000000000000e+00
0.000000000000000e+00 0.000000000000000e+00 0.000000000000000e+00
0.000000000000000e+00 0.000000000000000e+00 0.000000000000000e+00
0.000000000000000e+00 0.000000000000000e+00 0.000000000000000e+00
0.000000000000000e+00 0.000000000000000e+00 0.000000000000000e+00
0.000000000000000e+00 0.000000000000000e+00 0.000000000000000e+00
0.000000000000000e+00 0.000000000000000e+00 0.000000000000000e+00
0.000000000000000e+00 0.000000000000000e+00 0.000000000000000e+00
0.000000000000000e+00 0.000000000000000e+00 0.000000000000000e+00
0.000000000000000e+00 0.000000000000000e+00 0.000000000000000e+00
0.000000000000000e+00 0.000000000000000e+00 0.000000000000000e+00
0.000000000000000e+00 0.000000000000000e+00 0.000000000000000e+00
0.000000000000000e+00 0.000000000000000e+00 0.000000000000000e+00
0.000000000000000e+00 0.000000000000000e+00 0.000000000000000e+00
0.000000000000000e+00 0.000000000000000e+00 0.000000000000000e+00
0.000000000000000e+00 0.000000000000000e+00 0.000000000000000e+00
0.000000000000000e+00 0.000000000000000e+00 0.000000000000000e+00
0.000000000000000e+00 0.000000000000000e+00 0.000000000000000e+00
0.000000000000000e+00 0.000000000000000e+00 0.000000000000000e+00
0.000000000000000e+00 0.000000000000000e+00 0.000000000000000e+00
0.000000000000000e+00 0.000000000000000e+00 0.000000000000000e+00
0.000000000000000e+00 0.000000000000000e+00 0.000000000000000e+00
0.000000000000000e+00 0.000000000000000e+00 0.000000000000000e+00
0.000000000000000e+00 0.000000000000000e+00 0.000000000000000e+00
0.000000000000000e+00 0.000000000000000e+00 0.000000000000000e+00
0.000000000000000e+00 0.000000000000000e+00 0.000000000000000e+00
0.000000000000000e+00 0.000000000000000e+00 0.000000000000000e+00
0.000000000000000e+00 0.000000000000000e+00 0.000000000000000e+00
0.000000000000000e+00 0.000000000000000e+00 0.000000000000000e+00
0.000000000000000e+00 0.000000000000000e+00 0.000000000000000e+00
0.000000000000000e+00 0.000000000000000e+00 0.000000000000000e+00
0.000000000000000e+00 0.000000000000000e+00 0.000000000000000e+00
0.000000000000000e+00 0.000000000000000e+00 0.000000000000000e+00
0.000000000000000e+00 0.000000000000000e+00 0.000000000000000e+00
0.000000000000000e+00 0.000000000000000e+00 0.000000000000000e+00
0.000000000000000e+00 0.000000000000000e+00 0.000000000000000e+00
0.000000000000000e+00 0.000000000000000e+00 0.000000000000000e+00
0.000000000000000e+00 0.000000000000000e+00 0.000000000000000e+00
0.000000000000000e+00 0.000000000000000e+00 0.000000000000000e+00
0.000000000000000e+00 0.000000000000000e+00 0.000000000000000e+00
0.000000000000000e+00 0.000000000000000e+00 0.000000000000000e+00
0.000000000000000e+00 0.000000000000000e+00 0.000000000000000e+00
0.000000000000000e+00 0.000000000000000e+00 0.000000000000000e+00
0.000000000000000e+00 0.000000000000000e+00 0.000000000000000e+00
0.000000000000000e+00 0.000000000000000e+00 0.000000000000000e+00
0.000000000000000e+00 0.000000000000000e+00 0.000000000000000e+00
0.000000000000000e+00 0.000000000000000e+00 0.000000000000000e+00
0.000000000000000e+00 0.000000000000000e+00 0.000000000000000e+00
0.000000000000000e+00 0.000000000000000e+00 0.000000000000000e+00
0.000000000000000e+00 0.000000000000000e+00 0.000000000000000e+00
0.000000000000000e+00 0.000000000000000e+00 0.000000000000000e+00
0.000000000000000e+00 0.000000000000000e+00 0.000000000000000e+00
0.000000000000000e+00 0.000000000000000e+00 0.000000000000000e+00
0.000000000000000e+00 0.000000000000000e+00 0.000000000000000e+00
0.000000000000000e+00 0.000000000000000e+00 0.000000000000000e+00
0.000000000000000e+00 0.000000000000000e+00 0.000000000000000e+00
0.000000000000000e+00 0.000000000000000e+00 0.000000000000000e+00
0.000000000000000e+00 0.000000000000000e+00 0.000000000000000e+00
0.000000000000000e+00 0.000000000000000e+00 0.000000000000000e+00
0.000000000000000e+00 0.000000000000000e+00 0.000000000000000e+00
0.000000000000000e+00 0.000000000000000e+00 0.000000000000000e+00
0.000000000000000e+00 0.000000000000000e+00 0.000000000000000e+00
0.000000000000000e+00 0.000000000000000e+00 0.000000000000000e+00
0.000000000000000e+00 0.000000000000000e+00 0.000000000000000e+00
0.000000000000000e+00 0.000000000000000e+00 0.000000000000000e+00
0.000000000000000e+00 0.000000000000000e+00 0.000000000000000e+00
0.000000000000000e+00 0.000000000000000e+00 0.000000000000000e+00
0.000000000000000e+00 0.000000000000000e+00 0.000000000000000e+00
0.000000000000000e+00 0.000000000000000e+00 0.000000000000000e+00
0.000000000000000e+00 0.000000000000000e+00 0.000000000000000e+00
0.000000000000000e+00 0.000000000000000e+00 0.000000000000000e+00
0.000000000000000e+00 0.000000000000000e+00 0.000000000000000e+00
0.000000000000000e+00 0.000000000000000e+00 0.000000000000000e+00
0.000000000000000e+00 0.000000000000000e+00 0.000000000000000e+00
0.000000000000000e+00 0.000000000000000e+00 0.000000000000000e+00
0.000000000000000e+00 0.000000000000000e+00 0.000000000000000e+00
0.000000000000000e+00 0.000000000000000e+00 0.000000000000000e+00
0.000000000000000e+00 0.000000000000000e+00 0.000000000000000e+00
0.000000000000000e+00 0.000000000000000e+00 0.000000000000000e+00
0.000000000000000e+00 0.000000000000000e+00 0.000000000000000e+00
0.000000000000000e+00 0.000000000000000e+00 0.000000000000000e+00
0.000000000000000e+00 0.000000000000000e+00 0.000000000000000e+00
0.000000000000000e+00 0.000000000000000e+00 0.000000000000000e+00
0.000000000000000e+00 0.000000000000000e+00 0.000000000000000e+00
0.000000000000000e+00 0.000000000000000e+00 0.000000000000000e+00
0.000000000000000e+00 0.000000000000000e+00 0.000000000000000e+00
0.000000000000000e+00 0.000000000000000e+00 0.000000000000000e+00
0.000000000000000e+00 0.000000000000000e+00 0.000000000000000e+00
0.000000000000000e+00 0.000000000000000e+00 0.000000000000000e+00
0.000000000000000e+00 0.000000000000000e+00 0.000000000000000e+00
0.000000000000000e+00 0.000000000000000e+00 0.000000000000000e+00
0.000000000000000e+00 0.000000000000000e+00 0.000000000000000e+00
0.000000000000000e+00 0.000000000000000e+00 0.000000000000000e+00
0.000000000000000e+00 0.000000000000000e+00 0.000000000000000e+00
0.000000000000000e+00 0.000000000000000e+00 0.000000000000000e+00
0.000000000000000e+00 0.000000000000000e+00 0.000000000000000e+00
0.000000000000000e+00 0.000000000000000e+00 0.000000000000000e+00
0.000000000000000e+00 0.000000000000000e+00 0.000000000000000e+00
0.000000000000000e+00 0.000000000000000e+00 0.000000000000000e+00
0.000000000000000e+00 0.000000000000000e+00 0.000000000000000e+00
0.000000000000000e+00 0.000000000000000e+00 0.000000000000000e+00
0.000000000000000e+00 0.000000000000000e+00 0.000000000000000e+00
0.000000000000000e+00 0.000000000000000e+00 0.000000000000000e+00
0.000000000000000e+00 0.000000000000000e+00 0.000000000000000e+00
0.000000000000000e+00 0.000000000000000e+00 0.000000000000000e+00
0.000000000000000e+00 0.000000000000000e+00 0.000000000000000e+00
0.000000000000000e+00 0.000000000000000e+00 0.000000000000000e+00
0.000000000000000e+00 0.000000000000000e+00 0.000000000000000e+00
0.000000000000000e+00 0.000000000000000e+00 0.000000000000000e+00
0.000000000000000e+00 0.000000000000000e+00 0.000000000000000e+00
0.000000000000000e+00 0.000000000000000e+00 0.000000000000000e+00
0.000000000000000e+00 0.000000000000000e+00 0.000000000000000e+00
0.000000000000000e+00 0.000000000000000e+00 0.000000000000000e+00
0.000000000000000e+00 0.000000000000000e+00 0.000000000000000e+00
0.000000000000000e+00 0.000000000000000e+00 0.000000000000000e+00
0.000000000000000e+00 0.000000000000000e+00 0.000000000000000e+00
0.000000000000000e+00 0.000000000000000e+00 0.000000000000000e+00
0.000000000000000e+00 0.000000000000000e+00 0.000000000000000e+00
0.000000000000000e+00 0.000000000000000e+00 0.000000000000000e+00
0.000000000000000e+00 0.000000000000000e+00 0.000000000000000e+00
0.000000000000000e+00 0.000000000000000e+00 0.000000000000000e+00
0.000000000000000e+00 0.000000000000000e+00 0.000000000000000e+00
0.000000000000000e+00 0.000000000000000e+00 0.000000000000000e+00
0.000000000000000e+00 0.000000000000000e+00 0.000000000000000e+00
0.000000000000000e+00 0.000000000000000e+00 0.000000000000000e+00
0.000000000000000e+00 0.000000000000000e+00 0.000000000000000e+00
0.000000000000000e+00 0.000000000000000e+00 0.000000000000000e+00
0.000000000000000e+00 0.000000000000000e+00 0.000000000000000e+00
0.000000000000000e+00 0.000000000000000e+00 0.000000000000000e+00
0.000000000000000e+00 0.000000000000000e+00 0.000000000000000e+00
0.000000000000000e+00 0.000000000000000e+00 0.000000000000000e+00
0.000000000000000e+00 0.000000000000000e+00 0.000000000000000e+00
0.000000000000000e+00 0.000000000000000e+00 0.000000000000000e+00
0.000000000000000e+00 0.000000000000000e+00 0.000000000000000e+00
0.000000000000000e+00 0.000000000000000e+00 0.000000000000000e+00
0.000000000000000e+00 0.000000000000000e+00 0.000000000000000e+00
0.000000000000000e+00 0.000000000000000e+00 0.000000000000000e+00
0.000000000000000e+00 0.000000000000000e+00 0.000000000000000e+00
0.000000000000000e+00 0.000000000000000e+00 0.000000000000000e+00
0.000000000000000e+00 0.000000000000000e+00 0.000000000000000e+00
0.000000000000000e+00 0.000000000000000e+00 0.000000000000000e+00
0.000000000000000e+00 0.000000000000000e+00 0.000000000000000e+00
0.000000000000000e+00 0.000000000000000e+00 0.000000000000000e+00
0.000000000000000e+00 0.000000000000000e+00 0.000000000000000e+00
0.000000000000000e+00 0.000000000000000e+00 0.000000000000000e+00
0.000000000000000e+00 0.000000000000000e+00 0.000000000000000e+00
0.000000000000000e+00 0.000000000000000e+00 0.000000000000000e+00
0.000000000000000e+00 0.000000000000000e+00 0.000000000000000e+00
0.000000000000000e+00 0.000000000000000e+00 0.000000000000000e+00
0.000000000000000e+00 0.000000000000000e+00 0.000000000000000e+00
0.000000000000000e+00 0.000000000000000e+00 0.000000000000000e+00
0.000000000000000e+00 0.000000000000000e+00 0.000000000000000e+00
0.000000000000000e+00 0.000000000000000e+00 0.000000000000000e+00
0.000000000000000e+00 0.000000000000000e+00 0.000000000000000e+00
0.000000000000000e+00 0.000000000000000e+00 0.000000000000000e+00
0.000000000000000e+00 0.000000000000000e+00 0.000000000000000e+00
0.000000000000000e+00 0.000000000000000e+00 0.000000000000000e+00
0.000000000000000e+00 0.000000000000000e+00 0.000000000000000e+00
0.000000000000000e+00 0.000000000000000e+00 0.000000000000000e+00
0.000000000000000e+00 0.000000000000000e+00 0.000000000000000e+00
0.000000000000000e+00 0.000000000000000e+00 0.000000000000000e+00
0.000000000000000e+00 0.000000000000000e+00 0.000000000000000e+00
0.000000000000000e+00 0.000000000000000e+00 0.000000000000000e+00
0.000000000000000e+00 0.000000000000000e+00 0.000000000000000e+00
0.000000000000000e+00 0.000000000000000e+00 0.000000000000000e+00
0.000000000000000e+00 0.000000000000000e+00 0.000000000000000e+00
0.000000000000000e+00 0.000000000000000e+00 0.000000000000000e+00
0.000000000000000e+00 0.000000000000000e+00 0.000000000000000e+00
0.000000000000000e+00 0.000000000000000e+00 0.000000000000000e+00
0.000000000000000e+00 0.000000000000000e+00 0.000000000000000e+00
0.000000000000000e+00 0.000000000000000e+00 0.000000000000000e+00
0.000000000000000e+00 0.000000000000000e+00 0.000000000000000e+00
0.000000000000000e+00 0.000000000000000e+00 0.000000000000000e+00
0.000000000000000e+00 0.000000000000000e+00 0.000000000000000e+00
0.000000000000000e+00 0.000000000000000e+00 0.000000000000000e+00
0.000000000000000e+00 0.000000000000000e+00 0.000000000000000e+00
0.000000000000000e+00 0.000000000000000e+00 0.000000000000000e+00
0.000000000000000e+00 0.000000000000000e+00 0.000000000000000e+00
0.000000000000000e+00 0.000000000000000e+00 0.000000000000000e+00
0.000000000000000e+00 0.000000000000000e+00 0.000000000000000e+00
0.000000000000000e+00 0.000000000000000e+00 0.000000000000000e+00
0.000000000000000e+00 0.000000000000000e+00 0.000000000000000e+00
0.000000000000000e+00 0.000000000000000e+00 0.000000000000000e+00
0.000000000000000e+00 0.000000000000000e+00 0.000000000000000e+00
0.000000000000000e+00 0.000000000000000e+00 0.000000000000000e+00
0.000000000000000e+00 0.000000000000000e+00 0.000000000000000e+00
0.000000000000000e+00 0.000000000000000e+00 0.000000000000000e+00
0.000000000000000e+00 0.000000000000000e+00 0.000000000000000e+00
0.000000000000000e+00 0.000000000000000e+00 0.000000000000000e+00
0.000000000000000e+00 0.000000000000000e+00 0.000000000000000e+00
0.000000000000000e+00 0.000000000000000e+00 0.000000000000000e+00
0.000000000000000e+00 0.000000000000000e+00 0.000000000000000e+00
0.000000000000000e+00 0.000000000000000e+00 0.000000000000000e+00
0.000000000000000e+00 0.000000000000000e+00 0.000000000000000e+00
0.000000000000000e+00 0.000000000000000e+00 0.000000000000000e+00
0.000000000000000e+00 0.000000000000000e+00 0.000000000000000e+00
0.000000000000000e+00 0.000000000000000e+00 0.000000000000000e+00
0.000000000000000e+00 0.000000000000000e+00 0.000000000000000e+00
0.000000000000000e+00 0.000000000000000e+00 0.000000000000000e+00
0.000000000000000e+00 0.000000000000000e+00 0.000000000000000e+00
0.000000000000000e+00 0.000000000000000e+00 0.000000000000000e+00
0.000000000000000e+00 0.000000000000000e+00 0.000000000000000e+00
0.000000000000000e+00 0.000000000000000e+00 0.000000000000000e+00
0.000000000000000e+00 0.000000000000000e+00 0.000000000000000e+00
0.000000000000000e+00 0.000000000000000e+00 0.000000000000000e+00
0.000000000000000e+00 0.000000000000000e+00 0.000000000000000e+00
0.000000000000000e+00 0.000000000000000e+00 0.000000000000000e+00
0.000000000000000e+00 0.000000000000000e+00 0.000000000000000e+00
0.000000000000000e+00 0.000000000000000e+00 0.000000000000000e+00
0.000000000000000e+00 0.000000000000000e+00 0.000000000000000e+00
0.000000000000000e+00 0.000000000000000e+00 0.000000000000000e+00
0.000000000000000e+00 0.000000000000000e+00 0.000000000000000e+00
0.000000000000000e+00 0.000000000000000e+00 0.000000000000000e+00
0.000000000000000e+00 0.000000000000000e+00 0.000000000000000e+00
0.000000000000000e+00 0.000000000000000e+00 0.000000000000000e+00
0.000000000000000e+00 0.000000000000000e+00 0.000000000000000e+00
0.000000000000000e+00 0.000000000000000e+00 0.000000000000000e+00
0.000000000000000e+00 0.000000000000000e+00 0.000000000000000e+00
0.000000000000000e+00 0.000000000000000e+00 0.000000000000000e+00
0.000000000000000e+00 0.000000000000000e+00 0.000000000000000e+00
0.000000000000000e+00 0.000000000000000e+00 0.000000000000000e+00
0.000000000000000e+00 0.000000000000000e+00 0.000000000000000e+00
0.000000000000000e+00 0.000000000000000e+00 0.000000000000000e+00
0.000000000000000e+00 0.000000000000000e+00 0.000000000000000e+00
0.000000000000000e+00 0.000000000000000e+00 0.000000000000000e+00
0.000000000000000e+00 0.000000000000000e+00 0.000000000000000e+00
0.000000000000000e+00 0.000000000000000e+00 0.000000000000000e+00
0.000000000000000e+00 0.000000000000000e+00 0.000000000000000e+00
0.000000000000000e+00 0.000000000000000e+00 0.000000000000000e+00
0.000000000000000e+00 0.000000000000000e+00 0.000000000000000e+00
0.000000000000000e+00 0.000000000000000e+00 0.000000000000000e+00
0.000000000000000e+00 0.000000000000000e+00 0.000000000000000e+00
0.000000000000000e+00 0.000000000000000e+00 0.000000000000000e+00
0.000000000000000e+00 0.000000000000000e+00 0.000000000000000e+00
0.000000000000000e+00 0.000000000000000e+00 0.000000000000000e+00
0.000000000000000e+00 0.000000000000000e+00 0.000000000000000e+00
0.000000000000000e+00 0.000000000000000e+00 0.000000000000000e+00
0.000000000000000e+00 0.000000000000000e+00 0.000000000000000e+00
0.000000000000000e+00 0.000000000000000e+00 0.000000000000000e+00
0.000000000000000e+00 0.000000000000000e+00 0.000000000000000e+00
0.000000000000000e+00 0.000000000000000e+00 0.000000000000000e+00
0.000000000000000e+00 0.000000000000000e+00 0.000000000000000e+00
0.000000000000000e+00 0.000000000000000e+00 0.000000000000000e+00
0.000000000000000e+00 0.000000000000000e+00 0.000000000000000e+00
0.000000000000000e+00 0.000000000000000e+00 0.000000000000000e+00
0.000000000000000e+00 0.000000000000000e+00 0.000000000000000e+00
0.000000000000000e+00 0.000000000000000e+00 0.000000000000000e+00
0.000000000000000e+00 0.000000000000000e+00 0.000000000000000e+00
0.000000000000000e+00 0.000000000000000e+00 0.000000000000000e+00
0.000000000000000e+00 0.000000000000000e+00 0.000000000000000e+00
0.000000000000000e+00 0.000000000000000e+00 0.000000000000000e+00
0.000000000000000e+00 0.000000000000000e+00 0.000000000000000e+00
0.000000000000000e+00 0.000000000000000e+00 0.000000000000000e+00
0.000000000000000e+00 0.000000000000000e+00 0.000000000000000e+00
0.000000000000000e+00 0.000000000000000e+00 0.000000000000000e+00
0.000000000000000e+00 0.000000000000000e+00 0.000000000000000e+00
0.000000000000000e+00 0.000000000000000e+00 0.000000000000000e+00
0.000000000000000e+00 0.000000000000000e+00 0.000000000000000e+00
0.000000000000000e+00 0.000000000000000e+00 0.000000000000000e+00
0.000000000000000e+00 0.000000000000000e+00 0.000000000000000e+00
0.000000000000000e+00 0.000000000000000e+00 0.000000000000000e+00
0.000000000000000e+00 0.000000000000000e+00 0.000000000000000e+00
0.000000000000000e+00 0.000000000000000e+00 0.000000000000000e+00
0.000000000000000e+00 0.000000000000000e+00 0.000000000000000e+00
0.000000000000000e+00 0.000000000000000e+00 0.000000000000000e+00
0.000000000000000e+00 0.000000000000000e+00 0.000000000000000e+00
0.000000000000000e+00 0.000000000000000e+00 0.000000000000000e+00
0.000000000000000e+00 0.000000000000000e+00 0.000000000000000e+00
0.000000000000000e+00 0.000000000000000e+00 0.000000000000000e+00
0.000000000000000e+00 0.000000000000000e+00 0.000000000000000e+00
0.000000000000000e+00 0.000000000000000e+00 0.000000000000000e+00
0.000000000000000e+00 0.000000000000000e+00 0.000000000000000e+00
0.000000000000000e+00 0.000000000000000e+00 0.000000000000000e+00
0.000000000000000e+00 0.000000000000000e+00 0.000000000000000e+00
0.000000000000000e+00 0.000000000000000e+00 0.000000000000000e+00
0.000000000000000e+00 0.000000000000000e+00 0.000000000000000e+00
0.000000000000000e+00 0.000000000000000e+00 0.000000000000000e+00
0.000000000000000e+00 0.000000000000000e+00 0.000000000000000e+00
0.000000000000000e+00 0.000000000000000e+00 0.000000000000000e+00
0.000000000000000e+00 0.000000000000000e+00 0.000000000000000e+00
0.000000000000000e+00 0.000000000000000e+00 0.000000000000000e+00
0.000000000000000e+00 0.000000000000000e+00 0.000000000000000e+00
0.000000000000000e+00 0.000000000000000e+00 0.000000000000000e+00
0.000000000000000e+00 0.000000000000000e+00 0.000000000000000e+00
0.000000000000000e+00 0.000000000000000e+00 0.000000000000000e+00
0.000000000000000e+00 0.000000000000000e+00 0.000000000000000e+00
0.000000000000000e+00 0.000000000000000e+00 0.000000000000000e+00
0.000000000000000e+00 0.000000000000000e+00 0.000000000000000e+00
0.000000000000000e+00 0.000000000000000e+00 0.000000000000000e+00
0.000000000000000e+00 0.000000000000000e+00 0.000000000000000e+00
0.000000000000000e+00 0.000000000000000e+00 0.000000000000000e+00
0.000000000000000e+00 0.000000000000000e+00 0.000000000000000e+00
0.000000000000000e+00 0.000000000000000e+00 0.000000000000000e+00
0.000000000000000e+00 0.000000000000000e+00 0.000000000000000e+00
0.000000000000000e+00 0.000000000000000e+00 0.000000000000000e+00
0.000000000000000e+00 0.000000000000000e+00 0.000000000000000e+00
0.000000000000000e+00 0.000000000000000e+00 0.000000000000000e+00
0.000000000000000e+00 0.000000000000000e+00 0.000000000000000e+00
0.000000000000000e+00 0.000000000000000e+00 0.000000000000000e+00
0.000000000000000e+00 0.000000000000000e+00 0.000000000000000e+00
0.000000000000000e+00 0.000000000000000e+00 0.000000000000000e+00
0.000000000000000e+00 0.000000000000000e+00 0.000000000000000e+00
0.000000000000000e+00 0.000000000000000e+00 0.000000000000000e+00
0.000000000000000e+00 0.000000000000000e+00 0.000000000000000e+00
0.000000000000000e+00 0.000000000000000e+00 0.000000000000000e+00
0.000000000000000e+00 0.000000000000000e+00 0.000000000000000e+00
0.000000000000000e+00 0.000000000000000e+00 0.000000000000000e+00
0.000000000000000e+00 0.000000000000000e+00 0.000000000000000e+00
0.000000000000000e+00 0.000000000000000e+00 0.000000000000000e+00
0.000000000000000e+00 0.000000000000000e+00 0.000000000000000e+00
0.000000000000000e+00 0.000000000000000e+00 0.000000000000000e+00
0.000000000000000e+00 0.000000000000000e+00 0.000000000000000e+00
0.000000000000000e+00 0.000000000000000e+00 0.000000000000000e+00
0.000000000000000e+00 0.000000000000000e+00 0.000000000000000e+00
0.000000000000000e+00 0.000000000000000e+00 0.000000000000000e+00
0.000000000000000e+00 0.000000000000000e+00 0.000000000000000e+00
0.000000000000000e+00 0.000000000000000e+00 0.000000000000000e+00
0.000000000000000e+00 0.000000000000000e+00 0.000000000000000e+00
0.000000000000000e+00 0.000000000000000e+00 0.000000000000000e+00
0.000000000000000e+00 0.000000000000000e+00 0.000000000000000e+00
0.000000000000000e+00 0.000000000000000e+00 0.000000000000000e+00
0.000000000000000e+00 0.000000000000000e+00 0.000000000000000e+00
0.000000000000000e+00 0.000000000000000e+00 0.000000000000000e+00
0.000000000000000e+00 0.000000000000000e+00 0.000000000000000e+00
0.000000000000000e+00 0.000000000000000e+00 0.000000000000000e+00
0.000000000000000e+00 0.000000000000000e+00 0.000000000000000e+00
0.000000000000000e+00 0.000000000000000e+00 0.000000000000000e+00
0.000000000000000e+00 0.000000000000000e+00 0.000000000000000e+00
0.000000000000000e+00 0.000000000000000e+00 0.000000000000000e+00
0.000000000000000e+00 0.000000000000000e+00 0.000000000000000e+00
0.000000000000000e+00 0.000000000000000e+00 0.000000000000000e+00
0.000000000000000e+00 0.000000000000000e+00 0.000000000000000e+00
0.000000000000000e+00 0.000000000000000e+00 0.000000000000000e+00
0.000000000000000e+00 0.000000000000000e+00 0.000000000000000e+00
0.000000000000000e+00 0.000000000000000e+00 0.000000000000000e+00
0.000000000000000e+00 0.000000000000000e+00 0.000000000000000e+00
0.000000000000000e+00 0.000000000000000e+00 0.000000000000000e+00
0.000000000000000e+00 0.000000000000000e+00 0.000000000000000e+00
0.000000000000000e+00 0.000000000000000e+00 0.000000000000000e+00
0.000000000000000e+00 0.000000000000000e+00 0.000000000000000e+00
0.000000000000000e+00 0.000000000000000e+00 0.000000000000000e+00
0.000000000000000e+00 0.000000000000000e+00 0.000000000000000e+00
0.000000000000000e+00 0.000000000000000e+00 0.000000000000000e+00
0.000000000000000e+00 0.000000000000000e+00 0.000000000000000e+00
0.000000000000000e+00 0.000000000000000e+00 0.000000000000000e+00
0.000000000000000e+00 0.000000000000000e+00 0.000000000000000e+00
0.000000000000000e+00 0.000000000000000e+00 0.000000000000000e+00
0.000000000000000e+00 0.000000000000000e+00 0.000000000000000e+00
0.000000000000000e+00 0.000000000000000e+00 0.000000000000000e+00
0.000000000000000e+00 0.000000000000000e+00 0.000000000000000e+00
0.000000000000000e+00 0.000000000000000e+00 0.000000000000000e+00
0.000000000000000e+00 0.000000000000000e+00 0.000000000000000e+00
0.000000000000000e+00 0.000000000000000e+00 0.000000000000000e+00
0.000000000000000e+00 0.000000000000000e+00 0.000000000000000e+00
0.000000000000000e+00 0.000000000000000e+00 0.000000000000000e+00
0.000000000000000e+00 0.000000000000000e+00 0.000000000000000e+00
0.000000000000000e+00 0.000000000000000e+00 0.000000000000000e+00
0.000000000000000e+00 0.000000000000000e+00 0.000000000000000e+00
0.000000000000000e+00 0.000000000000000e+00 0.000000000000000e+00
0.000000000000000e+00 0.000000000000000e+00 0.000000000000000e+00
0.000000000000000e+00 0.000000000000000e+00 0.000000000000000e+00
0.000000000000000e+00 0.000000000000000e+00 0.000000000000000e+00
0.000000000000000e+00 0.000000000000000e+00 0.000000000000000e+00
0.000000000000000e+00 0.000000000000000e+00 0.000000000000000e+00
0.000000000000000e+00 0.000000000000000e+00 0.000000000000000e+00
0.000000000000000e+00 0.000000000000000e+00 0.000000000000000e+00
0.000000000000000e+00 0.000000000000000e+00 0.000000000000000e+00
0.000000000000000e+00 0.000000000000000e+00 0.000000000000000e+00
0.000000000000000e+00 0.000000000000000e+00 0.000000000000000e+00
0.000000000000000e+00 0.000000000000000e+00 0.000000000000000e+00
0.000000000000000e+00 0.000000000000000e+00 0.000000000000000e+00
0.000000000000000e+00 0.000000000000000e+00 0.000000000000000e+00
0.000000000000000e+00 0.000000000000000e+00 0.000000000000000e+00
0.000000000000000e+00 0.000000000000000e+00 0.000000000000000e+00
0.000000000000000e+00 0.000000000000000e+00 0.000000000000000e+00
0.000000000000000e+00 0.000000000000000e+00 0.000000000000000e+00
0.000000000000000e+00 0.000000000000000e+00 0.000000000000000e+00
0.000000000000000e+00 0.000000000000000e+00 0.000000000000000e+00
0.000000000000000e+00 0.000000000000000e+00 0.000000000000000e+00
0.000000000000000e+00 0.000000000000000e+00 0.000000000000000e+00
0.000000000000000e+00 0.000000000000000e+00 0.000000000000000e+00
0.000000000000000e+00 0.000000000000000e+00 0.000000000000000e+00
0.000000000000000e+00 0.000000000000000e+00 0.000000000000000e+00
0.000000000000000e+00 0.000000000000000e+00 0.000000000000000e+00
0.000000000000000e+00 0.000000000000000e+00 0.000000000000000e+00
0.000000000000000e+00 0.000000000000000e+00 0.000000000000000e+00
0.000000000000000e+00 0.000000000000000e+00 0.000000000000000e+00
0.000000000000000e+00 0.000000000000000e+00 0.000000000000000e+00
0.000000000000000e+00 0.000000000000000e+00 0.000000000000000e+00
0.000000000000000e+00 0.000000000000000e+00 0.000000000000000e+00
0.000000000000000e+00 0.000000000000000e+00 0.000000000000000e+00
0.000000000000000e+00 0.000000000000000e+00 0.000000000000000e+00
0.000000000000000e+00 0.000000000000000e+00 0.000000000000000e+00
0.000000000000000e+00 0.000000000000000e+00 0.000000000000000e+00
0.000000000000000e+00 0.000000000000000e+00 0.000000000000000e+00
0.000000000000000e+00 0.000000000000000e+00 0.000000000000000e+00
0.000000000000000e+00 0.000000000000000e+00 0.000000000000000e+00
0.000000000000000e+00 0.000000000000000e+00 0.000000000000000e+00
0.000000000000000e+00 0.000000000000000e+00 0.000000000000000e+00
0.000000000000000e+00 0.000000000000000e+00 0.000000000000000e+00
0.000000000000000e+00 0.000000000000000e+00 0.000000000000000e+00
0.000000000000000e+00 0.000000000000000e+00 0.000000000000000e+00
0.000000000000000e+00 0.000000000000000e+00 0.000000000000000e+00
0.000000000000000e+00 0.000000000000000e+00 0.000000000000000e+00
0.000000000000000e+00 0.000000000000000e+00 0.000000000000000e+00
0.000000000000000e+00 0.000000000000000e+00 0.000000000000000e+00
0.000000000000000e+00 0.000000000000000e+00 0.000000000000000e+00
0.000000000000000e+00 0.000000000000000e+00 0.000000000000000e+00
0.000000000000000e+00 0.000000000000000e+00 0.000000000000000e+00
0.000000000000000e+00 0.000000000000000e+00 0.000000000000000e+00
0.000000000000000e+00 0.000000000000000e+00 0.000000000000000e+00
0.000000000000000e+00 0.000000000000000e+00 0.000000000000000e+00
0.000000000000000e+00 0.000000000000000e+00 0.000000000000000e+00
0.000000000000000e+00 0.000000000000000e+00 0.000000000000000e+00
0.000000000000000e+00 0.000000000000000e+00 0.000000000000000e+00
0.000000000000000e+00 0.000000000000000e+00 0.000000000000000e+00
0.000000000000000e+00 0.000000000000000e+00 0.000000000000000e+00
0.000000000000000e+00 0.000000000000000e+00 0.000000000000000e+00
0.000000000000000e+00 0.000000000000000e+00 0.000000000000000e+00
0.000000000000000e+00 0.000000000000000e+00 0.000000000000000e+00
0.000000000000000e+00 0.000000000000000e+00 0.000000000000000e+00
0.000000000000000e+00 0.000000000000000e+00 0.000000000000000e+00
0.000000000000000e+00 0.000000000000000e+00 0.000000000000000e+00
0.000000000000000e+00 0.000000000000000e+00 0.000000000000000e+00
0.000000000000000e+00 0.000000000000000e+00 0.000000000000000e+00
0.000000000000000e+00 0.000000000000000e+00 0.000000000000000e+00
0.000000000000000e+00 0.000000000000000e+00 0.000000000000000e+00
0.000000000000000e+00 0.000000000000000e+00 0.000000000000000e+00
0.000000000000000e+00 0.000000000000000e+00 0.000000000000000e+00
0.000000000000000e+00 0.000000000000000e+00 0.000000000000000e+00
0.000000000000000e+00 0.000000000000000e+00 0.000000000000000e+00
0.000000000000000e+00 0.000000000000000e+00 0.000000000000000e+00
0.000000000000000e+00 0.000000000000000e+00 0.000000000000000e+00
0.000000000000000e+00 0.000000000000000e+00 0.000000000000000e+00
0.000000000000000e+00 0.000000000000000e+00 0.000000000000000e+00
0.000000000000000e+00 0.000000000000000e+00 0.000000000000000e+00
0.000000000000000e+00 0.000000000000000e+00 0.000000000000000e+00
0.000000000000000e+00 0.000000000000000e+00 0.000000000000000e+00
0.000000000000000e+00 0.000000000000000e+00 0.000000000000000e+00
0.000000000000000e+00 0.000000000000000e+00 0.000000000000000e+00
0.000000000000000e+00 0.000000000000000e+00 0.000000000000000e+00
0.000000000000000e+00 0.000000000000000e+00 0.000000000000000e+00
0.000000000000000e+00 0.000000000000000e+00 0.000000000000000e+00
0.000000000000000e+00 0.000000000000000e+00 0.000000000000000e+00
0.000000000000000e+00 0.000000000000000e+00 0.000000000000000e+00
0.000000000000000e+00 0.000000000000000e+00 0.000000000000000e+00
0.000000000000000e+00 0.000000000000000e+00 0.000000000000000e+00
0.000000000000000e+00 0.000000000000000e+00 0.000000000000000e+00
0.000000000000000e+00 0.000000000000000e+00 0.000000000000000e+00
0.000000000000000e+00 0.000000000000000e+00 0.000000000000000e+00
0.000000000000000e+00 0.000000000000000e+00 0.000000000000000e+00
0.000000000000000e+00 0.000000000000000e+00 0.000000000000000e+00
0.000000000000000e+00 0.000000000000000e+00 0.000000000000000e+00
0.000000000000000e+00 0.000000000000000e+00 0.000000000000000e+00
0.000000000000000e+00 0.000000000000000e+00 0.000000000000000e+00
0.000000000000000e+00 0.000000000000000e+00 0.000000000000000e+00
0.000000000000000e+00 0.000000000000000e+00 0.000000000000000e+00
0.000000000000000e+00 0.000000000000000e+00 0.000000000000000e+00
0.000000000000000e+00 0.000000000000000e+00 0.000000000000000e+00
0.000000000000000e+00 0.000000000000000e+00 0.000000000000000e+00
0.000000000000000e+00 0.000000000000000e+00 0.000000000000000e+00
0.000000000000000e+00 0.000000000000000e+00 0.000000000000000e+00
0.000000000000000e+00 0.000000000000000e+00 0.000000000000000e+00
0.000000000000000e+00 0.000000000000000e+00 0.000000000000000e+00
0.000000000000000e+00 0.000000000000000e+00 0.000000000000000e+00
0.000000000000000e+00 0.000000000000000e+00 0.000000000000000e+00
0.000000000000000e+00 0.000000000000000e+00 0.000000000000000e+00
0.000000000000000e+00 0.000000000000000e+00 0.000000000000000e+00
0.000000000000000e+00 0.000000000000000e+00 0.000000000000000e+00
0.000000000000000e+00 0.000000000000000e+00 0.000000000000000e+00
0.000000000000000e+00 0.000000000000000e+00 0.000000000000000e+00
0.000000000000000e+00 0.000000000000000e+00 0.000000000000000e+00
0.000000000000000e+00 0.000000000000000e+00 0.000000000000000e+00
0.000000000000000e+00 0.000000000000000e+00 0.000000000000000e+00
0.000000000000000e+00 0.000000000000000e+00 0.000000000000000e+00
0.000000000000000e+00 0.000000000000000e+00 0.000000000000000e+00
0.000000000000000e+00 0.000000000000000e+00 0.000000000000000e+00
0.000000000000000e+00 0.000000000000000e+00 0.000000000000000e+00
0.000000000000000e+00 0.000000000000000e+00 0.000000000000000e+00
0.000000000000000e+00 0.000000000000000e+00 0.000000000000000e+00
0.000000000000000e+00 0.000000000000000e+00 0.000000000000000e+00
0.000000000000000e+00 0.000000000000000e+00 0.000000000000000e+00
0.000000000000000e+00 0.000000000000000e+00 0.000000000000000e+00
0.000000000000000e+00 0.000000000000000e+00 0.000000000000000e+00
0.000000000000000e+00 0.000000000000000e+00 0.000000000000000e+00
0.000000000000000e+00 0.000000000000000e+00 0.000000000000000e+00
0.000000000000000e+00 0.000000000000000e+00 0.000000000000000e+00
0.000000000000000e+00 0.000000000000000e+00 0.000000000000000e+00
0.000000000000000e+00 0.000000000000000e+00 0.000000000000000e+00
0.000000000000000e+00 0.000000000000000e+00 0.000000000000000e+00
0.000000000000000e+00 0.000000000000000e+00 0.000000000000000e+00
0.000000000000000e+00 0.000000000000000e+00 0.000000000000000e+00
0.000000000000000e+00 0.000000000000000e+00 0.000000000000000e+00
0.000000000000000e+00 0.000000000000000e+00 0.000000000000000e+00
0.000000000000000e+00 0.000000000000000e+00 0.000000000000000e+00
0.000000000000000e+00 0.000000000000000e+00 0.000000000000000e+00
0.000000000000000e+00 0.000000000000000e+00 0.000000000000000e+00
0.000000000000000e+00 0.000000000000000e+00 0.000000000000000e+00
0.000000000000000e+00 0.000000000000000e+00 0.000000000000000e+00
0.000000000000000e+00 0.000000000000000e+00 0.000000000000000e+00
0.000000000000000e+00 0.000000000000000e+00 0.000000000000000e+00
0.000000000000000e+00 0.000000000000000e+00 0.000000000000000e+00
0.000000000000000e+00 0.000000000000000e+00 0.000000000000000e+00
0.000000000000000e+00 0.000000000000000e+00 0.000000000000000e+00
0.000000000000000e+00 0.000000000000000e+00 0.000000000000000e+00
0.000000000000000e+00 0.000000000000000e+00 0.000000000000000e+00
0.000000000000000e+00 0.000000000000000e+00 0.000000000000000e+00
0.000000000000000e+00 0.000000000000000e+00 0.000000000000000e+00
0.000000000000000e+00 0.000000000000000e+00 0.000000000000000e+00
0.000000000000000e+00 0.000000000000000e+00 0.000000000000000e+00
0.000000000000000e+00 0.000000000000000e+00 0.000000000000000e+00
0.000000000000000e+00 0.000000000000000e+00 0.000000000000000e+00
0.000000000000000e+00 0.000000000000000e+00 0.000000000000000e+00
0.000000000000000e+00 0.000000000000000e+00 0.000000000000000e+00
0.000000000000000e+00 0.000000000000000e+00 0.000000000000000e+00
0.000000000000000e+00 0.000000000000000e+00 0.000000000000000e+00
0.000000000000000e+00 0.000000000000000e+00 0.000000000000000e+00
0.000000000000000e+00 0.000000000000000e+00 0.000000000000000e+00
0.000000000000000e+00 0.000000000000000e+00 0.000000000000000e+00
0.000000000000000e+00 0.000000000000000e+00 0.000000000000000e+00
0.000000000000000e+00 0.000000000000000e+00 0.000000000000000e+00
0.000000000000000e+00 0.000000000000000e+00 0.000000000000000e+00
0.000000000000000e+00 0.000000000000000e+00 0.000000000000000e+00
0.000000000000000e+00 0.000000000000000e+00 0.000000000000000e+00
0.000000000000000e+00 0.000000000000000e+00 0.000000000000000e+00
0.000000000000000e+00 0.000000000000000e+00 0.000000000000000e+00
0.000000000000000e+00 0.000000000000000e+00 0.000000000000000e+00
0.000000000000000e+00 0.000000000000000e+00 0.000000000000000e+00
0.000000000000000e+00 0.000000000000000e+00 0.000000000000000e+00
0.000000000000000e+00 0.000000000000000e+00 0.000000000000000e+00
0.000000000000000e+00 0.000000000000000e+00 0.000000000000000e+00
0.000000000000000e+00 0.000000000000000e+00 0.000000000000000e+00
0.000000000000000e+00 0.000000000000000e+00 0.000000000000000e+00
0.000000000000000e+00 0.000000000000000e+00 0.000000000000000e+00
0.000000000000000e+00 0.000000000000000e+00 0.000000000000000e+00
0.000000000000000e+00 0.000000000000000e+00 0.000000000000000e+00
0.000000000000000e+00 0.000000000000000e+00 0.000000000000000e+00
0.000000000000000e+00 0.000000000000000e+00 0.000000000000000e+00
0.000000000000000e+00 0.000000000000000e+00 0.000000000000000e+00
0.000000000000000e+00 0.000000000000000e+00 0.000000000000000e+00
0.000000000000000e+00 0.000000000000000e+00 0.000000000000000e+00
0.000000000000000e+00 0.000000000000000e+00 0.000000000000000e+00
0.000000000000000e+00 0.000000000000000e+00 0.000000000000000e+00
0.000000000000000e+00 0.000000000000000e+00 0.000000000000000e+00
0.000000000000000e+00 0.000000000000000e+00 0.000000000000000e+00
0.000000000000000e+00 0.000000000000000e+00 0.000000000000000e+00
0.000000000000000e+00 0.000000000000000e+00 0.000000000000000e+00
0.000000000000000e+00 0.000000000000000e+00 0.000000000000000e+00
0.000000000000000e+00 0.000000000000000e+00 0.000000000000000e+00
0.000000000000000e+00 0.000000000000000e+00 0.000000000000000e+00
0.000000000000000e+00 0.000000000000000e+00 0.000000000000000e+00
0.000000000000000e+00 0.000000000000000e+00 0.000000000000000e+00
0.000000000000000e+00 0.000000000000000e+00 0.000000000000000e+00
0.000000000000000e+00 0.000000000000000e+00 0.000000000000000e+00
0.000000000000000e+00 0.000000000000000e+00 0.000000000000000e+00
0.000000000000000e+00 0.000000000000000e+00 0.000000000000000e+00
0.000000000000000e+00 0.000000000000000e+00 0.000000000000000e+00
0.000000000000000e+00 0.000000000000000e+00 0.000000000000000e+00
0.000000000000000e+00 0.000000000000000e+00 0.000000000000000e+00
0.000000000000000e+00 0.000000000000000e+00 0.000000000000000e+00
0.000000000000000e+00 0.000000000000000e+00 0.000000000000000e+00
0.000000000000000e+00 0.000000000000000e+00 0.000000000000000e+00
0.000000000000000e+00 0.000000000000000e+00 0.000000000000000e+00
0.000000000000000e+00 0.000000000000000e+00 0.000000000000000e+00
0.000000000000000e+00 0.000000000000000e+00 0.000000000000000e+00
0.000000000000000e+00 0.000000000000000e+00 0.000000000000000e+00
0.000000000000000e+00 0.000000000000000e+00 0.000000000000000e+00
0.000000000000000e+00 0.000000000000000e+00 0.000000000000000e+00
0.000000000000000e+00 0.000000000000000e+00 0.000000000000000e+00
0.000000000000000e+00 0.000000000000000e+00 0.000000000000000e+00
0.000000000000000e+00 0.000000000000000e+00 0.000000000000000e+00
0.000000000000000e+00 0.000000000000000e+00 0.000000000000000e+00
0.000000000000000e+00 0.000000000000000e+00 0.000000000000000e+00
0.000000000000000e+00 0.000000000000000e+00 0.000000000000000e+00
0.000000000000000e+00 0.000000000000000e+00 0.000000000000000e+00
0.000000000000000e+00 0.000000000000000e+00 0.000000000000000e+00
0.000000000000000e+00 0.000000000000000e+00 0.000000000000000e+00
0.000000000000000e+00 0.000000000000000e+00 0.000000000000000e+00
0.000000000000000e+00 0.000000000000000e+00 0.000000000000000e+00
0.000000000000000e+00 0.000000000000000e+00 0.000000000000000e+00
0.000000000000000e+00 0.000000000000000e+00 0.000000000000000e+00
0.000000000000000e+00 0.000000000000000e+00 0.000000000000000e+00
0.000000000000000e+00 0.000000000000000e+00 0.000000000000000e+00
0.000000000000000e+00 0.000000000000000e+00 0.000000000000000e+00
0.000000000000000e+00 0.000000000000000e+00 0.000000000000000e+00
0.000000000000000e+00 0.000000000000000e+00 0.000000000000000e+00
0.000000000000000e+00 0.000000000000000e+00 0.000000000000000e+00
0.000000000000000e+00 0.000000000000000e+00 0.000000000000000e+00
0.000000000000000e+00 0.000000000000000e+00 0.000000000000000e+00
0.000000000000000e+00 0.000000000000000e+00 0.000000000000000e+00
0.000000000000000e+00 0.000000000000000e+00 0.000000000000000e+00
0.000000000000000e+00 0.000000000000000e+00 0.000000000000000e+00
0.000000000000000e+00 0.000000000000000e+00 0.000000000000000e+00
0.000000000000000e+00 0.000000000000000e+00 0.000000000000000e+00
0.000000000000000e+00 0.000000000000000e+00 0.000000000000000e+00
0.000000000000000e+00 0.000000000000000e+00 0.000000000000000e+00
0.000000000000000e+00 0.000000000000000e+00 0.000000000000000e+00
0.000000000000000e+00 0.000000000000000e+00 0.000000000000000e+00
0.000000000000000e+00 0.000000000000000e+00 0.000000000000000e+00
0.000000000000000e+00 0.000000000000000e+00 0.000000000000000e+00
0.000000000000000e+00 0.000000000000000e+00 0.000000000000000e+00
0.000000000000000e+00 0.000000000000000e+00 0.000000000000000e+00
0.000000000000000e+00 0.000000000000000e+00 0.000000000000000e+00
0.000000000000000e+00 0.000000000000000e+00 0.000000000000000e+00
0.000000000000000e+00 0.000000000000000e+00 0.000000000000000e+00
0.000000000000000e+00 0.000000000000000e+00 0.000000000000000e+00
0.000000000000000e+00 0.000000000000000e+00 0.000000000000000e+00
0.000000000000000e+00 0.000000000000000e+00 0.000000000000000e+00
0.000000000000000e+00 0.000000000000000e+00 0.000000000000000e+00
0.000000000000000e+00 0.000000000000000e+00 0.000000000000000e+00
0.000000000000000e+00 0.000000000000000e+00 0.000000000000000e+00
0.000000000000000e+00 0.000000000000000e+00 0.000000000000000e+00
0.000000000000000e+00 0.000000000000000e+00 0.000000000000000e+00
0.000000000000000e+00 0.000000000000000e+00 0.000000000000000e+00
0.000000000000000e+00 0.000000000000000e+00 0.000000000000000e+00
0.000000000000000e+00 0.000000000000000e+00 0.000000000000000e+00
0.000000000000000e+00 0.000000000000000e+00 0.000000000000000e+00
0.000000000000000e+00 0.000000000000000e+00 0.000000000000000e+00
0.000000000000000e+00 0.000000000000000e+00 0.000000000000000e+00
0.000000000000000e+00 0.000000000000000e+00 0.000000000000000e+00
0.000000000000000e+00 0.000000000000000e+00 0.000000000000000e+00
0.000000000000000e+00 0.000000000000000e+00 0.000000000000000e+00
0.000000000000000e+00 0.000000000000000e+00 0.000000000000000e+00
0.000000000000000e+00 0.000000000000000e+00 0.000000000000000e+00
0.000000000000000e+00 0.000000000000000e+00 0.000000000000000e+00
0.000000000000000e+00 0.000000000000000e+00 0.000000000000000e+00
0.000000000000000e+00 0.000000000000000e+00 0.000000000000000e+00
0.000000000000000e+00 0.000000000000000e+00 0.000000000000000e+00
0.000000000000000e+00 0.000000000000000e+00 0.000000000000000e+00
0.000000000000000e+00 0.000000000000000e+00 0.000000000000000e+00
0.000000000000000e+00 0.000000000000000e+00 0.000000000000000e+00
0.000000000000000e+00 0.000000000000000e+00 0.000000000000000e+00
0.000000000000000e+00 0.000000000000000e+00 0.000000000000000e+00
0.000000000000000e+00 0.000000000000000e+00 0.000000000000000e+00
0.000000000000000e+00 0.000000000000000e+00 0.000000000000000e+00
0.000000000000000e+00 0.000000000000000e+00 0.000000000000000e+00
0.000000000000000e+00 0.000000000000000e+00 0.000000000000000e+00
0.000000000000000e+00 0.000000000000000e+00 0.000000000000000e+00
0.000000000000000e+00 0.000000000000000e+00 0.000000000000000e+00
0.000000000000000e+00 0.000000000000000e+00 0.000000000000000e+00
0.000000000000000e+00 0.000000000000000e+00 0.000000000000000e+00
0.000000000000000e+00 0.000000000000000e+00 0.000000000000000e+00
0.000000000000000e+00 0.000000000000000e+00 0.000000000000000e+00
0.000000000000000e+00 0.000000000000000e+00 0.000000000000000e+00
0.000000000000000e+00 0.000000000000000e+00 0.000000000000000e+00
0.000000000000000e+00 0.000000000000000e+00 0.000000000000000e+00
0.000000000000000e+00 0.000000000000000e+00 0.000000000000000e+00
0.000000000000000e+00 0.000000000000000e+00 0.000000000000000e+00
0.000000000000000e+00 0.000000000000000e+00 0.000000000000000e+00
0.000000000000000e+00 0.000000000000000e+00 0.000000000000000e+00
0.000000000000000e+00 0.000000000000000e+00 0.000000000000000e+00
0.000000000000000e+00 0.000000000000000e+00 0.000000000000000e+00
0.000000000000000e+00 0.000000000000000e+00 0.000000000000000e+00
0.000000000000000e+00 0.000000000000000e+00 0.000000000000000e+00
0.000000000000000e+00 0.000000000000000e+00 0.000000000000000e+00
0.000000000000000e+00 0.000000000000000e+00 0.000000000000000e+00
0.000000000000000e+00 0.000000000000000e+00 0.000000000000000e+00
0.000000000000000e+00 0.000000000000000e+00 0.000000000000000e+00
0.000000000000000e+00 0.000000000000000e+00 0.000000000000000e+00
0.000000000000000e+00 0.000000000000000e+00 0.000000000000000e+00
0.000000000000000e+00 0.000000000000000e+00 0.000000000000000e+00
0.000000000000000e+00 0.000000000000000e+00 0.000000000000000e+00
0.000000000000000e+00 0.000000000000000e+00 0.000000000000000e+00
0.000000000000000e+00 0.000000000000000e+00 0.000000000000000e+00
0.000000000000000e+00 0.000000000000000e+00 0.000000000000000e+00
0.000000000000000e+00 0.000000000000000e+00 0.000000000000000e+00
0.000000000000000e+00 0.000000000000000e+00 0.000000000000000e+00
0.000000000000000e+00 0.000000000000000e+00 0.000000000000000e+00
0.000000000000000e+00 0.000000000000000e+00 0.000000000000000e+00
0.000000000000000e+00 0.000000000000000e+00 0.000000000000000e+00
0.000000000000000e+00 0.000000000000000e+00 0.000000000000000e+00
0.000000000000000e+00 0.000000000000000e+00 0.000000000000000e+00
0.000000000000000e+00 0.000000000000000e+00 0.000000000000000e+00
0.000000000000000e+00 0.000000000000000e+00 0.000000000000000e+00
0.000000000000000e+00 0.000000000000000e+00 0.000000000000000e+00
0.000000000000000e+00 0.000000000000000e+00 0.000000000000000e+00
0.000000000000000e+00 0.000000000000000e+00 0.000000000000000e+00
0.000000000000000e+00 0.000000000000000e+00 0.000000000000000e+00
0.000000000000000e+00 0.000000000000000e+00 0.000000000000000e+00
0.000000000000000e+00 0.000000000000000e+00 0.000000000000000e+00
0.000000000000000e+00 0.000000000000000e+00 0.000000000000000e+00
0.000000000000000e+00 0.000000000000000e+00 0.000000000000000e+00
0.000000000000000e+00 0.000000000000000e+00 0.000000000000000e+00
0.000000000000000e+00 0.000000000000000e+00 0.000000000000000e+00
0.000000000000000e+00 0.000000000000000e+00 0.000000000000000e+00
0.000000000000000e+00 0.000000000000000e+00 0.000000000000000e+00
0.000000000000000e+00 0.000000000000000e+00 0.000000000000000e+00
0.000000000000000e+00 0.000000000000000e+00 0.000000000000000e+00
0.000000000000000e+00 0.000000000000000e+00 0.000000000000000e+00
0.000000000000000e+00 0.000000000000000e+00 0.000000000000000e+00
0.000000000000000e+00 0.000000000000000e+00 0.000000000000000e+00
0.000000000000000e+00 0.000000000000000e+00 0.000000000000000e+00
0.000000000000000e+00 0.000000000000000e+00 0.000000000000000e+00
0.000000000000000e+00 0.000000000000000e+00 0.000000000000000e+00
0.000000000000000e+00 0.000000000000000e+00 0.000000000000000e+00
0.000000000000000e+00 0.000000000000000e+00 0.000000000000000e+00
0.000000000000000e+00 0.000000000000000e+00 0.000000000000000e+00
0.000000000000000e+00 0.000000000000000e+00 0.000000000000000e+00
0.000000000000000e+00 0.000000000000000e+00 0.000000000000000e+00
0.000000000000000e+00 0.000000000000000e+00 0.000000000000000e+00
0.000000000000000e+00 0.000000000000000e+00 0.000000000000000e+00
0.000000000000000e+00 0.000000000000000e+00 0.000000000000000e+00
0.000000000000000e+00 0.000000000000000e+00 0.000000000000000e+00
0.000000000000000e+00 0.000000000000000e+00 0.000000000000000e+00
0.000000000000000e+00 0.000000000000000e+00 0.000000000000000e+00
0.000000000000000e+00 0.000000000000000e+00 0.000000000000000e+00
0.000000000000000e+00 0.000000000000000e+00 0.000000000000000e+00
0.000000000000000e+00 0.000000000000000e+00 0.000000000000000e+00
0.000000000000000e+00 0.000000000000000e+00 0.000000000000000e+00
0.000000000000000e+00 0.000000000000000e+00 0.000000000000000e+00
0.000000000000000e+00 0.000000000000000e+00 0.000000000000000e+00
0.000000000000000e+00 0.000000000000000e+00 0.000000000000000e+00
0.000000000000000e+00 0.000000000000000e+00 0.000000000000000e+00
0.000000000000000e+00 0.000000000000000e+00 0.000000000000000e+00
0.000000000000000e+00 0.000000000000000e+00 0.000000000000000e+00
0.000000000000000e+00 0.000000000000000e+00 0.000000000000000e+00
0.000000000000000e+00 0.000000000000000e+00 0.000000000000000e+00
0.000000000000000e+00 0.000000000000000e+00 0.000000000000000e+00
0.000000000000000e+00 0.000000000000000e+00 0.000000000000000e+00
0.000000000000000e+00 0.000000000000000e+00 0.000000000000000e+00
0.000000000000000e+00 0.000000000000000e+00 0.000000000000000e+00
0.000000000000000e+00 0.000000000000000e+00 0.000000000000000e+00
0.000000000000000e+00 0.000000000000000e+00 0.000000000000000e+00
0.000000000000000e+00 0.000000000000000e+00 0.000000000000000e+00
0.000000000000000e+00 0.000000000000000e+00 0.000000000000000e+00
0.000000000000000e+00 0.000000000000000e+00 0.000000000000000e+00
0.000000000000000e+00 0.000000000000000e+00 0.000000000000000e+00
0.000000000000000e+00 0.000000000000000e+00 0.000000000000000e+00
0.000000000000000e+00 0.000000000000000e+00 0.000000000000000e+00
0.000000000000000e+00 0.000000000000000e+00 0.000000000000000e+00
0.000000000000000e+00 0.000000000000000e+00 0.000000000000000e+00
0.000000000000000e+00 0.000000000000000e+00 0.000000000000000e+00
0.000000000000000e+00 0.000000000000000e+00 0.000000000000000e+00
0.000000000000000e+00 0.000000000000000e+00 0.000000000000000e+00
0.000000000000000e+00 0.000000000000000e+00 0.000000000000000e+00
0.000000000000000e+00 0.000000000000000e+00 0.000000000000000e+00
0.000000000000000e+00 0.000000000000000e+00 0.000000000000000e+00
0.000000000000000e+00 0.000000000000000e+00 0.000000000000000e+00
0.000000000000000e+00 0.000000000000000e+00 0.000000000000000e+00
0.000000000000000e+00 0.000000000000000e+00 0.000000000000000e+00
0.000000000000000e+00 0.000000000000000e+00 0.000000000000000e+00
0.000000000000000e+00 0.000000000000000e+00 0.000000000000000e+00
0.000000000000000e+00 0.000000000000000e+00 0.000000000000000e+00
0.000000000000000e+00 0.000000000000000e+00 0.000000000000000e+00
0.000000000000000e+00 0.000000000000000e+00 0.000000000000000e+00
0.000000000000000e+00 0.000000000000000e+00 0.000000000000000e+00
0.000000000000000e+00 0.000000000000000e+00 0.000000000000000e+00
0.000000000000000e+00 0.000000000000000e+00 0.000000000000000e+00
0.000000000000000e+00 0.000000000000000e+00 0.000000000000000e+00
0.000000000000000e+00 0.000000000000000e+00 0.000000000000000e+00
0.000000000000000e+00 0.000000000000000e+00 0.000000000000000e+00
0.000000000000000e+00 0.000000000000000e+00 0.000000000000000e+00
0.000000000000000e+00 0.000000000000000e+00 0.000000000000000e+00
0.000000000000000e+00 0.000000000000000e+00 0.000000000000000e+00
0.000000000000000e+00 0.000000000000000e+00 0.000000000000000e+00
0.000000000000000e+00 0.000000000000000e+00 0.000000000000000e+00
0.000000000000000e+00 0.000000000000000e+00 0.000000000000000e+00
0.000000000000000e+00 0.000000000000000e+00 0.000000000000000e+00
0.000000000000000e+00 0.000000000000000e+00 0.000000000000000e+00
0.000000000000000e+00 0.000000000000000e+00 0.000000000000000e+00
0.000000000000000e+00 0.000000000000000e+00 0.000000000000000e+00
0.000000000000000e+00 0.000000000000000e+00 0.000000000000000e+00
0.000000000000000e+00 0.000000000000000e+00 0.000000000000000e+00
0.000000000000000e+00 0.000000000000000e+00 0.000000000000000e+00
0.000000000000000e+00 0.000000000000000e+00 0.000000000000000e+00
0.000000000000000e+00 0.000000000000000e+00 0.000000000000000e+00
0.000000000000000e+00 0.000000000000000e+00 0.000000000000000e+00
0.000000000000000e+00 0.000000000000000e+00 0.000000000000000e+00
0.000000000000000e+00 0.000000000000000e+00 0.000000000000000e+00
0.000000000000000e+00 0.000000000000000e+00 0.000000000000000e+00
0.000000000000000e+00 0.000000000000000e+00 0.000000000000000e+00
0.000000000000000e+00 0.000000000000000e+00 0.000000000000000e+00
0.000000000000000e+00 0.000000000000000e+00 0.000000000000000e+00
0.000000000000000e+00 0.000000000000000e+00 0.000000000000000e+00
0.000000000000000e+00 0.000000000000000e+00 0.000000000000000e+00
0.000000000000000e+00 0.000000000000000e+00 0.000000000000000e+00
0.000000000000000e+00 0.000000000000000e+00 0.000000000000000e+00
0.000000000000000e+00 0.000000000000000e+00 0.000000000000000e+00
0.000000000000000e+00 0.000000000000000e+00 0.000000000000000e+00
0.000000000000000e+00 0.000000000000000e+00 0.000000000000000e+00
0.000000000000000e+00 0.000000000000000e+00 0.000000000000000e+00
0.000000000000000e+00 0.000000000000000e+00 0.000000000000000e+00
0.000000000000000e+00 0.000000000000000e+00 0.000000000000000e+00
0.000000000000000e+00 0.000000000000000e+00 0.000000000000000e+00
0.000000000000000e+00 0.000000000000000e+00 0.000000000000000e+00
0.000000000000000e+00 0.000000000000000e+00 0.000000000000000e+00
0.000000000000000e+00 0.000000000000000e+00 0.000000000000000e+00
0.000000000000000e+00 0.000000000000000e+00 0.000000000000000e+00
0.000000000000000e+00 0.000000000000000e+00 0.000000000000000e+00
0.000000000000000e+00 0.000000000000000e+00 0.000000000000000e+00
0.000000000000000e+00 0.000000000000000e+00 0.000000000000000e+00
0.000000000000000e+00 0.000000000000000e+00 0.000000000000000e+00
0.000000000000000e+00 0.000000000000000e+00 0.000000000000000e+00
0.000000000000000e+00 0.000000000000000e+00 0.000000000000000e+00
0.000000000000000e+00 0.000000000000000e+00 0.000000000000000e+00
0.000000000000000e+00 0.000000000000000e+00 0.000000000000000e+00
0.000000000000000e+00 0.000000000000000e+00 0.000000000000000e+00
0.000000000000000e+00 0.000000000000000e+00 0.000000000000000e+00
0.000000000000000e+00 0.000000000000000e+00 0.000000000000000e+00
0.000000000000000e+00 0.000000000000000e+00 0.000000000000000e+00
0.000000000000000e+00 0.000000000000000e+00 0.000000000000000e+00
0.000000000000000e+00 0.000000000000000e+00 0.000000000000000e+00
0.000000000000000e+00 0.000000000000000e+00 0.000000000000000e+00
0.000000000000000e+00 0.000000000000000e+00 0.000000000000000e+00
0.000000000000000e+00 0.000000000000000e+00 0.000000000000000e+00
0.000000000000000e+00 0.000000000000000e+00 0.000000000000000e+00
0.000000000000000e+00 0.000000000000000e+00 0.000000000000000e+00
0.000000000000000e+00 0.000000000000000e+00 0.000000000000000e+00
0.000000000000000e+00 0.000000000000000e+00 0.000000000000000e+00
0.000000000000000e+00 0.000000000000000e+00 0.000000000000000e+00
0.000000000000000e+00 0.000000000000000e+00 0.000000000000000e+00
0.000000000000000e+00 0.000000000000000e+00 0.000000000000000e+00
0.000000000000000e+00 0.000000000000000e+00 0.000000000000000e+00
0.000000000000000e+00 0.000000000000000e+00 0.000000000000000e+00
0.000000000000000e+00 0.000000000000000e+00 0.000000000000000e+00
0.000000000000000e+00 0.000000000000000e+00 0.000000000000000e+00
0.000000000000000e+00 0.000000000000000e+00 0.000000000000000e+00
0.000000000000000e+00 0.000000000000000e+00 0.000000000000000e+00
0.000000000000000e+00 0.000000000000000e+00 0.000000000000000e+00
0.000000000000000e+00 0.000000000000000e+00 0.000000000000000e+00
0.000000000000000e+00 0.000000000000000e+00 0.000000000000000e+00
0.000000000000000e+00 0.000000000000000e+00 0.000000000000000e+00
0.000000000000000e+00 0.000000000000000e+00 0.000000000000000e+00
0.000000000000000e+00 0.000000000000000e+00 0.000000000000000e+00
0.000000000000000e+00 0.000000000000000e+00 0.000000000000000e+00
0.000000000000000e+00 0.000000000000000e+00 0.000000000000000e+00
0.000000000000000e+00 0.000000000000000e+00 0.000000000000000e+00
0.000000000000000e+00 0.000000000000000e+00 0.000000000000000e+00
0.000000000000000e+00 0.000000000000000e+00 0.000000000000000e+00
0.000000000000000e+00 0.000000000000000e+00 0.000000000000000e+00
0.000000000000000e+00 0.000000000000000e+00 0.000000000000000e+00
0.000000000000000e+00 0.000000000000000e+00 0.000000000000000e+00
0.000000000000000e+00 0.000000000000000e+00 0.000000000000000e+00
0.000000000000000e+00 0.000000000000000e+00 0.000000000000000e+00
0.000000000000000e+00 0.000000000000000e+00 0.000000000000000e+00
0.000000000000000e+00 0.000000000000000e+00 0.000000000000000e+00
0.000000000000000e+00 0.000000000000000e+00 0.000000000000000e+00
0.000000000000000e+00 0.000000000000000e+00 0.000000000000000e+00
0.000000000000000e+00 0.000000000000000e+00 0.000000000000000e+00
0.000000000000000e+00 0.000000000000000e+00 0.000000000000000e+00
0.000000000000000e+00 0.000000000000000e+00 0.000000000000000e+00
0.000000000000000e+00 0.000000000000000e+00 0.000000000000000e+00
0.000000000000000e+00 0.000000000000000e+00 0.000000000000000e+00
0.000000000000000e+00 0.000000000000000e+00 0.000000000000000e+00
0.000000000000000e+00 0.000000000000000e+00 0.000000000000000e+00
0.000000000000000e+00 0.000000000000000e+00 0.000000000000000e+00
0.000000000000000e+00 0.000000000000000e+00 0.000000000000000e+00
0.000000000000000e+00 0.000000000000000e+00 0.000000000000000e+00
0.000000000000000e+00 0.000000000000000e+00 0.000000000000000e+00
0.000000000000000e+00 0.000000000000000e+00 0.000000000000000e+00
0.000000000000000e+00 0.000000000000000e+00 0.000000000000000e+00
0.000000000000000e+00 0.000000000000000e+00 0.000000000000000e+00
0.000000000000000e+00 0.000000000000000e+00 0.000000000000000e+00
0.000000000000000e+00 0.000000000000000e+00 0.000000000000000e+00
0.000000000000000e+00 0.000000000000000e+00 0.000000000000000e+00
0.000000000000000e+00 0.000000000000000e+00 0.000000000000000e+00
0.000000000000000e+00 0.000000000000000e+00 0.000000000000000e+00
0.000000000000000e+00 0.000000000000000e+00 0.000000000000000e+00
0.000000000000000e+00 0.000000000000000e+00 0.000000000000000e+00
0.000000000000000e+00 0.000000000000000e+00 0.000000000000000e+00
0.000000000000000e+00 0.000000000000000e+00 0.000000000000000e+00
0.000000000000000e+00 0.000000000000000e+00 0.000000000000000e+00
0.000000000000000e+00 0.000000000000000e+00 0.000000000000000e+00
0.000000000000000e+00 0.000000000000000e+00 0.000000000000000e+00
0.000000000000000e+00 0.000000000000000e+00 0.000000000000000e+00
0.000000000000000e+00 0.000000000000000e+00 0.000000000000000e+00
0.000000000000000e+00 0.000000000000000e+00 0.000000000000000e+00
0.000000000000000e+00 0.000000000000000e+00 0.000000000000000e+00
0.000000000000000e+00 0.000000000000000e+00 0.000000000000000e+00
0.000000000000000e+00 0.000000000000000e+00 0.000000000000000e+00
0.000000000000000e+00 0.000000000000000e+00 0.000000000000000e+00
0.000000000000000e+00 0.000000000000000e+00 0.000000000000000e+00
0.000000000000000e+00 0.000000000000000e+00 0.000000000000000e+00
0.000000000000000e+00 0.000000000000000e+00 0.000000000000000e+00
0.000000000000000e+00 0.000000000000000e+00 0.000000000000000e+00
0.000000000000000e+00 0.000000000000000e+00 0.000000000000000e+00
0.000000000000000e+00 0.000000000000000e+00 0.000000000000000e+00
0.000000000000000e+00 0.000000000000000e+00 0.000000000000000e+00
0.000000000000000e+00 0.000000000000000e+00 0.000000000000000e+00
0.000000000000000e+00 0.000000000000000e+00 0.000000000000000e+00
0.000000000000000e+00 0.000000000000000e+00 0.000000000000000e+00
0.000000000000000e+00 0.000000000000000e+00 0.000000000000000e+00
0.000000000000000e+00 0.000000000000000e+00 0.000000000000000e+00
0.000000000000000e+00 0.000000000000000e+00 0.000000000000000e+00
0.000000000000000e+00 0.000000000000000e+00 0.000000000000000e+00
0.000000000000000e+00 0.000000000000000e+00 0.000000000000000e+00
0.000000000000000e+00 0.000000000000000e+00 0.000000000000000e+00
0.000000000000000e+00 0.000000000000000e+00 0.000000000000000e+00
0.000000000000000e+00 0.000000000000000e+00 0.000000000000000e+00
0.000000000000000e+00 0.000000000000000e+00 0.000000000000000e+00
0.000000000000000e+00 0.000000000000000e+00 0.000000000000000e+00
0.000000000000000e+00 0.000000000000000e+00 0.000000000000000e+00
0.000000000000000e+00 0.000000000000000e+00 0.000000000000000e+00
0.000000000000000e+00 0.000000000000000e+00 0.000000000000000e+00
0.000000000000000e+00 0.000000000000000e+00 0.000000000000000e+00
0.000000000000000e+00 0.000000000000000e+00 0.000000000000000e+00
0.000000000000000e+00 0.000000000000000e+00 0.000000000000000e+00
0.000000000000000e+00 0.000000000000000e+00 0.000000000000000e+00
0.000000000000000e+00 0.000000000000000e+00 0.000000000000000e+00
0.000000000000000e+00 0.000000000000000e+00 0.000000000000000e+00
0.000000000000000e+00 0.000000000000000e+00 0.000000000000000e+00
0.000000000000000e+00 0.000000000000000e+00 0.000000000000000e+00
0.000000000000000e+00 0.000000000000000e+00 0.000000000000000e+00
0.000000000000000e+00 0.000000000000000e+00 0.000000000000000e+00
0.000000000000000e+00 0.000000000000000e+00 0.000000000000000e+00
0.000000000000000e+00 0.000000000000000e+00 0.000000000000000e+00
0.000000000000000e+00 0.000000000000000e+00 0.000000000000000e+00
0.000000000000000e+00 0.000000000000000e+00 0.000000000000000e+00
0.000000000000000e+00 0.000000000000000e+00 0.000000000000000e+00
0.000000000000000e+00 0.000000000000000e+00 0.000000000000000e+00
0.000000000000000e+00 0.000000000000000e+00 0.000000000000000e+00
0.000000000000000e+00 0.000000000000000e+00 0.000000000000000e+00
0.000000000000000e+00 0.000000000000000e+00 0.000000000000000e+00
0.000000000000000e+00 0.000000000000000e+00 0.000000000000000e+00
0.000000000000000e+00 0.000000000000000e+00 0.000000000000000e+00
0.000000000000000e+00 0.000000000000000e+00 0.000000000000000e+00
0.000000000000000e+00 0.000000000000000e+00 0.000000000000000e+00
0.000000000000000e+00 0.000000000000000e+00 0.000000000000000e+00
0.000000000000000e+00 0.000000000000000e+00 0.000000000000000e+00
0.000000000000000e+00 0.000000000000000e+00 0.000000000000000e+00
0.000000000000000e+00 0.000000000000000e+00 0.000000000000000e+00
0.000000000000000e+00 0.000000000000000e+00 0.000000000000000e+00
0.000000000000000e+00 0.000000000000000e+00 0.000000000000000e+00
0.000000000000000e+00 0.000000000000000e+00 0.000000000000000e+00
0.000000000000000e+00 0.000000000000000e+00 0.000000000000000e+00
0.000000000000000e+00 0.000000000000000e+00 0.000000000000000e+00
0.000000000000000e+00 0.000000000000000e+00 0.000000000000000e+00
0.000000000000000e+00 0.000000000000000e+00 0.000000000000000e+00
0.000000000000000e+00 0.000000000000000e+00 0.000000000000000e+00
0.000000000000000e+00 0.000000000000000e+00 0.000000000000000e+00
0.000000000000000e+00 0.000000000000000e+00 0.000000000000000e+00
0.000000000000000e+00 0.000000000000000e+00 0.000000000000000e+00
0.000000000000000e+00 0.000000000000000e+00 0.000000000000000e+00
0.000000000000000e+00 0.000000000000000e+00 0.000000000000000e+00
0.000000000000000e+00 0.000000000000000e+00 0.000000000000000e+00
0.000000000000000e+00 0.000000000000000e+00 0.000000000000000e+00
0.000000000000000e+00 0.000000000000000e+00 0.000000000000000e+00
0.000000000000000e+00 0.000000000000000e+00 0.000000000000000e+00
0.000000000000000e+00 0.000000000000000e+00 0.000000000000000e+00
0.000000000000000e+00 0.000000000000000e+00 0.000000000000000e+00
0.000000000000000e+00 0.000000000000000e+00 0.000000000000000e+00
0.000000000000000e+00 0.000000000000000e+00 0.000000000000000e+00
0.000000000000000e+00 0.000000000000000e+00 0.000000000000000e+00
0.000000000000000e+00 0.000000000000000e+00 0.000000000000000e+00
0.000000000000000e+00 0.000000000000000e+00 0.000000000000000e+00
0.000000000000000e+00 0.000000000000000e+00 0.000000000000000e+00
0.000000000000000e+00 0.000000000000000e+00 0.000000000000000e+00
0.000000000000000e+00 0.000000000000000e+00 0.000000000000000e+00
0.000000000000000e+00 0.000000000000000e+00 0.000000000000000e+00
0.000000000000000e+00 0.000000000000000e+00 0.000000000000000e+00
0.000000000000000e+00 0.000000000000000e+00 0.000000000000000e+00
0.000000000000000e+00 0.000000000000000e+00 0.000000000000000e+00
0.000000000000000e+00 0.000000000000000e+00 0.000000000000000e+00
0.000000000000000e+00 0.000000000000000e+00 0.000000000000000e+00
0.000000000000000e+00 0.000000000000000e+00 0.000000000000000e+00
0.000000000000000e+00 0.000000000000000e+00 0.000000000000000e+00
0.000000000000000e+00 0.000000000000000e+00 0.000000000000000e+00
0.000000000000000e+00 0.000000000000000e+00 0.000000000000000e+00
0.000000000000000e+00 0.000000000000000e+00 0.000000000000000e+00
0.000000000000000e+00 0.000000000000000e+00 0.000000000000000e+00
0.000000000000000e+00 0.000000000000000e+00 0.000000000000000e+00
0.000000000000000e+00 0.000000000000000e+00 0.000000000000000e+00
0.000000000000000e+00 0.000000000000000e+00 0.000000000000000e+00
0.000000000000000e+00 0.000000000000000e+00 0.000000000000000e+00
0.000000000000000e+00 0.000000000000000e+00 0.000000000000000e+00
0.000000000000000e+00 0.000000000000000e+00 0.000000000000000e+00
0.000000000000000e+00 0.000000000000000e+00 0.000000000000000e+00
0.000000000000000e+00 0.000000000000000e+00 0.000000000000000e+00
0.000000000000000e+00 0.000000000000000e+00 0.000000000000000e+00
0.000000000000000e+00 0.000000000000000e+00 0.000000000000000e+00
0.000000000000000e+00 0.000000000000000e+00 0.000000000000000e+00
0.000000000000000e+00 0.000000000000000e+00 0.000000000000000e+00
0.000000000000000e+00 0.000000000000000e+00 0.000000000000000e+00
0.000000000000000e+00 0.000000000000000e+00 0.000000000000000e+00
0.000000000000000e+00 0.000000000000000e+00 0.000000000000000e+00
0.000000000000000e+00 0.000000000000000e+00 0.000000000000000e+00
0.000000000000000e+00 0.000000000000000e+00 0.000000000000000e+00
0.000000000000000e+00 0.000000000000000e+00 0.000000000000000e+00
0.000000000000000e+00 0.000000000000000e+00 0.000000000000000e+00
0.000000000000000e+00 0.000000000000000e+00 0.000000000000000e+00
0.000000000000000e+00 0.000000000000000e+00 0.000000000000000e+00
0.000000000000000e+00 0.000000000000000e+00 0.000000000000000e+00
0.000000000000000e+00 0.000000000000000e+00 0.000000000000000e+00
0.000000000000000e+00 0.000000000000000e+00 0.000000000000000e+00
0.000000000000000e+00 0.000000000000000e+00 0.000000000000000e+00
0.000000000000000e+00 0.000000000000000e+00 0.000000000000000e+00
0.000000000000000e+00 0.000000000000000e+00 0.000000000000000e+00
0.000000000000000e+00 0.000000000000000e+00 0.000000000000000e+00
0.000000000000000e+00 0.000000000000000e+00 0.000000000000000e+00
0.000000000000000e+00 0.000000000000000e+00 0.000000000000000e+00
0.000000000000000e+00 0.000000000000000e+00 0.000000000000000e+00
0.000000000000000e+00 0.000000000000000e+00 0.000000000000000e+00
0.000000000000000e+00 0.000000000000000e+00 0.000000000000000e+00
0.000000000000000e+00 0.000000000000000e+00 0.000000000000000e+00
0.000000000000000e+00 0.000000000000000e+00 0.000000000000000e+00
0.000000000000000e+00 0.000000000000000e+00 0.000000000000000e+00
0.000000000000000e+00 0.000000000000000e+00 0.000000000000000e+00
0.000000000000000e+00 0.000000000000000e+00 0.000000000000000e+00
0.000000000000000e+00 0.000000000000000e+00 0.000000000000000e+00
0.000000000000000e+00 0.000000000000000e+00 0.000000000000000e+00
0.000000000000000e+00 0.000000000000000e+00 0.000000000000000e+00
0.000000000000000e+00 0.000000000000000e+00 0.000000000000000e+00
0.000000000000000e+00 0.000000000000000e+00 0.000000000000000e+00
0.000000000000000e+00 0.000000000000000e+00 0.000000000000000e+00
0.000000000000000e+00 0.000000000000000e+00 0.000000000000000e+00
0.000000000000000e+00 0.000000000000000e+00 0.000000000000000e+00
0.000000000000000e+00 0.000000000000000e+00 0.000000000000000e+00
0.000000000000000e+00 0.000000000000000e+00 0.000000000000000e+00
0.000000000000000e+00 0.000000000000000e+00 0.000000000000000e+00
0.000000000000000e+00 0.000000000000000e+00 0.000000000000000e+00
0.000000000000000e+00 0.000000000000000e+00 0.000000000000000e+00
0.000000000000000e+00 0.000000000000000e+00 0.000000000000000e+00
0.000000000000000e+00 0.000000000000000e+00 0.000000000000000e+00
0.000000000000000e+00 0.000000000000000e+00 0.000000000000000e+00
0.000000000000000e+00 0.000000000000000e+00 0.000000000000000e+00
0.000000000000000e+00 0.000000000000000e+00 0.000000000000000e+00
0.000000000000000e+00 0.000000000000000e+00 0.000000000000000e+00
0.000000000000000e+00 0.000000000000000e+00 0.000000000000000e+00
0.000000000000000e+00 0.000000000000000e+00 0.000000000000000e+00
0.000000000000000e+00 0.000000000000000e+00 0.000000000000000e+00
0.000000000000000e+00 0.000000000000000e+00 0.000000000000000e+00
0.000000000000000e+00 0.000000000000000e+00 0.000000000000000e+00
0.000000000000000e+00 0.000000000000000e+00 0.000000000000000e+00
0.000000000000000e+00 0.000000000000000e+00 0.000000000000000e+00
0.000000000000000e+00 0.000000000000000e+00 0.000000000000000e+00
0.000000000000000e+00 0.000000000000000e+00 0.000000000000000e+00
0.000000000000000e+00 0.000000000000000e+00 0.000000000000000e+00
0.000000000000000e+00 0.000000000000000e+00 0.000000000000000e+00
0.000000000000000e+00 0.000000000000000e+00 0.000000000000000e+00
0.000000000000000e+00 0.000000000000000e+00 0.000000000000000e+00
0.000000000000000e+00 0.000000000000000e+00 0.000000000000000e+00
0.000000000000000e+00 0.000000000000000e+00 0.000000000000000e+00
0.000000000000000e+00 0.000000000000000e+00 0.000000000000000e+00
0.000000000000000e+00 0.000000000000000e+00 0.000000000000000e+00
0.000000000000000e+00 0.000000000000000e+00 0.000000000000000e+00
0.000000000000000e+00 0.000000000000000e+00 0.000000000000000e+00
0.000000000000000e+00 0.000000000000000e+00 0.000000000000000e+00
0.000000000000000e+00 0.000000000000000e+00 0.000000000000000e+00
0.000000000000000e+00 0.000000000000000e+00 0.000000000000000e+00
0.000000000000000e+00 0.000000000000000e+00 0.000000000000000e+00
0.000000000000000e+00 0.000000000000000e+00 0.000000000000000e+00
0.000000000000000e+00 0.000000000000000e+00 0.000000000000000e+00
0.000000000000000e+00 0.000000000000000e+00 0.000000000000000e+00
0.000000000000000e+00 0.000000000000000e+00 0.000000000000000e+00
0.000000000000000e+00 0.000000000000000e+00 0.000000000000000e+00
0.000000000000000e+00 0.000000000000000e+00 0.000000000000000e+00
0.000000000000000e+00 0.000000000000000e+00 0.000000000000000e+00
0.000000000000000e+00 0.000000000000000e+00 0.000000000000000e+00
0.000000000000000e+00 0.000000000000000e+00 0.000000000000000e+00
0.000000000000000e+00 0.000000000000000e+00 0.000000000000000e+00
0.000000000000000e+00 0.000000000000000e+00 0.000000000000000e+00
-1.277553655088412e+01  9.589829658825373e-02  2.263705919797667e-16
-5.089428907712125e+00 -4.470284266051382e-02  9.103176377030453e-17
 2.008333017712771e+01 -4.432919104174474e+00 -3.118601833229049e-16
 1.569857120399736e+01  6.196661285924305e-01 -2.857416448638236e-16
-7.422997221772594e+00 -9.099452637332192e-01  1.414504470065148e-16
-2.127202943973947e+01  1.134787896041713e+00  3.669016046765223e-16
 5.304705664396038e+00 -1.428238183038079e-01 -9.293610212429175e-17
 2.582909158407826e+00 -2.279267644863470e-02 -4.573176300994917e-17
 1.137606199566806e+01  5.432768252449825e-02 -2.030087902663315e-16
 2.461934705869976e+01  4.151571541634415e+00 -4.807865373609893e-16
-1.836586567951956e+00 -2.271693996397329e-02  3.291765703892849e-17
-9.044011539908979e+00 -5.764366279185494e-01  1.668716504010071e-16
-5.116937235463561e+00  4.709344582863296e-01  8.622332132345914e-17
 1.066681513016187e+01  8.322233471432788e-02 -1.906837783362245e-16
-8.938995247211038e+00 -1.701088455949626e+00  1.765581491814457e-16
-7.977263864430510e+00  8.186770752163948e-02  1.411237651381815e-16
 1.481134611754529e+01  1.847886038387189e-01 -2.654842075500860e-16
-5.221533401111960e+00 -3.099215880638691e+00  1.247667326432241e-16
-2.173179206144495e+01  2.616409647547691e+00  3.598605036925494e-16
 1.363172970304653e+01 -8.560578496101227e+00 -1.546360563420533e-16
 9.677388362648980e-02  1.322814935408680e-02 -1.858121124404694e-18
-2.847700079201419e+00  3.177847505735809e+00  1.802699106840401e-17
 2.954881252265454e+01  7.117003763498218e+00 -5.989809942046894e-16
-1.153436641965719e+01 -1.111769379194106e+00  2.166908356243132e-16
 1.786233074047590e+01  2.854321954545255e+00 -3.472086036772185e-16
-1.884402309826823e+01 -1.124324057853288e+01  4.508720815898822e-16
 1.466661832399814e-01 -9.499558042437341e+00  9.499440828911254e-17
 2.244017391483446e+01  4.623451662698577e+00 -4.468539486888644e-16
 1.241014665194082e+01 -1.625932947382823e+00 -2.041474926509132e-16
 2.393242772702890e+01  3.820015745635640e+00 -4.651553731203829e-16
-1.291555522198972e+01 -6.362154026315951e-03  2.299130802398765e-16
 2.512152479821525e+00  1.085627512683382e-01 -4.582219282252862e-17
 3.884306649761019e+00  5.905738518008771e-02 -6.973266335281615e-17
-1.217603021568388e+01 -9.059137573680386e-01  2.259949165530090e-16
 7.302592420218380e+00 -1.406731465826646e+00 -1.155046882235154e-16
 9.330921071692922e+00  7.497253128108298e-01 -1.737580260250376e-16
-1.979685421399347e+01 -1.527591773340737e-01  3.538781803450768e-16
-1.948941113681735e+01 -8.769617883134737e-01  3.558477828131818e-16
 1.293411593030031e+01 -2.289579872452904e+00 -2.066534198869129e-16
 2.938169547218232e+01  8.700715183755214e+00 -6.122790064844622e-16
-3.164807588166038e+01 -4.614103509148008e+00  6.106234988659990e-16
-2.090879860234346e+00  5.977712849931917e-01  3.106781840725573e-17
 3.097372475922355e+01 -1.812076489185298e+00 -5.325959512239393e-16
-1.220923221807150e+01 -1.850151306387393e+01  4.073741766799087e-16
-2.791608189933786e+01  9.742814214880719e+00  3.966961001374448e-16
 2.218759587225178e+01 -1.470958372082773e+01 -2.437191057226789e-16
 2.604623791636766e+01  7.498845841333641e+00 -5.405717897043290e-16
-2.342309516542620e+01 -2.776361427382046e+00  4.453680236484406e-16
-2.338917767340105e+01  6.444070182299631e+00  3.500278361381109e-16
 1.770427743675433e+01  4.230592915227768e-01 -3.194155159526150e-16
 5.806695033307464e+00  3.947619713610375e-03 -1.033776249500208e-16
-2.142222271925841e+01 -3.231102672960430e+00  4.144324129921189e-16
-2.680579738613512e-01  2.784162878171667e-02  4.484348778967025e-18
 1.702763118278446e+01  7.517356161762893e-01 -3.107508185555272e-16
-2.029812188921335e+01 -3.486371008905867e+00  3.970504871533865e-16
-2.055100094080236e+01  9.188930146607749e-01  3.562882839579377e-16
 2.202614913923606e+01 -4.641804705637573e+00 -3.442887405713596e-16
 1.235575120197032e+01  1.190573694943363e+00 -2.321180433515186e-16
-1.145689853829323e+01  2.384043770091145e-01  2.014396574155510e-16
-6.652388880384311e+00 -2.716243694026051e-01  1.211780371027668e-16
 8.110511623777168e+00 -1.404559916456896e+00 -1.299048860245740e-16
 2.728560353694371e+00  3.178096918468780e-01 -5.182336535067323e-17
-3.405168576153804e+00  1.687332005021510e-01  5.886536432132157e-17
 1.529141008738570e+01  6.592028064915503e+00 -3.398595859442709e-16
-5.031537321039635e-01  1.068234691062993e-02  8.844463618976826e-18
-3.672757230525187e-01 -1.078384397067892e-02  6.646909676169176e-18
-3.235941186997794e+00  1.607931164043258e-01  5.593534253179510e-17
 7.417627991234785e+00  3.175654877233254e-01 -1.352684082110876e-16
 2.575806960926483e-01 -9.483811982534984e-03 -4.486513023785794e-18
-2.623043103379188e+00 -1.039346600330810e-01  4.774807180503519e-17
-3.525844110644103e+00 -2.150655912097309e-03  6.276869894327699e-17
-2.810913870541323e+01  9.996313542121398e-01  4.899648040245907e-16
-1.030307749809185e+01  3.085309818185015e+01 -1.336488217376701e-16
 2.901294685181714e+01 -8.955219799666665e+00 -4.243083668605303e-16
 2.734965800512265e+01  1.193578766360645e+01 -6.093556703670930e-16
-2.887487062990267e+01 -1.501105499395698e+01  6.680959030254820e-16
-1.817566351313438e+01  1.334501041064835e+00  3.097460995253268e-16
-5.982902015226248e+00 -4.322382065449287e-02  1.069169870787194e-16
-1.751065418991466e+01  8.303111630134673e-01  3.030918331809262e-16
 2.040013992340959e+01 -3.689841530468574e+00 -3.251330428105453e-16
 2.135440845588191e+01  1.746052973793139e+00 -3.979672309590287e-16
-2.618030897856654e+01 -5.259666550649497e+00  5.199509903904410e-16
-1.169543051859345e+01  1.036417860940064e+00  1.974853198636806e-16
 8.448083851208178e+00  4.136764748992863e-01 -1.545941049281187e-16
-1.123741007895630e+01  2.211424083350026e-01  1.977109589120622e-16
 1.816992297345817e+01 -4.928445850446299e+00 -2.727174625282403e-16
 1.630152925414377e+01  1.197263081618071e+00 -3.024066015319735e-16
-1.177884106210405e+01 -3.007801777747087e-01  2.127089340296181e-16
-2.053675716354939e+01  2.522765736041052e+01  1.062710756946745e-16
 9.922199897822663e+00  1.364648158903012e-01 -1.779795092460916e-16
-7.238822734178902e-01  7.781622825973512e-03  1.280239518992877e-17
-2.768942297185542e+00  3.306960684050961e-02  4.893685287075506e-17
 1.937229889773694e+00 -3.814947530441844e-02 -3.408334469956044e-17
 2.437438083894696e+00  1.065695624255790e-02 -4.348661455270164e-17
-3.813550724390987e-01  1.049251845705912e-03  6.775887727597263e-18
-6.019680405093619e-01  2.624027297024973e-03  1.068577840841747e-17
-1.149706421063393e+00  6.233885076241956e-03  2.039634627405775e-17
-1.676868187901082e+00  2.010357856742025e-02  2.963531267775467e-17
 1.559764045641047e+00 -3.016158032750120e-02 -2.744796246420454e-17
 4.794032789325057e+00  1.950663294349243e-02 -8.551595558023517e-17
-4.940731743770143e+00 -1.108928978304171e-01  8.906559913315126e-17
-6.505581942357422e+00  7.153839624255906e-02  1.150395597743781e-16
 4.894869164092060e+00 -2.446363604594494e-01 -8.459648583064605e-17
 4.072535229534836e+00 -4.808389018708864e-02 -7.198157780453506e-17
 9.371235776808852e+00  4.217860313758914e-02 -1.672056888753213e-16
 2.383704140474840e+01  3.437793616031494e+00 -4.595306661954178e-16
-5.684807417367598e+00  8.142108617024578e-03  1.010842718569704e-16
-1.611717997251979e+01 -9.517269206657767e-01  2.966030912796808e-16
-1.400383465738612e+01  6.724511770229090e+00  1.801230264917333e-16
 1.688392886851066e+01  9.522704686661241e-01 -3.102538872266517e-16
 2.453436421562310e+00 -2.159255766622570e-02 -4.343997200121375e-17
-9.337347810046023e+00 -1.286645229502101e+00  1.793890546757627e-16
-8.108122322625578e+00  5.501361401591546e-01  1.386412594617384e-16
 1.640618923473057e+01  3.452988387825046e-01 -2.955155275668383e-16
 1.117676995163538e+01 -1.490230664356877e-01 -1.973727955496026e-16
-1.658791494627292e+01 -3.432626031527161e+00  3.304707187553108e-16
-1.757345161996805e+01  6.057523836333075e-01  3.065166482706985e-16
 2.150657667048839e+01 -5.784788524447588e+00 -3.232985852070666e-16
 1.648544686275672e+01  1.390795936554123e+00 -3.076681144878906e-16
-8.356990579779245e+00 -5.325039732092154e-01  1.541939008227944e-16
-4.451883865279846e+00  2.699232202737123e-01  7.645322074556954e-17
 1.484250256957900e+01  4.743770523428571e-01 -2.690140898887867e-16
 2.169830819638266e+01  1.589639764025582e+00 -4.024802481970762e-16
-1.957648886714773e+01 -3.297713635023924e+00  3.822697807018073e-16
-5.906083024884288e+00  1.188992485150628e+00  9.288932661417395e-17
 1.281203484772726e+01  2.558041311664240e-01 -2.306337373818650e-16
 3.823228197429545e+00  2.467075378971952e-01 -7.057373662446319e-17
 1.875027819065249e+01  2.218619166003012e+00 -3.564790725219166e-16
-2.892220829746258e+00 -1.929192658309667e-01  5.345269503086445e-17
-2.472495811990812e+01 -3.757607365707406e+00  4.786181733742688e-16
-1.134724449045376e+01  2.925354279112917e+01 -9.863177432024477e-17
 2.766178226010190e+01 -4.287081962573995e-01 -4.878695905131348e-16
-1.246205471003888e+01 -8.947895030014125e-01  2.309707659302284e-16
-1.721492769046359e+01  2.891715422992181e+00  2.766488474534667e-16
 2.004443884230379e+01 -1.299136059568755e+00 -3.433665479793771e-16
 1.123291553948496e+00 -5.639311870075795e-02 -1.941089432576961e-17
 8.368875987329531e+00 -6.658520327844707e-01 -1.420927432030602e-16
 1.970399482209424e+01 -1.292303992146879e+00 -3.373781375716114e-16
 1.511577405489388e+00 -2.469106864112667e+01  2.267914377220245e-16
-2.285308615543998e+01 -1.249992706901160e+00  4.195411492627040e-16
-3.138971130590685e+01  7.305312431581086e+00  4.835579242634426e-16
 2.871466601793351e+01 -1.360105200804905e+01 -3.712658653756529e-16
 2.012313941483754e+01  3.660683592494548e+00 -3.957274637390546e-16
-2.361725622519648e+01 -3.213269668633699e-01  4.235987640480913e-16
 8.871280034683741e+00 -4.249315956881338e-01 -1.535089924790727e-16
 1.868125154702357e+01  9.058783075551343e+00 -4.255308601900896e-16
-1.096110430251164e+01  2.764830418835437e-01  1.922251631230441e-16
 4.357940818958743e+00 -1.788720062304709e-01 -7.571691042315024e-17
 2.328820694258928e+00 -1.540989550236945e-03 -4.142830905985108e-17
 9.875564160430187e-01 -5.493285549775586e-03 -1.751830291062187e-17
 1.182611189084349e+00 -1.533508068719978e-03 -2.103022054148508e-17
-1.144803449218688e+00  2.923438299197160e-03  2.034310567925893e-17
 1.141925994557605e+00 -1.772444678735820e-02 -2.013982296125410e-17
 5.307864792311388e+00  7.510346526137533e-02 -9.523144623806295e-17
-7.020998688587501e+00 -1.306892009978617e-01  1.262898306856625e-16
-1.572579202153396e+00  5.496658499200473e-02  2.742116104545966e-17
 7.304879683746915e+00 -1.447495556170315e-01 -1.285117984519885e-16
 1.603446399072304e+01  1.866398024318217e+00 -3.045289750076908e-16
-1.922966393765447e+01 -1.014783010285919e+00  3.526413345337347e-16
-1.053988122811505e+01  2.323705956054347e-01  1.851822354217640e-16
-2.075019329717977e+00  6.596625050336342e-02  3.624966488293147e-17
 5.155289674776214e+00 -1.539328889143787e-01 -9.016292470413510e-17
 6.105538855775246e+00  7.148863199341503e-03 -1.087287988627291e-16
 1.301234352663200e+00  3.533884150449046e-02 -2.352011126676791e-17
-5.197315130245460e-01  3.090337582690244e-03  9.217490128964767e-18
 1.416789212310381e+01  2.632258919806592e-01 -2.548390908372055e-16
-1.658085724658334e+00 -3.221472976434242e-02  2.983860795601557e-17
-1.223626260120378e+00  9.807321594667850e-04  2.176581222681812e-17
 1.739166708854225e+00  1.395408314529819e-02 -3.109391927739346e-17
 8.903438444708676e-01  1.502794575736397e-02 -1.599913743598190e-17
-1.167680151896658e+00 -1.918783819297217e-02  2.097740923130385e-17
 4.568508617566765e+00  1.188554328694331e-01 -8.252325676106655e-17
-9.420087861197723e+00 -7.628247299724983e-01  1.754794471710931e-16
-5.661791430985993e+00 -3.204666870466122e+01  4.300262097162467e-16
 9.507902894169215e+00 -5.876090275903746e-01 -1.631670041375189e-16
 4.697353963697731e+00  1.563953070672689e-01 -8.520192194122784e-17
-9.669686692983813e+00  8.097527466597829e-01  1.637636937902984e-16
-2.146161754920155e-01  2.239367431352949e-03  3.796342160976190e-18
-4.217497066413814e+00  7.681683794605146e-02  7.426612600819837e-17
 3.096903576715819e+00 -6.270811253307892e-02 -5.446879019208691e-17
 3.144261435512215e+00 -1.818143583647975e-02 -5.576907520716010e-17
-9.429787016178066e+00 -4.947467438498081e-01  1.728976512245089e-16
-3.303091441547255e+00  4.935013978366224e-02  5.827539751690910e-17
 3.742008963947723e+00 -6.000005014338374e-02 -6.597703441054766e-17
 1.007734926349945e+01  1.314321274471410e-01 -1.806888682052785e-16
-4.348132097617967e+00 -1.040295583426767e-01  7.844906324175878e-17
-4.011106164041978e+00  1.809984999258270e-01  6.952272497785179e-17
 1.241461400331433e+00 -3.086969695269868e-02 -2.177611156584263e-17
 3.288626565350106e+00 -7.367271464802629e-02 -5.776807216468146e-17
 7.412199925350552e+00 -9.384146821060380e-02 -1.309447522640965e-16
 8.223680005455501e+00  4.009996778412209e-01 -1.504703212736285e-16
-4.109455717928492e+00  2.300515100490280e-02  7.289629686331425e-17
-8.481516226058108e+00  2.164282946093131e-01  1.487149762488884e-16
 1.701569777406347e+00 -8.262924698411001e-03 -3.019656533346424e-17
-2.095229370952668e+00 -9.188081727421556e-03  3.738151015845290e-17
 2.935500280227834e+00 -6.096711509796195e-02 -5.161431415158594e-17
 3.241961398872738e+01  2.428435996268726e+00 -6.018970001247280e-16
-1.488119735520991e+01 -1.511779976207506e+00  2.803616479353326e-16
-1.592043750538180e+01  6.890097219353635e-01  2.762438513977586e-16
-3.196080748045440e+01  6.099755479342851e+00  5.061079216558975e-16
 2.661397701261535e+01  5.198177490467564e+00 -5.270368526045112e-16
-2.535299349686663e+01 -5.539151449620645e+00  5.080995303492333e-16
 2.239454723998957e+01 -4.380278478643911e+00 -3.535319111838158e-16
-3.211079741128967e+01  4.336053605412865e+00  5.268985674483479e-16
 2.026007712244908e+01 -2.329042055443831e+01 -1.212516290279813e-16
 2.233696618576497e+01  4.055330838817335e+00 -4.391800089564854e-16
-1.509690061117866e+00 -9.675173799641154e-02  2.786082442179631e-17
-2.307031444554499e+01 -1.079013667721492e+00  4.216502382866914e-16
-2.174414988776643e+01  3.758488268359263e+00  3.483459830084041e-16
 1.102277565263121e+01 -2.087212219888294e+00 -1.747180938465581e-16
 3.123790062812854e+01 -2.832473735158195e+00 -5.268130649228123e-16
 2.088265192188792e+01  1.989232708568534e+01 -5.760181351699901e-16
-2.731622263063215e+01 -1.541561267750602e+00  5.019637477033373e-16
-2.499317502750966e+01  2.775383440924218e+00  4.162673059102662e-16
 1.169321089276109e+01 -2.349963886255717e+00 -1.839496107428370e-16
 1.369985567354235e+01  3.180973582545667e-01 -2.470736082968060e-16
 9.049915299668582e+00 -1.322442257449336e-01 -1.596952765176235e-16
-6.772222966184881e+00 -9.512641167479017e-01  1.302936791616269e-16
-9.374786289680795e+00  3.711823124289446e-01  1.630217412612048e-16
 1.242195773680629e+01 -8.046526741225628e-01 -2.127960414598246e-16
 1.165864403876348e+01  8.009030042047968e-02 -2.083023763396619e-16
 4.559066881720819e+00  1.470504047427606e-01 -8.264492290193129e-17
-8.509936319486966e-01 -2.906303133456514e-02  1.544305887190446e-17
-6.553939553718571e+00 -1.912547678010847e-01  1.186002454395968e-16
-9.672372280573814e+00  2.232245665901686e-01  1.698378510094908e-16
 7.943910240256635e+00  7.440930250002577e-02 -1.421358870959467e-16
-4.617707998611875e+00 -2.166826107675021e-01  8.440395716839653e-17
-3.087327455584400e+01  1.029227108685938e+01  4.436774011726848e-16
 6.936888101990922e-01 -6.174249790827190e-02 -1.171063810730734e-17
 3.040522555349891e+01 -4.194821799946912e+00 -4.979969872761840e-16
 6.568035238979916e-01 -3.588550906983815e-03 -1.165173111588574e-17
 1.255515328251514e+00 -3.091181105578660e-02 -2.202578526844815e-17
 7.999069196164052e+00  3.685226801910461e-01 -1.461394146471566e-16
-1.484513236108319e+01 -8.046301818120647e-01  2.724541210934733e-16
-2.765880466533920e+01  2.672533045466688e+00  4.647621154476994e-16
 2.226090541680090e+01 -1.104671944065785e+01 -2.826583363642808e-16
 1.629918945530178e+01  7.393868396202842e+00 -3.660328305246355e-16
-2.231651861222243e+01 -1.474473553287299e+00  4.122987489355401e-16
-7.648813770123629e+00  1.087853983048403e-01  1.350020344266018e-16
 5.499995962418478e+00 -1.315658542972893e-01 -9.652719742309761e-17
-1.612131562317636e+00  6.457302062986355e-04  2.868316952763763e-17
-1.118062264414537e+00  3.000427415673308e-03  1.986642338456326e-17
-4.083011022643326e+00  4.174140727466367e-02  7.223317377774988e-17
 8.050840107518625e-01 -2.698946781729555e-03 -1.429969960895918e-17
-1.395550504407525e+00 -7.450230423044359e-03  2.491203430532200e-17
 1.608697320121551e+00 -5.909899602400571e-02 -2.802146701049628e-17
 1.977577190756811e+00  3.831213075861929e-02 -3.558698826909496e-17
-1.173864803072058e+00  4.660889655414589e-03  2.084243543569091e-17
-4.716686641544042e+00 -5.528718794852191e-02  8.450712084693779e-17
 2.003119394604423e+01 -1.984424849511597e+00 -3.360897460904021e-16
 1.095863521413806e+01  5.712355869034974e-01 -2.008912237045034e-16
-1.538118893541665e+01 -1.136672195641454e+00  2.854054983308073e-16
-2.259163547372028e+01  8.037033592035950e+00  3.194675009923722e-16
 2.154282620341275e+01  4.638530561850880e-02 -3.838568816691048e-16
 1.481755660259335e+01  3.919866629504162e-01 -2.677236153392864e-16
 6.925983437755069e+00  1.781384183030125e+00 -1.415592121780192e-16
-2.198128378126340e+01 -1.561726105543784e+00  4.072293335103895e-16
-2.099854913740212e+01  3.183165120391876e+00  3.409883646197770e-16
 1.803737779851420e+01 -3.371000227061369e+00 -2.863608510321803e-16
 2.771042643638406e+01 -2.570929003773948e+00 -4.667247310590801e-16
-1.742506907836065e+01 -9.414885572237305e+00  4.068344187200065e-16
-2.296864486402814e+01 -6.172404808387114e-01  4.150963550605339e-16
-1.617934173750250e+01  9.275913497811170e-01  2.784000214831423e-16
-1.405732149365140e+01  4.411571055150354e+00  2.048395141509831e-16
 3.109002519485244e+01  6.930219356320110e+00 -6.244895701993055e-16
-1.526178155941281e+01 -9.179172145202719e-01  2.810328736917432e-16
-4.500143592972315e+00  7.301007865440753e-01  7.258390284556408e-17
 1.755357438504288e+01  5.175306537433737e-01 -3.177042343117699e-16
-1.069647008112409e+01 -4.621158505574341e+00  2.378371692580859e-16
-1.608229550850854e+01 -7.184165004404970e-01  2.935851007995785e-16
 1.700770980103970e+01 -6.935680835370225e+00 -2.314108824567560e-16
 1.739355140288101e+01  3.670923510259129e+00 -3.472564005218356e-16
-6.379727721958575e+00  5.303071667108299e-02  1.129899934870095e-16
 2.942651839178740e+01  1.276507544948262e+00 -5.367956473030421e-16
 2.027849845535742e+01  4.316454938106935e+00 -4.052300755307310e-16
 1.530639162228435e+01  2.829334423630533e+00 -3.014658804307465e-16
-2.162394601637287e+01 -2.427205070835470e+01  6.342104170140299e-16
-2.853582352424559e+01  5.684450264966016e+00  4.494233569073690e-16
 1.956461424548452e+01 -5.135640704547298e+00 -2.954088054051144e-16
 1.704877898341131e+00  1.138700279107471e+00 -4.204006755499198e-17
-1.455783824941971e+01  1.395440353111921e+01  1.156976698208806e-16
 3.036732221960095e+01 -1.149397657233218e+01 -4.223262885093852e-16
 2.070266969070738e+01  3.129341389428861e-01 -3.716439867875886e-16
 2.489116493680428e+01 -1.279620077581095e+00 -4.298203398551886e-16
 7.165903184145227e+00  3.006719182977410e+01 -4.364552684570248e-16
-3.074483093118220e+01 -8.961663872010119e+00  6.392187809485742e-16
-2.105180185434239e+01  1.693818469331688e+01  2.006082309416420e-16
 3.145422665600400e+01  1.090518382643891e+00 -5.709701635184993e-16
-1.921172430071995e+01 -1.377485181838077e+00  3.560487103465164e-16
 2.481156762385314e+01 -1.133914222482721e+01 -3.250458750020823e-16
 1.786427287363917e+01  4.360806535628414e+00 -3.627217480617865e-16
-2.298308413151037e+01 -1.145908671946830e+00  4.207851926570683e-16
 1.767024881027698e+01 -5.962888108462002e+00 -2.531966462467535e-16
 2.142410522852439e+00 -1.524624218075582e+01  1.185228490625939e-16
-3.169702174576725e+01  5.951452031901367e+00  5.029373039067853e-16
 9.915966356657664e+00 -4.280948099436145e+00 -1.324812629266620e-16
 1.703130892539616e+01  4.408379532890980e-01 -3.076219078251005e-16
-1.368830620315487e+00  8.703610145599668e-02  2.346570936839142e-17
 3.224458379844226e+00 -1.025459404424817e-01 -5.632946087746014e-17
 1.892565596108940e+01 -1.814141703698080e+00 -3.181649761743036e-16
 2.265271736838801e+01  7.657555810650366e-01 -4.109999871216216e-16
-2.448671659797866e+01 -8.884088862075053e+00  5.270511164225046e-16
-2.138415095246425e+01  2.885459619027533e+00  3.509094247447463e-16
 2.827534551962684e+01 -2.895094051290591e+00 -4.734474618915692e-16
 9.680360478702781e+00  8.754286565414916e-01 -1.812682733030002e-16
-2.901459631655246e+01 -6.023340992388325e+00  5.782369918977372e-16
-5.595291846805586e+00  7.375344856984619e+00  2.379590353206607e-17
 2.912491272273669e+01 -1.956541573933263e+00 -4.982098094352901e-16
 4.042371403059219e+00 -1.862875474905826e+01  1.194648667194139e-16
-2.725039946177814e+01  7.224040463802734e-01  4.775309247252561e-16
-5.069100698256466e+00  1.260853155578862e+00  7.725588542832155e-17
 2.389644962160110e+01  2.021736224967616e+00 -4.460384310424190e-16
-1.779354209674110e+01 -5.031535297985760e-01  3.218270263018943e-16
 7.840611952609251e+00 -5.097918909788709e-01 -1.342951158317939e-16
 2.277131023356669e+01  2.595576814877280e+00 -4.319112370894840e-16
-2.932467290438650e+01 -5.763656637349319e+00  5.810870122599668e-16
 6.391674416634070e+00 -1.281271791848874e+01  1.789855160712472e-17
 2.927675558028764e+01  8.899845656579043e+00 -6.124574691901386e-16
-2.137124897575283e+01 -2.401881222835046e+01  6.271114384246171e-16
-2.088038708257324e+01  1.891939759787766e+00  3.521524014178991e-16
 3.305997212069302e+00  3.916403020128949e-01 -6.285812575190246e-17
-2.285144562818711e+01 -6.771062781872895e-01  4.136257541782260e-16
-2.799521844814732e+01  8.205220779086055e+00  4.139026434066390e-16
 2.623976220774038e+01 -8.858781568406606e+00 -3.759471059387354e-16
 2.328770832211679e+01  2.211515961195023e+01 -6.416577793829819e-16
-3.088732728847583e+01 -7.981426652531325e+00  6.316830922728000e-16
-2.111987055937187e+01  1.179421017074197e+01  2.546720643269895e-16
 2.481090972220011e+01 -6.297756953743709e-01 -4.350690175405797e-16
 8.143706846533366e+00  1.092813479829773e+00 -1.561552390165440e-16
-6.724232152967708e+00  1.933708392057872e-01  1.176789169912404e-16
 3.103321449317102e+01  7.211811964551346e-01 -5.596829444506043e-16
 9.059861088221228e-01 -1.117200203733408e-02 -1.600831524081124e-17
-1.691492322658229e+01 -1.275485315897113e+00  3.141263839041050e-16
-3.041092026993179e+01  9.587299654599143e+00  4.426925804361027e-16
 1.017298224823646e+01 -1.186318737887991e+00 -1.688513597937854e-16
 3.058039256396299e+01 -2.868211858188389e+00 -5.147447283856502e-16
 2.086935147591944e+01  1.743523510068013e+00 -3.893090740698798e-16
 2.959002757227106e+01  9.138339865615452e+00 -6.204829593263050e-16
-2.846594199277490e+01 -1.230783707197647e+01  6.330439479952466e-16
-2.032573771352162e+01  7.750847898833873e+00  2.820836015250481e-16
 1.691231096945970e+01 -5.981384918474930e-02 -3.003601818645530e-16
-2.503284470116237e+01  5.172733792076569e-01  4.401745356547833e-16
-2.302613437281305e+01  1.376092217688479e+01  2.683890513130097e-16
 2.823141550589933e+01 -3.921099783052253e+00 -4.621238387297165e-16
 8.164099152506745e+00  1.691155114742821e+00 -1.626658873654802e-16
-2.913624582600608e+01  2.401241424641637e+00  4.938423661100948e-16
 1.963440219531978e+01 -1.317691562704685e+01 -2.140295865723543e-16
 3.169398661576739e+01  5.189054774868650e+00 -6.173479505561539e-16
-2.304369480955902e+01 -2.123673795330628e+01  6.282898044312727e-16
-2.471601418138521e+01  5.819165898587825e+00  3.800611390154665e-16
 2.683264167552660e+01 -6.865875434864448e+00 -4.069744898636299e-16
 2.799536901847863e+01  2.535344812483184e+00 -5.242607326666450e-16
-2.745723724945578e+01 -4.669728097055557e+00  5.366140488541876e-16
 2.482394545596628e-04  1.285472925999273e-03 -1.762548450917014e-20
 2.623185983706610e+01  5.300191691537397e+00 -5.212847805161602e-16
-1.655325341917486e+01  8.509998861183320e-01  2.858411753357104e-16
-1.686353852398429e+00 -3.084520476103160e-02  3.032760162006907e-17
 9.481963898603086e+00 -4.935682180574200e-01 -1.636716239185148e-16
-1.414846996079127e+00 -7.524679900866542e-02  2.595202351199077e-17
-6.536422300489694e+00  3.720456008133109e-01  1.125007983697302e-16
 4.482744142046068e+00 -9.091405688692959e-03 -7.968236831939606e-17
 2.829552603694398e+00  6.117686446045281e-03 -5.041812080423560e-17
-3.158984964536434e+00 -1.340576268253581e-01  5.759529902900274e-17
-6.037874520556114e+00  1.230522199075797e-01  1.061868624582361e-16
 2.711125922897359e+00 -4.409156185576868e-02 -4.779469496515870e-17
-7.129547553964208e-01 -1.648749976344146e-02  1.285728341654242e-17
 9.312215156940016e-01 -4.142384475936102e-02 -1.614658270814619e-17
 8.510031345066832e+00  5.889170954078979e-01 -1.574970681368321e-16
-1.207811773958241e+01 -2.400986213495956e-01  2.174114385760704e-16
-1.725273346803451e+01  3.940238475275749e+00  2.665484528652245e-16
 1.032897796052442e+01  1.182114078057320e-01 -1.850310629105652e-16
-1.352392387243431e+01 -2.381796787440262e-01  2.431215669092484e-16
-1.074386505404544e+01  2.358779462803192e+00  1.669642922810821e-16
 2.952258715993191e+01 -3.261606169663178e+00 -4.918778357828138e-16
 1.445408355086962e+01  1.528189749060999e+01 -4.142436034798409e-16
-2.654364788183857e+01  1.311404229642751e+01  3.376338558279923e-16
 2.522578535191130e+01 -1.588505783739889e+00 -4.326016208730960e-16
-7.411091647686646e+00 -5.139375794583269e-01  1.371697380700516e-16
-1.245049098984737e+01  1.311910112588036e+00  2.080919388234281e-16
 2.632175995849168e+01 -5.687733119339764e+00 -4.099877245851320e-16
-3.204606048469999e+00 -2.668364710588029e+00  8.444626528163370e-17
-2.252736950501906e+01  1.529168280810403e+01  2.437849261391264e-16
 2.075994449527281e+01 -1.490407567632408e+00 -3.541345793169434e-16
 4.571171999251485e+00  3.114697673620574e-02 -8.166948228937808e-17
-7.146724408110696e+00  3.417700196413241e-01  1.236729229672606e-16
-2.516612081817451e+00  3.097342952465112e-01  4.160370655355848e-17
 2.590085231401120e+01 -7.598607261950336e-01 -4.531292696567501e-16
 1.858872025269197e+01  2.671182155342548e+01 -6.052627131741322e-16
-2.938385929326052e+01 -2.479905796516484e+00  5.484009576350537e-16
-2.910873447139530e+01  2.666392761997830e+00  4.906284350763953e-16
-2.367792044071693e+01  1.073400955428014e+00  4.103480334061179e-16
 2.149254998065853e+01 -1.406485284354228e+01 -2.379743105337795e-16
 7.501178720495769e+00  3.840451074786344e+00 -1.729516627331513e-16
-2.420151716061836e+01  3.148566029694383e-01  4.274598292708972e-16
-2.607654786253060e+00  1.053681531507724e-01  4.532370794646901e-17
 1.377816158685006e+01 -1.496319447642218e+00 -2.298246818696544e-16
 1.525079281267195e+01  2.321723747396011e+00 -2.952609180281075e-16
-1.967173889979309e+01 -6.143001862420777e+00  4.131991715955796e-16
 1.720497834945514e+01 -2.043478827121947e-01 -3.040835123048580e-16
-1.828289116919661e+01  1.805354626330338e+00  3.068164940296291e-16
 2.821183148537515e+01 -6.237228548376546e+00 -4.379779360157901e-16
 1.589882465409742e+01  6.842703055213157e-01 -2.899691783375691e-16
-1.729289887294864e+01 -6.904842511567518e-01  3.148422380080038e-16
-2.636761302296192e+01  6.091350302507266e+00  4.066567146252590e-16
 1.527007735502333e+01 -8.053791036803125e-01 -2.634742636134109e-16
 1.031867897424923e+01  1.778572677758002e-01 -1.854606197192226e-16
-6.473219320246129e+00 -5.859273696683975e-02  1.158006784262935e-16
-1.000451788893435e+01  6.099060384924888e-01  1.717757666700275e-16
 9.448598219330400e+00 -5.817876069843668e-01 -1.621714196939788e-16
 4.188887574158696e+00  1.330875307196123e-01 -7.591367708175538e-17
-1.366808524995015e+01  5.036840839869096e-01  2.380647099120555e-16
 1.253101214987513e+01 -2.237522878692753e+00 -2.000145739910352e-16
 3.091699862224101e-01 -2.213618967287310e-01 -3.227635635684392e-18
-2.802806818603429e+01  1.646859064185809e+01  3.295841201842389e-16
 2.908706130688998e+01 -5.151058280373499e+00 -4.647136996484380e-16
 3.012853723736853e+00  1.069179117733621e+00 -6.460275286054422e-17
-2.069764735440088e+01 -2.964066345357476e-01  3.713847942111780e-16
 2.744326581175903e+00 -8.916161258237944e-02 -4.792246188443205e-17
 2.755660024301533e+01 -1.572663188813020e+00 -4.742440290658965e-16
-1.429478018687335e+01 -3.317773662706974e+00  2.884815839884457e-16
-2.804540013242201e+01  2.332646435663573e+00  4.751342543790259e-16
 8.676961177439209e+00 -8.699972790964605e+00 -6.502781443659839e-17
 3.096555412018623e+01  2.775506947587468e+00 -5.795862982427908e-16
-2.078745883138608e+01 -1.186629852615956e+01  4.918595327524397e-16
 3.524497801244696e-01  4.347841276054298e-01 -1.073951322162799e-17
 2.508717613399703e+01 -2.864390704782085e+00 -4.170256504307154e-16
 3.113345843974509e+01  7.083884964013713e+00 -6.268413749002043e-16
-1.140891374458093e+01 -1.498423872946651e+00  2.184309900858849e-16
-1.502424902442698e+01 -1.276481568333668e+00  2.804898173679989e-16
-1.215523214029141e+01  9.354429238291043e-01  2.067055189963785e-16
-6.099074509250953e+00 -1.905138962930893e-01  1.104977672266744e-16
 1.000381057661966e+01 -1.554627153769689e+00 -1.620565129449867e-16
 1.514250751822736e+01  2.977650220484426e+00 -3.000732582922168e-16
-1.698674782928975e+01  2.447282398882130e+00  2.771545025083035e-16
 3.784183218894378e+00  2.506734104891064e-01 -6.991963254496504e-17
-4.651161064306722e+00  2.414483925080562e-01  8.029216475416931e-17
 6.801399741382660e+00  1.150948395926243e-01 -1.222215790671832e-16
-2.111075281007513e-01  7.596613731120968e-04  3.749105034357968e-18
 2.842017313697254e+00  2.472715926077726e-02 -5.083115075859793e-17
-3.653163403350062e+00 -1.241407431476521e-01  6.628790145441036e-17
-7.031504932426145e+00  3.713466288607504e-01  1.213185660456230e-16
 4.918882822866970e+00  7.819890801956809e-02 -8.834085266937813e-17
 4.921334409634309e+00 -1.122985387985142e-01 -8.642718948201211e-17
 1.815360815079225e+01  9.945757153111027e-01 -3.332840157323212e-16
-3.199583747420856e+01 -5.945913514902838e+00  6.304961954725377e-16
-1.328216916047197e+01 -9.346226077276332e-02  2.373323346317749e-16
 2.543084604740257e+01 -1.112548684519219e+00 -4.411412068551891e-16
-2.500269559401914e+01 -6.350404483094193e+00  5.102008915428858e-16
-8.880813498361027e+00  4.279281945385993e+00  1.140766022006368e-16
 2.159072075043647e+01 -1.492800404309076e+00 -3.688946482353804e-16
 1.425107561360263e+01  5.098818106622635e-02 -2.541387748803135e-16
 8.605820967559294e+00  1.139260907901049e+00 -1.648563414800401e-16
-2.797468814905917e+01 -1.077846574943806e+00  5.089174270311814e-16
 7.053339121804595e-01 -1.955756595248040e-01 -1.054278947310280e-17
 2.370575846300191e+01  3.604567677548607e+00 -4.589078725759580e-16
-2.157566120115853e+01 -2.459809073265134e-01  3.864919918784110e-16
-3.033311350826975e+01  1.168329447040600e+01  4.197723307956793e-16
 1.827542812249108e+01 -4.258774343379986e-01 -3.208573072098394e-16
-1.483987633326298e+01 -1.116475023431605e+00  2.755646763393524e-16
-1.615102498614706e+01  1.424700745676162e+00  2.727884726366379e-16
 1.769566564154452e+01 -1.788979615227231e+00 -2.965343625837540e-16
-1.623803939308717e+01 -2.778592150701274e+01  5.744655300873332e-16
-2.880921640855127e+01 -4.517017840472315e-01  5.173354426082854e-16
 3.744894858630460e+00 -2.254370727664434e-01 -6.432858705396155e-17
-1.260021932117984e+00  2.053227523555959e-02  2.221263161985417e-17
 1.997868571533463e+00 -2.882780843255141e-02 -3.525825911382257e-17
 2.269626286166829e+00  6.921900975540581e-03 -4.046182708509965e-17
 1.582259050764516e-02  2.208065553531307e-03 -3.042689467175005e-19
-5.163038909146301e+00  3.154414339826294e-02  9.155833146965822e-17
 3.601869945927790e+00 -2.090752568295088e-01 -6.195139982722474e-17
 1.791174986558030e+01  1.097514107897726e+00 -3.300375135271851e-16
 9.614972759963528e-01  7.446130741994295e-02 -1.787605382849382e-17
-1.358455414044421e+01 -5.798957049808399e-01  2.477115628820985e-16
-1.323090883906101e+01  7.233312123936706e-01  2.280278397502867e-16
 1.905278137216052e+01 -2.674128616200226e+00 -3.115912714108721e-16
 4.651801278106090e+00  1.982891685569332e-01 -8.482170178591733e-17
-5.233687766795992e+00  2.703622749020040e-01  9.036184262054103e-17
 1.585228688025532e+01 -1.708318357272683e-02 -2.819348308249872e-16
 3.329485287994848e+00  5.348298701175603e-01 -6.474734489251123e-17
-2.927968528157836e+01 -1.648722958927122e+00  5.380069551181825e-16
-1.666383153821623e+01  1.711091458940304e+00  2.789719164050260e-16
 7.820576349877022e+00 -9.159814370390903e-01 -1.297651083373968e-16
 2.213674837461367e+01 -2.247963975449479e+00 -3.708528297702667e-16
 2.269911224606904e+01  1.004457638594759e+01 -5.071621523606835e-16
-2.865865931151433e+01 -8.435182776114108e-01  5.186818716115290e-16
-1.425989107453351e+01  5.680627585913646e-01  2.479351330088215e-16
-1.103021797580035e+01  3.712449043319424e-01  1.924814796398790e-16
 2.909455271246396e+01 -3.613411849534634e+00 -4.806457766807174e-16
 4.809498023567071e+00  2.015370918925877e-01 -8.766147471904733e-17
-4.289184070847632e+00  4.007691357095190e-02  7.591937113655023e-17
-3.143080303887128e-01 -7.533839683331564e-04  5.601227069423458e-18
-9.181771416505901e-01  1.336031436984619e-03  1.632633023933914e-17
 7.432295294606353e-02 -2.217650653880359e-04 -1.320387047816792e-18
-2.904856774329965e-01 -8.970306554724067e-05  5.170460800228005e-18
-1.728108989126790e-01  8.660693023848061e-04  3.066477542887636e-18
 1.641915811744263e-01  7.766611643763588e-04 -2.929964885126952e-18
 1.387328301532217e-01 -3.187000333535324e-04 -2.465641671938990e-18
 3.374557434535108e-01  5.287501500464226e-04 -6.010860199000448e-18
 3.089232618215195e-02  1.652573022860338e-04 -5.514637254035525e-19
 9.758649732058947e-01  7.970760658800011e-04 -1.737487088879830e-17
 2.043968009790109e-01 -5.684234317846010e-05 -3.636900851584516e-18
 1.766015826583755e-01 -4.665958088754489e-05 -3.142356413419469e-18
 5.483333020401084e-02 -1.630830592459232e-05 -9.756569607432042e-19
 5.413559791991786e-02 -2.540809565788147e-05 -9.631464848566782e-19
 2.005022418765216e-01 -7.647211456326215e-05 -3.567390843401512e-18
 1.751144235618232e+00 -1.477377398965546e-03 -3.114852098608005e-17
 2.585779205432244e-01  2.484853936841901e-03 -4.627233481508652e-18
-7.737603960788373e-01 -2.364939242259452e-03  1.379428811690130e-17
 3.641114773643273e-01  1.274934804917463e-03 -6.492897564823376e-18
-3.806445152519280e+00 -5.596259006859309e-02  6.831522724517801e-17
-3.883201136410166e+00  1.218296412778739e-01  6.785444095867222e-17
 5.147889071995116e-01 -3.814449480657789e-03 -9.122090581687973e-18
 1.281149573296347e+01 -2.397943497112290e-02 -2.277494686942012e-16
 3.833599312229271e+00  8.148542141307012e-01 -7.659580372717904e-17
-1.748791901341813e+01  5.374779295328060e-02  3.106661401464770e-16
 2.116392948900824e+00 -5.322097675419765e-01 -3.219547509713941e-17
 2.614733013792211e+01  3.698823334740828e-01 -4.691233360774745e-16
 1.938242756694620e+01  7.835068553016144e+00 -4.254359018759138e-16
-2.402119414525496e+01 -2.393509452783538e+00  4.520782434661137e-16
-1.600803899470512e+01  2.458275574099142e+00  2.596242604749733e-16
 1.030856012202148e+01 -1.630034701495368e-01 -1.817783224190709e-16
 9.725365097652746e+00 -2.058980925645435e-01 -1.709589446416923e-16
 7.462806913796194e+00  6.537908365471727e-01 -1.395270143608091e-16
-3.030551937639188e+01 -2.278841796109586e+00  5.627371386413255e-16
-1.142838469811210e+01  3.986831236249348e-01  1.992854137060481e-16
-4.395336945056173e+00  3.347184872695970e-01  7.478115302833850e-17
 2.320116050490784e+01 -4.713233155211977e+00 -3.644655680474578e-16
-3.861768739990895e-01 -1.957376842504086e+00  2.698381414201458e-17
-2.246769410545545e+01  3.827956964517743e+00  3.605085498181357e-16
 5.572479193665706e+00 -1.931345002211922e-01 -9.718452751548026e-17
 1.990213041905165e+00 -1.698885769957063e-02 -3.524366074804834e-17
 4.655625057881094e+00  3.006148853581945e-02 -8.316127220071191e-17
 2.879563405282415e+00  1.005872349374352e-01 -5.227876296247648e-17
-3.270679006698276e+00 -3.466347620091380e-02  5.856178897521154e-17
 1.607649686864082e+01 -8.617359894847456e-01 -2.772464142166037e-16
-4.741052165061393e+00 -2.195599741955472e-01  8.662857758630359e-17
-5.562560980601006e+00  2.173598618959000e-01  9.675911428718871e-17
 1.801454911236838e+00 -3.469670168879525e-02 -3.170254298911736e-17
 7.459261322821856e+00 -5.816792695337897e-02 -1.321487986518672e-16
 7.044215555159950e+00  2.797309691630811e-01 -1.282343525372024e-16
-1.765529791443778e+01 -1.738402509766345e+00  3.320585406618645e-16
-1.502563540573319e+01  1.741758245085336e+00  2.495031720290870e-16
 2.346530795434301e+01 -3.334571449894448e+00 -3.833316351857887e-16
 1.525270261637929e+01  5.618288063147876e+00 -3.291659060137235e-16
-2.562372757741260e+01 -2.732151182793471e+00  4.840766582218260e-16
-4.067357068850466e-01  4.097251114818262e+00 -3.485941970644414e-17
 2.584616982315609e+01  7.647055792621439e-01 -4.678204944638543e-16
-2.149011282208469e+01 -1.556545696795766e+01  5.423716078572542e-16
-2.797339399659841e+01  2.264835680223472e+00  4.745495501774948e-16
 9.182474104995640e+00 -1.471805645453470e+00 -1.482908116071115e-16
 2.349668833533078e+01 -1.480189808696428e+00 -4.029431842094630e-16
 1.915625904675757e+01  2.037345128418638e+00 -3.618414612379695e-16
-2.899925575072226e+01 -7.934093958476595e+00  5.975962808412824e-16
-1.157846909376628e+01  4.702084991956625e+00  1.577404536397925e-16
 1.346990180236578e+01  1.286785503251502e-01 -2.410350954134875e-16
 1.847307624755457e+01 -6.871897397588039e-01 -3.216898023565532e-16
 1.288367496677834e+01  5.648429083754362e-01 -2.350839199266661e-16
-2.083287699124526e+01 -4.004930443692392e+00  4.118951018514134e-16
-2.616090572284286e+01  1.867331606836613e+00  4.463783692840470e-16
 5.507322227658031e+00 -1.775374773135720e+01  8.440394026857753e-17
 2.040232528591388e+01  2.566241302850855e+00 -3.894509123829899e-16
 9.778639541288772e+00 -4.898738840646124e-01 -1.689892788161375e-16
 1.300018412792764e+01  1.654947936746097e+00 -2.483577725833072e-16
-2.350236397877713e+01 -3.659397611929701e+00  4.558515827491011e-16
-1.667830392714836e+01  2.146454418320027e+01  7.626991898432277e-17
 2.890326653335557e+01 -2.633119455780550e+00 -4.873137591500912e-16
 1.742784172236236e-01 -1.516555398758764e-01 -1.543286745857834e-18
-1.691365170409758e+00  6.965967158471595e-01  2.294258254670824e-17
 7.496358323754629e+00  7.482122328750149e-01 -1.410942472367231e-16
-6.629883192887578e+00  4.149363410472537e-01  1.137233596589819e-16
-5.218860563277547e+00 -3.382359012017133e-01  9.635110007491122e-17
 1.295120404242933e+00 -6.869698258475163e-02 -2.234237592735896e-17
 1.132251353212683e+01  4.573133158012497e-01 -2.061963624797124e-16
-2.784688155532848e+01 -1.906921052122894e+00  5.151613958534552e-16
-2.053393635941674e+00 -7.000307789451629e-03  3.661451475230719e-17
 1.573507375222246e-01  5.060218965337472e-03 -2.852235979979917e-18
 5.375945431953458e+00  3.755921769062562e-02 -9.605726894305015e-17
 6.512553610925603e+00  4.092690816376831e-01 -1.201037511046527e-16
-1.368379685861135e+01 -6.084414533324826e-01  2.497710026289130e-16
 5.755099428201884e+00 -3.258401568147913e+00 -6.893996683349186e-17
 9.195881084121417e+00  2.095786163428255e-01 -1.658050172880163e-16
 1.928322741876745e-01  3.297973065594391e-03 -3.465565807314711e-18
-1.592468955511582e+00 -7.581810532040613e-03  2.841778497744358e-17
 3.542189156494143e+00  2.371392212294641e-02 -6.328113325048787e-17
 5.145564046636357e+00  3.216397832421381e-01 -9.487618193518031e-17
-1.730357046268237e+00 -1.230163260441793e-02  3.092016248980769e-17
-3.198839966511148e+00 -8.820430579398884e-02  5.783344011831405e-17
 3.124212817125289e+00  2.257039937990757e-02 -5.583099643610201e-17
-6.970405798804260e+00  2.204882351343129e-01  1.217812492804840e-16
 2.661174400596583e+01 -2.300745399913983e+00 -4.499484050432838e-16
 3.904674761032264e+00  6.446292446700558e-01 -7.611167633952244e-17
-1.542347866766691e+01 -4.642827350214118e-01  2.792495371240144e-16
-1.347791589325594e+01  3.093654084242894e+00  2.080694186710849e-16
 1.774262133625900e+01  8.015154633313817e-01 -3.239863910850678e-16
 2.930735776706313e+00  4.157696389534874e-02 -5.258312724636981e-17
-9.152144660226561e+00 -7.461718858941960e-01  1.705399763677462e-16
-1.326263555259090e+00  7.463546702555382e-02  2.283558967458732e-17
 5.518387250442335e+00  2.800679403335002e-01 -1.010838800373989e-16
 1.562774995496490e+00 -2.249311959712435e-02 -2.758033655222103e-17
-8.768535948612485e+00 -8.208277755512211e-01  1.644802639343970e-16
 4.234873493562625e-01 -2.228879528752311e-02 -7.307453293336719e-18
 1.135401101224660e+00  9.271164084870855e-02 -2.115839537644471e-17
 1.253302615160028e+00 -5.346930730757971e-02 -2.175463734452036e-17
-1.548399189221167e+00 -1.430462190695108e-01  2.902535847432394e-17
-2.824695413319905e+00  7.241481121915930e-02  4.952478843784735e-17
 4.040495148800071e+00  3.064038971999243e-01 -7.505361958502974e-17
-7.329598566531257e+00  9.652582086999758e-03  1.303397727646602e-16
 1.625309015715496e+01 -9.121967440824895e-01 -2.798706365488585e-16
 2.898627164353948e+01  2.975879033064244e-01 -5.189028875745769e-16
-2.088497187525060e+01 -1.698432547366198e+01  5.461807613298139e-16
-1.975049578240248e+01  1.529700429070081e+01  1.943124695752421e-16
 2.614477854898140e+01 -7.730533525054473e+00 -3.858490972131020e-16
 2.110145876487740e+01  7.837409540125400e+00 -4.560521653725251e-16
 8.927146501614827e+00 -1.943534941373182e+00 -1.389001051907659e-16
-2.041617151740175e-01  6.977591148512171e-01 -3.535920190651235e-18
-2.483863448934379e+01  5.830964470322483e+00  3.821220876238815e-16
 2.029368865116365e+01 -4.384907537112819e+00 -3.160970647074938e-16
 2.287817750747657e+01  5.776440229811384e+00 -4.664952837749027e-16
-2.278714811795968e+01 -1.968635876811800e+00  4.257515007507037e-16
-1.032271486096279e+01  2.659029545364652e+00  1.563844617284602e-16
-2.101019579982693e+00 -3.321934545160035e-03  3.742428129112090e-17
-3.553880554452466e+00  2.418617866251666e-01  6.076050170597173e-17
 9.326566921015631e+00  8.921198729249474e-01 -1.751435911020119e-16
-3.185985373153327e+01  5.028698842577448e+00  5.153160471426070e-16
-2.935028408938201e+00 -4.631792488005253e-03  5.227992156845706e-17
-6.052347148247478e+00  3.166325799089313e-01  1.044554522687550e-16
-8.128617378115569e+00  9.601359833809119e-02  1.436719375873634e-16
-6.485914676305171e+00  8.311317265585595e-01  1.068850117732504e-16
 2.973802172649150e+01 -6.867557138904230e-01 -5.221674039387651e-16
 1.088000706987063e+01  2.589547305586161e+01 -4.596892825367295e-16
-2.482729665644180e+01  2.461521094102174e+00  4.165401240305209e-16
 1.615444009339162e+01 -5.677532821893904e+00 -2.291529439187328e-16
 2.650742106021024e+01  2.574581445811679e+00 -4.981840660571367e-16
-2.681841584961950e+01 -9.847075797781368e+00  5.784408268614795e-16
-1.367128268949074e+01  5.961741706190598e+00  1.820420528551729e-16
 1.811903372779738e+01 -1.922958334858652e+00 -3.026921200176816e-16
 2.015786993398639e+01 -5.977596892046880e-01 -3.525915769954357e-16
 2.740541108132146e+01  5.046879929191094e+00 -5.395668384348027e-16
-2.745347828218718e+01 -9.955114172424484e+00  5.908525754328823e-16
-7.655246900007270e+00  4.967527561997072e+00  8.519470895826780e-17
 2.105985497456980e+01  8.621499898199920e-01 -3.836435183303722e-16
 2.140909726185086e+00  1.155718624975701e-01 -3.928750121697239e-17
-2.313383644885572e+00 -5.964267266466999e-03  4.123070213953235e-17
 7.081716591394152e+00  8.062089459835886e-01 -1.343110981683847e-16
-2.927779930566274e+01  2.488655282321806e-01  5.184763595689894e-16
-1.599168312595676e-01  2.411640821232089e-01  3.680374321725643e-19
 2.587359440761874e+01  5.541784904866022e+00 -5.173913023494791e-16
-1.764051569041020e+01 -2.218872055055500e+00  3.367321233928582e-16
-1.778007243906648e+01  1.817181520744505e+01  1.297087979198087e-16
 2.466313858473099e+01 -1.618782949634708e+00 -4.222775636175293e-16
 1.800210266405667e+00 -8.981088375166957e-02 -3.111411485504058e-17
 2.879577492072068e+01 -1.821510339226729e+00 -4.937398065226359e-16
-2.080081835822967e+01 -1.597362129977564e+01  5.342985309023767e-16
-2.406951765401716e+01  1.194310481757883e+01  3.056347144154992e-16
 2.874047791044192e+01 -1.001541193006867e+01 -4.085663680210435e-16
 3.136551328191225e+01  7.968985025430209e+00 -6.400651492157851e-16
-2.454694147676449e+01 -1.779596019178242e+01  6.196891304377287e-16
-2.761773547624739e+01  1.060125548148253e+01  3.825664974998499e-16
 3.052024085329531e+01 -1.092609258247633e+01 -4.308824597013443e-16
-1.780352982413471e+01 -2.226960263597012e+01  5.456471272078765e-16
-3.083269223380591e+01  4.595567299524848e+00  5.014867523029473e-16
 1.065976997658603e+01 -3.304979221802960e+00 -1.557458612677301e-16
 2.654099489597562e+01 -3.364206312762035e-01 -4.688720636470032e-16
 6.501150538355965e+00 -9.735421323810792e-03 -1.155957007636204e-16
 4.339313222241500e+00  1.242294942147770e-03 -7.723601902376236e-17
 9.751431167161542e-01  1.682482559495563e-02 -1.752670391178032e-17
 7.318624356101154e-01 -1.776756805295974e-03 -1.300610951301959e-17
 1.439508909702063e+00  2.377212846602801e-02 -2.586202814084754e-17
 3.671666859270443e-01  7.330264126085806e-04 -6.541700728377848e-18
 1.628407321710616e+00  3.174304383431455e-02 -2.930559896609210e-17
-9.445903592701861e-01 -7.824182390344412e-03  1.689050282498033e-17
 1.533413011736492e+00  1.493613526483798e-02 -2.744237703347781e-17
-1.790873131152576e+00 -4.265368946535508e-02  3.230897476408291e-17
 1.719359045109001e+00 -5.861097000496807e-02 -2.999583870018821e-17
-3.604650620985141e+00 -1.582754977128663e-01  6.577528080758561e-17
-3.348705989620011e+00  2.210300146237694e-01  5.732321451315997e-17
 1.791818810287054e+01  1.025474842727656e+00 -3.294119124143179e-16
-3.062813765098695e+01 -6.914629000198089e+00  6.161095449239778e-16
-2.543679579638897e+01 -1.104640410783781e+00  4.640279022724902e-16
 1.503565471259735e+01 -6.119047062838399e+00 -2.047064250857780e-16
 3.026301531530127e+01  2.717352427017557e+00 -5.664862656205444e-16
-2.755468318619770e+01 -1.270486883643320e+01  6.209063676926237e-16
-7.840071988326432e+00  7.818008530881273e+00  5.919623540999638e-17
 2.252729503476363e+01 -3.730670848686068e+00 -3.625687989510652e-16
 2.037539946974362e+01 -1.127953092166105e+00 -3.510152299515066e-16
 1.374780954247835e+01  2.638224071304565e+00 -2.717654637304289e-16
-1.390550680933485e+01 -1.241172895701976e-02  2.475926067690818e-16
-7.829236764541198e+00  9.932725140429969e-01  1.291250930199073e-16
 7.900145032569205e+00  3.258869100986377e-02 -1.409273414454013e-16
-1.825285128471547e+00 -1.827831722808002e-02  3.267092920969355e-17
-1.767320923123820e+01  3.045278037466194e-01  3.113869270815011e-16
-4.616093351147769e+00  2.365971570710704e-01  7.971793761682947e-17
 5.609260321317165e+00 -2.611170305869683e-01 -9.714059574948868e-17
-5.409599758176125e+00 -1.317147754469267e-01  9.762360197212871e-17
 5.243331499885958e+00 -9.505859621580385e-01 -8.354441307883372e-17
-6.649230574115515e+00 -6.981308645221812e-01  1.255040305775969e-16
 4.836392978295630e+00 -2.553420563691180e+00 -5.983391338993451e-17
-1.827390130247472e+01 -5.350430759221260e+00  3.801796040096912e-16
 5.651182544668834e+00 -5.062207279845407e+00 -4.855719355411325e-17
 1.338148167421320e+00 -4.470869008124480e-01 -1.922028734318198e-17
 6.618846835213649e-02  1.052093689289676e-01 -2.258890790427779e-18
 1.042526315002964e+01 -3.071407888981182e+01  1.300460095808487e-16
-2.888060173395742e+01 -4.173494323551298e+00  5.568458959481018e-16
 1.500750552006452e+01  1.002408494606623e+00 -2.773758454663879e-16
 8.617845760632047e+00  1.445117710725875e+00 -1.682129045535920e-16
-1.614604974809766e+01 -2.523683695170430e+00  3.132681481540463e-16
-1.158816083135188e+01 -2.585863009716942e-01  2.088820251567913e-16
 1.069496781888968e+01  9.530922357081457e-01 -2.001223862472604e-16
-8.523533626356624e+00 -1.114892455390757e+00  1.631415631884641e-16
-3.237773715958798e+01  3.282082014600139e+00  5.424782539159985e-16
 1.151719476604374e+01 -1.973440462536927e+00 -1.846858352013146e-16
 8.169062204669219e-01  5.218781782906081e-02 -1.507403151916211e-17
-4.849885941623519e-02 -1.341898185869681e-02  1.000970238487407e-18
-1.715413517186765e+00  5.621998845641966e-02  2.995018979822346e-17
 1.468456277188068e+00 -4.101049664507243e-02 -2.571156314178609e-17
-3.916751724859431e-01  1.175097604030577e-02  6.849589891947762e-18
 3.155223556859315e+00 -1.743213133428084e-01 -5.435987870849115e-17
 2.695505154296689e+00  7.373560569751737e-02 -4.872733609805515e-17
-7.210243174558904e-01 -1.758500912418209e-02  1.301216737322265e-17
-2.033111248404669e+01 -9.147206071578342e-01  3.712148204179050e-16
 2.474503219778500e+01 -1.251342307581833e+01 -3.117964893801940e-16
 2.849358243565023e+01  1.055817222043207e+00 -5.179254262068859e-16
-5.583685072033804e-01 -2.072274160989694e+01  2.228554756932454e-16
-2.220712770794635e+01  3.733124166401987e+00  3.568458325130722e-16
 1.492114544116746e+01 -1.077075277305714e+00 -2.544730245152668e-16
-1.274649383436092e+01 -9.463918677381388e-01  2.365628949575322e-16
-1.588410656148611e+01  8.498512825796425e-01  2.739447103092603e-16
 1.511897539142287e+00 -1.436176424796846e-01 -2.543040105969462e-17
 1.393446546943438e+00 -8.220117512794839e-03 -2.471358474475666e-17
 1.639942629487781e+00  2.967503183850939e-02 -2.948963544893464e-17
-1.243986064188247e+00 -9.507781212593306e-03  2.223590485725232e-17
-8.250387035589607e-01 -1.199609475776958e-02  1.480580338743084e-17
 2.180129176270511e+00  4.648771187904308e-02 -3.927564360821510e-17
-7.442402302742549e-01 -2.653065666770891e-02  1.351723552210193e-17
 1.630665153205873e+00  7.562959390507801e-02 -2.979669812191597e-17
-1.117123552529413e+00 -5.208130165014309e-02  2.041566262274236e-17
-1.342866510206369e+00 -6.267919312498976e-02  2.454191731112102e-17
 1.375039009259948e+00  5.567056994849643e-02 -2.504245427175680e-17
-2.102436613071178e-01 -1.236666142290440e-02  3.868599696649743e-18
-5.002591616028772e-01 -2.679721384597603e-02  9.178040149770066e-18
-7.544170247757728e-01 -3.925178957935593e-02  1.382904873506445e-17
-2.802069999530634e-01 -5.390772474709057e-03  5.042006037522887e-18
-8.019494115810112e+00 -6.472606395327313e-01  1.493668317367026e-16
-1.458072596690208e+01  1.856417925284576e-01  2.575740091206392e-16
 1.658282672733476e+01  5.508636760736448e-02 -2.956771747405089e-16
 1.674557960569660e+01  3.163490260036685e+00 -3.305112771499856e-16
-2.877236133351717e+01 -3.202829492275956e+00  5.449464003815338e-16
-2.383493544887946e+01  7.874776588633856e+00  3.432606388853655e-16
 2.983330773222207e+01 -8.473064787369516e+00 -4.438616348841524e-16
 1.922646685890841e+01  1.792531059054065e+01 -5.263339664699100e-16
-2.779667791789643e+01 -2.324793498592394e+00  5.185614492964144e-16
-1.264587494777367e+01 -1.389163908526458e-01  2.264757446906935e-16
-3.178931709996755e+01  2.379385165959761e+00  5.412814992237018e-16
-3.358983067193933e-01 -1.660561646849891e-02  6.148327714288893e-18
-7.015120959245362e+00 -9.114172856377815e-02  1.257788935615126e-16
-2.208312424722646e-01 -5.741151458176846e-02  4.519837828842274e-18
-5.820693792818084e+00 -5.204082908680145e-01  1.089331953554840e-16
-1.521150312309403e+01  1.558066759214320e+00  2.546982730638797e-16
 2.623473347523000e+01 -1.824605165729010e+00 -4.481312208485171e-16
 1.562656066155121e+01 -3.725681522851100e-01 -2.742652845886907e-16
-2.040786508394801e+01 -8.051308121742997e+00  4.459065686930805e-16
-6.734180053607782e+00  1.920017883680492e+01 -7.743209579966892e-17
 3.141356879472596e+01 -5.440773718586148e-01 -5.534517308176675e-16
 1.098830984496958e+01  1.299580229821270e+00 -2.089027957704326e-16
-1.230703335114309e+01 -2.120731512186931e-01  2.211973134397553e-16
-3.256768713146879e+00  7.566103750888416e-02  5.718069439641167e-17
 1.416117429584441e+00 -3.027732224657919e-03 -2.517039001442990e-17
-1.391638313816887e+00 -1.536373165040595e-04  2.476744236552323e-17
-1.376463905460079e+00  8.568748266757961e-03  2.440777633440050e-17
-4.606179134079113e-01  2.039272860033236e-03  8.176292418628990e-18
-9.368717863266527e-01  7.482448386698565e-03  1.659587153750888e-17
-3.207732700844436e-01  3.900645179506013e-03  5.668465256794742e-18
-7.473803481872645e-01  1.600573474698523e-02  1.313607169395588e-17
 6.049685187053586e+00 -5.426880556628517e-02 -1.071037719693250e-16
-6.741442409110875e+00 -3.963444392683244e-01  1.240443042866359e-16
-1.741260605822339e+01  2.739759306065992e+00  2.817280637209216e-16
 1.031810416590308e+01 -2.252104426085759e-01 -1.813090160303755e-16
-3.442603508963110e+00 -2.328600251360384e-02  6.150449114611521e-17
 8.675568398183157e-01 -6.108343309027843e-02 -1.481159873230448e-17
 8.262287219017244e-01  7.795946168721242e-03 -1.478382618004735e-17
 1.234035924650714e-01  1.117413484849248e-03 -2.207595144969441e-18
 1.342416980975562e+00  7.514505005237044e-03 -2.396712027983417e-17
-2.114726283386061e+00 -1.912434843227234e-02  3.783057248283809e-17
-2.291950631745967e-01 -1.161955212024649e-03  4.090738212005939e-18
 3.397960013813877e+00  3.036360546842824e-02 -6.078272669158791e-17
 2.169316642831429e+01  1.719741638330385e+00 -4.037254936744942e-16
-1.318355045309104e+00 -1.070209107528534e-02  2.357166071951847e-17
-6.644927244089236e+00  2.400317658722508e-02  1.180077828116615e-16
 4.525398141403458e+00 -5.617120498369448e-02 -7.995771929647406e-17
 3.141877142348962e+00  2.713166657639885e-02 -5.619221952899510e-17
 7.796330425803816e+00  1.507825866476136e-01 -1.402942360165628e-16
-3.387364952352410e+00 -4.808004297752546e-01  6.522224963842031e-17
-2.874374409093216e+00  2.241600788880947e-03  5.112988965407956e-17
 3.308465329709531e+00 -3.422079589566811e-03 -5.884292638694886e-17
 3.828554772916208e+00  7.862154269584680e-02 -6.894150683898966e-17
 3.008970147237501e-01  4.763668751743355e-03 -5.403766267081616e-18
 2.692314891016157e+00  4.643946017658016e-02 -4.839010358606929e-17
-9.987285168565366e+00 -4.941869094101369e-01  1.828132438111251e-16
 9.458862162702294e+00 -8.338907163877758e-01 -1.597638109422909e-16
 9.894605128573771e-01  2.411798811637600e-02 -1.785643365794655e-17
 1.000249810263446e+01 -1.492069838205184e+00 -1.626759096387071e-16
 9.255280810410694e-01  6.273211446901641e-02 -1.711542590050348e-17
-5.490041186115755e+00  5.140211691291878e-01  9.242045091117942e-17
-2.346705749511846e+01 -4.263923812917137e+00  4.614345488034013e-16
 1.325287381061495e+01 -1.449479193062791e+00 -2.209578258784428e-16
 1.226475630833376e+01  1.164080927249616e+00 -2.302264770885168e-16
-2.652460656720578e+01  6.268901236467377e-01  4.655959452686476e-16
-2.895733181175940e+00 -6.817393400337413e-02  5.223348851998057e-17
 9.260958673528917e+00 -3.895554324563685e-01 -1.608072659190448e-16
 2.066635962115559e+01  3.577912136168597e+00 -4.045442686081254e-16
-7.042079054310208e+00 -2.444626466706065e-01  1.278339617515487e-16
-2.510218308280656e+01 -2.286786358524253e+00  4.702191900196694e-16
 1.890599349910224e+01 -1.152785953862667e+01 -2.180101371795295e-16
 2.352788333365003e+01  4.172795432552626e+00 -4.615807062134429e-16
-2.720405406871784e+01 -5.382904817793399e+00  5.394359838706969e-16
-6.110666992627038e+00  2.893486774694070e+00  7.901708266049312e-17
 2.214911797577148e+01  3.117016892957167e+00 -4.261961910524011e-16
-1.602212802365998e+01 -1.010994236717832e+00  2.955204785814423e-16
-2.579612299085726e+01  1.100671141267165e+01  3.459828179828519e-16
 2.416605236885597e+01  1.166114702513981e+00 -4.420451331475155e-16
-1.104247095435114e+01 -1.160631513451464e+00  2.084390097519435e-16
-7.793294983531503e+00  2.998931346393468e-01  1.356096873824400e-16
 2.348585672143572e+01  2.294411321602130e-01 -4.203162596021897e-16
-2.324283440692377e+01 -3.578283813101997e+00  4.503995295415625e-16
-9.268279405416383e+00  3.569509651439836e-01  1.612725461317204e-16
-4.426296591433101e+00 -6.430367206369340e-02  7.943192459184242e-17
-1.923263633647679e+01  1.750270098231087e+00  3.242843157137992e-16
 1.290210532219364e+01 -8.529223400982762e-01 -2.208448871907310e-16
 2.515633522162305e+01  1.152306689765267e+00 -4.595265254602099e-16
 1.907984293087145e+01  3.036172089420691e+00 -3.707441294704716e-16
-1.646451209771467e+01 -2.708515065697019e+00  3.208346407287437e-16
-2.645599275174406e+01 -2.989583766555810e+00  5.015328360400991e-16
-1.186815894301655e+01  1.299995955776561e+01  7.763818330213047e-17
 2.770943399910806e+01  8.580449790655306e+00 -5.812834355988070e-16
-1.973824667597540e+01 -2.478834735171096e+00  3.767347706446335e-16
-2.753245073138746e+01  1.282483695950740e+01  3.582022617991372e-16
 2.604185468936490e+01 -2.973357997629289e+00 -4.328956947576260e-16
 1.962057741086014e+01  3.670177345392468e+00 -3.868813182584482e-16
-3.245801309337562e+01 -2.359514455096193e+00  6.018722141916476e-16
-6.374421067836241e+00 -2.075389393986382e-01  1.155728137957461e-16
-6.004702125120323e+00  2.350613159540881e-01  1.044456673874812e-16
 7.771530990704409e+00  1.113543796692129e-01 -1.394477899888533e-16
 4.096627133429177e+00  6.975600920912173e-02 -7.362108388578421e-17
-3.694122023984749e+00 -7.060635110320590e-02  6.646676254913796e-17
-1.220141615619483e+00  4.287821275303992e-02  2.127331734517235e-17
 7.016080731074971e+00  1.084713367169534e-01 -1.259740292742025e-16
-2.272403557759640e+01 -1.979503209307210e+00  4.247399956624844e-16
-6.861266593031068e+00  5.804486085153572e-02  1.215080335790278e-16
 2.490578141334012e+00 -3.468827285874856e-02 -4.396639950012262e-17
 1.621590440613859e+00  2.741166621344339e-02 -2.913978110731655e-17
-1.187312720853338e+01  2.296006741730895e-01  2.089373979348475e-16
 1.040572548496029e+00 -1.452133887837310e-02 -1.836902827173628e-17
 3.030824141977216e+01 -2.005159881537477e+00 -5.187690196790130e-16
-1.986899101946833e+01 -1.449550906392578e+01  5.025284855950484e-16
-2.184425091856333e+01  1.232165291063862e+01  2.621439943096411e-16
 2.199686037330333e+01 -4.798506191742884e-01 -3.865300783467753e-16
-1.117325152602469e+00 -1.555160993579324e-01  2.148200535385861e-17
 2.497809518129180e+01 -4.840528495630434e+00 -3.947803268510041e-16
 2.843298329075410e+01  8.730989317950437e+00 -5.957065972375016e-16
-2.678406112247088e+01 -5.938249425610043e+00  5.376676725036390e-16
-1.586992450372211e+01  9.220957406581670e+00  1.876822492331564e-16
 2.035761311611226e+01  1.837886008021328e+00 -3.811716199184418e-16
-1.005163880867229e+01 -2.813191899313859e-01  1.817713551149542e-16
-1.747986251178086e+01  1.180275472991985e+00  2.989481024069244e-16
 8.625019271418131e+00 -3.337522704028977e-01 -1.500633228974213e-16
-2.395349479353156e+01 -2.809183253637323e+00  4.551443500606402e-16
 2.360613416998989e+01 -1.226907569512255e+01 -2.940390202002993e-16
 1.491334018251894e+01  3.663292025613893e+00 -3.030396726150563e-16
-1.002840789953867e+01  1.215138320270579e-01  1.772189704126575e-16
-1.030915516374052e+01  4.787306146142520e-02  1.829718350425476e-16
 1.722208191400984e+01 -4.365515703023923e+00 -2.616334029464168e-16
 3.391006064997053e+00  4.120561677458310e-01 -6.458072531045956e-17
-1.871701276325084e+00  2.465297583204929e-01  3.077615315557923e-17
 2.370677156252501e+00  7.797461145623262e-01 -5.020063585868201e-17
 1.120389123965448e+00 -9.892278038685519e-02 -1.892226525809852e-17
 5.794940664094918e+00  1.105653021049277e+00 -1.144880647077192e-16
-7.203971558911319e+00  9.655792802960497e-01  1.182822907617025e-16
-5.389387724736093e+00 -6.176740795702503e-01  1.022569600475676e-16
-1.447964518548237e+00  1.947821579651006e-01  2.376693989185733e-17
 2.006873185662230e+01  2.597874101536906e-01 -3.598162434861240e-16
-2.269850129510142e+01 -5.733776238450140e+00  4.628593742052024e-16
-7.358848560183239e+00  3.233861867750914e-01  1.276368124866335e-16
 2.320833353501985e+00 -3.143330539185513e-02 -4.097903212377997e-17
-1.143148938834271e-01 -8.506250628246688e-04  2.043109759879644e-18
 8.641718631722183e+00 -2.740554637164830e-01 -1.509738709332792e-16
 1.951997973901807e+01  8.568709776915874e-01 -3.561853617303260e-16
-2.973289132693588e+01 -1.165840838905176e+01  6.489181788446452e-16
-1.010585574590037e+01  1.428038611093866e+00  1.651731797368036e-16
 1.309979125899245e+01  2.369684911274675e-01 -2.355611766002517e-16
 1.732440611570844e+00 -6.450809430739489e-03 -3.076456748866628e-17
-3.178124500744603e+00 -6.422070647648635e-02  5.721836092935449e-17
 5.304516015629201e+00 -4.252766309063763e-01 -9.003062699788083e-17
 1.081140606181848e+01  4.741362588928532e-01 -1.972734450015987e-16
-2.607374497581665e+01 -2.590460801042965e+00  4.906294374237770e-16
-1.689417936618426e+01  9.024872219963331e-02  2.997248010896749e-16
-1.997909903575089e+01  4.381454813711829e+00  3.105340427227467e-16
 9.974193609851469e+00 -8.629072390345156e-01 -1.686366144171779e-16
-1.625500245430845e+01  2.069564862953956e+00  2.680131311985023e-16
 2.746528122606227e+01 -9.822455002758872e+00 -3.878552842543659e-16
 3.049908041221765e+01  1.082717087475442e+01 -6.540127640847025e-16
 1.947584875870918e+00 -7.609166716043260e+00  4.352182778695875e-17
-2.864722072595523e+01  8.100831735422634e+00  4.265783611763178e-16
 1.625479915346357e+01 -2.594025149149030e+01 -2.274687964150984e-17
 2.266111393543012e+01  5.750976093452748e+00 -4.623707438362683e-16
-2.167189655161037e+01 -4.466298638883010e+00  4.315668463461753e-16
 2.196225221177618e+00 -1.758139313699970e+00 -2.102020492769174e-17
 2.694724909609266e+01  1.764121695075550e+00 -4.976841510809145e-16
 8.048323623047320e+00  1.687827883546861e+00 -1.605713376238365e-16
-2.667538895377826e+01  1.084955375385859e+00  4.635728437325594e-16
-2.188887501343554e+01 -3.591055730594962e+00  4.264354339801217e-16
-1.399370234564344e+01  1.567865654669253e+00  2.329253754852607e-16
 8.859931757285104e+00 -2.461872658854866e-01 -1.551435693993155e-16
 3.033648574569562e+01 -2.230651981160485e+00 -5.169548117359559e-16
 9.436926796923704e+00  3.087796675276141e-01 -1.711139680345689e-16
-2.743176648767832e+00 -1.017435576953119e-01  4.986347873909417e-17
-1.396358730686745e+01 -1.319820767811143e-01  2.498547603927643e-16
-1.404435590994708e+01  2.407258619232182e+00  2.252023583081013e-16
 1.996456894109999e+01 -1.384090956576162e+00 -3.410722871293347e-16
 2.097598351296859e+01  1.416273094645719e+00 -3.878443392293630e-16
 2.133718076246295e+01  4.913531146146913e+00 -4.302053312040077e-16
-2.538736124664932e+01 -4.356855584570925e+00  4.965634849350677e-16
 1.088299834183708e+00 -3.618226026890292e-01 -1.564999792927211e-17
 1.768604179374144e+00  7.128185102575497e-01 -3.879837228676464e-17
-6.149987322170304e+00  3.280716445250801e-01  1.060755433974280e-16
-2.242085720091049e+01 -1.380967434416438e+01  5.408952856789786e-16
 1.193598992524534e+01 -3.378896800024534e+00 -1.776982413171947e-16
-8.832778062628515e+00 -3.186302641705330e+00  1.899279239018790e-16
-4.765124489118237e+00  2.047745180983537e+00  6.376123649114505e-17
 9.719710225723325e+00  4.148084374294203e+00 -2.155938976189277e-16
-4.881274347584907e+00  2.705980555102312e+00  5.906513231136286e-17
 5.908335397268522e+00  3.218147400502931e+00 -1.382111716242416e-16
 6.156499762328827e+00 -2.125800054221266e+00 -8.772043366384236e-17
-1.226185905598877e+00 -3.598717401084116e-01  2.551899224389060e-17
-7.674563588516304e+00  2.099702891563423e+00  1.150043291598171e-16
 1.947112549773404e+00  7.414756352217593e-01 -4.226958321725982e-17
 4.732549212563627e+00 -1.968136261969387e+00 -6.399947327488897e-17
-7.624168800794976e+00 -1.720054679077260e+00  1.533541152256362e-16
 5.923936469246769e+00 -1.754907829525411e+00 -8.739247536933085e-17
 1.701741208673306e+01  1.972249306162899e+00 -3.231092923475133e-16
-2.537242565138246e+01 -6.877681456759444e+00  5.221982582939939e-16
-2.125911545052567e+01  9.878075101997716e+00  2.768376849836942e-16
 2.368313256676377e+01 -2.708226777320738e+00 -3.936435479735857e-16
-7.995130265517003e-01 -7.753634999755339e-01  2.219486628682908e-17
-2.186915533552891e+01  6.847821680958783e-01  3.821518176535906e-16
 8.323141999775009e+00 -7.327542718114074e-01 -1.405914561324920e-16
 3.012187479973259e+01  4.217523079039069e+00 -5.793882102451256e-16
-2.022248297882229e+01 -1.285822517764309e+00  3.730945661285829e-16
-2.182309554629594e+01  6.458452115751253e+00  3.220097674456050e-16
 2.911007805232003e+01 -4.848691904541682e+00 -4.682300147716355e-16
-3.962016709605864e+00 -2.366258928571204e+00  9.482126431750178e-17
-2.372748951279873e+01  2.338000415211151e-01  4.198567685608099e-16
 3.962956852654167e+00 -3.671656228068403e-01 -6.675305098939886e-17
 8.722334841997164e+00 -1.414343540442021e-01 -1.537711662833456e-16
 1.006671011572402e+01  2.079740215606591e-01 -1.812859720299713e-16
-1.118370850094103e+01 -7.522190366556843e-01  2.067562105306198e-16
 1.768339791064388e+00 -1.056661460318503e-01 -3.038403466216947e-17
 4.195287507377778e+00  2.300374277140127e-01 -7.702369654797645e-17
 1.210892106599060e+01 -1.144595728568273e+00 -2.037323891396505e-16
 4.405965829385729e+00  3.356069204419300e-01 -8.185765681705914e-17
-2.456393080224317e+01  6.429950041861432e-01  4.305379094777622e-16
-1.148550429989642e+01 -1.618920170840741e-02  2.045645875830232e-16
 2.749462608355047e+01 -6.626361710446528e+00 -4.212162085283508e-16
 8.233543197919971e+00  2.690443436878971e+00 -1.741690514774242e-16
-1.872253387912867e+01 -6.949130099078407e-01  3.403298021622403e-16
-2.874040456022953e+01  1.526561015508007e+01  3.546211831642496e-16
 3.024014746962203e+01 -1.107612703999393e+01 -4.243563142771983e-16
 1.540535718084551e+01  5.099986957159518e+00 -3.265572205142661e-16
-1.586794265933188e+01  6.972443945467909e-02  2.816725743108316e-16
-1.335185284111246e+01  6.697671667430521e-02  2.369239865424642e-16
 5.907474520536093e+00 -3.733951235197663e-01 -1.012940564918903e-16
 3.243647418381487e-01 -6.301418942383441e-02 -5.125009592042583e-18
 2.786180803856547e+01  1.073023844602835e+00 -5.068590390263605e-16
 5.412301409394122e-01 -6.282586609219224e+00  5.491945907512702e-17
-2.942977121584910e+01  4.525996931755038e-02  5.232728541438921e-16
 2.462822602915548e+00 -2.535745709242578e-01 -4.122347938063775e-17
 6.576309270176787e-01 -1.724971028205293e-02 -1.152609228887483e-17
 4.235832148475671e+00  8.490635378337216e-03 -7.546892395261921e-17
 4.861507852601925e-01 -8.858726083337329e-03 -8.560612933918785e-18
-4.888469717525361e+00 -1.261996117123429e-01  8.829280485921124e-17
 2.039642962077064e+00 -7.281701587439622e-02 -3.554971110832363e-17
 7.130561388003125e-01  8.247048968282236e-03 -1.277441998614769e-17
-9.044107187112509e-02  1.594591395758582e-03  1.593122909878246e-18
 2.281900377349942e+00  3.516113428618418e-02 -4.097040701762211e-17
-1.902015045896522e+00  3.597248519726053e-02  3.347902232276258e-17
-1.210307770865140e+00  1.661945860938724e-04  2.153716289893186e-17
 6.810594451106189e+00 -3.872552726556497e-01 -1.172237449583679e-16
 6.654870139747466e+00  5.931603030315880e-02 -1.190408030095022e-16
-2.807372930488619e+01 -2.717379305367784e+00  5.275255858075619e-16
 1.788987571593220e+00 -7.121395651338133e-02 -3.110547028087621e-17
 9.872950117104907e+00  2.030836200644042e-02 -1.759095852528364e-16
 3.228681889428439e+01  4.072844856388216e+00 -6.164294568814966e-16
-2.081070955297538e+01  1.322119028566943e+01  2.345084730445406e-16
-1.905955429668952e+01 -2.554513547953541e+00  3.654342024909485e-16
 1.986708817058589e+01 -4.135293478066179e-01 -3.493096684935895e-16
 2.663481944894165e+01  5.488006202397346e+00 -5.303856533575452e-16
-2.717457407419051e+01 -2.318590213758467e+00  5.074266328385028e-16
-5.244140961467592e+00  5.852025454029326e-02  9.272446947918674e-17
-3.630394879596233e-01 -4.272661476347606e-04  6.465110740482490e-18
-5.561552798294911e-02  8.519489057712633e-03  9.022100058871573e-19
-7.812817218153959e+00  1.758535028832021e-02  1.388577187768082e-16
 2.573775377208179e+00 -1.624371330411327e-01 -4.413442042106973e-17
 9.360236590170478e+00  3.836666707316877e-01 -1.705186110812616e-16
-5.579476307231276e+00 -5.986725446852657e-01  1.054445791658189e-16
-1.101917013478282e+01 -3.725607980778133e-02  1.964820693838414e-16
-2.752227137484364e+00  2.414280180427586e-02  4.873110636881647e-17
 1.984828545383247e+00 -1.743277528185330e-02 -3.514327612483037e-17
 2.169454477172289e+00  1.732087489757544e-02 -3.878599593919392e-17
 3.890309624853006e-01  2.415127672476270e-03 -6.948084586351240e-18
 3.487845337904668e-01  2.167328811782727e-03 -6.229305339666456e-18
 2.022524420939898e+00  9.461730197302147e-03 -3.609045046548711e-17
 1.851447395034737e-01  2.203304376147559e-03 -3.317509640869282e-18
 1.296990664813688e-01 -6.376931981893460e-04 -2.301597534014218e-18
 1.961759488151828e+00  7.267060815765598e-02 -3.565851426745392e-17
-3.054119152025021e+01 -4.271481603941933e+00  5.874048557280463e-16
-1.468415850270544e+01  4.075617170449885e+00  2.194466305826291e-16
 2.761846052798564e+01 -1.612309615233914e+01 -3.258444936813471e-16
 8.315584147868654e+00  1.231376000699427e+01 -2.745051499348823e-16
-2.896190796155949e+01 -1.135619485482102e+01  6.320924759427965e-16
-3.034845783421776e+01  7.746174052922112e+00  4.604978836808017e-16
 1.969782737590562e+01 -6.815330999454248e+00 -2.805212843696439e-16
 2.846542040948859e+01  2.593138620801040e-01 -5.092404667022289e-16
 5.856941433443060e+00  1.393371503774602e-01 -1.056628978232803e-16
-5.273186640508282e+00  4.459167132737620e-01  8.926101411399360e-17
 3.062509335325587e+01  1.437503675043474e+00 -5.597798952067524e-16
-2.033636832922070e+00  1.118758807325184e+01 -7.875740998825893e-17
-3.100647958471559e+01  1.217543289756113e+00  5.392874750748721e-16
 7.049932804254817e+00 -1.131258007531423e+00 -1.138386986386437e-16
 1.645661000081980e+01 -3.053574091799149e-01 -2.897275686672240e-16
-7.672979815252505e+00 -1.263208615796092e+00  1.495288380363793e-16
-2.158076101608411e+01  4.425590110287514e-01  3.795082516790642e-16
 1.828772535252491e+01 -6.511286410217401e+00 -2.585507845426152e-16
 2.694346410101910e+01  3.406683358801395e+00 -5.144935169487010e-16
-2.301793618915863e+01 -9.632377317716886e+00  5.086008090401180e-16
-2.444839038972588e+01  6.190842868872653e+00  3.714796085552624e-16
 2.126764754987736e+01 -2.331082352478799e+00 -3.545321327606740e-16
 8.205492147673613e+00  4.828645555928675e-01 -1.509877785361194e-16
-1.171633782620629e+01  1.761903072385091e+00  1.904032931056029e-16
-1.172674714600243e+01 -1.114741742330912e+00  2.201450200674413e-16
 2.964112787867451e+00 -7.523838665757480e-01 -4.501945187232540e-17
 1.043028664738764e+01  1.172519017299259e+00 -1.976665995607861e-16
 1.935251661254126e+01 -5.598970333833056e+00 -2.868737313901470e-16
-1.526157481290476e+01 -2.512611313406349e+00  2.974140969407572e-16
 9.771592006437420e+00 -1.626659419483014e+00 -1.571838011166563e-16
 2.165016642197207e+01  9.720815189080986e+00 -4.851683815055922e-16
-1.049242476276206e+01  6.559358868559657e-01  1.799857115103441e-16
-2.445401526374370e+01 -6.778111634866822e+00  5.048310061712206e-16
 7.574565802133934e+00 -6.254934237282497e+00 -7.053125670065604e-17
 2.052375562491836e+01  3.557825225489482e+00 -4.018000747004392e-16
-5.378525746998462e+00  1.088001250598079e+00  8.453846365562260e-17
-9.939425163054793e+00 -1.776067024624604e+00  1.951323704502457e-16
-5.637131835680915e-01  4.276058171292472e-01  5.638454119599860e-18
-1.084715936500606e+00 -3.046311811287778e-01  2.243378870828079e-17
-1.535960440720546e+01  5.054017523998743e+00  2.214142879526852e-16
 2.727615257057211e+01  1.775109639011745e+01 -6.677977381392541e-16
 3.106862063155984e+00  2.287370261806465e-01 -5.764050625881719e-17
-9.287798786501276e-02 -1.211006573884067e-01  2.897139869552991e-18
-6.378565811303507e+00  7.864389606806542e-02  1.127061497728040e-16
-2.038568003107464e+00 -1.896933060215041e-01  3.822777910893682e-17
 1.578948053114441e+00  9.344855319578411e-03 -2.819527902256319e-17
 3.284549265934986e+00  3.054820462941071e-01 -6.159118921248716e-17
-1.917388718143100e+00  4.484177604907721e-02  3.366148642131416e-17
 2.604936166668452e+00  9.034518941786805e-02 -4.728621036533778e-17
-1.564580541464460e+00  2.298311612290545e-03  2.781996272347966e-17
 3.696522896096719e+00  9.054039119791917e-02 -6.671430393695624e-17
-1.929144427643053e+00 -8.055995974082585e-02  3.515915057177457e-17
 6.246517950418902e+00 -2.479658143937334e-01 -1.086164793478363e-16
 2.545905236030536e+00  7.225395944686912e-02 -4.604980372787460e-17
 4.920624995624985e+00 -1.216285380487080e-01 -8.631870225935511e-17
 9.136754222028403e-01  2.476166184663142e-02 -1.651436101706690e-17
 9.260521344263357e-01  1.163237951934515e-02 -1.659972084093786e-17
-4.916723344468746e+00 -2.914430525415256e-01  9.049342830454444e-17
 2.356187242242535e+01 -5.044209608485249e+00 -3.674842040727542e-16
 1.376491446548741e+01  3.690243905049310e+00 -2.828789878618329e-16
-2.084040137299897e+01 -1.840789497993206e+00  3.897932451498776e-16
-2.157363820327066e+01  9.307191714290989e+00  2.883006119669664e-16
 2.303190867625420e+01  4.538056719435397e-02 -4.103465571726186e-16
 5.301183185467793e+00  5.156537083650418e-01 -9.963903281161899e-17
-1.862362893087805e+01  1.592991852462532e+00  3.150622793490282e-16
 2.169651743680980e-01 -9.464379764858416e-03 -3.763911013508119e-18
 5.185773705806713e+00 -2.860070520518763e-01 -8.934841035799391e-17
 5.360081538451519e+00  6.406853035791391e-01 -1.019718535037395e-16
 2.249744230441561e-01  4.411284422892267e-02 -4.456931662497143e-18
-5.990318075051793e+00 -4.784835307011555e-01  1.115211001114752e-16
-1.679444172168486e+01  3.767577671359795e+00  2.601666316527705e-16
 1.872116531586471e+01  9.476793333732066e-02 -3.341391742929416e-16
-2.160331010327924e+00 -1.424338156869373e-01  3.990912298012714e-17
-7.847505319242247e+00  4.942309768868327e-01  1.345776742506230e-16
 2.216029901717431e+01 -6.015374593759694e-01 -3.881883758993784e-16
 2.423833325637885e+01  1.013038692652659e+01 -5.354360984428824e-16
-2.344311565976928e+01  7.427244605694157e-01  4.095669831032353e-16
 1.984758175140130e+01 -4.688929751005744e+00 -3.050343424813673e-16
 1.971336677544074e+01  4.022656175431742e+00 -3.921542076084061e-16
-1.973203456735745e+01  3.849375059185032e-01  3.471999993153179e-16
-1.566232082199394e+00 -5.295631157574338e-03  2.792737885037863e-17
 2.050104250325840e+01 -1.019547836948669e+00 -3.543650222221474e-16
-6.738740324699978e+00 -4.344813166410980e-01  1.243880600043899e-16
-3.123325647025372e-01  1.554497591974342e-02  5.398611571996274e-18
 6.996268769570308e+00  4.882066170198076e-01 -1.295230938705275e-16
 2.833943080486513e-01 -2.376267523627088e-04 -5.040898210930038e-18
-1.852247660256469e+00 -9.567588850149583e-02  3.394599156721905e-17
-1.480997268763372e+01  1.157877865888583e+00  2.516643555035957e-16
 7.664148245724785e+00 -1.407688014212207e-01 -1.349463118594416e-16
 1.607148301005881e+01  2.867935711532283e-01 -2.889579106825577e-16
-1.782807323244228e+01 -2.043962202684217e+00  3.382727983822451e-16
-1.106131035167806e+01  1.208200166864948e+00  1.844353943062424e-16
 7.679909523212854e+00 -3.048078060830786e-02 -1.363599719491390e-16
 1.682894862828219e+01  4.662921953407554e-01 -3.042821980533416e-16
-1.074943122099133e+01 -4.497684316927418e-01  1.959201582239790e-16
-3.952098255877570e+00  1.283917330612969e-01  6.901312428814623e-17
 1.251721167313496e+01 -5.147547516111731e-01 -2.174697947398591e-16
 3.388897088889716e+00  5.439099998112346e-02 -6.086831388294717e-17
-1.309039722526952e+00  1.992594604111907e-02  2.309119149919786e-17
-4.575853575202881e+00 -3.864364992412107e-02  8.182982211037456e-17
 4.378487315874952e+00 -9.838187930537362e-02 -7.690956656502710e-17
 9.573431343051702e+00  3.822416079166122e-01 -1.742980240041908e-16
-1.872121873600786e+01 -7.552233472507357e-01  3.409260644242059e-16
-8.115486102053355e+00  2.747270860642789e-01  1.416020346806359e-16
 7.691117194804760e-01 -1.925290130287892e-02 -1.348944390628508e-17
-2.805606217719842e+01 -1.370448862076777e-01  5.006991793956580e-16
 2.238436115328891e+01 -4.142187529976169e+00 -3.557969355920764e-16
 1.593571535647771e+01  1.315109954141051e+00 -2.971073406099866e-16
-1.816146034667695e+01 -3.184265036405411e+00  3.559220171394200e-16
-1.907461133383098e+01  2.216295007337011e-01  3.371782990972547e-16
 7.241803660409463e+00 -1.335523086685076e+00 -1.151545199016780e-16
 2.674521464727780e+01  1.041841935186653e+01 -5.830084716998276e-16
 1.423804089143447e+00  1.412409808609201e-02 -2.548341212213501e-17
-1.168820241601689e+00 -4.211424089675797e-01  2.512763569974915e-17
 2.497922600398954e+01 -5.153985027866413e+00 -3.915797991733915e-16
-1.687645009725077e+01 -8.343552714802900e+00  3.860635336101305e-16
-2.498062990919919e+01  6.256713541928401e+00  3.802746484348721e-16
-2.695163994889910e+01  1.736228969815726e+00  4.617974600280620e-16
 2.834281643439398e+01 -1.120586192531446e+01 -3.892580664723768e-16
 2.535076414270684e+01  2.593841025021270e+00 -4.777978616717870e-16
-1.545442154721513e+01 -1.568245943407407e+01  4.361614398297793e-16
-2.951218391636905e+01  9.963858445072754e+00  4.228294902618309e-16
 1.870338626687242e+01 -1.892171136478608e+01 -1.384353582689915e-16
 3.546682355390115e+00  8.785556570950527e+00 -1.533858453779513e-16
-3.002509269778400e+01 -1.074987941375968e+00  5.453774503693436e-16
-2.909035244757738e+01  7.626792234470932e+00  4.393350023897278e-16
 2.973496145332884e+01 -8.089926176762916e+00 -4.460480555606770e-16
 1.087260700332689e+01  4.382246443806150e+00 -2.385170012119766e-16
-2.606660688616692e+01  1.350713393665491e+00  4.500082734692373e-16
 2.440286146824624e+01 -1.204314761115856e+01 -3.105390617875482e-16
 2.615751600629460e+01  1.773974798108269e+00 -4.837311457671397e-16
-2.180171817717012e+01 -8.789831610626518e+00  4.782999076979450e-16
-1.631371552445357e+01  4.544850933324633e+00  2.436253351255052e-16
 8.509483727860918e+00  1.548453948720964e-01 -1.530273935982973e-16
 5.105747050609926e+00 -1.311696104426887e-01 -8.951513905236482e-17
-5.251876772330247e-01 -2.672499556416867e-02  9.620930817042682e-18
 4.257234773707447e+00 -1.873351358751920e-01 -7.383777054078792e-17
 7.173459782965747e+00  1.071366656792323e+00 -1.386681765806333e-16
-5.196183484705904e+00  1.916641699484282e-01  9.050300364446406e-17
 1.447582163385061e+00  2.428929621216157e-02 -2.601101503380546e-17
-1.064862248683184e+00  2.708466185264867e-03  1.892266542618050e-17
-5.795358145363200e-02  4.008818399538113e-05  1.030941219724981e-18
-1.651467600557583e-02  3.239968481284070e-05  2.935654621511573e-19
 2.297069840021372e-01  1.079139688288953e-04 -4.089018548817299e-18
-4.663862595693207e+00 -3.426161585174670e-02  8.335102380255991e-17
 2.338360477309329e+00 -1.278425394644675e-01 -4.030037834195875e-17
 1.145582474293617e+01 -1.037923190497567e-01 -2.028036379314865e-16
-2.338560538682496e+01 -1.189641852378110e+01  5.384061219402210e-16
-2.274797475388987e+01  3.879123457726101e-01  4.008416870735200e-16
-1.358653138898167e+00 -3.221244092982876e-02  2.450982439935475e-17
-2.726046993971088e+00  9.022685044084282e-02  4.758620989243019e-17
 4.672147364809443e+00 -2.066457308433015e-01 -8.102322567956081e-17
-1.478566021246978e+00 -4.636369163356889e-02  2.678921613261701e-17
-3.196679145317431e+00  2.477484036480267e-01  5.434319365484391e-17
-6.313989748231267e-01  1.123444794021577e-02  1.112106803657848e-17
-1.670049320956668e+01  1.117931510698543e+00  2.857188575487089e-16
-1.917709991213284e-02  1.036181638904970e-03  3.306329950818367e-19
 1.417173414117586e+01 -1.001671849871879e+00 -2.419110993313906e-16
-1.998928830424157e+01 -5.579547836681723e+00  4.130610565930126e-16
 2.496169023400884e-04  7.112480516262071e-03 -7.752038407715967e-20
 2.891244894087906e+01 -2.105182141767901e+00 -4.929015351756643e-16
-1.371648373596247e+00 -3.116157677598391e+00  5.642750708981912e-17
 1.420087473484498e+00 -4.028404085702709e-01 -2.113311167654774e-17
 2.666518157961211e+01 -1.092304249038543e+00 -4.633156842328335e-16
 2.207672182865700e+01  1.923397964801707e+00 -4.126438143696112e-16
-1.885720629448645e+00 -3.821061707125841e-02  3.395124817882095e-17
 9.870633868451522e-01  6.968816936768142e-03 -1.763757244352299e-17
-2.825998048282949e+00  2.283188883845845e-01  4.794611260527037e-17
 1.859271541576290e+01 -7.755090250170139e-01 -3.229114755055891e-16
 1.144478687962562e+01  1.302950230113653e+00 -2.170609746375088e-16
-3.641513529825219e+00  5.833360671268287e-01  5.881151084082484e-17
 9.739881011098312e+00  1.122388703243802e+00 -1.848649368739868e-16
-7.105350684362494e+00  4.103903466860315e-01  1.222315792573770e-16
 1.320582747563317e+01  4.609761099951885e-01 -2.397498145100186e-16
 2.893253395845931e+00  8.747239209665170e-02 -5.238764243092269e-17
-2.119332521966096e+00 -5.531406736041741e-02  3.828438220808886e-17
 5.125765793372257e+00 -2.393407960129461e-01 -8.875997683499064e-17
-5.455429046982910e+00  1.839804332764362e-01  9.519553526402026e-17
 4.875007929323272e-02 -1.935153471019516e-04 -8.655775191957658e-19
-8.019054254355976e-01  2.189988443571243e-02  1.404585023411375e-17
 2.061457211867329e-02 -5.874193466263843e-04 -3.608253818478584e-19
 3.365131009995897e-02 -9.405443693954716e-04 -5.892014532213191e-19
 3.232400609180989e-01 -9.098368240949424e-03 -5.658960030030148e-18
 5.929291799654834e-01 -1.664441979952005e-02 -1.038086666235145e-17
 9.946353771223312e-01 -2.605784781966305e-02 -1.743298806199341e-17
-9.916635692443516e-01  2.748346991861772e-02  1.736545344481999e-17
-4.373455297359443e-01  2.096242205891993e-02  7.567704119282101e-18
 8.157795323274044e+00 -2.647575918607637e-01 -1.424574106639414e-16
 3.207461071442394e+01  5.484708567403613e+00 -6.271593454060971e-16
-4.668351861990545e+00  1.222183209238883e-02  8.295331511749285e-17
-5.498869688346385e+00  2.474296601707806e-01  9.531669552134128e-17
 8.002851551567531e+00 -3.728757569253749e-01 -1.385891265583433e-16
 1.951947457307370e+01 -5.966946854222076e-01 -3.412415125707887e-16
 1.695608930739157e+01  2.954038790540352e+00 -3.321055106357479e-16
-2.672323904076617e+01 -3.407382185742832e+00  5.105815295177087e-16
-2.299243080564077e+01  6.928924158729225e+00  3.379855538999360e-16
 2.548254465532837e+01 -4.292284668433231e+00 -4.093906131212155e-16
 2.791540839560011e+01  7.098325400958551e+00 -5.697207059785018e-16
-2.527066999688535e+01 -1.160934633691221e+01  5.690035328166123e-16
-2.677571883638710e+01  1.060754990010967e+01  3.675171341306994e-16
 1.709299874027566e+01 -1.992685212874584e+00 -2.837161851859952e-16
 2.569094526698636e+01 -2.780533924292313e+00 -4.286320403047839e-16
 2.481198108496634e+01  6.454484576453861e+00 -5.078762845103921e-16
-3.054210884622225e+01 -9.630101755085539e+00  6.424790560604848e-16
 1.189807610149617e+01 -5.656267804281181e+00 -1.536243598366021e-16
 2.693162438184707e+01  8.012654734226961e+00 -5.616074977211592e-16
-3.017338496545460e+01 -8.367358616089362e+00  6.229429477345915e-16
-2.362008013416876e+01  1.338497999474616e+00  4.065949203381807e-16
 2.169381951297222e+01 -1.044065363912710e+01 -2.787934722045117e-16
 1.907081789128975e+01  1.498527109615321e+01 -4.933561696570571e-16
-2.697037419152665e+01 -1.950630606076080e+00  5.000120010386340e-16
-5.982761323064676e+00  7.761448273575183e-01  9.849576809005505e-17
 2.223100424337276e+01  1.270927701657473e-01 -3.969330706601483e-16
-1.435716980121455e+01 -5.460992195654526e+00  3.116126734524706e-16
-2.332456333273394e+01  9.016681572574224e-01  4.058241142867318e-16
 7.850365286931332e+00 -3.139155234971721e+00 -1.074529348327104e-16
 2.534595841905444e+01 -3.558161240430769e-01 -4.474056824034361e-16
 1.347616498842797e+01  4.070736307578895e+00 -2.816497676860360e-16
-2.616014986653200e+01 -1.617407819674746e-01  4.672128996107271e-16
-7.593723721748971e+00  2.437441338235351e-01  1.326349893198381e-16
-5.220373467279173e-02  1.508587595948185e-03  9.135275314899829e-19
 1.750605349284866e+01 -2.453612219293717e-01 -3.090201063845860e-16
 1.883872327692764e+00 -1.234936371266684e-03 -3.351306671266429e-17
-2.862240225197197e+00 -3.916348166174451e-02  5.133936955666083e-17
 7.857900611649195e-02 -1.395607940445012e-02 -1.255013484874941e-18
 7.099482694106321e+00  5.021387311500910e-01 -1.315030561606795e-16
-1.670385335437717e+00  3.761027969939309e-02  2.934006759912084e-17
-5.308813157795966e+00 -9.417859641781179e-02  9.544431358353442e-17
 2.431818111545291e+00 -1.505294477589126e-01 -4.173046869524786e-17
 7.328782771865225e+00  5.650831958808419e-02 -1.310050339793630e-16
-3.386695840266912e+00 -6.601189310597669e-02  6.094854049929875e-17
 2.598648755976132e-01 -4.580583210639264e-03 -4.577541611231801e-18
 5.891412474618098e+00  9.317946823717418e-02 -1.058020976961465e-16
-2.017324377809558e+01  1.877782814242944e-01  3.570775829435991e-16
-2.365027271949259e+01  1.847106480521027e+01  2.311013334965719e-16
 8.266254999225280e+00  1.317251810403936e-01 -1.484612964379376e-16
 5.449734798476420e+00 -6.952627833653213e-02 -9.627017416491106e-17
 6.219038501888206e+00  1.274646680969243e-01 -1.119848616392403e-16
 2.673301953291050e+00  6.690446787641402e-02 -4.826201619070351e-17
 5.733278682743539e-02 -6.553337343293081e-06 -1.020237999012871e-18
-3.878145694690577e+00 -8.928349987346376e-02  6.993358418300343e-17
-7.349717343532062e+00 -1.673292401883063e-02  1.309689119040496e-16
 4.347916292370524e-01 -9.228870043963279e-03 -7.642812393211916e-18
 4.474135974605330e+00  9.186550611644516e-02 -8.056647131483113e-17
 1.963461682947087e+00  7.899935471315489e-03 -3.502331173446873e-17
-7.560575885109359e+00 -2.798653511714432e-01  1.374249812874162e-16
-2.391471526304314e-01 -6.027596228381422e-03  4.317840208077128e-18
 5.472625335972324e-01  4.024745594920000e-02 -1.015271757860206e-17
-3.517795034761210e+00  1.986111141102482e-01  6.056270178548984e-17
-7.829495020835311e+00 -7.561600119635901e-01  1.471044726898116e-16
 3.608896713579571e+00 -3.460716210198664e-01 -6.066886167989604e-17
-7.529702870140443e-01 -4.301365306864056e-02  1.384195410943420e-17
-3.936583573725007e-02 -1.145716453877201e-02  8.182801779711996e-19
-1.030033122787744e+00 -4.288997792253843e-02  1.877134704521329e-17
 3.159436618842980e-01 -4.782671852913514e-02 -5.131192162678179e-18
-1.842446902237072e+00 -1.499501643767337e-01  3.432922383284970e-17
 5.883145750995885e-01 -3.326677142678262e-02 -1.012795564138989e-17
-2.836027168123786e-01 -1.072454604598594e-02  5.157239451605824e-18
-9.238667747021546e-01  6.700436386815829e-02  1.575286578528707e-17
 2.347613780381958e+00  7.329097905444246e-02 -4.253162574037080e-17
 1.284595830265621e+01 -9.296683532607135e-01 -2.190571465969785e-16
-1.242971190620970e+01 -2.851246136407877e+00  2.504970683449363e-16
-1.035716133696534e+01  1.326405965170744e+00  1.706897010136432e-16
 8.427838180391481e+00  3.074009721127160e-01 -1.531418668327331e-16
 1.900397356845619e-01  6.181776399763355e-04 -3.388335338984956e-18
 1.567250464342941e+00  2.338772480174429e-02 -2.813139188585061e-17
-1.343529180199376e+00 -1.198045938664682e-03  2.392201386778682e-17
-2.150557885187473e-01  5.636273175788316e-04  3.821383217988006e-18
 7.540183402778067e-01 -1.353741856435024e-03 -1.340474658658801e-17
 6.600564511197125e-01  9.357655988590522e-04 -1.175610655364657e-17
 1.450266592541781e-01  2.053240441824468e-04 -2.583032025468136e-18
 1.054250958353832e+00  9.837219966488374e-04 -1.877176074681507e-17
-2.344198763003121e-01 -3.141924733429583e-03  4.204063464901048e-18
-8.583753010356786e-01  5.574549030794239e-03  1.521853592311472e-17
-1.597126010434152e-01 -1.939045770156928e-03  2.862199165072217e-18
 3.029824907670047e+00 -3.105844637027267e-02 -5.360023405888508e-17
 6.213111226006556e-01  7.722229265571975e-03 -1.113631564434428e-17
 1.071527608979874e-01 -1.847592511158554e-03 -1.887927842612156e-18
-2.074993931629419e+00 -4.326574073269928e-02  3.737153191057232e-17
-5.422308149940271e+00  4.143570173656884e-03  9.645386782107629e-17
-5.755631454896514e+00  5.517345701061163e-01  9.675945502711186e-17
 2.656067894103700e+01 -5.378101358672756e-02 -4.721263840992862e-16
-2.613447886195846e+00 -1.759925036503999e+00  6.459201298382794e-17
-1.933273207835628e+01  3.071982739123803e+00  3.124855215710767e-16
 1.377118785629067e+01 -2.558023657673316e-01 -2.424464383910052e-16
 7.009377635127429e+00  1.694504867716057e-01 -1.264812783014351e-16
-2.590750019288512e+00 -8.084252153839368e-02  4.693611449281037e-17
-1.124631017304578e+01 -3.182311539498846e-01  2.034112141150412e-16
 1.846127147134577e+00 -2.106933726235630e-01 -3.068923689337288e-17
 1.666067334146685e+01 -5.285107469601379e-02 -2.959535300898335e-16
-2.115913424250375e+01 -1.436782279350859e+01  5.241761931978784e-16
-2.662375909669812e+01  7.411930397762241e-01  4.661860618661020e-16
 8.584939145500448e+00 -7.250691629076473e-01 -1.453294103211356e-16
 7.198995007910322e+00  5.185280743676973e-02 -1.286474722060590e-16
 2.720254729086552e+00  1.744325358011482e-02 -4.858940083529258e-17
-6.543630013565874e+00 -3.414305553188073e-01  1.199597766241119e-16
-1.607282939982627e+00  2.760319090457195e-02  2.831990436007854e-17
 6.380690561255166e-01  5.637378550456844e-03 -1.141312198916022e-17
 7.240707911400890e-01 -4.102956258181428e-03 -1.284354705471853e-17
-1.793906896433469e+00 -5.269233378770874e-02  3.246610766310802e-17
-6.285543829037211e-01  1.479528393467052e-03  1.117067339317301e-17
 5.354453755181410e-01  2.938092116606111e-03 -9.559076985926958e-18
-1.941204116418019e-01 -6.854993606004739e-04  3.461647533710576e-18
 1.832175912302755e-01  6.985163016684697e-04 -3.267752585875351e-18
-1.095004515139046e-01 -5.907923281279713e-04  1.954761324768059e-18
-1.822947579976370e+00 -1.390001148030972e-02  3.258434422723300e-17
-4.917641909106141e+00  8.609730972840034e-03  8.742684194667734e-17
-9.896391190146105e+00  1.385598207160642e-01  1.746944347381084e-16
-1.145649938991103e+01  3.682891967538453e-02  2.035036686675084e-16
-3.338592136233579e+00  2.205730689300745e-01  5.714792133238608e-17
 1.974815044189469e+01 -4.743520925827572e-01 -3.465680981401115e-16
 2.253133461182578e+01  9.783011845073656e+00 -5.014888685273801e-16
-9.864221521941566e+00  2.191561458624101e-01  1.732938386676136e-16
-6.141378026242872e+00  1.191800571568338e-01  1.080686158790078e-16
 1.508681114254280e+01 -1.261434177640758e+00 -2.555270224909335e-16
 1.434850996578521e+01  4.594233730170446e-01 -2.600692586522296e-16
-2.211444594360323e+01 -8.151105599781283e-01  4.019279094155069e-16
-3.950204421137444e+00  5.057890080091732e-02  6.977891985020408e-17
-8.074709632333125e+00  1.094809997231126e-01  1.425742122894704e-16
 4.252049112576796e+00 -1.628475473798541e-01 -7.399708659557769e-17
 1.021012488080537e+00  1.791536876808512e-02 -1.835420903912540e-17
-6.626489039700610e+00  2.242082386077916e-01  1.156226186193489e-16
 1.297888408234836e+01 -2.763621809319550e-01 -2.281352030001762e-16
 4.624007514571487e+00  5.051071190965880e-01 -8.747952159347283e-17
-2.002405441714924e+01 -5.817849733095403e-01  3.623295631687504e-16
-2.380975687276205e+01  1.205131950091879e+01  2.999000948950854e-16
 2.457849791467847e+01 -1.808562044189252e+00 -4.188213706697826e-16
 1.527894524067476e+01  1.092612028554482e+00 -2.831332476222065e-16
-2.148563730389861e+01 -5.780637111083291e+00  4.417564911530311e-16
-1.926582868275625e+01 -4.328120890559785e-01  3.473053895103834e-16
-1.536863372707862e+01  4.210524669491824e-01  2.691770084149561e-16
-4.750685542104441e+00  7.953420780171326e-01  7.637226511171731e-17
 1.749912127335893e+01 -6.310415817890218e-01 -3.049340137530622e-16
 1.000407365085192e+01  2.073571483714651e+00 -1.993396176345479e-16
-2.086972049950803e+01  2.964122600225186e-01  3.683560423038891e-16
 2.101118256541588e+00 -1.749692061520497e-01 -3.559416064774113e-17
 6.054349695540146e+00  1.793695818282329e-01 -1.095873320117120e-16
-5.239906156009821e+00 -1.158501523937883e-01  9.444069866850505e-17
-1.281344818948401e+01  6.331369202782949e-01  2.215253431036503e-16
 2.408834179190121e+01 -1.660285996188085e+00 -4.116219403619526e-16
-6.935599512504039e+00 -1.580812855296688e+00  1.396695442315927e-16
-2.066189257409642e+01  5.647216639926974e-01  3.619007148005269e-16
-1.344648491531873e+01  1.214807435066874e+00  2.268145335257880e-16
 2.273345159258385e+01 -3.874981340425870e+00 -3.647548629339647e-16
 9.560431745480892e+00  5.000846793154764e+00 -2.215211711414693e-16
-2.259304010276759e+01 -9.325679556499641e-01  4.116518955515755e-16
-6.409244417553355e+00  1.845497114326699e-02  1.138705315010860e-16
-2.485557556365448e+01  5.412685559328839e-01  4.367732782147198e-16
 2.674559173649265e+01 -1.840953112174839e+01 -2.868184636358039e-16
 1.758512763423308e+01  1.246146411743053e+00 -3.257520242453497e-16
-9.542454867224539e+00 -1.179844220909169e+00  1.819418377726941e-16
 1.233797231012452e+01  4.287891203593702e-01 -2.239745869788093e-16
-1.290962711913905e+01 -5.279019931000730e-04  2.297476377430776e-16
 2.999291151689639e+01 -7.631859189746574e+00 -4.553450565311407e-16
 1.450467640204162e+01  2.478101524881231e-01 -2.606741776752906e-16
-3.817852836905710e+00 -1.315704933998497e-01  6.929508435757158e-17
-5.073711823299117e-02  7.530092400798193e-04  8.951906439033031e-19
 9.882500472813446e-01  4.186498231564978e-02 -1.801723590989810e-17
-4.453614805792151e-01  2.017470853790691e-02  7.718451001031282e-18
 3.382942299902734e+00  5.684992488725173e-02 -6.078760587351145e-17
-8.306465872140240e+00 -5.624413182736054e-01  1.536023487322792e-16
-8.857855006085963e+00  2.224914723352409e-01  1.553500768357068e-16
 7.615646337070513e+00 -2.245214105291774e-01 -1.332226349112913e-16
 1.306790289078682e+01  2.228908648312237e-01 -2.348490425623860e-16
-1.644224199335823e+01 -4.756159010369753e+00  3.414771153274983e-16
-1.707842298396348e+01  3.159060691018411e+00  2.714727078579850e-16
 1.382018961181388e+01  1.869039860541114e-02 -2.461387965263747e-16
 1.238272635667289e+01  1.119085987937848e+00 -2.318635881151352e-16
-1.378204384730503e+01 -3.043108694847906e-01  2.483945936894350e-16
-4.283952046500470e+00  1.792184454635927e-01  7.439663232882940e-17
 1.436173146484689e+01 -3.115091484712202e-01 -2.523834993725309e-16
 1.997096871891844e+01  2.305056873841731e+00 -3.790908326125404e-16
-2.031488873800950e+01 -3.703096752994390e+00  3.995756514742315e-16
-1.607865925552979e+01  2.322464096894458e-01  2.837526732828011e-16
-1.136000401988399e+01  6.751637922643746e-01  1.952277595399916e-16
 1.042577876130109e+01 -5.574384272608647e-01 -1.798116920369826e-16
 3.002838117371247e+01  2.291960553384421e+00 -5.579399242192055e-16
 9.719373895517981e+00  1.643666730666666e+01 -3.418486377620152e-16
-2.399913525120568e+01  2.190645585800298e+00  4.045851514036277e-16
 2.053494441007436e+01 -5.954782858443638e+00 -3.042606000727971e-16
 1.802801708150241e+01  4.880831079217123e-02 -3.213315562250475e-16
-1.513223391510118e+00 -8.834879920084104e-02  2.783736710982594e-17
-3.518896047699275e+00 -6.027150966592962e-02  6.324222053529942e-17
-1.018795056810216e+00  1.299388580364045e-02  1.799716584434671e-17
 5.324037183613713e-01  3.488062757120126e-03 -9.510597812898126e-18
 1.126725387735075e-01 -1.329461213302798e-03 -1.991482491533765e-18
-3.455286358168330e+00 -3.510470663035711e-02  6.185163046789498e-17
-2.655799721546563e+00  4.325434774028573e-02  4.681870128654388e-17
-3.665105701454891e+00  1.082615948900505e-01  6.411257929356514e-17
 1.836923895092075e+01 -2.053122042215480e+00 -3.058074356088796e-16
 1.491114132551381e+01  1.735921476953848e+00 -2.831975091053415e-16
-2.526974972676896e+01 -2.053671532543958e+00  4.708060681947465e-16
-2.623496873529568e+01  1.368200038851715e+01  3.263049791358698e-16
 1.369421747794475e+01 -2.018395360032438e+00 -2.229666559772414e-16
 2.908375079477613e+01 -1.892348180259023e-01 -5.156357187324611e-16
-5.799439039818901e-01 -5.972997582005432e+00  7.169117388898079e-17
-2.883475653257833e+01 -1.130825455349247e+00  5.247677085987542e-16
-1.057625177383752e+01  7.977845627321359e-01  1.800200695554471e-16
 9.136192026195921e+00 -2.396763348607649e+00 -1.379635623985222e-16
 2.054339994685571e+01  1.867974476146047e+00 -3.847870662717611e-16
-2.343809065995848e+01 -5.230164901506548e+00  4.708468256559137e-16
-9.389245858832449e+00  1.463410562700374e+00  1.520568180401629e-16
 1.802791525754147e+01  3.443076844433926e-01 -3.243658928648136e-16
-1.287531999480861e+01 -8.785982539461543e-01  2.381589554366104e-16
-5.632864114999026e+00  4.902327768653905e+00  4.987389911089896e-17
 1.421022212921185e+01  1.477494791650646e+00 -2.680685756110221e-16
-9.108250452682303e-01  6.843152691344397e-02  1.550610908031138e-17
-8.283423789261706e+00 -9.099350145447888e-01  1.567626588772713e-16
-3.909082786502772e+00  6.891113340344331e-01  6.248642247801834e-17
 9.050192713813480e+00  6.727852420704857e-01 -1.679715987602734e-16
 2.035830624248768e+01 -3.509071610415897e+00 -3.262459077992707e-16
-4.112958305525886e+00 -4.855777251982182e-01  7.818413388999083e-17
 7.027573487777854e+00 -1.166679784295096e+00 -1.130768420992464e-16
 2.155024311666999e+01  1.047180075209744e+01 -4.911062309311101e-16
-2.269332398520979e+01  8.714578386649948e-01  3.949008571962510e-16
-3.030226757125700e+01  5.159967806434572e+00  4.862482025607054e-16
 1.597017067222109e+01 -3.091023273125501e+00 -2.524490957727615e-16
 3.158146095806887e+01 -1.782678356607955e+00 -5.437133969801010e-16
 2.572490748975885e+01  8.577817977948856e+00 -5.459393782152038e-16
-2.593839679870421e+01 -1.288966413565070e+01  5.940413280171230e-16
-1.720955304464181e+01  7.250754017744468e+00  2.317656611907816e-16
 2.574711779086099e+01  6.841467402304717e-01 -4.652300325875068e-16
 1.104892202177277e+01  1.324655245396141e+01 -3.327322613707665e-16
-2.127709453944677e+01 -9.640086757857792e-01  3.885561165170935e-16
-2.274770011054389e+01  6.126648949882894e+00  3.418733655720626e-16
 2.339811361716446e+01 -1.284496397675043e+00 -4.031996082383807e-16
 2.213391333005709e+01  3.105026611078444e+00 -4.258024104520848e-16
-2.396967894647387e+01 -2.109104734598977e+00  4.482393138785317e-16
-2.748509996705018e+00  8.140948433036961e-02  4.807656106469464e-17
 2.720833221229577e+00  5.170686369570640e-02 -4.895174193872447e-17
-5.873601146308071e-01 -5.349998319096515e-03  1.050774315639567e-17
-1.592394592296397e-01 -1.255067447532442e-03  2.846751487355934e-18
 3.272139776348713e-01  2.702257025901232e-03 -5.850927765200980e-18
-1.310715899505305e+01 -2.884857738450763e-01  2.362216156229145e-16
-2.686828678446619e+00  5.745168891568806e-02  4.722502606669301e-17
 5.867714638226004e+00 -9.650058417043735e-02 -1.034314728012808e-16
 7.162191489642635e+00  2.439092181471659e-01 -1.299658195389648e-16
-5.592810094454859e-01 -1.316549667013648e-02  1.008834339330920e-17
-5.923654597885584e+00 -1.341047923488859e-01  1.067963775853442e-16
-1.500755149091279e+01 -2.232119212053184e-01  2.693707018408352e-16
-1.841218667219943e+01  2.674991354505019e+01  5.282118068363803e-17
 1.652133772601459e+01  1.718487194684737e-01 -2.957825953521209e-16
 2.541133299458691e+00 -6.329051581168720e-05 -4.522184796722997e-17
 2.780505273384795e-01 -1.398186944051026e-03 -4.933874933482696e-18
-4.118221156047538e+00 -2.733799331599019e-02  7.356954581990515e-17
-3.848844104776342e+00  7.472323897452761e-02  6.772701777628571e-17
 1.240921992074296e+00 -2.559875928110594e-02 -2.182066912198029e-17
 9.699597428856280e-01 -5.471076828666445e-03 -1.720537730801643e-17
-2.009001769533249e+00  1.009411320027803e-02  3.564886956886019e-17
-6.046036102966419e+00  4.286182421364365e-02  1.071560347509684e-16
-3.960587038939538e+00  1.635758966775551e-01  6.880268780417494e-17
-1.376566105531805e+00  4.281665299901760e-03  2.445364331803685e-17
 2.526380513207440e+00 -4.446566928149968e-02 -4.450308620931679e-17
 1.154763076020478e+01  1.447300345385083e-01 -2.069909124208784e-16
 1.389848744394952e+01  2.374208405965750e+00 -2.717342916775023e-16
-1.303897557666551e+01  2.406533096953616e-01  2.295714985052687e-16
 2.740973407254057e+01  1.521352179281346e+00 -5.034202543100164e-16
-5.033035328488569e+00 -8.740709741080577e+00  1.793764846309198e-16
-1.057783592070614e+01  3.044383314915119e+00  1.569652752828475e-16
 1.628267282019180e+01  7.749211278163386e+00 -3.693899163033500e-16
-3.217639530978203e+01  4.461078186419976e+00  5.267813781491334e-16
 4.383444755164027e+00  2.490739933861898e+01 -3.339231082344067e-16
-6.445584739787611e+00 -1.066547138962064e+00  1.256652534201341e-16
-2.179875910082482e+01 -6.655634129201704e-01  3.947733429885018e-16
-9.557944281395280e+00  1.924647189217298e+00  1.503199689027148e-16
 3.185696088981847e+01  6.241419258023654e+00 -6.310609349341235e-16
-3.531680201245231e+00  5.400811065241742e-02  6.229554821198304e-17
 9.777768008657701e-01 -5.271608528712686e-03 -1.734654064468591e-17
 4.337231243855554e+00 -4.245584316033223e-02 -7.674998526351829e-17
-8.853655641186338e+00 -4.503730971690058e-01  1.621887831383320e-16
-3.091023573639380e+01  4.160327265198879e+00  5.073386646534407e-16
-1.223267755198169e+00  7.361932807188203e-01  1.420539034138321e-17
 3.111224532154714e+01 -5.394960074673532e+00 -4.982482625941543e-16
 1.695160898719394e+01  9.124328203833086e-01 -3.110490183076266e-16
-1.942310013656159e+01 -3.110540178315049e+00  3.776169060043910e-16
-3.152584885703544e+01  5.987872764297439e+00  4.995168683823454e-16
 2.568476068107589e+01 -1.205034314298134e+01 -3.332780559613435e-16
 2.490305632218716e+01  5.593579360582140e+00 -5.006515886343121e-16
-2.664893861440849e+01 -3.165103957886147e+00  5.067699440296011e-16
-2.285755569792991e-01  6.469957256496188e-01 -2.579871356592446e-18
 2.057013525491796e+01 -2.661281789334655e-01 -3.633357234450071e-16
 2.960225303876945e+01  1.280996600735057e+00 -5.399691784073393e-16
 2.582930864484688e+01  6.800012005418734e+00 -5.295310107562946e-16
-5.868810770861874e+00 -1.513826722301828e+00  1.199965078858881e-16
-8.064203658255959e+00  2.112984841367849e-01  1.413411082519150e-16
-9.422564986584883e+00 -2.078836516674202e+00  1.890450736147111e-16
-4.481631318195257e+00 -3.156284644870452e+01  4.040527566497925e-16
 2.288344232502464e+01  4.757337311556994e-01 -4.121261437957049e-16
 1.744735568662114e+00  6.909702642060630e-01 -3.814911909203053e-17
-2.349576593164920e+01 -1.561623137966431e+00  4.341802919677444e-16
-4.881932521322727e+00  2.398657481487371e+00  6.223447832419232e-17
 2.601220799417529e+01  1.298504292282687e+00 -4.762599296348891e-16
 2.222244896120085e+01  4.170535621464844e+00 -4.383257256381386e-16
-2.603041419145332e+01 -1.313784698913115e+01  5.982288759476337e-16
-2.528647601539592e+01 -9.570390455919550e-01  4.598362320228690e-16
-1.249876066980819e+01  2.943000268861167e-01  2.194065293153880e-16
-4.872797147522773e+00  1.468305452089597e-01  8.520860721066152e-17
 6.340233188783834e+00 -3.026099404602921e-01 -1.097228052819882e-16
 4.726584652575935e+00 -3.383959030670437e-02 -8.376752246975356e-17
 8.621674165073195e+00 -1.528186906893186e-01 -1.518628195449860e-16
-8.902374472729495e+00 -1.257129100858905e+00  1.713449177111820e-16
-9.389923460573231e-02 -1.608655426980456e-01  3.323883898440294e-18
-4.739648039443723e+00 -1.754246720864910e+00  1.023719383437567e-16
-7.312171282355336e+00  1.330997194131961e+00  1.164532975925897e-16
-8.647581601866889e+00 -3.027225105660047e+00  1.849976680661647e-16
 2.694263854043784e+00 -3.327566592116942e-01 -4.452868532338115e-17
 5.215696373161844e+00  1.112250910562892e+00 -1.042475125308631e-16
 3.855577362764657e+00 -5.271621907338597e-01 -6.319819824859558e-17
 1.052385527862285e+01  1.209235955887604e+01 -3.115291589780641e-16
 5.256104264892900e+00 -3.225555264944197e-01 -9.022450424943127e-17
-8.777018364078039e+00 -3.164116995717064e+00  1.887076640773947e-16
-1.933749753747144e+01  1.197150021065113e+01  2.211310195370277e-16
 2.896582640255550e+01  9.035142789776131e+00 -6.083142424763269e-16
-2.311892410746941e+01 -1.669911982869484e+00  4.285865707394395e-16
-1.227676118609639e+01 -8.432320675943668e-02  2.193459998735747e-16
-1.533386756817188e+01  2.570216049512891e+00  2.464764280528150e-16
 1.592082533555788e+01 -7.002746220330892e-01 -2.761350105514648e-16
 2.168935631364158e+01  3.970352689100330e-02 -3.863959069127716e-16
-6.734118111396445e+00 -1.382376077803075e+00  1.340450765571744e-16
-1.288499523864194e+01  4.690735995496054e-01  2.244842992164934e-16
 5.506888607895667e-01  2.003037446342172e-02 -1.000596998435133e-17
-3.652349101885064e+00 -9.857403016286166e-03  6.509919018281606e-17
-1.134730050997849e+01  1.471219225895950e-01  2.004271238193504e-16
 2.290351777746343e+00 -7.683462630626765e-01 -3.286506319708847e-17
 1.272382794515232e+01  3.865410827540437e+00 -2.661513878501441e-16
-2.169637411579012e+01  1.300320361938933e+00  3.727525384034025e-16
 1.256867078004747e+01 -1.517245498823701e+00 -2.080853426549436e-16
 7.162465127395278e+00 -1.077143326110826e-01 -1.263578850007911e-16
-3.107048484150894e+00  1.528516011846457e-02  5.513658452796707e-17
-1.360772522723069e+01  3.906349743430677e-01  2.381520698731563e-16
 5.684933075216764e+00 -3.437862985052937e-01 -9.763788598259295e-17
 2.394213070618629e+00  9.549446578665843e-02 -4.358904846129688e-17
VECTORS SF_force double
0.000000000000000e+00 0.000000000000000e+00 0.000000000000000e+00
0.000000000000000e+00 0.000000000000000e+00 0.000000000000000e+00
0.000000000000000e+00 0.000000000000000e+00 0.000000000000000e+00
0.000000000000000e+00 0.000000000000000e+00 0.000000000000000e+00
0.000000000000000e+00 0.000000000000000e+00 0.000000000000000e+00
0.000000000000000e+00 0.000000000000000e+00 0.000000000000000e+00
0.000000000000000e+00 0.000000000000000e+00 0.000000000000000e+00
0.000000000000000e+00 0.000000000000000e+00 0.000000000000000e+00
0.000000000000000e+00 0.000000000000000e+00 0.000000000000000e+00
0.000000000000000e+00 0.000000000000000e+00 0.000000000000000e+00
0.000000000000000e+00 0.000000000000000e+00 0.000000000000000e+00
0.000000000000000e+00 0.000000000000000e+00 0.000000000000000e+00
0.000000000000000e+00 0.000000000000000e+00 0.000000000000000e+00
0.000000000000000e+00 0.000000000000000e+00 0.000000000000000e+00
0.000000000000000e+00 0.000000000000000e+00 0.000000000000000e+00
0.000000000000000e+00 0.000000000000000e+00 0.000000000000000e+00
0.000000000000000e+00 0.000000000000000e+00 0.000000000000000e+00
0.000000000000000e+00 0.000000000000000e+00 0.000000000000000e+00
0.000000000000000e+00 0.000000000000000e+00 0.000000000000000e+00
0.000000000000000e+00 0.000000000000000e+00 0.000000000000000e+00
0.000000000000000e+00 0.000000000000000e+00 0.000000000000000e+00
0.000000000000000e+00 0.000000000000000e+00 0.000000000000000e+00
0.000000000000000e+00 0.000000000000000e+00 0.000000000000000e+00
0.000000000000000e+00 0.000000000000000e+00 0.000000000000000e+00
0.000000000000000e+00 0.000000000000000e+00 0.000000000000000e+00
0.000000000000000e+00 0.000000000000000e+00 0.000000000000000e+00
0.000000000000000e+00 0.000000000000000e+00 0.000000000000000e+00
0.000000000000000e+00 0.000000000000000e+00 0.000000000000000e+00
0.000000000000000e+00 0.000000000000000e+00 0.000000000000000e+00
0.000000000000000e+00 0.000000000000000e+00 0.000000000000000e+00
0.000000000000000e+00 0.000000000000000e+00 0.000000000000000e+00
0.000000000000000e+00 0.000000000000000e+00 0.000000000000000e+00
0.000000000000000e+00 0.000000000000000e+00 0.000000000000000e+00
0.000000000000000e+00 0.000000000000000e+00 0.000000000000000e+00
0.000000000000000e+00 0.000000000000000e+00 0.000000000000000e+00
0.000000000000000e+00 0.000000000000000e+00 0.000000000000000e+00
0.000000000000000e+00 0.000000000000000e+00 0.000000000000000e+00
0.000000000000000e+00 0.000000000000000e+00 0.000000000000000e+00
0.000000000000000e+00 0.000000000000000e+00 0.000000000000000e+00
0.000000000000000e+00 0.000000000000000e+00 0.000000000000000e+00
0.000000000000000e+00 0.000000000000000e+00 0.000000000000000e+00
0.000000000000000e+00 0.000000000000000e+00 0.000000000000000e+00
0.000000000000000e+00 0.000000000000000e+00 0.000000000000000e+00
0.000000000000000e+00 0.000000000000000e+00 0.000000000000000e+00
0.000000000000000e+00 0.000000000000000e+00 0.000000000000000e+00
0.000000000000000e+00 0.000000000000000e+00 0.000000000000000e+00
0.000000000000000e+00 0.000000000000000e+00 0.000000000000000e+00
0.000000000000000e+00 0.000000000000000e+00 0.000000000000000e+00
0.000000000000000e+00 0.000000000000000e+00 0.000000000000000e+00
0.000000000000000e+00 0.000000000000000e+00 0.000000000000000e+00
0.000000000000000e+00 0.000000000000000e+00 0.000000000000000e+00
0.000000000000000e+00 0.000000000000000e+00 0.000000000000000e+00
0.000000000000000e+00 0.000000000000000e+00 0.000000000000000e+00
0.000000000000000e+00 0.000000000000000e+00 0.000000000000000e+00
0.000000000000000e+00 0.000000000000000e+00 0.000000000000000e+00
0.000000000000000e+00 0.000000000000000e+00 0.000000000000000e+00
0.000000000000000e+00 0.000000000000000e+00 0.000000000000000e+00
0.000000000000000e+00 0.000000000000000e+00 0.000000000000000e+00
0.000000000000000e+00 0.000000000000000e+00 0.000000000000000e+00
0.000000000000000e+00 0.000000000000000e+00 0.000000000000000e+00
0.000000000000000e+00 0.000000000000000e+00 0.000000000000000e+00
0.000000000000000e+00 0.000000000000000e+00 0.000000000000000e+00
0.000000000000000e+00 0.000000000000000e+00 0.000000000000000e+00
0.000000000000000e+00 0.000000000000000e+00 0.000000000000000e+00
0.000000000000000e+00 0.000000000000000e+00 0.000000000000000e+00
0.000000000000000e+00 0.000000000000000e+00 0.000000000000000e+00
0.000000000000000e+00 0.000000000000000e+00 0.000000000000000e+00
0.000000000000000e+00 0.000000000000000e+00 0.000000000000000e+00
0.000000000000000e+00 0.000000000000000e+00 0.000000000000000e+00
0.000000000000000e+00 0.000000000000000e+00 0.000000000000000e+00
0.000000000000000e+00 0.000000000000000e+00 0.000000000000000e+00
0.000000000000000e+00 0.000000000000000e+00 0.000000000000000e+00
0.000000000000000e+00 0.000000000000000e+00 0.000000000000000e+00
0.000000000000000e+00 0.000000000000000e+00 0.000000000000000e+00
0.000000000000000e+00 0.000000000000000e+00 0.000000000000000e+00
0.000000000000000e+00 0.000000000000000e+00 0.000000000000000e+00
0.000000000000000e+00 0.000000000000000e+00 0.000000000000000e+00
0.000000000000000e+00 0.000000000000000e+00 0.000000000000000e+00
0.000000000000000e+00 0.000000000000000e+00 0.000000000000000e+00
0.000000000000000e+00 0.000000000000000e+00 0.000000000000000e+00
0.000000000000000e+00 0.000000000000000e+00 0.000000000000000e+00
0.000000000000000e+00 0.000000000000000e+00 0.000000000000000e+00
0.000000000000000e+00 0.000000000000000e+00 0.000000000000000e+00
0.000000000000000e+00 0.000000000000000e+00 0.000000000000000e+00
0.000000000000000e+00 0.000000000000000e+00 0.000000000000000e+00
0.000000000000000e+00 0.000000000000000e+00 0.000000000000000e+00
0.000000000000000e+00 0.000000000000000e+00 0.000000000000000e+00
0.000000000000000e+00 0.000000000000000e+00 0.000000000000000e+00
0.000000000000000e+00 0.000000000000000e+00 0.000000000000000e+00
0.000000000000000e+00 0.000000000000000e+00 0.000000000000000e+00
0.000000000000000e+00 0.000000000000000e+00 0.000000000000000e+00
0.000000000000000e+00 0.000000000000000e+00 0.000000000000000e+00
0.000000000000000e+00 0.000000000000000e+00 0.000000000000000e+00
0.000000000000000e+00 0.000000000000000e+00 0.000000000000000e+00
0.000000000000000e+00 0.000000000000000e+00 0.000000000000000e+00
0.000000000000000e+00 0.000000000000000e+00 0.000000000000000e+00
0.000000000000000e+00 0.000000000000000e+00 0.000000000000000e+00
0.000000000000000e+00 0.000000000000000e+00 0.000000000000000e+00
0.000000000000000e+00 0.000000000000000e+00 0.000000000000000e+00
0.000000000000000e+00 0.000000000000000e+00 0.000000000000000e+00
0.000000000000000e+00 0.000000000000000e+00 0.000000000000000e+00
0.000000000000000e+00 0.000000000000000e+00 0.000000000000000e+00
0.000000000000000e+00 0.000000000000000e+00 0.000000000000000e+00
0.000000000000000e+00 0.000000000000000e+00 0.000000000000000e+00
0.000000000000000e+00 0.000000000000000e+00 0.000000000000000e+00
0.000000000000000e+00 0.000000000000000e+00 0.000000000000000e+00
0.000000000000000e+00 0.000000000000000e+00 0.000000000000000e+00
0.000000000000000e+00 0.000000000000000e+00 0.000000000000000e+00
0.000000000000000e+00 0.000000000000000e+00 0.000000000000000e+00
0.000000000000000e+00 0.000000000000000e+00 0.000000000000000e+00
0.000000000000000e+00 0.000000000000000e+00 0.000000000000000e+00
0.000000000000000e+00 0.000000000000000e+00 0.000000000000000e+00
0.000000000000000e+00 0.000000000000000e+00 0.000000000000000e+00
0.000000000000000e+00 0.000000000000000e+00 0.000000000000000e+00
0.000000000000000e+00 0.000000000000000e+00 0.000000000000000e+00
0.000000000000000e+00 0.000000000000000e+00 0.000000000000000e+00
0.000000000000000e+00 0.000000000000000e+00 0.000000000000000e+00
0.000000000000000e+00 0.000000000000000e+00 0.000000000000000e+00
0.000000000000000e+00 0.000000000000000e+00 0.000000000000000e+00
0.000000000000000e+00 0.000000000000000e+00 0.000000000000000e+00
0.000000000000000e+00 0.000000000000000e+00 0.000000000000000e+00
0.000000000000000e+00 0.000000000000000e+00 0.000000000000000e+00
0.000000000000000e+00 0.000000000000000e+00 0.000000000000000e+00
0.000000000000000e+00 0.000000000000000e+00 0.000000000000000e+00
0.000000000000000e+00 0.000000000000000e+00 0.000000000000000e+00
0.000000000000000e+00 0.000000000000000e+00 0.000000000000000e+00
0.000000000000000e+00 0.000000000000000e+00 0.000000000000000e+00
0.000000000000000e+00 0.000000000000000e+00 0.000000000000000e+00
0.000000000000000e+00 0.000000000000000e+00 0.000000000000000e+00
0.000000000000000e+00 0.000000000000000e+00 0.000000000000000e+00
0.000000000000000e+00 0.000000000000000e+00 0.000000000000000e+00
0.000000000000000e+00 0.000000000000000e+00 0.000000000000000e+00
0.000000000000000e+00 0.000000000000000e+00 0.000000000000000e+00
0.000000000000000e+00 0.000000000000000e+00 0.000000000000000e+00
0.000000000000000e+00 0.000000000000000e+00 0.000000000000000e+00
0.000000000000000e+00 0.000000000000000e+00 0.000000000000000e+00
0.000000000000000e+00 0.000000000000000e+00 0.000000000000000e+00
0.000000000000000e+00 0.000000000000000e+00 0.000000000000000e+00
0.000000000000000e+00 0.000000000000000e+00 0.000000000000000e+00
0.000000000000000e+00 0.000000000000000e+00 0.000000000000000e+00
0.000000000000000e+00 0.000000000000000e+00 0.000000000000000e+00
0.000000000000000e+00 0.000000000000000e+00 0.000000000000000e+00
0.000000000000000e+00 0.000000000000000e+00 0.000000000000000e+00
0.000000000000000e+00 0.000000000000000e+00 0.000000000000000e+00
0.000000000000000e+00 0.000000000000000e+00 0.000000000000000e+00
0.000000000000000e+00 0.000000000000000e+00 0.000000000000000e+00
0.000000000000000e+00 0.000000000000000e+00 0.000000000000000e+00
0.000000000000000e+00 0.000000000000000e+00 0.000000000000000e+00
0.000000000000000e+00 0.000000000000000e+00 0.000000000000000e+00
0.000000000000000e+00 0.000000000000000e+00 0.000000000000000e+00
0.000000000000000e+00 0.000000000000000e+00 0.000000000000000e+00
0.000000000000000e+00 0.000000000000000e+00 0.000000000000000e+00
0.000000000000000e+00 0.000000000000000e+00 0.000000000000000e+00
0.000000000000000e+00 0.000000000000000e+00 0.000000000000000e+00
0.000000000000000e+00 0.000000000000000e+00 0.000000000000000e+00
0.000000000000000e+00 0.000000000000000e+00 0.000000000000000e+00
0.000000000000000e+00 0.000000000000000e+00 0.000000000000000e+00
0.000000000000000e+00 0.000000000000000e+00 0.000000000000000e+00
0.000000000000000e+00 0.000000000000000e+00 0.000000000000000e+00
0.000000000000000e+00 0.000000000000000e+00 0.000000000000000e+00
0.000000000000000e+00 0.000000000000000e+00 0.000000000000000e+00
0.000000000000000e+00 0.000000000000000e+00 0.000000000000000e+00
0.000000000000000e+00 0.000000000000000e+00 0.000000000000000e+00
0.000000000000000e+00 0.000000000000000e+00 0.000000000000000e+00
0.000000000000000e+00 0.000000000000000e+00 0.000000000000000e+00
0.000000000000000e+00 0.000000000000000e+00 0.000000000000000e+00
0.000000000000000e+00 0.000000000000000e+00 0.000000000000000e+00
0.000000000000000e+00 0.000000000000000e+00 0.000000000000000e+00
0.000000000000000e+00 0.000000000000000e+00 0.000000000000000e+00
0.000000000000000e+00 0.000000000000000e+00 0.000000000000000e+00
0.000000000000000e+00 0.000000000000000e+00 0.000000000000000e+00
0.000000000000000e+00 0.000000000000000e+00 0.000000000000000e+00
0.000000000000000e+00 0.000000000000000e+00 0.000000000000000e+00
0.000000000000000e+00 0.000000000000000e+00 0.000000000000000e+00
0.000000000000000e+00 0.000000000000000e+00 0.000000000000000e+00
0.000000000000000e+00 0.000000000000000e+00 0.000000000000000e+00
0.000000000000000e+00 0.000000000000000e+00 0.000000000000000e+00
0.000000000000000e+00 0.000000000000000e+00 0.000000000000000e+00
0.000000000000000e+00 0.000000000000000e+00 0.000000000000000e+00
0.000000000000000e+00 0.000000000000000e+00 0.000000000000000e+00
0.000000000000000e+00 0.000000000000000e+00 0.000000000000000e+00
0.000000000000000e+00 0.000000000000000e+00 0.000000000000000e+00
0.000000000000000e+00 0.000000000000000e+00 0.000000000000000e+00
0.000000000000000e+00 0.000000000000000e+00 0.000000000000000e+00
0.000000000000000e+00 0.000000000000000e+00 0.000000000000000e+00
0.000000000000000e+00 0.000000000000000e+00 0.000000000000000e+00
0.000000000000000e+00 0.000000000000000e+00 0.000000000000000e+00
0.000000000000000e+00 0.000000000000000e+00 0.000000000000000e+00
0.000000000000000e+00 0.000000000000000e+00 0.000000000000000e+00
0.000000000000000e+00 0.000000000000000e+00 0.000000000000000e+00
0.000000000000000e+00 0.000000000000000e+00 0.000000000000000e+00
0.000000000000000e+00 0.000000000000000e+00 0.000000000000000e+00
0.000000000000000e+00 0.000000000000000e+00 0.000000000000000e+00
0.000000000000000e+00 0.000000000000000e+00 0.000000000000000e+00
0.000000000000000e+00 0.000000000000000e+00 0.000000000000000e+00
0.000000000000000e+00 0.000000000000000e+00 0.000000000000000e+00
0.000000000000000e+00 0.000000000000000e+00 0.000000000000000e+00
0.000000000000000e+00 0.000000000000000e+00 0.000000000000000e+00
0.000000000000000e+00 0.000000000000000e+00 0.000000000000000e+00
0.000000000000000e+00 0.000000000000000e+00 0.000000000000000e+00
0.000000000000000e+00 0.000000000000000e+00 0.000000000000000e+00
0.000000000000000e+00 0.000000000000000e+00 0.000000000000000e+00
0.000000000000000e+00 0.000000000000000e+00 0.000000000000000e+00
0.000000000000000e+00 0.000000000000000e+00 0.000000000000000e+00
0.000000000000000e+00 0.000000000000000e+00 0.000000000000000e+00
0.000000000000000e+00 0.000000000000000e+00 0.000000000000000e+00
0.000000000000000e+00 0.000000000000000e+00 0.000000000000000e+00
0.000000000000000e+00 0.000000000000000e+00 0.000000000000000e+00
0.000000000000000e+00 0.000000000000000e+00 0.000000000000000e+00
0.000000000000000e+00 0.000000000000000e+00 0.000000000000000e+00
0.000000000000000e+00 0.000000000000000e+00 0.000000000000000e+00
0.000000000000000e+00 0.000000000000000e+00 0.000000000000000e+00
0.000000000000000e+00 0.000000000000000e+00 0.000000000000000e+00
0.000000000000000e+00 0.000000000000000e+00 0.000000000000000e+00
0.000000000000000e+00 0.000000000000000e+00 0.000000000000000e+00
0.000000000000000e+00 0.000000000000000e+00 0.000000000000000e+00
0.000000000000000e+00 0.000000000000000e+00 0.000000000000000e+00
0.000000000000000e+00 0.000000000000000e+00 0.000000000000000e+00
0.000000000000000e+00 0.000000000000000e+00 0.000000000000000e+00
0.000000000000000e+00 0.000000000000000e+00 0.000000000000000e+00
0.000000000000000e+00 0.000000000000000e+00 0.000000000000000e+00
0.000000000000000e+00 0.000000000000000e+00 0.000000000000000e+00
0.000000000000000e+00 0.000000000000000e+00 0.000000000000000e+00
0.000000000000000e+00 0.000000000000000e+00 0.000000000000000e+00
0.000000000000000e+00 0.000000000000000e+00 0.000000000000000e+00
0.000000000000000e+00 0.000000000000000e+00 0.000000000000000e+00
0.000000000000000e+00 0.000000000000000e+00 0.000000000000000e+00
0.000000000000000e+00 0.000000000000000e+00 0.000000000000000e+00
0.000000000000000e+00 0.000000000000000e+00 0.000000000000000e+00
0.000000000000000e+00 0.000000000000000e+00 0.000000000000000e+00
0.000000000000000e+00 0.000000000000000e+00 0.000000000000000e+00
0.000000000000000e+00 0.000000000000000e+00 0.000000000000000e+00
0.000000000000000e+00 0.000000000000000e+00 0.000000000000000e+00
0.000000000000000e+00 0.000000000000000e+00 0.000000000000000e+00
0.000000000000000e+00 0.000000000000000e+00 0.000000000000000e+00
0.000000000000000e+00 0.000000000000000e+00 0.000000000000000e+00
0.000000000000000e+00 0.000000000000000e+00 0.000000000000000e+00
0.000000000000000e+00 0.000000000000000e+00 0.000000000000000e+00
0.000000000000000e+00 0.000000000000000e+00 0.000000000000000e+00
0.000000000000000e+00 0.000000000000000e+00 0.000000000000000e+00
0.000000000000000e+00 0.000000000000000e+00 0.000000000000000e+00
0.000000000000000e+00 0.000000000000000e+00 0.000000000000000e+00
0.000000000000000e+00 0.000000000000000e+00 0.000000000000000e+00
0.000000000000000e+00 0.000000000000000e+00 0.000000000000000e+00
0.000000000000000e+00 0.000000000000000e+00 0.000000000000000e+00
0.000000000000000e+00 0.000000000000000e+00 0.000000000000000e+00
0.000000000000000e+00 0.000000000000000e+00 0.000000000000000e+00
0.000000000000000e+00 0.000000000000000e+00 0.000000000000000e+00
0.000000000000000e+00 0.000000000000000e+00 0.000000000000000e+00
0.000000000000000e+00 0.000000000000000e+00 0.000000000000000e+00
0.000000000000000e+00 0.000000000000000e+00 0.000000000000000e+00
0.000000000000000e+00 0.000000000000000e+00 0.000000000000000e+00
0.000000000000000e+00 0.000000000000000e+00 0.000000000000000e+00
0.000000000000000e+00 0.000000000000000e+00 0.000000000000000e+00
0.000000000000000e+00 0.000000000000000e+00 0.000000000000000e+00
0.000000000000000e+00 0.000000000000000e+00 0.000000000000000e+00
0.000000000000000e+00 0.000000000000000e+00 0.000000000000000e+00
0.000000000000000e+00 0.000000000000000e+00 0.000000000000000e+00
0.000000000000000e+00 0.000000000000000e+00 0.000000000000000e+00
0.000000000000000e+00 0.000000000000000e+00 0.000000000000000e+00
0.000000000000000e+00 0.000000000000000e+00 0.000000000000000e+00
0.000000000000000e+00 0.000000000000000e+00 0.000000000000000e+00
0.000000000000000e+00 0.000000000000000e+00 0.000000000000000e+00
0.000000000000000e+00 0.000000000000000e+00 0.000000000000000e+00
0.000000000000000e+00 0.000000000000000e+00 0.000000000000000e+00
0.000000000000000e+00 0.000000000000000e+00 0.000000000000000e+00
0.000000000000000e+00 0.000000000000000e+00 0.000000000000000e+00
0.000000000000000e+00 0.000000000000000e+00 0.000000000000000e+00
0.000000000000000e+00 0.000000000000000e+00 0.000000000000000e+00
0.000000000000000e+00 0.000000000000000e+00 0.000000000000000e+00
0.000000000000000e+00 0.000000000000000e+00 0.000000000000000e+00
0.000000000000000e+00 0.000000000000000e+00 0.000000000000000e+00
0.000000000000000e+00 0.000000000000000e+00 0.000000000000000e+00
0.000000000000000e+00 0.000000000000000e+00 0.000000000000000e+00
0.000000000000000e+00 0.000000000000000e+00 0.000000000000000e+00
0.000000000000000e+00 0.000000000000000e+00 0.000000000000000e+00
0.000000000000000e+00 0.000000000000000e+00 0.000000000000000e+00
0.000000000000000e+00 0.000000000000000e+00 0.000000000000000e+00
0.000000000000000e+00 0.000000000000000e+00 0.000000000000000e+00
0.000000000000000e+00 0.000000000000000e+00 0.000000000000000e+00
0.000000000000000e+00 0.000000000000000e+00 0.000000000000000e+00
0.000000000000000e+00 0.000000000000000e+00 0.000000000000000e+00
0.000000000000000e+00 0.000000000000000e+00 0.000000000000000e+00
0.000000000000000e+00 0.000000000000000e+00 0.000000000000000e+00
0.000000000000000e+00 0.000000000000000e+00 0.000000000000000e+00
0.000000000000000e+00 0.000000000000000e+00 0.000000000000000e+00
0.000000000000000e+00 0.000000000000000e+00 0.000000000000000e+00
0.000000000000000e+00 0.000000000000000e+00 0.000000000000000e+00
0.000000000000000e+00 0.000000000000000e+00 0.000000000000000e+00
0.000000000000000e+00 0.000000000000000e+00 0.000000000000000e+00
0.000000000000000e+00 0.000000000000000e+00 0.000000000000000e+00
0.000000000000000e+00 0.000000000000000e+00 0.000000000000000e+00
0.000000000000000e+00 0.000000000000000e+00 0.000000000000000e+00
0.000000000000000e+00 0.000000000000000e+00 0.000000000000000e+00
0.000000000000000e+00 0.000000000000000e+00 0.000000000000000e+00
0.000000000000000e+00 0.000000000000000e+00 0.000000000000000e+00
0.000000000000000e+00 0.000000000000000e+00 0.000000000000000e+00
0.000000000000000e+00 0.000000000000000e+00 0.000000000000000e+00
0.000000000000000e+00 0.000000000000000e+00 0.000000000000000e+00
0.000000000000000e+00 0.000000000000000e+00 0.000000000000000e+00
0.000000000000000e+00 0.000000000000000e+00 0.000000000000000e+00
0.000000000000000e+00 0.000000000000000e+00 0.000000000000000e+00
0.000000000000000e+00 0.000000000000000e+00 0.000000000000000e+00
0.000000000000000e+00 0.000000000000000e+00 0.000000000000000e+00
0.000000000000000e+00 0.000000000000000e+00 0.000000000000000e+00
0.000000000000000e+00 0.000000000000000e+00 0.000000000000000e+00
0.000000000000000e+00 0.000000000000000e+00 0.000000000000000e+00
0.000000000000000e+00 0.000000000000000e+00 0.000000000000000e+00
0.000000000000000e+00 0.000000000000000e+00 0.000000000000000e+00
0.000000000000000e+00 0.000000000000000e+00 0.000000000000000e+00
0.000000000000000e+00 0.000000000000000e+00 0.000000000000000e+00
0.000000000000000e+00 0.000000000000000e+00 0.000000000000000e+00
0.000000000000000e+00 0.000000000000000e+00 0.000000000000000e+00
0.000000000000000e+00 0.000000000000000e+00 0.000000000000000e+00
0.000000000000000e+00 0.000000000000000e+00 0.000000000000000e+00
0.000000000000000e+00 0.000000000000000e+00 0.000000000000000e+00
0.000000000000000e+00 0.000000000000000e+00 0.000000000000000e+00
0.000000000000000e+00 0.000000000000000e+00 0.000000000000000e+00
0.000000000000000e+00 0.000000000000000e+00 0.000000000000000e+00
0.000000000000000e+00 0.000000000000000e+00 0.000000000000000e+00
0.000000000000000e+00 0.000000000000000e+00 0.000000000000000e+00
0.000000000000000e+00 0.000000000000000e+00 0.000000000000000e+00
0.000000000000000e+00 0.000000000000000e+00 0.000000000000000e+00
0.000000000000000e+00 0.000000000000000e+00 0.000000000000000e+00
0.000000000000000e+00 0.000000000000000e+00 0.000000000000000e+00
0.000000000000000e+00 0.000000000000000e+00 0.000000000000000e+00
0.000000000000000e+00 0.000000000000000e+00 0.000000000000000e+00
0.000000000000000e+00 0.000000000000000e+00 0.000000000000000e+00
0.000000000000000e+00 0.000000000000000e+00 0.000000000000000e+00
0.000000000000000e+00 0.000000000000000e+00 0.000000000000000e+00
0.000000000000000e+00 0.000000000000000e+00 0.000000000000000e+00
0.000000000000000e+00 0.000000000000000e+00 0.000000000000000e+00
0.000000000000000e+00 0.000000000000000e+00 0.000000000000000e+00
0.000000000000000e+00 0.000000000000000e+00 0.000000000000000e+00
0.000000000000000e+00 0.000000000000000e+00 0.000000000000000e+00
0.000000000000000e+00 0.000000000000000e+00 0.000000000000000e+00
0.000000000000000e+00 0.000000000000000e+00 0.000000000000000e+00
0.000000000000000e+00 0.000000000000000e+00 0.000000000000000e+00
0.000000000000000e+00 0.000000000000000e+00 0.000000000000000e+00
0.000000000000000e+00 0.000000000000000e+00 0.000000000000000e+00
0.000000000000000e+00 0.000000000000000e+00 0.000000000000000e+00
0.000000000000000e+00 0.000000000000000e+00 0.000000000000000e+00
0.000000000000000e+00 0.000000000000000e+00 0.000000000000000e+00
0.000000000000000e+00 0.000000000000000e+00 0.000000000000000e+00
0.000000000000000e+00 0.000000000000000e+00 0.000000000000000e+00
0.000000000000000e+00 0.000000000000000e+00 0.000000000000000e+00
0.000000000000000e+00 0.000000000000000e+00 0.000000000000000e+00
0.000000000000000e+00 0.000000000000000e+00 0.000000000000000e+00
0.000000000000000e+00 0.000000000000000e+00 0.000000000000000e+00
0.000000000000000e+00 0.000000000000000e+00 0.000000000000000e+00
0.000000000000000e+00 0.000000000000000e+00 0.000000000000000e+00
0.000000000000000e+00 0.000000000000000e+00 0.000000000000000e+00
0.000000000000000e+00 0.000000000000000e+00 0.000000000000000e+00
0.000000000000000e+00 0.000000000000000e+00 0.000000000000000e+00
0.000000000000000e+00 0.000000000000000e+00 0.000000000000000e+00
0.000000000000000e+00 0.000000000000000e+00 0.000000000000000e+00
0.000000000000000e+00 0.000000000000000e+00 0.000000000000000e+00
0.000000000000000e+00 0.000000000000000e+00 0.000000000000000e+00
0.000000000000000e+00 0.000000000000000e+00 0.000000000000000e+00
0.000000000000000e+00 0.000000000000000e+00 0.000000000000000e+00
0.000000000000000e+00 0.000000000000000e+00 0.000000000000000e+00
0.000000000000000e+00 0.000000000000000e+00 0.000000000000000e+00
0.000000000000000e+00 0.000000000000000e+00 0.000000000000000e+00
0.000000000000000e+00 0.000000000000000e+00 0.000000000000000e+00
0.000000000000000e+00 0.000000000000000e+00 0.000000000000000e+00
0.000000000000000e+00 0.000000000000000e+00 0.000000000000000e+00
0.000000000000000e+00 0.000000000000000e+00 0.000000000000000e+00
0.000000000000000e+00 0.000000000000000e+00 0.000000000000000e+00
0.000000000000000e+00 0.000000000000000e+00 0.000000000000000e+00
0.000000000000000e+00 0.000000000000000e+00 0.000000000000000e+00
0.000000000000000e+00 0.000000000000000e+00 0.000000000000000e+00
0.000000000000000e+00 0.000000000000000e+00 0.000000000000000e+00
0.000000000000000e+00 0.000000000000000e+00 0.000000000000000e+00
0.000000000000000e+00 0.000000000000000e+00 0.000000000000000e+00
0.000000000000000e+00 0.000000000000000e+00 0.000000000000000e+00
0.000000000000000e+00 0.000000000000000e+00 0.000000000000000e+00
0.000000000000000e+00 0.000000000000000e+00 0.000000000000000e+00
0.000000000000000e+00 0.000000000000000e+00 0.000000000000000e+00
0.000000000000000e+00 0.000000000000000e+00 0.000000000000000e+00
0.000000000000000e+00 0.000000000000000e+00 0.000000000000000e+00
0.000000000000000e+00 0.000000000000000e+00 0.000000000000000e+00
0.000000000000000e+00 0.000000000000000e+00 0.000000000000000e+00
0.000000000000000e+00 0.000000000000000e+00 0.000000000000000e+00
0.000000000000000e+00 0.000000000000000e+00 0.000000000000000e+00
0.000000000000000e+00 0.000000000000000e+00 0.000000000000000e+00
0.000000000000000e+00 0.000000000000000e+00 0.000000000000000e+00
0.000000000000000e+00 0.000000000000000e+00 0.000000000000000e+00
0.000000000000000e+00 0.000000000000000e+00 0.000000000000000e+00
0.000000000000000e+00 0.000000000000000e+00 0.000000000000000e+00
0.000000000000000e+00 0.000000000000000e+00 0.000000000000000e+00
0.000000000000000e+00 0.000000000000000e+00 0.000000000000000e+00
0.000000000000000e+00 0.000000000000000e+00 0.000000000000000e+00
0.000000000000000e+00 0.000000000000000e+00 0.000000000000000e+00
0.000000000000000e+00 0.000000000000000e+00 0.000000000000000e+00
0.000000000000000e+00 0.000000000000000e+00 0.000000000000000e+00
0.000000000000000e+00 0.000000000000000e+00 0.000000000000000e+00
0.000000000000000e+00 0.000000000000000e+00 0.000000000000000e+00
0.000000000000000e+00 0.000000000000000e+00 0.000000000000000e+00
0.000000000000000e+00 0.000000000000000e+00 0.000000000000000e+00
0.000000000000000e+00 0.000000000000000e+00 0.000000000000000e+00
0.000000000000000e+00 0.000000000000000e+00 0.000000000000000e+00
0.000000000000000e+00 0.000000000000000e+00 0.000000000000000e+00
0.000000000000000e+00 0.000000000000000e+00 0.000000000000000e+00
0.000000000000000e+00 0.000000000000000e+00 0.000000000000000e+00
0.000000000000000e+00 0.000000000000000e+00 0.000000000000000e+00
0.000000000000000e+00 0.000000000000000e+00 0.000000000000000e+00
0.000000000000000e+00 0.000000000000000e+00 0.000000000000000e+00
0.000000000000000e+00 0.000000000000000e+00 0.000000000000000e+00
0.000000000000000e+00 0.000000000000000e+00 0.000000000000000e+00
0.000000000000000e+00 0.000000000000000e+00 0.000000000000000e+00
0.000000000000000e+00 0.000000000000000e+00 0.000000000000000e+00
0.000000000000000e+00 0.000000000000000e+00 0.000000000000000e+00
0.000000000000000e+00 0.000000000000000e+00 0.000000000000000e+00
0.000000000000000e+00 0.000000000000000e+00 0.000000000000000e+00
0.000000000000000e+00 0.000000000000000e+00 0.000000000000000e+00
0.000000000000000e+00 0.000000000000000e+00 0.000000000000000e+00
0.000000000000000e+00 0.000000000000000e+00 0.000000000000000e+00
0.000000000000000e+00 0.000000000000000e+00 0.000000000000000e+00
0.000000000000000e+00 0.000000000000000e+00 0.000000000000000e+00
0.000000000000000e+00 0.000000000000000e+00 0.000000000000000e+00
0.000000000000000e+00 0.000000000000000e+00 0.000000000000000e+00
0.000000000000000e+00 0.000000000000000e+00 0.000000000000000e+00
0.000000000000000e+00 0.000000000000000e+00 0.000000000000000e+00
0.000000000000000e+00 0.000000000000000e+00 0.000000000000000e+00
0.000000000000000e+00 0.000000000000000e+00 0.000000000000000e+00
0.000000000000000e+00 0.000000000000000e+00 0.000000000000000e+00
0.000000000000000e+00 0.000000000000000e+00 0.000000000000000e+00
0.000000000000000e+00 0.000000000000000e+00 0.000000000000000e+00
0.000000000000000e+00 0.000000000000000e+00 0.000000000000000e+00
0.000000000000000e+00 0.000000000000000e+00 0.000000000000000e+00
0.000000000000000e+00 0.000000000000000e+00 0.000000000000000e+00
0.000000000000000e+00 0.000000000000000e+00 0.000000000000000e+00
0.000000000000000e+00 0.000000000000000e+00 0.000000000000000e+00
0.000000000000000e+00 0.000000000000000e+00 0.000000000000000e+00
0.000000000000000e+00 0.000000000000000e+00 0.000000000000000e+00
0.000000000000000e+00 0.000000000000000e+00 0.000000000000000e+00
0.000000000000000e+00 0.000000000000000e+00 0.000000000000000e+00
0.000000000000000e+00 0.000000000000000e+00 0.000000000000000e+00
0.000000000000000e+00 0.000000000000000e+00 0.000000000000000e+00
0.000000000000000e+00 0.000000000000000e+00 0.000000000000000e+00
0.000000000000000e+00 0.000000000000000e+00 0.000000000000000e+00
0.000000000000000e+00 0.000000000000000e+00 0.000000000000000e+00
0.000000000000000e+00 0.000000000000000e+00 0.000000000000000e+00
0.000000000000000e+00 0.000000000000000e+00 0.000000000000000e+00
0.000000000000000e+00 0.000000000000000e+00 0.000000000000000e+00
0.000000000000000e+00 0.000000000000000e+00 0.000000000000000e+00
0.000000000000000e+00 0.000000000000000e+00 0.000000000000000e+00
0.000000000000000e+00 0.000000000000000e+00 0.000000000000000e+00
0.000000000000000e+00 0.000000000000000e+00 0.000000000000000e+00
0.000000000000000e+00 0.000000000000000e+00 0.000000000000000e+00
0.000000000000000e+00 0.000000000000000e+00 0.000000000000000e+00
0.000000000000000e+00 0.000000000000000e+00 0.000000000000000e+00
0.000000000000000e+00 0.000000000000000e+00 0.000000000000000e+00
0.000000000000000e+00 0.000000000000000e+00 0.000000000000000e+00
0.000000000000000e+00 0.000000000000000e+00 0.000000000000000e+00
0.000000000000000e+00 0.000000000000000e+00 0.000000000000000e+00
0.000000000000000e+00 0.000000000000000e+00 0.000000000000000e+00
0.000000000000000e+00 0.000000000000000e+00 0.000000000000000e+00
0.000000000000000e+00 0.000000000000000e+00 0.000000000000000e+00
0.000000000000000e+00 0.000000000000000e+00 0.000000000000000e+00
0.000000000000000e+00 0.000000000000000e+00 0.000000000000000e+00
0.000000000000000e+00 0.000000000000000e+00 0.000000000000000e+00
0.000000000000000e+00 0.000000000000000e+00 0.000000000000000e+00
0.000000000000000e+00 0.000000000000000e+00 0.000000000000000e+00
0.000000000000000e+00 0.000000000000000e+00 0.000000000000000e+00
0.000000000000000e+00 0.000000000000000e+00 0.000000000000000e+00
0.000000000000000e+00 0.000000000000000e+00 0.000000000000000e+00
0.000000000000000e+00 0.000000000000000e+00 0.000000000000000e+00
0.000000000000000e+00 0.000000000000000e+00 0.000000000000000e+00
0.000000000000000e+00 0.000000000000000e+00 0.000000000000000e+00
0.000000000000000e+00 0.000000000000000e+00 0.000000000000000e+00
0.000000000000000e+00 0.000000000000000e+00 0.000000000000000e+00
0.000000000000000e+00 0.000000000000000e+00 0.000000000000000e+00
0.000000000000000e+00 0.000000000000000e+00 0.000000000000000e+00
0.000000000000000e+00 0.000000000000000e+00 0.000000000000000e+00
0.000000000000000e+00 0.000000000000000e+00 0.000000000000000e+00
0.000000000000000e+00 0.000000000000000e+00 0.000000000000000e+00
0.000000000000000e+00 0.000000000000000e+00 0.000000000000000e+00
0.000000000000000e+00 0.000000000000000e+00 0.000000000000000e+00
0.000000000000000e+00 0.000000000000000e+00 0.000000000000000e+00
0.000000000000000e+00 0.000000000000000e+00 0.000000000000000e+00
0.000000000000000e+00 0.000000000000000e+00 0.000000000000000e+00
0.000000000000000e+00 0.000000000000000e+00 0.000000000000000e+00
0.000000000000000e+00 0.000000000000000e+00 0.000000000000000e+00
0.000000000000000e+00 0.000000000000000e+00 0.000000000000000e+00
0.000000000000000e+00 0.000000000000000e+00 0.000000000000000e+00
0.000000000000000e+00 0.000000000000000e+00 0.000000000000000e+00
0.000000000000000e+00 0.000000000000000e+00 0.000000000000000e+00
0.000000000000000e+00 0.000000000000000e+00 0.000000000000000e+00
0.000000000000000e+00 0.000000000000000e+00 0.000000000000000e+00
0.000000000000000e+00 0.000000000000000e+00 0.000000000000000e+00
0.000000000000000e+00 0.000000000000000e+00 0.000000000000000e+00
0.000000000000000e+00 0.000000000000000e+00 0.000000000000000e+00
0.000000000000000e+00 0.000000000000000e+00 0.000000000000000e+00
0.000000000000000e+00 0.000000000000000e+00 0.000000000000000e+00
0.000000000000000e+00 0.000000000000000e+00 0.000000000000000e+00
0.000000000000000e+00 0.000000000000000e+00 0.000000000000000e+00
0.000000000000000e+00 0.000000000000000e+00 0.000000000000000e+00
0.000000000000000e+00 0.000000000000000e+00 0.000000000000000e+00
0.000000000000000e+00 0.000000000000000e+00 0.000000000000000e+00
0.000000000000000e+00 0.000000000000000e+00 0.000000000000000e+00
0.000000000000000e+00 0.000000000000000e+00 0.000000000000000e+00
0.000000000000000e+00 0.000000000000000e+00 0.000000000000000e+00
0.000000000000000e+00 0.000000000000000e+00 0.000000000000000e+00
0.000000000000000e+00 0.000000000000000e+00 0.000000000000000e+00
0.000000000000000e+00 0.000000000000000e+00 0.000000000000000e+00
0.000000000000000e+00 0.000000000000000e+00 0.000000000000000e+00
0.000000000000000e+00 0.000000000000000e+00 0.000000000000000e+00
0.000000000000000e+00 0.000000000000000e+00 0.000000000000000e+00
0.000000000000000e+00 0.000000000000000e+00 0.000000000000000e+00
0.000000000000000e+00 0.000000000000000e+00 0.000000000000000e+00
0.000000000000000e+00 0.000000000000000e+00 0.000000000000000e+00
0.000000000000000e+00 0.000000000000000e+00 0.000000000000000e+00
0.000000000000000e+00 0.000000000000000e+00 0.000000000000000e+00
0.000000000000000e+00 0.000000000000000e+00 0.000000000000000e+00
0.000000000000000e+00 0.000000000000000e+00 0.000000000000000e+00
0.000000000000000e+00 0.000000000000000e+00 0.000000000000000e+00
0.000000000000000e+00 0.000000000000000e+00 0.000000000000000e+00
0.000000000000000e+00 0.000000000000000e+00 0.000000000000000e+00
0.000000000000000e+00 0.000000000000000e+00 0.000000000000000e+00
0.000000000000000e+00 0.000000000000000e+00 0.000000000000000e+00
0.000000000000000e+00 0.000000000000000e+00 0.000000000000000e+00
0.000000000000000e+00 0.000000000000000e+00 0.000000000000000e+00
0.000000000000000e+00 0.000000000000000e+00 0.000000000000000e+00
0.000000000000000e+00 0.000000000000000e+00 0.000000000000000e+00
0.000000000000000e+00 0.000000000000000e+00 0.000000000000000e+00
0.000000000000000e+00 0.000000000000000e+00 0.000000000000000e+00
0.000000000000000e+00 0.000000000000000e+00 0.000000000000000e+00
0.000000000000000e+00 0.000000000000000e+00 0.000000000000000e+00
0.000000000000000e+00 0.000000000000000e+00 0.000000000000000e+00
0.000000000000000e+00 0.000000000000000e+00 0.000000000000000e+00
0.000000000000000e+00 0.000000000000000e+00 0.000000000000000e+00
0.000000000000000e+00 0.000000000000000e+00 0.000000000000000e+00
0.000000000000000e+00 0.000000000000000e+00 0.000000000000000e+00
0.000000000000000e+00 0.000000000000000e+00 0.000000000000000e+00
0.000000000000000e+00 0.000000000000000e+00 0.000000000000000e+00
0.000000000000000e+00 0.000000000000000e+00 0.000000000000000e+00
0.000000000000000e+00 0.000000000000000e+00 0.000000000000000e+00
0.000000000000000e+00 0.000000000000000e+00 0.000000000000000e+00
0.000000000000000e+00 0.000000000000000e+00 0.000000000000000e+00
0.000000000000000e+00 0.000000000000000e+00 0.000000000000000e+00
0.000000000000000e+00 0.000000000000000e+00 0.000000000000000e+00
0.000000000000000e+00 0.000000000000000e+00 0.000000000000000e+00
0.000000000000000e+00 0.000000000000000e+00 0.000000000000000e+00
0.000000000000000e+00 0.000000000000000e+00 0.000000000000000e+00
0.000000000000000e+00 0.000000000000000e+00 0.000000000000000e+00
0.000000000000000e+00 0.000000000000000e+00 0.000000000000000e+00
0.000000000000000e+00 0.000000000000000e+00 0.000000000000000e+00
0.000000000000000e+00 0.000000000000000e+00 0.000000000000000e+00
0.000000000000000e+00 0.000000000000000e+00 0.000000000000000e+00
0.000000000000000e+00 0.000000000000000e+00 0.000000000000000e+00
0.000000000000000e+00 0.000000000000000e+00 0.000000000000000e+00
0.000000000000000e+00 0.000000000000000e+00 0.000000000000000e+00
0.000000000000000e+00 0.000000000000000e+00 0.000000000000000e+00
0.000000000000000e+00 0.000000000000000e+00 0.000000000000000e+00
0.000000000000000e+00 0.000000000000000e+00 0.000000000000000e+00
0.000000000000000e+00 0.000000000000000e+00 0.000000000000000e+00
0.000000000000000e+00 0.000000000000000e+00 0.000000000000000e+00
0.000000000000000e+00 0.000000000000000e+00 0.000000000000000e+00
0.000000000000000e+00 0.000000000000000e+00 0.000000000000000e+00
0.000000000000000e+00 0.000000000000000e+00 0.000000000000000e+00
0.000000000000000e+00 0.000000000000000e+00 0.000000000000000e+00
0.000000000000000e+00 0.000000000000000e+00 0.000000000000000e+00
0.000000000000000e+00 0.000000000000000e+00 0.000000000000000e+00
0.000000000000000e+00 0.000000000000000e+00 0.000000000000000e+00
0.000000000000000e+00 0.000000000000000e+00 0.000000000000000e+00
0.000000000000000e+00 0.000000000000000e+00 0.000000000000000e+00
0.000000000000000e+00 0.000000000000000e+00 0.000000000000000e+00
0.000000000000000e+00 0.000000000000000e+00 0.000000000000000e+00
0.000000000000000e+00 0.000000000000000e+00 0.000000000000000e+00
0.000000000000000e+00 0.000000000000000e+00 0.000000000000000e+00
0.000000000000000e+00 0.000000000000000e+00 0.000000000000000e+00
0.000000000000000e+00 0.000000000000000e+00 0.000000000000000e+00
0.000000000000000e+00 0.000000000000000e+00 0.000000000000000e+00
0.000000000000000e+00 0.000000000000000e+00 0.000000000000000e+00
0.000000000000000e+00 0.000000000000000e+00 0.000000000000000e+00
0.000000000000000e+00 0.000000000000000e+00 0.000000000000000e+00
0.000000000000000e+00 0.000000000000000e+00 0.000000000000000e+00
0.000000000000000e+00 0.000000000000000e+00 0.000000000000000e+00
0.000000000000000e+00 0.000000000000000e+00 0.000000000000000e+00
0.000000000000000e+00 0.000000000000000e+00 0.000000000000000e+00
0.000000000000000e+00 0.000000000000000e+00 0.000000000000000e+00
0.000000000000000e+00 0.000000000000000e+00 0.000000000000000e+00
0.000000000000000e+00 0.000000000000000e+00 0.000000000000000e+00
0.000000000000000e+00 0.000000000000000e+00 0.000000000000000e+00
0.000000000000000e+00 0.000000000000000e+00 0.000000000000000e+00
0.000000000000000e+00 0.000000000000000e+00 0.000000000000000e+00
0.000000000000000e+00 0.000000000000000e+00 0.000000000000000e+00
0.000000000000000e+00 0.000000000000000e+00 0.000000000000000e+00
0.000000000000000e+00 0.000000000000000e+00 0.000000000000000e+00
0.000000000000000e+00 0.000000000000000e+00 0.000000000000000e+00
0.000000000000000e+00 0.000000000000000e+00 0.000000000000000e+00
0.000000000000000e+00 0.000000000000000e+00 0.000000000000000e+00
0.000000000000000e+00 0.000000000000000e+00 0.000000000000000e+00
0.000000000000000e+00 0.000000000000000e+00 0.000000000000000e+00
0.000000000000000e+00 0.000000000000000e+00 0.000000000000000e+00
0.000000000000000e+00 0.000000000000000e+00 0.000000000000000e+00
0.000000000000000e+00 0.000000000000000e+00 0.000000000000000e+00
0.000000000000000e+00 0.000000000000000e+00 0.000000000000000e+00
0.000000000000000e+00 0.000000000000000e+00 0.000000000000000e+00
0.000000000000000e+00 0.000000000000000e+00 0.000000000000000e+00
0.000000000000000e+00 0.000000000000000e+00 0.000000000000000e+00
0.000000000000000e+00 0.000000000000000e+00 0.000000000000000e+00
0.000000000000000e+00 0.000000000000000e+00 0.000000000000000e+00
0.000000000000000e+00 0.000000000000000e+00 0.000000000000000e+00
0.000000000000000e+00 0.000000000000000e+00 0.000000000000000e+00
0.000000000000000e+00 0.000000000000000e+00 0.000000000000000e+00
0.000000000000000e+00 0.000000000000000e+00 0.000000000000000e+00
0.000000000000000e+00 0.000000000000000e+00 0.000000000000000e+00
0.000000000000000e+00 0.000000000000000e+00 0.000000000000000e+00
0.000000000000000e+00 0.000000000000000e+00 0.000000000000000e+00
0.000000000000000e+00 0.000000000000000e+00 0.000000000000000e+00
0.000000000000000e+00 0.000000000000000e+00 0.000000000000000e+00
0.000000000000000e+00 0.000000000000000e+00 0.000000000000000e+00
0.000000000000000e+00 0.000000000000000e+00 0.000000000000000e+00
0.000000000000000e+00 0.000000000000000e+00 0.000000000000000e+00
0.000000000000000e+00 0.000000000000000e+00 0.000000000000000e+00
0.000000000000000e+00 0.000000000000000e+00 0.000000000000000e+00
0.000000000000000e+00 0.000000000000000e+00 0.000000000000000e+00
0.000000000000000e+00 0.000000000000000e+00 0.000000000000000e+00
0.000000000000000e+00 0.000000000000000e+00 0.000000000000000e+00
0.000000000000000e+00 0.000000000000000e+00 0.000000000000000e+00
0.000000000000000e+00 0.000000000000000e+00 0.000000000000000e+00
0.000000000000000e+00 0.000000000000000e+00 0.000000000000000e+00
0.000000000000000e+00 0.000000000000000e+00 0.000000000000000e+00
0.000000000000000e+00 0.000000000000000e+00 0.000000000000000e+00
0.000000000000000e+00 0.000000000000000e+00 0.000000000000000e+00
0.000000000000000e+00 0.000000000000000e+00 0.000000000000000e+00
0.000000000000000e+00 0.000000000000000e+00 0.000000000000000e+00
0.000000000000000e+00 0.000000000000000e+00 0.000000000000000e+00
0.000000000000000e+00 0.000000000000000e+00 0.000000000000000e+00
0.000000000000000e+00 0.000000000000000e+00 0.000000000000000e+00
0.000000000000000e+00 0.000000000000000e+00 0.000000000000000e+00
0.000000000000000e+00 0.000000000000000e+00 0.000000000000000e+00
0.000000000000000e+00 0.000000000000000e+00 0.000000000000000e+00
0.000000000000000e+00 0.000000000000000e+00 0.000000000000000e+00
0.000000000000000e+00 0.000000000000000e+00 0.000000000000000e+00
0.000000000000000e+00 0.000000000000000e+00 0.000000000000000e+00
0.000000000000000e+00 0.000000000000000e+00 0.000000000000000e+00
0.000000000000000e+00 0.000000000000000e+00 0.000000000000000e+00
0.000000000000000e+00 0.000000000000000e+00 0.000000000000000e+00
0.000000000000000e+00 0.000000000000000e+00 0.000000000000000e+00
0.000000000000000e+00 0.000000000000000e+00 0.000000000000000e+00
0.000000000000000e+00 0.000000000000000e+00 0.000000000000000e+00
0.000000000000000e+00 0.000000000000000e+00 0.000000000000000e+00
0.000000000000000e+00 0.000000000000000e+00 0.000000000000000e+00
0.000000000000000e+00 0.000000000000000e+00 0.000000000000000e+00
0.000000000000000e+00 0.000000000000000e+00 0.000000000000000e+00
0.000000000000000e+00 0.000000000000000e+00 0.000000000000000e+00
0.000000000000000e+00 0.000000000000000e+00 0.000000000000000e+00
0.000000000000000e+00 0.000000000000000e+00 0.000000000000000e+00
0.000000000000000e+00 0.000000000000000e+00 0.000000000000000e+00
0.000000000000000e+00 0.000000000000000e+00 0.000000000000000e+00
0.000000000000000e+00 0.000000000000000e+00 0.000000000000000e+00
0.000000000000000e+00 0.000000000000000e+00 0.000000000000000e+00
0.000000000000000e+00 0.000000000000000e+00 0.000000000000000e+00
0.000000000000000e+00 0.000000000000000e+00 0.000000000000000e+00
0.000000000000000e+00 0.000000000000000e+00 0.000000000000000e+00
0.000000000000000e+00 0.000000000000000e+00 0.000000000000000e+00
0.000000000000000e+00 0.000000000000000e+00 0.000000000000000e+00
0.000000000000000e+00 0.000000000000000e+00 0.000000000000000e+00
0.000000000000000e+00 0.000000000000000e+00 0.000000000000000e+00
0.000000000000000e+00 0.000000000000000e+00 0.000000000000000e+00
0.000000000000000e+00 0.000000000000000e+00 0.000000000000000e+00
0.000000000000000e+00 0.000000000000000e+00 0.000000000000000e+00
0.000000000000000e+00 0.000000000000000e+00 0.000000000000000e+00
0.000000000000000e+00 0.000000000000000e+00 0.000000000000000e+00
0.000000000000000e+00 0.000000000000000e+00 0.000000000000000e+00
0.000000000000000e+00 0.000000000000000e+00 0.000000000000000e+00
0.000000000000000e+00 0.000000000000000e+00 0.000000000000000e+00
0.000000000000000e+00 0.000000000000000e+00 0.000000000000000e+00
0.000000000000000e+00 0.000000000000000e+00 0.000000000000000e+00
0.000000000000000e+00 0.000000000000000e+00 0.000000000000000e+00
0.000000000000000e+00 0.000000000000000e+00 0.000000000000000e+00
0.000000000000000e+00 0.000000000000000e+00 0.000000000000000e+00
0.000000000000000e+00 0.000000000000000e+00 0.000000000000000e+00
0.000000000000000e+00 0.000000000000000e+00 0.000000000000000e+00
0.000000000000000e+00 0.000000000000000e+00 0.000000000000000e+00
0.000000000000000e+00 0.000000000000000e+00 0.000000000000000e+00
0.000000000000000e+00 0.000000000000000e+00 0.000000000000000e+00
0.000000000000000e+00 0.000000000000000e+00 0.000000000000000e+00
0.000000000000000e+00 0.000000000000000e+00 0.000000000000000e+00
0.000000000000000e+00 0.000000000000000e+00 0.000000000000000e+00
0.000000000000000e+00 0.000000000000000e+00 0.000000000000000e+00
0.000000000000000e+00 0.000000000000000e+00 0.000000000000000e+00
0.000000000000000e+00 0.000000000000000e+00 0.000000000000000e+00
0.000000000000000e+00 0.000000000000000e+00 0.000000000000000e+00
0.000000000000000e+00 0.000000000000000e+00 0.000000000000000e+00
0.000000000000000e+00 0.000000000000000e+00 0.000000000000000e+00
0.000000000000000e+00 0.000000000000000e+00 0.000000000000000e+00
0.000000000000000e+00 0.000000000000000e+00 0.000000000000000e+00
0.000000000000000e+00 0.000000000000000e+00 0.000000000000000e+00
0.000000000000000e+00 0.000000000000000e+00 0.000000000000000e+00
0.000000000000000e+00 0.000000000000000e+00 0.000000000000000e+00
0.000000000000000e+00 0.000000000000000e+00 0.000000000000000e+00
0.000000000000000e+00 0.000000000000000e+00 0.000000000000000e+00
0.000000000000000e+00 0.000000000000000e+00 0.000000000000000e+00
0.000000000000000e+00 0.000000000000000e+00 0.000000000000000e+00
0.000000000000000e+00 0.000000000000000e+00 0.000000000000000e+00
0.000000000000000e+00 0.000000000000000e+00 0.000000000000000e+00
0.000000000000000e+00 0.000000000000000e+00 0.000000000000000e+00
0.000000000000000e+00 0.000000000000000e+00 0.000000000000000e+00
0.000000000000000e+00 0.000000000000000e+00 0.000000000000000e+00
0.000000000000000e+00 0.000000000000000e+00 0.000000000000000e+00
0.000000000000000e+00 0.000000000000000e+00 0.000000000000000e+00
0.000000000000000e+00 0.000000000000000e+00 0.000000000000000e+00
0.000000000000000e+00 0.000000000000000e+00 0.000000000000000e+00
0.000000000000000e+00 0.000000000000000e+00 0.000000000000000e+00
0.000000000000000e+00 0.000000000000000e+00 0.000000000000000e+00
0.000000000000000e+00 0.000000000000000e+00 0.000000000000000e+00
0.000000000000000e+00 0.000000000000000e+00 0.000000000000000e+00
0.000000000000000e+00 0.000000000000000e+00 0.000000000000000e+00
0.000000000000000e+00 0.000000000000000e+00 0.000000000000000e+00
0.000000000000000e+00 0.000000000000000e+00 0.000000000000000e+00
0.000000000000000e+00 0.000000000000000e+00 0.000000000000000e+00
0.000000000000000e+00 0.000000000000000e+00 0.000000000000000e+00
0.000000000000000e+00 0.000000000000000e+00 0.000000000000000e+00
0.000000000000000e+00 0.000000000000000e+00 0.000000000000000e+00
0.000000000000000e+00 0.000000000000000e+00 0.000000000000000e+00
0.000000000000000e+00 0.000000000000000e+00 0.000000000000000e+00
0.000000000000000e+00 0.000000000000000e+00 0.000000000000000e+00
0.000000000000000e+00 0.000000000000000e+00 0.000000000000000e+00
0.000000000000000e+00 0.000000000000000e+00 0.000000000000000e+00
0.000000000000000e+00 0.000000000000000e+00 0.000000000000000e+00
0.000000000000000e+00 0.000000000000000e+00 0.000000000000000e+00
0.000000000000000e+00 0.000000000000000e+00 0.000000000000000e+00
0.000000000000000e+00 0.000000000000000e+00 0.000000000000000e+00
0.000000000000000e+00 0.000000000000000e+00 0.000000000000000e+00
0.000000000000000e+00 0.000000000000000e+00 0.000000000000000e+00
0.000000000000000e+00 0.000000000000000e+00 0.000000000000000e+00
0.000000000000000e+00 0.000000000000000e+00 0.000000000000000e+00
0.000000000000000e+00 0.000000000000000e+00 0.000000000000000e+00
0.000000000000000e+00 0.000000000000000e+00 0.000000000000000e+00
0.000000000000000e+00 0.000000000000000e+00 0.000000000000000e+00
0.000000000000000e+00 0.000000000000000e+00 0.000000000000000e+00
0.000000000000000e+00 0.000000000000000e+00 0.000000000000000e+00
0.000000000000000e+00 0.000000000000000e+00 0.000000000000000e+00
0.000000000000000e+00 0.000000000000000e+00 0.000000000000000e+00
0.000000000000000e+00 0.000000000000000e+00 0.000000000000000e+00
0.000000000000000e+00 0.000000000000000e+00 0.000000000000000e+00
0.000000000000000e+00 0.000000000000000e+00 0.000000000000000e+00
0.000000000000000e+00 0.000000000000000e+00 0.000000000000000e+00
0.000000000000000e+00 0.000000000000000e+00 0.000000000000000e+00
0.000000000000000e+00 0.000000000000000e+00 0.000000000000000e+00
0.000000000000000e+00 0.000000000000000e+00 0.000000000000000e+00
0.000000000000000e+00 0.000000000000000e+00 0.000000000000000e+00
0.000000000000000e+00 0.000000000000000e+00 0.000000000000000e+00
0.000000000000000e+00 0.000000000000000e+00 0.000000000000000e+00
0.000000000000000e+00 0.000000000000000e+00 0.000000000000000e+00
0.000000000000000e+00 0.000000000000000e+00 0.000000000000000e+00
0.000000000000000e+00 0.000000000000000e+00 0.000000000000000e+00
0.000000000000000e+00 0.000000000000000e+00 0.000000000000000e+00
0.000000000000000e+00 0.000000000000000e+00 0.000000000000000e+00
0.000000000000000e+00 0.000000000000000e+00 0.000000000000000e+00
0.000000000000000e+00 0.000000000000000e+00 0.000000000000000e+00
0.000000000000000e+00 0.000000000000000e+00 0.000000000000000e+00
0.000000000000000e+00 0.000000000000000e+00 0.000000000000000e+00
0.000000000000000e+00 0.000000000000000e+00 0.000000000000000e+00
0.000000000000000e+00 0.000000000000000e+00 0.000000000000000e+00
0.000000000000000e+00 0.000000000000000e+00 0.000000000000000e+00
0.000000000000000e+00 0.000000000000000e+00 0.000000000000000e+00
0.000000000000000e+00 0.000000000000000e+00 0.000000000000000e+00
0.000000000000000e+00 0.000000000000000e+00 0.000000000000000e+00
0.000000000000000e+00 0.000000000000000e+00 0.000000000000000e+00
0.000000000000000e+00 0.000000000000000e+00 0.000000000000000e+00
0.000000000000000e+00 0.000000000000000e+00 0.000000000000000e+00
0.000000000000000e+00 0.000000000000000e+00 0.000000000000000e+00
0.000000000000000e+00 0.000000000000000e+00 0.000000000000000e+00
0.000000000000000e+00 0.000000000000000e+00 0.000000000000000e+00
0.000000000000000e+00 0.000000000000000e+00 0.000000000000000e+00
0.000000000000000e+00 0.000000000000000e+00 0.000000000000000e+00
0.000000000000000e+00 0.000000000000000e+00 0.000000000000000e+00
0.000000000000000e+00 0.000000000000000e+00 0.000000000000000e+00
0.000000000000000e+00 0.000000000000000e+00 0.000000000000000e+00
0.000000000000000e+00 0.000000000000000e+00 0.000000000000000e+00
0.000000000000000e+00 0.000000000000000e+00 0.000000000000000e+00
0.000000000000000e+00 0.000000000000000e+00 0.000000000000000e+00
0.000000000000000e+00 0.000000000000000e+00 0.000000000000000e+00
0.000000000000000e+00 0.000000000000000e+00 0.000000000000000e+00
0.000000000000000e+00 0.000000000000000e+00 0.000000000000000e+00
0.000000000000000e+00 0.000000000000000e+00 0.000000000000000e+00
0.000000000000000e+00 0.000000000000000e+00 0.000000000000000e+00
0.000000000000000e+00 0.000000000000000e+00 0.000000000000000e+00
0.000000000000000e+00 0.000000000000000e+00 0.000000000000000e+00
0.000000000000000e+00 0.000000000000000e+00 0.000000000000000e+00
0.000000000000000e+00 0.000000000000000e+00 0.000000000000000e+00
0.000000000000000e+00 0.000000000000000e+00 0.000000000000000e+00
0.000000000000000e+00 0.000000000000000e+00 0.000000000000000e+00
0.000000000000000e+00 0.000000000000000e+00 0.000000000000000e+00
0.000000000000000e+00 0.000000000000000e+00 0.000000000000000e+00
0.000000000000000e+00 0.000000000000000e+00 0.000000000000000e+00
0.000000000000000e+00 0.000000000000000e+00 0.000000000000000e+00
0.000000000000000e+00 0.000000000000000e+00 0.000000000000000e+00
0.000000000000000e+00 0.000000000000000e+00 0.000000000000000e+00
0.000000000000000e+00 0.000000000000000e+00 0.000000000000000e+00
0.000000000000000e+00 0.000000000000000e+00 0.000000000000000e+00
0.000000000000000e+00 0.000000000000000e+00 0.000000000000000e+00
0.000000000000000e+00 0.000000000000000e+00 0.000000000000000e+00
0.000000000000000e+00 0.000000000000000e+00 0.000000000000000e+00
0.000000000000000e+00 0.000000000000000e+00 0.000000000000000e+00
0.000000000000000e+00 0.000000000000000e+00 0.000000000000000e+00
0.000000000000000e+00 0.000000000000000e+00 0.000000000000000e+00
0.000000000000000e+00 0.000000000000000e+00 0.000000000000000e+00
0.000000000000000e+00 0.000000000000000e+00 0.000000000000000e+00
0.000000000000000e+00 0.000000000000000e+00 0.000000000000000e+00
0.000000000000000e+00 0.000000000000000e+00 0.000000000000000e+00
0.000000000000000e+00 0.000000000000000e+00 0.000000000000000e+00
0.000000000000000e+00 0.000000000000000e+00 0.000000000000000e+00
0.000000000000000e+00 0.000000000000000e+00 0.000000000000000e+00
0.000000000000000e+00 0.000000000000000e+00 0.000000000000000e+00
0.000000000000000e+00 0.000000000000000e+00 0.000000000000000e+00
0.000000000000000e+00 0.000000000000000e+00 0.000000000000000e+00
0.000000000000000e+00 0.000000000000000e+00 0.000000000000000e+00
0.000000000000000e+00 0.000000000000000e+00 0.000000000000000e+00
0.000000000000000e+00 0.000000000000000e+00 0.000000000000000e+00
0.000000000000000e+00 0.000000000000000e+00 0.000000000000000e+00
0.000000000000000e+00 0.000000000000000e+00 0.000000000000000e+00
0.000000000000000e+00 0.000000000000000e+00 0.000000000000000e+00
0.000000000000000e+00 0.000000000000000e+00 0.000000000000000e+00
0.000000000000000e+00 0.000000000000000e+00 0.000000000000000e+00
0.000000000000000e+00 0.000000000000000e+00 0.000000000000000e+00
0.000000000000000e+00 0.000000000000000e+00 0.000000000000000e+00
0.000000000000000e+00 0.000000000000000e+00 0.000000000000000e+00
0.000000000000000e+00 0.000000000000000e+00 0.000000000000000e+00
0.000000000000000e+00 0.000000000000000e+00 0.000000000000000e+00
0.000000000000000e+00 0.000000000000000e+00 0.000000000000000e+00
0.000000000000000e+00 0.000000000000000e+00 0.000000000000000e+00
0.000000000000000e+00 0.000000000000000e+00 0.000000000000000e+00
0.000000000000000e+00 0.000000000000000e+00 0.000000000000000e+00
0.000000000000000e+00 0.000000000000000e+00 0.000000000000000e+00
0.000000000000000e+00 0.000000000000000e+00 0.000000000000000e+00
0.000000000000000e+00 0.000000000000000e+00 0.000000000000000e+00
0.000000000000000e+00 0.000000000000000e+00 0.000000000000000e+00
0.000000000000000e+00 0.000000000000000e+00 0.000000000000000e+00
0.000000000000000e+00 0.000000000000000e+00 0.000000000000000e+00
0.000000000000000e+00 0.000000000000000e+00 0.000000000000000e+00
0.000000000000000e+00 0.000000000000000e+00 0.000000000000000e+00
0.000000000000000e+00 0.000000000000000e+00 0.000000000000000e+00
0.000000000000000e+00 0.000000000000000e+00 0.000000000000000e+00
0.000000000000000e+00 0.000000000000000e+00 0.000000000000000e+00
0.000000000000000e+00 0.000000000000000e+00 0.000000000000000e+00
0.000000000000000e+00 0.000000000000000e+00 0.000000000000000e+00
0.000000000000000e+00 0.000000000000000e+00 0.000000000000000e+00
0.000000000000000e+00 0.000000000000000e+00 0.000000000000000e+00
0.000000000000000e+00 0.000000000000000e+00 0.000000000000000e+00
0.000000000000000e+00 0.000000000000000e+00 0.000000000000000e+00
0.000000000000000e+00 0.000000000000000e+00 0.000000000000000e+00
0.000000000000000e+00 0.000000000000000e+00 0.000000000000000e+00
0.000000000000000e+00 0.000000000000000e+00 0.000000000000000e+00
0.000000000000000e+00 0.000000000000000e+00 0.000000000000000e+00
0.000000000000000e+00 0.000000000000000e+00 0.000000000000000e+00
0.000000000000000e+00 0.000000000000000e+00 0.000000000000000e+00
0.000000000000000e+00 0.000000000000000e+00 0.000000000000000e+00
0.000000000000000e+00 0.000000000000000e+00 0.000000000000000e+00
0.000000000000000e+00 0.000000000000000e+00 0.000000000000000e+00
0.000000000000000e+00 0.000000000000000e+00 0.000000000000000e+00
0.000000000000000e+00 0.000000000000000e+00 0.000000000000000e+00
0.000000000000000e+00 0.000000000000000e+00 0.000000000000000e+00
0.000000000000000e+00 0.000000000000000e+00 0.000000000000000e+00
0.000000000000000e+00 0.000000000000000e+00 0.000000000000000e+00
0.000000000000000e+00 0.000000000000000e+00 0.000000000000000e+00
0.000000000000000e+00 0.000000000000000e+00 0.000000000000000e+00
0.000000000000000e+00 0.000000000000000e+00 0.000000000000000e+00
0.000000000000000e+00 0.000000000000000e+00 0.000000000000000e+00
0.000000000000000e+00 0.000000000000000e+00 0.000000000000000e+00
0.000000000000000e+00 0.000000000000000e+00 0.000000000000000e+00
0.000000000000000e+00 0.000000000000000e+00 0.000000000000000e+00
0.000000000000000e+00 0.000000000000000e+00 0.000000000000000e+00
0.000000000000000e+00 0.000000000000000e+00 0.000000000000000e+00
0.000000000000000e+00 0.000000000000000e+00 0.000000000000000e+00
0.000000000000000e+00 0.000000000000000e+00 0.000000000000000e+00
0.000000000000000e+00 0.000000000000000e+00 0.000000000000000e+00
0.000000000000000e+00 0.000000000000000e+00 0.000000000000000e+00
0.000000000000000e+00 0.000000000000000e+00 0.000000000000000e+00
0.000000000000000e+00 0.000000000000000e+00 0.000000000000000e+00
0.000000000000000e+00 0.000000000000000e+00 0.000000000000000e+00
0.000000000000000e+00 0.000000000000000e+00 0.000000000000000e+00
0.000000000000000e+00 0.000000000000000e+00 0.000000000000000e+00
0.000000000000000e+00 0.000000000000000e+00 0.000000000000000e+00
0.000000000000000e+00 0.000000000000000e+00 0.000000000000000e+00
0.000000000000000e+00 0.000000000000000e+00 0.000000000000000e+00
0.000000000000000e+00 0.000000000000000e+00 0.000000000000000e+00
0.000000000000000e+00 0.000000000000000e+00 0.000000000000000e+00
0.000000000000000e+00 0.000000000000000e+00 0.000000000000000e+00
0.000000000000000e+00 0.000000000000000e+00 0.000000000000000e+00
0.000000000000000e+00 0.000000000000000e+00 0.000000000000000e+00
0.000000000000000e+00 0.000000000000000e+00 0.000000000000000e+00
0.000000000000000e+00 0.000000000000000e+00 0.000000000000000e+00
0.000000000000000e+00 0.000000000000000e+00 0.000000000000000e+00
0.000000000000000e+00 0.000000000000000e+00 0.000000000000000e+00
0.000000000000000e+00 0.000000000000000e+00 0.000000000000000e+00
0.000000000000000e+00 0.000000000000000e+00 0.000000000000000e+00
0.000000000000000e+00 0.000000000000000e+00 0.000000000000000e+00
0.000000000000000e+00 0.000000000000000e+00 0.000000000000000e+00
0.000000000000000e+00 0.000000000000000e+00 0.000000000000000e+00
0.000000000000000e+00 0.000000000000000e+00 0.000000000000000e+00
0.000000000000000e+00 0.000000000000000e+00 0.000000000000000e+00
0.000000000000000e+00 0.000000000000000e+00 0.000000000000000e+00
0.000000000000000e+00 0.000000000000000e+00 0.000000000000000e+00
0.000000000000000e+00 0.000000000000000e+00 0.000000000000000e+00
0.000000000000000e+00 0.000000000000000e+00 0.000000000000000e+00
0.000000000000000e+00 0.000000000000000e+00 0.000000000000000e+00
0.000000000000000e+00 0.000000000000000e+00 0.000000000000000e+00
0.000000000000000e+00 0.000000000000000e+00 0.000000000000000e+00
0.000000000000000e+00 0.000000000000000e+00 0.000000000000000e+00
0.000000000000000e+00 0.000000000000000e+00 0.000000000000000e+00
0.000000000000000e+00 0.000000000000000e+00 0.000000000000000e+00
0.000000000000000e+00 0.000000000000000e+00 0.000000000000000e+00
0.000000000000000e+00 0.000000000000000e+00 0.000000000000000e+00
0.000000000000000e+00 0.000000000000000e+00 0.000000000000000e+00
0.000000000000000e+00 0.000000000000000e+00 0.000000000000000e+00
0.000000000000000e+00 0.000000000000000e+00 0.000000000000000e+00
0.000000000000000e+00 0.000000000000000e+00 0.000000000000000e+00
0.000000000000000e+00 0.000000000000000e+00 0.000000000000000e+00
0.000000000000000e+00 0.000000000000000e+00 0.000000000000000e+00
0.000000000000000e+00 0.000000000000000e+00 0.000000000000000e+00
0.000000000000000e+00 0.000000000000000e+00 0.000000000000000e+00
0.000000000000000e+00 0.000000000000000e+00 0.000000000000000e+00
0.000000000000000e+00 0.000000000000000e+00 0.000000000000000e+00
0.000000000000000e+00 0.000000000000000e+00 0.000000000000000e+00
0.000000000000000e+00 0.000000000000000e+00 0.000000000000000e+00
0.000000000000000e+00 0.000000000000000e+00 0.000000000000000e+00
0.000000000000000e+00 0.000000000000000e+00 0.000000000000000e+00
0.000000000000000e+00 0.000000000000000e+00 0.000000000000000e+00
0.000000000000000e+00 0.000000000000000e+00 0.000000000000000e+00
0.000000000000000e+00 0.000000000000000e+00 0.000000000000000e+00
0.000000000000000e+00 0.000000000000000e+00 0.000000000000000e+00
0.000000000000000e+00 0.000000000000000e+00 0.000000000000000e+00
0.000000000000000e+00 0.000000000000000e+00 0.000000000000000e+00
0.000000000000000e+00 0.000000000000000e+00 0.000000000000000e+00
0.000000000000000e+00 0.000000000000000e+00 0.000000000000000e+00
0.000000000000000e+00 0.000000000000000e+00 0.000000000000000e+00
0.000000000000000e+00 0.000000000000000e+00 0.000000000000000e+00
0.000000000000000e+00 0.000000000000000e+00 0.000000000000000e+00
0.000000000000000e+00 0.000000000000000e+00 0.000000000000000e+00
0.000000000000000e+00 0.000000000000000e+00 0.000000000000000e+00
0.000000000000000e+00 0.000000000000000e+00 0.000000000000000e+00
0.000000000000000e+00 0.000000000000000e+00 0.000000000000000e+00
0.000000000000000e+00 0.000000000000000e+00 0.000000000000000e+00
0.000000000000000e+00 0.000000000000000e+00 0.000000000000000e+00
0.000000000000000e+00 0.000000000000000e+00 0.000000000000000e+00
0.000000000000000e+00 0.000000000000000e+00 0.000000000000000e+00
0.000000000000000e+00 0.000000000000000e+00 0.000000000000000e+00
0.000000000000000e+00 0.000000000000000e+00 0.000000000000000e+00
0.000000000000000e+00 0.000000000000000e+00 0.000000000000000e+00
0.000000000000000e+00 0.000000000000000e+00 0.000000000000000e+00
0.000000000000000e+00 0.000000000000000e+00 0.000000000000000e+00
0.000000000000000e+00 0.000000000000000e+00 0.000000000000000e+00
0.000000000000000e+00 0.000000000000000e+00 0.000000000000000e+00
0.000000000000000e+00 0.000000000000000e+00 0.000000000000000e+00
0.000000000000000e+00 0.000000000000000e+00 0.000000000000000e+00
0.000000000000000e+00 0.000000000000000e+00 0.000000000000000e+00
0.000000000000000e+00 0.000000000000000e+00 0.000000000000000e+00
0.000000000000000e+00 0.000000000000000e+00 0.000000000000000e+00
0.000000000000000e+00 0.000000000000000e+00 0.000000000000000e+00
0.000000000000000e+00 0.000000000000000e+00 0.000000000000000e+00
0.000000000000000e+00 0.000000000000000e+00 0.000000000000000e+00
0.000000000000000e+00 0.000000000000000e+00 0.000000000000000e+00
0.000000000000000e+00 0.000000000000000e+00 0.000000000000000e+00
0.000000000000000e+00 0.000000000000000e+00 0.000000000000000e+00
0.000000000000000e+00 0.000000000000000e+00 0.000000000000000e+00
0.000000000000000e+00 0.000000000000000e+00 0.000000000000000e+00
0.000000000000000e+00 0.000000000000000e+00 0.000000000000000e+00
0.000000000000000e+00 0.000000000000000e+00 0.000000000000000e+00
0.000000000000000e+00 0.000000000000000e+00 0.000000000000000e+00
0.000000000000000e+00 0.000000000000000e+00 0.000000000000000e+00
0.000000000000000e+00 0.000000000000000e+00 0.000000000000000e+00
0.000000000000000e+00 0.000000000000000e+00 0.000000000000000e+00
0.000000000000000e+00 0.000000000000000e+00 0.000000000000000e+00
0.000000000000000e+00 0.000000000000000e+00 0.000000000000000e+00
0.000000000000000e+00 0.000000000000000e+00 0.000000000000000e+00
0.000000000000000e+00 0.000000000000000e+00 0.000000000000000e+00
0.000000000000000e+00 0.000000000000000e+00 0.000000000000000e+00
0.000000000000000e+00 0.000000000000000e+00 0.000000000000000e+00
0.000000000000000e+00 0.000000000000000e+00 0.000000000000000e+00
0.000000000000000e+00 0.000000000000000e+00 0.000000000000000e+00
0.000000000000000e+00 0.000000000000000e+00 0.000000000000000e+00
0.000000000000000e+00 0.000000000000000e+00 0.000000000000000e+00
0.000000000000000e+00 0.000000000000000e+00 0.000000000000000e+00
0.000000000000000e+00 0.000000000000000e+00 0.000000000000000e+00
0.000000000000000e+00 0.000000000000000e+00 0.000000000000000e+00
0.000000000000000e+00 0.000000000000000e+00 0.000000000000000e+00
0.000000000000000e+00 0.000000000000000e+00 0.000000000000000e+00
0.000000000000000e+00 0.000000000000000e+00 0.000000000000000e+00
0.000000000000000e+00 0.000000000000000e+00 0.000000000000000e+00
0.000000000000000e+00 0.000000000000000e+00 0.000000000000000e+00
0.000000000000000e+00 0.000000000000000e+00 0.000000000000000e+00
0.000000000000000e+00 0.000000000000000e+00 0.000000000000000e+00
0.000000000000000e+00 0.000000000000000e+00 0.000000000000000e+00
0.000000000000000e+00 0.000000000000000e+00 0.000000000000000e+00
0.000000000000000e+00 0.000000000000000e+00 0.000000000000000e+00
0.000000000000000e+00 0.000000000000000e+00 0.000000000000000e+00
0.000000000000000e+00 0.000000000000000e+00 0.000000000000000e+00
0.000000000000000e+00 0.000000000000000e+00 0.000000000000000e+00
0.000000000000000e+00 0.000000000000000e+00 0.000000000000000e+00
0.000000000000000e+00 0.000000000000000e+00 0.000000000000000e+00
0.000000000000000e+00 0.000000000000000e+00 0.000000000000000e+00
0.000000000000000e+00 0.000000000000000e+00 0.000000000000000e+00
0.000000000000000e+00 0.000000000000000e+00 0.000000000000000e+00
0.000000000000000e+00 0.000000000000000e+00 0.000000000000000e+00
0.000000000000000e+00 0.000000000000000e+00 0.000000000000000e+00
0.000000000000000e+00 0.000000000000000e+00 0.000000000000000e+00
0.000000000000000e+00 0.000000000000000e+00 0.000000000000000e+00
0.000000000000000e+00 0.000000000000000e+00 0.000000000000000e+00
0.000000000000000e+00 0.000000000000000e+00 0.000000000000000e+00
0.000000000000000e+00 0.000000000000000e+00 0.000000000000000e+00
0.000000000000000e+00 0.000000000000000e+00 0.000000000000000e+00
0.000000000000000e+00 0.000000000000000e+00 0.000000000000000e+00
0.000000000000000e+00 0.000000000000000e+00 0.000000000000000e+00
0.000000000000000e+00 0.000000000000000e+00 0.000000000000000e+00
0.000000000000000e+00 0.000000000000000e+00 0.000000000000000e+00
0.000000000000000e+00 0.000000000000000e+00 0.000000000000000e+00
0.000000000000000e+00 0.000000000000000e+00 0.000000000000000e+00
0.000000000000000e+00 0.000000000000000e+00 0.000000000000000e+00
0.000000000000000e+00 0.000000000000000e+00 0.000000000000000e+00
0.000000000000000e+00 0.000000000000000e+00 0.000000000000000e+00
0.000000000000000e+00 0.000000000000000e+00 0.000000000000000e+00
0.000000000000000e+00 0.000000000000000e+00 0.000000000000000e+00
0.000000000000000e+00 0.000000000000000e+00 0.000000000000000e+00
0.000000000000000e+00 0.000000000000000e+00 0.000000000000000e+00
0.000000000000000e+00 0.000000000000000e+00 0.000000000000000e+00
0.000000000000000e+00 0.000000000000000e+00 0.000000000000000e+00
0.000000000000000e+00 0.000000000000000e+00 0.000000000000000e+00
0.000000000000000e+00 0.000000000000000e+00 0.000000000000000e+00
0.000000000000000e+00 0.000000000000000e+00 0.000000000000000e+00
0.000000000000000e+00 0.000000000000000e+00 0.000000000000000e+00
0.000000000000000e+00 0.000000000000000e+00 0.000000000000000e+00
0.000000000000000e+00 0.000000000000000e+00 0.000000000000000e+00
0.000000000000000e+00 0.000000000000000e+00 0.000000000000000e+00
0.000000000000000e+00 0.000000000000000e+00 0.000000000000000e+00
0.000000000000000e+00 0.000000000000000e+00 0.000000000000000e+00
0.000000000000000e+00 0.000000000000000e+00 0.000000000000000e+00
0.000000000000000e+00 0.000000000000000e+00 0.000000000000000e+00
0.000000000000000e+00 0.000000000000000e+00 0.000000000000000e+00
0.000000000000000e+00 0.000000000000000e+00 0.000000000000000e+00
0.000000000000000e+00 0.000000000000000e+00 0.000000000000000e+00
0.000000000000000e+00 0.000000000000000e+00 0.000000000000000e+00
0.000000000000000e+00 0.000000000000000e+00 0.000000000000000e+00
0.000000000000000e+00 0.000000000000000e+00 0.000000000000000e+00
0.000000000000000e+00 0.000000000000000e+00 0.000000000000000e+00
0.000000000000000e+00 0.000000000000000e+00 0.000000000000000e+00
0.000000000000000e+00 0.000000000000000e+00 0.000000000000000e+00
0.000000000000000e+00 0.000000000000000e+00 0.000000000000000e+00
0.000000000000000e+00 0.000000000000000e+00 0.000000000000000e+00
0.000000000000000e+00 0.000000000000000e+00 0.000000000000000e+00
0.000000000000000e+00 0.000000000000000e+00 0.000000000000000e+00
0.000000000000000e+00 0.000000000000000e+00 0.000000000000000e+00
0.000000000000000e+00 0.000000000000000e+00 0.000000000000000e+00
0.000000000000000e+00 0.000000000000000e+00 0.000000000000000e+00
0.000000000000000e+00 0.000000000000000e+00 0.000000000000000e+00
0.000000000000000e+00 0.000000000000000e+00 0.000000000000000e+00
0.000000000000000e+00 0.000000000000000e+00 0.000000000000000e+00
0.000000000000000e+00 0.000000000000000e+00 0.000000000000000e+00
0.000000000000000e+00 0.000000000000000e+00 0.000000000000000e+00
0.000000000000000e+00 0.000000000000000e+00 0.000000000000000e+00
0.000000000000000e+00 0.000000000000000e+00 0.000000000000000e+00
0.000000000000000e+00 0.000000000000000e+00 0.000000000000000e+00
0.000000000000000e+00 0.000000000000000e+00 0.000000000000000e+00
0.000000000000000e+00 0.000000000000000e+00 0.000000000000000e+00
0.000000000000000e+00 0.000000000000000e+00 0.000000000000000e+00
0.000000000000000e+00 0.000000000000000e+00 0.000000000000000e+00
0.000000000000000e+00 0.000000000000000e+00 0.000000000000000e+00
0.000000000000000e+00 0.000000000000000e+00 0.000000000000000e+00
0.000000000000000e+00 0.000000000000000e+00 0.000000000000000e+00
0.000000000000000e+00 0.000000000000000e+00 0.000000000000000e+00
0.000000000000000e+00 0.000000000000000e+00 0.000000000000000e+00
0.000000000000000e+00 0.000000000000000e+00 0.000000000000000e+00
0.000000000000000e+00 0.000000000000000e+00 0.000000000000000e+00
0.000000000000000e+00 0.000000000000000e+00 0.000000000000000e+00
0.000000000000000e+00 0.000000000000000e+00 0.000000000000000e+00
0.000000000000000e+00 0.000000000000000e+00 0.000000000000000e+00
0.000000000000000e+00 0.000000000000000e+00 0.000000000000000e+00
0.000000000000000e+00 0.000000000000000e+00 0.000000000000000e+00
0.000000000000000e+00 0.000000000000000e+00 0.000000000000000e+00
0.000000000000000e+00 0.000000000000000e+00 0.000000000000000e+00
0.000000000000000e+00 0.000000000000000e+00 0.000000000000000e+00
0.000000000000000e+00 0.000000000000000e+00 0.000000000000000e+00
0.000000000000000e+00 0.000000000000000e+00 0.000000000000000e+00
0.000000000000000e+00 0.000000000000000e+00 0.000000000000000e+00
0.000000000000000e+00 0.000000000000000e+00 0.000000000000000e+00
0.000000000000000e+00 0.000000000000000e+00 0.000000000000000e+00
0.000000000000000e+00 0.000000000000000e+00 0.000000000000000e+00
0.000000000000000e+00 0.000000000000000e+00 0.000000000000000e+00
0.000000000000000e+00 0.000000000000000e+00 0.000000000000000e+00
0.000000000000000e+00 0.000000000000000e+00 0.000000000000000e+00
0.000000000000000e+00 0.000000000000000e+00 0.000000000000000e+00
0.000000000000000e+00 0.000000000000000e+00 0.000000000000000e+00
0.000000000000000e+00 0.000000000000000e+00 0.000000000000000e+00
0.000000000000000e+00 0.000000000000000e+00 0.000000000000000e+00
0.000000000000000e+00 0.000000000000000e+00 0.000000000000000e+00
0.000000000000000e+00 0.000000000000000e+00 0.000000000000000e+00
0.000000000000000e+00 0.000000000000000e+00 0.000000000000000e+00
0.000000000000000e+00 0.000000000000000e+00 0.000000000000000e+00
0.000000000000000e+00 0.000000000000000e+00 0.000000000000000e+00
0.000000000000000e+00 0.000000000000000e+00 0.000000000000000e+00
0.000000000000000e+00 0.000000000000000e+00 0.000000000000000e+00
0.000000000000000e+00 0.000000000000000e+00 0.000000000000000e+00
0.000000000000000e+00 0.000000000000000e+00 0.000000000000000e+00
0.000000000000000e+00 0.000000000000000e+00 0.000000000000000e+00
0.000000000000000e+00 0.000000000000000e+00 0.000000000000000e+00
0.000000000000000e+00 0.000000000000000e+00 0.000000000000000e+00
0.000000000000000e+00 0.000000000000000e+00 0.000000000000000e+00
0.000000000000000e+00 0.000000000000000e+00 0.000000000000000e+00
0.000000000000000e+00 0.000000000000000e+00 0.000000000000000e+00
0.000000000000000e+00 0.000000000000000e+00 0.000000000000000e+00
0.000000000000000e+00 0.000000000000000e+00 0.000000000000000e+00
0.000000000000000e+00 0.000000000000000e+00 0.000000000000000e+00
0.000000000000000e+00 0.000000000000000e+00 0.000000000000000e+00
0.000000000000000e+00 0.000000000000000e+00 0.000000000000000e+00
0.000000000000000e+00 0.000000000000000e+00 0.000000000000000e+00
0.000000000000000e+00 0.000000000000000e+00 0.000000000000000e+00
0.000000000000000e+00 0.000000000000000e+00 0.000000000000000e+00
0.000000000000000e+00 0.000000000000000e+00 0.000000000000000e+00
0.000000000000000e+00 0.000000000000000e+00 0.000000000000000e+00
0.000000000000000e+00 0.000000000000000e+00 0.000000000000000e+00
0.000000000000000e+00 0.000000000000000e+00 0.000000000000000e+00
0.000000000000000e+00 0.000000000000000e+00 0.000000000000000e+00
0.000000000000000e+00 0.000000000000000e+00 0.000000000000000e+00
0.000000000000000e+00 0.000000000000000e+00 0.000000000000000e+00
0.000000000000000e+00 0.000000000000000e+00 0.000000000000000e+00
0.000000000000000e+00 0.000000000000000e+00 0.000000000000000e+00
0.000000000000000e+00 0.000000000000000e+00 0.000000000000000e+00
0.000000000000000e+00 0.000000000000000e+00 0.000000000000000e+00
0.000000000000000e+00 0.000000000000000e+00 0.000000000000000e+00
0.000000000000000e+00 0.000000000000000e+00 0.000000000000000e+00
0.000000000000000e+00 0.000000000000000e+00 0.000000000000000e+00
0.000000000000000e+00 0.000000000000000e+00 0.000000000000000e+00
0.000000000000000e+00 0.000000000000000e+00 0.000000000000000e+00
0.000000000000000e+00 0.000000000000000e+00 0.000000000000000e+00
0.000000000000000e+00 0.000000000000000e+00 0.000000000000000e+00
0.000000000000000e+00 0.000000000000000e+00 0.000000000000000e+00
0.000000000000000e+00 0.000000000000000e+00 0.000000000000000e+00
0.000000000000000e+00 0.000000000000000e+00 0.000000000000000e+00
0.000000000000000e+00 0.000000000000000e+00 0.000000000000000e+00
0.000000000000000e+00 0.000000000000000e+00 0.000000000000000e+00
0.000000000000000e+00 0.000000000000000e+00 0.000000000000000e+00
0.000000000000000e+00 0.000000000000000e+00 0.000000000000000e+00
0.000000000000000e+00 0.000000000000000e+00 0.000000000000000e+00
0.000000000000000e+00 0.000000000000000e+00 0.000000000000000e+00
0.000000000000000e+00 0.000000000000000e+00 0.000000000000000e+00
0.000000000000000e+00 0.000000000000000e+00 0.000000000000000e+00
0.000000000000000e+00 0.000000000000000e+00 0.000000000000000e+00
0.000000000000000e+00 0.000000000000000e+00 0.000000000000000e+00
0.000000000000000e+00 0.000000000000000e+00 0.000000000000000e+00
0.000000000000000e+00 0.000000000000000e+00 0.000000000000000e+00
0.000000000000000e+00 0.000000000000000e+00 0.000000000000000e+00
0.000000000000000e+00 0.000000000000000e+00 0.000000000000000e+00
0.000000000000000e+00 0.000000000000000e+00 0.000000000000000e+00
0.000000000000000e+00 0.000000000000000e+00 0.000000000000000e+00
0.000000000000000e+00 0.000000000000000e+00 0.000000000000000e+00
0.000000000000000e+00 0.000000000000000e+00 0.000000000000000e+00
0.000000000000000e+00 0.000000000000000e+00 0.000000000000000e+00
0.000000000000000e+00 0.000000000000000e+00 0.000000000000000e+00
0.000000000000000e+00 0.000000000000000e+00 0.000000000000000e+00
0.000000000000000e+00 0.000000000000000e+00 0.000000000000000e+00
0.000000000000000e+00 0.000000000000000e+00 0.000000000000000e+00
0.000000000000000e+00 0.000000000000000e+00 0.000000000000000e+00
0.000000000000000e+00 0.000000000000000e+00 0.000000000000000e+00
0.000000000000000e+00 0.000000000000000e+00 0.000000000000000e+00
0.000000000000000e+00 0.000000000000000e+00 0.000000000000000e+00
0.000000000000000e+00 0.000000000000000e+00 0.000000000000000e+00
0.000000000000000e+00 0.000000000000000e+00 0.000000000000000e+00
0.000000000000000e+00 0.000000000000000e+00 0.000000000000000e+00
0.000000000000000e+00 0.000000000000000e+00 0.000000000000000e+00
0.000000000000000e+00 0.000000000000000e+00 0.000000000000000e+00
0.000000000000000e+00 0.000000000000000e+00 0.000000000000000e+00
0.000000000000000e+00 0.000000000000000e+00 0.000000000000000e+00
0.000000000000000e+00 0.000000000000000e+00 0.000000000000000e+00
0.000000000000000e+00 0.000000000000000e+00 0.000000000000000e+00
0.000000000000000e+00 0.000000000000000e+00 0.000000000000000e+00
0.000000000000000e+00 0.000000000000000e+00 0.000000000000000e+00
0.000000000000000e+00 0.000000000000000e+00 0.000000000000000e+00
0.000000000000000e+00 0.000000000000000e+00 0.000000000000000e+00
0.000000000000000e+00 0.000000000000000e+00 0.000000000000000e+00
0.000000000000000e+00 0.000000000000000e+00 0.000000000000000e+00
0.000000000000000e+00 0.000000000000000e+00 0.000000000000000e+00
0.000000000000000e+00 0.000000000000000e+00 0.000000000000000e+00
0.000000000000000e+00 0.000000000000000e+00 0.000000000000000e+00
0.000000000000000e+00 0.000000000000000e+00 0.000000000000000e+00
0.000000000000000e+00 0.000000000000000e+00 0.000000000000000e+00
0.000000000000000e+00 0.000000000000000e+00 0.000000000000000e+00
0.000000000000000e+00 0.000000000000000e+00 0.000000000000000e+00
0.000000000000000e+00 0.000000000000000e+00 0.000000000000000e+00
0.000000000000000e+00 0.000000000000000e+00 0.000000000000000e+00
0.000000000000000e+00 0.000000000000000e+00 0.000000000000000e+00
0.000000000000000e+00 0.000000000000000e+00 0.000000000000000e+00
0.000000000000000e+00 0.000000000000000e+00 0.000000000000000e+00
0.000000000000000e+00 0.000000000000000e+00 0.000000000000000e+00
0.000000000000000e+00 0.000000000000000e+00 0.000000000000000e+00
0.000000000000000e+00 0.000000000000000e+00 0.000000000000000e+00
0.000000000000000e+00 0.000000000000000e+00 0.000000000000000e+00
0.000000000000000e+00 0.000000000000000e+00 0.000000000000000e+00
0.000000000000000e+00 0.000000000000000e+00 0.000000000000000e+00
0.000000000000000e+00 0.000000000000000e+00 0.000000000000000e+00
0.000000000000000e+00 0.000000000000000e+00 0.000000000000000e+00
0.000000000000000e+00 0.000000000000000e+00 0.000000000000000e+00
0.000000000000000e+00 0.000000000000000e+00 0.000000000000000e+00
0.000000000000000e+00 0.000000000000000e+00 0.000000000000000e+00
0.000000000000000e+00 0.000000000000000e+00 0.000000000000000e+00
0.000000000000000e+00 0.000000000000000e+00 0.000000000000000e+00
0.000000000000000e+00 0.000000000000000e+00 0.000000000000000e+00
0.000000000000000e+00 0.000000000000000e+00 0.000000000000000e+00
0.000000000000000e+00 0.000000000000000e+00 0.000000000000000e+00
0.000000000000000e+00 0.000000000000000e+00 0.000000000000000e+00
0.000000000000000e+00 0.000000000000000e+00 0.000000000000000e+00
0.000000000000000e+00 0.000000000000000e+00 0.000000000000000e+00
0.000000000000000e+00 0.000000000000000e+00 0.000000000000000e+00
0.000000000000000e+00 0.000000000000000e+00 0.000000000000000e+00
0.000000000000000e+00 0.000000000000000e+00 0.000000000000000e+00
0.000000000000000e+00 0.000000000000000e+00 0.000000000000000e+00
0.000000000000000e+00 0.000000000000000e+00 0.000000000000000e+00
0.000000000000000e+00 0.000000000000000e+00 0.000000000000000e+00
0.000000000000000e+00 0.000000000000000e+00 0.000000000000000e+00
0.000000000000000e+00 0.000000000000000e+00 0.000000000000000e+00
0.000000000000000e+00 0.000000000000000e+00 0.000000000000000e+00
0.000000000000000e+00 0.000000000000000e+00 0.000000000000000e+00
0.000000000000000e+00 0.000000000000000e+00 0.000000000000000e+00
0.000000000000000e+00 0.000000000000000e+00 0.000000000000000e+00
0.000000000000000e+00 0.000000000000000e+00 0.000000000000000e+00
0.000000000000000e+00 0.000000000000000e+00 0.000000000000000e+00
0.000000000000000e+00 0.000000000000000e+00 0.000000000000000e+00
0.000000000000000e+00 0.000000000000000e+00 0.000000000000000e+00
0.000000000000000e+00 0.000000000000000e+00 0.000000000000000e+00
0.000000000000000e+00 0.000000000000000e+00 0.000000000000000e+00
0.000000000000000e+00 0.000000000000000e+00 0.000000000000000e+00
0.000000000000000e+00 0.000000000000000e+00 0.000000000000000e+00
0.000000000000000e+00 0.000000000000000e+00 0.000000000000000e+00
0.000000000000000e+00 0.000000000000000e+00 0.000000000000000e+00
0.000000000000000e+00 0.000000000000000e+00 0.000000000000000e+00
0.000000000000000e+00 0.000000000000000e+00 0.000000000000000e+00
0.000000000000000e+00 0.000000000000000e+00 0.000000000000000e+00
0.000000000000000e+00 0.000000000000000e+00 0.000000000000000e+00
0.000000000000000e+00 0.000000000000000e+00 0.000000000000000e+00
0.000000000000000e+00 0.000000000000000e+00 0.000000000000000e+00
0.000000000000000e+00 0.000000000000000e+00 0.000000000000000e+00
0.000000000000000e+00 0.000000000000000e+00 0.000000000000000e+00
0.000000000000000e+00 0.000000000000000e+00 0.000000000000000e+00
0.000000000000000e+00 0.000000000000000e+00 0.000000000000000e+00
0.000000000000000e+00 0.000000000000000e+00 0.000000000000000e+00
0.000000000000000e+00 0.000000000000000e+00 0.000000000000000e+00
0.000000000000000e+00 0.000000000000000e+00 0.000000000000000e+00
0.000000000000000e+00 0.000000000000000e+00 0.000000000000000e+00
0.000000000000000e+00 0.000000000000000e+00 0.000000000000000e+00
0.000000000000000e+00 0.000000000000000e+00 0.000000000000000e+00
0.000000000000000e+00 0.000000000000000e+00 0.000000000000000e+00
0.000000000000000e+00 0.000000000000000e+00 0.000000000000000e+00
0.000000000000000e+00 0.000000000000000e+00 0.000000000000000e+00
0.000000000000000e+00 0.000000000000000e+00 0.000000000000000e+00
0.000000000000000e+00 0.000000000000000e+00 0.000000000000000e+00
0.000000000000000e+00 0.000000000000000e+00 0.000000000000000e+00
0.000000000000000e+00 0.000000000000000e+00 0.000000000000000e+00
0.000000000000000e+00 0.000000000000000e+00 0.000000000000000e+00
0.000000000000000e+00 0.000000000000000e+00 0.000000000000000e+00
0.000000000000000e+00 0.000000000000000e+00 0.000000000000000e+00
0.000000000000000e+00 0.000000000000000e+00 0.000000000000000e+00
0.000000000000000e+00 0.000000000000000e+00 0.000000000000000e+00
0.000000000000000e+00 0.000000000000000e+00 0.000000000000000e+00
0.000000000000000e+00 0.000000000000000e+00 0.000000000000000e+00
0.000000000000000e+00 0.000000000000000e+00 0.000000000000000e+00
0.000000000000000e+00 0.000000000000000e+00 0.000000000000000e+00
0.000000000000000e+00 0.000000000000000e+00 0.000000000000000e+00
0.000000000000000e+00 0.000000000000000e+00 0.000000000000000e+00
0.000000000000000e+00 0.000000000000000e+00 0.000000000000000e+00
0.000000000000000e+00 0.000000000000000e+00 0.000000000000000e+00
0.000000000000000e+00 0.000000000000000e+00 0.000000000000000e+00
0.000000000000000e+00 0.000000000000000e+00 0.000000000000000e+00
0.000000000000000e+00 0.000000000000000e+00 0.000000000000000e+00
0.000000000000000e+00 0.000000000000000e+00 0.000000000000000e+00
0.000000000000000e+00 0.000000000000000e+00 0.000000000000000e+00
0.000000000000000e+00 0.000000000000000e+00 0.000000000000000e+00
0.000000000000000e+00 0.000000000000000e+00 0.000000000000000e+00
0.000000000000000e+00 0.000000000000000e+00 0.000000000000000e+00
0.000000000000000e+00 0.000000000000000e+00 0.000000000000000e+00
0.000000000000000e+00 0.000000000000000e+00 0.000000000000000e+00
0.000000000000000e+00 0.000000000000000e+00 0.000000000000000e+00
0.000000000000000e+00 0.000000000000000e+00 0.000000000000000e+00
0.000000000000000e+00 0.000000000000000e+00 0.000000000000000e+00
0.000000000000000e+00 0.000000000000000e+00 0.000000000000000e+00
0.000000000000000e+00 0.000000000000000e+00 0.000000000000000e+00
0.000000000000000e+00 0.000000000000000e+00 0.000000000000000e+00
0.000000000000000e+00 0.000000000000000e+00 0.000000000000000e+00
0.000000000000000e+00 0.000000000000000e+00 0.000000000000000e+00
0.000000000000000e+00 0.000000000000000e+00 0.000000000000000e+00
0.000000000000000e+00 0.000000000000000e+00 0.000000000000000e+00
0.000000000000000e+00 0.000000000000000e+00 0.000000000000000e+00
0.000000000000000e+00 0.000000000000000e+00 0.000000000000000e+00
0.000000000000000e+00 0.000000000000000e+00 0.000000000000000e+00
0.000000000000000e+00 0.000000000000000e+00 0.000000000000000e+00
0.000000000000000e+00 0.000000000000000e+00 0.000000000000000e+00
0.000000000000000e+00 0.000000000000000e+00 0.000000000000000e+00
0.000000000000000e+00 0.000000000000000e+00 0.000000000000000e+00
0.000000000000000e+00 0.000000000000000e+00 0.000000000000000e+00
0.000000000000000e+00 0.000000000000000e+00 0.000000000000000e+00
0.000000000000000e+00 0.000000000000000e+00 0.000000000000000e+00
0.000000000000000e+00 0.000000000000000e+00 0.000000000000000e+00
0.000000000000000e+00 0.000000000000000e+00 0.000000000000000e+00
0.000000000000000e+00 0.000000000000000e+00 0.000000000000000e+00
0.000000000000000e+00 0.000000000000000e+00 0.000000000000000e+00
0.000000000000000e+00 0.000000000000000e+00 0.000000000000000e+00
0.000000000000000e+00 0.000000000000000e+00 0.000000000000000e+00
0.000000000000000e+00 0.000000000000000e+00 0.000000000000000e+00
0.000000000000000e+00 0.000000000000000e+00 0.000000000000000e+00
0.000000000000000e+00 0.000000000000000e+00 0.000000000000000e+00
0.000000000000000e+00 0.000000000000000e+00 0.000000000000000e+00
0.000000000000000e+00 0.000000000000000e+00 0.000000000000000e+00
0.000000000000000e+00 0.000000000000000e+00 0.000000000000000e+00
0.000000000000000e+00 0.000000000000000e+00 0.000000000000000e+00
0.000000000000000e+00 0.000000000000000e+00 0.000000000000000e+00
0.000000000000000e+00 0.000000000000000e+00 0.000000000000000e+00
0.000000000000000e+00 0.000000000000000e+00 0.000000000000000e+00
0.000000000000000e+00 0.000000000000000e+00 0.000000000000000e+00
0.000000000000000e+00 0.000000000000000e+00 0.000000000000000e+00
0.000000000000000e+00 0.000000000000000e+00 0.000000000000000e+00
0.000000000000000e+00 0.000000000000000e+00 0.000000000000000e+00
0.000000000000000e+00 0.000000000000000e+00 0.000000000000000e+00
0.000000000000000e+00 0.000000000000000e+00 0.000000000000000e+00
0.000000000000000e+00 0.000000000000000e+00 0.000000000000000e+00
0.000000000000000e+00 0.000000000000000e+00 0.000000000000000e+00
0.000000000000000e+00 0.000000000000000e+00 0.000000000000000e+00
0.000000000000000e+00 0.000000000000000e+00 0.000000000000000e+00
0.000000000000000e+00 0.000000000000000e+00 0.000000000000000e+00
0.000000000000000e+00 0.000000000000000e+00 0.000000000000000e+00
0.000000000000000e+00 0.000000000000000e+00 0.000000000000000e+00
0.000000000000000e+00 0.000000000000000e+00 0.000000000000000e+00
0.000000000000000e+00 0.000000000000000e+00 0.000000000000000e+00
0.000000000000000e+00 0.000000000000000e+00 0.000000000000000e+00
0.000000000000000e+00 0.000000000000000e+00 0.000000000000000e+00
0.000000000000000e+00 0.000000000000000e+00 0.000000000000000e+00
0.000000000000000e+00 0.000000000000000e+00 0.000000000000000e+00
0.000000000000000e+00 0.000000000000000e+00 0.000000000000000e+00
0.000000000000000e+00 0.000000000000000e+00 0.000000000000000e+00
0.000000000000000e+00 0.000000000000000e+00 0.000000000000000e+00
0.000000000000000e+00 0.000000000000000e+00 0.000000000000000e+00
0.000000000000000e+00 0.000000000000000e+00 0.000000000000000e+00
0.000000000000000e+00 0.000000000000000e+00 0.000000000000000e+00
0.000000000000000e+00 0.000000000000000e+00 0.000000000000000e+00
0.000000000000000e+00 0.000000000000000e+00 0.000000000000000e+00
0.000000000000000e+00 0.000000000000000e+00 0.000000000000000e+00
0.000000000000000e+00 0.000000000000000e+00 0.000000000000000e+00
0.000000000000000e+00 0.000000000000000e+00 0.000000000000000e+00
0.000000000000000e+00 0.000000000000000e+00 0.000000000000000e+00
0.000000000000000e+00 0.000000000000000e+00 0.000000000000000e+00
0.000000000000000e+00 0.000000000000000e+00 0.000000000000000e+00
0.000000000000000e+00 0.000000000000000e+00 0.000000000000000e+00
0.000000000000000e+00 0.000000000000000e+00 0.000000000000000e+00
0.000000000000000e+00 0.000000000000000e+00 0.000000000000000e+00
0.000000000000000e+00 0.000000000000000e+00 0.000000000000000e+00
0.000000000000000e+00 0.000000000000000e+00 0.000000000000000e+00
0.000000000000000e+00 0.000000000000000e+00 0.000000000000000e+00
0.000000000000000e+00 0.000000000000000e+00 0.000000000000000e+00
0.000000000000000e+00 0.000000000000000e+00 0.000000000000000e+00
0.000000000000000e+00 0.000000000000000e+00 0.000000000000000e+00
0.000000000000000e+00 0.000000000000000e+00 0.000000000000000e+00
0.000000000000000e+00 0.000000000000000e+00 0.000000000000000e+00
0.000000000000000e+00 0.000000000000000e+00 0.000000000000000e+00
0.000000000000000e+00 0.000000000000000e+00 0.000000000000000e+00
0.000000000000000e+00 0.000000000000000e+00 0.000000000000000e+00
0.000000000000000e+00 0.000000000000000e+00 0.000000000000000e+00
0.000000000000000e+00 0.000000000000000e+00 0.000000000000000e+00
0.000000000000000e+00 0.000000000000000e+00 0.000000000000000e+00
0.000000000000000e+00 0.000000000000000e+00 0.000000000000000e+00
0.000000000000000e+00 0.000000000000000e+00 0.000000000000000e+00
0.000000000000000e+00 0.000000000000000e+00 0.000000000000000e+00
0.000000000000000e+00 0.000000000000000e+00 0.000000000000000e+00
0.000000000000000e+00 0.000000000000000e+00 0.000000000000000e+00
0.000000000000000e+00 0.000000000000000e+00 0.000000000000000e+00
0.000000000000000e+00 0.000000000000000e+00 0.000000000000000e+00
0.000000000000000e+00 0.000000000000000e+00 0.000000000000000e+00
0.000000000000000e+00 0.000000000000000e+00 0.000000000000000e+00
0.000000000000000e+00 0.000000000000000e+00 0.000000000000000e+00
0.000000000000000e+00 0.000000000000000e+00 0.000000000000000e+00
0.000000000000000e+00 0.000000000000000e+00 0.000000000000000e+00
0.000000000000000e+00 0.000000000000000e+00 0.000000000000000e+00
0.000000000000000e+00 0.000000000000000e+00 0.000000000000000e+00
0.000000000000000e+00 0.000000000000000e+00 0.000000000000000e+00
0.000000000000000e+00 0.000000000000000e+00 0.000000000000000e+00
0.000000000000000e+00 0.000000000000000e+00 0.000000000000000e+00
0.000000000000000e+00 0.000000000000000e+00 0.000000000000000e+00
0.000000000000000e+00 0.000000000000000e+00 0.000000000000000e+00
0.000000000000000e+00 0.000000000000000e+00 0.000000000000000e+00
0.000000000000000e+00 0.000000000000000e+00 0.000000000000000e+00
0.000000000000000e+00 0.000000000000000e+00 0.000000000000000e+00
0.000000000000000e+00 0.000000000000000e+00 0.000000000000000e+00
0.000000000000000e+00 0.000000000000000e+00 0.000000000000000e+00
0.000000000000000e+00 0.000000000000000e+00 0.000000000000000e+00
0.000000000000000e+00 0.000000000000000e+00 0.000000000000000e+00
0.000000000000000e+00 0.000000000000000e+00 0.000000000000000e+00
0.000000000000000e+00 0.000000000000000e+00 0.000000000000000e+00
0.000000000000000e+00 0.000000000000000e+00 0.000000000000000e+00
0.000000000000000e+00 0.000000000000000e+00 0.000000000000000e+00
0.000000000000000e+00 0.000000000000000e+00 0.000000000000000e+00
0.000000000000000e+00 0.000000000000000e+00 0.000000000000000e+00
0.000000000000000e+00 0.000000000000000e+00 0.000000000000000e+00
0.000000000000000e+00 0.000000000000000e+00 0.000000000000000e+00
0.000000000000000e+00 0.000000000000000e+00 0.000000000000000e+00
0.000000000000000e+00 0.000000000000000e+00 0.000000000000000e+00
0.000000000000000e+00 0.000000000000000e+00 0.000000000000000e+00
0.000000000000000e+00 0.000000000000000e+00 0.000000000000000e+00
0.000000000000000e+00 0.000000000000000e+00 0.000000000000000e+00
0.000000000000000e+00 0.000000000000000e+00 0.000000000000000e+00
0.000000000000000e+00 0.000000000000000e+00 0.000000000000000e+00
0.000000000000000e+00 0.000000000000000e+00 0.000000000000000e+00
0.000000000000000e+00 0.000000000000000e+00 0.000000000000000e+00
0.000000000000000e+00 0.000000000000000e+00 0.000000000000000e+00
0.000000000000000e+00 0.000000000000000e+00 0.000000000000000e+00
0.000000000000000e+00 0.000000000000000e+00 0.000000000000000e+00
0.000000000000000e+00 0.000000000000000e+00 0.000000000000000e+00
0.000000000000000e+00 0.000000000000000e+00 0.000000000000000e+00
0.000000000000000e+00 0.000000000000000e+00 0.000000000000000e+00
-1.099850725713048e-01  1.812128992299581e-03  1.938696594248745e-18
-1.099917600151922e-01 -1.346376158543639e-03  1.971268098319992e-18
-1.086652229194084e-01  1.708418355892943e-02  1.758293482548735e-18
-1.099502003649610e-01 -3.309598118331277e-03  1.990699887224330e-18
-1.095319209953537e-01 -1.013697603171252e-02  2.053404934769059e-18
-1.099399352179145e-01  3.634645000641928e-03  1.919167631285678e-18
-1.099672858329770e-01  2.682544785883378e-03  1.929436851941536e-18
-1.099993978199110e-01  3.639770004935036e-04  1.953830764779014e-18
-1.099993978199110e-01  3.639770004935036e-04  1.953830764779014e-18
-1.092098336201212e-01 -1.316101214441252e-02  2.078743878239106e-18
-1.099634040804908e-01 -2.837210431149204e-03  1.986081251211305e-18
-1.098563084384461e-01 -5.620631305905289e-03  2.012773994863622e-18
-1.097378457887049e-01  7.589809065737757e-03  1.874933334861183e-18
-1.099955107645492e-01 -9.937865192651543e-04  1.967712116921014e-18
-1.090464822029324e-01 -1.445215275194206e-02  2.089102845625466e-18
-1.099966491789999e-01 -8.585856928358227e-04  1.966343236987152e-18
-1.099966491789999e-01 -8.585856928358227e-04  1.966343236987152e-18
-1.040928411558761e-01 -3.556234553706297e-02  2.217846456413144e-18
-1.093931709349066e-01  1.153837739052706e-02  1.828229329559688e-18
-1.047458704510563e-01  3.359021618642034e-02  1.518950441124332e-18
-3.948035119092831e-03 -1.099291272534188e-01  1.199741842747490e-18
-1.034953932522979e-01  3.726531330275037e-02  1.458936419936762e-18
-1.087553157943490e-01 -1.650094804765344e-02  2.104971819463475e-18
-1.091702693218212e-01 -1.348526218510225e-02  2.081371335734161e-18
-1.091702693218212e-01 -1.348526218510225e-02  2.081371335734161e-18
-1.001808755671685e-01 -4.542897941397571e-02  2.249604441219603e-18
-1.661042111318680e-02  1.087386495706220e-01 -8.216478653556039e-19
-1.099538383603393e-01 -3.186444700336712e-03  1.989499273059870e-18
-1.092609199302565e-01  1.272994014102234e-02  1.813632890776607e-18
-1.091926727569192e-01 -1.330263944487228e-02  2.079893649271279e-18
-1.099646218219478e-01 -2.789614230666690e-03  1.985613888703488e-18
-1.098955989537660e-01 -4.791380864945145e-03  2.004952969413298e-18
-1.099731413190248e-01 -2.430676536631416e-03  1.982077548901999e-18
-1.098538726147699e-01 -5.668039479206784e-03  2.013217748234384e-18
-1.090743041511542e-01  1.424065215997599e-02  1.794789823187906e-18
-1.098096139796465e-01 -6.469055390159490e-03  2.020660260527588e-18
-1.099840074133258e-01 -1.875663430743114e-03  1.976568365969040e-18
-1.099699877943401e-01 -2.569393802553687e-03  1.983446697683905e-18
-1.091836408333099e-01  1.337656810929866e-02  1.805613749592035e-18
-1.073060650175708e-01 -2.419521461869644e-02  2.158236467071972e-18
-1.092485773337558e-01 -1.283543339939523e-02  2.076088165506815e-18
-1.088308390974419e-01  1.599526371606992e-02  1.772429075802870e-18
-1.099964557873557e-01 -8.830142808740367e-04  1.966590790220042e-18
-7.734824061295865e-02 -7.821284852298746e-02  2.180112812108329e-18
-1.060986078468938e-01  2.903593313380825e-02  1.589817620611458e-18
-9.888732648796032e-02  4.817983665459515e-02  1.264787612658784e-18
-1.077154795881145e-01 -2.230191599621901e-02  2.146069532157537e-18
-1.094371572067774e-01 -1.111344332324736e-02  2.061751346810845e-18
-1.080600382857166e-01  2.056764754874430e-02  1.711732173049461e-18
-1.099997129494104e-01 -2.512987211067583e-04  1.960158107411702e-18
-1.099972454944027e-01 -7.784495128311169e-04  1.965530478992693e-18
-1.094339612588619e-01 -1.114486981502477e-02  2.062017366892090e-18
-1.099405610371824e-01  3.615665751903953e-03  1.919373773372219e-18
-1.098992554411863e-01 -4.706766774848376e-03  2.004148661930696e-18
-1.090770993937519e-01 -1.421922599319311e-02  2.087254477227099e-18
-1.099179363235827e-01  4.248208371154699e-03  1.912471993977843e-18
-1.087469852114076e-01  1.655576055123417e-02  1.765177894507535e-18
-1.097579429135612e-01 -7.293419457522510e-03  2.028210753595355e-18
-1.099995249150360e-01  3.232931584335911e-04  1.954251038286256e-18
-1.099590538196368e-01 -3.001080320506679e-03  1.987687536714127e-18
-1.093895754847431e-01  1.157241440960380e-02  1.827815626228885e-18
-1.097605759892799e-01 -7.253685856268586e-03  2.027849363999815e-18
-1.099503431536649e-01  3.304851039194536e-03  1.922741366066536e-18
-1.067781743557698e-01 -2.642766507372082e-02  2.171779640494329e-18
-1.099181537221498e-01  4.242579676772419e-03  1.912533695634702e-18
-1.099597978547937e-01 -2.973693954131639e-03  1.987419392741441e-18
-1.099301803362966e-01  3.918603224266726e-03  1.916076463937412e-18
-1.099598287140491e-01 -2.972552636523565e-03  1.987408215294887e-18
-1.099993627604798e-01  3.744226065570120e-04  1.953722816046903e-18
-1.099188120072076e-01 -4.225490140099879e-03  1.999551751762979e-18
-1.099987355285241e-01 -5.274297353646065e-04  1.962977858902108e-18
-1.099987355285241e-01 -5.274297353646065e-04  1.962977858902108e-18
-6.629220011713863e-02  8.778009001834736e-02  2.778402403443982e-19
-1.059099700231111e-01  2.971663254313360e-02  1.579466646369743e-18
-1.032229655762780e-01 -3.801341049732933e-02  2.227549784913880e-18
-1.020270387622151e-01 -4.111548809649924e-02  2.238139561139765e-18
-1.099484625078376e-01  3.366837115536759e-03  1.922071013314079e-18
-1.099989529769373e-01 -4.799416396314673e-04  1.962493805723415e-18
-1.098637886008928e-01  5.472472408176992e-03  1.898929502422591e-18
-1.090026094633094e-01  1.477941575939863e-02  1.787978330430551e-18
-1.097491044814970e-01 -7.425231680519223e-03  2.029407785861583e-18
-1.087745613402713e-01 -1.637360086332505e-02  2.104005870852703e-18
-1.097911752033717e-01  6.774795012579194e-03  1.884256368733683e-18
-1.099775100717424e-01 -2.224247832351452e-03  1.980034316121022e-18
-1.099556963994138e-01  3.121670917931225e-03  1.924718742662096e-18
-1.080296351886422e-01  2.072674410052867e-02  1.709556454396544e-18
-1.098873368664319e-01 -4.977267965787440e-03  2.006715858147493e-18
-1.099902791257301e-01 -1.462360367312014e-03  1.972433439736890e-18
-9.321172095600605e-02  5.840869007621714e-02  1.058685689053467e-18
-1.099996808301067e-01  2.649854233577878e-04  1.954852903777290e-18
-1.099940605170032e-01  1.143088352566205e-03  1.945730694993560e-18
-1.099915347514648e-01  1.364654907742885e-03  1.943409230117325e-18
-1.099835814799856e-01  1.900474897307150e-03  1.937762336419673e-18
-1.099999732583072e-01 -7.670183585413455e-05  1.958368820349120e-18
-1.099988928539630e-01  4.935290288307555e-04  1.952490678279011e-18
-1.099988928539630e-01  4.935290288307555e-04  1.952490678279011e-18
-1.099988928539630e-01  4.935290288307555e-04  1.952490678279011e-18
-1.099925981404249e-01  1.276069872275493e-03  1.944338333451339e-18
-1.099844408807090e-01  1.850071392610091e-03  1.938295508181284e-18
-1.099995771783723e-01 -3.049927527414930e-04  1.960707377873664e-18
-1.099862746718937e-01 -1.737637418644676e-03  1.975190547406337e-18
-1.099926716140164e-01  1.269720918580171e-03  1.944404874194368e-18
-1.099099285442252e-01  4.450573828535175e-03  1.910250254431158e-18
-1.099989606075252e-01  4.781895691611377e-04  1.952649491410187e-18
-1.099989606075252e-01  4.781895691611377e-04  1.952649491410187e-18
-1.094295733727814e-01 -1.118787162292131e-02  2.062381107180037e-18
-1.099949125694929e-01 -1.057926665478528e-03  1.968360488028494e-18
-1.099492321886856e-01 -3.341607564995238e-03  1.991011542808981e-18
-1.045740187557481e-01  3.412146833406141e-02  1.510433712385922e-18
-1.099712176176999e-01 -2.516206605273354e-03  1.982922104726912e-18
-1.099999928035888e-01 -3.978957589409560e-05  1.957989908118799e-18
-1.095186707872417e-01 -1.027914145226569e-02  2.054629829561833e-18
-1.098699995750362e-01  5.346325222194158e-03  1.900336150626495e-18
-1.099948144872767e-01 -1.068075797637180e-03  1.968463021184501e-18
-1.099985287309717e-01 -5.689262004127264e-04  1.963400539796876e-18
-1.087019635065997e-01 -1.684883170459604e-02  2.107596730060951e-18
-1.099479630166880e-01  3.383109291899352e-03  1.921894933572349e-18
-1.081232014056058e-01  2.023297599965792e-02  1.716294864701831e-18
-1.098107967459013e-01 -6.448947048183115e-03  2.020474703354927e-18
-1.098397975682712e-01 -5.934548859107283e-03  2.015705553055849e-18
-1.099100557765508e-01  4.447430628511695e-03  1.910284813920567e-18
-1.099575596811615e-01 -3.055334509301079e-03  1.988218388818552e-18
-1.096930759736092e-01 -8.211521384489684e-03  2.036489532802200e-18
-1.090580101828046e-01 -1.436490219135536e-02  2.088411531963973e-18
-1.090407532087928e-01  1.449531440359514e-02  1.791576182105905e-18
-1.099253192619865e-01 -4.052676294781270e-03  1.997891956641588e-18
-1.099253192619865e-01 -4.052676294781270e-03  1.997891956641588e-18
-1.094940778049609e-01 -1.053788050990783e-02  2.056850617931337e-18
-1.098003952119466e-01 -6.623685628128158e-03  2.022084971082203e-18
-1.094552402758967e-01 -1.093390946302551e-02  2.060228511401834e-18
-6.956693174716691e-02  8.520822734504545e-02  3.625429506259576e-19
-1.098424060392370e-01  5.886071313815454e-03  1.894299395725117e-18
-1.098573256668213e-01 -5.600714002150784e-03  2.012587454595262e-18
-1.089454850651243e-01  1.519477817951631e-02  1.782694035646993e-18
-1.097119567103969e-01  7.955284707407209e-03  1.870717478379792e-18
-1.098685935653957e-01  5.375141668997896e-03  1.900015050485078e-18
-1.097088479350792e-01  7.998042557875720e-03  1.870222832633874e-18
-1.099476229285520e-01  3.394143833262266e-03  1.921775505394326e-18
-2.959587026276250e-02 -1.059437797295795e-01  1.615227664929771e-18
-1.097240048827951e-01 -7.787345663335648e-03  2.032681698190571e-18
-1.077836660041558e-01  2.197001007520272e-02  1.692405033109190e-18
-1.034953273297070e-01  3.726549638629179e-02  1.458933365648743e-18
-1.090925995542456e-01 -1.409981285325963e-02  2.086303394438912e-18
-1.099697918269562e-01 -2.577767548840614e-03  1.983529247411704e-18
-1.099653322060071e-01  2.761469323103647e-03  1.928591163870329e-18
-1.051054212502128e-01 -3.244765667679617e-02  2.203864230479392e-18
-1.099953156694165e-01  1.015150621992648e-03  1.947067545633476e-18
-1.099445260395358e-01  3.493020747398671e-03  1.920704468186587e-18
-1.099995567644349e-01  3.122685187352903e-04  1.954364879252265e-18
-1.099984049347705e-01  5.923780939382731e-04  1.951466356940033e-18
-1.099997858370880e-01  2.170617301790822e-04  1.955347171039881e-18
-1.099997858370880e-01  2.170617301790822e-04  1.955347171039881e-18
-1.099906674310691e-01  1.432856611065085e-03  1.942693047390401e-18
-1.099936009230228e-01 -1.186488932406323e-03  1.969658076304653e-18
-1.099915615612943e-01 -1.362492314819405e-03  1.971430154247347e-18
-1.099585380651179e-01  3.019918307165476e-03  1.925814784604761e-18
-1.099889682129460e-01  1.557841921211754e-03  1.941378629118835e-18
-1.095449967401791e-01 -9.994683046204222e-03  2.052175624510419e-18
-1.098863063657061e-01 -4.999967330105825e-03  2.006930746880192e-18
-1.099549490802375e-01  3.147883854640721e-03  1.924436114823638e-18
-1.099549490802375e-01  3.147883854640721e-03  1.924436114823638e-18
-1.099549490802375e-01  3.147883854640721e-03  1.924436114823638e-18
-1.099999999861048e-01  1.748389348323779e-06  1.957563248436930e-18
-1.099636986203771e-01 -2.825771704648360e-03  1.985968964140489e-18
-1.099999939390956e-01 -3.651573443956109e-05  1.957956290794845e-18
-1.099865941654558e-01 -1.717295514247404e-03  1.974987227497330e-18
-1.099828705120179e-01 -1.941183643200838e-03  1.977221329835501e-18
-1.099999143578357e-01 -1.372635011244637e-04  1.958990021255298e-18
-1.099962888638773e-01 -9.035685775809221e-04  1.966799007549505e-18
-1.099852131970273e-01 -1.803573675894046e-03  1.975849128285394e-18
-1.099781438356820e-01 -2.192687496651545e-03  1.979721323721960e-18
-1.099781438356820e-01 -2.192687496651545e-03  1.979721323721960e-18
-1.097619880296294e-01 -7.232287589927182e-03  2.027654633528898e-18
-2.779425026921710e-02  1.064306330525759e-01 -5.989042536832889e-19
-1.097021793338955e-01  8.088995573849012e-03  1.869169647722722e-18
-1.099798564622770e-01 -2.105035044099252e-03  1.978851204846770e-18
-1.098370423672340e-01  5.985325723664992e-03  1.893184139778894e-18
-1.099989716089641e-01 -4.756521525632122e-04  1.962450064381177e-18
-1.099816729279873e-01  2.007889429513589e-03  1.936624726162470e-18
-1.099816729279873e-01  2.007889429513589e-03  1.936624726162470e-18
-1.099985623166663e-01  5.623951159281275e-04  1.951777221945694e-18
-1.099447473248510e-01 -3.486048719482820e-03  1.992415809698318e-18
-1.099884774281642e-01  1.592115898462980e-03  1.941017742352716e-18
-1.099884774281642e-01  1.592115898462980e-03  1.941017742352716e-18
-1.099944308386917e-01 -1.106880513965104e-03  1.968854898063922e-18
-1.099818522194733e-01 -1.998044637603408e-03  1.977787434166519e-18
-1.099217015173009e-01  4.149642820937233e-03  1.913551725313778e-18
-1.099758269474163e-01  2.305967743024997e-03  1.933458043576880e-18
-1.099758269474163e-01  2.305967743024997e-03  1.933458043576880e-18
-1.099758269474163e-01  2.305967743024997e-03  1.933458043576880e-18
-1.099301199399067e-01 -3.920297182313917e-03  1.996617243140584e-18
-1.099998087605239e-01  2.051161819497352e-04  1.955470315158347e-18
-1.099816890426211e-01  2.007006560060652e-03  1.936634084104508e-18
-1.099985559256648e-01  5.636437423719703e-04  1.951764279027079e-18
-1.099999976543937e-01  2.271636624824998e-05  1.957347768595771e-18
-1.099887309921126e-01  1.574501427312500e-03  1.941203237117876e-18
-1.097868208009771e-01 -6.844996597081813e-03  2.024117288056902e-18
-1.096001983477006e-01 -9.369979836937433e-03  2.046739404424744e-18
-1.098975331336074e-01  4.746810629001167e-03  1.906985937803014e-18
-1.086299243584208e-01  1.730721045933479e-02  1.755373782167950e-18
-1.080608093616543e-01 -2.056359599156078e-02  2.134354480836091e-18
-1.080608093616543e-01 -2.056359599156078e-02  2.134354480836091e-18
-1.086299243584322e-01  1.730721045926283e-02  1.755373782168894e-18
-1.089824079017856e-01  1.492765111893835e-02  1.786095755076342e-18
-8.781951083687406e-02  6.623996917550680e-02  8.822613300572926e-19
-1.092953758934294e-01 -1.243063989961444e-02  2.072761895539221e-18
-1.097370892432483e-01 -7.600739728427440e-03  2.030997241799848e-18
-1.097370892432483e-01 -7.600739728427440e-03  2.030997241799848e-18
-1.086271711305946e-01  1.732448245011812e-02  1.755147321763736e-18
-1.086271711305946e-01  1.732448245011812e-02  1.755147321763736e-18
-1.086271711305946e-01  1.732448245011812e-02  1.755147321763736e-18
-9.129145363022345e-02 -6.136668879840829e-02  2.255160748375746e-18
-1.096234319027557e-01 -9.094128757710776e-03  2.044318603620702e-18
-1.094999254241994e-01  1.047694287923241e-02  1.841035007052726e-18
-1.086466156477131e-01  1.720211929670428e-02  1.756750597090406e-18
-1.099987657214600e-01 -5.210947661335855e-04  1.962913306713881e-18
-1.099989399253980e-01  4.829236881923126e-04  1.952600481993788e-18
-1.094415721347630e-01 -1.106988205318379e-02  2.061382339495327e-18
-1.099533916778959e-01  3.201821126662484e-03  1.923854213115080e-18
-1.098568750319783e-01  5.609546167760146e-03  1.897398084132219e-18
-1.099982383130462e-01 -6.225496174762337e-04  1.963946332593939e-18
-1.099431148843103e-01 -3.537158398385455e-03  1.992911891855691e-18
-1.099431148843103e-01 -3.537158398385455e-03  1.992911891855691e-18
-1.099431148843103e-01 -3.537158398385455e-03  1.992911891855691e-18
-1.099891841896086e-01  1.542517845695194e-03  1.941539921990306e-18
-1.099929661193456e-01 -1.243947052095203e-03  1.970237140522906e-18
-1.098923708502460e-01 -4.864856515041600e-03  2.005650457073675e-18
-1.077978200071997e-01  2.190045665494878e-02  1.693371556603200e-18
-1.095097577029932e-01  1.037366703878835e-02  1.842271105925628e-18
-1.094109572641325e-01  1.136848409182611e-02  1.830291450431333e-18
-1.098083458078093e-01 -6.490546275352249e-03  2.020858502935347e-18
-1.099016229829900e-01  4.651157458594735e-03  1.908041523129189e-18
-1.099242689293372e-01 -4.081066080164876e-03  1.998164959450831e-18
-1.099143179786367e-01 -4.340818274366254e-03  2.000656729848057e-18
-1.093343834187399e-01  1.208273985666736e-02  1.821590008996959e-18
-1.028894251888046e-01  3.890714824190154e-02  1.431283237853993e-18
-1.040757638050448e-01 -3.561229265852506e-02  2.218055733113161e-18
-1.099967142358498e-01 -8.502101603213925e-04  1.966258339197405e-18
-1.099967142358498e-01 -8.502101603213925e-04  1.966258339197405e-18
-1.099967142358498e-01 -8.502101603213925e-04  1.966258339197405e-18
-1.099999126923424e-01  1.385917637398687e-04  1.956155678979718e-18
-1.099999126923424e-01  1.385917637398687e-04  1.956155678979718e-18
-1.099967009324022e-01  8.519295672661862e-04  1.948769235084475e-18
-1.099995410386846e-01  3.177597813840612e-04  1.954308178664882e-18
-1.099995995410428e-01 -2.968178063116411e-04  1.960623781239218e-18
-1.099681835854779e-01  2.645486516798142e-03  1.929833588770808e-18
-1.099912863760835e-01 -1.384529282576907e-03  1.971651678836576e-18
-1.099998635748030e-01  1.732441186759636e-04  1.955798764515757e-18
-1.099986410981562e-01 -5.467692008044314e-04  1.963174884382990e-18
-1.097762656714702e-01  7.012238959614263e-03  1.881551385529581e-18
-1.099038329304199e-01 -4.598641886717062e-03  2.003119179864971e-18
-1.098703771096405e-01 -5.338561021972287e-03  2.010126193949910e-18
-1.066759461088921e-01  2.683733447592496e-02  1.622681846179376e-18
-1.099883904873177e-01  1.598110762507296e-03  1.940954600086354e-18
-1.099316993857111e-01 -3.875754142044182e-03  1.996187687705148e-18
-1.080571876290387e-01 -2.058261892234949e-02  2.134485481487403e-18
-1.097839327923205e-01 -6.891161052477784e-03  2.024540215506882e-18
-1.090764734411110e-01  1.422402691401175e-02  1.794999246653116e-18
-1.085534370934972e-01  1.778064383502612e-02  1.749148244100920e-18
-1.098255610580533e-01  6.192425880357811e-03  1.890851937310176e-18
-1.025253487511558e-01 -3.985665394201843e-02  2.234073518159839e-18
-1.099899776929111e-01  1.484859290585564e-03  1.942146464036145e-18
-1.099899776929111e-01  1.484859290585564e-03  1.942146464036145e-18
-1.067675360989936e-01  2.647061078536023e-02  1.628079752006036e-18
-1.089016846787462e-01 -1.550558203134788e-02  2.097349604126956e-18
-1.098540682480841e-01 -5.664246582309153e-03  2.013182259124800e-18
-1.094180252456784e-01  1.130025448102859e-02  1.831118268059012e-18
-1.099491891687617e-01 -3.343022753704160e-03  1.991025317768005e-18
-1.057716795872098e-01 -3.020516176583982e-02  2.192680271752244e-18
-1.099305159199963e-01 -3.909177607036237e-03  1.996510040482068e-18
-1.064653080157013e-01  2.766113137819521e-02  1.610469076143894e-18
-1.087741866127254e-01 -1.637609009317919e-02  2.104024778061516e-18
-1.099808620351068e-01 -2.051825044860180e-03  1.978322386802260e-18
-1.098144003046753e-01 -6.387290953484294e-03  2.019905339006658e-18
-1.078862299519390e-01 -2.146069399523836e-02  2.140464988092052e-18
-1.072084223702301e-01 -2.462425984443544e-02  2.160907083524768e-18
-8.803826656295204e-02 -6.594894707719393e-02  2.244347443182608e-18
-1.089189961715079e-01  1.538350652455325e-02  1.780283519002356e-18
-1.091022895689758e-01  1.402463585292986e-02  1.797507346162600e-18
-7.295674518529861e-02 -8.232443945735267e-02  2.144206015834797e-18
-9.022716421395870e-02  6.292105242212062e-02  9.592090578287944e-19
-1.035387017598026e-01  3.714481441459327e-02  1.460945228790076e-18
-1.099994913655978e-01  3.345135418836186e-04  1.954135155870080e-18
-1.099996475501119e-01  2.784579879749309e-04  1.954713885812843e-18
-5.514564731755090e-02 -9.517855631353216e-02  1.959307664595332e-18
-1.059744327026356e-01 -2.948592229106101e-02  2.188898580969724e-18
-9.508981503926124e-02  5.529852688633773e-02  1.124064410479257e-18
-1.099569776589429e-01  3.076209373670234e-03  1.925208645056158e-18
-1.099552827488885e-01 -3.136207201688571e-03  1.989008805628271e-18
-1.051121038553756e-01  3.242600226819005e-02  1.537429876497361e-18
-1.082274943629781e-01 -1.966747222983837e-02  2.128113493148187e-18
-1.098855275702716e-01 -5.017053976488651e-03  2.007092446370949e-18
-1.092474992948369e-01  1.284460578704263e-02  1.812215906702499e-18
-1.953467417665745e-03 -1.099826530187740e-01  1.164796089088762e-18
-1.071081006311073e-01  2.505703053429328e-02  1.648664527661459e-18
-1.071081006311073e-01  2.505703053429328e-02  1.648664527661459e-18
-1.099733371670914e-01  2.421799399861531e-03  1.932223606770417e-18
-1.098015315834731e-01  6.604821112149146e-03  1.886187092951380e-18
-1.099399584276437e-01  3.633942890016176e-03  1.919175258262118e-18
-1.097079099149997e-01  8.010898955937363e-03  1.870074044627926e-18
-1.098968748038888e-01 -4.762027754886348e-03  2.004674082145416e-18
-1.064198512177868e-01 -2.783550370990343e-02  2.179867883389819e-18
-1.095074133552947e-01  1.039838546278000e-02  1.841975412634876e-18
-1.096782724234969e-01  8.406935125069530e-03  1.865477482344551e-18
-1.096630528128718e-01 -8.603188232347661e-03  2.039979469424317e-18
-1.091915545280747e-01 -1.331181504312699e-02  2.079968024993953e-18
-8.890733621400548e-02  6.477256801555512e-02  9.166974941019980e-19
-1.098946098125842e-01  4.814014347692653e-03  1.906243420021980e-18
-3.211059570914323e-03 -1.099531222677736e-01  1.186873023827191e-18
-1.099893516645995e-01 -1.530529451199329e-03  1.973117347032815e-18
-1.073252313628963e-01  2.411005418701330e-02  1.662258465995395e-18
-1.098869258863561e-01 -4.986333246625295e-03  2.006801686734262e-18
-1.099731666452814e-01 -2.429530409172378e-03  1.982066223569659e-18
-1.099142053618335e-01  4.343668918855225e-03  1.911424774613531e-18
-1.095371246269257e-01 -1.008059167238106e-02  2.052918210790695e-18
-1.095476374663312e-01 -9.965697443992443e-03  2.051924802849184e-18
-6.926806453350844e-02  8.545136181349970e-02  3.547261337176282e-19
-1.068019604069371e-01 -2.633137393367390e-02  2.171213585163721e-18
-8.824722333190373e-02 -6.566907623995506e-02  2.245190506955212e-18
-1.099590546296615e-01  3.001050641197775e-03  1.926017835900730e-18
-1.099197859076995e-01 -4.200079285612765e-03  1.999307996185124e-18
-1.099197859076995e-01 -4.200079285612765e-03  1.999307996185124e-18
-1.069462018325395e-01  2.573926793041425e-02  1.638773604013285e-18
-1.068184534986962e-01  2.626438638435722e-02  1.631104768675088e-18
-9.189988867613116e-02 -6.045172008565693e-02  2.256587604643751e-18
-1.072392317271977e-01 -2.448973618805051e-02  2.160073191081986e-18
-1.023340669873209e-01  4.034524425300277e-02  1.406624062108492e-18
-1.098695498363666e-01  5.355559611663428e-03  1.900233266993195e-18
-1.095597755368652e-01 -9.831357195811607e-03  2.050760517045069e-18
-1.099825018795000e-01  1.961958288475100e-03  1.937111404132146e-18
-1.099906662122101e-01 -1.432950171538048e-03  1.972138149324841e-18
-1.099981163523255e-01 -6.437382544150655e-04  1.964161867704753e-18
-1.098908187531106e-01 -4.899791196666141e-03  2.005981776816662e-18
-1.071457757468355e-01  2.489543612007565e-02  1.650995325189796e-18
-1.092242686202113e-01  1.304067269660046e-02  1.809787972866786e-18
-1.096967924235852e-01  8.161723591055475e-03  1.868326527271225e-18
-1.095960411340721e-01 -9.418480118294097e-03  2.047163744621494e-18
-1.058559099994704e-01 -2.990863283709129e-02  2.191132525389695e-18
-1.039178145736183e-01 -3.607059486954733e-02  2.219953726861410e-18
-1.056157946264712e-01  3.074579524778907e-02  1.563657171356505e-18
-1.099512678279322e-01  3.273943040167538e-03  1.923075390210122e-18
-1.099512678279322e-01  3.273943040167538e-03  1.923075390210122e-18
-1.009187043209545e-01  4.376545576341782e-02  1.346294564350448e-18
-1.091102762489645e-01  1.396236430102661e-02  1.798289296234185e-18
-1.083779350550877e-01 -1.882081807985785e-02  2.122091700890654e-18
-1.096199406784304e-01  9.136115457748756e-03  1.856947336332581e-18
-9.962675210820347e-02  4.663164445278018e-02  1.293853686049456e-18
-1.087989732211154e-01 -1.621059610350396e-02  2.102765494699681e-18
-9.240756236565106e-02 -5.967279461897387e-02  2.257619087315062e-18
-1.083728623125615e-01  1.885000568123284e-02  1.734947395975616e-18
-1.077771347999606e-01  2.200202750455219e-02  1.691959835084283e-18
-1.097772282026090e-01 -6.997154289582988e-03  2.025509941342382e-18
-1.092150143235299e-01 -1.311795130007286e-02  2.078393640503216e-18
-1.089376397750760e-01  1.525092260277108e-02  1.781977555799105e-18
-1.090307604682200e-01 -1.457028729028893e-02  2.090036848069305e-18
-1.099654349089140e-01  2.757376523678524e-03  1.928635043618361e-18
-1.099997532062728e-01 -2.330119288993052e-04  1.959970933683725e-18
-1.099257484365096e-01  4.041018519276576e-03  1.914739820307894e-18
-1.099108254236828e-01 -4.428369303102827e-03  2.001494130682061e-18
-1.099015527821412e-01  4.652815929538265e-03  1.908023233634875e-18
-1.099985895635248e-01  5.570404250504189e-04  1.951832724339604e-18
-1.099992811273140e-01 -3.976826298239705e-04  1.961654464107377e-18
-1.099453389795818e-01 -3.467338556410870e-03  1.992234098771309e-18
-1.099880567770135e-01  1.620915302037414e-03  1.940714352953991e-18
-1.099912179989294e-01  1.389950758814278e-03  1.943143687447621e-18
-1.099849161952819e-01 -1.821595321894388e-03  1.976029008650962e-18
-1.099781295477641e-01  2.193404015484159e-03  1.934655572506004e-18
-1.098735534700123e-01 -5.272783692914723e-03  2.009506882910586e-18
-1.099933487518566e-01 -1.209640588098056e-03  1.969891463469848e-18
-1.085356711138747e-01  1.788877010475431e-02  1.747721119159236e-18
-1.099986982150238e-01  5.351551177377714e-04  1.952059521504965e-18
-1.099999839305960e-01 -5.945812432637524e-05  1.958191837403429e-18
-1.089931684436850e-01  1.484887984349064e-02  1.787096597994951e-18
-1.089931684436850e-01  1.484887984349064e-02  1.787096597994951e-18
-8.831678577263710e-02 -6.557549352303842e-02  2.245466925144755e-18
-1.045011255733436e-01  3.434406431836819e-02  1.506849398378909e-18
-1.096509421403116e-01  8.756191394776030e-03  1.861402626058122e-18
-1.098816339424052e-01 -5.101619561198252e-03  2.007892035281206e-18
-1.095228366523881e-01  1.023465933063857e-02  1.843932115134956e-18
-1.089744129402342e-01  1.498590418797742e-02  1.785354946076098e-18
-9.156108999974803e-02 -6.096365144951518e-02  2.255818186857421e-18
-9.993104494936872e-02  4.597593126111944e-02  1.306006154974069e-18
-1.094521211885085e-01  1.096508856945451e-02  1.835168754018006e-18
-1.099982984278622e-01  6.118357417623017e-04  1.951264541259569e-18
-1.098923418973928e-01  4.865510487755209e-03  1.905673955633816e-18
-1.098213744745666e-01  6.266235593794712e-03  1.890019064070489e-18
-1.098213744745666e-01  6.266235593794712e-03  1.890019064070489e-18
-8.415087439554342e-02 -7.084229201871857e-02  2.225444004176043e-18
-1.093329044404019e-01 -1.209611535270209e-02  2.069992642601956e-18
-1.097492225277762e-01  7.423486684071010e-03  1.876844699555078e-18
-1.096044715462048e-01  9.319861430145456e-03  1.854784121555664e-18
-9.988835382206417e-02  4.606860938554619e-02  1.304294181378697e-18
-1.023839783401393e-01 -4.021841592163756e-02  2.235274635985861e-18
-1.099081093343290e-01  4.495275581443790e-03  1.909758585148756e-18
-1.099081093343290e-01  4.495275581443790e-03  1.909758585148756e-18
-1.096763849538623e-01  8.431523198814603e-03  1.865191259045362e-18
-1.094266158853077e-01 -1.121676138148907e-02  2.062625306937082e-18
 1.074576923319084e-01  2.351264252909177e-02 -2.153921675736473e-18
 1.099998969130222e-01 -1.505958977411574e-04 -1.956032060051788e-18
 1.096521917460784e-01 -8.740528890243451e-03 -1.861585790827657e-18
 1.085902668588854e-01 -1.755431409984354e-02 -1.752129129518009e-18
 1.099386238327797e-01  3.674097134601149e-03 -1.994238964005267e-18
 1.099386238327797e-01  3.674097134601149e-03 -1.994238964005267e-18
 1.084361123237696e-01 -1.848268227576147e-02 -1.739847119925524e-18
 1.098211770838830e-01 -6.269694084270339e-03 -1.889980016534552e-18
 1.099969789497413e-01  8.152434790292172e-04 -1.965903780148986e-18
 1.099995131657071e-01  3.272664164653837e-04 -1.960935092495306e-18
 1.098172125805182e-01 -6.338755480786379e-03 -1.889199882706975e-18
 1.098172125805182e-01 -6.338755480786379e-03 -1.889199882706975e-18
 1.099923196866381e-01  1.299849973004719e-03 -1.970800018686193e-18
 1.099060220689979e-01 -4.546021663925432e-03 -1.909200042209514e-18
 1.089635185927260e-01 -1.506491340474903e-02 -1.784349277166405e-18
 1.098743217564352e-01  5.256749809841044e-03 -2.009355813159997e-18
 1.019036884114688e-01 -4.142026422100913e-02 -1.387919522329843e-18
 1.088344503530106e-01 -1.597067363507252e-02 -1.772745996552750e-18
 1.051716281285140e-01  3.223241593175254e-02 -2.202830940388676e-18
 1.099958394975110e-01 -9.567095890223823e-04 -1.947677328163073e-18
 1.099958394975110e-01 -9.567095890223823e-04 -1.947677328163073e-18
 1.099823610231925e-01 -1.969838512183906e-03 -1.937027930990186e-18
 1.079826915740658e-01  2.096993849347444e-02 -2.137139303218220e-18
 1.095686651958353e-01 -9.731783351620430e-03 -1.849914556735793e-18
 9.447467199923183e-02 -5.634302397491174e-02 -1.102385378163619e-18
 1.097459126934403e-01  7.472258499523351e-03 -2.029834167667580e-18
 1.022345109913682e-01  4.059685655756788e-02 -2.236503026280882e-18
 7.256272345590578e-02 -8.267194907985212e-02 -4.419159754100714e-19
 1.089113011592429e-01 -1.543789104122075e-02 -1.779587795927743e-18
 1.084700156856595e-01  1.828266110698113e-02 -2.118201018150179e-18
 1.091173087373090e-01  1.390729786575030e-02 -2.084765102264246e-18
 1.096862681837441e-01  8.301961932199738e-03 -2.037297623834178e-18
 1.098428951044011e-01 -5.876937559943698e-03 -1.894401945226090e-18
 1.099889894301638e-01  1.556343191987102e-03 -1.973376127448142e-18
 1.094225530563882e-01 -1.125632633774642e-02 -1.831650191565945e-18
 1.090413530689396e-01  1.449080125095858e-02 -2.089408665855310e-18
 1.095698231527758e-01 -9.718737277514754e-03 -1.850069207632981e-18
 1.099006040492911e-01  4.675171611916002e-03 -2.003848033199091e-18
 1.099345037608263e-01 -3.795376511071271e-03 -1.917419514147423e-18
 1.099941958566152e-01  1.129990201951870e-03 -1.969088159926548e-18
 1.099970276235261e-01  8.086494847327087e-04 -1.965836895461059e-18
 1.099970276235261e-01  8.086494847327087e-04 -1.965836895461059e-18
 1.099580613752296e-01  3.037225477499238e-03 -1.988041253339664e-18
 1.099144458814977e-01 -4.337578421567055e-03 -1.911491632594990e-18
 1.099980646238868e-01  6.525174320654797e-04 -1.964251149996617e-18
 1.099916474730953e-01 -1.355539064086296e-03 -1.943504898115243e-18
 1.098593369344925e-01  5.561122936384615e-03 -2.012216463684153e-18
 1.090639309745817e-01  1.431987990073944e-02 -2.088054311835455e-18
 1.099939397160545e-01  1.154653948539512e-03 -1.969337012636289e-18
 1.099946340515909e-01 -1.086498898541853e-03 -1.946322337808453e-18
 1.083197681146625e-01  1.915275007892284e-02 -2.124467031510724e-18
 1.046238352094964e-01 -3.396841335794257e-02 -1.512892839882710e-18
 1.099576706572400e-01 -3.051338007149756e-03 -1.925476522043433e-18
 1.099576706572400e-01 -3.051338007149756e-03 -1.925476522043433e-18
 1.093562308022192e-01  1.188338271418113e-02 -2.068222012454075e-18
 1.099411596067214e-01  3.597419120610588e-03 -1.993496252388520e-18
 1.096026515191318e-01 -9.341240815634595e-03 -1.854532066583513e-18
 1.094225169460555e-01  1.125667736013229e-02 -2.062962483603923e-18
 1.099964569830576e-01  8.828653205820181e-04 -1.966589280986096e-18
 1.066418613762410e-01 -2.697245636219530e-02 -1.620686939408604e-18
 1.099571345184366e-01 -3.070597416525019e-03 -1.925269097378960e-18
 1.098766932261474e-01  5.206945907825048e-03 -2.008886299291438e-18
 1.097199828317875e-01 -7.843810769784040e-03 -1.872005666997621e-18
 1.097922130971886e-01 -6.757954070682616e-03 -1.884447873852353e-18
 8.186009700656612e-02  7.347737419148510e-02 -2.211751400076088e-18
 1.099890212045629e-01 -1.554096027321717e-03 -1.941418059866814e-18
 1.099890212045629e-01 -1.554096027321717e-03 -1.941418059866814e-18
 1.099867122251157e-01 -1.709717494064088e-03 -1.939778014785357e-18
 1.099867122251157e-01 -1.709717494064088e-03 -1.939778014785357e-18
 1.099999995672929e-01 -9.756817417690575e-06 -1.957480957294494e-18
 1.099996435408186e-01 -2.800373060346971e-04 -1.954697587543342e-18
 1.099996435408186e-01 -2.800373060346971e-04 -1.954697587543342e-18
 1.098929463821073e-01 -4.851838358725906e-03 -1.905825189319450e-18
 1.098782739444006e-01  5.173481902856074e-03 -2.008570599563763e-18
 1.098693919550144e-01  5.358797573647399e-03 -2.010316585165307e-18
 1.098693919550144e-01  5.358797573647399e-03 -2.010316585165307e-18
 1.098712896000899e-01 -5.319748265950931e-03 -1.900632176731874e-18
 1.094052690477375e-01 -1.142309522818151e-02 -1.829629112248048e-18
 1.099459495433602e-01  3.447923869347158e-03 -1.992045485625274e-18
 1.099445596018293e-01 -3.491964197944585e-03 -1.920715921129461e-18
 1.099965339757146e-01  8.732200921759191e-04 -1.966491549944231e-18
 1.092544766676035e-01  1.278512135601457e-02 -2.075676213220807e-18
 1.099053801287038e-01  4.561514963808630e-03 -2.002765248458264e-18
 1.093695498445481e-01 -1.176016865528901e-02 -1.825530139405504e-18
 1.093695498445481e-01 -1.176016865528901e-02 -1.825530139405504e-18
 1.096835386110660e-01 -8.337946854875556e-03 -1.866280029848854e-18
 1.039923621748778e-01  3.585510576318206e-02 -2.219066318062556e-18
 1.098327114921187e-01  6.064279535851017e-03 -2.016912383454230e-18
 1.099445184503753e-01 -3.493259611742491e-03 -1.920701878884062e-18
 1.099251112643085e-01 -4.058314124033248e-03 -1.914550775012654e-18
 1.095522566286285e-01 -9.914790344482512e-03 -1.847742216339057e-18
 1.099686016861850e-01  2.628049311774979e-03 -1.984024694285252e-18
 1.099987840650714e-01 -5.172080874325461e-04 -1.952245448525711e-18
 1.099993807523885e-01  3.690990259842138e-04 -1.961362550908567e-18
 1.099998695198113e-01 -1.694273425348293e-04 -1.955838086302597e-18
 1.099998695198113e-01 -1.694273425348293e-04 -1.955838086302597e-18
 1.099999997657895e-01 -7.178176899192621e-06 -1.957507455421559e-18
 1.099988012628746e-01 -5.135374675255948e-04 -1.952283468867243e-18
 1.099998420489765e-01  1.864113734431031e-04 -1.959493710966952e-18
 1.099997091055362e-01 -2.529756852782337e-04 -1.954976802668258e-18
 1.099999098853079e-01  1.408020740442757e-04 -1.959026299212621e-18
 1.099993924578624e-01 -3.655939018913953e-04 -1.953814056280473e-18
 1.099999951131244e-01  3.278890860793231e-05 -1.957918019906518e-18
 1.099999962117560e-01 -2.886890341522213e-05 -1.957284527837962e-18
 1.099999962117560e-01 -2.886890341522213e-05 -1.957284527837962e-18
 1.099999953533381e-01 -3.197288737750080e-05 -1.957252620253767e-18
 1.099999876779138e-01 -5.206590748145159e-05 -1.957046035178091e-18
 1.099999922382892e-01 -4.132282973447789e-05 -1.957156497556604e-18
 1.099999993443063e-01  1.201051836156354e-05 -1.957704604793860e-18
 1.099966852955232e-01  8.539461327003573e-04 -1.966296209928793e-18
 1.099993259615687e-01  3.850818101375196e-04 -1.961525793141656e-18
 1.099993259615687e-01  3.850818101375196e-04 -1.961525793141656e-18
 1.099943650526507e-01  1.113398699544421e-03 -1.968920699311806e-18
 1.099671784495364e-01 -2.686943216322374e-03 -1.929389748650184e-18
 1.099913462726867e-01 -1.379762704909791e-03 -1.943250648784983e-18
 1.099913462726867e-01 -1.379762704909791e-03 -1.943250648784983e-18
 1.089822124275246e-01  1.492907814976659e-02 -2.092859323517591e-18
 1.099901020969894e-01 -1.475615361058181e-03 -1.942243655972950e-18
 1.049956896870780e-01 -3.280099308153272e-02 -1.531505253125015e-18
 1.099920784311772e-01  1.320106961454458e-03 -1.971003858455022e-18
 1.048398044801864e-01  3.329587656987271e-02 -2.207852414484918e-18
 1.094930838977851e-01  1.054820262189359e-02 -2.056938986118494e-18
 1.092306483383090e-01 -1.298712684132250e-02 -1.810451671771640e-18
 1.099626325601379e-01 -2.866956651926765e-03 -1.927459276468709e-18
 1.099881665786681e-01 -1.613447446646643e-03 -1.940793036506692e-18
 1.096902704559159e-01  8.248913098581351e-03 -2.036823791547256e-18
 1.098258028194034e-01  6.188136639849028e-03 -2.018062022132129e-18
 1.098601627602531e-01 -5.544784783076736e-03 -1.898121992880273e-18
 1.098601627602531e-01 -5.544784783076736e-03 -1.898121992880273e-18
 1.091772424863979e-01 -1.342869029601218e-02 -1.804964346842530e-18
 5.092805559411798e-02  9.750042642677188e-02 -1.908106960895764e-18
 1.095318329530931e-01 -1.013792729978056e-02 -1.845086101514257e-18
 1.099778655167152e-01 -2.206602906558481e-03 -1.934515259947534e-18
 1.099778655167152e-01 -2.206602906558481e-03 -1.934515259947534e-18
 1.099984915583393e-01  5.760684767416098e-04 -1.963473262560234e-18
 1.099574439507445e-01  3.059496661024199e-03 -1.988259093854695e-18
 1.099952763614682e-01  1.019400884917102e-03 -1.967971123740687e-18
 1.099493636380327e-01 -3.337279669368845e-03 -1.922390742022807e-18
 1.099261024427446e-01  4.031377152678990e-03 -1.997687053329660e-18
 1.099506264296365e-01 -3.295413135015231e-03 -1.922843378337278e-18
 1.099905714771647e-01 -1.440203501815123e-03 -1.942615853142674e-18
 1.099905714771647e-01 -1.440203501815123e-03 -1.942615853142674e-18
 1.099258840918606e-01  4.037326667826031e-03 -1.997744296622070e-18
 1.097224766072538e-01  7.808849285942289e-03 -2.032875442614952e-18
 1.095046752326823e-01 -1.042718093180976e-02 -1.841630821493129e-18
 1.094512450070129e-01 -1.097383098169242e-02 -1.835063336213270e-18
 1.060272121731767e-01  2.929556756207501e-02 -2.187882028915740e-18
 1.097372665508833e-01  7.598179383267268e-03 -2.030974090584295e-18
 4.671216258540183e-02 -9.958902483002290e-02  1.919423987882673e-19
 1.099993657016202e-01  3.735575472982439e-04 -1.961408092749041e-18
 9.921556780877898e-02  4.750022215086474e-02 -2.253706904896489e-18
 1.093700004239055e-01 -1.175597751251817e-02 -1.825581220472089e-18
 1.093700004239055e-01 -1.175597751251817e-02 -1.825581220472089e-18
 1.098542348395644e-01 -5.661014733576450e-03 -1.896822277942175e-18
 1.094713537079794e-01  1.077138418878399e-02 -2.058845380994503e-18
 1.080233773863479e-01  2.075933375729039e-02 -2.135699468621968e-18
 1.059256046945280e-01 -2.966085417007620e-02 -1.580317986517791e-18
 1.099891956060422e-01 -1.541703582311567e-03 -1.941548491419829e-18
 1.099686431993284e-01 -2.626311653010957e-03 -1.930038782907257e-18
 1.098731759011786e-01  5.280645546577240e-03 -2.009580941313205e-18
 1.088147876742997e-01  1.610409834163370e-02 -2.101952705942635e-18
 1.095042622860393e-01 -1.043151672530142e-02 -1.841578923911979e-18
 6.809305641694006e-02 -8.639059941798845e-02 -3.241651374949534e-19
 1.098069724474672e-01  6.513739472921970e-03 -2.021072364029458e-18
 1.099347987864390e-01 -3.786821329968845e-03 -1.917512665858094e-18
 1.093505134842542e-01  1.193587871628521e-02 -2.068659643312345e-18
 1.093584620976010e-01  1.186283135037731e-02 -2.068050563219620e-18
 8.539079990203591e-02 -6.934270900455497e-02 -8.071599972938743e-19
 1.093179113707895e-01 -1.223087296672425e-02 -1.819774855361805e-18
 1.089529756259972e-01  1.514097428307675e-02 -2.094516175553440e-18
 1.084612356592094e-01 -1.833467641594357e-02 -1.741814926091203e-18
 1.097243209602032e-01  7.782890839671611e-03 -2.032641551470239e-18
 1.099072262673337e-01 -4.516814609992826e-03 -1.909521564224389e-18
 1.099031578757849e-01  4.614746897743139e-03 -2.003272639600308e-18
 1.098520807193370e-01 -5.702662679152153e-03 -1.896356025291921e-18
 1.099416950910631e-01  3.581016685752639e-03 -1.993337252911499e-18
 1.098502396673590e-01  5.738017516854014e-03 -2.013872094517474e-18
 1.099964102507104e-01  8.886686431632948e-04 -1.966648076359575e-18
 1.099988110634438e-01  5.114338947705023e-04 -1.962814851684833e-18
 1.099988110634438e-01  5.114338947705023e-04 -1.962814851684833e-18
 1.098638432311738e-01  5.471375556108332e-03 -2.011374536879226e-18
 1.099621106572373e-01  2.886904883334855e-03 -1.986568825645291e-18
 1.035262220623722e-01 -3.717958237382885e-02 -1.460365909537041e-18
 1.099980028844711e-01  6.628434413950742e-04 -1.964356147264787e-18
 1.099765105891356e-01  2.273129701024197e-03 -1.980518772579032e-18
 1.099975246971563e-01  7.379434249440157e-04 -1.965119262400403e-18
 1.099975246971563e-01  7.379434249440157e-04 -1.965119262400403e-18
 1.098904942091969e-01  4.907064545977498e-03 -2.006050732192562e-18
 1.099950123328343e-01  1.047502696678299e-03 -1.968255160943464e-18
 1.099739021188163e-01  2.396007671304429e-03 -1.981734878244776e-18
 1.099950123328342e-01  1.047502696683423e-03 -1.968255160943516e-18
 1.099595800031073e-01 -2.981738677380332e-03 -1.926225608960623e-18
 1.098441158337801e-01 -5.854076929374178e-03 -1.894658554236017e-18
 1.092086715920119e-01  1.317065105103107e-02 -2.078822234826749e-18
 1.099683292851497e-01  2.639423087118168e-03 -1.984136707993781e-18
 1.085077197272537e-01 -1.805754024200651e-02 -1.745489639041800e-18
 1.099730561438522e-01  2.434527137054498e-03 -1.982115596628736e-18
 1.099834811177718e-01  1.906274171430450e-03 -1.976873514152422e-18
 1.098002914552922e-01  6.625405371206265e-03 -2.022100794344167e-18
 1.099144733253577e-01 -4.336882936989886e-03 -1.911499266842596e-18
 1.099199620334949e-01  4.195467382181447e-03 -1.999263744921362e-18
 1.099999814945310e-01  6.380597746973367e-05 -1.958236466662343e-18
 1.097498649101171e-01  7.413983558855258e-03 -2.029305748231975e-18
 1.099564159149366e-01 -3.096223367493057e-03 -1.924993011635475e-18
 1.098394328650793e-01  5.941295134705686e-03 -2.015768378258559e-18
 1.099879760913003e-01 -1.626381056054297e-03 -1.940656758418507e-18
 1.096650681810387e-01  8.577460046426559e-03 -2.039750987540842e-18
 1.099908499538865e-01 -1.418776381804581e-03 -1.942840964842363e-18
 1.098405732641606e-01  5.920174406255922e-03 -2.015571665208266e-18
 1.099999425345454e-01  1.124384126819465e-04 -1.958735453927956e-18
 1.099355364390623e-01 -3.765345648880820e-03 -1.917746448088107e-18
 1.097804586292028e-01  6.946287005431775e-03 -2.025044787770988e-18
 9.418573576858914e-02  5.682470569857296e-02 -2.260000725074605e-18
 9.577154348304101e-02 -5.410925483571094e-02 -1.148415919623061e-18
 1.063477205382517e-01 -2.810982633026821e-02 -1.603766289084769e-18
 1.053566486577745e-01  3.162240635375765e-02 -2.199855974592504e-18
 1.099463219080888e-01 -3.436029522987224e-03 -1.921321991937221e-18
 3.735279798441211e-02  1.034638510917491e-01 -1.727791080668385e-18
 1.086780750308535e-01 -1.700223537033032e-02 -1.759364189070871e-18
 1.084534813610658e-01 -1.838048913018597e-02 -1.741206220109684e-18
 1.080526668619715e-01  2.060633844271564e-02 -2.134648738500013e-18
 1.096775963029454e-01  8.415751256308982e-03 -2.038312441339982e-18
 1.081226701969894e-01 -2.023581452457476e-02 -1.716256246398489e-18
 1.098737229866648e-01  5.269250141108283e-03 -2.009473593700451e-18
 1.097782646801692e-01 -6.980874143733841e-03 -1.881909222363113e-18
 1.097919718380059e-01  6.761872515985966e-03 -2.023354887168554e-18
 1.094817607287547e-01 -1.066508639119472e-02 -1.838778638391405e-18
 1.099999930203524e-01 -3.918574181947713e-05 -1.957178469276336e-18
 1.098799373592694e-01 -5.138031327556736e-03 -1.902653149451319e-18
 1.099745752260828e-01 -2.364910958698131e-03 -1.932830147573989e-18
 1.097961461336240e-01 -6.693750384038994e-03 -1.885177536484114e-18
 1.097961461336240e-01 -6.693750384038994e-03 -1.885177536484114e-18
 7.135439766665647e-02  8.371708268703928e-02 -2.129999233668769e-18
 1.097878304798831e-01 -6.828783092204070e-03 -1.883642137483655e-18
 1.065650312841263e-01 -2.727442221960218e-02 -1.616217066783885e-18
 1.096497390139208e-01  8.771244733729422e-03 -2.041469253992280e-18
 1.064724562142391e-01  2.763360395798691e-02 -2.178729605444670e-18
 1.050549428538773e-01 -3.261071882017460e-02 -1.534514732822196e-18
 1.097773630198392e-01 -6.995038842663216e-03 -1.881747639106133e-18
 1.097773630198392e-01 -6.995038842663216e-03 -1.881747639106133e-18
 1.085993897263441e-01  1.749778703338079e-02 -2.112439087543196e-18
 1.063521810551386e-01  2.809294546349561e-02 -2.181308732622526e-18
 9.963710065573925e-02 -4.660952877811594e-02 -1.294265081320230e-18
 1.099951608414900e-01  1.031790412175657e-03 -1.968096365816700e-18
 1.098038859826771e-01  6.565563426178778e-03 -2.021549909000400e-18
 1.099971527339271e-01  7.914483110436351e-04 -1.965662386138921e-18
 1.099592671944266e-01  2.993252088386332e-03 -1.987610901731770e-18
 1.099592671944266e-01  2.993252088386332e-03 -1.987610901731770e-18
 9.610234936115349e-02 -5.351951463967829e-02 -1.160362371102072e-18
 1.088358814121303e-01  1.596091843361867e-02 -2.100856972627170e-18
 1.094819030021147e-01  1.066362579217136e-02 -2.057925939887648e-18
 9.373025442137012e-02 -5.757290513866004e-02 -1.076500997215328e-18
 1.099371532140529e-01 -3.717841200181653e-03 -1.918263311481000e-18
 1.099371532140529e-01 -3.717841200181653e-03 -1.918263311481000e-18
 1.099979507818526e-01 -6.714341316006827e-04 -1.950646002678943e-18
 9.760513258641339e-02  5.072709426715261e-02 -2.258202227882200e-18
 1.031964139102121e-01 -3.808543233405789e-02 -1.445189300788014e-18
 1.056804871844757e-01 -3.052269038685486e-02 -1.567100773992744e-18
 1.073572563078213e-01  2.396705067497240e-02 -2.156803175508840e-18
 9.713438403412826e-02  5.162278022646998e-02 -2.259027543719943e-18
 1.059813931334937e-01 -2.946089458050747e-02 -1.583365320479256e-18
 1.073419573341053e-01 -2.403547785426859e-02 -1.663322369332021e-18
 8.217844171786259e-02  7.312115779187166e-02 -2.213756729846144e-18
 1.081623506271894e-01 -2.002263486159790e-02 -1.719152750581431e-18
 1.081623506271894e-01 -2.002263486159790e-02 -1.719152750581431e-18
 1.099340292268452e-01 -3.809096736902599e-03 -1.917270098912933e-18
 1.099995294782458e-01 -3.217367937582849e-04 -1.954267110575674e-18
 1.099999284091687e-01  1.254989150978672e-04 -1.958869394467845e-18
 1.099658687207225e-01  2.740021258445544e-03 -1.985126528980679e-18
 1.099936284314699e-01 -1.183936011648387e-03 -1.945303310657803e-18
 1.099883706411253e-01  1.599476073708133e-03 -1.973808290049824e-18
 1.099999381216824e-01  1.166757300506203e-04 -1.958778912292462e-18
 1.099851214116221e-01  1.809162256590158e-03 -1.975904915491103e-18
 1.099949023692060e-01  1.058986680158747e-03 -1.968371197767988e-18
 1.099949023692060e-01  1.058986680158747e-03 -1.968371197767988e-18
 1.099774524658795e-01  2.227094321115613e-03 -1.980062537593980e-18
 1.099903745539763e-01 -1.455165102635757e-03 -1.942458623646327e-18
 1.099369317026017e-01  3.724385562401250e-03 -1.994725545857599e-18
 1.098235896993345e-01 -6.227290386047296e-03 -1.890458634499572e-18
 1.098510854239782e-01  5.721803140075472e-03 -2.013720548934188e-18
 1.085209615334057e-01  1.797778929304179e-02 -2.115975213144227e-18
 1.099633680196978e-01  2.838607715841228e-03 -1.986094966059095e-18
 1.063458491738832e-01 -2.811690529709143e-02 -1.603660252111066e-18
 1.096198741696608e-01  9.136913430019490e-03 -2.044694886481983e-18
 1.046092364251274e-01  3.401334524200362e-02 -2.211120910883878e-18
 9.627223837426922e-02 -5.321330771910171e-02 -1.166531913614113e-18
 1.094653126737614e-01 -1.083260454533336e-02 -1.836764737453638e-18
 1.094653126737614e-01 -1.083260454533336e-02 -1.836764737453638e-18
 1.087858244140258e-01  1.629860136823629e-02 -2.103435718118381e-18
 1.099983451907198e-01  6.033699554866738e-04 -1.963751170550109e-18
 1.094445169941986e-01 -1.104072913835422e-02 -1.834256248942264e-18
 1.099984749037973e-01 -5.792398800306782e-04 -1.951602592497487e-18
 1.099966732943572e-01  8.554906044925465e-04 -1.966311865240331e-18
 1.099812860185581e-01 -2.028971587786431e-03 -1.936401229129948e-18
 1.098769082541940e-01 -5.202406414281726e-03 -1.901937812282786e-18
 1.098769082541940e-01 -5.202406414281726e-03 -1.901937812282786e-18
 1.099999624769027e-01 -9.085747041415770e-05 -1.956647017478769e-18
 1.089412410466796e-01 -1.522517649188898e-02 -1.782306176659531e-18
 1.099432633226964e-01  3.532541571752902e-03 -1.992867097277346e-18
 1.026472626092403e-01 -3.954161704874486e-02 -1.420454729382747e-18
 1.091833105497938e-01  1.337926370871012e-02 -2.080514324103365e-18
 8.759674020325578e-02 -6.653428519014269e-02 -8.752728707678437e-19
 1.047898581594000e-01  3.345273721136689e-02 -2.208575246236755e-18
 1.022291300487017e-01 -4.061040469492466e-02 -1.402032156896921e-18
-7.751131978207141e-03  1.097265690389358e-01 -9.894599969091733e-19
 1.094996489047921e-01  1.047983252381421e-02 -2.056353340328344e-18
 1.094996489047921e-01  1.047983252381421e-02 -2.056353340328344e-18
 1.086243736716530e-01  1.734201385194431e-02 -2.111283193800584e-18
 1.088603358075436e-01  1.579326716891627e-02 -2.099569611921908e-18
 1.099537806397893e-01  3.188435826077911e-03 -1.989518703947504e-18
 1.096315510000350e-01  8.995722612811476e-03 -2.043452005250900e-18
 1.091773028672181e-01  1.342819938188536e-02 -2.080910206490649e-18
 1.097299491341473e-01 -7.703133324652978e-03 -1.873628438880973e-18
 1.088096053602009e-01 -1.613907622378915e-02 -1.770573574846308e-18
 1.098340606030941e-01 -6.039795645200890e-03 -1.892571417072833e-18
 1.098345780064959e-01 -6.030379269572323e-03 -1.892677374722433e-18
 1.099190468907150e-01 -4.219375621666963e-03 -1.912788003871568e-18
 1.099190468907150e-01 -4.219375621666963e-03 -1.912788003871568e-18
 1.099946023137740e-01 -1.089707224276057e-03 -1.946288808614717e-18
 1.099289643265399e-01 -3.952569049904217e-03 -1.915705837073671e-18
 1.099858120821154e-01  1.766675023176950e-03 -1.975480665907471e-18
 1.099846365145243e-01  1.838404408147953e-03 -1.976196738653260e-18
 1.099574440033930e-01  3.059494768849317e-03 -1.988259075350230e-18
 1.052053301770292e-01 -3.212224310882098e-02 -1.542209965111059e-18
 1.098422163669124e-01  5.889609800686142e-03 -2.015286865962715e-18
 4.640609070353825e-02  9.973201464732827e-02 -1.850561959966875e-18
 1.091657140547463e-01 -1.352208840813087e-02 -1.803799552976526e-18
 1.097887597667482e-01 -6.813826302392929e-03 -1.883812350833847e-18
 1.098377400318816e-01  5.972509078160925e-03 -2.016058964202391e-18
 1.098349089652416e-01 -6.024348313055592e-03 -1.892745230415429e-18
 1.098349089652416e-01 -6.024348313055592e-03 -1.892745230415429e-18
 1.099857538995601e-01 -1.770293519537489e-03 -1.939138563582765e-18
 1.099977963185534e-01  6.962794424322955e-04 -1.964696013942194e-18
 1.099987482263386e-01  5.247748455271067e-04 -1.962950806846229e-18
 1.099874480914460e-01  1.661704646256437e-03 -1.974431248154895e-18
 1.099698688746187e-01  2.574478529546619e-03 -1.983496825088326e-18
 1.099257965597428e-01  4.039709235323732e-03 -1.997767218899140e-18
 1.098916940321580e-01  4.880121181127523e-03 -2.005795251187277e-18
 1.098804370835295e-01  5.127333257400448e-03 -2.008134934637275e-18
 1.098804370835295e-01  5.127333257400448e-03 -2.008134934637275e-18
 1.098937115555519e-01  4.834476243099585e-03 -2.005362170265925e-18
 1.098504020330014e-01  5.734908298123589e-03 -2.013843037914793e-18
 1.098504020330014e-01  5.734908298123589e-03 -2.013843037914793e-18
 1.098504020330014e-01  5.734908298123589e-03 -2.013843037914793e-18
 1.098504020330014e-01  5.734908298123589e-03 -2.013843037914793e-18
 1.097159721051204e-01  7.899712971265129e-03 -2.033693278599145e-18
 1.099999485932066e-01  1.063460946491289e-04 -1.958672965394437e-18
 1.099999485932066e-01  1.063460946491289e-04 -1.958672965394437e-18
 1.091242432684250e-01  1.385278062677442e-02 -2.084328365691339e-18
 1.091242432684250e-01  1.385278062677442e-02 -2.084328365691339e-18
 1.059491689776951e-01 -2.957657169003436e-02 -1.581603312910257e-18
 1.059491689776951e-01 -2.957657169003436e-02 -1.581603312910257e-18
 9.129361786783048e-02  6.136346907242504e-02 -2.255166182050717e-18
 1.099020686207285e-01  4.640615571732673e-03 -2.003519046235162e-18
 1.099020686207285e-01  4.640615571732673e-03 -2.003519046235162e-18
 1.098578327158900e-01 -5.590759426718308e-03 -1.897608154199314e-18
 1.099223911234813e-01 -4.131335098527237e-03 -1.913752102875442e-18
 1.099965470140997e-01  8.715761440508239e-04 -1.966474891008060e-18
 1.098631354986171e-01 -5.485568194127635e-03 -1.898783325245229e-18
 1.097795959444294e-01  6.959907634282514e-03 -2.025169382279855e-18
 1.096170637214064e-01 -9.170569289692740e-03 -1.856542136843447e-18
 1.097929281699069e-01 -6.746326695143196e-03 -1.884580066484118e-18
 1.099998568263936e-01 -1.774772459694588e-04 -1.955755150574595e-18
 1.068895632570141e-01  2.597347236556383e-02 -2.169095273780389e-18
 6.851297842299373e-02 -8.605795598089884e-02 -3.350559409700141e-19
 1.097138715400892e-01 -7.928832933334613e-03 -1.871023337427679e-18
 1.095254842159022e-01  1.020628763420322e-02 -2.054002536137317e-18
 1.099746330268474e-01  2.362221541297792e-03 -1.981400745412768e-18
 1.099826447687711e-01 -1.953931847898295e-03 -1.937196415778321e-18
 1.099999446230188e-01 -1.103763231664423e-04 -1.956446150626220e-18
 1.099999446230188e-01 -1.103763231664423e-04 -1.956446150626220e-18
 1.099982778539654e-01 -6.155234859423929e-04 -1.951226284890737e-18
 1.099988215447740e-01 -5.091745878232545e-04 -1.952328656811869e-18
 1.099964682104064e-01 -8.814653918190558e-04 -1.948461623651199e-18
 1.099924595797594e-01 -1.287957916593251e-03 -1.944213722262238e-18
 1.099910814152716e-01 -1.400717351577756e-03 -1.943030633949061e-18
 1.099910814152716e-01 -1.400717351577756e-03 -1.943030633949061e-18
 1.099319854715964e-01  3.867631093141273e-03 -1.996109317568127e-18
 1.092626979804342e-01 -1.271466987524015e-02 -1.813821429734117e-18
 1.099561801786093e-01 -3.104583793220590e-03 -1.924902916089088e-18
 1.099984320153064e-01 -5.873279951985811e-04 -1.951518726800465e-18
 1.095447691822846e-01 -9.997176841484608e-03 -1.846762476971983e-18
 1.099951049997485e-01  1.037726406268756e-03 -1.968156362229228e-18
 1.099951049997485e-01  1.037726406268756e-03 -1.968156362229228e-18
 1.099972101154631e-01  7.834327122474508e-04 -1.965581049946011e-18
 1.099972101154631e-01  7.834327122474508e-04 -1.965581049946011e-18
 1.099965799702166e-01  8.674069723608189e-04 -1.966432640776899e-18
 1.099965799702166e-01  8.674069723608189e-04 -1.966432640776899e-18
 1.098553839499309e-01  5.638671582318070e-03 -2.012942899774346e-18
 1.099957980782131e-01  9.614598987698303e-04 -1.967385085728132e-18
 1.099996471061620e-01 -2.786333070415832e-04 -1.954712076572502e-18
 1.099955456508287e-01 -9.899176614409958e-04 -1.947330897930290e-18
 1.099907553359360e-01  1.426092784581083e-03 -1.972069278227963e-18
 1.099907553359360e-01  1.426092784581083e-03 -1.972069278227963e-18
 1.095358438694593e-01  1.009449888827523e-02 -2.053038309775057e-18
 1.099986900291352e-01  5.368350530494674e-04 -1.963073685408738e-18
 1.099998780505953e-01  1.637951590755755e-04 -1.959261978271900e-18
 1.099745935190361e-01  2.364060135182778e-03 -1.981418933208398e-18
 1.099745935190361e-01  2.364060135182778e-03 -1.981418933208398e-18
 1.099792458871188e-01  2.136697007209028e-03 -1.979165654102577e-18
 1.099346918354642e-01  3.789924938766987e-03 -1.995359078033653e-18
 1.098007990523643e-01 -6.616987793724338e-03 -1.886049048453126e-18
 1.099270355388916e-01  4.005852921815318e-03 -1.997441406688735e-18
 1.095207291242348e-01 -1.025718733844444e-02 -1.843663142061093e-18
 1.097294828561299e-01  7.709772508073883e-03 -2.031982149270222e-18
 1.098517251455383e-01 -5.709508082932678e-03 -1.896279363394923e-18
 1.094174182137251e-01  1.130613070164798e-02 -2.063379860699201e-18
 1.096226194655404e-01 -9.103916822625426e-03 -1.857325837823623e-18
 1.096682498507300e-01  8.536684056343660e-03 -2.039388650662881e-18
 1.099991717468757e-01 -4.268664912181185e-04 -1.953180574868440e-18
 1.099965832011794e-01  8.669971545411553e-04 -1.966428487546513e-18
 1.099496421470654e-01 -3.328091304672432e-03 -1.922490105532645e-18
 1.090793564757510e-01  1.420190095853431e-02 -2.087116636256188e-18
 1.098984873166568e-01  4.724667767217584e-03 -2.004318918432117e-18
 1.099005582099201e-01  4.676249046823075e-03 -2.003858287685075e-18
 1.014046752919867e-01 -4.262736009802533e-02 -1.366636516991378e-18
 1.091353160800978e-01  1.376527457398198e-02 -2.083626326679193e-18
 1.089478221699196e-01  1.517801187348151e-02 -2.094805011441983e-18
 1.050719463331985e-01 -3.255589184392615e-02 -1.535380657283078e-18
 1.095874635813964e-01  9.517763697217843e-03 -2.048031199546508e-18
 1.098996251251925e-01  4.698127003617639e-03 -2.004066470387750e-18
 1.055453975289274e-01 -3.098659485101023e-02 -1.559930242585535e-18
 1.099659762057155e-01  2.735704136776867e-03 -1.985084084947482e-18
 1.096410101766149e-01  8.879689603324799e-03 -2.042428145560455e-18
 1.099701690063859e-01 -2.561626184066227e-03 -1.930730556158918e-18
 1.099863550325681e-01  1.732543404894055e-03 -1.975139638379618e-18
 1.092825259212460e-01  1.254310680302779e-02 -2.073688771532772e-18
 1.099710589640036e-01 -2.523131057953606e-03 -1.931141917452933e-18
 1.099996229811026e-01  2.880000264806621e-04 -1.960533598898526e-18
 1.097025416515813e-01 -8.084080354811384e-03 -1.869226597688181e-18
 1.098108572358280e-01 -6.447916960736455e-03 -1.887965187216045e-18
 1.098960933527015e-01  4.780027804759874e-03 -2.004845119262936e-18
 1.088591710070251e-01  1.580129386041626e-02 -2.099631354246551e-18
 1.087635899740778e-01  1.644632165411573e-02 -2.104557802012158e-18
 1.097862925824387e-01  6.853463431223665e-03 -2.024194881422978e-18
 8.535526679979497e-02 -6.938644269261668e-02 -8.060782955964443e-19
 1.081603512545078e-01  2.003343246928672e-02 -2.130678709959185e-18
 1.094588787645137e-01  1.089742444871507e-02 -2.059918392378844e-18
 1.041666907429698e-01 -3.534544581213348e-02 -1.490608900568960e-18
 1.093869379717384e-01 -1.159731870593422e-02 -1.827512805941050e-18
 1.086649395055450e-01  1.708598613648686e-02 -2.109374519434602e-18
 1.096519702834582e-01  8.743306751770440e-03 -2.041221909479696e-18
 1.099552949052803e-01  3.135780970159756e-03 -1.989004642591643e-18
 1.099539474438068e-01 -3.182678357068338e-03 -1.924060788635963e-18
 1.099954332202382e-01  1.002332625468458e-03 -1.967798545064185e-18
 1.099866456055662e-01  1.713997793330427e-03 -1.974954260051001e-18
 1.099871630494653e-01  1.680465510002518e-03 -1.974618936552541e-18
 1.099626165360245e-01 -2.867571193748007e-03 -1.927452677106527e-18
 1.099875729043893e-01  1.653422692965867e-03 -1.974348375288638e-18
 1.097918851332111e-01  6.763280187583316e-03 -2.023367807467599e-18
 1.099951982877880e-01 -1.027790654835627e-03 -1.946935584941680e-18
 1.099951982877880e-01 -1.027790654835627e-03 -1.946935584941680e-18
 1.099923350717711e-01  1.298547442024531e-03 -1.970786909450339e-18
 1.099890521362047e-01 -1.551905338352853e-03 -1.941441118865615e-18
 1.099906167765810e-01 -1.436739749315354e-03 -1.942652248098474e-18
 1.099992013030061e-01 -4.191809880283136e-04 -1.953260066608389e-18
 9.852772616438653e-02  4.891101283837434e-02 -2.255961304161507e-18
 1.025823410367656e-01 -3.970973819375648e-02 -1.417571988867921e-18
 1.098729425401098e-01 -5.285498801218341e-03 -1.901013493579501e-18
 1.099587455954111e-01  3.012352416902564e-03 -1.987797868192004e-18
 1.092268786989295e-01 -1.301879294286923e-02 -1.810059228852291e-18
 1.070092922813853e-01  2.547570147095114e-02 -2.166111579470830e-18
 1.084575386395510e-01  1.835653323071261e-02 -2.118737983467229e-18
 1.019462746835008e-01 -4.131533708147826e-02 -1.389755484081042e-18
 1.099094473482002e-01  4.462441440868607e-03 -2.001819685023130e-18
 1.099719100719805e-01  2.485758459747137e-03 -1.982621584142485e-18
 1.098531185111706e-01 -5.682636128653970e-03 -1.896580259566816e-18
 1.099479571448050e-01 -3.383300117355403e-03 -1.921892868412946e-18
 1.098496968613775e-01  5.748399730658636e-03 -2.013969108112832e-18
 1.034216789859047e-01 -3.746940506248311e-02 -1.455527617946189e-18
 1.086434414260174e-01  1.722215535615370e-02 -2.110391024731259e-18
 1.099999834986735e-01 -6.025190054044303e-05 -1.956961852698580e-18
 1.099870680033666e-01 -1.686674842041122e-03 -1.940021101162518e-18
 1.083371231466658e-01 -1.905433673220182e-02 -1.732211947566210e-18
 1.096660306382879e-01  8.565145885626336e-03 -2.039641592086812e-18
 1.094415745428417e-01 -1.106985824586699e-02 -1.833904593512564e-18
 1.079607364862793e-01  2.108267955787713e-02 -2.137906959723210e-18
 1.096752159205131e-01 -8.446716094956118e-03 -1.865014353213732e-18
 1.090331070981486e-01  1.455271646544460e-02 -2.089898075305748e-18
 1.096036010136312e-01 -9.330093506750988e-03 -1.854663498520007e-18
 1.097137242689377e-01  7.930870509563381e-03 -2.033973408060330e-18
 1.096739259234563e-01 -8.463449210351467e-03 -1.864819469495317e-18
 1.099851733736750e-01  1.806000543362137e-03 -1.975873354762960e-18
 1.082884863554259e-01  1.932883138864588e-02 -2.125719506782970e-18
 1.099539575127104e-01 -3.182330481430332e-03 -1.924064542119922e-18
 1.099903262661664e-01 -1.458810427097387e-03 -1.942420309922551e-18
 1.099903262661664e-01 -1.458810427097387e-03 -1.942420309922551e-18
 1.099738827392293e-01 -2.396897006174735e-03 -1.932489178926197e-18
 1.098432759668675e-01  5.869814721654249e-03 -2.015102335561787e-18
 1.062499920906398e-01  2.847699388522136e-02 -2.183436116123269e-18
 1.094252630802729e-01 -1.122995101561077e-02 -1.831969416527151e-18
 1.099996800293184e-01  2.653176351783799e-04 -1.960301560808810e-18
 1.099994894415633e-01 -3.351456330698069e-04 -1.954128627122273e-18
 1.099945890902992e-01  1.091041179879290e-03 -1.968694970936293e-18
 1.098436582056710e-01 -5.862657417561990e-03 -1.894562248798854e-18
 1.099270838074333e-01  4.004528136184702e-03 -1.997428653993913e-18
 1.096937902691865e-01  8.201973931907379e-03 -2.036404147937074e-18
 1.099889781048722e-01 -1.557143360743116e-03 -1.941385982612511e-18
 1.082237685936800e-01 -1.968796361693048e-02 -1.723684382019586e-18
 1.094631772310090e-01 -1.085416189729480e-02 -1.836505240742376e-18
 1.087834794638231e-01 -1.631424517849187e-02 -1.768308835980477e-18
 1.055243942964919e-01 -3.105804579104229e-02 -1.558822332558038e-18
 1.032107342769156e-01  3.804660733915546e-02 -2.227673199842005e-18
 4.226767565076393e-02  1.015551258926982e-01 -1.795645733384518e-18
 1.071650752838142e-01 -2.481222761894598e-02 -1.652193720593489e-18
 8.102971908673526e-02 -7.439210055324917e-02 -6.776686982370063e-19
 1.083294893542142e-01  1.909768929098933e-02 -2.124074302970456e-18
 1.089913450542202e-01  1.486225767748235e-02 -2.092335293424678e-18
 3.818328277152361e-02 -1.031602487239626e-01  3.804170168789186e-19
 1.099807659865574e-01  2.056966944327041e-03 -1.978373508652870e-18
 1.083662399725735e-01  1.888803944846016e-02 -2.122574248089697e-18
 1.099948678312414e-01  1.062568015565106e-03 -1.968407380044012e-18
 1.091494774903431e-01  1.365252956726544e-02 -2.082719931879878e-18
 1.095553312322859e-01 -9.880759008501624e-03 -1.848146592193251e-18
 1.099235217865041e-01 -4.101141067059240e-03 -1.914082457077341e-18
 1.098523106836794e-01 -5.698231081340767e-03 -1.896405650839343e-18
 1.099654572470907e-01  2.756485522950142e-03 -1.985288370653364e-18
 1.099654572470907e-01  2.756485522950142e-03 -1.985288370653364e-18
 1.099654572470907e-01  2.756485522950142e-03 -1.985288370653364e-18
 1.090069416915247e-01 -1.474742903222467e-02 -1.788384079601157e-18
 1.097726299901808e-01 -7.068925310033073e-03 -1.880904252586218e-18
 1.097733384760169e-01  7.057914694142502e-03 -2.026065010102171e-18
 1.079166780758025e-01  2.130705500728718e-02 -2.139428263987499e-18
 1.089248691103623e-01  1.534186720351838e-02 -2.096080088359930e-18
 1.093060188290898e-01 -1.233670327658968e-02 -1.818475845407585e-18
 1.084319078523869e-01  1.850733258715120e-02 -2.119831261642441e-18
 1.098814168155032e-01 -5.106294019894376e-03 -1.903005567446733e-18
 1.034875352275457e-01  3.728712985102843e-02 -2.224795847644569e-18
 1.081040749388868e-01 -2.033492025082763e-02 -1.714907046264357e-18
 1.070583870623831e-01  2.526859235495572e-02 -2.164857308731034e-18
 1.045526944491916e-01 -3.418675303994133e-02 -1.509383444277348e-18
 1.059301479816381e-01  2.964462427807462e-02 -2.189741086799514e-18
 1.039676867451454e-01 -3.592659339351929e-02 -1.481096306762695e-18
 1.038861346540732e-01  3.616173428689131e-02 -2.220326369308792e-18
 1.070208457472886e-01 -2.542712283242078e-02 -1.643309159003214e-18
 1.059486436283062e-01  2.957845353161887e-02 -2.189390358512487e-18
 1.081485360383328e-01 -2.009711802138305e-02 -1.718141616084903e-18
 1.055777577859865e-01  3.087615683474106e-02 -2.196123432560794e-18
 1.054182841264279e-01 -3.141632333421113e-02 -1.553252803904896e-18
 1.086734916026596e-01  1.703150677088306e-02 -2.108966958513287e-18
 1.070449095462469e-01 -2.532562615683549e-02 -1.644780244480810e-18
 1.095048389962199e-01  1.042546096879752e-02 -2.055887056220105e-18
 1.080814460321401e-01  2.045485330188282e-02 -2.133604443370369e-18
 1.041497569363049e-01 -3.539531226177518e-02 -1.489795183624971e-18
 1.094876543585022e-01 -1.060441149112569e-02 -1.839506935119691e-18
 1.024874903202920e-01  3.995390253589778e-02 -2.234398976197921e-18
 1.098916205062762e-01 -4.881776572574881e-03 -1.905493989505872e-18
 1.098916205062762e-01 -4.881776572574881e-03 -1.905493989505872e-18
 1.095041597861981e-01  1.043259265565236e-02 -2.055948244359269e-18
 1.099137832071316e-01  4.354338192612460e-03 -2.000786125199804e-18
 1.072286457433817e-01 -2.453604556647859e-02 -1.656162703011132e-18
 1.091668712040395e-01 -1.351274330107068e-02 -1.803916163408729e-18
 1.032584632882420e-01  3.791687960988804e-02 -2.227189689239940e-18
 1.099408357963510e-01 -3.607301539898599e-03 -1.919464602279244e-18
 1.099408357963510e-01 -3.607301539898599e-03 -1.919464602279244e-18
 1.099877642103599e-01 -1.640647435079974e-03 -1.940506405882513e-18
 1.099791578735889e-01  2.141222411654585e-03 -1.979210584683553e-18
 1.098793327712002e-01  5.150944549866907e-03 -2.008357879534889e-18
 1.098375929224390e-01 -5.975213887765356e-03 -1.893297833006020e-18
 1.099112259729358e-01  4.418416585859689e-03 -2.001398998379677e-18
 1.098160691605774e-01 -6.358533959903385e-03 -1.888976317497238e-18
 1.098015902873492e-01  6.603845120009423e-03 -2.021902384861100e-18
 1.099905945937973e-01 -1.438436965219479e-03 -1.942634415052511e-18
 1.099874173576709e-01 -1.663737656445603e-03 -1.940262989588657e-18
 1.086296596494488e-01 -1.730887184206108e-02 -1.755352001252056e-18
 1.075624094837868e-01  2.302885290330693e-02 -2.150814479707305e-18
 1.099582828072108e-01  3.029198258518107e-03 -1.987962717226932e-18
 1.018839921605484e-01 -4.146868868712021e-02 -1.387071460252109e-18
 1.053991816854183e-01 -3.148035101526274e-02 -1.552254992017537e-18
 1.069473441025450e-01  2.573452135579372e-02 -2.167668418028788e-18
 1.099843609875628e-01  1.854814857998104e-03 -1.976360446733081e-18
 1.099978109376683e-01 -6.939660805473634e-04 -1.950412006394658e-18
 1.098883688887296e-01 -4.954430640796040e-03 -1.904689628935135e-18
 1.099996838825602e-01  2.637152570344825e-04 -1.960285165528514e-18
 1.099996838825602e-01  2.637152570344825e-04 -1.960285165528514e-18
 3.216778274559080e-02  1.051914148266503e-01 -1.653267639385046e-18
 1.099479044222814e-01 -3.385013020481914e-03 -1.921874330695374e-18
 1.099479044222814e-01 -3.385013020481914e-03 -1.921874330695374e-18
 1.099668221784745e-01 -2.701484770957788e-03 -1.929233999190316e-18
 1.099989192817044e-01 -4.876031757997368e-04 -1.952552034579394e-18
 1.099861930302675e-01 -1.742797380275342e-03 -1.939428891279872e-18
 1.099935201589246e-01  1.193952699318305e-03 -1.969733326504834e-18
 1.099546627326152e-01 -3.157870066485109e-03 -1.924328414227137e-18
 1.099988984140167e-01  4.922882314229213e-04 -1.962619691456650e-18
 1.099865602805677e-01 -1.719464349441484e-03 -1.939675165352631e-18
 1.099961412170785e-01  9.213671105878238e-04 -1.966979253459549e-18
 1.099888776177607e-01 -1.564225170884719e-03 -1.941311431297910e-18
 1.099983850136554e-01 -5.960657577726926e-04 -1.951428113013751e-18
 1.099056473711465e-01 -4.555071451597928e-03 -1.909100390733487e-18
 1.099961434944274e-01  9.210951923063197e-04 -1.966976500126126e-18
 1.097878966809087e-01  6.827718680648629e-03 -2.023958910308864e-18
 1.099241752174649e-01 -4.083589445578348e-03 -1.914274422195442e-18
 1.099967852709235e-01  8.409697154493159e-04 -1.966164661137004e-18
 1.094549689942200e-01  1.093662482095447e-02 -2.060251582937107e-18
 1.008818648293263e-01 -4.385030613983800e-02 -1.344767154859189e-18
 1.094549689942230e-01  1.093662482092343e-02 -2.060251582936844e-18
 1.099409489323137e-01 -3.603851809153771e-03 -1.919502060398869e-18
 1.085897302507310e-01  1.755763321388863e-02 -2.112882083416731e-18
 1.096368405018147e-01  8.931024844866235e-03 -2.042881392181827e-18
 1.099992933510653e-01 -3.942870353399227e-04 -1.953517481034014e-18
 1.099998303287702e-01  1.932036276475088e-04 -1.959563290336418e-18
 1.099999036288358e-01  1.456078528139516e-04 -1.959075565502292e-18
 1.099999036288358e-01  1.456078528139516e-04 -1.959075565502292e-18
 1.098691282389944e-01 -5.364201711658662e-03 -1.900136969727034e-18
 1.099289593638736e-01  3.952707069312543e-03 -1.996929589121014e-18
 1.096127640506374e-01  9.221819624090223e-03 -2.045440733732786e-18
 1.099958388890975e-01  9.567795376526207e-04 -1.967337722996264e-18
 1.099963025633240e-01 -9.018993278908251e-04 -1.948248724493703e-18
 1.099963025633240e-01 -9.018993278908251e-04 -1.948248724493703e-18
 1.099977132484979e-01  7.092813977493930e-04 -1.964828125979110e-18
 1.099978782781194e-01  6.832088348368997e-04 -1.964563176765570e-18
 1.099978782781194e-01  6.832088348368997e-04 -1.964563176765570e-18
 1.099980064236824e-01  6.622558535046703e-04 -1.964350172997152e-18
 1.099876246000316e-01  1.649980255181332e-03 -1.974313925476561e-18
 1.099876246000316e-01  1.649980255181332e-03 -1.974313925476561e-18
 1.099876246000316e-01  1.649980255181332e-03 -1.974313925476561e-18
 1.097507628824547e-01  7.400678801243827e-03 -2.029185027169643e-18
 1.066017559552295e-01 -2.713052943201925e-02 -1.618349072233217e-18
 1.017973497288173e-01 -4.168092595167280e-02 -1.383348894035080e-18
 7.764601498771344e-02  7.791724043193358e-02 -2.182374796555619e-18
 1.035081425837587e-01  3.722988609786818e-02 -2.224574421361023e-18
 1.062075438422673e-01 -2.863490232204110e-02 -1.595876712500557e-18
 1.062075438422673e-01 -2.863490232204110e-02 -1.595876712500557e-18
 1.099715044995527e-01 -2.503636975449445e-03 -1.931350140905569e-18
 1.099734696254589e-01  2.415777005070098e-03 -1.981930304232394e-18
 1.099999980031181e-01 -2.095981809251864e-05 -1.957365822695934e-18
 1.099999980031181e-01 -2.095981809251864e-05 -1.957365822695934e-18
 1.571425436650145e-02  1.088717695718447e-01 -1.398271783439166e-18
 1.096724622506155e-01 -8.482394938180487e-03 -1.864598761220184e-18
 1.096724622506155e-01 -8.482394938180487e-03 -1.864598761220184e-18
 1.099899742742191e-01 -1.485112506366744e-03 -1.942143801496278e-18
 1.091625489078124e-01  1.354761661508920e-02 -2.081874610874163e-18
 1.099493411797518e-01 -3.338019493427671e-03 -1.922382740927462e-18
 1.062464176067293e-01 -2.849032723112249e-02 -1.598053974048651e-18
 1.093841083703826e-01  1.162397677287591e-02 -2.066052825220969e-18
 1.052062601653350e-01  3.211919709494330e-02 -2.202283976375449e-18
 1.081408918087605e-01 -2.013821041716282e-02 -1.717583368462353e-18
 1.094619689827242e-01 -1.086634006577579e-02 -1.836358612265737e-18
 1.098738877008356e-01  5.265814419834475e-03 -2.009441224197609e-18
 1.096438712348795e-01 -8.844291980092631e-03 -1.860371589351774e-18
 1.098023018973993e-01  6.592002581336511e-03 -2.021793371027972e-18
 1.079932196355982e-01 -2.091565233831829e-02 -1.706967432673761e-18
 1.097072944891540e-01  8.019322656558577e-03 -2.034767796137597e-18
 1.084258126535141e-01 -1.854300812772947e-02 -1.739043998793123e-18
 1.093559323538848e-01  1.188612884889523e-02 -2.068244916746557e-18
 1.091816264483199e-01 -1.339299989171608e-02 -1.805409070613150e-18
 1.048806443952945e-01  3.316700817420474e-02 -2.207255133538598e-18
 1.099950806039278e-01 -1.040309057630369e-03 -1.946804868575872e-18
 1.085353632818574e-01  1.789063769895337e-02 -2.115336058467378e-18
 9.403268709549312e-02 -5.707761170197161e-02 -1.086972107542112e-18
 1.094616232662174e-01  1.086982207419560e-02 -2.059683629689387e-18
 1.094887208374965e-01 -1.059339461026154e-02 -1.839639108834297e-18
 1.093756819999927e-01  1.170299906162674e-02 -2.066714793218916e-18
 1.080050294206984e-01 -2.085458270582357e-02 -1.707805070175870e-18
 1.098457679991694e-01  5.822993446038933e-03 -2.014665612651089e-18
 1.069990930942605e-01 -2.551850459971632e-02 -1.641983130132498e-18
 1.029015795048696e-01  3.887499113058380e-02 -2.230682764429038e-18
 1.098393216691245e-01  5.943350508472042e-03 -2.015787517612696e-18
 1.091511698891414e-01  1.363899233197852e-02 -2.082610959960377e-18
 1.099866583749208e-01  1.713178192257543e-03 -1.974946066193612e-18
 1.097671363078047e-01  7.153725377995977e-03 -2.026939055091930e-18
 1.099954650154369e-01  9.988373429999030e-04 -1.967763198140043e-18
 1.096485399225647e-01  8.786221761924199e-03 -2.041601798255244e-18
 1.099991617564116e-01  4.294332157014019e-04 -1.961978565495588e-18
 1.099385879793466e-01  3.675169806612740e-03 -1.994249347265904e-18
 1.099911433064249e-01  1.395848897790069e-03 -1.971765437675564e-18
 1.099677841357479e-01  2.662039119454451e-03 -1.984359377926395e-18
 1.099593479336782e-01  2.990284601884802e-03 -1.987581848737261e-18
 1.099582565720433e-01 -3.030150431360484e-03 -1.925704643740655e-18
 1.099545264796812e-01  3.162610729927412e-03 -1.989266633576623e-18
 1.099873860149522e-01 -1.665808391703985e-03 -1.940241155755049e-18
 1.097670359319463e-01  7.155265383952315e-03 -2.026953091785557e-18
 1.099922386962339e-01 -1.306685344935503e-03 -1.944017373853345e-18
 1.099489122365142e-01  3.352118435746069e-03 -1.991113844257104e-18
 1.090618601318290e-01 -1.433564315213409e-02 -1.793592369083341e-18
 1.080063809284548e-01  2.084758208372089e-02 -2.136303715875628e-18
 1.097376257187022e-01  7.592990295134553e-03 -2.030927166408544e-18
 1.050676039787101e-01 -3.256990319563322e-02 -1.535159418356341e-18
 1.099884819860889e-01 -1.591800991252915e-03 -1.941021059023610e-18
 1.095720924217830e-01  9.693119328276406e-03 -2.049559366833238e-18
 1.098902695003269e-01 -4.912094171073468e-03 -1.905158444432410e-18
 1.099478393613097e-01  3.387125592534674e-03 -1.991454436981971e-18
 1.099292162172211e-01 -3.945557231547478e-03 -1.915782363655231e-18
 1.095438579644067e-01  1.000715655287971e-02 -2.052283519386992e-18
 1.099087947994989e-01 -4.478484757327515e-03 -1.909943303437275e-18
 1.098907453426397e-01  4.901437344194758e-03 -2.005997383957624e-18
 1.086784637726473e-01 -1.699975035161810e-02 -1.759396639859334e-18
 1.099986075375422e-01 -5.534797211510799e-04 -1.951869629147748e-18
 1.099389764813447e-01  3.663529750704243e-03 -1.994136663776424e-18
 1.099318022989076e-01 -3.872834015791249e-03 -1.916575590687260e-18
 1.099318022989076e-01 -3.872834015791249e-03 -1.916575590687260e-18
 1.056501924506131e-01  3.062738701143771e-02 -2.194856474257549e-18
 1.099814098533645e-01 -2.022247924025444e-03 -1.936472516120672e-18
 1.084778621924763e-01 -1.823604710868235e-02 -1.743124195386432e-18
 1.088800426958436e-01  1.565682926237759e-02 -2.098518469580743e-18
 1.099998729550883e-01  1.671821294373458e-04 -1.959296687481353e-18
 1.099999981155542e-01  2.036118950841493e-05 -1.957790383039226e-18
 1.099514819355712e-01 -3.266744583176129e-03 -1.923153162041550e-18
 1.098820991892030e-01  5.091588924305291e-03 -2.007797253752710e-18
 1.099685425950643e-01 -2.630520769256833e-03 -1.929993745394000e-18
 1.098783968873317e-01  5.170870088290822e-03 -2.008545952034013e-18
 1.099862207691902e-01 -1.741045924414063e-03 -1.939447380499810e-18
 1.099492890161383e-01  3.339737242008277e-03 -1.990993337232032e-18
 1.098265668847706e-01 -6.174561223679435e-03 -1.891053390054055e-18
 1.099822151810130e-01 -1.977964579388249e-03 -1.936941843166081e-18
 1.099776287964697e-01  2.218369740569067e-03 -1.979976033711443e-18
 1.096313438845828e-01  8.998246388064580e-03 -2.043474250258282e-18
 1.096816070411931e-01 -8.363317335917648e-03 -1.865984982782570e-18
 1.099962533890610e-01 -9.078768470690874e-04 -1.948186432540944e-18
 1.099701358109722e-01  2.563050861042471e-03 -1.983384160396616e-18
 1.099449711980605e-01  3.478980922283818e-03 -1.992347174740437e-18
 1.099612350142401e-01 -2.920067489463694e-03 -1.926888710910363e-18
 1.099408197300369e-01 -3.607791164617432e-03 -1.919459285643900e-18
 1.099912534735475e-01  1.387140698626223e-03 -1.971677924647955e-18
 1.099969975026525e-01 -8.127363664916500e-04 -1.949177208806028e-18
 1.099998007847865e-01  2.093497247544571e-04 -1.959728659848344e-18
 1.099842184356469e-01 -1.863248534114404e-03 -1.938156159163984e-18
 1.099414043181808e-01  3.589932665976453e-03 -1.993423686719092e-18
 1.099468608590864e-01  3.418740591600550e-03 -1.991761855998284e-18
 1.099603517844315e-01 -2.953139929641540e-03 -1.926533185473810e-18
 1.099661216327487e-01 -2.729852203230025e-03 -1.928930067081963e-18
 1.099800747899594e-01 -2.093597190222366e-03 -1.935715669283835e-18
 1.088823216077618e-01 -1.564097315718829e-02 -1.776985475273441e-18
 1.097329116872501e-01  7.660815402952935e-03 -2.031540152939666e-18
 1.089792639644756e-01  1.495058613436723e-02 -2.093027838829114e-18
 1.099930022189244e-01 -1.240750928941385e-03 -1.944708413822634e-18
 1.090372438161593e-01 -1.452168932925506e-02 -1.791242735497939e-18
 1.068713268521128e-01  2.604840680097063e-02 -2.169540659304263e-18
 1.098232345972389e-01 -6.233549759150891e-03 -1.890388002249411e-18
 1.091718307643350e-01  1.347261546854873e-02 -2.081269183047853e-18
 1.093413723661739e-01 -1.201932981000505e-02 -1.822365900847662e-18
 1.034428770834250e-01  3.741084308998360e-02 -2.225272211288558e-18
 1.080740864145105e-01 -2.049370258564531e-02 -1.712741933892311e-18
 1.093104966387471e-01 -1.229696403956787e-02 -1.818963839596029e-18
 1.051029099268407e-01 -3.245579031406248e-02 -1.536960198221973e-18
 1.093818299229744e-01  1.164539749005888e-02 -2.066232367619030e-18
 9.186148582647105e-02  6.051006050032519e-02 -2.256503606692782e-18
 1.055847987170366e-01 -3.085207091724679e-02 -1.562013618278094e-18
 9.064658564279406e-02 -6.231529917527134e-02 -9.728970570174310e-19
 8.236900549723931e-02  7.290642587176879e-02 -2.214941747139774e-18
 1.096865969045886e-01  8.297617699692617e-03 -2.037258838402843e-18
 1.075496690515443e-01 -2.308828029332766e-02 -1.676750957960197e-18
 1.077027467195715e-01 -2.236332598384671e-02 -1.686923799835114e-18
 1.060450987758477e-01  2.923075479047134e-02 -2.187534414662584e-18
 1.098948633871602e-01 -4.808222240845195e-03 -1.906307444477786e-18
 1.038063006758586e-01 -3.639027260124877e-02 -1.473460113733457e-18
 1.098273309374355e-01  6.160956026379865e-03 -2.017809945885861e-18
 1.058172603593069e-01  3.004508961628541e-02 -2.191846752775394e-18
 1.081613571306892e-01 -2.002800098980063e-02 -1.719079935108205e-18
 1.099997892893665e-01  2.153051205505425e-04 -1.959789644802014e-18
 1.099835051663157e-01 -1.904886172712319e-03 -1.937715654074588e-18
 1.099715496956801e-01  2.501650960969529e-03 -1.982778460493116e-18
 1.099575521931666e-01 -3.055603980721086e-03 -1.925430582505199e-18
 1.094388323166394e-01  1.109693566578031e-02 -2.061611547205268e-18
 1.099773459962693e-01 -2.232345765516231e-03 -1.934241515937348e-18
 1.099920536372278e-01  1.322171193590057e-03 -1.971024626452434e-18
 1.099999327202398e-01 -1.216615908150972e-04 -1.956329986776596e-18
 1.099999685623649e-01 -8.316416709500789e-05 -1.956726171673675e-18
 1.099999685623649e-01 -8.316416709500789e-05 -1.956726171673675e-18
 1.099999836183134e-01  6.003308053945269e-05 -1.958197739312211e-18
 1.099997261698704e-01  2.454435851647606e-04 -1.960098183290756e-18
 1.098973689286675e-01 -4.750610756136112e-03 -1.906943970654405e-18
 1.099979139960973e-01  6.774337658715128e-04 -1.964504475673892e-18
 1.042868527390707e-01  3.498931759522248e-02 -2.215411470023759e-18
 1.099364302307292e-01 -3.739158745488884e-03 -1.918031415096373e-18
 1.099364302307292e-01 -3.739158745488884e-03 -1.918031415096373e-18
 1.099396491189462e-01 -3.643288569815576e-03 -1.919073730279970e-18
 1.099312030496281e-01 -3.889806686893196e-03 -1.916390538301636e-18
 1.099722042064397e-01  2.472711462564456e-03 -1.982492765459591e-18
 1.097631789729498e-01 -7.214190304681425e-03 -1.879243515411623e-18
 1.099417381132309e-01  3.579695607412165e-03 -1.993324444942255e-18
 1.098369928529193e-01 -5.986234294421765e-03 -1.893173923378133e-18
 1.098418380767506e-01 -5.896660743241050e-03 -1.894180485614671e-18
 1.098426688749593e-01 -5.881164376719750e-03 -1.894354490196428e-18
 1.084672402549218e-01  1.829911996466061e-02 -2.118320734833172e-18
 1.096479255810986e-01 -8.793885134673943e-03 -1.860961653304251e-18
 1.099999671503197e-01 -8.501134369488050e-05 -1.956707167476109e-18
 8.442785165677794e-02  7.051196965495335e-02 -2.226979202639141e-18
 6.936309533893173e-02 -8.537424087511544e-02 -3.572097098830477e-19
 1.095138819858544e-01 -1.033003641757045e-02 -1.842792791242019e-18
 1.098515578826083e-01  5.712725335941389e-03 -2.013635685759311e-18
 1.099847092812940e-01 -1.834045885250623e-03 -1.938464940956364e-18
 1.099847092812940e-01 -1.834045885250623e-03 -1.938464940956364e-18
 1.098825013646433e-01 -5.082902108945309e-03 -1.903265211679766e-18
 1.098825013646433e-01 -5.082902108945309e-03 -1.903265211679766e-18
 1.095503014677522e-01  9.936369977238483e-03 -2.051670882865141e-18
 1.097434431971211e-01 -7.508440266807896e-03 -1.875868982270823e-18
 1.095782817697166e-01  9.622897920926009e-03 -2.048948014211544e-18
 1.099614409189678e-01 -2.912303388097628e-03 -1.926972148551664e-18
 1.099563857290732e-01  3.097295174700723e-03 -1.988628627534669e-18
 1.099529492479491e-01  3.216978656737567e-03 -1.989797175554218e-18
 1.099529492479491e-01  3.216978656737567e-03 -1.989797175554218e-18
-1.099107005346394e-01  4.431467926633401e-03  1.910460299122855e-18
-1.099508514119384e-01  3.287898080812473e-03  1.922924596617636e-18
-1.099690088652153e-01  2.610955610912733e-03  1.930203068122047e-18
-1.099579791897877e-01  3.040199417500557e-03  1.925596457710466e-18
-1.099579791897877e-01  3.040199417500557e-03  1.925596457710466e-18
-1.099565022845488e-01  3.093154594903636e-03  1.925026079209310e-18
-1.099565022845488e-01  3.093154594903636e-03  1.925026079209310e-18
-1.099565022845488e-01  3.093154594903636e-03  1.925026079209310e-18
-1.099603849019487e-01  2.951906539045924e-03  1.926546447479847e-18
-1.099603849019487e-01  2.951906539045924e-03  1.926546447479847e-18
-1.099335138825316e-01  3.823941087307987e-03  1.917108407438262e-18
-1.099335138825316e-01  3.823941087307987e-03  1.917108407438262e-18
-1.094916957857405e-01 -1.056260166638984e-02  2.057062227960297e-18
-1.099992548096266e-01  4.048966865869659e-04  1.953407784830757e-18
-1.098916957171187e-01  4.880083238651595e-03  1.905512726363450e-18
-1.098916957171187e-01  4.880083238651595e-03  1.905512726363450e-18
-1.099865942174212e-01  1.717292186056790e-03  1.939698087489112e-18
-1.090007109753397e-01 -1.479341092751838e-02  2.091794595817254e-18
-1.090007109753397e-01 -1.479341092751838e-02  2.091794595817254e-18
-1.069460362927080e-01  2.573995573575734e-02  1.638763591084480e-18
-1.088436091674635e-01  1.590813450409684e-02  1.773551555433062e-18
-1.074856135238480e-01 -2.338467201826730e-02  2.153103716141954e-18
-1.039767058933312e-01 -3.590048233062708e-02  2.219253923603432e-18
-1.055689894776381e-01  3.090612335234369e-02  1.561176904870140e-18
-1.090965069141702e-01  1.406954793610593e-02  1.796942981583177e-18
-1.096303650450694e-01  9.010164265139965e-03  1.858426953121138e-18
-1.074349531284011e-01 -2.361632584248071e-02  2.154582312865643e-18
-1.074159808999571e-01 -2.370246922369100e-02  2.155129771378094e-18
-1.036430020211491e-01  3.685279001709441e-02  1.465801820954768e-18
-1.073675025663397e-01 -2.392110768060290e-02  2.156513472323986e-18
-1.073527543234893e-01 -2.398720782334866e-02  2.156930164704540e-18
-1.098076715564452e-01  6.501943351937987e-03  1.887353392708062e-18
-1.043294548547413e-01  3.486208326696005e-02  1.498471856649844e-18
-9.765334237696381e-02 -5.063422481491597e-02  2.258105978726852e-18
-1.095902756993914e-01 -9.485329310643510e-03  2.047747993001078e-18
-1.094098659570798e-01  1.137898199549503e-02  1.830164167173962e-18
-1.099882560759046e-01 -1.607334869030021e-03  1.973886997492119e-18
-1.060263159891731e-01 -2.929881085921388e-02  2.187899403952294e-18
-1.099252693644092e-01  4.054029496938002e-03  1.914597611579456e-18
-1.047514630994909e-01  3.357277138569214e-02  1.519229207964663e-18
-1.099876401151177e-01  1.648945695683789e-03  1.940418935846468e-18
-1.068058240536850e-01 -2.631569775273396e-02  2.171121276301874e-18
-1.099572641687761e-01 -3.065951160399286e-03  1.988322212056460e-18
-1.099582930034884e-01  3.028828116443443e-03  1.925718878387092e-18
-1.099790386170233e-01  2.147339021965444e-03  1.935145051552158e-18
-1.099909922860617e-01  1.407698805670352e-03  1.942957315883814e-18
-1.099999820338275e-01  6.286936930324144e-05  1.956934933089211e-18
-1.099970499661460e-01 -8.056045836094959e-04  1.965806007821717e-18
-1.098810336326163e-01  5.114533001927529e-03  1.902914095702779e-18
-1.098967067489000e-01 -4.765904504523938e-03  2.004710923600640e-18
-1.099883769248606e-01  1.599043912704694e-03  1.940944770946958e-18
-1.099985638752283e-01 -5.620901949710789e-04  1.963330927758255e-18
-1.098449771354521e-01  5.837893293984825e-03  1.894840163101243e-18
-1.099994616722564e-01 -3.441392359847494e-04  1.961107538199076e-18
-1.099922896533602e-01 -1.302388886342100e-03  1.970825570620415e-18
-1.099569841999584e-01  3.075975560708277e-03  1.925211163804576e-18
-1.099998810688600e-01 -1.617554840423936e-04  1.959241075065512e-18
-1.099998810688600e-01 -1.617554840423936e-04  1.959241075065512e-18
-1.002177409880478e-01  4.534759520914561e-02  1.317564177643267e-18
-1.099998033321800e-01 -2.080069269827779e-04  1.959714908422948e-18
-1.099950940314045e-01  1.038888358986854e-03  1.946819704696299e-18
-1.099682848959108e-01 -2.641271862522957e-03  1.984154913530002e-18
-1.099682848959108e-01 -2.641271862522957e-03  1.984154913530002e-18
-1.099682848959108e-01 -2.641271862522957e-03  1.984154913530002e-18
-1.099682848959108e-01 -2.641271862522957e-03  1.984154913530002e-18
-1.099993132934525e-01 -3.886836359386277e-04  1.961562575149085e-18
-1.099910837669317e-01  1.400532675727694e-03  1.943032573276927e-18
-1.099870019898198e-01 -1.690974065842592e-03  1.974724041897828e-18
-1.099956468281217e-01 -9.786106800383587e-04  1.967558612099483e-18
-1.099562410368660e-01 -3.102427604730156e-03  1.988678786418334e-18
-1.099654586172791e-01  2.756430860993322e-03  1.928645181877559e-18
-1.099272635222721e-01 -3.999591792284743e-03  1.997381133093500e-18
-1.099098002743573e-01  4.453740411255186e-03  1.910215436228735e-18
-1.097735657015655e-01 -7.054379715045423e-03  2.026032733225787e-18
-1.097894767196394e-01  6.802264448529944e-03  1.883943903714109e-18
-1.098994542104815e-01 -4.702123375480441e-03  2.004104490025715e-18
-1.096237784149897e-01  9.089950826115896e-03  1.857489958252206e-18
-1.099191304997091e-01 -4.217196958632253e-03  1.999472210290049e-18
-1.098519853962870e-01  5.704498618978140e-03  1.896335465289772e-18
-1.098172851909244e-01 -6.337497400010366e-03  2.019445068325310e-18
-1.098553269384637e-01  5.639782198207328e-03  1.897059869732536e-18
-1.099504695482721e-01 -3.300643287975396e-03  1.990612670033572e-18
-1.098777173075777e-01  5.185290664563694e-03  1.902128068463512e-18
-1.099681830090292e-01 -2.645510478645250e-03  1.984196650572298e-18
-1.099248006170610e-01  4.066719722250091e-03  1.914458882206169e-18
-1.084666223913364e-01 -1.830278194743110e-02  2.118347364756329e-18
-1.095051901103533e-01  1.042177234904591e-02  1.841695555578568e-18
-1.099818662843933e-01 -1.997270287615080e-03  1.977779728303717e-18
-1.099888197190003e-01  1.568291051177920e-03  1.941268625477411e-18
-1.099930078366384e-01 -1.240252816632149e-03  1.970199926004521e-18
-1.099999359457366e-01  1.187094512461736e-04  1.956360376339801e-18
-1.099999359457366e-01  1.187094512461736e-04  1.956360376339801e-18
-1.099999359457366e-01  1.187094512461736e-04  1.956360376339801e-18
-1.099999317523053e-01 -1.225336204308816e-04  1.958838986637453e-18
-1.099999837797659e-01 -5.973651477553876e-05  1.958194695079962e-18
-1.099999837797659e-01 -5.973651477553876e-05  1.958194695079962e-18
-1.099952712422676e-01 -1.019953106733258e-03  1.967976706516962e-18
-1.099989174190352e-01  4.880231964288331e-04  1.952547685871590e-18
-1.099994461221173e-01 -3.490742433622052e-04  1.961157966873858e-18
-1.099973601289310e-01  7.620791731909310e-04  1.949704146432064e-18
-1.099941372779835e-01 -1.135677979048644e-03  1.969145557293383e-18
-1.099999997252178e-01 -7.775091419013397e-06  1.957661094099411e-18
-1.099847175795590e-01 -1.833548184427259e-03  1.976148285367647e-18
-1.099995822936369e-01  3.031422526842808e-04  1.954459102643229e-18
-1.099502544643025e-01  3.307800362037817e-03  1.922709484512730e-18
-1.099502544643025e-01  3.307800362037817e-03  1.922709484512730e-18
-9.856992706818322e-02 -4.882590990215139e-02  2.255837917829405e-18
-1.093209902279944e-01  1.220332313637245e-02  1.820112711797158e-18
-1.099705669665751e-01  2.544484436969131e-03  1.930913763559506e-18
-1.099611421815105e-01 -2.923561208114033e-03  1.986928220885402e-18
-1.099611421815105e-01 -2.923561208114033e-03  1.986928220885402e-18
-1.099825031124561e-01 -1.961889170811814e-03  1.977427533296525e-18
-1.095295557785988e-01  1.016250023088675e-02  1.844793098537347e-18
-1.099914106024366e-01 -1.374624925632666e-03  1.971552125923079e-18
-1.006990747111284e-01 -4.426845775857284e-02  2.246902474691791e-18
-1.098814092862574e-01  5.106456037796464e-03  1.903003768779734e-18
-1.098814092862574e-01  5.106456037796464e-03  1.903003768779734e-18
-1.099998624992776e-01 -1.739256737499492e-04  1.959365788875805e-18
-1.099967356690832e-01 -8.474326792235712e-04  1.966230183018058e-18
-1.099253556822256e-01 -4.051688306885960e-03  1.997882453566471e-18
-1.099955061713844e-01  9.942947756550033e-04  1.947285222088019e-18
-1.099976269414978e-01 -7.225422057090780e-04  1.964962840027606e-18
-1.099998205849183e-01  1.986738174547453e-04  1.955536718542409e-18
-1.099748708102685e-01 -2.351125318805230e-03  1.981290967397213e-18
-1.099999943246760e-01  3.533512716750197e-05  1.957218056155062e-18
-1.099988123972981e-01 -5.111469299462632e-04  1.962811926963037e-18
-1.099992383391165e-01 -4.093468141029560e-04  1.961773547896562e-18
-1.099992383391165e-01 -4.093468141029560e-04  1.961773547896562e-18
-1.099981396506972e-01 -6.397447816752291e-04  1.964121250845383e-18
-1.099974396882282e-01 -7.505078511014265e-04  1.965246844479595e-18
-1.099998694237034e-01  1.694897287763408e-04  1.955837443596272e-18
-1.099925850758775e-01  1.277195492406446e-03  1.944326535614194e-18
-1.099958843811462e-01  9.515351856238456e-04  1.947731292036108e-18
-1.099263111388525e-01  4.025682476817003e-03  1.914907406532429e-18
-1.099263111388525e-01  4.025682476817003e-03  1.914907406532429e-18
-1.058391265240272e-01 -2.996797117976013e-02  2.191443523339124e-18
-1.099977660700348e-01  7.010417975219800e-04  1.950338507500092e-18
-1.099761046788861e-01  2.292683942161029e-03  1.933599472367928e-18
-1.097955244826358e-01  6.703939407757249e-03  1.885061784945924e-18
-1.099709980212942e-01 -2.525785858000833e-03  1.983016620088834e-18
-1.099551944204777e-01 -3.139302463113892e-03  1.989039036405565e-18
-1.099942733054772e-01  1.122425944072027e-03  1.945946780559495e-18
-1.099865197059321e-01  1.722057773874702e-03  1.939647796784657e-18
-1.099432291174520e-01  3.533605980782043e-03  1.920264389381524e-18
-1.099871654268554e-01 -1.680309901630202e-03  1.974617380041536e-18
-1.099698859854733e-01  2.573747528789538e-03  1.930600977050488e-18
-1.099698859854733e-01  2.573747528789538e-03  1.930600977050488e-18
-1.096863664007422e-01 -8.300664178370708e-03  2.037286037773661e-18
-1.099951636361352e-01 -1.031492442920707e-03  1.968093354024893e-18
-1.032575456435728e-01  3.791937852425117e-02  1.447983355476896e-18
-1.096629161375260e-01  8.604930227137493e-03  1.863169871170276e-18
-1.097463176428912e-01 -7.466308580925046e-03  2.029780240973938e-18
-1.078564180291560e-01 -2.161002290419682e-02  2.141468749657800e-18
-1.099985314530458e-01  5.683996598140077e-04  1.951714978183602e-18
-1.099985314530458e-01  5.683996598140077e-04  1.951714978183602e-18
-1.089803900982653e-01  1.494237511341160e-02  1.785908562161368e-18
-1.099498877064084e-01  3.319968877586033e-03  1.922577930541737e-18
-1.085615974507490e-01 -1.773075178726231e-02  2.114160157135412e-18
-1.099999907070458e-01  4.521559238720726e-05  1.957116473584177e-18
-1.098434480872447e-01  5.866592904296420e-03  1.894518073794273e-18
-1.099773849217873e-01 -2.230427260635779e-03  1.980095580309098e-18
-1.099830136493075e-01 -1.933056806251008e-03  1.977140376836900e-18
-1.099095656868353e-01  4.459525819099260e-03  1.910151818500029e-18
-1.099126643506717e-01  4.382489627660960e-03  1.910998481801199e-18
-1.081449444603810e-01 -2.011643575937516e-02  2.131257356332745e-18
-1.099848650265003e-01  1.824682192185202e-03  1.938563921172774e-18
-1.095848995797229e-01  9.547239606399964e-03  1.852099586904814e-18
-1.090994897597648e-01  1.404639933075135e-02  1.797233908389392e-18
-1.021932851905966e-01 -4.070052164227582e-02  2.236834485067046e-18
-1.099932675806418e-01 -1.216999150905080e-03  1.969965625490941e-18
-1.099932675806418e-01 -1.216999150905080e-03  1.969965625490941e-18
-1.098848510261091e-01  5.031850054380920e-03  1.903831568023222e-18
-1.000088888658774e-01  4.580635488458505e-02  1.309133815990562e-18
-1.099064201848236e-01 -4.536386464682142e-03  2.002525571297482e-18
-1.095164310061374e-01 -1.030297722398212e-02  2.054834873880906e-18
-1.099064201848242e-01 -4.536386464669319e-03  2.002525571297360e-18
-1.099997727168491e-01  2.236118098577295e-04  1.955279637860338e-18
-1.085030948848463e-01  1.808530896639610e-02  1.745122020898930e-18
-1.099716865760793e-01 -2.495626497000759e-03  1.982718997264334e-18
-1.099716865760793e-01 -2.495626497000759e-03  1.982718997264334e-18
-1.099999717203411e-01  7.887663875018470e-05  1.956770280669833e-18
-1.099148975890735e-01 -4.326116963680489e-03  2.000515994080435e-18
-1.099914690746030e-01  1.369938250661773e-03  1.943353776890021e-18
-1.099844559916416e-01 -1.849172848228647e-03  1.976304167843188e-18
-1.098646984347190e-01 -5.454176184193167e-03  2.011213038948047e-18
-1.099829132323574e-01  1.938761698536272e-03  1.937357061181886e-18
-1.099710128538764e-01  2.525139974837557e-03  1.931120455977016e-18
-1.099576250700377e-01 -3.052980340089741e-03  1.988195364258158e-18
-1.077292349449689e-01 -2.223537582708356e-02  2.145630649075020e-18
-1.090944524985351e-01  1.408546889687496e-02  1.796742838718084e-18
-1.099983661436229e-01  5.995379332730207e-04  1.951392101857090e-18
-1.097294010631619e-01 -7.710936539729919e-03  2.031992653669196e-18
-1.099778402130048e-01 -2.207863692065725e-03  1.979871850289047e-18
-1.099663285742042e-01  2.721503244553017e-03  1.929019532369482e-18
-1.099663285742042e-01  2.721503244553017e-03  1.929019532369482e-18
-1.094403932282345e-01 -1.108153103363230e-02  2.061481048489771e-18
-1.088106988974745e-01 -1.613170187683592e-02  2.102163557578389e-18
-1.099998163265202e-01  2.010177399945165e-04  1.955512559806518e-18
-1.099770164814103e-01  2.248520813239235e-03  1.934069459087951e-18
-1.099770164814103e-01  2.248520813239235e-03  1.934069459087951e-18
-1.099770164814103e-01  2.248520813239235e-03  1.934069459087951e-18
-8.081649899063670e-02 -7.462367915679567e-02  2.204957195632561e-18
-1.098087188781112e-01  6.484231515600453e-03  1.887554013730562e-18
-1.076988998480008e-01  2.238184468559851e-02  1.686665067233616e-18
-1.099850103179600e-01 -1.815903455086859e-03  1.975972201812538e-18
-1.099850103179600e-01 -1.815903455086859e-03  1.975972201812538e-18
-1.099890399800208e-01 -1.552766651288678e-03  1.973340279386724e-18
-1.099956363767939e-01  9.797847029362203e-04  1.947436624974686e-18
-1.099990620827833e-01 -4.542476284395171e-04  1.962231750760993e-18
-1.099978666092228e-01  6.850849725219433e-04  1.950504247295088e-18
-1.099983892438932e-01 -5.952845948922800e-04  1.963668880385953e-18
-1.099743999825141e-01  2.373046246066366e-03  1.932743441783254e-18
-1.099743999825141e-01  2.373046246066366e-03  1.932743441783254e-18
-1.096891926979083e-01  8.263232132833507e-03  1.867148317695911e-18
-1.095909275275598e-01 -9.477795294745248e-03  2.047682183784403e-18
-1.095909275275598e-01 -9.477795294745248e-03  2.047682183784403e-18
-1.036305692519195e-01  3.688773666847936e-02  1.465221500848124e-18
-1.096886752043604e-01  8.270098663999980e-03  1.867068557167616e-18
-1.096886752043604e-01  8.270098663999980e-03  1.867068557167616e-18
-4.078168484740754e-02 -1.021609229647358e-01  1.775425099331209e-18
-1.099641517149530e-01  2.808084331134940e-03  1.928091203350260e-18
-1.099641517149530e-01  2.808084331134940e-03  1.928091203350260e-18
-1.079190125013759e-01  2.129522812105663e-02  1.701746824924205e-18
-1.097092383827814e-01 -7.992684997546037e-03  2.034528697773804e-18
-1.085454679025261e-01 -1.782922875005116e-02  2.114884927603552e-18
-1.091103630401580e-01  1.396168604592123e-02  1.798297809611820e-18
-1.099988365230056e-01 -5.059284386654165e-04  1.962758738206600e-18
-1.099478182838117e-01 -3.387809709809370e-03  1.991461090939229e-18
-9.587963348798251e-02  5.391749143098284e-02  1.152309809516833e-18
-1.098231509395077e-01 -6.235023473739041e-03  2.018496573951680e-18
-1.099335473643850e-01  3.822978404660064e-03  1.917118894502273e-18
-1.097725394378569e-01 -7.070331347548637e-03  2.026178366868118e-18
-1.092376341442895e-01  1.292823601882055e-02  1.811181074329887e-18
-1.099029566047670e-01 -4.619537804876768e-03  2.003318282572857e-18
-1.093004485959614e-01  1.238595723880740e-02  1.817870649895420e-18
-1.096992204923165e-01 -8.129023519347724e-03  2.035751246246827e-18
-1.095125476212932e-01  1.034417292459587e-02  1.842623797158671e-18
-1.049135837034558e-01 -3.306266708083206e-02  2.206769260988493e-18
-1.099692213411769e-01  2.601991086688400e-03  1.930298956615083e-18
-1.087492921456748e-01  1.654060028580085e-02  1.765374715374665e-18
-1.081971587756223e-01  1.983367925733267e-02  1.721713653295108e-18
-1.099317576146082e-01  3.874102187991290e-03  1.916561765468186e-18
-1.053459343030168e-01 -3.165808152469805e-02  2.200031849290687e-18
-1.028858888940963e-01 -3.891649864095720e-02  2.230830005884485e-18
-1.050686250246483e-01  3.256660920989170e-02  1.535211433593644e-18
-1.099706152671099e-01 -2.542396069310436e-03  1.983180472408752e-18
-8.937086483373180e-02 -6.413149397036381e-02  2.249388948548018e-18
-1.098515228821752e-01 -5.713398329094836e-03  2.013641977645025e-18
-1.078098682552861e-01  2.184106926818881e-02  1.694196153374785e-18
-1.098448397644082e-01  5.840477474612381e-03  1.894811166902463e-18
-1.093167076666784e-01 -1.224162672678535e-02  2.071199478201914e-18
-1.096830010227648e-01 -8.345015676446962e-03  2.037681842389285e-18
-1.099842879710714e-01  1.859139450498865e-03  1.938199615971246e-18
-1.099883602646273e-01 -1.600189457070169e-03  1.973815435142557e-18
-1.099962370391910e-01 -9.098556028663532e-04  1.966862682168305e-18
-1.099962370391910e-01 -9.098556028663532e-04  1.966862682168305e-18
-1.099962370391910e-01 -9.098556028663532e-04  1.966862682168305e-18
-1.099897064330440e-01 -1.504818518214553e-03  1.972859490064096e-18
-1.099844115576655e-01  1.851813790319963e-03  1.938277083839242e-18
-1.099844115576655e-01  1.851813790319963e-03  1.938277083839242e-18
-1.099577428905798e-01 -3.048733902641094e-03  1.988153830413070e-18
-1.099678140304042e-01 -2.660803896266059e-03  1.984347218467925e-18
-1.099678140304042e-01 -2.660803896266059e-03  1.984347218467925e-18
-1.099989927121162e-01  4.707465557820016e-04  1.952726537008316e-18
-8.622686300457016e-02  6.830027888955544e-02  8.327493282421708e-19
-1.099793865357786e-01  2.129445283110117e-03  1.935335094847875e-18
-1.099997756541220e-01  2.221621992744323e-04  1.955294584354755e-18
-1.099991956713024e-01  4.206562331460476e-04  1.953244808777835e-18
-1.099995653221033e-01 -3.092393058746874e-04  1.960750798668005e-18
-1.099804791071520e-01  2.072248865669446e-03  1.935942210870109e-18
-1.099804791071520e-01  2.072248865669446e-03  1.935942210870109e-18
-1.099984564358570e-01  5.827364145332747e-04  1.951566338216640e-18
-1.099984564358570e-01  5.827364145332747e-04  1.951566338216640e-18
-1.099984564358570e-01  5.827364145332747e-04  1.951566338216640e-18
-1.099284226954622e-01  3.967604275597756e-03  1.915541716620431e-18
-1.099952875004759e-01  1.018198255558967e-03  1.947035731005800e-18
-1.099952875004759e-01  1.018198255558967e-03  1.947035731005800e-18
-1.099952875004759e-01  1.018198255558967e-03  1.947035731005800e-18
-1.091784669004208e-01 -1.341873188023737e-02  2.080833646709839e-18
-1.099599592523469e-01 -2.967719869221315e-03  1.987360883451185e-18
-1.099599592523469e-01 -2.967719869221315e-03  1.987360883451185e-18
-8.394916302705878e-02 -7.108120727067231e-02  2.224309077186565e-18
-1.073904941983140e-01  2.381767738134510e-02  1.666423961466080e-18
-1.050014652032825e-01 -3.278249998343341e-02  2.205454601957692e-18
-1.080035966909628e-01  2.086200138567287e-02  1.707703348800746e-18
 9.655818255967315e-03  1.095753858026870e-01 -1.297684087256247e-18
-1.025163860116800e-01 -3.987970159246672e-02  2.234150821755528e-18
-1.098931003060344e-01 -4.848350763695073e-03  2.005493848010539e-18
-1.087032182883670e-01  1.684073435903562e-02  1.761471007552636e-18
-1.093216065929655e-01 -1.219780029074267e-02  2.070836359729399e-18
-1.099998919763781e-01  1.541596092721016e-04  1.955995356356930e-18
-1.099930075861923e-01  1.240275027482116e-03  1.944713399054182e-18
-1.099930075861923e-01  1.240275027482116e-03  1.944713399054182e-18
-1.099533707430929e-01 -3.202539965703876e-03  1.989656324257874e-18
-1.090273399219385e-01  1.459586069904876e-02  1.790304400006197e-18
-1.042859667247538e-01  3.499195828020365e-02  1.496363514921002e-18
-1.086070505240958e-01  1.745017410963168e-02  1.753497815429051e-18
-1.098863010858345e-01 -5.000083366634092e-03  2.006931845151755e-18
-1.093902554939845e-01 -1.156598473804756e-02  2.065566373527009e-18
-1.082655084701502e-01  1.945712403465083e-02  1.726798985760999e-18
-1.025287016540272e-01  3.984802802071200e-02  1.415196534333496e-18
-1.082362468921749e-01 -1.961924714906568e-02  2.127773759659493e-18
-1.095722541711700e-01 -9.691290721491502e-03  2.049543457086087e-18
-1.073308437298540e-01  2.408505728117795e-02  1.662615178886877e-18
-1.099817137432710e-01  2.005652535499032e-03  1.936648435792531e-18
-1.098475428050978e-01 -5.789416178006293e-03  2.014352203208278e-18
-1.070083055947375e-01 -2.547984563813634e-02  2.166136600017339e-18
-1.075126494711462e-01 -2.326005596928767e-02  2.152304468439958e-18
-1.099662907424908e-01 -2.723031461066253e-03  1.984959475365286e-18
-1.085978182386218e-01 -1.750753762843963e-02  2.112511304866756e-18
-2.050962000342078e-02  1.080710668371292e-01 -7.453977998981959e-19
-1.099986671210672e-01 -5.415086228522349e-04  1.963121296964289e-18
-1.069127852169145e-01 -2.587771931917271e-02  2.168524708489651e-18
-1.098434286418875e-01 -5.866956979093603e-03  2.015075690329211e-18
-1.046159768417357e-01  3.399260786479009e-02  1.512504401085921e-18
-1.099308478176285e-01 -3.899833085833249e-03  1.996419935435570e-18
-1.081023047357449e-01 -2.034432871392219e-02  2.132840048891308e-18
-1.027405498895209e-01 -3.929859295698543e-02  2.232169405224662e-18
-1.099792304486932e-01  2.137491500147346e-03  1.935249645134906e-18
-1.099792304486932e-01  2.137491500147346e-03  1.935249645134906e-18
-1.099792304486932e-01  2.137491500147346e-03  1.935249645134906e-18
-1.099792304486932e-01  2.137491500147346e-03  1.935249645134906e-18
-1.099955484501071e-01  9.896065683354140e-04  1.947334144115438e-18
-1.099975326860927e-01  7.367516351620480e-04  1.949967448545066e-18
-1.094304609082900e-01 -1.117918715288240e-02  2.062307672158273e-18
-1.084228163388322e-01  1.856051985144374e-02  1.738810749199570e-18
-1.045432061938703e-01 -3.421575716984616e-02  2.212025533183057e-18
-1.092199330392758e-01  1.307693491977661e-02  1.809338234862267e-18
-1.072344877237741e-01 -2.451050066032360e-02  2.160202113291675e-18
-1.093826013998441e-01  1.163814895087628e-02  1.827016115537023e-18
-1.085049765519318e-01 -1.807401625164376e-02  2.116679438374453e-18
-1.093038494496449e-01  1.235590933478144e-02  1.818239903441724e-18
-9.226632431672220e-02 -5.989094586898268e-02  2.257347012605250e-18
-1.098571314475005e-01  5.604522292449407e-03  1.897454265846087e-18
-1.078002311024425e-01 -2.188858547873636e-02  2.143330965534308e-18
-1.014931025849888e-01  4.241638984723847e-02  1.370377828837613e-18
-1.077242667851509e-01 -2.225943273314971e-02  2.145789410715464e-18
-1.096828247008457e-01 -8.347332846095791e-03  2.037702512606791e-18
-1.099995348928229e-01 -3.198802316398917e-04  1.960859588789357e-18
-1.090667846405739e-01  1.429812883445383e-02  1.794065452576907e-18
-1.098829176508206e-01  5.073894810000631e-03  1.903365166713416e-18
-1.099921806652708e-01 -1.311561092129028e-03  1.970917872129819e-18
-1.086947640245875e-01 -1.689521451888652e-02  2.107945173257976e-18
-1.099846807787061e-01  1.835754342516794e-03  1.938446879941037e-18
-1.099999877362413e-01  5.194253302778833e-05  1.957047303843788e-18
-1.099999877362413e-01  5.194253302778833e-05  1.957047303843788e-18
-1.099999877362413e-01  5.194253302778833e-05  1.957047303843788e-18
-1.091423488326603e-01  1.370940156570881e-02  1.801459166329868e-18
-1.080016504859328e-01 -2.087207446121219e-02  2.136471182289614e-18
-1.099041443831909e-01  4.591192372214769e-03  1.908702513932350e-18
-1.095154062694014e-01  1.031386395333510e-02  1.842986083880996e-18
-1.099933072558697e-01  1.213407975829723e-03  1.944994781229246e-18
-1.099933072558697e-01  1.213407975829723e-03  1.944994781229246e-18
-1.099550662472977e-01  3.143788566737060e-03  1.924480277546746e-18
-1.098688871698650e-01  5.369136993542750e-03  1.900081971385806e-18
-1.099824055148507e-01 -1.967352832337268e-03  1.977481933568101e-18

TENSORS stress double
0.000000000000000e+00 0.000000000000000e+00 0.000000000000000e+00
0.000000000000000e+00 0.000000000000000e+00 0.000000000000000e+00
0.000000000000000e+00 0.000000000000000e+00 0.000000000000000e+00

0.000000000000000e+00 0.000000000000000e+00 0.000000000000000e+00
0.000000000000000e+00 0.000000000000000e+00 0.000000000000000e+00
0.000000000000000e+00 0.000000000000000e+00 0.000000000000000e+00

0.000000000000000e+00 0.000000000000000e+00 0.000000000000000e+00
0.000000000000000e+00 0.000000000000000e+00 0.000000000000000e+00
0.000000000000000e+00 0.000000000000000e+00 0.000000000000000e+00

0.000000000000000e+00 0.000000000000000e+00 0.000000000000000e+00
0.000000000000000e+00 0.000000000000000e+00 0.000000000000000e+00
0.000000000000000e+00 0.000000000000000e+00 0.000000000000000e+00

0.000000000000000e+00 0.000000000000000e+00 0.000000000000000e+00
0.000000000000000e+00 0.000000000000000e+00 0.000000000000000e+00
0.000000000000000e+00 0.000000000000000e+00 0.000000000000000e+00

0.000000000000000e+00 0.000000000000000e+00 0.000000000000000e+00
0.000000000000000e+00 0.000000000000000e+00 0.000000000000000e+00
0.000000000000000e+00 0.000000000000000e+00 0.000000000000000e+00

0.000000000000000e+00 0.000000000000000e+00 0.000000000000000e+00
0.000000000000000e+00 0.000000000000000e+00 0.000000000000000e+00
0.000000000000000e+00 0.000000000000000e+00 0.000000000000000e+00

0.000000000000000e+00 0.000000000000000e+00 0.000000000000000e+00
0.000000000000000e+00 0.000000000000000e+00 0.000000000000000e+00
0.000000000000000e+00 0.000000000000000e+00 0.000000000000000e+00

0.000000000000000e+00 0.000000000000000e+00 0.000000000000000e+00
0.000000000000000e+00 0.000000000000000e+00 0.000000000000000e+00
0.000000000000000e+00 0.000000000000000e+00 0.000000000000000e+00

0.000000000000000e+00 0.000000000000000e+00 0.000000000000000e+00
0.000000000000000e+00 0.000000000000000e+00 0.000000000000000e+00
0.000000000000000e+00 0.000000000000000e+00 0.000000000000000e+00

0.000000000000000e+00 0.000000000000000e+00 0.000000000000000e+00
0.000000000000000e+00 0.000000000000000e+00 0.000000000000000e+00
0.000000000000000e+00 0.000000000000000e+00 0.000000000000000e+00

0.000000000000000e+00 0.000000000000000e+00 0.000000000000000e+00
0.000000000000000e+00 0.000000000000000e+00 0.000000000000000e+00
0.000000000000000e+00 0.000000000000000e+00 0.000000000000000e+00

0.000000000000000e+00 0.000000000000000e+00 0.000000000000000e+00
0.000000000000000e+00 0.000000000000000e+00 0.000000000000000e+00
0.000000000000000e+00 0.000000000000000e+00 0.000000000000000e+00

0.000000000000000e+00 0.000000000000000e+00 0.000000000000000e+00
0.000000000000000e+00 0.000000000000000e+00 0.000000000000000e+00
0.000000000000000e+00 0.000000000000000e+00 0.000000000000000e+00

0.000000000000000e+00 0.000000000000000e+00 0.000000000000000e+00
0.000000000000000e+00 0.000000000000000e+00 0.000000000000000e+00
0.000000000000000e+00 0.000000000000000e+00 0.000000000000000e+00

0.000000000000000e+00 0.000000000000000e+00 0.000000000000000e+00
0.000000000000000e+00 0.000000000000000e+00 0.000000000000000e+00
0.000000000000000e+00 0.000000000000000e+00 0.000000000000000e+00

0.000000000000000e+00 0.000000000000000e+00 0.000000000000000e+00
0.000000000000000e+00 0.000000000000000e+00 0.000000000000000e+00
0.000000000000000e+00 0.000000000000000e+00 0.000000000000000e+00

0.000000000000000e+00 0.000000000000000e+00 0.000000000000000e+00
0.000000000000000e+00 0.000000000000000e+00 0.000000000000000e+00
0.000000000000000e+00 0.000000000000000e+00 0.000000000000000e+00

0.000000000000000e+00 0.000000000000000e+00 0.000000000000000e+00
0.000000000000000e+00 0.000000000000000e+00 0.000000000000000e+00
0.000000000000000e+00 0.000000000000000e+00 0.000000000000000e+00

0.000000000000000e+00 0.000000000000000e+00 0.000000000000000e+00
0.000000000000000e+00 0.000000000000000e+00 0.000000000000000e+00
0.000000000000000e+00 0.000000000000000e+00 0.000000000000000e+00

0.000000000000000e+00 0.000000000000000e+00 0.000000000000000e+00
0.000000000000000e+00 0.000000000000000e+00 0.000000000000000e+00
0.000000000000000e+00 0.000000000000000e+00 0.000000000000000e+00

0.000000000000000e+00 0.000000000000000e+00 0.000000000000000e+00
0.000000000000000e+00 0.000000000000000e+00 0.000000000000000e+00
0.000000000000000e+00 0.000000000000000e+00 0.000000000000000e+00

0.000000000000000e+00 0.000000000000000e+00 0.000000000000000e+00
0.000000000000000e+00 0.000000000000000e+00 0.000000000000000e+00
0.000000000000000e+00 0.000000000000000e+00 0.000000000000000e+00

0.000000000000000e+00 0.000000000000000e+00 0.000000000000000e+00
0.000000000000000e+00 0.000000000000000e+00 0.000000000000000e+00
0.000000000000000e+00 0.000000000000000e+00 0.000000000000000e+00

0.000000000000000e+00 0.000000000000000e+00 0.000000000000000e+00
0.000000000000000e+00 0.000000000000000e+00 0.000000000000000e+00
0.000000000000000e+00 0.000000000000000e+00 0.000000000000000e+00

0.000000000000000e+00 0.000000000000000e+00 0.000000000000000e+00
0.000000000000000e+00 0.000000000000000e+00 0.000000000000000e+00
0.000000000000000e+00 0.000000000000000e+00 0.000000000000000e+00

0.000000000000000e+00 0.000000000000000e+00 0.000000000000000e+00
0.000000000000000e+00 0.000000000000000e+00 0.000000000000000e+00
0.000000000000000e+00 0.000000000000000e+00 0.000000000000000e+00

0.000000000000000e+00 0.000000000000000e+00 0.000000000000000e+00
0.000000000000000e+00 0.000000000000000e+00 0.000000000000000e+00
0.000000000000000e+00 0.000000000000000e+00 0.000000000000000e+00

0.000000000000000e+00 0.000000000000000e+00 0.000000000000000e+00
0.000000000000000e+00 0.000000000000000e+00 0.000000000000000e+00
0.000000000000000e+00 0.000000000000000e+00 0.000000000000000e+00

0.000000000000000e+00 0.000000000000000e+00 0.000000000000000e+00
0.000000000000000e+00 0.000000000000000e+00 0.000000000000000e+00
0.000000000000000e+00 0.000000000000000e+00 0.000000000000000e+00

0.000000000000000e+00 0.000000000000000e+00 0.000000000000000e+00
0.000000000000000e+00 0.000000000000000e+00 0.000000000000000e+00
0.000000000000000e+00 0.000000000000000e+00 0.000000000000000e+00

0.000000000000000e+00 0.000000000000000e+00 0.000000000000000e+00
0.000000000000000e+00 0.000000000000000e+00 0.000000000000000e+00
0.000000000000000e+00 0.000000000000000e+00 0.000000000000000e+00

0.000000000000000e+00 0.000000000000000e+00 0.000000000000000e+00
0.000000000000000e+00 0.000000000000000e+00 0.000000000000000e+00
0.000000000000000e+00 0.000000000000000e+00 0.000000000000000e+00

0.000000000000000e+00 0.000000000000000e+00 0.000000000000000e+00
0.000000000000000e+00 0.000000000000000e+00 0.000000000000000e+00
0.000000000000000e+00 0.000000000000000e+00 0.000000000000000e+00

0.000000000000000e+00 0.000000000000000e+00 0.000000000000000e+00
0.000000000000000e+00 0.000000000000000e+00 0.000000000000000e+00
0.000000000000000e+00 0.000000000000000e+00 0.000000000000000e+00

0.000000000000000e+00 0.000000000000000e+00 0.000000000000000e+00
0.000000000000000e+00 0.000000000000000e+00 0.000000000000000e+00
0.000000000000000e+00 0.000000000000000e+00 0.000000000000000e+00

0.000000000000000e+00 0.000000000000000e+00 0.000000000000000e+00
0.000000000000000e+00 0.000000000000000e+00 0.000000000000000e+00
0.000000000000000e+00 0.000000000000000e+00 0.000000000000000e+00

0.000000000000000e+00 0.000000000000000e+00 0.000000000000000e+00
0.000000000000000e+00 0.000000000000000e+00 0.000000000000000e+00
0.000000000000000e+00 0.000000000000000e+00 0.000000000000000e+00

0.000000000000000e+00 0.000000000000000e+00 0.000000000000000e+00
0.000000000000000e+00 0.000000000000000e+00 0.000000000000000e+00
0.000000000000000e+00 0.000000000000000e+00 0.000000000000000e+00

0.000000000000000e+00 0.000000000000000e+00 0.000000000000000e+00
0.000000000000000e+00 0.000000000000000e+00 0.000000000000000e+00
0.000000000000000e+00 0.000000000000000e+00 0.000000000000000e+00

0.000000000000000e+00 0.000000000000000e+00 0.000000000000000e+00
0.000000000000000e+00 0.000000000000000e+00 0.000000000000000e+00
0.000000000000000e+00 0.000000000000000e+00 0.000000000000000e+00

0.000000000000000e+00 0.000000000000000e+00 0.000000000000000e+00
0.000000000000000e+00 0.000000000000000e+00 0.000000000000000e+00
0.000000000000000e+00 0.000000000000000e+00 0.000000000000000e+00

0.000000000000000e+00 0.000000000000000e+00 0.000000000000000e+00
0.000000000000000e+00 0.000000000000000e+00 0.000000000000000e+00
0.000000000000000e+00 0.000000000000000e+00 0.000000000000000e+00

0.000000000000000e+00 0.000000000000000e+00 0.000000000000000e+00
0.000000000000000e+00 0.000000000000000e+00 0.000000000000000e+00
0.000000000000000e+00 0.000000000000000e+00 0.000000000000000e+00

0.000000000000000e+00 0.000000000000000e+00 0.000000000000000e+00
0.000000000000000e+00 0.000000000000000e+00 0.000000000000000e+00
0.000000000000000e+00 0.000000000000000e+00 0.000000000000000e+00

0.000000000000000e+00 0.000000000000000e+00 0.000000000000000e+00
0.000000000000000e+00 0.000000000000000e+00 0.000000000000000e+00
0.000000000000000e+00 0.000000000000000e+00 0.000000000000000e+00

0.000000000000000e+00 0.000000000000000e+00 0.000000000000000e+00
0.000000000000000e+00 0.000000000000000e+00 0.000000000000000e+00
0.000000000000000e+00 0.000000000000000e+00 0.000000000000000e+00

0.000000000000000e+00 0.000000000000000e+00 0.000000000000000e+00
0.000000000000000e+00 0.000000000000000e+00 0.000000000000000e+00
0.000000000000000e+00 0.000000000000000e+00 0.000000000000000e+00

0.000000000000000e+00 0.000000000000000e+00 0.000000000000000e+00
0.000000000000000e+00 0.000000000000000e+00 0.000000000000000e+00
0.000000000000000e+00 0.000000000000000e+00 0.000000000000000e+00

0.000000000000000e+00 0.000000000000000e+00 0.000000000000000e+00
0.000000000000000e+00 0.000000000000000e+00 0.000000000000000e+00
0.000000000000000e+00 0.000000000000000e+00 0.000000000000000e+00

0.000000000000000e+00 0.000000000000000e+00 0.000000000000000e+00
0.000000000000000e+00 0.000000000000000e+00 0.000000000000000e+00
0.000000000000000e+00 0.000000000000000e+00 0.000000000000000e+00

0.000000000000000e+00 0.000000000000000e+00 0.000000000000000e+00
0.000000000000000e+00 0.000000000000000e+00 0.000000000000000e+00
0.000000000000000e+00 0.000000000000000e+00 0.000000000000000e+00

0.000000000000000e+00 0.000000000000000e+00 0.000000000000000e+00
0.000000000000000e+00 0.000000000000000e+00 0.000000000000000e+00
0.000000000000000e+00 0.000000000000000e+00 0.000000000000000e+00

0.000000000000000e+00 0.000000000000000e+00 0.000000000000000e+00
0.000000000000000e+00 0.000000000000000e+00 0.000000000000000e+00
0.000000000000000e+00 0.000000000000000e+00 0.000000000000000e+00

0.000000000000000e+00 0.000000000000000e+00 0.000000000000000e+00
0.000000000000000e+00 0.000000000000000e+00 0.000000000000000e+00
0.000000000000000e+00 0.000000000000000e+00 0.000000000000000e+00

0.000000000000000e+00 0.000000000000000e+00 0.000000000000000e+00
0.000000000000000e+00 0.000000000000000e+00 0.000000000000000e+00
0.000000000000000e+00 0.000000000000000e+00 0.000000000000000e+00

0.000000000000000e+00 0.000000000000000e+00 0.000000000000000e+00
0.000000000000000e+00 0.000000000000000e+00 0.000000000000000e+00
0.000000000000000e+00 0.000000000000000e+00 0.000000000000000e+00

0.000000000000000e+00 0.000000000000000e+00 0.000000000000000e+00
0.000000000000000e+00 0.000000000000000e+00 0.000000000000000e+00
0.000000000000000e+00 0.000000000000000e+00 0.000000000000000e+00

0.000000000000000e+00 0.000000000000000e+00 0.000000000000000e+00
0.000000000000000e+00 0.000000000000000e+00 0.000000000000000e+00
0.000000000000000e+00 0.000000000000000e+00 0.000000000000000e+00

0.000000000000000e+00 0.000000000000000e+00 0.000000000000000e+00
0.000000000000000e+00 0.000000000000000e+00 0.000000000000000e+00
0.000000000000000e+00 0.000000000000000e+00 0.000000000000000e+00

0.000000000000000e+00 0.000000000000000e+00 0.000000000000000e+00
0.000000000000000e+00 0.000000000000000e+00 0.000000000000000e+00
0.000000000000000e+00 0.000000000000000e+00 0.000000000000000e+00

0.000000000000000e+00 0.000000000000000e+00 0.000000000000000e+00
0.000000000000000e+00 0.000000000000000e+00 0.000000000000000e+00
0.000000000000000e+00 0.000000000000000e+00 0.000000000000000e+00

0.000000000000000e+00 0.000000000000000e+00 0.000000000000000e+00
0.000000000000000e+00 0.000000000000000e+00 0.000000000000000e+00
0.000000000000000e+00 0.000000000000000e+00 0.000000000000000e+00

0.000000000000000e+00 0.000000000000000e+00 0.000000000000000e+00
0.000000000000000e+00 0.000000000000000e+00 0.000000000000000e+00
0.000000000000000e+00 0.000000000000000e+00 0.000000000000000e+00

0.000000000000000e+00 0.000000000000000e+00 0.000000000000000e+00
0.000000000000000e+00 0.000000000000000e+00 0.000000000000000e+00
0.000000000000000e+00 0.000000000000000e+00 0.000000000000000e+00

0.000000000000000e+00 0.000000000000000e+00 0.000000000000000e+00
0.000000000000000e+00 0.000000000000000e+00 0.000000000000000e+00
0.000000000000000e+00 0.000000000000000e+00 0.000000000000000e+00

0.000000000000000e+00 0.000000000000000e+00 0.000000000000000e+00
0.000000000000000e+00 0.000000000000000e+00 0.000000000000000e+00
0.000000000000000e+00 0.000000000000000e+00 0.000000000000000e+00

0.000000000000000e+00 0.000000000000000e+00 0.000000000000000e+00
0.000000000000000e+00 0.000000000000000e+00 0.000000000000000e+00
0.000000000000000e+00 0.000000000000000e+00 0.000000000000000e+00

0.000000000000000e+00 0.000000000000000e+00 0.000000000000000e+00
0.000000000000000e+00 0.000000000000000e+00 0.000000000000000e+00
0.000000000000000e+00 0.000000000000000e+00 0.000000000000000e+00

0.000000000000000e+00 0.000000000000000e+00 0.000000000000000e+00
0.000000000000000e+00 0.000000000000000e+00 0.000000000000000e+00
0.000000000000000e+00 0.000000000000000e+00 0.000000000000000e+00

0.000000000000000e+00 0.000000000000000e+00 0.000000000000000e+00
0.000000000000000e+00 0.000000000000000e+00 0.000000000000000e+00
0.000000000000000e+00 0.000000000000000e+00 0.000000000000000e+00

0.000000000000000e+00 0.000000000000000e+00 0.000000000000000e+00
0.000000000000000e+00 0.000000000000000e+00 0.000000000000000e+00
0.000000000000000e+00 0.000000000000000e+00 0.000000000000000e+00

0.000000000000000e+00 0.000000000000000e+00 0.000000000000000e+00
0.000000000000000e+00 0.000000000000000e+00 0.000000000000000e+00
0.000000000000000e+00 0.000000000000000e+00 0.000000000000000e+00

0.000000000000000e+00 0.000000000000000e+00 0.000000000000000e+00
0.000000000000000e+00 0.000000000000000e+00 0.000000000000000e+00
0.000000000000000e+00 0.000000000000000e+00 0.000000000000000e+00

0.000000000000000e+00 0.000000000000000e+00 0.000000000000000e+00
0.000000000000000e+00 0.000000000000000e+00 0.000000000000000e+00
0.000000000000000e+00 0.000000000000000e+00 0.000000000000000e+00

0.000000000000000e+00 0.000000000000000e+00 0.000000000000000e+00
0.000000000000000e+00 0.000000000000000e+00 0.000000000000000e+00
0.000000000000000e+00 0.000000000000000e+00 0.000000000000000e+00

0.000000000000000e+00 0.000000000000000e+00 0.000000000000000e+00
0.000000000000000e+00 0.000000000000000e+00 0.000000000000000e+00
0.000000000000000e+00 0.000000000000000e+00 0.000000000000000e+00

0.000000000000000e+00 0.000000000000000e+00 0.000000000000000e+00
0.000000000000000e+00 0.000000000000000e+00 0.000000000000000e+00
0.000000000000000e+00 0.000000000000000e+00 0.000000000000000e+00

0.000000000000000e+00 0.000000000000000e+00 0.000000000000000e+00
0.000000000000000e+00 0.000000000000000e+00 0.000000000000000e+00
0.000000000000000e+00 0.000000000000000e+00 0.000000000000000e+00

0.000000000000000e+00 0.000000000000000e+00 0.000000000000000e+00
0.000000000000000e+00 0.000000000000000e+00 0.000000000000000e+00
0.000000000000000e+00 0.000000000000000e+00 0.000000000000000e+00

0.000000000000000e+00 0.000000000000000e+00 0.000000000000000e+00
0.000000000000000e+00 0.000000000000000e+00 0.000000000000000e+00
0.000000000000000e+00 0.000000000000000e+00 0.000000000000000e+00

0.000000000000000e+00 0.000000000000000e+00 0.000000000000000e+00
0.000000000000000e+00 0.000000000000000e+00 0.000000000000000e+00
0.000000000000000e+00 0.000000000000000e+00 0.000000000000000e+00

0.000000000000000e+00 0.000000000000000e+00 0.000000000000000e+00
0.000000000000000e+00 0.000000000000000e+00 0.000000000000000e+00
0.000000000000000e+00 0.000000000000000e+00 0.000000000000000e+00

0.000000000000000e+00 0.000000000000000e+00 0.000000000000000e+00
0.000000000000000e+00 0.000000000000000e+00 0.000000000000000e+00
0.000000000000000e+00 0.000000000000000e+00 0.000000000000000e+00

0.000000000000000e+00 0.000000000000000e+00 0.000000000000000e+00
0.000000000000000e+00 0.000000000000000e+00 0.000000000000000e+00
0.000000000000000e+00 0.000000000000000e+00 0.000000000000000e+00

0.000000000000000e+00 0.000000000000000e+00 0.000000000000000e+00
0.000000000000000e+00 0.000000000000000e+00 0.000000000000000e+00
0.000000000000000e+00 0.000000000000000e+00 0.000000000000000e+00

0.000000000000000e+00 0.000000000000000e+00 0.000000000000000e+00
0.000000000000000e+00 0.000000000000000e+00 0.000000000000000e+00
0.000000000000000e+00 0.000000000000000e+00 0.000000000000000e+00

0.000000000000000e+00 0.000000000000000e+00 0.000000000000000e+00
0.000000000000000e+00 0.000000000000000e+00 0.000000000000000e+00
0.000000000000000e+00 0.000000000000000e+00 0.000000000000000e+00

0.000000000000000e+00 0.000000000000000e+00 0.000000000000000e+00
0.000000000000000e+00 0.000000000000000e+00 0.000000000000000e+00
0.000000000000000e+00 0.000000000000000e+00 0.000000000000000e+00

0.000000000000000e+00 0.000000000000000e+00 0.000000000000000e+00
0.000000000000000e+00 0.000000000000000e+00 0.000000000000000e+00
0.000000000000000e+00 0.000000000000000e+00 0.000000000000000e+00

0.000000000000000e+00 0.000000000000000e+00 0.000000000000000e+00
0.000000000000000e+00 0.000000000000000e+00 0.000000000000000e+00
0.000000000000000e+00 0.000000000000000e+00 0.000000000000000e+00

0.000000000000000e+00 0.000000000000000e+00 0.000000000000000e+00
0.000000000000000e+00 0.000000000000000e+00 0.000000000000000e+00
0.000000000000000e+00 0.000000000000000e+00 0.000000000000000e+00

0.000000000000000e+00 0.000000000000000e+00 0.000000000000000e+00
0.000000000000000e+00 0.000000000000000e+00 0.000000000000000e+00
0.000000000000000e+00 0.000000000000000e+00 0.000000000000000e+00

0.000000000000000e+00 0.000000000000000e+00 0.000000000000000e+00
0.000000000000000e+00 0.000000000000000e+00 0.000000000000000e+00
0.000000000000000e+00 0.000000000000000e+00 0.000000000000000e+00

0.000000000000000e+00 0.000000000000000e+00 0.000000000000000e+00
0.000000000000000e+00 0.000000000000000e+00 0.000000000000000e+00
0.000000000000000e+00 0.000000000000000e+00 0.000000000000000e+00

0.000000000000000e+00 0.000000000000000e+00 0.000000000000000e+00
0.000000000000000e+00 0.000000000000000e+00 0.000000000000000e+00
0.000000000000000e+00 0.000000000000000e+00 0.000000000000000e+00

0.000000000000000e+00 0.000000000000000e+00 0.000000000000000e+00
0.000000000000000e+00 0.000000000000000e+00 0.000000000000000e+00
0.000000000000000e+00 0.000000000000000e+00 0.000000000000000e+00

0.000000000000000e+00 0.000000000000000e+00 0.000000000000000e+00
0.000000000000000e+00 0.000000000000000e+00 0.000000000000000e+00
0.000000000000000e+00 0.000000000000000e+00 0.000000000000000e+00

0.000000000000000e+00 0.000000000000000e+00 0.000000000000000e+00
0.000000000000000e+00 0.000000000000000e+00 0.000000000000000e+00
0.000000000000000e+00 0.000000000000000e+00 0.000000000000000e+00

0.000000000000000e+00 0.000000000000000e+00 0.000000000000000e+00
0.000000000000000e+00 0.000000000000000e+00 0.000000000000000e+00
0.000000000000000e+00 0.000000000000000e+00 0.000000000000000e+00

0.000000000000000e+00 0.000000000000000e+00 0.000000000000000e+00
0.000000000000000e+00 0.000000000000000e+00 0.000000000000000e+00
0.000000000000000e+00 0.000000000000000e+00 0.000000000000000e+00

0.000000000000000e+00 0.000000000000000e+00 0.000000000000000e+00
0.000000000000000e+00 0.000000000000000e+00 0.000000000000000e+00
0.000000000000000e+00 0.000000000000000e+00 0.000000000000000e+00

0.000000000000000e+00 0.000000000000000e+00 0.000000000000000e+00
0.000000000000000e+00 0.000000000000000e+00 0.000000000000000e+00
0.000000000000000e+00 0.000000000000000e+00 0.000000000000000e+00

0.000000000000000e+00 0.000000000000000e+00 0.000000000000000e+00
0.000000000000000e+00 0.000000000000000e+00 0.000000000000000e+00
0.000000000000000e+00 0.000000000000000e+00 0.000000000000000e+00

0.000000000000000e+00 0.000000000000000e+00 0.000000000000000e+00
0.000000000000000e+00 0.000000000000000e+00 0.000000000000000e+00
0.000000000000000e+00 0.000000000000000e+00 0.000000000000000e+00

0.000000000000000e+00 0.000000000000000e+00 0.000000000000000e+00
0.000000000000000e+00 0.000000000000000e+00 0.000000000000000e+00
0.000000000000000e+00 0.000000000000000e+00 0.000000000000000e+00

0.000000000000000e+00 0.000000000000000e+00 0.000000000000000e+00
0.000000000000000e+00 0.000000000000000e+00 0.000000000000000e+00
0.000000000000000e+00 0.000000000000000e+00 0.000000000000000e+00

0.000000000000000e+00 0.000000000000000e+00 0.000000000000000e+00
0.000000000000000e+00 0.000000000000000e+00 0.000000000000000e+00
0.000000000000000e+00 0.000000000000000e+00 0.000000000000000e+00

0.000000000000000e+00 0.000000000000000e+00 0.000000000000000e+00
0.000000000000000e+00 0.000000000000000e+00 0.000000000000000e+00
0.000000000000000e+00 0.000000000000000e+00 0.000000000000000e+00

0.000000000000000e+00 0.000000000000000e+00 0.000000000000000e+00
0.000000000000000e+00 0.000000000000000e+00 0.000000000000000e+00
0.000000000000000e+00 0.000000000000000e+00 0.000000000000000e+00

0.000000000000000e+00 0.000000000000000e+00 0.000000000000000e+00
0.000000000000000e+00 0.000000000000000e+00 0.000000000000000e+00
0.000000000000000e+00 0.000000000000000e+00 0.000000000000000e+00

0.000000000000000e+00 0.000000000000000e+00 0.000000000000000e+00
0.000000000000000e+00 0.000000000000000e+00 0.000000000000000e+00
0.000000000000000e+00 0.000000000000000e+00 0.000000000000000e+00

0.000000000000000e+00 0.000000000000000e+00 0.000000000000000e+00
0.000000000000000e+00 0.000000000000000e+00 0.000000000000000e+00
0.000000000000000e+00 0.000000000000000e+00 0.000000000000000e+00

0.000000000000000e+00 0.000000000000000e+00 0.000000000000000e+00
0.000000000000000e+00 0.000000000000000e+00 0.000000000000000e+00
0.000000000000000e+00 0.000000000000000e+00 0.000000000000000e+00

0.000000000000000e+00 0.000000000000000e+00 0.000000000000000e+00
0.000000000000000e+00 0.000000000000000e+00 0.000000000000000e+00
0.000000000000000e+00 0.000000000000000e+00 0.000000000000000e+00

0.000000000000000e+00 0.000000000000000e+00 0.000000000000000e+00
0.000000000000000e+00 0.000000000000000e+00 0.000000000000000e+00
0.000000000000000e+00 0.000000000000000e+00 0.000000000000000e+00

0.000000000000000e+00 0.000000000000000e+00 0.000000000000000e+00
0.000000000000000e+00 0.000000000000000e+00 0.000000000000000e+00
0.000000000000000e+00 0.000000000000000e+00 0.000000000000000e+00

0.000000000000000e+00 0.000000000000000e+00 0.000000000000000e+00
0.000000000000000e+00 0.000000000000000e+00 0.000000000000000e+00
0.000000000000000e+00 0.000000000000000e+00 0.000000000000000e+00

0.000000000000000e+00 0.000000000000000e+00 0.000000000000000e+00
0.000000000000000e+00 0.000000000000000e+00 0.000000000000000e+00
0.000000000000000e+00 0.000000000000000e+00 0.000000000000000e+00

0.000000000000000e+00 0.000000000000000e+00 0.000000000000000e+00
0.000000000000000e+00 0.000000000000000e+00 0.000000000000000e+00
0.000000000000000e+00 0.000000000000000e+00 0.000000000000000e+00

0.000000000000000e+00 0.000000000000000e+00 0.000000000000000e+00
0.000000000000000e+00 0.000000000000000e+00 0.000000000000000e+00
0.000000000000000e+00 0.000000000000000e+00 0.000000000000000e+00

0.000000000000000e+00 0.000000000000000e+00 0.000000000000000e+00
0.000000000000000e+00 0.000000000000000e+00 0.000000000000000e+00
0.000000000000000e+00 0.000000000000000e+00 0.000000000000000e+00

0.000000000000000e+00 0.000000000000000e+00 0.000000000000000e+00
0.000000000000000e+00 0.000000000000000e+00 0.000000000000000e+00
0.000000000000000e+00 0.000000000000000e+00 0.000000000000000e+00

0.000000000000000e+00 0.000000000000000e+00 0.000000000000000e+00
0.000000000000000e+00 0.000000000000000e+00 0.000000000000000e+00
0.000000000000000e+00 0.000000000000000e+00 0.000000000000000e+00

0.000000000000000e+00 0.000000000000000e+00 0.000000000000000e+00
0.000000000000000e+00 0.000000000000000e+00 0.000000000000000e+00
0.000000000000000e+00 0.000000000000000e+00 0.000000000000000e+00

0.000000000000000e+00 0.000000000000000e+00 0.000000000000000e+00
0.000000000000000e+00 0.000000000000000e+00 0.000000000000000e+00
0.000000000000000e+00 0.000000000000000e+00 0.000000000000000e+00

0.000000000000000e+00 0.000000000000000e+00 0.000000000000000e+00
0.000000000000000e+00 0.000000000000000e+00 0.000000000000000e+00
0.000000000000000e+00 0.000000000000000e+00 0.000000000000000e+00

0.000000000000000e+00 0.000000000000000e+00 0.000000000000000e+00
0.000000000000000e+00 0.000000000000000e+00 0.000000000000000e+00
0.000000000000000e+00 0.000000000000000e+00 0.000000000000000e+00

0.000000000000000e+00 0.000000000000000e+00 0.000000000000000e+00
0.000000000000000e+00 0.000000000000000e+00 0.000000000000000e+00
0.000000000000000e+00 0.000000000000000e+00 0.000000000000000e+00

0.000000000000000e+00 0.000000000000000e+00 0.000000000000000e+00
0.000000000000000e+00 0.000000000000000e+00 0.000000000000000e+00
0.000000000000000e+00 0.000000000000000e+00 0.000000000000000e+00

0.000000000000000e+00 0.000000000000000e+00 0.000000000000000e+00
0.000000000000000e+00 0.000000000000000e+00 0.000000000000000e+00
0.000000000000000e+00 0.000000000000000e+00 0.000000000000000e+00

0.000000000000000e+00 0.000000000000000e+00 0.000000000000000e+00
0.000000000000000e+00 0.000000000000000e+00 0.000000000000000e+00
0.000000000000000e+00 0.000000000000000e+00 0.000000000000000e+00

0.000000000000000e+00 0.000000000000000e+00 0.000000000000000e+00
0.000000000000000e+00 0.000000000000000e+00 0.000000000000000e+00
0.000000000000000e+00 0.000000000000000e+00 0.000000000000000e+00

0.000000000000000e+00 0.000000000000000e+00 0.000000000000000e+00
0.000000000000000e+00 0.000000000000000e+00 0.000000000000000e+00
0.000000000000000e+00 0.000000000000000e+00 0.000000000000000e+00

0.000000000000000e+00 0.000000000000000e+00 0.000000000000000e+00
0.000000000000000e+00 0.000000000000000e+00 0.000000000000000e+00
0.000000000000000e+00 0.000000000000000e+00 0.000000000000000e+00

0.000000000000000e+00 0.000000000000000e+00 0.000000000000000e+00
0.000000000000000e+00 0.000000000000000e+00 0.000000000000000e+00
0.000000000000000e+00 0.000000000000000e+00 0.000000000000000e+00

0.000000000000000e+00 0.000000000000000e+00 0.000000000000000e+00
0.000000000000000e+00 0.000000000000000e+00 0.000000000000000e+00
0.000000000000000e+00 0.000000000000000e+00 0.000000000000000e+00

0.000000000000000e+00 0.000000000000000e+00 0.000000000000000e+00
0.000000000000000e+00 0.000000000000000e+00 0.000000000000000e+00
0.000000000000000e+00 0.000000000000000e+00 0.000000000000000e+00

0.000000000000000e+00 0.000000000000000e+00 0.000000000000000e+00
0.000000000000000e+00 0.000000000000000e+00 0.000000000000000e+00
0.000000000000000e+00 0.000000000000000e+00 0.000000000000000e+00

0.000000000000000e+00 0.000000000000000e+00 0.000000000000000e+00
0.000000000000000e+00 0.000000000000000e+00 0.000000000000000e+00
0.000000000000000e+00 0.000000000000000e+00 0.000000000000000e+00

0.000000000000000e+00 0.000000000000000e+00 0.000000000000000e+00
0.000000000000000e+00 0.000000000000000e+00 0.000000000000000e+00
0.000000000000000e+00 0.000000000000000e+00 0.000000000000000e+00

0.000000000000000e+00 0.000000000000000e+00 0.000000000000000e+00
0.000000000000000e+00 0.000000000000000e+00 0.000000000000000e+00
0.000000000000000e+00 0.000000000000000e+00 0.000000000000000e+00

0.000000000000000e+00 0.000000000000000e+00 0.000000000000000e+00
0.000000000000000e+00 0.000000000000000e+00 0.000000000000000e+00
0.000000000000000e+00 0.000000000000000e+00 0.000000000000000e+00

0.000000000000000e+00 0.000000000000000e+00 0.000000000000000e+00
0.000000000000000e+00 0.000000000000000e+00 0.000000000000000e+00
0.000000000000000e+00 0.000000000000000e+00 0.000000000000000e+00

0.000000000000000e+00 0.000000000000000e+00 0.000000000000000e+00
0.000000000000000e+00 0.000000000000000e+00 0.000000000000000e+00
0.000000000000000e+00 0.000000000000000e+00 0.000000000000000e+00

0.000000000000000e+00 0.000000000000000e+00 0.000000000000000e+00
0.000000000000000e+00 0.000000000000000e+00 0.000000000000000e+00
0.000000000000000e+00 0.000000000000000e+00 0.000000000000000e+00

0.000000000000000e+00 0.000000000000000e+00 0.000000000000000e+00
0.000000000000000e+00 0.000000000000000e+00 0.000000000000000e+00
0.000000000000000e+00 0.000000000000000e+00 0.000000000000000e+00

0.000000000000000e+00 0.000000000000000e+00 0.000000000000000e+00
0.000000000000000e+00 0.000000000000000e+00 0.000000000000000e+00
0.000000000000000e+00 0.000000000000000e+00 0.000000000000000e+00

0.000000000000000e+00 0.000000000000000e+00 0.000000000000000e+00
0.000000000000000e+00 0.000000000000000e+00 0.000000000000000e+00
0.000000000000000e+00 0.000000000000000e+00 0.000000000000000e+00

0.000000000000000e+00 0.000000000000000e+00 0.000000000000000e+00
0.000000000000000e+00 0.000000000000000e+00 0.000000000000000e+00
0.000000000000000e+00 0.000000000000000e+00 0.000000000000000e+00

0.000000000000000e+00 0.000000000000000e+00 0.000000000000000e+00
0.000000000000000e+00 0.000000000000000e+00 0.000000000000000e+00
0.000000000000000e+00 0.000000000000000e+00 0.000000000000000e+00

0.000000000000000e+00 0.000000000000000e+00 0.000000000000000e+00
0.000000000000000e+00 0.000000000000000e+00 0.000000000000000e+00
0.000000000000000e+00 0.000000000000000e+00 0.000000000000000e+00

0.000000000000000e+00 0.000000000000000e+00 0.000000000000000e+00
0.000000000000000e+00 0.000000000000000e+00 0.000000000000000e+00
0.000000000000000e+00 0.000000000000000e+00 0.000000000000000e+00

0.000000000000000e+00 0.000000000000000e+00 0.000000000000000e+00
0.000000000000000e+00 0.000000000000000e+00 0.000000000000000e+00
0.000000000000000e+00 0.000000000000000e+00 0.000000000000000e+00

0.000000000000000e+00 0.000000000000000e+00 0.000000000000000e+00
0.000000000000000e+00 0.000000000000000e+00 0.000000000000000e+00
0.000000000000000e+00 0.000000000000000e+00 0.000000000000000e+00

0.000000000000000e+00 0.000000000000000e+00 0.000000000000000e+00
0.000000000000000e+00 0.000000000000000e+00 0.000000000000000e+00
0.000000000000000e+00 0.000000000000000e+00 0.000000000000000e+00

0.000000000000000e+00 0.000000000000000e+00 0.000000000000000e+00
0.000000000000000e+00 0.000000000000000e+00 0.000000000000000e+00
0.000000000000000e+00 0.000000000000000e+00 0.000000000000000e+00

0.000000000000000e+00 0.000000000000000e+00 0.000000000000000e+00
0.000000000000000e+00 0.000000000000000e+00 0.000000000000000e+00
0.000000000000000e+00 0.000000000000000e+00 0.000000000000000e+00

0.000000000000000e+00 0.000000000000000e+00 0.000000000000000e+00
0.000000000000000e+00 0.000000000000000e+00 0.000000000000000e+00
0.000000000000000e+00 0.000000000000000e+00 0.000000000000000e+00

0.000000000000000e+00 0.000000000000000e+00 0.000000000000000e+00
0.000000000000000e+00 0.000000000000000e+00 0.000000000000000e+00
0.000000000000000e+00 0.000000000000000e+00 0.000000000000000e+00

0.000000000000000e+00 0.000000000000000e+00 0.000000000000000e+00
0.000000000000000e+00 0.000000000000000e+00 0.000000000000000e+00
0.000000000000000e+00 0.000000000000000e+00 0.000000000000000e+00

0.000000000000000e+00 0.000000000000000e+00 0.000000000000000e+00
0.000000000000000e+00 0.000000000000000e+00 0.000000000000000e+00
0.000000000000000e+00 0.000000000000000e+00 0.000000000000000e+00

0.000000000000000e+00 0.000000000000000e+00 0.000000000000000e+00
0.000000000000000e+00 0.000000000000000e+00 0.000000000000000e+00
0.000000000000000e+00 0.000000000000000e+00 0.000000000000000e+00

0.000000000000000e+00 0.000000000000000e+00 0.000000000000000e+00
0.000000000000000e+00 0.000000000000000e+00 0.000000000000000e+00
0.000000000000000e+00 0.000000000000000e+00 0.000000000000000e+00

0.000000000000000e+00 0.000000000000000e+00 0.000000000000000e+00
0.000000000000000e+00 0.000000000000000e+00 0.000000000000000e+00
0.000000000000000e+00 0.000000000000000e+00 0.000000000000000e+00

0.000000000000000e+00 0.000000000000000e+00 0.000000000000000e+00
0.000000000000000e+00 0.000000000000000e+00 0.000000000000000e+00
0.000000000000000e+00 0.000000000000000e+00 0.000000000000000e+00

0.000000000000000e+00 0.000000000000000e+00 0.000000000000000e+00
0.000000000000000e+00 0.000000000000000e+00 0.000000000000000e+00
0.000000000000000e+00 0.000000000000000e+00 0.000000000000000e+00

0.000000000000000e+00 0.000000000000000e+00 0.000000000000000e+00
0.000000000000000e+00 0.000000000000000e+00 0.000000000000000e+00
0.000000000000000e+00 0.000000000000000e+00 0.000000000000000e+00

0.000000000000000e+00 0.000000000000000e+00 0.000000000000000e+00
0.000000000000000e+00 0.000000000000000e+00 0.000000000000000e+00
0.000000000000000e+00 0.000000000000000e+00 0.000000000000000e+00

0.000000000000000e+00 0.000000000000000e+00 0.000000000000000e+00
0.000000000000000e+00 0.000000000000000e+00 0.000000000000000e+00
0.000000000000000e+00 0.000000000000000e+00 0.000000000000000e+00

0.000000000000000e+00 0.000000000000000e+00 0.000000000000000e+00
0.000000000000000e+00 0.000000000000000e+00 0.000000000000000e+00
0.000000000000000e+00 0.000000000000000e+00 0.000000000000000e+00

0.000000000000000e+00 0.000000000000000e+00 0.000000000000000e+00
0.000000000000000e+00 0.000000000000000e+00 0.000000000000000e+00
0.000000000000000e+00 0.000000000000000e+00 0.000000000000000e+00

0.000000000000000e+00 0.000000000000000e+00 0.000000000000000e+00
0.000000000000000e+00 0.000000000000000e+00 0.000000000000000e+00
0.000000000000000e+00 0.000000000000000e+00 0.000000000000000e+00

0.000000000000000e+00 0.000000000000000e+00 0.000000000000000e+00
0.000000000000000e+00 0.000000000000000e+00 0.000000000000000e+00
0.000000000000000e+00 0.000000000000000e+00 0.000000000000000e+00

0.000000000000000e+00 0.000000000000000e+00 0.000000000000000e+00
0.000000000000000e+00 0.000000000000000e+00 0.000000000000000e+00
0.000000000000000e+00 0.000000000000000e+00 0.000000000000000e+00

0.000000000000000e+00 0.000000000000000e+00 0.000000000000000e+00
0.000000000000000e+00 0.000000000000000e+00 0.000000000000000e+00
0.000000000000000e+00 0.000000000000000e+00 0.000000000000000e+00

0.000000000000000e+00 0.000000000000000e+00 0.000000000000000e+00
0.000000000000000e+00 0.000000000000000e+00 0.000000000000000e+00
0.000000000000000e+00 0.000000000000000e+00 0.000000000000000e+00

0.000000000000000e+00 0.000000000000000e+00 0.000000000000000e+00
0.000000000000000e+00 0.000000000000000e+00 0.000000000000000e+00
0.000000000000000e+00 0.000000000000000e+00 0.000000000000000e+00

0.000000000000000e+00 0.000000000000000e+00 0.000000000000000e+00
0.000000000000000e+00 0.000000000000000e+00 0.000000000000000e+00
0.000000000000000e+00 0.000000000000000e+00 0.000000000000000e+00

0.000000000000000e+00 0.000000000000000e+00 0.000000000000000e+00
0.000000000000000e+00 0.000000000000000e+00 0.000000000000000e+00
0.000000000000000e+00 0.000000000000000e+00 0.000000000000000e+00

0.000000000000000e+00 0.000000000000000e+00 0.000000000000000e+00
0.000000000000000e+00 0.000000000000000e+00 0.000000000000000e+00
0.000000000000000e+00 0.000000000000000e+00 0.000000000000000e+00

0.000000000000000e+00 0.000000000000000e+00 0.000000000000000e+00
0.000000000000000e+00 0.000000000000000e+00 0.000000000000000e+00
0.000000000000000e+00 0.000000000000000e+00 0.000000000000000e+00

0.000000000000000e+00 0.000000000000000e+00 0.000000000000000e+00
0.000000000000000e+00 0.000000000000000e+00 0.000000000000000e+00
0.000000000000000e+00 0.000000000000000e+00 0.000000000000000e+00

0.000000000000000e+00 0.000000000000000e+00 0.000000000000000e+00
0.000000000000000e+00 0.000000000000000e+00 0.000000000000000e+00
0.000000000000000e+00 0.000000000000000e+00 0.000000000000000e+00

0.000000000000000e+00 0.000000000000000e+00 0.000000000000000e+00
0.000000000000000e+00 0.000000000000000e+00 0.000000000000000e+00
0.000000000000000e+00 0.000000000000000e+00 0.000000000000000e+00

0.000000000000000e+00 0.000000000000000e+00 0.000000000000000e+00
0.000000000000000e+00 0.000000000000000e+00 0.000000000000000e+00
0.000000000000000e+00 0.000000000000000e+00 0.000000000000000e+00

0.000000000000000e+00 0.000000000000000e+00 0.000000000000000e+00
0.000000000000000e+00 0.000000000000000e+00 0.000000000000000e+00
0.000000000000000e+00 0.000000000000000e+00 0.000000000000000e+00

0.000000000000000e+00 0.000000000000000e+00 0.000000000000000e+00
0.000000000000000e+00 0.000000000000000e+00 0.000000000000000e+00
0.000000000000000e+00 0.000000000000000e+00 0.000000000000000e+00

0.000000000000000e+00 0.000000000000000e+00 0.000000000000000e+00
0.000000000000000e+00 0.000000000000000e+00 0.000000000000000e+00
0.000000000000000e+00 0.000000000000000e+00 0.000000000000000e+00

0.000000000000000e+00 0.000000000000000e+00 0.000000000000000e+00
0.000000000000000e+00 0.000000000000000e+00 0.000000000000000e+00
0.000000000000000e+00 0.000000000000000e+00 0.000000000000000e+00

0.000000000000000e+00 0.000000000000000e+00 0.000000000000000e+00
0.000000000000000e+00 0.000000000000000e+00 0.000000000000000e+00
0.000000000000000e+00 0.000000000000000e+00 0.000000000000000e+00

0.000000000000000e+00 0.000000000000000e+00 0.000000000000000e+00
0.000000000000000e+00 0.000000000000000e+00 0.000000000000000e+00
0.000000000000000e+00 0.000000000000000e+00 0.000000000000000e+00

0.000000000000000e+00 0.000000000000000e+00 0.000000000000000e+00
0.000000000000000e+00 0.000000000000000e+00 0.000000000000000e+00
0.000000000000000e+00 0.000000000000000e+00 0.000000000000000e+00

0.000000000000000e+00 0.000000000000000e+00 0.000000000000000e+00
0.000000000000000e+00 0.000000000000000e+00 0.000000000000000e+00
0.000000000000000e+00 0.000000000000000e+00 0.000000000000000e+00

0.000000000000000e+00 0.000000000000000e+00 0.000000000000000e+00
0.000000000000000e+00 0.000000000000000e+00 0.000000000000000e+00
0.000000000000000e+00 0.000000000000000e+00 0.000000000000000e+00

0.000000000000000e+00 0.000000000000000e+00 0.000000000000000e+00
0.000000000000000e+00 0.000000000000000e+00 0.000000000000000e+00
0.000000000000000e+00 0.000000000000000e+00 0.000000000000000e+00

0.000000000000000e+00 0.000000000000000e+00 0.000000000000000e+00
0.000000000000000e+00 0.000000000000000e+00 0.000000000000000e+00
0.000000000000000e+00 0.000000000000000e+00 0.000000000000000e+00

0.000000000000000e+00 0.000000000000000e+00 0.000000000000000e+00
0.000000000000000e+00 0.000000000000000e+00 0.000000000000000e+00
0.000000000000000e+00 0.000000000000000e+00 0.000000000000000e+00

0.000000000000000e+00 0.000000000000000e+00 0.000000000000000e+00
0.000000000000000e+00 0.000000000000000e+00 0.000000000000000e+00
0.000000000000000e+00 0.000000000000000e+00 0.000000000000000e+00

0.000000000000000e+00 0.000000000000000e+00 0.000000000000000e+00
0.000000000000000e+00 0.000000000000000e+00 0.000000000000000e+00
0.000000000000000e+00 0.000000000000000e+00 0.000000000000000e+00

0.000000000000000e+00 0.000000000000000e+00 0.000000000000000e+00
0.000000000000000e+00 0.000000000000000e+00 0.000000000000000e+00
0.000000000000000e+00 0.000000000000000e+00 0.000000000000000e+00

0.000000000000000e+00 0.000000000000000e+00 0.000000000000000e+00
0.000000000000000e+00 0.000000000000000e+00 0.000000000000000e+00
0.000000000000000e+00 0.000000000000000e+00 0.000000000000000e+00

0.000000000000000e+00 0.000000000000000e+00 0.000000000000000e+00
0.000000000000000e+00 0.000000000000000e+00 0.000000000000000e+00
0.000000000000000e+00 0.000000000000000e+00 0.000000000000000e+00

0.000000000000000e+00 0.000000000000000e+00 0.000000000000000e+00
0.000000000000000e+00 0.000000000000000e+00 0.000000000000000e+00
0.000000000000000e+00 0.000000000000000e+00 0.000000000000000e+00

0.000000000000000e+00 0.000000000000000e+00 0.000000000000000e+00
0.000000000000000e+00 0.000000000000000e+00 0.000000000000000e+00
0.000000000000000e+00 0.000000000000000e+00 0.000000000000000e+00

0.000000000000000e+00 0.000000000000000e+00 0.000000000000000e+00
0.000000000000000e+00 0.000000000000000e+00 0.000000000000000e+00
0.000000000000000e+00 0.000000000000000e+00 0.000000000000000e+00

0.000000000000000e+00 0.000000000000000e+00 0.000000000000000e+00
0.000000000000000e+00 0.000000000000000e+00 0.000000000000000e+00
0.000000000000000e+00 0.000000000000000e+00 0.000000000000000e+00

0.000000000000000e+00 0.000000000000000e+00 0.000000000000000e+00
0.000000000000000e+00 0.000000000000000e+00 0.000000000000000e+00
0.000000000000000e+00 0.000000000000000e+00 0.000000000000000e+00

0.000000000000000e+00 0.000000000000000e+00 0.000000000000000e+00
0.000000000000000e+00 0.000000000000000e+00 0.000000000000000e+00
0.000000000000000e+00 0.000000000000000e+00 0.000000000000000e+00

0.000000000000000e+00 0.000000000000000e+00 0.000000000000000e+00
0.000000000000000e+00 0.000000000000000e+00 0.000000000000000e+00
0.000000000000000e+00 0.000000000000000e+00 0.000000000000000e+00

0.000000000000000e+00 0.000000000000000e+00 0.000000000000000e+00
0.000000000000000e+00 0.000000000000000e+00 0.000000000000000e+00
0.000000000000000e+00 0.000000000000000e+00 0.000000000000000e+00

0.000000000000000e+00 0.000000000000000e+00 0.000000000000000e+00
0.000000000000000e+00 0.000000000000000e+00 0.000000000000000e+00
0.000000000000000e+00 0.000000000000000e+00 0.000000000000000e+00

0.000000000000000e+00 0.000000000000000e+00 0.000000000000000e+00
0.000000000000000e+00 0.000000000000000e+00 0.000000000000000e+00
0.000000000000000e+00 0.000000000000000e+00 0.000000000000000e+00

0.000000000000000e+00 0.000000000000000e+00 0.000000000000000e+00
0.000000000000000e+00 0.000000000000000e+00 0.000000000000000e+00
0.000000000000000e+00 0.000000000000000e+00 0.000000000000000e+00

0.000000000000000e+00 0.000000000000000e+00 0.000000000000000e+00
0.000000000000000e+00 0.000000000000000e+00 0.000000000000000e+00
0.000000000000000e+00 0.000000000000000e+00 0.000000000000000e+00

0.000000000000000e+00 0.000000000000000e+00 0.000000000000000e+00
0.000000000000000e+00 0.000000000000000e+00 0.000000000000000e+00
0.000000000000000e+00 0.000000000000000e+00 0.000000000000000e+00

0.000000000000000e+00 0.000000000000000e+00 0.000000000000000e+00
0.000000000000000e+00 0.000000000000000e+00 0.000000000000000e+00
0.000000000000000e+00 0.000000000000000e+00 0.000000000000000e+00

0.000000000000000e+00 0.000000000000000e+00 0.000000000000000e+00
0.000000000000000e+00 0.000000000000000e+00 0.000000000000000e+00
0.000000000000000e+00 0.000000000000000e+00 0.000000000000000e+00

0.000000000000000e+00 0.000000000000000e+00 0.000000000000000e+00
0.000000000000000e+00 0.000000000000000e+00 0.000000000000000e+00
0.000000000000000e+00 0.000000000000000e+00 0.000000000000000e+00

0.000000000000000e+00 0.000000000000000e+00 0.000000000000000e+00
0.000000000000000e+00 0.000000000000000e+00 0.000000000000000e+00
0.000000000000000e+00 0.000000000000000e+00 0.000000000000000e+00

0.000000000000000e+00 0.000000000000000e+00 0.000000000000000e+00
0.000000000000000e+00 0.000000000000000e+00 0.000000000000000e+00
0.000000000000000e+00 0.000000000000000e+00 0.000000000000000e+00

0.000000000000000e+00 0.000000000000000e+00 0.000000000000000e+00
0.000000000000000e+00 0.000000000000000e+00 0.000000000000000e+00
0.000000000000000e+00 0.000000000000000e+00 0.000000000000000e+00

0.000000000000000e+00 0.000000000000000e+00 0.000000000000000e+00
0.000000000000000e+00 0.000000000000000e+00 0.000000000000000e+00
0.000000000000000e+00 0.000000000000000e+00 0.000000000000000e+00

0.000000000000000e+00 0.000000000000000e+00 0.000000000000000e+00
0.000000000000000e+00 0.000000000000000e+00 0.000000000000000e+00
0.000000000000000e+00 0.000000000000000e+00 0.000000000000000e+00

0.000000000000000e+00 0.000000000000000e+00 0.000000000000000e+00
0.000000000000000e+00 0.000000000000000e+00 0.000000000000000e+00
0.000000000000000e+00 0.000000000000000e+00 0.000000000000000e+00

0.000000000000000e+00 0.000000000000000e+00 0.000000000000000e+00
0.000000000000000e+00 0.000000000000000e+00 0.000000000000000e+00
0.000000000000000e+00 0.000000000000000e+00 0.000000000000000e+00

0.000000000000000e+00 0.000000000000000e+00 0.000000000000000e+00
0.000000000000000e+00 0.000000000000000e+00 0.000000000000000e+00
0.000000000000000e+00 0.000000000000000e+00 0.000000000000000e+00

0.000000000000000e+00 0.000000000000000e+00 0.000000000000000e+00
0.000000000000000e+00 0.000000000000000e+00 0.000000000000000e+00
0.000000000000000e+00 0.000000000000000e+00 0.000000000000000e+00

0.000000000000000e+00 0.000000000000000e+00 0.000000000000000e+00
0.000000000000000e+00 0.000000000000000e+00 0.000000000000000e+00
0.000000000000000e+00 0.000000000000000e+00 0.000000000000000e+00

0.000000000000000e+00 0.000000000000000e+00 0.000000000000000e+00
0.000000000000000e+00 0.000000000000000e+00 0.000000000000000e+00
0.000000000000000e+00 0.000000000000000e+00 0.000000000000000e+00

0.000000000000000e+00 0.000000000000000e+00 0.000000000000000e+00
0.000000000000000e+00 0.000000000000000e+00 0.000000000000000e+00
0.000000000000000e+00 0.000000000000000e+00 0.000000000000000e+00

0.000000000000000e+00 0.000000000000000e+00 0.000000000000000e+00
0.000000000000000e+00 0.000000000000000e+00 0.000000000000000e+00
0.000000000000000e+00 0.000000000000000e+00 0.000000000000000e+00

0.000000000000000e+00 0.000000000000000e+00 0.000000000000000e+00
0.000000000000000e+00 0.000000000000000e+00 0.000000000000000e+00
0.000000000000000e+00 0.000000000000000e+00 0.000000000000000e+00

0.000000000000000e+00 0.000000000000000e+00 0.000000000000000e+00
0.000000000000000e+00 0.000000000000000e+00 0.000000000000000e+00
0.000000000000000e+00 0.000000000000000e+00 0.000000000000000e+00

0.000000000000000e+00 0.000000000000000e+00 0.000000000000000e+00
0.000000000000000e+00 0.000000000000000e+00 0.000000000000000e+00
0.000000000000000e+00 0.000000000000000e+00 0.000000000000000e+00

0.000000000000000e+00 0.000000000000000e+00 0.000000000000000e+00
0.000000000000000e+00 0.000000000000000e+00 0.000000000000000e+00
0.000000000000000e+00 0.000000000000000e+00 0.000000000000000e+00

0.000000000000000e+00 0.000000000000000e+00 0.000000000000000e+00
0.000000000000000e+00 0.000000000000000e+00 0.000000000000000e+00
0.000000000000000e+00 0.000000000000000e+00 0.000000000000000e+00

0.000000000000000e+00 0.000000000000000e+00 0.000000000000000e+00
0.000000000000000e+00 0.000000000000000e+00 0.000000000000000e+00
0.000000000000000e+00 0.000000000000000e+00 0.000000000000000e+00

0.000000000000000e+00 0.000000000000000e+00 0.000000000000000e+00
0.000000000000000e+00 0.000000000000000e+00 0.000000000000000e+00
0.000000000000000e+00 0.000000000000000e+00 0.000000000000000e+00

0.000000000000000e+00 0.000000000000000e+00 0.000000000000000e+00
0.000000000000000e+00 0.000000000000000e+00 0.000000000000000e+00
0.000000000000000e+00 0.000000000000000e+00 0.000000000000000e+00

0.000000000000000e+00 0.000000000000000e+00 0.000000000000000e+00
0.000000000000000e+00 0.000000000000000e+00 0.000000000000000e+00
0.000000000000000e+00 0.000000000000000e+00 0.000000000000000e+00

0.000000000000000e+00 0.000000000000000e+00 0.000000000000000e+00
0.000000000000000e+00 0.000000000000000e+00 0.000000000000000e+00
0.000000000000000e+00 0.000000000000000e+00 0.000000000000000e+00

0.000000000000000e+00 0.000000000000000e+00 0.000000000000000e+00
0.000000000000000e+00 0.000000000000000e+00 0.000000000000000e+00
0.000000000000000e+00 0.000000000000000e+00 0.000000000000000e+00

0.000000000000000e+00 0.000000000000000e+00 0.000000000000000e+00
0.000000000000000e+00 0.000000000000000e+00 0.000000000000000e+00
0.000000000000000e+00 0.000000000000000e+00 0.000000000000000e+00

0.000000000000000e+00 0.000000000000000e+00 0.000000000000000e+00
0.000000000000000e+00 0.000000000000000e+00 0.000000000000000e+00
0.000000000000000e+00 0.000000000000000e+00 0.000000000000000e+00

0.000000000000000e+00 0.000000000000000e+00 0.000000000000000e+00
0.000000000000000e+00 0.000000000000000e+00 0.000000000000000e+00
0.000000000000000e+00 0.000000000000000e+00 0.000000000000000e+00

0.000000000000000e+00 0.000000000000000e+00 0.000000000000000e+00
0.000000000000000e+00 0.000000000000000e+00 0.000000000000000e+00
0.000000000000000e+00 0.000000000000000e+00 0.000000000000000e+00

0.000000000000000e+00 0.000000000000000e+00 0.000000000000000e+00
0.000000000000000e+00 0.000000000000000e+00 0.000000000000000e+00
0.000000000000000e+00 0.000000000000000e+00 0.000000000000000e+00

0.000000000000000e+00 0.000000000000000e+00 0.000000000000000e+00
0.000000000000000e+00 0.000000000000000e+00 0.000000000000000e+00
0.000000000000000e+00 0.000000000000000e+00 0.000000000000000e+00

0.000000000000000e+00 0.000000000000000e+00 0.000000000000000e+00
0.000000000000000e+00 0.000000000000000e+00 0.000000000000000e+00
0.000000000000000e+00 0.000000000000000e+00 0.000000000000000e+00

0.000000000000000e+00 0.000000000000000e+00 0.000000000000000e+00
0.000000000000000e+00 0.000000000000000e+00 0.000000000000000e+00
0.000000000000000e+00 0.000000000000000e+00 0.000000000000000e+00

0.000000000000000e+00 0.000000000000000e+00 0.000000000000000e+00
0.000000000000000e+00 0.000000000000000e+00 0.000000000000000e+00
0.000000000000000e+00 0.000000000000000e+00 0.000000000000000e+00

0.000000000000000e+00 0.000000000000000e+00 0.000000000000000e+00
0.000000000000000e+00 0.000000000000000e+00 0.000000000000000e+00
0.000000000000000e+00 0.000000000000000e+00 0.000000000000000e+00

0.000000000000000e+00 0.000000000000000e+00 0.000000000000000e+00
0.000000000000000e+00 0.000000000000000e+00 0.000000000000000e+00
0.000000000000000e+00 0.000000000000000e+00 0.000000000000000e+00

0.000000000000000e+00 0.000000000000000e+00 0.000000000000000e+00
0.000000000000000e+00 0.000000000000000e+00 0.000000000000000e+00
0.000000000000000e+00 0.000000000000000e+00 0.000000000000000e+00

0.000000000000000e+00 0.000000000000000e+00 0.000000000000000e+00
0.000000000000000e+00 0.000000000000000e+00 0.000000000000000e+00
0.000000000000000e+00 0.000000000000000e+00 0.000000000000000e+00

0.000000000000000e+00 0.000000000000000e+00 0.000000000000000e+00
0.000000000000000e+00 0.000000000000000e+00 0.000000000000000e+00
0.000000000000000e+00 0.000000000000000e+00 0.000000000000000e+00

0.000000000000000e+00 0.000000000000000e+00 0.000000000000000e+00
0.000000000000000e+00 0.000000000000000e+00 0.000000000000000e+00
0.000000000000000e+00 0.000000000000000e+00 0.000000000000000e+00

0.000000000000000e+00 0.000000000000000e+00 0.000000000000000e+00
0.000000000000000e+00 0.000000000000000e+00 0.000000000000000e+00
0.000000000000000e+00 0.000000000000000e+00 0.000000000000000e+00

0.000000000000000e+00 0.000000000000000e+00 0.000000000000000e+00
0.000000000000000e+00 0.000000000000000e+00 0.000000000000000e+00
0.000000000000000e+00 0.000000000000000e+00 0.000000000000000e+00

0.000000000000000e+00 0.000000000000000e+00 0.000000000000000e+00
0.000000000000000e+00 0.000000000000000e+00 0.000000000000000e+00
0.000000000000000e+00 0.000000000000000e+00 0.000000000000000e+00

0.000000000000000e+00 0.000000000000000e+00 0.000000000000000e+00
0.000000000000000e+00 0.000000000000000e+00 0.000000000000000e+00
0.000000000000000e+00 0.000000000000000e+00 0.000000000000000e+00

0.000000000000000e+00 0.000000000000000e+00 0.000000000000000e+00
0.000000000000000e+00 0.000000000000000e+00 0.000000000000000e+00
0.000000000000000e+00 0.000000000000000e+00 0.000000000000000e+00

0.000000000000000e+00 0.000000000000000e+00 0.000000000000000e+00
0.000000000000000e+00 0.000000000000000e+00 0.000000000000000e+00
0.000000000000000e+00 0.000000000000000e+00 0.000000000000000e+00

0.000000000000000e+00 0.000000000000000e+00 0.000000000000000e+00
0.000000000000000e+00 0.000000000000000e+00 0.000000000000000e+00
0.000000000000000e+00 0.000000000000000e+00 0.000000000000000e+00

0.000000000000000e+00 0.000000000000000e+00 0.000000000000000e+00
0.000000000000000e+00 0.000000000000000e+00 0.000000000000000e+00
0.000000000000000e+00 0.000000000000000e+00 0.000000000000000e+00

0.000000000000000e+00 0.000000000000000e+00 0.000000000000000e+00
0.000000000000000e+00 0.000000000000000e+00 0.000000000000000e+00
0.000000000000000e+00 0.000000000000000e+00 0.000000000000000e+00

0.000000000000000e+00 0.000000000000000e+00 0.000000000000000e+00
0.000000000000000e+00 0.000000000000000e+00 0.000000000000000e+00
0.000000000000000e+00 0.000000000000000e+00 0.000000000000000e+00

0.000000000000000e+00 0.000000000000000e+00 0.000000000000000e+00
0.000000000000000e+00 0.000000000000000e+00 0.000000000000000e+00
0.000000000000000e+00 0.000000000000000e+00 0.000000000000000e+00

0.000000000000000e+00 0.000000000000000e+00 0.000000000000000e+00
0.000000000000000e+00 0.000000000000000e+00 0.000000000000000e+00
0.000000000000000e+00 0.000000000000000e+00 0.000000000000000e+00

0.000000000000000e+00 0.000000000000000e+00 0.000000000000000e+00
0.000000000000000e+00 0.000000000000000e+00 0.000000000000000e+00
0.000000000000000e+00 0.000000000000000e+00 0.000000000000000e+00

0.000000000000000e+00 0.000000000000000e+00 0.000000000000000e+00
0.000000000000000e+00 0.000000000000000e+00 0.000000000000000e+00
0.000000000000000e+00 0.000000000000000e+00 0.000000000000000e+00

0.000000000000000e+00 0.000000000000000e+00 0.000000000000000e+00
0.000000000000000e+00 0.000000000000000e+00 0.000000000000000e+00
0.000000000000000e+00 0.000000000000000e+00 0.000000000000000e+00

0.000000000000000e+00 0.000000000000000e+00 0.000000000000000e+00
0.000000000000000e+00 0.000000000000000e+00 0.000000000000000e+00
0.000000000000000e+00 0.000000000000000e+00 0.000000000000000e+00

0.000000000000000e+00 0.000000000000000e+00 0.000000000000000e+00
0.000000000000000e+00 0.000000000000000e+00 0.000000000000000e+00
0.000000000000000e+00 0.000000000000000e+00 0.000000000000000e+00

0.000000000000000e+00 0.000000000000000e+00 0.000000000000000e+00
0.000000000000000e+00 0.000000000000000e+00 0.000000000000000e+00
0.000000000000000e+00 0.000000000000000e+00 0.000000000000000e+00

0.000000000000000e+00 0.000000000000000e+00 0.000000000000000e+00
0.000000000000000e+00 0.000000000000000e+00 0.000000000000000e+00
0.000000000000000e+00 0.000000000000000e+00 0.000000000000000e+00

0.000000000000000e+00 0.000000000000000e+00 0.000000000000000e+00
0.000000000000000e+00 0.000000000000000e+00 0.000000000000000e+00
0.000000000000000e+00 0.000000000000000e+00 0.000000000000000e+00

0.000000000000000e+00 0.000000000000000e+00 0.000000000000000e+00
0.000000000000000e+00 0.000000000000000e+00 0.000000000000000e+00
0.000000000000000e+00 0.000000000000000e+00 0.000000000000000e+00

0.000000000000000e+00 0.000000000000000e+00 0.000000000000000e+00
0.000000000000000e+00 0.000000000000000e+00 0.000000000000000e+00
0.000000000000000e+00 0.000000000000000e+00 0.000000000000000e+00

0.000000000000000e+00 0.000000000000000e+00 0.000000000000000e+00
0.000000000000000e+00 0.000000000000000e+00 0.000000000000000e+00
0.000000000000000e+00 0.000000000000000e+00 0.000000000000000e+00

0.000000000000000e+00 0.000000000000000e+00 0.000000000000000e+00
0.000000000000000e+00 0.000000000000000e+00 0.000000000000000e+00
0.000000000000000e+00 0.000000000000000e+00 0.000000000000000e+00

0.000000000000000e+00 0.000000000000000e+00 0.000000000000000e+00
0.000000000000000e+00 0.000000000000000e+00 0.000000000000000e+00
0.000000000000000e+00 0.000000000000000e+00 0.000000000000000e+00

0.000000000000000e+00 0.000000000000000e+00 0.000000000000000e+00
0.000000000000000e+00 0.000000000000000e+00 0.000000000000000e+00
0.000000000000000e+00 0.000000000000000e+00 0.000000000000000e+00

0.000000000000000e+00 0.000000000000000e+00 0.000000000000000e+00
0.000000000000000e+00 0.000000000000000e+00 0.000000000000000e+00
0.000000000000000e+00 0.000000000000000e+00 0.000000000000000e+00

0.000000000000000e+00 0.000000000000000e+00 0.000000000000000e+00
0.000000000000000e+00 0.000000000000000e+00 0.000000000000000e+00
0.000000000000000e+00 0.000000000000000e+00 0.000000000000000e+00

0.000000000000000e+00 0.000000000000000e+00 0.000000000000000e+00
0.000000000000000e+00 0.000000000000000e+00 0.000000000000000e+00
0.000000000000000e+00 0.000000000000000e+00 0.000000000000000e+00

0.000000000000000e+00 0.000000000000000e+00 0.000000000000000e+00
0.000000000000000e+00 0.000000000000000e+00 0.000000000000000e+00
0.000000000000000e+00 0.000000000000000e+00 0.000000000000000e+00

0.000000000000000e+00 0.000000000000000e+00 0.000000000000000e+00
0.000000000000000e+00 0.000000000000000e+00 0.000000000000000e+00
0.000000000000000e+00 0.000000000000000e+00 0.000000000000000e+00

0.000000000000000e+00 0.000000000000000e+00 0.000000000000000e+00
0.000000000000000e+00 0.000000000000000e+00 0.000000000000000e+00
0.000000000000000e+00 0.000000000000000e+00 0.000000000000000e+00

0.000000000000000e+00 0.000000000000000e+00 0.000000000000000e+00
0.000000000000000e+00 0.000000000000000e+00 0.000000000000000e+00
0.000000000000000e+00 0.000000000000000e+00 0.000000000000000e+00

0.000000000000000e+00 0.000000000000000e+00 0.000000000000000e+00
0.000000000000000e+00 0.000000000000000e+00 0.000000000000000e+00
0.000000000000000e+00 0.000000000000000e+00 0.000000000000000e+00

0.000000000000000e+00 0.000000000000000e+00 0.000000000000000e+00
0.000000000000000e+00 0.000000000000000e+00 0.000000000000000e+00
0.000000000000000e+00 0.000000000000000e+00 0.000000000000000e+00

0.000000000000000e+00 0.000000000000000e+00 0.000000000000000e+00
0.000000000000000e+00 0.000000000000000e+00 0.000000000000000e+00
0.000000000000000e+00 0.000000000000000e+00 0.000000000000000e+00

0.000000000000000e+00 0.000000000000000e+00 0.000000000000000e+00
0.000000000000000e+00 0.000000000000000e+00 0.000000000000000e+00
0.000000000000000e+00 0.000000000000000e+00 0.000000000000000e+00

0.000000000000000e+00 0.000000000000000e+00 0.000000000000000e+00
0.000000000000000e+00 0.000000000000000e+00 0.000000000000000e+00
0.000000000000000e+00 0.000000000000000e+00 0.000000000000000e+00

0.000000000000000e+00 0.000000000000000e+00 0.000000000000000e+00
0.000000000000000e+00 0.000000000000000e+00 0.000000000000000e+00
0.000000000000000e+00 0.000000000000000e+00 0.000000000000000e+00

0.000000000000000e+00 0.000000000000000e+00 0.000000000000000e+00
0.000000000000000e+00 0.000000000000000e+00 0.000000000000000e+00
0.000000000000000e+00 0.000000000000000e+00 0.000000000000000e+00

0.000000000000000e+00 0.000000000000000e+00 0.000000000000000e+00
0.000000000000000e+00 0.000000000000000e+00 0.000000000000000e+00
0.000000000000000e+00 0.000000000000000e+00 0.000000000000000e+00

0.000000000000000e+00 0.000000000000000e+00 0.000000000000000e+00
0.000000000000000e+00 0.000000000000000e+00 0.000000000000000e+00
0.000000000000000e+00 0.000000000000000e+00 0.000000000000000e+00

0.000000000000000e+00 0.000000000000000e+00 0.000000000000000e+00
0.000000000000000e+00 0.000000000000000e+00 0.000000000000000e+00
0.000000000000000e+00 0.000000000000000e+00 0.000000000000000e+00

0.000000000000000e+00 0.000000000000000e+00 0.000000000000000e+00
0.000000000000000e+00 0.000000000000000e+00 0.000000000000000e+00
0.000000000000000e+00 0.000000000000000e+00 0.000000000000000e+00

0.000000000000000e+00 0.000000000000000e+00 0.000000000000000e+00
0.000000000000000e+00 0.000000000000000e+00 0.000000000000000e+00
0.000000000000000e+00 0.000000000000000e+00 0.000000000000000e+00

0.000000000000000e+00 0.000000000000000e+00 0.000000000000000e+00
0.000000000000000e+00 0.000000000000000e+00 0.000000000000000e+00
0.000000000000000e+00 0.000000000000000e+00 0.000000000000000e+00

0.000000000000000e+00 0.000000000000000e+00 0.000000000000000e+00
0.000000000000000e+00 0.000000000000000e+00 0.000000000000000e+00
0.000000000000000e+00 0.000000000000000e+00 0.000000000000000e+00

0.000000000000000e+00 0.000000000000000e+00 0.000000000000000e+00
0.000000000000000e+00 0.000000000000000e+00 0.000000000000000e+00
0.000000000000000e+00 0.000000000000000e+00 0.000000000000000e+00

0.000000000000000e+00 0.000000000000000e+00 0.000000000000000e+00
0.000000000000000e+00 0.000000000000000e+00 0.000000000000000e+00
0.000000000000000e+00 0.000000000000000e+00 0.000000000000000e+00

0.000000000000000e+00 0.000000000000000e+00 0.000000000000000e+00
0.000000000000000e+00 0.000000000000000e+00 0.000000000000000e+00
0.000000000000000e+00 0.000000000000000e+00 0.000000000000000e+00

0.000000000000000e+00 0.000000000000000e+00 0.000000000000000e+00
0.000000000000000e+00 0.000000000000000e+00 0.000000000000000e+00
0.000000000000000e+00 0.000000000000000e+00 0.000000000000000e+00

0.000000000000000e+00 0.000000000000000e+00 0.000000000000000e+00
0.000000000000000e+00 0.000000000000000e+00 0.000000000000000e+00
0.000000000000000e+00 0.000000000000000e+00 0.000000000000000e+00

0.000000000000000e+00 0.000000000000000e+00 0.000000000000000e+00
0.000000000000000e+00 0.000000000000000e+00 0.000000000000000e+00
0.000000000000000e+00 0.000000000000000e+00 0.000000000000000e+00

0.000000000000000e+00 0.000000000000000e+00 0.000000000000000e+00
0.000000000000000e+00 0.000000000000000e+00 0.000000000000000e+00
0.000000000000000e+00 0.000000000000000e+00 0.000000000000000e+00

0.000000000000000e+00 0.000000000000000e+00 0.000000000000000e+00
0.000000000000000e+00 0.000000000000000e+00 0.000000000000000e+00
0.000000000000000e+00 0.000000000000000e+00 0.000000000000000e+00

0.000000000000000e+00 0.000000000000000e+00 0.000000000000000e+00
0.000000000000000e+00 0.000000000000000e+00 0.000000000000000e+00
0.000000000000000e+00 0.000000000000000e+00 0.000000000000000e+00

0.000000000000000e+00 0.000000000000000e+00 0.000000000000000e+00
0.000000000000000e+00 0.000000000000000e+00 0.000000000000000e+00
0.000000000000000e+00 0.000000000000000e+00 0.000000000000000e+00

0.000000000000000e+00 0.000000000000000e+00 0.000000000000000e+00
0.000000000000000e+00 0.000000000000000e+00 0.000000000000000e+00
0.000000000000000e+00 0.000000000000000e+00 0.000000000000000e+00

0.000000000000000e+00 0.000000000000000e+00 0.000000000000000e+00
0.000000000000000e+00 0.000000000000000e+00 0.000000000000000e+00
0.000000000000000e+00 0.000000000000000e+00 0.000000000000000e+00

0.000000000000000e+00 0.000000000000000e+00 0.000000000000000e+00
0.000000000000000e+00 0.000000000000000e+00 0.000000000000000e+00
0.000000000000000e+00 0.000000000000000e+00 0.000000000000000e+00

0.000000000000000e+00 0.000000000000000e+00 0.000000000000000e+00
0.000000000000000e+00 0.000000000000000e+00 0.000000000000000e+00
0.000000000000000e+00 0.000000000000000e+00 0.000000000000000e+00

0.000000000000000e+00 0.000000000000000e+00 0.000000000000000e+00
0.000000000000000e+00 0.000000000000000e+00 0.000000000000000e+00
0.000000000000000e+00 0.000000000000000e+00 0.000000000000000e+00

0.000000000000000e+00 0.000000000000000e+00 0.000000000000000e+00
0.000000000000000e+00 0.000000000000000e+00 0.000000000000000e+00
0.000000000000000e+00 0.000000000000000e+00 0.000000000000000e+00

0.000000000000000e+00 0.000000000000000e+00 0.000000000000000e+00
0.000000000000000e+00 0.000000000000000e+00 0.000000000000000e+00
0.000000000000000e+00 0.000000000000000e+00 0.000000000000000e+00

0.000000000000000e+00 0.000000000000000e+00 0.000000000000000e+00
0.000000000000000e+00 0.000000000000000e+00 0.000000000000000e+00
0.000000000000000e+00 0.000000000000000e+00 0.000000000000000e+00

0.000000000000000e+00 0.000000000000000e+00 0.000000000000000e+00
0.000000000000000e+00 0.000000000000000e+00 0.000000000000000e+00
0.000000000000000e+00 0.000000000000000e+00 0.000000000000000e+00

0.000000000000000e+00 0.000000000000000e+00 0.000000000000000e+00
0.000000000000000e+00 0.000000000000000e+00 0.000000000000000e+00
0.000000000000000e+00 0.000000000000000e+00 0.000000000000000e+00

0.000000000000000e+00 0.000000000000000e+00 0.000000000000000e+00
0.000000000000000e+00 0.000000000000000e+00 0.000000000000000e+00
0.000000000000000e+00 0.000000000000000e+00 0.000000000000000e+00

0.000000000000000e+00 0.000000000000000e+00 0.000000000000000e+00
0.000000000000000e+00 0.000000000000000e+00 0.000000000000000e+00
0.000000000000000e+00 0.000000000000000e+00 0.000000000000000e+00

0.000000000000000e+00 0.000000000000000e+00 0.000000000000000e+00
0.000000000000000e+00 0.000000000000000e+00 0.000000000000000e+00
0.000000000000000e+00 0.000000000000000e+00 0.000000000000000e+00

0.000000000000000e+00 0.000000000000000e+00 0.000000000000000e+00
0.000000000000000e+00 0.000000000000000e+00 0.000000000000000e+00
0.000000000000000e+00 0.000000000000000e+00 0.000000000000000e+00

0.000000000000000e+00 0.000000000000000e+00 0.000000000000000e+00
0.000000000000000e+00 0.000000000000000e+00 0.000000000000000e+00
0.000000000000000e+00 0.000000000000000e+00 0.000000000000000e+00

0.000000000000000e+00 0.000000000000000e+00 0.000000000000000e+00
0.000000000000000e+00 0.000000000000000e+00 0.000000000000000e+00
0.000000000000000e+00 0.000000000000000e+00 0.000000000000000e+00

0.000000000000000e+00 0.000000000000000e+00 0.000000000000000e+00
0.000000000000000e+00 0.000000000000000e+00 0.000000000000000e+00
0.000000000000000e+00 0.000000000000000e+00 0.000000000000000e+00

0.000000000000000e+00 0.000000000000000e+00 0.000000000000000e+00
0.000000000000000e+00 0.000000000000000e+00 0.000000000000000e+00
0.000000000000000e+00 0.000000000000000e+00 0.000000000000000e+00

0.000000000000000e+00 0.000000000000000e+00 0.000000000000000e+00
0.000000000000000e+00 0.000000000000000e+00 0.000000000000000e+00
0.000000000000000e+00 0.000000000000000e+00 0.000000000000000e+00

0.000000000000000e+00 0.000000000000000e+00 0.000000000000000e+00
0.000000000000000e+00 0.000000000000000e+00 0.000000000000000e+00
0.000000000000000e+00 0.000000000000000e+00 0.000000000000000e+00

0.000000000000000e+00 0.000000000000000e+00 0.000000000000000e+00
0.000000000000000e+00 0.000000000000000e+00 0.000000000000000e+00
0.000000000000000e+00 0.000000000000000e+00 0.000000000000000e+00

0.000000000000000e+00 0.000000000000000e+00 0.000000000000000e+00
0.000000000000000e+00 0.000000000000000e+00 0.000000000000000e+00
0.000000000000000e+00 0.000000000000000e+00 0.000000000000000e+00

0.000000000000000e+00 0.000000000000000e+00 0.000000000000000e+00
0.000000000000000e+00 0.000000000000000e+00 0.000000000000000e+00
0.000000000000000e+00 0.000000000000000e+00 0.000000000000000e+00

0.000000000000000e+00 0.000000000000000e+00 0.000000000000000e+00
0.000000000000000e+00 0.000000000000000e+00 0.000000000000000e+00
0.000000000000000e+00 0.000000000000000e+00 0.000000000000000e+00

0.000000000000000e+00 0.000000000000000e+00 0.000000000000000e+00
0.000000000000000e+00 0.000000000000000e+00 0.000000000000000e+00
0.000000000000000e+00 0.000000000000000e+00 0.000000000000000e+00

0.000000000000000e+00 0.000000000000000e+00 0.000000000000000e+00
0.000000000000000e+00 0.000000000000000e+00 0.000000000000000e+00
0.000000000000000e+00 0.000000000000000e+00 0.000000000000000e+00

0.000000000000000e+00 0.000000000000000e+00 0.000000000000000e+00
0.000000000000000e+00 0.000000000000000e+00 0.000000000000000e+00
0.000000000000000e+00 0.000000000000000e+00 0.000000000000000e+00

0.000000000000000e+00 0.000000000000000e+00 0.000000000000000e+00
0.000000000000000e+00 0.000000000000000e+00 0.000000000000000e+00
0.000000000000000e+00 0.000000000000000e+00 0.000000000000000e+00

0.000000000000000e+00 0.000000000000000e+00 0.000000000000000e+00
0.000000000000000e+00 0.000000000000000e+00 0.000000000000000e+00
0.000000000000000e+00 0.000000000000000e+00 0.000000000000000e+00

0.000000000000000e+00 0.000000000000000e+00 0.000000000000000e+00
0.000000000000000e+00 0.000000000000000e+00 0.000000000000000e+00
0.000000000000000e+00 0.000000000000000e+00 0.000000000000000e+00

0.000000000000000e+00 0.000000000000000e+00 0.000000000000000e+00
0.000000000000000e+00 0.000000000000000e+00 0.000000000000000e+00
0.000000000000000e+00 0.000000000000000e+00 0.000000000000000e+00

0.000000000000000e+00 0.000000000000000e+00 0.000000000000000e+00
0.000000000000000e+00 0.000000000000000e+00 0.000000000000000e+00
0.000000000000000e+00 0.000000000000000e+00 0.000000000000000e+00

0.000000000000000e+00 0.000000000000000e+00 0.000000000000000e+00
0.000000000000000e+00 0.000000000000000e+00 0.000000000000000e+00
0.000000000000000e+00 0.000000000000000e+00 0.000000000000000e+00

0.000000000000000e+00 0.000000000000000e+00 0.000000000000000e+00
0.000000000000000e+00 0.000000000000000e+00 0.000000000000000e+00
0.000000000000000e+00 0.000000000000000e+00 0.000000000000000e+00

0.000000000000000e+00 0.000000000000000e+00 0.000000000000000e+00
0.000000000000000e+00 0.000000000000000e+00 0.000000000000000e+00
0.000000000000000e+00 0.000000000000000e+00 0.000000000000000e+00

0.000000000000000e+00 0.000000000000000e+00 0.000000000000000e+00
0.000000000000000e+00 0.000000000000000e+00 0.000000000000000e+00
0.000000000000000e+00 0.000000000000000e+00 0.000000000000000e+00

0.000000000000000e+00 0.000000000000000e+00 0.000000000000000e+00
0.000000000000000e+00 0.000000000000000e+00 0.000000000000000e+00
0.000000000000000e+00 0.000000000000000e+00 0.000000000000000e+00

0.000000000000000e+00 0.000000000000000e+00 0.000000000000000e+00
0.000000000000000e+00 0.000000000000000e+00 0.000000000000000e+00
0.000000000000000e+00 0.000000000000000e+00 0.000000000000000e+00

0.000000000000000e+00 0.000000000000000e+00 0.000000000000000e+00
0.000000000000000e+00 0.000000000000000e+00 0.000000000000000e+00
0.000000000000000e+00 0.000000000000000e+00 0.000000000000000e+00

0.000000000000000e+00 0.000000000000000e+00 0.000000000000000e+00
0.000000000000000e+00 0.000000000000000e+00 0.000000000000000e+00
0.000000000000000e+00 0.000000000000000e+00 0.000000000000000e+00

0.000000000000000e+00 0.000000000000000e+00 0.000000000000000e+00
0.000000000000000e+00 0.000000000000000e+00 0.000000000000000e+00
0.000000000000000e+00 0.000000000000000e+00 0.000000000000000e+00

0.000000000000000e+00 0.000000000000000e+00 0.000000000000000e+00
0.000000000000000e+00 0.000000000000000e+00 0.000000000000000e+00
0.000000000000000e+00 0.000000000000000e+00 0.000000000000000e+00

0.000000000000000e+00 0.000000000000000e+00 0.000000000000000e+00
0.000000000000000e+00 0.000000000000000e+00 0.000000000000000e+00
0.000000000000000e+00 0.000000000000000e+00 0.000000000000000e+00

0.000000000000000e+00 0.000000000000000e+00 0.000000000000000e+00
0.000000000000000e+00 0.000000000000000e+00 0.000000000000000e+00
0.000000000000000e+00 0.000000000000000e+00 0.000000000000000e+00

0.000000000000000e+00 0.000000000000000e+00 0.000000000000000e+00
0.000000000000000e+00 0.000000000000000e+00 0.000000000000000e+00
0.000000000000000e+00 0.000000000000000e+00 0.000000000000000e+00

0.000000000000000e+00 0.000000000000000e+00 0.000000000000000e+00
0.000000000000000e+00 0.000000000000000e+00 0.000000000000000e+00
0.000000000000000e+00 0.000000000000000e+00 0.000000000000000e+00

0.000000000000000e+00 0.000000000000000e+00 0.000000000000000e+00
0.000000000000000e+00 0.000000000000000e+00 0.000000000000000e+00
0.000000000000000e+00 0.000000000000000e+00 0.000000000000000e+00

0.000000000000000e+00 0.000000000000000e+00 0.000000000000000e+00
0.000000000000000e+00 0.000000000000000e+00 0.000000000000000e+00
0.000000000000000e+00 0.000000000000000e+00 0.000000000000000e+00

0.000000000000000e+00 0.000000000000000e+00 0.000000000000000e+00
0.000000000000000e+00 0.000000000000000e+00 0.000000000000000e+00
0.000000000000000e+00 0.000000000000000e+00 0.000000000000000e+00

0.000000000000000e+00 0.000000000000000e+00 0.000000000000000e+00
0.000000000000000e+00 0.000000000000000e+00 0.000000000000000e+00
0.000000000000000e+00 0.000000000000000e+00 0.000000000000000e+00

0.000000000000000e+00 0.000000000000000e+00 0.000000000000000e+00
0.000000000000000e+00 0.000000000000000e+00 0.000000000000000e+00
0.000000000000000e+00 0.000000000000000e+00 0.000000000000000e+00

0.000000000000000e+00 0.000000000000000e+00 0.000000000000000e+00
0.000000000000000e+00 0.000000000000000e+00 0.000000000000000e+00
0.000000000000000e+00 0.000000000000000e+00 0.000000000000000e+00

0.000000000000000e+00 0.000000000000000e+00 0.000000000000000e+00
0.000000000000000e+00 0.000000000000000e+00 0.000000000000000e+00
0.000000000000000e+00 0.000000000000000e+00 0.000000000000000e+00

0.000000000000000e+00 0.000000000000000e+00 0.000000000000000e+00
0.000000000000000e+00 0.000000000000000e+00 0.000000000000000e+00
0.000000000000000e+00 0.000000000000000e+00 0.000000000000000e+00

0.000000000000000e+00 0.000000000000000e+00 0.000000000000000e+00
0.000000000000000e+00 0.000000000000000e+00 0.000000000000000e+00
0.000000000000000e+00 0.000000000000000e+00 0.000000000000000e+00

0.000000000000000e+00 0.000000000000000e+00 0.000000000000000e+00
0.000000000000000e+00 0.000000000000000e+00 0.000000000000000e+00
0.000000000000000e+00 0.000000000000000e+00 0.000000000000000e+00

0.000000000000000e+00 0.000000000000000e+00 0.000000000000000e+00
0.000000000000000e+00 0.000000000000000e+00 0.000000000000000e+00
0.000000000000000e+00 0.000000000000000e+00 0.000000000000000e+00

0.000000000000000e+00 0.000000000000000e+00 0.000000000000000e+00
0.000000000000000e+00 0.000000000000000e+00 0.000000000000000e+00
0.000000000000000e+00 0.000000000000000e+00 0.000000000000000e+00

0.000000000000000e+00 0.000000000000000e+00 0.000000000000000e+00
0.000000000000000e+00 0.000000000000000e+00 0.000000000000000e+00
0.000000000000000e+00 0.000000000000000e+00 0.000000000000000e+00

0.000000000000000e+00 0.000000000000000e+00 0.000000000000000e+00
0.000000000000000e+00 0.000000000000000e+00 0.000000000000000e+00
0.000000000000000e+00 0.000000000000000e+00 0.000000000000000e+00

0.000000000000000e+00 0.000000000000000e+00 0.000000000000000e+00
0.000000000000000e+00 0.000000000000000e+00 0.000000000000000e+00
0.000000000000000e+00 0.000000000000000e+00 0.000000000000000e+00

0.000000000000000e+00 0.000000000000000e+00 0.000000000000000e+00
0.000000000000000e+00 0.000000000000000e+00 0.000000000000000e+00
0.000000000000000e+00 0.000000000000000e+00 0.000000000000000e+00

0.000000000000000e+00 0.000000000000000e+00 0.000000000000000e+00
0.000000000000000e+00 0.000000000000000e+00 0.000000000000000e+00
0.000000000000000e+00 0.000000000000000e+00 0.000000000000000e+00

0.000000000000000e+00 0.000000000000000e+00 0.000000000000000e+00
0.000000000000000e+00 0.000000000000000e+00 0.000000000000000e+00
0.000000000000000e+00 0.000000000000000e+00 0.000000000000000e+00

0.000000000000000e+00 0.000000000000000e+00 0.000000000000000e+00
0.000000000000000e+00 0.000000000000000e+00 0.000000000000000e+00
0.000000000000000e+00 0.000000000000000e+00 0.000000000000000e+00

0.000000000000000e+00 0.000000000000000e+00 0.000000000000000e+00
0.000000000000000e+00 0.000000000000000e+00 0.000000000000000e+00
0.000000000000000e+00 0.000000000000000e+00 0.000000000000000e+00

0.000000000000000e+00 0.000000000000000e+00 0.000000000000000e+00
0.000000000000000e+00 0.000000000000000e+00 0.000000000000000e+00
0.000000000000000e+00 0.000000000000000e+00 0.000000000000000e+00

0.000000000000000e+00 0.000000000000000e+00 0.000000000000000e+00
0.000000000000000e+00 0.000000000000000e+00 0.000000000000000e+00
0.000000000000000e+00 0.000000000000000e+00 0.000000000000000e+00

0.000000000000000e+00 0.000000000000000e+00 0.000000000000000e+00
0.000000000000000e+00 0.000000000000000e+00 0.000000000000000e+00
0.000000000000000e+00 0.000000000000000e+00 0.000000000000000e+00

0.000000000000000e+00 0.000000000000000e+00 0.000000000000000e+00
0.000000000000000e+00 0.000000000000000e+00 0.000000000000000e+00
0.000000000000000e+00 0.000000000000000e+00 0.000000000000000e+00

0.000000000000000e+00 0.000000000000000e+00 0.000000000000000e+00
0.000000000000000e+00 0.000000000000000e+00 0.000000000000000e+00
0.000000000000000e+00 0.000000000000000e+00 0.000000000000000e+00

0.000000000000000e+00 0.000000000000000e+00 0.000000000000000e+00
0.000000000000000e+00 0.000000000000000e+00 0.000000000000000e+00
0.000000000000000e+00 0.000000000000000e+00 0.000000000000000e+00

0.000000000000000e+00 0.000000000000000e+00 0.000000000000000e+00
0.000000000000000e+00 0.000000000000000e+00 0.000000000000000e+00
0.000000000000000e+00 0.000000000000000e+00 0.000000000000000e+00

0.000000000000000e+00 0.000000000000000e+00 0.000000000000000e+00
0.000000000000000e+00 0.000000000000000e+00 0.000000000000000e+00
0.000000000000000e+00 0.000000000000000e+00 0.000000000000000e+00

0.000000000000000e+00 0.000000000000000e+00 0.000000000000000e+00
0.000000000000000e+00 0.000000000000000e+00 0.000000000000000e+00
0.000000000000000e+00 0.000000000000000e+00 0.000000000000000e+00

0.000000000000000e+00 0.000000000000000e+00 0.000000000000000e+00
0.000000000000000e+00 0.000000000000000e+00 0.000000000000000e+00
0.000000000000000e+00 0.000000000000000e+00 0.000000000000000e+00

0.000000000000000e+00 0.000000000000000e+00 0.000000000000000e+00
0.000000000000000e+00 0.000000000000000e+00 0.000000000000000e+00
0.000000000000000e+00 0.000000000000000e+00 0.000000000000000e+00

0.000000000000000e+00 0.000000000000000e+00 0.000000000000000e+00
0.000000000000000e+00 0.000000000000000e+00 0.000000000000000e+00
0.000000000000000e+00 0.000000000000000e+00 0.000000000000000e+00

0.000000000000000e+00 0.000000000000000e+00 0.000000000000000e+00
0.000000000000000e+00 0.000000000000000e+00 0.000000000000000e+00
0.000000000000000e+00 0.000000000000000e+00 0.000000000000000e+00

0.000000000000000e+00 0.000000000000000e+00 0.000000000000000e+00
0.000000000000000e+00 0.000000000000000e+00 0.000000000000000e+00
0.000000000000000e+00 0.000000000000000e+00 0.000000000000000e+00

0.000000000000000e+00 0.000000000000000e+00 0.000000000000000e+00
0.000000000000000e+00 0.000000000000000e+00 0.000000000000000e+00
0.000000000000000e+00 0.000000000000000e+00 0.000000000000000e+00

0.000000000000000e+00 0.000000000000000e+00 0.000000000000000e+00
0.000000000000000e+00 0.000000000000000e+00 0.000000000000000e+00
0.000000000000000e+00 0.000000000000000e+00 0.000000000000000e+00

0.000000000000000e+00 0.000000000000000e+00 0.000000000000000e+00
0.000000000000000e+00 0.000000000000000e+00 0.000000000000000e+00
0.000000000000000e+00 0.000000000000000e+00 0.000000000000000e+00

0.000000000000000e+00 0.000000000000000e+00 0.000000000000000e+00
0.000000000000000e+00 0.000000000000000e+00 0.000000000000000e+00
0.000000000000000e+00 0.000000000000000e+00 0.000000000000000e+00

0.000000000000000e+00 0.000000000000000e+00 0.000000000000000e+00
0.000000000000000e+00 0.000000000000000e+00 0.000000000000000e+00
0.000000000000000e+00 0.000000000000000e+00 0.000000000000000e+00

0.000000000000000e+00 0.000000000000000e+00 0.000000000000000e+00
0.000000000000000e+00 0.000000000000000e+00 0.000000000000000e+00
0.000000000000000e+00 0.000000000000000e+00 0.000000000000000e+00

0.000000000000000e+00 0.000000000000000e+00 0.000000000000000e+00
0.000000000000000e+00 0.000000000000000e+00 0.000000000000000e+00
0.000000000000000e+00 0.000000000000000e+00 0.000000000000000e+00

0.000000000000000e+00 0.000000000000000e+00 0.000000000000000e+00
0.000000000000000e+00 0.000000000000000e+00 0.000000000000000e+00
0.000000000000000e+00 0.000000000000000e+00 0.000000000000000e+00

0.000000000000000e+00 0.000000000000000e+00 0.000000000000000e+00
0.000000000000000e+00 0.000000000000000e+00 0.000000000000000e+00
0.000000000000000e+00 0.000000000000000e+00 0.000000000000000e+00

0.000000000000000e+00 0.000000000000000e+00 0.000000000000000e+00
0.000000000000000e+00 0.000000000000000e+00 0.000000000000000e+00
0.000000000000000e+00 0.000000000000000e+00 0.000000000000000e+00

0.000000000000000e+00 0.000000000000000e+00 0.000000000000000e+00
0.000000000000000e+00 0.000000000000000e+00 0.000000000000000e+00
0.000000000000000e+00 0.000000000000000e+00 0.000000000000000e+00

0.000000000000000e+00 0.000000000000000e+00 0.000000000000000e+00
0.000000000000000e+00 0.000000000000000e+00 0.000000000000000e+00
0.000000000000000e+00 0.000000000000000e+00 0.000000000000000e+00

0.000000000000000e+00 0.000000000000000e+00 0.000000000000000e+00
0.000000000000000e+00 0.000000000000000e+00 0.000000000000000e+00
0.000000000000000e+00 0.000000000000000e+00 0.000000000000000e+00

0.000000000000000e+00 0.000000000000000e+00 0.000000000000000e+00
0.000000000000000e+00 0.000000000000000e+00 0.000000000000000e+00
0.000000000000000e+00 0.000000000000000e+00 0.000000000000000e+00

0.000000000000000e+00 0.000000000000000e+00 0.000000000000000e+00
0.000000000000000e+00 0.000000000000000e+00 0.000000000000000e+00
0.000000000000000e+00 0.000000000000000e+00 0.000000000000000e+00

0.000000000000000e+00 0.000000000000000e+00 0.000000000000000e+00
0.000000000000000e+00 0.000000000000000e+00 0.000000000000000e+00
0.000000000000000e+00 0.000000000000000e+00 0.000000000000000e+00

0.000000000000000e+00 0.000000000000000e+00 0.000000000000000e+00
0.000000000000000e+00 0.000000000000000e+00 0.000000000000000e+00
0.000000000000000e+00 0.000000000000000e+00 0.000000000000000e+00

0.000000000000000e+00 0.000000000000000e+00 0.000000000000000e+00
0.000000000000000e+00 0.000000000000000e+00 0.000000000000000e+00
0.000000000000000e+00 0.000000000000000e+00 0.000000000000000e+00

0.000000000000000e+00 0.000000000000000e+00 0.000000000000000e+00
0.000000000000000e+00 0.000000000000000e+00 0.000000000000000e+00
0.000000000000000e+00 0.000000000000000e+00 0.000000000000000e+00

0.000000000000000e+00 0.000000000000000e+00 0.000000000000000e+00
0.000000000000000e+00 0.000000000000000e+00 0.000000000000000e+00
0.000000000000000e+00 0.000000000000000e+00 0.000000000000000e+00

0.000000000000000e+00 0.000000000000000e+00 0.000000000000000e+00
0.000000000000000e+00 0.000000000000000e+00 0.000000000000000e+00
0.000000000000000e+00 0.000000000000000e+00 0.000000000000000e+00

0.000000000000000e+00 0.000000000000000e+00 0.000000000000000e+00
0.000000000000000e+00 0.000000000000000e+00 0.000000000000000e+00
0.000000000000000e+00 0.000000000000000e+00 0.000000000000000e+00

0.000000000000000e+00 0.000000000000000e+00 0.000000000000000e+00
0.000000000000000e+00 0.000000000000000e+00 0.000000000000000e+00
0.000000000000000e+00 0.000000000000000e+00 0.000000000000000e+00

0.000000000000000e+00 0.000000000000000e+00 0.000000000000000e+00
0.000000000000000e+00 0.000000000000000e+00 0.000000000000000e+00
0.000000000000000e+00 0.000000000000000e+00 0.000000000000000e+00

0.000000000000000e+00 0.000000000000000e+00 0.000000000000000e+00
0.000000000000000e+00 0.000000000000000e+00 0.000000000000000e+00
0.000000000000000e+00 0.000000000000000e+00 0.000000000000000e+00

0.000000000000000e+00 0.000000000000000e+00 0.000000000000000e+00
0.000000000000000e+00 0.000000000000000e+00 0.000000000000000e+00
0.000000000000000e+00 0.000000000000000e+00 0.000000000000000e+00

0.000000000000000e+00 0.000000000000000e+00 0.000000000000000e+00
0.000000000000000e+00 0.000000000000000e+00 0.000000000000000e+00
0.000000000000000e+00 0.000000000000000e+00 0.000000000000000e+00

0.000000000000000e+00 0.000000000000000e+00 0.000000000000000e+00
0.000000000000000e+00 0.000000000000000e+00 0.000000000000000e+00
0.000000000000000e+00 0.000000000000000e+00 0.000000000000000e+00

0.000000000000000e+00 0.000000000000000e+00 0.000000000000000e+00
0.000000000000000e+00 0.000000000000000e+00 0.000000000000000e+00
0.000000000000000e+00 0.000000000000000e+00 0.000000000000000e+00

0.000000000000000e+00 0.000000000000000e+00 0.000000000000000e+00
0.000000000000000e+00 0.000000000000000e+00 0.000000000000000e+00
0.000000000000000e+00 0.000000000000000e+00 0.000000000000000e+00

0.000000000000000e+00 0.000000000000000e+00 0.000000000000000e+00
0.000000000000000e+00 0.000000000000000e+00 0.000000000000000e+00
0.000000000000000e+00 0.000000000000000e+00 0.000000000000000e+00

0.000000000000000e+00 0.000000000000000e+00 0.000000000000000e+00
0.000000000000000e+00 0.000000000000000e+00 0.000000000000000e+00
0.000000000000000e+00 0.000000000000000e+00 0.000000000000000e+00

0.000000000000000e+00 0.000000000000000e+00 0.000000000000000e+00
0.000000000000000e+00 0.000000000000000e+00 0.000000000000000e+00
0.000000000000000e+00 0.000000000000000e+00 0.000000000000000e+00

0.000000000000000e+00 0.000000000000000e+00 0.000000000000000e+00
0.000000000000000e+00 0.000000000000000e+00 0.000000000000000e+00
0.000000000000000e+00 0.000000000000000e+00 0.000000000000000e+00

0.000000000000000e+00 0.000000000000000e+00 0.000000000000000e+00
0.000000000000000e+00 0.000000000000000e+00 0.000000000000000e+00
0.000000000000000e+00 0.000000000000000e+00 0.000000000000000e+00

0.000000000000000e+00 0.000000000000000e+00 0.000000000000000e+00
0.000000000000000e+00 0.000000000000000e+00 0.000000000000000e+00
0.000000000000000e+00 0.000000000000000e+00 0.000000000000000e+00

0.000000000000000e+00 0.000000000000000e+00 0.000000000000000e+00
0.000000000000000e+00 0.000000000000000e+00 0.000000000000000e+00
0.000000000000000e+00 0.000000000000000e+00 0.000000000000000e+00

0.000000000000000e+00 0.000000000000000e+00 0.000000000000000e+00
0.000000000000000e+00 0.000000000000000e+00 0.000000000000000e+00
0.000000000000000e+00 0.000000000000000e+00 0.000000000000000e+00

0.000000000000000e+00 0.000000000000000e+00 0.000000000000000e+00
0.000000000000000e+00 0.000000000000000e+00 0.000000000000000e+00
0.000000000000000e+00 0.000000000000000e+00 0.000000000000000e+00

0.000000000000000e+00 0.000000000000000e+00 0.000000000000000e+00
0.000000000000000e+00 0.000000000000000e+00 0.000000000000000e+00
0.000000000000000e+00 0.000000000000000e+00 0.000000000000000e+00

0.000000000000000e+00 0.000000000000000e+00 0.000000000000000e+00
0.000000000000000e+00 0.000000000000000e+00 0.000000000000000e+00
0.000000000000000e+00 0.000000000000000e+00 0.000000000000000e+00

0.000000000000000e+00 0.000000000000000e+00 0.000000000000000e+00
0.000000000000000e+00 0.000000000000000e+00 0.000000000000000e+00
0.000000000000000e+00 0.000000000000000e+00 0.000000000000000e+00

0.000000000000000e+00 0.000000000000000e+00 0.000000000000000e+00
0.000000000000000e+00 0.000000000000000e+00 0.000000000000000e+00
0.000000000000000e+00 0.000000000000000e+00 0.000000000000000e+00

0.000000000000000e+00 0.000000000000000e+00 0.000000000000000e+00
0.000000000000000e+00 0.000000000000000e+00 0.000000000000000e+00
0.000000000000000e+00 0.000000000000000e+00 0.000000000000000e+00

0.000000000000000e+00 0.000000000000000e+00 0.000000000000000e+00
0.000000000000000e+00 0.000000000000000e+00 0.000000000000000e+00
0.000000000000000e+00 0.000000000000000e+00 0.000000000000000e+00

0.000000000000000e+00 0.000000000000000e+00 0.000000000000000e+00
0.000000000000000e+00 0.000000000000000e+00 0.000000000000000e+00
0.000000000000000e+00 0.000000000000000e+00 0.000000000000000e+00

0.000000000000000e+00 0.000000000000000e+00 0.000000000000000e+00
0.000000000000000e+00 0.000000000000000e+00 0.000000000000000e+00
0.000000000000000e+00 0.000000000000000e+00 0.000000000000000e+00

0.000000000000000e+00 0.000000000000000e+00 0.000000000000000e+00
0.000000000000000e+00 0.000000000000000e+00 0.000000000000000e+00
0.000000000000000e+00 0.000000000000000e+00 0.000000000000000e+00

0.000000000000000e+00 0.000000000000000e+00 0.000000000000000e+00
0.000000000000000e+00 0.000000000000000e+00 0.000000000000000e+00
0.000000000000000e+00 0.000000000000000e+00 0.000000000000000e+00

0.000000000000000e+00 0.000000000000000e+00 0.000000000000000e+00
0.000000000000000e+00 0.000000000000000e+00 0.000000000000000e+00
0.000000000000000e+00 0.000000000000000e+00 0.000000000000000e+00

0.000000000000000e+00 0.000000000000000e+00 0.000000000000000e+00
0.000000000000000e+00 0.000000000000000e+00 0.000000000000000e+00
0.000000000000000e+00 0.000000000000000e+00 0.000000000000000e+00

0.000000000000000e+00 0.000000000000000e+00 0.000000000000000e+00
0.000000000000000e+00 0.000000000000000e+00 0.000000000000000e+00
0.000000000000000e+00 0.000000000000000e+00 0.000000000000000e+00

0.000000000000000e+00 0.000000000000000e+00 0.000000000000000e+00
0.000000000000000e+00 0.000000000000000e+00 0.000000000000000e+00
0.000000000000000e+00 0.000000000000000e+00 0.000000000000000e+00

0.000000000000000e+00 0.000000000000000e+00 0.000000000000000e+00
0.000000000000000e+00 0.000000000000000e+00 0.000000000000000e+00
0.000000000000000e+00 0.000000000000000e+00 0.000000000000000e+00

0.000000000000000e+00 0.000000000000000e+00 0.000000000000000e+00
0.000000000000000e+00 0.000000000000000e+00 0.000000000000000e+00
0.000000000000000e+00 0.000000000000000e+00 0.000000000000000e+00

0.000000000000000e+00 0.000000000000000e+00 0.000000000000000e+00
0.000000000000000e+00 0.000000000000000e+00 0.000000000000000e+00
0.000000000000000e+00 0.000000000000000e+00 0.000000000000000e+00

0.000000000000000e+00 0.000000000000000e+00 0.000000000000000e+00
0.000000000000000e+00 0.000000000000000e+00 0.000000000000000e+00
0.000000000000000e+00 0.000000000000000e+00 0.000000000000000e+00

0.000000000000000e+00 0.000000000000000e+00 0.000000000000000e+00
0.000000000000000e+00 0.000000000000000e+00 0.000000000000000e+00
0.000000000000000e+00 0.000000000000000e+00 0.000000000000000e+00

0.000000000000000e+00 0.000000000000000e+00 0.000000000000000e+00
0.000000000000000e+00 0.000000000000000e+00 0.000000000000000e+00
0.000000000000000e+00 0.000000000000000e+00 0.000000000000000e+00

0.000000000000000e+00 0.000000000000000e+00 0.000000000000000e+00
0.000000000000000e+00 0.000000000000000e+00 0.000000000000000e+00
0.000000000000000e+00 0.000000000000000e+00 0.000000000000000e+00

0.000000000000000e+00 0.000000000000000e+00 0.000000000000000e+00
0.000000000000000e+00 0.000000000000000e+00 0.000000000000000e+00
0.000000000000000e+00 0.000000000000000e+00 0.000000000000000e+00

0.000000000000000e+00 0.000000000000000e+00 0.000000000000000e+00
0.000000000000000e+00 0.000000000000000e+00 0.000000000000000e+00
0.000000000000000e+00 0.000000000000000e+00 0.000000000000000e+00

0.000000000000000e+00 0.000000000000000e+00 0.000000000000000e+00
0.000000000000000e+00 0.000000000000000e+00 0.000000000000000e+00
0.000000000000000e+00 0.000000000000000e+00 0.000000000000000e+00

0.000000000000000e+00 0.000000000000000e+00 0.000000000000000e+00
0.000000000000000e+00 0.000000000000000e+00 0.000000000000000e+00
0.000000000000000e+00 0.000000000000000e+00 0.000000000000000e+00

0.000000000000000e+00 0.000000000000000e+00 0.000000000000000e+00
0.000000000000000e+00 0.000000000000000e+00 0.000000000000000e+00
0.000000000000000e+00 0.000000000000000e+00 0.000000000000000e+00

0.000000000000000e+00 0.000000000000000e+00 0.000000000000000e+00
0.000000000000000e+00 0.000000000000000e+00 0.000000000000000e+00
0.000000000000000e+00 0.000000000000000e+00 0.000000000000000e+00

0.000000000000000e+00 0.000000000000000e+00 0.000000000000000e+00
0.000000000000000e+00 0.000000000000000e+00 0.000000000000000e+00
0.000000000000000e+00 0.000000000000000e+00 0.000000000000000e+00

0.000000000000000e+00 0.000000000000000e+00 0.000000000000000e+00
0.000000000000000e+00 0.000000000000000e+00 0.000000000000000e+00
0.000000000000000e+00 0.000000000000000e+00 0.000000000000000e+00

0.000000000000000e+00 0.000000000000000e+00 0.000000000000000e+00
0.000000000000000e+00 0.000000000000000e+00 0.000000000000000e+00
0.000000000000000e+00 0.000000000000000e+00 0.000000000000000e+00

0.000000000000000e+00 0.000000000000000e+00 0.000000000000000e+00
0.000000000000000e+00 0.000000000000000e+00 0.000000000000000e+00
0.000000000000000e+00 0.000000000000000e+00 0.000000000000000e+00

0.000000000000000e+00 0.000000000000000e+00 0.000000000000000e+00
0.000000000000000e+00 0.000000000000000e+00 0.000000000000000e+00
0.000000000000000e+00 0.000000000000000e+00 0.000000000000000e+00

0.000000000000000e+00 0.000000000000000e+00 0.000000000000000e+00
0.000000000000000e+00 0.000000000000000e+00 0.000000000000000e+00
0.000000000000000e+00 0.000000000000000e+00 0.000000000000000e+00

0.000000000000000e+00 0.000000000000000e+00 0.000000000000000e+00
0.000000000000000e+00 0.000000000000000e+00 0.000000000000000e+00
0.000000000000000e+00 0.000000000000000e+00 0.000000000000000e+00

0.000000000000000e+00 0.000000000000000e+00 0.000000000000000e+00
0.000000000000000e+00 0.000000000000000e+00 0.000000000000000e+00
0.000000000000000e+00 0.000000000000000e+00 0.000000000000000e+00

0.000000000000000e+00 0.000000000000000e+00 0.000000000000000e+00
0.000000000000000e+00 0.000000000000000e+00 0.000000000000000e+00
0.000000000000000e+00 0.000000000000000e+00 0.000000000000000e+00

0.000000000000000e+00 0.000000000000000e+00 0.000000000000000e+00
0.000000000000000e+00 0.000000000000000e+00 0.000000000000000e+00
0.000000000000000e+00 0.000000000000000e+00 0.000000000000000e+00

0.000000000000000e+00 0.000000000000000e+00 0.000000000000000e+00
0.000000000000000e+00 0.000000000000000e+00 0.000000000000000e+00
0.000000000000000e+00 0.000000000000000e+00 0.000000000000000e+00

0.000000000000000e+00 0.000000000000000e+00 0.000000000000000e+00
0.000000000000000e+00 0.000000000000000e+00 0.000000000000000e+00
0.000000000000000e+00 0.000000000000000e+00 0.000000000000000e+00

0.000000000000000e+00 0.000000000000000e+00 0.000000000000000e+00
0.000000000000000e+00 0.000000000000000e+00 0.000000000000000e+00
0.000000000000000e+00 0.000000000000000e+00 0.000000000000000e+00

0.000000000000000e+00 0.000000000000000e+00 0.000000000000000e+00
0.000000000000000e+00 0.000000000000000e+00 0.000000000000000e+00
0.000000000000000e+00 0.000000000000000e+00 0.000000000000000e+00

0.000000000000000e+00 0.000000000000000e+00 0.000000000000000e+00
0.000000000000000e+00 0.000000000000000e+00 0.000000000000000e+00
0.000000000000000e+00 0.000000000000000e+00 0.000000000000000e+00

0.000000000000000e+00 0.000000000000000e+00 0.000000000000000e+00
0.000000000000000e+00 0.000000000000000e+00 0.000000000000000e+00
0.000000000000000e+00 0.000000000000000e+00 0.000000000000000e+00

0.000000000000000e+00 0.000000000000000e+00 0.000000000000000e+00
0.000000000000000e+00 0.000000000000000e+00 0.000000000000000e+00
0.000000000000000e+00 0.000000000000000e+00 0.000000000000000e+00

0.000000000000000e+00 0.000000000000000e+00 0.000000000000000e+00
0.000000000000000e+00 0.000000000000000e+00 0.000000000000000e+00
0.000000000000000e+00 0.000000000000000e+00 0.000000000000000e+00

0.000000000000000e+00 0.000000000000000e+00 0.000000000000000e+00
0.000000000000000e+00 0.000000000000000e+00 0.000000000000000e+00
0.000000000000000e+00 0.000000000000000e+00 0.000000000000000e+00

0.000000000000000e+00 0.000000000000000e+00 0.000000000000000e+00
0.000000000000000e+00 0.000000000000000e+00 0.000000000000000e+00
0.000000000000000e+00 0.000000000000000e+00 0.000000000000000e+00

0.000000000000000e+00 0.000000000000000e+00 0.000000000000000e+00
0.000000000000000e+00 0.000000000000000e+00 0.000000000000000e+00
0.000000000000000e+00 0.000000000000000e+00 0.000000000000000e+00

0.000000000000000e+00 0.000000000000000e+00 0.000000000000000e+00
0.000000000000000e+00 0.000000000000000e+00 0.000000000000000e+00
0.000000000000000e+00 0.000000000000000e+00 0.000000000000000e+00

0.000000000000000e+00 0.000000000000000e+00 0.000000000000000e+00
0.000000000000000e+00 0.000000000000000e+00 0.000000000000000e+00
0.000000000000000e+00 0.000000000000000e+00 0.000000000000000e+00

0.000000000000000e+00 0.000000000000000e+00 0.000000000000000e+00
0.000000000000000e+00 0.000000000000000e+00 0.000000000000000e+00
0.000000000000000e+00 0.000000000000000e+00 0.000000000000000e+00

0.000000000000000e+00 0.000000000000000e+00 0.000000000000000e+00
0.000000000000000e+00 0.000000000000000e+00 0.000000000000000e+00
0.000000000000000e+00 0.000000000000000e+00 0.000000000000000e+00

0.000000000000000e+00 0.000000000000000e+00 0.000000000000000e+00
0.000000000000000e+00 0.000000000000000e+00 0.000000000000000e+00
0.000000000000000e+00 0.000000000000000e+00 0.000000000000000e+00

0.000000000000000e+00 0.000000000000000e+00 0.000000000000000e+00
0.000000000000000e+00 0.000000000000000e+00 0.000000000000000e+00
0.000000000000000e+00 0.000000000000000e+00 0.000000000000000e+00

0.000000000000000e+00 0.000000000000000e+00 0.000000000000000e+00
0.000000000000000e+00 0.000000000000000e+00 0.000000000000000e+00
0.000000000000000e+00 0.000000000000000e+00 0.000000000000000e+00

0.000000000000000e+00 0.000000000000000e+00 0.000000000000000e+00
0.000000000000000e+00 0.000000000000000e+00 0.000000000000000e+00
0.000000000000000e+00 0.000000000000000e+00 0.000000000000000e+00

0.000000000000000e+00 0.000000000000000e+00 0.000000000000000e+00
0.000000000000000e+00 0.000000000000000e+00 0.000000000000000e+00
0.000000000000000e+00 0.000000000000000e+00 0.000000000000000e+00

0.000000000000000e+00 0.000000000000000e+00 0.000000000000000e+00
0.000000000000000e+00 0.000000000000000e+00 0.000000000000000e+00
0.000000000000000e+00 0.000000000000000e+00 0.000000000000000e+00

0.000000000000000e+00 0.000000000000000e+00 0.000000000000000e+00
0.000000000000000e+00 0.000000000000000e+00 0.000000000000000e+00
0.000000000000000e+00 0.000000000000000e+00 0.000000000000000e+00

0.000000000000000e+00 0.000000000000000e+00 0.000000000000000e+00
0.000000000000000e+00 0.000000000000000e+00 0.000000000000000e+00
0.000000000000000e+00 0.000000000000000e+00 0.000000000000000e+00

0.000000000000000e+00 0.000000000000000e+00 0.000000000000000e+00
0.000000000000000e+00 0.000000000000000e+00 0.000000000000000e+00
0.000000000000000e+00 0.000000000000000e+00 0.000000000000000e+00

0.000000000000000e+00 0.000000000000000e+00 0.000000000000000e+00
0.000000000000000e+00 0.000000000000000e+00 0.000000000000000e+00
0.000000000000000e+00 0.000000000000000e+00 0.000000000000000e+00

0.000000000000000e+00 0.000000000000000e+00 0.000000000000000e+00
0.000000000000000e+00 0.000000000000000e+00 0.000000000000000e+00
0.000000000000000e+00 0.000000000000000e+00 0.000000000000000e+00

0.000000000000000e+00 0.000000000000000e+00 0.000000000000000e+00
0.000000000000000e+00 0.000000000000000e+00 0.000000000000000e+00
0.000000000000000e+00 0.000000000000000e+00 0.000000000000000e+00

0.000000000000000e+00 0.000000000000000e+00 0.000000000000000e+00
0.000000000000000e+00 0.000000000000000e+00 0.000000000000000e+00
0.000000000000000e+00 0.000000000000000e+00 0.000000000000000e+00

0.000000000000000e+00 0.000000000000000e+00 0.000000000000000e+00
0.000000000000000e+00 0.000000000000000e+00 0.000000000000000e+00
0.000000000000000e+00 0.000000000000000e+00 0.000000000000000e+00

0.000000000000000e+00 0.000000000000000e+00 0.000000000000000e+00
0.000000000000000e+00 0.000000000000000e+00 0.000000000000000e+00
0.000000000000000e+00 0.000000000000000e+00 0.000000000000000e+00

0.000000000000000e+00 0.000000000000000e+00 0.000000000000000e+00
0.000000000000000e+00 0.000000000000000e+00 0.000000000000000e+00
0.000000000000000e+00 0.000000000000000e+00 0.000000000000000e+00

0.000000000000000e+00 0.000000000000000e+00 0.000000000000000e+00
0.000000000000000e+00 0.000000000000000e+00 0.000000000000000e+00
0.000000000000000e+00 0.000000000000000e+00 0.000000000000000e+00

0.000000000000000e+00 0.000000000000000e+00 0.000000000000000e+00
0.000000000000000e+00 0.000000000000000e+00 0.000000000000000e+00
0.000000000000000e+00 0.000000000000000e+00 0.000000000000000e+00

0.000000000000000e+00 0.000000000000000e+00 0.000000000000000e+00
0.000000000000000e+00 0.000000000000000e+00 0.000000000000000e+00
0.000000000000000e+00 0.000000000000000e+00 0.000000000000000e+00

0.000000000000000e+00 0.000000000000000e+00 0.000000000000000e+00
0.000000000000000e+00 0.000000000000000e+00 0.000000000000000e+00
0.000000000000000e+00 0.000000000000000e+00 0.000000000000000e+00

0.000000000000000e+00 0.000000000000000e+00 0.000000000000000e+00
0.000000000000000e+00 0.000000000000000e+00 0.000000000000000e+00
0.000000000000000e+00 0.000000000000000e+00 0.000000000000000e+00

0.000000000000000e+00 0.000000000000000e+00 0.000000000000000e+00
0.000000000000000e+00 0.000000000000000e+00 0.000000000000000e+00
0.000000000000000e+00 0.000000000000000e+00 0.000000000000000e+00

0.000000000000000e+00 0.000000000000000e+00 0.000000000000000e+00
0.000000000000000e+00 0.000000000000000e+00 0.000000000000000e+00
0.000000000000000e+00 0.000000000000000e+00 0.000000000000000e+00

0.000000000000000e+00 0.000000000000000e+00 0.000000000000000e+00
0.000000000000000e+00 0.000000000000000e+00 0.000000000000000e+00
0.000000000000000e+00 0.000000000000000e+00 0.000000000000000e+00

0.000000000000000e+00 0.000000000000000e+00 0.000000000000000e+00
0.000000000000000e+00 0.000000000000000e+00 0.000000000000000e+00
0.000000000000000e+00 0.000000000000000e+00 0.000000000000000e+00

0.000000000000000e+00 0.000000000000000e+00 0.000000000000000e+00
0.000000000000000e+00 0.000000000000000e+00 0.000000000000000e+00
0.000000000000000e+00 0.000000000000000e+00 0.000000000000000e+00

0.000000000000000e+00 0.000000000000000e+00 0.000000000000000e+00
0.000000000000000e+00 0.000000000000000e+00 0.000000000000000e+00
0.000000000000000e+00 0.000000000000000e+00 0.000000000000000e+00

0.000000000000000e+00 0.000000000000000e+00 0.000000000000000e+00
0.000000000000000e+00 0.000000000000000e+00 0.000000000000000e+00
0.000000000000000e+00 0.000000000000000e+00 0.000000000000000e+00

0.000000000000000e+00 0.000000000000000e+00 0.000000000000000e+00
0.000000000000000e+00 0.000000000000000e+00 0.000000000000000e+00
0.000000000000000e+00 0.000000000000000e+00 0.000000000000000e+00

0.000000000000000e+00 0.000000000000000e+00 0.000000000000000e+00
0.000000000000000e+00 0.000000000000000e+00 0.000000000000000e+00
0.000000000000000e+00 0.000000000000000e+00 0.000000000000000e+00

0.000000000000000e+00 0.000000000000000e+00 0.000000000000000e+00
0.000000000000000e+00 0.000000000000000e+00 0.000000000000000e+00
0.000000000000000e+00 0.000000000000000e+00 0.000000000000000e+00

0.000000000000000e+00 0.000000000000000e+00 0.000000000000000e+00
0.000000000000000e+00 0.000000000000000e+00 0.000000000000000e+00
0.000000000000000e+00 0.000000000000000e+00 0.000000000000000e+00

0.000000000000000e+00 0.000000000000000e+00 0.000000000000000e+00
0.000000000000000e+00 0.000000000000000e+00 0.000000000000000e+00
0.000000000000000e+00 0.000000000000000e+00 0.000000000000000e+00

0.000000000000000e+00 0.000000000000000e+00 0.000000000000000e+00
0.000000000000000e+00 0.000000000000000e+00 0.000000000000000e+00
0.000000000000000e+00 0.000000000000000e+00 0.000000000000000e+00

0.000000000000000e+00 0.000000000000000e+00 0.000000000000000e+00
0.000000000000000e+00 0.000000000000000e+00 0.000000000000000e+00
0.000000000000000e+00 0.000000000000000e+00 0.000000000000000e+00

0.000000000000000e+00 0.000000000000000e+00 0.000000000000000e+00
0.000000000000000e+00 0.000000000000000e+00 0.000000000000000e+00
0.000000000000000e+00 0.000000000000000e+00 0.000000000000000e+00

0.000000000000000e+00 0.000000000000000e+00 0.000000000000000e+00
0.000000000000000e+00 0.000000000000000e+00 0.000000000000000e+00
0.000000000000000e+00 0.000000000000000e+00 0.000000000000000e+00

0.000000000000000e+00 0.000000000000000e+00 0.000000000000000e+00
0.000000000000000e+00 0.000000000000000e+00 0.000000000000000e+00
0.000000000000000e+00 0.000000000000000e+00 0.000000000000000e+00

0.000000000000000e+00 0.000000000000000e+00 0.000000000000000e+00
0.000000000000000e+00 0.000000000000000e+00 0.000000000000000e+00
0.000000000000000e+00 0.000000000000000e+00 0.000000000000000e+00

0.000000000000000e+00 0.000000000000000e+00 0.000000000000000e+00
0.000000000000000e+00 0.000000000000000e+00 0.000000000000000e+00
0.000000000000000e+00 0.000000000000000e+00 0.000000000000000e+00

0.000000000000000e+00 0.000000000000000e+00 0.000000000000000e+00
0.000000000000000e+00 0.000000000000000e+00 0.000000000000000e+00
0.000000000000000e+00 0.000000000000000e+00 0.000000000000000e+00

0.000000000000000e+00 0.000000000000000e+00 0.000000000000000e+00
0.000000000000000e+00 0.000000000000000e+00 0.000000000000000e+00
0.000000000000000e+00 0.000000000000000e+00 0.000000000000000e+00

0.000000000000000e+00 0.000000000000000e+00 0.000000000000000e+00
0.000000000000000e+00 0.000000000000000e+00 0.000000000000000e+00
0.000000000000000e+00 0.000000000000000e+00 0.000000000000000e+00

0.000000000000000e+00 0.000000000000000e+00 0.000000000000000e+00
0.000000000000000e+00 0.000000000000000e+00 0.000000000000000e+00
0.000000000000000e+00 0.000000000000000e+00 0.000000000000000e+00

0.000000000000000e+00 0.000000000000000e+00 0.000000000000000e+00
0.000000000000000e+00 0.000000000000000e+00 0.000000000000000e+00
0.000000000000000e+00 0.000000000000000e+00 0.000000000000000e+00

0.000000000000000e+00 0.000000000000000e+00 0.000000000000000e+00
0.000000000000000e+00 0.000000000000000e+00 0.000000000000000e+00
0.000000000000000e+00 0.000000000000000e+00 0.000000000000000e+00

0.000000000000000e+00 0.000000000000000e+00 0.000000000000000e+00
0.000000000000000e+00 0.000000000000000e+00 0.000000000000000e+00
0.000000000000000e+00 0.000000000000000e+00 0.000000000000000e+00

0.000000000000000e+00 0.000000000000000e+00 0.000000000000000e+00
0.000000000000000e+00 0.000000000000000e+00 0.000000000000000e+00
0.000000000000000e+00 0.000000000000000e+00 0.000000000000000e+00

0.000000000000000e+00 0.000000000000000e+00 0.000000000000000e+00
0.000000000000000e+00 0.000000000000000e+00 0.000000000000000e+00
0.000000000000000e+00 0.000000000000000e+00 0.000000000000000e+00

0.000000000000000e+00 0.000000000000000e+00 0.000000000000000e+00
0.000000000000000e+00 0.000000000000000e+00 0.000000000000000e+00
0.000000000000000e+00 0.000000000000000e+00 0.000000000000000e+00

0.000000000000000e+00 0.000000000000000e+00 0.000000000000000e+00
0.000000000000000e+00 0.000000000000000e+00 0.000000000000000e+00
0.000000000000000e+00 0.000000000000000e+00 0.000000000000000e+00

0.000000000000000e+00 0.000000000000000e+00 0.000000000000000e+00
0.000000000000000e+00 0.000000000000000e+00 0.000000000000000e+00
0.000000000000000e+00 0.000000000000000e+00 0.000000000000000e+00

0.000000000000000e+00 0.000000000000000e+00 0.000000000000000e+00
0.000000000000000e+00 0.000000000000000e+00 0.000000000000000e+00
0.000000000000000e+00 0.000000000000000e+00 0.000000000000000e+00

0.000000000000000e+00 0.000000000000000e+00 0.000000000000000e+00
0.000000000000000e+00 0.000000000000000e+00 0.000000000000000e+00
0.000000000000000e+00 0.000000000000000e+00 0.000000000000000e+00

0.000000000000000e+00 0.000000000000000e+00 0.000000000000000e+00
0.000000000000000e+00 0.000000000000000e+00 0.000000000000000e+00
0.000000000000000e+00 0.000000000000000e+00 0.000000000000000e+00

0.000000000000000e+00 0.000000000000000e+00 0.000000000000000e+00
0.000000000000000e+00 0.000000000000000e+00 0.000000000000000e+00
0.000000000000000e+00 0.000000000000000e+00 0.000000000000000e+00

0.000000000000000e+00 0.000000000000000e+00 0.000000000000000e+00
0.000000000000000e+00 0.000000000000000e+00 0.000000000000000e+00
0.000000000000000e+00 0.000000000000000e+00 0.000000000000000e+00

0.000000000000000e+00 0.000000000000000e+00 0.000000000000000e+00
0.000000000000000e+00 0.000000000000000e+00 0.000000000000000e+00
0.000000000000000e+00 0.000000000000000e+00 0.000000000000000e+00

0.000000000000000e+00 0.000000000000000e+00 0.000000000000000e+00
0.000000000000000e+00 0.000000000000000e+00 0.000000000000000e+00
0.000000000000000e+00 0.000000000000000e+00 0.000000000000000e+00

0.000000000000000e+00 0.000000000000000e+00 0.000000000000000e+00
0.000000000000000e+00 0.000000000000000e+00 0.000000000000000e+00
0.000000000000000e+00 0.000000000000000e+00 0.000000000000000e+00

0.000000000000000e+00 0.000000000000000e+00 0.000000000000000e+00
0.000000000000000e+00 0.000000000000000e+00 0.000000000000000e+00
0.000000000000000e+00 0.000000000000000e+00 0.000000000000000e+00

0.000000000000000e+00 0.000000000000000e+00 0.000000000000000e+00
0.000000000000000e+00 0.000000000000000e+00 0.000000000000000e+00
0.000000000000000e+00 0.000000000000000e+00 0.000000000000000e+00

0.000000000000000e+00 0.000000000000000e+00 0.000000000000000e+00
0.000000000000000e+00 0.000000000000000e+00 0.000000000000000e+00
0.000000000000000e+00 0.000000000000000e+00 0.000000000000000e+00

0.000000000000000e+00 0.000000000000000e+00 0.000000000000000e+00
0.000000000000000e+00 0.000000000000000e+00 0.000000000000000e+00
0.000000000000000e+00 0.000000000000000e+00 0.000000000000000e+00

0.000000000000000e+00 0.000000000000000e+00 0.000000000000000e+00
0.000000000000000e+00 0.000000000000000e+00 0.000000000000000e+00
0.000000000000000e+00 0.000000000000000e+00 0.000000000000000e+00

0.000000000000000e+00 0.000000000000000e+00 0.000000000000000e+00
0.000000000000000e+00 0.000000000000000e+00 0.000000000000000e+00
0.000000000000000e+00 0.000000000000000e+00 0.000000000000000e+00

0.000000000000000e+00 0.000000000000000e+00 0.000000000000000e+00
0.000000000000000e+00 0.000000000000000e+00 0.000000000000000e+00
0.000000000000000e+00 0.000000000000000e+00 0.000000000000000e+00

0.000000000000000e+00 0.000000000000000e+00 0.000000000000000e+00
0.000000000000000e+00 0.000000000000000e+00 0.000000000000000e+00
0.000000000000000e+00 0.000000000000000e+00 0.000000000000000e+00

0.000000000000000e+00 0.000000000000000e+00 0.000000000000000e+00
0.000000000000000e+00 0.000000000000000e+00 0.000000000000000e+00
0.000000000000000e+00 0.000000000000000e+00 0.000000000000000e+00

0.000000000000000e+00 0.000000000000000e+00 0.000000000000000e+00
0.000000000000000e+00 0.000000000000000e+00 0.000000000000000e+00
0.000000000000000e+00 0.000000000000000e+00 0.000000000000000e+00

0.000000000000000e+00 0.000000000000000e+00 0.000000000000000e+00
0.000000000000000e+00 0.000000000000000e+00 0.000000000000000e+00
0.000000000000000e+00 0.000000000000000e+00 0.000000000000000e+00

0.000000000000000e+00 0.000000000000000e+00 0.000000000000000e+00
0.000000000000000e+00 0.000000000000000e+00 0.000000000000000e+00
0.000000000000000e+00 0.000000000000000e+00 0.000000000000000e+00

0.000000000000000e+00 0.000000000000000e+00 0.000000000000000e+00
0.000000000000000e+00 0.000000000000000e+00 0.000000000000000e+00
0.000000000000000e+00 0.000000000000000e+00 0.000000000000000e+00

0.000000000000000e+00 0.000000000000000e+00 0.000000000000000e+00
0.000000000000000e+00 0.000000000000000e+00 0.000000000000000e+00
0.000000000000000e+00 0.000000000000000e+00 0.000000000000000e+00

0.000000000000000e+00 0.000000000000000e+00 0.000000000000000e+00
0.000000000000000e+00 0.000000000000000e+00 0.000000000000000e+00
0.000000000000000e+00 0.000000000000000e+00 0.000000000000000e+00

0.000000000000000e+00 0.000000000000000e+00 0.000000000000000e+00
0.000000000000000e+00 0.000000000000000e+00 0.000000000000000e+00
0.000000000000000e+00 0.000000000000000e+00 0.000000000000000e+00

0.000000000000000e+00 0.000000000000000e+00 0.000000000000000e+00
0.000000000000000e+00 0.000000000000000e+00 0.000000000000000e+00
0.000000000000000e+00 0.000000000000000e+00 0.000000000000000e+00

0.000000000000000e+00 0.000000000000000e+00 0.000000000000000e+00
0.000000000000000e+00 0.000000000000000e+00 0.000000000000000e+00
0.000000000000000e+00 0.000000000000000e+00 0.000000000000000e+00

0.000000000000000e+00 0.000000000000000e+00 0.000000000000000e+00
0.000000000000000e+00 0.000000000000000e+00 0.000000000000000e+00
0.000000000000000e+00 0.000000000000000e+00 0.000000000000000e+00

0.000000000000000e+00 0.000000000000000e+00 0.000000000000000e+00
0.000000000000000e+00 0.000000000000000e+00 0.000000000000000e+00
0.000000000000000e+00 0.000000000000000e+00 0.000000000000000e+00

0.000000000000000e+00 0.000000000000000e+00 0.000000000000000e+00
0.000000000000000e+00 0.000000000000000e+00 0.000000000000000e+00
0.000000000000000e+00 0.000000000000000e+00 0.000000000000000e+00

0.000000000000000e+00 0.000000000000000e+00 0.000000000000000e+00
0.000000000000000e+00 0.000000000000000e+00 0.000000000000000e+00
0.000000000000000e+00 0.000000000000000e+00 0.000000000000000e+00

0.000000000000000e+00 0.000000000000000e+00 0.000000000000000e+00
0.000000000000000e+00 0.000000000000000e+00 0.000000000000000e+00
0.000000000000000e+00 0.000000000000000e+00 0.000000000000000e+00

0.000000000000000e+00 0.000000000000000e+00 0.000000000000000e+00
0.000000000000000e+00 0.000000000000000e+00 0.000000000000000e+00
0.000000000000000e+00 0.000000000000000e+00 0.000000000000000e+00

0.000000000000000e+00 0.000000000000000e+00 0.000000000000000e+00
0.000000000000000e+00 0.000000000000000e+00 0.000000000000000e+00
0.000000000000000e+00 0.000000000000000e+00 0.000000000000000e+00

0.000000000000000e+00 0.000000000000000e+00 0.000000000000000e+00
0.000000000000000e+00 0.000000000000000e+00 0.000000000000000e+00
0.000000000000000e+00 0.000000000000000e+00 0.000000000000000e+00

0.000000000000000e+00 0.000000000000000e+00 0.000000000000000e+00
0.000000000000000e+00 0.000000000000000e+00 0.000000000000000e+00
0.000000000000000e+00 0.000000000000000e+00 0.000000000000000e+00

0.000000000000000e+00 0.000000000000000e+00 0.000000000000000e+00
0.000000000000000e+00 0.000000000000000e+00 0.000000000000000e+00
0.000000000000000e+00 0.000000000000000e+00 0.000000000000000e+00

0.000000000000000e+00 0.000000000000000e+00 0.000000000000000e+00
0.000000000000000e+00 0.000000000000000e+00 0.000000000000000e+00
0.000000000000000e+00 0.000000000000000e+00 0.000000000000000e+00

0.000000000000000e+00 0.000000000000000e+00 0.000000000000000e+00
0.000000000000000e+00 0.000000000000000e+00 0.000000000000000e+00
0.000000000000000e+00 0.000000000000000e+00 0.000000000000000e+00

0.000000000000000e+00 0.000000000000000e+00 0.000000000000000e+00
0.000000000000000e+00 0.000000000000000e+00 0.000000000000000e+00
0.000000000000000e+00 0.000000000000000e+00 0.000000000000000e+00

0.000000000000000e+00 0.000000000000000e+00 0.000000000000000e+00
0.000000000000000e+00 0.000000000000000e+00 0.000000000000000e+00
0.000000000000000e+00 0.000000000000000e+00 0.000000000000000e+00

0.000000000000000e+00 0.000000000000000e+00 0.000000000000000e+00
0.000000000000000e+00 0.000000000000000e+00 0.000000000000000e+00
0.000000000000000e+00 0.000000000000000e+00 0.000000000000000e+00

0.000000000000000e+00 0.000000000000000e+00 0.000000000000000e+00
0.000000000000000e+00 0.000000000000000e+00 0.000000000000000e+00
0.000000000000000e+00 0.000000000000000e+00 0.000000000000000e+00

0.000000000000000e+00 0.000000000000000e+00 0.000000000000000e+00
0.000000000000000e+00 0.000000000000000e+00 0.000000000000000e+00
0.000000000000000e+00 0.000000000000000e+00 0.000000000000000e+00

0.000000000000000e+00 0.000000000000000e+00 0.000000000000000e+00
0.000000000000000e+00 0.000000000000000e+00 0.000000000000000e+00
0.000000000000000e+00 0.000000000000000e+00 0.000000000000000e+00

0.000000000000000e+00 0.000000000000000e+00 0.000000000000000e+00
0.000000000000000e+00 0.000000000000000e+00 0.000000000000000e+00
0.000000000000000e+00 0.000000000000000e+00 0.000000000000000e+00

0.000000000000000e+00 0.000000000000000e+00 0.000000000000000e+00
0.000000000000000e+00 0.000000000000000e+00 0.000000000000000e+00
0.000000000000000e+00 0.000000000000000e+00 0.000000000000000e+00

0.000000000000000e+00 0.000000000000000e+00 0.000000000000000e+00
0.000000000000000e+00 0.000000000000000e+00 0.000000000000000e+00
0.000000000000000e+00 0.000000000000000e+00 0.000000000000000e+00

0.000000000000000e+00 0.000000000000000e+00 0.000000000000000e+00
0.000000000000000e+00 0.000000000000000e+00 0.000000000000000e+00
0.000000000000000e+00 0.000000000000000e+00 0.000000000000000e+00

0.000000000000000e+00 0.000000000000000e+00 0.000000000000000e+00
0.000000000000000e+00 0.000000000000000e+00 0.000000000000000e+00
0.000000000000000e+00 0.000000000000000e+00 0.000000000000000e+00

0.000000000000000e+00 0.000000000000000e+00 0.000000000000000e+00
0.000000000000000e+00 0.000000000000000e+00 0.000000000000000e+00
0.000000000000000e+00 0.000000000000000e+00 0.000000000000000e+00

0.000000000000000e+00 0.000000000000000e+00 0.000000000000000e+00
0.000000000000000e+00 0.000000000000000e+00 0.000000000000000e+00
0.000000000000000e+00 0.000000000000000e+00 0.000000000000000e+00

0.000000000000000e+00 0.000000000000000e+00 0.000000000000000e+00
0.000000000000000e+00 0.000000000000000e+00 0.000000000000000e+00
0.000000000000000e+00 0.000000000000000e+00 0.000000000000000e+00

0.000000000000000e+00 0.000000000000000e+00 0.000000000000000e+00
0.000000000000000e+00 0.000000000000000e+00 0.000000000000000e+00
0.000000000000000e+00 0.000000000000000e+00 0.000000000000000e+00

0.000000000000000e+00 0.000000000000000e+00 0.000000000000000e+00
0.000000000000000e+00 0.000000000000000e+00 0.000000000000000e+00
0.000000000000000e+00 0.000000000000000e+00 0.000000000000000e+00

0.000000000000000e+00 0.000000000000000e+00 0.000000000000000e+00
0.000000000000000e+00 0.000000000000000e+00 0.000000000000000e+00
0.000000000000000e+00 0.000000000000000e+00 0.000000000000000e+00

0.000000000000000e+00 0.000000000000000e+00 0.000000000000000e+00
0.000000000000000e+00 0.000000000000000e+00 0.000000000000000e+00
0.000000000000000e+00 0.000000000000000e+00 0.000000000000000e+00

0.000000000000000e+00 0.000000000000000e+00 0.000000000000000e+00
0.000000000000000e+00 0.000000000000000e+00 0.000000000000000e+00
0.000000000000000e+00 0.000000000000000e+00 0.000000000000000e+00

0.000000000000000e+00 0.000000000000000e+00 0.000000000000000e+00
0.000000000000000e+00 0.000000000000000e+00 0.000000000000000e+00
0.000000000000000e+00 0.000000000000000e+00 0.000000000000000e+00

0.000000000000000e+00 0.000000000000000e+00 0.000000000000000e+00
0.000000000000000e+00 0.000000000000000e+00 0.000000000000000e+00
0.000000000000000e+00 0.000000000000000e+00 0.000000000000000e+00

0.000000000000000e+00 0.000000000000000e+00 0.000000000000000e+00
0.000000000000000e+00 0.000000000000000e+00 0.000000000000000e+00
0.000000000000000e+00 0.000000000000000e+00 0.000000000000000e+00

0.000000000000000e+00 0.000000000000000e+00 0.000000000000000e+00
0.000000000000000e+00 0.000000000000000e+00 0.000000000000000e+00
0.000000000000000e+00 0.000000000000000e+00 0.000000000000000e+00

0.000000000000000e+00 0.000000000000000e+00 0.000000000000000e+00
0.000000000000000e+00 0.000000000000000e+00 0.000000000000000e+00
0.000000000000000e+00 0.000000000000000e+00 0.000000000000000e+00

0.000000000000000e+00 0.000000000000000e+00 0.000000000000000e+00
0.000000000000000e+00 0.000000000000000e+00 0.000000000000000e+00
0.000000000000000e+00 0.000000000000000e+00 0.000000000000000e+00

0.000000000000000e+00 0.000000000000000e+00 0.000000000000000e+00
0.000000000000000e+00 0.000000000000000e+00 0.000000000000000e+00
0.000000000000000e+00 0.000000000000000e+00 0.000000000000000e+00

0.000000000000000e+00 0.000000000000000e+00 0.000000000000000e+00
0.000000000000000e+00 0.000000000000000e+00 0.000000000000000e+00
0.000000000000000e+00 0.000000000000000e+00 0.000000000000000e+00

0.000000000000000e+00 0.000000000000000e+00 0.000000000000000e+00
0.000000000000000e+00 0.000000000000000e+00 0.000000000000000e+00
0.000000000000000e+00 0.000000000000000e+00 0.000000000000000e+00

0.000000000000000e+00 0.000000000000000e+00 0.000000000000000e+00
0.000000000000000e+00 0.000000000000000e+00 0.000000000000000e+00
0.000000000000000e+00 0.000000000000000e+00 0.000000000000000e+00

0.000000000000000e+00 0.000000000000000e+00 0.000000000000000e+00
0.000000000000000e+00 0.000000000000000e+00 0.000000000000000e+00
0.000000000000000e+00 0.000000000000000e+00 0.000000000000000e+00

0.000000000000000e+00 0.000000000000000e+00 0.000000000000000e+00
0.000000000000000e+00 0.000000000000000e+00 0.000000000000000e+00
0.000000000000000e+00 0.000000000000000e+00 0.000000000000000e+00

0.000000000000000e+00 0.000000000000000e+00 0.000000000000000e+00
0.000000000000000e+00 0.000000000000000e+00 0.000000000000000e+00
0.000000000000000e+00 0.000000000000000e+00 0.000000000000000e+00

0.000000000000000e+00 0.000000000000000e+00 0.000000000000000e+00
0.000000000000000e+00 0.000000000000000e+00 0.000000000000000e+00
0.000000000000000e+00 0.000000000000000e+00 0.000000000000000e+00

0.000000000000000e+00 0.000000000000000e+00 0.000000000000000e+00
0.000000000000000e+00 0.000000000000000e+00 0.000000000000000e+00
0.000000000000000e+00 0.000000000000000e+00 0.000000000000000e+00

0.000000000000000e+00 0.000000000000000e+00 0.000000000000000e+00
0.000000000000000e+00 0.000000000000000e+00 0.000000000000000e+00
0.000000000000000e+00 0.000000000000000e+00 0.000000000000000e+00

0.000000000000000e+00 0.000000000000000e+00 0.000000000000000e+00
0.000000000000000e+00 0.000000000000000e+00 0.000000000000000e+00
0.000000000000000e+00 0.000000000000000e+00 0.000000000000000e+00

0.000000000000000e+00 0.000000000000000e+00 0.000000000000000e+00
0.000000000000000e+00 0.000000000000000e+00 0.000000000000000e+00
0.000000000000000e+00 0.000000000000000e+00 0.000000000000000e+00

0.000000000000000e+00 0.000000000000000e+00 0.000000000000000e+00
0.000000000000000e+00 0.000000000000000e+00 0.000000000000000e+00
0.000000000000000e+00 0.000000000000000e+00 0.000000000000000e+00

0.000000000000000e+00 0.000000000000000e+00 0.000000000000000e+00
0.000000000000000e+00 0.000000000000000e+00 0.000000000000000e+00
0.000000000000000e+00 0.000000000000000e+00 0.000000000000000e+00

0.000000000000000e+00 0.000000000000000e+00 0.000000000000000e+00
0.000000000000000e+00 0.000000000000000e+00 0.000000000000000e+00
0.000000000000000e+00 0.000000000000000e+00 0.000000000000000e+00

0.000000000000000e+00 0.000000000000000e+00 0.000000000000000e+00
0.000000000000000e+00 0.000000000000000e+00 0.000000000000000e+00
0.000000000000000e+00 0.000000000000000e+00 0.000000000000000e+00

0.000000000000000e+00 0.000000000000000e+00 0.000000000000000e+00
0.000000000000000e+00 0.000000000000000e+00 0.000000000000000e+00
0.000000000000000e+00 0.000000000000000e+00 0.000000000000000e+00

0.000000000000000e+00 0.000000000000000e+00 0.000000000000000e+00
0.000000000000000e+00 0.000000000000000e+00 0.000000000000000e+00
0.000000000000000e+00 0.000000000000000e+00 0.000000000000000e+00

0.000000000000000e+00 0.000000000000000e+00 0.000000000000000e+00
0.000000000000000e+00 0.000000000000000e+00 0.000000000000000e+00
0.000000000000000e+00 0.000000000000000e+00 0.000000000000000e+00

0.000000000000000e+00 0.000000000000000e+00 0.000000000000000e+00
0.000000000000000e+00 0.000000000000000e+00 0.000000000000000e+00
0.000000000000000e+00 0.000000000000000e+00 0.000000000000000e+00

0.000000000000000e+00 0.000000000000000e+00 0.000000000000000e+00
0.000000000000000e+00 0.000000000000000e+00 0.000000000000000e+00
0.000000000000000e+00 0.000000000000000e+00 0.000000000000000e+00

0.000000000000000e+00 0.000000000000000e+00 0.000000000000000e+00
0.000000000000000e+00 0.000000000000000e+00 0.000000000000000e+00
0.000000000000000e+00 0.000000000000000e+00 0.000000000000000e+00

0.000000000000000e+00 0.000000000000000e+00 0.000000000000000e+00
0.000000000000000e+00 0.000000000000000e+00 0.000000000000000e+00
0.000000000000000e+00 0.000000000000000e+00 0.000000000000000e+00

0.000000000000000e+00 0.000000000000000e+00 0.000000000000000e+00
0.000000000000000e+00 0.000000000000000e+00 0.000000000000000e+00
0.000000000000000e+00 0.000000000000000e+00 0.000000000000000e+00

0.000000000000000e+00 0.000000000000000e+00 0.000000000000000e+00
0.000000000000000e+00 0.000000000000000e+00 0.000000000000000e+00
0.000000000000000e+00 0.000000000000000e+00 0.000000000000000e+00

0.000000000000000e+00 0.000000000000000e+00 0.000000000000000e+00
0.000000000000000e+00 0.000000000000000e+00 0.000000000000000e+00
0.000000000000000e+00 0.000000000000000e+00 0.000000000000000e+00

0.000000000000000e+00 0.000000000000000e+00 0.000000000000000e+00
0.000000000000000e+00 0.000000000000000e+00 0.000000000000000e+00
0.000000000000000e+00 0.000000000000000e+00 0.000000000000000e+00

0.000000000000000e+00 0.000000000000000e+00 0.000000000000000e+00
0.000000000000000e+00 0.000000000000000e+00 0.000000000000000e+00
0.000000000000000e+00 0.000000000000000e+00 0.000000000000000e+00

0.000000000000000e+00 0.000000000000000e+00 0.000000000000000e+00
0.000000000000000e+00 0.000000000000000e+00 0.000000000000000e+00
0.000000000000000e+00 0.000000000000000e+00 0.000000000000000e+00

0.000000000000000e+00 0.000000000000000e+00 0.000000000000000e+00
0.000000000000000e+00 0.000000000000000e+00 0.000000000000000e+00
0.000000000000000e+00 0.000000000000000e+00 0.000000000000000e+00

0.000000000000000e+00 0.000000000000000e+00 0.000000000000000e+00
0.000000000000000e+00 0.000000000000000e+00 0.000000000000000e+00
0.000000000000000e+00 0.000000000000000e+00 0.000000000000000e+00

0.000000000000000e+00 0.000000000000000e+00 0.000000000000000e+00
0.000000000000000e+00 0.000000000000000e+00 0.000000000000000e+00
0.000000000000000e+00 0.000000000000000e+00 0.000000000000000e+00

0.000000000000000e+00 0.000000000000000e+00 0.000000000000000e+00
0.000000000000000e+00 0.000000000000000e+00 0.000000000000000e+00
0.000000000000000e+00 0.000000000000000e+00 0.000000000000000e+00

0.000000000000000e+00 0.000000000000000e+00 0.000000000000000e+00
0.000000000000000e+00 0.000000000000000e+00 0.000000000000000e+00
0.000000000000000e+00 0.000000000000000e+00 0.000000000000000e+00

0.000000000000000e+00 0.000000000000000e+00 0.000000000000000e+00
0.000000000000000e+00 0.000000000000000e+00 0.000000000000000e+00
0.000000000000000e+00 0.000000000000000e+00 0.000000000000000e+00

0.000000000000000e+00 0.000000000000000e+00 0.000000000000000e+00
0.000000000000000e+00 0.000000000000000e+00 0.000000000000000e+00
0.000000000000000e+00 0.000000000000000e+00 0.000000000000000e+00

0.000000000000000e+00 0.000000000000000e+00 0.000000000000000e+00
0.000000000000000e+00 0.000000000000000e+00 0.000000000000000e+00
0.000000000000000e+00 0.000000000000000e+00 0.000000000000000e+00

0.000000000000000e+00 0.000000000000000e+00 0.000000000000000e+00
0.000000000000000e+00 0.000000000000000e+00 0.000000000000000e+00
0.000000000000000e+00 0.000000000000000e+00 0.000000000000000e+00

0.000000000000000e+00 0.000000000000000e+00 0.000000000000000e+00
0.000000000000000e+00 0.000000000000000e+00 0.000000000000000e+00
0.000000000000000e+00 0.000000000000000e+00 0.000000000000000e+00

0.000000000000000e+00 0.000000000000000e+00 0.000000000000000e+00
0.000000000000000e+00 0.000000000000000e+00 0.000000000000000e+00
0.000000000000000e+00 0.000000000000000e+00 0.000000000000000e+00

0.000000000000000e+00 0.000000000000000e+00 0.000000000000000e+00
0.000000000000000e+00 0.000000000000000e+00 0.000000000000000e+00
0.000000000000000e+00 0.000000000000000e+00 0.000000000000000e+00

0.000000000000000e+00 0.000000000000000e+00 0.000000000000000e+00
0.000000000000000e+00 0.000000000000000e+00 0.000000000000000e+00
0.000000000000000e+00 0.000000000000000e+00 0.000000000000000e+00

0.000000000000000e+00 0.000000000000000e+00 0.000000000000000e+00
0.000000000000000e+00 0.000000000000000e+00 0.000000000000000e+00
0.000000000000000e+00 0.000000000000000e+00 0.000000000000000e+00

0.000000000000000e+00 0.000000000000000e+00 0.000000000000000e+00
0.000000000000000e+00 0.000000000000000e+00 0.000000000000000e+00
0.000000000000000e+00 0.000000000000000e+00 0.000000000000000e+00

0.000000000000000e+00 0.000000000000000e+00 0.000000000000000e+00
0.000000000000000e+00 0.000000000000000e+00 0.000000000000000e+00
0.000000000000000e+00 0.000000000000000e+00 0.000000000000000e+00

0.000000000000000e+00 0.000000000000000e+00 0.000000000000000e+00
0.000000000000000e+00 0.000000000000000e+00 0.000000000000000e+00
0.000000000000000e+00 0.000000000000000e+00 0.000000000000000e+00

0.000000000000000e+00 0.000000000000000e+00 0.000000000000000e+00
0.000000000000000e+00 0.000000000000000e+00 0.000000000000000e+00
0.000000000000000e+00 0.000000000000000e+00 0.000000000000000e+00

0.000000000000000e+00 0.000000000000000e+00 0.000000000000000e+00
0.000000000000000e+00 0.000000000000000e+00 0.000000000000000e+00
0.000000000000000e+00 0.000000000000000e+00 0.000000000000000e+00

0.000000000000000e+00 0.000000000000000e+00 0.000000000000000e+00
0.000000000000000e+00 0.000000000000000e+00 0.000000000000000e+00
0.000000000000000e+00 0.000000000000000e+00 0.000000000000000e+00

0.000000000000000e+00 0.000000000000000e+00 0.000000000000000e+00
0.000000000000000e+00 0.000000000000000e+00 0.000000000000000e+00
0.000000000000000e+00 0.000000000000000e+00 0.000000000000000e+00

0.000000000000000e+00 0.000000000000000e+00 0.000000000000000e+00
0.000000000000000e+00 0.000000000000000e+00 0.000000000000000e+00
0.000000000000000e+00 0.000000000000000e+00 0.000000000000000e+00

0.000000000000000e+00 0.000000000000000e+00 0.000000000000000e+00
0.000000000000000e+00 0.000000000000000e+00 0.000000000000000e+00
0.000000000000000e+00 0.000000000000000e+00 0.000000000000000e+00

0.000000000000000e+00 0.000000000000000e+00 0.000000000000000e+00
0.000000000000000e+00 0.000000000000000e+00 0.000000000000000e+00
0.000000000000000e+00 0.000000000000000e+00 0.000000000000000e+00

0.000000000000000e+00 0.000000000000000e+00 0.000000000000000e+00
0.000000000000000e+00 0.000000000000000e+00 0.000000000000000e+00
0.000000000000000e+00 0.000000000000000e+00 0.000000000000000e+00

0.000000000000000e+00 0.000000000000000e+00 0.000000000000000e+00
0.000000000000000e+00 0.000000000000000e+00 0.000000000000000e+00
0.000000000000000e+00 0.000000000000000e+00 0.000000000000000e+00

0.000000000000000e+00 0.000000000000000e+00 0.000000000000000e+00
0.000000000000000e+00 0.000000000000000e+00 0.000000000000000e+00
0.000000000000000e+00 0.000000000000000e+00 0.000000000000000e+00

0.000000000000000e+00 0.000000000000000e+00 0.000000000000000e+00
0.000000000000000e+00 0.000000000000000e+00 0.000000000000000e+00
0.000000000000000e+00 0.000000000000000e+00 0.000000000000000e+00

0.000000000000000e+00 0.000000000000000e+00 0.000000000000000e+00
0.000000000000000e+00 0.000000000000000e+00 0.000000000000000e+00
0.000000000000000e+00 0.000000000000000e+00 0.000000000000000e+00

0.000000000000000e+00 0.000000000000000e+00 0.000000000000000e+00
0.000000000000000e+00 0.000000000000000e+00 0.000000000000000e+00
0.000000000000000e+00 0.000000000000000e+00 0.000000000000000e+00

0.000000000000000e+00 0.000000000000000e+00 0.000000000000000e+00
0.000000000000000e+00 0.000000000000000e+00 0.000000000000000e+00
0.000000000000000e+00 0.000000000000000e+00 0.000000000000000e+00

0.000000000000000e+00 0.000000000000000e+00 0.000000000000000e+00
0.000000000000000e+00 0.000000000000000e+00 0.000000000000000e+00
0.000000000000000e+00 0.000000000000000e+00 0.000000000000000e+00

0.000000000000000e+00 0.000000000000000e+00 0.000000000000000e+00
0.000000000000000e+00 0.000000000000000e+00 0.000000000000000e+00
0.000000000000000e+00 0.000000000000000e+00 0.000000000000000e+00

0.000000000000000e+00 0.000000000000000e+00 0.000000000000000e+00
0.000000000000000e+00 0.000000000000000e+00 0.000000000000000e+00
0.000000000000000e+00 0.000000000000000e+00 0.000000000000000e+00

0.000000000000000e+00 0.000000000000000e+00 0.000000000000000e+00
0.000000000000000e+00 0.000000000000000e+00 0.000000000000000e+00
0.000000000000000e+00 0.000000000000000e+00 0.000000000000000e+00

0.000000000000000e+00 0.000000000000000e+00 0.000000000000000e+00
0.000000000000000e+00 0.000000000000000e+00 0.000000000000000e+00
0.000000000000000e+00 0.000000000000000e+00 0.000000000000000e+00

0.000000000000000e+00 0.000000000000000e+00 0.000000000000000e+00
0.000000000000000e+00 0.000000000000000e+00 0.000000000000000e+00
0.000000000000000e+00 0.000000000000000e+00 0.000000000000000e+00

0.000000000000000e+00 0.000000000000000e+00 0.000000000000000e+00
0.000000000000000e+00 0.000000000000000e+00 0.000000000000000e+00
0.000000000000000e+00 0.000000000000000e+00 0.000000000000000e+00

0.000000000000000e+00 0.000000000000000e+00 0.000000000000000e+00
0.000000000000000e+00 0.000000000000000e+00 0.000000000000000e+00
0.000000000000000e+00 0.000000000000000e+00 0.000000000000000e+00

0.000000000000000e+00 0.000000000000000e+00 0.000000000000000e+00
0.000000000000000e+00 0.000000000000000e+00 0.000000000000000e+00
0.000000000000000e+00 0.000000000000000e+00 0.000000000000000e+00

0.000000000000000e+00 0.000000000000000e+00 0.000000000000000e+00
0.000000000000000e+00 0.000000000000000e+00 0.000000000000000e+00
0.000000000000000e+00 0.000000000000000e+00 0.000000000000000e+00

0.000000000000000e+00 0.000000000000000e+00 0.000000000000000e+00
0.000000000000000e+00 0.000000000000000e+00 0.000000000000000e+00
0.000000000000000e+00 0.000000000000000e+00 0.000000000000000e+00

0.000000000000000e+00 0.000000000000000e+00 0.000000000000000e+00
0.000000000000000e+00 0.000000000000000e+00 0.000000000000000e+00
0.000000000000000e+00 0.000000000000000e+00 0.000000000000000e+00

0.000000000000000e+00 0.000000000000000e+00 0.000000000000000e+00
0.000000000000000e+00 0.000000000000000e+00 0.000000000000000e+00
0.000000000000000e+00 0.000000000000000e+00 0.000000000000000e+00

0.000000000000000e+00 0.000000000000000e+00 0.000000000000000e+00
0.000000000000000e+00 0.000000000000000e+00 0.000000000000000e+00
0.000000000000000e+00 0.000000000000000e+00 0.000000000000000e+00

0.000000000000000e+00 0.000000000000000e+00 0.000000000000000e+00
0.000000000000000e+00 0.000000000000000e+00 0.000000000000000e+00
0.000000000000000e+00 0.000000000000000e+00 0.000000000000000e+00

0.000000000000000e+00 0.000000000000000e+00 0.000000000000000e+00
0.000000000000000e+00 0.000000000000000e+00 0.000000000000000e+00
0.000000000000000e+00 0.000000000000000e+00 0.000000000000000e+00

0.000000000000000e+00 0.000000000000000e+00 0.000000000000000e+00
0.000000000000000e+00 0.000000000000000e+00 0.000000000000000e+00
0.000000000000000e+00 0.000000000000000e+00 0.000000000000000e+00

0.000000000000000e+00 0.000000000000000e+00 0.000000000000000e+00
0.000000000000000e+00 0.000000000000000e+00 0.000000000000000e+00
0.000000000000000e+00 0.000000000000000e+00 0.000000000000000e+00

0.000000000000000e+00 0.000000000000000e+00 0.000000000000000e+00
0.000000000000000e+00 0.000000000000000e+00 0.000000000000000e+00
0.000000000000000e+00 0.000000000000000e+00 0.000000000000000e+00

0.000000000000000e+00 0.000000000000000e+00 0.000000000000000e+00
0.000000000000000e+00 0.000000000000000e+00 0.000000000000000e+00
0.000000000000000e+00 0.000000000000000e+00 0.000000000000000e+00

0.000000000000000e+00 0.000000000000000e+00 0.000000000000000e+00
0.000000000000000e+00 0.000000000000000e+00 0.000000000000000e+00
0.000000000000000e+00 0.000000000000000e+00 0.000000000000000e+00

0.000000000000000e+00 0.000000000000000e+00 0.000000000000000e+00
0.000000000000000e+00 0.000000000000000e+00 0.000000000000000e+00
0.000000000000000e+00 0.000000000000000e+00 0.000000000000000e+00

0.000000000000000e+00 0.000000000000000e+00 0.000000000000000e+00
0.000000000000000e+00 0.000000000000000e+00 0.000000000000000e+00
0.000000000000000e+00 0.000000000000000e+00 0.000000000000000e+00

0.000000000000000e+00 0.000000000000000e+00 0.000000000000000e+00
0.000000000000000e+00 0.000000000000000e+00 0.000000000000000e+00
0.000000000000000e+00 0.000000000000000e+00 0.000000000000000e+00

0.000000000000000e+00 0.000000000000000e+00 0.000000000000000e+00
0.000000000000000e+00 0.000000000000000e+00 0.000000000000000e+00
0.000000000000000e+00 0.000000000000000e+00 0.000000000000000e+00

0.000000000000000e+00 0.000000000000000e+00 0.000000000000000e+00
0.000000000000000e+00 0.000000000000000e+00 0.000000000000000e+00
0.000000000000000e+00 0.000000000000000e+00 0.000000000000000e+00

0.000000000000000e+00 0.000000000000000e+00 0.000000000000000e+00
0.000000000000000e+00 0.000000000000000e+00 0.000000000000000e+00
0.000000000000000e+00 0.000000000000000e+00 0.000000000000000e+00

0.000000000000000e+00 0.000000000000000e+00 0.000000000000000e+00
0.000000000000000e+00 0.000000000000000e+00 0.000000000000000e+00
0.000000000000000e+00 0.000000000000000e+00 0.000000000000000e+00

0.000000000000000e+00 0.000000000000000e+00 0.000000000000000e+00
0.000000000000000e+00 0.000000000000000e+00 0.000000000000000e+00
0.000000000000000e+00 0.000000000000000e+00 0.000000000000000e+00

0.000000000000000e+00 0.000000000000000e+00 0.000000000000000e+00
0.000000000000000e+00 0.000000000000000e+00 0.000000000000000e+00
0.000000000000000e+00 0.000000000000000e+00 0.000000000000000e+00

0.000000000000000e+00 0.000000000000000e+00 0.000000000000000e+00
0.000000000000000e+00 0.000000000000000e+00 0.000000000000000e+00
0.000000000000000e+00 0.000000000000000e+00 0.000000000000000e+00

0.000000000000000e+00 0.000000000000000e+00 0.000000000000000e+00
0.000000000000000e+00 0.000000000000000e+00 0.000000000000000e+00
0.000000000000000e+00 0.000000000000000e+00 0.000000000000000e+00

0.000000000000000e+00 0.000000000000000e+00 0.000000000000000e+00
0.000000000000000e+00 0.000000000000000e+00 0.000000000000000e+00
0.000000000000000e+00 0.000000000000000e+00 0.000000000000000e+00

0.000000000000000e+00 0.000000000000000e+00 0.000000000000000e+00
0.000000000000000e+00 0.000000000000000e+00 0.000000000000000e+00
0.000000000000000e+00 0.000000000000000e+00 0.000000000000000e+00

0.000000000000000e+00 0.000000000000000e+00 0.000000000000000e+00
0.000000000000000e+00 0.000000000000000e+00 0.000000000000000e+00
0.000000000000000e+00 0.000000000000000e+00 0.000000000000000e+00

0.000000000000000e+00 0.000000000000000e+00 0.000000000000000e+00
0.000000000000000e+00 0.000000000000000e+00 0.000000000000000e+00
0.000000000000000e+00 0.000000000000000e+00 0.000000000000000e+00

0.000000000000000e+00 0.000000000000000e+00 0.000000000000000e+00
0.000000000000000e+00 0.000000000000000e+00 0.000000000000000e+00
0.000000000000000e+00 0.000000000000000e+00 0.000000000000000e+00

0.000000000000000e+00 0.000000000000000e+00 0.000000000000000e+00
0.000000000000000e+00 0.000000000000000e+00 0.000000000000000e+00
0.000000000000000e+00 0.000000000000000e+00 0.000000000000000e+00

0.000000000000000e+00 0.000000000000000e+00 0.000000000000000e+00
0.000000000000000e+00 0.000000000000000e+00 0.000000000000000e+00
0.000000000000000e+00 0.000000000000000e+00 0.000000000000000e+00

0.000000000000000e+00 0.000000000000000e+00 0.000000000000000e+00
0.000000000000000e+00 0.000000000000000e+00 0.000000000000000e+00
0.000000000000000e+00 0.000000000000000e+00 0.000000000000000e+00

0.000000000000000e+00 0.000000000000000e+00 0.000000000000000e+00
0.000000000000000e+00 0.000000000000000e+00 0.000000000000000e+00
0.000000000000000e+00 0.000000000000000e+00 0.000000000000000e+00

0.000000000000000e+00 0.000000000000000e+00 0.000000000000000e+00
0.000000000000000e+00 0.000000000000000e+00 0.000000000000000e+00
0.000000000000000e+00 0.000000000000000e+00 0.000000000000000e+00

0.000000000000000e+00 0.000000000000000e+00 0.000000000000000e+00
0.000000000000000e+00 0.000000000000000e+00 0.000000000000000e+00
0.000000000000000e+00 0.000000000000000e+00 0.000000000000000e+00

0.000000000000000e+00 0.000000000000000e+00 0.000000000000000e+00
0.000000000000000e+00 0.000000000000000e+00 0.000000000000000e+00
0.000000000000000e+00 0.000000000000000e+00 0.000000000000000e+00

0.000000000000000e+00 0.000000000000000e+00 0.000000000000000e+00
0.000000000000000e+00 0.000000000000000e+00 0.000000000000000e+00
0.000000000000000e+00 0.000000000000000e+00 0.000000000000000e+00

0.000000000000000e+00 0.000000000000000e+00 0.000000000000000e+00
0.000000000000000e+00 0.000000000000000e+00 0.000000000000000e+00
0.000000000000000e+00 0.000000000000000e+00 0.000000000000000e+00

0.000000000000000e+00 0.000000000000000e+00 0.000000000000000e+00
0.000000000000000e+00 0.000000000000000e+00 0.000000000000000e+00
0.000000000000000e+00 0.000000000000000e+00 0.000000000000000e+00

0.000000000000000e+00 0.000000000000000e+00 0.000000000000000e+00
0.000000000000000e+00 0.000000000000000e+00 0.000000000000000e+00
0.000000000000000e+00 0.000000000000000e+00 0.000000000000000e+00

0.000000000000000e+00 0.000000000000000e+00 0.000000000000000e+00
0.000000000000000e+00 0.000000000000000e+00 0.000000000000000e+00
0.000000000000000e+00 0.000000000000000e+00 0.000000000000000e+00

0.000000000000000e+00 0.000000000000000e+00 0.000000000000000e+00
0.000000000000000e+00 0.000000000000000e+00 0.000000000000000e+00
0.000000000000000e+00 0.000000000000000e+00 0.000000000000000e+00

0.000000000000000e+00 0.000000000000000e+00 0.000000000000000e+00
0.000000000000000e+00 0.000000000000000e+00 0.000000000000000e+00
0.000000000000000e+00 0.000000000000000e+00 0.000000000000000e+00

0.000000000000000e+00 0.000000000000000e+00 0.000000000000000e+00
0.000000000000000e+00 0.000000000000000e+00 0.000000000000000e+00
0.000000000000000e+00 0.000000000000000e+00 0.000000000000000e+00

0.000000000000000e+00 0.000000000000000e+00 0.000000000000000e+00
0.000000000000000e+00 0.000000000000000e+00 0.000000000000000e+00
0.000000000000000e+00 0.000000000000000e+00 0.000000000000000e+00

0.000000000000000e+00 0.000000000000000e+00 0.000000000000000e+00
0.000000000000000e+00 0.000000000000000e+00 0.000000000000000e+00
0.000000000000000e+00 0.000000000000000e+00 0.000000000000000e+00

0.000000000000000e+00 0.000000000000000e+00 0.000000000000000e+00
0.000000000000000e+00 0.000000000000000e+00 0.000000000000000e+00
0.000000000000000e+00 0.000000000000000e+00 0.000000000000000e+00

0.000000000000000e+00 0.000000000000000e+00 0.000000000000000e+00
0.000000000000000e+00 0.000000000000000e+00 0.000000000000000e+00
0.000000000000000e+00 0.000000000000000e+00 0.000000000000000e+00

0.000000000000000e+00 0.000000000000000e+00 0.000000000000000e+00
0.000000000000000e+00 0.000000000000000e+00 0.000000000000000e+00
0.000000000000000e+00 0.000000000000000e+00 0.000000000000000e+00

0.000000000000000e+00 0.000000000000000e+00 0.000000000000000e+00
0.000000000000000e+00 0.000000000000000e+00 0.000000000000000e+00
0.000000000000000e+00 0.000000000000000e+00 0.000000000000000e+00

0.000000000000000e+00 0.000000000000000e+00 0.000000000000000e+00
0.000000000000000e+00 0.000000000000000e+00 0.000000000000000e+00
0.000000000000000e+00 0.000000000000000e+00 0.000000000000000e+00

0.000000000000000e+00 0.000000000000000e+00 0.000000000000000e+00
0.000000000000000e+00 0.000000000000000e+00 0.000000000000000e+00
0.000000000000000e+00 0.000000000000000e+00 0.000000000000000e+00

0.000000000000000e+00 0.000000000000000e+00 0.000000000000000e+00
0.000000000000000e+00 0.000000000000000e+00 0.000000000000000e+00
0.000000000000000e+00 0.000000000000000e+00 0.000000000000000e+00

0.000000000000000e+00 0.000000000000000e+00 0.000000000000000e+00
0.000000000000000e+00 0.000000000000000e+00 0.000000000000000e+00
0.000000000000000e+00 0.000000000000000e+00 0.000000000000000e+00

0.000000000000000e+00 0.000000000000000e+00 0.000000000000000e+00
0.000000000000000e+00 0.000000000000000e+00 0.000000000000000e+00
0.000000000000000e+00 0.000000000000000e+00 0.000000000000000e+00

0.000000000000000e+00 0.000000000000000e+00 0.000000000000000e+00
0.000000000000000e+00 0.000000000000000e+00 0.000000000000000e+00
0.000000000000000e+00 0.000000000000000e+00 0.000000000000000e+00

0.000000000000000e+00 0.000000000000000e+00 0.000000000000000e+00
0.000000000000000e+00 0.000000000000000e+00 0.000000000000000e+00
0.000000000000000e+00 0.000000000000000e+00 0.000000000000000e+00

0.000000000000000e+00 0.000000000000000e+00 0.000000000000000e+00
0.000000000000000e+00 0.000000000000000e+00 0.000000000000000e+00
0.000000000000000e+00 0.000000000000000e+00 0.000000000000000e+00

0.000000000000000e+00 0.000000000000000e+00 0.000000000000000e+00
0.000000000000000e+00 0.000000000000000e+00 0.000000000000000e+00
0.000000000000000e+00 0.000000000000000e+00 0.000000000000000e+00

0.000000000000000e+00 0.000000000000000e+00 0.000000000000000e+00
0.000000000000000e+00 0.000000000000000e+00 0.000000000000000e+00
0.000000000000000e+00 0.000000000000000e+00 0.000000000000000e+00

0.000000000000000e+00 0.000000000000000e+00 0.000000000000000e+00
0.000000000000000e+00 0.000000000000000e+00 0.000000000000000e+00
0.000000000000000e+00 0.000000000000000e+00 0.000000000000000e+00

0.000000000000000e+00 0.000000000000000e+00 0.000000000000000e+00
0.000000000000000e+00 0.000000000000000e+00 0.000000000000000e+00
0.000000000000000e+00 0.000000000000000e+00 0.000000000000000e+00

0.000000000000000e+00 0.000000000000000e+00 0.000000000000000e+00
0.000000000000000e+00 0.000000000000000e+00 0.000000000000000e+00
0.000000000000000e+00 0.000000000000000e+00 0.000000000000000e+00

0.000000000000000e+00 0.000000000000000e+00 0.000000000000000e+00
0.000000000000000e+00 0.000000000000000e+00 0.000000000000000e+00
0.000000000000000e+00 0.000000000000000e+00 0.000000000000000e+00

0.000000000000000e+00 0.000000000000000e+00 0.000000000000000e+00
0.000000000000000e+00 0.000000000000000e+00 0.000000000000000e+00
0.000000000000000e+00 0.000000000000000e+00 0.000000000000000e+00

0.000000000000000e+00 0.000000000000000e+00 0.000000000000000e+00
0.000000000000000e+00 0.000000000000000e+00 0.000000000000000e+00
0.000000000000000e+00 0.000000000000000e+00 0.000000000000000e+00

0.000000000000000e+00 0.000000000000000e+00 0.000000000000000e+00
0.000000000000000e+00 0.000000000000000e+00 0.000000000000000e+00
0.000000000000000e+00 0.000000000000000e+00 0.000000000000000e+00

0.000000000000000e+00 0.000000000000000e+00 0.000000000000000e+00
0.000000000000000e+00 0.000000000000000e+00 0.000000000000000e+00
0.000000000000000e+00 0.000000000000000e+00 0.000000000000000e+00

0.000000000000000e+00 0.000000000000000e+00 0.000000000000000e+00
0.000000000000000e+00 0.000000000000000e+00 0.000000000000000e+00
0.000000000000000e+00 0.000000000000000e+00 0.000000000000000e+00

0.000000000000000e+00 0.000000000000000e+00 0.000000000000000e+00
0.000000000000000e+00 0.000000000000000e+00 0.000000000000000e+00
0.000000000000000e+00 0.000000000000000e+00 0.000000000000000e+00

0.000000000000000e+00 0.000000000000000e+00 0.000000000000000e+00
0.000000000000000e+00 0.000000000000000e+00 0.000000000000000e+00
0.000000000000000e+00 0.000000000000000e+00 0.000000000000000e+00

0.000000000000000e+00 0.000000000000000e+00 0.000000000000000e+00
0.000000000000000e+00 0.000000000000000e+00 0.000000000000000e+00
0.000000000000000e+00 0.000000000000000e+00 0.000000000000000e+00

0.000000000000000e+00 0.000000000000000e+00 0.000000000000000e+00
0.000000000000000e+00 0.000000000000000e+00 0.000000000000000e+00
0.000000000000000e+00 0.000000000000000e+00 0.000000000000000e+00

0.000000000000000e+00 0.000000000000000e+00 0.000000000000000e+00
0.000000000000000e+00 0.000000000000000e+00 0.000000000000000e+00
0.000000000000000e+00 0.000000000000000e+00 0.000000000000000e+00

0.000000000000000e+00 0.000000000000000e+00 0.000000000000000e+00
0.000000000000000e+00 0.000000000000000e+00 0.000000000000000e+00
0.000000000000000e+00 0.000000000000000e+00 0.000000000000000e+00

0.000000000000000e+00 0.000000000000000e+00 0.000000000000000e+00
0.000000000000000e+00 0.000000000000000e+00 0.000000000000000e+00
0.000000000000000e+00 0.000000000000000e+00 0.000000000000000e+00

0.000000000000000e+00 0.000000000000000e+00 0.000000000000000e+00
0.000000000000000e+00 0.000000000000000e+00 0.000000000000000e+00
0.000000000000000e+00 0.000000000000000e+00 0.000000000000000e+00

0.000000000000000e+00 0.000000000000000e+00 0.000000000000000e+00
0.000000000000000e+00 0.000000000000000e+00 0.000000000000000e+00
0.000000000000000e+00 0.000000000000000e+00 0.000000000000000e+00

0.000000000000000e+00 0.000000000000000e+00 0.000000000000000e+00
0.000000000000000e+00 0.000000000000000e+00 0.000000000000000e+00
0.000000000000000e+00 0.000000000000000e+00 0.000000000000000e+00

0.000000000000000e+00 0.000000000000000e+00 0.000000000000000e+00
0.000000000000000e+00 0.000000000000000e+00 0.000000000000000e+00
0.000000000000000e+00 0.000000000000000e+00 0.000000000000000e+00

0.000000000000000e+00 0.000000000000000e+00 0.000000000000000e+00
0.000000000000000e+00 0.000000000000000e+00 0.000000000000000e+00
0.000000000000000e+00 0.000000000000000e+00 0.000000000000000e+00

0.000000000000000e+00 0.000000000000000e+00 0.000000000000000e+00
0.000000000000000e+00 0.000000000000000e+00 0.000000000000000e+00
0.000000000000000e+00 0.000000000000000e+00 0.000000000000000e+00

0.000000000000000e+00 0.000000000000000e+00 0.000000000000000e+00
0.000000000000000e+00 0.000000000000000e+00 0.000000000000000e+00
0.000000000000000e+00 0.000000000000000e+00 0.000000000000000e+00

0.000000000000000e+00 0.000000000000000e+00 0.000000000000000e+00
0.000000000000000e+00 0.000000000000000e+00 0.000000000000000e+00
0.000000000000000e+00 0.000000000000000e+00 0.000000000000000e+00

0.000000000000000e+00 0.000000000000000e+00 0.000000000000000e+00
0.000000000000000e+00 0.000000000000000e+00 0.000000000000000e+00
0.000000000000000e+00 0.000000000000000e+00 0.000000000000000e+00

0.000000000000000e+00 0.000000000000000e+00 0.000000000000000e+00
0.000000000000000e+00 0.000000000000000e+00 0.000000000000000e+00
0.000000000000000e+00 0.000000000000000e+00 0.000000000000000e+00

0.000000000000000e+00 0.000000000000000e+00 0.000000000000000e+00
0.000000000000000e+00 0.000000000000000e+00 0.000000000000000e+00
0.000000000000000e+00 0.000000000000000e+00 0.000000000000000e+00

0.000000000000000e+00 0.000000000000000e+00 0.000000000000000e+00
0.000000000000000e+00 0.000000000000000e+00 0.000000000000000e+00
0.000000000000000e+00 0.000000000000000e+00 0.000000000000000e+00

0.000000000000000e+00 0.000000000000000e+00 0.000000000000000e+00
0.000000000000000e+00 0.000000000000000e+00 0.000000000000000e+00
0.000000000000000e+00 0.000000000000000e+00 0.000000000000000e+00

0.000000000000000e+00 0.000000000000000e+00 0.000000000000000e+00
0.000000000000000e+00 0.000000000000000e+00 0.000000000000000e+00
0.000000000000000e+00 0.000000000000000e+00 0.000000000000000e+00

0.000000000000000e+00 0.000000000000000e+00 0.000000000000000e+00
0.000000000000000e+00 0.000000000000000e+00 0.000000000000000e+00
0.000000000000000e+00 0.000000000000000e+00 0.000000000000000e+00

0.000000000000000e+00 0.000000000000000e+00 0.000000000000000e+00
0.000000000000000e+00 0.000000000000000e+00 0.000000000000000e+00
0.000000000000000e+00 0.000000000000000e+00 0.000000000000000e+00

0.000000000000000e+00 0.000000000000000e+00 0.000000000000000e+00
0.000000000000000e+00 0.000000000000000e+00 0.000000000000000e+00
0.000000000000000e+00 0.000000000000000e+00 0.000000000000000e+00

0.000000000000000e+00 0.000000000000000e+00 0.000000000000000e+00
0.000000000000000e+00 0.000000000000000e+00 0.000000000000000e+00
0.000000000000000e+00 0.000000000000000e+00 0.000000000000000e+00

0.000000000000000e+00 0.000000000000000e+00 0.000000000000000e+00
0.000000000000000e+00 0.000000000000000e+00 0.000000000000000e+00
0.000000000000000e+00 0.000000000000000e+00 0.000000000000000e+00

0.000000000000000e+00 0.000000000000000e+00 0.000000000000000e+00
0.000000000000000e+00 0.000000000000000e+00 0.000000000000000e+00
0.000000000000000e+00 0.000000000000000e+00 0.000000000000000e+00

0.000000000000000e+00 0.000000000000000e+00 0.000000000000000e+00
0.000000000000000e+00 0.000000000000000e+00 0.000000000000000e+00
0.000000000000000e+00 0.000000000000000e+00 0.000000000000000e+00

0.000000000000000e+00 0.000000000000000e+00 0.000000000000000e+00
0.000000000000000e+00 0.000000000000000e+00 0.000000000000000e+00
0.000000000000000e+00 0.000000000000000e+00 0.000000000000000e+00

0.000000000000000e+00 0.000000000000000e+00 0.000000000000000e+00
0.000000000000000e+00 0.000000000000000e+00 0.000000000000000e+00
0.000000000000000e+00 0.000000000000000e+00 0.000000000000000e+00

0.000000000000000e+00 0.000000000000000e+00 0.000000000000000e+00
0.000000000000000e+00 0.000000000000000e+00 0.000000000000000e+00
0.000000000000000e+00 0.000000000000000e+00 0.000000000000000e+00

0.000000000000000e+00 0.000000000000000e+00 0.000000000000000e+00
0.000000000000000e+00 0.000000000000000e+00 0.000000000000000e+00
0.000000000000000e+00 0.000000000000000e+00 0.000000000000000e+00

0.000000000000000e+00 0.000000000000000e+00 0.000000000000000e+00
0.000000000000000e+00 0.000000000000000e+00 0.000000000000000e+00
0.000000000000000e+00 0.000000000000000e+00 0.000000000000000e+00

0.000000000000000e+00 0.000000000000000e+00 0.000000000000000e+00
0.000000000000000e+00 0.000000000000000e+00 0.000000000000000e+00
0.000000000000000e+00 0.000000000000000e+00 0.000000000000000e+00

0.000000000000000e+00 0.000000000000000e+00 0.000000000000000e+00
0.000000000000000e+00 0.000000000000000e+00 0.000000000000000e+00
0.000000000000000e+00 0.000000000000000e+00 0.000000000000000e+00

0.000000000000000e+00 0.000000000000000e+00 0.000000000000000e+00
0.000000000000000e+00 0.000000000000000e+00 0.000000000000000e+00
0.000000000000000e+00 0.000000000000000e+00 0.000000000000000e+00

0.000000000000000e+00 0.000000000000000e+00 0.000000000000000e+00
0.000000000000000e+00 0.000000000000000e+00 0.000000000000000e+00
0.000000000000000e+00 0.000000000000000e+00 0.000000000000000e+00

0.000000000000000e+00 0.000000000000000e+00 0.000000000000000e+00
0.000000000000000e+00 0.000000000000000e+00 0.000000000000000e+00
0.000000000000000e+00 0.000000000000000e+00 0.000000000000000e+00

0.000000000000000e+00 0.000000000000000e+00 0.000000000000000e+00
0.000000000000000e+00 0.000000000000000e+00 0.000000000000000e+00
0.000000000000000e+00 0.000000000000000e+00 0.000000000000000e+00

0.000000000000000e+00 0.000000000000000e+00 0.000000000000000e+00
0.000000000000000e+00 0.000000000000000e+00 0.000000000000000e+00
0.000000000000000e+00 0.000000000000000e+00 0.000000000000000e+00

0.000000000000000e+00 0.000000000000000e+00 0.000000000000000e+00
0.000000000000000e+00 0.000000000000000e+00 0.000000000000000e+00
0.000000000000000e+00 0.000000000000000e+00 0.000000000000000e+00

0.000000000000000e+00 0.000000000000000e+00 0.000000000000000e+00
0.000000000000000e+00 0.000000000000000e+00 0.000000000000000e+00
0.000000000000000e+00 0.000000000000000e+00 0.000000000000000e+00

0.000000000000000e+00 0.000000000000000e+00 0.000000000000000e+00
0.000000000000000e+00 0.000000000000000e+00 0.000000000000000e+00
0.000000000000000e+00 0.000000000000000e+00 0.000000000000000e+00

0.000000000000000e+00 0.000000000000000e+00 0.000000000000000e+00
0.000000000000000e+00 0.000000000000000e+00 0.000000000000000e+00
0.000000000000000e+00 0.000000000000000e+00 0.000000000000000e+00

0.000000000000000e+00 0.000000000000000e+00 0.000000000000000e+00
0.000000000000000e+00 0.000000000000000e+00 0.000000000000000e+00
0.000000000000000e+00 0.000000000000000e+00 0.000000000000000e+00

0.000000000000000e+00 0.000000000000000e+00 0.000000000000000e+00
0.000000000000000e+00 0.000000000000000e+00 0.000000000000000e+00
0.000000000000000e+00 0.000000000000000e+00 0.000000000000000e+00

0.000000000000000e+00 0.000000000000000e+00 0.000000000000000e+00
0.000000000000000e+00 0.000000000000000e+00 0.000000000000000e+00
0.000000000000000e+00 0.000000000000000e+00 0.000000000000000e+00

0.000000000000000e+00 0.000000000000000e+00 0.000000000000000e+00
0.000000000000000e+00 0.000000000000000e+00 0.000000000000000e+00
0.000000000000000e+00 0.000000000000000e+00 0.000000000000000e+00

0.000000000000000e+00 0.000000000000000e+00 0.000000000000000e+00
0.000000000000000e+00 0.000000000000000e+00 0.000000000000000e+00
0.000000000000000e+00 0.000000000000000e+00 0.000000000000000e+00

0.000000000000000e+00 0.000000000000000e+00 0.000000000000000e+00
0.000000000000000e+00 0.000000000000000e+00 0.000000000000000e+00
0.000000000000000e+00 0.000000000000000e+00 0.000000000000000e+00

0.000000000000000e+00 0.000000000000000e+00 0.000000000000000e+00
0.000000000000000e+00 0.000000000000000e+00 0.000000000000000e+00
0.000000000000000e+00 0.000000000000000e+00 0.000000000000000e+00

0.000000000000000e+00 0.000000000000000e+00 0.000000000000000e+00
0.000000000000000e+00 0.000000000000000e+00 0.000000000000000e+00
0.000000000000000e+00 0.000000000000000e+00 0.000000000000000e+00

0.000000000000000e+00 0.000000000000000e+00 0.000000000000000e+00
0.000000000000000e+00 0.000000000000000e+00 0.000000000000000e+00
0.000000000000000e+00 0.000000000000000e+00 0.000000000000000e+00

0.000000000000000e+00 0.000000000000000e+00 0.000000000000000e+00
0.000000000000000e+00 0.000000000000000e+00 0.000000000000000e+00
0.000000000000000e+00 0.000000000000000e+00 0.000000000000000e+00

0.000000000000000e+00 0.000000000000000e+00 0.000000000000000e+00
0.000000000000000e+00 0.000000000000000e+00 0.000000000000000e+00
0.000000000000000e+00 0.000000000000000e+00 0.000000000000000e+00

0.000000000000000e+00 0.000000000000000e+00 0.000000000000000e+00
0.000000000000000e+00 0.000000000000000e+00 0.000000000000000e+00
0.000000000000000e+00 0.000000000000000e+00 0.000000000000000e+00

0.000000000000000e+00 0.000000000000000e+00 0.000000000000000e+00
0.000000000000000e+00 0.000000000000000e+00 0.000000000000000e+00
0.000000000000000e+00 0.000000000000000e+00 0.000000000000000e+00

0.000000000000000e+00 0.000000000000000e+00 0.000000000000000e+00
0.000000000000000e+00 0.000000000000000e+00 0.000000000000000e+00
0.000000000000000e+00 0.000000000000000e+00 0.000000000000000e+00

0.000000000000000e+00 0.000000000000000e+00 0.000000000000000e+00
0.000000000000000e+00 0.000000000000000e+00 0.000000000000000e+00
0.000000000000000e+00 0.000000000000000e+00 0.000000000000000e+00

0.000000000000000e+00 0.000000000000000e+00 0.000000000000000e+00
0.000000000000000e+00 0.000000000000000e+00 0.000000000000000e+00
0.000000000000000e+00 0.000000000000000e+00 0.000000000000000e+00

0.000000000000000e+00 0.000000000000000e+00 0.000000000000000e+00
0.000000000000000e+00 0.000000000000000e+00 0.000000000000000e+00
0.000000000000000e+00 0.000000000000000e+00 0.000000000000000e+00

0.000000000000000e+00 0.000000000000000e+00 0.000000000000000e+00
0.000000000000000e+00 0.000000000000000e+00 0.000000000000000e+00
0.000000000000000e+00 0.000000000000000e+00 0.000000000000000e+00

0.000000000000000e+00 0.000000000000000e+00 0.000000000000000e+00
0.000000000000000e+00 0.000000000000000e+00 0.000000000000000e+00
0.000000000000000e+00 0.000000000000000e+00 0.000000000000000e+00

0.000000000000000e+00 0.000000000000000e+00 0.000000000000000e+00
0.000000000000000e+00 0.000000000000000e+00 0.000000000000000e+00
0.000000000000000e+00 0.000000000000000e+00 0.000000000000000e+00

0.000000000000000e+00 0.000000000000000e+00 0.000000000000000e+00
0.000000000000000e+00 0.000000000000000e+00 0.000000000000000e+00
0.000000000000000e+00 0.000000000000000e+00 0.000000000000000e+00

0.000000000000000e+00 0.000000000000000e+00 0.000000000000000e+00
0.000000000000000e+00 0.000000000000000e+00 0.000000000000000e+00
0.000000000000000e+00 0.000000000000000e+00 0.000000000000000e+00

0.000000000000000e+00 0.000000000000000e+00 0.000000000000000e+00
0.000000000000000e+00 0.000000000000000e+00 0.000000000000000e+00
0.000000000000000e+00 0.000000000000000e+00 0.000000000000000e+00

0.000000000000000e+00 0.000000000000000e+00 0.000000000000000e+00
0.000000000000000e+00 0.000000000000000e+00 0.000000000000000e+00
0.000000000000000e+00 0.000000000000000e+00 0.000000000000000e+00

0.000000000000000e+00 0.000000000000000e+00 0.000000000000000e+00
0.000000000000000e+00 0.000000000000000e+00 0.000000000000000e+00
0.000000000000000e+00 0.000000000000000e+00 0.000000000000000e+00

0.000000000000000e+00 0.000000000000000e+00 0.000000000000000e+00
0.000000000000000e+00 0.000000000000000e+00 0.000000000000000e+00
0.000000000000000e+00 0.000000000000000e+00 0.000000000000000e+00

0.000000000000000e+00 0.000000000000000e+00 0.000000000000000e+00
0.000000000000000e+00 0.000000000000000e+00 0.000000000000000e+00
0.000000000000000e+00 0.000000000000000e+00 0.000000000000000e+00

0.000000000000000e+00 0.000000000000000e+00 0.000000000000000e+00
0.000000000000000e+00 0.000000000000000e+00 0.000000000000000e+00
0.000000000000000e+00 0.000000000000000e+00 0.000000000000000e+00

0.000000000000000e+00 0.000000000000000e+00 0.000000000000000e+00
0.000000000000000e+00 0.000000000000000e+00 0.000000000000000e+00
0.000000000000000e+00 0.000000000000000e+00 0.000000000000000e+00

0.000000000000000e+00 0.000000000000000e+00 0.000000000000000e+00
0.000000000000000e+00 0.000000000000000e+00 0.000000000000000e+00
0.000000000000000e+00 0.000000000000000e+00 0.000000000000000e+00

0.000000000000000e+00 0.000000000000000e+00 0.000000000000000e+00
0.000000000000000e+00 0.000000000000000e+00 0.000000000000000e+00
0.000000000000000e+00 0.000000000000000e+00 0.000000000000000e+00

0.000000000000000e+00 0.000000000000000e+00 0.000000000000000e+00
0.000000000000000e+00 0.000000000000000e+00 0.000000000000000e+00
0.000000000000000e+00 0.000000000000000e+00 0.000000000000000e+00

0.000000000000000e+00 0.000000000000000e+00 0.000000000000000e+00
0.000000000000000e+00 0.000000000000000e+00 0.000000000000000e+00
0.000000000000000e+00 0.000000000000000e+00 0.000000000000000e+00

0.000000000000000e+00 0.000000000000000e+00 0.000000000000000e+00
0.000000000000000e+00 0.000000000000000e+00 0.000000000000000e+00
0.000000000000000e+00 0.000000000000000e+00 0.000000000000000e+00

0.000000000000000e+00 0.000000000000000e+00 0.000000000000000e+00
0.000000000000000e+00 0.000000000000000e+00 0.000000000000000e+00
0.000000000000000e+00 0.000000000000000e+00 0.000000000000000e+00

0.000000000000000e+00 0.000000000000000e+00 0.000000000000000e+00
0.000000000000000e+00 0.000000000000000e+00 0.000000000000000e+00
0.000000000000000e+00 0.000000000000000e+00 0.000000000000000e+00

0.000000000000000e+00 0.000000000000000e+00 0.000000000000000e+00
0.000000000000000e+00 0.000000000000000e+00 0.000000000000000e+00
0.000000000000000e+00 0.000000000000000e+00 0.000000000000000e+00

0.000000000000000e+00 0.000000000000000e+00 0.000000000000000e+00
0.000000000000000e+00 0.000000000000000e+00 0.000000000000000e+00
0.000000000000000e+00 0.000000000000000e+00 0.000000000000000e+00

0.000000000000000e+00 0.000000000000000e+00 0.000000000000000e+00
0.000000000000000e+00 0.000000000000000e+00 0.000000000000000e+00
0.000000000000000e+00 0.000000000000000e+00 0.000000000000000e+00

0.000000000000000e+00 0.000000000000000e+00 0.000000000000000e+00
0.000000000000000e+00 0.000000000000000e+00 0.000000000000000e+00
0.000000000000000e+00 0.000000000000000e+00 0.000000000000000e+00

0.000000000000000e+00 0.000000000000000e+00 0.000000000000000e+00
0.000000000000000e+00 0.000000000000000e+00 0.000000000000000e+00
0.000000000000000e+00 0.000000000000000e+00 0.000000000000000e+00

0.000000000000000e+00 0.000000000000000e+00 0.000000000000000e+00
0.000000000000000e+00 0.000000000000000e+00 0.000000000000000e+00
0.000000000000000e+00 0.000000000000000e+00 0.000000000000000e+00

0.000000000000000e+00 0.000000000000000e+00 0.000000000000000e+00
0.000000000000000e+00 0.000000000000000e+00 0.000000000000000e+00
0.000000000000000e+00 0.000000000000000e+00 0.000000000000000e+00

0.000000000000000e+00 0.000000000000000e+00 0.000000000000000e+00
0.000000000000000e+00 0.000000000000000e+00 0.000000000000000e+00
0.000000000000000e+00 0.000000000000000e+00 0.000000000000000e+00

0.000000000000000e+00 0.000000000000000e+00 0.000000000000000e+00
0.000000000000000e+00 0.000000000000000e+00 0.000000000000000e+00
0.000000000000000e+00 0.000000000000000e+00 0.000000000000000e+00

0.000000000000000e+00 0.000000000000000e+00 0.000000000000000e+00
0.000000000000000e+00 0.000000000000000e+00 0.000000000000000e+00
0.000000000000000e+00 0.000000000000000e+00 0.000000000000000e+00

0.000000000000000e+00 0.000000000000000e+00 0.000000000000000e+00
0.000000000000000e+00 0.000000000000000e+00 0.000000000000000e+00
0.000000000000000e+00 0.000000000000000e+00 0.000000000000000e+00

0.000000000000000e+00 0.000000000000000e+00 0.000000000000000e+00
0.000000000000000e+00 0.000000000000000e+00 0.000000000000000e+00
0.000000000000000e+00 0.000000000000000e+00 0.000000000000000e+00

0.000000000000000e+00 0.000000000000000e+00 0.000000000000000e+00
0.000000000000000e+00 0.000000000000000e+00 0.000000000000000e+00
0.000000000000000e+00 0.000000000000000e+00 0.000000000000000e+00

0.000000000000000e+00 0.000000000000000e+00 0.000000000000000e+00
0.000000000000000e+00 0.000000000000000e+00 0.000000000000000e+00
0.000000000000000e+00 0.000000000000000e+00 0.000000000000000e+00

0.000000000000000e+00 0.000000000000000e+00 0.000000000000000e+00
0.000000000000000e+00 0.000000000000000e+00 0.000000000000000e+00
0.000000000000000e+00 0.000000000000000e+00 0.000000000000000e+00

0.000000000000000e+00 0.000000000000000e+00 0.000000000000000e+00
0.000000000000000e+00 0.000000000000000e+00 0.000000000000000e+00
0.000000000000000e+00 0.000000000000000e+00 0.000000000000000e+00

0.000000000000000e+00 0.000000000000000e+00 0.000000000000000e+00
0.000000000000000e+00 0.000000000000000e+00 0.000000000000000e+00
0.000000000000000e+00 0.000000000000000e+00 0.000000000000000e+00

0.000000000000000e+00 0.000000000000000e+00 0.000000000000000e+00
0.000000000000000e+00 0.000000000000000e+00 0.000000000000000e+00
0.000000000000000e+00 0.000000000000000e+00 0.000000000000000e+00

0.000000000000000e+00 0.000000000000000e+00 0.000000000000000e+00
0.000000000000000e+00 0.000000000000000e+00 0.000000000000000e+00
0.000000000000000e+00 0.000000000000000e+00 0.000000000000000e+00

0.000000000000000e+00 0.000000000000000e+00 0.000000000000000e+00
0.000000000000000e+00 0.000000000000000e+00 0.000000000000000e+00
0.000000000000000e+00 0.000000000000000e+00 0.000000000000000e+00

0.000000000000000e+00 0.000000000000000e+00 0.000000000000000e+00
0.000000000000000e+00 0.000000000000000e+00 0.000000000000000e+00
0.000000000000000e+00 0.000000000000000e+00 0.000000000000000e+00

0.000000000000000e+00 0.000000000000000e+00 0.000000000000000e+00
0.000000000000000e+00 0.000000000000000e+00 0.000000000000000e+00
0.000000000000000e+00 0.000000000000000e+00 0.000000000000000e+00

0.000000000000000e+00 0.000000000000000e+00 0.000000000000000e+00
0.000000000000000e+00 0.000000000000000e+00 0.000000000000000e+00
0.000000000000000e+00 0.000000000000000e+00 0.000000000000000e+00

0.000000000000000e+00 0.000000000000000e+00 0.000000000000000e+00
0.000000000000000e+00 0.000000000000000e+00 0.000000000000000e+00
0.000000000000000e+00 0.000000000000000e+00 0.000000000000000e+00

0.000000000000000e+00 0.000000000000000e+00 0.000000000000000e+00
0.000000000000000e+00 0.000000000000000e+00 0.000000000000000e+00
0.000000000000000e+00 0.000000000000000e+00 0.000000000000000e+00

0.000000000000000e+00 0.000000000000000e+00 0.000000000000000e+00
0.000000000000000e+00 0.000000000000000e+00 0.000000000000000e+00
0.000000000000000e+00 0.000000000000000e+00 0.000000000000000e+00

0.000000000000000e+00 0.000000000000000e+00 0.000000000000000e+00
0.000000000000000e+00 0.000000000000000e+00 0.000000000000000e+00
0.000000000000000e+00 0.000000000000000e+00 0.000000000000000e+00

0.000000000000000e+00 0.000000000000000e+00 0.000000000000000e+00
0.000000000000000e+00 0.000000000000000e+00 0.000000000000000e+00
0.000000000000000e+00 0.000000000000000e+00 0.000000000000000e+00

0.000000000000000e+00 0.000000000000000e+00 0.000000000000000e+00
0.000000000000000e+00 0.000000000000000e+00 0.000000000000000e+00
0.000000000000000e+00 0.000000000000000e+00 0.000000000000000e+00

0.000000000000000e+00 0.000000000000000e+00 0.000000000000000e+00
0.000000000000000e+00 0.000000000000000e+00 0.000000000000000e+00
0.000000000000000e+00 0.000000000000000e+00 0.000000000000000e+00

0.000000000000000e+00 0.000000000000000e+00 0.000000000000000e+00
0.000000000000000e+00 0.000000000000000e+00 0.000000000000000e+00
0.000000000000000e+00 0.000000000000000e+00 0.000000000000000e+00

0.000000000000000e+00 0.000000000000000e+00 0.000000000000000e+00
0.000000000000000e+00 0.000000000000000e+00 0.000000000000000e+00
0.000000000000000e+00 0.000000000000000e+00 0.000000000000000e+00

0.000000000000000e+00 0.000000000000000e+00 0.000000000000000e+00
0.000000000000000e+00 0.000000000000000e+00 0.000000000000000e+00
0.000000000000000e+00 0.000000000000000e+00 0.000000000000000e+00

0.000000000000000e+00 0.000000000000000e+00 0.000000000000000e+00
0.000000000000000e+00 0.000000000000000e+00 0.000000000000000e+00
0.000000000000000e+00 0.000000000000000e+00 0.000000000000000e+00

0.000000000000000e+00 0.000000000000000e+00 0.000000000000000e+00
0.000000000000000e+00 0.000000000000000e+00 0.000000000000000e+00
0.000000000000000e+00 0.000000000000000e+00 0.000000000000000e+00

0.000000000000000e+00 0.000000000000000e+00 0.000000000000000e+00
0.000000000000000e+00 0.000000000000000e+00 0.000000000000000e+00
0.000000000000000e+00 0.000000000000000e+00 0.000000000000000e+00

0.000000000000000e+00 0.000000000000000e+00 0.000000000000000e+00
0.000000000000000e+00 0.000000000000000e+00 0.000000000000000e+00
0.000000000000000e+00 0.000000000000000e+00 0.000000000000000e+00

0.000000000000000e+00 0.000000000000000e+00 0.000000000000000e+00
0.000000000000000e+00 0.000000000000000e+00 0.000000000000000e+00
0.000000000000000e+00 0.000000000000000e+00 0.000000000000000e+00

0.000000000000000e+00 0.000000000000000e+00 0.000000000000000e+00
0.000000000000000e+00 0.000000000000000e+00 0.000000000000000e+00
0.000000000000000e+00 0.000000000000000e+00 0.000000000000000e+00

0.000000000000000e+00 0.000000000000000e+00 0.000000000000000e+00
0.000000000000000e+00 0.000000000000000e+00 0.000000000000000e+00
0.000000000000000e+00 0.000000000000000e+00 0.000000000000000e+00

0.000000000000000e+00 0.000000000000000e+00 0.000000000000000e+00
0.000000000000000e+00 0.000000000000000e+00 0.000000000000000e+00
0.000000000000000e+00 0.000000000000000e+00 0.000000000000000e+00

0.000000000000000e+00 0.000000000000000e+00 0.000000000000000e+00
0.000000000000000e+00 0.000000000000000e+00 0.000000000000000e+00
0.000000000000000e+00 0.000000000000000e+00 0.000000000000000e+00

0.000000000000000e+00 0.000000000000000e+00 0.000000000000000e+00
0.000000000000000e+00 0.000000000000000e+00 0.000000000000000e+00
0.000000000000000e+00 0.000000000000000e+00 0.000000000000000e+00

0.000000000000000e+00 0.000000000000000e+00 0.000000000000000e+00
0.000000000000000e+00 0.000000000000000e+00 0.000000000000000e+00
0.000000000000000e+00 0.000000000000000e+00 0.000000000000000e+00

0.000000000000000e+00 0.000000000000000e+00 0.000000000000000e+00
0.000000000000000e+00 0.000000000000000e+00 0.000000000000000e+00
0.000000000000000e+00 0.000000000000000e+00 0.000000000000000e+00

0.000000000000000e+00 0.000000000000000e+00 0.000000000000000e+00
0.000000000000000e+00 0.000000000000000e+00 0.000000000000000e+00
0.000000000000000e+00 0.000000000000000e+00 0.000000000000000e+00

0.000000000000000e+00 0.000000000000000e+00 0.000000000000000e+00
0.000000000000000e+00 0.000000000000000e+00 0.000000000000000e+00
0.000000000000000e+00 0.000000000000000e+00 0.000000000000000e+00

0.000000000000000e+00 0.000000000000000e+00 0.000000000000000e+00
0.000000000000000e+00 0.000000000000000e+00 0.000000000000000e+00
0.000000000000000e+00 0.000000000000000e+00 0.000000000000000e+00

0.000000000000000e+00 0.000000000000000e+00 0.000000000000000e+00
0.000000000000000e+00 0.000000000000000e+00 0.000000000000000e+00
0.000000000000000e+00 0.000000000000000e+00 0.000000000000000e+00

0.000000000000000e+00 0.000000000000000e+00 0.000000000000000e+00
0.000000000000000e+00 0.000000000000000e+00 0.000000000000000e+00
0.000000000000000e+00 0.000000000000000e+00 0.000000000000000e+00

0.000000000000000e+00 0.000000000000000e+00 0.000000000000000e+00
0.000000000000000e+00 0.000000000000000e+00 0.000000000000000e+00
0.000000000000000e+00 0.000000000000000e+00 0.000000000000000e+00

0.000000000000000e+00 0.000000000000000e+00 0.000000000000000e+00
0.000000000000000e+00 0.000000000000000e+00 0.000000000000000e+00
0.000000000000000e+00 0.000000000000000e+00 0.000000000000000e+00

0.000000000000000e+00 0.000000000000000e+00 0.000000000000000e+00
0.000000000000000e+00 0.000000000000000e+00 0.000000000000000e+00
0.000000000000000e+00 0.000000000000000e+00 0.000000000000000e+00

0.000000000000000e+00 0.000000000000000e+00 0.000000000000000e+00
0.000000000000000e+00 0.000000000000000e+00 0.000000000000000e+00
0.000000000000000e+00 0.000000000000000e+00 0.000000000000000e+00

0.000000000000000e+00 0.000000000000000e+00 0.000000000000000e+00
0.000000000000000e+00 0.000000000000000e+00 0.000000000000000e+00
0.000000000000000e+00 0.000000000000000e+00 0.000000000000000e+00

0.000000000000000e+00 0.000000000000000e+00 0.000000000000000e+00
0.000000000000000e+00 0.000000000000000e+00 0.000000000000000e+00
0.000000000000000e+00 0.000000000000000e+00 0.000000000000000e+00

0.000000000000000e+00 0.000000000000000e+00 0.000000000000000e+00
0.000000000000000e+00 0.000000000000000e+00 0.000000000000000e+00
0.000000000000000e+00 0.000000000000000e+00 0.000000000000000e+00

0.000000000000000e+00 0.000000000000000e+00 0.000000000000000e+00
0.000000000000000e+00 0.000000000000000e+00 0.000000000000000e+00
0.000000000000000e+00 0.000000000000000e+00 0.000000000000000e+00

0.000000000000000e+00 0.000000000000000e+00 0.000000000000000e+00
0.000000000000000e+00 0.000000000000000e+00 0.000000000000000e+00
0.000000000000000e+00 0.000000000000000e+00 0.000000000000000e+00

0.000000000000000e+00 0.000000000000000e+00 0.000000000000000e+00
0.000000000000000e+00 0.000000000000000e+00 0.000000000000000e+00
0.000000000000000e+00 0.000000000000000e+00 0.000000000000000e+00

0.000000000000000e+00 0.000000000000000e+00 0.000000000000000e+00
0.000000000000000e+00 0.000000000000000e+00 0.000000000000000e+00
0.000000000000000e+00 0.000000000000000e+00 0.000000000000000e+00

0.000000000000000e+00 0.000000000000000e+00 0.000000000000000e+00
0.000000000000000e+00 0.000000000000000e+00 0.000000000000000e+00
0.000000000000000e+00 0.000000000000000e+00 0.000000000000000e+00

0.000000000000000e+00 0.000000000000000e+00 0.000000000000000e+00
0.000000000000000e+00 0.000000000000000e+00 0.000000000000000e+00
0.000000000000000e+00 0.000000000000000e+00 0.000000000000000e+00

0.000000000000000e+00 0.000000000000000e+00 0.000000000000000e+00
0.000000000000000e+00 0.000000000000000e+00 0.000000000000000e+00
0.000000000000000e+00 0.000000000000000e+00 0.000000000000000e+00

0.000000000000000e+00 0.000000000000000e+00 0.000000000000000e+00
0.000000000000000e+00 0.000000000000000e+00 0.000000000000000e+00
0.000000000000000e+00 0.000000000000000e+00 0.000000000000000e+00

0.000000000000000e+00 0.000000000000000e+00 0.000000000000000e+00
0.000000000000000e+00 0.000000000000000e+00 0.000000000000000e+00
0.000000000000000e+00 0.000000000000000e+00 0.000000000000000e+00

0.000000000000000e+00 0.000000000000000e+00 0.000000000000000e+00
0.000000000000000e+00 0.000000000000000e+00 0.000000000000000e+00
0.000000000000000e+00 0.000000000000000e+00 0.000000000000000e+00

0.000000000000000e+00 0.000000000000000e+00 0.000000000000000e+00
0.000000000000000e+00 0.000000000000000e+00 0.000000000000000e+00
0.000000000000000e+00 0.000000000000000e+00 0.000000000000000e+00

0.000000000000000e+00 0.000000000000000e+00 0.000000000000000e+00
0.000000000000000e+00 0.000000000000000e+00 0.000000000000000e+00
0.000000000000000e+00 0.000000000000000e+00 0.000000000000000e+00

0.000000000000000e+00 0.000000000000000e+00 0.000000000000000e+00
0.000000000000000e+00 0.000000000000000e+00 0.000000000000000e+00
0.000000000000000e+00 0.000000000000000e+00 0.000000000000000e+00

0.000000000000000e+00 0.000000000000000e+00 0.000000000000000e+00
0.000000000000000e+00 0.000000000000000e+00 0.000000000000000e+00
0.000000000000000e+00 0.000000000000000e+00 0.000000000000000e+00

0.000000000000000e+00 0.000000000000000e+00 0.000000000000000e+00
0.000000000000000e+00 0.000000000000000e+00 0.000000000000000e+00
0.000000000000000e+00 0.000000000000000e+00 0.000000000000000e+00

0.000000000000000e+00 0.000000000000000e+00 0.000000000000000e+00
0.000000000000000e+00 0.000000000000000e+00 0.000000000000000e+00
0.000000000000000e+00 0.000000000000000e+00 0.000000000000000e+00

0.000000000000000e+00 0.000000000000000e+00 0.000000000000000e+00
0.000000000000000e+00 0.000000000000000e+00 0.000000000000000e+00
0.000000000000000e+00 0.000000000000000e+00 0.000000000000000e+00

0.000000000000000e+00 0.000000000000000e+00 0.000000000000000e+00
0.000000000000000e+00 0.000000000000000e+00 0.000000000000000e+00
0.000000000000000e+00 0.000000000000000e+00 0.000000000000000e+00

0.000000000000000e+00 0.000000000000000e+00 0.000000000000000e+00
0.000000000000000e+00 0.000000000000000e+00 0.000000000000000e+00
0.000000000000000e+00 0.000000000000000e+00 0.000000000000000e+00

0.000000000000000e+00 0.000000000000000e+00 0.000000000000000e+00
0.000000000000000e+00 0.000000000000000e+00 0.000000000000000e+00
0.000000000000000e+00 0.000000000000000e+00 0.000000000000000e+00

0.000000000000000e+00 0.000000000000000e+00 0.000000000000000e+00
0.000000000000000e+00 0.000000000000000e+00 0.000000000000000e+00
0.000000000000000e+00 0.000000000000000e+00 0.000000000000000e+00

0.000000000000000e+00 0.000000000000000e+00 0.000000000000000e+00
0.000000000000000e+00 0.000000000000000e+00 0.000000000000000e+00
0.000000000000000e+00 0.000000000000000e+00 0.000000000000000e+00

0.000000000000000e+00 0.000000000000000e+00 0.000000000000000e+00
0.000000000000000e+00 0.000000000000000e+00 0.000000000000000e+00
0.000000000000000e+00 0.000000000000000e+00 0.000000000000000e+00

0.000000000000000e+00 0.000000000000000e+00 0.000000000000000e+00
0.000000000000000e+00 0.000000000000000e+00 0.000000000000000e+00
0.000000000000000e+00 0.000000000000000e+00 0.000000000000000e+00

0.000000000000000e+00 0.000000000000000e+00 0.000000000000000e+00
0.000000000000000e+00 0.000000000000000e+00 0.000000000000000e+00
0.000000000000000e+00 0.000000000000000e+00 0.000000000000000e+00

0.000000000000000e+00 0.000000000000000e+00 0.000000000000000e+00
0.000000000000000e+00 0.000000000000000e+00 0.000000000000000e+00
0.000000000000000e+00 0.000000000000000e+00 0.000000000000000e+00

0.000000000000000e+00 0.000000000000000e+00 0.000000000000000e+00
0.000000000000000e+00 0.000000000000000e+00 0.000000000000000e+00
0.000000000000000e+00 0.000000000000000e+00 0.000000000000000e+00

0.000000000000000e+00 0.000000000000000e+00 0.000000000000000e+00
0.000000000000000e+00 0.000000000000000e+00 0.000000000000000e+00
0.000000000000000e+00 0.000000000000000e+00 0.000000000000000e+00

0.000000000000000e+00 0.000000000000000e+00 0.000000000000000e+00
0.000000000000000e+00 0.000000000000000e+00 0.000000000000000e+00
0.000000000000000e+00 0.000000000000000e+00 0.000000000000000e+00

0.000000000000000e+00 0.000000000000000e+00 0.000000000000000e+00
0.000000000000000e+00 0.000000000000000e+00 0.000000000000000e+00
0.000000000000000e+00 0.000000000000000e+00 0.000000000000000e+00

0.000000000000000e+00 0.000000000000000e+00 0.000000000000000e+00
0.000000000000000e+00 0.000000000000000e+00 0.000000000000000e+00
0.000000000000000e+00 0.000000000000000e+00 0.000000000000000e+00

0.000000000000000e+00 0.000000000000000e+00 0.000000000000000e+00
0.000000000000000e+00 0.000000000000000e+00 0.000000000000000e+00
0.000000000000000e+00 0.000000000000000e+00 0.000000000000000e+00

0.000000000000000e+00 0.000000000000000e+00 0.000000000000000e+00
0.000000000000000e+00 0.000000000000000e+00 0.000000000000000e+00
0.000000000000000e+00 0.000000000000000e+00 0.000000000000000e+00

0.000000000000000e+00 0.000000000000000e+00 0.000000000000000e+00
0.000000000000000e+00 0.000000000000000e+00 0.000000000000000e+00
0.000000000000000e+00 0.000000000000000e+00 0.000000000000000e+00

0.000000000000000e+00 0.000000000000000e+00 0.000000000000000e+00
0.000000000000000e+00 0.000000000000000e+00 0.000000000000000e+00
0.000000000000000e+00 0.000000000000000e+00 0.000000000000000e+00

0.000000000000000e+00 0.000000000000000e+00 0.000000000000000e+00
0.000000000000000e+00 0.000000000000000e+00 0.000000000000000e+00
0.000000000000000e+00 0.000000000000000e+00 0.000000000000000e+00

0.000000000000000e+00 0.000000000000000e+00 0.000000000000000e+00
0.000000000000000e+00 0.000000000000000e+00 0.000000000000000e+00
0.000000000000000e+00 0.000000000000000e+00 0.000000000000000e+00

0.000000000000000e+00 0.000000000000000e+00 0.000000000000000e+00
0.000000000000000e+00 0.000000000000000e+00 0.000000000000000e+00
0.000000000000000e+00 0.000000000000000e+00 0.000000000000000e+00

0.000000000000000e+00 0.000000000000000e+00 0.000000000000000e+00
0.000000000000000e+00 0.000000000000000e+00 0.000000000000000e+00
0.000000000000000e+00 0.000000000000000e+00 0.000000000000000e+00

0.000000000000000e+00 0.000000000000000e+00 0.000000000000000e+00
0.000000000000000e+00 0.000000000000000e+00 0.000000000000000e+00
0.000000000000000e+00 0.000000000000000e+00 0.000000000000000e+00

0.000000000000000e+00 0.000000000000000e+00 0.000000000000000e+00
0.000000000000000e+00 0.000000000000000e+00 0.000000000000000e+00
0.000000000000000e+00 0.000000000000000e+00 0.000000000000000e+00

0.000000000000000e+00 0.000000000000000e+00 0.000000000000000e+00
0.000000000000000e+00 0.000000000000000e+00 0.000000000000000e+00
0.000000000000000e+00 0.000000000000000e+00 0.000000000000000e+00

0.000000000000000e+00 0.000000000000000e+00 0.000000000000000e+00
0.000000000000000e+00 0.000000000000000e+00 0.000000000000000e+00
0.000000000000000e+00 0.000000000000000e+00 0.000000000000000e+00

0.000000000000000e+00 0.000000000000000e+00 0.000000000000000e+00
0.000000000000000e+00 0.000000000000000e+00 0.000000000000000e+00
0.000000000000000e+00 0.000000000000000e+00 0.000000000000000e+00

0.000000000000000e+00 0.000000000000000e+00 0.000000000000000e+00
0.000000000000000e+00 0.000000000000000e+00 0.000000000000000e+00
0.000000000000000e+00 0.000000000000000e+00 0.000000000000000e+00

0.000000000000000e+00 0.000000000000000e+00 0.000000000000000e+00
0.000000000000000e+00 0.000000000000000e+00 0.000000000000000e+00
0.000000000000000e+00 0.000000000000000e+00 0.000000000000000e+00

0.000000000000000e+00 0.000000000000000e+00 0.000000000000000e+00
0.000000000000000e+00 0.000000000000000e+00 0.000000000000000e+00
0.000000000000000e+00 0.000000000000000e+00 0.000000000000000e+00

0.000000000000000e+00 0.000000000000000e+00 0.000000000000000e+00
0.000000000000000e+00 0.000000000000000e+00 0.000000000000000e+00
0.000000000000000e+00 0.000000000000000e+00 0.000000000000000e+00

0.000000000000000e+00 0.000000000000000e+00 0.000000000000000e+00
0.000000000000000e+00 0.000000000000000e+00 0.000000000000000e+00
0.000000000000000e+00 0.000000000000000e+00 0.000000000000000e+00

0.000000000000000e+00 0.000000000000000e+00 0.000000000000000e+00
0.000000000000000e+00 0.000000000000000e+00 0.000000000000000e+00
0.000000000000000e+00 0.000000000000000e+00 0.000000000000000e+00

0.000000000000000e+00 0.000000000000000e+00 0.000000000000000e+00
0.000000000000000e+00 0.000000000000000e+00 0.000000000000000e+00
0.000000000000000e+00 0.000000000000000e+00 0.000000000000000e+00

0.000000000000000e+00 0.000000000000000e+00 0.000000000000000e+00
0.000000000000000e+00 0.000000000000000e+00 0.000000000000000e+00
0.000000000000000e+00 0.000000000000000e+00 0.000000000000000e+00

0.000000000000000e+00 0.000000000000000e+00 0.000000000000000e+00
0.000000000000000e+00 0.000000000000000e+00 0.000000000000000e+00
0.000000000000000e+00 0.000000000000000e+00 0.000000000000000e+00

0.000000000000000e+00 0.000000000000000e+00 0.000000000000000e+00
0.000000000000000e+00 0.000000000000000e+00 0.000000000000000e+00
0.000000000000000e+00 0.000000000000000e+00 0.000000000000000e+00

0.000000000000000e+00 0.000000000000000e+00 0.000000000000000e+00
0.000000000000000e+00 0.000000000000000e+00 0.000000000000000e+00
0.000000000000000e+00 0.000000000000000e+00 0.000000000000000e+00

0.000000000000000e+00 0.000000000000000e+00 0.000000000000000e+00
0.000000000000000e+00 0.000000000000000e+00 0.000000000000000e+00
0.000000000000000e+00 0.000000000000000e+00 0.000000000000000e+00

0.000000000000000e+00 0.000000000000000e+00 0.000000000000000e+00
0.000000000000000e+00 0.000000000000000e+00 0.000000000000000e+00
0.000000000000000e+00 0.000000000000000e+00 0.000000000000000e+00

0.000000000000000e+00 0.000000000000000e+00 0.000000000000000e+00
0.000000000000000e+00 0.000000000000000e+00 0.000000000000000e+00
0.000000000000000e+00 0.000000000000000e+00 0.000000000000000e+00

0.000000000000000e+00 0.000000000000000e+00 0.000000000000000e+00
0.000000000000000e+00 0.000000000000000e+00 0.000000000000000e+00
0.000000000000000e+00 0.000000000000000e+00 0.000000000000000e+00

0.000000000000000e+00 0.000000000000000e+00 0.000000000000000e+00
0.000000000000000e+00 0.000000000000000e+00 0.000000000000000e+00
0.000000000000000e+00 0.000000000000000e+00 0.000000000000000e+00

0.000000000000000e+00 0.000000000000000e+00 0.000000000000000e+00
0.000000000000000e+00 0.000000000000000e+00 0.000000000000000e+00
0.000000000000000e+00 0.000000000000000e+00 0.000000000000000e+00

0.000000000000000e+00 0.000000000000000e+00 0.000000000000000e+00
0.000000000000000e+00 0.000000000000000e+00 0.000000000000000e+00
0.000000000000000e+00 0.000000000000000e+00 0.000000000000000e+00

0.000000000000000e+00 0.000000000000000e+00 0.000000000000000e+00
0.000000000000000e+00 0.000000000000000e+00 0.000000000000000e+00
0.000000000000000e+00 0.000000000000000e+00 0.000000000000000e+00

0.000000000000000e+00 0.000000000000000e+00 0.000000000000000e+00
0.000000000000000e+00 0.000000000000000e+00 0.000000000000000e+00
0.000000000000000e+00 0.000000000000000e+00 0.000000000000000e+00

0.000000000000000e+00 0.000000000000000e+00 0.000000000000000e+00
0.000000000000000e+00 0.000000000000000e+00 0.000000000000000e+00
0.000000000000000e+00 0.000000000000000e+00 0.000000000000000e+00

0.000000000000000e+00 0.000000000000000e+00 0.000000000000000e+00
0.000000000000000e+00 0.000000000000000e+00 0.000000000000000e+00
0.000000000000000e+00 0.000000000000000e+00 0.000000000000000e+00

0.000000000000000e+00 0.000000000000000e+00 0.000000000000000e+00
0.000000000000000e+00 0.000000000000000e+00 0.000000000000000e+00
0.000000000000000e+00 0.000000000000000e+00 0.000000000000000e+00

0.000000000000000e+00 0.000000000000000e+00 0.000000000000000e+00
0.000000000000000e+00 0.000000000000000e+00 0.000000000000000e+00
0.000000000000000e+00 0.000000000000000e+00 0.000000000000000e+00

0.000000000000000e+00 0.000000000000000e+00 0.000000000000000e+00
0.000000000000000e+00 0.000000000000000e+00 0.000000000000000e+00
0.000000000000000e+00 0.000000000000000e+00 0.000000000000000e+00

0.000000000000000e+00 0.000000000000000e+00 0.000000000000000e+00
0.000000000000000e+00 0.000000000000000e+00 0.000000000000000e+00
0.000000000000000e+00 0.000000000000000e+00 0.000000000000000e+00

0.000000000000000e+00 0.000000000000000e+00 0.000000000000000e+00
0.000000000000000e+00 0.000000000000000e+00 0.000000000000000e+00
0.000000000000000e+00 0.000000000000000e+00 0.000000000000000e+00

0.000000000000000e+00 0.000000000000000e+00 0.000000000000000e+00
0.000000000000000e+00 0.000000000000000e+00 0.000000000000000e+00
0.000000000000000e+00 0.000000000000000e+00 0.000000000000000e+00

0.000000000000000e+00 0.000000000000000e+00 0.000000000000000e+00
0.000000000000000e+00 0.000000000000000e+00 0.000000000000000e+00
0.000000000000000e+00 0.000000000000000e+00 0.000000000000000e+00

0.000000000000000e+00 0.000000000000000e+00 0.000000000000000e+00
0.000000000000000e+00 0.000000000000000e+00 0.000000000000000e+00
0.000000000000000e+00 0.000000000000000e+00 0.000000000000000e+00

0.000000000000000e+00 0.000000000000000e+00 0.000000000000000e+00
0.000000000000000e+00 0.000000000000000e+00 0.000000000000000e+00
0.000000000000000e+00 0.000000000000000e+00 0.000000000000000e+00

0.000000000000000e+00 0.000000000000000e+00 0.000000000000000e+00
0.000000000000000e+00 0.000000000000000e+00 0.000000000000000e+00
0.000000000000000e+00 0.000000000000000e+00 0.000000000000000e+00

0.000000000000000e+00 0.000000000000000e+00 0.000000000000000e+00
0.000000000000000e+00 0.000000000000000e+00 0.000000000000000e+00
0.000000000000000e+00 0.000000000000000e+00 0.000000000000000e+00

0.000000000000000e+00 0.000000000000000e+00 0.000000000000000e+00
0.000000000000000e+00 0.000000000000000e+00 0.000000000000000e+00
0.000000000000000e+00 0.000000000000000e+00 0.000000000000000e+00

0.000000000000000e+00 0.000000000000000e+00 0.000000000000000e+00
0.000000000000000e+00 0.000000000000000e+00 0.000000000000000e+00
0.000000000000000e+00 0.000000000000000e+00 0.000000000000000e+00

0.000000000000000e+00 0.000000000000000e+00 0.000000000000000e+00
0.000000000000000e+00 0.000000000000000e+00 0.000000000000000e+00
0.000000000000000e+00 0.000000000000000e+00 0.000000000000000e+00

0.000000000000000e+00 0.000000000000000e+00 0.000000000000000e+00
0.000000000000000e+00 0.000000000000000e+00 0.000000000000000e+00
0.000000000000000e+00 0.000000000000000e+00 0.000000000000000e+00

0.000000000000000e+00 0.000000000000000e+00 0.000000000000000e+00
0.000000000000000e+00 0.000000000000000e+00 0.000000000000000e+00
0.000000000000000e+00 0.000000000000000e+00 0.000000000000000e+00

0.000000000000000e+00 0.000000000000000e+00 0.000000000000000e+00
0.000000000000000e+00 0.000000000000000e+00 0.000000000000000e+00
0.000000000000000e+00 0.000000000000000e+00 0.000000000000000e+00

0.000000000000000e+00 0.000000000000000e+00 0.000000000000000e+00
0.000000000000000e+00 0.000000000000000e+00 0.000000000000000e+00
0.000000000000000e+00 0.000000000000000e+00 0.000000000000000e+00

0.000000000000000e+00 0.000000000000000e+00 0.000000000000000e+00
0.000000000000000e+00 0.000000000000000e+00 0.000000000000000e+00
0.000000000000000e+00 0.000000000000000e+00 0.000000000000000e+00

0.000000000000000e+00 0.000000000000000e+00 0.000000000000000e+00
0.000000000000000e+00 0.000000000000000e+00 0.000000000000000e+00
0.000000000000000e+00 0.000000000000000e+00 0.000000000000000e+00

0.000000000000000e+00 0.000000000000000e+00 0.000000000000000e+00
0.000000000000000e+00 0.000000000000000e+00 0.000000000000000e+00
0.000000000000000e+00 0.000000000000000e+00 0.000000000000000e+00

0.000000000000000e+00 0.000000000000000e+00 0.000000000000000e+00
0.000000000000000e+00 0.000000000000000e+00 0.000000000000000e+00
0.000000000000000e+00 0.000000000000000e+00 0.000000000000000e+00

0.000000000000000e+00 0.000000000000000e+00 0.000000000000000e+00
0.000000000000000e+00 0.000000000000000e+00 0.000000000000000e+00
0.000000000000000e+00 0.000000000000000e+00 0.000000000000000e+00

0.000000000000000e+00 0.000000000000000e+00 0.000000000000000e+00
0.000000000000000e+00 0.000000000000000e+00 0.000000000000000e+00
0.000000000000000e+00 0.000000000000000e+00 0.000000000000000e+00

0.000000000000000e+00 0.000000000000000e+00 0.000000000000000e+00
0.000000000000000e+00 0.000000000000000e+00 0.000000000000000e+00
0.000000000000000e+00 0.000000000000000e+00 0.000000000000000e+00

0.000000000000000e+00 0.000000000000000e+00 0.000000000000000e+00
0.000000000000000e+00 0.000000000000000e+00 0.000000000000000e+00
0.000000000000000e+00 0.000000000000000e+00 0.000000000000000e+00

0.000000000000000e+00 0.000000000000000e+00 0.000000000000000e+00
0.000000000000000e+00 0.000000000000000e+00 0.000000000000000e+00
0.000000000000000e+00 0.000000000000000e+00 0.000000000000000e+00

0.000000000000000e+00 0.000000000000000e+00 0.000000000000000e+00
0.000000000000000e+00 0.000000000000000e+00 0.000000000000000e+00
0.000000000000000e+00 0.000000000000000e+00 0.000000000000000e+00

0.000000000000000e+00 0.000000000000000e+00 0.000000000000000e+00
0.000000000000000e+00 0.000000000000000e+00 0.000000000000000e+00
0.000000000000000e+00 0.000000000000000e+00 0.000000000000000e+00

0.000000000000000e+00 0.000000000000000e+00 0.000000000000000e+00
0.000000000000000e+00 0.000000000000000e+00 0.000000000000000e+00
0.000000000000000e+00 0.000000000000000e+00 0.000000000000000e+00

0.000000000000000e+00 0.000000000000000e+00 0.000000000000000e+00
0.000000000000000e+00 0.000000000000000e+00 0.000000000000000e+00
0.000000000000000e+00 0.000000000000000e+00 0.000000000000000e+00

0.000000000000000e+00 0.000000000000000e+00 0.000000000000000e+00
0.000000000000000e+00 0.000000000000000e+00 0.000000000000000e+00
0.000000000000000e+00 0.000000000000000e+00 0.000000000000000e+00

0.000000000000000e+00 0.000000000000000e+00 0.000000000000000e+00
0.000000000000000e+00 0.000000000000000e+00 0.000000000000000e+00
0.000000000000000e+00 0.000000000000000e+00 0.000000000000000e+00

0.000000000000000e+00 0.000000000000000e+00 0.000000000000000e+00
0.000000000000000e+00 0.000000000000000e+00 0.000000000000000e+00
0.000000000000000e+00 0.000000000000000e+00 0.000000000000000e+00

0.000000000000000e+00 0.000000000000000e+00 0.000000000000000e+00
0.000000000000000e+00 0.000000000000000e+00 0.000000000000000e+00
0.000000000000000e+00 0.000000000000000e+00 0.000000000000000e+00

0.000000000000000e+00 0.000000000000000e+00 0.000000000000000e+00
0.000000000000000e+00 0.000000000000000e+00 0.000000000000000e+00
0.000000000000000e+00 0.000000000000000e+00 0.000000000000000e+00

0.000000000000000e+00 0.000000000000000e+00 0.000000000000000e+00
0.000000000000000e+00 0.000000000000000e+00 0.000000000000000e+00
0.000000000000000e+00 0.000000000000000e+00 0.000000000000000e+00

0.000000000000000e+00 0.000000000000000e+00 0.000000000000000e+00
0.000000000000000e+00 0.000000000000000e+00 0.000000000000000e+00
0.000000000000000e+00 0.000000000000000e+00 0.000000000000000e+00

0.000000000000000e+00 0.000000000000000e+00 0.000000000000000e+00
0.000000000000000e+00 0.000000000000000e+00 0.000000000000000e+00
0.000000000000000e+00 0.000000000000000e+00 0.000000000000000e+00

0.000000000000000e+00 0.000000000000000e+00 0.000000000000000e+00
0.000000000000000e+00 0.000000000000000e+00 0.000000000000000e+00
0.000000000000000e+00 0.000000000000000e+00 0.000000000000000e+00

0.000000000000000e+00 0.000000000000000e+00 0.000000000000000e+00
0.000000000000000e+00 0.000000000000000e+00 0.000000000000000e+00
0.000000000000000e+00 0.000000000000000e+00 0.000000000000000e+00

0.000000000000000e+00 0.000000000000000e+00 0.000000000000000e+00
0.000000000000000e+00 0.000000000000000e+00 0.000000000000000e+00
0.000000000000000e+00 0.000000000000000e+00 0.000000000000000e+00

0.000000000000000e+00 0.000000000000000e+00 0.000000000000000e+00
0.000000000000000e+00 0.000000000000000e+00 0.000000000000000e+00
0.000000000000000e+00 0.000000000000000e+00 0.000000000000000e+00

0.000000000000000e+00 0.000000000000000e+00 0.000000000000000e+00
0.000000000000000e+00 0.000000000000000e+00 0.000000000000000e+00
0.000000000000000e+00 0.000000000000000e+00 0.000000000000000e+00

0.000000000000000e+00 0.000000000000000e+00 0.000000000000000e+00
0.000000000000000e+00 0.000000000000000e+00 0.000000000000000e+00
0.000000000000000e+00 0.000000000000000e+00 0.000000000000000e+00

0.000000000000000e+00 0.000000000000000e+00 0.000000000000000e+00
0.000000000000000e+00 0.000000000000000e+00 0.000000000000000e+00
0.000000000000000e+00 0.000000000000000e+00 0.000000000000000e+00

0.000000000000000e+00 0.000000000000000e+00 0.000000000000000e+00
0.000000000000000e+00 0.000000000000000e+00 0.000000000000000e+00
0.000000000000000e+00 0.000000000000000e+00 0.000000000000000e+00

0.000000000000000e+00 0.000000000000000e+00 0.000000000000000e+00
0.000000000000000e+00 0.000000000000000e+00 0.000000000000000e+00
0.000000000000000e+00 0.000000000000000e+00 0.000000000000000e+00

0.000000000000000e+00 0.000000000000000e+00 0.000000000000000e+00
0.000000000000000e+00 0.000000000000000e+00 0.000000000000000e+00
0.000000000000000e+00 0.000000000000000e+00 0.000000000000000e+00

0.000000000000000e+00 0.000000000000000e+00 0.000000000000000e+00
0.000000000000000e+00 0.000000000000000e+00 0.000000000000000e+00
0.000000000000000e+00 0.000000000000000e+00 0.000000000000000e+00

0.000000000000000e+00 0.000000000000000e+00 0.000000000000000e+00
0.000000000000000e+00 0.000000000000000e+00 0.000000000000000e+00
0.000000000000000e+00 0.000000000000000e+00 0.000000000000000e+00

0.000000000000000e+00 0.000000000000000e+00 0.000000000000000e+00
0.000000000000000e+00 0.000000000000000e+00 0.000000000000000e+00
0.000000000000000e+00 0.000000000000000e+00 0.000000000000000e+00

0.000000000000000e+00 0.000000000000000e+00 0.000000000000000e+00
0.000000000000000e+00 0.000000000000000e+00 0.000000000000000e+00
0.000000000000000e+00 0.000000000000000e+00 0.000000000000000e+00

0.000000000000000e+00 0.000000000000000e+00 0.000000000000000e+00
0.000000000000000e+00 0.000000000000000e+00 0.000000000000000e+00
0.000000000000000e+00 0.000000000000000e+00 0.000000000000000e+00

0.000000000000000e+00 0.000000000000000e+00 0.000000000000000e+00
0.000000000000000e+00 0.000000000000000e+00 0.000000000000000e+00
0.000000000000000e+00 0.000000000000000e+00 0.000000000000000e+00

0.000000000000000e+00 0.000000000000000e+00 0.000000000000000e+00
0.000000000000000e+00 0.000000000000000e+00 0.000000000000000e+00
0.000000000000000e+00 0.000000000000000e+00 0.000000000000000e+00

0.000000000000000e+00 0.000000000000000e+00 0.000000000000000e+00
0.000000000000000e+00 0.000000000000000e+00 0.000000000000000e+00
0.000000000000000e+00 0.000000000000000e+00 0.000000000000000e+00

0.000000000000000e+00 0.000000000000000e+00 0.000000000000000e+00
0.000000000000000e+00 0.000000000000000e+00 0.000000000000000e+00
0.000000000000000e+00 0.000000000000000e+00 0.000000000000000e+00

0.000000000000000e+00 0.000000000000000e+00 0.000000000000000e+00
0.000000000000000e+00 0.000000000000000e+00 0.000000000000000e+00
0.000000000000000e+00 0.000000000000000e+00 0.000000000000000e+00

0.000000000000000e+00 0.000000000000000e+00 0.000000000000000e+00
0.000000000000000e+00 0.000000000000000e+00 0.000000000000000e+00
0.000000000000000e+00 0.000000000000000e+00 0.000000000000000e+00

0.000000000000000e+00 0.000000000000000e+00 0.000000000000000e+00
0.000000000000000e+00 0.000000000000000e+00 0.000000000000000e+00
0.000000000000000e+00 0.000000000000000e+00 0.000000000000000e+00

0.000000000000000e+00 0.000000000000000e+00 0.000000000000000e+00
0.000000000000000e+00 0.000000000000000e+00 0.000000000000000e+00
0.000000000000000e+00 0.000000000000000e+00 0.000000000000000e+00

0.000000000000000e+00 0.000000000000000e+00 0.000000000000000e+00
0.000000000000000e+00 0.000000000000000e+00 0.000000000000000e+00
0.000000000000000e+00 0.000000000000000e+00 0.000000000000000e+00

0.000000000000000e+00 0.000000000000000e+00 0.000000000000000e+00
0.000000000000000e+00 0.000000000000000e+00 0.000000000000000e+00
0.000000000000000e+00 0.000000000000000e+00 0.000000000000000e+00

0.000000000000000e+00 0.000000000000000e+00 0.000000000000000e+00
0.000000000000000e+00 0.000000000000000e+00 0.000000000000000e+00
0.000000000000000e+00 0.000000000000000e+00 0.000000000000000e+00

0.000000000000000e+00 0.000000000000000e+00 0.000000000000000e+00
0.000000000000000e+00 0.000000000000000e+00 0.000000000000000e+00
0.000000000000000e+00 0.000000000000000e+00 0.000000000000000e+00

0.000000000000000e+00 0.000000000000000e+00 0.000000000000000e+00
0.000000000000000e+00 0.000000000000000e+00 0.000000000000000e+00
0.000000000000000e+00 0.000000000000000e+00 0.000000000000000e+00

0.000000000000000e+00 0.000000000000000e+00 0.000000000000000e+00
0.000000000000000e+00 0.000000000000000e+00 0.000000000000000e+00
0.000000000000000e+00 0.000000000000000e+00 0.000000000000000e+00

0.000000000000000e+00 0.000000000000000e+00 0.000000000000000e+00
0.000000000000000e+00 0.000000000000000e+00 0.000000000000000e+00
0.000000000000000e+00 0.000000000000000e+00 0.000000000000000e+00

0.000000000000000e+00 0.000000000000000e+00 0.000000000000000e+00
0.000000000000000e+00 0.000000000000000e+00 0.000000000000000e+00
0.000000000000000e+00 0.000000000000000e+00 0.000000000000000e+00

0.000000000000000e+00 0.000000000000000e+00 0.000000000000000e+00
0.000000000000000e+00 0.000000000000000e+00 0.000000000000000e+00
0.000000000000000e+00 0.000000000000000e+00 0.000000000000000e+00

0.000000000000000e+00 0.000000000000000e+00 0.000000000000000e+00
0.000000000000000e+00 0.000000000000000e+00 0.000000000000000e+00
0.000000000000000e+00 0.000000000000000e+00 0.000000000000000e+00

0.000000000000000e+00 0.000000000000000e+00 0.000000000000000e+00
0.000000000000000e+00 0.000000000000000e+00 0.000000000000000e+00
0.000000000000000e+00 0.000000000000000e+00 0.000000000000000e+00

0.000000000000000e+00 0.000000000000000e+00 0.000000000000000e+00
0.000000000000000e+00 0.000000000000000e+00 0.000000000000000e+00
0.000000000000000e+00 0.000000000000000e+00 0.000000000000000e+00

0.000000000000000e+00 0.000000000000000e+00 0.000000000000000e+00
0.000000000000000e+00 0.000000000000000e+00 0.000000000000000e+00
0.000000000000000e+00 0.000000000000000e+00 0.000000000000000e+00

0.000000000000000e+00 0.000000000000000e+00 0.000000000000000e+00
0.000000000000000e+00 0.000000000000000e+00 0.000000000000000e+00
0.000000000000000e+00 0.000000000000000e+00 0.000000000000000e+00

0.000000000000000e+00 0.000000000000000e+00 0.000000000000000e+00
0.000000000000000e+00 0.000000000000000e+00 0.000000000000000e+00
0.000000000000000e+00 0.000000000000000e+00 0.000000000000000e+00

0.000000000000000e+00 0.000000000000000e+00 0.000000000000000e+00
0.000000000000000e+00 0.000000000000000e+00 0.000000000000000e+00
0.000000000000000e+00 0.000000000000000e+00 0.000000000000000e+00

0.000000000000000e+00 0.000000000000000e+00 0.000000000000000e+00
0.000000000000000e+00 0.000000000000000e+00 0.000000000000000e+00
0.000000000000000e+00 0.000000000000000e+00 0.000000000000000e+00

0.000000000000000e+00 0.000000000000000e+00 0.000000000000000e+00
0.000000000000000e+00 0.000000000000000e+00 0.000000000000000e+00
0.000000000000000e+00 0.000000000000000e+00 0.000000000000000e+00

0.000000000000000e+00 0.000000000000000e+00 0.000000000000000e+00
0.000000000000000e+00 0.000000000000000e+00 0.000000000000000e+00
0.000000000000000e+00 0.000000000000000e+00 0.000000000000000e+00

0.000000000000000e+00 0.000000000000000e+00 0.000000000000000e+00
0.000000000000000e+00 0.000000000000000e+00 0.000000000000000e+00
0.000000000000000e+00 0.000000000000000e+00 0.000000000000000e+00

0.000000000000000e+00 0.000000000000000e+00 0.000000000000000e+00
0.000000000000000e+00 0.000000000000000e+00 0.000000000000000e+00
0.000000000000000e+00 0.000000000000000e+00 0.000000000000000e+00

0.000000000000000e+00 0.000000000000000e+00 0.000000000000000e+00
0.000000000000000e+00 0.000000000000000e+00 0.000000000000000e+00
0.000000000000000e+00 0.000000000000000e+00 0.000000000000000e+00

0.000000000000000e+00 0.000000000000000e+00 0.000000000000000e+00
0.000000000000000e+00 0.000000000000000e+00 0.000000000000000e+00
0.000000000000000e+00 0.000000000000000e+00 0.000000000000000e+00

0.000000000000000e+00 0.000000000000000e+00 0.000000000000000e+00
0.000000000000000e+00 0.000000000000000e+00 0.000000000000000e+00
0.000000000000000e+00 0.000000000000000e+00 0.000000000000000e+00

0.000000000000000e+00 0.000000000000000e+00 0.000000000000000e+00
0.000000000000000e+00 0.000000000000000e+00 0.000000000000000e+00
0.000000000000000e+00 0.000000000000000e+00 0.000000000000000e+00

0.000000000000000e+00 0.000000000000000e+00 0.000000000000000e+00
0.000000000000000e+00 0.000000000000000e+00 0.000000000000000e+00
0.000000000000000e+00 0.000000000000000e+00 0.000000000000000e+00

0.000000000000000e+00 0.000000000000000e+00 0.000000000000000e+00
0.000000000000000e+00 0.000000000000000e+00 0.000000000000000e+00
0.000000000000000e+00 0.000000000000000e+00 0.000000000000000e+00

0.000000000000000e+00 0.000000000000000e+00 0.000000000000000e+00
0.000000000000000e+00 0.000000000000000e+00 0.000000000000000e+00
0.000000000000000e+00 0.000000000000000e+00 0.000000000000000e+00

0.000000000000000e+00 0.000000000000000e+00 0.000000000000000e+00
0.000000000000000e+00 0.000000000000000e+00 0.000000000000000e+00
0.000000000000000e+00 0.000000000000000e+00 0.000000000000000e+00

0.000000000000000e+00 0.000000000000000e+00 0.000000000000000e+00
0.000000000000000e+00 0.000000000000000e+00 0.000000000000000e+00
0.000000000000000e+00 0.000000000000000e+00 0.000000000000000e+00

0.000000000000000e+00 0.000000000000000e+00 0.000000000000000e+00
0.000000000000000e+00 0.000000000000000e+00 0.000000000000000e+00
0.000000000000000e+00 0.000000000000000e+00 0.000000000000000e+00

0.000000000000000e+00 0.000000000000000e+00 0.000000000000000e+00
0.000000000000000e+00 0.000000000000000e+00 0.000000000000000e+00
0.000000000000000e+00 0.000000000000000e+00 0.000000000000000e+00

0.000000000000000e+00 0.000000000000000e+00 0.000000000000000e+00
0.000000000000000e+00 0.000000000000000e+00 0.000000000000000e+00
0.000000000000000e+00 0.000000000000000e+00 0.000000000000000e+00

0.000000000000000e+00 0.000000000000000e+00 0.000000000000000e+00
0.000000000000000e+00 0.000000000000000e+00 0.000000000000000e+00
0.000000000000000e+00 0.000000000000000e+00 0.000000000000000e+00

0.000000000000000e+00 0.000000000000000e+00 0.000000000000000e+00
0.000000000000000e+00 0.000000000000000e+00 0.000000000000000e+00
0.000000000000000e+00 0.000000000000000e+00 0.000000000000000e+00

0.000000000000000e+00 0.000000000000000e+00 0.000000000000000e+00
0.000000000000000e+00 0.000000000000000e+00 0.000000000000000e+00
0.000000000000000e+00 0.000000000000000e+00 0.000000000000000e+00

0.000000000000000e+00 0.000000000000000e+00 0.000000000000000e+00
0.000000000000000e+00 0.000000000000000e+00 0.000000000000000e+00
0.000000000000000e+00 0.000000000000000e+00 0.000000000000000e+00

0.000000000000000e+00 0.000000000000000e+00 0.000000000000000e+00
0.000000000000000e+00 0.000000000000000e+00 0.000000000000000e+00
0.000000000000000e+00 0.000000000000000e+00 0.000000000000000e+00

0.000000000000000e+00 0.000000000000000e+00 0.000000000000000e+00
0.000000000000000e+00 0.000000000000000e+00 0.000000000000000e+00
0.000000000000000e+00 0.000000000000000e+00 0.000000000000000e+00

0.000000000000000e+00 0.000000000000000e+00 0.000000000000000e+00
0.000000000000000e+00 0.000000000000000e+00 0.000000000000000e+00
0.000000000000000e+00 0.000000000000000e+00 0.000000000000000e+00

0.000000000000000e+00 0.000000000000000e+00 0.000000000000000e+00
0.000000000000000e+00 0.000000000000000e+00 0.000000000000000e+00
0.000000000000000e+00 0.000000000000000e+00 0.000000000000000e+00

0.000000000000000e+00 0.000000000000000e+00 0.000000000000000e+00
0.000000000000000e+00 0.000000000000000e+00 0.000000000000000e+00
0.000000000000000e+00 0.000000000000000e+00 0.000000000000000e+00

0.000000000000000e+00 0.000000000000000e+00 0.000000000000000e+00
0.000000000000000e+00 0.000000000000000e+00 0.000000000000000e+00
0.000000000000000e+00 0.000000000000000e+00 0.000000000000000e+00

0.000000000000000e+00 0.000000000000000e+00 0.000000000000000e+00
0.000000000000000e+00 0.000000000000000e+00 0.000000000000000e+00
0.000000000000000e+00 0.000000000000000e+00 0.000000000000000e+00

0.000000000000000e+00 0.000000000000000e+00 0.000000000000000e+00
0.000000000000000e+00 0.000000000000000e+00 0.000000000000000e+00
0.000000000000000e+00 0.000000000000000e+00 0.000000000000000e+00

0.000000000000000e+00 0.000000000000000e+00 0.000000000000000e+00
0.000000000000000e+00 0.000000000000000e+00 0.000000000000000e+00
0.000000000000000e+00 0.000000000000000e+00 0.000000000000000e+00

0.000000000000000e+00 0.000000000000000e+00 0.000000000000000e+00
0.000000000000000e+00 0.000000000000000e+00 0.000000000000000e+00
0.000000000000000e+00 0.000000000000000e+00 0.000000000000000e+00

0.000000000000000e+00 0.000000000000000e+00 0.000000000000000e+00
0.000000000000000e+00 0.000000000000000e+00 0.000000000000000e+00
0.000000000000000e+00 0.000000000000000e+00 0.000000000000000e+00

0.000000000000000e+00 0.000000000000000e+00 0.000000000000000e+00
0.000000000000000e+00 0.000000000000000e+00 0.000000000000000e+00
0.000000000000000e+00 0.000000000000000e+00 0.000000000000000e+00

0.000000000000000e+00 0.000000000000000e+00 0.000000000000000e+00
0.000000000000000e+00 0.000000000000000e+00 0.000000000000000e+00
0.000000000000000e+00 0.000000000000000e+00 0.000000000000000e+00

0.000000000000000e+00 0.000000000000000e+00 0.000000000000000e+00
0.000000000000000e+00 0.000000000000000e+00 0.000000000000000e+00
0.000000000000000e+00 0.000000000000000e+00 0.000000000000000e+00

0.000000000000000e+00 0.000000000000000e+00 0.000000000000000e+00
0.000000000000000e+00 0.000000000000000e+00 0.000000000000000e+00
0.000000000000000e+00 0.000000000000000e+00 0.000000000000000e+00

0.000000000000000e+00 0.000000000000000e+00 0.000000000000000e+00
0.000000000000000e+00 0.000000000000000e+00 0.000000000000000e+00
0.000000000000000e+00 0.000000000000000e+00 0.000000000000000e+00

0.000000000000000e+00 0.000000000000000e+00 0.000000000000000e+00
0.000000000000000e+00 0.000000000000000e+00 0.000000000000000e+00
0.000000000000000e+00 0.000000000000000e+00 0.000000000000000e+00

0.000000000000000e+00 0.000000000000000e+00 0.000000000000000e+00
0.000000000000000e+00 0.000000000000000e+00 0.000000000000000e+00
0.000000000000000e+00 0.000000000000000e+00 0.000000000000000e+00

0.000000000000000e+00 0.000000000000000e+00 0.000000000000000e+00
0.000000000000000e+00 0.000000000000000e+00 0.000000000000000e+00
0.000000000000000e+00 0.000000000000000e+00 0.000000000000000e+00

0.000000000000000e+00 0.000000000000000e+00 0.000000000000000e+00
0.000000000000000e+00 0.000000000000000e+00 0.000000000000000e+00
0.000000000000000e+00 0.000000000000000e+00 0.000000000000000e+00

0.000000000000000e+00 0.000000000000000e+00 0.000000000000000e+00
0.000000000000000e+00 0.000000000000000e+00 0.000000000000000e+00
0.000000000000000e+00 0.000000000000000e+00 0.000000000000000e+00

0.000000000000000e+00 0.000000000000000e+00 0.000000000000000e+00
0.000000000000000e+00 0.000000000000000e+00 0.000000000000000e+00
0.000000000000000e+00 0.000000000000000e+00 0.000000000000000e+00

0.000000000000000e+00 0.000000000000000e+00 0.000000000000000e+00
0.000000000000000e+00 0.000000000000000e+00 0.000000000000000e+00
0.000000000000000e+00 0.000000000000000e+00 0.000000000000000e+00

0.000000000000000e+00 0.000000000000000e+00 0.000000000000000e+00
0.000000000000000e+00 0.000000000000000e+00 0.000000000000000e+00
0.000000000000000e+00 0.000000000000000e+00 0.000000000000000e+00

0.000000000000000e+00 0.000000000000000e+00 0.000000000000000e+00
0.000000000000000e+00 0.000000000000000e+00 0.000000000000000e+00
0.000000000000000e+00 0.000000000000000e+00 0.000000000000000e+00

0.000000000000000e+00 0.000000000000000e+00 0.000000000000000e+00
0.000000000000000e+00 0.000000000000000e+00 0.000000000000000e+00
0.000000000000000e+00 0.000000000000000e+00 0.000000000000000e+00

0.000000000000000e+00 0.000000000000000e+00 0.000000000000000e+00
0.000000000000000e+00 0.000000000000000e+00 0.000000000000000e+00
0.000000000000000e+00 0.000000000000000e+00 0.000000000000000e+00

0.000000000000000e+00 0.000000000000000e+00 0.000000000000000e+00
0.000000000000000e+00 0.000000000000000e+00 0.000000000000000e+00
0.000000000000000e+00 0.000000000000000e+00 0.000000000000000e+00

0.000000000000000e+00 0.000000000000000e+00 0.000000000000000e+00
0.000000000000000e+00 0.000000000000000e+00 0.000000000000000e+00
0.000000000000000e+00 0.000000000000000e+00 0.000000000000000e+00

0.000000000000000e+00 0.000000000000000e+00 0.000000000000000e+00
0.000000000000000e+00 0.000000000000000e+00 0.000000000000000e+00
0.000000000000000e+00 0.000000000000000e+00 0.000000000000000e+00

0.000000000000000e+00 0.000000000000000e+00 0.000000000000000e+00
0.000000000000000e+00 0.000000000000000e+00 0.000000000000000e+00
0.000000000000000e+00 0.000000000000000e+00 0.000000000000000e+00

0.000000000000000e+00 0.000000000000000e+00 0.000000000000000e+00
0.000000000000000e+00 0.000000000000000e+00 0.000000000000000e+00
0.000000000000000e+00 0.000000000000000e+00 0.000000000000000e+00

0.000000000000000e+00 0.000000000000000e+00 0.000000000000000e+00
0.000000000000000e+00 0.000000000000000e+00 0.000000000000000e+00
0.000000000000000e+00 0.000000000000000e+00 0.000000000000000e+00

0.000000000000000e+00 0.000000000000000e+00 0.000000000000000e+00
0.000000000000000e+00 0.000000000000000e+00 0.000000000000000e+00
0.000000000000000e+00 0.000000000000000e+00 0.000000000000000e+00

0.000000000000000e+00 0.000000000000000e+00 0.000000000000000e+00
0.000000000000000e+00 0.000000000000000e+00 0.000000000000000e+00
0.000000000000000e+00 0.000000000000000e+00 0.000000000000000e+00

0.000000000000000e+00 0.000000000000000e+00 0.000000000000000e+00
0.000000000000000e+00 0.000000000000000e+00 0.000000000000000e+00
0.000000000000000e+00 0.000000000000000e+00 0.000000000000000e+00

0.000000000000000e+00 0.000000000000000e+00 0.000000000000000e+00
0.000000000000000e+00 0.000000000000000e+00 0.000000000000000e+00
0.000000000000000e+00 0.000000000000000e+00 0.000000000000000e+00

0.000000000000000e+00 0.000000000000000e+00 0.000000000000000e+00
0.000000000000000e+00 0.000000000000000e+00 0.000000000000000e+00
0.000000000000000e+00 0.000000000000000e+00 0.000000000000000e+00

0.000000000000000e+00 0.000000000000000e+00 0.000000000000000e+00
0.000000000000000e+00 0.000000000000000e+00 0.000000000000000e+00
0.000000000000000e+00 0.000000000000000e+00 0.000000000000000e+00

0.000000000000000e+00 0.000000000000000e+00 0.000000000000000e+00
0.000000000000000e+00 0.000000000000000e+00 0.000000000000000e+00
0.000000000000000e+00 0.000000000000000e+00 0.000000000000000e+00

0.000000000000000e+00 0.000000000000000e+00 0.000000000000000e+00
0.000000000000000e+00 0.000000000000000e+00 0.000000000000000e+00
0.000000000000000e+00 0.000000000000000e+00 0.000000000000000e+00

0.000000000000000e+00 0.000000000000000e+00 0.000000000000000e+00
0.000000000000000e+00 0.000000000000000e+00 0.000000000000000e+00
0.000000000000000e+00 0.000000000000000e+00 0.000000000000000e+00

0.000000000000000e+00 0.000000000000000e+00 0.000000000000000e+00
0.000000000000000e+00 0.000000000000000e+00 0.000000000000000e+00
0.000000000000000e+00 0.000000000000000e+00 0.000000000000000e+00

0.000000000000000e+00 0.000000000000000e+00 0.000000000000000e+00
0.000000000000000e+00 0.000000000000000e+00 0.000000000000000e+00
0.000000000000000e+00 0.000000000000000e+00 0.000000000000000e+00

0.000000000000000e+00 0.000000000000000e+00 0.000000000000000e+00
0.000000000000000e+00 0.000000000000000e+00 0.000000000000000e+00
0.000000000000000e+00 0.000000000000000e+00 0.000000000000000e+00

0.000000000000000e+00 0.000000000000000e+00 0.000000000000000e+00
0.000000000000000e+00 0.000000000000000e+00 0.000000000000000e+00
0.000000000000000e+00 0.000000000000000e+00 0.000000000000000e+00

0.000000000000000e+00 0.000000000000000e+00 0.000000000000000e+00
0.000000000000000e+00 0.000000000000000e+00 0.000000000000000e+00
0.000000000000000e+00 0.000000000000000e+00 0.000000000000000e+00

0.000000000000000e+00 0.000000000000000e+00 0.000000000000000e+00
0.000000000000000e+00 0.000000000000000e+00 0.000000000000000e+00
0.000000000000000e+00 0.000000000000000e+00 0.000000000000000e+00

0.000000000000000e+00 0.000000000000000e+00 0.000000000000000e+00
0.000000000000000e+00 0.000000000000000e+00 0.000000000000000e+00
0.000000000000000e+00 0.000000000000000e+00 0.000000000000000e+00

0.000000000000000e+00 0.000000000000000e+00 0.000000000000000e+00
0.000000000000000e+00 0.000000000000000e+00 0.000000000000000e+00
0.000000000000000e+00 0.000000000000000e+00 0.000000000000000e+00

0.000000000000000e+00 0.000000000000000e+00 0.000000000000000e+00
0.000000000000000e+00 0.000000000000000e+00 0.000000000000000e+00
0.000000000000000e+00 0.000000000000000e+00 0.000000000000000e+00

0.000000000000000e+00 0.000000000000000e+00 0.000000000000000e+00
0.000000000000000e+00 0.000000000000000e+00 0.000000000000000e+00
0.000000000000000e+00 0.000000000000000e+00 0.000000000000000e+00

0.000000000000000e+00 0.000000000000000e+00 0.000000000000000e+00
0.000000000000000e+00 0.000000000000000e+00 0.000000000000000e+00
0.000000000000000e+00 0.000000000000000e+00 0.000000000000000e+00

0.000000000000000e+00 0.000000000000000e+00 0.000000000000000e+00
0.000000000000000e+00 0.000000000000000e+00 0.000000000000000e+00
0.000000000000000e+00 0.000000000000000e+00 0.000000000000000e+00

0.000000000000000e+00 0.000000000000000e+00 0.000000000000000e+00
0.000000000000000e+00 0.000000000000000e+00 0.000000000000000e+00
0.000000000000000e+00 0.000000000000000e+00 0.000000000000000e+00

0.000000000000000e+00 0.000000000000000e+00 0.000000000000000e+00
0.000000000000000e+00 0.000000000000000e+00 0.000000000000000e+00
0.000000000000000e+00 0.000000000000000e+00 0.000000000000000e+00

0.000000000000000e+00 0.000000000000000e+00 0.000000000000000e+00
0.000000000000000e+00 0.000000000000000e+00 0.000000000000000e+00
0.000000000000000e+00 0.000000000000000e+00 0.000000000000000e+00

0.000000000000000e+00 0.000000000000000e+00 0.000000000000000e+00
0.000000000000000e+00 0.000000000000000e+00 0.000000000000000e+00
0.000000000000000e+00 0.000000000000000e+00 0.000000000000000e+00

0.000000000000000e+00 0.000000000000000e+00 0.000000000000000e+00
0.000000000000000e+00 0.000000000000000e+00 0.000000000000000e+00
0.000000000000000e+00 0.000000000000000e+00 0.000000000000000e+00

0.000000000000000e+00 0.000000000000000e+00 0.000000000000000e+00
0.000000000000000e+00 0.000000000000000e+00 0.000000000000000e+00
0.000000000000000e+00 0.000000000000000e+00 0.000000000000000e+00

0.000000000000000e+00 0.000000000000000e+00 0.000000000000000e+00
0.000000000000000e+00 0.000000000000000e+00 0.000000000000000e+00
0.000000000000000e+00 0.000000000000000e+00 0.000000000000000e+00

0.000000000000000e+00 0.000000000000000e+00 0.000000000000000e+00
0.000000000000000e+00 0.000000000000000e+00 0.000000000000000e+00
0.000000000000000e+00 0.000000000000000e+00 0.000000000000000e+00

0.000000000000000e+00 0.000000000000000e+00 0.000000000000000e+00
0.000000000000000e+00 0.000000000000000e+00 0.000000000000000e+00
0.000000000000000e+00 0.000000000000000e+00 0.000000000000000e+00

0.000000000000000e+00 0.000000000000000e+00 0.000000000000000e+00
0.000000000000000e+00 0.000000000000000e+00 0.000000000000000e+00
0.000000000000000e+00 0.000000000000000e+00 0.000000000000000e+00

0.000000000000000e+00 0.000000000000000e+00 0.000000000000000e+00
0.000000000000000e+00 0.000000000000000e+00 0.000000000000000e+00
0.000000000000000e+00 0.000000000000000e+00 0.000000000000000e+00

0.000000000000000e+00 0.000000000000000e+00 0.000000000000000e+00
0.000000000000000e+00 0.000000000000000e+00 0.000000000000000e+00
0.000000000000000e+00 0.000000000000000e+00 0.000000000000000e+00

0.000000000000000e+00 0.000000000000000e+00 0.000000000000000e+00
0.000000000000000e+00 0.000000000000000e+00 0.000000000000000e+00
0.000000000000000e+00 0.000000000000000e+00 0.000000000000000e+00

0.000000000000000e+00 0.000000000000000e+00 0.000000000000000e+00
0.000000000000000e+00 0.000000000000000e+00 0.000000000000000e+00
0.000000000000000e+00 0.000000000000000e+00 0.000000000000000e+00

0.000000000000000e+00 0.000000000000000e+00 0.000000000000000e+00
0.000000000000000e+00 0.000000000000000e+00 0.000000000000000e+00
0.000000000000000e+00 0.000000000000000e+00 0.000000000000000e+00

0.000000000000000e+00 0.000000000000000e+00 0.000000000000000e+00
0.000000000000000e+00 0.000000000000000e+00 0.000000000000000e+00
0.000000000000000e+00 0.000000000000000e+00 0.000000000000000e+00

0.000000000000000e+00 0.000000000000000e+00 0.000000000000000e+00
0.000000000000000e+00 0.000000000000000e+00 0.000000000000000e+00
0.000000000000000e+00 0.000000000000000e+00 0.000000000000000e+00

0.000000000000000e+00 0.000000000000000e+00 0.000000000000000e+00
0.000000000000000e+00 0.000000000000000e+00 0.000000000000000e+00
0.000000000000000e+00 0.000000000000000e+00 0.000000000000000e+00

0.000000000000000e+00 0.000000000000000e+00 0.000000000000000e+00
0.000000000000000e+00 0.000000000000000e+00 0.000000000000000e+00
0.000000000000000e+00 0.000000000000000e+00 0.000000000000000e+00

0.000000000000000e+00 0.000000000000000e+00 0.000000000000000e+00
0.000000000000000e+00 0.000000000000000e+00 0.000000000000000e+00
0.000000000000000e+00 0.000000000000000e+00 0.000000000000000e+00

0.000000000000000e+00 0.000000000000000e+00 0.000000000000000e+00
0.000000000000000e+00 0.000000000000000e+00 0.000000000000000e+00
0.000000000000000e+00 0.000000000000000e+00 0.000000000000000e+00

0.000000000000000e+00 0.000000000000000e+00 0.000000000000000e+00
0.000000000000000e+00 0.000000000000000e+00 0.000000000000000e+00
0.000000000000000e+00 0.000000000000000e+00 0.000000000000000e+00

0.000000000000000e+00 0.000000000000000e+00 0.000000000000000e+00
0.000000000000000e+00 0.000000000000000e+00 0.000000000000000e+00
0.000000000000000e+00 0.000000000000000e+00 0.000000000000000e+00

0.000000000000000e+00 0.000000000000000e+00 0.000000000000000e+00
0.000000000000000e+00 0.000000000000000e+00 0.000000000000000e+00
0.000000000000000e+00 0.000000000000000e+00 0.000000000000000e+00

0.000000000000000e+00 0.000000000000000e+00 0.000000000000000e+00
0.000000000000000e+00 0.000000000000000e+00 0.000000000000000e+00
0.000000000000000e+00 0.000000000000000e+00 0.000000000000000e+00

0.000000000000000e+00 0.000000000000000e+00 0.000000000000000e+00
0.000000000000000e+00 0.000000000000000e+00 0.000000000000000e+00
0.000000000000000e+00 0.000000000000000e+00 0.000000000000000e+00

0.000000000000000e+00 0.000000000000000e+00 0.000000000000000e+00
0.000000000000000e+00 0.000000000000000e+00 0.000000000000000e+00
0.000000000000000e+00 0.000000000000000e+00 0.000000000000000e+00

0.000000000000000e+00 0.000000000000000e+00 0.000000000000000e+00
0.000000000000000e+00 0.000000000000000e+00 0.000000000000000e+00
0.000000000000000e+00 0.000000000000000e+00 0.000000000000000e+00

0.000000000000000e+00 0.000000000000000e+00 0.000000000000000e+00
0.000000000000000e+00 0.000000000000000e+00 0.000000000000000e+00
0.000000000000000e+00 0.000000000000000e+00 0.000000000000000e+00

0.000000000000000e+00 0.000000000000000e+00 0.000000000000000e+00
0.000000000000000e+00 0.000000000000000e+00 0.000000000000000e+00
0.000000000000000e+00 0.000000000000000e+00 0.000000000000000e+00

0.000000000000000e+00 0.000000000000000e+00 0.000000000000000e+00
0.000000000000000e+00 0.000000000000000e+00 0.000000000000000e+00
0.000000000000000e+00 0.000000000000000e+00 0.000000000000000e+00

0.000000000000000e+00 0.000000000000000e+00 0.000000000000000e+00
0.000000000000000e+00 0.000000000000000e+00 0.000000000000000e+00
0.000000000000000e+00 0.000000000000000e+00 0.000000000000000e+00

0.000000000000000e+00 0.000000000000000e+00 0.000000000000000e+00
0.000000000000000e+00 0.000000000000000e+00 0.000000000000000e+00
0.000000000000000e+00 0.000000000000000e+00 0.000000000000000e+00

0.000000000000000e+00 0.000000000000000e+00 0.000000000000000e+00
0.000000000000000e+00 0.000000000000000e+00 0.000000000000000e+00
0.000000000000000e+00 0.000000000000000e+00 0.000000000000000e+00

0.000000000000000e+00 0.000000000000000e+00 0.000000000000000e+00
0.000000000000000e+00 0.000000000000000e+00 0.000000000000000e+00
0.000000000000000e+00 0.000000000000000e+00 0.000000000000000e+00

0.000000000000000e+00 0.000000000000000e+00 0.000000000000000e+00
0.000000000000000e+00 0.000000000000000e+00 0.000000000000000e+00
0.000000000000000e+00 0.000000000000000e+00 0.000000000000000e+00

0.000000000000000e+00 0.000000000000000e+00 0.000000000000000e+00
0.000000000000000e+00 0.000000000000000e+00 0.000000000000000e+00
0.000000000000000e+00 0.000000000000000e+00 0.000000000000000e+00

0.000000000000000e+00 0.000000000000000e+00 0.000000000000000e+00
0.000000000000000e+00 0.000000000000000e+00 0.000000000000000e+00
0.000000000000000e+00 0.000000000000000e+00 0.000000000000000e+00

0.000000000000000e+00 0.000000000000000e+00 0.000000000000000e+00
0.000000000000000e+00 0.000000000000000e+00 0.000000000000000e+00
0.000000000000000e+00 0.000000000000000e+00 0.000000000000000e+00

0.000000000000000e+00 0.000000000000000e+00 0.000000000000000e+00
0.000000000000000e+00 0.000000000000000e+00 0.000000000000000e+00
0.000000000000000e+00 0.000000000000000e+00 0.000000000000000e+00

0.000000000000000e+00 0.000000000000000e+00 0.000000000000000e+00
0.000000000000000e+00 0.000000000000000e+00 0.000000000000000e+00
0.000000000000000e+00 0.000000000000000e+00 0.000000000000000e+00

0.000000000000000e+00 0.000000000000000e+00 0.000000000000000e+00
0.000000000000000e+00 0.000000000000000e+00 0.000000000000000e+00
0.000000000000000e+00 0.000000000000000e+00 0.000000000000000e+00

0.000000000000000e+00 0.000000000000000e+00 0.000000000000000e+00
0.000000000000000e+00 0.000000000000000e+00 0.000000000000000e+00
0.000000000000000e+00 0.000000000000000e+00 0.000000000000000e+00

0.000000000000000e+00 0.000000000000000e+00 0.000000000000000e+00
0.000000000000000e+00 0.000000000000000e+00 0.000000000000000e+00
0.000000000000000e+00 0.000000000000000e+00 0.000000000000000e+00

0.000000000000000e+00 0.000000000000000e+00 0.000000000000000e+00
0.000000000000000e+00 0.000000000000000e+00 0.000000000000000e+00
0.000000000000000e+00 0.000000000000000e+00 0.000000000000000e+00

0.000000000000000e+00 0.000000000000000e+00 0.000000000000000e+00
0.000000000000000e+00 0.000000000000000e+00 0.000000000000000e+00
0.000000000000000e+00 0.000000000000000e+00 0.000000000000000e+00

0.000000000000000e+00 0.000000000000000e+00 0.000000000000000e+00
0.000000000000000e+00 0.000000000000000e+00 0.000000000000000e+00
0.000000000000000e+00 0.000000000000000e+00 0.000000000000000e+00

0.000000000000000e+00 0.000000000000000e+00 0.000000000000000e+00
0.000000000000000e+00 0.000000000000000e+00 0.000000000000000e+00
0.000000000000000e+00 0.000000000000000e+00 0.000000000000000e+00

0.000000000000000e+00 0.000000000000000e+00 0.000000000000000e+00
0.000000000000000e+00 0.000000000000000e+00 0.000000000000000e+00
0.000000000000000e+00 0.000000000000000e+00 0.000000000000000e+00

0.000000000000000e+00 0.000000000000000e+00 0.000000000000000e+00
0.000000000000000e+00 0.000000000000000e+00 0.000000000000000e+00
0.000000000000000e+00 0.000000000000000e+00 0.000000000000000e+00

0.000000000000000e+00 0.000000000000000e+00 0.000000000000000e+00
0.000000000000000e+00 0.000000000000000e+00 0.000000000000000e+00
0.000000000000000e+00 0.000000000000000e+00 0.000000000000000e+00

0.000000000000000e+00 0.000000000000000e+00 0.000000000000000e+00
0.000000000000000e+00 0.000000000000000e+00 0.000000000000000e+00
0.000000000000000e+00 0.000000000000000e+00 0.000000000000000e+00

0.000000000000000e+00 0.000000000000000e+00 0.000000000000000e+00
0.000000000000000e+00 0.000000000000000e+00 0.000000000000000e+00
0.000000000000000e+00 0.000000000000000e+00 0.000000000000000e+00

0.000000000000000e+00 0.000000000000000e+00 0.000000000000000e+00
0.000000000000000e+00 0.000000000000000e+00 0.000000000000000e+00
0.000000000000000e+00 0.000000000000000e+00 0.000000000000000e+00

0.000000000000000e+00 0.000000000000000e+00 0.000000000000000e+00
0.000000000000000e+00 0.000000000000000e+00 0.000000000000000e+00
0.000000000000000e+00 0.000000000000000e+00 0.000000000000000e+00

0.000000000000000e+00 0.000000000000000e+00 0.000000000000000e+00
0.000000000000000e+00 0.000000000000000e+00 0.000000000000000e+00
0.000000000000000e+00 0.000000000000000e+00 0.000000000000000e+00

0.000000000000000e+00 0.000000000000000e+00 0.000000000000000e+00
0.000000000000000e+00 0.000000000000000e+00 0.000000000000000e+00
0.000000000000000e+00 0.000000000000000e+00 0.000000000000000e+00

0.000000000000000e+00 0.000000000000000e+00 0.000000000000000e+00
0.000000000000000e+00 0.000000000000000e+00 0.000000000000000e+00
0.000000000000000e+00 0.000000000000000e+00 0.000000000000000e+00

0.000000000000000e+00 0.000000000000000e+00 0.000000000000000e+00
0.000000000000000e+00 0.000000000000000e+00 0.000000000000000e+00
0.000000000000000e+00 0.000000000000000e+00 0.000000000000000e+00

0.000000000000000e+00 0.000000000000000e+00 0.000000000000000e+00
0.000000000000000e+00 0.000000000000000e+00 0.000000000000000e+00
0.000000000000000e+00 0.000000000000000e+00 0.000000000000000e+00

0.000000000000000e+00 0.000000000000000e+00 0.000000000000000e+00
0.000000000000000e+00 0.000000000000000e+00 0.000000000000000e+00
0.000000000000000e+00 0.000000000000000e+00 0.000000000000000e+00

0.000000000000000e+00 0.000000000000000e+00 0.000000000000000e+00
0.000000000000000e+00 0.000000000000000e+00 0.000000000000000e+00
0.000000000000000e+00 0.000000000000000e+00 0.000000000000000e+00

0.000000000000000e+00 0.000000000000000e+00 0.000000000000000e+00
0.000000000000000e+00 0.000000000000000e+00 0.000000000000000e+00
0.000000000000000e+00 0.000000000000000e+00 0.000000000000000e+00

0.000000000000000e+00 0.000000000000000e+00 0.000000000000000e+00
0.000000000000000e+00 0.000000000000000e+00 0.000000000000000e+00
0.000000000000000e+00 0.000000000000000e+00 0.000000000000000e+00

0.000000000000000e+00 0.000000000000000e+00 0.000000000000000e+00
0.000000000000000e+00 0.000000000000000e+00 0.000000000000000e+00
0.000000000000000e+00 0.000000000000000e+00 0.000000000000000e+00

0.000000000000000e+00 0.000000000000000e+00 0.000000000000000e+00
0.000000000000000e+00 0.000000000000000e+00 0.000000000000000e+00
0.000000000000000e+00 0.000000000000000e+00 0.000000000000000e+00

0.000000000000000e+00 0.000000000000000e+00 0.000000000000000e+00
0.000000000000000e+00 0.000000000000000e+00 0.000000000000000e+00
0.000000000000000e+00 0.000000000000000e+00 0.000000000000000e+00

0.000000000000000e+00 0.000000000000000e+00 0.000000000000000e+00
0.000000000000000e+00 0.000000000000000e+00 0.000000000000000e+00
0.000000000000000e+00 0.000000000000000e+00 0.000000000000000e+00

0.000000000000000e+00 0.000000000000000e+00 0.000000000000000e+00
0.000000000000000e+00 0.000000000000000e+00 0.000000000000000e+00
0.000000000000000e+00 0.000000000000000e+00 0.000000000000000e+00

0.000000000000000e+00 0.000000000000000e+00 0.000000000000000e+00
0.000000000000000e+00 0.000000000000000e+00 0.000000000000000e+00
0.000000000000000e+00 0.000000000000000e+00 0.000000000000000e+00

0.000000000000000e+00 0.000000000000000e+00 0.000000000000000e+00
0.000000000000000e+00 0.000000000000000e+00 0.000000000000000e+00
0.000000000000000e+00 0.000000000000000e+00 0.000000000000000e+00

0.000000000000000e+00 0.000000000000000e+00 0.000000000000000e+00
0.000000000000000e+00 0.000000000000000e+00 0.000000000000000e+00
0.000000000000000e+00 0.000000000000000e+00 0.000000000000000e+00

0.000000000000000e+00 0.000000000000000e+00 0.000000000000000e+00
0.000000000000000e+00 0.000000000000000e+00 0.000000000000000e+00
0.000000000000000e+00 0.000000000000000e+00 0.000000000000000e+00

0.000000000000000e+00 0.000000000000000e+00 0.000000000000000e+00
0.000000000000000e+00 0.000000000000000e+00 0.000000000000000e+00
0.000000000000000e+00 0.000000000000000e+00 0.000000000000000e+00

0.000000000000000e+00 0.000000000000000e+00 0.000000000000000e+00
0.000000000000000e+00 0.000000000000000e+00 0.000000000000000e+00
0.000000000000000e+00 0.000000000000000e+00 0.000000000000000e+00

0.000000000000000e+00 0.000000000000000e+00 0.000000000000000e+00
0.000000000000000e+00 0.000000000000000e+00 0.000000000000000e+00
0.000000000000000e+00 0.000000000000000e+00 0.000000000000000e+00

0.000000000000000e+00 0.000000000000000e+00 0.000000000000000e+00
0.000000000000000e+00 0.000000000000000e+00 0.000000000000000e+00
0.000000000000000e+00 0.000000000000000e+00 0.000000000000000e+00

0.000000000000000e+00 0.000000000000000e+00 0.000000000000000e+00
0.000000000000000e+00 0.000000000000000e+00 0.000000000000000e+00
0.000000000000000e+00 0.000000000000000e+00 0.000000000000000e+00

0.000000000000000e+00 0.000000000000000e+00 0.000000000000000e+00
0.000000000000000e+00 0.000000000000000e+00 0.000000000000000e+00
0.000000000000000e+00 0.000000000000000e+00 0.000000000000000e+00

0.000000000000000e+00 0.000000000000000e+00 0.000000000000000e+00
0.000000000000000e+00 0.000000000000000e+00 0.000000000000000e+00
0.000000000000000e+00 0.000000000000000e+00 0.000000000000000e+00

0.000000000000000e+00 0.000000000000000e+00 0.000000000000000e+00
0.000000000000000e+00 0.000000000000000e+00 0.000000000000000e+00
0.000000000000000e+00 0.000000000000000e+00 0.000000000000000e+00

0.000000000000000e+00 0.000000000000000e+00 0.000000000000000e+00
0.000000000000000e+00 0.000000000000000e+00 0.000000000000000e+00
0.000000000000000e+00 0.000000000000000e+00 0.000000000000000e+00

0.000000000000000e+00 0.000000000000000e+00 0.000000000000000e+00
0.000000000000000e+00 0.000000000000000e+00 0.000000000000000e+00
0.000000000000000e+00 0.000000000000000e+00 0.000000000000000e+00

0.000000000000000e+00 0.000000000000000e+00 0.000000000000000e+00
0.000000000000000e+00 0.000000000000000e+00 0.000000000000000e+00
0.000000000000000e+00 0.000000000000000e+00 0.000000000000000e+00

0.000000000000000e+00 0.000000000000000e+00 0.000000000000000e+00
0.000000000000000e+00 0.000000000000000e+00 0.000000000000000e+00
0.000000000000000e+00 0.000000000000000e+00 0.000000000000000e+00

0.000000000000000e+00 0.000000000000000e+00 0.000000000000000e+00
0.000000000000000e+00 0.000000000000000e+00 0.000000000000000e+00
0.000000000000000e+00 0.000000000000000e+00 0.000000000000000e+00

0.000000000000000e+00 0.000000000000000e+00 0.000000000000000e+00
0.000000000000000e+00 0.000000000000000e+00 0.000000000000000e+00
0.000000000000000e+00 0.000000000000000e+00 0.000000000000000e+00

0.000000000000000e+00 0.000000000000000e+00 0.000000000000000e+00
0.000000000000000e+00 0.000000000000000e+00 0.000000000000000e+00
0.000000000000000e+00 0.000000000000000e+00 0.000000000000000e+00

0.000000000000000e+00 0.000000000000000e+00 0.000000000000000e+00
0.000000000000000e+00 0.000000000000000e+00 0.000000000000000e+00
0.000000000000000e+00 0.000000000000000e+00 0.000000000000000e+00

0.000000000000000e+00 0.000000000000000e+00 0.000000000000000e+00
0.000000000000000e+00 0.000000000000000e+00 0.000000000000000e+00
0.000000000000000e+00 0.000000000000000e+00 0.000000000000000e+00

0.000000000000000e+00 0.000000000000000e+00 0.000000000000000e+00
0.000000000000000e+00 0.000000000000000e+00 0.000000000000000e+00
0.000000000000000e+00 0.000000000000000e+00 0.000000000000000e+00

0.000000000000000e+00 0.000000000000000e+00 0.000000000000000e+00
0.000000000000000e+00 0.000000000000000e+00 0.000000000000000e+00
0.000000000000000e+00 0.000000000000000e+00 0.000000000000000e+00

0.000000000000000e+00 0.000000000000000e+00 0.000000000000000e+00
0.000000000000000e+00 0.000000000000000e+00 0.000000000000000e+00
0.000000000000000e+00 0.000000000000000e+00 0.000000000000000e+00

0.000000000000000e+00 0.000000000000000e+00 0.000000000000000e+00
0.000000000000000e+00 0.000000000000000e+00 0.000000000000000e+00
0.000000000000000e+00 0.000000000000000e+00 0.000000000000000e+00

0.000000000000000e+00 0.000000000000000e+00 0.000000000000000e+00
0.000000000000000e+00 0.000000000000000e+00 0.000000000000000e+00
0.000000000000000e+00 0.000000000000000e+00 0.000000000000000e+00

0.000000000000000e+00 0.000000000000000e+00 0.000000000000000e+00
0.000000000000000e+00 0.000000000000000e+00 0.000000000000000e+00
0.000000000000000e+00 0.000000000000000e+00 0.000000000000000e+00

0.000000000000000e+00 0.000000000000000e+00 0.000000000000000e+00
0.000000000000000e+00 0.000000000000000e+00 0.000000000000000e+00
0.000000000000000e+00 0.000000000000000e+00 0.000000000000000e+00

0.000000000000000e+00 0.000000000000000e+00 0.000000000000000e+00
0.000000000000000e+00 0.000000000000000e+00 0.000000000000000e+00
0.000000000000000e+00 0.000000000000000e+00 0.000000000000000e+00

0.000000000000000e+00 0.000000000000000e+00 0.000000000000000e+00
0.000000000000000e+00 0.000000000000000e+00 0.000000000000000e+00
0.000000000000000e+00 0.000000000000000e+00 0.000000000000000e+00

0.000000000000000e+00 0.000000000000000e+00 0.000000000000000e+00
0.000000000000000e+00 0.000000000000000e+00 0.000000000000000e+00
0.000000000000000e+00 0.000000000000000e+00 0.000000000000000e+00

0.000000000000000e+00 0.000000000000000e+00 0.000000000000000e+00
0.000000000000000e+00 0.000000000000000e+00 0.000000000000000e+00
0.000000000000000e+00 0.000000000000000e+00 0.000000000000000e+00

0.000000000000000e+00 0.000000000000000e+00 0.000000000000000e+00
0.000000000000000e+00 0.000000000000000e+00 0.000000000000000e+00
0.000000000000000e+00 0.000000000000000e+00 0.000000000000000e+00

0.000000000000000e+00 0.000000000000000e+00 0.000000000000000e+00
0.000000000000000e+00 0.000000000000000e+00 0.000000000000000e+00
0.000000000000000e+00 0.000000000000000e+00 0.000000000000000e+00

0.000000000000000e+00 0.000000000000000e+00 0.000000000000000e+00
0.000000000000000e+00 0.000000000000000e+00 0.000000000000000e+00
0.000000000000000e+00 0.000000000000000e+00 0.000000000000000e+00

0.000000000000000e+00 0.000000000000000e+00 0.000000000000000e+00
0.000000000000000e+00 0.000000000000000e+00 0.000000000000000e+00
0.000000000000000e+00 0.000000000000000e+00 0.000000000000000e+00

0.000000000000000e+00 0.000000000000000e+00 0.000000000000000e+00
0.000000000000000e+00 0.000000000000000e+00 0.000000000000000e+00
0.000000000000000e+00 0.000000000000000e+00 0.000000000000000e+00

0.000000000000000e+00 0.000000000000000e+00 0.000000000000000e+00
0.000000000000000e+00 0.000000000000000e+00 0.000000000000000e+00
0.000000000000000e+00 0.000000000000000e+00 0.000000000000000e+00

0.000000000000000e+00 0.000000000000000e+00 0.000000000000000e+00
0.000000000000000e+00 0.000000000000000e+00 0.000000000000000e+00
0.000000000000000e+00 0.000000000000000e+00 0.000000000000000e+00

0.000000000000000e+00 0.000000000000000e+00 0.000000000000000e+00
0.000000000000000e+00 0.000000000000000e+00 0.000000000000000e+00
0.000000000000000e+00 0.000000000000000e+00 0.000000000000000e+00

0.000000000000000e+00 0.000000000000000e+00 0.000000000000000e+00
0.000000000000000e+00 0.000000000000000e+00 0.000000000000000e+00
0.000000000000000e+00 0.000000000000000e+00 0.000000000000000e+00

0.000000000000000e+00 0.000000000000000e+00 0.000000000000000e+00
0.000000000000000e+00 0.000000000000000e+00 0.000000000000000e+00
0.000000000000000e+00 0.000000000000000e+00 0.000000000000000e+00

0.000000000000000e+00 0.000000000000000e+00 0.000000000000000e+00
0.000000000000000e+00 0.000000000000000e+00 0.000000000000000e+00
0.000000000000000e+00 0.000000000000000e+00 0.000000000000000e+00

0.000000000000000e+00 0.000000000000000e+00 0.000000000000000e+00
0.000000000000000e+00 0.000000000000000e+00 0.000000000000000e+00
0.000000000000000e+00 0.000000000000000e+00 0.000000000000000e+00

0.000000000000000e+00 0.000000000000000e+00 0.000000000000000e+00
0.000000000000000e+00 0.000000000000000e+00 0.000000000000000e+00
0.000000000000000e+00 0.000000000000000e+00 0.000000000000000e+00

0.000000000000000e+00 0.000000000000000e+00 0.000000000000000e+00
0.000000000000000e+00 0.000000000000000e+00 0.000000000000000e+00
0.000000000000000e+00 0.000000000000000e+00 0.000000000000000e+00

0.000000000000000e+00 0.000000000000000e+00 0.000000000000000e+00
0.000000000000000e+00 0.000000000000000e+00 0.000000000000000e+00
0.000000000000000e+00 0.000000000000000e+00 0.000000000000000e+00

0.000000000000000e+00 0.000000000000000e+00 0.000000000000000e+00
0.000000000000000e+00 0.000000000000000e+00 0.000000000000000e+00
0.000000000000000e+00 0.000000000000000e+00 0.000000000000000e+00

0.000000000000000e+00 0.000000000000000e+00 0.000000000000000e+00
0.000000000000000e+00 0.000000000000000e+00 0.000000000000000e+00
0.000000000000000e+00 0.000000000000000e+00 0.000000000000000e+00

0.000000000000000e+00 0.000000000000000e+00 0.000000000000000e+00
0.000000000000000e+00 0.000000000000000e+00 0.000000000000000e+00
0.000000000000000e+00 0.000000000000000e+00 0.000000000000000e+00

0.000000000000000e+00 0.000000000000000e+00 0.000000000000000e+00
0.000000000000000e+00 0.000000000000000e+00 0.000000000000000e+00
0.000000000000000e+00 0.000000000000000e+00 0.000000000000000e+00

0.000000000000000e+00 0.000000000000000e+00 0.000000000000000e+00
0.000000000000000e+00 0.000000000000000e+00 0.000000000000000e+00
0.000000000000000e+00 0.000000000000000e+00 0.000000000000000e+00

0.000000000000000e+00 0.000000000000000e+00 0.000000000000000e+00
0.000000000000000e+00 0.000000000000000e+00 0.000000000000000e+00
0.000000000000000e+00 0.000000000000000e+00 0.000000000000000e+00

0.000000000000000e+00 0.000000000000000e+00 0.000000000000000e+00
0.000000000000000e+00 0.000000000000000e+00 0.000000000000000e+00
0.000000000000000e+00 0.000000000000000e+00 0.000000000000000e+00

0.000000000000000e+00 0.000000000000000e+00 0.000000000000000e+00
0.000000000000000e+00 0.000000000000000e+00 0.000000000000000e+00
0.000000000000000e+00 0.000000000000000e+00 0.000000000000000e+00

0.000000000000000e+00 0.000000000000000e+00 0.000000000000000e+00
0.000000000000000e+00 0.000000000000000e+00 0.000000000000000e+00
0.000000000000000e+00 0.000000000000000e+00 0.000000000000000e+00

0.000000000000000e+00 0.000000000000000e+00 0.000000000000000e+00
0.000000000000000e+00 0.000000000000000e+00 0.000000000000000e+00
0.000000000000000e+00 0.000000000000000e+00 0.000000000000000e+00

0.000000000000000e+00 0.000000000000000e+00 0.000000000000000e+00
0.000000000000000e+00 0.000000000000000e+00 0.000000000000000e+00
0.000000000000000e+00 0.000000000000000e+00 0.000000000000000e+00

0.000000000000000e+00 0.000000000000000e+00 0.000000000000000e+00
0.000000000000000e+00 0.000000000000000e+00 0.000000000000000e+00
0.000000000000000e+00 0.000000000000000e+00 0.000000000000000e+00

0.000000000000000e+00 0.000000000000000e+00 0.000000000000000e+00
0.000000000000000e+00 0.000000000000000e+00 0.000000000000000e+00
0.000000000000000e+00 0.000000000000000e+00 0.000000000000000e+00

0.000000000000000e+00 0.000000000000000e+00 0.000000000000000e+00
0.000000000000000e+00 0.000000000000000e+00 0.000000000000000e+00
0.000000000000000e+00 0.000000000000000e+00 0.000000000000000e+00

0.000000000000000e+00 0.000000000000000e+00 0.000000000000000e+00
0.000000000000000e+00 0.000000000000000e+00 0.000000000000000e+00
0.000000000000000e+00 0.000000000000000e+00 0.000000000000000e+00

0.000000000000000e+00 0.000000000000000e+00 0.000000000000000e+00
0.000000000000000e+00 0.000000000000000e+00 0.000000000000000e+00
0.000000000000000e+00 0.000000000000000e+00 0.000000000000000e+00

0.000000000000000e+00 0.000000000000000e+00 0.000000000000000e+00
0.000000000000000e+00 0.000000000000000e+00 0.000000000000000e+00
0.000000000000000e+00 0.000000000000000e+00 0.000000000000000e+00

0.000000000000000e+00 0.000000000000000e+00 0.000000000000000e+00
0.000000000000000e+00 0.000000000000000e+00 0.000000000000000e+00
0.000000000000000e+00 0.000000000000000e+00 0.000000000000000e+00

0.000000000000000e+00 0.000000000000000e+00 0.000000000000000e+00
0.000000000000000e+00 0.000000000000000e+00 0.000000000000000e+00
0.000000000000000e+00 0.000000000000000e+00 0.000000000000000e+00

0.000000000000000e+00 0.000000000000000e+00 0.000000000000000e+00
0.000000000000000e+00 0.000000000000000e+00 0.000000000000000e+00
0.000000000000000e+00 0.000000000000000e+00 0.000000000000000e+00

0.000000000000000e+00 0.000000000000000e+00 0.000000000000000e+00
0.000000000000000e+00 0.000000000000000e+00 0.000000000000000e+00
0.000000000000000e+00 0.000000000000000e+00 0.000000000000000e+00

0.000000000000000e+00 0.000000000000000e+00 0.000000000000000e+00
0.000000000000000e+00 0.000000000000000e+00 0.000000000000000e+00
0.000000000000000e+00 0.000000000000000e+00 0.000000000000000e+00

0.000000000000000e+00 0.000000000000000e+00 0.000000000000000e+00
0.000000000000000e+00 0.000000000000000e+00 0.000000000000000e+00
0.000000000000000e+00 0.000000000000000e+00 0.000000000000000e+00

0.000000000000000e+00 0.000000000000000e+00 0.000000000000000e+00
0.000000000000000e+00 0.000000000000000e+00 0.000000000000000e+00
0.000000000000000e+00 0.000000000000000e+00 0.000000000000000e+00

0.000000000000000e+00 0.000000000000000e+00 0.000000000000000e+00
0.000000000000000e+00 0.000000000000000e+00 0.000000000000000e+00
0.000000000000000e+00 0.000000000000000e+00 0.000000000000000e+00

0.000000000000000e+00 0.000000000000000e+00 0.000000000000000e+00
0.000000000000000e+00 0.000000000000000e+00 0.000000000000000e+00
0.000000000000000e+00 0.000000000000000e+00 0.000000000000000e+00

0.000000000000000e+00 0.000000000000000e+00 0.000000000000000e+00
0.000000000000000e+00 0.000000000000000e+00 0.000000000000000e+00
0.000000000000000e+00 0.000000000000000e+00 0.000000000000000e+00

0.000000000000000e+00 0.000000000000000e+00 0.000000000000000e+00
0.000000000000000e+00 0.000000000000000e+00 0.000000000000000e+00
0.000000000000000e+00 0.000000000000000e+00 0.000000000000000e+00

0.000000000000000e+00 0.000000000000000e+00 0.000000000000000e+00
0.000000000000000e+00 0.000000000000000e+00 0.000000000000000e+00
0.000000000000000e+00 0.000000000000000e+00 0.000000000000000e+00

0.000000000000000e+00 0.000000000000000e+00 0.000000000000000e+00
0.000000000000000e+00 0.000000000000000e+00 0.000000000000000e+00
0.000000000000000e+00 0.000000000000000e+00 0.000000000000000e+00

0.000000000000000e+00 0.000000000000000e+00 0.000000000000000e+00
0.000000000000000e+00 0.000000000000000e+00 0.000000000000000e+00
0.000000000000000e+00 0.000000000000000e+00 0.000000000000000e+00

0.000000000000000e+00 0.000000000000000e+00 0.000000000000000e+00
0.000000000000000e+00 0.000000000000000e+00 0.000000000000000e+00
0.000000000000000e+00 0.000000000000000e+00 0.000000000000000e+00

0.000000000000000e+00 0.000000000000000e+00 0.000000000000000e+00
0.000000000000000e+00 0.000000000000000e+00 0.000000000000000e+00
0.000000000000000e+00 0.000000000000000e+00 0.000000000000000e+00

0.000000000000000e+00 0.000000000000000e+00 0.000000000000000e+00
0.000000000000000e+00 0.000000000000000e+00 0.000000000000000e+00
0.000000000000000e+00 0.000000000000000e+00 0.000000000000000e+00

0.000000000000000e+00 0.000000000000000e+00 0.000000000000000e+00
0.000000000000000e+00 0.000000000000000e+00 0.000000000000000e+00
0.000000000000000e+00 0.000000000000000e+00 0.000000000000000e+00

0.000000000000000e+00 0.000000000000000e+00 0.000000000000000e+00
0.000000000000000e+00 0.000000000000000e+00 0.000000000000000e+00
0.000000000000000e+00 0.000000000000000e+00 0.000000000000000e+00

0.000000000000000e+00 0.000000000000000e+00 0.000000000000000e+00
0.000000000000000e+00 0.000000000000000e+00 0.000000000000000e+00
0.000000000000000e+00 0.000000000000000e+00 0.000000000000000e+00

0.000000000000000e+00 0.000000000000000e+00 0.000000000000000e+00
0.000000000000000e+00 0.000000000000000e+00 0.000000000000000e+00
0.000000000000000e+00 0.000000000000000e+00 0.000000000000000e+00

0.000000000000000e+00 0.000000000000000e+00 0.000000000000000e+00
0.000000000000000e+00 0.000000000000000e+00 0.000000000000000e+00
0.000000000000000e+00 0.000000000000000e+00 0.000000000000000e+00

0.000000000000000e+00 0.000000000000000e+00 0.000000000000000e+00
0.000000000000000e+00 0.000000000000000e+00 0.000000000000000e+00
0.000000000000000e+00 0.000000000000000e+00 0.000000000000000e+00

0.000000000000000e+00 0.000000000000000e+00 0.000000000000000e+00
0.000000000000000e+00 0.000000000000000e+00 0.000000000000000e+00
0.000000000000000e+00 0.000000000000000e+00 0.000000000000000e+00

0.000000000000000e+00 0.000000000000000e+00 0.000000000000000e+00
0.000000000000000e+00 0.000000000000000e+00 0.000000000000000e+00
0.000000000000000e+00 0.000000000000000e+00 0.000000000000000e+00

0.000000000000000e+00 0.000000000000000e+00 0.000000000000000e+00
0.000000000000000e+00 0.000000000000000e+00 0.000000000000000e+00
0.000000000000000e+00 0.000000000000000e+00 0.000000000000000e+00

0.000000000000000e+00 0.000000000000000e+00 0.000000000000000e+00
0.000000000000000e+00 0.000000000000000e+00 0.000000000000000e+00
0.000000000000000e+00 0.000000000000000e+00 0.000000000000000e+00

0.000000000000000e+00 0.000000000000000e+00 0.000000000000000e+00
0.000000000000000e+00 0.000000000000000e+00 0.000000000000000e+00
0.000000000000000e+00 0.000000000000000e+00 0.000000000000000e+00

0.000000000000000e+00 0.000000000000000e+00 0.000000000000000e+00
0.000000000000000e+00 0.000000000000000e+00 0.000000000000000e+00
0.000000000000000e+00 0.000000000000000e+00 0.000000000000000e+00

0.000000000000000e+00 0.000000000000000e+00 0.000000000000000e+00
0.000000000000000e+00 0.000000000000000e+00 0.000000000000000e+00
0.000000000000000e+00 0.000000000000000e+00 0.000000000000000e+00

0.000000000000000e+00 0.000000000000000e+00 0.000000000000000e+00
0.000000000000000e+00 0.000000000000000e+00 0.000000000000000e+00
0.000000000000000e+00 0.000000000000000e+00 0.000000000000000e+00

0.000000000000000e+00 0.000000000000000e+00 0.000000000000000e+00
0.000000000000000e+00 0.000000000000000e+00 0.000000000000000e+00
0.000000000000000e+00 0.000000000000000e+00 0.000000000000000e+00

0.000000000000000e+00 0.000000000000000e+00 0.000000000000000e+00
0.000000000000000e+00 0.000000000000000e+00 0.000000000000000e+00
0.000000000000000e+00 0.000000000000000e+00 0.000000000000000e+00

0.000000000000000e+00 0.000000000000000e+00 0.000000000000000e+00
0.000000000000000e+00 0.000000000000000e+00 0.000000000000000e+00
0.000000000000000e+00 0.000000000000000e+00 0.000000000000000e+00

0.000000000000000e+00 0.000000000000000e+00 0.000000000000000e+00
0.000000000000000e+00 0.000000000000000e+00 0.000000000000000e+00
0.000000000000000e+00 0.000000000000000e+00 0.000000000000000e+00

0.000000000000000e+00 0.000000000000000e+00 0.000000000000000e+00
0.000000000000000e+00 0.000000000000000e+00 0.000000000000000e+00
0.000000000000000e+00 0.000000000000000e+00 0.000000000000000e+00

0.000000000000000e+00 0.000000000000000e+00 0.000000000000000e+00
0.000000000000000e+00 0.000000000000000e+00 0.000000000000000e+00
0.000000000000000e+00 0.000000000000000e+00 0.000000000000000e+00

0.000000000000000e+00 0.000000000000000e+00 0.000000000000000e+00
0.000000000000000e+00 0.000000000000000e+00 0.000000000000000e+00
0.000000000000000e+00 0.000000000000000e+00 0.000000000000000e+00

0.000000000000000e+00 0.000000000000000e+00 0.000000000000000e+00
0.000000000000000e+00 0.000000000000000e+00 0.000000000000000e+00
0.000000000000000e+00 0.000000000000000e+00 0.000000000000000e+00

0.000000000000000e+00 0.000000000000000e+00 0.000000000000000e+00
0.000000000000000e+00 0.000000000000000e+00 0.000000000000000e+00
0.000000000000000e+00 0.000000000000000e+00 0.000000000000000e+00

0.000000000000000e+00 0.000000000000000e+00 0.000000000000000e+00
0.000000000000000e+00 0.000000000000000e+00 0.000000000000000e+00
0.000000000000000e+00 0.000000000000000e+00 0.000000000000000e+00

0.000000000000000e+00 0.000000000000000e+00 0.000000000000000e+00
0.000000000000000e+00 0.000000000000000e+00 0.000000000000000e+00
0.000000000000000e+00 0.000000000000000e+00 0.000000000000000e+00

0.000000000000000e+00 0.000000000000000e+00 0.000000000000000e+00
0.000000000000000e+00 0.000000000000000e+00 0.000000000000000e+00
0.000000000000000e+00 0.000000000000000e+00 0.000000000000000e+00

0.000000000000000e+00 0.000000000000000e+00 0.000000000000000e+00
0.000000000000000e+00 0.000000000000000e+00 0.000000000000000e+00
0.000000000000000e+00 0.000000000000000e+00 0.000000000000000e+00

0.000000000000000e+00 0.000000000000000e+00 0.000000000000000e+00
0.000000000000000e+00 0.000000000000000e+00 0.000000000000000e+00
0.000000000000000e+00 0.000000000000000e+00 0.000000000000000e+00

0.000000000000000e+00 0.000000000000000e+00 0.000000000000000e+00
0.000000000000000e+00 0.000000000000000e+00 0.000000000000000e+00
0.000000000000000e+00 0.000000000000000e+00 0.000000000000000e+00

0.000000000000000e+00 0.000000000000000e+00 0.000000000000000e+00
0.000000000000000e+00 0.000000000000000e+00 0.000000000000000e+00
0.000000000000000e+00 0.000000000000000e+00 0.000000000000000e+00

0.000000000000000e+00 0.000000000000000e+00 0.000000000000000e+00
0.000000000000000e+00 0.000000000000000e+00 0.000000000000000e+00
0.000000000000000e+00 0.000000000000000e+00 0.000000000000000e+00

0.000000000000000e+00 0.000000000000000e+00 0.000000000000000e+00
0.000000000000000e+00 0.000000000000000e+00 0.000000000000000e+00
0.000000000000000e+00 0.000000000000000e+00 0.000000000000000e+00

0.000000000000000e+00 0.000000000000000e+00 0.000000000000000e+00
0.000000000000000e+00 0.000000000000000e+00 0.000000000000000e+00
0.000000000000000e+00 0.000000000000000e+00 0.000000000000000e+00

0.000000000000000e+00 0.000000000000000e+00 0.000000000000000e+00
0.000000000000000e+00 0.000000000000000e+00 0.000000000000000e+00
0.000000000000000e+00 0.000000000000000e+00 0.000000000000000e+00

0.000000000000000e+00 0.000000000000000e+00 0.000000000000000e+00
0.000000000000000e+00 0.000000000000000e+00 0.000000000000000e+00
0.000000000000000e+00 0.000000000000000e+00 0.000000000000000e+00

0.000000000000000e+00 0.000000000000000e+00 0.000000000000000e+00
0.000000000000000e+00 0.000000000000000e+00 0.000000000000000e+00
0.000000000000000e+00 0.000000000000000e+00 0.000000000000000e+00

0.000000000000000e+00 0.000000000000000e+00 0.000000000000000e+00
0.000000000000000e+00 0.000000000000000e+00 0.000000000000000e+00
0.000000000000000e+00 0.000000000000000e+00 0.000000000000000e+00

0.000000000000000e+00 0.000000000000000e+00 0.000000000000000e+00
0.000000000000000e+00 0.000000000000000e+00 0.000000000000000e+00
0.000000000000000e+00 0.000000000000000e+00 0.000000000000000e+00

0.000000000000000e+00 0.000000000000000e+00 0.000000000000000e+00
0.000000000000000e+00 0.000000000000000e+00 0.000000000000000e+00
0.000000000000000e+00 0.000000000000000e+00 0.000000000000000e+00

0.000000000000000e+00 0.000000000000000e+00 0.000000000000000e+00
0.000000000000000e+00 0.000000000000000e+00 0.000000000000000e+00
0.000000000000000e+00 0.000000000000000e+00 0.000000000000000e+00

0.000000000000000e+00 0.000000000000000e+00 0.000000000000000e+00
0.000000000000000e+00 0.000000000000000e+00 0.000000000000000e+00
0.000000000000000e+00 0.000000000000000e+00 0.000000000000000e+00

0.000000000000000e+00 0.000000000000000e+00 0.000000000000000e+00
0.000000000000000e+00 0.000000000000000e+00 0.000000000000000e+00
0.000000000000000e+00 0.000000000000000e+00 0.000000000000000e+00

0.000000000000000e+00 0.000000000000000e+00 0.000000000000000e+00
0.000000000000000e+00 0.000000000000000e+00 0.000000000000000e+00
0.000000000000000e+00 0.000000000000000e+00 0.000000000000000e+00

0.000000000000000e+00 0.000000000000000e+00 0.000000000000000e+00
0.000000000000000e+00 0.000000000000000e+00 0.000000000000000e+00
0.000000000000000e+00 0.000000000000000e+00 0.000000000000000e+00

0.000000000000000e+00 0.000000000000000e+00 0.000000000000000e+00
0.000000000000000e+00 0.000000000000000e+00 0.000000000000000e+00
0.000000000000000e+00 0.000000000000000e+00 0.000000000000000e+00

0.000000000000000e+00 0.000000000000000e+00 0.000000000000000e+00
0.000000000000000e+00 0.000000000000000e+00 0.000000000000000e+00
0.000000000000000e+00 0.000000000000000e+00 0.000000000000000e+00

0.000000000000000e+00 0.000000000000000e+00 0.000000000000000e+00
0.000000000000000e+00 0.000000000000000e+00 0.000000000000000e+00
0.000000000000000e+00 0.000000000000000e+00 0.000000000000000e+00

0.000000000000000e+00 0.000000000000000e+00 0.000000000000000e+00
0.000000000000000e+00 0.000000000000000e+00 0.000000000000000e+00
0.000000000000000e+00 0.000000000000000e+00 0.000000000000000e+00

0.000000000000000e+00 0.000000000000000e+00 0.000000000000000e+00
0.000000000000000e+00 0.000000000000000e+00 0.000000000000000e+00
0.000000000000000e+00 0.000000000000000e+00 0.000000000000000e+00

0.000000000000000e+00 0.000000000000000e+00 0.000000000000000e+00
0.000000000000000e+00 0.000000000000000e+00 0.000000000000000e+00
0.000000000000000e+00 0.000000000000000e+00 0.000000000000000e+00

0.000000000000000e+00 0.000000000000000e+00 0.000000000000000e+00
0.000000000000000e+00 0.000000000000000e+00 0.000000000000000e+00
0.000000000000000e+00 0.000000000000000e+00 0.000000000000000e+00

0.000000000000000e+00 0.000000000000000e+00 0.000000000000000e+00
0.000000000000000e+00 0.000000000000000e+00 0.000000000000000e+00
0.000000000000000e+00 0.000000000000000e+00 0.000000000000000e+00

0.000000000000000e+00 0.000000000000000e+00 0.000000000000000e+00
0.000000000000000e+00 0.000000000000000e+00 0.000000000000000e+00
0.000000000000000e+00 0.000000000000000e+00 0.000000000000000e+00

0.000000000000000e+00 0.000000000000000e+00 0.000000000000000e+00
0.000000000000000e+00 0.000000000000000e+00 0.000000000000000e+00
0.000000000000000e+00 0.000000000000000e+00 0.000000000000000e+00

0.000000000000000e+00 0.000000000000000e+00 0.000000000000000e+00
0.000000000000000e+00 0.000000000000000e+00 0.000000000000000e+00
0.000000000000000e+00 0.000000000000000e+00 0.000000000000000e+00

0.000000000000000e+00 0.000000000000000e+00 0.000000000000000e+00
0.000000000000000e+00 0.000000000000000e+00 0.000000000000000e+00
0.000000000000000e+00 0.000000000000000e+00 0.000000000000000e+00

0.000000000000000e+00 0.000000000000000e+00 0.000000000000000e+00
0.000000000000000e+00 0.000000000000000e+00 0.000000000000000e+00
0.000000000000000e+00 0.000000000000000e+00 0.000000000000000e+00

0.000000000000000e+00 0.000000000000000e+00 0.000000000000000e+00
0.000000000000000e+00 0.000000000000000e+00 0.000000000000000e+00
0.000000000000000e+00 0.000000000000000e+00 0.000000000000000e+00

0.000000000000000e+00 0.000000000000000e+00 0.000000000000000e+00
0.000000000000000e+00 0.000000000000000e+00 0.000000000000000e+00
0.000000000000000e+00 0.000000000000000e+00 0.000000000000000e+00

0.000000000000000e+00 0.000000000000000e+00 0.000000000000000e+00
0.000000000000000e+00 0.000000000000000e+00 0.000000000000000e+00
0.000000000000000e+00 0.000000000000000e+00 0.000000000000000e+00

0.000000000000000e+00 0.000000000000000e+00 0.000000000000000e+00
0.000000000000000e+00 0.000000000000000e+00 0.000000000000000e+00
0.000000000000000e+00 0.000000000000000e+00 0.000000000000000e+00

0.000000000000000e+00 0.000000000000000e+00 0.000000000000000e+00
0.000000000000000e+00 0.000000000000000e+00 0.000000000000000e+00
0.000000000000000e+00 0.000000000000000e+00 0.000000000000000e+00

0.000000000000000e+00 0.000000000000000e+00 0.000000000000000e+00
0.000000000000000e+00 0.000000000000000e+00 0.000000000000000e+00
0.000000000000000e+00 0.000000000000000e+00 0.000000000000000e+00

0.000000000000000e+00 0.000000000000000e+00 0.000000000000000e+00
0.000000000000000e+00 0.000000000000000e+00 0.000000000000000e+00
0.000000000000000e+00 0.000000000000000e+00 0.000000000000000e+00

0.000000000000000e+00 0.000000000000000e+00 0.000000000000000e+00
0.000000000000000e+00 0.000000000000000e+00 0.000000000000000e+00
0.000000000000000e+00 0.000000000000000e+00 0.000000000000000e+00

0.000000000000000e+00 0.000000000000000e+00 0.000000000000000e+00
0.000000000000000e+00 0.000000000000000e+00 0.000000000000000e+00
0.000000000000000e+00 0.000000000000000e+00 0.000000000000000e+00

0.000000000000000e+00 0.000000000000000e+00 0.000000000000000e+00
0.000000000000000e+00 0.000000000000000e+00 0.000000000000000e+00
0.000000000000000e+00 0.000000000000000e+00 0.000000000000000e+00

0.000000000000000e+00 0.000000000000000e+00 0.000000000000000e+00
0.000000000000000e+00 0.000000000000000e+00 0.000000000000000e+00
0.000000000000000e+00 0.000000000000000e+00 0.000000000000000e+00

0.000000000000000e+00 0.000000000000000e+00 0.000000000000000e+00
0.000000000000000e+00 0.000000000000000e+00 0.000000000000000e+00
0.000000000000000e+00 0.000000000000000e+00 0.000000000000000e+00

0.000000000000000e+00 0.000000000000000e+00 0.000000000000000e+00
0.000000000000000e+00 0.000000000000000e+00 0.000000000000000e+00
0.000000000000000e+00 0.000000000000000e+00 0.000000000000000e+00

0.000000000000000e+00 0.000000000000000e+00 0.000000000000000e+00
0.000000000000000e+00 0.000000000000000e+00 0.000000000000000e+00
0.000000000000000e+00 0.000000000000000e+00 0.000000000000000e+00

0.000000000000000e+00 0.000000000000000e+00 0.000000000000000e+00
0.000000000000000e+00 0.000000000000000e+00 0.000000000000000e+00
0.000000000000000e+00 0.000000000000000e+00 0.000000000000000e+00

0.000000000000000e+00 0.000000000000000e+00 0.000000000000000e+00
0.000000000000000e+00 0.000000000000000e+00 0.000000000000000e+00
0.000000000000000e+00 0.000000000000000e+00 0.000000000000000e+00

0.000000000000000e+00 0.000000000000000e+00 0.000000000000000e+00
0.000000000000000e+00 0.000000000000000e+00 0.000000000000000e+00
0.000000000000000e+00 0.000000000000000e+00 0.000000000000000e+00

0.000000000000000e+00 0.000000000000000e+00 0.000000000000000e+00
0.000000000000000e+00 0.000000000000000e+00 0.000000000000000e+00
0.000000000000000e+00 0.000000000000000e+00 0.000000000000000e+00

0.000000000000000e+00 0.000000000000000e+00 0.000000000000000e+00
0.000000000000000e+00 0.000000000000000e+00 0.000000000000000e+00
0.000000000000000e+00 0.000000000000000e+00 0.000000000000000e+00

0.000000000000000e+00 0.000000000000000e+00 0.000000000000000e+00
0.000000000000000e+00 0.000000000000000e+00 0.000000000000000e+00
0.000000000000000e+00 0.000000000000000e+00 0.000000000000000e+00

0.000000000000000e+00 0.000000000000000e+00 0.000000000000000e+00
0.000000000000000e+00 0.000000000000000e+00 0.000000000000000e+00
0.000000000000000e+00 0.000000000000000e+00 0.000000000000000e+00

0.000000000000000e+00 0.000000000000000e+00 0.000000000000000e+00
0.000000000000000e+00 0.000000000000000e+00 0.000000000000000e+00
0.000000000000000e+00 0.000000000000000e+00 0.000000000000000e+00

0.000000000000000e+00 0.000000000000000e+00 0.000000000000000e+00
0.000000000000000e+00 0.000000000000000e+00 0.000000000000000e+00
0.000000000000000e+00 0.000000000000000e+00 0.000000000000000e+00

0.000000000000000e+00 0.000000000000000e+00 0.000000000000000e+00
0.000000000000000e+00 0.000000000000000e+00 0.000000000000000e+00
0.000000000000000e+00 0.000000000000000e+00 0.000000000000000e+00

0.000000000000000e+00 0.000000000000000e+00 0.000000000000000e+00
0.000000000000000e+00 0.000000000000000e+00 0.000000000000000e+00
0.000000000000000e+00 0.000000000000000e+00 0.000000000000000e+00

0.000000000000000e+00 0.000000000000000e+00 0.000000000000000e+00
0.000000000000000e+00 0.000000000000000e+00 0.000000000000000e+00
0.000000000000000e+00 0.000000000000000e+00 0.000000000000000e+00

0.000000000000000e+00 0.000000000000000e+00 0.000000000000000e+00
0.000000000000000e+00 0.000000000000000e+00 0.000000000000000e+00
0.000000000000000e+00 0.000000000000000e+00 0.000000000000000e+00

0.000000000000000e+00 0.000000000000000e+00 0.000000000000000e+00
0.000000000000000e+00 0.000000000000000e+00 0.000000000000000e+00
0.000000000000000e+00 0.000000000000000e+00 0.000000000000000e+00

0.000000000000000e+00 0.000000000000000e+00 0.000000000000000e+00
0.000000000000000e+00 0.000000000000000e+00 0.000000000000000e+00
0.000000000000000e+00 0.000000000000000e+00 0.000000000000000e+00

0.000000000000000e+00 0.000000000000000e+00 0.000000000000000e+00
0.000000000000000e+00 0.000000000000000e+00 0.000000000000000e+00
0.000000000000000e+00 0.000000000000000e+00 0.000000000000000e+00

0.000000000000000e+00 0.000000000000000e+00 0.000000000000000e+00
0.000000000000000e+00 0.000000000000000e+00 0.000000000000000e+00
0.000000000000000e+00 0.000000000000000e+00 0.000000000000000e+00

0.000000000000000e+00 0.000000000000000e+00 0.000000000000000e+00
0.000000000000000e+00 0.000000000000000e+00 0.000000000000000e+00
0.000000000000000e+00 0.000000000000000e+00 0.000000000000000e+00

0.000000000000000e+00 0.000000000000000e+00 0.000000000000000e+00
0.000000000000000e+00 0.000000000000000e+00 0.000000000000000e+00
0.000000000000000e+00 0.000000000000000e+00 0.000000000000000e+00

0.000000000000000e+00 0.000000000000000e+00 0.000000000000000e+00
0.000000000000000e+00 0.000000000000000e+00 0.000000000000000e+00
0.000000000000000e+00 0.000000000000000e+00 0.000000000000000e+00

0.000000000000000e+00 0.000000000000000e+00 0.000000000000000e+00
0.000000000000000e+00 0.000000000000000e+00 0.000000000000000e+00
0.000000000000000e+00 0.000000000000000e+00 0.000000000000000e+00

0.000000000000000e+00 0.000000000000000e+00 0.000000000000000e+00
0.000000000000000e+00 0.000000000000000e+00 0.000000000000000e+00
0.000000000000000e+00 0.000000000000000e+00 0.000000000000000e+00

0.000000000000000e+00 0.000000000000000e+00 0.000000000000000e+00
0.000000000000000e+00 0.000000000000000e+00 0.000000000000000e+00
0.000000000000000e+00 0.000000000000000e+00 0.000000000000000e+00

0.000000000000000e+00 0.000000000000000e+00 0.000000000000000e+00
0.000000000000000e+00 0.000000000000000e+00 0.000000000000000e+00
0.000000000000000e+00 0.000000000000000e+00 0.000000000000000e+00

0.000000000000000e+00 0.000000000000000e+00 0.000000000000000e+00
0.000000000000000e+00 0.000000000000000e+00 0.000000000000000e+00
0.000000000000000e+00 0.000000000000000e+00 0.000000000000000e+00

0.000000000000000e+00 0.000000000000000e+00 0.000000000000000e+00
0.000000000000000e+00 0.000000000000000e+00 0.000000000000000e+00
0.000000000000000e+00 0.000000000000000e+00 0.000000000000000e+00

0.000000000000000e+00 0.000000000000000e+00 0.000000000000000e+00
0.000000000000000e+00 0.000000000000000e+00 0.000000000000000e+00
0.000000000000000e+00 0.000000000000000e+00 0.000000000000000e+00

0.000000000000000e+00 0.000000000000000e+00 0.000000000000000e+00
0.000000000000000e+00 0.000000000000000e+00 0.000000000000000e+00
0.000000000000000e+00 0.000000000000000e+00 0.000000000000000e+00

0.000000000000000e+00 0.000000000000000e+00 0.000000000000000e+00
0.000000000000000e+00 0.000000000000000e+00 0.000000000000000e+00
0.000000000000000e+00 0.000000000000000e+00 0.000000000000000e+00

0.000000000000000e+00 0.000000000000000e+00 0.000000000000000e+00
0.000000000000000e+00 0.000000000000000e+00 0.000000000000000e+00
0.000000000000000e+00 0.000000000000000e+00 0.000000000000000e+00

0.000000000000000e+00 0.000000000000000e+00 0.000000000000000e+00
0.000000000000000e+00 0.000000000000000e+00 0.000000000000000e+00
0.000000000000000e+00 0.000000000000000e+00 0.000000000000000e+00

0.000000000000000e+00 0.000000000000000e+00 0.000000000000000e+00
0.000000000000000e+00 0.000000000000000e+00 0.000000000000000e+00
0.000000000000000e+00 0.000000000000000e+00 0.000000000000000e+00

0.000000000000000e+00 0.000000000000000e+00 0.000000000000000e+00
0.000000000000000e+00 0.000000000000000e+00 0.000000000000000e+00
0.000000000000000e+00 0.000000000000000e+00 0.000000000000000e+00

0.000000000000000e+00 0.000000000000000e+00 0.000000000000000e+00
0.000000000000000e+00 0.000000000000000e+00 0.000000000000000e+00
0.000000000000000e+00 0.000000000000000e+00 0.000000000000000e+00

0.000000000000000e+00 0.000000000000000e+00 0.000000000000000e+00
0.000000000000000e+00 0.000000000000000e+00 0.000000000000000e+00
0.000000000000000e+00 0.000000000000000e+00 0.000000000000000e+00

0.000000000000000e+00 0.000000000000000e+00 0.000000000000000e+00
0.000000000000000e+00 0.000000000000000e+00 0.000000000000000e+00
0.000000000000000e+00 0.000000000000000e+00 0.000000000000000e+00

0.000000000000000e+00 0.000000000000000e+00 0.000000000000000e+00
0.000000000000000e+00 0.000000000000000e+00 0.000000000000000e+00
0.000000000000000e+00 0.000000000000000e+00 0.000000000000000e+00

0.000000000000000e+00 0.000000000000000e+00 0.000000000000000e+00
0.000000000000000e+00 0.000000000000000e+00 0.000000000000000e+00
0.000000000000000e+00 0.000000000000000e+00 0.000000000000000e+00

0.000000000000000e+00 0.000000000000000e+00 0.000000000000000e+00
0.000000000000000e+00 0.000000000000000e+00 0.000000000000000e+00
0.000000000000000e+00 0.000000000000000e+00 0.000000000000000e+00

0.000000000000000e+00 0.000000000000000e+00 0.000000000000000e+00
0.000000000000000e+00 0.000000000000000e+00 0.000000000000000e+00
0.000000000000000e+00 0.000000000000000e+00 0.000000000000000e+00

0.000000000000000e+00 0.000000000000000e+00 0.000000000000000e+00
0.000000000000000e+00 0.000000000000000e+00 0.000000000000000e+00
0.000000000000000e+00 0.000000000000000e+00 0.000000000000000e+00

0.000000000000000e+00 0.000000000000000e+00 0.000000000000000e+00
0.000000000000000e+00 0.000000000000000e+00 0.000000000000000e+00
0.000000000000000e+00 0.000000000000000e+00 0.000000000000000e+00

0.000000000000000e+00 0.000000000000000e+00 0.000000000000000e+00
0.000000000000000e+00 0.000000000000000e+00 0.000000000000000e+00
0.000000000000000e+00 0.000000000000000e+00 0.000000000000000e+00

0.000000000000000e+00 0.000000000000000e+00 0.000000000000000e+00
0.000000000000000e+00 0.000000000000000e+00 0.000000000000000e+00
0.000000000000000e+00 0.000000000000000e+00 0.000000000000000e+00

0.000000000000000e+00 0.000000000000000e+00 0.000000000000000e+00
0.000000000000000e+00 0.000000000000000e+00 0.000000000000000e+00
0.000000000000000e+00 0.000000000000000e+00 0.000000000000000e+00

0.000000000000000e+00 0.000000000000000e+00 0.000000000000000e+00
0.000000000000000e+00 0.000000000000000e+00 0.000000000000000e+00
0.000000000000000e+00 0.000000000000000e+00 0.000000000000000e+00

0.000000000000000e+00 0.000000000000000e+00 0.000000000000000e+00
0.000000000000000e+00 0.000000000000000e+00 0.000000000000000e+00
0.000000000000000e+00 0.000000000000000e+00 0.000000000000000e+00

0.000000000000000e+00 0.000000000000000e+00 0.000000000000000e+00
0.000000000000000e+00 0.000000000000000e+00 0.000000000000000e+00
0.000000000000000e+00 0.000000000000000e+00 0.000000000000000e+00

0.000000000000000e+00 0.000000000000000e+00 0.000000000000000e+00
0.000000000000000e+00 0.000000000000000e+00 0.000000000000000e+00
0.000000000000000e+00 0.000000000000000e+00 0.000000000000000e+00

0.000000000000000e+00 0.000000000000000e+00 0.000000000000000e+00
0.000000000000000e+00 0.000000000000000e+00 0.000000000000000e+00
0.000000000000000e+00 0.000000000000000e+00 0.000000000000000e+00

0.000000000000000e+00 0.000000000000000e+00 0.000000000000000e+00
0.000000000000000e+00 0.000000000000000e+00 0.000000000000000e+00
0.000000000000000e+00 0.000000000000000e+00 0.000000000000000e+00

0.000000000000000e+00 0.000000000000000e+00 0.000000000000000e+00
0.000000000000000e+00 0.000000000000000e+00 0.000000000000000e+00
0.000000000000000e+00 0.000000000000000e+00 0.000000000000000e+00

0.000000000000000e+00 0.000000000000000e+00 0.000000000000000e+00
0.000000000000000e+00 0.000000000000000e+00 0.000000000000000e+00
0.000000000000000e+00 0.000000000000000e+00 0.000000000000000e+00

0.000000000000000e+00 0.000000000000000e+00 0.000000000000000e+00
0.000000000000000e+00 0.000000000000000e+00 0.000000000000000e+00
0.000000000000000e+00 0.000000000000000e+00 0.000000000000000e+00

0.000000000000000e+00 0.000000000000000e+00 0.000000000000000e+00
0.000000000000000e+00 0.000000000000000e+00 0.000000000000000e+00
0.000000000000000e+00 0.000000000000000e+00 0.000000000000000e+00

0.000000000000000e+00 0.000000000000000e+00 0.000000000000000e+00
0.000000000000000e+00 0.000000000000000e+00 0.000000000000000e+00
0.000000000000000e+00 0.000000000000000e+00 0.000000000000000e+00

0.000000000000000e+00 0.000000000000000e+00 0.000000000000000e+00
0.000000000000000e+00 0.000000000000000e+00 0.000000000000000e+00
0.000000000000000e+00 0.000000000000000e+00 0.000000000000000e+00

0.000000000000000e+00 0.000000000000000e+00 0.000000000000000e+00
0.000000000000000e+00 0.000000000000000e+00 0.000000000000000e+00
0.000000000000000e+00 0.000000000000000e+00 0.000000000000000e+00

0.000000000000000e+00 0.000000000000000e+00 0.000000000000000e+00
0.000000000000000e+00 0.000000000000000e+00 0.000000000000000e+00
0.000000000000000e+00 0.000000000000000e+00 0.000000000000000e+00

0.000000000000000e+00 0.000000000000000e+00 0.000000000000000e+00
0.000000000000000e+00 0.000000000000000e+00 0.000000000000000e+00
0.000000000000000e+00 0.000000000000000e+00 0.000000000000000e+00

0.000000000000000e+00 0.000000000000000e+00 0.000000000000000e+00
0.000000000000000e+00 0.000000000000000e+00 0.000000000000000e+00
0.000000000000000e+00 0.000000000000000e+00 0.000000000000000e+00

0.000000000000000e+00 0.000000000000000e+00 0.000000000000000e+00
0.000000000000000e+00 0.000000000000000e+00 0.000000000000000e+00
0.000000000000000e+00 0.000000000000000e+00 0.000000000000000e+00

0.000000000000000e+00 0.000000000000000e+00 0.000000000000000e+00
0.000000000000000e+00 0.000000000000000e+00 0.000000000000000e+00
0.000000000000000e+00 0.000000000000000e+00 0.000000000000000e+00

0.000000000000000e+00 0.000000000000000e+00 0.000000000000000e+00
0.000000000000000e+00 0.000000000000000e+00 0.000000000000000e+00
0.000000000000000e+00 0.000000000000000e+00 0.000000000000000e+00

0.000000000000000e+00 0.000000000000000e+00 0.000000000000000e+00
0.000000000000000e+00 0.000000000000000e+00 0.000000000000000e+00
0.000000000000000e+00 0.000000000000000e+00 0.000000000000000e+00

0.000000000000000e+00 0.000000000000000e+00 0.000000000000000e+00
0.000000000000000e+00 0.000000000000000e+00 0.000000000000000e+00
0.000000000000000e+00 0.000000000000000e+00 0.000000000000000e+00

0.000000000000000e+00 0.000000000000000e+00 0.000000000000000e+00
0.000000000000000e+00 0.000000000000000e+00 0.000000000000000e+00
0.000000000000000e+00 0.000000000000000e+00 0.000000000000000e+00

0.000000000000000e+00 0.000000000000000e+00 0.000000000000000e+00
0.000000000000000e+00 0.000000000000000e+00 0.000000000000000e+00
0.000000000000000e+00 0.000000000000000e+00 0.000000000000000e+00

0.000000000000000e+00 0.000000000000000e+00 0.000000000000000e+00
0.000000000000000e+00 0.000000000000000e+00 0.000000000000000e+00
0.000000000000000e+00 0.000000000000000e+00 0.000000000000000e+00

0.000000000000000e+00 0.000000000000000e+00 0.000000000000000e+00
0.000000000000000e+00 0.000000000000000e+00 0.000000000000000e+00
0.000000000000000e+00 0.000000000000000e+00 0.000000000000000e+00

0.000000000000000e+00 0.000000000000000e+00 0.000000000000000e+00
0.000000000000000e+00 0.000000000000000e+00 0.000000000000000e+00
0.000000000000000e+00 0.000000000000000e+00 0.000000000000000e+00

0.000000000000000e+00 0.000000000000000e+00 0.000000000000000e+00
0.000000000000000e+00 0.000000000000000e+00 0.000000000000000e+00
0.000000000000000e+00 0.000000000000000e+00 0.000000000000000e+00

0.000000000000000e+00 0.000000000000000e+00 0.000000000000000e+00
0.000000000000000e+00 0.000000000000000e+00 0.000000000000000e+00
0.000000000000000e+00 0.000000000000000e+00 0.000000000000000e+00

0.000000000000000e+00 0.000000000000000e+00 0.000000000000000e+00
0.000000000000000e+00 0.000000000000000e+00 0.000000000000000e+00
0.000000000000000e+00 0.000000000000000e+00 0.000000000000000e+00

0.000000000000000e+00 0.000000000000000e+00 0.000000000000000e+00
0.000000000000000e+00 0.000000000000000e+00 0.000000000000000e+00
0.000000000000000e+00 0.000000000000000e+00 0.000000000000000e+00

0.000000000000000e+00 0.000000000000000e+00 0.000000000000000e+00
0.000000000000000e+00 0.000000000000000e+00 0.000000000000000e+00
0.000000000000000e+00 0.000000000000000e+00 0.000000000000000e+00

0.000000000000000e+00 0.000000000000000e+00 0.000000000000000e+00
0.000000000000000e+00 0.000000000000000e+00 0.000000000000000e+00
0.000000000000000e+00 0.000000000000000e+00 0.000000000000000e+00

0.000000000000000e+00 0.000000000000000e+00 0.000000000000000e+00
0.000000000000000e+00 0.000000000000000e+00 0.000000000000000e+00
0.000000000000000e+00 0.000000000000000e+00 0.000000000000000e+00

0.000000000000000e+00 0.000000000000000e+00 0.000000000000000e+00
0.000000000000000e+00 0.000000000000000e+00 0.000000000000000e+00
0.000000000000000e+00 0.000000000000000e+00 0.000000000000000e+00

0.000000000000000e+00 0.000000000000000e+00 0.000000000000000e+00
0.000000000000000e+00 0.000000000000000e+00 0.000000000000000e+00
0.000000000000000e+00 0.000000000000000e+00 0.000000000000000e+00

0.000000000000000e+00 0.000000000000000e+00 0.000000000000000e+00
0.000000000000000e+00 0.000000000000000e+00 0.000000000000000e+00
0.000000000000000e+00 0.000000000000000e+00 0.000000000000000e+00

0.000000000000000e+00 0.000000000000000e+00 0.000000000000000e+00
0.000000000000000e+00 0.000000000000000e+00 0.000000000000000e+00
0.000000000000000e+00 0.000000000000000e+00 0.000000000000000e+00

0.000000000000000e+00 0.000000000000000e+00 0.000000000000000e+00
0.000000000000000e+00 0.000000000000000e+00 0.000000000000000e+00
0.000000000000000e+00 0.000000000000000e+00 0.000000000000000e+00

0.000000000000000e+00 0.000000000000000e+00 0.000000000000000e+00
0.000000000000000e+00 0.000000000000000e+00 0.000000000000000e+00
0.000000000000000e+00 0.000000000000000e+00 0.000000000000000e+00

0.000000000000000e+00 0.000000000000000e+00 0.000000000000000e+00
0.000000000000000e+00 0.000000000000000e+00 0.000000000000000e+00
0.000000000000000e+00 0.000000000000000e+00 0.000000000000000e+00

0.000000000000000e+00 0.000000000000000e+00 0.000000000000000e+00
0.000000000000000e+00 0.000000000000000e+00 0.000000000000000e+00
0.000000000000000e+00 0.000000000000000e+00 0.000000000000000e+00

0.000000000000000e+00 0.000000000000000e+00 0.000000000000000e+00
0.000000000000000e+00 0.000000000000000e+00 0.000000000000000e+00
0.000000000000000e+00 0.000000000000000e+00 0.000000000000000e+00

0.000000000000000e+00 0.000000000000000e+00 0.000000000000000e+00
0.000000000000000e+00 0.000000000000000e+00 0.000000000000000e+00
0.000000000000000e+00 0.000000000000000e+00 0.000000000000000e+00

0.000000000000000e+00 0.000000000000000e+00 0.000000000000000e+00
0.000000000000000e+00 0.000000000000000e+00 0.000000000000000e+00
0.000000000000000e+00 0.000000000000000e+00 0.000000000000000e+00

0.000000000000000e+00 0.000000000000000e+00 0.000000000000000e+00
0.000000000000000e+00 0.000000000000000e+00 0.000000000000000e+00
0.000000000000000e+00 0.000000000000000e+00 0.000000000000000e+00

0.000000000000000e+00 0.000000000000000e+00 0.000000000000000e+00
0.000000000000000e+00 0.000000000000000e+00 0.000000000000000e+00
0.000000000000000e+00 0.000000000000000e+00 0.000000000000000e+00

0.000000000000000e+00 0.000000000000000e+00 0.000000000000000e+00
0.000000000000000e+00 0.000000000000000e+00 0.000000000000000e+00
0.000000000000000e+00 0.000000000000000e+00 0.000000000000000e+00

0.000000000000000e+00 0.000000000000000e+00 0.000000000000000e+00
0.000000000000000e+00 0.000000000000000e+00 0.000000000000000e+00
0.000000000000000e+00 0.000000000000000e+00 0.000000000000000e+00

0.000000000000000e+00 0.000000000000000e+00 0.000000000000000e+00
0.000000000000000e+00 0.000000000000000e+00 0.000000000000000e+00
0.000000000000000e+00 0.000000000000000e+00 0.000000000000000e+00

 1.080851366588471e-17 -1.823679352007312e-19 -1.012354547837098e+00
-1.823679352007312e-19  1.393944012944841e-17  3.960376976289842e-01
-1.012354547837098e+00  3.960376976289842e-01  9.406238135511707e-18

 1.053683793698614e-17 -1.947561724479229e-19 -9.991561089439457e-01
-1.947561724479229e-19  1.343318949723006e-17  4.069657889715118e-01
-9.991561089439457e-01  4.069657889715118e-01  8.621643115253098e-18

 1.064430243575298e-17 -2.000283746333217e-19 -1.006855534290910e+00
-2.000283746333217e-19  1.290678843898301e-17  4.258325004218715e-01
-1.006855534290910e+00  4.258325004218715e-01  8.697169741358087e-18

 1.070520773508410e-17 -1.865789063141751e-19 -1.010815542171358e+00
-1.865789063141751e-19  1.262914522232812e-17  4.341754511314581e-01
-1.010815542171358e+00  4.341754511314581e-01  8.791591727273088e-18

 1.090838219801131e-17 -2.035636724296177e-19 -1.017800823793800e+00
-2.035636724296177e-19  1.399074291086553e-17  3.981659087460966e-01
-1.017800823793800e+00  3.981659087460966e-01  9.610437123383147e-18

 1.102754873194475e-17 -2.000588725412323e-19 -1.021867597682520e+00
-2.000588725412323e-19  1.450980944005743e-17  3.838796699213889e-01
-1.021867597682520e+00  3.838796699213889e-01  1.001060493271118e-17

 1.054657893559722e-17 -1.956239858749397e-19 -1.003790495510393e+00
-1.956239858749397e-19  1.340210287358312e-17  4.130338682008903e-01
-1.003790495510393e+00  4.130338682008903e-01  8.515207589034134e-18

 1.091048390715291e-17 -1.959312695598616e-19 -1.019539059642583e+00
-1.959312695598616e-19  1.353805880063906e-17  4.118757212259734e-01
-1.019539059642583e+00  4.118757212259734e-01  9.478141233405487e-18

 1.098912239195024e-17 -1.870117004492358e-19 -1.023352897663627e+00
-1.870117004492358e-19  1.334450923434331e-17  4.177692114254273e-01
-1.023352897663627e+00  4.177692114254273e-01  9.630918447642736e-18

 1.082373932320668e-17 -1.847099371713341e-19 -1.015638293363998e+00
-1.847099371713341e-19  1.325174116376891e-17  4.181433812071457e-01
-1.015638293363998e+00  4.181433812071457e-01  9.193465322412256e-18

 1.076422051859483e-17 -1.918569685515055e-19 -1.011511361752126e+00
-1.918569685515055e-19  1.347326737133659e-17  4.096624155870895e-01
-1.011511361752126e+00  4.096624155870895e-01  9.180766163089875e-18

 1.013827566570064e-17 -1.931951583523621e-19 -9.825829713708542e-01
-1.931951583523621e-19  1.306614487567274e-17  4.132624142469841e-01
-9.825829713708542e-01  4.132624142469841e-01  7.558989446117860e-18

 1.044938501814095e-17 -1.819219075210170e-19 -9.966169748609990e-01
-1.819219075210170e-19  1.329353834754302e-17  4.091887710182255e-01
-9.966169748609990e-01  4.091887710182255e-01  8.383413095680467e-18

 1.121465206084470e-17 -1.803275837610902e-19 -1.030975838898489e+00
-1.803275837610902e-19  1.351974886317614e-17  4.099740066710511e-01
-1.030975838898489e+00  4.099740066710511e-01  1.035772813434922e-17

 1.082622632359924e-17 -1.819985016324955e-19 -1.013542904957100e+00
-1.819985016324955e-19  1.357389708121090e-17  4.053429620298769e-01
-1.013542904957100e+00  4.053429620298769e-01  9.338678033796648e-18

 1.053482076703715e-17 -1.939792076807681e-19 -9.995460971866832e-01
-1.939792076807681e-19  1.356657086057659e-17  4.013780104870025e-01
-9.995460971866832e-01  4.013780104870025e-01  8.662221448341046e-18

 1.058954600197639e-17 -1.611508007908766e-19 -1.001552667883914e+00
-1.611508007908766e-19  1.275588381239135e-17  4.196257435604133e-01
-1.001552667883914e+00  4.196257435604133e-01  8.719779606743492e-18

 1.079544315196172e-17 -2.086332772243875e-19 -1.006721383210951e+00
-2.086332772243875e-19  1.465954271724855e-17  3.681247078784550e-01
-1.006721383210951e+00  3.681247078784550e-01  9.636678064201146e-18

 1.122624639196883e-17 -2.474097196713011e-21 -1.029890569282367e+00
-2.474097196713011e-21  1.533709691458316e-17  3.456256975089655e-01
-1.029890569282367e+00  3.456256975089655e-01  1.085695428095484e-17

 7.189402205604502e-18  9.264320864907234e-19 -8.932777157112762e-01
 9.264320864907234e-19  4.069248925062707e-18  6.076607856925701e-01
-8.932777157112762e-01  6.076607856925701e-01 -5.783435622239702e-19

 1.118178364044427e-17 -2.534671682985422e-19 -1.016774305450892e+00
-2.534671682985422e-19  1.406199639057308e-17  3.793806536860699e-01
-1.016774305450892e+00  3.793806536860699e-01  1.066534562763234e-17

 1.254149835437732e-17 -1.110024157374577e-18 -1.045871451229595e+00
-1.110024157374577e-18  1.975138889847925e-17  2.527586919971578e-01
-1.045871451229595e+00  2.527586919971578e-01  1.473181966375207e-17

 9.335307367213729e-18 -2.576008278938297e-19 -9.343335885478457e-01
-2.576008278938297e-19  9.326964793547425e-18  4.856651068007537e-01
-9.343335885478457e-01  4.856651068007537e-01  5.367996589373344e-18

 1.015853772320341e-17 -1.424678191757292e-19 -9.633502578032682e-01
-1.424678191757292e-19  1.159144822718719e-17  4.121155238394032e-01
-9.633502578032682e-01  4.121155238394032e-01  8.363987251344737e-18

 7.705159992687645e-18  1.509466599265287e-19 -8.606731836506530e-01
 1.509466599265287e-19  8.233595891519968e-18  4.675091415957982e-01
-8.606731836506530e-01  4.675091415957982e-01  1.819209011876596e-18

 7.398091782519806e-18  7.280622539471784e-19 -8.520756079625464e-01
 7.280622539471784e-19  1.578927035311770e-17  2.344616345405102e-01
-8.520756079625464e-01  2.344616345405102e-01  8.625616614031313e-19

 9.733685217997672e-18  9.564862684930105e-19 -9.621541606149931e-01
 9.564862684930105e-19  1.468780189866879e-17  2.714888554155789e-01
-9.621541606149931e-01  2.714888554155789e-01  6.719864677260686e-18

 9.706333590909001e-18 -1.808296608424178e-18 -9.257387167254589e-01
-1.808296608424178e-18  8.252754565606441e-18  5.881380367807594e-01
-9.257387167254589e-01  5.881380367807594e-01  8.078322473845026e-18

 1.252394775713763e-17 -2.229115231804866e-19 -1.088667048232815e+00
-2.229115231804866e-19  1.475394592907608e-17  3.815348772471446e-01
-1.088667048232815e+00  3.815348772471446e-01  1.411801294441316e-17

 1.181465047752787e-17 -1.187770279235684e-19 -1.065988493210024e+00
-1.187770279235684e-19  1.388082597340380e-17  4.047759877820744e-01
-1.065988493210024e+00  4.047759877820744e-01  1.188976125747510e-17

 1.181762188771447e-17 -1.663763941412723e-19 -1.063495754133152e+00
-1.663763941412723e-19  1.502420893790399e-17  3.737099115152351e-01
-1.063495754133152e+00  3.737099115152351e-01  1.218662872601045e-17

 1.091269359147373e-17 -1.637869949548043e-19 -1.025517113930366e+00
-1.637869949548043e-19  1.392511795801135e-17  3.972878555328652e-01
-1.025517113930366e+00  3.972878555328652e-01  9.696839774525441e-18

 1.057550311024610e-17 -1.673835954768394e-19 -1.010091717091006e+00
-1.673835954768394e-19  1.341132609601900e-17  4.072217237280643e-01
-1.010091717091006e+00  4.072217237280643e-01  8.731063274731230e-18

 1.069167542774869e-17 -1.730201258538820e-19 -1.014498588224560e+00
-1.730201258538820e-19  1.388618784068449e-17  3.932949740169128e-01
-1.014498588224560e+00  3.932949740169128e-01  9.296340749791738e-18

 1.055814688947084e-17 -1.622645031860358e-19 -1.008768826171165e+00
-1.622645031860358e-19  1.299611846366110e-17  4.153968921481459e-01
-1.008768826171165e+00  4.153968921481459e-01  8.719339711602460e-18

 1.042037612785772e-17 -1.674933797027951e-19 -1.004127590047321e+00
-1.674933797027951e-19  1.254965450467000e-17  4.263531846226332e-01
-1.004127590047321e+00  4.263531846226332e-01  8.384534203589317e-18

 1.056275386884527e-17 -1.824203929444075e-19 -1.008620252385487e+00
-1.824203929444075e-19  1.363274383896378e-17  3.970196667695685e-01
-1.008620252385487e+00  3.970196667695685e-01  9.007175061607018e-18

 1.079880444188754e-17 -1.646461289604517e-19 -1.019301049241052e+00
-1.646461289604517e-19  1.418202856943222e-17  3.828459174604525e-01
-1.019301049241052e+00  3.828459174604525e-01  9.751045891109364e-18

 1.049472963637437e-17 -1.821826665702256e-19 -1.008698634788383e+00
-1.821826665702256e-19  1.215670556955863e-17  4.381319050762080e-01
-1.008698634788383e+00  4.381319050762080e-01  8.520740374550853e-18

 9.896130583696902e-18 -1.482036771458401e-19 -9.851872843496911e-01
-1.482036771458401e-19  1.145255130293722e-17  4.546357311962007e-01
-9.851872843496911e-01  4.546357311962007e-01  6.691162941070148e-18

 1.223757297669794e-17 -2.227966631824451e-19 -1.076837536468864e+00
-2.227966631824451e-19  1.633551410919064e-17  3.309079751249090e-01
-1.076837536468864e+00  3.309079751249090e-01  1.408929910704990e-17

 1.123799344420674e-17 -1.336851743134973e-19 -1.039304518037842e+00
-1.336851743134973e-19  1.373433228716132e-17  3.942864148530524e-01
-1.039304518037842e+00  3.942864148530524e-01  1.094197128804609e-17

 8.976117694827134e-18  3.555012687424918e-19 -9.583511720833001e-01
 3.555012687424918e-19  7.637050396956452e-18  5.287789192677601e-01
-9.583511720833001e-01  5.287789192677601e-01  4.166334057279968e-18

 9.954769180075245e-18 -4.089076419707786e-19 -9.709314414482724e-01
-4.089076419707786e-19  1.439199983944098e-17  3.687358343172158e-01
-9.709314414482724e-01  3.687358343172158e-01  7.875689416730376e-18

 9.514939015412456e-18  7.920864570375880e-20 -9.627209652226498e-01
 7.920864570375880e-20  1.661405551984420e-17  2.868944856389162e-01
-9.627209652226498e-01  2.868944856389162e-01  6.917144536600519e-18

 9.647890709229889e-18 -6.661158224749271e-19 -9.650680503792808e-01
-6.661158224749271e-19  9.304678684621332e-18  5.271272437287399e-01
-9.650680503792808e-01  5.271272437287399e-01  6.166370650777555e-18

 1.149237681984482e-17 -2.111001667919831e-19 -1.056666822393567e+00
-2.111001667919831e-19  1.100217170115619e-17  4.774562884787853e-01
-1.056666822393567e+00  4.774562884787853e-01  1.108114839956096e-17

 1.112951796949946e-17 -2.858301985639148e-19 -1.036141944547580e+00
-2.858301985639148e-19  1.512306455654725e-17  3.637697482747096e-01
-1.036141944547580e+00  3.637697482747096e-01  1.088363585468167e-17

 1.066203042917449e-17 -1.871855839994245e-19 -1.018388383899472e+00
-1.871855839994245e-19  1.406313288218634e-17  3.846640725571479e-01
-1.018388383899472e+00  3.846640725571479e-01  9.467519643833337e-18

 9.983930802848237e-18 -2.011967504918295e-19 -9.933077427824433e-01
-2.011967504918295e-19  1.194994821119268e-17  4.407387924756516e-01
-9.933077427824433e-01  4.407387924756516e-01  7.296556614064634e-18

 1.052614315946854e-17 -1.915592439385371e-19 -1.016149257003811e+00
-1.915592439385371e-19  1.262814114356007e-17  4.237189266476120e-01
-1.016149257003811e+00  4.237189266476120e-01  8.956744620611243e-18

 1.069387603344116e-17 -1.987794323645466e-19 -1.021745648864451e+00
-1.987794323645466e-19  1.334832970163929e-17  4.039820073590381e-01
-1.021745648864451e+00  4.039820073590381e-01  9.598424873159291e-18

 1.056378288079345e-17 -1.953070935059883e-19 -1.016601841010366e+00
-1.953070935059883e-19  1.290508718964481e-17  4.151158106054855e-01
-1.016601841010366e+00  4.151158106054855e-01  9.209285800696633e-18

 1.016174317313409e-17 -1.709515185882437e-19 -1.000049786666772e+00
-1.709515185882437e-19  1.186956741986956e-17  4.387556249308482e-01
-1.000049786666772e+00  4.387556249308482e-01  8.009226213454743e-18

 1.046721354940456e-17 -2.036015587012509e-19 -1.009319678838488e+00
-2.036015587012509e-19  1.339311687371075e-17  3.970395276916158e-01
-1.009319678838488e+00  3.970395276916158e-01  9.152729585927193e-18

 1.056738258577082e-17 -1.727377330751760e-19 -1.014464894315827e+00
-1.727377330751760e-19  1.387872566372268e-17  3.823181666759037e-01
-1.014464894315827e+00  3.823181666759037e-01  9.604735379950100e-18

 9.943374341016196e-18 -1.862863279558995e-19 -9.895779070703542e-01
-1.862863279558995e-19  1.154502901711350e-17  4.445251635470427e-01
-9.895779070703542e-01  4.445251635470427e-01  7.341679317412752e-18

 1.035930912584913e-17 -1.791556556431292e-19 -1.008860640485590e+00
-1.791556556431292e-19  1.188989677845589e-17  4.365926046035284e-01
-1.008860640485590e+00  4.365926046035284e-01  8.636240956837770e-18

 1.063897743000751e-17 -1.850289104559258e-19 -1.019368211298567e+00
-1.850289104559258e-19  1.293127359606296e-17  4.081996845842981e-01
-1.019368211298567e+00  4.081996845842981e-01  9.572891804186501e-18

 1.031689119685640e-17 -1.834012199832178e-19 -1.006796265029491e+00
-1.834012199832178e-19  1.274865497266395e-17  4.106172195955800e-01
-1.006796265029491e+00  4.106172195955800e-01  8.781294855379456e-18

 9.977429174615305e-18 -1.806075628084238e-19 -9.932592940830607e-01
-1.806075628084238e-19  1.195317338225018e-17  4.296913064312339e-01
-9.932592940830607e-01  4.296913064312339e-01  7.740406184658600e-18

 1.000325630217211e-17 -1.815649249033601e-19 -9.951936468830550e-01
-1.815649249033601e-19  1.205339344124690e-17  4.271275483812107e-01
-9.951936468830550e-01  4.271275483812107e-01  7.864985575885684e-18

 1.024607157151747e-17 -1.862092025708623e-19 -1.005507284191825e+00
-1.862092025708623e-19  1.270748832182720e-17  4.098888444020636e-01
-1.005507284191825e+00  4.098888444020636e-01  8.686065655024168e-18

 1.026641835094498e-17 -1.867739942225303e-19 -1.006510930307396e+00
-1.867739942225303e-19  1.243511162618629e-17  4.168941839489434e-01
-1.006510930307396e+00  4.168941839489434e-01  8.693968780412141e-18

 1.022772430914615e-17 -1.916594069158573e-19 -1.006271086516398e+00
-1.916594069158573e-19  1.212446755103035e-17  4.261994325863624e-01
-1.006271086516398e+00  4.261994325863624e-01  8.528565387321937e-18

 1.027531846094883e-17 -1.898505658747856e-19 -1.009099623016695e+00
-1.898505658747856e-19  1.233652168817608e-17  4.204364434583822e-01
-1.009099623016695e+00  4.204364434583822e-01  8.738328454222765e-18

 1.023790427992063e-17 -1.923989563543004e-19 -1.008708010774093e+00
-1.923989563543004e-19  1.233058771721787e-17  4.204046390880350e-01
-1.008708010774093e+00  4.204046390880350e-01  8.673014403395534e-18

 1.015944951084140e-17 -1.936994662002914e-19 -1.006410698831092e+00
-1.936994662002914e-19  1.195106597811907e-17  4.301799941655453e-01
-1.006410698831092e+00  4.301799941655453e-01  8.395903464078663e-18

 1.016899893730471e-17 -1.980073633727977e-19 -1.007189220177967e+00
-1.980073633727977e-19  1.201177367989682e-17  4.276151141589245e-01
-1.007189220177967e+00  4.276151141589245e-01  8.519813315225657e-18

 9.882285128872413e-18 -2.027412077841856e-19 -9.957161715087193e-01
-2.027412077841856e-19  1.175653275095283e-17  4.326925230468188e-01
-9.957161715087193e-01  4.326925230468188e-01  7.739200047138306e-18

 9.454208143310855e-18 -1.941222268446921e-19 -9.789337658829798e-01
-1.941222268446921e-19  1.179769578798734e-17  4.289148494226666e-01
-9.789337658829798e-01  4.289148494226666e-01  6.678070590878610e-18

 1.034353015645209e-17  6.576342299999950e-20 -1.023738764101921e+00
 6.576342299999950e-20  1.478940263424109e-17  3.473225188261004e-01
-1.023738764101921e+00  3.473225188261004e-01  9.384143636076670e-18

 1.320452945604094e-17  1.971437301727595e-19 -1.148902298206371e+00
 1.971437301727595e-19  1.729144183549649e-17  2.894421507372692e-01
-1.148902298206371e+00  2.894421507372692e-01  1.741592924412575e-17

 1.136089046671456e-17 -5.059913555834105e-19 -1.068251345458265e+00
-5.059913555834105e-19  1.065305624050986e-17  5.025559860683394e-01
-1.068251345458265e+00  5.025559860683394e-01  1.121287936014701e-17

 1.150128266828896e-17 -2.449404746755178e-20 -1.083595521921418e+00
-2.449404746755178e-20  1.178572429446387e-17  4.512673392450697e-01
-1.083595521921418e+00  4.512673392450697e-01  1.180633544187079e-17

 1.377542395854161e-17 -6.801186325799002e-19 -1.152866437597556e+00
-6.801186325799002e-19  1.866109469568476e-17  2.851140512475899e-01
-1.152866437597556e+00  2.851140512475899e-01  1.938081749145020e-17

 1.089663817410904e-17 -4.879667569239029e-19 -1.038360677000553e+00
-4.879667569239029e-19  1.542483280852868e-17  3.528165440538714e-01
-1.038360677000553e+00  3.528165440538714e-01  1.111734122833468e-17

 9.208597469324912e-18 -2.271162543807355e-19 -9.735318545972018e-01
-2.271162543807355e-19  1.183152459327014e-17  4.272787344872678e-01
-9.735318545972018e-01  4.272787344872678e-01  6.205200298897624e-18

 1.020527954522619e-17 -1.834126367162353e-19 -1.016379253362148e+00
-1.834126367162353e-19  1.257967084995049e-17  4.083415572021548e-01
-1.016379253362148e+00  4.083415572021548e-01  9.100827819519242e-18

 9.990967992292617e-18 -2.359407676187821e-19 -1.008459517554259e+00
-2.359407676187821e-19  1.090847779506104e-17  4.557315846832937e-01
-1.008459517554259e+00  4.557315846832937e-01  8.132023621401721e-18

 9.908929069538640e-18 -1.906979138065588e-19 -1.006562216373725e+00
-1.906979138065588e-19  1.064093791863818e-17  4.605380600750330e-01
-1.006562216373725e+00  4.605380600750330e-01  7.933456681536587e-18

 1.057252453121914e-17 -2.417779898079510e-19 -1.029762422974029e+00
-2.417779898079510e-19  1.312355674693820e-17  3.942406587704493e-01
-1.029762422974029e+00  3.942406587704493e-01  1.027577340338689e-17

 9.824173945812184e-18 -2.199802951215850e-19 -9.998144638108925e-01
-2.199802951215850e-19  1.239711465434704e-17  4.088079608521764e-01
-9.998144638108925e-01  4.088079608521764e-01  8.233499586111316e-18

 9.536179962889155e-18 -2.134974685245294e-19 -9.883083877475843e-01
-2.134974685245294e-19  1.139775713041389e-17  4.337668415351424e-01
-9.883083877475843e-01  4.337668415351424e-01  7.206323637790607e-18

 1.011773465457382e-17 -2.001893970117546e-19 -1.015171364356317e+00
-2.001893970117546e-19  1.232229738912570e-17  4.111211719519630e-01
-1.015171364356317e+00  4.111211719519630e-01  9.067693043361236e-18

 9.840087078516998e-18 -2.332309023164492e-19 -1.005312116639094e+00
-2.332309023164492e-19  1.111396735065252e-17  4.454781565504149e-01
-1.005312116639094e+00  4.454781565504149e-01  8.028490926357157e-18

 9.930688547213610e-18 -2.264296840342859e-19 -1.010864188707863e+00
-2.264296840342859e-19  1.105963705094502e-17  4.478129064014492e-01
-1.010864188707863e+00  4.478129064014492e-01  8.279583476267348e-18

 1.030098337887209e-17 -2.228299618446230e-19 -1.026015269080494e+00
-2.228299618446230e-19  1.239326582752867e-17  4.113946047350107e-01
-1.026015269080494e+00  4.113946047350107e-01  9.630277829961300e-18

 1.016205745024757e-17 -2.236507654637218e-19 -1.019837167994538e+00
-2.236507654637218e-19  1.226360279951194e-17  4.128596133072625e-01
-1.019837167994538e+00  4.128596133072625e-01  9.271053699379624e-18

 9.899674734917782e-18 -2.238197800583013e-19 -1.009937427124178e+00
-2.238197800583013e-19  1.184613182224206e-17  4.231638415376168e-01
-1.009937427124178e+00  4.231638415376168e-01  8.518830004326029e-18

 9.914448756876811e-18 -2.259861812960870e-19 -1.010803654292959e+00
-2.259861812960870e-19  1.177674498041856e-17  4.227009266718595e-01
-1.010803654292959e+00  4.227009266718595e-01  8.672102571616031e-18

 9.998105760199058e-18 -2.260789768672272e-19 -1.014913192577527e+00
-2.260789768672272e-19  1.182792322293217e-17  4.204046471072940e-01
-1.014913192577527e+00  4.204046471072940e-01  8.940008977555931e-18

 9.950348166514211e-18 -2.264092093622783e-19 -1.014056870844161e+00
-2.264092093622783e-19  1.170598363567137e-17  4.230309328097423e-01
-1.014056870844161e+00  4.230309328097423e-01  8.890335813802063e-18

 9.929080700080676e-18 -2.254816444949565e-19 -1.013585945405852e+00
-2.254816444949565e-19  1.164999752098054e-17  4.231458728600479e-01
-1.013585945405852e+00  4.231458728600479e-01  8.881225332114811e-18

 9.871116437796389e-18 -2.221566558675461e-19 -1.012074390577261e+00
-2.221566558675461e-19  1.165114263215421e-17  4.198534931211847e-01
-1.012074390577261e+00  4.198534931211847e-01  8.872619887175980e-18

 9.804601331246964e-18 -2.187668313154105e-19 -1.009101039137879e+00
-2.187668313154105e-19  1.155276799274039e-17  4.206353892586959e-01
-1.009101039137879e+00  4.206353892586959e-01  8.724672454929401e-18

 9.760897180497010e-18 -2.151177478269446e-19 -1.007282041942847e+00
-2.151177478269446e-19  1.151748456061910e-17  4.199796259490355e-01
-1.007282041942847e+00  4.199796259490355e-01  8.638038789003513e-18

 9.719763887831304e-18 -2.137951230344880e-19 -1.008463158344698e+00
-2.137951230344880e-19  1.144538320478684e-17  4.193619833440348e-01
-1.008463158344698e+00  4.193619833440348e-01  8.676463569934740e-18

 9.797303648587839e-18 -2.156761930010102e-19 -1.014007232048634e+00
-2.156761930010102e-19  1.137828931684873e-17  4.204028156195695e-01
-1.014007232048634e+00  4.204028156195695e-01  8.963378293490003e-18

 9.700003886827413e-18 -2.160343189169072e-19 -1.011646197752696e+00
-2.160343189169072e-19  1.120506586340194e-17  4.235807873250101e-01
-1.011646197752696e+00  4.235807873250101e-01  8.751597490455040e-18

 9.720429922146452e-18 -2.173837241218150e-19 -1.012525988215777e+00
-2.173837241218150e-19  1.145763666669062e-17  4.152311163687395e-01
-1.012525988215777e+00  4.152311163687395e-01  8.874155693820884e-18

 9.700345398186368e-18 -2.115354866180585e-19 -1.013053645930063e+00
-2.115354866180585e-19  1.161467279319000e-17  4.101170481377535e-01
-1.013053645930063e+00  4.101170481377535e-01  8.953332658671070e-18

 9.707142753525071e-18 -2.176489312932946e-19 -1.014974615007547e+00
-2.176489312932946e-19  1.129665734769018e-17  4.183797602594720e-01
-1.014974615007547e+00  4.183797602594720e-01  8.942176368002301e-18

 9.848637480706095e-18 -2.182700351423275e-19 -1.022478379792179e+00
-2.182700351423275e-19  1.123913917651729e-17  4.189416206913436e-01
-1.022478379792179e+00  4.189416206913436e-01  9.404272228995201e-18

 9.771990064161039e-18 -2.142419933000754e-19 -1.020032025292678e+00
-2.142419933000754e-19  1.100332707505900e-17  4.230688361226765e-01
-1.020032025292678e+00  4.230688361226765e-01  9.226771427056608e-18

 9.564957779499866e-18 -2.170098964762043e-19 -1.011548314064652e+00
-2.170098964762043e-19  1.090906611205577e-17  4.216553382247564e-01
-1.011548314064652e+00  4.216553382247564e-01  8.785203393392891e-18

 9.516945765266610e-18 -2.265980465486776e-19 -1.009516893759949e+00
-2.265980465486776e-19  1.120039299489438e-17  4.116444771637323e-01
-1.009516893759949e+00  4.116444771637323e-01  8.829149113993964e-18

 9.615303595201714e-18 -2.168863518652241e-19 -1.013524477353738e+00
-2.168863518652241e-19  1.164769252276774e-17  3.963498068285150e-01
-1.013524477353738e+00  3.963498068285150e-01  9.331925237871965e-18

 9.402375932851330e-18 -2.308963413667389e-19 -1.005230336913644e+00
-2.308963413667389e-19  1.091976153384351e-17  4.137411763791020e-01
-1.005230336913644e+00  4.137411763791020e-01  8.671186234237904e-18

 9.045957952871040e-18 -2.321900312554488e-19 -9.918177270302848e-01
-2.321900312554488e-19  9.980536375003343e-18  4.382304279589446e-01
-9.918177270302848e-01  4.382304279589446e-01  7.549098302721108e-18

 9.445785236753915e-18 -2.317397310853782e-19 -1.008613661854983e+00
-2.317397310853782e-19  1.068549528418900e-17  4.159784391420036e-01
-1.008613661854983e+00  4.159784391420036e-01  8.981499679210423e-18

 9.436918714810478e-18 -2.442867062875260e-19 -1.006728912469785e+00
-2.442867062875260e-19  1.107407032331212e-17  4.013005830284663e-01
-1.006728912469785e+00  4.013005830284663e-01  9.166581539834264e-18

 9.308103571360616e-18 -2.364552970213763e-19 -1.002027111420891e+00
-2.364552970213763e-19  1.092462038960910e-17  4.029040580581292e-01
-1.002027111420891e+00  4.029040580581292e-01  9.000624967210443e-18

 9.083583789063098e-18 -2.356641845506350e-19 -9.916681963220222e-01
-2.356641845506350e-19  9.862978383286511e-18  4.280843901162577e-01
-9.916681963220222e-01  4.280843901162577e-01  8.213143258475729e-18

 8.949115261364022e-18 -2.013106777353356e-19 -9.865421181249223e-01
-2.013106777353356e-19  9.652316970967064e-18  4.297577965657567e-01
-9.865421181249223e-01  4.297577965657567e-01  8.045135474305467e-18

 8.988995695116243e-18 -2.071334979421047e-19 -9.855151915576654e-01
-2.071334979421047e-19  1.060742276341605e-17  4.003923786094477e-01
-9.855151915576654e-01  4.003923786094477e-01  8.435267485776134e-18

 9.005082017507069e-18 -1.672560401256944e-19 -9.867236631451828e-01
-1.672560401256944e-19  1.114543965134384e-17  3.809995621934794e-01
-9.867236631451828e-01  3.809995621934794e-01  8.719722324584868e-18

 8.732390489127279e-18 -1.572970064954300e-19 -9.782455168527947e-01
-1.572970064954300e-19  9.213403091451408e-18  4.310657386055696e-01
-9.782455168527947e-01  4.310657386055696e-01  7.607968442296318e-18

 9.085259086312207e-18 -1.358475719256798e-19 -9.964972621611216e-01
-1.358475719256798e-19  9.213166935638364e-18  4.298853481021574e-01
-9.964972621611216e-01  4.298853481021574e-01  8.611353880146373e-18

 8.924751620063345e-18 -1.545734001089098e-19 -9.926707854524608e-01
-1.545734001089098e-19  1.024823727051205e-17  3.968985432267231e-01
-9.926707854524608e-01  3.968985432267231e-01  8.509695743222420e-18

 9.006096099117993e-18 -1.570739006004187e-19 -1.001586244679217e+00
-1.570739006004187e-19  9.969037503289580e-18  4.014372218985615e-01
-1.001586244679217e+00  4.014372218985615e-01  8.819098828191774e-18

 9.124695017753735e-18 -1.415382256611780e-19 -1.011199076174282e+00
-1.415382256611780e-19  9.024124945715598e-18  4.242564287525097e-01
-1.011199076174282e+00  4.242564287525097e-01  9.083856324697034e-18

 8.581590343826898e-18 -1.273900462045188e-19 -9.900569033324863e-01
-1.273900462045188e-19  8.586173202567047e-18  4.298500621675955e-01
-9.900569033324863e-01  4.298500621675955e-01  7.623105649901030e-18

 8.814095750608196e-18 -2.161877821000093e-19 -9.977825378322707e-01
-2.161877821000093e-19  1.035998085592221e-17  3.811039441884609e-01
-9.977825378322707e-01  3.811039441884609e-01  8.824993143543997e-18

 8.688181942206293e-18 -2.011481042440851e-19 -9.954662168380438e-01
-2.011481042440851e-19  9.769139871645726e-18  3.915534534512144e-01
-9.954662168380438e-01  3.915534534512144e-01  8.513515945209671e-18

 8.679829614889968e-18 -1.985912385813477e-19 -9.996419980088613e-01
-1.985912385813477e-19  8.326515208177012e-18  4.269642882415473e-01
-9.996419980088613e-01  4.269642882415473e-01  8.398468663363596e-18

 8.661409651422019e-18 -2.049996720751361e-19 -1.000296340841819e+00
-2.049996720751361e-19  8.482690038719024e-18  4.173529648882809e-01
-1.000296340841819e+00  4.173529648882809e-01  8.596072769755686e-18

 8.133477933861174e-18 -2.180331104947541e-19 -9.790061491004891e-01
-2.180331104947541e-19  7.859692296132724e-18  4.259699975811486e-01
-9.790061491004891e-01  4.259699975811486e-01  7.330267723449215e-18

 7.738742051226163e-18 -2.455108513803448e-19 -9.625389576641071e-01
-2.455108513803448e-19  7.754895315705889e-18  4.234833489747045e-01
-9.625389576641071e-01  4.234833489747045e-01  6.474219812291989e-18

 8.232116964696353e-18 -2.760955605690609e-19 -9.823207010319568e-01
-2.760955605690609e-19  9.409418453008505e-18  3.752108417334396e-01
-9.823207010319568e-01  3.752108417334396e-01  8.434740127955720e-18

 8.717762537049177e-18 -2.571454972338909e-19 -1.003554763644634e+00
-2.571454972338909e-19  9.598646906633669e-18  3.673909412259114e-01
-1.003554763644634e+00  3.673909412259114e-01  9.939600510104636e-18

 6.738395448176691e-18 -3.001446100491994e-19 -9.250612856652639e-01
-3.001446100491994e-19  5.815184675867191e-18  4.654482418194261e-01
-9.250612856652639e-01  4.654482418194261e-01  3.822107917511654e-18

 7.493316776372764e-18 -2.832005849620317e-19 -9.606190552009788e-01
-2.832005849620317e-19  7.392333596734217e-18  4.225809515764448e-01
-9.606190552009788e-01  4.225809515764448e-01  6.371654710716101e-18

 7.750685653070196e-18 -2.668485674556275e-19 -9.787027603129208e-01
-2.668485674556275e-19  8.075897281919618e-18  4.056611838239587e-01
-9.787027603129208e-01  4.056611838239587e-01  7.272914985379688e-18

 7.753315950327534e-18 -3.588474076861208e-19 -9.831499338601383e-01
-3.588474076861208e-19  6.936851599107525e-18  4.434771235571246e-01
-9.831499338601383e-01  4.434771235571246e-01  6.992530527711927e-18

 8.570578430689777e-18 -3.344097174412587e-19 -1.023239081027269e+00
-3.344097174412587e-19  8.111573433929470e-18  4.165160321766702e-01
-1.023239081027269e+00  4.165160321766702e-01  9.520347252320187e-18

 8.851201591050707e-18 -3.272274480329651e-19 -1.039836671928190e+00
-3.272274480329651e-19  8.238627976255113e-18  4.152196363883921e-01
-1.039836671928190e+00  4.152196363883921e-01  1.034096296951855e-17

 8.441028883506854e-18 -2.926483533255942e-19 -1.028176286484645e+00
-2.926483533255942e-19  6.915408601327951e-18  4.451494559963072e-01
-1.028176286484645e+00  4.451494559963072e-01  9.214892974742680e-18

 7.282362865886149e-18 -2.607469718167286e-19 -9.824485170005232e-01
-2.607469718167286e-19  6.058747119646304e-18  4.586093099688108e-01
-9.824485170005232e-01  4.586093099688108e-01  6.068195796724586e-18

 7.893741971265493e-18 -3.304270108615013e-19 -1.006377968342053e+00
-3.304270108615013e-19  8.869579775426470e-18  3.809651946510433e-01
-1.006377968342053e+00  3.809651946510433e-01  8.528453485962343e-18

 9.500144751305768e-18 -1.767863240417267e-19 -1.079772547170258e+00
-1.767863240417267e-19  1.051350410972385e-17  3.303817106154120e-01
-1.079772547170258e+00  3.303817106154120e-01  1.336074151451558e-17

 6.843779352527516e-18 -4.201628085503457e-19 -9.718928226935544e-01
-4.201628085503457e-19  4.547498391773537e-18  4.950172405269798e-01
-9.718928226935544e-01  4.950172405269798e-01  5.032810375428342e-18

 8.166964951969818e-18 -3.420846587221977e-19 -1.034391209483884e+00
-3.420846587221977e-19  5.830502893673444e-18  4.581009835602674e-01
-1.034391209483884e+00  4.581009835602674e-01  9.101899860044294e-18

 8.586342352333770e-18 -3.868651678287177e-19 -1.053578590946410e+00
-3.868651678287177e-19  8.360656066407083e-18  3.851969685853894e-01
-1.053578590946410e+00  3.851969685853894e-01  1.098366868473837e-17

 7.467084169579880e-18 -3.716469741498685e-19 -1.013286569994828e+00
-3.716469741498685e-19  6.325299356163866e-18  4.282207967373449e-01
-1.013286569994828e+00  4.282207967373449e-01  7.909899149632309e-18

 7.374489143316764e-18 -3.850901810504509e-19 -1.012224778934576e+00
-3.850901810504509e-19  6.060894642478046e-18  4.300608964972598e-01
-1.012224778934576e+00  4.300608964972598e-01  7.840799094233740e-18

 7.576868073500966e-18 -4.100084076111267e-19 -1.023872279326602e+00
-4.100084076111267e-19  6.508686858733696e-18  4.140180555059232e-01
-1.023872279326602e+00  4.140180555059232e-01  8.747359371569903e-18

 7.310391056714484e-18 -4.292217331704802e-19 -1.017165535232713e+00
-4.292217331704802e-19  5.784034279548185e-18  4.274570427735144e-01
-1.017165535232713e+00  4.274570427735144e-01  8.166984916123245e-18

 7.301127599068952e-18 -4.496116935922938e-19 -1.021482817035063e+00
-4.496116935922938e-19  5.539059875391613e-18  4.286361559863548e-01
-1.021482817035063e+00  4.286361559863548e-01  8.414610454109940e-18

 7.161989287404976e-18 -4.835085245575074e-19 -1.022459490565743e+00
-4.835085245575074e-19  5.243522313300654e-18  4.258207324982337e-01
-1.022459490565743e+00  4.258207324982337e-01  8.521163695346919e-18

 6.922749731668135e-18 -5.181154970544004e-19 -1.019812104386041e+00
-5.181154970544004e-19  4.741217199313861e-18  4.256069302468065e-01
-1.019812104386041e+00  4.256069302468065e-01  8.409621651723795e-18

 6.719307819850524e-18 -5.479177555930405e-19 -1.017597899638897e+00
-5.479177555930405e-19  4.368259395923155e-18  4.233086416310805e-01
-1.017597899638897e+00  4.233086416310805e-01  8.313330611872417e-18

 6.515017921596951e-18 -5.820537339954736e-19 -1.018952008677128e+00
-5.820537339954736e-19  3.746699253835616e-18  4.248546808128989e-01
-1.018952008677128e+00  4.248546808128989e-01  8.370562134441067e-18

 6.234381798712268e-18 -6.233074232709871e-19 -1.014747384339175e+00
-6.233074232709871e-19  3.097415504214819e-18  4.282109888406788e-01
-1.014747384339175e+00  4.282109888406788e-01  8.047769262884366e-18

 6.027401566671575e-18 -6.463629814582156e-19 -1.014238333806190e+00
-6.463629814582156e-19  3.059309889589397e-18  4.174218862228716e-01
-1.014238333806190e+00  4.174218862228716e-01  8.108060424449054e-18

 5.858208559973517e-18 -7.140220674486020e-19 -1.014628916618162e+00
-7.140220674486020e-19  2.397128905435012e-18  4.193387332510629e-01
-1.014628916618162e+00  4.193387332510629e-01  8.058950812609282e-18

 5.451509159890609e-18 -6.628147125614503e-19 -1.033146641529603e+00
-6.628147125614503e-19  1.417533394403097e-18  4.200978508225596e-01
-1.033146641529603e+00  4.200978508225596e-01  9.138842433899629e-18

 2.022709609726286e-18 -1.793388392731933e-20 -1.011203206584446e+00
-1.793388392731933e-20 -2.815889947048218e-19  4.317583818543514e-01
-1.011203206584446e+00  4.317583818543514e-01  7.667181043554157e-18

 2.056421326099876e-17 -5.407261706945409e-18 -1.000421312962918e+00
-5.407261706945409e-18  1.380088780699445e-18  4.078165643394249e-01
-1.000421312962918e+00  4.078165643394249e-01  7.401539956826329e-18

 4.319499969610256e-17 -1.203224065172127e-17 -9.866833494977866e-01
-1.203224065172127e-17  1.767585390117359e-18  4.184183963055012e-01
-9.866833494977866e-01  4.184183963055012e-01  6.422361999189726e-18

 4.312584409182863e-17 -1.212032928224511e-17 -1.001027913491101e+00
-1.212032928224511e-17  7.300735188041720e-19  4.228357117360658e-01
-1.001027913491101e+00  4.228357117360658e-01  7.120712059499089e-18

 4.307598349325768e-17 -1.220830831419515e-17 -1.016868883548254e+00
-1.220830831419515e-17 -5.673653760755963e-21  4.201860347611687e-01
-1.016868883548254e+00  4.201860347611687e-01  7.882032768062480e-18

 3.567267171846243e-18 -1.415877482977758e-18 -1.025693710538738e+00
-1.415877482977758e-18 -4.363919259265807e-18  4.165569763717102e-01
-1.025693710538738e+00  4.165569763717102e-01  8.163700721177346e-18

 2.527999065899872e-18 -1.503545850524376e-18 -1.019326611508584e+00
-1.503545850524376e-18 -5.816518540550837e-18  4.154466909641988e-01
-1.019326611508584e+00  4.154466909641988e-01  7.610104179463852e-18

 1.745058004170994e-18 -1.699685598126370e-18 -1.013774199268442e+00
-1.699685598126370e-18 -7.521929023855839e-18  4.160108719562583e-01
-1.013774199268442e+00  4.160108719562583e-01  7.206915551236771e-18

 1.088162722241890e-18 -1.860566517531113e-18 -1.007550603612086e+00
-1.860566517531113e-18 -9.179483112839907e-18  4.226990744352994e-01
-1.007550603612086e+00  4.226990744352994e-01  6.705619797060187e-18

 4.980460021226479e-19 -2.061292270721427e-18 -1.007267918080954e+00
-2.061292270721427e-18 -1.044920756791020e-17  4.159213765768134e-01
-1.007267918080954e+00  4.159213765768134e-01  6.680541025450591e-18

-6.898365256146375e-19 -2.431749659311636e-18 -1.005324592421372e+00
-2.431749659311636e-18 -1.325925211777415e-17  4.147776669383966e-01
-1.005324592421372e+00  4.147776669383966e-01  6.299205794123786e-18

-1.972306852158091e-18 -2.910366736147914e-18 -1.010510144509881e+00
-2.910366736147914e-18 -1.659592837662829e-17  4.146213148169043e-01
-1.010510144509881e+00  4.146213148169043e-01  6.207112451892819e-18

-3.941060918382338e-18 -3.649134575673654e-18 -1.008564692127134e+00
-3.649134575673654e-18 -2.120366883681026e-17  4.140427765951394e-01
-1.008564692127134e+00  4.140427765951394e-01  5.634336646912906e-18

-6.162100069653681e-18 -4.521803575820176e-18 -1.003537239430496e+00
-4.521803575820176e-18 -2.633169174529155e-17  4.150110977569454e-01
-1.003537239430496e+00  4.150110977569454e-01  4.918084705744216e-18

-8.160340782154711e-18 -5.323794150144801e-18 -9.962686145533103e-01
-5.323794150144801e-18 -3.106246932820752e-17  4.227652328983620e-01
-9.962686145533103e-01  4.227652328983620e-01  4.056318118115539e-18

-1.149963341149114e-17 -6.659642949073322e-18 -9.663130444740834e-01
-6.659642949073322e-18 -3.704060358879087e-17  4.176779502514469e-01
-9.663130444740834e-01  4.176779502514469e-01  1.738306245966241e-18

-1.206351259331299e-17 -7.508769381939199e-18 -1.013689183964201e+00
-7.508769381939199e-18 -3.855065654800943e-17  3.578232590343187e-01
-1.013689183964201e+00  3.578232590343187e-01  4.954360079015257e-18

-1.515908893658264e-17 -8.351073517625342e-18 -9.852175586291662e-01
-8.351073517625342e-18 -4.641091028576233e-17  4.228417378664520e-01
-9.852175586291662e-01  4.228417378664520e-01  1.607071741053564e-18

-1.986128892413012e-17 -1.070097853980703e-17 -1.015271779598186e+00
-1.070097853980703e-17 -5.788684934318360e-17  4.166955453996367e-01
-1.015271779598186e+00  4.166955453996367e-01  1.783114269853865e-18

-2.368541151881641e-17 -1.250213029673496e-17 -1.010751483969141e+00
-1.250213029673496e-17 -6.585206681940160e-17  4.123236254670306e-01
-1.010751483969141e+00  4.123236254670306e-01  5.163126086362589e-19

-2.908567457406780e-17 -1.512860973372955e-17 -1.005699757560981e+00
-1.512860973372955e-17 -7.742435860508440e-17  4.206436579059880e-01
-1.005699757560981e+00  4.206436579059880e-01 -1.298587671804105e-18

-3.683283533032015e-17 -1.906794113111322e-17 -1.008437747659156e+00
-1.906794113111322e-17 -9.380019831168076e-17  4.180772219928222e-01
-1.008437747659156e+00  4.180772219928222e-01 -3.229526464777451e-18

-4.417080572206760e-17 -2.289175580317766e-17 -1.015889462975947e+00
-2.289175580317766e-17 -1.094829546191824e-16  4.224943640900780e-01
-1.015889462975947e+00  4.224943640900780e-01 -4.873535858966305e-18

-5.103751916476291e-17 -2.802385226413946e-17 -1.022614094695586e+00
-2.802385226413946e-17 -1.241185250679695e-16  4.228063177009903e-01
-1.022614094695586e+00  4.228063177009903e-01 -1.013065028079504e-17

-7.103854247098602e-17 -3.756084615638810e-17 -1.022193719554983e+00
-3.756084615638810e-17 -1.620306036322964e-16  4.198921504037433e-01
-1.022193719554983e+00  4.198921504037433e-01 -1.145515661155491e-17

-8.218779314587462e-17 -4.377729999147051e-17 -1.022012567474373e+00
-4.377729999147051e-17 -1.826352675549933e-16  4.198391429077961e-01
-1.022012567474373e+00  4.198391429077961e-01 -1.426272260843506e-17

-1.037895424237467e-16 -5.582669509869427e-17 -1.025990251581075e+00
-5.582669509869427e-17 -2.218728046517086e-16  4.269975733994668e-01
-1.025990251581075e+00  4.269975733994668e-01 -1.945150432854888e-17

-1.274341612148484e-16 -6.914043535597379e-17 -1.023085336149158e+00
-6.914043535597379e-17 -2.616988042917802e-16  4.326873367845496e-01
-1.023085336149158e+00  4.326873367845496e-01 -2.540133268871363e-17

-1.710643691542389e-16 -9.426790008018853e-17 -1.007773471282086e+00
-9.426790008018853e-17 -3.277684938402075e-16  4.283528634560451e-01
-1.007773471282086e+00  4.283528634560451e-01 -3.652377445890571e-17

-2.689576944075808e-16 -1.477491834920654e-16 -1.005887602848796e+00
-1.477491834920654e-16 -4.634022966139142e-16  4.283676238187855e-01
-1.005887602848796e+00  4.283676238187855e-01 -5.989657214382815e-17

-4.039598706317434e-16 -2.148420386516713e-16 -1.021467984956732e+00
-2.148420386516713e-16 -6.304396385330691e-16  4.266696337086630e-01
-1.021467984956732e+00  4.266696337086630e-01 -9.120205110427802e-17

-5.810960056691593e-16 -2.943744737894281e-16 -1.028511267112260e+00
-2.943744737894281e-16 -8.159549272683465e-16  4.213710621483744e-01
-1.028511267112260e+00  4.213710621483744e-01 -1.332554306292314e-16

-8.670569048100215e-16 -4.028868740596143e-16 -1.033476559595908e+00
-4.028868740596143e-16 -1.070115732652402e-15  4.259964739510249e-01
-1.033476559595908e+00  4.259964739510249e-01 -2.030565652344692e-16

-1.300393282387140e-15 -5.314579941944554e-16 -1.026868947181767e+00
-5.314579941944554e-16 -1.370320923681757e-15  4.238492455952130e-01
-1.026868947181767e+00  4.238492455952130e-01 -3.146099240321820e-16

-1.977327346805763e-15 -6.573752975386014e-16 -1.018352989931250e+00
-6.573752975386014e-16 -1.740887273882407e-15  4.173659174751974e-01
-1.018352989931250e+00  4.173659174751974e-01 -5.043473314963813e-16

-2.567089026858595e-15 -7.011871083430389e-16 -1.016167079373454e+00
-7.011871083430389e-16 -2.041835851339946e-15  4.212607570682595e-01
-1.016167079373454e+00  4.212607570682595e-01 -6.861416472307615e-16

-3.246190430679435e-15 -6.922591125194031e-16 -1.016816922897471e+00
-6.922591125194031e-16 -2.380781378266925e-15  4.233155742664825e-01
-1.016816922897471e+00  4.233155742664825e-01 -9.152240095293646e-16

-4.534523138613067e-15 -5.035719114705914e-16 -1.023817614878897e+00
-5.035719114705914e-16 -3.041977148962163e-15  4.208311747203237e-01
-1.023817614878897e+00  4.208311747203237e-01 -1.423983505153115e-15

-6.639225555015696e-15 -3.767655174212930e-17 -1.018423052197394e+00
-3.767655174212930e-17 -4.303755031904146e-15  4.346542325360206e-01
-1.018423052197394e+00  4.346542325360206e-01 -2.373594613113234e-15

-9.077865783465483e-15  6.942629313102284e-16 -9.810606664686555e-01
 6.942629313102284e-16 -5.909019283860129e-15  4.645063641568318e-01
-9.810606664686555e-01  4.645063641568318e-01 -3.658753259343159e-15

-1.327610296877679e-14  1.923388025929090e-15 -9.939717100725074e-01
 1.923388025929090e-15 -7.833674652103994e-15  4.241475918019481e-01
-9.939717100725074e-01  4.241475918019481e-01 -6.091459022170747e-15

 1.498675811111727e-14  2.453247787003772e-14 -9.743319374978829e-01
 2.453247787003772e-14  1.064395763090339e-14  4.197118521791443e-01
-9.743319374978829e-01  4.197118521791443e-01 -4.018344846707986e-15

-6.428308528287465e-13 -1.575145128338855e-13 -1.056056717316763e+00
-1.575145128338855e-13 -2.836931028432573e-13  3.669825312098624e-01
-1.056056717316763e+00  3.669825312098624e-01 -2.011730532688506e-13

 1.716223443318790e-14 -1.114546733130473e-15 -1.068913259029204e+00
-1.114546733130473e-15  1.240190911893742e-15  4.401883334940859e-01
-1.068913259029204e+00  4.401883334940859e-01 -6.250409960860862e-15

-8.425394533423534e-15 -9.844205920981788e-15 -9.682644382527615e-01
-9.844205920981788e-15 -1.107495660619754e-14  3.865291711886953e-01
-9.682644382527615e-01  3.865291711886953e-01 -7.704850597652432e-15

-6.538227212849197e-13 -1.562480567369722e-13 -1.076676980880749e+00
-1.562480567369722e-13 -3.440469673605541e-13  4.246291838304260e-01
-1.076676980880749e+00  4.246291838304260e-01 -1.477783140479728e-13

-4.304872764980168e-15 -6.725713049250344e-15 -1.061873595013428e+00
-6.725713049250344e-15 -4.898827005165760e-15  2.855476140160454e-01
-1.061873595013428e+00  2.855476140160454e-01 -3.872139462397245e-15

-3.589653331263082e-15 -5.814590812307589e-15 -9.438700786366974e-01
-5.814590812307589e-15 -1.886246410445279e-15  4.943028852884203e-01
-9.438700786366974e-01  4.943028852884203e-01 -2.855839291127085e-15

-2.936081411716049e-15 -3.607222411238542e-15 -1.029888655559012e+00
-3.607222411238542e-15 -4.381952717433686e-16  4.728922267474155e-01
-1.029888655559012e+00  4.728922267474155e-01 -1.758509581637826e-15

-1.950127751736974e-15 -1.552147054409115e-15 -9.959987946858114e-01
-1.552147054409115e-15 -1.250908436941089e-16  4.207309326139755e-01
-9.959987946858114e-01  4.207309326139755e-01 -9.033525377205607e-16

-1.332746473864471e-15 -6.833544511301568e-16 -9.402327153869475e-01
-6.833544511301568e-16 -1.082038194496777e-16  4.188825418149738e-01
-9.402327153869475e-01  4.188825418149738e-01 -5.239911922838312e-16

-9.292677616228948e-16 -2.856388441844472e-16 -9.639581833664739e-01
-2.856388441844472e-16 -1.253692697004294e-16  4.109025274384750e-01
-9.639581833664739e-01  4.109025274384750e-01 -3.199407143401078e-16

-6.474969235143497e-16 -1.047169971644567e-16 -1.075449335376755e+00
-1.047169971644567e-16 -1.492658169186467e-16  3.978308427980428e-01
-1.075449335376755e+00  3.978308427980428e-01 -1.971140590965885e-16

-4.510313187389856e-16 -3.100831904642229e-17 -1.185781501970748e+00
-3.100831904642229e-17 -1.616826731338809e-16  4.391823591798497e-01
-1.185781501970748e+00  4.391823591798497e-01 -1.225115474403332e-16

-3.408690881869645e-16 -6.306386412855283e-18 -1.086914636630785e+00
-6.306386412855283e-18 -1.511881464603403e-16  4.214014048497414e-01
-1.086914636630785e+00  4.214014048497414e-01 -9.282246334232933e-17

-2.521919957696991e-16  8.004788195834167e-18 -9.063569662365502e-01
 8.004788195834167e-18 -1.306441190006825e-16  4.131353796583744e-01
-9.063569662365502e-01  4.131353796583744e-01 -7.392175331955323e-17

-1.908614320496687e-16  1.377727429865457e-17 -9.374641764117297e-01
 1.377727429865457e-17 -1.157344563077383e-16  4.054998655588190e-01
-9.374641764117297e-01  4.054998655588190e-01 -5.319982571658630e-17

-1.570588441068576e-16  1.433028352326706e-17 -9.777324651785253e-01
 1.433028352326706e-17 -1.082727328712117e-16  4.457477748211275e-01
-9.777324651785253e-01  4.457477748211275e-01 -4.099257651454735e-17

-1.278052624548238e-16  1.392085507967426e-17 -1.024940038608004e+00
 1.392085507967426e-17 -9.708479453842649e-17  4.305403336306116e-01
-1.024940038608004e+00  4.305403336306116e-01 -2.976173944021404e-17

-1.010318055964589e-16  1.308454072696189e-17 -1.025820095015370e+00
 1.308454072696189e-17 -8.393545589547446e-17  4.177727976109604e-01
-1.025820095015370e+00  4.177727976109604e-01 -2.188619253673392e-17

-8.379160480725348e-17  1.220361392418530e-17 -1.010131259998791e+00
 1.220361392418530e-17 -7.392239507407742e-17  4.081428678770515e-01
-1.010131259998791e+00  4.081428678770515e-01 -1.755856140822588e-17

-6.971925769919827e-17  1.105709229231375e-17 -1.001974764152849e+00
 1.105709229231375e-17 -6.488019092188486e-17  4.036502176256282e-01
-1.001974764152849e+00  4.036502176256282e-01 -1.385726276523624e-17

-5.858507536326388e-17  9.838984002216949e-18 -1.011752749364968e+00
 9.838984002216949e-18 -5.863627108564936e-17  4.225451765688498e-01
-1.011752749364968e+00  4.225451765688498e-01 -1.032601287593979e-17

-5.170660591275073e-17  9.036762512845817e-18 -1.022744078934807e+00
 9.036762512845817e-18 -5.376885241738618e-17  4.206402016335802e-01
-1.022744078934807e+00  4.206402016335802e-01 -7.693448271417889e-18

-4.221459393067060e-17  7.946664224536467e-18 -1.020601574829311e+00
 7.946664224536467e-18 -4.616209403620744e-17  4.113272301752204e-01
-1.020601574829311e+00  4.113272301752204e-01 -4.906378118804087e-18

-3.398283354411727e-17  6.866232822201166e-18 -1.003366979621790e+00
 6.866232822201166e-18 -3.919989184231493e-17  4.140542647882001e-01
-1.003366979621790e+00  4.140542647882001e-01 -3.311422767734743e-18

-2.749754880278562e-17  5.925125552881832e-18 -9.876815046052531e-01
 5.925125552881832e-18 -3.326478549365496e-17  4.150623128233542e-01
-9.876815046052531e-01  4.150623128233542e-01 -2.097738331808057e-18

-2.288084864889672e-17  5.206653063152973e-18 -9.861791761948810e-01
 5.206653063152973e-18 -2.904084533626583e-17  4.178679990116936e-01
-9.861791761948810e-01  4.178679990116936e-01 -7.397217687941276e-19

-2.005018173163919e-17  4.706121031792357e-18 -9.780269120932240e-01
 4.706121031792357e-18 -2.671551109976889e-17  4.327623394704547e-01
-9.780269120932240e-01  4.327623394704547e-01 -4.737736311740524e-19

-1.716594091485733e-17  4.256580371085852e-18 -9.733215039023516e-01
 4.256580371085852e-18 -2.285738923698586e-17  4.105017680823526e-01
-9.733215039023516e-01  4.105017680823526e-01  2.820919334029931e-19

-1.413786781765621e-17  4.041111580255775e-18 -1.027378197999123e+00
 4.041111580255775e-18 -1.878843976374911e-17  3.526540866845945e-01
-1.027378197999123e+00  3.526540866845945e-01  4.693958588704962e-18

-1.348191556837661e-17  3.681094773124962e-18 -9.988561041878181e-01
 3.681094773124962e-18 -1.924183203724760e-17  4.064393472135716e-01
-9.988561041878181e-01  4.064393472135716e-01  2.396578103953406e-18

-1.184282705589292e-17  3.211063162367812e-18 -9.958845328294091e-01
 3.211063162367812e-18 -1.918557049511828e-17  4.622890155358125e-01
-9.958845328294091e-01  4.622890155358125e-01  1.788846217207946e-18

-9.398609908363581e-18  2.937676358377969e-18 -1.032865336157538e+00
 2.937676358377969e-18 -1.547902821992040e-17  4.195949889520594e-01
-1.032865336157538e+00  4.195949889520594e-01  4.553933683897975e-18

-6.777789805338352e-18  2.403851603206254e-18 -1.035139493538193e+00
 2.403851603206254e-18 -1.209987935489084e-17  4.218213513997798e-01
-1.035139493538193e+00  4.218213513997798e-01  5.001271172761180e-18

-4.419542734585917e-18  1.919097156494345e-18 -1.029971454390440e+00
 1.919097156494345e-18 -9.619576970239687e-18  4.361373679258354e-01
-1.029971454390440e+00  4.361373679258354e-01  5.488442660395825e-18

-3.839262801020521e-18  1.692396780110122e-18 -9.817347945470049e-01
 1.692396780110122e-18 -7.277592950884142e-18  4.211733030268850e-01
-9.817347945470049e-01  4.211733030268850e-01  3.293451992092292e-18

-1.565658188147120e-18  1.764192493401207e-18 -1.039147498447812e+00
 1.764192493401207e-18 -3.397812174516179e-18  3.521809628785326e-01
-1.039147498447812e+00  3.521809628785326e-01  7.011567967251234e-18

 2.383244607028901e-19  9.694695307735902e-19 -1.078007754994448e+00
 9.694695307735902e-19 -5.817194558034383e-18  4.809139628228918e-01
-1.078007754994448e+00  4.809139628228918e-01  9.002569539760981e-18

 1.350897323566926e-18  1.139978681933053e-18 -1.098523468632944e+00
 1.139978681933053e-18 -4.042694921495528e-18  4.524848907068398e-01
-1.098523468632944e+00  4.524848907068398e-01  1.007673980415645e-17

 7.733822457102444e-19  8.859828334568585e-19 -1.028028855504357e+00
 8.859828334568585e-19 -8.533381639930101e-19  3.884491421948421e-01
-1.028028855504357e+00  3.884491421948421e-01  7.210380941666659e-18

 9.765817531570866e-19  8.944267523627581e-19 -1.007652826540819e+00
 8.944267523627581e-19 -1.913717489360049e-18  4.280322159459635e-01
-1.007652826540819e+00  4.280322159459635e-01  5.990379622130002e-18

 1.786842734171540e-18  7.814395502373576e-19 -1.010103563405692e+00
 7.814395502373576e-19 -1.028601136067399e-18  4.259891631702723e-01
-1.010103563405692e+00  4.259891631702723e-01  6.593073932755402e-18

 2.474575086674762e-18  6.778722922936431e-19 -1.008945866970712e+00
 6.778722922936431e-19 -5.008693382658643e-20  4.231430345495328e-01
-1.008945866970712e+00  4.231430345495328e-01  6.868417010521637e-18

 2.997307419895006e-18  5.928365741692299e-19 -1.008720304696695e+00
 5.928365741692299e-19  6.937531667060740e-19  4.210889553037114e-01
-1.008720304696695e+00  4.210889553037114e-01  7.126414383965028e-18

 3.346898769788864e-18  5.277772891655192e-19 -1.009120188386873e+00
 5.277772891655192e-19  1.370805346740389e-18  4.195776083505964e-01
-1.009120188386873e+00  4.195776083505964e-01  7.299337912010811e-18

 3.607168757724983e-18  4.874038118783337e-19 -1.008727814835795e+00
 4.874038118783337e-19  1.671262681307313e-18  4.197362480595728e-01
-1.008727814835795e+00  4.197362480595728e-01  7.364251079082855e-18

 4.091864371257653e-18  4.127735740854927e-19 -1.007608465010059e+00
 4.127735740854927e-19  2.516599403495634e-18  4.153576793479769e-01
-1.007608465010059e+00  4.153576793479769e-01  7.549633655682136e-18

 4.447679477348407e-18  3.495068142099790e-19 -1.006735350175120e+00
 3.495068142099790e-19  3.013584252636845e-18  4.175497970322937e-01
-1.006735350175120e+00  4.175497970322937e-01  7.590349577698114e-18

 4.661693074348135e-18  3.207736767380707e-19 -1.005659947888699e+00
 3.207736767380707e-19  3.373727844902359e-18  4.164036213942705e-01
-1.005659947888699e+00  4.164036213942705e-01  7.677696218387337e-18

 4.982072330804863e-18  2.862948880551251e-19 -1.005909053460970e+00
 2.862948880551251e-19  3.927293433406841e-18  4.107474080266992e-01
-1.005909053460970e+00  4.107474080266992e-01  7.892231939756334e-18

 5.347866429952394e-18  2.544826648119030e-19 -1.009392873486442e+00
 2.544826648119030e-19  4.301767807336750e-18  4.096774925368881e-01
-1.009392873486442e+00  4.096774925368881e-01  8.244564016769632e-18

 5.140003321977173e-18  2.391944272664850e-19 -9.941952571499667e-01
 2.391944272664850e-19  3.814398284804344e-18  4.255293901379044e-01
-9.941952571499667e-01  4.255293901379044e-01  7.194342989446062e-18

 5.130282786293197e-18  2.256147068103636e-19 -9.889435001119867e-01
 2.256147068103636e-19  3.934895285363341e-18  4.272316452677678e-01
-9.889435001119867e-01  4.272316452677678e-01  6.865139594923153e-18

 5.611123397653558e-18  1.992906454364851e-19 -9.974634817072002e-01
 1.992906454364851e-19  5.795733028423196e-18  3.860098794702067e-01
-9.974634817072002e-01  3.860098794702067e-01  7.936271585754873e-18

 6.185311355940098e-18  1.741030981457451e-19 -1.014625734478231e+00
 1.741030981457451e-19  6.164883144837023e-18  3.865222621874508e-01
-1.014625734478231e+00  3.865222621874508e-01  9.061273989742483e-18

 5.955523187961237e-18  1.099342275129361e-19 -1.000686556244820e+00
 1.099342275129361e-19  4.521269066432167e-18  4.371338462645188e-01
-1.000686556244820e+00  4.371338462645188e-01  7.694979023652665e-18

 6.594826231630730e-18  1.577396975343331e-19 -1.018644737840176e+00
 1.577396975343331e-19  5.226770581774186e-18  4.234406860925035e-01
-1.018644737840176e+00  4.234406860925035e-01  9.066127403399492e-18

 5.960425780740653e-18  1.136119133468619e-19 -9.811149560100769e-01
 1.136119133468619e-19  5.413407594565863e-18  4.180260755682342e-01
-9.811149560100769e-01  4.180260755682342e-01  7.031953465182399e-18

 5.490780581959966e-18  4.580829446438952e-20 -9.508808535943201e-01
 4.580829446438952e-20  6.611599768729503e-18  3.879530280903546e-01
-9.508808535943201e-01  3.879530280903546e-01  5.748367730491183e-18

 6.303564126065477e-18  1.339060500877721e-19 -9.805557180263276e-01
 1.339060500877721e-19  7.309717043814798e-18  3.770041197240422e-01
-9.805557180263276e-01  3.770041197240422e-01  7.482999337735443e-18

 7.083122782541093e-18 -1.702423424250360e-20 -1.007849668204328e+00
-1.702423424250360e-20  6.044384799785616e-18  4.282153495553483e-01
-1.007849668204328e+00  4.282153495553483e-01  8.816593431510015e-18

 7.122024230017842e-18  5.513147219660289e-20 -1.010186727419047e+00
 5.513147219660289e-20  4.473223937277621e-18  4.736708241097183e-01
-1.010186727419047e+00  4.736708241097183e-01  8.357492030112554e-18

 7.191969203454615e-18  3.650453559845132e-20 -1.003335837739381e+00
 3.650453559845132e-20  6.845194254067965e-18  4.113698473384452e-01
-1.003335837739381e+00  4.113698473384452e-01  8.760777635694258e-18

 6.361620011579619e-18 -9.362275929649117e-20 -9.547925612943284e-01
-9.362275929649117e-20  8.014647666117668e-18  3.805956231072687e-01
-9.547925612943284e-01  3.805956231072687e-01  6.535917445531735e-18

 6.662976742626581e-18  1.930110247989284e-20 -9.633422244540275e-01
 1.930110247989284e-20  7.641239016454663e-18  3.920173946512490e-01
-9.633422244540275e-01  3.920173946512490e-01  6.934609958023151e-18

 6.886892040136734e-18 -5.789111863288157e-20 -9.684362383860968e-01
-5.789111863288157e-20  6.501414455494471e-18  4.355151521075550e-01
-9.684362383860968e-01  4.355151521075550e-01  6.765727500902345e-18

 6.164067336252110e-18 -6.838449827727226e-20 -9.378450037377801e-01
-6.838449827727226e-20  5.021356586217204e-18  4.775651127975906e-01
-9.378450037377801e-01  4.775651127975906e-01  4.283223633435110e-18

 8.039322763418864e-18 -3.640236842996581e-20 -1.011672232257873e+00
-3.640236842996581e-20  9.023344096404917e-18  3.787175251016329e-01
-1.011672232257873e+00  3.787175251016329e-01  9.903423433379895e-18

 8.017053161098165e-18 -3.067238028758145e-20 -1.007785219789079e+00
-3.067238028758145e-20  8.941439969163963e-18  3.856754042177328e-01
-1.007785219789079e+00  3.856754042177328e-01  9.447061199239442e-18

 7.865620476084826e-18 -2.389478846147736e-20 -9.995588195208621e-01
-2.389478846147736e-20  8.016877586198289e-18  4.137742397467024e-01
-9.995588195208621e-01  4.137742397467024e-01  8.587613382110610e-18

 8.103735566386056e-18 -3.455595610108844e-20 -1.005629628689335e+00
-3.455595610108844e-20  9.000979783688986e-18  3.902816789947409e-01
-1.005629628689335e+00  3.902816789947409e-01  9.234797788148069e-18

 8.412890957938215e-18 -5.927716095401705e-20 -1.014876442346381e+00
-5.927716095401705e-20  1.005997663401402e-17  3.650204793680949e-01
-1.014876442346381e+00  3.650204793680949e-01  1.010136909722767e-17

 7.680773906183651e-18 -4.063262511585064e-20 -9.824261685671237e-01
-4.063262511585064e-20  8.068669708850149e-18  4.176234251046437e-01
-9.824261685671237e-01  4.176234251046437e-01  7.472702631379228e-18

 7.965582430488617e-18 -3.643049227867437e-20 -9.925306303243965e-01
-3.643049227867437e-20  8.235895457771150e-18  4.149955829031447e-01
-9.925306303243965e-01  4.149955829031447e-01  8.169343143752376e-18

 8.919604249564362e-18 -4.788387674187513e-20 -1.025453707882144e+00
-4.788387674187513e-20  9.670291929483671e-18  3.780207128704305e-01
-1.025453707882144e+00  3.780207128704305e-01  1.095561880838798e-17

 7.895586097024915e-18  1.280528030608540e-19 -9.805339590960905e-01
 1.280528030608540e-19  6.989916462457406e-18  4.352507520482639e-01
-9.805339590960905e-01  4.352507520482639e-01  7.607614964770436e-18

 7.661120021746721e-18  1.768776626017683e-19 -9.674444858384831e-01
 1.768776626017683e-19  6.850905917073827e-18  4.310301321114875e-01
-9.674444858384831e-01  4.310301321114875e-01  7.192786281617188e-18

 6.180680581773030e-18 -6.292106231498667e-20 -8.906284273194720e-01
-6.292106231498667e-20  6.823374350395811e-18  4.254370463149066e-01
-8.906284273194720e-01  4.254370463149066e-01  3.352743975129704e-18

 8.216555899862468e-18 -4.620022530201636e-19 -9.571351743164263e-01
-4.620022530201636e-19  1.187847603338566e-17  3.046266632385483e-01
-9.571351743164263e-01  3.046266632385483e-01  9.909821317825346e-18

 7.038018504881568e-18 -1.884782234679487e-19 -9.127703487366730e-01
-1.884782234679487e-19  1.029016230193674e-17  3.319999109382600e-01
-9.127703487366730e-01  3.319999109382600e-01  6.444712740399563e-18

 5.197355127580499e-18  3.854660381606610e-20 -8.423515556985243e-01
 3.854660381606610e-20  3.320240118703516e-18  5.072285049346155e-01
-8.423515556985243e-01  5.072285049346155e-01  5.684371003168235e-20

 8.206377623026831e-18  2.097237205976386e-19 -9.662022583736611e-01
 2.097237205976386e-19  1.268225452938631e-17  2.683595221904241e-01
-9.662022583736611e-01  2.683595221904241e-01  9.246385582348264e-18

 8.749521233328752e-18  7.610032916809781e-19 -1.006332965296340e+00
 7.610032916809781e-19  1.398093075215328e-17  2.250843337111030e-01
-1.006332965296340e+00  2.250843337111030e-01  1.000326682164754e-17

 6.324623217300690e-18 -1.126010073305961e-18 -8.812712725812609e-01
-1.126010073305961e-18  4.627055644318198e-18  5.688999916059444e-01
-8.812712725812609e-01  5.688999916059444e-01  2.348614854130547e-18

 1.128544147938165e-17 -3.231767268712011e-19 -1.112441484145627e+00
-3.231767268712011e-19  1.134955837211784e-17  3.939044219521928e-01
-1.112441484145627e+00  3.939044219521928e-01  1.553708829157520e-17

 1.071993600227345e-17  2.487882843663344e-19 -1.100951305935079e+00
 2.487882843663344e-19  1.005224953401938e-17  4.112036291670705e-01
-1.100951305935079e+00  4.112036291670705e-01  1.360002339260501e-17

 6.698726568442741e-18  2.881381696554251e-19 -9.266264698182729e-01
 2.881381696554251e-19  7.043102488263422e-18  4.653443889025493e-01
-9.266264698182729e-01  4.653443889025493e-01  2.527277579023921e-18

 9.290580968334745e-18 -8.840199418747682e-19 -9.941097554491904e-01
-8.840199418747682e-19  1.537455237031846e-17  2.824114675263228e-01
-9.941097554491904e-01  2.824114675263228e-01  1.054812783591687e-17

 7.893990321459566e-18 -1.487449350308355e-19 -9.506044817647892e-01
-1.487449350308355e-19  1.207242721098198e-17  3.357725005431811e-01
-9.506044817647892e-01  3.357725005431811e-01  6.613998041495954e-18

 5.998795524736894e-18 -4.484405876768578e-19 -8.698863675985513e-01
-4.484405876768578e-19  5.637674300671162e-18  5.210968188358059e-01
-8.698863675985513e-01  5.210968188358059e-01  1.955335993054768e-19

 9.906120058322599e-18 -2.138043776319456e-19 -1.035237511602305e+00
-2.138043776319456e-19  1.083462581233313e-17  3.893451612476652e-01
-1.035237511602305e+00  3.893451612476652e-01  1.154461051304776e-17

 9.119999762773617e-18 -1.703568548385698e-19 -1.003452339203893e+00
-1.703568548385698e-19  8.968921142151768e-18  4.399351161846632e-01
-1.003452339203893e+00  4.399351161846632e-01  8.734346450147807e-18

 9.249715665805217e-18 -1.250280563659518e-19 -1.007879520556328e+00
-1.250280563659518e-19  9.516532521117713e-18  4.236800165552804e-01
-1.007879520556328e+00  4.236800165552804e-01  9.204726283853815e-18

 9.694903572223533e-18 -1.475311862336588e-19 -1.018017076214502e+00
-1.475311862336588e-19  1.167791642759351e-17  3.620714135291526e-01
-1.018017076214502e+00  3.620714135291526e-01  1.094832067390793e-17

 5.095725441023397e-18  7.180079573013114e-19 -8.440965925077770e-01
 7.180079573013114e-19  2.576275547650845e-18  5.506913152630222e-01
-8.440965925077770e-01  5.506913152630222e-01 -2.223417958048291e-18

 7.934713051577075e-18 -3.995146940856315e-19 -9.238986193705169e-01
-3.995146940856315e-19  1.036863648083880e-17  3.820962839853155e-01
-9.238986193705169e-01  3.820962839853155e-01  6.211522368862391e-18

 1.018986659611718e-17 -8.803320159085916e-19 -1.000020544899203e+00
-8.803320159085916e-19  1.702621486843433e-17  2.254336641768807e-01
-1.000020544899203e+00  2.254336641768807e-01  1.297377008536260e-17

 6.583806089648632e-18 -3.596794826408624e-19 -8.686109760680929e-01
-3.596794826408624e-19  7.520807424051447e-18  4.558663916617414e-01
-8.686109760680929e-01  4.558663916617414e-01  2.094535631942461e-18

 8.641992537460215e-18 -3.062852539157478e-19 -9.599592867503854e-01
-3.062852539157478e-19  8.911098141851926e-18  4.371216053398994e-01
-9.599592867503854e-01  4.371216053398994e-01  7.382026005936289e-18

 9.267705006758285e-18 -2.046472450427913e-19 -9.922743643199206e-01
-2.046472450427913e-19  1.093639720621869e-17  3.968464240456164e-01
-9.922743643199206e-01  3.968464240456164e-01  8.838025966996415e-18

 9.930851039092379e-18 -2.112396191760834e-19 -1.023436952406667e+00
-2.112396191760834e-19  1.159144625799935e-17  3.933824309366048e-01
-1.023436952406667e+00  3.933824309366048e-01  1.036893788618307e-17

 9.860098452685365e-18 -2.076534740854231e-19 -1.020689200306999e+00
-2.076534740854231e-19  1.085822141486877e-17  4.163601543216940e-01
-1.020689200306999e+00  4.163601543216940e-01  9.820486714206747e-18

 9.291521237088887e-18 -1.581007543794748e-19 -9.981076509060304e-01
-1.581007543794748e-19  1.010030886047114e-17  4.341288486937357e-01
-9.981076509060304e-01  4.341288486937357e-01  8.138569471661783e-18

 9.994638353541485e-18 -2.563498352310210e-19 -1.020708245974392e+00
-2.563498352310210e-19  1.280610175831965e-17  3.651472129326185e-01
-1.020708245974392e+00  3.651472129326185e-01  1.053862593478888e-17

 9.810413191143627e-18 -2.238810568680402e-19 -1.012712940742566e+00
-2.238810568680402e-19  1.287564629692900e-17  3.614038724322636e-01
-1.012712940742566e+00  3.614038724322636e-01  1.008038057543471e-17

 8.729960396734734e-18 -2.269196856573620e-19 -9.685506790657129e-01
-2.269196856573620e-19  9.500144823651331e-18  4.500115871770207e-01
-9.685506790657129e-01  4.500115871770207e-01  6.389009170183635e-18

 9.118921694701285e-18 -1.896424206121481e-19 -9.831582858003738e-01
-1.896424206121481e-19  1.043187938903958e-17  4.238847567311227e-01
-9.831582858003738e-01  4.238847567311227e-01  7.657157444286669e-18

 1.059091378415651e-17 -1.180782221073309e-19 -1.041581415646373e+00
-1.180782221073309e-19  1.488015084026990e-17  3.063056545141980e-01
-1.041581415646373e+00  3.063056545141980e-01  1.241706530608512e-17

 1.039907635498871e-17 -1.408453173997345e-19 -1.034418528869479e+00
-1.408453173997345e-19  1.280710637875157e-17  3.639221255626219e-01
-1.034418528869479e+00  3.639221255626219e-01  1.143307560690124e-17

 7.867655572796135e-18 -2.261114966210351e-19 -9.324728172436664e-01
-2.261114966210351e-19  6.323528633102873e-18  5.383369566545670e-01
-9.324728172436664e-01  5.383369566545670e-01  3.253558122402964e-18

 8.971252132728226e-18 -1.988713055145849e-19 -9.751565803143880e-01
-1.988713055145849e-19  9.755948578122281e-18  4.474807936361552e-01
-9.751565803143880e-01  4.474807936361552e-01  6.830113976280954e-18

 9.845916407063814e-18 -3.456138359341188e-19 -1.004237000072815e+00
-3.456138359341188e-19  1.388484922951957e-17  3.437769094716562e-01
-1.004237000072815e+00  3.437769094716562e-01  9.949973273951905e-18

 9.080388926044135e-18 -2.576035580800604e-19 -9.769809727437445e-01
-2.576035580800604e-19  1.097718072470818e-17  4.199872399040858e-01
-9.769809727437445e-01  4.199872399040858e-01  7.206177867518918e-18

 9.308605121862443e-18 -2.983827517637497e-19 -9.879738387469916e-01
-2.983827517637497e-19  9.873986617769426e-18  4.576180975284846e-01
-9.879738387469916e-01  4.576180975284846e-01  7.431242508840782e-18

 1.033373682828042e-17 -2.491283130658898e-19 -1.030061664622250e+00
-2.491283130658898e-19  1.216810119114711e-17  3.992782568429906e-01
-1.030061664622250e+00  3.992782568429906e-01  1.053743885486229e-17

 9.472216339491109e-18 -2.257345552590632e-19 -9.956581521719189e-01
-2.257345552590632e-19  1.117297711714806e-17  4.241637761736883e-01
-9.956581521719189e-01  4.241637761736883e-01  7.958293253027108e-18

 8.663032968341068e-18 -1.531970991037814e-19 -9.629433765647925e-01
-1.531970991037814e-19  1.095892000246659e-17  4.264116370242959e-01
-9.629433765647925e-01  4.264116370242959e-01  5.537205936444652e-18

 1.165130173161160e-17  2.045441066748543e-19 -1.092620589440898e+00
 2.045441066748543e-19  1.719136368332275e-17  2.570586933632819e-01
-1.092620589440898e+00  2.570586933632819e-01  1.452618633456891e-17

 1.037734299256910e-17 -3.609610471662594e-19 -1.033625410477743e+00
-3.609610471662594e-19  1.102501839449766e-17  4.491419685957591e-01
-1.033625410477743e+00  4.491419685957591e-01  9.924977111562199e-18

 1.043299984549211e-17 -1.193441409251859e-19 -1.044686797533709e+00
-1.193441409251859e-19  8.280665000319334e-18  5.186996197881085e-01
-1.044686797533709e+00  5.186996197881085e-01  9.701843557581718e-18

 1.228816107673544e-17 -6.028444969154244e-19 -1.098461303730358e+00
-6.028444969154244e-19  1.576758702988889e-17  3.292793500986058e-01
-1.098461303730358e+00  3.292793500986058e-01  1.596980283302347e-17

 9.788991423620505e-18 -4.920207496087350e-19 -9.936228582269001e-01
-4.920207496087350e-19  1.374130515972638e-17  3.649894091365701e-01
-9.936228582269001e-01  3.649894091365701e-01  9.079594138427759e-18

 8.614469804783159e-18 -2.567270474553500e-19 -9.450402974084198e-01
-2.567270474553500e-19  1.035920467573053e-17  4.355324873274545e-01
-9.450402974084198e-01  4.355324873274545e-01  5.515969428096887e-18

 8.618919668658315e-18 -1.913702556154096e-19 -9.439742373515819e-01
-1.913702556154096e-19  1.177080223035667e-17  3.945968677245027e-01
-9.439742373515819e-01  3.945968677245027e-01  5.766286999345589e-18

 1.041791955615927e-17 -8.372385722055221e-20 -1.022675763428961e+00
-8.372385722055221e-20  1.326679816294038e-17  3.627699249213962e-01
-1.022675763428961e+00  3.627699249213962e-01  1.059406133632876e-17

 9.044131683950712e-18 -3.489219778185681e-19 -9.668595271879702e-01
-3.489219778185681e-19  7.200343299770844e-18  5.399426706655968e-01
-9.668595271879702e-01  5.399426706655968e-01  5.658344677605307e-18

 7.931135653433836e-18 -3.890062899825000e-20 -9.269850698119630e-01
-3.890062899825000e-20  6.971806009080521e-18  5.306099642049539e-01
-9.269850698119630e-01  5.306099642049539e-01  2.476193287066280e-18

 1.158429632695062e-17 -5.144208673023176e-19 -1.058823207600729e+00
-5.144208673023176e-19  1.665067940568701e-17  2.964979298839920e-01
-1.058823207600729e+00  2.964979298839920e-01  1.414672544403473e-17

 1.010646716147294e-17 -2.431159406910094e-19 -1.004063648962684e+00
-2.431159406910094e-19  1.446971773709848e-17  3.393581165071122e-01
-1.004063648962684e+00  3.393581165071122e-01  9.780220446957211e-18

 8.952166245727498e-18 -3.824217989903852e-19 -9.573737570571439e-01
-3.824217989903852e-19  9.675221209204195e-18  4.745815787663943e-01
-9.573737570571439e-01  4.745815787663943e-01  5.705717311496174e-18

 1.008112071741618e-17 -2.865383591661349e-19 -1.005323346581886e+00
-2.865383591661349e-19  1.151667555306776e-17  4.270902674554236e-01
-1.005323346581886e+00  4.270902674554236e-01  8.941705351186082e-18

 1.008514224743680e-17 -2.637980069895196e-19 -1.005483482142901e+00
-2.637980069895196e-19  1.233327545406547e-17  4.058357355780534e-01
-1.005483482142901e+00  4.058357355780534e-01  9.109198884360652e-18

 9.618845220463682e-18 -2.602349470933907e-19 -9.855636365353370e-01
-2.602349470933907e-19  1.161128248368216e-17  4.237600951520839e-01
-9.855636365353370e-01  4.237600951520839e-01  7.663559682408569e-18

 9.565273573497680e-18 -2.542725607055241e-19 -9.833876416580247e-01
-2.542725607055241e-19  1.175359142519154e-17  4.204519512381585e-01
-9.833876416580247e-01  4.204519512381585e-01  7.536318806982836e-18

 1.004518294076786e-17 -2.123766940923381e-19 -1.003328933877293e+00
-2.123766940923381e-19  1.353477308970732e-17  3.745965471558285e-01
-1.003328933877293e+00  3.745965471558285e-01  9.065290151391718e-18

 1.088995982943819e-17 -1.600693709315982e-19 -1.039341063098326e+00
-1.600693709315982e-19  1.471068321032897e-17  3.453403635318308e-01
-1.039341063098326e+00  3.453403635318308e-01  1.150143855231675e-17

 1.063062214535901e-17 -2.780914931440660e-19 -1.030412984643325e+00
-2.780914931440660e-19  1.286026693612921e-17  4.059856649251350e-01
-1.030412984643325e+00  4.059856649251350e-01  1.019966539102568e-17

 1.099732548750762e-17 -2.977362342924824e-19 -1.047583475455810e+00
-2.977362342924824e-19  1.145409505158819e-17  4.513379418706171e-01
-1.047583475455810e+00  4.513379418706171e-01  1.064674599674798e-17

 1.143223244026499e-17 -7.059509134176511e-20 -1.067557949218514e+00
-7.059509134176511e-20  1.186081534491969e-17  4.283252362544190e-01
-1.067557949218514e+00  4.283252362544190e-01  1.218453856852488e-17

 8.620588212885541e-18 -2.006367518088902e-21 -9.448734287507339e-01
-2.006367518088902e-21  9.598181433729155e-18  4.641295941579322e-01
-9.448734287507339e-01  4.641295941579322e-01  4.530028311359710e-18

 9.070867329577788e-18 -6.224026856744038e-19 -9.397776620072346e-01
-6.224026856744038e-19  1.397444675188113e-17  3.603428521293144e-01
-9.397776620072346e-01  3.603428521293144e-01  6.681672456849094e-18

 8.123328416009526e-18 -2.451100527231963e-19 -9.072240122894493e-01
-2.451100527231963e-19  1.208567439075172e-17  3.890250841596352e-01
-9.072240122894493e-01  3.890250841596352e-01  4.006980195030980e-18

 8.570965783027040e-18 -3.726345071102123e-19 -9.270078932344755e-01
-3.726345071102123e-19  9.437474605940758e-18  4.736044780197436e-01
-9.270078932344755e-01  4.736044780197436e-01  4.535943801096577e-18

 9.860969238148681e-18 -1.075990545538547e-19 -9.905097355161172e-01
-1.075990545538547e-19  1.333574322300730e-17  3.748863045538596e-01
-9.905097355161172e-01  3.748863045538596e-01  8.302221763845440e-18

 1.101486537968661e-17 -1.683125671187123e-19 -1.042057149369598e+00
-1.683125671187123e-19  1.382148788353358e-17  3.791903383113234e-01
-1.042057149369598e+00  3.791903383113234e-01  1.111850486927989e-17

 1.126564257258474e-17 -4.835768211030430e-19 -1.054053395663800e+00
-4.835768211030430e-19  1.137227233892479e-17  4.706368292803743e-01
-1.054053395663800e+00  4.706368292803743e-01  1.117663969328680e-17

 1.096955126428255e-17 -2.584415137896638e-19 -1.044210618942087e+00
-2.584415137896638e-19  1.346747845158102e-17  4.050855728439850e-01
-1.044210618942087e+00  4.050855728439850e-01  1.063958591148307e-17

 1.115650885965110e-17 -1.592412631228792e-19 -1.049637122876700e+00
-1.592412631228792e-19  1.577360749116512e-17  3.354169397916816e-01
-1.049637122876700e+00  3.354169397916816e-01  1.166014191543254e-17

 9.799818536334045e-18 -2.936695582668273e-19 -9.930759541317672e-01
-2.936695582668273e-19  9.973797693285476e-18  4.948093937951938e-01
-9.930759541317672e-01  4.948093937951938e-01  6.852754475990894e-18

 8.237176127612855e-18 -1.413585160949353e-20 -9.363693852825384e-01
-1.413585160949353e-20  6.845127608875434e-18  5.636083492122719e-01
-9.363693852825384e-01  5.636083492122719e-01  2.199144580988610e-18

 1.135916760280783e-17 -4.713367842119266e-19 -1.045478431277051e+00
-4.713367842119266e-19  1.530587448909944e-17  3.550749656233113e-01
-1.045478431277051e+00  3.550749656233113e-01  1.223271590216044e-17

 9.885868852850133e-18 -2.751688675817269e-19 -9.867188827224296e-01
-2.751688675817269e-19  1.490021980223803e-17  3.518631593136086e-01
-9.867188827224296e-01  3.518631593136086e-01  8.231232163690244e-18

 8.998121019818374e-18 -4.082535782083028e-19 -9.504574787294937e-01
-4.082535782083028e-19  9.814821760654127e-18  4.947622764729193e-01
-9.504574787294937e-01  4.947622764729193e-01  4.759356760413244e-18

 9.365290106620096e-18 -3.193729934042731e-19 -9.686057552973671e-01
-3.193729934042731e-19  1.001340940500401e-17  4.898873998864929e-01
-9.686057552973671e-01  4.898873998864929e-01  5.721333792545229e-18

 1.107940537522025e-17 -2.694057669877681e-19 -1.038365837139496e+00
-2.694057669877681e-19  1.424077591990759e-17  3.800937810080414e-01
-1.038365837139496e+00  3.800937810080414e-01  1.116137025592538e-17

 1.043302821544127e-17 -2.625481181327479e-19 -1.012813168241892e+00
-2.625481181327479e-19  1.300028126866582e-17  4.135672634727757e-01
-1.012813168241892e+00  4.135672634727757e-01  9.061105390429340e-18

 1.023425622301384e-17 -2.744798256869786e-19 -1.005371684267367e+00
-2.744798256869786e-19  1.192022358719625e-17  4.449277499867175e-01
-1.005371684267367e+00  4.449277499867175e-01  8.185810091203146e-18

 1.105076289257572e-17 -2.606227957545684e-19 -1.038229759777748e+00
-2.606227957545684e-19  1.384341936134785e-17  3.953182065716322e-01
-1.038229759777748e+00  3.953182065716322e-01  1.078082312142299e-17

 1.059291076244061e-17 -2.530053626206594e-19 -1.019568364870565e+00
-2.530053626206594e-19  1.334432169541825e-17  4.074751614559290e-01
-1.019568364870565e+00  4.074751614559290e-01  9.412527195822656e-18

 1.057541299111933e-17 -2.534811762527253e-19 -1.018624139311392e+00
-2.534811762527253e-19  1.285526730605005e-17  4.204722896686284e-01
-1.018624139311392e+00  4.204722896686284e-01  9.264803919141224e-18

 1.035291745704782e-17 -2.486905543597029e-19 -1.007189775827293e+00
-2.486905543597029e-19  1.286908093263675e-17  4.173205814121016e-01
-1.007189775827293e+00  4.173205814121016e-01  8.694312871164625e-18

 1.023326065402487e-17 -2.447135698241379e-19 -1.000552054495938e+00
-2.447135698241379e-19  1.292361184222819e-17  4.146449452343387e-01
-1.000552054495938e+00  4.146449452343387e-01  8.347716076748635e-18

 1.057603172878129e-17 -2.448230416240423e-19 -1.015222943579749e+00
-2.448230416240423e-19  1.288251313106021e-17  4.190955761180872e-01
-1.015222943579749e+00  4.190955761180872e-01  9.177291499199214e-18

 1.054721764297801e-17 -2.395040025326435e-19 -1.013563322758835e+00
-2.395040025326435e-19  1.292428576795410e-17  4.180546524712475e-01
-1.013563322758835e+00  4.180546524712475e-01  9.058642260167074e-18

 1.043235492610363e-17 -2.385691539609439e-19 -1.007983750722048e+00
-2.385691539609439e-19  1.302561300831588e-17  4.145599701694138e-01
-1.007983750722048e+00  4.145599701694138e-01  8.749297152816025e-18

 1.040729149276391e-17 -2.411472426169056e-19 -1.006458173266317e+00
-2.411472426169056e-19  1.309347306121973e-17  4.123700159948535e-01
-1.006458173266317e+00  4.123700159948535e-01  8.699015392309170e-18

 1.046323837089849e-17 -2.416825877532357e-19 -1.008749065026475e+00
-2.416825877532357e-19  1.277304734516167e-17  4.217240260751432e-01
-1.008749065026475e+00  4.217240260751432e-01  8.749036202503235e-18

 1.049367397529188e-17 -2.427043480168231e-19 -1.009678167633803e+00
-2.427043480168231e-19  1.289763929652202e-17  4.189027385625545e-01
-1.009678167633803e+00  4.189027385625545e-01  8.825444313519309e-18

 1.038175442355523e-17 -2.443480100621526e-19 -1.004582071567603e+00
-2.443480100621526e-19  1.262546751560799e-17  4.255171141466810e-01
-1.004582071567603e+00  4.255171141466810e-01  8.468689578065860e-18

 1.019280602872785e-17 -2.439374185334187e-19 -9.959984730013071e-01
-2.439374185334187e-19  1.234484003306067e-17  4.321202263093663e-01
-9.959984730013071e-01  4.321202263093663e-01  7.846587837231891e-18

 1.031990739333183e-17 -2.444838177858413e-19 -1.000739598481365e+00
-2.444838177858413e-19  1.312237919700401e-17  4.113534200423298e-01
-1.000739598481365e+00  4.113534200423298e-01  8.405587034911456e-18

 1.029739007135554e-17 -2.476953028684420e-19 -1.000095599276704e+00
-2.476953028684420e-19  1.273788351136752e-17  4.222477350301634e-01
-1.000095599276704e+00  4.222477350301634e-01  8.244895616785668e-18

 1.006359144898489e-17 -2.587304092865457e-19 -9.917793087127832e-01
-2.587304092865457e-19  1.198074437232163e-17  4.441275006963534e-01
-9.917793087127832e-01  4.441275006963534e-01  7.420187009869021e-18

 9.963843135864856e-18 -2.428658200822513e-19 -9.894241664677849e-01
-2.428658200822513e-19  1.271303197483406e-17  4.265572960721302e-01
-9.894241664677849e-01  4.265572960721302e-01  7.189396000912097e-18

 1.085159857713231e-17 -2.090409880045139e-19 -1.035456987242318e+00
-2.090409880045139e-19  1.404202738781295e-17  4.082471993528675e-01
-1.035456987242318e+00  4.082471993528675e-01  9.332862306189425e-18

 1.366006821439593e-17 -1.683824754213870e-19 -1.164611044479407e+00
-1.683824754213870e-19  1.400720632572271e-17  4.365266716141379e-01
-1.164611044479407e+00  4.365266716141379e-01  1.660084151566526e-17

 1.096286652764774e-17 -4.335946780912207e-19 -1.031589483132775e+00
-4.335946780912207e-19  1.444636184564043e-17  4.032707555646993e-01
-1.031589483132775e+00  4.032707555646993e-01  9.716532416457526e-18

 1.036935359804643e-17 -6.192960261077805e-19 -9.921621851116971e-01
-6.192960261077805e-19  1.728273690854439e-17  3.150460221266437e-01
-9.921621851116971e-01  3.150460221266437e-01  8.946627972784739e-18

 8.611154366333441e-18 -4.505519089693768e-19 -9.264416665134334e-01
-4.505519089693768e-19  9.883504269692934e-18  5.027743309636167e-01
-9.264416665134334e-01  5.027743309636167e-01  3.138282893956660e-18

 1.018931927021904e-17 -2.928833011063696e-19 -9.944862461377290e-01
-2.928833011063696e-19  1.244505245294101e-17  4.352247193240632e-01
-9.944862461377290e-01  4.352247193240632e-01  7.774497042648695e-18

 1.073385456161385e-17 -2.260935068896823e-19 -1.019427888692714e+00
-2.260935068896823e-19  1.391595502257054e-17  4.003833474610836e-01
-1.019427888692714e+00  4.003833474610836e-01  9.290606136378428e-18

 1.189412341853042e-17 -1.241686252128792e-19 -1.073171430040353e+00
-1.241686252128792e-19  1.154993139856309e-17  4.687111422199456e-01
-1.073171430040353e+00  4.687111422199456e-01  1.201580039687327e-17

 1.013826991671734e-17 -4.537523221690940e-19 -9.812622829625134e-01
-4.537523221690940e-19  1.403292297954794e-17  3.935663716464264e-01
-9.812622829625134e-01  3.935663716464264e-01  7.889384835177159e-18

 1.014275599903007e-17 -3.080175793896417e-19 -9.794483554987620e-01
-3.080175793896417e-19  1.695140735876896e-17  3.010527580332792e-01
-9.794483554987620e-01  3.010527580332792e-01  8.556384920068394e-18

 9.827319447868163e-18 -4.875131994515219e-19 -9.708129019534832e-01
-4.875131994515219e-19  1.100508431600199e-17  4.745387703830886e-01
-9.708129019534832e-01  4.745387703830886e-01  6.697441396928285e-18

 1.083787874990221e-17 -3.184363567387592e-19 -1.020780642310715e+00
-3.184363567387592e-19  1.316426281231926e-17  4.230659634404440e-01
-1.020780642310715e+00  4.230659634404440e-01  9.483584180540983e-18

 1.052313218634190e-17 -3.075920568601798e-19 -1.006761395895556e+00
-3.075920568601798e-19  1.355524026156909e-17  4.141358554304836e-01
-1.006761395895556e+00  4.141358554304836e-01  8.688942195079539e-18

 1.094375134629595e-17 -3.055040501036146e-19 -1.022418308584949e+00
-3.055040501036146e-19  1.385895369280921e-17  4.102766874179087e-01
-1.022418308584949e+00  4.102766874179087e-01  9.805980998424702e-18

 1.115944063556007e-17 -2.456721373491510e-19 -1.030685370012980e+00
-2.456721373491510e-19  1.251317599056739e-17  4.442842524810939e-01
-1.030685370012980e+00  4.442842524810939e-01  1.018292299914458e-17

 9.348367772135727e-18 -1.630301366938936e-19 -9.541109601476302e-01
-1.630301366938936e-19  1.105252559224049e-17  4.704861514271482e-01
-9.541109601476302e-01  4.704861514271482e-01  5.093977312743533e-18

 1.095920248697287e-17 -3.953753421634055e-19 -1.009899594534856e+00
-3.953753421634055e-19  1.548106017887999e-17  3.599567072244360e-01
-1.009899594534856e+00  3.599567072244360e-01  1.044931738571965e-17

 1.000531406771995e-17 -2.254393681107461e-19 -9.718419964234403e-01
-2.254393681107461e-19  1.521959753765997e-17  3.553316981440575e-01
-9.718419964234403e-01  3.553316981440575e-01  7.781400815566758e-18

 1.051946960223478e-17  1.786917415778688e-20 -1.000375823964265e+00
 1.786917415778688e-20  1.525664866557446e-17  3.497915378456617e-01
-1.000375823964265e+00  3.497915378456617e-01  8.996174496820215e-18

 1.123426519533112e-17 -4.250059805374107e-19 -1.027338759876296e+00
-4.250059805374107e-19  1.111824291256827e-17  4.900275479665135e-01
-1.027338759876296e+00  4.900275479665135e-01  1.007818093222231e-17

 1.154833274512865e-17 -8.099573909160639e-20 -1.044930879606949e+00
-8.099573909160639e-20  1.266743274082372e-17  4.324015156845116e-01
-1.044930879606949e+00  4.324015156845116e-01  1.123406339491827e-17

 9.397251974904119e-18 -3.051910698034734e-19 -9.423004481538221e-01
-3.051910698034734e-19  1.377414530604159e-17  3.902354066997559e-01
-9.423004481538221e-01  3.902354066997559e-01  5.863846584620189e-18

 1.023921909269211e-17 -1.898272654012030e-19 -9.819963739923494e-01
-1.898272654012030e-19  1.291541290313267e-17  4.130903414976618e-01
-9.819963739923494e-01  4.130903414976618e-01  7.951132504190674e-18

 1.049715541138363e-17 -2.060032154823727e-19 -9.964980109871350e-01
-2.060032154823727e-19  1.236851300390955e-17  4.348075380025094e-01
-9.964980109871350e-01  4.348075380025094e-01  8.342442824360529e-18

 1.054857180430421e-17 -1.977972923918012e-19 -9.990919748681171e-01
-1.977972923918012e-19  1.249172750765196e-17  4.320154242021334e-01
-9.990919748681171e-01  4.320154242021334e-01  8.395093890285668e-18

 1.111162389604985e-17  1.234606054643667e-19 -1.021362920285844e+00
 1.234606054643667e-19  1.340476978154710e-17  4.513451101906671e-01
-1.021362920285844e+00  4.513451101906671e-01  8.324033099634638e-18

 1.093455020990069e-17  1.036086624265371e-19 -1.009925719668310e+00
 1.036086624265371e-19  1.406185316276187e-17  4.089580915402996e-01
-1.009925719668310e+00  4.089580915402996e-01  8.260323062557758e-18

 1.137566056548621e-17  7.928641071578613e-20 -1.033116240548970e+00
 7.928641071578613e-20  1.410019506693295e-17  4.601260531882908e-01
-1.033116240548970e+00  4.601260531882908e-01  9.005252002948512e-18

 1.167579190305505e-17  1.573228107869587e-19 -1.044363438632311e+00
 1.573228107869587e-19  1.365650240401910e-17  3.965738543295151e-01
-1.044363438632311e+00  3.965738543295151e-01  1.019123089141131e-17

 1.119781398173055e-17  1.195905776224658e-19 -1.024873858081714e+00
 1.195905776224658e-19  1.429392086164487e-17  4.081140937516000e-01
-1.024873858081714e+00  4.081140937516000e-01  8.887370218669192e-18

 1.122893339934424e-17  9.169101149755282e-20 -1.028218075920253e+00
 9.169101149755282e-20  1.323895009480580e-17  4.564141382938456e-01
-1.028218075920253e+00  4.564141382938456e-01  8.611773542889453e-18

 1.103909516276306e-17  7.171889354153931e-20 -1.019789246240086e+00
 7.171889354153931e-20  1.323339666756456e-17  4.591175958804161e-01
-1.019789246240086e+00  4.591175958804161e-01  8.015102103259505e-18

 1.131244957494779e-17  1.380262072276129e-19 -1.031233948555455e+00
 1.380262072276129e-19  1.366456774791552e-17  4.121671699624276e-01
-1.031233948555455e+00  4.121671699624276e-01  9.186786998794046e-18

 1.098291464380391e-17  1.139350776144359e-19 -1.017268546090516e+00
 1.139350776144359e-19  1.437573740931447e-17  4.236789860107318e-01
-1.017268546090516e+00  4.236789860107318e-01  8.219209544327023e-18

 1.132276507588737e-17  1.006071015181633e-19 -1.032704727121568e+00
 1.006071015181633e-19  1.444197226286081e-17  4.364586657804569e-01
-1.032704727121568e+00  4.364586657804569e-01  9.016553760881915e-18

 1.133605803021494e-17  9.046410507463794e-20 -1.033515752183860e+00
 9.046410507463794e-20  1.382229977422670e-17  4.402947765070358e-01
-1.033515752183860e+00  4.402947765070358e-01  9.018903491405610e-18

 1.111342640173245e-17  1.178267588773468e-19 -1.023168788326809e+00
 1.178267588773468e-19  1.310809798280879e-17  4.243500722911800e-01
-1.023168788326809e+00  4.243500722911800e-01  8.549135568913746e-18

 1.115753243730584e-17  1.069459461319089e-19 -1.024642454269943e+00
 1.069459461319089e-19  1.225608062587148e-17  4.319280159400199e-01
-1.024642454269943e+00  4.319280159400199e-01  8.654926078945372e-18

 1.111925780865743e-17  7.650299858058256e-20 -1.021796635439540e+00
 7.650299858058256e-20  1.215373851637166e-17  4.531789802092833e-01
-1.021796635439540e+00  4.531789802092833e-01  8.457639862003752e-18

 1.109076603969246e-17  1.231639427682831e-19 -1.018485303107687e+00
 1.231639427682831e-19  1.440732318578804e-17  4.239633791058520e-01
-1.018485303107687e+00  4.239633791058520e-01  8.662904993677654e-18

 1.009974482979616e-17  9.288115804668381e-20 -9.748589699612583e-01
 9.288115804668381e-20  1.089710847914226e-17  4.636139897688554e-01
-9.748589699612583e-01  4.636139897688554e-01  5.789850544045851e-18

 8.510320567813707e-18  5.045485087625832e-20 -9.073557012906657e-01
 5.045485087625832e-20  1.018325167001102e-17  5.091763410195365e-01
-9.073557012906657e-01  5.091763410195365e-01  1.106400417678369e-18

 1.086064321646589e-17  1.411108395955120e-19 -1.003711878231671e+00
 1.411108395955120e-19  1.526378420292315e-17  3.766984985555905e-01
-1.003711878231671e+00  3.766984985555905e-01  8.556362709124427e-18

 1.052051292082067e-17  9.582347595769241e-20 -9.908812140297685e-01
 9.582347595769241e-20  1.388099796324955e-17  4.170081794430192e-01
-9.908812140297685e-01  4.170081794430192e-01  7.289417753784479e-18

 1.067831279720555e-17  2.125579331765776e-19 -1.004362426541134e+00
 2.125579331765776e-19  1.136323963200514e-17  4.705817131334483e-01
-1.004362426541134e+00  4.705817131334483e-01  7.204778698366693e-18

 1.086198893375593e-17  1.468676984086740e-19 -1.011686109388608e+00
 1.468676984086740e-19  1.283777634040647e-17  4.332953444360998e-01
-1.011686109388608e+00  4.332953444360998e-01  7.862906792388061e-18

 1.149301002550607e-17  5.961983063638239e-20 -1.037611340081003e+00
 5.961983063638239e-20  1.625305509340365e-17  3.861909460950423e-01
-1.037611340081003e+00  3.861909460950423e-01  9.845749963491354e-18

 1.211366195675648e-17  1.644968421940951e-19 -1.072590397764656e+00
 1.644968421940951e-19  1.402602799532425e-17  4.254602021039955e-01
-1.072590397764656e+00  4.254602021039955e-01  1.108570415811520e-17

 1.223932057577780e-17 -6.123282891950292e-20 -1.079241661535804e+00
-6.123282891950292e-20  1.228718434261956e-17  4.863737427954316e-01
-1.079241661535804e+00  4.863737427954316e-01  1.108965216589346e-17

 1.189116391892691e-17  2.667735214227439e-19 -1.065629403321111e+00
 2.667735214227439e-19  1.696238717115380e-17  3.678321253488173e-01
-1.065629403321111e+00  3.678321253488173e-01  1.082336475753797e-17

 1.238756197744455e-17  7.212831328273394e-20 -1.079820285638078e+00
 7.212831328273394e-20  1.821712811219491e-17  3.059116259060535e-01
-1.079820285638078e+00  3.059116259060535e-01  1.268500093253584e-17

 1.085175645266380e-17  8.811650202509010e-20 -1.025999119876735e+00
 8.811650202509010e-20  9.420195547434397e-18  5.562865182025706e-01
-1.025999119876735e+00  5.562865182025706e-01  6.992687729616009e-18

 9.672199441558207e-18 -4.146766401107547e-19 -9.641201620032553e-01
-4.146766401107547e-19  8.510321531085419e-18  6.110569693258125e-01
-9.641201620032553e-01  6.110569693258125e-01  3.746078229045797e-18

 9.863312107119155e-18  4.933016638947978e-19 -9.756989119850602e-01
 4.933016638947978e-19  1.367501189962990e-17  3.904376964266600e-01
-9.756989119850602e-01  3.904376964266600e-01  5.409835415600410e-18

 1.008842942377230e-17  8.463305724382793e-20 -9.720027243597439e-01
 8.463305724382793e-20  1.357441206285832e-17  3.910713596943596e-01
-9.720027243597439e-01  3.910713596943596e-01  6.502794055973033e-18

 9.672013402214934e-18  1.379269809836139e-19 -9.605119105486448e-01
 1.379269809836139e-19  1.258889528833325e-17  4.589247756272554e-01
-9.605119105486448e-01  4.589247756272554e-01  4.805708417401497e-18

 1.106413049470227e-17  1.956750728072391e-19 -1.024071565717753e+00
 1.956750728072391e-19  1.138861781605252e-17  4.574343028926415e-01
-1.024071565717753e+00  4.574343028926415e-01  8.449790009414529e-18

 1.145304426186529e-17  1.599461848334227e-19 -1.041390345451790e+00
 1.599461848334227e-19  1.378279329620803e-17  4.401839640688033e-01
-1.041390345451790e+00  4.401839640688033e-01  9.516037544828992e-18

 1.118613221327322e-17  1.559823208917041e-19 -1.029495982983663e+00
 1.559823208917041e-19  1.198551067376321e-17  4.323501132884135e-01
-1.029495982983663e+00  4.323501132884135e-01  8.852993478651270e-18

 1.131079533521550e-17  1.735310861168333e-19 -1.033255622271682e+00
 1.735310861168333e-19  1.374363140150907e-17  4.131017105052531e-01
-1.033255622271682e+00  4.131017105052531e-01  9.366619920986224e-18

 1.109873273899427e-17  1.544168406887904e-19 -1.023020593990423e+00
 1.544168406887904e-19  1.335046598355894e-17  4.174718790542810e-01
-1.023020593990423e+00  4.174718790542810e-01  8.729213995929785e-18

 1.057760826563928e-17  1.736819335273881e-19 -1.002236454820386e+00
 1.736819335273881e-19  1.252687723851652e-17  4.397393444274085e-01
-1.002236454820386e+00  4.397393444274085e-01  7.206000115679615e-18

 1.100940048842284e-17  1.758122016353508e-19 -1.020361361914531e+00
 1.758122016353508e-19  1.273113545644037e-17  4.312271135809637e-01
-1.020361361914531e+00  4.312271135809637e-01  8.506678790347632e-18

 1.085792201101452e-17  1.708705300462069e-19 -1.013921946774100e+00
 1.708705300462069e-19  1.309263860980769e-17  4.357960614224725e-01
-1.013921946774100e+00  4.357960614224725e-01  8.083107697090334e-18

 1.095042803094625e-17  1.682287602731939e-19 -1.017449035022634e+00
 1.682287602731939e-19  1.302685643339920e-17  4.244863030406706e-01
-1.017449035022634e+00  4.244863030406706e-01  8.456643951399663e-18

 1.082784328282729e-17  1.704224708558691e-19 -1.012570960429372e+00
 1.704224708558691e-19  1.274384301828697e-17  4.312514253852598e-01
-1.012570960429372e+00  4.312514253852598e-01  8.105363926813153e-18

 1.090030689880238e-17  1.640622448647121e-19 -1.016112756425934e+00
 1.640622448647121e-19  1.323865251315772e-17  4.277434883944538e-01
-1.016112756425934e+00  4.277434883944538e-01  8.313712560252139e-18

 1.115614171569636e-17  1.628077651440394e-19 -1.029591534823662e+00
 1.628077651440394e-19  1.276373499515283e-17  4.299924410024535e-01
-1.029591534823662e+00  4.299924410024535e-01  8.997298031424823e-18

 1.110134225416290e-17  1.547408021809643e-19 -1.029266289325094e+00
 1.547408021809643e-19  1.370225663993193e-17  4.328755603452087e-01
-1.029266289325094e+00  4.328755603452087e-01  8.851368720576775e-18

 1.096316689205023e-17  1.515434867957459e-19 -1.023879458022027e+00
 1.515434867957459e-19  1.276696088302874e-17  4.253543582094410e-01
-1.023879458022027e+00  4.253543582094410e-01  8.548195891380028e-18

 1.092023995662781e-17  1.506235160115862e-19 -1.022835187160951e+00
 1.506235160115862e-19  1.217514547659347e-17  4.234669967928040e-01
-1.022835187160951e+00  4.234669967928040e-01  8.458435756739188e-18

 1.112546507824526e-17  1.325681059117800e-19 -1.031639851052390e+00
 1.325681059117800e-19  1.403496739571134e-17  4.203613857334310e-01
-1.031639851052390e+00  4.203613857334310e-01  8.949617282021223e-18

 1.070402382756336e-17  1.465914984298194e-19 -1.015509051344109e+00
 1.465914984298194e-19  1.344775893417340e-17  4.364447680455714e-01
-1.015509051344109e+00  4.364447680455714e-01  7.706198355775294e-18

 1.096766888020579e-17  1.444768113928211e-19 -1.026720445891578e+00
 1.444768113928211e-19  1.348344038513071e-17  4.315318884184735e-01
-1.026720445891578e+00  4.315318884184735e-01  8.385873619258153e-18

 1.225668966415933e-17  1.217929446402226e-19 -1.080053118713698e+00
 1.217929446402226e-19  1.551517064668209e-17  3.947326669638413e-01
-1.080053118713698e+00  3.947326669638413e-01  1.225452261273911e-17

 1.114136099743051e-17  1.277956370764705e-19 -1.036836563470559e+00
 1.277956370764705e-19  1.127567459667079e-17  4.783190576441268e-01
-1.036836563470559e+00  4.783190576441268e-01  8.607496009621982e-18

 1.084327592297157e-17  8.201194259650182e-20 -1.021191240511137e+00
 8.201194259650182e-20  1.184232519940671e-17  4.735897111494659e-01
-1.021191240511137e+00  4.735897111494659e-01  7.947864479922855e-18

 1.079922508300436e-17  2.320717682205999e-19 -1.014866100365740e+00
 2.320717682205999e-19  1.394962039777528e-17  4.007483286874520e-01
-1.014866100365740e+00  4.007483286874520e-01  8.366555192362755e-18

 9.953974452782289e-18  1.457759623556484e-19 -9.755715371620599e-01
 1.457759623556484e-19  1.278277746972366e-17  4.234621253322471e-01
-9.755715371620599e-01  4.234621253322471e-01  6.074132445629270e-18

 1.014010742878133e-17  3.669627475835080e-19 -1.012365898478389e+00
 3.669627475835080e-19  1.327608985190510e-17  4.300809912539073e-01
-1.012365898478389e+00  4.300809912539073e-01  8.111751100918923e-18

-1.050427364753880e-17  8.762857512092658e-18 -1.032353750560761e+00
 8.762857512092658e-18  8.234886760759048e-18  4.672913808797937e-01
-1.032353750560761e+00  4.672913808797937e-01  8.539547725172465e-18

 3.675163981109853e-17 -9.974875187796359e-18 -1.048611768970655e+00
-9.974875187796359e-18  1.772838641280031e-17  4.174936904310791e-01
-1.048611768970655e+00  4.174936904310791e-01  1.005557040139483e-17

 5.754375536252155e-19  4.506048928755106e-18 -1.051220607081396e+00
 4.506048928755106e-18  1.326915420514530e-17  4.027748636577705e-01
-1.051220607081396e+00  4.027748636577705e-01  1.034876541364932e-17

 8.675883208856093e-18  8.859857856071428e-19 -1.015565564568911e+00
 8.859857856071428e-19  1.310076506161636e-17  4.526122183981435e-01
-1.015565564568911e+00  4.526122183981435e-01  7.516827279070742e-18

 1.104229047989092e-17  6.101565506025559e-20 -1.025365911386835e+00
 6.101565506025559e-20  1.171356687103162e-17  4.450309769588752e-01
-1.025365911386835e+00  4.450309769588752e-01  8.310454472537682e-18

 1.206873768341253e-17 -1.139395437486189e-19 -1.051313424703567e+00
-1.139395437486189e-19  1.446377710600901e-17  4.217980951459600e-01
-1.051313424703567e+00  4.217980951459600e-01  1.023899557545767e-17

 1.075255810173170e-17  1.697974797190281e-19 -1.026547776568113e+00
 1.697974797190281e-19  1.186219257047938e-17  4.428731737133333e-01
-1.026547776568113e+00  4.428731737133333e-01  8.496567055855841e-18

 1.079125475208034e-17  7.443807605713090e-21 -1.011927442725840e+00
 7.443807605713090e-21  1.238701105071776e-17  4.521345282167006e-01
-1.011927442725840e+00  4.521345282167006e-01  7.461801838024872e-18

 1.091175506086500e-17  1.569993425909933e-19 -1.028699049379176e+00
 1.569993425909933e-19  1.411482025247962e-17  4.040166912225165e-01
-1.028699049379176e+00  4.040166912225165e-01  9.103036105819382e-18

 1.099348841287161e-17  1.350792602575483e-19 -1.032310835692202e+00
 1.350792602575483e-19  1.483818499264886e-17  4.124451837485391e-01
-1.032310835692202e+00  4.124451837485391e-01  9.304188657745523e-18

 1.039212930617698e-17  1.226324594646649e-19 -1.008696613128414e+00
 1.226324594646649e-19  1.257997673222177e-17  4.562051856917002e-01
-1.008696613128414e+00  4.562051856917002e-01  7.243327881387986e-18

 1.095229622685831e-17  1.139592880312400e-19 -1.031794598115480e+00
 1.139592880312400e-19  1.281388268961173e-17  4.322837544896552e-01
-1.031794598115480e+00  4.322837544896552e-01  8.964257182029602e-18

 1.077882746208616e-17  1.267425057679478e-19 -1.025692197613861e+00
 1.267425057679478e-19  1.158270219568059e-17  4.322491698812065e-01
-1.025692197613861e+00  4.322491698812065e-01  8.595691373554170e-18

 1.066165217382629e-17  1.381907674369660e-19 -1.020824937374493e+00
 1.381907674369660e-19  1.135607803317744e-17  4.318132652775321e-01
-1.020824937374493e+00  4.318132652775321e-01  8.321721363926511e-18

 1.062996450332427e-17  1.452170996048570e-19 -1.020814425633138e+00
 1.452170996048570e-19  1.238238667219060e-17  4.325597889293836e-01
-1.020814425633138e+00  4.325597889293836e-01  8.301368106078180e-18

 1.067515939857633e-17  1.241875338571286e-19 -1.023685905588107e+00
 1.241875338571286e-19  1.294335202929578e-17  4.341664265277493e-01
-1.023685905588107e+00  4.341664265277493e-01  8.459009057072317e-18

 1.061147577622353e-17  1.318748331157679e-19 -1.021562629600596e+00
 1.318748331157679e-19  1.284284848036052e-17  4.399914806800414e-01
-1.021562629600596e+00  4.399914806800414e-01  8.272407998347034e-18

 1.036171559625264e-17  1.414719645688809e-19 -1.011920988009282e+00
 1.414719645688809e-19  1.239019907433586e-17  4.303261875330169e-01
-1.011920988009282e+00  4.303261875330169e-01  7.742578396119951e-18

 1.049231127047323e-17  1.538964166110420e-19 -1.017695427419181e+00
 1.538964166110420e-19  1.195871031449398e-17  4.159397529490042e-01
-1.017695427419181e+00  4.159397529490042e-01  8.220273318058211e-18

 1.063270167789019e-17  1.514634267316673e-19 -1.026217501621775e+00
 1.514634267316673e-19  1.214694293737947e-17  4.286588461784458e-01
-1.026217501621775e+00  4.286588461784458e-01  8.480654668963174e-18

 1.119435416851428e-17  1.702384193797955e-19 -1.052264425184295e+00
 1.702384193797955e-19  1.217547236166167e-17  4.337686478975510e-01
-1.052264425184295e+00  4.337686478975510e-01  9.905297766978083e-18

 1.106710770936475e-17  1.468501101281573e-19 -1.045581170813950e+00
 1.468501101281573e-19  1.321677533026856e-17  4.318158179741446e-01
-1.045581170813950e+00  4.318158179741446e-01  9.716967326044876e-18

 1.052884149918497e-17  1.802723770507404e-19 -1.020234820071453e+00
 1.802723770507404e-19  1.303364093524372e-17  4.082781864233774e-01
-1.020234820071453e+00  4.082781864233774e-01  8.586401489922064e-18

 1.008989234040720e-17  1.393268525643230e-19 -1.000114498856922e+00
 1.393268525643230e-19  1.279319175646761e-17  4.279918915765356e-01
-1.000114498856922e+00  4.279918915765356e-01  7.419160233700774e-18

 1.012005765635628e-17  1.849737290523322e-19 -1.002451174086970e+00
 1.849737290523322e-19  1.137038562251839e-17  4.323638870438510e-01
-1.002451174086970e+00  4.323638870438510e-01  7.563620757504855e-18

 1.034775076593804e-17  1.740439801817886e-19 -1.012020656709993e+00
 1.740439801817886e-19  1.067284294195384e-17  4.027809750805754e-01
-1.012020656709993e+00  4.027809750805754e-01  8.415083518772990e-18

 1.090575522081691e-17  1.808734266546588e-19 -1.038795228807189e+00
 1.808734266546588e-19  1.107826538136993e-17  4.114892600295795e-01
-1.038795228807189e+00  4.114892600295795e-01  9.826800790192081e-18

 1.092919847550057e-17  1.054687631975304e-19 -1.043547184071246e+00
 1.054687631975304e-19  1.338041567110323e-17  4.559800785919538e-01
-1.043547184071246e+00  4.559800785919538e-01  9.535078857847859e-18

 1.113980822024839e-17  1.159003074080729e-19 -1.048210633891995e+00
 1.159003074080729e-19  1.093289933535188e-17  4.319704500885353e-01
-1.048210633891995e+00  4.319704500885353e-01  1.049782848691141e-17

 9.915077077761775e-18  1.472404083682209e-19 -9.920918682113126e-01
 1.472404083682209e-19  1.148322347681038e-17  4.238452647767920e-01
-9.920918682113126e-01  4.238452647767920e-01  7.504441479166990e-18

 8.135223763985892e-18  1.469273570225144e-19 -9.132135424023985e-01
 1.469273570225144e-19  1.078469713624756e-17  4.282280677184055e-01
-9.132135424023985e-01  4.282280677184055e-01  3.023056237485367e-18

 9.511835815265752e-18 -2.949706142601554e-20 -9.736009544523615e-01
-2.949706142601554e-20  1.337947647781476e-17  4.165177951629548e-01
-9.736009544523615e-01  4.165177951629548e-01  6.777850545385436e-18

 1.000419580249570e-17  4.003701865201445e-19 -1.010656357811500e+00
 4.003701865201445e-19  8.272873865913229e-18  4.763732137308543e-01
-1.010656357811500e+00  4.763732137308543e-01  7.520144186971655e-18

 1.098777675138778e-17  1.312378998865443e-19 -1.049628214080055e+00
 1.312378998865443e-19  1.318949910439301e-17  4.309330572655531e-01
-1.049628214080055e+00  4.309330572655531e-01  1.045320724829221e-17

 1.063772384355237e-17  1.698527593722780e-19 -1.035341772972664e+00
 1.698527593722780e-19  1.142619596649522e-17  4.129788459008574e-01
-1.035341772972664e+00  4.129788459008574e-01  9.633741238235098e-18

 1.084650507777029e-17  1.480424377321724e-19 -1.043547874486957e+00
 1.480424377321724e-19  1.263084933580874e-17  3.925016500196929e-01
-1.043547874486957e+00  3.925016500196929e-01  1.044344984063857e-17

 1.039365893705492e-17  1.041062359268172e-19 -1.026029279159063e+00
 1.041062359268172e-19  1.426106257947794e-17  4.062427504041944e-01
-1.026029279159063e+00  4.062427504041944e-01  9.149557340185633e-18

 1.007379872881527e-17  1.334038723689675e-19 -1.013951438704569e+00
 1.334038723689675e-19  1.201518479979700e-17  4.235798463785773e-01
-1.013951438704569e+00  4.235798463785773e-01  8.229842695396961e-18

 1.013461552105548e-17  1.680980058845184e-19 -1.017493611924636e+00
 1.680980058845184e-19  1.059656422146859e-17  4.223349436307295e-01
-1.017493611924636e+00  4.223349436307295e-01  8.482042765353010e-18

 1.007534476617411e-17  1.199690904502940e-19 -1.016245178166838e+00
 1.199690904502940e-19  1.241880919191143e-17  4.235215741649174e-01
-1.016245178166838e+00  4.235215741649174e-01  8.411596431567204e-18

 1.003396320053514e-17  1.321309039659327e-19 -1.015621465814530e+00
 1.321309039659327e-19  1.193817891337199e-17  4.234928262832818e-01
-1.015621465814530e+00  4.234928262832818e-01  8.362378393273045e-18

 9.971912676032016e-18  1.026369115254781e-19 -1.015358359650985e+00
 1.026369115254781e-19  1.146474455767591e-17  4.242478675793027e-01
-1.015358359650985e+00  4.242478675793027e-01  8.333273106080094e-18

 9.920393545456571e-18  1.355918184223194e-19 -1.015322397480377e+00
 1.355918184223194e-19  1.040955954625197e-17  4.240972088898317e-01
-1.015322397480377e+00  4.240972088898317e-01  8.317450326068152e-18

 9.904020030996746e-18  8.783038623089800e-20 -1.015386796876650e+00
 8.783038623089800e-20  1.238557946729294e-17  4.240802613780620e-01
-1.015386796876650e+00  4.240802613780620e-01  8.310117503308800e-18

 9.810014878546656e-18  1.223583282427187e-19 -1.012830652981064e+00
 1.223583282427187e-19  1.109489064448899e-17  4.241931143334560e-01
-1.012830652981064e+00  4.241931143334560e-01  8.222372768591234e-18

 9.738695410665253e-18  1.013488908348454e-19 -1.011989466746521e+00
 1.013488908348454e-19  1.161649542963984e-17  4.246348473672813e-01
-1.011989466746521e+00  4.246348473672813e-01  8.176825179465082e-18

 9.702075464681764e-18  1.073059741529661e-19 -1.011801172916314e+00
 1.073059741529661e-19  1.170822265058740e-17  4.249858540268019e-01
-1.011801172916314e+00  4.249858540268019e-01  8.162313091849506e-18

 9.692995521964475e-18  1.074325984217637e-19 -1.012832467371474e+00
 1.074325984217637e-19  1.179657043525760e-17  4.246474589245343e-01
-1.012832467371474e+00  4.246474589245343e-01  8.198398192829921e-18

 9.630105743469048e-18  1.006065273334983e-19 -1.012160782914399e+00
 1.006065273334983e-19  1.162430740670784e-17  4.253301307012965e-01
-1.012160782914399e+00  4.253301307012965e-01  8.153623160675056e-18

 9.609282551004378e-18  9.741567655722791e-20 -1.013241833410878e+00
 9.741567655722791e-20  1.160188508788063e-17  4.254259490234721e-01
-1.013241833410878e+00  4.254259490234721e-01  8.167654528215188e-18

 9.543948517596979e-18  1.015881206049026e-19 -1.014175832294367e+00
 1.015881206049026e-19  1.066075198277331e-17  4.254502200862759e-01
-1.014175832294367e+00  4.254502200862759e-01  8.173095707931815e-18

 9.451085535443056e-18  8.650588228335982e-20 -1.014293423831381e+00
 8.650588228335982e-20  1.041101980790323e-17  4.254430088694502e-01
-1.014293423831381e+00  4.254430088694502e-01  8.147748740795388e-18

 9.330455066559675e-18  7.260861123088042e-20 -1.013430195578537e+00
 7.260861123088042e-20  1.132390242357855e-17  4.256677987941415e-01
-1.013430195578537e+00  4.256677987941415e-01  8.072058299831737e-18

 9.266342427321835e-18  9.349425019203015e-20 -1.014178767643170e+00
 9.349425019203015e-20  1.115272060993188e-17  4.242632902549971e-01
-1.014178767643170e+00  4.242632902549971e-01  8.089104801340869e-18

 9.229711118175789e-18  7.535537274535940e-20 -1.014695075840250e+00
 7.535537274535940e-20  1.058371799536573e-17  4.248132640675889e-01
-1.014695075840250e+00  4.248132640675889e-01  8.092769063876196e-18

 9.190658662712781e-18  7.713199582467104e-20 -1.015739044565300e+00
 7.713199582467104e-20  1.062279547888770e-17  4.249688170206619e-01
-1.015739044565300e+00  4.249688170206619e-01  8.143710798000540e-18

 9.202192897395437e-18  7.927513610226607e-20 -1.018598431657714e+00
 7.927513610226607e-20  1.057055129115658e-17  4.225535765703201e-01
-1.018598431657714e+00  4.225535765703201e-01  8.305731368454270e-18

 9.156506686230546e-18  8.383332006470693e-20 -1.020360832647188e+00
 8.383332006470693e-20  1.035099337682504e-17  4.267499051903671e-01
-1.020360832647188e+00  4.267499051903671e-01  8.354563967819563e-18

 9.018748658859603e-18  7.988959566998271e-20 -1.016873437791831e+00
 7.988959566998271e-20  9.920169939366522e-18  4.281462917829529e-01
-1.016873437791831e+00  4.281462917829529e-01  8.140890073630563e-18

 8.753612933051309e-18  8.254958494103646e-20 -1.007836728248531e+00
 8.254958494103646e-20  9.967989245533370e-18  4.244013266473290e-01
-1.007836728248531e+00  4.244013266473290e-01  7.685732249546628e-18

 8.657520031022154e-18  6.777353487838869e-20 -1.005835459875498e+00
 6.777353487838869e-20  1.040380527080632e-17  4.099784145459656e-01
-1.005835459875498e+00  4.099784145459656e-01  7.691711391033511e-18

 8.984768661306444e-18  8.028921961961285e-20 -1.024700742438784e+00
 8.028921961961285e-20  1.046242146698114e-17  4.191106027826466e-01
-1.024700742438784e+00  4.191106027826466e-01  8.666651987622927e-18

 9.406311178843796e-18  3.260416526959354e-20 -1.045418802090616e+00
 3.260416526959354e-20  9.481425946660776e-18  4.378763788756071e-01
-1.045418802090616e+00  4.378763788756071e-01  9.986865714312838e-18

 7.870839110119812e-18  9.494225681820781e-20 -9.816139676049013e-01
 9.494225681820781e-20  9.207222649115983e-18  4.255947844094834e-01
-9.816139676049013e-01  4.255947844094834e-01  6.289715156894130e-18

 6.916813778842691e-18  5.506999430635910e-20 -9.412590727304065e-01
 5.506999430635910e-20  1.078578926777146e-17  3.896925228297285e-01
-9.412590727304065e-01  3.896925228297285e-01  4.264598763623210e-18

 7.969102118956503e-18  1.980744976281303e-21 -9.910970504717962e-01
 1.980744976281303e-21  1.013377378399083e-17  4.119910640907173e-01
-9.910970504717962e-01  4.119910640907173e-01  7.063222244951694e-18

 8.987736690672109e-18  2.169795116491167e-19 -1.048771238799708e+00
 2.169795116491167e-19  8.682289697351236e-18  4.470435471796874e-01
-1.048771238799708e+00  4.470435471796874e-01  9.631579404346956e-18

 8.971659917540418e-18  5.499878769269815e-20 -1.049413887252770e+00
 5.499878769269815e-20  1.028387988306916e-17  4.265862980938913e-01
-1.049413887252770e+00  4.265862980938913e-01  9.966212159374612e-18

 7.996723908092297e-18  9.460847535172470e-20 -1.010511847611241e+00
 9.460847535172470e-20  9.991885358449845e-18  4.061520287465352e-01
-1.010511847611241e+00  4.061520287465352e-01  7.885965408778563e-18

 7.205437526864248e-18  6.526740282901856e-20 -9.817108771020359e-01
 6.526740282901856e-20  8.479622612270767e-18  4.227237901139629e-01
-9.817108771020359e-01  4.227237901139629e-01  6.180179822809277e-18

 7.616261767083584e-18  4.835785712492853e-20 -1.009324639144648e+00
 4.835785712492853e-20  8.802032452482227e-18  4.177714983800987e-01
-1.009324639144648e+00  4.177714983800987e-01  7.746179248460046e-18

 7.569226083337946e-18  6.637223438794864e-20 -1.015574623187642e+00
 6.637223438794864e-20  7.177802966226423e-18  4.529664444341879e-01
-1.015574623187642e+00  4.529664444341879e-01  7.478370046888453e-18

 7.861356783402167e-18  3.294150817384562e-20 -1.031737201696566e+00
 3.294150817384562e-20  8.883929098135220e-18  4.319189454563080e-01
-1.031737201696566e+00  4.319189454563080e-01  8.872909201546671e-18

 6.830068375045118e-18  1.353614182966638e-20 -9.915106457893985e-01
 1.353614182966638e-20  8.152260281987047e-18  4.397955163126639e-01
-9.915106457893985e-01  4.397955163126639e-01  6.509165240233273e-18

 5.701090681468449e-18 -1.790191350346043e-19 -9.456777565890950e-01
-1.790191350346043e-19  9.932904629816817e-18  3.787394988323475e-01
-9.456777565890950e-01  3.787394988323475e-01  4.396886784480998e-18

 6.825769894937026e-18 -1.370933006309280e-21 -1.008288164295501e+00
-1.370933006309280e-21  9.041241558240696e-18  4.164470808443144e-01
-1.008288164295501e+00  4.164470808443144e-01  7.450673095275880e-18

 7.868801654300659e-18  2.724216006305053e-19 -1.073895814692646e+00
 2.724216006305053e-19  7.267926337006931e-18  4.593354132812937e-01
-1.073895814692646e+00  4.593354132812937e-01  1.031598603702564e-17

 6.831660374770322e-18  4.311622010821088e-20 -1.034971962848870e+00
 4.311622010821088e-20  9.138929721023822e-18  4.060441979921546e-01
-1.034971962848870e+00  4.060441979921546e-01  8.515760486503537e-18

 6.076479052081764e-18  2.262543772022182e-20 -1.011452046205937e+00
 2.262543772022182e-20  8.151958750344328e-18  4.213024289319148e-01
-1.011452046205937e+00  4.213024289319148e-01  7.040564223855674e-18

 5.643949324304947e-18  1.674943308957235e-20 -1.006618605754492e+00
 1.674943308957235e-20  7.437423500636039e-18  4.244023374175570e-01
-1.006618605754492e+00  4.244023374175570e-01  6.693123267439719e-18

 5.548408973854309e-18  1.250140561205941e-20 -1.013243468751158e+00
 1.250140561205941e-20  6.600607599970449e-18  4.255365780915756e-01
-1.013243468751158e+00  4.255365780915756e-01  6.969594001792072e-18

 5.330830032716194e-18  1.090056315613153e-20 -1.015175569554877e+00
 1.090056315613153e-20  6.127484205857585e-18  4.273231007023732e-01
-1.015175569554877e+00  4.273231007023732e-01  6.969038113873702e-18

 5.394045338135461e-18  7.068506452151144e-21 -1.026853677585725e+00
 7.068506452151144e-21  6.854504455699688e-18  4.137994476861719e-01
-1.026853677585725e+00  4.137994476861719e-01  7.760736752488681e-18

 5.135766219679854e-18  5.187302885125228e-21 -1.026726481081286e+00
 5.187302885125228e-21  5.788680899613417e-18  4.232737508847779e-01
-1.026726481081286e+00  4.232737508847779e-01  7.524113004527020e-18

 4.696963574765106e-18 -6.351516387726255e-22 -1.024786981798312e+00
-6.351516387726255e-22  6.717656396582287e-18  4.270573317920001e-01
-1.024786981798312e+00  4.270573317920001e-01  7.290539304591548e-18

 3.915174829359131e-18  7.540939593682358e-21 -1.009499002999638e+00
 7.540939593682358e-21  5.262304429165405e-18  4.244086612999915e-01
-1.009499002999638e+00  4.244086612999915e-01  6.339639497339012e-18

 3.289086631926691e-18  5.073245162613045e-21 -1.000064750134227e+00
 5.073245162613045e-21  4.874025242563681e-18  4.231282656049911e-01
-1.000064750134227e+00  4.231282656049911e-01  5.683028187828188e-18

 2.909592060235400e-18 -8.902544150507039e-21 -1.010612501666938e+00
-8.902544150507039e-21  4.205483991799104e-18  4.210248499229475e-01
-1.010612501666938e+00  4.210248499229475e-01  6.078720196410031e-18

 2.759207698432699e-18 -1.207118092501049e-20 -1.032157618556099e+00
-1.207118092501049e-20  3.117669896540071e-18  4.443444842770923e-01
-1.032157618556099e+00  4.443444842770923e-01  6.873066408238355e-18

 1.864861423628872e-18 -6.108451643638023e-20 -1.014344495756165e+00
-6.108451643638023e-20  2.471208777554601e-18  4.514046891198868e-01
-1.014344495756165e+00  4.514046891198868e-01  5.698657456155975e-18

 5.058842568737384e-19  6.143196656394183e-21 -9.814998278234738e-01
 6.143196656394183e-21  3.388130603178069e-18  3.905480807512806e-01
-9.814998278234738e-01  3.905480807512806e-01  3.973462760601799e-18

 6.044358296920941e-19 -1.137479278029938e-19 -1.013794371870921e+00
-1.137479278029938e-19  3.700678412266428e-18  4.026732940644244e-01
-1.013794371870921e+00  4.026732940644244e-01  5.582926337841104e-18

 1.406097295983276e-18 -1.332838460315924e-19 -1.097076583724905e+00
-1.332838460315924e-19  9.185880720369744e-19  4.637799949449454e-01
-1.097076583724905e+00  4.637799949449454e-01  9.519677645313546e-18

-9.847177828318203e-19 -1.234627831649183e-19 -1.023726234836076e+00
-1.234627831649183e-19  8.284792531455875e-19  4.501537740906891e-01
-1.023726234836076e+00  4.501537740906891e-01  4.856177276925546e-18

-2.647473049372174e-18  1.296952303927543e-19 -9.873706370171998e-01
 1.296952303927543e-19  2.056882900382863e-18  3.687607701815517e-01
-9.873706370171998e-01  3.687607701815517e-01  2.865971298238636e-18

-3.091148619320037e-18  1.997589336684624e-20 -1.014158748444534e+00
 1.997589336684624e-20 -2.326858626514922e-18  4.546697730874151e-01
-1.014158748444534e+00  4.546697730874151e-01  3.528414166319998e-18

-3.332519492370283e-18 -5.028059730385044e-20 -1.042028171262347e+00
-5.028059730385044e-20 -3.016219525927266e-18  4.830854943600146e-01
-1.042028171262347e+00  4.830854943600146e-01  4.825112203555235e-18

-4.920478560656371e-18  1.642445659881531e-20 -1.022564271616229e+00
 1.642445659881531e-20 -1.820585284585403e-18  4.190339911993533e-01
-1.022564271616229e+00  4.190339911993533e-01  3.970258313085126e-18

-6.866401348656624e-18  7.045047802688727e-20 -9.913411939331428e-01
 7.045047802688727e-20 -2.587945743885094e-18  3.987465836486545e-01
-9.913411939331428e-01  3.987465836486545e-01  1.961378959200545e-18

-7.732685572484963e-18 -2.186502124535665e-20 -1.014637792668101e+00
-2.186502124535665e-20 -3.242004863214198e-18  4.082846343986268e-01
-1.014637792668101e+00  4.082846343986268e-01  2.955680220947051e-18

-9.717625796979865e-18 -1.407943974472754e-20 -9.947765273967366e-01
-1.407943974472754e-20 -7.931465353207888e-18  5.052704351132574e-01
-9.947765273967366e-01  5.052704351132574e-01 -9.156861850282218e-20

-1.024650545571334e-17 -6.781485875206106e-20 -1.015201015810956e+00
-6.781485875206106e-20 -7.900578486832001e-18  4.718471246948289e-01
-1.015201015810956e+00  4.718471246948289e-01  1.326025611130679e-18

-1.252660258930073e-17  1.073371808071574e-19 -1.004671291027735e+00
 1.073371808071574e-19 -7.046049663964304e-18  4.121951255715355e-01
-1.004671291027735e+00  4.121951255715355e-01  5.412394581402274e-19

-1.473049930830066e-17  8.557557131164395e-20 -9.992341889299389e-01
 8.557557131164395e-20 -8.195285303804410e-18  4.154416190087081e-01
-9.992341889299389e-01  4.154416190087081e-01 -4.565515510102852e-19

-1.656664102615650e-17  3.190758803895229e-20 -1.013891121097776e+00
 3.190758803895229e-20 -9.740874113250035e-18  4.092375828797593e-01
-1.013891121097776e+00  4.092375828797593e-01 -2.925634182714963e-19

-1.856797021186854e-17 -1.080782311701595e-20 -1.055409715292928e+00
-1.080782311701595e-20 -1.196286436735038e-17  4.394714733360835e-01
-1.055409715292928e+00  4.394714733360835e-01  7.232199959813966e-19

-2.250434696581062e-17 -2.402758024055041e-19 -1.035897820394910e+00
-2.402758024055041e-19 -1.501148201856800e-17  4.767065103344611e-01
-1.035897820394910e+00  4.767065103344611e-01 -1.547097877155015e-18

-2.450573959033359e-17  2.726950722196757e-19 -1.058800751224567e+00
 2.726950722196757e-19 -1.257271398537836e-17  3.598047097009580e-01
-1.058800751224567e+00  3.598047097009580e-01 -8.558172748567349e-20

-2.894294776391914e-17  3.016796691634656e-19 -9.942067256258156e-01
 3.016796691634656e-19 -1.534535318472855e-17  3.836979677209817e-01
-9.942067256258156e-01  3.836979677209817e-01 -5.178481834021204e-18

-3.544808452763023e-17  8.809987352243184e-20 -9.694384873288064e-01
 8.809987352243184e-20 -2.019108491767816e-17  4.364692067888757e-01
-9.694384873288064e-01  4.364692067888757e-01 -8.982111350252923e-18

-4.204676419122196e-17 -1.903603921002204e-19 -1.009308755273143e+00
-1.903603921002204e-19 -2.130810036956591e-17  4.146375519472721e-01
-1.009308755273143e+00  4.146375519472721e-01 -9.218252200362929e-18

-5.085143017695498e-17 -8.080178940881075e-19 -1.088526203701805e+00
-8.080178940881075e-19 -2.660843970470510e-17  4.537431424162819e-01
-1.088526203701805e+00  4.537431424162819e-01 -8.589433967604600e-18

-6.063278041848875e-17 -1.160489183187347e-18 -9.993099561392755e-01
-1.160489183187347e-18 -3.110049779623217e-17  4.933093286808073e-01
-9.993099561392755e-01  4.933093286808073e-01 -1.677031115230781e-17

-6.703754445964723e-17 -5.862513388540634e-19 -1.035368829102083e+00
-5.862513388540634e-19 -2.790408305090817e-17  3.356403436808973e-01
-1.035368829102083e+00  3.356403436808973e-01 -1.606656163518569e-17

-8.226739172548751e-17 -1.767160786422617e-18 -9.799711198087617e-01
-1.767160786422617e-18 -3.626193368246660e-17  4.379221085508443e-01
-9.799711198087617e-01  4.379221085508443e-01 -2.446060345271099e-17

-9.777204884179486e-17 -2.987283958421809e-18 -9.922454519989719e-01
-2.987283958421809e-18 -3.948607410565334e-17  4.440936679598509e-01
-9.922454519989719e-01  4.440936679598509e-01 -2.915970425601616e-17

-1.076728014666222e-16 -6.496682302142631e-18 -9.987328547132827e-01
-6.496682302142631e-18 -2.650482573426853e-17  4.228001365520194e-01
-9.987328547132827e-01  4.228001365520194e-01 -4.093080523885639e-17

-1.637483118798994e-16 -1.097873385507419e-17 -1.023640794312799e+00
-1.097873385507419e-17 -4.574214674110144e-17  4.240834644072176e-01
-1.023640794312799e+00  4.240834644072176e-01 -5.049434420356235e-17

-2.019228809357562e-16 -1.731275562458134e-17 -1.020314178104573e+00
-1.731275562458134e-17 -4.585855054891436e-17  4.219780167835525e-01
-1.020314178104573e+00  4.219780167835525e-01 -6.402738642704962e-17

-2.674025604827191e-16 -3.127342616914160e-17 -1.002859366772555e+00
-3.127342616914160e-17 -4.316457541674652e-17  4.247933195166342e-01
-1.002859366772555e+00  4.247933195166342e-01 -8.817977517465589e-17

-3.467249469552037e-16 -6.381874398790133e-17 -9.901017714032440e-01
-6.381874398790133e-17 -3.621711250012055e-18  4.204728474267848e-01
-9.901017714032440e-01  4.204728474267848e-01 -1.342685721099111e-16

-4.436898970672824e-16 -8.706288562892816e-17 -9.887266149259327e-01
-8.706288562892816e-17 -1.197693594602990e-17  4.367025774651838e-01
-9.887266149259327e-01  4.367025774651838e-01 -1.541814493101759e-16

-5.041628363661461e-16 -1.129270222284467e-16 -1.000051037621318e+00
-1.129270222284467e-16  4.771778720827024e-18  4.320309172177956e-01
-1.000051037621318e+00  4.320309172177956e-01 -1.769934656866341e-16

-6.482308800919062e-16 -1.840193395790397e-16 -1.005023397119325e+00
-1.840193395790397e-16  4.979587977723783e-17  4.258568203178720e-01
-1.005023397119325e+00  4.258568203178720e-01 -2.354081516454085e-16

-9.019203071277577e-16 -3.417474905591532e-16 -1.006230334166477e+00
-3.417474905591532e-16  1.467570482055158e-16  4.205932378600117e-01
-1.006230334166477e+00  4.205932378600117e-01 -3.427587428312728e-16

-1.153110064778026e-15 -5.813436023583819e-16 -1.019963403000338e+00
-5.813436023583819e-16  3.453475619299248e-16  4.199680724318574e-01
-1.019963403000338e+00  4.199680724318574e-01 -4.921687365760330e-16

-1.676258581708412e-15 -1.052050665311622e-15 -1.025452760938448e+00
-1.052050665311622e-15  5.236520347199816e-16  4.391684265649346e-01
-1.025452760938448e+00  4.391684265649346e-01 -7.204013046976642e-16

-2.089313154155990e-15 -1.614947143686510e-15 -1.018879675532332e+00
-1.614947143686510e-15  7.159894256350511e-16  4.311432857193549e-01
-1.018879675532332e+00  4.311432857193549e-01 -9.762769832669228e-16

-2.745942375908723e-15 -2.788187737904925e-15 -1.012086423597997e+00
-2.788187737904925e-15  9.295397068653533e-16  4.165102772399129e-01
-1.012086423597997e+00  4.165102772399129e-01 -1.483402033485491e-15

-4.500983674575344e-15 -6.542861936412484e-15 -1.010816738647954e+00
-6.542861936412484e-15  8.309536663585248e-16  4.242018391830641e-01
-1.010816738647954e+00  4.242018391830641e-01 -3.257694886116577e-15

-8.722444115021999e-15 -1.181566400986899e-14 -1.012369936182216e+00
-1.181566400986899e-14 -7.226606814499436e-16  4.247618592074335e-01
-1.012369936182216e+00  4.247618592074335e-01 -7.300983415176746e-15

-1.008071423255357e-14 -8.698736745697682e-15 -1.012373548441512e+00
-8.698736745697682e-15  8.494390696326687e-15  4.209657055410574e-01
-1.012373548441512e+00  4.209657055410574e-01 -1.280813027028701e-14

 1.209017310974052e-13  3.099954718709360e-14 -1.013390036368564e+00
 3.099954718709360e-14  7.458059334773460e-14  4.225717761003243e-01
-1.013390036368564e+00  4.225717761003243e-01  2.800938060173459e-14

-6.170124686983272e-13 -1.398180473295534e-13 -1.014545706608015e+00
-1.398180473295534e-13 -3.074111048925293e-13  4.250451160846256e-01
-1.014545706608015e+00  4.250451160846256e-01 -1.532544923074673e-13

-1.095855284157688e-14  1.697961765713721e-14 -1.022190835792763e+00
 1.697961765713721e-14  1.827431624657477e-14  4.275327570176203e-01
-1.022190835792763e+00  4.275327570176203e-01 -1.043650271994556e-14

-6.503003881160936e-13 -1.387490844124245e-13 -1.018192228177807e+00
-1.387490844124245e-13 -3.119637157196677e-13  4.238900262042734e-01
-1.018192228177807e+00  4.238900262042734e-01 -1.671539374658952e-13

-1.567031349032218e-14  2.990146044263983e-16 -1.008875679601110e+00
 2.990146044263983e-16 -3.734273424760679e-15  4.320930511392639e-01
-1.008875679601110e+00  4.320930511392639e-01 -6.842528639808877e-15

-9.529783780821085e-15 -8.647844120517089e-16 -1.031894394681585e+00
-8.647844120517089e-16 -2.706385321692939e-15  3.889857019637194e-01
-1.031894394681585e+00  3.889857019637194e-01 -3.722005050186611e-15

-7.036430463992676e-15 -1.176854226213775e-15 -1.020636925659657e+00
-1.176854226213775e-15 -2.501885022097474e-15  4.131258437362278e-01
-1.020636925659657e+00  4.131258437362278e-01 -2.513804400122452e-15

-4.326544316575763e-15 -1.216078086191180e-15 -1.025444997154402e+00
-1.216078086191180e-15 -2.158457557269202e-15  4.462325039288678e-01
-1.025444997154402e+00  4.462325039288678e-01 -1.387550019138360e-15

-2.964949614224733e-15 -1.073118567636379e-15 -1.022331533517319e+00
-1.073118567636379e-15 -1.756104692763427e-15  4.271334808901882e-01
-1.022331533517319e+00  4.271334808901882e-01 -9.049272160009024e-16

-2.238042235224145e-15 -9.308992697321801e-16 -1.027685778366532e+00
-9.308992697321801e-16 -1.496262470044827e-15  4.022076168175713e-01
-1.027685778366532e+00  4.022076168175713e-01 -6.933276617702787e-16

-1.370374988323201e-15 -6.658207021365742e-16 -1.007560368191050e+00
-6.658207021365742e-16 -1.168783265825806e-15  4.273638321377471e-01
-1.007560368191050e+00  4.273638321377471e-01 -4.001927371906408e-16

-8.427650996721061e-16 -4.433972016986793e-16 -1.021613210257144e+00
-4.433972016986793e-16 -8.841708822780591e-16  4.353663451111899e-01
-1.021613210257144e+00  4.353663451111899e-01 -2.447777104440063e-16

-5.888455496232084e-16 -3.229321484952649e-16 -1.019005984542561e+00
-3.229321484952649e-16 -6.980290711331657e-16  4.287456752259143e-01
-1.019005984542561e+00  4.287456752259143e-01 -1.718707861306510e-16

-4.073623263868027e-16 -2.270968999884174e-16 -1.009684492062416e+00
-2.270968999884174e-16 -5.325679581060508e-16  4.245793202197122e-01
-1.009684492062416e+00  4.245793202197122e-01 -1.196723919013829e-16

-3.105946532221338e-16 -1.722774939814869e-16 -1.018917130594317e+00
-1.722774939814869e-16 -4.363370677219839e-16  4.268891435795301e-01
-1.018917130594317e+00  4.268891435795301e-01 -9.089825844227127e-17

-2.618790645557298e-16 -1.440928703542637e-16 -1.014372784156871e+00
-1.440928703542637e-16 -3.834070004237876e-16  4.355000740550702e-01
-1.014372784156871e+00  4.355000740550702e-01 -7.694138649951288e-17

-2.253294591243385e-16 -1.230541474354512e-16 -1.017847761144544e+00
-1.230541474354512e-16 -3.386823839633003e-16  4.291475144882478e-01
-1.017847761144544e+00  4.291475144882478e-01 -6.575649402176210e-17

-1.879479251491564e-16 -1.014837666834554e-16 -1.020074217718136e+00
-1.014837666834554e-16 -2.929838324521268e-16  4.267390991681659e-01
-1.020074217718136e+00  4.267390991681659e-01 -5.436428951805688e-17

-1.556006623303482e-16 -8.264243270427907e-17 -1.022205226346610e+00
-8.264243270427907e-17 -2.487498402280244e-16  4.263170033185112e-01
-1.022205226346610e+00  4.263170033185112e-01 -4.445330665905253e-17

-1.318629045042237e-16 -6.891334313512839e-17 -1.024139087718927e+00
-6.891334313512839e-17 -2.191271692271426e-16  4.287690685931975e-01
-1.024139087718927e+00  4.287690685931975e-01 -3.713962633751894e-17

-1.119518711853313e-16 -5.744334569059659e-17 -1.023210725096490e+00
-5.744334569059659e-17 -1.890181193058720e-16  4.310087060394354e-01
-1.023210725096490e+00  4.310087060394354e-01 -3.104185321132567e-17

-9.477370053557871e-17 -4.787021590443661e-17 -1.023783787647436e+00
-4.787021590443661e-17 -1.643078414416838e-16  4.268560638363209e-01
-1.023783787647436e+00  4.268560638363209e-01 -2.560183978569596e-17

-8.235635490385330e-17 -4.072965774049875e-17 -1.007356416632426e+00
-4.072965774049875e-17 -1.451639913272342e-16  4.373453105011683e-01
-1.007356416632426e+00  4.373453105011683e-01 -2.270914690813665e-17

-7.168768311590014e-17 -3.534630724705475e-17 -1.012325397171645e+00
-3.534630724705475e-17 -1.262579215272783e-16  4.010302533865597e-01
-1.012325397171645e+00  4.010302533865597e-01 -1.869766156532385e-17

-6.180891314488120e-17 -3.127150732796178e-17 -1.078836986777889e+00
-3.127150732796178e-17 -1.097198351104553e-16  3.397010367726985e-01
-1.078836986777889e+00  3.397010367726985e-01 -1.104497055928981e-17

-5.248310311753737e-17 -2.345530732491257e-17 -1.106187090396272e+00
-2.345530732491257e-17 -1.050889924340607e-16  4.944707197687780e-01
-1.106187090396272e+00  4.944707197687780e-01 -9.025256216559483e-18

-4.590808817116571e-17 -2.089071583942223e-17 -1.069859323141607e+00
-2.089071583942223e-17 -9.445999426695794e-17  5.587893647847832e-01
-1.069859323141607e+00  5.587893647847832e-01 -7.479584464442015e-18

-4.215560426709193e-17 -1.959038645309586e-17 -9.156061068810452e-01
-1.959038645309586e-17 -7.336037956737552e-17  3.938783726674792e-01
-9.156061068810452e-01  3.938783726674792e-01 -1.397334873690722e-17

-3.358274980602974e-17 -1.605386580415559e-17 -8.935181332969062e-01
-1.605386580415559e-17 -6.094296262734863e-17  4.457591193093980e-01
-8.935181332969062e-01  4.457591193093980e-01 -1.125759549213871e-17

-2.343996052041212e-17 -1.213785441267848e-17 -1.058217607813378e+00
-1.213785441267848e-17 -4.718170760546793e-17  3.819717034526460e-01
-1.058217607813378e+00  3.819717034526460e-01  9.725270001951575e-19

-2.133164888248326e-17 -1.003380741484897e-17 -1.044405245584014e+00
-1.003380741484897e-17 -4.660482029723005e-17  4.582725811252528e-01
-1.044405245584014e+00  4.582725811252528e-01 -7.845587839841251e-19

-1.903936482151273e-17 -8.929196586260356e-18 -1.048995961251209e+00
-8.929196586260356e-18 -4.389526703347329e-17  5.083712574021495e-01
-1.048995961251209e+00  5.083712574021495e-01 -2.117087255281414e-19

-1.649725772208342e-17 -8.182927911274068e-18 -1.010170237804474e+00
-8.182927911274068e-18 -3.345569983018021e-17  3.851978332439797e-01
-1.010170237804474e+00  3.851978332439797e-01 -3.957854344893243e-19

-1.407167676847963e-17 -7.308517448862797e-18 -9.956300103257253e-01
-7.308517448862797e-18 -2.848068412717346e-17  4.010209052366341e-01
-9.956300103257253e-01  4.010209052366341e-01 -2.339451356438208e-19

-1.143128873380664e-17 -5.981137230195476e-18 -1.023073444460497e+00
-5.981137230195476e-18 -2.740768783982347e-17  4.654078279102818e-01
-1.023073444460497e+00  4.654078279102818e-01  1.058325466631505e-18

-9.442836411164993e-18 -5.540940789509035e-18 -1.050734458486924e+00
-5.540940789509035e-18 -2.380171356370582e-17  4.341106827095577e-01
-1.050734458486924e+00  4.341106827095577e-01  3.492533364930919e-18

-7.929977933952034e-18 -5.101612049159991e-18 -1.060083987608602e+00
-5.101612049159991e-18 -2.023020458125234e-17  4.172834069630366e-01
-1.060083987608602e+00  4.172834069630366e-01  4.607283751480797e-18

-6.432428477220441e-18 -4.439207254945687e-18 -1.043092005069896e+00
-4.439207254945687e-18 -1.780967308499777e-17  4.234382394592593e-01
-1.043092005069896e+00  4.234382394592593e-01  4.093332837787929e-18

-5.106998439181669e-18 -3.975333575471763e-18 -1.039397843803647e+00
-3.975333575471763e-18 -1.500542184383755e-17  4.193553717903416e-01
-1.039397843803647e+00  4.193553717903416e-01  4.387492504792390e-18

-4.975907356946757e-18 -3.754944498361793e-18 -1.021391496379969e+00
-3.754944498361793e-18 -1.443848270699444e-17  4.474324328118652e-01
-1.021391496379969e+00  4.474324328118652e-01  3.138491785143971e-18

-3.801850734873267e-18 -3.560618466410234e-18 -1.044189854970811e+00
-3.560618466410234e-18 -1.268394685136461e-17  4.353233524857791e-01
-1.044189854970811e+00  4.353233524857791e-01  4.995595666528978e-18

-2.830242849867758e-18 -3.256083718641704e-18 -1.041776755013600e+00
-3.256083718641704e-18 -1.149073652400612e-17  4.329411094134593e-01
-1.041776755013600e+00  4.329411094134593e-01  5.283378476406732e-18

-2.314822106877553e-18 -3.039499347450755e-18 -1.030200907384424e+00
-3.039499347450755e-18 -9.677952170692548e-18  4.362322433340896e-01
-1.030200907384424e+00  4.362322433340896e-01  4.878049518168632e-18

-2.042842462165240e-18 -2.833106306050205e-18 -1.007991071983863e+00
-2.833106306050205e-18 -9.338216289537117e-18  4.386514430896936e-01
-1.007991071983863e+00  4.386514430896936e-01  3.847961199170093e-18

-2.461973800410608e-19 -2.660031297417768e-18 -1.043001194901942e+00
-2.660031297417768e-18 -5.121738637460030e-18  3.719672026135002e-01
-1.043001194901942e+00  3.719672026135002e-01  7.186003764824831e-18

-4.620185407109963e-20 -2.370119599556098e-18 -1.033495283672332e+00
-2.370119599556098e-18 -6.158433868760201e-18  4.322141715141679e-01
-1.033495283672332e+00  4.322141715141679e-01  5.949126163915859e-18

 4.327482121275456e-19 -2.172608942892235e-18 -1.032562659329481e+00
-2.172608942892235e-18 -7.023960387929743e-18  4.880241435012782e-01
-1.032562659329481e+00  4.880241435012782e-01  5.547362104843322e-18

 1.127298223358518e-18 -1.980805372007641e-18 -1.030685368566316e+00
-1.980805372007641e-18 -2.393517330044481e-18  3.955901677736859e-01
-1.030685368566316e+00  3.955901677736859e-01  6.470768236637422e-18

 1.746544889478865e-18 -1.969843150844764e-18 -1.030766664764516e+00
-1.969843150844764e-18 -9.866605903555888e-19  3.703788867560194e-01
-1.030766664764516e+00  3.703788867560194e-01  7.109391392455094e-18

 1.855905243403671e-18 -1.637569495132484e-18 -1.021092340268995e+00
-1.637569495132484e-18 -5.261311592875829e-18  4.999060623942361e-01
-1.021092340268995e+00  4.999060623942361e-01  5.157018682266227e-18

 2.679071742192993e-18 -1.706453463887415e-18 -1.032244533473069e+00
-1.706453463887415e-18 -3.358793571365363e-18  4.846045121608640e-01
-1.032244533473069e+00  4.846045121608640e-01  6.615777595800816e-18

 2.376620186491113e-18 -1.403570342372243e-18 -9.971888700743528e-01
-1.403570342372243e-18 -6.659880425096870e-19  4.098977817184604e-01
-9.971888700743528e-01  4.098977817184604e-01  5.222338935000601e-18

 1.874887700573592e-18 -1.394767116687793e-18 -9.496734373890078e-01
-1.394767116687793e-18 -3.944505074684233e-19  4.216120126116299e-01
-9.496734373890078e-01  4.216120126116299e-01  2.779775265987571e-18

 3.754658478102950e-18 -1.418764804705438e-18 -1.006734937151745e+00
-1.418764804705438e-18  1.957383235916665e-18  3.979474052881811e-01
-1.006734937151745e+00  3.979474052881811e-01  6.742828111479756e-18

 4.934276897843310e-18 -9.503032806592648e-19 -1.055357063372185e+00
-9.503032806592648e-19 -9.928551572523166e-19  5.044427943607921e-01
-1.055357063372185e+00  5.044427943607921e-01  8.130317124412774e-18

 5.136433920616887e-18 -1.138173271798030e-18 -1.042502940204681e+00
-1.138173271798030e-18  1.357572385684298e-18  4.682008484560126e-01
-1.042502940204681e+00  4.682008484560126e-01  8.236653215293011e-18

 3.713553888321245e-18 -8.547574127683502e-19 -9.633880954705796e-01
-8.547574127683502e-19  2.646512135782071e-18  4.157613313058428e-01
-9.633880954705796e-01  4.157613313058428e-01  3.826527316781072e-18

 4.887064642540275e-18 -8.252076358938856e-19 -9.948874321755649e-01
-8.252076358938856e-19  2.351196048626111e-18  4.396655654452491e-01
-9.948874321755649e-01  4.396655654452491e-01  5.889633433810264e-18

 5.927265668261886e-18 -7.187211253984790e-19 -1.026440800538846e+00
-7.187211253984790e-19  4.164063836281905e-18  4.298408636338040e-01
-1.026440800538846e+00  4.298408636338040e-01  7.681210024066117e-18

 6.988144230520927e-18 -6.388558825892395e-19 -1.058506008386466e+00
-6.388558825892395e-19  5.171871438916755e-18  4.203535984402481e-01
-1.058506008386466e+00  4.203535984402481e-01  9.575720542255189e-18

 6.720098393991110e-18 -8.020334968096479e-19 -1.034808637954354e+00
-8.020334968096479e-19  2.744126376951946e-18  5.013923638889541e-01
-1.034808637954354e+00  5.013923638889541e-01  7.960531244857868e-18

 6.140638489896843e-18 -4.573465142972510e-19 -1.002731218464562e+00
-4.573465142972510e-19  5.990874574104996e-18  4.138745597213571e-01
-1.002731218464562e+00  4.138745597213571e-01  6.489155272787417e-18

 5.328535417633833e-18 -4.807211137393857e-19 -9.565898571249585e-01
-4.807211137393857e-19  6.435185342770175e-18  3.933657563703701e-01
-9.565898571249585e-01  3.933657563703701e-01  4.062010670825934e-18

 7.821062705341661e-18 -3.658041997904188e-19 -1.057571340915779e+00
-3.658041997904188e-19  6.016495593769432e-18  4.491698836502601e-01
-1.057571340915779e+00  4.491698836502601e-01  9.553115202093600e-18

 7.209805462210017e-18 -4.160078475381583e-19 -1.024816684042608e+00
-4.160078475381583e-19  4.520968064130750e-18  4.801005320210218e-01
-1.024816684042608e+00  4.801005320210218e-01  7.129126754327539e-18

 7.954296229892550e-18 -2.869418078404177e-19 -1.050179609570595e+00
-2.869418078404177e-19  8.242547941918911e-18  4.006470325534294e-01
-1.050179609570595e+00  4.006470325534294e-01  9.504037488925487e-18

 6.825503266617151e-18 -3.212173187700211e-19 -9.949405309345883e-01
-3.212173187700211e-19  7.077449152315493e-18  4.336087970800671e-01
-9.949405309345883e-01  4.336087970800671e-01  5.940317843847132e-18

 8.666405503914733e-18 -4.567011080669513e-19 -1.061469786690564e+00
-4.567011080669513e-19  9.762651424503079e-18  3.747740865807527e-01
-1.061469786690564e+00  3.747740865807527e-01  1.099245288844566e-17

 7.324920830761782e-18 -2.413736951580921e-19 -1.012450398218411e+00
-2.413736951580921e-19  3.638938613543075e-18  5.270130924471031e-01
-1.012450398218411e+00  5.270130924471031e-01  5.949800426908317e-18

 6.636117000646009e-18 -5.496843234349520e-19 -9.734325697729903e-01
-5.496843234349520e-19  2.969814719399178e-18  5.718871559772232e-01
-9.734325697729903e-01  5.718871559772232e-01  3.797912426556194e-18

 8.300393258155834e-18  6.379468182698795e-20 -1.042764913774711e+00
 6.379468182698795e-20  1.166998567228690e-17  3.204195433616547e-01
-1.042764913774711e+00  3.204195433616547e-01  9.485653559126478e-18

 8.943937692236727e-18 -4.984381179865409e-19 -1.052174514339042e+00
-4.984381179865409e-19  1.299973962075819e-17  3.128187586101869e-01
-1.052174514339042e+00  3.128187586101869e-01  1.123452411020487e-17

 5.871289915699927e-18  1.065355163768477e-19 -9.455336986899110e-01
 1.065355163768477e-19  4.096019914983194e-18  5.386410659633464e-01
-9.455336986899110e-01  5.386410659633464e-01  1.085910785470458e-18

 6.539128652290753e-18 -1.401295167667119e-19 -9.678609015069621e-01
-1.401295167667119e-19  4.580247872458240e-18  5.359426594506648e-01
-9.678609015069621e-01  5.359426594506648e-01  2.560798910619117e-18

 1.313720839934135e-17 -6.227646700000603e-19 -1.219613115419939e+00
-6.227646700000603e-19  1.793826454154343e-17  2.145404206684051e-01
-1.219613115419939e+00  2.145404206684051e-01  2.223161374980744e-17

 9.952188540233948e-18 -1.140277888114874e-19 -1.105759723528756e+00
-1.140277888114874e-19  1.032901890568869e-17  4.065002047945540e-01
-1.105759723528756e+00  4.065002047945540e-01  1.208323567790914e-17

 1.037951559750875e-17  3.970787479877926e-20 -1.129252150922549e+00
 3.970787479877926e-20  6.583471700645558e-18  5.083962810646363e-01
-1.129252150922549e+00  5.083962810646363e-01  1.237190980066466e-17

 9.424870742752816e-18  4.113129427657980e-20 -1.071982817077502e+00
 4.113129427657980e-20  9.967404248064138e-18  4.010894558112253e-01
-1.071982817077502e+00  4.010894558112253e-01  1.035049401494460e-17

 8.369779511906825e-18  5.595173889456012e-20 -1.016214854042240e+00
 5.595173889456012e-20  1.090228797902866e-17  3.976209778467175e-01
-1.016214854042240e+00  3.976209778467175e-01  7.591608428933566e-18

 7.935872381455770e-18 -3.657571921321873e-20 -9.888864307435504e-01
-3.657571921321873e-20  9.691477516412822e-18  4.397519307735980e-01
-9.888864307435504e-01  4.397519307735980e-01  6.103587941396190e-18

 8.361326339852499e-18 -3.029259175015325e-20 -1.000438442570462e+00
-3.029259175015325e-20  7.984807520828761e-18  4.388313875889804e-01
-1.000438442570462e+00  4.388313875889804e-01  7.039037125516657e-18

 8.542043278931958e-18 -1.581012024475178e-20 -1.005009502334752e+00
-1.581012024475178e-20  1.039489840249876e-17  4.389740527815894e-01
-1.005009502334752e+00  4.389740527815894e-01  7.295506183326750e-18

 8.655666436510619e-18 -7.120069969668659e-21 -1.007977496938635e+00
-7.120069969668659e-21  9.853613667331514e-18  4.370289231602966e-01
-1.007977496938635e+00  4.370289231602966e-01  7.486424708877709e-18

 8.814300726487862e-18  5.667926835431935e-21 -1.012024871547252e+00
 5.667926835431935e-21  9.761469439939405e-18  4.322560846628029e-01
-1.012024871547252e+00  4.322560846628029e-01  7.813537216846310e-18

 8.921498409797787e-18  2.069372581878631e-20 -1.013810140803085e+00
 2.069372581878631e-20  9.589563471080994e-18  4.311677992172758e-01
-1.013810140803085e+00  4.311677992172758e-01  7.908129357211507e-18

 9.019302023182648e-18  3.518258341139101e-20 -1.015538471440433e+00
 3.518258341139101e-20  1.038279959594836e-17  4.290883460356693e-01
-1.015538471440433e+00  4.290883460356693e-01  8.026897496918919e-18

 9.084397673229670e-18  4.250785080944221e-20 -1.015373476942156e+00
 4.250785080944221e-20  9.058483458401219e-18  4.306474828790679e-01
-1.015373476942156e+00  4.306474828790679e-01  8.004155604679933e-18

 9.181049360235386e-18  5.006455950968204e-20 -1.017730507002705e+00
 5.006455950968204e-20  9.277574894320838e-18  4.278128842080178e-01
-1.017730507002705e+00  4.278128842080178e-01  8.149607732121949e-18

 9.337413034063229e-18  6.251244893907097e-20 -1.021949950999834e+00
 6.251244893907097e-20  1.056858457844317e-17  4.299955661092796e-01
-1.021949950999834e+00  4.299955661092796e-01  8.322035743487466e-18

 9.479986756959878e-18  7.093500082871143e-20 -1.026202316096812e+00
 7.093500082871143e-20  1.058419548590379e-17  4.256235187757016e-01
-1.026202316096812e+00  4.256235187757016e-01  8.545971403457412e-18

 9.490407731648933e-18  7.622931702613242e-20 -1.025475148231694e+00
 7.622931702613242e-20  1.165287628580248e-17  4.299141127393556e-01
-1.025475148231694e+00  4.299141127393556e-01  8.389906775149671e-18

 9.761185157029713e-18  7.672619614413618e-20 -1.035010342717671e+00
 7.672619614413618e-20  1.212060130742231e-17  4.203991905483546e-01
-1.035010342717671e+00  4.203991905483546e-01  8.999593515136486e-18

 1.017424019376860e-17  7.263497476844925e-20 -1.051492830275685e+00
 7.263497476844925e-20  1.233184397188842e-17  4.071544688439252e-01
-1.051492830275685e+00  4.071544688439252e-01  1.017461776758985e-17

 9.531274342304197e-18  8.639052551100524e-20 -1.025073433473282e+00
 8.639052551100524e-20  9.521116677770663e-18  4.386041797613428e-01
-1.025073433473282e+00  4.386041797613428e-01  8.098502408310910e-18

 9.013118459608132e-18  8.385553553804306e-20 -1.004033918109143e+00
 8.385553553804306e-20  1.074117143250165e-17  4.603879065093765e-01
-1.004033918109143e+00  4.603879065093765e-01  6.414625573555795e-18

 1.044629441975079e-17  6.086533877093805e-20 -1.059513234076697e+00
 6.086533877093805e-20  1.374280258640205e-17  3.910654881848432e-01
-1.059513234076697e+00  3.910654881848432e-01  1.078764634928341e-17

 1.207243211221136e-17 -8.243849505525274e-21 -1.123605418661762e+00
-8.243849505525274e-21  1.452837346143291e-17  3.396030646286005e-01
-1.123605418661762e+00  3.396030646286005e-01  1.557467884774262e-17

 9.060613907918399e-18  6.676727846188006e-20 -1.003912169066272e+00
 6.676727846188006e-20  7.443202322379558e-18  5.265551556677263e-01
-1.003912169066272e+00  5.265551556677263e-01  5.874063321555530e-18

 8.969650584606518e-18 -1.044213491670736e-19 -9.923381062927585e-01
-1.044213491670736e-19  6.839070013819921e-18  5.340606042866436e-01
-9.923381062927585e-01  5.340606042866436e-01  5.635200962116757e-18

 9.961915529571696e-18  2.380607507255347e-19 -1.029490693172173e+00
 2.380607507255347e-19  1.291629523937805e-17  3.939178980778568e-01
-1.029490693172173e+00  3.939178980778568e-01  9.336770924199143e-18

 8.156883859360253e-18  1.552522951497174e-19 -9.448548961695301e-01
 1.552522951497174e-19  1.171469913283439e-17  4.144192657776529e-01
-9.448548961695301e-01  4.144192657776529e-01  4.527176836915039e-18

 8.911095087261947e-18  7.299004744331547e-20 -9.743664749982952e-01
 7.299004744331547e-20  1.070213861594806e-17  4.316292002127424e-01
-9.743664749982952e-01  4.316292002127424e-01  6.242438297517219e-18

 1.067587880641560e-17  1.097601429932973e-19 -1.053450356539201e+00
 1.097601429932973e-19  1.251538136357069e-17  4.222973015610663e-01
-1.053450356539201e+00  4.222973015610663e-01  1.061210133904841e-17

 1.017457933320291e-17  1.012883312143563e-19 -1.030341174123640e+00
 1.012883312143563e-19  1.231184723028895e-17  4.203413125346026e-01
-1.030341174123640e+00  4.203413125346026e-01  9.116639297799652e-18

 9.912426933939519e-18  1.174999512515872e-19 -1.016486026783207e+00
 1.174999512515872e-19  1.210136445661427e-17  4.112551199817182e-01
-1.016486026783207e+00  4.112551199817182e-01  8.414689801947619e-18

 1.009487883492388e-17  1.120140738335544e-19 -1.021990061982478e+00
 1.120140738335544e-19  1.309369229166151e-17  4.227183173989413e-01
-1.021990061982478e+00  4.227183173989413e-01  8.742972437637543e-18

 1.007345337936920e-17  1.120710612009563e-19 -1.019330683776035e+00
 1.120710612009563e-19  1.060893669247603e-17  4.335757213833638e-01
-1.019330683776035e+00  4.335757213833638e-01  8.505342387880764e-18

 1.017669463023299e-17  1.119882424077641e-19 -1.020424710229376e+00
 1.119882424077641e-19  1.224717115058537e-17  4.218876464086299e-01
-1.020424710229376e+00  4.218876464086299e-01  8.844303601266306e-18

 9.988705526145616e-18  1.315536376899387e-19 -1.009008950676446e+00
 1.315536376899387e-19  1.245650841094765e-17  4.114182893457567e-01
-1.009008950676446e+00  4.114182893457567e-01  8.409631315517868e-18

 1.002238452708324e-17  1.160095952278998e-19 -1.005542759571558e+00
 1.160095952278998e-19  1.275192995288963e-17  4.238784092636669e-01
-1.005542759571558e+00  4.238784092636669e-01  8.378622922459351e-18

 1.002387702489629e-17  1.389516902450028e-19 -1.000703746754504e+00
 1.389516902450028e-19  1.156333046947706e-17  4.089701951842291e-01
-1.000703746754504e+00  4.089701951842291e-01  8.477607710426223e-18

 9.724318738932636e-18  1.172275854899556e-19 -9.825065041774660e-01
 1.172275854899556e-19  1.076196963289453e-17  4.266462316882608e-01
-9.825065041774660e-01  4.266462316882608e-01  7.580179888935256e-18

 1.031799142776184e-17  8.197575025825971e-20 -1.000639575822737e+00
 8.197575025825971e-20  9.297533807450923e-18  4.174329696760656e-01
-1.000639575822737e+00  4.174329696760656e-01  9.410835427625421e-18

 8.678132564714958e-18 -1.576381248549260e-20 -9.280183076888536e-01
-1.576381248549260e-20  7.421394149110247e-18  4.775989194034732e-01
-9.280183076888536e-01  4.775989194034732e-01  4.604235519347003e-18

 9.532521416272026e-18  1.675623046679967e-19 -9.602392629933840e-01
 1.675623046679967e-19  8.363134280314352e-18  4.106386342924932e-01
-9.602392629933840e-01  4.106386342924932e-01  7.497259133679268e-18

 8.943921457642541e-18  2.468991701724198e-19 -9.340558897230196e-01
 2.468991701724198e-19  1.250867369997369e-17  4.024219175595203e-01
-9.340558897230196e-01  4.024219175595203e-01  5.999431005284022e-18

 8.676204577836729e-18  2.635144178986480e-19 -9.185814829180866e-01
 2.635144178986480e-19  1.305796299251889e-17  3.566257176314203e-01
-9.185814829180866e-01  3.566257176314203e-01  5.717885341338027e-18

 1.193490933879682e-17  1.012488390715346e-19 -1.044888113846286e+00
 1.012488390715346e-19  1.861943423094981e-17  2.445893668638311e-01
-1.044888113846286e+00  2.445893668638311e-01  1.547649864670380e-17

 7.040739510742575e-18  2.799753526063962e-19 -8.520745502450650e-01
 2.799753526063962e-19  6.101964526380375e-18  4.692673705167217e-01
-8.520745502450650e-01  4.692673705167217e-01  3.070650862722112e-19

 8.825134623280543e-18  1.878528190332861e-19 -9.305574359240175e-01
 1.878528190332861e-19  8.165209379588018e-18  4.337403435801357e-01
-9.305574359240175e-01  4.337403435801357e-01  5.048034871344293e-18

 9.882378399329478e-18  1.651565726461885e-19 -9.844366438328879e-01
 1.651565726461885e-19  1.098595877856070e-17  4.212431748088640e-01
-9.844366438328879e-01  4.212431748088640e-01  7.454307719438371e-18

 1.125745268569215e-17  2.297297934587623e-19 -1.057294840027109e+00
 2.297297934587623e-19  1.284923419516226e-17  4.226084569405345e-01
-1.057294840027109e+00  4.226084569405345e-01  1.067376999809939e-17

 1.182629253864885e-17  1.370338989651969e-19 -1.091388481589910e+00
 1.370338989651969e-19  1.503165323962775e-17  4.156146391692146e-01
-1.091388481589910e+00  4.156146391692146e-01  1.185796192561084e-17

 1.241607897512426e-17  1.082081499601549e-19 -1.122005958196004e+00
 1.082081499601549e-19  1.440297433875479e-17  4.102618254317443e-01
-1.122005958196004e+00  4.102618254317443e-01  1.330147165682337e-17

 1.148089979216675e-17  1.264887608285965e-19 -1.087600575794289e+00
 1.264887608285965e-19  1.265713388633971e-17  4.769943351825261e-01
-1.087600575794289e+00  4.769943351825261e-01  1.008928159571285e-17

 1.005080383539432e-17  9.957191676085804e-20 -1.030097632308493e+00
 9.957191676085804e-20  1.059352422248740e-17  5.318530717028970e-01
-1.030097632308493e+00  5.318530717028970e-01  5.771705286294127e-18

 1.176601919009128e-17  9.620652747971119e-20 -1.098712437186497e+00
 9.620652747971119e-20  1.248101704237803e-17  4.654952498900147e-01
-1.098712437186497e+00  4.654952498900147e-01  1.099638110708432e-17

 1.197189441399222e-17  1.315249271590721e-19 -1.105365208402849e+00
 1.315249271590721e-19  1.405449443821516e-17  4.223943821100222e-01
-1.105365208402849e+00  4.223943821100222e-01  1.193203930546824e-17

 1.132566645803106e-17  1.278729317109794e-19 -1.076251182666745e+00
 1.278729317109794e-19  1.399040367529748e-17  4.351834726243994e-01
-1.076251182666745e+00  4.351834726243994e-01  1.012947872904962e-17

 1.101175594573038e-17  1.232063903747037e-19 -1.060405921244134e+00
 1.232063903747037e-19  1.316865204337029e-17  4.454930636281041e-01
-1.060405921244134e+00  4.454930636281041e-01  9.252361465402912e-18

 1.083830241919251e-17  1.166635094150529e-19 -1.051650272402148e+00
 1.166635094150529e-19  1.292216848547695e-17  4.502585455947307e-01
-1.051650272402148e+00  4.502585455947307e-01  8.799427002568108e-18

 1.079794969558415e-17  1.046184134642281e-19 -1.049331018750090e+00
 1.046184134642281e-19  1.265872477658959e-17  4.589250609956309e-01
-1.049331018750090e+00  4.589250609956309e-01  8.591268349411437e-18

 1.086950891519451e-17  9.592059886877666e-20 -1.053777927614029e+00
 9.592059886877666e-20  1.261612671872754e-17  4.572282106377164e-01
-1.053777927614029e+00  4.572282106377164e-01  8.726551380671656e-18

 1.099401868757536e-17  8.092365267950678e-20 -1.061319251252279e+00
 8.092365267950678e-20  1.259742669433203e-17  4.570033450905882e-01
-1.061319251252279e+00  4.570033450905882e-01  8.956314412400616e-18

 1.134112507385874e-17  7.226313643246411e-20 -1.079639042324174e+00
 7.226313643246411e-20  1.254439292428928e-17  4.625340590498020e-01
-1.079639042324174e+00  4.625340590498020e-01  9.680629030926505e-18

 1.138113762314818e-17  7.345622830127398e-20 -1.084939638965000e+00
 7.345622830127398e-20  1.296110822454878e-17  4.717391464161383e-01
-1.084939638965000e+00  4.717391464161383e-01  9.650625514158402e-18

 1.199598995333280e-17  6.466904219161910e-20 -1.111077472492494e+00
 6.466904219161910e-20  1.401087464774217e-17  4.567724960026718e-01
-1.111077472492494e+00  4.567724960026718e-01  1.141749299824906e-17

 1.212761745774754e-17  6.233489466732742e-20 -1.118612932617155e+00
 6.233489466732742e-20  1.308015678828755e-17  4.627836762104444e-01
-1.118612932617155e+00  4.627836762104444e-01  1.168304678339523e-17

 1.032051977849550e-17  4.086925054964864e-20 -1.046439188513515e+00
 4.086925054964864e-20  1.046890104446715e-17  5.343006780268744e-01
-1.046439188513515e+00  5.343006780268744e-01  6.099290005523776e-18

 1.106012347340759e-17  3.929859431133662e-20 -1.077398814541300e+00
 3.929859431133662e-20  1.254524547684576e-17  5.060961961913057e-01
-1.077398814541300e+00  5.060961961913057e-01  8.331963305554994e-18

 1.204978219606070e-17  9.223189306332435e-20 -1.118562284180320e+00
 9.223189306332435e-20  1.432635308234419e-17  4.417348528767029e-01
-1.118562284180320e+00  4.417348528767029e-01  1.146558409329084e-17

 1.168611639784321e-17  8.145061649746799e-20 -1.105036110672351e+00
 8.145061649746799e-20  1.309670534630483e-17  4.676627237171783e-01
-1.105036110672351e+00  4.676627237171783e-01  1.020933601868202e-17

 1.165685647108045e-17  7.506966504236269e-20 -1.104282925446612e+00
 7.506966504236269e-20  1.461198136892485e-17  4.858966384076530e-01
-1.104282925446612e+00  4.858966384076530e-01  9.928219400098112e-18

 1.148151513051524e-17  1.281659861109100e-19 -1.095487803654421e+00
 1.281659861109100e-19  1.489884964831500e-17  4.697999251448213e-01
-1.095487803654421e+00  4.697999251448213e-01  9.535001587838365e-18

 1.115445426567187e-17  1.787385619943661e-19 -1.077175929516704e+00
 1.787385619943661e-19  1.291377630265466e-17  4.716630281665235e-01
-1.077175929516704e+00  4.716630281665235e-01  8.574405279324783e-18

 1.118688326624243e-17  2.302381511641432e-19 -1.073449799476407e+00
 2.302381511641432e-19  1.362783123933377e-17  4.659344421009048e-01
-1.073449799476407e+00  4.659344421009048e-01  8.651680661377598e-18

 1.117373583879891e-17  2.637946232451610e-19 -1.069479711202639e+00
 2.637946232451610e-19  1.296711267857714e-17  4.636785968897443e-01
-1.069479711202639e+00  4.636785968897443e-01  8.605104116966969e-18

 1.114865540973560e-17  3.040515429803044e-19 -1.063558873821244e+00
 3.040515429803044e-19  1.087292864299614e-17  4.574352845859723e-01
-1.063558873821244e+00  4.574352845859723e-01  8.577576050133985e-18

 1.113761135039742e-17  3.369040531073273e-19 -1.057265662510850e+00
 3.369040531073273e-19  1.340267639799973e-17  4.495747893513717e-01
-1.057265662510850e+00  4.495747893513717e-01  8.606323311585896e-18

 1.106751522814909e-17  3.817603105109592e-19 -1.045999603449237e+00
 3.817603105109592e-19  1.347403451093301e-17  4.439433858017431e-01
-1.045999603449237e+00  4.439433858017431e-01  8.487050294775488e-18

 1.108464129687646e-17  3.989994402337071e-19 -1.039744655456875e+00
 3.989994402337071e-19  1.238427459891756e-17  4.365061626124003e-01
-1.039744655456875e+00  4.365061626124003e-01  8.638640720612994e-18

 1.105673613399859e-17  4.039797016676144e-19 -1.033078708432002e+00
 4.039797016676144e-19  1.343797289572015e-17  4.338538477939222e-01
-1.033078708432002e+00  4.338538477939222e-01  8.613494465087936e-18

 1.102295053298681e-17  3.931069952533483e-19 -1.027629676994316e+00
 3.931069952533483e-19  1.315949880873473e-17  4.307498191071773e-01
-1.027629676994316e+00  4.307498191071773e-01  8.630699113361114e-18

 1.100025181652493e-17  3.774324264172283e-19 -1.023994770172773e+00
 3.774324264172283e-19  1.275640079198225e-17  4.279636596773189e-01
-1.023994770172773e+00  4.279636596773189e-01  8.611751317920574e-18

 1.100924254358060e-17  3.562048848203114e-19 -1.021803009392773e+00
 3.562048848203114e-19  1.218274970752142e-17  4.271983525994368e-01
-1.021803009392773e+00  4.271983525994368e-01  8.597099616218720e-18

 1.105085573011877e-17  3.354262464432919e-19 -1.024189923174472e+00
 3.354262464432919e-19  1.248888085612872e-17  4.275128714716780e-01
-1.024189923174472e+00  4.275128714716780e-01  8.708944932522098e-18

 1.111237122744073e-17  3.201820415085851e-19 -1.028552273356202e+00
 3.201820415085851e-19  1.284628355448277e-17  4.266674741938707e-01
-1.028552273356202e+00  4.266674741938707e-01  8.843032257929468e-18

 1.121084019762047e-17  3.152734944733505e-19 -1.033813895386417e+00
 3.152734944733505e-19  1.334067238126333e-17  4.216726153582227e-01
-1.033813895386417e+00  4.216726153582227e-01  9.085902916006154e-18

 1.151954094799490e-17  3.418378407741494e-19 -1.045607324549965e+00
 3.418378407741494e-19  1.406102182655097e-17  4.213713451390481e-01
-1.045607324549965e+00  4.213713451390481e-01  9.820080487437920e-18

 1.131083441050633e-17  3.372504835443384e-19 -1.033523342367683e+00
 3.372504835443384e-19  1.453916131479566e-17  4.273959594631315e-01
-1.033523342367683e+00  4.273959594631315e-01  9.230358239043461e-18

 1.101147583800825e-17  2.782289855974686e-19 -1.017677157061484e+00
 2.782289855974686e-19  1.550243533263539e-17  4.034962756839437e-01
-1.017677157061484e+00  4.034962756839437e-01  8.640690324299787e-18

 1.153133364280537e-17  2.235910894039803e-19 -1.041032026212170e+00
 2.235910894039803e-19  1.521836283196861e-17  4.004196345641918e-01
-1.041032026212170e+00  4.004196345641918e-01  9.922798469263547e-18

 1.343708066526852e-17  2.794092225697194e-19 -1.129717440124690e+00
 2.794092225697194e-19  1.474639027250544e-17  4.277665350681960e-01
-1.129717440124690e+00  4.277665350681960e-01  1.477251665451757e-17

 1.213585837465469e-17 -8.002802881377351e-20 -1.059385925441608e+00
-8.002802881377351e-20  1.317227370896217e-17  4.581046412122783e-01
-1.059385925441608e+00  4.581046412122783e-01  1.156713497183818e-17

 7.488626024773009e-18  4.534585227770137e-19 -8.600411667621137e-01
 4.534585227770137e-19  1.279669636932823e-17  3.925944474087275e-01
-8.600411667621137e-01  3.925944474087275e-01 -4.636310799111912e-19

 9.036897113493802e-18 -1.319178525501616e-19 -9.155813915340874e-01
-1.319178525501616e-19  1.278042324222822e-17  4.285359926659377e-01
-9.155813915340874e-01  4.285359926659377e-01  3.534710263299116e-18

 1.162623072401166e-17  7.266581074749620e-19 -1.059267171178033e+00
 7.266581074749620e-19  1.161349517736703e-17  4.700403354829279e-01
-1.059267171178033e+00  4.700403354829279e-01  1.008378456629133e-17

 1.263248127497989e-17  2.240897057517214e-19 -1.096837541864428e+00
 2.240897057517214e-19  1.534793367425922e-17  4.192460074490735e-01
-1.096837541864428e+00  4.192460074490735e-01  1.268180746182655e-17

 1.162879285709035e-17  2.814371606818482e-19 -1.067184740815989e+00
 2.814371606818482e-19  1.305936782906573e-17  4.412302163062757e-01
-1.067184740815989e+00  4.412302163062757e-01  1.038906986951298e-17

 1.248226512392912e-17  6.385745860706956e-20 -1.079404816490781e+00
 6.385745860706956e-20  1.564290003845770e-17  4.147605101679548e-01
-1.079404816490781e+00  4.147605101679548e-01  1.140187777032394e-17

 1.231005649489750e-17 -2.990095708987288e-20 -1.061783019670484e+00
-2.990095708987288e-20  1.528000609382806e-17  4.255474088661954e-01
-1.061783019670484e+00  4.255474088661954e-01  1.019135234293157e-17

 6.725295125272424e-18  1.941471762461060e-18 -1.054971561355248e+00
 1.941471762461060e-18  1.382847861854047e-17  4.244152732642011e-01
-1.054971561355248e+00  4.244152732642011e-01  9.859285144903200e-18

-4.249820110786655e-17  1.957903829923441e-17 -1.042694760267798e+00
 1.957903829923441e-17  7.186259602574165e-18  4.403820920680135e-01
-1.042694760267798e+00  4.403820920680135e-01  9.022842086485912e-18

 1.249426061524768e-16 -4.095023121533132e-17 -1.026436016774506e+00
-4.095023121533132e-17  2.791915399921958e-17  4.517170826294667e-01
-1.026436016774506e+00  4.517170826294667e-01  7.997813299099113e-18

 1.399858913309205e-16 -4.621575367400854e-17 -1.044612503789468e+00
-4.621575367400854e-17  3.041132773774747e-17  4.103248532545313e-01
-1.044612503789468e+00  4.103248532545313e-01  9.687465569051849e-18

 4.386082362668914e-17 -1.163866244691868e-17 -1.032746385673224e+00
-1.163866244691868e-17  1.884775184763838e-17  4.090506143049421e-01
-1.032746385673224e+00  4.090506143049421e-01  9.048658861416984e-18

 1.032039431426528e-17  4.544028399175993e-20 -9.859179053489019e-01
 4.544028399175993e-20  8.792201744474826e-18  5.367004530624626e-01
-9.859179053489019e-01  5.367004530624626e-01  5.000328608144875e-18

 7.599188470161130e-18  6.467843527671088e-19 -9.472818067058590e-01
 6.467843527671088e-19  9.245339047135064e-18  5.439436317260287e-01
-9.472818067058590e-01  5.439436317260287e-01  2.682407231367622e-18

 1.377478475103175e-17  9.204039281691624e-20 -1.096130086135931e+00
 9.204039281691624e-20  1.706515513557007e-17  3.239165466270844e-01
-1.096130086135931e+00  3.239165466270844e-01  1.395369498886978e-17

 1.034833936014422e-17  2.865892679365751e-19 -9.950945883080994e-01
 2.865892679365751e-19  1.399202308994885e-17  4.146683972764789e-01
-9.950945883080994e-01  4.146683972764789e-01  7.108809345629163e-18

 1.094297783248279e-17  2.150538371636367e-19 -1.014656149129366e+00
 2.150538371636367e-19  1.351065761844423e-17  4.468749880007967e-01
-1.014656149129366e+00  4.468749880007967e-01  8.068644467578889e-18

 1.127719035904321e-17  1.880055643355948e-19 -1.027186980400695e+00
 1.880055643355948e-19  1.426413951685491e-17  4.309254099031311e-01
-1.027186980400695e+00  4.309254099031311e-01  8.983923923800761e-18

 1.119236759090777e-17  1.941645072299185e-19 -1.022510092992216e+00
 1.941645072299185e-19  1.322500888636295e-17  4.241824408907737e-01
-1.022510092992216e+00  4.241824408907737e-01  8.779648903317227e-18

 1.115471551809297e-17  1.962530326391638e-19 -1.020032208110525e+00
 1.962530326391638e-19  1.304150363167471e-17  4.257783668289020e-01
-1.020032208110525e+00  4.257783668289020e-01  8.679434706844050e-18

 1.115514251550954e-17  1.954795204800327e-19 -1.018991860965802e+00
 1.954795204800327e-19  1.243096532732990e-17  4.252006193104972e-01
-1.018991860965802e+00  4.252006193104972e-01  8.685188908357813e-18

 1.113691017281277e-17  1.885898423940683e-19 -1.016482159396537e+00
 1.885898423940683e-19  1.382688533624294e-17  4.239220947209162e-01
-1.016482159396537e+00  4.239220947209162e-01  8.668872971875224e-18

 1.112175941857044e-17  1.712296437857517e-19 -1.015222553135391e+00
 1.712296437857517e-19  1.485198780272883e-17  4.246040895164893e-01
-1.015222553135391e+00  4.246040895164893e-01  8.660029538403615e-18

 1.108691626033016e-17  1.649872571152611e-19 -1.013491515744312e+00
 1.649872571152611e-19  1.321869931636666e-17  4.253807568253618e-01
-1.013491515744312e+00  4.253807568253618e-01  8.577210491946891e-18

 1.103594949123631e-17  1.537373543867459e-19 -1.011552637773903e+00
 1.537373543867459e-19  1.261711656238814e-17  4.262383350518245e-01
-1.011552637773903e+00  4.262383350518245e-01  8.430862711755601e-18

 1.113678164290945e-17  1.415402408568471e-19 -1.016510403497444e+00
 1.415402408568471e-19  1.385262047693466e-17  4.200841570367549e-01
-1.016510403497444e+00  4.200841570367549e-01  8.734463901503668e-18

 1.116468143840963e-17  1.294481927392214e-19 -1.019543485248658e+00
 1.294481927392214e-19  1.333274987749341e-17  4.382423746296836e-01
-1.019543485248658e+00  4.382423746296836e-01  8.658425106487815e-18

 1.104933395765056e-17  1.170903889930955e-19 -1.014348318562009e+00
 1.170903889930955e-19  1.405756731520500e-17  4.443606791471800e-01
-1.014348318562009e+00  4.443606791471800e-01  8.205383344689019e-18

 1.127289176593627e-17  1.387272592714963e-19 -1.023951085267687e+00
 1.387272592714963e-19  1.349572817101068e-17  4.158538731989062e-01
-1.023951085267687e+00  4.158538731989062e-01  9.122127702360414e-18

 1.106962196457462e-17  1.149812325351358e-19 -1.015484829413701e+00
 1.149812325351358e-19  1.436138231941885e-17  4.349128134182398e-01
-1.015484829413701e+00  4.349128134182398e-01  8.458076515776794e-18

 1.081194963734699e-17  1.184053511643138e-19 -1.004799456009887e+00
 1.184053511643138e-19  1.289654790375547e-17  4.332967025601455e-01
-1.004799456009887e+00  4.332967025601455e-01  7.783609320166196e-18

-2.511305919892639e-17 -2.304751294414955e-19  1.003095979990786e+00
-2.304751294414955e-19 -1.332136134931244e-17  4.142522190786503e-01
 1.003095979990786e+00  4.142522190786503e-01 -3.360970140492199e-17

-2.517400068369536e-17 -2.433494344444166e-19  1.006231841048663e+00
-2.433494344444166e-19 -1.336466785930053e-17  4.158682289373621e-01
 1.006231841048663e+00  4.158682289373621e-01 -3.371226910543134e-17

-2.506694561890799e-17 -2.205619923384213e-19  1.001291609811801e+00
-2.205619923384213e-19 -1.329229145200043e-17  4.121129948032331e-01
 1.001291609811801e+00  4.121129948032331e-01 -3.355284647182129e-17

-2.505256727504493e-17 -2.171151044817310e-19  1.001808307317392e+00
-2.171151044817310e-19 -1.323818381220896e-17  4.114679471548641e-01
 1.001808307317392e+00  4.114679471548641e-01 -3.358049954661589e-17

-2.520076368073608e-17 -2.575256135348306e-19  1.007732228592618e+00
-2.575256135348306e-19 -1.339353943665833e-17  4.168255314506333e-01
 1.007732228592618e+00  4.168255314506333e-01 -3.375453289791984e-17

-2.521703237089667e-17 -2.681714523411863e-19  1.009257569104634e+00
-2.681714523411863e-19 -1.342666802452273e-17  4.162149965491084e-01
 1.009257569104634e+00  4.162149965491084e-01 -3.379863237251214e-17

-2.522741439137905e-17 -2.749605363809267e-19  1.009766645187745e+00
-2.749605363809267e-19 -1.341918365646545e-17  4.170028032636962e-01
 1.009766645187745e+00  4.170028032636962e-01 -3.381458328211461e-17

-2.522776573642074e-17 -2.850593848895236e-19  1.010381707714013e+00
-2.850593848895236e-19 -1.340482416764772e-17  4.191595539939392e-01
 1.010381707714013e+00  4.191595539939392e-01 -3.382984206183755e-17

-2.518482667072329e-17 -2.954327150523179e-19  1.005229711048760e+00
-2.954327150523179e-19 -1.328151696313319e-17  4.239974262801059e-01
 1.005229711048760e+00  4.239974262801059e-01 -3.363435169189943e-17

-2.508426925417814e-17 -2.942659260346428e-19  1.003322565582476e+00
-2.942659260346428e-19 -1.335613778414705e-17  4.181447777622977e-01
 1.003322565582476e+00  4.181447777622977e-01 -3.355406256869311e-17

-2.499206749599703e-17 -2.980789257689179e-19  9.975589175263659e-01
-2.980789257689179e-19 -1.329880612693502e-17  4.178729262537774e-01
 9.975589175263659e-01  4.178729262537774e-01 -3.334533862709557e-17

-2.505632244554925e-17 -2.949642665055421e-19  1.002728860328802e+00
-2.949642665055421e-19 -1.338429228082062e-17  4.138685125167897e-01
 1.002728860328802e+00  4.138685125167897e-01 -3.353164078080067e-17

-2.510286871155026e-17 -2.996219695329189e-19  1.003026284423684e+00
-2.996219695329189e-19 -1.329488726244355e-17  4.212380581829703e-01
 1.003026284423684e+00  4.212380581829703e-01 -3.356022554244627e-17

-2.518767374198423e-17 -3.062582963443325e-19  1.009164701885687e+00
-3.062582963443325e-19 -1.335753505347725e-17  4.201667504391903e-01
 1.009164701885687e+00  4.201667504391903e-01 -3.377610560577032e-17

-2.504255237783077e-17 -3.242904775254087e-19  1.001527676384229e+00
-3.242904775254087e-19 -1.334231213389418e-17  4.176127408839888e-01
 1.001527676384229e+00  4.176127408839888e-01 -3.346508065478854e-17

-2.499750249942897e-17 -3.397549000427888e-19  9.993883578222669e-01
-3.397549000427888e-19 -1.332506413319699e-17  4.168728291178439e-01
 9.993883578222669e-01  4.168728291178439e-01 -3.337353402902507e-17

-2.502882092451827e-17 -3.522055120262057e-19  1.001832132854557e+00
-3.522055120262057e-19 -1.332118193875032e-17  4.184152760568532e-01
 1.001832132854557e+00  4.184152760568532e-01 -3.346159793628022e-17

-2.509949969610997e-17 -3.629552521517239e-19  1.007650280776285e+00
-3.629552521517239e-19 -1.340018573800046e-17  4.162277000887434e-01
 1.007650280776285e+00  4.162277000887434e-01 -3.366646114246818e-17

-2.498550316309432e-17 -3.771020175473898e-19  9.971949880630582e-01
-3.771020175473898e-19 -1.315278468059295e-17  4.298198532208043e-01
 9.971949880630582e-01  4.298198532208043e-01 -3.329885087497937e-17

-2.500692940829143e-17 -3.906577885307964e-19  1.001257082611910e+00
-3.906577885307964e-19 -1.333175623913457e-17  4.162273688027316e-01
 1.001257082611910e+00  4.162273688027316e-01 -3.342311779219567e-17

-2.482084569965738e-17 -4.071898470449797e-19  9.936725227902672e-01
-4.071898470449797e-19 -1.327633784368054e-17  4.166002073691418e-01
 9.936725227902672e-01  4.166002073691418e-01 -3.315448815707188e-17

-2.485699109333121e-17 -4.154854758998618e-19  1.001315009177108e+00
-4.154854758998618e-19 -1.346249746829582e-17  4.045154353503759e-01
 1.001315009177108e+00  4.045154353503759e-01 -3.343567076761330e-17

-2.479503896615935e-17 -4.198063908793940e-19  9.975273897288254e-01
-4.198063908793940e-19 -1.334491624961546e-17  4.121036230108847e-01
 9.975273897288254e-01  4.121036230108847e-01 -3.333129087515062e-17

-2.462748181364478e-17 -3.907424347835440e-19  9.857287993146676e-01
-3.907424347835440e-19 -1.302740375995347e-17  4.259164059956104e-01
 9.857287993146676e-01  4.259164059956104e-01 -3.296093843882945e-17

-2.433330715208812e-17 -3.695140552037818e-19  9.664524201734264e-01
-3.695140552037818e-19 -1.291486907156697e-17  4.242462347604131e-01
 9.664524201734264e-01  4.242462347604131e-01 -3.229340898451809e-17

-2.421225713843261e-17 -3.409446338047743e-19  9.645771491251279e-01
-3.409446338047743e-19 -1.322063712964221e-17  4.021225366408066e-01
 9.645771491251279e-01  4.021225366408066e-01 -3.224182189875155e-17

-2.416914943626121e-17 -2.725915902405527e-19  9.609072690647898e-01
-2.725915902405527e-19 -1.317096369789624e-17  4.006683922980459e-01
 9.609072690647898e-01  4.006683922980459e-01 -3.219130203514355e-17

-2.419789671497696e-17 -2.242846553732190e-19  9.510276261323176e-01
-2.242846553732190e-19 -1.266960117584599e-17  4.316161693395157e-01
 9.510276261323176e-01  4.316161693395157e-01 -3.195304994018309e-17

-2.445230152215531e-17 -1.732819500669740e-19  9.696978342215136e-01
-1.732819500669740e-19 -1.297605450363812e-17  4.168160378266058e-01
 9.696978342215136e-01  4.168160378266058e-01 -3.263868720438763e-17

-2.441900839649914e-17 -1.059458065286242e-19  9.651971161447708e-01
-1.059458065286242e-19 -1.327544547716947e-17  3.960220214359821e-01
 9.651971161447708e-01  3.960220214359821e-01 -3.247290443317033e-17

-2.486412136209883e-17 -4.322525135651592e-20  9.894563296894402e-01
-4.322525135651592e-20 -1.362807450219209e-17  3.824206653620773e-01
 9.894563296894402e-01  3.824206653620773e-01 -3.329780751813855e-17

-2.525281246333195e-17 -1.089686065271121e-19  1.005898909240464e+00
-1.089686065271121e-19 -1.346475311356338e-17  4.110436970328628e-01
 1.005898909240464e+00  4.110436970328628e-01 -3.393194237345602e-17

-2.518285098152660e-17 -1.190434127331117e-19  9.876864060074175e-01
-1.190434127331117e-19 -1.276684031987058e-17  4.585130674974622e-01
 9.876864060074175e-01  4.585130674974622e-01 -3.320899868940971e-17

-2.532291654855801e-17 -2.041204517580544e-19  1.012550667637119e+00
-2.041204517580544e-19 -1.394875139266289e-17  3.869540798143720e-01
 1.012550667637119e+00  3.869540798143720e-01 -3.401074438753381e-17

-2.525356581500637e-17 -1.994666480730710e-19  1.018285890360431e+00
-1.994666480730710e-19 -1.444779186573859e-17  3.584519010623430e-01
 1.018285890360431e+00  3.584519010623430e-01 -3.410832690129917e-17

-2.485590147648869e-17 -2.604382089653870e-19  9.561739233709600e-01
-2.604382089653870e-19 -1.243391556801478e-17  4.882289369450885e-01
 9.561739233709600e-01  4.882289369450885e-01 -3.205582762796191e-17

-2.540804073340983e-17 -2.650419881518178e-19  1.004368492358253e+00
-2.650419881518178e-19 -1.340697127796164e-17  4.340579154512185e-01
 1.004368492358253e+00  4.340579154512185e-01 -3.370814898785710e-17

-2.574589385911240e-17 -2.535357550984516e-19  1.045644818632270e+00
-2.535357550984516e-19 -1.455244628352628e-17  3.735808342711344e-01
 1.045644818632270e+00  3.735808342711344e-01 -3.511809343242190e-17

-2.542423228804714e-17 -2.658315829997325e-19  1.007225979517838e+00
-2.658315829997325e-19 -1.347945324111366e-17  4.408037071227846e-01
 1.007225979517838e+00  4.408037071227846e-01 -3.381026305961264e-17

-2.541015613838324e-17 -2.641216171898751e-19  1.010139248097864e+00
-2.641216171898751e-19 -1.378158044239237e-17  4.218747542756853e-01
 1.010139248097864e+00  4.218747542756853e-01 -3.388738786409397e-17

-2.568935093916041e-17 -2.668305013492797e-19  1.041256105859991e+00
-2.668305013492797e-19 -1.458890582801378e-17  3.768205302087285e-01
 1.041256105859991e+00  3.768205302087285e-01 -3.495932340118574e-17

-2.534491175141347e-17 -2.750786285255544e-19  1.004225597012277e+00
-2.750786285255544e-19 -1.377298756023850e-17  4.244526121389539e-01
 1.004225597012277e+00  4.244526121389539e-01 -3.366968568270090e-17

-2.544084817301503e-17 -2.749546947514250e-19  1.011629035826800e+00
-2.749546947514250e-19 -1.383361718246012e-17  4.246514254720040e-01
 1.011629035826800e+00  4.246514254720040e-01 -3.395059717299558e-17

-2.580572056287939e-17 -2.773839856228681e-19  1.039075609658839e+00
-2.773839856228681e-19 -1.433358859720878e-17  3.959859274849095e-01
 1.039075609658839e+00  3.959859274849095e-01 -3.491783925479253e-17

-2.546353895940669e-17 -2.768559746966234e-19  1.011487687130915e+00
-2.768559746966234e-19 -1.384695768886165e-17  4.255867033519096e-01
 1.011487687130915e+00  4.255867033519096e-01 -3.396626931871892e-17

-2.550296487501860e-17 -2.752256973481255e-19  1.014319467718892e+00
-2.752256973481255e-19 -1.381093336016037e-17  4.301163663475381e-01
 1.014319467718892e+00  4.301163663475381e-01 -3.407264222161259e-17

-2.542756792202979e-17 -2.619518123523885e-19  1.011103421754733e+00
-2.619518123523885e-19 -1.374163537273702e-17  4.293950997607340e-01
 1.011103421754733e+00  4.293950997607340e-01 -3.395439035640194e-17

-2.507372942569496e-17 -2.487261666367703e-19  9.848970494611609e-01
-2.487261666367703e-19 -1.337574289952241e-17  4.409370424065023e-01
 9.848970494611609e-01  4.409370424065023e-01 -3.301132419808768e-17

-2.486293649944240e-17 -2.459797371461716e-19  9.785799578835458e-01
-2.459797371461716e-19 -1.373190987478086e-17  4.137302344658500e-01
 9.785799578835458e-01  4.137302344658500e-01 -3.275403579479123e-17

-2.501436254200012e-17 -1.996378276363840e-19  9.951208319222649e-01
-1.996378276363840e-19 -1.432633484028421e-17  3.778200175324175e-01
 9.951208319222649e-01  3.778200175324175e-01 -3.325445675436511e-17

-2.540464214609278e-17 -1.902610265747934e-19  1.013961738722964e+00
-1.902610265747934e-19 -1.435310569156912e-17  3.891815310052230e-01
 1.013961738722964e+00  3.891815310052230e-01 -3.396541715511542e-17

-2.584348971129867e-17 -2.535360872588931e-19  1.027287295071454e+00
-2.535360872588931e-19 -1.405964695772754e-17  4.322428997724173e-01
 1.027287295071454e+00  4.322428997724173e-01 -3.465021467000398e-17

-2.616093533730700e-17 -2.090815692470706e-19  1.035459147381260e+00
-2.090815692470706e-19 -1.352301304879257e-17  4.783114657407622e-01
 1.035459147381260e+00  4.783114657407622e-01 -3.497854880369475e-17

-2.613626664444843e-17 -2.965263083030588e-19  1.056061335256143e+00
-2.965263083030588e-19 -1.511611325341381e-17  3.768972518643388e-01
 1.056061335256143e+00  3.768972518643388e-01 -3.560544311024606e-17

-2.640879002784567e-17 -2.904801017553100e-19  1.098142553415459e+00
-2.904801017553100e-19 -1.657873939625568e-17  2.898708575281299e-01
 1.098142553415459e+00  2.898708575281299e-01 -3.699882192912259e-17

-2.618024129301644e-17 -2.636276452236988e-19  1.045495767683074e+00
-2.636276452236988e-19 -1.414038782851904e-17  4.411494634722663e-01
 1.045495767683074e+00  4.411494634722663e-01 -3.530492860693174e-17

-2.565361176037688e-17 -1.786492192561139e-19  1.007918830874879e+00
-1.786492192561139e-19 -1.339005779958424e-17  4.653386219402764e-01
 1.007918830874879e+00  4.653386219402764e-01 -3.382396209205965e-17

-2.486122335811708e-17 -3.165648425823463e-19  9.767958737014391e-01
-3.165648425823463e-19 -1.434166476037078e-17  3.884718512189649e-01
 9.767958737014391e-01  3.884718512189649e-01 -3.269980991580580e-17

-2.483445529517541e-17 -2.407794400354392e-19  9.729635849624731e-01
-2.407794400354392e-19 -1.383122017458400e-17  4.112829527406388e-01
 9.729635849624731e-01  4.112829527406388e-01 -3.247793915243598e-17

-2.485404002087206e-17 -2.953581884669821e-19  9.504204432558487e-01
-2.953581884669821e-19 -1.287188631954754e-17  4.834757432144791e-01
 9.504204432558487e-01  4.834757432144791e-01 -3.188265699727358e-17

-2.563520667576001e-17 -2.755895563518970e-19  1.012504399106839e+00
-2.755895563518970e-19 -1.376144247810439e-17  4.453621877090458e-01
 1.012504399106839e+00  4.453621877090458e-01 -3.407601167300362e-17

-2.574310881125948e-17 -2.457735737122179e-19  1.022286072207760e+00
-2.457735737122179e-19 -1.426662447689010e-17  4.210231975008732e-01
 1.022286072207760e+00  4.210231975008732e-01 -3.438323868994381e-17

-2.573847584936945e-17 -2.512477883828163e-19  1.023225257435893e+00
-2.512477883828163e-19 -1.450084944251788e-17  4.074189464824094e-01
 1.023225257435893e+00  4.074189464824094e-01 -3.439793602930865e-17

-2.565703252073990e-17 -2.431097841383302e-19  1.016391775428524e+00
-2.431097841383302e-19 -1.439317216215273e-17  4.128886706373665e-01
 1.016391775428524e+00  4.128886706373665e-01 -3.416529653638386e-17

-2.564344024740432e-17 -2.427272244178525e-19  1.013250690423401e+00
-2.427272244178525e-19 -1.429025427326732e-17  4.219448868730385e-01
 1.013250690423401e+00  4.219448868730385e-01 -3.406313914629535e-17

-2.567298455198818e-17 -2.340796944443990e-19  1.013977899972639e+00
-2.340796944443990e-19 -1.438143456935589e-17  4.184078937077874e-01
 1.013977899972639e+00  4.184078937077874e-01 -3.408842246332296e-17

-2.571495548343662e-17 -2.321499183122994e-19  1.018950908019549e+00
-2.321499183122994e-19 -1.456648128606875e-17  4.098506654910041e-01
 1.018950908019549e+00  4.098506654910041e-01 -3.426880938458532e-17

-2.567848269804243e-17 -2.271700812933641e-19  1.010688106155068e+00
-2.271700812933641e-19 -1.431271589931142e-17  4.257133766975894e-01
 1.010688106155068e+00  4.257133766975894e-01 -3.400557625284324e-17

-2.576773433407737e-17 -2.215955893669502e-19  1.016260988521159e+00
-2.215955893669502e-19 -1.439639888211894e-17  4.240743675064982e-01
 1.016260988521159e+00  4.240743675064982e-01 -3.421297644676636e-17

-2.571855210666367e-17 -2.112737050831874e-19  1.014050102787900e+00
-2.112737050831874e-19 -1.451293859614576e-17  4.165160362749941e-01
 1.014050102787900e+00  4.165160362749941e-01 -3.413211834105192e-17

-2.571083478481158e-17 -2.023698986997988e-19  1.011076937669068e+00
-2.023698986997988e-19 -1.448854326862152e-17  4.210958774242638e-01
 1.011076937669068e+00  4.210958774242638e-01 -3.403352543488760e-17

-2.564745096880613e-17 -1.912570413282030e-19  1.003000396603946e+00
-1.912570413282030e-19 -1.437512219222296e-17  4.275673524290866e-01
 1.003000396603946e+00  4.275673524290866e-01 -3.375841518062361e-17

-2.566699244349394e-17 -1.711965342306595e-19  1.006756574066349e+00
-1.711965342306595e-19 -1.472759255149894e-17  4.104009044180859e-01
 1.006756574066349e+00  4.104009044180859e-01 -3.386397517297236e-17

-2.674418609980494e-17 -9.782295621816889e-20  1.096404515859700e+00
-9.782295621816889e-20 -1.622348921001210e-17  3.343525695199973e-01
 1.096404515859700e+00  3.343525695199973e-01 -3.694331560281086e-17

-2.601884367919234e-17 -1.819430235650466e-19  9.967167173152057e-01
-1.819430235650466e-19 -1.357660935554534e-17  5.032351347636981e-01
 9.967167173152057e-01  5.032351347636981e-01 -3.375988924915389e-17

-2.602086666880971e-17 -9.447635085218309e-20  9.986537777556651e-01
-9.447635085218309e-20 -1.346906118827517e-17  5.057760167541896e-01
 9.986537777556651e-01  5.057760167541896e-01 -3.373912468564909e-17

-2.586312232339559e-17 -2.180215706146565e-19  1.017930950162180e+00
-2.180215706146565e-19 -1.520520354446693e-17  3.903996937657632e-01
 1.017930950162180e+00  3.903996937657632e-01 -3.433889199131116e-17

-2.533621788404792e-17 -1.741988234025294e-19  9.771558927789118e-01
-1.741988234025294e-19 -1.441106288569520e-17  4.232457966245929e-01
 9.771558927789118e-01  4.232457966245929e-01 -3.276953909194421e-17

-2.607665792114297e-17 -1.896526493791566e-19  1.038967076763835e+00
-1.896526493791566e-19 -1.544910997828543e-17  3.674652189778950e-01
 1.038967076763835e+00  3.674652189778950e-01 -3.488724622865004e-17

-2.663479292201329e-17 -1.500028741974474e-19  1.079004411505755e+00
-1.500028741974474e-19 -1.584267023405982e-17  3.542154514720388e-01
 1.079004411505755e+00  3.542154514720388e-01 -3.630776432786281e-17

-2.609898062176414e-17 -2.527470607326292e-19  1.004094790267904e+00
-2.527470607326292e-19 -1.377273474574367e-17  4.977456779292896e-01
 1.004094790267904e+00  4.977456779292896e-01 -3.394332923932677e-17

-2.629742905803838e-17 -2.139172396989405e-19  1.026558262087243e+00
-2.139172396989405e-19 -1.449607210388355e-17  4.536166391576817e-01
 1.026558262087243e+00  4.536166391576817e-01 -3.462725620284386e-17

-2.620216852202286e-17 -2.538743800263586e-19  1.040135373516776e+00
-2.538743800263586e-19 -1.567812511775198e-17  3.803421351243951e-01
 1.040135373516776e+00  3.803421351243951e-01 -3.505007361764125e-17

-2.600476708973586e-17 -2.263306257696629e-19  1.015131401395367e+00
-2.263306257696629e-19 -1.473801113250678e-17  4.334565885119389e-01
 1.015131401395367e+00  4.334565885119389e-01 -3.418548033310910e-17

-2.609457520986610e-17 -2.107775443753212e-19  1.016167204955894e+00
-2.107775443753212e-19 -1.465698966934511e-17  4.354642090847832e-01
 1.016167204955894e+00  4.354642090847832e-01 -3.422879586214558e-17

-2.607999830638970e-17 -2.022356958589363e-19  1.025949054812424e+00
-2.022356958589363e-19 -1.502151292975439e-17  4.137995215868449e-01
 1.025949054812424e+00  4.137995215868449e-01 -3.456211845656469e-17

-2.542294292700716e-17 -1.721948936448053e-19  9.685824653325410e-01
-1.721948936448053e-19 -1.400213347101500e-17  4.631025655671013e-01
 9.685824653325410e-01  4.631025655671013e-01 -3.249584094957469e-17

-2.585955826793340e-17 -2.238863321032312e-19  1.012781382305449e+00
-2.238863321032312e-19 -1.518316738013567e-17  3.919554414716083e-01
 1.012781382305449e+00  3.919554414716083e-01 -3.405581575667234e-17

-2.586976570911012e-17 -1.831393673038111e-19  1.018502675400942e+00
-1.831393673038111e-19 -1.544425135748642e-17  3.797050375352704e-01
 1.018502675400942e+00  3.797050375352704e-01 -3.424335585736606e-17

-2.627098294089169e-17 -1.770721390071598e-19  1.029035840163010e+00
-1.770721390071598e-19 -1.507033100519270e-17  4.211169014892213e-01
 1.029035840163010e+00  4.211169014892213e-01 -3.474134220153990e-17

-2.628082305793014e-17 -1.612463081159451e-19  1.027162234072227e+00
-1.612463081159451e-19 -1.510635414537608e-17  4.214460599684401e-01
 1.027162234072227e+00  4.214460599684401e-01 -3.465414537908220e-17

-2.610450808000888e-17 -1.758903147068894e-19  1.020197145339198e+00
-1.758903147068894e-19 -1.541790237568960e-17  3.954110156997590e-01
 1.020197145339198e+00  3.954110156997590e-01 -3.436098711864959e-17

-2.592572996106216e-17 -1.697769094690927e-19  1.006275638723050e+00
-1.697769094690927e-19 -1.510806882703172e-17  4.115803246537729e-01
 1.006275638723050e+00  4.115803246537729e-01 -3.386191442413079e-17

-2.610896680524621e-17 -1.627644846120695e-19  1.016881768153753e+00
-1.627644846120695e-19 -1.507524284145967e-17  4.172404110838928e-01
 1.016881768153753e+00  4.172404110838928e-01 -3.425394729883005e-17

-2.605085997788185e-17 -1.657245108927093e-19  1.012716742933829e+00
-1.657245108927093e-19 -1.512195536079219e-17  4.121687528736013e-01
 1.012716742933829e+00  4.121687528736013e-01 -3.410228946435947e-17

-2.589651622296320e-17 -1.640852381038351e-19  1.001261879310128e+00
-1.640852381038351e-19 -1.506903215963925e-17  4.152709805829374e-01
 1.001261879310128e+00  4.152709805829374e-01 -3.367536976876349e-17

-2.598147120995675e-17 -1.719599355350198e-19  1.003952149625885e+00
-1.719599355350198e-19 -1.506594757858526e-17  4.171416253264582e-01
 1.003952149625885e+00  4.171416253264582e-01 -3.377617408888080e-17

-2.602291108968260e-17 -1.626643267465124e-19  1.004788198727210e+00
-1.626643267465124e-19 -1.498454621490128e-17  4.259686574898440e-01
 1.004788198727210e+00  4.259686574898440e-01 -3.381904551796589e-17

-2.615391968775603e-17 -1.611387763088676e-19  1.014279583915299e+00
-1.611387763088676e-19 -1.511785937608781e-17  4.197949491359886e-01
 1.014279583915299e+00  4.197949491359886e-01 -3.415249887689492e-17

-2.588268714999056e-17 -1.605093140708324e-19  9.955789576698210e-01
-1.605093140708324e-19 -1.498541507636378e-17  4.230551701037050e-01
 9.955789576698210e-01  4.230551701037050e-01 -3.346703930450159e-17

-2.589165889401104e-17 -1.567846810990113e-19  1.002491592488572e+00
-1.567846810990113e-19 -1.556061242209460e-17  3.896228983165932e-01
 1.002491592488572e+00  3.896228983165932e-01 -3.366344013409224e-17

-2.605657111755842e-17 -1.648256071985006e-19  9.974953752659462e-01
-1.648256071985006e-19 -1.501833202264057e-17  4.301339380860382e-01
 9.974953752659462e-01  4.301339380860382e-01 -3.356832142962596e-17

-2.639139486452414e-17 -1.608913572975856e-19  1.022075497938737e+00
-1.608913572975856e-19 -1.542216604882304e-17  4.191645591582880e-01
 1.022075497938737e+00  4.191645591582880e-01 -3.446051097997267e-17

-2.618469354187706e-17 -1.622587781258409e-19  1.006648806150000e+00
-1.622587781258409e-19 -1.547610177363576e-17  4.144233916141833e-01
 1.006648806150000e+00  4.144233916141833e-01 -3.387469529853860e-17

-2.609397367977718e-17 -1.630516763979429e-19  9.994951987769974e-01
-1.630516763979429e-19 -1.535247089525187e-17  4.198344081240534e-01
 9.994951987769974e-01  4.198344081240534e-01 -3.360739143135856e-17

-2.606003624460116e-17 -1.659496556173829e-19  9.973258053704869e-01
-1.659496556173829e-19 -1.560944903281651e-17  4.087171044449089e-01
 9.973258053704869e-01  4.087171044449089e-01 -3.349800212485238e-17

-2.651206143163533e-17 -1.601205318242238e-19  1.028934261603931e+00
-1.601205318242238e-19 -1.607938592020496e-17  3.929494483610592e-01
 1.028934261603931e+00  3.929494483610592e-01 -3.462295045780292e-17

-2.622305870381072e-17 -1.873305996415311e-19  9.863571038862354e-01
-1.873305996415311e-19 -1.491996260388961e-17  4.676324525768980e-01
 9.863571038862354e-01  4.676324525768980e-01 -3.322004937832032e-17

-2.654505576960014e-17 -1.757648319723860e-19  1.018012199815338e+00
-1.757648319723860e-19 -1.558546615247948e-17  4.322362391754034e-01
 1.018012199815338e+00  4.322362391754034e-01 -3.429123850103198e-17

-2.627114188654232e-17 -1.919089594174345e-19  1.006474438627767e+00
-1.919089594174345e-19 -1.599586706981440e-17  4.018222901461270e-01
 1.006474438627767e+00  4.018222901461270e-01 -3.382587499349245e-17

-2.621922468221222e-17 -1.920675463570537e-19  9.986937810416059e-01
-1.920675463570537e-19 -1.575334128286523e-17  4.164008229117308e-01
 9.986937810416059e-01  4.164008229117308e-01 -3.354680033145280e-17

-2.631045296144110e-17 -1.960779079446605e-19  1.001835120937231e+00
-1.960779079446605e-19 -1.584909688662694e-17  4.176004069489808e-01
 1.001835120937231e+00  4.176004069489808e-01 -3.366783049706810e-17

-2.643082086678547e-17 -1.906827745263712e-19  1.009727887291399e+00
-1.906827745263712e-19 -1.616130423519366e-17  4.025148512689019e-01
 1.009727887291399e+00  4.025148512689019e-01 -3.394338263474914e-17

-2.660231526935898e-17 -2.033285220647357e-19  1.023670206053954e+00
-2.033285220647357e-19 -1.644798365792441e-17  3.913581556640593e-01
 1.023670206053954e+00  3.913581556640593e-01 -3.444594250467376e-17

-2.659822043092336e-17 -2.037305094796134e-19  1.014238346025924e+00
-2.037305094796134e-19 -1.599047099341317e-17  4.204132140341632e-01
 1.014238346025924e+00  4.204132140341632e-01 -3.415885785846411e-17

-2.675611802593901e-17 -1.811784373712613e-19  1.025726967276083e+00
-1.811784373712613e-19 -1.582290059677827e-17  4.299366481042589e-01
 1.025726967276083e+00  4.299366481042589e-01 -3.454864581052274e-17

-2.635582979995699e-17 -1.573399146208803e-19  1.003141364062460e+00
-1.573399146208803e-19 -1.542082510593373e-17  4.323215590827773e-01
 1.003141364062460e+00  4.323215590827773e-01 -3.366211160641686e-17

-2.592326478351040e-17 -1.717334111625778e-19  9.812419377825110e-01
-1.717334111625778e-19 -1.515358923721317e-17  4.261773423621887e-01
 9.812419377825110e-01  4.261773423621887e-01 -3.284532073290036e-17

-2.455675811118000e-17 -1.143840720378121e-19  8.898324017941179e-01
-1.143840720378121e-19 -1.372599132946540e-17  4.724435952318828e-01
 8.898324017941179e-01  4.724435952318828e-01 -2.947336086021980e-17

-2.298233272033649e-17 -1.595787104521691e-19  8.044020574442098e-01
-1.595787104521691e-19 -1.437771719752089e-17  3.992029626919781e-01
 8.044020574442098e-01  3.992029626919781e-01 -2.616143008999261e-17

-2.544861123570273e-17  8.772632159757393e-19  1.057973034736484e+00
 8.772632159757393e-19 -1.791496876277964e-17  1.470742683276434e-01
 1.057973034736484e+00  1.470742683276434e-01 -3.194172925841882e-17

-2.577576111889191e-17 -9.199398560160504e-19  8.845392575120171e-01
-9.199398560160504e-19 -1.408574795450577e-17  5.973968675551182e-01
 8.845392575120171e-01  5.973968675551182e-01 -3.175989874333562e-17

-2.891551867850230e-17 -4.109263085557816e-19  1.120355219787270e+00
-4.109263085557816e-19 -1.622430787424804e-17  5.179968526688421e-01
 1.120355219787270e+00  5.179968526688421e-01 -3.893217124560480e-17

-2.789197290382059e-17 -4.843263489250823e-19  1.109258910340732e+00
-4.843263489250823e-19 -1.961696556453562e-17  2.818609414362926e-01
 1.109258910340732e+00  2.818609414362926e-01 -3.768411900156153e-17

-2.626583421560723e-17 -2.551858509308861e-19  9.923396624848030e-01
-2.551858509308861e-19 -1.810509412157286e-17  3.326299901884481e-01
 9.923396624848030e-01  3.326299901884481e-01 -3.319458447817869e-17

-2.656917731783959e-17 -2.653490456096870e-19  9.722594804921230e-01
-2.653490456096870e-19 -1.579646254363533e-17  4.931959455146685e-01
 9.722594804921230e-01  4.931959455146685e-01 -3.274936244653833e-17

-2.642566090076157e-17 -2.127736561957971e-19  9.640756445391070e-01
-2.127736561957971e-19 -1.617384992325836e-17  4.716974931236593e-01
 9.640756445391070e-01  4.716974931236593e-01 -3.236611413714456e-17

-2.694473012901996e-17 -2.182744225016971e-19  1.025976994334998e+00
-2.182744225016971e-19 -1.822863327981195e-17  3.570697613369333e-01
 1.025976994334998e+00  3.570697613369333e-01 -3.448566859272170e-17

-2.694592715721711e-17 -2.002539757544690e-19  1.007129014340639e+00
-2.002539757544690e-19 -1.773263675932888e-17  4.044831428725237e-01
 1.007129014340639e+00  4.044831428725237e-01 -3.387070013602622e-17

-2.740000474794521e-17 -2.369143113612145e-19  1.023379246547768e+00
-2.369143113612145e-19 -1.759557812063143e-17  4.356635704727932e-01
 1.023379246547768e+00  4.356635704727932e-01 -3.463842247992552e-17

-2.776933543495586e-17 -2.360711244238299e-19  1.042624806059815e+00
-2.360711244238299e-19 -1.769604430131096e-17  4.457575804366635e-01
 1.042624806059815e+00  4.457575804366635e-01 -3.538023963726478e-17

-2.773391972425255e-17 -1.653114714610985e-19  1.044340280916265e+00
-1.653114714610985e-19 -1.814235521666307e-17  4.205564741582724e-01
 1.044340280916265e+00  4.205564741582724e-01 -3.537345745235323e-17

-2.714122073478783e-17 -1.510971449991248e-19  1.007987705548864e+00
-1.510971449991248e-19 -1.831115436283816e-17  3.996636537196525e-01
 1.007987705548864e+00  3.996636537196525e-01 -3.405785286173503e-17

-2.703824319924988e-17 -1.288459764482580e-19  1.002265332952673e+00
-1.288459764482580e-19 -1.835186703716013e-17  3.927161635359864e-01
 1.002265332952673e+00  3.927161635359864e-01 -3.385950748584671e-17

-2.697431379736307e-17 -7.951925977864750e-20  9.869553117478489e-01
-7.951925977864750e-20 -1.815883034811796e-17  4.111000425069817e-01
 9.869553117478489e-01  4.111000425069817e-01 -3.335571413389409e-17

-2.746405310768184e-17 -1.130004412882084e-20  1.010285860786260e+00
-1.130004412882084e-20 -1.859843039636936e-17  4.071008436418395e-01
 1.010285860786260e+00  4.071008436418395e-01 -3.429941240499208e-17

-2.809580764274913e-17  4.975182614253652e-20  1.041668590169869e+00
 4.975182614253652e-20 -1.892179350597257e-17  4.109134982073033e-01
 1.041668590169869e+00  4.109134982073033e-01 -3.551490502935949e-17

-2.772857167417378e-17  9.522933830726168e-20  1.010865181250613e+00
 9.522933830726168e-20 -1.871732872771976e-17  4.173956610849977e-01
 1.010865181250613e+00  4.173956610849977e-01 -3.434747002300363e-17

-2.672800901677073e-17  6.857256187143113e-20  9.435849199325163e-01
 6.857256187143113e-20 -1.843099922793494e-17  4.156192011939154e-01
 9.435849199325163e-01  4.156192011939154e-01 -3.186224169228433e-17

-2.700739033168046e-17  1.335002794121310e-19  9.591460084491966e-01
 1.335002794121310e-19 -1.897012100210296e-17  3.999605303921483e-01
 9.591460084491966e-01  3.999605303921483e-01 -3.230826885845234e-17

-2.803917418007509e-17  1.245538467061734e-19  1.011944711157711e+00
 1.245538467061734e-19 -1.947480553475036e-17  4.059899129395962e-01
 1.011944711157711e+00  4.059899129395962e-01 -3.430973892646566e-17

-2.836377677254812e-17  2.567708684292296e-20  1.010184852120726e+00
 2.567708684292296e-20 -1.906611308225696e-17  4.710241743574756e-01
 1.010184852120726e+00  4.710241743574756e-01 -3.450838766736220e-17

-2.871140639036370e-17  9.964246303972803e-20  1.036490490016800e+00
 9.964246303972803e-20 -2.047712103941678e-17  4.118749657674708e-01
 1.036490490016800e+00  4.118749657674708e-01 -3.532434354687271e-17

-2.890205234089203e-17  1.061433292420205e-19  1.040119754522245e+00
 1.061433292420205e-19 -2.106995123684916e-17  4.033643167636340e-01
 1.040119754522245e+00  4.033643167636340e-01 -3.545957628341044e-17

-2.947529582621609e-17  1.332463461367343e-19  1.062514716948558e+00
 1.332463461367343e-19 -2.148805772639845e-17  4.160640339844123e-01
 1.062514716948558e+00  4.160640339844123e-01 -3.636398432938015e-17

-2.877960326802739e-17  1.841124586774512e-19  9.963712334059999e-01
 1.841124586774512e-19 -2.073514007758671e-17  4.626271564557440e-01
 9.963712334059999e-01  4.626271564557440e-01 -3.398931517510525e-17

-2.902265866185351e-17  1.915026491852634e-19  1.024115950934751e+00
 1.915026491852634e-19 -2.182106285376921e-17  4.059219650788328e-01
 1.024115950934751e+00  4.059219650788328e-01 -3.495018939533551e-17

-2.918745986705348e-17  2.110816252571210e-19  1.020723194614531e+00
 2.110816252571210e-19 -2.154030744696105e-17  4.388584513909439e-01
 1.020723194614531e+00  4.388584513909439e-01 -3.489328318888102e-17

-2.934134685061663e-17  2.603051876629419e-19  1.028173347613835e+00
 2.603051876629419e-19 -2.202841673765080e-17  4.230846701594750e-01
 1.028173347613835e+00  4.230846701594750e-01 -3.517451450918133e-17

-2.906220809990755e-17  2.532438976897150e-19  1.003583037845513e+00
 2.532438976897150e-19 -2.228745613572799e-17  4.133541244865281e-01
 1.003583037845513e+00  4.133541244865281e-01 -3.429516270256117e-17

-2.916280638300585e-17  3.079195728806675e-19  1.002532657747657e+00
 3.079195728806675e-19 -2.222229895564138e-17  4.274560181307024e-01
 1.002532657747657e+00  4.274560181307024e-01 -3.427544291582176e-17

-2.938674655667927e-17  3.452757806495538e-19  1.013474213842350e+00
 3.452757806495538e-19 -2.264541146393595e-17  4.119741217478033e-01
 1.013474213842350e+00  4.119741217478033e-01 -3.467245158203664e-17

-2.926846393562639e-17  3.718972906820510e-19  9.991530568986785e-01
 3.718972906820510e-19 -2.284852133305310e-17  4.156139255526252e-01
 9.991530568986785e-01  4.156139255526252e-01 -3.416525718359531e-17

-2.976686716727212e-17  3.832520429954045e-19  1.021313625104904e+00
 3.832520429954045e-19 -2.325437284105206e-17  4.179069732971374e-01
 1.021313625104904e+00  4.179069732971374e-01 -3.502934424814138e-17

-3.008198395204701e-17  4.368864870120212e-19  1.026337230051791e+00
 4.368864870120212e-19 -2.354833833146476e-17  4.288427760478742e-01
 1.026337230051791e+00  4.288427760478742e-01 -3.528758188164323e-17

-2.998381972611571e-17  4.737632016211763e-19  1.007691046235036e+00
 4.737632016211763e-19 -2.383475026334128e-17  4.273089081029595e-01
 1.007691046235036e+00  4.273089081029595e-01 -3.462808797703560e-17

-2.992727947174529e-17  4.735706250765244e-19  1.005211888252182e+00
 4.735706250765244e-19 -2.408800012986520e-17  4.257542902168777e-01
 1.005211888252182e+00  4.257542902168777e-01 -3.455522967194992e-17

-3.068518487754158e-17  5.854093902064720e-19  1.033901832125844e+00
 5.854093902064720e-19 -2.461571386643668e-17  4.218801752921110e-01
 1.033901832125844e+00  4.218801752921110e-01 -3.562579142175087e-17

-3.330388390887469e-17  1.503146083009466e-18  9.930337718195151e-01
 1.503146083009466e-18 -2.496157503748591e-17  4.323107090210468e-01
 9.930337718195151e-01  4.323107090210468e-01 -3.417899064981140e-17

 6.738075102209786e-18 -9.550329155135146e-18  9.780912696801397e-01
-9.550329155135146e-18 -2.308275541947788e-17  4.103284714809518e-01
 9.780912696801397e-01  4.103284714809518e-01 -3.367131609521987e-17

-2.050833767106700e-16  4.916886927631715e-17  1.034935144065061e+00
 4.916886927631715e-17 -3.995103024502827e-17  4.853162439551451e-01
 1.034935144065061e+00  4.853162439551451e-01 -3.609977256815355e-17

-2.721512857744347e-17 -3.206658915888903e-19  1.024255739057841e+00
-3.206658915888903e-19 -2.662009858654255e-17  4.671816066268914e-01
 1.024255739057841e+00  4.671816066268914e-01 -3.559794983417342e-17

-3.012882936426630e-17  9.259202704739305e-19  9.384555887502652e-01
 9.259202704739305e-19 -2.821960330837770e-17  4.092309349079915e-01
 9.384555887502652e-01  4.092309349079915e-01 -3.256409003361655e-17

-3.211050506374289e-17  1.290982411809611e-18  9.888010561039371e-01
 1.290982411809611e-18 -2.964694089144086e-17  4.144101060507889e-01
 9.888010561039371e-01  4.144101060507889e-01 -3.448243514733471e-17

-3.363234159643836e-17  1.342055325326023e-18  1.045631404287441e+00
 1.342055325326023e-18 -3.107003533488840e-17  4.438142156756090e-01
 1.045631404287441e+00  4.438142156756090e-01 -3.687008391273581e-17

-3.377675870685929e-17  1.644307219299354e-18  1.018588010669483e+00
 1.644307219299354e-18 -3.313022386573988e-17  4.035153520563621e-01
 1.018588010669483e+00  4.035153520563621e-01 -3.593430193596057e-17

-3.445728703608136e-17  1.821870531475493e-18  1.036977803772985e+00
 1.821870531475493e-18 -3.438394371954680e-17  3.915297780146091e-01
 1.036977803772985e+00  3.915297780146091e-01 -3.667706042293489e-17

-3.459530890680356e-17  1.950872280823552e-18  1.007337758026513e+00
 1.950872280823552e-18 -3.419636027494418e-17  4.565979504309160e-01
 1.007337758026513e+00  4.565979504309160e-01 -3.574452289250240e-17

-3.446122789989989e-17  2.225763529140714e-18  9.664551622702847e-01
 2.225763529140714e-18 -3.495001697036176e-17  4.609394347173423e-01
 9.664551622702847e-01  4.609394347173423e-01 -3.432982880171531e-17

-3.456095221316808e-17  2.528553527698029e-18  9.564084818863714e-01
 2.528553527698029e-18 -3.761951359441181e-17  3.647668882162953e-01
 9.564084818863714e-01  3.647668882162953e-01 -3.402770018554971e-17

-3.587733556549192e-17  2.722711643521576e-18  9.807220590784481e-01
 2.722711643521576e-18 -3.898484944837825e-17  4.121690018213175e-01
 9.807220590784481e-01  4.121690018213175e-01 -3.515822579128559e-17

-3.815731980497352e-17  2.910026955546233e-18  1.045941444658699e+00
 2.910026955546233e-18 -4.174079694216810e-17  4.488658562404144e-01
 1.045941444658699e+00  4.488658562404144e-01 -3.806288167020332e-17

-3.899136611609643e-17  3.550758220658753e-18  1.023528556224658e+00
 3.550758220658753e-18 -4.516977163960463e-17  4.111687816313504e-01
 1.023528556224658e+00  4.111687816313504e-01 -3.745545740387861e-17

-3.989009727932783e-17  4.110445813383989e-18  1.001517990120518e+00
 4.110445813383989e-18 -4.787695145023134e-17  4.119666597576440e-01
 1.001517990120518e+00  4.119666597576440e-01 -3.696213055028145e-17

-4.102206285886857e-17  4.609556197555469e-18  1.003203819285339e+00
 4.609556197555469e-18 -5.045896700044027e-17  4.121398102268662e-01
 1.003203819285339e+00  4.121398102268662e-01 -3.732370234151222e-17

-4.198435791286378e-17  5.011757094072799e-18  9.923959006908238e-01
 5.011757094072799e-18 -5.249770862726953e-17  4.355863465833520e-01
 9.923959006908238e-01  4.355863465833520e-01 -3.724768280066131e-17

-4.311588582842299e-17  5.520033636015367e-18  9.999783306991118e-01
 5.520033636015367e-18 -5.514922121255574e-17  4.228894817319387e-01
 9.999783306991118e-01  4.228894817319387e-01 -3.780327634579314e-17

-4.438262212610130e-17  6.131419769008324e-18  9.980000194816691e-01
 6.131419769008324e-18 -5.828672362909913e-17  4.144660025998751e-01
 9.980000194816691e-01  4.144660025998751e-01 -3.809084156219456e-17

-4.553808270800649e-17  6.630115640685888e-18  1.003442743839948e+00
 6.630115640685888e-18 -6.080298959401719e-17  4.111501708805306e-01
 1.003442743839948e+00  4.111501708805306e-01 -3.859069061509369e-17

-4.684616827600238e-17  7.166210150125970e-18  1.008023107298845e+00
 7.166210150125970e-18 -6.359488046641030e-17  4.166772450179519e-01
 1.008023107298845e+00  4.166772450179519e-01 -3.910380360875287e-17

-4.800610826144441e-17  7.731209601608471e-18  9.905805495889618e-01
 7.731209601608471e-18 -6.616011255734685e-17  4.420670213102433e-01
 9.905805495889618e-01  4.420670213102433e-01 -3.886800580782524e-17

-4.953582981834989e-17  8.540940902734033e-18  9.900273068821949e-01
 8.540940902734033e-18 -6.979477209142326e-17  4.318668805843390e-01
 9.900273068821949e-01  4.318668805843390e-01 -3.924481271358635e-17

-5.187379434178338e-17  9.641097235346552e-18  1.034458519908689e+00
 9.641097235346552e-18 -7.498158319697264e-17  3.589752347744451e-01
 1.034458519908689e+00  3.589752347744451e-01 -4.126559527054428e-17

-5.352816710191315e-17  1.035486225267119e-17  1.030799784882493e+00
 1.035486225267119e-17 -7.859395789237525e-17  3.764767381639547e-01
 1.030799784882493e+00  3.764767381639547e-01 -4.159306675622397e-17

-5.780619346692762e-17  1.192934040229322e-17  1.043846050367868e+00
 1.192934040229322e-17 -8.675653170377601e-17  4.408360074849931e-01
 1.043846050367868e+00  4.408360074849931e-01 -4.323135012522735e-17

-5.987463861080955e-17  1.398818269659044e-17  9.300431457168077e-01
 1.398818269659044e-17 -9.287768444300574e-17  4.924719668558570e-01
 9.300431457168077e-01  4.924719668558570e-01 -3.996191428116004e-17

-6.313547584551664e-17  1.576209444713959e-17  1.041949027300521e+00
 1.576209444713959e-17 -9.909591053992141e-17  3.286359916536895e-01
 1.041949027300521e+00  3.286359916536895e-01 -4.453732016722391e-17

-6.632286887301584e-17  1.776811853663271e-17  9.877980055867519e-01
 1.776811853663271e-17 -1.063904690248215e-16  3.772824291030000e-01
 9.877980055867519e-01  3.772824291030000e-01 -4.350206402221877e-17

-7.379950273178101e-17  2.064485586254035e-17  1.022935415444399e+00
 2.064485586254035e-17 -1.209827225525537e-16  4.414887250484984e-01
 1.022935415444399e+00  4.414887250484984e-01 -4.675322751851052e-17

-8.092692123167230e-17  2.448835974800478e-17  1.029252063385300e+00
 2.448835974800478e-17 -1.357942807075122e-16  4.282211102048893e-01
 1.029252063385300e+00  4.282211102048893e-01 -4.874955600180125e-17

-8.637851080851187e-17  2.772344909700588e-17  1.028762244314009e+00
 2.772344909700588e-17 -1.466276441712260e-16  4.155629983380667e-01
 1.028762244314009e+00  4.155629983380667e-01 -5.011340441603290e-17

-9.439352128332395e-17  3.249400210490714e-17  1.019612490565863e+00
 3.249400210490714e-17 -1.622825560636922e-16  4.122979597149010e-01
 1.019612490565863e+00  4.122979597149010e-01 -5.184846493857732e-17

-1.072439675341050e-16  3.979970116794778e-17  1.039947934348550e+00
 3.979970116794778e-17 -1.863674728441987e-16  3.987763984857787e-01
 1.039947934348550e+00  3.987763984857787e-01 -5.577822301750591e-17

-1.146331242546823e-16  4.372723059044844e-17  1.023362525968982e+00
 4.372723059044844e-17 -2.006343000742198e-16  4.329811657761741e-01
 1.023362525968982e+00  4.329811657761741e-01 -5.714571567040366e-17

-1.239068771949758e-16  4.886865065270960e-17  1.029055931587397e+00
 4.886865065270960e-17 -2.176145810098556e-16  4.411347529564086e-01
 1.029055931587397e+00  4.411347529564086e-01 -5.967237817302094e-17

-1.465644746428694e-16  6.281070038732062e-17  1.036019941728765e+00
 6.281070038732062e-17 -2.556407781598393e-16  4.164131601356842e-01
 1.036019941728765e+00  4.164131601356842e-01 -6.551560264023662e-17

-1.916891439466289e-16  9.065420204382454e-17  1.017742185914241e+00
 9.065420204382454e-17 -3.244493276760555e-16  4.202636017610697e-01
 1.017742185914241e+00  4.202636017610697e-01 -7.594883982664965e-17

-2.476487570969014e-16  1.241999414743633e-16  1.014503877686296e+00
 1.241999414743633e-16 -4.004452039150300e-16  4.199890964195487e-01
 1.014503877686296e+00  4.199890964195487e-01 -8.937871766430622e-17

-3.172173355130280e-16  1.643308757360269e-16  1.012317690766324e+00
 1.643308757360269e-16 -4.855860816286367e-16  4.216202729336104e-01
 1.012317690766324e+00  4.216202729336104e-01 -1.060505408799643e-16

-4.069223640776638e-16  2.133729309861784e-16  1.007782017091608e+00
 2.133729309861784e-16 -5.819870315395393e-16  4.252747876635954e-01
 1.007782017091608e+00  4.252747876635954e-01 -1.274306849138840e-16

-4.802981516327921e-16  2.510184197228438e-16  1.010333390881383e+00
 2.510184197228438e-16 -6.495709560299241e-16  4.211012439138888e-01
 1.010333390881383e+00  4.211012439138888e-01 -1.451810179674680e-16

-6.399369432213498e-16  3.276479464421835e-16  1.012345887273378e+00
 3.276479464421835e-16 -7.857733535344671e-16  4.203669174152030e-01
 1.012345887273378e+00  4.203669174152030e-01 -1.839797829587652e-16

-1.046565171153214e-15  4.859617306803224e-16  1.013115632955935e+00
 4.859617306803224e-16 -1.050001280651011e-15  4.216558904955403e-01
 1.013115632955935e+00  4.216558904955403e-01 -2.861635836775606e-16

-1.673000852368228e-15  6.418791482360758e-16  1.012645279771033e+00
 6.418791482360758e-16 -1.324921607618149e-15  4.218626827832191e-01
 1.012645279771033e+00  4.218626827832191e-01 -4.568230951199312e-16

-2.232296403176123e-15  7.262226567578482e-16  1.011635338301212e+00
 7.262226567578482e-16 -1.536892715829448e-15  4.247083981355159e-01
 1.011635338301212e+00  4.247083981355159e-01 -6.230867609570388e-16

-3.404416232844975e-15  7.239797529697537e-16  1.009639451250961e+00
 7.239797529697537e-16 -1.883115275130831e-15  4.240179258750649e-01
 1.009639451250961e+00  4.240179258750649e-01 -1.025547403917288e-15

-4.891736553993910e-15  4.706216490991521e-16  1.009971626224011e+00
 4.706216490991521e-16 -2.326938768512044e-15  4.181219062296840e-01
 1.009971626224011e+00  4.181219062296840e-01 -1.653546577869529e-15

-6.828290971569482e-15 -9.626181887033583e-17  1.011098110229107e+00
-9.626181887033583e-17 -3.065299613810541e-15  4.177208398358299e-01
 1.011098110229107e+00  4.177208398358299e-01 -2.629607545608385e-15

-9.513911374560225e-15 -1.087700879553967e-15  9.939124550248259e-01
-1.087700879553967e-15 -4.371806648803123e-15  4.396553811816293e-01
 9.939124550248259e-01  4.396553811816293e-01 -4.191446331302804e-15

-1.365935793601718e-14 -2.711035028613835e-15  1.002158713489107e+00
-2.711035028613835e-15 -5.877081323302483e-15  4.272475741831722e-01
 1.002158713489107e+00  4.272475741831722e-01 -6.826336770937781e-15

 2.363786550985462e-14 -2.608778172993100e-14  9.989840815912024e-01
-2.608778172993100e-14  2.015204046263485e-14  4.144703511480045e-01
 9.989840815912024e-01  4.144703511480045e-01 -1.403634288687176e-15

-6.174624087673871e-13  1.482659782339636e-13  1.056528662081389e+00
 1.482659782339636e-13 -2.557384626999955e-13  3.754737480844259e-01
 1.056528662081389e+00  3.754737480844259e-01 -2.146393421792450e-13

 8.308640978630200e-14 -1.410817352058992e-14  1.016518065430093e+00
-1.410817352058992e-14  3.183246334261566e-14  4.497700545695953e-01
 1.016518065430093e+00  4.497700545695953e-01  1.385477938714126e-14

-6.603694831524143e-13  1.617762113650236e-13  1.051699026673836e+00
 1.617762113650236e-13 -3.612308257156803e-13  4.381034239998287e-01
 1.051699026673836e+00  4.381034239998287e-01 -1.619065859733745e-13

-1.038061637539415e-14  1.102651220006963e-14  9.685013372447125e-01
 1.102651220006963e-14 -9.660729879189044e-15  4.063935224661858e-01
 9.685013372447125e-01  4.063935224661858e-01 -9.929123653807634e-15

-5.050191649323396e-15  7.785852805337866e-15  9.987564424640025e-01
 7.785852805337866e-15 -3.196374448352827e-15  4.019791475070051e-01
 9.987564424640025e-01  4.019791475070051e-01 -4.401526226494304e-15

-4.098319568406549e-15  6.154451926559143e-15  9.729202464773324e-01
 6.154451926559143e-15 -1.140469153907620e-15  4.603350940298113e-01
 9.729202464773324e-01  4.603350940298113e-01 -3.148650552484509e-15

-3.080325745106497e-15  3.523230618674145e-15  1.019179905522207e+00
 3.523230618674145e-15  7.124247665372624e-17  4.251228020339007e-01
 1.019179905522207e+00  4.251228020339007e-01 -1.811494655950677e-15

-1.899636719771333e-15  1.138195281065091e-15  1.014537013968174e+00
 1.138195281065091e-15  1.449546824409891e-16  4.137612933031768e-01
 1.014537013968174e+00  4.137612933031768e-01 -8.023615650946309e-16

-1.174079706527490e-15  3.677169692744471e-16  1.019045758402874e+00
 3.677169692744471e-16 -5.015801003893103e-17  4.124240801249082e-01
 1.019045758402874e+00  4.124240801249082e-01 -4.312254898238912e-16

-8.209379452097823e-16  1.452036386399901e-16  1.027134771103211e+00
 1.452036386399901e-16 -1.329014980740299e-16  4.185783652160755e-01
 1.027134771103211e+00  4.185783652160755e-01 -2.900289718874772e-16

-5.366851986947849e-16  3.453115707314685e-17  1.009310853908039e+00
 3.453115707314685e-17 -1.689652994766380e-16  4.233850598123235e-01
 1.009310853908039e+00  4.233850598123235e-01 -1.897007425451403e-16

-3.467463939895373e-16 -6.575181006969951e-18  9.956925327396033e-01
-6.575181006969951e-18 -1.660676405510050e-16  4.249945914530413e-01
 9.956925327396033e-01  4.249945914530413e-01 -1.277369171928198e-16

-2.738549978031557e-16 -1.392918608907540e-17  1.013408234362239e+00
-1.392918608907540e-17 -1.566417108118512e-16  4.317403569034323e-01
 1.013408234362239e+00  4.317403569034323e-01 -1.057951712807892e-16

-2.384525988476351e-16 -1.549074975241642e-17  1.019941385714979e+00
-1.549074975241642e-17 -1.489500924891524e-16  4.316273547170603e-01
 1.019941385714979e+00  4.316273547170603e-01 -9.535941651787167e-17

-1.907313124164059e-16 -1.617332835075342e-17  1.018751102820519e+00
-1.617332835075342e-17 -1.349497612809936e-16  4.167302919865488e-01
 1.018751102820519e+00  4.167302919865488e-01 -8.115564794625878e-17

-1.509835082913268e-16 -1.486261419261739e-17  1.006680400443943e+00
-1.486261419261739e-17 -1.185596131870252e-16  4.162046877260198e-01
 1.006680400443943e+00  4.162046877260198e-01 -6.910134740979262e-17

-1.069166314653111e-16 -1.106505116876965e-17  1.004183259001196e+00
-1.106505116876965e-17 -8.863867971276399e-17  4.180353884293654e-01
 1.004183259001196e+00  4.180353884293654e-01 -6.293907555746845e-17

-1.003041330349036e-16 -1.059439230952141e-17  1.006883229968572e+00
-1.059439230952141e-17 -9.018497268541838e-17  4.184250769076622e-01
 1.006883229968572e+00  4.184250769076622e-01 -5.444270202976729e-17

-8.774511558740132e-17 -9.073344722697085e-18  1.007361569816197e+00
-9.073344722697085e-18 -8.140349667648944e-17  4.184766254343936e-01
 1.007361569816197e+00  4.184766254343936e-01 -5.083363874695605e-17

-7.804859967852623e-17 -7.779513223062305e-18  1.006854020276282e+00
-7.779513223062305e-18 -7.387511476544527e-17  4.173501849954995e-01
 1.006854020276282e+00  4.173501849954995e-01 -4.805324961577623e-17

-6.998290808870121e-17 -6.626431165591255e-18  1.008326729798231e+00
-6.626431165591255e-18 -6.720812109734641e-17  4.152985694871629e-01
 1.008326729798231e+00  4.152985694871629e-01 -4.582626459200864e-17

-6.391646170598501e-17 -5.664924102549804e-18  1.015582548281936e+00
-5.664924102549804e-18 -6.184305223887226e-17  4.115707574401954e-01
 1.015582548281936e+00  4.115707574401954e-01 -4.435030065720777e-17

-5.918089624292401e-17 -4.838016459281161e-18  1.038121021997662e+00
-4.838016459281161e-18 -5.720121447668680e-17  4.069775552083734e-01
 1.038121021997662e+00  4.069775552083734e-01 -4.375607557610958e-17

-5.561832764770213e-17 -4.195851541610659e-18  1.000548426177828e+00
-4.195851541610659e-18 -5.248280257088599e-17  4.797614804737521e-01
 1.000548426177828e+00  4.797614804737521e-01 -4.148473842536312e-17

-5.134669530086933e-17 -3.956100273040163e-18  9.276218858068279e-01
-3.956100273040163e-18 -4.847071595703017e-17  4.663810163561075e-01
 9.276218858068279e-01  4.663810163561075e-01 -3.791722846124242e-17

-4.753335019656741e-17 -3.892895102372225e-18  9.254260862594976e-01
-3.892895102372225e-18 -4.793473595847725e-17  2.376949182809802e-01
 9.254260862594976e-01  2.376949182809802e-01 -3.602244802610713e-17

-4.666919062978739e-17 -2.825615491924201e-18  9.756495271695432e-01
-2.825615491924201e-18 -4.571206995404973e-17  2.765002828886615e-01
 9.756495271695432e-01  2.765002828886615e-01 -3.643350567785073e-17

-4.885436441492816e-17 -2.889514650594426e-18  1.141272749737904e+00
-2.889514650594426e-18 -4.485863332818259e-17  4.985271566507955e-01
 1.141272749737904e+00  4.985271566507955e-01 -4.576809595628219e-17

-4.756443917581921e-17 -1.729851715141659e-18  1.227754623774855e+00
-1.729851715141659e-18 -4.342253320128987e-17  4.189000787505813e-01
 1.227754623774855e+00  4.189000787505813e-01 -4.674756768554457e-17

-4.287009980476678e-17 -2.087427861059155e-18  1.050808068918512e+00
-2.087427861059155e-18 -4.007586707231709e-17  3.878976548338118e-01
 1.050808068918512e+00  3.878976548338118e-01 -3.965369742981999e-17

-4.000263632459683e-17 -2.029124765285273e-18  9.741751922445153e-01
-2.029124765285273e-18 -3.689056972108523e-17  3.962254978891652e-01
 9.741751922445153e-01  3.962254978891652e-01 -3.632704531053275e-17

-3.872584971656186e-17 -1.732043731867020e-18  9.740801157467046e-01
-1.732043731867020e-18 -3.426596120689277e-17  4.369192553692519e-01
 9.740801157467046e-01  4.369192553692519e-01 -3.590354870883373e-17

-3.779296012496435e-17 -1.529016446778291e-18  9.930547241227408e-01
-1.529016446778291e-18 -3.280289015489797e-17  4.335433564102373e-01
 9.930547241227408e-01  4.335433564102373e-01 -3.626175584283367e-17

-3.754235435344283e-17 -1.336886171155261e-18  1.057996883135268e+00
-1.336886171155261e-18 -3.292688379314919e-17  3.620370776377863e-01
 1.057996883135268e+00  3.620370776377863e-01 -3.814384784452645e-17

-3.693113764123431e-17 -1.306353618363111e-18  1.023624758537607e+00
-1.306353618363111e-18 -3.104082691216301e-17  4.554002245359624e-01
 1.023624758537607e+00  4.554002245359624e-01 -3.707605162466268e-17

-3.679581701492472e-17 -1.242499915322516e-18  1.034784435168988e+00
-1.242499915322516e-18 -3.011051599728195e-17  4.882965224356942e-01
 1.034784435168988e+00  4.882965224356942e-01 -3.744111382240790e-17

-3.580468668037683e-17 -1.172268697401597e-18  1.044525997308867e+00
-1.172268697401597e-18 -3.003763489227087e-17  4.107720730286983e-01
 1.044525997308867e+00  4.107720730286983e-01 -3.733451872854192e-17

-3.460795110439021e-17 -1.101096949662245e-18  1.022363599447834e+00
-1.101096949662245e-18 -2.888501765066918e-17  3.990299606046919e-01
 1.022363599447834e+00  3.990299606046919e-01 -3.627211153859243e-17

-3.430499809879703e-17 -1.012692346758760e-18  1.027979982390163e+00
-1.012692346758760e-18 -2.777089218254294e-17  4.250239948916699e-01
 1.027979982390163e+00  4.250239948916699e-01 -3.638678004214728e-17

-3.377560453266606e-17 -9.085753085963805e-19  1.020556268785933e+00
-9.085753085963805e-19 -2.647047517524904e-17  4.562841512435786e-01
 1.020556268785933e+00  4.562841512435786e-01 -3.599880485800462e-17

-3.263196368272797e-17 -9.310205919207019e-19  9.904583763051561e-01
-9.310205919207019e-19 -2.635982595169465e-17  3.996184823439470e-01
 9.904583763051561e-01  3.996184823439470e-01 -3.474303196745655e-17

-3.214836487409018e-17 -8.230713606076443e-19  9.984157546179193e-01
-8.230713606076443e-19 -2.635567909553785e-17  3.523521465159875e-01
 9.984157546179193e-01  3.523521465159875e-01 -3.473303407290482e-17

-3.234755032066206e-17 -8.484852377699817e-19  9.988530485658081e-01
-8.484852377699817e-19 -2.422812518289112e-17  4.791529285907790e-01
 9.988530485658081e-01  4.791529285907790e-01 -3.509284558445019e-17

-3.240252535138135e-17 -6.928999927053681e-19  1.030412681721911e+00
-6.928999927053681e-19 -2.397977193337909e-17  4.650718196925765e-01
 1.030412681721911e+00  4.650718196925765e-01 -3.600769385830737e-17

-3.114786606697582e-17 -7.579672495056616e-19  9.908674348317288e-01
-7.579672495056616e-19 -2.409517005802429e-17  3.958268157847938e-01
 9.908674348317288e-01  3.958268157847938e-01 -3.440165758281343e-17

-3.037358095372122e-17 -6.673982508825949e-19  9.709779962410356e-01
-6.673982508825949e-19 -2.269764955418761e-17  4.182200155500452e-01
 9.709779962410356e-01  4.182200155500452e-01 -3.350330459842983e-17

-3.061521974761107e-17 -6.258722264273154e-19  1.006823830856340e+00
-6.258722264273154e-19 -2.250849340485469e-17  4.136693452851456e-01
 1.006823830856340e+00  4.136693452851456e-01 -3.475067905592328e-17

-3.049434079182217e-17 -6.049673861858227e-19  1.004928414190612e+00
-6.049673861858227e-19 -2.198965005139993e-17  4.331758394485987e-01
 1.004928414190612e+00  4.331758394485987e-01 -3.466026398055364e-17

-3.010040975314639e-17 -5.767166685707218e-19  9.989341831267798e-01
-5.767166685707218e-19 -2.192379573371328e-17  4.103416663822252e-01
 9.989341831267798e-01  4.103416663822252e-01 -3.434584443600617e-17

-2.969847130746237e-17 -5.709285788721034e-19  9.911794994253327e-01
-5.709285788721034e-19 -2.181314583137159e-17  3.921739968032044e-01
 9.911794994253327e-01  3.921739968032044e-01 -3.398221726698058e-17

-2.981866979596406e-17 -5.513477257883124e-19  1.007564420285103e+00
-5.513477257883124e-19 -2.146810156621266e-17  4.018130419568906e-01
 1.007564420285103e+00  4.018130419568906e-01 -3.455553583276313e-17

-2.976285855812323e-17 -5.477153690301778e-19  1.004740238974198e+00
-5.477153690301778e-19 -2.087838710586176e-17  4.299060251378150e-01
 1.004740238974198e+00  4.299060251378150e-01 -3.446151676037096e-17

-2.896529464818080e-17 -5.248747295071076e-19  9.761961853485621e-01
-5.248747295071076e-19 -2.062613378401049e-17  4.058111803994513e-01
 9.761961853485621e-01  4.058111803994513e-01 -3.331179689462009e-17

-2.885809975309812e-17 -4.965931452421658e-19  9.884416374349435e-01
-4.965931452421658e-19 -2.064357227562329e-17  3.820380914297286e-01
 9.884416374349435e-01  3.820380914297286e-01 -3.364446330300771e-17

-2.919020177743956e-17 -4.970017240310892e-19  1.008553802057411e+00
-4.970017240310892e-19 -2.003063518936289e-17  4.246684002486106e-01
 1.008553802057411e+00  4.246684002486106e-01 -3.449978891852819e-17

-2.878603551275576e-17 -4.112800298291422e-19  9.776908911156288e-01
-4.112800298291422e-19 -1.876394862235845e-17  4.806800899032958e-01
 9.776908911156288e-01  4.806800899032958e-01 -3.333225718645651e-17

-2.865585020623235e-17 -4.436181087162004e-19  9.907876266835085e-01
-4.436181087162004e-19 -1.949054317253628e-17  4.189671710460184e-01
 9.907876266835085e-01  4.189671710460184e-01 -3.373127725311612e-17

-2.826297904889231e-17 -4.927473004336045e-19  9.892424367537316e-01
-4.927473004336045e-19 -2.004976738072699e-17  3.646155014983222e-01
 9.892424367537316e-01  3.646155014983222e-01 -3.362481559462354e-17

-2.805776246877179e-17 -4.432435948193316e-19  9.745654335403751e-01
-4.432435948193316e-19 -1.893551611470205e-17  4.117851502526200e-01
 9.745654335403751e-01  4.117851502526200e-01 -3.307481239656012e-17

-2.803256184376563e-17 -4.326015987055946e-19  9.750942817043177e-01
-4.326015987055946e-19 -1.849378603137761e-17  4.308025562238522e-01
 9.750942817043177e-01  4.308025562238522e-01 -3.308234548571617e-17

-2.798044332781642e-17 -4.219632547459412e-19  9.782077845880972e-01
-4.219632547459412e-19 -1.842615796140385e-17  4.212776932158716e-01
 9.782077845880972e-01  4.212776932158716e-01 -3.315768998488445e-17

-2.769407448766352e-17 -4.062489226534885e-19  9.729776019685619e-01
-4.062489226534885e-19 -1.815583737529565e-17  4.182841792244221e-01
 9.729776019685619e-01  4.182841792244221e-01 -3.292586214612893e-17

-2.730445002455855e-17 -4.069846735917456e-19  9.589912943177415e-01
-4.069846735917456e-19 -1.796107724258505e-17  4.061832451976776e-01
 9.589912943177415e-01  4.061832451976776e-01 -3.236744599840622e-17

-2.800544240924704e-17 -4.384136783961853e-19  1.035462269450499e+00
-4.384136783961853e-19 -1.946692314899134e-17  3.161054052398456e-01
 1.035462269450499e+00  3.161054052398456e-01 -3.507042724354741e-17

-2.682865592012432e-17 -4.026152821515209e-19  9.378128943292596e-01
-4.026152821515209e-19 -1.770799405185625e-17  4.013881818975208e-01
 9.378128943292596e-01  4.013881818975208e-01 -3.151841331172469e-17

-2.719944420015961e-17 -4.310629828372478e-19  9.599078024159390e-01
-4.310629828372478e-19 -1.739631203848771e-17  4.256712620889484e-01
 9.599078024159390e-01  4.256712620889484e-01 -3.233601111410718e-17

-2.742497826280501e-17 -4.363719334192669e-19  9.792982853388629e-01
-4.363719334192669e-19 -1.747073516017581e-17  4.253955032308517e-01
 9.792982853388629e-01  4.253955032308517e-01 -3.303243453981653e-17

-2.753907071500382e-17 -4.391519298168633e-19  9.925545914588435e-01
-4.391519298168633e-19 -1.765503035117162e-17  4.139808279252282e-01
 9.925545914588435e-01  4.139808279252282e-01 -3.346537674150227e-17

-2.745412854699381e-17 -4.572239220482192e-19  9.944877350550014e-01
-4.572239220482192e-19 -1.767999105957192e-17  4.092497156787559e-01
 9.944877350550014e-01  4.092497156787559e-01 -3.349545568632043e-17

-2.733693493071430e-17 -4.726635137453254e-19  9.909478177196142e-01
-4.726635137453254e-19 -1.754695539060217e-17  4.109191999555182e-01
 9.909478177196142e-01  4.109191999555182e-01 -3.335062896471137e-17

-2.722817129303240e-17 -4.748625307157906e-19  9.868576403002708e-01
-4.748625307157906e-19 -1.741768499386959e-17  4.156348365482124e-01
 9.868576403002708e-01  4.156348365482124e-01 -3.318853280054387e-17

-2.707383765639471e-17 -4.909103078489632e-19  9.876363321575637e-01
-4.909103078489632e-19 -1.736028877072590e-17  4.102816031209055e-01
 9.876363321575637e-01  4.102816031209055e-01 -3.321075933067409e-17

-2.692964408693493e-17 -4.777355505157266e-19  9.832441812054394e-01
-4.777355505157266e-19 -1.717037969229180e-17  4.123992071604163e-01
 9.832441812054394e-01  4.123992071604163e-01 -3.307977933986734e-17

-2.676292776057366e-17 -4.390291285991196e-19  9.805230739902868e-01
-4.390291285991196e-19 -1.713624886162110e-17  4.068063214488712e-01
 9.805230739902868e-01  4.068063214488712e-01 -3.302309300778011e-17

-2.661885662843054e-17 -3.696314771681363e-19  9.736652755340351e-01
-3.696314771681363e-19 -1.691395715744981e-17  4.105624378202249e-01
 9.736652755340351e-01  4.105624378202249e-01 -3.284570437282734e-17

-2.661126346272168e-17 -3.285252191541594e-19  9.757498461137866e-01
-3.285252191541594e-19 -1.691360504057088e-17  4.034407910455169e-01
 9.757498461137866e-01  4.034407910455169e-01 -3.295673940157513e-17

-2.658560375922441e-17 -2.783836401983333e-19  9.755276354782434e-01
-2.783836401983333e-19 -1.685070237296427e-17  4.022380344804638e-01
 9.755276354782434e-01  4.022380344804638e-01 -3.297671957920665e-17

-2.667511157491288e-17 -2.227917837091486e-19  9.811580457887139e-01
-2.227917837091486e-19 -1.679859377553216e-17  3.989367152075895e-01
 9.811580457887139e-01  3.989367152075895e-01 -3.319230918002360e-17

-2.664141722093704e-17 -2.098530330478171e-19  9.788688923963802e-01
-2.098530330478171e-19 -1.667673393156773e-17  4.018102520501004e-01
 9.788688923963802e-01  4.018102520501004e-01 -3.311388041895811e-17

-2.665855580869837e-17 -2.017989209889082e-19  9.788010550273699e-01
-2.017989209889082e-19 -1.660730466419166e-17  4.055232350419551e-01
 9.788010550273699e-01  4.055232350419551e-01 -3.308592366652631e-17

-2.663907242820167e-17 -2.127316830456656e-19  9.783475204892745e-01
-2.127316830456656e-19 -1.643289248087293e-17  4.112356933519570e-01
 9.783475204892745e-01  4.112356933519570e-01 -3.301453273891461e-17

-2.708264466058702e-17 -2.471761404373450e-19  1.019280029652392e+00
-2.471761404373450e-19 -1.728384473413496e-17  3.615546200385094e-01
 1.019280029652392e+00  3.615546200385094e-01 -3.434623447409872e-17

-2.723517596023604e-17 -2.528407244595129e-19  1.031646841552170e+00
-2.528407244595129e-19 -1.736737602951235e-17  3.647869428271459e-01
 1.031646841552170e+00  3.647869428271459e-01 -3.475886083260696e-17

-2.755229457176595e-17 -3.341580186117358e-19  1.039831587387611e+00
-3.341580186117358e-19 -1.647763700240380e-17  4.347344930041872e-01
 1.039831587387611e+00  4.347344930041872e-01 -3.519715727631467e-17

-2.697118915579421e-17 -3.252582698609609e-19  1.009005949017652e+00
-3.252582698609609e-19 -1.627735344425556e-17  4.262668782267967e-01
 1.009005949017652e+00  4.262668782267967e-01 -3.396154488371412e-17

-2.640831628115074e-17 -3.750911215327399e-19  9.919710654728083e-01
-3.750911215327399e-19 -1.683823870138341e-17  3.739538184861033e-01
 9.919710654728083e-01  3.739538184861033e-01 -3.331360005470114e-17

-2.616771091507677e-17 -3.510124451565519e-19  9.735127925417406e-01
-3.510124451565519e-19 -1.591217472500856e-17  4.156846589068846e-01
 9.735127925417406e-01  4.156846589068846e-01 -3.264741435576519e-17

-2.623949263442721e-17 -3.526353850801353e-19  9.767482060628629e-01
-3.526353850801353e-19 -1.564970234735386e-17  4.299444172114742e-01
 9.767482060628629e-01  4.299444172114742e-01 -3.280888627077324e-17

-2.638866780605207e-17 -3.467053667351680e-19  9.946525416369464e-01
-3.467053667351680e-19 -1.594598377156082e-17  4.125040320234297e-01
 9.946525416369464e-01  4.125040320234297e-01 -3.343877900760701e-17

-2.630469866696804e-17 -3.317357754227133e-19  9.951853994966323e-01
-3.317357754227133e-19 -1.604173861218294e-17  4.013634045565164e-01
 9.951853994966323e-01  4.013634045565164e-01 -3.345895962918633e-17

-2.616490752288936e-17 -3.225080093792957e-19  9.869258939849810e-01
-3.225080093792957e-19 -1.591155202090234e-17  4.029164585415234e-01
 9.869258939849810e-01  4.029164585415234e-01 -3.318587814244583e-17

-2.612270808772426e-17 -3.131170887334668e-19  9.837900404985447e-01
-3.131170887334668e-19 -1.580613669021858e-17  4.068457675999567e-01
 9.837900404985447e-01  4.068457675999567e-01 -3.308992727453895e-17

-2.610869262901159e-17 -2.730613072108037e-19  9.857694239463037e-01
-2.730613072108037e-19 -1.559555259089170e-17  4.137494021049500e-01
 9.857694239463037e-01  4.137494021049500e-01 -3.321159474969456e-17

-2.590692113382045e-17 -2.289712901418119e-19  9.708160834515962e-01
-2.289712901418119e-19 -1.536403645891044e-17  4.150300960470175e-01
 9.708160834515962e-01  4.150300960470175e-01 -3.269505580231324e-17

-2.584747229198767e-17 -2.000678378847122e-19  9.794258170660367e-01
-2.000678378847122e-19 -1.586151945542675e-17  3.791465608345098e-01
 9.794258170660367e-01  3.791465608345098e-01 -3.300451903195015e-17

-2.584647709482169e-17 -1.589255628134348e-19  9.741722574170045e-01
-1.589255628134348e-19 -1.533086103629977e-17  4.037119943107967e-01
 9.741722574170045e-01  4.037119943107967e-01 -3.284403457892307e-17

-2.591016218732184e-17 -1.403043954792620e-19  9.780829398129911e-01
-1.403043954792620e-19 -1.512600937437744e-17  4.098917922611435e-01
 9.780829398129911e-01  4.098917922611435e-01 -3.296675546743840e-17

-2.584884605363945e-17 -1.457818638575632e-19  9.820381637129262e-01
-1.457818638575632e-19 -1.560775146096113e-17  3.772870885340590e-01
 9.820381637129262e-01  3.772870885340590e-01 -3.301630906792679e-17

-2.605053513516980e-17 -1.649391805001309e-19  9.911147808088704e-01
-1.649391805001309e-19 -1.526644311997952e-17  4.017587338037583e-01
 9.911147808088704e-01  4.017587338037583e-01 -3.336819752691270e-17

-2.594450966799873e-17 -1.818520998124114e-19  9.727002817195757e-01
-1.818520998124114e-19 -1.446609237954403e-17  4.532754710444747e-01
 9.727002817195757e-01  4.532754710444747e-01 -3.274637242787433e-17

-2.623620451058512e-17 -1.928883313347179e-19  1.011980339714600e+00
-1.928883313347179e-19 -1.575905000618943e-17  3.760517207668025e-01
 1.011980339714600e+00  3.760517207668025e-01 -3.406494883519925e-17

-2.612432840386857e-17 -2.028168131579917e-19  1.006394595938955e+00
-2.028168131579917e-19 -1.574482155084748e-17  3.741700075354156e-01
 1.006394595938955e+00  3.741700075354156e-01 -3.383468103294312e-17

-2.582867311094474e-17 -2.125381125771957e-19  9.727364909650524e-01
-2.125381125771957e-19 -1.476912977151051e-17  4.327471010896934e-01
 9.727364909650524e-01  4.327471010896934e-01 -3.269248243433076e-17

-2.609284302926727e-17 -2.069085902432578e-19  9.987110756805099e-01
-2.069085902432578e-19 -1.521695329604740e-17  4.096171624209270e-01
 9.987110756805099e-01  4.096171624209270e-01 -3.360810552210637e-17

-2.622285620302134e-17 -2.016630854948644e-19  1.011970709481361e+00
-2.016630854948644e-19 -1.548833191855440e-17  3.931055755764692e-01
 1.011970709481361e+00  3.931055755764692e-01 -3.407866114762138e-17

-2.613659040091795e-17 -1.983156703089534e-19  1.003167183353149e+00
-1.983156703089534e-19 -1.525263089555660e-17  4.078937890503342e-01
 1.003167183353149e+00  4.078937890503342e-01 -3.377559944779142e-17

-2.607648694433554e-17 -1.910929299538122e-19  1.001108572436764e+00
-1.910929299538122e-19 -1.519806949181850e-17  4.075229684734127e-01
 1.001108572436764e+00  4.075229684734127e-01 -3.370951122012759e-17

-2.608840155216123e-17 -1.775627698621302e-19  9.996941145774196e-01
-1.775627698621302e-19 -1.512739035146440e-17  4.060656292714929e-01
 9.996941145774196e-01  4.060656292714929e-01 -3.365365793568410e-17

-2.601161370818501e-17 -1.751930298526614e-19  9.990639034655592e-01
-1.751930298526614e-19 -1.508700482567039e-17  4.091361586847866e-01
 9.990639034655592e-01  4.091361586847866e-01 -3.363730568783776e-17

-2.604345260319645e-17 -1.722294718707314e-19  1.000927467788590e+00
-1.722294718707314e-19 -1.498042741281756e-17  4.143836863084490e-01
 1.000927467788590e+00  4.143836863084490e-01 -3.370746846847675e-17

-2.603166135382880e-17 -1.636345196284545e-19  9.943329708960859e-01
-1.636345196284545e-19 -1.475281754529954e-17  4.224628594183826e-01
 9.943329708960859e-01  4.224628594183826e-01 -3.346813551299966e-17

-2.600303528867927e-17 -1.761999570054217e-19  1.003401615357259e+00
-1.761999570054217e-19 -1.512585178748087e-17  4.009715850826414e-01
 1.003401615357259e+00  4.009715850826414e-01 -3.376329501864579e-17

-2.614816569425784e-17 -1.888405997225899e-19  1.015678613468965e+00
-1.888405997225899e-19 -1.523793093276816e-17  3.943095178016560e-01
 1.015678613468965e+00  3.943095178016560e-01 -3.418131215991380e-17

-2.598692323644569e-17 -2.059173309381352e-19  9.947605749120421e-01
-2.059173309381352e-19 -1.457604292158726e-17  4.326297306301748e-01
 9.947605749120421e-01  4.326297306301748e-01 -3.346450740859506e-17

-2.600971437553730e-17 -2.099255862347784e-19  1.000000475633325e+00
-2.099255862347784e-19 -1.464230262369415e-17  4.290435157574403e-01
 1.000000475633325e+00  4.290435157574403e-01 -3.363226557766322e-17

-2.595205646014536e-17 -2.334105940823521e-19  1.006626328665915e+00
-2.334105940823521e-19 -1.503420242099644e-17  4.020172897892045e-01
 1.006626328665915e+00  4.020172897892045e-01 -3.382709525605566e-17

-2.596790950852372e-17 -2.420882343602344e-19  1.010353114297805e+00
-2.420882343602344e-19 -1.499929546974429e-17  4.010959518526100e-01
 1.010353114297805e+00  4.010959518526100e-01 -3.395481752936806e-17

-2.588418999721071e-17 -2.441947468340124e-19  1.001448393404006e+00
-2.441947468340124e-19 -1.468210306318201e-17  4.205489364982340e-01
 1.001448393404006e+00  4.205489364982340e-01 -3.365084771515531e-17

-2.581718723315645e-17 -2.329150656075395e-19  1.001885615128192e+00
-2.329150656075395e-19 -1.466565954230560e-17  4.159420783573448e-01
 1.001885615128192e+00  4.159420783573448e-01 -3.368029009360608e-17

-2.569186679677710e-17 -2.142578275658596e-19  9.968960757163534e-01
-2.142578275658596e-19 -1.474686295073966e-17  4.020436466638014e-01
 9.968960757163534e-01  4.020436466638014e-01 -3.350227655072072e-17

-2.555409898112914e-17 -1.940863294299070e-19  9.893764857608877e-01
-1.940863294299070e-19 -1.456483673494785e-17  4.082673898759275e-01
 9.893764857608877e-01  4.082673898759275e-01 -3.325664703915387e-17

-2.560708381728376e-17 -1.788442054684639e-19  9.927027331948375e-01
-1.788442054684639e-19 -1.446897798912834e-17  4.126061475516725e-01
 9.927027331948375e-01  4.126061475516725e-01 -3.339542098397907e-17

-2.558720107998526e-17 -1.712168825374938e-19  9.910999082753198e-01
-1.712168825374938e-19 -1.443257443757728e-17  4.116948835857589e-01
 9.910999082753198e-01  4.116948835857589e-01 -3.334525917080468e-17

-2.559614732575513e-17 -1.661337414023428e-19  9.944559707302629e-01
-1.661337414023428e-19 -1.457526566689891e-17  4.035041598689942e-01
 9.944559707302629e-01  4.035041598689942e-01 -3.345335082775028e-17

-2.574415591803027e-17 -1.602139242565353e-19  1.005030006023129e+00
-1.602139242565353e-19 -1.466415935676482e-17  3.997911612550574e-01
 1.005030006023129e+00  3.997911612550574e-01 -3.383475203773667e-17

-2.566403680166056e-17 -1.599699101393807e-19  9.937474252402205e-01
-1.599699101393807e-19 -1.427604023669285e-17  4.216729719922928e-01
 9.937474252402205e-01  4.216729719922928e-01 -3.346355198798232e-17

-2.578550061389489e-17 -1.533309856115999e-19  1.004095626258630e+00
-1.533309856115999e-19 -1.437626412814705e-17  4.172273325414292e-01
 1.004095626258630e+00  4.172273325414292e-01 -3.382429952445575e-17

-2.573150777790783e-17 -1.503669004597190e-19  1.005140151499706e+00
-1.503669004597190e-19 -1.436119641703240e-17  4.113753319834696e-01
 1.005140151499706e+00  4.113753319834696e-01 -3.383990292741966e-17

-2.513233720698696e-17 -1.388075490449900e-19  9.590296574886509e-01
-1.388075490449900e-19 -1.357996717102988e-17  4.424334268387489e-01
 9.590296574886509e-01  4.424334268387489e-01 -3.215836945303977e-17

-2.520706372172658e-17 -1.626200562904863e-19  9.766305218418733e-01
-1.626200562904863e-19 -1.427648527794147e-17  3.988046525999567e-01
 9.766305218418733e-01  3.988046525999567e-01 -3.276089379466646e-17

-2.514585830227131e-17 -1.557848094611638e-19  9.743324244785960e-01
-1.557848094611638e-19 -1.431491071106996e-17  3.946731422769434e-01
 9.743324244785960e-01  3.946731422769434e-01 -3.262686562126655e-17

-2.585260482937383e-17 -2.048423549330875e-19  1.006749991881008e+00
-2.048423549330875e-19 -1.410883420161055e-17  4.301677615816139e-01
 1.006749991881008e+00  4.301677615816139e-01 -3.392953034955900e-17

-2.615080016791815e-17 -2.019794528562542e-19  1.030744735422599e+00
-2.019794528562542e-19 -1.425595167187833e-17  4.316384031995266e-01
 1.030744735422599e+00  4.316384031995266e-01 -3.478785364535888e-17

-2.569764260277620e-17 -2.133345753800078e-19  1.013558887736960e+00
-2.133345753800078e-19 -1.464371725643567e-17  3.952417664762203e-01
 1.013558887736960e+00  3.952417664762203e-01 -3.411310179727608e-17

-2.542723577821753e-17 -2.171743113582005e-19  1.000878314564223e+00
-2.171743113582005e-19 -1.463832491085879e-17  3.845827376550072e-01
 1.000878314564223e+00  3.845827376550072e-01 -3.365390801290124e-17

-2.501092855205654e-17 -1.818674170667337e-19  9.682640923284104e-01
-1.818674170667337e-19 -1.408735753730603e-17  4.102611665170380e-01
 9.682640923284104e-01  4.102611665170380e-01 -3.248900095334883e-17

-2.505835220713013e-17 -1.399347730474186e-19  9.693202096715817e-01
-1.399347730474186e-19 -1.414287572523520e-17  4.068094529190170e-01
 9.693202096715817e-01  4.068094529190170e-01 -3.254461210111944e-17

-2.584551906530059e-17 -7.500801859329058e-20  1.034934623693978e+00
-7.500801859329058e-20 -1.523705769761623e-17  3.520384083528699e-01
 1.034934623693978e+00  3.520384083528699e-01 -3.485396540355753e-17

-2.613036846745620e-17 -1.138492670235708e-19  1.032061659227037e+00
-1.138492670235708e-19 -1.435352244348765e-17  4.210806688421843e-01
 1.032061659227037e+00  4.210806688421843e-01 -3.499321577765098e-17

-2.619931476915178e-17  1.308652308542443e-20  1.031426994884173e+00
 1.308652308542443e-20 -1.364471012517829e-17  4.562939054353470e-01
 1.031426994884173e+00  4.562939054353470e-01 -3.493111629745091e-17

-2.519970053810748e-17 -3.596861649339741e-20  9.714866405671965e-01
-3.596861649339741e-20 -1.361368490283506e-17  4.305822384102338e-01
 9.714866405671965e-01  4.305822384102338e-01 -3.270028079961241e-17

-2.490710058701974e-17 -1.618665015940136e-19  9.675304014360456e-01
-1.618665015940136e-19 -1.448034744620140e-17  3.714245787220889e-01
 9.675304014360456e-01  3.714245787220889e-01 -3.256515810545960e-17

-2.463174821629145e-17  6.941695081297977e-21  9.550872884075976e-01
 6.941695081297977e-21 -1.429519114683920e-17  3.644756129864627e-01
 9.550872884075976e-01  3.644756129864627e-01 -3.173592014235451e-17

-2.631333702221338e-17 -2.439893282462480e-19  1.016052348582768e+00
-2.439893282462480e-19 -1.301255605435573e-17  5.152018559696242e-01
 1.016052348582768e+00  5.152018559696242e-01 -3.474626833500414e-17

-2.640361225473288e-17  1.364817732030811e-19  1.039890052237354e+00
 1.364817732030811e-19 -1.280958636435142e-17  5.007969213954303e-01
 1.039890052237354e+00  5.007969213954303e-01 -3.513608318987119e-17

-2.591958332938848e-17 -4.322255206684628e-19  1.069121633519915e+00
-4.322255206684628e-19 -1.713357310370684e-17  2.372254615957945e-01
 1.069121633519915e+00  2.372254615957945e-01 -3.602861304313976e-17

-2.568966976354291e-17 -1.208661900154282e-19  1.066031538190925e+00
-1.208661900154282e-19 -1.663041402089762e-17  2.316307120052755e-01
 1.066031538190925e+00  2.316307120052755e-01 -3.550980492136677e-17

-2.502254812915311e-17 -3.286472086595301e-19  9.388987557688981e-01
-3.286472086595301e-19 -1.205741100156827e-17  5.357202322112239e-01
 9.388987557688981e-01  5.357202322112239e-01 -3.195405099417448e-17

-2.541979459740125e-17 -1.105224042837868e-19  9.851608648638694e-01
-1.105224042837868e-19 -1.297457309681677e-17  4.699427243279536e-01
 9.851608648638694e-01  4.699427243279536e-01 -3.314468842730024e-17

-2.584579207658775e-17 -1.939305675521682e-19  1.049300359325035e+00
-1.939305675521682e-19 -1.539415338063753e-17  3.274803960947001e-01
 1.049300359325035e+00  3.274803960947001e-01 -3.537097678579210e-17

-2.540891282036082e-17 -1.460506001682418e-19  1.008749617812086e+00
-1.460506001682418e-19 -1.435634606184627e-17  3.792451489740597e-01
 1.008749617812086e+00  3.792451489740597e-01 -3.388336547511177e-17

-2.517896504329877e-17 -1.309758111180443e-19  9.720833162458220e-01
-1.309758111180443e-19 -1.275523811260160e-17  4.741835945697053e-01
 9.720833162458220e-01  4.741835945697053e-01 -3.265835084468612e-17

-2.540073927881017e-17 -1.614829387029144e-19  1.008401127980991e+00
-1.614829387029144e-19 -1.422357908075977e-17  3.849992561408736e-01
 1.008401127980991e+00  3.849992561408736e-01 -3.388761001952707e-17

-2.539569309690858e-17 -1.327511216550815e-19  1.018010184990662e+00
-1.327511216550815e-19 -1.483071913866624e-17  3.475061508397472e-01
 1.018010184990662e+00  3.475061508397472e-01 -3.411129825620233e-17

-2.534762379302331e-17 -1.987228418282104e-19  9.813252786847541e-01
-1.987228418282104e-19 -1.304528427711561e-17  4.676602229263496e-01
 9.813252786847541e-01  4.676602229263496e-01 -3.304003003034851e-17

-2.564076827519631e-17 -1.603557126555559e-19  1.006124514171622e+00
-1.603557126555559e-19 -1.332372790179105e-17  4.555619649483900e-01
 1.006124514171622e+00  4.555619649483900e-01 -3.388137797592377e-17

-2.528543950717095e-17 -1.860062206738369e-19  9.962264227751293e-01
-1.860062206738369e-19 -1.387978812105779e-17  4.100482746227047e-01
 9.962264227751293e-01  4.100482746227047e-01 -3.344290034454875e-17

-2.537515068120594e-17 -1.804062985247729e-19  1.002123292904665e+00
-1.804062985247729e-19 -1.380370978303629e-17  4.137202490905706e-01
 1.002123292904665e+00  4.137202490905706e-01 -3.364529281709161e-17

-2.535546275509722e-17 -1.859493200356598e-19  1.001348102917611e+00
-1.859493200356598e-19 -1.375674231718645e-17  4.181092813459567e-01
 1.001348102917611e+00  4.181092813459567e-01 -3.362688909572568e-17

-2.545256724171607e-17 -1.854487480778080e-19  1.007567866217707e+00
-1.854487480778080e-19 -1.381154100318173e-17  4.160716511470818e-01
 1.007567866217707e+00  4.160716511470818e-01 -3.385369588529606e-17

-2.542198895967213e-17 -1.854702139801907e-19  1.006238410364973e+00
-1.854702139801907e-19 -1.380996184992521e-17  4.153787008181203e-01
 1.006238410364973e+00  4.153787008181203e-01 -3.381341283734743e-17

-2.538435731089107e-17 -1.887978078407509e-19  1.002030448788459e+00
-1.887978078407509e-19 -1.376839179820658e-17  4.192895020213835e-01
 1.002030448788459e+00  4.192895020213835e-01 -3.365747647814720e-17

-2.543163975682899e-17 -1.922869110380452e-19  1.007586867504212e+00
-1.922869110380452e-19 -1.386843724503209e-17  4.147273066996548e-01
 1.007586867504212e+00  4.147273066996548e-01 -3.386255606086004e-17

-2.547681444646532e-17 -1.900421010759981e-19  1.010366640185074e+00
-1.900421010759981e-19 -1.388221586183813e-17  4.163892819483290e-01
 1.010366640185074e+00  4.163892819483290e-01 -3.397574560908870e-17

-2.546241465231660e-17 -1.866630383149882e-19  1.010029115883265e+00
-1.866630383149882e-19 -1.389126400673840e-17  4.157686862266167e-01
 1.010029115883265e+00  4.157686862266167e-01 -3.397503968285227e-17

-2.548125583716199e-17 -1.783602778846006e-19  1.010718211069629e+00
-1.783602778846006e-19 -1.392835948738033e-17  4.156773373809730e-01
 1.010718211069629e+00  4.156773373809730e-01 -3.401641935943034e-17

-2.551417126754399e-17 -1.684307934792932e-19  1.013727765536405e+00
-1.684307934792932e-19 -1.397582118742744e-17  4.151270692980176e-01
 1.013727765536405e+00  4.151270692980176e-01 -3.413701423133403e-17

-2.554009194516327e-17 -1.528444872718732e-19  1.014061746694935e+00
-1.528444872718732e-19 -1.389034251243347e-17  4.207403339421263e-01
 1.014061746694935e+00  4.207403339421263e-01 -3.417530367301775e-17

-2.542269029695221e-17 -1.339368892288003e-19  1.006596524359581e+00
-1.339368892288003e-19 -1.388806261746561e-17  4.180260415503894e-01
 1.006596524359581e+00  4.180260415503894e-01 -3.391193347912923e-17

-2.540343415308988e-17 -1.044781767189634e-19  1.004752764611685e+00
-1.044781767189634e-19 -1.410347616565293e-17  4.059992242009428e-01
 1.004752764611685e+00  4.059992242009428e-01 -3.384213776825159e-17

-2.585429019383795e-17 -1.047375050358149e-19  1.023832720453003e+00
-1.047375050358149e-19 -1.402637343976789e-17  4.276341784738665e-01
 1.023832720453003e+00  4.276341784738665e-01 -3.463345798559899e-17

-2.615021193621856e-17 -1.076399465035887e-19  1.039051944381315e+00
-1.076399465035887e-19 -1.400594319435496e-17  4.388954636326737e-01
 1.039051944381315e+00  4.388954636326737e-01 -3.521614434030042e-17

-2.620788547773454e-17 -1.223379874072742e-19  1.048900962313967e+00
-1.223379874072742e-19 -1.445471178453926e-17  4.119190124506026e-01
 1.048900962313967e+00  4.119190124506026e-01 -3.549624894827067e-17

-2.595352835053050e-17 -1.607781475679903e-19  1.034936653570565e+00
-1.607781475679903e-19 -1.423619336470036e-17  4.179766920465856e-01
 1.034936653570565e+00  4.179766920465856e-01 -3.493078989054471e-17

-2.567214032300793e-17 -2.017664717421486e-19  1.021223697848595e+00
-2.017664717421486e-19 -1.408078766735288e-17  4.175748189436604e-01
 1.021223697848595e+00  4.175748189436604e-01 -3.437803265406688e-17

-2.560716038816646e-17 -2.155087474043832e-19  1.019597653347583e+00
-2.155087474043832e-19 -1.394293850397889e-17  4.229028397142022e-01
 1.019597653347583e+00  4.229028397142022e-01 -3.431255688427099e-17

-2.571043781608950e-17 -2.008037984526728e-19  1.027877563906016e+00
-2.008037984526728e-19 -1.404443258153488e-17  4.163810605246171e-01
 1.027877563906016e+00  4.163810605246171e-01 -3.462764088604773e-17

-2.569517431556178e-17 -1.909801762000957e-19  1.029097850398479e+00
-1.909801762000957e-19 -1.403492460901937e-17  4.149330315708090e-01
 1.029097850398479e+00  4.149330315708090e-01 -3.469098864691876e-17

-2.553514828762037e-17 -1.626831991473010e-19  1.014888282138182e+00
-1.626831991473010e-19 -1.363922263827171e-17  4.319640543377894e-01
 1.014888282138182e+00  4.319640543377894e-01 -3.419501950715815e-17

-2.536222534828990e-17 -1.684306569581180e-19  1.010752190831058e+00
-1.684306569581180e-19 -1.371397874797720e-17  4.163915409014107e-01
 1.010752190831058e+00  4.163915409014107e-01 -3.403173201846427e-17

-2.510783341168996e-17 -1.711196790397255e-19  1.000539805207112e+00
-1.711196790397255e-19 -1.366990114300101e-17  4.053273135931896e-01
 1.000539805207112e+00  4.053273135931896e-01 -3.364493674565872e-17

-2.481642115827930e-17 -1.593367568299969e-19  9.761072496415015e-01
-1.593367568299969e-19 -1.307130994602982e-17  4.321213640316514e-01
 9.761072496415015e-01  4.321213640316514e-01 -3.277082407213336e-17

-2.457701403405328e-17 -1.368499967144164e-19  9.615654497125152e-01
-1.368499967144164e-19 -1.298743281556805e-17  4.308518237239927e-01
 9.615654497125152e-01  4.308518237239927e-01 -3.223010376855018e-17

-2.498447165189122e-17  1.131735553810993e-19  1.014977495451803e+00
 1.131735553810993e-19 -1.494671955268585e-17  3.099682006549967e-01
 1.014977495451803e+00  3.099682006549967e-01 -3.357991858774454e-17

-2.653963755444114e-17 -2.263413260066834e-19  1.033069906729261e+00
-2.263413260066834e-19 -1.229673689366518e-17  5.645315145180385e-01
 1.033069906729261e+00  5.645315145180385e-01 -3.582046202091025e-17

-2.623722724100529e-17  2.655634892019345e-19  1.025313405331208e+00
 2.655634892019345e-19 -1.184115100081056e-17  5.513691942307797e-01
 1.025313405331208e+00  5.513691942307797e-01 -3.498484167977614e-17

-2.455733303980120e-17 -3.654349511495748e-19  9.609112074581531e-01
-3.654349511495748e-19 -1.403459781073172e-17  3.772483131616590e-01
 9.609112074581531e-01  3.772483131616590e-01 -3.238187720953114e-17

-2.424955202506180e-17 -1.191840285736686e-19  9.497273918132076e-01
-1.191840285736686e-19 -1.282403857577061e-17  4.026963315483013e-01
 9.497273918132076e-01  4.026963315483013e-01 -3.175727204216884e-17

-2.437788540960358e-17 -1.033735249543630e-19  9.583509768449026e-01
-1.033735249543630e-19 -1.241674496210937e-17  4.236669028029138e-01
 9.583509768449026e-01  4.236669028029138e-01 -3.205596986877334e-17

-2.458200858244453e-17 -1.224757725287459e-19  9.746704896962187e-01
-1.224757725287459e-19 -1.255053740453226e-17  4.169601230565836e-01
 9.746704896962187e-01  4.169601230565836e-01 -3.262459191034769e-17

-2.440337061520800e-17 -1.426684703772955e-19  9.649780043014303e-01
-1.426684703772955e-19 -1.239578159077169e-17  4.190840570645072e-01
 9.649780043014303e-01  4.190840570645072e-01 -3.224747121233627e-17

-2.416356181655981e-17 -1.646650583891344e-19  9.542346181093860e-01
-1.646650583891344e-19 -1.255512859695813e-17  4.028430770344034e-01
 9.542346181093860e-01  4.028430770344034e-01 -3.182463720619742e-17

-2.423306385958121e-17 -1.808718570619841e-19  9.555871943267753e-01
-1.808718570619841e-19 -1.236503218430262e-17  4.187680276149671e-01
 9.555871943267753e-01  4.187680276149671e-01 -3.187174580366583e-17

-2.448990275899956e-17 -1.901467390310109e-19  9.701986979294775e-01
-1.901467390310109e-19 -1.245699118772210e-17  4.213245671918266e-01
 9.701986979294775e-01  4.213245671918266e-01 -3.240828194166879e-17

-2.464881925839494e-17 -1.967192662248565e-19  9.827833254925862e-01
-1.967192662248565e-19 -1.273526441107403e-17  4.103414431480490e-01
 9.827833254925862e-01  4.103414431480490e-01 -3.284760006493887e-17

-2.453699663816585e-17 -2.094697867351314e-19  9.715813005612401e-01
-2.094697867351314e-19 -1.259115747367690e-17  4.227868487210985e-01
 9.715813005612401e-01  4.227868487210985e-01 -3.245255057261822e-17

-2.473429242957299e-17 -2.207980526551234e-19  9.882285572032707e-01
-2.207980526551234e-19 -1.299369350347399e-17  4.037843381769602e-01
 9.882285572032707e-01  4.037843381769602e-01 -3.303148500923434e-17

-2.472930993376496e-17 -2.211320711596539e-19  9.851701480565395e-01
-2.211320711596539e-19 -1.295670128490832e-17  4.114194330122354e-01
 9.851701480565395e-01  4.114194330122354e-01 -3.294651965121334e-17

-2.492480713333159e-17 -2.188759985805152e-19  9.951658941102437e-01
-2.188759985805152e-19 -1.308297842025532e-17  4.136688088467460e-01
 9.951658941102437e-01  4.136688088467460e-01 -3.333390076832786e-17

-2.492056764169655e-17  2.858354718401596e-19  1.004939202447724e+00
 2.858354718401596e-19 -1.338328110383474e-17  4.243347999077837e-01
 1.004939202447724e+00  4.243347999077837e-01 -3.430071423849701e-17

-2.491196091754503e-17  2.775216219918867e-19  1.007412012560525e+00
 2.775216219918867e-19 -1.342507762450070e-17  4.170804139976317e-01
 1.007412012560525e+00  4.170804139976317e-01 -3.437362083612124e-17

-2.498522209415129e-17  2.913857172109429e-19  1.009257835526673e+00
 2.913857172109429e-19 -1.348775899349518e-17  4.234929305740069e-01
 1.009257835526673e+00  4.234929305740069e-01 -3.446237793716450e-17

-2.503536214840296e-17  3.013658855089351e-19  1.011258798305101e+00
 3.013658855089351e-19 -1.356485489435415e-17  4.217795510961510e-01
 1.011258798305101e+00  4.217795510961510e-01 -3.455227386845841e-17

-2.507289318118626e-17  3.069262775006802e-19  1.012709277911361e+00
 3.069262775006802e-19 -1.355934639405012e-17  4.219128785850760e-01
 1.012709277911361e+00  4.219128785850760e-01 -3.462045328957997e-17

-2.511151183765181e-17  3.133283196730281e-19  1.014106025511896e+00
 3.133283196730281e-19 -1.359135926433604e-17  4.217827436253492e-01
 1.014106025511896e+00  4.217827436253492e-01 -3.468591644408251e-17

-2.514199620685513e-17  3.177217331574769e-19  1.015467495330374e+00
 3.177217331574769e-19 -1.365271536222429e-17  4.216905631444960e-01
 1.015467495330374e+00  4.216905631444960e-01 -3.474689669538063e-17

-2.516863649938891e-17  3.219839426413750e-19  1.016536273041859e+00
 3.219839426413750e-19 -1.370506942286434e-17  4.216794099725328e-01
 1.016536273041859e+00  4.216794099725328e-01 -3.479901410398919e-17

-2.518340405211193e-17  3.276898629587662e-19  1.016788540966536e+00
 3.276898629587662e-19 -1.375850853307627e-17  4.216239378269361e-01
 1.016788540966536e+00  4.216239378269361e-01 -3.482254950360057e-17

-2.518497792031908e-17  3.289148773826600e-19  1.016804303730761e+00
 3.289148773826600e-19 -1.382335074025416e-17  4.200623260851201e-01
 1.016804303730761e+00  4.200623260851201e-01 -3.483621335048116e-17

-2.523968465221233e-17  3.284430559495237e-19  1.019823947448007e+00
 3.284430559495237e-19 -1.391946135404994e-17  4.191026060690260e-01
 1.019823947448007e+00  4.191026060690260e-01 -3.496282942303577e-17

-2.532620100297226e-17  3.184419706276100e-19  1.024840326418721e+00
 3.184419706276100e-19 -1.393483326848088e-17  4.236111201981922e-01
 1.024840326418721e+00  4.236111201981922e-01 -3.515741626900141e-17

-2.520074922687068e-17  2.998223443740729e-19  1.013840364660792e+00
 2.998223443740729e-19 -1.351057802054040e-17  4.337740400763483e-01
 1.013840364660792e+00  4.337740400763483e-01 -3.476274810772002e-17

-2.518529685466072e-17  2.785736778877590e-19  1.018002385357506e+00
 2.785736778877590e-19 -1.393767671143670e-17  4.199663299650834e-01
 1.018002385357506e+00  4.199663299650834e-01 -3.487415306902464e-17

-2.525742619533084e-17  2.331313573912814e-19  1.022737657849174e+00
 2.331313573912814e-19 -1.414131793416083e-17  4.174707888182594e-01
 1.022737657849174e+00  4.174707888182594e-01 -3.500856772871453e-17

-2.563370351754230e-17  2.070289362390937e-19  1.044831337581127e+00
 2.070289362390937e-19 -1.438958510774266e-17  4.217648526986364e-01
 1.044831337581127e+00  4.217648526986364e-01 -3.579169671394727e-17

-2.605279184721722e-17  1.719286901867724e-19  1.069462526901556e+00
 1.719286901867724e-19 -1.429852745742916e-17  4.317114643100388e-01
 1.069462526901556e+00  4.317114643100388e-01 -3.669470355330968e-17

-2.534150763514799e-17  1.547268567047287e-19  1.022533644739667e+00
 1.547268567047287e-19 -1.355319123094381e-17  4.528070625876453e-01
 1.022533644739667e+00  4.528070625876453e-01 -3.498294666210162e-17

-2.387341646741461e-17  2.545218095035424e-19  9.427796817993024e-01
 2.545218095035424e-19 -1.335255876187505e-17  4.118783019087083e-01
 9.427796817993024e-01  4.118783019087083e-01 -3.182298711916315e-17

-2.447259839177723e-17  1.873833185588521e-19  9.683795197753828e-01
 1.873833185588521e-19 -1.332472277818360e-17  4.266505291116950e-01
 9.683795197753828e-01  4.266505291116950e-01 -3.300907991585780e-17

-2.697492198325197e-17  3.719557279696224e-19  1.119017574895097e+00
 3.719557279696224e-19 -1.422831838207907e-17  4.346862253087993e-01
 1.119017574895097e+00  4.346862253087993e-01 -3.862705288647443e-17

-2.610702829196111e-17  1.621294191856715e-19  1.044807040711099e+00
 1.621294191856715e-19 -1.363059749161755e-17  4.894478772801727e-01
 1.044807040711099e+00  4.894478772801727e-01 -3.634258011323480e-17

-2.494883575901234e-17  4.195873075835395e-19  1.025088527262233e+00
 4.195873075835395e-19 -1.512563387311755e-17  3.255790361538702e-01
 1.025088527262233e+00  3.255790361538702e-01 -3.468653013234362e-17

-2.447385325747395e-17  2.207238015493563e-19  9.837598342140895e-01
 2.207238015493563e-19 -1.475041967173804e-17  3.575593600890108e-01
 9.837598342140895e-01  3.575593600890108e-01 -3.353034944834871e-17

-2.539026310908848e-17  3.010090286117447e-19  1.022289516998523e+00
 3.010090286117447e-19 -1.360222298685807e-17  4.441460592670323e-01
 1.022289516998523e+00  4.441460592670323e-01 -3.498539431234348e-17

-2.642781788335590e-17  2.272677639558121e-19  1.080247501703836e+00
 2.272677639558121e-19 -1.403044440507511e-17  4.611981189161813e-01
 1.080247501703836e+00  4.611981189161813e-01 -3.721908561876983e-17

-2.569963603805856e-17  1.317206277297263e-19  1.030265491021933e+00
 1.317206277297263e-19 -1.361249286062032e-17  4.563659978049243e-01
 1.030265491021933e+00  4.563659978049243e-01 -3.543502455849579e-17

-2.628201486589463e-17  2.243876342926993e-19  1.117449676285614e+00
 2.243876342926993e-19 -1.662465303323067e-17  2.846999108583281e-01
 1.117449676285614e+00  2.846999108583281e-01 -3.813437144368377e-17

-2.557230867688645e-17  2.105752787124138e-19  1.035103046007799e+00
 2.105752787124138e-19 -1.493724696910994e-17  4.264480417112756e-01
 1.035103046007799e+00  4.264480417112756e-01 -3.541969723636812e-17

-2.532112928568557e-17  1.188950521385019e-19  9.971656281103488e-01
 1.188950521385019e-19 -1.272139741036435e-17  5.169134910242277e-01
 9.971656281103488e-01  5.169134910242277e-01 -3.425588006995333e-17

-2.551234069428613e-17  2.694643735357158e-19  1.053518534537709e+00
 2.694643735357158e-19 -1.542731786488008e-17  3.604269961483024e-01
 1.053518534537709e+00  3.604269961483024e-01 -3.579540014185391e-17

-2.475553296790864e-17  1.268989361181966e-19  9.918580118455935e-01
 1.268989361181966e-19 -1.396584273341903e-17  3.930752579523697e-01
 9.918580118455935e-01  3.930752579523697e-01 -3.376806745746533e-17

-2.556658367663105e-17  2.246228386486481e-19  1.015889103497343e+00
 2.246228386486481e-19 -1.337281425165507e-17  5.133372138531405e-01
 1.015889103497343e+00  5.133372138531405e-01 -3.478671920119105e-17

-2.535548832995401e-17  8.095337358381371e-20  9.896076269580992e-01
 8.095337358381371e-20 -1.257581547561190e-17  5.390449462982299e-01
 9.896076269580992e-01  5.390449462982299e-01 -3.404655561214916e-17

-2.508100293562942e-17  2.493491719075029e-19  1.021930796747462e+00
 2.493491719075029e-19 -1.476484201801286e-17  3.748672166234815e-01
 1.021930796747462e+00  3.748672166234815e-01 -3.460505642275817e-17

-2.506683932131916e-17  1.573521930429586e-19  1.003891303280408e+00
 1.573521930429586e-19 -1.375630150968961e-17  4.320066947231488e-01
 1.003891303280408e+00  4.320066947231488e-01 -3.419713375901577e-17

-2.576335045221124e-17  1.359304228203288e-19  1.038288995000692e+00
 1.359304228203288e-19 -1.330058671298611e-17  4.650675760208686e-01
 1.038288995000692e+00  4.650675760208686e-01 -3.556690954343541e-17

-2.524484606462971e-17  1.722775613003225e-19  1.014225937605740e+00
 1.722775613003225e-19 -1.399115553494985e-17  4.209624244091814e-01
 1.014225937605740e+00  4.209624244091814e-01 -3.453712614641958e-17

-2.475928780410772e-17  1.413562358035716e-19  9.855419538125837e-01
 1.413562358035716e-19 -1.425339001846760e-17  3.979085791279999e-01
 9.855419538125837e-01  3.979085791279999e-01 -3.350671908229860e-17

-2.577861975644273e-17  2.164684862317060e-19  1.039258824115230e+00
 2.164684862317060e-19 -1.525183859531511e-17  4.300657949047420e-01
 1.039258824115230e+00  4.300657949047420e-01 -3.553407851848064e-17

-2.674404977411135e-17  2.131385113332321e-19  1.093724606157850e+00
 2.131385113332321e-19 -1.506067797276282e-17  4.561021053445306e-01
 1.093724606157850e+00  4.561021053445306e-01 -3.765125838551051e-17

-2.590818879778912e-17  1.750922648127262e-19  1.046205596490975e+00
 1.750922648127262e-19 -1.481414138955127e-17  4.294049135135634e-01
 1.046205596490975e+00  4.294049135135634e-01 -3.585370336850425e-17

-2.527049342478044e-17  2.275546091706394e-19  1.024508053435728e+00
 2.275546091706394e-19 -1.418291420548115e-17  3.779000710318849e-01
 1.024508053435728e+00  3.779000710318849e-01 -3.480640154331064e-17

-2.491212690195070e-17  1.869483210783070e-19  9.879567407246072e-01
 1.869483210783070e-19 -1.364910181422082e-17  4.309995877145559e-01
 9.879567407246072e-01  4.309995877145559e-01 -3.361672473931943e-17

-2.522198755151500e-17  1.516158815975838e-19  1.010334107639676e+00
 1.516158815975838e-19 -1.411377095894214e-17  4.376302243375174e-01
 1.010334107639676e+00  4.376302243375174e-01 -3.445010573874923e-17

-2.498952471506710e-17 -6.755101936533016e-23  1.014594241416939e+00
-6.755101936533016e-23 -1.354986343728189e-17  4.399354754714551e-01
 1.014594241416939e+00  4.399354754714551e-01 -3.461735238632088e-17

-2.524156016577366e-17  7.910710131501499e-20  1.021989338866588e+00
 7.910710131501499e-20 -1.480771791834788e-17  4.338896714131829e-01
 1.021989338866588e+00  4.338896714131829e-01 -3.488198183064209e-17

-2.453934765999207e-17 -2.067626798672935e-19  1.017786131289558e+00
-2.067626798672935e-19 -1.266157452609577e-17  4.283936203445564e-01
 1.017786131289558e+00  4.283936203445564e-01 -3.473318043180459e-17

 1.120952147020548e-17 -1.445198390715938e-17  1.015636784287439e+00
-1.445198390715938e-17 -8.401248029399409e-18  4.349660298626669e-01
 1.015636784287439e+00  4.349660298626669e-01 -3.467527081884469e-17

-3.138390071578873e-17  2.534953638785420e-18  1.014349436921400e+00
 2.534953638785420e-18 -1.496673333193022e-17  4.387247387101431e-01
 1.014349436921400e+00  4.387247387101431e-01 -3.464659303322027e-17

-2.667673603569567e-17  6.396860018174670e-19  1.019877748173160e+00
 6.396860018174670e-19 -1.333040448755108e-17  4.281849514005213e-01
 1.019877748173160e+00  4.281849514005213e-01 -3.484842632965906e-17

-2.534669727653916e-17  1.202942079815869e-19  1.024270972287315e+00
 1.202942079815869e-19 -1.549047776186017e-17  4.223413139850491e-01
 1.024270972287315e+00  4.223413139850491e-01 -3.501232437036877e-17

-2.571518570916344e-17  2.191407296015146e-19  1.026648803279683e+00
 2.191407296015146e-19 -1.458162087566585e-17  4.281082302638227e-01
 1.026648803279683e+00  4.281082302638227e-01 -3.511571093978239e-17

-2.576120462387670e-17  1.780675980932255e-19  1.028300498080955e+00
 1.780675980932255e-19 -1.251596979262452e-17  4.347253642759549e-01
 1.028300498080955e+00  4.347253642759549e-01 -3.519579818069714e-17

-2.564192252371885e-17  2.095090229478192e-19  1.021828106779197e+00
 2.095090229478192e-19 -1.480511917265216e-17  4.258517570699019e-01
 1.021828106779197e+00  4.258517570699019e-01 -3.494721739086435e-17

-2.568468417600565e-17  2.232357639241327e-19  1.022225100005780e+00
 2.232357639241327e-19 -1.590392960259306e-17  4.289813105087148e-01
 1.022225100005780e+00  4.289813105087148e-01 -3.497158512468092e-17

-2.579579713377424e-17  1.691098142509019e-19  1.026191655104487e+00
 1.691098142509019e-19 -1.321610343309838e-17  4.326116867569284e-01
 1.026191655104487e+00  4.326116867569284e-01 -3.512688123036147e-17

-2.587707472344851e-17  1.551127632949439e-19  1.034108977416171e+00
 1.551127632949439e-19 -1.355095341201482e-17  4.166517258670631e-01
 1.034108977416171e+00  4.166517258670631e-01 -3.539936935447329e-17

-2.590578148333878e-17  1.463041796087016e-19  1.031231529499584e+00
 1.463041796087016e-19 -1.305487706929756e-17  4.286139940716633e-01
 1.031231529499584e+00  4.286139940716633e-01 -3.530824338065946e-17

-2.603959241926309e-17  1.897891609172918e-19  1.037701394677103e+00
 1.897891609172918e-19 -1.619843635914800e-17  4.320455140121595e-01
 1.037701394677103e+00  4.320455140121595e-01 -3.554489721315566e-17

-2.618116824328430e-17  2.038888640739866e-19  1.044284649354632e+00
 2.038888640739866e-19 -1.802943721460760e-17  4.264670399592330e-01
 1.044284649354632e+00  4.264670399592330e-01 -3.577842594364030e-17

-2.620676037458486e-17  1.881807436943416e-19  1.043709204655682e+00
 1.881807436943416e-19 -1.670042072384897e-17  4.285261075347229e-01
 1.043709204655682e+00  4.285261075347229e-01 -3.577074913853441e-17

-2.601794257425138e-17  1.749079469325555e-19  1.032265725890160e+00
 1.749079469325555e-19 -1.523955800590588e-17  4.262862084138408e-01
 1.032265725890160e+00  4.262862084138408e-01 -3.534342723010819e-17

-2.581875756433585e-17  1.536453436584619e-19  1.020153598704462e+00
 1.536453436584619e-19 -1.369128786205212e-17  4.285155112355264e-01
 1.020153598704462e+00  4.285155112355264e-01 -3.489293221610013e-17

-2.563433474523844e-17  1.271182533788393e-19  1.009282682537577e+00
 1.271182533788393e-19 -1.220609217392517e-17  4.280731668864146e-01
 1.009282682537577e+00  4.280731668864146e-01 -3.447967539321497e-17

-2.556526432352774e-17  2.110743219666116e-19  1.005724773032293e+00
 2.110743219666116e-19 -1.759454320279753e-17  4.257153135311245e-01
 1.005724773032293e+00  4.257153135311245e-01 -3.433714969135710e-17

-2.570703815092245e-17  1.892491332014361e-19  1.012376213954310e+00
 1.892491332014361e-19 -1.589125695455809e-17  4.267929984399046e-01
 1.012376213954310e+00  4.267929984399046e-01 -3.460473513679886e-17

-2.575498509657084e-17  1.732922737514230e-19  1.013627851213780e+00
 1.732922737514230e-19 -1.439333098893096e-17  4.273478639304724e-01
 1.013627851213780e+00  4.273478639304724e-01 -3.467925731106388e-17

-2.565643224153122e-17  1.868047571177523e-19  1.007086423468371e+00
 1.868047571177523e-19 -1.480356517685055e-17  4.255823052900745e-01
 1.007086423468371e+00  4.255823052900745e-01 -3.445102550401668e-17

-2.552596019579152e-17  1.613524701818792e-19  1.000559769297737e+00
 1.613524701818792e-19 -1.346451899557271e-17  4.180993895489610e-01
 1.000559769297737e+00  4.180993895489610e-01 -3.420685901991713e-17

-2.557691975516514e-17  1.148622193668264e-19  1.002365182522371e+00
 1.148622193668264e-19 -1.229731555663178e-17  4.238272145391318e-01
 1.002365182522371e+00  4.238272145391318e-01 -3.427066061232773e-17

-2.566772482878214e-17  8.958685925042311e-20  1.007097498814344e+00
 8.958685925042311e-20 -1.375161085818990e-17  4.240443715436438e-01
 1.007097498814344e+00  4.240443715436438e-01 -3.440281167056004e-17

-2.564644884776866e-17  1.505065138750194e-19  1.002756670911577e+00
 1.505065138750194e-19 -1.805347454574401e-17  4.238501837582918e-01
 1.002756670911577e+00  4.238501837582918e-01 -3.421774935007817e-17

-2.575493199568067e-17  7.484153635346151e-20  1.009964371046968e+00
 7.484153635346151e-20 -1.421640175638310e-17  4.213300974677651e-01
 1.009964371046968e+00  4.213300974677651e-01 -3.447972292314371e-17

-2.581180148618584e-17  1.140731860886707e-19  1.010572068642726e+00
 1.140731860886707e-19 -1.673695953475053e-17  4.278259668477772e-01
 1.010572068642726e+00  4.278259668477772e-01 -3.450138640783058e-17

-2.586369662426978e-17  5.114983472735159e-20  1.012625042275332e+00
 5.114983472735159e-20 -1.251904290894188e-17  4.258732185632278e-01
 1.012625042275332e+00  4.258732185632278e-01 -3.457715775954815e-17

-2.588107411969958e-17  1.383718634422901e-19  1.011072908812850e+00
 1.383718634422901e-19 -1.768558427349251e-17  4.255807348068768e-01
 1.011072908812850e+00  4.255807348068768e-01 -3.453044685622195e-17

-2.585320429573098e-17  7.446640436603669e-20  1.007319142038948e+00
 7.446640436603669e-20 -1.326064394505809e-17  4.266918414326665e-01
 1.007319142038948e+00  4.266918414326665e-01 -3.439722414812381e-17

-2.591279330695453e-17  7.027762539664874e-20  1.008012229999438e+00
 7.027762539664874e-20 -1.249945079102211e-17  4.287912490978917e-01
 1.008012229999438e+00  4.287912490978917e-01 -3.443817054379064e-17

-2.599014811933436e-17  2.595869752126549e-20  1.011180257258146e+00
 2.595869752126549e-20 -9.874239889606877e-18  4.253000583531252e-01
 1.011180257258146e+00  4.253000583531252e-01 -3.456254909959809e-17

-2.610811815323302e-17  1.661797684881896e-19  1.017331227457194e+00
 1.661797684881896e-19 -1.839080795933305e-17  4.221466292772972e-01
 1.017331227457194e+00  4.221466292772972e-01 -3.480096760747363e-17

-2.611328804194714e-17  7.427787838736147e-20  1.013156935813634e+00
 7.427787838736147e-20 -1.236003386342629e-17  4.249956626200618e-01
 1.013156935813634e+00  4.249956626200618e-01 -3.467040278928971e-17

-2.620459488040420e-17  3.979605572332455e-20  1.015540445770266e+00
 3.979605572332455e-20 -1.023640423552595e-17  4.229521083547403e-01
 1.015540445770266e+00  4.229521083547403e-01 -3.477320690656362e-17

-2.640098879524512e-17  1.026596699874330e-19  1.024497251856857e+00
 1.026596699874330e-19 -1.472419582305051e-17  4.216815450945723e-01
 1.024497251856857e+00  4.216815450945723e-01 -3.512201932911953e-17

-2.634777467391742e-17  1.947466864137490e-19  1.014544828712206e+00
 1.947466864137490e-19 -2.136355685394807e-17  4.426116078546093e-01
 1.014544828712206e+00  4.426116078546093e-01 -3.480411021041254e-17

-2.599794612738395e-17  1.213208854652204e-19  9.963978494856878e-01
 1.213208854652204e-19 -1.655497645434686e-17  4.197713183677918e-01
 9.963978494856878e-01  4.197713183677918e-01 -3.406901531395877e-17

-2.595270671337732e-17  8.159599785523118e-20  9.896906625620644e-01
 8.159599785523118e-20 -1.412773306321010e-17  4.210752536629153e-01
 9.896906625620644e-01  4.210752536629153e-01 -3.385183892321015e-17

-2.657561975928450e-17  1.733961366240837e-19  1.021855778362255e+00
 1.733961366240837e-19 -2.064103180142882e-17  4.301858850230474e-01
 1.021855778362255e+00  4.301858850230474e-01 -3.507127869816712e-17

-2.660699828285121e-17  9.389589402742482e-20  1.019300413606173e+00
 9.389589402742482e-20 -1.631194195147062e-17  4.220501621176104e-01
 1.019300413606173e+00  4.220501621176104e-01 -3.499112923564713e-17

-2.669286358168205e-17 -4.086628822352647e-20  1.019413481234390e+00
-4.086628822352647e-20 -7.871524073445738e-18  4.244524303431406e-01
 1.019413481234390e+00  4.244524303431406e-01 -3.501341939852610e-17

-2.671655548522612e-17  7.113504858726761e-20  1.014691202185769e+00
 7.113504858726761e-20 -1.613601006957482e-17  4.236358858241542e-01
 1.014691202185769e+00  4.236358858241542e-01 -3.485420332219276e-17

-2.677111189937683e-17  6.030374137812555e-20  1.015260919037232e+00
 6.030374137812555e-20 -1.604650299017867e-17  4.252788887092446e-01
 1.015260919037232e+00  4.252788887092446e-01 -3.488815503484927e-17

-2.683528846175192e-17  4.975269926765193e-20  1.016479461449127e+00
 4.975269926765193e-20 -1.598925346667691e-17  4.253084296228282e-01
 1.016479461449127e+00  4.253084296228282e-01 -3.494507557539086e-17

-2.693355876383715e-17 -9.634205450784256e-20  1.017325781626486e+00
-9.634205450784256e-20 -6.665971285620089e-18  4.252839389389442e-01
 1.017325781626486e+00  4.252839389389442e-01 -3.498894542388540e-17

-2.704463124665748e-17  8.202602177384471e-20  1.017031701420705e+00
 8.202602177384471e-20 -1.954163525030196e-17  4.247358905189836e-01
 1.017031701420705e+00  4.247358905189836e-01 -3.500532015812655e-17

-2.712071599436431e-17  1.959152687833105e-21  1.017328929086323e+00
 1.959152687833105e-21 -1.470915039597619e-17  4.249209310445987e-01
 1.017328929086323e+00  4.249209310445987e-01 -3.504343178145590e-17

-2.718190216215871e-17  7.247051067564440e-20  1.014666276364972e+00
 7.247051067564440e-20 -2.060600321403838e-17  4.242191328821397e-01
 1.014666276364972e+00  4.242191328821397e-01 -3.496768167780762e-17

-2.725854425994164e-17 -1.448158046359658e-19  1.013631020548182e+00
-1.448158046359658e-19 -6.120601005925971e-18  4.236019054853115e-01
 1.013631020548182e+00  4.236019054853115e-01 -3.495695825746222e-17

-2.737516163170178e-17 -9.167136176652907e-21  1.016362112542102e+00
-9.167136176652907e-21 -1.627390855580990e-17  4.232449797638294e-01
 1.016362112542102e+00  4.232449797638294e-01 -3.508271749588791e-17

-2.742706528309441e-17 -1.203841752796715e-19  1.016765403799681e+00
-1.203841752796715e-19 -8.937010227060544e-18  4.253662464141486e-01
 1.016765403799681e+00  4.253662464141486e-01 -3.510808330635781e-17

-2.747638653303768e-17 -3.646345133181887e-20  1.015005054014384e+00
-3.646345133181887e-20 -1.593106450012349e-17  4.235816388072531e-01
 1.015005054014384e+00  4.235816388072531e-01 -3.507201228243740e-17

-2.750300935723201e-17  1.952917291353815e-20  1.010848335050930e+00
 1.952917291353815e-20 -2.163996029452723e-17  4.252304888095733e-01
 1.010848335050930e+00  4.252304888095733e-01 -3.492816139350413e-17

-2.754725653805061e-17 -5.671009957269201e-20  1.009911224074842e+00
-5.671009957269201e-20 -1.757172723853107e-17  4.241190753899926e-01
 1.009911224074842e+00  4.241190753899926e-01 -3.489548208339936e-17

-2.765709346129387e-17  8.126717691218409e-20  1.012104919539809e+00
 8.126717691218409e-20 -2.966300301392775e-17  4.190894248071307e-01
 1.012104919539809e+00  4.190894248071307e-01 -3.498396708316090e-17

-2.816111952989260e-17 -1.198578950191874e-19  1.034618089931442e+00
-1.198578950191874e-19 -1.742450387317998e-17  4.150084337738427e-01
 1.034618089931442e+00  4.150084337738427e-01 -3.585040867404910e-17

-2.844480918213572e-17 -1.967931960119963e-19  1.032821338506247e+00
-1.967931960119963e-19 -1.668754566422986e-17  4.713572699881594e-01
 1.032821338506247e+00  4.713572699881594e-01 -3.603240156244105e-17

-2.770925601608344e-17 -2.977965255725900e-20  9.982388498774776e-01
-2.977965255725900e-20 -2.403853437028875e-17  4.092443930835996e-01
 9.982388498774776e-01  4.092443930835996e-01 -3.447787027083998e-17

-2.714399773691963e-17 -5.781174677784486e-20  9.523826647743620e-01
-5.781174677784486e-20 -2.371564099648285e-17  4.149087698139261e-01
 9.523826647743620e-01  4.149087698139261e-01 -3.287193510510699e-17

-2.856012501950791e-17 -3.683467411662801e-19  1.024680807002551e+00
-3.683467411662801e-19 -3.806423468502630e-18  4.325544900154898e-01
 1.024680807002551e+00  4.325544900154898e-01 -3.564154576377650e-17

-2.879427466831164e-17 -1.423838897571896e-19  1.025529649082067e+00
-1.423838897571896e-19 -2.376135814794069e-17  4.249969367611163e-01
 1.025529649082067e+00  4.249969367611163e-01 -3.574365353396976e-17

-2.866555277346157e-17 -1.754301988201493e-19  1.008217849438149e+00
-1.754301988201493e-19 -2.379396499987356e-17  4.240261308681100e-01
 1.008217849438149e+00  4.240261308681100e-01 -3.514097855041993e-17

-2.871023641990952e-17 -2.323138997768674e-19  9.998784149788810e-01
-2.323138997768674e-19 -2.335119683557800e-17  4.169702833943594e-01
 9.998784149788810e-01  4.169702833943594e-01 -3.485790176156876e-17

-2.925395531652457e-17 -2.842411924340397e-19  1.020442626339062e+00
-2.842411924340397e-19 -2.214975385636017e-17  4.242613502177043e-01
 1.020442626339062e+00  4.242613502177043e-01 -3.566969078806191e-17

-2.984003746480899e-17 -5.803319373214826e-19  1.037348980100267e+00
-5.803319373214826e-19 -4.018681052895786e-18  4.433280029568789e-01
 1.037348980100267e+00  4.433280029568789e-01 -3.642443631365620e-17

-2.962975784675201e-17 -4.243184659524108e-19  1.020978214668004e+00
-4.243184659524108e-19 -1.568321198500610e-17  4.068551556456009e-01
 1.020978214668004e+00  4.068551556456009e-01 -3.576748428702768e-17

-2.955126508827063e-17 -4.762139959254514e-19  1.010896773834883e+00
-4.762139959254514e-19 -1.302238567366425e-17  3.869401014748738e-01
 1.010896773834883e+00  3.869401014748738e-01 -3.540235926919756e-17

-2.982422436304194e-17 -5.138150757111997e-19  1.002216888845411e+00
-5.138150757111997e-19 -1.250086774369340e-17  4.352922704265236e-01
 1.002216888845411e+00  4.352922704265236e-01 -3.526378855210778e-17

-3.044242714250768e-17 -4.878992302836274e-19  1.023532354306098e+00
-4.878992302836274e-19 -1.778706695638247e-17  4.301896484681964e-01
 1.023532354306098e+00  4.301896484681964e-01 -3.614500230116060e-17

-3.075059243004744e-17 -7.715380801976795e-19  1.020552341825115e+00
-7.715380801976795e-19 -1.556155080337252e-18  4.264428043878983e-01
 1.020552341825115e+00  4.264428043878983e-01 -3.614683367291738e-17

-3.097210877016013e-17 -4.458977011192709e-19  1.019913731549806e+00
-4.458977011192709e-19 -2.893901896129120e-17  4.203307250431116e-01
 1.019913731549806e+00  4.203307250431116e-01 -3.619182091973199e-17

-3.113392694704521e-17 -5.670157262137851e-19  1.017509738545655e+00
-5.670157262137851e-19 -2.240752479740913e-17  4.229241064914372e-01
 1.017509738545655e+00  4.229241064914372e-01 -3.616475953981175e-17

-3.152040148259417e-17 -8.747183853762853e-19  1.016087893364675e+00
-8.747183853762853e-19 -4.467511493924851e-18  4.265781074505389e-01
 1.016087893364675e+00  4.265781074505389e-01 -3.625153413192201e-17

-3.191862619821345e-17 -7.419257110368831e-19  1.014538555281841e+00
-7.419257110368831e-19 -1.990917281589945e-17  4.271394384621869e-01
 1.014538555281841e+00  4.271394384621869e-01 -3.632996939172061e-17

-3.214940087051939e-17 -8.807129933062216e-19  1.014058209324502e+00
-8.807129933062216e-19 -1.269239125590764e-17  4.263383683887808e-01
 1.014058209324502e+00  4.263383683887808e-01 -3.639096821017877e-17

-3.253852468735293e-17 -8.826345782529978e-19  1.014798254174733e+00
-8.826345782529978e-19 -1.808386358806195e-17  4.255981190395231e-01
 1.014798254174733e+00  4.255981190395231e-01 -3.653606774711363e-17

-3.317010704294652e-17 -9.856330800168805e-19  1.015719451729639e+00
-9.856330800168805e-19 -1.920992517990383e-17  4.269455034102090e-01
 1.015719451729639e+00  4.269455034102090e-01 -3.676331277583047e-17

-3.381370848748130e-17 -1.559291589480232e-18  1.015374977926226e+00
-1.559291589480232e-18  1.520011302399341e-17  4.268575284712404e-01
 1.015374977926226e+00  4.268575284712404e-01 -3.695271247605416e-17

-3.447725876717398e-17 -1.680813223581229e-18  1.015298621682777e+00
-1.680813223581229e-18  1.474784485620681e-17  4.279681870225078e-01
 1.015298621682777e+00  4.279681870225078e-01 -3.717365820667906e-17

-3.540958682963218e-17 -1.196130673774973e-18  1.013879251056208e+00
-1.196130673774973e-18 -3.461752405435892e-17  4.296415703021071e-01
 1.013879251056208e+00  4.296415703021071e-01 -3.741443869806461e-17

-3.621855302073132e-17 -1.706654040784287e-18  1.011336260925598e+00
-1.706654040784287e-18 -6.458136004655592e-18  4.282588414404501e-01
 1.011336260925598e+00  4.282588414404501e-01 -3.759719047885820e-17

-3.671750943256403e-17 -1.799807226905268e-18  1.012779837476505e+00
-1.799807226905268e-18 -5.609092124259426e-18  4.238297962786370e-01
 1.012779837476505e+00  4.238297962786370e-01 -3.780044242790754e-17

-3.690476759202198e-17 -1.541583559334217e-18  1.012990440303113e+00
-1.541583559334217e-18 -2.726626279968506e-17  4.210868704656149e-01
 1.012990440303113e+00  4.210868704656149e-01 -3.789713702384993e-17

-3.728669371597052e-17 -1.724981621339594e-18  1.017759246631661e+00
-1.724981621339594e-18 -1.587655165135049e-17  4.186252593984082e-01
 1.017759246631661e+00  4.186252593984082e-01 -3.815628707846915e-17

-3.805016786643866e-17 -1.491073014124036e-18  1.023497254825108e+00
-1.491073014124036e-18 -4.217133416003860e-17  4.216424075991661e-01
 1.023497254825108e+00  4.216424075991661e-01 -3.862295668557433e-17

-3.909789542332675e-17 -1.634371211675284e-18  1.020969586060737e+00
-1.634371211675284e-18 -4.244050707773931e-17  4.481382824917578e-01
 1.020969586060737e+00  4.481382824917578e-01 -3.893223773394732e-17

-3.962578153493900e-17 -2.161299037233178e-18  1.016304424718574e+00
-2.161299037233178e-18 -1.084636603646445e-17  4.345444582802870e-01
 1.016304424718574e+00  4.345444582802870e-01 -3.895952533380888e-17

-4.052198155324042e-17 -2.464473570468265e-18  1.006637359161931e+00
-2.464473570468265e-18 -3.198627290127651e-18  4.163849868992822e-01
 1.006637359161931e+00  4.163849868992822e-01 -3.894580908765255e-17

-4.224827235672878e-17 -2.102396945514193e-18  1.011226916082222e+00
-2.102396945514193e-18 -5.317948448129621e-17  4.231603076655548e-01
 1.011226916082222e+00  4.231603076655548e-01 -3.968419993842191e-17

-4.304078487002392e-17 -2.655793472102773e-18  1.001183382814486e+00
-2.655793472102773e-18 -2.075145559004972e-17  4.394107473413710e-01
 1.001183382814486e+00  4.394107473413710e-01 -3.963751241494327e-17

-4.368735123482937e-17 -2.765863472823627e-18  1.001744970686089e+00
-2.765863472823627e-18 -1.984769762347437e-17  4.400192372865349e-01
 1.001744970686089e+00  4.400192372865349e-01 -3.985374367996277e-17

-4.436795629017908e-17 -2.556099009060952e-18  1.017630355903008e+00
-2.556099009060952e-18 -4.507848333664278e-17  4.194509119943937e-01
 1.017630355903008e+00  4.194509119943937e-01 -4.060457572251545e-17

-4.521705805375146e-17 -2.670955126137635e-18  1.012740189300145e+00
-2.670955126137635e-18 -4.829532661960717e-17  4.183750070479967e-01
 1.012740189300145e+00  4.183750070479967e-01 -4.073177773703472e-17

-4.649396629738016e-17 -3.280599589531336e-18  1.014363768368621e+00
-3.280599589531336e-18 -1.656541539999006e-17  4.180191312519765e-01
 1.014363768368621e+00  4.180191312519765e-01 -4.120417920420985e-17

-4.865324691674189e-17 -3.232716254039988e-18  1.020863008697888e+00
-3.232716254039988e-18 -4.507081638133677e-17  4.241213660641925e-01
 1.020863008697888e+00  4.241213660641925e-01 -4.215076536576123e-17

-5.250649012724827e-17 -3.574978900129106e-18  1.020530215990329e+00
-3.574978900129106e-18 -6.592836586804996e-17  4.219559992117340e-01
 1.020530215990329e+00  4.219559992117340e-01 -4.344096852695484e-17

-5.662554540445301e-17 -4.025111309361138e-18  1.018438234761654e+00
-4.025111309361138e-18 -7.894902617859745e-17  4.165713991403955e-01
 1.018438234761654e+00  4.165713991403955e-01 -4.477688883337878e-17

-6.043323503678725e-17 -4.510403543921299e-18  1.022201354697425e+00
-4.510403543921299e-18 -8.012722734797381e-17  4.337054210616472e-01
 1.022201354697425e+00  4.337054210616472e-01 -4.622954403873517e-17

-6.446489127072273e-17 -5.832642745176178e-18  1.000231628849636e+00
-5.832642745176178e-18 -2.435034154262404e-17  4.316678690695923e-01
 1.000231628849636e+00  4.316678690695923e-01 -4.689817600960821e-17

-7.016484687455737e-17 -6.436768753556160e-18  9.737814139999037e-01
-6.436768753556160e-18 -4.537225634092424e-17  4.036073122661144e-01
 9.737814139999037e-01  4.036073122661144e-01 -4.800264257965921e-17

-7.582007224723832e-17 -7.096708779009177e-18  1.023796737384305e+00
-7.096708779009177e-18 -3.785340825096802e-17  3.997328865318278e-01
 1.023796737384305e+00  3.997328865318278e-01 -5.150702550854276e-17

-8.169545322467010e-17 -6.574839380770278e-18  1.052095080784238e+00
-6.574839380770278e-18 -1.058295829178620e-16  4.445905191962316e-01
 1.052095080784238e+00  4.445905191962316e-01 -5.434199932862957e-17

-9.366937296543989e-17 -8.063801799842561e-18  1.060274195472361e+00
-8.063801799842561e-18 -7.659543385159161e-17  4.230802260966789e-01
 1.060274195472361e+00  4.230802260966789e-01 -5.880242509296695e-17

-1.033344087149491e-16 -8.917578137904051e-18  1.008105605020895e+00
-8.917578137904051e-18 -7.746968862620854e-17  4.044824349449772e-01
 1.008105605020895e+00  4.044824349449772e-01 -6.037965736029627e-17

-1.117217369673857e-16 -1.019374936381016e-17  9.725760046915254e-01
-1.019374936381016e-17 -1.899387823483917e-17  4.084389272679012e-01
 9.725760046915254e-01  4.084389272679012e-01 -6.216852157710293e-17

-1.260091208228731e-16 -1.079326118616072e-17  9.634256528123165e-01
-1.079326118616072e-17 -1.937624091652261e-17  4.188982915733415e-01
 9.634256528123165e-01  4.188982915733415e-01 -6.687982402977027e-17

-1.475618121932265e-16 -1.077188621185681e-17  1.005390255382502e+00
-1.077188621185681e-17 -4.112763365588106e-17  4.212797209334971e-01
 1.005390255382502e+00  4.212797209334971e-01 -7.561508010604008e-17

-1.844774879322695e-16 -1.052452909442647e-17  1.070673209453983e+00
-1.052452909442647e-17 -2.279144052533409e-17  4.177156230086823e-01
 1.070673209453983e+00  4.177156230086823e-01 -9.045868994083893e-17

-2.323966592937202e-16 -7.825777981565725e-18  1.027034955548148e+00
-7.825777981565725e-18  7.648381256043869e-17  4.204697106694866e-01
 1.027034955548148e+00  4.204697106694866e-01 -1.060403695176810e-16

-2.763505533886575e-16  1.036000906044749e-18  9.992943939194664e-01
 1.036000906044749e-18 -1.448831678742708e-16  3.933893105621202e-01
 9.992943939194664e-01  3.933893105621202e-01 -1.209729254580536e-16

-3.389596467683382e-16  1.177317820954348e-17  9.994143721462392e-01
 1.177317820954348e-17 -8.792746689584951e-17  4.283312046369895e-01
 9.994143721462392e-01  4.283312046369895e-01 -1.437685861993708e-16

-4.354607410264361e-16  3.416617568086561e-17  1.014518412484390e+00
 3.416617568086561e-17  7.527410325575716e-17  4.295759196241389e-01
 1.014518412484390e+00  4.295759196241389e-01 -1.801588299859652e-16

-5.959089576803387e-16  9.494939646239611e-17  1.003570939529733e+00
 9.494939646239611e-17  2.932697492049023e-16  4.214774084734955e-01
 1.003570939529733e+00  4.214774084734955e-01 -2.431198418709539e-16

-7.758370620919149e-16  1.948607085224040e-16  1.013285338420983e+00
 1.948607085224040e-16  3.152600241762741e-16  4.234820258195122e-01
 1.013285338420983e+00  4.234820258195122e-01 -3.197946717803593e-16

-9.249525190918277e-16  2.898114654590095e-16  9.773916604063216e-01
 2.898114654590095e-16  2.010315846904174e-16  4.706388714525404e-01
 9.773916604063216e-01  4.706388714525404e-01 -3.809436449792371e-16

-1.030911813958318e-15  3.908295312593948e-16  9.942318638242891e-01
 3.908295312593948e-16  4.319884974261045e-16  4.379906732915823e-01
 9.942318638242891e-01  4.379906732915823e-01 -4.405587393898674e-16

-1.331595301285580e-15  5.999837283245873e-16  1.005213395238920e+00
 5.999837283245873e-16  5.892760569573809e-16  3.990412934060868e-01
 1.005213395238920e+00  3.990412934060868e-01 -5.437978725911880e-16

-1.682190645396980e-15  1.062882972678576e-15  1.017019428117561e+00
 1.062882972678576e-15  9.848381927379200e-16  4.084971171807197e-01
 1.017019428117561e+00  4.084971171807197e-01 -7.641397455090674e-16

-2.379002832083099e-15  2.331084307959906e-15  1.102077216020058e+00
 2.331084307959906e-15  1.678220083759394e-15  4.335442820796945e-01
 1.102077216020058e+00  4.335442820796945e-01 -1.300728102686093e-15

-2.946917062104639e-15  4.981389912054726e-15  1.054705932263974e+00
 4.981389912054726e-15  2.203176678636321e-15  4.432513365070812e-01
 1.054705932263974e+00  4.432513365070812e-01 -2.270952274243869e-15

-2.963951713696482e-15  8.747043567362248e-15  9.919293357525792e-01
 8.747043567362248e-15  1.003206687372487e-15  3.950606352382859e-01
 9.919293357525792e-01  3.950606352382859e-01 -3.951277222596567e-15

-5.975265035610116e-15  1.435183510594180e-14  9.748830935908588e-01
 1.435183510594180e-14 -3.958834532447104e-15  4.352077097597727e-01
 9.748830935908588e-01  4.352077097597727e-01 -9.301637408718065e-15

 1.320589642912653e-14  5.993857664114879e-15  1.027523001380477e+00
 5.993857664114879e-15  8.528628824522084e-15  4.003743019681355e-01
 1.027523001380477e+00  4.003743019681355e-01 -9.230762053728642e-15

 1.641341535786246e-13 -3.381133756237534e-14  1.006835227075598e+00
-3.381133756237534e-14  7.256850229942103e-14  4.574341029504493e-01
 1.006835227075598e+00  4.574341029504493e-01  3.763946372680483e-14

-6.371044063403067e-13  1.520516541475033e-13  1.038258330455607e+00
 1.520516541475033e-13 -3.361958067369583e-13  4.541237376837503e-01
 1.038258330455607e+00  4.541237376837503e-01 -1.633941705923109e-13

 1.718814181581299e-13 -6.639793141990766e-14  1.026951925987482e+00
-6.639793141990766e-14  8.914314309101610e-14  4.177464190606462e-01
 1.026951925987482e+00  4.177464190606462e-01  4.445817262870417e-14

-6.648188729068762e-13  1.448383443069120e-13  1.030254880434393e+00
 1.448383443069120e-13 -3.093222648033227e-13  4.380373766220129e-01
 1.030254880434393e+00  4.380373766220129e-01 -1.717976409428783e-13

-1.677980882530729e-14 -1.349687906904133e-14  1.017801619221888e+00
-1.349687906904133e-14  7.040527608260892e-15  4.148459782140685e-01
 1.017801619221888e+00  4.148459782140685e-01 -1.238538751947553e-14

-1.740130482175810e-14 -4.326745946657109e-15  1.010130960851899e+00
-4.326745946657109e-15 -2.929038098023136e-15  4.413543899439272e-01
 1.010130960851899e+00  4.413543899439272e-01 -9.332204909561113e-15

-1.246692092539423e-14 -1.540340119685089e-15  1.017841420523403e+00
-1.540340119685089e-15 -3.273870351600316e-15  4.452548543501860e-01
 1.017841420523403e+00  4.452548543501860e-01 -5.789652224979435e-15

-7.258763035477665e-15  3.495915607599905e-16  1.022284951212561e+00
 3.495915607599905e-16 -2.205431531092444e-15  4.289955511083823e-01
 1.022284951212561e+00  4.289955511083823e-01 -2.726842162392934e-15

-4.075789850948294e-15  9.121153609451926e-16  1.019698481498390e+00
 9.121153609451926e-16 -1.757155279865758e-15  4.328529134551606e-01
 1.019698481498390e+00  4.328529134551606e-01 -1.295078456052475e-15

-2.691319190538371e-15  8.616560344375235e-16  1.025117027282195e+00
 8.616560344375235e-16 -1.524111886944670e-15  4.302180159621971e-01
 1.025117027282195e+00  4.302180159621971e-01 -8.101876034822298e-16

-2.122513810638455e-15  7.687405687374784e-16  1.025969338577400e+00
 7.687405687374784e-16 -1.377580017081136e-15  4.294738086082860e-01
 1.025969338577400e+00  4.294738086082860e-01 -6.314146367979972e-16

-1.381648199893902e-15  5.902216930264417e-16  1.021175476581672e+00
 5.902216930264417e-16 -1.140910887767041e-15  4.358327194918983e-01
 1.021175476581672e+00  4.358327194918983e-01 -4.137748262102386e-16

-9.754153563469615e-16  4.468770498338140e-16  1.022842072895585e+00
 4.468770498338140e-16 -9.339759436002391e-16  4.236997726686429e-01
 1.022842072895585e+00  4.236997726686429e-01 -3.009396386187322e-16

-8.016295179597164e-16  3.747889382134214e-16  1.025211896597461e+00
 3.747889382134214e-16 -8.285193080935890e-16  4.201842149833772e-01
 1.025211896597461e+00  4.201842149833772e-01 -2.536533144892916e-16

-5.761640631871176e-16  2.716987873040157e-16  1.031474772387617e+00
 2.716987873040157e-16 -6.783122662739128e-16  4.353762117546792e-01
 1.031474772387617e+00  4.353762117546792e-01 -2.046338202823358e-16

-4.257749009496473e-16  1.967291623133745e-16  1.033868586880270e+00
 1.967291623133745e-16 -5.464853030454118e-16  4.466961237647244e-01
 1.033868586880270e+00  4.466961237647244e-01 -1.519803100005716e-16

-3.306879556430656e-16  1.501972872046066e-16  1.016683607884156e+00
 1.501972872046066e-16 -4.383962376857414e-16  4.046390451986779e-01
 1.016683607884156e+00  4.046390451986779e-01 -1.246445163579029e-16

-2.782004065887303e-16  1.223706313113082e-16  1.009963552048590e+00
 1.223706313113082e-16 -3.788627454702750e-16  4.099525554861871e-01
 1.009963552048590e+00  4.099525554861871e-01 -1.097314373371111e-16

-2.244551116923025e-16  9.099039511308969e-17  1.026455810482471e+00
 9.099039511308969e-17 -3.218332307213228e-16  4.541024870673009e-01
 1.026455810482471e+00  4.541024870673009e-01 -9.532400906970433e-17

-1.913141519616967e-16  7.327118451447076e-17  1.028598578685054e+00
 7.327118451447076e-17 -2.790186653787189e-16  4.414086017409655e-01
 1.028598578685054e+00  4.414086017409655e-01 -8.582335179995099e-17

-1.725912698949359e-16  6.373569884900950e-17  1.033928131680772e+00
 6.373569884900950e-17 -2.526543033628723e-16  4.192556920891770e-01
 1.033928131680772e+00  4.192556920891770e-01 -8.046664004072470e-17

-1.469473644617271e-16  4.989281857052555e-17  1.033926436678949e+00
 4.989281857052555e-17 -2.169017301740342e-16  4.265388914927663e-01
 1.033926436678949e+00  4.265388914927663e-01 -7.294328238831502e-17

-1.241483970802572e-16  3.737135037021022e-17  1.060703009277608e+00
 3.737135037021022e-17 -1.832156591477114e-16  4.391416826613751e-01
 1.060703009277608e+00  4.391416826613751e-01 -6.700842484793885e-17

-1.083679642108017e-16  3.004472693717424e-17  1.039848062086660e+00
 3.004472693717424e-17 -1.577459412245926e-16  4.520515422476645e-01
 1.039848062086660e+00  4.520515422476645e-01 -6.154059188380770e-17

-9.915669643357710e-17  2.672557160469256e-17  1.031280127933292e+00
 2.672557160469256e-17 -1.420494884915158e-16  4.062109739178059e-01
 1.031280127933292e+00  4.062109739178059e-01 -5.824512017511637e-17

-9.105130291899867e-17  2.339347232305522e-17  1.000958162936872e+00
 2.339347232305522e-17 -1.288158278446360e-16  4.134304872662980e-01
 1.000958162936872e+00  4.134304872662980e-01 -5.480368495807620e-17

-8.173895384814046e-17  1.880089128619346e-17  1.003990848780238e+00
 1.880089128619346e-17 -1.135539373082185e-16  4.279324474855043e-01
 1.003990848780238e+00  4.279324474855043e-01 -5.211046779573833e-17

-7.439798314628457e-17  1.507773199714258e-17  1.033331195518484e+00
 1.507773199714258e-17 -1.011751000899666e-16  4.225577643772862e-01
 1.033331195518484e+00  4.225577643772862e-01 -5.076664936148078e-17

-6.775745606615242e-17  1.202226189489609e-17  9.962813979285995e-01
 1.202226189489609e-17 -8.920028258183241e-17  5.055009082367107e-01
 9.962813979285995e-01  5.055009082367107e-01 -4.768069251774976e-17

-6.390424947850295e-17  1.144112143763284e-17  9.882637994419311e-01
 1.144112143763284e-17 -8.310036975984366e-17  4.249501024868850e-01
 9.882637994419311e-01  4.249501024868850e-01 -4.581976294813457e-17

-5.879953523118763e-17  1.015851122336668e-17  9.299553854376252e-01
 1.015851122336668e-17 -7.513135108863597e-17  4.151223861812737e-01
 9.299553854376252e-01  4.151223861812737e-01 -4.224298982067292e-17

-5.536450219371964e-17  7.801140653176615e-18  9.909487633379358e-01
 7.801140653176615e-18 -6.778116663686372e-17  4.558904200455215e-01
 9.909487633379358e-01  4.558904200455215e-01 -4.311858882857386e-17

-5.347167451655653e-17  6.668646916680642e-18  1.029502737250892e+00
 6.668646916680642e-18 -6.398448885693738e-17  4.511316085115475e-01
 1.029502737250892e+00  4.511316085115475e-01 -4.376706467992357e-17

-5.047831258452167e-17  5.633730559190552e-18  1.029331328002032e+00
 5.633730559190552e-18 -5.910612757237726e-17  4.271138194056418e-01
 1.029331328002032e+00  4.271138194056418e-01 -4.276792682268255e-17

-4.765451627025026e-17  4.760547110273748e-18  1.018501296439025e+00
 4.760547110273748e-18 -5.421681075230741e-17  4.281306619101698e-01
 1.018501296439025e+00  4.281306619101698e-01 -4.149762836241738e-17

-4.528758337334685e-17  4.002512694466234e-18  1.017631511730630e+00
 4.002512694466234e-18 -4.986317901543399e-17  4.317037598454072e-01
 1.017631511730630e+00  4.317037598454072e-01 -4.070676733181655e-17

-4.320948702385662e-17  3.353228690004033e-18  1.019564047623719e+00
 3.353228690004033e-18 -4.601202633231379e-17  4.319600093105805e-01
 1.019564047623719e+00  4.319600093105805e-01 -4.010595144515762e-17

-4.151395596667739e-17  2.881538799886871e-18  1.017245588592003e+00
 2.881538799886871e-18 -4.296007621201766e-17  4.313318734665719e-01
 1.017245588592003e+00  4.313318734665719e-01 -3.949837299946544e-17

-3.991099594433956e-17  2.480047523008286e-18  1.011432625435768e+00
 2.480047523008286e-18 -4.018301554216110e-17  4.298669816112677e-01
 1.011432625435768e+00  4.298669816112677e-01 -3.881324691635273e-17

-3.840168629671342e-17  2.105499429603706e-18  1.008671916398454e+00
 2.105499429603706e-18 -3.751042352104822e-17  4.282092119110327e-01
 1.008671916398454e+00  4.282092119110327e-01 -3.826797696097145e-17

-3.717912011174029e-17  1.731692794785499e-18  1.018559790914565e+00
 1.731692794785499e-18 -3.525924114335278e-17  4.212283490285663e-01
 1.018559790914565e+00  4.212283490285663e-01 -3.818581611387974e-17

-3.639622007326092e-17  1.448520618330754e-18  1.034013360118923e+00
 1.448520618330754e-18 -3.320768965075025e-17  4.373309944577054e-01
 1.034013360118923e+00  4.373309944577054e-01 -3.845257733647362e-17

-3.535964341464812e-17  1.293109588815327e-18  1.013690653343498e+00
 1.293109588815327e-18 -3.152480591921334e-17  4.455488180017504e-01
 1.013690653343498e+00  4.455488180017504e-01 -3.751455535641095e-17

-3.379343536748224e-17  1.231793962261562e-18  9.722083346336695e-01
 1.231793962261562e-18 -3.063784423876848e-17  3.920449824093494e-01
 9.722083346336695e-01  3.920449824093494e-01 -3.562731982677400e-17

-3.372260581214516e-17  1.060197411148269e-18  9.974053798467134e-01
 1.060197411148269e-18 -2.992944876044444e-17  3.912085557261084e-01
 9.974053798467134e-01  3.912085557261084e-01 -3.647918584524615e-17

-3.389107102823213e-17  9.991873298834381e-19  1.029828471477219e+00
 9.991873298834381e-19 -2.882938652993933e-17  4.312061726049886e-01
 1.029828471477219e+00  4.312061726049886e-01 -3.753516053588050e-17

-3.370327941246700e-17  7.385884403361281e-19  1.042849579610429e+00
 7.385884403361281e-19 -2.739633753335682e-17  4.771139364545000e-01
 1.042849579610429e+00  4.771139364545000e-01 -3.803927464180344e-17

-3.269369547547624e-17  7.283861830747382e-19  1.012069195216666e+00
 7.283861830747382e-19 -2.694673382267501e-17  4.414950660611449e-01
 1.012069195216666e+00  4.414950660611449e-01 -3.665115627137193e-17

-3.184465845195179e-17  8.215068259781766e-19  1.000208616106393e+00
 8.215068259781766e-19 -2.695833571389784e-17  3.734146257819832e-01
 1.000208616106393e+00  3.734146257819832e-01 -3.579526914609725e-17

-3.117872396943725e-17  6.307376587446157e-19  9.776171453094840e-01
 6.307376587446157e-19 -2.530077864687220e-17  4.203362202383956e-01
 9.776171453094840e-01  4.203362202383956e-01 -3.500530077649278e-17

-3.162659725163222e-17  5.781441800158772e-19  1.029844978938337e+00
 5.781441800158772e-19 -2.473282712198538e-17  4.330049720493472e-01
 1.029844978938337e+00  4.330049720493472e-01 -3.680055654893599e-17

-3.152610204594602e-17  4.660496654218353e-19  1.042245341410200e+00
 4.660496654218353e-19 -2.398086353150943e-17  4.495069262560171e-01
 1.042245341410200e+00  4.495069262560171e-01 -3.723050487492625e-17

-3.010168933625866e-17  5.032644427985618e-19  9.877550870217401e-01
 5.032644427985618e-19 -2.363451611897623e-17  3.977822277772676e-01
 9.877550870217401e-01  3.977822277772676e-01 -3.490224821507269e-17

-2.980881047315296e-17  4.154797391198871e-19  9.831388869554032e-01
 4.154797391198871e-19 -2.255044275033341e-17  4.291097013400777e-01
 9.831388869554032e-01  4.291097013400777e-01 -3.472491376564037e-17

-3.040548674999375e-17  3.777569806195875e-19  1.039700170072921e+00
 3.777569806195875e-19 -2.227882878043242e-17  4.374670122004815e-01
 1.039700170072921e+00  4.374670122004815e-01 -3.673960707699685e-17

-2.954932552621437e-17  3.363509721884812e-19  1.008387524029495e+00
 3.363509721884812e-19 -2.201213025188584e-17  4.115095509052161e-01
 1.008387524029495e+00  4.115095509052161e-01 -3.548566393884801e-17

-2.958663829135356e-17  3.124733269945310e-19  1.018843870225903e+00
 3.124733269945310e-19 -2.141224136173820e-17  4.341725102157513e-01
 1.018843870225903e+00  4.341725102157513e-01 -3.583202784010860e-17

-2.969604605001425e-17  2.917238263491932e-19  1.035003022027515e+00
 2.917238263491932e-19 -2.108853865003487e-17  4.458122397822271e-01
 1.035003022027515e+00  4.458122397822271e-01 -3.636983773801243e-17

-2.922583004564499e-17  2.560094256743699e-19  1.023669510700514e+00
 2.560094256743699e-19 -2.088307902644361e-17  4.283962943074929e-01
 1.023669510700514e+00  4.283962943074929e-01 -3.585303573042734e-17

-2.909571900860605e-17  2.290223052068188e-19  1.028764838393147e+00
 2.290223052068188e-19 -2.078533072341545e-17  4.174355646299973e-01
 1.028764838393147e+00  4.174355646299973e-01 -3.597053740866142e-17

-2.902611734891609e-17  2.352899650821872e-19  1.029347682059359e+00
 2.352899650821872e-19 -2.049661226025933e-17  4.260811320031489e-01
 1.029347682059359e+00  4.260811320031489e-01 -3.596871062011751e-17

-2.902963288072795e-17  2.170032656727380e-19  1.032379673022128e+00
 2.170032656727380e-19 -2.006971531576793e-17  4.445051897115848e-01
 1.032379673022128e+00  4.445051897115848e-01 -3.606860555135169e-17

-2.890358089771806e-17  2.031767383822968e-19  1.027477910092262e+00
 2.031767383822968e-19 -1.989654972546187e-17  4.472146658817662e-01
 1.027477910092262e+00  4.472146658817662e-01 -3.587834312489306e-17

-2.877372484295175e-17  1.905393802360301e-19  1.028859407540826e+00
 1.905393802360301e-19 -1.998314562756817e-17  4.328923889670936e-01
 1.028859407540826e+00  4.328923889670936e-01 -3.586792151513572e-17

-2.835955004910202e-17  1.760522852127538e-19  1.003575165294949e+00
 1.760522852127538e-19 -1.940210129990749e-17  4.534456275113812e-01
 1.003575165294949e+00  4.534456275113812e-01 -3.491564859015086e-17

-2.812944169374720e-17  1.484991238411269e-19  9.895056954107442e-01
 1.484991238411269e-19 -1.920363072986148e-17  4.583268904891172e-01
 9.895056954107442e-01  4.583268904891172e-01 -3.438591250557600e-17

-2.855520567127297e-17  1.157807273946335e-19  1.036444277801792e+00
 1.157807273946335e-19 -2.034750644086695e-17  3.956768649227056e-01
 1.036444277801792e+00  3.956768649227056e-01 -3.602181829253605e-17

-2.902218515749007e-17  5.171884403523701e-20  1.069317703677027e+00
 5.171884403523701e-20 -2.077686855452444e-17  3.835069770222756e-01
 1.069317703677027e+00  3.835069770222756e-01 -3.726126995476511e-17

-2.976124371433686e-17  1.338079579960180e-19  1.107444147636717e+00
 1.338079579960180e-19 -2.033428493861614e-17  4.304065051636173e-01
 1.107444147636717e+00  4.304065051636173e-01 -3.865222316289456e-17

-3.019204837601418e-17  3.158240585220918e-20  1.112501053224938e+00
 3.158240585220918e-20 -1.915510201449858e-17  5.236507616250404e-01
 1.112501053224938e+00  5.236507616250404e-01 -3.922803807746528e-17

-2.920325616808906e-17 -8.650402552973186e-20  1.056595264573905e+00
-8.650402552973186e-20 -1.875115490198115e-17  5.112438556525530e-01
 1.056595264573905e+00  5.112438556525530e-01 -3.734841774596313e-17

-2.778854806193318e-17  3.817825045715228e-19  1.034689425736949e+00
 3.817825045715228e-19 -2.001040049722144e-17  3.282451684750854e-01
 1.034689425736949e+00  3.282451684750854e-01 -3.522225168904527e-17

-2.728822248518928e-17  1.910508463495399e-19  9.844179683694732e-01
 1.910508463495399e-19 -1.857604655591203e-17  4.092638729993535e-01
 9.844179683694732e-01  4.092638729993535e-01 -3.398559936446158e-17

-2.841031336288084e-17  2.342726169154988e-19  1.049440059991049e+00
 2.342726169154988e-19 -1.766513440525565e-17  4.811453919888113e-01
 1.049440059991049e+00  4.811453919888113e-01 -3.651061443224919e-17

-2.785900139747323e-17  2.058776924408182e-19  1.025313944510819e+00
 2.058776924408182e-19 -1.798529408150360e-17  4.450440907817944e-01
 1.025313944510819e+00  4.450440907817944e-01 -3.556911400298082e-17

-2.728132371276445e-17  2.234517125967370e-19  1.006545508293091e+00
 2.234517125967370e-19 -1.836700548864033e-17  3.971775723860774e-01
 1.006545508293091e+00  3.971775723860774e-01 -3.471046327463476e-17

-2.746008376423178e-17  1.717174643422994e-19  1.021299118612313e+00
 1.717174643422994e-19 -1.813831725054381e-17  4.105531065389849e-01
 1.021299118612313e+00  4.105531065389849e-01 -3.529273984006778e-17

-2.761768117078853e-17  1.919910496477845e-19  1.021325011374502e+00
 1.919910496477845e-19 -1.718426764641063e-17  4.717200008770914e-01
 1.021325011374502e+00  4.717200008770914e-01 -3.531957441138812e-17

-2.762601626916209e-17  1.281088152093564e-19  1.027038122455713e+00
 1.281088152093564e-19 -1.738310216112526e-17  4.564744683946723e-01
 1.027038122455713e+00  4.564744683946723e-01 -3.552888827936137e-17

-2.770086615354141e-17  1.536507812708900e-19  1.049772424949044e+00
 1.536507812708900e-19 -1.815413702805099e-17  4.003938719073525e-01
 1.049772424949044e+00  4.003938719073525e-01 -3.621555265050624e-17

-2.718545698232523e-17  1.302510415189622e-19  1.016501199761308e+00
 1.302510415189622e-19 -1.747643269603035e-17  4.254250767904831e-01
 1.016501199761308e+00  4.254250767904831e-01 -3.500844109226644e-17

-2.719180045651749e-17  1.135132271878760e-19  1.022878623815703e+00
 1.135132271878760e-19 -1.718546359379230e-17  4.330710389046463e-01
 1.022878623815703e+00  4.330710389046463e-01 -3.521012764353946e-17

-2.703176369821690e-17  1.089516729503720e-19  1.019870960908292e+00
 1.089516729503720e-19 -1.696020886082566e-17  4.312039416529760e-01
 1.019870960908292e+00  4.312039416529760e-01 -3.505953486861087e-17

-2.696590481127721e-17  1.088642963175386e-19  1.018352563783470e+00
 1.088642963175386e-19 -1.680389459507201e-17  4.328757495755236e-01
 1.018352563783470e+00  4.328757495755236e-01 -3.498067246293029e-17

-2.688104975111172e-17  1.143666241772168e-19  1.015258532872117e+00
 1.143666241772168e-19 -1.666086972663982e-17  4.334438054711148e-01
 1.015258532872117e+00  4.334438054711148e-01 -3.484814695640446e-17

-2.688425830468420e-17  1.213443972515263e-19  1.019317030596428e+00
 1.213443972515263e-19 -1.664901124693856e-17  4.261472957793564e-01
 1.019317030596428e+00  4.261472957793564e-01 -3.496959735376509e-17

-2.682640237202722e-17  1.343020104218532e-19  1.019386833353838e+00
 1.343020104218532e-19 -1.654355813347825e-17  4.281041244364818e-01
 1.019386833353838e+00  4.281041244364818e-01 -3.498693491866944e-17

-2.702496313361792e-17  1.637965299030349e-19  1.033400008453642e+00
 1.637965299030349e-19 -1.654189255967036e-17  4.281262106577056e-01
 1.033400008453642e+00  4.281262106577056e-01 -3.552399013370015e-17

-2.686177000028296e-17  1.931644620461819e-19  1.029083619937891e+00
 1.931644620461819e-19 -1.634037351428149e-17  4.260428334200388e-01
 1.029083619937891e+00  4.260428334200388e-01 -3.538989203162785e-17

-2.641791543370642e-17  2.128919406559273e-19  1.008426708522043e+00
 2.128919406559273e-19 -1.596947110221472e-17  4.248876585965843e-01
 1.008426708522043e+00  4.248876585965843e-01 -3.462688587009160e-17

-2.601784249745060e-17  2.050649724481977e-19  9.890048451415830e-01
 2.050649724481977e-19 -1.563344247607337e-17  4.269588239749835e-01
 9.890048451415830e-01  4.269588239749835e-01 -3.388202236002134e-17

-2.581798156222327e-17  1.776918019323974e-19  9.841723956026143e-01
 1.776918019323974e-19 -1.558041370376043e-17  4.191722813816681e-01
 9.841723956026143e-01  4.191722813816681e-01 -3.366556946625446e-17

-2.607634145095691e-17  1.718732663589298e-19  1.001851027273644e+00
 1.718732663589298e-19 -1.561141937573660e-17  4.208646337960048e-01
 1.001851027273644e+00  4.208646337960048e-01 -3.430507776478544e-17

-2.612565999955048e-17  1.861146147184888e-19  1.000430802013351e+00
 1.861146147184888e-19 -1.531701321180270e-17  4.413627051070182e-01
 1.000430802013351e+00  4.413627051070182e-01 -3.426068978751759e-17

-2.631633735177615e-17  1.895633676676514e-19  1.017838692808244e+00
 1.895633676676514e-19 -1.565402908028803e-17  4.223487406915701e-01
 1.017838692808244e+00  4.223487406915701e-01 -3.489369729143121e-17

-2.616528265709306e-17  2.165401312437770e-19  1.010729122619362e+00
 2.165401312437770e-19 -1.553650319330666e-17  4.197884005591069e-01
 1.010729122619362e+00  4.197884005591069e-01 -3.464345949328955e-17

-2.598095916358927e-17  2.438685586090649e-19  1.002821853294188e+00
 2.438685586090649e-19 -1.537287003796696e-17  4.176008909873636e-01
 1.002821853294188e+00  4.176008909873636e-01 -3.436504241186966e-17

-2.585964878445621e-17  2.642867642320304e-19  9.988181540595392e-01
 2.642867642320304e-19 -1.524450951262266e-17  4.158976193624090e-01
 9.988181540595392e-01  4.158976193624090e-01 -3.424283815756512e-17

-2.585898246815146e-17  2.867141320778351e-19  1.001095005099842e+00
 2.867141320778351e-19 -1.521057941646268e-17  4.143237663786534e-01
 1.001095005099842e+00  4.143237663786534e-01 -3.436202822326904e-17

-2.568704999896382e-17  2.991473317255901e-19  9.970977086174647e-01
 2.991473317255901e-19 -1.506342275119846e-17  4.118247058047442e-01
 9.970977086174647e-01  4.118247058047442e-01 -3.424058398543752e-17

-2.547811021584262e-17  2.982475098448722e-19  9.879326837156770e-01
 2.982475098448722e-19 -1.497958621546043e-17  4.099075120216514e-01
 9.879326837156770e-01  4.099075120216514e-01 -3.392717052038602e-17

-2.528458760370476e-17  2.758527348719558e-19  9.805085216313013e-01
 2.758527348719558e-19 -1.496329285467393e-17  4.069372521232881e-01
 9.805085216313013e-01  4.069372521232881e-01 -3.366527197776254e-17

-2.522401108149857e-17  2.364869469457318e-19  9.830154536753927e-01
 2.364869469457318e-19 -1.494483628099096e-17  4.088261010214032e-01
 9.830154536753927e-01  4.088261010214032e-01 -3.373857936562172e-17

-2.523832332211618e-17  1.757374204190826e-19  9.883357775119290e-01
 1.757374204190826e-19 -1.491902434773247e-17  4.118946446675383e-01
 9.883357775119290e-01  4.118946446675383e-01 -3.390023634351220e-17

-2.537375745519636e-17  8.097827525652743e-20  1.000796259982949e+00
 8.097827525652743e-20 -1.512293027301326e-17  4.104099473601730e-01
 1.000796259982949e+00  4.104099473601730e-01 -3.427150896128139e-17

-2.556290585471360e-17 -2.548822419453617e-20  1.011481215258849e+00
-2.548822419453617e-20 -1.495020315678039e-17  4.305737922040139e-01
 1.011481215258849e+00  4.305737922040139e-01 -3.457903989392781e-17

-2.547926787641044e-17 -9.120703304443930e-20  1.009944913934398e+00
-9.120703304443930e-20 -1.487119490243720e-17  4.321839337646162e-01
 1.009944913934398e+00  4.321839337646162e-01 -3.440628435586181e-17

-2.540718365469885e-17 -1.245817793028852e-19  1.010639221283506e+00
-1.245817793028852e-19 -1.481996476843728e-17  4.250035944925744e-01
 1.010639221283506e+00  4.250035944925744e-01 -3.431804933490329e-17

-2.480443990943752e-17 -2.163443048147914e-19  9.509095806067406e-01
-2.163443048147914e-19 -1.332149703721788e-17  5.041975075064262e-01
 9.509095806067406e-01  5.041975075064262e-01 -3.227250768068812e-17

-2.533480875116665e-17 -7.870536338836599e-20  1.025268075355336e+00
-7.870536338836599e-20 -1.532226337100406e-17  3.688142576804860e-01
 1.025268075355336e+00  3.688142576804860e-01 -3.454648410831103e-17

-2.487662479768956e-17 -1.053829248493128e-19  9.716847161362802e-01
-1.053829248493128e-19 -1.420757034729538e-17  4.372857814613525e-01
 9.716847161362802e-01  4.372857814613525e-01 -3.275229864365138e-17

-2.556088870502681e-17 -1.723980394487837e-19  1.003931775283000e+00
-1.723980394487837e-19 -1.472940559268887e-17  4.368993061251576e-01
 1.003931775283000e+00  4.368993061251576e-01 -3.407373499518542e-17

-2.850486265675060e-17 -3.024716558386483e-19  1.243923791753069e+00
-3.024716558386483e-19 -1.849565717073828e-17  2.633415465835131e-01
 1.243923791753069e+00  2.633415465835131e-01 -4.259593703867912e-17

-2.457937843072526e-17  2.343778589844089e-19  8.704254255156981e-01
 2.343778589844089e-19 -1.124364149993118e-17  6.499949942848640e-01
 8.704254255156981e-01  6.499949942848640e-01 -2.955229402157877e-17

-2.567966337233079e-17  1.578832392701594e-19  9.461497561178221e-01
 1.578832392701594e-19 -1.180006921778667e-17  6.433859414351752e-01
 9.461497561178221e-01  6.433859414351752e-01 -3.242686030321457e-17

-2.606169072899392e-17  1.683978035988161e-19  1.031783411796731e+00
 1.683978035988161e-19 -1.533773818197601e-17  4.130767725562760e-01
 1.031783411796731e+00  4.130767725562760e-01 -3.508651917005107e-17

-2.620355139566417e-17  1.935677296799889e-19  1.031929037095736e+00
 1.935677296799889e-19 -1.491451374717345e-17  4.481622467623920e-01
 1.031929037095736e+00  4.481622467623920e-01 -3.530999151597867e-17

-2.617523213479384e-17  2.387402196380945e-19  1.014560390354303e+00
 2.387402196380945e-19 -1.417325283693339e-17  4.988803064731286e-01
 1.014560390354303e+00  4.988803064731286e-01 -3.477408459911241e-17

-2.670747241892885e-17  2.240839019867356e-19  1.065206455923932e+00
 2.240839019867356e-19 -1.529995233491607e-17  4.434068633521729e-01
 1.065206455923932e+00  4.434068633521729e-01 -3.660022693435146e-17

-2.645074891085827e-17  2.229456410609948e-19  1.049626737251847e+00
 2.229456410609948e-19 -1.519134588810854e-17  4.453429400077485e-01
 1.049626737251847e+00  4.453429400077485e-01 -3.604593511560378e-17

-2.628462490114682e-17  2.200312076868318e-19  1.037839478976954e+00
 2.200312076868318e-19 -1.492937242266080e-17  4.589707723498045e-01
 1.037839478976954e+00  4.589707723498045e-01 -3.561657880579034e-17

-2.592946757526755e-17  1.888776792287813e-19  1.017949893993282e+00
 1.888776792287813e-19 -1.515550848453396e-17  4.439934420888733e-01
 1.017949893993282e+00  4.439934420888733e-01 -3.487793574338134e-17

-2.678130359043502e-17  9.665115298596997e-20  1.082763361584800e+00
 9.665115298596997e-20 -1.656676464603649e-17  3.885218461615059e-01
 1.082763361584800e+00  3.885218461615059e-01 -3.731302485774750e-17

-2.701760899469569e-17  2.106713888020456e-19  1.078528754605218e+00
 2.106713888020456e-19 -1.578538058379918e-17  4.483036717860568e-01
 1.078528754605218e+00  4.483036717860568e-01 -3.720070225307763e-17

-2.721087393044181e-17  3.519636235306836e-19  1.072728772509772e+00
 3.519636235306836e-19 -1.493526780470142e-17  5.185515724178346e-01
 1.072728772509772e+00  5.185515724178346e-01 -3.705814317533249e-17

-2.773027559675821e-17  2.407323758590702e-19  1.114449677563078e+00
 2.407323758590702e-19 -1.612548149389314e-17  4.708060121786216e-01
 1.114449677563078e+00  4.708060121786216e-01 -3.868476129155373e-17

-2.687772529366231e-17  1.773696887928208e-19  1.070578380138306e+00
 1.773696887928208e-19 -1.695004300677374e-17  4.094392025770713e-01
 1.070578380138306e+00  4.094392025770713e-01 -3.696920361375114e-17

-2.764278707019262e-17 -9.408138601874676e-21  1.125776355288555e+00
-9.408138601874676e-21 -1.830733192319096e-17  3.614719824712114e-01
 1.125776355288555e+00  3.614719824712114e-01 -3.913309340103097e-17

-2.878030585610825e-17  3.578350785482261e-19  1.169867803137729e+00
 3.578350785482261e-19 -1.724108380908654e-17  4.734308237625750e-01
 1.169867803137729e+00  4.734308237625750e-01 -4.087462608360817e-17

-2.949775555378767e-17  1.879519228730356e-19  1.210896801911716e+00
 1.879519228730356e-19 -1.800908514864672e-17  4.715523917349361e-01
 1.210896801911716e+00  4.715523917349361e-01 -4.261257568623447e-17

-2.816281381790153e-17  2.160694183436893e-19  1.157702099663667e+00
 2.160694183436893e-19 -1.874299032125226e-17  3.722762799486312e-01
 1.157702099663667e+00  3.722762799486312e-01 -4.010067531413276e-17

-2.807664155587574e-17  1.547554960286393e-19  1.139695716327760e+00
 1.547554960286393e-19 -1.797810011434501e-17  4.218320224648834e-01
 1.139695716327760e+00  4.218320224648834e-01 -3.960300376392187e-17

-2.892424374171779e-17  1.244368499496569e-19  1.189025903200659e+00
 1.244368499496569e-19 -1.786887436499653e-17  4.553634752943697e-01
 1.189025903200659e+00  4.553634752943697e-01 -4.149812623516128e-17

-2.882247649086663e-17 -2.291300644098606e-20  1.172189054912077e+00
-2.291300644098606e-20 -1.714537187008212e-17  5.025406992371425e-01
 1.172189054912077e+00  5.025406992371425e-01 -4.108695207842272e-17

-2.836222161989817e-17 -6.909073810498825e-20  1.149324314393989e+00
-6.909073810498825e-20 -1.685346484026531e-17  4.949149477940739e-01
 1.149324314393989e+00  4.949149477940739e-01 -4.018021735039078e-17

-2.705459505324083e-17  6.188043563502664e-20  1.099328785358491e+00
 6.188043563502664e-20 -1.643342754169397e-17  4.367770568204006e-01
 1.099328785358491e+00  4.367770568204006e-01 -3.771355018136897e-17

-2.602832588403405e-17  1.777348117189039e-21  1.043430369533435e+00
 1.777348117189039e-21 -1.516633427479756e-17  4.569511696663309e-01
 1.043430369533435e+00  4.569511696663309e-01 -3.560491737944679e-17

-2.573709918867519e-17 -3.065809857856408e-20  1.036553089610573e+00
-3.065809857856408e-20 -1.490466568085343e-17  4.430265332941660e-01
 1.036553089610573e+00  4.430265332941660e-01 -3.527309131358035e-17

-2.629990537803203e-17 -3.588199908291687e-20  1.092873686404700e+00
-3.588199908291687e-20 -1.576637884716755e-17  3.872708060760851e-01
 1.092873686404700e+00  3.872708060760851e-01 -3.723179219042823e-17

-2.590249137393294e-17 -1.015750432376141e-19  1.042008562687598e+00
-1.015750432376141e-19 -1.412575853879064e-17  4.855446276540907e-01
 1.042008562687598e+00  4.855446276540907e-01 -3.558312588403148e-17

-2.537305022875281e-17 -1.098301614621681e-19  1.017337954603525e+00
-1.098301614621681e-19 -1.381956748983062e-17  4.735267548058256e-01
 1.017337954603525e+00  4.735267548058256e-01 -3.458591572108119e-17

-2.419988738525174e-17 -7.981799799044843e-20  9.502846309247364e-01
-7.981799799044843e-20 -1.358534591761572e-17  4.474311547837193e-01
 9.502846309247364e-01  4.474311547837193e-01 -3.196441610846277e-17

-2.578405334121514e-17 -7.735698526628003e-20  1.045905939463013e+00
-7.735698526628003e-20 -1.446553636266785e-17  4.447379830759803e-01
 1.045905939463013e+00  4.447379830759803e-01 -3.554114322603185e-17

-2.746252049587212e-17 -6.794096582988693e-20  1.145010877967806e+00
-6.794096582988693e-20 -1.515935521057623e-17  4.559451938444170e-01
 1.145010877967806e+00  4.559451938444170e-01 -3.929101973803779e-17

-2.653727492837464e-17 -1.918472934858915e-19  1.083539866710010e+00
-1.918472934858915e-19 -1.441179411282810e-17  4.700734835886140e-01
 1.083539866710010e+00  4.700734835886140e-01 -3.725645063218726e-17

-2.477812857096936e-17  7.495050498297480e-20  1.003117070439206e+00
 7.495050498297480e-20 -1.380241811306716e-17  4.106501442926726e-01
 1.003117070439206e+00  4.106501442926726e-01 -3.359255979429698e-17

-2.372307428835257e-17  5.109614020312887e-20  9.361737603314080e-01
 5.109614020312887e-20 -1.281586545856163e-17  4.290413344514970e-01
 9.361737603314080e-01  4.290413344514970e-01 -3.129819509503123e-17

-2.429589622343595e-17  2.707829662577563e-20  9.638342841159133e-01
 2.707829662577563e-20 -1.244750154435468e-17  4.623663391267446e-01
 9.638342841159133e-01  4.623663391267446e-01 -3.253557609746702e-17

-2.479421460176200e-17  8.872433892594242e-20  9.941295357617962e-01
 8.872433892594242e-20 -1.300217347874419e-17  4.452568845951980e-01
 9.941295357617962e-01  4.452568845951980e-01 -3.372014002289571e-17

-2.505406553361756e-17  1.273857419903250e-19  1.009201243846521e+00
 1.273857419903250e-19 -1.341991721215562e-17  4.349994718944243e-01
 1.009201243846521e+00  4.349994718944243e-01 -3.433943742074925e-17

-2.517004722922552e-17  1.182883474403196e-19  1.018404106338864e+00
 1.182883474403196e-19 -1.363617673156621e-17  4.324125958465933e-01
 1.018404106338864e+00  4.324125958465933e-01 -3.467893627609990e-17

-2.533512848556293e-17  7.307129491304764e-20  1.029748135829300e+00
 7.307129491304764e-20 -1.369406962532223e-17  4.376617942326064e-01
 1.029748135829300e+00  4.376617942326064e-01 -3.507520541210618e-17

-2.497138167833049e-17  4.700898463834499e-20  1.009905557031463e+00
 4.700898463834499e-20 -1.364442860354034e-17  4.287544324252372e-01
 1.009905557031463e+00  4.287544324252372e-01 -3.424107041582294e-17

-2.468472162857027e-17  6.299582352414561e-20  9.800822057242908e-01
 6.299582352414561e-20 -1.299567655795222e-17  4.615112043523157e-01
 9.800822057242908e-01  4.615112043523157e-01 -3.317860882883890e-17

-2.486904172126345e-17  1.069291965655803e-19  9.942634231554156e-01
 1.069291965655803e-19 -1.312402190233383e-17  4.549529927874588e-01
 9.942634231554156e-01  4.549529927874588e-01 -3.370245174167523e-17

-2.521865719195275e-17  1.148965159160030e-19  1.017055620539349e+00
 1.148965159160030e-19 -1.357674853074374e-17  4.351978218092779e-01
 1.017055620539349e+00  4.351978218092779e-01 -3.453179062244541e-17

-2.526272350960204e-17  1.270190347516336e-19  1.016556140892851e+00
 1.270190347516336e-19 -1.359113612859913e-17  4.394288714346030e-01
 1.016556140892851e+00  4.394288714346030e-01 -3.456295752309773e-17

-2.609209101475847e-17  3.340369265077509e-19  1.038126252188171e+00
 3.340369265077509e-19 -1.390834328089097e-17  4.355280690744717e-01
 1.038126252188171e+00  4.355280690744717e-01 -3.539258871718358e-17

-2.931178373517341e-17  1.472336838484248e-18  1.042582664690785e+00
 1.472336838484248e-18 -1.453708703889106e-17  4.300489082231922e-01
 1.042582664690785e+00  4.300489082231922e-01 -3.559049820993318e-17

-5.141477270339809e-18 -7.169339664028032e-18  1.037688556481288e+00
-7.169339664028032e-18 -1.152966428048201e-17  4.248896624558224e-01
 1.037688556481288e+00  4.248896624558224e-01 -3.543746220790555e-17

 8.610493686433216e-19 -9.330848681427298e-18  1.030335675082339e+00
-9.330848681427298e-18 -1.038197042996216e-17  4.488501294286801e-01
 1.030335675082339e+00  4.488501294286801e-01 -3.522270403728700e-17

 1.305711936196207e-16 -5.627082622533934e-17  1.061782825309415e+00
-5.627082622533934e-17  6.188698704264859e-18  4.321232754595142e-01
 1.061782825309415e+00  4.321232754595142e-01 -3.638103849704552e-17

-1.669081964285574e-17 -3.074713379230376e-18  1.061621961496596e+00
-3.074713379230376e-18 -1.347495982604277e-17  3.905457756892908e-01
 1.061621961496596e+00  3.905457756892908e-01 -3.627827322190064e-17

-2.216211478702335e-17 -9.791781123598587e-19  1.028758288800733e+00
-9.791781123598587e-19 -1.347149799606334e-17  4.241770548290241e-01
 1.028758288800733e+00  4.241770548290241e-01 -3.511576944048306e-17

-1.734439396140403e-17 -2.416242144818069e-18  9.492167325065297e-01
-2.416242144818069e-18 -1.122136235307369e-17  5.169585345724982e-01
 9.492167325065297e-01  5.169585345724982e-01 -3.235640213405037e-17

-2.724437497154216e-17  9.559392043620177e-19  1.027602741546532e+00
 9.559392043620177e-19 -1.407535519669122e-17  4.144577497237226e-01
 1.027602741546532e+00  4.144577497237226e-01 -3.500605751880862e-17

-2.507902753893460e-17  3.794635588682513e-19  9.834745264845114e-01
 3.794635588682513e-19 -1.344859288796506e-17  4.260048632948008e-01
 9.834745264845114e-01  4.260048632948008e-01 -3.341780588530619e-17

-2.499772799452329e-17  1.514848308388801e-19  1.018500991695964e+00
 1.514848308388801e-19 -1.374764475545471e-17  4.182949861237154e-01
 1.018500991695964e+00  4.182949861237154e-01 -3.471513587159595e-17

-2.556989803140246e-17  2.234978317347546e-19  1.040363899582929e+00
 2.234978317347546e-19 -1.364453757948380e-17  4.390456539743037e-01
 1.040363899582929e+00  4.390456539743037e-01 -3.554203720995312e-17

-2.561671677829200e-17  1.827559815547547e-19  1.040598715413660e+00
 1.827559815547547e-19 -1.347692418998868e-17  4.518181205062051e-01
 1.040598715413660e+00  4.518181205062051e-01 -3.562646501851861e-17

-2.514386159784604e-17  2.042096608656952e-19  1.021352011423050e+00
 2.042096608656952e-19 -1.369705121373449e-17  4.177797391591718e-01
 1.021352011423050e+00  4.177797391591718e-01 -3.480569878786826e-17

-2.456798382203902e-17  2.198795331703522e-19  9.885711658470894e-01
 2.198795331703522e-19 -1.331521752797065e-17  4.158084022280645e-01
 9.885711658470894e-01  4.158084022280645e-01 -3.357082142738667e-17

-2.466378971546065e-17  2.203485010731502e-19  9.937683947047904e-01
 2.203485010731502e-19 -1.300577305564514e-17  4.300088020323450e-01
 9.937683947047904e-01  4.300088020323450e-01 -3.380090637493358e-17

-2.462477904826780e-17  2.305239414038644e-19  9.924916164676575e-01
 2.305239414038644e-19 -1.300328615689554e-17  4.268901817909369e-01
 9.924916164676575e-01  4.268901817909369e-01 -3.375760884067597e-17

-2.454939688081275e-17  2.376481731384636e-19  9.890434857814130e-01
 2.376481731384636e-19 -1.310005927132292e-17  4.188880450636058e-01
 9.890434857814130e-01  4.188880450636058e-01 -3.363432822008784e-17

-2.449667101061203e-17  2.589532894413499e-19  9.768425727598004e-01
 2.589532894413499e-19 -1.251394294081552e-17  4.531098879060722e-01
 9.768425727598004e-01  4.531098879060722e-01 -3.322597411864983e-17

-2.454340888634685e-17  2.648545035282482e-19  9.785703894358803e-01
 2.648545035282482e-19 -1.266758179387039e-17  4.441216345522240e-01
 9.785703894358803e-01  4.441216345522240e-01 -3.328947971159551e-17

-2.476213200006870e-17  2.523141505455018e-19  1.009707753274951e+00
 2.523141505455018e-19 -1.361538901018056e-17  3.900056954127010e-01
 1.009707753274951e+00  3.900056954127010e-01 -3.437478788157831e-17

-2.467049798472845e-17  2.670257978994239e-19  9.923704308783722e-01
 2.670257978994239e-19 -1.305939806487404e-17  4.271434925014664e-01
 9.923704308783722e-01  4.271434925014664e-01 -3.378791633386233e-17

-2.487317356385926e-17  2.763132299929013e-19  1.004632550743557e+00
 2.763132299929013e-19 -1.309131331643255e-17  4.295829805093385e-01
 1.004632550743557e+00  4.295829805093385e-01 -3.426068148666667e-17

-2.484788213034085e-17  2.736993803148972e-19  1.004265824009574e+00
 2.736993803148972e-19 -1.333467362096855e-17  4.179785835208487e-01
 1.004265824009574e+00  4.179785835208487e-01 -3.425125002297342e-17

-2.496095051164581e-17  2.740988289370637e-19  1.010877968137068e+00
 2.740988289370637e-19 -1.343208964609478e-17  4.123162875115579e-01
 1.010877968137068e+00  4.123162875115579e-01 -3.448564904494171e-17

-2.489010619255335e-17  2.813634093538527e-19  1.004440768151425e+00
 2.813634093538527e-19 -1.326711504696345e-17  4.276840531234509e-01
 1.004440768151425e+00  4.276840531234509e-01 -3.426871888163259e-17

-2.492262075503743e-17  2.730696379663677e-19  1.006304438123574e+00
 2.730696379663677e-19 -1.330306734680561e-17  4.256648933405043e-01
 1.006304438123574e+00  4.256648933405043e-01 -3.433477440180319e-17


CELL_DATA 1397
SCALARS dislocation_index int
LOOKUP_TABLE default
0
1
2
3
4
5
6
7
8
9
10
11
12
13
14
15
16
17
18
19
20
21
22
23
24
25
26
27
28
29
30
31
32
33
34
35
36
37
38
39
40
41
42
43
44
45
46
47
48
49
50
51
52
53
54
55
56
57
58
59
60
61
62
63
64
65
66
67
68
69
70
71
72
73
74
75
76
77
78
79
80
81
82
83
84
85
86
87
88
89
90
91
92
93
94
95
96
97
98
99
100
101
102
103
104
105
106
107
108
109
110
111
112
113
114
115
116
117
118
119
120
121
122
123
124
125
126
127
128
129
130
131
132
133
134
135
136
137
138
139
140
141
142
143
144
145
146
147
148
149
150
151
152
153
154
155
156
157
158
159
160
161
162
163
164
165
166
167
168
169
170
171
172
173
174
175
176
177
178
179
180
181
182
183
184
185
186
187
188
189
190
191
192
193
194
195
196
197
198
199
200
201
202
203
204
205
206
207
208
209
210
211
212
213
214
215
216
217
218
219
220
221
222
223
224
225
226
227
228
229
230
231
232
233
234
235
236
237
238
239
240
241
242
243
244
245
246
247
248
249
250
251
252
253
254
255
256
257
258
259
260
261
262
263
264
265
266
267
268
269
270
271
272
273
274
275
276
277
278
279
280
281
282
283
284
285
286
287
288
289
290
291
292
293
294
295
296
297
298
299
300
301
302
303
304
305
306
307
308
309
310
311
312
313
314
315
316
317
318
319
320
321
322
323
324
325
326
327
328
329
330
331
332
333
334
335
336
337
338
339
340
341
342
343
344
345
346
347
348
349
350
351
352
353
354
355
356
357
358
359
360
361
362
363
364
365
366
367
368
369
370
371
372
373
374
375
376
377
378
379
380
381
382
383
384
385
386
387
388
389
390
391
392
393
394
395
396
397
398
399
400
401
402
403
404
405
406
407
408
409
410
411
412
413
414
415
416
417
418
419
420
421
422
423
424
425
426
427
428
429
430
431
432
433
434
435
436
437
438
439
440
441
442
443
444
445
446
447
448
449
450
451
452
453
454
455
456
457
458
459
460
461
462
463
464
465
466
467
468
469
470
471
472
473
474
475
476
477
478
479
480
481
482
483
484
485
486
487
488
489
490
491
492
493
494
495
496
497
498
499
500
501
502
503
504
505
506
507
508
509
510
511
512
513
514
515
516
517
518
519
520
521
522
523
524
525
526
527
528
529
530
531
532
533
534
535
536
537
538
539
540
541
542
543
544
545
546
547
548
549
550
551
552
553
554
555
556
557
558
559
560
561
562
563
564
565
566
567
568
569
570
571
572
573
574
575
576
577
578
579
580
581
582
583
584
585
586
587
588
589
590
591
592
593
594
595
596
597
598
599
600
601
602
603
604
605
606
607
608
609
610
611
612
613
614
615
616
617
618
619
620
621
622
623
624
625
626
627
628
629
630
631
632
633
634
635
636
637
638
639
640
641
642
643
644
645
646
647
648
649
650
651
652
653
654
655
656
657
658
659
660
661
662
663
664
665
666
667
668
669
670
671
672
673
674
675
676
677
678
679
680
681
682
683
684
685
686
687
688
689
690
691
692
693
694
695
696
697
698
699
700
701
702
703
704
705
706
707
708
709
710
711
712
713
714
715
716
717
718
719
720
721
722
723
724
725
726
727
728
729
730
731
732
733
734
735
736
737
738
739
740
741
742
743
744
745
746
747
748
749
750
751
752
753
754
755
756
757
758
759
760
761
762
763
764
765
766
767
768
769
770
771
772
773
774
775
776
777
778
779
780
781
782
783
784
785
786
787
788
789
790
791
792
793
794
795
796
797
798
799
800
801
802
803
804
805
806
807
808
809
810
811
812
813
814
815
816
817
818
819
820
821
822
823
824
825
826
827
828
829
830
831
832
833
834
835
836
837
838
839
840
841
842
843
844
845
846
847
848
849
850
851
852
853
854
855
856
857
858
859
860
861
862
863
864
865
866
867
868
869
870
871
872
873
874
875
876
877
878
879
880
881
882
883
884
885
886
887
888
889
890
891
892
893
894
895
896
897
898
899
900
901
902
903
904
905
906
907
908
909
910
911
912
913
914
915
916
917
918
919
920
921
922
923
924
925
926
927
928
929
930
931
932
933
934
935
936
937
938
939
940
941
942
943
944
945
946
947
948
949
950
951
952
953
954
955
956
957
958
959
960
961
962
963
964
965
966
967
968
969
970
971
972
973
974
975
976
977
978
979
980
981
982
983
984
985
986
987
988
989
990
991
992
993
994
995
996
997
998
999
1000
1001
1002
1003
1004
1005
1006
1007
1008
1009
1010
1011
1012
1013
1014
1015
1016
1017
1018
1019
1020
1021
1022
1023
1024
1025
1026
1027
1028
1029
1030
1031
1032
1033
1034
1035
1036
1037
1038
1039
1040
1041
1042
1043
1044
1045
1046
1047
1048
1049
1050
1051
1052
1053
1054
1055
1056
1057
1058
1059
1060
1061
1062
1063
1064
1065
1066
1067
1068
1069
1070
1071
1072
1073
1074
1075
1076
1077
1078
1079
1080
1081
1082
1083
1084
1085
1086
1087
1088
1089
1090
1091
1092
1093
1094
1095
1096
1097
1098
1099
1100
1101
1102
1103
1104
1105
1106
1107
1108
1109
1110
1111
1112
1113
1114
1115
1116
1117
1118
1119
1120
1121
1122
1123
1124
1125
1126
1127
1128
1129
1130
1131
1132
1133
1134
1135
1136
1137
1138
1139
1140
1141
1142
1143
1144
1145
1146
1147
1148
1149
1150
1151
1152
1153
1154
1155
1156
1157
1158
1159
1160
1161
1162
1163
1164
1165
1166
1167
1168
1169
1170
1171
1172
1173
1174
1175
1176
1177
1178
1179
1180
1181
1182
1183
1184
1185
1186
1187
1188
1189
1190
1191
1192
1193
1194
1195
1196
1197
1198
1199
1200
1201
1202
1203
1204
1205
1206
1207
1208
1209
1210
1211
1212
1213
1214
1215
1216
1217
1218
1219
1220
1221
1222
1223
1224
1225
1226
1227
1228
1229
1230
1231
1232
1233
1234
1235
1236
1237
1238
1239
1240
1241
1242
1243
1244
1245
1246
1247
1248
1249
1250
1251
1252
1253
1254
1255
1256
1257
1258
1259
1260
1261
1262
1263
1264
1265
1266
1267
1268
1269
1270
1271
1272
1273
1274
1275
1276
1277
1278
1279
1280
1281
1282
1283
1284
1285
1286
1287
1288
1289
1290
1291
1292
1293
1294
1295
1296
1297
1298
1299
1300
1301
1302
1303
1304
1305
1306
1307
1308
1309
1310
1311
1312
1313
1314
1315
1316
1317
1318
1319
1320
1321
1322
1323
1324
1325
1326
1327
1328
1329
1330
1331
1332
1333
1334
1335
1336
1337
1338
1339
1340
1341
1342
1343
1344
1345
1346
1347
1348
1349
1350
1351
1352
1353
1354
1355
1356
1357
1358
1359
1360
1361
1362
1363
1364
1365
1366
1367
1368
1369
1370
1371
1372
1373
1374
1375
1376
1377
1378
1379
1380
1381
1382
1383
1384
1385
1386
1387
1388
1389
1390
1391
1392
1393
1394
1395
1396

VECTORS burgers_vector_global double
-1.429999999999999e+00 -8.256108849411650e-01  3.393140768766017e-17
 1.429999999999999e+00  8.256108849411650e-01 -3.393140768766017e-17
-1.429999999999999e+00 -8.256108849411650e-01  3.393140768766017e-17
-1.429999999999999e+00 -8.256108849411650e-01  3.393140768766017e-17
-1.429999999999999e+00 -8.256108849411650e-01  3.393140768766017e-17
-1.429999999999999e+00 -8.256108849411650e-01  3.393140768766017e-17
-1.429999999999999e+00 -8.256108849411650e-01  3.393140768766017e-17
-1.429999999999999e+00 -8.256108849411650e-01  3.393140768766017e-17
-1.429999999999999e+00 -8.256108849411650e-01  3.393140768766017e-17
-1.429999999999999e+00 -8.256108849411650e-01  3.393140768766017e-17
-1.429999999999999e+00 -8.256108849411650e-01  3.393140768766017e-17
-1.429999999999999e+00 -8.256108849411650e-01  3.393140768766017e-17
-1.429999999999999e+00 -8.256108849411650e-01  3.393140768766017e-17
-1.429999999999999e+00 -8.256108849411650e-01  3.393140768766017e-17
-1.429999999999999e+00 -8.256108849411650e-01  3.393140768766017e-17
-1.429999999999999e+00 -8.256108849411650e-01  3.393140768766017e-17
-1.429999999999999e+00 -8.256108849411650e-01  3.393140768766017e-17
-1.429999999999999e+00 -8.256108849411650e-01  3.393140768766017e-17
-1.429999999999999e+00 -8.256108849411650e-01  3.393140768766017e-17
-1.429999999999999e+00 -8.256108849411650e-01  3.393140768766017e-17
-1.429999999999999e+00 -8.256108849411650e-01  3.393140768766017e-17
-1.429999999999999e+00 -8.256108849411650e-01  3.393140768766017e-17
-1.429999999999999e+00 -8.256108849411650e-01  3.393140768766017e-17
-1.429999999999999e+00 -8.256108849411650e-01  3.393140768766017e-17
-1.429999999999999e+00 -8.256108849411650e-01  3.393140768766017e-17
-1.429999999999999e+00 -8.256108849411650e-01  3.393140768766017e-17
-1.429999999999999e+00 -8.256108849411650e-01  3.393140768766017e-17
-1.429999999999999e+00 -8.256108849411650e-01  3.393140768766017e-17
-1.429999999999999e+00 -8.256108849411650e-01  3.393140768766017e-17
-1.429999999999999e+00 -8.256108849411650e-01  3.393140768766017e-17
-1.429999999999999e+00 -8.256108849411650e-01  3.393140768766017e-17
-1.429999999999999e+00 -8.256108849411650e-01  3.393140768766017e-17
-1.429999999999999e+00 -8.256108849411650e-01  3.393140768766017e-17
-1.429999999999999e+00 -8.256108849411650e-01  3.393140768766017e-17
-1.429999999999999e+00 -8.256108849411650e-01  3.393140768766017e-17
-1.429999999999999e+00 -8.256108849411650e-01  3.393140768766017e-17
-1.429999999999999e+00 -8.256108849411650e-01  3.393140768766017e-17
-1.429999999999999e+00 -8.256108849411650e-01  3.393140768766017e-17
-1.429999999999999e+00 -8.256108849411650e-01  3.393140768766017e-17
-1.429999999999999e+00 -8.256108849411650e-01  3.393140768766017e-17
-1.429999999999999e+00 -8.256108849411650e-01  3.393140768766017e-17
-1.429999999999999e+00 -8.256108849411650e-01  3.393140768766017e-17
-1.429999999999999e+00 -8.256108849411650e-01  3.393140768766017e-17
-1.429999999999999e+00 -8.256108849411650e-01  3.393140768766017e-17
-1.429999999999999e+00 -8.256108849411650e-01  3.393140768766017e-17
-1.429999999999999e+00 -8.256108849411650e-01  3.393140768766017e-17
-1.429999999999999e+00 -8.256108849411650e-01  3.393140768766017e-17
-1.429999999999999e+00 -8.256108849411650e-01  3.393140768766017e-17
-1.429999999999999e+00 -8.256108849411650e-01  3.393140768766017e-17
-1.429999999999999e+00 -8.256108849411650e-01  3.393140768766017e-17
-1.429999999999999e+00 -8.256108849411650e-01  3.393140768766017e-17
-1.429999999999999e+00 -8.256108849411650e-01  3.393140768766017e-17
-1.429999999999999e+00 -8.256108849411650e-01  3.393140768766017e-17
-1.429999999999999e+00 -8.256108849411650e-01  3.393140768766017e-17
-1.429999999999999e+00 -8.256108849411650e-01  3.393140768766017e-17
-1.429999999999999e+00 -8.256108849411650e-01  3.393140768766017e-17
-1.429999999999999e+00 -8.256108849411650e-01  3.393140768766017e-17
-1.429999999999999e+00 -8.256108849411650e-01  3.393140768766017e-17
-1.429999999999999e+00 -8.256108849411650e-01  3.393140768766017e-17
-1.429999999999999e+00 -8.256108849411650e-01  3.393140768766017e-17
-1.429999999999999e+00 -8.256108849411650e-01  3.393140768766017e-17
-1.429999999999999e+00 -8.256108849411650e-01  3.393140768766017e-17
-1.429999999999999e+00 -8.256108849411650e-01  3.393140768766017e-17
-1.429999999999999e+00 -8.256108849411650e-01  3.393140768766017e-17
-1.429999999999999e+00 -8.256108849411650e-01  3.393140768766017e-17
-1.429999999999999e+00 -8.256108849411650e-01  3.393140768766017e-17
-1.429999999999999e+00 -8.256108849411650e-01  3.393140768766017e-17
-1.429999999999999e+00 -8.256108849411650e-01  3.393140768766017e-17
-1.429999999999999e+00 -8.256108849411650e-01  3.393140768766017e-17
-1.429999999999999e+00 -8.256108849411650e-01  3.393140768766017e-17
-1.429999999999999e+00 -8.256108849411650e-01  3.393140768766017e-17
-1.429999999999999e+00 -8.256108849411650e-01  3.393140768766017e-17
-1.429999999999999e+00 -8.256108849411650e-01  3.393140768766017e-17
-1.429999999999999e+00 -8.256108849411650e-01  3.393140768766017e-17
-1.429999999999999e+00 -8.256108849411650e-01  3.393140768766017e-17
-1.429999999999999e+00 -8.256108849411650e-01  3.393140768766017e-17
-1.429999999999999e+00 -8.256108849411650e-01  3.393140768766017e-17
-1.429999999999999e+00 -8.256108849411650e-01  3.393140768766017e-17
-1.429999999999999e+00 -8.256108849411650e-01  3.393140768766017e-17
-1.429999999999999e+00 -8.256108849411650e-01  3.393140768766017e-17
-1.429999999999999e+00 -8.256108849411650e-01  3.393140768766017e-17
-1.429999999999999e+00 -8.256108849411650e-01  3.393140768766017e-17
-1.429999999999999e+00 -8.256108849411650e-01  3.393140768766017e-17
-1.429999999999999e+00 -8.256108849411650e-01  3.393140768766017e-17
-1.429999999999999e+00 -8.256108849411650e-01  3.393140768766017e-17
-1.429999999999999e+00 -8.256108849411650e-01  3.393140768766017e-17
-1.429999999999999e+00 -8.256108849411650e-01  3.393140768766017e-17
-1.429999999999999e+00 -8.256108849411650e-01  3.393140768766017e-17
-1.429999999999999e+00 -8.256108849411650e-01  3.393140768766017e-17
-1.429999999999999e+00 -8.256108849411650e-01  3.393140768766017e-17
-1.429999999999999e+00 -8.256108849411650e-01  3.393140768766017e-17
-1.429999999999999e+00 -8.256108849411650e-01  3.393140768766017e-17
-1.429999999999999e+00 -8.256108849411650e-01  3.393140768766017e-17
-1.429999999999999e+00 -8.256108849411650e-01  3.393140768766017e-17
-1.429999999999999e+00 -8.256108849411650e-01  3.393140768766017e-17
-1.429999999999999e+00 -8.256108849411650e-01  3.393140768766017e-17
-1.429999999999999e+00 -8.256108849411650e-01  3.393140768766017e-17
-1.429999999999999e+00 -8.256108849411650e-01  3.393140768766017e-17
-1.429999999999999e+00 -8.256108849411650e-01  3.393140768766017e-17
-1.429999999999999e+00 -8.256108849411650e-01  3.393140768766017e-17
-1.429999999999999e+00 -8.256108849411650e-01  3.393140768766017e-17
-1.429999999999999e+00 -8.256108849411650e-01  3.393140768766017e-17
-1.429999999999999e+00 -8.256108849411650e-01  3.393140768766017e-17
-1.429999999999999e+00 -8.256108849411650e-01  3.393140768766017e-17
-1.429999999999999e+00 -8.256108849411650e-01  3.393140768766017e-17
-1.429999999999999e+00 -8.256108849411650e-01  3.393140768766017e-17
-1.429999999999999e+00 -8.256108849411650e-01  3.393140768766017e-17
-1.429999999999999e+00 -8.256108849411650e-01  3.393140768766017e-17
-1.429999999999999e+00 -8.256108849411650e-01  3.393140768766017e-17
-1.429999999999999e+00 -8.256108849411650e-01  3.393140768766017e-17
-1.429999999999999e+00 -8.256108849411650e-01  3.393140768766017e-17
-1.429999999999999e+00 -8.256108849411650e-01  3.393140768766017e-17
-1.429999999999999e+00 -8.256108849411650e-01  3.393140768766017e-17
-1.429999999999999e+00 -8.256108849411650e-01  3.393140768766017e-17
-1.429999999999999e+00 -8.256108849411650e-01  3.393140768766017e-17
-1.429999999999999e+00 -8.256108849411650e-01  3.393140768766017e-17
-1.429999999999999e+00 -8.256108849411650e-01  3.393140768766017e-17
-1.429999999999999e+00 -8.256108849411650e-01  3.393140768766017e-17
-1.429999999999999e+00 -8.256108849411650e-01  3.393140768766017e-17
-1.429999999999999e+00 -8.256108849411650e-01  3.393140768766017e-17
-1.429999999999999e+00 -8.256108849411650e-01  3.393140768766017e-17
-1.429999999999999e+00 -8.256108849411650e-01  3.393140768766017e-17
-1.429999999999999e+00 -8.256108849411650e-01  3.393140768766017e-17
-1.429999999999999e+00 -8.256108849411650e-01  3.393140768766017e-17
-1.429999999999999e+00 -8.256108849411650e-01  3.393140768766017e-17
-1.429999999999999e+00 -8.256108849411650e-01  3.393140768766017e-17
-1.429999999999999e+00 -8.256108849411650e-01  3.393140768766017e-17
-1.429999999999999e+00 -8.256108849411650e-01  3.393140768766017e-17
-1.429999999999999e+00 -8.256108849411650e-01  3.393140768766017e-17
-1.429999999999999e+00 -8.256108849411650e-01  3.393140768766017e-17
-1.429999999999999e+00 -8.256108849411650e-01  3.393140768766017e-17
-1.429999999999999e+00 -8.256108849411650e-01  3.393140768766017e-17
-1.429999999999999e+00 -8.256108849411650e-01  3.393140768766017e-17
-1.429999999999999e+00 -8.256108849411650e-01  3.393140768766017e-17
-1.429999999999999e+00 -8.256108849411650e-01  3.393140768766017e-17
-1.429999999999999e+00 -8.256108849411650e-01  3.393140768766017e-17
-1.429999999999999e+00 -8.256108849411650e-01  3.393140768766017e-17
-1.429999999999999e+00 -8.256108849411650e-01  3.393140768766017e-17
-1.429999999999999e+00 -8.256108849411650e-01  3.393140768766017e-17
-1.429999999999999e+00 -8.256108849411650e-01  3.393140768766017e-17
-1.429999999999999e+00 -8.256108849411650e-01  3.393140768766017e-17
-1.429999999999999e+00 -8.256108849411650e-01  3.393140768766017e-17
-1.429999999999999e+00 -8.256108849411650e-01  3.393140768766017e-17
-1.429999999999999e+00 -8.256108849411650e-01  3.393140768766017e-17
-1.429999999999999e+00 -8.256108849411650e-01  3.393140768766017e-17
-1.429999999999999e+00 -8.256108849411650e-01  3.393140768766017e-17
-1.429999999999999e+00 -8.256108849411650e-01  3.393140768766017e-17
-1.429999999999999e+00 -8.256108849411650e-01  3.393140768766017e-17
-1.429999999999999e+00 -8.256108849411650e-01  3.393140768766017e-17
-1.429999999999999e+00 -8.256108849411650e-01  3.393140768766017e-17
-1.429999999999999e+00 -8.256108849411650e-01  3.393140768766017e-17
-1.429999999999999e+00 -8.256108849411650e-01  3.393140768766017e-17
-1.429999999999999e+00 -8.256108849411650e-01  3.393140768766017e-17
-1.429999999999999e+00 -8.256108849411650e-01  3.393140768766017e-17
-1.429999999999999e+00 -8.256108849411650e-01  3.393140768766017e-17
-1.429999999999999e+00 -8.256108849411650e-01  3.393140768766017e-17
-1.429999999999999e+00 -8.256108849411650e-01  3.393140768766017e-17
-1.429999999999999e+00 -8.256108849411650e-01  3.393140768766017e-17
-1.429999999999999e+00 -8.256108849411650e-01  3.393140768766017e-17
-1.429999999999999e+00 -8.256108849411650e-01  3.393140768766017e-17
-1.429999999999999e+00 -8.256108849411650e-01  3.393140768766017e-17
-1.429999999999999e+00 -8.256108849411650e-01  3.393140768766017e-17
-1.429999999999999e+00 -8.256108849411650e-01  3.393140768766017e-17
-1.429999999999999e+00 -8.256108849411650e-01  3.393140768766017e-17
-1.429999999999999e+00 -8.256108849411650e-01  3.393140768766017e-17
-1.429999999999999e+00 -8.256108849411650e-01  3.393140768766017e-17
-1.429999999999999e+00 -8.256108849411650e-01  3.393140768766017e-17
-1.429999999999999e+00 -8.256108849411650e-01  3.393140768766017e-17
-1.429999999999999e+00 -8.256108849411650e-01  3.393140768766017e-17
-1.429999999999999e+00 -8.256108849411650e-01  3.393140768766017e-17
-1.429999999999999e+00 -8.256108849411650e-01  3.393140768766017e-17
-1.429999999999999e+00 -8.256108849411650e-01  3.393140768766017e-17
-1.429999999999999e+00 -8.256108849411650e-01  3.393140768766017e-17
-1.429999999999999e+00 -8.256108849411650e-01  3.393140768766017e-17
-1.429999999999999e+00 -8.256108849411650e-01  3.393140768766017e-17
-1.429999999999999e+00 -8.256108849411650e-01  3.393140768766017e-17
-1.429999999999999e+00 -8.256108849411650e-01  3.393140768766017e-17
-1.429999999999999e+00 -8.256108849411650e-01  3.393140768766017e-17
-1.429999999999999e+00 -8.256108849411650e-01  3.393140768766017e-17
-1.429999999999999e+00 -8.256108849411650e-01  3.393140768766017e-17
-1.429999999999999e+00 -8.256108849411650e-01  3.393140768766017e-17
-1.429999999999999e+00 -8.256108849411650e-01  3.393140768766017e-17
-1.429999999999999e+00 -8.256108849411650e-01  3.393140768766017e-17
-1.429999999999999e+00 -8.256108849411650e-01  3.393140768766017e-17
-1.429999999999999e+00 -8.256108849411650e-01  3.393140768766017e-17
 1.429999999999999e+00  8.256108849411650e-01 -3.393140768766017e-17
-1.429999999999999e+00 -8.256108849411650e-01  3.393140768766017e-17
-1.429999999999999e+00 -8.256108849411650e-01  3.393140768766017e-17
-1.429999999999999e+00 -8.256108849411650e-01  3.393140768766017e-17
-1.429999999999999e+00 -8.256108849411650e-01  3.393140768766017e-17
-1.429999999999999e+00 -8.256108849411650e-01  3.393140768766017e-17
-1.429999999999999e+00 -8.256108849411650e-01  3.393140768766017e-17
-1.429999999999999e+00 -8.256108849411650e-01  3.393140768766017e-17
-1.429999999999999e+00 -8.256108849411650e-01  3.393140768766017e-17
-1.429999999999999e+00 -8.256108849411650e-01  3.393140768766017e-17
-1.429999999999999e+00 -8.256108849411650e-01  3.393140768766017e-17
-1.429999999999999e+00 -8.256108849411650e-01  3.393140768766017e-17
-1.429999999999999e+00 -8.256108849411650e-01  3.393140768766017e-17
-1.429999999999999e+00 -8.256108849411650e-01  3.393140768766017e-17
-1.429999999999999e+00 -8.256108849411650e-01  3.393140768766017e-17
-1.429999999999999e+00 -8.256108849411650e-01  3.393140768766017e-17
-1.429999999999999e+00 -8.256108849411650e-01  3.393140768766017e-17
-1.429999999999999e+00 -8.256108849411650e-01  3.393140768766017e-17
-1.429999999999999e+00 -8.256108849411650e-01  3.393140768766017e-17
-1.429999999999999e+00 -8.256108849411650e-01  3.393140768766017e-17
-1.429999999999999e+00 -8.256108849411650e-01  3.393140768766017e-17
-1.429999999999999e+00 -8.256108849411650e-01  3.393140768766017e-17
-1.429999999999999e+00 -8.256108849411650e-01  3.393140768766017e-17
-1.429999999999999e+00 -8.256108849411650e-01  3.393140768766017e-17
-1.429999999999999e+00 -8.256108849411650e-01  3.393140768766017e-17
-1.429999999999999e+00 -8.256108849411650e-01  3.393140768766017e-17
-1.429999999999999e+00 -8.256108849411650e-01  3.393140768766017e-17
-1.429999999999999e+00 -8.256108849411650e-01  3.393140768766017e-17
-1.429999999999999e+00 -8.256108849411650e-01  3.393140768766017e-17
-1.429999999999999e+00 -8.256108849411650e-01  3.393140768766017e-17
-1.429999999999999e+00 -8.256108849411650e-01  3.393140768766017e-17
-1.429999999999999e+00 -8.256108849411650e-01  3.393140768766017e-17
-1.429999999999999e+00 -8.256108849411650e-01  3.393140768766017e-17
-1.429999999999999e+00 -8.256108849411650e-01  3.393140768766017e-17
-1.429999999999999e+00 -8.256108849411650e-01  3.393140768766017e-17
-1.429999999999999e+00 -8.256108849411650e-01  3.393140768766017e-17
-1.429999999999999e+00 -8.256108849411650e-01  3.393140768766017e-17
-1.429999999999999e+00 -8.256108849411650e-01  3.393140768766017e-17
-1.429999999999999e+00 -8.256108849411650e-01  3.393140768766017e-17
-1.429999999999999e+00 -8.256108849411650e-01  3.393140768766017e-17
-1.429999999999999e+00 -8.256108849411650e-01  3.393140768766017e-17
-1.429999999999999e+00 -8.256108849411650e-01  3.393140768766017e-17
-1.429999999999999e+00 -8.256108849411650e-01  3.393140768766017e-17
-1.429999999999999e+00 -8.256108849411650e-01  3.393140768766017e-17
-1.429999999999999e+00 -8.256108849411650e-01  3.393140768766017e-17
-1.429999999999999e+00 -8.256108849411650e-01  3.393140768766017e-17
-1.429999999999999e+00 -8.256108849411650e-01  3.393140768766017e-17
-1.429999999999999e+00 -8.256108849411650e-01  3.393140768766017e-17
-1.429999999999999e+00 -8.256108849411650e-01  3.393140768766017e-17
-1.429999999999999e+00 -8.256108849411650e-01  3.393140768766017e-17
-1.429999999999999e+00 -8.256108849411650e-01  3.393140768766017e-17
-1.429999999999999e+00 -8.256108849411650e-01  3.393140768766017e-17
-1.429999999999999e+00 -8.256108849411650e-01  3.393140768766017e-17
-1.429999999999999e+00 -8.256108849411650e-01  3.393140768766017e-17
-1.429999999999999e+00 -8.256108849411650e-01  3.393140768766017e-17
-1.429999999999999e+00 -8.256108849411650e-01  3.393140768766017e-17
-1.429999999999999e+00 -8.256108849411650e-01  3.393140768766017e-17
-1.429999999999999e+00 -8.256108849411650e-01  3.393140768766017e-17
-1.429999999999999e+00 -8.256108849411650e-01  3.393140768766017e-17
-1.429999999999999e+00 -8.256108849411650e-01  3.393140768766017e-17
-1.429999999999999e+00 -8.256108849411650e-01  3.393140768766017e-17
-1.429999999999999e+00 -8.256108849411650e-01  3.393140768766017e-17
-1.429999999999999e+00 -8.256108849411650e-01  3.393140768766017e-17
-1.429999999999999e+00 -8.256108849411650e-01  3.393140768766017e-17
-1.429999999999999e+00 -8.256108849411650e-01  3.393140768766017e-17
-1.429999999999999e+00 -8.256108849411650e-01  3.393140768766017e-17
-1.429999999999999e+00 -8.256108849411650e-01  3.393140768766017e-17
-1.429999999999999e+00 -8.256108849411650e-01  3.393140768766017e-17
-1.429999999999999e+00 -8.256108849411650e-01  3.393140768766017e-17
-1.429999999999999e+00 -8.256108849411650e-01  3.393140768766017e-17
-1.429999999999999e+00 -8.256108849411650e-01  3.393140768766017e-17
-1.429999999999999e+00 -8.256108849411650e-01  3.393140768766017e-17
-1.429999999999999e+00 -8.256108849411650e-01  3.393140768766017e-17
-1.429999999999999e+00 -8.256108849411650e-01  3.393140768766017e-17
-1.429999999999999e+00 -8.256108849411650e-01  3.393140768766017e-17
-1.429999999999999e+00 -8.256108849411650e-01  3.393140768766017e-17
-1.429999999999999e+00 -8.256108849411650e-01  3.393140768766017e-17
-1.429999999999999e+00 -8.256108849411650e-01  3.393140768766017e-17
-1.429999999999999e+00 -8.256108849411650e-01  3.393140768766017e-17
-1.429999999999999e+00 -8.256108849411650e-01  3.393140768766017e-17
-1.429999999999999e+00 -8.256108849411650e-01  3.393140768766017e-17
-1.429999999999999e+00 -8.256108849411650e-01  3.393140768766017e-17
-1.429999999999999e+00 -8.256108849411650e-01  3.393140768766017e-17
-1.429999999999999e+00 -8.256108849411650e-01  3.393140768766017e-17
-1.429999999999999e+00 -8.256108849411650e-01  3.393140768766017e-17
-1.429999999999999e+00 -8.256108849411650e-01  3.393140768766017e-17
-1.429999999999999e+00 -8.256108849411650e-01  3.393140768766017e-17
-1.429999999999999e+00 -8.256108849411650e-01  3.393140768766017e-17
-1.429999999999999e+00 -8.256108849411650e-01  3.393140768766017e-17
-1.429999999999999e+00 -8.256108849411650e-01  3.393140768766017e-17
-1.429999999999999e+00 -8.256108849411650e-01  3.393140768766017e-17
-1.429999999999999e+00 -8.256108849411650e-01  3.393140768766017e-17
-1.429999999999999e+00 -8.256108849411650e-01  3.393140768766017e-17
-1.429999999999999e+00 -8.256108849411650e-01  3.393140768766017e-17
-1.429999999999999e+00 -8.256108849411650e-01  3.393140768766017e-17
-1.429999999999999e+00 -8.256108849411650e-01  3.393140768766017e-17
-1.429999999999999e+00 -8.256108849411650e-01  3.393140768766017e-17
-1.429999999999999e+00 -8.256108849411650e-01  3.393140768766017e-17
-1.429999999999999e+00 -8.256108849411650e-01  3.393140768766017e-17
-1.429999999999999e+00 -8.256108849411650e-01  3.393140768766017e-17
-1.429999999999999e+00 -8.256108849411650e-01  3.393140768766017e-17
-1.429999999999999e+00 -8.256108849411650e-01  3.393140768766017e-17
-1.429999999999999e+00 -8.256108849411650e-01  3.393140768766017e-17
-1.429999999999999e+00 -8.256108849411650e-01  3.393140768766017e-17
-1.429999999999999e+00 -8.256108849411650e-01  3.393140768766017e-17
-1.429999999999999e+00 -8.256108849411650e-01  3.393140768766017e-17
-1.429999999999999e+00 -8.256108849411650e-01  3.393140768766017e-17
-1.429999999999999e+00 -8.256108849411650e-01  3.393140768766017e-17
-1.429999999999999e+00 -8.256108849411650e-01  3.393140768766017e-17
-1.429999999999999e+00 -8.256108849411650e-01  3.393140768766017e-17
-1.429999999999999e+00 -8.256108849411650e-01  3.393140768766017e-17
-1.429999999999999e+00 -8.256108849411650e-01  3.393140768766017e-17
-1.429999999999999e+00 -8.256108849411650e-01  3.393140768766017e-17
-1.429999999999999e+00 -8.256108849411650e-01  3.393140768766017e-17
-1.429999999999999e+00 -8.256108849411650e-01  3.393140768766017e-17
-1.429999999999999e+00 -8.256108849411650e-01  3.393140768766017e-17
-1.429999999999999e+00 -8.256108849411650e-01  3.393140768766017e-17
-1.429999999999999e+00 -8.256108849411650e-01  3.393140768766017e-17
-1.429999999999999e+00 -8.256108849411650e-01  3.393140768766017e-17
-1.429999999999999e+00 -8.256108849411650e-01  3.393140768766017e-17
-1.429999999999999e+00 -8.256108849411650e-01  3.393140768766017e-17
-1.429999999999999e+00 -8.256108849411650e-01  3.393140768766017e-17
-1.429999999999999e+00 -8.256108849411650e-01  3.393140768766017e-17
-1.429999999999999e+00 -8.256108849411650e-01  3.393140768766017e-17
-1.429999999999999e+00 -8.256108849411650e-01  3.393140768766017e-17
-1.429999999999999e+00 -8.256108849411650e-01  3.393140768766017e-17
-1.429999999999999e+00 -8.256108849411650e-01  3.393140768766017e-17
-1.429999999999999e+00 -8.256108849411650e-01  3.393140768766017e-17
-1.429999999999999e+00 -8.256108849411650e-01  3.393140768766017e-17
-1.429999999999999e+00 -8.256108849411650e-01  3.393140768766017e-17
-1.429999999999999e+00 -8.256108849411650e-01  3.393140768766017e-17
-1.429999999999999e+00 -8.256108849411650e-01  3.393140768766017e-17
-1.429999999999999e+00 -8.256108849411650e-01  3.393140768766017e-17
-1.429999999999999e+00 -8.256108849411650e-01  3.393140768766017e-17
-1.429999999999999e+00 -8.256108849411650e-01  3.393140768766017e-17
-1.429999999999999e+00 -8.256108849411650e-01  3.393140768766017e-17
-1.429999999999999e+00 -8.256108849411650e-01  3.393140768766017e-17
-1.429999999999999e+00 -8.256108849411650e-01  3.393140768766017e-17
-1.429999999999999e+00 -8.256108849411650e-01  3.393140768766017e-17
-1.429999999999999e+00 -8.256108849411650e-01  3.393140768766017e-17
-1.429999999999999e+00 -8.256108849411650e-01  3.393140768766017e-17
-1.429999999999999e+00 -8.256108849411650e-01  3.393140768766017e-17
-1.429999999999999e+00 -8.256108849411650e-01  3.393140768766017e-17
-1.429999999999999e+00 -8.256108849411650e-01  3.393140768766017e-17
-1.429999999999999e+00 -8.256108849411650e-01  3.393140768766017e-17
-1.429999999999999e+00 -8.256108849411650e-01  3.393140768766017e-17
-1.429999999999999e+00 -8.256108849411650e-01  3.393140768766017e-17
-1.429999999999999e+00 -8.256108849411650e-01  3.393140768766017e-17
-1.429999999999999e+00 -8.256108849411650e-01  3.393140768766017e-17
-1.429999999999999e+00 -8.256108849411650e-01  3.393140768766017e-17
-1.429999999999999e+00 -8.256108849411650e-01  3.393140768766017e-17
-1.429999999999999e+00 -8.256108849411650e-01  3.393140768766017e-17
-1.429999999999999e+00 -8.256108849411650e-01  3.393140768766017e-17
-1.429999999999999e+00 -8.256108849411650e-01  3.393140768766017e-17
-1.429999999999999e+00 -8.256108849411650e-01  3.393140768766017e-17
-1.429999999999999e+00 -8.256108849411650e-01  3.393140768766017e-17
-1.429999999999999e+00 -8.256108849411650e-01  3.393140768766017e-17
-1.429999999999999e+00 -8.256108849411650e-01  3.393140768766017e-17
-1.429999999999999e+00 -8.256108849411650e-01  3.393140768766017e-17
-1.429999999999999e+00 -8.256108849411650e-01  3.393140768766017e-17
-1.429999999999999e+00 -8.256108849411650e-01  3.393140768766017e-17
-1.429999999999999e+00 -8.256108849411650e-01  3.393140768766017e-17
-1.429999999999999e+00 -8.256108849411650e-01  3.393140768766017e-17
-1.429999999999999e+00 -8.256108849411650e-01  3.393140768766017e-17
-1.429999999999999e+00 -8.256108849411650e-01  3.393140768766017e-17
-1.429999999999999e+00 -8.256108849411650e-01  3.393140768766017e-17
-1.429999999999999e+00 -8.256108849411650e-01  3.393140768766017e-17
-1.429999999999999e+00 -8.256108849411650e-01  3.393140768766017e-17
-1.429999999999999e+00 -8.256108849411650e-01  3.393140768766017e-17
-1.429999999999999e+00 -8.256108849411650e-01  3.393140768766017e-17
-1.429999999999999e+00 -8.256108849411650e-01  3.393140768766017e-17
-1.429999999999999e+00 -8.256108849411650e-01  3.393140768766017e-17
-1.429999999999999e+00 -8.256108849411650e-01  3.393140768766017e-17
-1.429999999999999e+00 -8.256108849411650e-01  3.393140768766017e-17
-1.429999999999999e+00 -8.256108849411650e-01  3.393140768766017e-17
-1.429999999999999e+00 -8.256108849411650e-01  3.393140768766017e-17
-1.429999999999999e+00 -8.256108849411650e-01  3.393140768766017e-17
-1.429999999999999e+00 -8.256108849411650e-01  3.393140768766017e-17
-1.429999999999999e+00 -8.256108849411650e-01  3.393140768766017e-17
-1.429999999999999e+00 -8.256108849411650e-01  3.393140768766017e-17
 1.429999999999999e+00  8.256108849411650e-01 -3.393140768766017e-17
-1.429999999999999e+00 -8.256108849411650e-01  3.393140768766017e-17
 1.429999999999999e+00  8.256108849411650e-01 -3.393140768766017e-17
 1.429999999999999e+00  8.256108849411650e-01 -3.393140768766017e-17
 1.429999999999999e+00  8.256108849411650e-01 -3.393140768766017e-17
 1.429999999999999e+00  8.256108849411650e-01 -3.393140768766017e-17
 1.429999999999999e+00  8.256108849411650e-01 -3.393140768766017e-17
 1.429999999999999e+00  8.256108849411650e-01 -3.393140768766017e-17
 1.429999999999999e+00  8.256108849411650e-01 -3.393140768766017e-17
 1.429999999999999e+00  8.256108849411650e-01 -3.393140768766017e-17
 1.429999999999999e+00  8.256108849411650e-01 -3.393140768766017e-17
 1.429999999999999e+00  8.256108849411650e-01 -3.393140768766017e-17
 1.429999999999999e+00  8.256108849411650e-01 -3.393140768766017e-17
 1.429999999999999e+00  8.256108849411650e-01 -3.393140768766017e-17
 1.429999999999999e+00  8.256108849411650e-01 -3.393140768766017e-17
 1.429999999999999e+00  8.256108849411650e-01 -3.393140768766017e-17
 1.429999999999999e+00  8.256108849411650e-01 -3.393140768766017e-17
 1.429999999999999e+00  8.256108849411650e-01 -3.393140768766017e-17
 1.429999999999999e+00  8.256108849411650e-01 -3.393140768766017e-17
 1.429999999999999e+00  8.256108849411650e-01 -3.393140768766017e-17
 1.429999999999999e+00  8.256108849411650e-01 -3.393140768766017e-17
 1.429999999999999e+00  8.256108849411650e-01 -3.393140768766017e-17
 1.429999999999999e+00  8.256108849411650e-01 -3.393140768766017e-17
 1.429999999999999e+00  8.256108849411650e-01 -3.393140768766017e-17
 1.429999999999999e+00  8.256108849411650e-01 -3.393140768766017e-17
 1.429999999999999e+00  8.256108849411650e-01 -3.393140768766017e-17
 1.429999999999999e+00  8.256108849411650e-01 -3.393140768766017e-17
 1.429999999999999e+00  8.256108849411650e-01 -3.393140768766017e-17
 1.429999999999999e+00  8.256108849411650e-01 -3.393140768766017e-17
 1.429999999999999e+00  8.256108849411650e-01 -3.393140768766017e-17
 1.429999999999999e+00  8.256108849411650e-01 -3.393140768766017e-17
 1.429999999999999e+00  8.256108849411650e-01 -3.393140768766017e-17
 1.429999999999999e+00  8.256108849411650e-01 -3.393140768766017e-17
 1.429999999999999e+00  8.256108849411650e-01 -3.393140768766017e-17
 1.429999999999999e+00  8.256108849411650e-01 -3.393140768766017e-17
 1.429999999999999e+00  8.256108849411650e-01 -3.393140768766017e-17
 1.429999999999999e+00  8.256108849411650e-01 -3.393140768766017e-17
 1.429999999999999e+00  8.256108849411650e-01 -3.393140768766017e-17
 1.429999999999999e+00  8.256108849411650e-01 -3.393140768766017e-17
 1.429999999999999e+00  8.256108849411650e-01 -3.393140768766017e-17
 1.429999999999999e+00  8.256108849411650e-01 -3.393140768766017e-17
 1.429999999999999e+00  8.256108849411650e-01 -3.393140768766017e-17
 1.429999999999999e+00  8.256108849411650e-01 -3.393140768766017e-17
 1.429999999999999e+00  8.256108849411650e-01 -3.393140768766017e-17
 1.429999999999999e+00  8.256108849411650e-01 -3.393140768766017e-17
 1.429999999999999e+00  8.256108849411650e-01 -3.393140768766017e-17
 1.429999999999999e+00  8.256108849411650e-01 -3.393140768766017e-17
 1.429999999999999e+00  8.256108849411650e-01 -3.393140768766017e-17
 1.429999999999999e+00  8.256108849411650e-01 -3.393140768766017e-17
 1.429999999999999e+00  8.256108849411650e-01 -3.393140768766017e-17
 1.429999999999999e+00  8.256108849411650e-01 -3.393140768766017e-17
 1.429999999999999e+00  8.256108849411650e-01 -3.393140768766017e-17
 1.429999999999999e+00  8.256108849411650e-01 -3.393140768766017e-17
 1.429999999999999e+00  8.256108849411650e-01 -3.393140768766017e-17
 1.429999999999999e+00  8.256108849411650e-01 -3.393140768766017e-17
 1.429999999999999e+00  8.256108849411650e-01 -3.393140768766017e-17
 1.429999999999999e+00  8.256108849411650e-01 -3.393140768766017e-17
 1.429999999999999e+00  8.256108849411650e-01 -3.393140768766017e-17
 1.429999999999999e+00  8.256108849411650e-01 -3.393140768766017e-17
 1.429999999999999e+00  8.256108849411650e-01 -3.393140768766017e-17
 1.429999999999999e+00  8.256108849411650e-01 -3.393140768766017e-17
 1.429999999999999e+00  8.256108849411650e-01 -3.393140768766017e-17
 1.429999999999999e+00  8.256108849411650e-01 -3.393140768766017e-17
 1.429999999999999e+00  8.256108849411650e-01 -3.393140768766017e-17
 1.429999999999999e+00  8.256108849411650e-01 -3.393140768766017e-17
 1.429999999999999e+00  8.256108849411650e-01 -3.393140768766017e-17
 1.429999999999999e+00  8.256108849411650e-01 -3.393140768766017e-17
 1.429999999999999e+00  8.256108849411650e-01 -3.393140768766017e-17
 1.429999999999999e+00  8.256108849411650e-01 -3.393140768766017e-17
 1.429999999999999e+00  8.256108849411650e-01 -3.393140768766017e-17
 1.429999999999999e+00  8.256108849411650e-01 -3.393140768766017e-17
 1.429999999999999e+00  8.256108849411650e-01 -3.393140768766017e-17
 1.429999999999999e+00  8.256108849411650e-01 -3.393140768766017e-17
 1.429999999999999e+00  8.256108849411650e-01 -3.393140768766017e-17
 1.429999999999999e+00  8.256108849411650e-01 -3.393140768766017e-17
 1.429999999999999e+00  8.256108849411650e-01 -3.393140768766017e-17
 1.429999999999999e+00  8.256108849411650e-01 -3.393140768766017e-17
 1.429999999999999e+00  8.256108849411650e-01 -3.393140768766017e-17
 1.429999999999999e+00  8.256108849411650e-01 -3.393140768766017e-17
 1.429999999999999e+00  8.256108849411650e-01 -3.393140768766017e-17
 1.429999999999999e+00  8.256108849411650e-01 -3.393140768766017e-17
 1.429999999999999e+00  8.256108849411650e-01 -3.393140768766017e-17
 1.429999999999999e+00  8.256108849411650e-01 -3.393140768766017e-17
 1.429999999999999e+00  8.256108849411650e-01 -3.393140768766017e-17
 1.429999999999999e+00  8.256108849411650e-01 -3.393140768766017e-17
 1.429999999999999e+00  8.256108849411650e-01 -3.393140768766017e-17
 1.429999999999999e+00  8.256108849411650e-01 -3.393140768766017e-17
 1.429999999999999e+00  8.256108849411650e-01 -3.393140768766017e-17
 1.429999999999999e+00  8.256108849411650e-01 -3.393140768766017e-17
 1.429999999999999e+00  8.256108849411650e-01 -3.393140768766017e-17
 1.429999999999999e+00  8.256108849411650e-01 -3.393140768766017e-17
 1.429999999999999e+00  8.256108849411650e-01 -3.393140768766017e-17
 1.429999999999999e+00  8.256108849411650e-01 -3.393140768766017e-17
 1.429999999999999e+00  8.256108849411650e-01 -3.393140768766017e-17
 1.429999999999999e+00  8.256108849411650e-01 -3.393140768766017e-17
 1.429999999999999e+00  8.256108849411650e-01 -3.393140768766017e-17
 1.429999999999999e+00  8.256108849411650e-01 -3.393140768766017e-17
 1.429999999999999e+00  8.256108849411650e-01 -3.393140768766017e-17
 1.429999999999999e+00  8.256108849411650e-01 -3.393140768766017e-17
 1.429999999999999e+00  8.256108849411650e-01 -3.393140768766017e-17
 1.429999999999999e+00  8.256108849411650e-01 -3.393140768766017e-17
 1.429999999999999e+00  8.256108849411650e-01 -3.393140768766017e-17
 1.429999999999999e+00  8.256108849411650e-01 -3.393140768766017e-17
 1.429999999999999e+00  8.256108849411650e-01 -3.393140768766017e-17
 1.429999999999999e+00  8.256108849411650e-01 -3.393140768766017e-17
 1.429999999999999e+00  8.256108849411650e-01 -3.393140768766017e-17
 1.429999999999999e+00  8.256108849411650e-01 -3.393140768766017e-17
 1.429999999999999e+00  8.256108849411650e-01 -3.393140768766017e-17
 1.429999999999999e+00  8.256108849411650e-01 -3.393140768766017e-17
 1.429999999999999e+00  8.256108849411650e-01 -3.393140768766017e-17
 1.429999999999999e+00  8.256108849411650e-01 -3.393140768766017e-17
 1.429999999999999e+00  8.256108849411650e-01 -3.393140768766017e-17
 1.429999999999999e+00  8.256108849411650e-01 -3.393140768766017e-17
 1.429999999999999e+00  8.256108849411650e-01 -3.393140768766017e-17
 1.429999999999999e+00  8.256108849411650e-01 -3.393140768766017e-17
 1.429999999999999e+00  8.256108849411650e-01 -3.393140768766017e-17
 1.429999999999999e+00  8.256108849411650e-01 -3.393140768766017e-17
 1.429999999999999e+00  8.256108849411650e-01 -3.393140768766017e-17
 1.429999999999999e+00  8.256108849411650e-01 -3.393140768766017e-17
 1.429999999999999e+00  8.256108849411650e-01 -3.393140768766017e-17
 1.429999999999999e+00  8.256108849411650e-01 -3.393140768766017e-17
 1.429999999999999e+00  8.256108849411650e-01 -3.393140768766017e-17
 1.429999999999999e+00  8.256108849411650e-01 -3.393140768766017e-17
 1.429999999999999e+00  8.256108849411650e-01 -3.393140768766017e-17
 1.429999999999999e+00  8.256108849411650e-01 -3.393140768766017e-17
 1.429999999999999e+00  8.256108849411650e-01 -3.393140768766017e-17
 1.429999999999999e+00  8.256108849411650e-01 -3.393140768766017e-17
 1.429999999999999e+00  8.256108849411650e-01 -3.393140768766017e-17
 1.429999999999999e+00  8.256108849411650e-01 -3.393140768766017e-17
 1.429999999999999e+00  8.256108849411650e-01 -3.393140768766017e-17
 1.429999999999999e+00  8.256108849411650e-01 -3.393140768766017e-17
 1.429999999999999e+00  8.256108849411650e-01 -3.393140768766017e-17
 1.429999999999999e+00  8.256108849411650e-01 -3.393140768766017e-17
 1.429999999999999e+00  8.256108849411650e-01 -3.393140768766017e-17
 1.429999999999999e+00  8.256108849411650e-01 -3.393140768766017e-17
 1.429999999999999e+00  8.256108849411650e-01 -3.393140768766017e-17
 1.429999999999999e+00  8.256108849411650e-01 -3.393140768766017e-17
 1.429999999999999e+00  8.256108849411650e-01 -3.393140768766017e-17
 1.429999999999999e+00  8.256108849411650e-01 -3.393140768766017e-17
 1.429999999999999e+00  8.256108849411650e-01 -3.393140768766017e-17
 1.429999999999999e+00  8.256108849411650e-01 -3.393140768766017e-17
 1.429999999999999e+00  8.256108849411650e-01 -3.393140768766017e-17
 1.429999999999999e+00  8.256108849411650e-01 -3.393140768766017e-17
 1.429999999999999e+00  8.256108849411650e-01 -3.393140768766017e-17
 1.429999999999999e+00  8.256108849411650e-01 -3.393140768766017e-17
 1.429999999999999e+00  8.256108849411650e-01 -3.393140768766017e-17
 1.429999999999999e+00  8.256108849411650e-01 -3.393140768766017e-17
 1.429999999999999e+00  8.256108849411650e-01 -3.393140768766017e-17
 1.429999999999999e+00  8.256108849411650e-01 -3.393140768766017e-17
 1.429999999999999e+00  8.256108849411650e-01 -3.393140768766017e-17
 1.429999999999999e+00  8.256108849411650e-01 -3.393140768766017e-17
 1.429999999999999e+00  8.256108849411650e-01 -3.393140768766017e-17
 1.429999999999999e+00  8.256108849411650e-01 -3.393140768766017e-17
 1.429999999999999e+00  8.256108849411650e-01 -3.393140768766017e-17
 1.429999999999999e+00  8.256108849411650e-01 -3.393140768766017e-17
 1.429999999999999e+00  8.256108849411650e-01 -3.393140768766017e-17
 1.429999999999999e+00  8.256108849411650e-01 -3.393140768766017e-17
 1.429999999999999e+00  8.256108849411650e-01 -3.393140768766017e-17
 1.429999999999999e+00  8.256108849411650e-01 -3.393140768766017e-17
 1.429999999999999e+00  8.256108849411650e-01 -3.393140768766017e-17
 1.429999999999999e+00  8.256108849411650e-01 -3.393140768766017e-17
 1.429999999999999e+00  8.256108849411650e-01 -3.393140768766017e-17
 1.429999999999999e+00  8.256108849411650e-01 -3.393140768766017e-17
 1.429999999999999e+00  8.256108849411650e-01 -3.393140768766017e-17
 1.429999999999999e+00  8.256108849411650e-01 -3.393140768766017e-17
 1.429999999999999e+00  8.256108849411650e-01 -3.393140768766017e-17
 1.429999999999999e+00  8.256108849411650e-01 -3.393140768766017e-17
 1.429999999999999e+00  8.256108849411650e-01 -3.393140768766017e-17
 1.429999999999999e+00  8.256108849411650e-01 -3.393140768766017e-17
 1.429999999999999e+00  8.256108849411650e-01 -3.393140768766017e-17
-1.429999999999999e+00 -8.256108849411650e-01  3.393140768766017e-17
 1.429999999999999e+00  8.256108849411650e-01 -3.393140768766017e-17
 1.429999999999999e+00  8.256108849411650e-01 -3.393140768766017e-17
 1.429999999999999e+00  8.256108849411650e-01 -3.393140768766017e-17
 1.429999999999999e+00  8.256108849411650e-01 -3.393140768766017e-17
 1.429999999999999e+00  8.256108849411650e-01 -3.393140768766017e-17
 1.429999999999999e+00  8.256108849411650e-01 -3.393140768766017e-17
 1.429999999999999e+00  8.256108849411650e-01 -3.393140768766017e-17
 1.429999999999999e+00  8.256108849411650e-01 -3.393140768766017e-17
 1.429999999999999e+00  8.256108849411650e-01 -3.393140768766017e-17
 1.429999999999999e+00  8.256108849411650e-01 -3.393140768766017e-17
 1.429999999999999e+00  8.256108849411650e-01 -3.393140768766017e-17
 1.429999999999999e+00  8.256108849411650e-01 -3.393140768766017e-17
 1.429999999999999e+00  8.256108849411650e-01 -3.393140768766017e-17
 1.429999999999999e+00  8.256108849411650e-01 -3.393140768766017e-17
 1.429999999999999e+00  8.256108849411650e-01 -3.393140768766017e-17
 1.429999999999999e+00  8.256108849411650e-01 -3.393140768766017e-17
 1.429999999999999e+00  8.256108849411650e-01 -3.393140768766017e-17
 1.429999999999999e+00  8.256108849411650e-01 -3.393140768766017e-17
 1.429999999999999e+00  8.256108849411650e-01 -3.393140768766017e-17
 1.429999999999999e+00  8.256108849411650e-01 -3.393140768766017e-17
 1.429999999999999e+00  8.256108849411650e-01 -3.393140768766017e-17
 1.429999999999999e+00  8.256108849411650e-01 -3.393140768766017e-17
 1.429999999999999e+00  8.256108849411650e-01 -3.393140768766017e-17
 1.429999999999999e+00  8.256108849411650e-01 -3.393140768766017e-17
 1.429999999999999e+00  8.256108849411650e-01 -3.393140768766017e-17
 1.429999999999999e+00  8.256108849411650e-01 -3.393140768766017e-17
 1.429999999999999e+00  8.256108849411650e-01 -3.393140768766017e-17
 1.429999999999999e+00  8.256108849411650e-01 -3.393140768766017e-17
 1.429999999999999e+00  8.256108849411650e-01 -3.393140768766017e-17
 1.429999999999999e+00  8.256108849411650e-01 -3.393140768766017e-17
 1.429999999999999e+00  8.256108849411650e-01 -3.393140768766017e-17
 1.429999999999999e+00  8.256108849411650e-01 -3.393140768766017e-17
 1.429999999999999e+00  8.256108849411650e-01 -3.393140768766017e-17
 1.429999999999999e+00  8.256108849411650e-01 -3.393140768766017e-17
 1.429999999999999e+00  8.256108849411650e-01 -3.393140768766017e-17
 1.429999999999999e+00  8.256108849411650e-01 -3.393140768766017e-17
 1.429999999999999e+00  8.256108849411650e-01 -3.393140768766017e-17
 1.429999999999999e+00  8.256108849411650e-01 -3.393140768766017e-17
 1.429999999999999e+00  8.256108849411650e-01 -3.393140768766017e-17
 1.429999999999999e+00  8.256108849411650e-01 -3.393140768766017e-17
 1.429999999999999e+00  8.256108849411650e-01 -3.393140768766017e-17
 1.429999999999999e+00  8.256108849411650e-01 -3.393140768766017e-17
 1.429999999999999e+00  8.256108849411650e-01 -3.393140768766017e-17
 1.429999999999999e+00  8.256108849411650e-01 -3.393140768766017e-17
 1.429999999999999e+00  8.256108849411650e-01 -3.393140768766017e-17
 1.429999999999999e+00  8.256108849411650e-01 -3.393140768766017e-17
 1.429999999999999e+00  8.256108849411650e-01 -3.393140768766017e-17
 1.429999999999999e+00  8.256108849411650e-01 -3.393140768766017e-17
 1.429999999999999e+00  8.256108849411650e-01 -3.393140768766017e-17
 1.429999999999999e+00  8.256108849411650e-01 -3.393140768766017e-17
 1.429999999999999e+00  8.256108849411650e-01 -3.393140768766017e-17
 1.429999999999999e+00  8.256108849411650e-01 -3.393140768766017e-17
 1.429999999999999e+00  8.256108849411650e-01 -3.393140768766017e-17
 1.429999999999999e+00  8.256108849411650e-01 -3.393140768766017e-17
 1.429999999999999e+00  8.256108849411650e-01 -3.393140768766017e-17
 1.429999999999999e+00  8.256108849411650e-01 -3.393140768766017e-17
 1.429999999999999e+00  8.256108849411650e-01 -3.393140768766017e-17
 1.429999999999999e+00  8.256108849411650e-01 -3.393140768766017e-17
 1.429999999999999e+00  8.256108849411650e-01 -3.393140768766017e-17
 1.429999999999999e+00  8.256108849411650e-01 -3.393140768766017e-17
 1.429999999999999e+00  8.256108849411650e-01 -3.393140768766017e-17
 1.429999999999999e+00  8.256108849411650e-01 -3.393140768766017e-17
 1.429999999999999e+00  8.256108849411650e-01 -3.393140768766017e-17
 1.429999999999999e+00  8.256108849411650e-01 -3.393140768766017e-17
 1.429999999999999e+00  8.256108849411650e-01 -3.393140768766017e-17
 1.429999999999999e+00  8.256108849411650e-01 -3.393140768766017e-17
 1.429999999999999e+00  8.256108849411650e-01 -3.393140768766017e-17
 1.429999999999999e+00  8.256108849411650e-01 -3.393140768766017e-17
 1.429999999999999e+00  8.256108849411650e-01 -3.393140768766017e-17
 1.429999999999999e+00  8.256108849411650e-01 -3.393140768766017e-17
 1.429999999999999e+00  8.256108849411650e-01 -3.393140768766017e-17
 1.429999999999999e+00  8.256108849411650e-01 -3.393140768766017e-17
 1.429999999999999e+00  8.256108849411650e-01 -3.393140768766017e-17
 1.429999999999999e+00  8.256108849411650e-01 -3.393140768766017e-17
 1.429999999999999e+00  8.256108849411650e-01 -3.393140768766017e-17
 1.429999999999999e+00  8.256108849411650e-01 -3.393140768766017e-17
 1.429999999999999e+00  8.256108849411650e-01 -3.393140768766017e-17
 1.429999999999999e+00  8.256108849411650e-01 -3.393140768766017e-17
 1.429999999999999e+00  8.256108849411650e-01 -3.393140768766017e-17
 1.429999999999999e+00  8.256108849411650e-01 -3.393140768766017e-17
 1.429999999999999e+00  8.256108849411650e-01 -3.393140768766017e-17
 1.429999999999999e+00  8.256108849411650e-01 -3.393140768766017e-17
 1.429999999999999e+00  8.256108849411650e-01 -3.393140768766017e-17
 1.429999999999999e+00  8.256108849411650e-01 -3.393140768766017e-17
 1.429999999999999e+00  8.256108849411650e-01 -3.393140768766017e-17
 1.429999999999999e+00  8.256108849411650e-01 -3.393140768766017e-17
 1.429999999999999e+00  8.256108849411650e-01 -3.393140768766017e-17
 1.429999999999999e+00  8.256108849411650e-01 -3.393140768766017e-17
 1.429999999999999e+00  8.256108849411650e-01 -3.393140768766017e-17
 1.429999999999999e+00  8.256108849411650e-01 -3.393140768766017e-17
 1.429999999999999e+00  8.256108849411650e-01 -3.393140768766017e-17
 1.429999999999999e+00  8.256108849411650e-01 -3.393140768766017e-17
 1.429999999999999e+00  8.256108849411650e-01 -3.393140768766017e-17
 1.429999999999999e+00  8.256108849411650e-01 -3.393140768766017e-17
 1.429999999999999e+00  8.256108849411650e-01 -3.393140768766017e-17
 1.429999999999999e+00  8.256108849411650e-01 -3.393140768766017e-17
 1.429999999999999e+00  8.256108849411650e-01 -3.393140768766017e-17
 1.429999999999999e+00  8.256108849411650e-01 -3.393140768766017e-17
 1.429999999999999e+00  8.256108849411650e-01 -3.393140768766017e-17
 1.429999999999999e+00  8.256108849411650e-01 -3.393140768766017e-17
 1.429999999999999e+00  8.256108849411650e-01 -3.393140768766017e-17
 1.429999999999999e+00  8.256108849411650e-01 -3.393140768766017e-17
 1.429999999999999e+00  8.256108849411650e-01 -3.393140768766017e-17
 1.429999999999999e+00  8.256108849411650e-01 -3.393140768766017e-17
 1.429999999999999e+00  8.256108849411650e-01 -3.393140768766017e-17
 1.429999999999999e+00  8.256108849411650e-01 -3.393140768766017e-17
 1.429999999999999e+00  8.256108849411650e-01 -3.393140768766017e-17
 1.429999999999999e+00  8.256108849411650e-01 -3.393140768766017e-17
 1.429999999999999e+00  8.256108849411650e-01 -3.393140768766017e-17
 1.429999999999999e+00  8.256108849411650e-01 -3.393140768766017e-17
 1.429999999999999e+00  8.256108849411650e-01 -3.393140768766017e-17
 1.429999999999999e+00  8.256108849411650e-01 -3.393140768766017e-17
 1.429999999999999e+00  8.256108849411650e-01 -3.393140768766017e-17
 1.429999999999999e+00  8.256108849411650e-01 -3.393140768766017e-17
 1.429999999999999e+00  8.256108849411650e-01 -3.393140768766017e-17
 1.429999999999999e+00  8.256108849411650e-01 -3.393140768766017e-17
 1.429999999999999e+00  8.256108849411650e-01 -3.393140768766017e-17
 1.429999999999999e+00  8.256108849411650e-01 -3.393140768766017e-17
 1.429999999999999e+00  8.256108849411650e-01 -3.393140768766017e-17
 1.429999999999999e+00  8.256108849411650e-01 -3.393140768766017e-17
 1.429999999999999e+00  8.256108849411650e-01 -3.393140768766017e-17
 1.429999999999999e+00  8.256108849411650e-01 -3.393140768766017e-17
 1.429999999999999e+00  8.256108849411650e-01 -3.393140768766017e-17
 1.429999999999999e+00  8.256108849411650e-01 -3.393140768766017e-17
 1.429999999999999e+00  8.256108849411650e-01 -3.393140768766017e-17
 1.429999999999999e+00  8.256108849411650e-01 -3.393140768766017e-17
 1.429999999999999e+00  8.256108849411650e-01 -3.393140768766017e-17
 1.429999999999999e+00  8.256108849411650e-01 -3.393140768766017e-17
 1.429999999999999e+00  8.256108849411650e-01 -3.393140768766017e-17
 1.429999999999999e+00  8.256108849411650e-01 -3.393140768766017e-17
 1.429999999999999e+00  8.256108849411650e-01 -3.393140768766017e-17
 1.429999999999999e+00  8.256108849411650e-01 -3.393140768766017e-17
 1.429999999999999e+00  8.256108849411650e-01 -3.393140768766017e-17
 1.429999999999999e+00  8.256108849411650e-01 -3.393140768766017e-17
 1.429999999999999e+00  8.256108849411650e-01 -3.393140768766017e-17
 1.429999999999999e+00  8.256108849411650e-01 -3.393140768766017e-17
 1.429999999999999e+00  8.256108849411650e-01 -3.393140768766017e-17
 1.429999999999999e+00  8.256108849411650e-01 -3.393140768766017e-17
 1.429999999999999e+00  8.256108849411650e-01 -3.393140768766017e-17
 1.429999999999999e+00  8.256108849411650e-01 -3.393140768766017e-17
 1.429999999999999e+00  8.256108849411650e-01 -3.393140768766017e-17
 1.429999999999999e+00  8.256108849411650e-01 -3.393140768766017e-17
 1.429999999999999e+00  8.256108849411650e-01 -3.393140768766017e-17
 1.429999999999999e+00  8.256108849411650e-01 -3.393140768766017e-17
 1.429999999999999e+00  8.256108849411650e-01 -3.393140768766017e-17
 1.429999999999999e+00  8.256108849411650e-01 -3.393140768766017e-17
 1.429999999999999e+00  8.256108849411650e-01 -3.393140768766017e-17
 1.429999999999999e+00  8.256108849411650e-01 -3.393140768766017e-17
 1.429999999999999e+00  8.256108849411650e-01 -3.393140768766017e-17
 1.429999999999999e+00  8.256108849411650e-01 -3.393140768766017e-17
 1.429999999999999e+00  8.256108849411650e-01 -3.393140768766017e-17
 1.429999999999999e+00  8.256108849411650e-01 -3.393140768766017e-17
 1.429999999999999e+00  8.256108849411650e-01 -3.393140768766017e-17
 1.429999999999999e+00  8.256108849411650e-01 -3.393140768766017e-17
 1.429999999999999e+00  8.256108849411650e-01 -3.393140768766017e-17
 1.429999999999999e+00  8.256108849411650e-01 -3.393140768766017e-17
 1.429999999999999e+00  8.256108849411650e-01 -3.393140768766017e-17
 1.429999999999999e+00  8.256108849411650e-01 -3.393140768766017e-17
 1.429999999999999e+00  8.256108849411650e-01 -3.393140768766017e-17
 1.429999999999999e+00  8.256108849411650e-01 -3.393140768766017e-17
 1.429999999999999e+00  8.256108849411650e-01 -3.393140768766017e-17
 1.429999999999999e+00  8.256108849411650e-01 -3.393140768766017e-17
 1.429999999999999e+00  8.256108849411650e-01 -3.393140768766017e-17
 1.429999999999999e+00  8.256108849411650e-01 -3.393140768766017e-17
 1.429999999999999e+00  8.256108849411650e-01 -3.393140768766017e-17
 1.429999999999999e+00  8.256108849411650e-01 -3.393140768766017e-17
 1.429999999999999e+00  8.256108849411650e-01 -3.393140768766017e-17
 1.429999999999999e+00  8.256108849411650e-01 -3.393140768766017e-17
 1.429999999999999e+00  8.256108849411650e-01 -3.393140768766017e-17
 1.429999999999999e+00  8.256108849411650e-01 -3.393140768766017e-17
-1.429999999999999e+00  8.256108849411650e-01  1.696570384383008e-17
 1.429999999999999e+00 -8.256108849411650e-01 -1.696570384383008e-17
-1.429999999999999e+00  8.256108849411650e-01  1.696570384383008e-17
-1.429999999999999e+00  8.256108849411650e-01  1.696570384383008e-17
-1.429999999999999e+00  8.256108849411650e-01  1.696570384383008e-17
-1.429999999999999e+00  8.256108849411650e-01  1.696570384383008e-17
-1.429999999999999e+00  8.256108849411650e-01  1.696570384383008e-17
-1.429999999999999e+00  8.256108849411650e-01  1.696570384383008e-17
-1.429999999999999e+00  8.256108849411650e-01  1.696570384383008e-17
-1.429999999999999e+00  8.256108849411650e-01  1.696570384383008e-17
-1.429999999999999e+00  8.256108849411650e-01  1.696570384383008e-17
-1.429999999999999e+00  8.256108849411650e-01  1.696570384383008e-17
-1.429999999999999e+00  8.256108849411650e-01  1.696570384383008e-17
-1.429999999999999e+00  8.256108849411650e-01  1.696570384383008e-17
-1.429999999999999e+00  8.256108849411650e-01  1.696570384383008e-17
-1.429999999999999e+00  8.256108849411650e-01  1.696570384383008e-17
-1.429999999999999e+00  8.256108849411650e-01  1.696570384383008e-17
-1.429999999999999e+00  8.256108849411650e-01  1.696570384383008e-17
-1.429999999999999e+00  8.256108849411650e-01  1.696570384383008e-17
-1.429999999999999e+00  8.256108849411650e-01  1.696570384383008e-17
-1.429999999999999e+00  8.256108849411650e-01  1.696570384383008e-17
-1.429999999999999e+00  8.256108849411650e-01  1.696570384383008e-17
-1.429999999999999e+00  8.256108849411650e-01  1.696570384383008e-17
-1.429999999999999e+00  8.256108849411650e-01  1.696570384383008e-17
-1.429999999999999e+00  8.256108849411650e-01  1.696570384383008e-17
-1.429999999999999e+00  8.256108849411650e-01  1.696570384383008e-17
-1.429999999999999e+00  8.256108849411650e-01  1.696570384383008e-17
-1.429999999999999e+00  8.256108849411650e-01  1.696570384383008e-17
-1.429999999999999e+00  8.256108849411650e-01  1.696570384383008e-17
-1.429999999999999e+00  8.256108849411650e-01  1.696570384383008e-17
-1.429999999999999e+00  8.256108849411650e-01  1.696570384383008e-17
-1.429999999999999e+00  8.256108849411650e-01  1.696570384383008e-17
-1.429999999999999e+00  8.256108849411650e-01  1.696570384383008e-17
-1.429999999999999e+00  8.256108849411650e-01  1.696570384383008e-17
-1.429999999999999e+00  8.256108849411650e-01  1.696570384383008e-17
-1.429999999999999e+00  8.256108849411650e-01  1.696570384383008e-17
-1.429999999999999e+00  8.256108849411650e-01  1.696570384383008e-17
-1.429999999999999e+00  8.256108849411650e-01  1.696570384383008e-17
-1.429999999999999e+00  8.256108849411650e-01  1.696570384383008e-17
-1.429999999999999e+00  8.256108849411650e-01  1.696570384383008e-17
-1.429999999999999e+00  8.256108849411650e-01  1.696570384383008e-17
-1.429999999999999e+00  8.256108849411650e-01  1.696570384383008e-17
-1.429999999999999e+00  8.256108849411650e-01  1.696570384383008e-17
-1.429999999999999e+00  8.256108849411650e-01  1.696570384383008e-17
-1.429999999999999e+00  8.256108849411650e-01  1.696570384383008e-17
-1.429999999999999e+00  8.256108849411650e-01  1.696570384383008e-17
-1.429999999999999e+00  8.256108849411650e-01  1.696570384383008e-17
-1.429999999999999e+00  8.256108849411650e-01  1.696570384383008e-17
-1.429999999999999e+00  8.256108849411650e-01  1.696570384383008e-17
-1.429999999999999e+00  8.256108849411650e-01  1.696570384383008e-17
-1.429999999999999e+00  8.256108849411650e-01  1.696570384383008e-17
-1.429999999999999e+00  8.256108849411650e-01  1.696570384383008e-17
-1.429999999999999e+00  8.256108849411650e-01  1.696570384383008e-17
-1.429999999999999e+00  8.256108849411650e-01  1.696570384383008e-17
-1.429999999999999e+00  8.256108849411650e-01  1.696570384383008e-17
-1.429999999999999e+00  8.256108849411650e-01  1.696570384383008e-17
-1.429999999999999e+00  8.256108849411650e-01  1.696570384383008e-17
-1.429999999999999e+00  8.256108849411650e-01  1.696570384383008e-17
-1.429999999999999e+00  8.256108849411650e-01  1.696570384383008e-17
-1.429999999999999e+00  8.256108849411650e-01  1.696570384383008e-17
-1.429999999999999e+00  8.256108849411650e-01  1.696570384383008e-17
-1.429999999999999e+00  8.256108849411650e-01  1.696570384383008e-17
-1.429999999999999e+00  8.256108849411650e-01  1.696570384383008e-17
-1.429999999999999e+00  8.256108849411650e-01  1.696570384383008e-17
-1.429999999999999e+00  8.256108849411650e-01  1.696570384383008e-17
-1.429999999999999e+00  8.256108849411650e-01  1.696570384383008e-17
-1.429999999999999e+00  8.256108849411650e-01  1.696570384383008e-17
-1.429999999999999e+00  8.256108849411650e-01  1.696570384383008e-17
-1.429999999999999e+00  8.256108849411650e-01  1.696570384383008e-17
-1.429999999999999e+00  8.256108849411650e-01  1.696570384383008e-17
-1.429999999999999e+00  8.256108849411650e-01  1.696570384383008e-17
-1.429999999999999e+00  8.256108849411650e-01  1.696570384383008e-17
-1.429999999999999e+00  8.256108849411650e-01  1.696570384383008e-17
-1.429999999999999e+00  8.256108849411650e-01  1.696570384383008e-17
-1.429999999999999e+00  8.256108849411650e-01  1.696570384383008e-17
-1.429999999999999e+00  8.256108849411650e-01  1.696570384383008e-17
-1.429999999999999e+00  8.256108849411650e-01  1.696570384383008e-17
-1.429999999999999e+00  8.256108849411650e-01  1.696570384383008e-17
-1.429999999999999e+00  8.256108849411650e-01  1.696570384383008e-17
-1.429999999999999e+00  8.256108849411650e-01  1.696570384383008e-17
-1.429999999999999e+00  8.256108849411650e-01  1.696570384383008e-17
-1.429999999999999e+00  8.256108849411650e-01  1.696570384383008e-17
-1.429999999999999e+00  8.256108849411650e-01  1.696570384383008e-17
-1.429999999999999e+00  8.256108849411650e-01  1.696570384383008e-17
-1.429999999999999e+00  8.256108849411650e-01  1.696570384383008e-17
-1.429999999999999e+00  8.256108849411650e-01  1.696570384383008e-17
-1.429999999999999e+00  8.256108849411650e-01  1.696570384383008e-17
-1.429999999999999e+00  8.256108849411650e-01  1.696570384383008e-17
-1.429999999999999e+00  8.256108849411650e-01  1.696570384383008e-17
-1.429999999999999e+00  8.256108849411650e-01  1.696570384383008e-17
-1.429999999999999e+00  8.256108849411650e-01  1.696570384383008e-17
-1.429999999999999e+00  8.256108849411650e-01  1.696570384383008e-17
-1.429999999999999e+00  8.256108849411650e-01  1.696570384383008e-17
-1.429999999999999e+00  8.256108849411650e-01  1.696570384383008e-17
-1.429999999999999e+00  8.256108849411650e-01  1.696570384383008e-17
-1.429999999999999e+00  8.256108849411650e-01  1.696570384383008e-17
-1.429999999999999e+00  8.256108849411650e-01  1.696570384383008e-17
-1.429999999999999e+00  8.256108849411650e-01  1.696570384383008e-17
-1.429999999999999e+00  8.256108849411650e-01  1.696570384383008e-17
-1.429999999999999e+00  8.256108849411650e-01  1.696570384383008e-17
-1.429999999999999e+00  8.256108849411650e-01  1.696570384383008e-17
-1.429999999999999e+00  8.256108849411650e-01  1.696570384383008e-17
-1.429999999999999e+00  8.256108849411650e-01  1.696570384383008e-17
-1.429999999999999e+00  8.256108849411650e-01  1.696570384383008e-17
-1.429999999999999e+00  8.256108849411650e-01  1.696570384383008e-17
-1.429999999999999e+00  8.256108849411650e-01  1.696570384383008e-17
-1.429999999999999e+00  8.256108849411650e-01  1.696570384383008e-17
-1.429999999999999e+00  8.256108849411650e-01  1.696570384383008e-17
-1.429999999999999e+00  8.256108849411650e-01  1.696570384383008e-17
-1.429999999999999e+00  8.256108849411650e-01  1.696570384383008e-17
-1.429999999999999e+00  8.256108849411650e-01  1.696570384383008e-17
-1.429999999999999e+00  8.256108849411650e-01  1.696570384383008e-17
-1.429999999999999e+00  8.256108849411650e-01  1.696570384383008e-17
-1.429999999999999e+00  8.256108849411650e-01  1.696570384383008e-17
-1.429999999999999e+00  8.256108849411650e-01  1.696570384383008e-17
-1.429999999999999e+00  8.256108849411650e-01  1.696570384383008e-17
-1.429999999999999e+00  8.256108849411650e-01  1.696570384383008e-17
-1.429999999999999e+00  8.256108849411650e-01  1.696570384383008e-17
-1.429999999999999e+00  8.256108849411650e-01  1.696570384383008e-17
-1.429999999999999e+00  8.256108849411650e-01  1.696570384383008e-17
-1.429999999999999e+00  8.256108849411650e-01  1.696570384383008e-17
-1.429999999999999e+00  8.256108849411650e-01  1.696570384383008e-17
-1.429999999999999e+00  8.256108849411650e-01  1.696570384383008e-17
-1.429999999999999e+00  8.256108849411650e-01  1.696570384383008e-17
-1.429999999999999e+00  8.256108849411650e-01  1.696570384383008e-17
-1.429999999999999e+00  8.256108849411650e-01  1.696570384383008e-17
-1.429999999999999e+00  8.256108849411650e-01  1.696570384383008e-17
-1.429999999999999e+00  8.256108849411650e-01  1.696570384383008e-17
-1.429999999999999e+00  8.256108849411650e-01  1.696570384383008e-17
-1.429999999999999e+00  8.256108849411650e-01  1.696570384383008e-17
-1.429999999999999e+00  8.256108849411650e-01  1.696570384383008e-17
-1.429999999999999e+00  8.256108849411650e-01  1.696570384383008e-17
-1.429999999999999e+00  8.256108849411650e-01  1.696570384383008e-17
-1.429999999999999e+00  8.256108849411650e-01  1.696570384383008e-17
-1.429999999999999e+00  8.256108849411650e-01  1.696570384383008e-17
-1.429999999999999e+00  8.256108849411650e-01  1.696570384383008e-17
-1.429999999999999e+00  8.256108849411650e-01  1.696570384383008e-17
-1.429999999999999e+00  8.256108849411650e-01  1.696570384383008e-17
-1.429999999999999e+00  8.256108849411650e-01  1.696570384383008e-17
-1.429999999999999e+00  8.256108849411650e-01  1.696570384383008e-17
-1.429999999999999e+00  8.256108849411650e-01  1.696570384383008e-17
-1.429999999999999e+00  8.256108849411650e-01  1.696570384383008e-17
-1.429999999999999e+00  8.256108849411650e-01  1.696570384383008e-17
-1.429999999999999e+00  8.256108849411650e-01  1.696570384383008e-17
-1.429999999999999e+00  8.256108849411650e-01  1.696570384383008e-17
-1.429999999999999e+00  8.256108849411650e-01  1.696570384383008e-17
-1.429999999999999e+00  8.256108849411650e-01  1.696570384383008e-17
-1.429999999999999e+00  8.256108849411650e-01  1.696570384383008e-17
-1.429999999999999e+00  8.256108849411650e-01  1.696570384383008e-17
-1.429999999999999e+00  8.256108849411650e-01  1.696570384383008e-17
-1.429999999999999e+00  8.256108849411650e-01  1.696570384383008e-17
-1.429999999999999e+00  8.256108849411650e-01  1.696570384383008e-17
-1.429999999999999e+00  8.256108849411650e-01  1.696570384383008e-17
-1.429999999999999e+00  8.256108849411650e-01  1.696570384383008e-17
-1.429999999999999e+00  8.256108849411650e-01  1.696570384383008e-17
-1.429999999999999e+00  8.256108849411650e-01  1.696570384383008e-17
-1.429999999999999e+00  8.256108849411650e-01  1.696570384383008e-17
-1.429999999999999e+00  8.256108849411650e-01  1.696570384383008e-17
-1.429999999999999e+00  8.256108849411650e-01  1.696570384383008e-17
-1.429999999999999e+00  8.256108849411650e-01  1.696570384383008e-17
-1.429999999999999e+00  8.256108849411650e-01  1.696570384383008e-17
-1.429999999999999e+00  8.256108849411650e-01  1.696570384383008e-17
-1.429999999999999e+00  8.256108849411650e-01  1.696570384383008e-17
-1.429999999999999e+00  8.256108849411650e-01  1.696570384383008e-17
-1.429999999999999e+00  8.256108849411650e-01  1.696570384383008e-17
-1.429999999999999e+00  8.256108849411650e-01  1.696570384383008e-17
-1.429999999999999e+00  8.256108849411650e-01  1.696570384383008e-17
-1.429999999999999e+00  8.256108849411650e-01  1.696570384383008e-17
-1.429999999999999e+00  8.256108849411650e-01  1.696570384383008e-17
-1.429999999999999e+00  8.256108849411650e-01  1.696570384383008e-17
-1.429999999999999e+00  8.256108849411650e-01  1.696570384383008e-17
-1.429999999999999e+00  8.256108849411650e-01  1.696570384383008e-17
-1.429999999999999e+00  8.256108849411650e-01  1.696570384383008e-17
-1.429999999999999e+00  8.256108849411650e-01  1.696570384383008e-17
-1.429999999999999e+00  8.256108849411650e-01  1.696570384383008e-17
-1.429999999999999e+00  8.256108849411650e-01  1.696570384383008e-17
-1.429999999999999e+00  8.256108849411650e-01  1.696570384383008e-17
-1.429999999999999e+00  8.256108849411650e-01  1.696570384383008e-17
-1.429999999999999e+00  8.256108849411650e-01  1.696570384383008e-17
-1.429999999999999e+00  8.256108849411650e-01  1.696570384383008e-17
-1.429999999999999e+00  8.256108849411650e-01  1.696570384383008e-17
-1.429999999999999e+00  8.256108849411650e-01  1.696570384383008e-17
-1.429999999999999e+00  8.256108849411650e-01  1.696570384383008e-17
-1.429999999999999e+00  8.256108849411650e-01  1.696570384383008e-17
-1.429999999999999e+00  8.256108849411650e-01  1.696570384383008e-17
-1.429999999999999e+00  8.256108849411650e-01  1.696570384383008e-17
-1.429999999999999e+00  8.256108849411650e-01  1.696570384383008e-17
-1.429999999999999e+00  8.256108849411650e-01  1.696570384383008e-17
-1.429999999999999e+00  8.256108849411650e-01  1.696570384383008e-17
-1.429999999999999e+00  8.256108849411650e-01  1.696570384383008e-17
-1.429999999999999e+00  8.256108849411650e-01  1.696570384383008e-17
-1.429999999999999e+00  8.256108849411650e-01  1.696570384383008e-17
-1.429999999999999e+00  8.256108849411650e-01  1.696570384383008e-17
-1.429999999999999e+00  8.256108849411650e-01  1.696570384383008e-17
-1.429999999999999e+00  8.256108849411650e-01  1.696570384383008e-17
-1.429999999999999e+00  8.256108849411650e-01  1.696570384383008e-17
-1.429999999999999e+00  8.256108849411650e-01  1.696570384383008e-17
-1.429999999999999e+00  8.256108849411650e-01  1.696570384383008e-17
-1.429999999999999e+00  8.256108849411650e-01  1.696570384383008e-17
-1.429999999999999e+00  8.256108849411650e-01  1.696570384383008e-17
 1.429999999999999e+00 -8.256108849411650e-01 -1.696570384383008e-17
-1.429999999999999e+00  8.256108849411650e-01  1.696570384383008e-17
-1.429999999999999e+00  8.256108849411650e-01  1.696570384383008e-17
-1.429999999999999e+00  8.256108849411650e-01  1.696570384383008e-17
-1.429999999999999e+00  8.256108849411650e-01  1.696570384383008e-17
-1.429999999999999e+00  8.256108849411650e-01  1.696570384383008e-17
-1.429999999999999e+00  8.256108849411650e-01  1.696570384383008e-17
-1.429999999999999e+00  8.256108849411650e-01  1.696570384383008e-17
-1.429999999999999e+00  8.256108849411650e-01  1.696570384383008e-17
-1.429999999999999e+00  8.256108849411650e-01  1.696570384383008e-17
-1.429999999999999e+00  8.256108849411650e-01  1.696570384383008e-17
-1.429999999999999e+00  8.256108849411650e-01  1.696570384383008e-17
-1.429999999999999e+00  8.256108849411650e-01  1.696570384383008e-17
-1.429999999999999e+00  8.256108849411650e-01  1.696570384383008e-17
-1.429999999999999e+00  8.256108849411650e-01  1.696570384383008e-17
-1.429999999999999e+00  8.256108849411650e-01  1.696570384383008e-17
-1.429999999999999e+00  8.256108849411650e-01  1.696570384383008e-17
-1.429999999999999e+00  8.256108849411650e-01  1.696570384383008e-17
-1.429999999999999e+00  8.256108849411650e-01  1.696570384383008e-17
-1.429999999999999e+00  8.256108849411650e-01  1.696570384383008e-17
-1.429999999999999e+00  8.256108849411650e-01  1.696570384383008e-17
-1.429999999999999e+00  8.256108849411650e-01  1.696570384383008e-17
-1.429999999999999e+00  8.256108849411650e-01  1.696570384383008e-17
-1.429999999999999e+00  8.256108849411650e-01  1.696570384383008e-17
-1.429999999999999e+00  8.256108849411650e-01  1.696570384383008e-17
-1.429999999999999e+00  8.256108849411650e-01  1.696570384383008e-17
-1.429999999999999e+00  8.256108849411650e-01  1.696570384383008e-17
-1.429999999999999e+00  8.256108849411650e-01  1.696570384383008e-17
-1.429999999999999e+00  8.256108849411650e-01  1.696570384383008e-17
-1.429999999999999e+00  8.256108849411650e-01  1.696570384383008e-17
-1.429999999999999e+00  8.256108849411650e-01  1.696570384383008e-17
-1.429999999999999e+00  8.256108849411650e-01  1.696570384383008e-17
-1.429999999999999e+00  8.256108849411650e-01  1.696570384383008e-17
-1.429999999999999e+00  8.256108849411650e-01  1.696570384383008e-17
-1.429999999999999e+00  8.256108849411650e-01  1.696570384383008e-17
-1.429999999999999e+00  8.256108849411650e-01  1.696570384383008e-17
-1.429999999999999e+00  8.256108849411650e-01  1.696570384383008e-17
-1.429999999999999e+00  8.256108849411650e-01  1.696570384383008e-17
-1.429999999999999e+00  8.256108849411650e-01  1.696570384383008e-17
-1.429999999999999e+00  8.256108849411650e-01  1.696570384383008e-17
-1.429999999999999e+00  8.256108849411650e-01  1.696570384383008e-17
-1.429999999999999e+00  8.256108849411650e-01  1.696570384383008e-17
-1.429999999999999e+00  8.256108849411650e-01  1.696570384383008e-17
-1.429999999999999e+00  8.256108849411650e-01  1.696570384383008e-17
-1.429999999999999e+00  8.256108849411650e-01  1.696570384383008e-17
-1.429999999999999e+00  8.256108849411650e-01  1.696570384383008e-17
-1.429999999999999e+00  8.256108849411650e-01  1.696570384383008e-17
-1.429999999999999e+00  8.256108849411650e-01  1.696570384383008e-17
-1.429999999999999e+00  8.256108849411650e-01  1.696570384383008e-17
-1.429999999999999e+00  8.256108849411650e-01  1.696570384383008e-17
-1.429999999999999e+00  8.256108849411650e-01  1.696570384383008e-17
-1.429999999999999e+00  8.256108849411650e-01  1.696570384383008e-17
-1.429999999999999e+00  8.256108849411650e-01  1.696570384383008e-17
-1.429999999999999e+00  8.256108849411650e-01  1.696570384383008e-17
-1.429999999999999e+00  8.256108849411650e-01  1.696570384383008e-17
-1.429999999999999e+00  8.256108849411650e-01  1.696570384383008e-17
-1.429999999999999e+00  8.256108849411650e-01  1.696570384383008e-17
-1.429999999999999e+00  8.256108849411650e-01  1.696570384383008e-17
-1.429999999999999e+00  8.256108849411650e-01  1.696570384383008e-17
-1.429999999999999e+00  8.256108849411650e-01  1.696570384383008e-17
-1.429999999999999e+00  8.256108849411650e-01  1.696570384383008e-17
-1.429999999999999e+00  8.256108849411650e-01  1.696570384383008e-17
-1.429999999999999e+00  8.256108849411650e-01  1.696570384383008e-17
-1.429999999999999e+00  8.256108849411650e-01  1.696570384383008e-17
-1.429999999999999e+00  8.256108849411650e-01  1.696570384383008e-17
-1.429999999999999e+00  8.256108849411650e-01  1.696570384383008e-17
-1.429999999999999e+00  8.256108849411650e-01  1.696570384383008e-17
-1.429999999999999e+00  8.256108849411650e-01  1.696570384383008e-17
-1.429999999999999e+00  8.256108849411650e-01  1.696570384383008e-17
-1.429999999999999e+00  8.256108849411650e-01  1.696570384383008e-17
-1.429999999999999e+00  8.256108849411650e-01  1.696570384383008e-17
-1.429999999999999e+00  8.256108849411650e-01  1.696570384383008e-17
-1.429999999999999e+00  8.256108849411650e-01  1.696570384383008e-17
-1.429999999999999e+00  8.256108849411650e-01  1.696570384383008e-17
-1.429999999999999e+00  8.256108849411650e-01  1.696570384383008e-17
-1.429999999999999e+00  8.256108849411650e-01  1.696570384383008e-17
-1.429999999999999e+00  8.256108849411650e-01  1.696570384383008e-17
-1.429999999999999e+00  8.256108849411650e-01  1.696570384383008e-17
-1.429999999999999e+00  8.256108849411650e-01  1.696570384383008e-17
-1.429999999999999e+00  8.256108849411650e-01  1.696570384383008e-17
-1.429999999999999e+00  8.256108849411650e-01  1.696570384383008e-17
-1.429999999999999e+00  8.256108849411650e-01  1.696570384383008e-17
-1.429999999999999e+00  8.256108849411650e-01  1.696570384383008e-17
-1.429999999999999e+00  8.256108849411650e-01  1.696570384383008e-17
-1.429999999999999e+00  8.256108849411650e-01  1.696570384383008e-17
-1.429999999999999e+00  8.256108849411650e-01  1.696570384383008e-17
-1.429999999999999e+00  8.256108849411650e-01  1.696570384383008e-17
-1.429999999999999e+00  8.256108849411650e-01  1.696570384383008e-17
-1.429999999999999e+00  8.256108849411650e-01  1.696570384383008e-17
-1.429999999999999e+00  8.256108849411650e-01  1.696570384383008e-17
-1.429999999999999e+00  8.256108849411650e-01  1.696570384383008e-17
-1.429999999999999e+00  8.256108849411650e-01  1.696570384383008e-17
-1.429999999999999e+00  8.256108849411650e-01  1.696570384383008e-17
-1.429999999999999e+00  8.256108849411650e-01  1.696570384383008e-17
-1.429999999999999e+00  8.256108849411650e-01  1.696570384383008e-17
-1.429999999999999e+00  8.256108849411650e-01  1.696570384383008e-17
-1.429999999999999e+00  8.256108849411650e-01  1.696570384383008e-17
-1.429999999999999e+00  8.256108849411650e-01  1.696570384383008e-17
-1.429999999999999e+00  8.256108849411650e-01  1.696570384383008e-17
-1.429999999999999e+00  8.256108849411650e-01  1.696570384383008e-17
-1.429999999999999e+00  8.256108849411650e-01  1.696570384383008e-17
-1.429999999999999e+00  8.256108849411650e-01  1.696570384383008e-17
-1.429999999999999e+00  8.256108849411650e-01  1.696570384383008e-17
-1.429999999999999e+00  8.256108849411650e-01  1.696570384383008e-17
-1.429999999999999e+00  8.256108849411650e-01  1.696570384383008e-17
-1.429999999999999e+00  8.256108849411650e-01  1.696570384383008e-17
-1.429999999999999e+00  8.256108849411650e-01  1.696570384383008e-17
-1.429999999999999e+00  8.256108849411650e-01  1.696570384383008e-17
-1.429999999999999e+00  8.256108849411650e-01  1.696570384383008e-17
-1.429999999999999e+00  8.256108849411650e-01  1.696570384383008e-17
-1.429999999999999e+00  8.256108849411650e-01  1.696570384383008e-17
-1.429999999999999e+00  8.256108849411650e-01  1.696570384383008e-17
-1.429999999999999e+00  8.256108849411650e-01  1.696570384383008e-17
-1.429999999999999e+00  8.256108849411650e-01  1.696570384383008e-17
-1.429999999999999e+00  8.256108849411650e-01  1.696570384383008e-17
-1.429999999999999e+00  8.256108849411650e-01  1.696570384383008e-17
-1.429999999999999e+00  8.256108849411650e-01  1.696570384383008e-17
-1.429999999999999e+00  8.256108849411650e-01  1.696570384383008e-17
-1.429999999999999e+00  8.256108849411650e-01  1.696570384383008e-17
-1.429999999999999e+00  8.256108849411650e-01  1.696570384383008e-17
-1.429999999999999e+00  8.256108849411650e-01  1.696570384383008e-17
-1.429999999999999e+00  8.256108849411650e-01  1.696570384383008e-17
-1.429999999999999e+00  8.256108849411650e-01  1.696570384383008e-17
-1.429999999999999e+00  8.256108849411650e-01  1.696570384383008e-17
-1.429999999999999e+00  8.256108849411650e-01  1.696570384383008e-17
-1.429999999999999e+00  8.256108849411650e-01  1.696570384383008e-17
-1.429999999999999e+00  8.256108849411650e-01  1.696570384383008e-17
-1.429999999999999e+00  8.256108849411650e-01  1.696570384383008e-17
-1.429999999999999e+00  8.256108849411650e-01  1.696570384383008e-17
-1.429999999999999e+00  8.256108849411650e-01  1.696570384383008e-17
-1.429999999999999e+00  8.256108849411650e-01  1.696570384383008e-17
-1.429999999999999e+00  8.256108849411650e-01  1.696570384383008e-17
-1.429999999999999e+00  8.256108849411650e-01  1.696570384383008e-17
-1.429999999999999e+00  8.256108849411650e-01  1.696570384383008e-17
-1.429999999999999e+00  8.256108849411650e-01  1.696570384383008e-17
-1.429999999999999e+00  8.256108849411650e-01  1.696570384383008e-17
-1.429999999999999e+00  8.256108849411650e-01  1.696570384383008e-17
-1.429999999999999e+00  8.256108849411650e-01  1.696570384383008e-17
-1.429999999999999e+00  8.256108849411650e-01  1.696570384383008e-17
-1.429999999999999e+00  8.256108849411650e-01  1.696570384383008e-17
-1.429999999999999e+00  8.256108849411650e-01  1.696570384383008e-17
-1.429999999999999e+00  8.256108849411650e-01  1.696570384383008e-17
-1.429999999999999e+00  8.256108849411650e-01  1.696570384383008e-17
-1.429999999999999e+00  8.256108849411650e-01  1.696570384383008e-17
-1.429999999999999e+00  8.256108849411650e-01  1.696570384383008e-17
-1.429999999999999e+00  8.256108849411650e-01  1.696570384383008e-17
-1.429999999999999e+00  8.256108849411650e-01  1.696570384383008e-17
-1.429999999999999e+00  8.256108849411650e-01  1.696570384383008e-17
-1.429999999999999e+00  8.256108849411650e-01  1.696570384383008e-17
-1.429999999999999e+00  8.256108849411650e-01  1.696570384383008e-17
-1.429999999999999e+00  8.256108849411650e-01  1.696570384383008e-17
-1.429999999999999e+00  8.256108849411650e-01  1.696570384383008e-17
-1.429999999999999e+00  8.256108849411650e-01  1.696570384383008e-17
-1.429999999999999e+00  8.256108849411650e-01  1.696570384383008e-17
-1.429999999999999e+00  8.256108849411650e-01  1.696570384383008e-17
-1.429999999999999e+00  8.256108849411650e-01  1.696570384383008e-17
-1.429999999999999e+00  8.256108849411650e-01  1.696570384383008e-17
-1.429999999999999e+00  8.256108849411650e-01  1.696570384383008e-17
-1.429999999999999e+00  8.256108849411650e-01  1.696570384383008e-17
-1.429999999999999e+00  8.256108849411650e-01  1.696570384383008e-17
-1.429999999999999e+00  8.256108849411650e-01  1.696570384383008e-17
-1.429999999999999e+00  8.256108849411650e-01  1.696570384383008e-17
-1.429999999999999e+00  8.256108849411650e-01  1.696570384383008e-17
-1.429999999999999e+00  8.256108849411650e-01  1.696570384383008e-17
-1.429999999999999e+00  8.256108849411650e-01  1.696570384383008e-17
-1.429999999999999e+00  8.256108849411650e-01  1.696570384383008e-17
-1.429999999999999e+00  8.256108849411650e-01  1.696570384383008e-17
-1.429999999999999e+00  8.256108849411650e-01  1.696570384383008e-17
-1.429999999999999e+00  8.256108849411650e-01  1.696570384383008e-17
-1.429999999999999e+00  8.256108849411650e-01  1.696570384383008e-17
-1.429999999999999e+00  8.256108849411650e-01  1.696570384383008e-17
-1.429999999999999e+00  8.256108849411650e-01  1.696570384383008e-17
-1.429999999999999e+00  8.256108849411650e-01  1.696570384383008e-17
-1.429999999999999e+00  8.256108849411650e-01  1.696570384383008e-17
-1.429999999999999e+00  8.256108849411650e-01  1.696570384383008e-17
-1.429999999999999e+00  8.256108849411650e-01  1.696570384383008e-17
-1.429999999999999e+00  8.256108849411650e-01  1.696570384383008e-17
-1.429999999999999e+00  8.256108849411650e-01  1.696570384383008e-17
-1.429999999999999e+00  8.256108849411650e-01  1.696570384383008e-17
-1.429999999999999e+00  8.256108849411650e-01  1.696570384383008e-17
-1.429999999999999e+00  8.256108849411650e-01  1.696570384383008e-17
-1.429999999999999e+00  8.256108849411650e-01  1.696570384383008e-17
-1.429999999999999e+00  8.256108849411650e-01  1.696570384383008e-17
 1.429999999999999e+00 -8.256108849411650e-01 -1.696570384383008e-17
-1.429999999999999e+00  8.256108849411650e-01  1.696570384383008e-17
 1.429999999999999e+00 -8.256108849411650e-01 -1.696570384383008e-17
 1.429999999999999e+00 -8.256108849411650e-01 -1.696570384383008e-17
 1.429999999999999e+00 -8.256108849411650e-01 -1.696570384383008e-17
 1.429999999999999e+00 -8.256108849411650e-01 -1.696570384383008e-17
 1.429999999999999e+00 -8.256108849411650e-01 -1.696570384383008e-17
 1.429999999999999e+00 -8.256108849411650e-01 -1.696570384383008e-17
 1.429999999999999e+00 -8.256108849411650e-01 -1.696570384383008e-17
 1.429999999999999e+00 -8.256108849411650e-01 -1.696570384383008e-17
 1.429999999999999e+00 -8.256108849411650e-01 -1.696570384383008e-17
 1.429999999999999e+00 -8.256108849411650e-01 -1.696570384383008e-17
 1.429999999999999e+00 -8.256108849411650e-01 -1.696570384383008e-17
 1.429999999999999e+00 -8.256108849411650e-01 -1.696570384383008e-17
 1.429999999999999e+00 -8.256108849411650e-01 -1.696570384383008e-17
 1.429999999999999e+00 -8.256108849411650e-01 -1.696570384383008e-17
 1.429999999999999e+00 -8.256108849411650e-01 -1.696570384383008e-17
 1.429999999999999e+00 -8.256108849411650e-01 -1.696570384383008e-17
 1.429999999999999e+00 -8.256108849411650e-01 -1.696570384383008e-17
 1.429999999999999e+00 -8.256108849411650e-01 -1.696570384383008e-17
 1.429999999999999e+00 -8.256108849411650e-01 -1.696570384383008e-17
 1.429999999999999e+00 -8.256108849411650e-01 -1.696570384383008e-17
 1.429999999999999e+00 -8.256108849411650e-01 -1.696570384383008e-17
 1.429999999999999e+00 -8.256108849411650e-01 -1.696570384383008e-17
 1.429999999999999e+00 -8.256108849411650e-01 -1.696570384383008e-17
 1.429999999999999e+00 -8.256108849411650e-01 -1.696570384383008e-17
 1.429999999999999e+00 -8.256108849411650e-01 -1.696570384383008e-17
 1.429999999999999e+00 -8.256108849411650e-01 -1.696570384383008e-17
 1.429999999999999e+00 -8.256108849411650e-01 -1.696570384383008e-17
 1.429999999999999e+00 -8.256108849411650e-01 -1.696570384383008e-17
 1.429999999999999e+00 -8.256108849411650e-01 -1.696570384383008e-17
 1.429999999999999e+00 -8.256108849411650e-01 -1.696570384383008e-17
 1.429999999999999e+00 -8.256108849411650e-01 -1.696570384383008e-17
 1.429999999999999e+00 -8.256108849411650e-01 -1.696570384383008e-17
 1.429999999999999e+00 -8.256108849411650e-01 -1.696570384383008e-17
 1.429999999999999e+00 -8.256108849411650e-01 -1.696570384383008e-17
 1.429999999999999e+00 -8.256108849411650e-01 -1.696570384383008e-17
 1.429999999999999e+00 -8.256108849411650e-01 -1.696570384383008e-17
 1.429999999999999e+00 -8.256108849411650e-01 -1.696570384383008e-17
 1.429999999999999e+00 -8.256108849411650e-01 -1.696570384383008e-17
 1.429999999999999e+00 -8.256108849411650e-01 -1.696570384383008e-17
 1.429999999999999e+00 -8.256108849411650e-01 -1.696570384383008e-17
 1.429999999999999e+00 -8.256108849411650e-01 -1.696570384383008e-17
 1.429999999999999e+00 -8.256108849411650e-01 -1.696570384383008e-17
 1.429999999999999e+00 -8.256108849411650e-01 -1.696570384383008e-17
 1.429999999999999e+00 -8.256108849411650e-01 -1.696570384383008e-17
 1.429999999999999e+00 -8.256108849411650e-01 -1.696570384383008e-17
 1.429999999999999e+00 -8.256108849411650e-01 -1.696570384383008e-17
 1.429999999999999e+00 -8.256108849411650e-01 -1.696570384383008e-17
 1.429999999999999e+00 -8.256108849411650e-01 -1.696570384383008e-17
 1.429999999999999e+00 -8.256108849411650e-01 -1.696570384383008e-17
 1.429999999999999e+00 -8.256108849411650e-01 -1.696570384383008e-17
 1.429999999999999e+00 -8.256108849411650e-01 -1.696570384383008e-17
 1.429999999999999e+00 -8.256108849411650e-01 -1.696570384383008e-17
 1.429999999999999e+00 -8.256108849411650e-01 -1.696570384383008e-17
 1.429999999999999e+00 -8.256108849411650e-01 -1.696570384383008e-17
 1.429999999999999e+00 -8.256108849411650e-01 -1.696570384383008e-17
 1.429999999999999e+00 -8.256108849411650e-01 -1.696570384383008e-17
 1.429999999999999e+00 -8.256108849411650e-01 -1.696570384383008e-17
 1.429999999999999e+00 -8.256108849411650e-01 -1.696570384383008e-17
 1.429999999999999e+00 -8.256108849411650e-01 -1.696570384383008e-17
 1.429999999999999e+00 -8.256108849411650e-01 -1.696570384383008e-17
 1.429999999999999e+00 -8.256108849411650e-01 -1.696570384383008e-17
 1.429999999999999e+00 -8.256108849411650e-01 -1.696570384383008e-17
 1.429999999999999e+00 -8.256108849411650e-01 -1.696570384383008e-17
 1.429999999999999e+00 -8.256108849411650e-01 -1.696570384383008e-17
 1.429999999999999e+00 -8.256108849411650e-01 -1.696570384383008e-17
 1.429999999999999e+00 -8.256108849411650e-01 -1.696570384383008e-17
 1.429999999999999e+00 -8.256108849411650e-01 -1.696570384383008e-17
 1.429999999999999e+00 -8.256108849411650e-01 -1.696570384383008e-17
 1.429999999999999e+00 -8.256108849411650e-01 -1.696570384383008e-17
 1.429999999999999e+00 -8.256108849411650e-01 -1.696570384383008e-17
 1.429999999999999e+00 -8.256108849411650e-01 -1.696570384383008e-17
 1.429999999999999e+00 -8.256108849411650e-01 -1.696570384383008e-17
 1.429999999999999e+00 -8.256108849411650e-01 -1.696570384383008e-17
 1.429999999999999e+00 -8.256108849411650e-01 -1.696570384383008e-17
 1.429999999999999e+00 -8.256108849411650e-01 -1.696570384383008e-17
 1.429999999999999e+00 -8.256108849411650e-01 -1.696570384383008e-17
 1.429999999999999e+00 -8.256108849411650e-01 -1.696570384383008e-17
 1.429999999999999e+00 -8.256108849411650e-01 -1.696570384383008e-17
 1.429999999999999e+00 -8.256108849411650e-01 -1.696570384383008e-17
 1.429999999999999e+00 -8.256108849411650e-01 -1.696570384383008e-17
 1.429999999999999e+00 -8.256108849411650e-01 -1.696570384383008e-17
 1.429999999999999e+00 -8.256108849411650e-01 -1.696570384383008e-17
 1.429999999999999e+00 -8.256108849411650e-01 -1.696570384383008e-17
 1.429999999999999e+00 -8.256108849411650e-01 -1.696570384383008e-17
 1.429999999999999e+00 -8.256108849411650e-01 -1.696570384383008e-17
 1.429999999999999e+00 -8.256108849411650e-01 -1.696570384383008e-17
 1.429999999999999e+00 -8.256108849411650e-01 -1.696570384383008e-17
 1.429999999999999e+00 -8.256108849411650e-01 -1.696570384383008e-17
 1.429999999999999e+00 -8.256108849411650e-01 -1.696570384383008e-17
 1.429999999999999e+00 -8.256108849411650e-01 -1.696570384383008e-17
 1.429999999999999e+00 -8.256108849411650e-01 -1.696570384383008e-17
 1.429999999999999e+00 -8.256108849411650e-01 -1.696570384383008e-17
 1.429999999999999e+00 -8.256108849411650e-01 -1.696570384383008e-17
 1.429999999999999e+00 -8.256108849411650e-01 -1.696570384383008e-17
 1.429999999999999e+00 -8.256108849411650e-01 -1.696570384383008e-17
 1.429999999999999e+00 -8.256108849411650e-01 -1.696570384383008e-17
 1.429999999999999e+00 -8.256108849411650e-01 -1.696570384383008e-17
 1.429999999999999e+00 -8.256108849411650e-01 -1.696570384383008e-17
 1.429999999999999e+00 -8.256108849411650e-01 -1.696570384383008e-17
 1.429999999999999e+00 -8.256108849411650e-01 -1.696570384383008e-17
 1.429999999999999e+00 -8.256108849411650e-01 -1.696570384383008e-17
 1.429999999999999e+00 -8.256108849411650e-01 -1.696570384383008e-17
 1.429999999999999e+00 -8.256108849411650e-01 -1.696570384383008e-17
 1.429999999999999e+00 -8.256108849411650e-01 -1.696570384383008e-17
 1.429999999999999e+00 -8.256108849411650e-01 -1.696570384383008e-17
 1.429999999999999e+00 -8.256108849411650e-01 -1.696570384383008e-17
 1.429999999999999e+00 -8.256108849411650e-01 -1.696570384383008e-17
 1.429999999999999e+00 -8.256108849411650e-01 -1.696570384383008e-17
 1.429999999999999e+00 -8.256108849411650e-01 -1.696570384383008e-17
 1.429999999999999e+00 -8.256108849411650e-01 -1.696570384383008e-17
 1.429999999999999e+00 -8.256108849411650e-01 -1.696570384383008e-17
 1.429999999999999e+00 -8.256108849411650e-01 -1.696570384383008e-17
 1.429999999999999e+00 -8.256108849411650e-01 -1.696570384383008e-17
 1.429999999999999e+00 -8.256108849411650e-01 -1.696570384383008e-17
 1.429999999999999e+00 -8.256108849411650e-01 -1.696570384383008e-17
 1.429999999999999e+00 -8.256108849411650e-01 -1.696570384383008e-17
 1.429999999999999e+00 -8.256108849411650e-01 -1.696570384383008e-17
 1.429999999999999e+00 -8.256108849411650e-01 -1.696570384383008e-17
 1.429999999999999e+00 -8.256108849411650e-01 -1.696570384383008e-17
 1.429999999999999e+00 -8.256108849411650e-01 -1.696570384383008e-17
 1.429999999999999e+00 -8.256108849411650e-01 -1.696570384383008e-17
 1.429999999999999e+00 -8.256108849411650e-01 -1.696570384383008e-17
 1.429999999999999e+00 -8.256108849411650e-01 -1.696570384383008e-17
 1.429999999999999e+00 -8.256108849411650e-01 -1.696570384383008e-17
 1.429999999999999e+00 -8.256108849411650e-01 -1.696570384383008e-17
 1.429999999999999e+00 -8.256108849411650e-01 -1.696570384383008e-17
 1.429999999999999e+00 -8.256108849411650e-01 -1.696570384383008e-17
 1.429999999999999e+00 -8.256108849411650e-01 -1.696570384383008e-17
 1.429999999999999e+00 -8.256108849411650e-01 -1.696570384383008e-17
 1.429999999999999e+00 -8.256108849411650e-01 -1.696570384383008e-17
 1.429999999999999e+00 -8.256108849411650e-01 -1.696570384383008e-17
 1.429999999999999e+00 -8.256108849411650e-01 -1.696570384383008e-17
 1.429999999999999e+00 -8.256108849411650e-01 -1.696570384383008e-17
 1.429999999999999e+00 -8.256108849411650e-01 -1.696570384383008e-17
 1.429999999999999e+00 -8.256108849411650e-01 -1.696570384383008e-17
 1.429999999999999e+00 -8.256108849411650e-01 -1.696570384383008e-17
 1.429999999999999e+00 -8.256108849411650e-01 -1.696570384383008e-17
 1.429999999999999e+00 -8.256108849411650e-01 -1.696570384383008e-17
 1.429999999999999e+00 -8.256108849411650e-01 -1.696570384383008e-17
 1.429999999999999e+00 -8.256108849411650e-01 -1.696570384383008e-17
 1.429999999999999e+00 -8.256108849411650e-01 -1.696570384383008e-17
 1.429999999999999e+00 -8.256108849411650e-01 -1.696570384383008e-17
 1.429999999999999e+00 -8.256108849411650e-01 -1.696570384383008e-17
 1.429999999999999e+00 -8.256108849411650e-01 -1.696570384383008e-17
 1.429999999999999e+00 -8.256108849411650e-01 -1.696570384383008e-17
 1.429999999999999e+00 -8.256108849411650e-01 -1.696570384383008e-17
 1.429999999999999e+00 -8.256108849411650e-01 -1.696570384383008e-17
 1.429999999999999e+00 -8.256108849411650e-01 -1.696570384383008e-17
 1.429999999999999e+00 -8.256108849411650e-01 -1.696570384383008e-17
 1.429999999999999e+00 -8.256108849411650e-01 -1.696570384383008e-17
 1.429999999999999e+00 -8.256108849411650e-01 -1.696570384383008e-17
-1.429999999999999e+00  8.256108849411650e-01  1.696570384383008e-17
 1.429999999999999e+00 -8.256108849411650e-01 -1.696570384383008e-17
 1.429999999999999e+00 -8.256108849411650e-01 -1.696570384383008e-17
 1.429999999999999e+00 -8.256108849411650e-01 -1.696570384383008e-17
 1.429999999999999e+00 -8.256108849411650e-01 -1.696570384383008e-17
 1.429999999999999e+00 -8.256108849411650e-01 -1.696570384383008e-17
 1.429999999999999e+00 -8.256108849411650e-01 -1.696570384383008e-17
 1.429999999999999e+00 -8.256108849411650e-01 -1.696570384383008e-17
 1.429999999999999e+00 -8.256108849411650e-01 -1.696570384383008e-17
 1.429999999999999e+00 -8.256108849411650e-01 -1.696570384383008e-17
 1.429999999999999e+00 -8.256108849411650e-01 -1.696570384383008e-17
 1.429999999999999e+00 -8.256108849411650e-01 -1.696570384383008e-17
 1.429999999999999e+00 -8.256108849411650e-01 -1.696570384383008e-17
 1.429999999999999e+00 -8.256108849411650e-01 -1.696570384383008e-17
 1.429999999999999e+00 -8.256108849411650e-01 -1.696570384383008e-17
 1.429999999999999e+00 -8.256108849411650e-01 -1.696570384383008e-17
 1.429999999999999e+00 -8.256108849411650e-01 -1.696570384383008e-17
 1.429999999999999e+00 -8.256108849411650e-01 -1.696570384383008e-17
 1.429999999999999e+00 -8.256108849411650e-01 -1.696570384383008e-17
 1.429999999999999e+00 -8.256108849411650e-01 -1.696570384383008e-17
 1.429999999999999e+00 -8.256108849411650e-01 -1.696570384383008e-17
 1.429999999999999e+00 -8.256108849411650e-01 -1.696570384383008e-17
 1.429999999999999e+00 -8.256108849411650e-01 -1.696570384383008e-17
 1.429999999999999e+00 -8.256108849411650e-01 -1.696570384383008e-17
 1.429999999999999e+00 -8.256108849411650e-01 -1.696570384383008e-17
 1.429999999999999e+00 -8.256108849411650e-01 -1.696570384383008e-17
 1.429999999999999e+00 -8.256108849411650e-01 -1.696570384383008e-17
 1.429999999999999e+00 -8.256108849411650e-01 -1.696570384383008e-17
 1.429999999999999e+00 -8.256108849411650e-01 -1.696570384383008e-17
 1.429999999999999e+00 -8.256108849411650e-01 -1.696570384383008e-17
 1.429999999999999e+00 -8.256108849411650e-01 -1.696570384383008e-17
 1.429999999999999e+00 -8.256108849411650e-01 -1.696570384383008e-17
 1.429999999999999e+00 -8.256108849411650e-01 -1.696570384383008e-17
 1.429999999999999e+00 -8.256108849411650e-01 -1.696570384383008e-17
 1.429999999999999e+00 -8.256108849411650e-01 -1.696570384383008e-17
 1.429999999999999e+00 -8.256108849411650e-01 -1.696570384383008e-17
 1.429999999999999e+00 -8.256108849411650e-01 -1.696570384383008e-17
 1.429999999999999e+00 -8.256108849411650e-01 -1.696570384383008e-17
 1.429999999999999e+00 -8.256108849411650e-01 -1.696570384383008e-17
 1.429999999999999e+00 -8.256108849411650e-01 -1.696570384383008e-17
 1.429999999999999e+00 -8.256108849411650e-01 -1.696570384383008e-17
 1.429999999999999e+00 -8.256108849411650e-01 -1.696570384383008e-17
 1.429999999999999e+00 -8.256108849411650e-01 -1.696570384383008e-17
 1.429999999999999e+00 -8.256108849411650e-01 -1.696570384383008e-17
 1.429999999999999e+00 -8.256108849411650e-01 -1.696570384383008e-17
 1.429999999999999e+00 -8.256108849411650e-01 -1.696570384383008e-17
 1.429999999999999e+00 -8.256108849411650e-01 -1.696570384383008e-17
 1.429999999999999e+00 -8.256108849411650e-01 -1.696570384383008e-17
 1.429999999999999e+00 -8.256108849411650e-01 -1.696570384383008e-17
 1.429999999999999e+00 -8.256108849411650e-01 -1.696570384383008e-17
 1.429999999999999e+00 -8.256108849411650e-01 -1.696570384383008e-17
 1.429999999999999e+00 -8.256108849411650e-01 -1.696570384383008e-17
 1.429999999999999e+00 -8.256108849411650e-01 -1.696570384383008e-17
 1.429999999999999e+00 -8.256108849411650e-01 -1.696570384383008e-17
 1.429999999999999e+00 -8.256108849411650e-01 -1.696570384383008e-17
 1.429999999999999e+00 -8.256108849411650e-01 -1.696570384383008e-17
 1.429999999999999e+00 -8.256108849411650e-01 -1.696570384383008e-17
 1.429999999999999e+00 -8.256108849411650e-01 -1.696570384383008e-17
 1.429999999999999e+00 -8.256108849411650e-01 -1.696570384383008e-17
 1.429999999999999e+00 -8.256108849411650e-01 -1.696570384383008e-17
 1.429999999999999e+00 -8.256108849411650e-01 -1.696570384383008e-17
 1.429999999999999e+00 -8.256108849411650e-01 -1.696570384383008e-17
 1.429999999999999e+00 -8.256108849411650e-01 -1.696570384383008e-17
 1.429999999999999e+00 -8.256108849411650e-01 -1.696570384383008e-17
 1.429999999999999e+00 -8.256108849411650e-01 -1.696570384383008e-17
 1.429999999999999e+00 -8.256108849411650e-01 -1.696570384383008e-17
 1.429999999999999e+00 -8.256108849411650e-01 -1.696570384383008e-17
 1.429999999999999e+00 -8.256108849411650e-01 -1.696570384383008e-17
 1.429999999999999e+00 -8.256108849411650e-01 -1.696570384383008e-17
 1.429999999999999e+00 -8.256108849411650e-01 -1.696570384383008e-17
 1.429999999999999e+00 -8.256108849411650e-01 -1.696570384383008e-17
 1.429999999999999e+00 -8.256108849411650e-01 -1.696570384383008e-17
 1.429999999999999e+00 -8.256108849411650e-01 -1.696570384383008e-17
 1.429999999999999e+00 -8.256108849411650e-01 -1.696570384383008e-17
 1.429999999999999e+00 -8.256108849411650e-01 -1.696570384383008e-17
 1.429999999999999e+00 -8.256108849411650e-01 -1.696570384383008e-17
 1.429999999999999e+00 -8.256108849411650e-01 -1.696570384383008e-17
 1.429999999999999e+00 -8.256108849411650e-01 -1.696570384383008e-17
 1.429999999999999e+00 -8.256108849411650e-01 -1.696570384383008e-17
 1.429999999999999e+00 -8.256108849411650e-01 -1.696570384383008e-17
 1.429999999999999e+00 -8.256108849411650e-01 -1.696570384383008e-17
 1.429999999999999e+00 -8.256108849411650e-01 -1.696570384383008e-17
 1.429999999999999e+00 -8.256108849411650e-01 -1.696570384383008e-17
 1.429999999999999e+00 -8.256108849411650e-01 -1.696570384383008e-17
 1.429999999999999e+00 -8.256108849411650e-01 -1.696570384383008e-17
 1.429999999999999e+00 -8.256108849411650e-01 -1.696570384383008e-17
 1.429999999999999e+00 -8.256108849411650e-01 -1.696570384383008e-17
 1.429999999999999e+00 -8.256108849411650e-01 -1.696570384383008e-17
 1.429999999999999e+00 -8.256108849411650e-01 -1.696570384383008e-17
 1.429999999999999e+00 -8.256108849411650e-01 -1.696570384383008e-17
 1.429999999999999e+00 -8.256108849411650e-01 -1.696570384383008e-17
 1.429999999999999e+00 -8.256108849411650e-01 -1.696570384383008e-17
 1.429999999999999e+00 -8.256108849411650e-01 -1.696570384383008e-17
 1.429999999999999e+00 -8.256108849411650e-01 -1.696570384383008e-17
 1.429999999999999e+00 -8.256108849411650e-01 -1.696570384383008e-17
 1.429999999999999e+00 -8.256108849411650e-01 -1.696570384383008e-17
 1.429999999999999e+00 -8.256108849411650e-01 -1.696570384383008e-17
 1.429999999999999e+00 -8.256108849411650e-01 -1.696570384383008e-17
 1.429999999999999e+00 -8.256108849411650e-01 -1.696570384383008e-17
 1.429999999999999e+00 -8.256108849411650e-01 -1.696570384383008e-17
 1.429999999999999e+00 -8.256108849411650e-01 -1.696570384383008e-17
 1.429999999999999e+00 -8.256108849411650e-01 -1.696570384383008e-17
 1.429999999999999e+00 -8.256108849411650e-01 -1.696570384383008e-17
 1.429999999999999e+00 -8.256108849411650e-01 -1.696570384383008e-17
 1.429999999999999e+00 -8.256108849411650e-01 -1.696570384383008e-17
 1.429999999999999e+00 -8.256108849411650e-01 -1.696570384383008e-17
 1.429999999999999e+00 -8.256108849411650e-01 -1.696570384383008e-17
 1.429999999999999e+00 -8.256108849411650e-01 -1.696570384383008e-17
 1.429999999999999e+00 -8.256108849411650e-01 -1.696570384383008e-17
 1.429999999999999e+00 -8.256108849411650e-01 -1.696570384383008e-17
 1.429999999999999e+00 -8.256108849411650e-01 -1.696570384383008e-17
 1.429999999999999e+00 -8.256108849411650e-01 -1.696570384383008e-17
 1.429999999999999e+00 -8.256108849411650e-01 -1.696570384383008e-17
 1.429999999999999e+00 -8.256108849411650e-01 -1.696570384383008e-17
 1.429999999999999e+00 -8.256108849411650e-01 -1.696570384383008e-17
 1.429999999999999e+00 -8.256108849411650e-01 -1.696570384383008e-17
 1.429999999999999e+00 -8.256108849411650e-01 -1.696570384383008e-17
 1.429999999999999e+00 -8.256108849411650e-01 -1.696570384383008e-17
 1.429999999999999e+00 -8.256108849411650e-01 -1.696570384383008e-17
 1.429999999999999e+00 -8.256108849411650e-01 -1.696570384383008e-17
 1.429999999999999e+00 -8.256108849411650e-01 -1.696570384383008e-17
 1.429999999999999e+00 -8.256108849411650e-01 -1.696570384383008e-17
 1.429999999999999e+00 -8.256108849411650e-01 -1.696570384383008e-17
 1.429999999999999e+00 -8.256108849411650e-01 -1.696570384383008e-17
 1.429999999999999e+00 -8.256108849411650e-01 -1.696570384383008e-17
 1.429999999999999e+00 -8.256108849411650e-01 -1.696570384383008e-17
 1.429999999999999e+00 -8.256108849411650e-01 -1.696570384383008e-17
 1.429999999999999e+00 -8.256108849411650e-01 -1.696570384383008e-17
 1.429999999999999e+00 -8.256108849411650e-01 -1.696570384383008e-17
 1.429999999999999e+00 -8.256108849411650e-01 -1.696570384383008e-17
 1.429999999999999e+00 -8.256108849411650e-01 -1.696570384383008e-17
 1.429999999999999e+00 -8.256108849411650e-01 -1.696570384383008e-17
 1.429999999999999e+00 -8.256108849411650e-01 -1.696570384383008e-17
 1.429999999999999e+00 -8.256108849411650e-01 -1.696570384383008e-17
 1.429999999999999e+00 -8.256108849411650e-01 -1.696570384383008e-17
 1.429999999999999e+00 -8.256108849411650e-01 -1.696570384383008e-17
 1.429999999999999e+00 -8.256108849411650e-01 -1.696570384383008e-17
 1.429999999999999e+00 -8.256108849411650e-01 -1.696570384383008e-17
 1.429999999999999e+00 -8.256108849411650e-01 -1.696570384383008e-17
 1.429999999999999e+00 -8.256108849411650e-01 -1.696570384383008e-17
 1.429999999999999e+00 -8.256108849411650e-01 -1.696570384383008e-17
 1.429999999999999e+00 -8.256108849411650e-01 -1.696570384383008e-17
 1.429999999999999e+00 -8.256108849411650e-01 -1.696570384383008e-17
 1.429999999999999e+00 -8.256108849411650e-01 -1.696570384383008e-17
 1.429999999999999e+00 -8.256108849411650e-01 -1.696570384383008e-17
 1.429999999999999e+00 -8.256108849411650e-01 -1.696570384383008e-17
 1.429999999999999e+00 -8.256108849411650e-01 -1.696570384383008e-17
 1.429999999999999e+00 -8.256108849411650e-01 -1.696570384383008e-17
 1.429999999999999e+00 -8.256108849411650e-01 -1.696570384383008e-17
 1.429999999999999e+00 -8.256108849411650e-01 -1.696570384383008e-17
 1.429999999999999e+00 -8.256108849411650e-01 -1.696570384383008e-17
 1.429999999999999e+00 -8.256108849411650e-01 -1.696570384383008e-17
 1.429999999999999e+00 -8.256108849411650e-01 -1.696570384383008e-17
 1.429999999999999e+00 -8.256108849411650e-01 -1.696570384383008e-17
 1.429999999999999e+00 -8.256108849411650e-01 -1.696570384383008e-17

VECTORS burgers_vector_local double
-1.666666666666667e-01 -3.333333333333333e-01 -1.666666666666665e-01
1.666666666666667e-01 3.333333333333333e-01 1.666666666666665e-01
-1.666666666666667e-01 -3.333333333333333e-01 -1.666666666666665e-01
-1.666666666666667e-01 -3.333333333333333e-01 -1.666666666666665e-01
-1.666666666666667e-01 -3.333333333333333e-01 -1.666666666666665e-01
-1.666666666666667e-01 -3.333333333333333e-01 -1.666666666666665e-01
-1.666666666666667e-01 -3.333333333333333e-01 -1.666666666666665e-01
-1.666666666666667e-01 -3.333333333333333e-01 -1.666666666666665e-01
-1.666666666666667e-01 -3.333333333333333e-01 -1.666666666666665e-01
-1.666666666666667e-01 -3.333333333333333e-01 -1.666666666666665e-01
-1.666666666666667e-01 -3.333333333333333e-01 -1.666666666666665e-01
-1.666666666666667e-01 -3.333333333333333e-01 -1.666666666666665e-01
-1.666666666666667e-01 -3.333333333333333e-01 -1.666666666666665e-01
-1.666666666666667e-01 -3.333333333333333e-01 -1.666666666666665e-01
-1.666666666666667e-01 -3.333333333333333e-01 -1.666666666666665e-01
-1.666666666666667e-01 -3.333333333333333e-01 -1.666666666666665e-01
-1.666666666666667e-01 -3.333333333333333e-01 -1.666666666666665e-01
-1.666666666666667e-01 -3.333333333333333e-01 -1.666666666666665e-01
-1.666666666666667e-01 -3.333333333333333e-01 -1.666666666666665e-01
-1.666666666666667e-01 -3.333333333333333e-01 -1.666666666666665e-01
-1.666666666666667e-01 -3.333333333333333e-01 -1.666666666666665e-01
-1.666666666666667e-01 -3.333333333333333e-01 -1.666666666666665e-01
-1.666666666666667e-01 -3.333333333333333e-01 -1.666666666666665e-01
-1.666666666666667e-01 -3.333333333333333e-01 -1.666666666666665e-01
-1.666666666666667e-01 -3.333333333333333e-01 -1.666666666666665e-01
-1.666666666666667e-01 -3.333333333333333e-01 -1.666666666666665e-01
-1.666666666666667e-01 -3.333333333333333e-01 -1.666666666666665e-01
-1.666666666666667e-01 -3.333333333333333e-01 -1.666666666666665e-01
-1.666666666666667e-01 -3.333333333333333e-01 -1.666666666666665e-01
-1.666666666666667e-01 -3.333333333333333e-01 -1.666666666666665e-01
-1.666666666666667e-01 -3.333333333333333e-01 -1.666666666666665e-01
-1.666666666666667e-01 -3.333333333333333e-01 -1.666666666666665e-01
-1.666666666666667e-01 -3.333333333333333e-01 -1.666666666666665e-01
-1.666666666666667e-01 -3.333333333333333e-01 -1.666666666666665e-01
-1.666666666666667e-01 -3.333333333333333e-01 -1.666666666666665e-01
-1.666666666666667e-01 -3.333333333333333e-01 -1.666666666666665e-01
-1.666666666666667e-01 -3.333333333333333e-01 -1.666666666666665e-01
-1.666666666666667e-01 -3.333333333333333e-01 -1.666666666666665e-01
-1.666666666666667e-01 -3.333333333333333e-01 -1.666666666666665e-01
-1.666666666666667e-01 -3.333333333333333e-01 -1.666666666666665e-01
-1.666666666666667e-01 -3.333333333333333e-01 -1.666666666666665e-01
-1.666666666666667e-01 -3.333333333333333e-01 -1.666666666666665e-01
-1.666666666666667e-01 -3.333333333333333e-01 -1.666666666666665e-01
-1.666666666666667e-01 -3.333333333333333e-01 -1.666666666666665e-01
-1.666666666666667e-01 -3.333333333333333e-01 -1.666666666666665e-01
-1.666666666666667e-01 -3.333333333333333e-01 -1.666666666666665e-01
-1.666666666666667e-01 -3.333333333333333e-01 -1.666666666666665e-01
-1.666666666666667e-01 -3.333333333333333e-01 -1.666666666666665e-01
-1.666666666666667e-01 -3.333333333333333e-01 -1.666666666666665e-01
-1.666666666666667e-01 -3.333333333333333e-01 -1.666666666666665e-01
-1.666666666666667e-01 -3.333333333333333e-01 -1.666666666666665e-01
-1.666666666666667e-01 -3.333333333333333e-01 -1.666666666666665e-01
-1.666666666666667e-01 -3.333333333333333e-01 -1.666666666666665e-01
-1.666666666666667e-01 -3.333333333333333e-01 -1.666666666666665e-01
-1.666666666666667e-01 -3.333333333333333e-01 -1.666666666666665e-01
-1.666666666666667e-01 -3.333333333333333e-01 -1.666666666666665e-01
-1.666666666666667e-01 -3.333333333333333e-01 -1.666666666666665e-01
-1.666666666666667e-01 -3.333333333333333e-01 -1.666666666666665e-01
-1.666666666666667e-01 -3.333333333333333e-01 -1.666666666666665e-01
-1.666666666666667e-01 -3.333333333333333e-01 -1.666666666666665e-01
-1.666666666666667e-01 -3.333333333333333e-01 -1.666666666666665e-01
-1.666666666666667e-01 -3.333333333333333e-01 -1.666666666666665e-01
-1.666666666666667e-01 -3.333333333333333e-01 -1.666666666666665e-01
-1.666666666666667e-01 -3.333333333333333e-01 -1.666666666666665e-01
-1.666666666666667e-01 -3.333333333333333e-01 -1.666666666666665e-01
-1.666666666666667e-01 -3.333333333333333e-01 -1.666666666666665e-01
-1.666666666666667e-01 -3.333333333333333e-01 -1.666666666666665e-01
-1.666666666666667e-01 -3.333333333333333e-01 -1.666666666666665e-01
-1.666666666666667e-01 -3.333333333333333e-01 -1.666666666666665e-01
-1.666666666666667e-01 -3.333333333333333e-01 -1.666666666666665e-01
-1.666666666666667e-01 -3.333333333333333e-01 -1.666666666666665e-01
-1.666666666666667e-01 -3.333333333333333e-01 -1.666666666666665e-01
-1.666666666666667e-01 -3.333333333333333e-01 -1.666666666666665e-01
-1.666666666666667e-01 -3.333333333333333e-01 -1.666666666666665e-01
-1.666666666666667e-01 -3.333333333333333e-01 -1.666666666666665e-01
-1.666666666666667e-01 -3.333333333333333e-01 -1.666666666666665e-01
-1.666666666666667e-01 -3.333333333333333e-01 -1.666666666666665e-01
-1.666666666666667e-01 -3.333333333333333e-01 -1.666666666666665e-01
-1.666666666666667e-01 -3.333333333333333e-01 -1.666666666666665e-01
-1.666666666666667e-01 -3.333333333333333e-01 -1.666666666666665e-01
-1.666666666666667e-01 -3.333333333333333e-01 -1.666666666666665e-01
-1.666666666666667e-01 -3.333333333333333e-01 -1.666666666666665e-01
-1.666666666666667e-01 -3.333333333333333e-01 -1.666666666666665e-01
-1.666666666666667e-01 -3.333333333333333e-01 -1.666666666666665e-01
-1.666666666666667e-01 -3.333333333333333e-01 -1.666666666666665e-01
-1.666666666666667e-01 -3.333333333333333e-01 -1.666666666666665e-01
-1.666666666666667e-01 -3.333333333333333e-01 -1.666666666666665e-01
-1.666666666666667e-01 -3.333333333333333e-01 -1.666666666666665e-01
-1.666666666666667e-01 -3.333333333333333e-01 -1.666666666666665e-01
-1.666666666666667e-01 -3.333333333333333e-01 -1.666666666666665e-01
-1.666666666666667e-01 -3.333333333333333e-01 -1.666666666666665e-01
-1.666666666666667e-01 -3.333333333333333e-01 -1.666666666666665e-01
-1.666666666666667e-01 -3.333333333333333e-01 -1.666666666666665e-01
-1.666666666666667e-01 -3.333333333333333e-01 -1.666666666666665e-01
-1.666666666666667e-01 -3.333333333333333e-01 -1.666666666666665e-01
-1.666666666666667e-01 -3.333333333333333e-01 -1.666666666666665e-01
-1.666666666666667e-01 -3.333333333333333e-01 -1.666666666666665e-01
-1.666666666666667e-01 -3.333333333333333e-01 -1.666666666666665e-01
-1.666666666666667e-01 -3.333333333333333e-01 -1.666666666666665e-01
-1.666666666666667e-01 -3.333333333333333e-01 -1.666666666666665e-01
-1.666666666666667e-01 -3.333333333333333e-01 -1.666666666666665e-01
-1.666666666666667e-01 -3.333333333333333e-01 -1.666666666666665e-01
-1.666666666666667e-01 -3.333333333333333e-01 -1.666666666666665e-01
-1.666666666666667e-01 -3.333333333333333e-01 -1.666666666666665e-01
-1.666666666666667e-01 -3.333333333333333e-01 -1.666666666666665e-01
-1.666666666666667e-01 -3.333333333333333e-01 -1.666666666666665e-01
-1.666666666666667e-01 -3.333333333333333e-01 -1.666666666666665e-01
-1.666666666666667e-01 -3.333333333333333e-01 -1.666666666666665e-01
-1.666666666666667e-01 -3.333333333333333e-01 -1.666666666666665e-01
-1.666666666666667e-01 -3.333333333333333e-01 -1.666666666666665e-01
-1.666666666666667e-01 -3.333333333333333e-01 -1.666666666666665e-01
-1.666666666666667e-01 -3.333333333333333e-01 -1.666666666666665e-01
-1.666666666666667e-01 -3.333333333333333e-01 -1.666666666666665e-01
-1.666666666666667e-01 -3.333333333333333e-01 -1.666666666666665e-01
-1.666666666666667e-01 -3.333333333333333e-01 -1.666666666666665e-01
-1.666666666666667e-01 -3.333333333333333e-01 -1.666666666666665e-01
-1.666666666666667e-01 -3.333333333333333e-01 -1.666666666666665e-01
-1.666666666666667e-01 -3.333333333333333e-01 -1.666666666666665e-01
-1.666666666666667e-01 -3.333333333333333e-01 -1.666666666666665e-01
-1.666666666666667e-01 -3.333333333333333e-01 -1.666666666666665e-01
-1.666666666666667e-01 -3.333333333333333e-01 -1.666666666666665e-01
-1.666666666666667e-01 -3.333333333333333e-01 -1.666666666666665e-01
-1.666666666666667e-01 -3.333333333333333e-01 -1.666666666666665e-01
-1.666666666666667e-01 -3.333333333333333e-01 -1.666666666666665e-01
-1.666666666666667e-01 -3.333333333333333e-01 -1.666666666666665e-01
-1.666666666666667e-01 -3.333333333333333e-01 -1.666666666666665e-01
-1.666666666666667e-01 -3.333333333333333e-01 -1.666666666666665e-01
-1.666666666666667e-01 -3.333333333333333e-01 -1.666666666666665e-01
-1.666666666666667e-01 -3.333333333333333e-01 -1.666666666666665e-01
-1.666666666666667e-01 -3.333333333333333e-01 -1.666666666666665e-01
-1.666666666666667e-01 -3.333333333333333e-01 -1.666666666666665e-01
-1.666666666666667e-01 -3.333333333333333e-01 -1.666666666666665e-01
-1.666666666666667e-01 -3.333333333333333e-01 -1.666666666666665e-01
-1.666666666666667e-01 -3.333333333333333e-01 -1.666666666666665e-01
-1.666666666666667e-01 -3.333333333333333e-01 -1.666666666666665e-01
-1.666666666666667e-01 -3.333333333333333e-01 -1.666666666666665e-01
-1.666666666666667e-01 -3.333333333333333e-01 -1.666666666666665e-01
-1.666666666666667e-01 -3.333333333333333e-01 -1.666666666666665e-01
-1.666666666666667e-01 -3.333333333333333e-01 -1.666666666666665e-01
-1.666666666666667e-01 -3.333333333333333e-01 -1.666666666666665e-01
-1.666666666666667e-01 -3.333333333333333e-01 -1.666666666666665e-01
-1.666666666666667e-01 -3.333333333333333e-01 -1.666666666666665e-01
-1.666666666666667e-01 -3.333333333333333e-01 -1.666666666666665e-01
-1.666666666666667e-01 -3.333333333333333e-01 -1.666666666666665e-01
-1.666666666666667e-01 -3.333333333333333e-01 -1.666666666666665e-01
-1.666666666666667e-01 -3.333333333333333e-01 -1.666666666666665e-01
-1.666666666666667e-01 -3.333333333333333e-01 -1.666666666666665e-01
-1.666666666666667e-01 -3.333333333333333e-01 -1.666666666666665e-01
-1.666666666666667e-01 -3.333333333333333e-01 -1.666666666666665e-01
-1.666666666666667e-01 -3.333333333333333e-01 -1.666666666666665e-01
-1.666666666666667e-01 -3.333333333333333e-01 -1.666666666666665e-01
-1.666666666666667e-01 -3.333333333333333e-01 -1.666666666666665e-01
-1.666666666666667e-01 -3.333333333333333e-01 -1.666666666666665e-01
-1.666666666666667e-01 -3.333333333333333e-01 -1.666666666666665e-01
-1.666666666666667e-01 -3.333333333333333e-01 -1.666666666666665e-01
-1.666666666666667e-01 -3.333333333333333e-01 -1.666666666666665e-01
-1.666666666666667e-01 -3.333333333333333e-01 -1.666666666666665e-01
-1.666666666666667e-01 -3.333333333333333e-01 -1.666666666666665e-01
-1.666666666666667e-01 -3.333333333333333e-01 -1.666666666666665e-01
-1.666666666666667e-01 -3.333333333333333e-01 -1.666666666666665e-01
-1.666666666666667e-01 -3.333333333333333e-01 -1.666666666666665e-01
-1.666666666666667e-01 -3.333333333333333e-01 -1.666666666666665e-01
-1.666666666666667e-01 -3.333333333333333e-01 -1.666666666666665e-01
-1.666666666666667e-01 -3.333333333333333e-01 -1.666666666666665e-01
-1.666666666666667e-01 -3.333333333333333e-01 -1.666666666666665e-01
-1.666666666666667e-01 -3.333333333333333e-01 -1.666666666666665e-01
-1.666666666666667e-01 -3.333333333333333e-01 -1.666666666666665e-01
-1.666666666666667e-01 -3.333333333333333e-01 -1.666666666666665e-01
-1.666666666666667e-01 -3.333333333333333e-01 -1.666666666666665e-01
-1.666666666666667e-01 -3.333333333333333e-01 -1.666666666666665e-01
-1.666666666666667e-01 -3.333333333333333e-01 -1.666666666666665e-01
-1.666666666666667e-01 -3.333333333333333e-01 -1.666666666666665e-01
-1.666666666666667e-01 -3.333333333333333e-01 -1.666666666666665e-01
-1.666666666666667e-01 -3.333333333333333e-01 -1.666666666666665e-01
-1.666666666666667e-01 -3.333333333333333e-01 -1.666666666666665e-01
-1.666666666666667e-01 -3.333333333333333e-01 -1.666666666666665e-01
-1.666666666666667e-01 -3.333333333333333e-01 -1.666666666666665e-01
-1.666666666666667e-01 -3.333333333333333e-01 -1.666666666666665e-01
-1.666666666666667e-01 -3.333333333333333e-01 -1.666666666666665e-01
-1.666666666666667e-01 -3.333333333333333e-01 -1.666666666666665e-01
-1.666666666666667e-01 -3.333333333333333e-01 -1.666666666666665e-01
-1.666666666666667e-01 -3.333333333333333e-01 -1.666666666666665e-01
-1.666666666666667e-01 -3.333333333333333e-01 -1.666666666666665e-01
-1.666666666666667e-01 -3.333333333333333e-01 -1.666666666666665e-01
-1.666666666666667e-01 -3.333333333333333e-01 -1.666666666666665e-01
1.666666666666667e-01 3.333333333333333e-01 1.666666666666665e-01
-1.666666666666667e-01 -3.333333333333333e-01 -1.666666666666665e-01
-1.666666666666667e-01 -3.333333333333333e-01 -1.666666666666665e-01
-1.666666666666667e-01 -3.333333333333333e-01 -1.666666666666665e-01
-1.666666666666667e-01 -3.333333333333333e-01 -1.666666666666665e-01
-1.666666666666667e-01 -3.333333333333333e-01 -1.666666666666665e-01
-1.666666666666667e-01 -3.333333333333333e-01 -1.666666666666665e-01
-1.666666666666667e-01 -3.333333333333333e-01 -1.666666666666665e-01
-1.666666666666667e-01 -3.333333333333333e-01 -1.666666666666665e-01
-1.666666666666667e-01 -3.333333333333333e-01 -1.666666666666665e-01
-1.666666666666667e-01 -3.333333333333333e-01 -1.666666666666665e-01
-1.666666666666667e-01 -3.333333333333333e-01 -1.666666666666665e-01
-1.666666666666667e-01 -3.333333333333333e-01 -1.666666666666665e-01
-1.666666666666667e-01 -3.333333333333333e-01 -1.666666666666665e-01
-1.666666666666667e-01 -3.333333333333333e-01 -1.666666666666665e-01
-1.666666666666667e-01 -3.333333333333333e-01 -1.666666666666665e-01
-1.666666666666667e-01 -3.333333333333333e-01 -1.666666666666665e-01
-1.666666666666667e-01 -3.333333333333333e-01 -1.666666666666665e-01
-1.666666666666667e-01 -3.333333333333333e-01 -1.666666666666665e-01
-1.666666666666667e-01 -3.333333333333333e-01 -1.666666666666665e-01
-1.666666666666667e-01 -3.333333333333333e-01 -1.666666666666665e-01
-1.666666666666667e-01 -3.333333333333333e-01 -1.666666666666665e-01
-1.666666666666667e-01 -3.333333333333333e-01 -1.666666666666665e-01
-1.666666666666667e-01 -3.333333333333333e-01 -1.666666666666665e-01
-1.666666666666667e-01 -3.333333333333333e-01 -1.666666666666665e-01
-1.666666666666667e-01 -3.333333333333333e-01 -1.666666666666665e-01
-1.666666666666667e-01 -3.333333333333333e-01 -1.666666666666665e-01
-1.666666666666667e-01 -3.333333333333333e-01 -1.666666666666665e-01
-1.666666666666667e-01 -3.333333333333333e-01 -1.666666666666665e-01
-1.666666666666667e-01 -3.333333333333333e-01 -1.666666666666665e-01
-1.666666666666667e-01 -3.333333333333333e-01 -1.666666666666665e-01
-1.666666666666667e-01 -3.333333333333333e-01 -1.666666666666665e-01
-1.666666666666667e-01 -3.333333333333333e-01 -1.666666666666665e-01
-1.666666666666667e-01 -3.333333333333333e-01 -1.666666666666665e-01
-1.666666666666667e-01 -3.333333333333333e-01 -1.666666666666665e-01
-1.666666666666667e-01 -3.333333333333333e-01 -1.666666666666665e-01
-1.666666666666667e-01 -3.333333333333333e-01 -1.666666666666665e-01
-1.666666666666667e-01 -3.333333333333333e-01 -1.666666666666665e-01
-1.666666666666667e-01 -3.333333333333333e-01 -1.666666666666665e-01
-1.666666666666667e-01 -3.333333333333333e-01 -1.666666666666665e-01
-1.666666666666667e-01 -3.333333333333333e-01 -1.666666666666665e-01
-1.666666666666667e-01 -3.333333333333333e-01 -1.666666666666665e-01
-1.666666666666667e-01 -3.333333333333333e-01 -1.666666666666665e-01
-1.666666666666667e-01 -3.333333333333333e-01 -1.666666666666665e-01
-1.666666666666667e-01 -3.333333333333333e-01 -1.666666666666665e-01
-1.666666666666667e-01 -3.333333333333333e-01 -1.666666666666665e-01
-1.666666666666667e-01 -3.333333333333333e-01 -1.666666666666665e-01
-1.666666666666667e-01 -3.333333333333333e-01 -1.666666666666665e-01
-1.666666666666667e-01 -3.333333333333333e-01 -1.666666666666665e-01
-1.666666666666667e-01 -3.333333333333333e-01 -1.666666666666665e-01
-1.666666666666667e-01 -3.333333333333333e-01 -1.666666666666665e-01
-1.666666666666667e-01 -3.333333333333333e-01 -1.666666666666665e-01
-1.666666666666667e-01 -3.333333333333333e-01 -1.666666666666665e-01
-1.666666666666667e-01 -3.333333333333333e-01 -1.666666666666665e-01
-1.666666666666667e-01 -3.333333333333333e-01 -1.666666666666665e-01
-1.666666666666667e-01 -3.333333333333333e-01 -1.666666666666665e-01
-1.666666666666667e-01 -3.333333333333333e-01 -1.666666666666665e-01
-1.666666666666667e-01 -3.333333333333333e-01 -1.666666666666665e-01
-1.666666666666667e-01 -3.333333333333333e-01 -1.666666666666665e-01
-1.666666666666667e-01 -3.333333333333333e-01 -1.666666666666665e-01
-1.666666666666667e-01 -3.333333333333333e-01 -1.666666666666665e-01
-1.666666666666667e-01 -3.333333333333333e-01 -1.666666666666665e-01
-1.666666666666667e-01 -3.333333333333333e-01 -1.666666666666665e-01
-1.666666666666667e-01 -3.333333333333333e-01 -1.666666666666665e-01
-1.666666666666667e-01 -3.333333333333333e-01 -1.666666666666665e-01
-1.666666666666667e-01 -3.333333333333333e-01 -1.666666666666665e-01
-1.666666666666667e-01 -3.333333333333333e-01 -1.666666666666665e-01
-1.666666666666667e-01 -3.333333333333333e-01 -1.666666666666665e-01
-1.666666666666667e-01 -3.333333333333333e-01 -1.666666666666665e-01
-1.666666666666667e-01 -3.333333333333333e-01 -1.666666666666665e-01
-1.666666666666667e-01 -3.333333333333333e-01 -1.666666666666665e-01
-1.666666666666667e-01 -3.333333333333333e-01 -1.666666666666665e-01
-1.666666666666667e-01 -3.333333333333333e-01 -1.666666666666665e-01
-1.666666666666667e-01 -3.333333333333333e-01 -1.666666666666665e-01
-1.666666666666667e-01 -3.333333333333333e-01 -1.666666666666665e-01
-1.666666666666667e-01 -3.333333333333333e-01 -1.666666666666665e-01
-1.666666666666667e-01 -3.333333333333333e-01 -1.666666666666665e-01
-1.666666666666667e-01 -3.333333333333333e-01 -1.666666666666665e-01
-1.666666666666667e-01 -3.333333333333333e-01 -1.666666666666665e-01
-1.666666666666667e-01 -3.333333333333333e-01 -1.666666666666665e-01
-1.666666666666667e-01 -3.333333333333333e-01 -1.666666666666665e-01
-1.666666666666667e-01 -3.333333333333333e-01 -1.666666666666665e-01
-1.666666666666667e-01 -3.333333333333333e-01 -1.666666666666665e-01
-1.666666666666667e-01 -3.333333333333333e-01 -1.666666666666665e-01
-1.666666666666667e-01 -3.333333333333333e-01 -1.666666666666665e-01
-1.666666666666667e-01 -3.333333333333333e-01 -1.666666666666665e-01
-1.666666666666667e-01 -3.333333333333333e-01 -1.666666666666665e-01
-1.666666666666667e-01 -3.333333333333333e-01 -1.666666666666665e-01
-1.666666666666667e-01 -3.333333333333333e-01 -1.666666666666665e-01
-1.666666666666667e-01 -3.333333333333333e-01 -1.666666666666665e-01
-1.666666666666667e-01 -3.333333333333333e-01 -1.666666666666665e-01
-1.666666666666667e-01 -3.333333333333333e-01 -1.666666666666665e-01
-1.666666666666667e-01 -3.333333333333333e-01 -1.666666666666665e-01
-1.666666666666667e-01 -3.333333333333333e-01 -1.666666666666665e-01
-1.666666666666667e-01 -3.333333333333333e-01 -1.666666666666665e-01
-1.666666666666667e-01 -3.333333333333333e-01 -1.666666666666665e-01
-1.666666666666667e-01 -3.333333333333333e-01 -1.666666666666665e-01
-1.666666666666667e-01 -3.333333333333333e-01 -1.666666666666665e-01
-1.666666666666667e-01 -3.333333333333333e-01 -1.666666666666665e-01
-1.666666666666667e-01 -3.333333333333333e-01 -1.666666666666665e-01
-1.666666666666667e-01 -3.333333333333333e-01 -1.666666666666665e-01
-1.666666666666667e-01 -3.333333333333333e-01 -1.666666666666665e-01
-1.666666666666667e-01 -3.333333333333333e-01 -1.666666666666665e-01
-1.666666666666667e-01 -3.333333333333333e-01 -1.666666666666665e-01
-1.666666666666667e-01 -3.333333333333333e-01 -1.666666666666665e-01
-1.666666666666667e-01 -3.333333333333333e-01 -1.666666666666665e-01
-1.666666666666667e-01 -3.333333333333333e-01 -1.666666666666665e-01
-1.666666666666667e-01 -3.333333333333333e-01 -1.666666666666665e-01
-1.666666666666667e-01 -3.333333333333333e-01 -1.666666666666665e-01
-1.666666666666667e-01 -3.333333333333333e-01 -1.666666666666665e-01
-1.666666666666667e-01 -3.333333333333333e-01 -1.666666666666665e-01
-1.666666666666667e-01 -3.333333333333333e-01 -1.666666666666665e-01
-1.666666666666667e-01 -3.333333333333333e-01 -1.666666666666665e-01
-1.666666666666667e-01 -3.333333333333333e-01 -1.666666666666665e-01
-1.666666666666667e-01 -3.333333333333333e-01 -1.666666666666665e-01
-1.666666666666667e-01 -3.333333333333333e-01 -1.666666666666665e-01
-1.666666666666667e-01 -3.333333333333333e-01 -1.666666666666665e-01
-1.666666666666667e-01 -3.333333333333333e-01 -1.666666666666665e-01
-1.666666666666667e-01 -3.333333333333333e-01 -1.666666666666665e-01
-1.666666666666667e-01 -3.333333333333333e-01 -1.666666666666665e-01
-1.666666666666667e-01 -3.333333333333333e-01 -1.666666666666665e-01
-1.666666666666667e-01 -3.333333333333333e-01 -1.666666666666665e-01
-1.666666666666667e-01 -3.333333333333333e-01 -1.666666666666665e-01
-1.666666666666667e-01 -3.333333333333333e-01 -1.666666666666665e-01
-1.666666666666667e-01 -3.333333333333333e-01 -1.666666666666665e-01
-1.666666666666667e-01 -3.333333333333333e-01 -1.666666666666665e-01
-1.666666666666667e-01 -3.333333333333333e-01 -1.666666666666665e-01
-1.666666666666667e-01 -3.333333333333333e-01 -1.666666666666665e-01
-1.666666666666667e-01 -3.333333333333333e-01 -1.666666666666665e-01
-1.666666666666667e-01 -3.333333333333333e-01 -1.666666666666665e-01
-1.666666666666667e-01 -3.333333333333333e-01 -1.666666666666665e-01
-1.666666666666667e-01 -3.333333333333333e-01 -1.666666666666665e-01
-1.666666666666667e-01 -3.333333333333333e-01 -1.666666666666665e-01
-1.666666666666667e-01 -3.333333333333333e-01 -1.666666666666665e-01
-1.666666666666667e-01 -3.333333333333333e-01 -1.666666666666665e-01
-1.666666666666667e-01 -3.333333333333333e-01 -1.666666666666665e-01
-1.666666666666667e-01 -3.333333333333333e-01 -1.666666666666665e-01
-1.666666666666667e-01 -3.333333333333333e-01 -1.666666666666665e-01
-1.666666666666667e-01 -3.333333333333333e-01 -1.666666666666665e-01
-1.666666666666667e-01 -3.333333333333333e-01 -1.666666666666665e-01
-1.666666666666667e-01 -3.333333333333333e-01 -1.666666666666665e-01
-1.666666666666667e-01 -3.333333333333333e-01 -1.666666666666665e-01
-1.666666666666667e-01 -3.333333333333333e-01 -1.666666666666665e-01
-1.666666666666667e-01 -3.333333333333333e-01 -1.666666666666665e-01
-1.666666666666667e-01 -3.333333333333333e-01 -1.666666666666665e-01
-1.666666666666667e-01 -3.333333333333333e-01 -1.666666666666665e-01
-1.666666666666667e-01 -3.333333333333333e-01 -1.666666666666665e-01
-1.666666666666667e-01 -3.333333333333333e-01 -1.666666666666665e-01
-1.666666666666667e-01 -3.333333333333333e-01 -1.666666666666665e-01
-1.666666666666667e-01 -3.333333333333333e-01 -1.666666666666665e-01
-1.666666666666667e-01 -3.333333333333333e-01 -1.666666666666665e-01
-1.666666666666667e-01 -3.333333333333333e-01 -1.666666666666665e-01
-1.666666666666667e-01 -3.333333333333333e-01 -1.666666666666665e-01
-1.666666666666667e-01 -3.333333333333333e-01 -1.666666666666665e-01
-1.666666666666667e-01 -3.333333333333333e-01 -1.666666666666665e-01
-1.666666666666667e-01 -3.333333333333333e-01 -1.666666666666665e-01
-1.666666666666667e-01 -3.333333333333333e-01 -1.666666666666665e-01
-1.666666666666667e-01 -3.333333333333333e-01 -1.666666666666665e-01
-1.666666666666667e-01 -3.333333333333333e-01 -1.666666666666665e-01
-1.666666666666667e-01 -3.333333333333333e-01 -1.666666666666665e-01
-1.666666666666667e-01 -3.333333333333333e-01 -1.666666666666665e-01
-1.666666666666667e-01 -3.333333333333333e-01 -1.666666666666665e-01
-1.666666666666667e-01 -3.333333333333333e-01 -1.666666666666665e-01
-1.666666666666667e-01 -3.333333333333333e-01 -1.666666666666665e-01
-1.666666666666667e-01 -3.333333333333333e-01 -1.666666666666665e-01
-1.666666666666667e-01 -3.333333333333333e-01 -1.666666666666665e-01
-1.666666666666667e-01 -3.333333333333333e-01 -1.666666666666665e-01
-1.666666666666667e-01 -3.333333333333333e-01 -1.666666666666665e-01
-1.666666666666667e-01 -3.333333333333333e-01 -1.666666666666665e-01
-1.666666666666667e-01 -3.333333333333333e-01 -1.666666666666665e-01
-1.666666666666667e-01 -3.333333333333333e-01 -1.666666666666665e-01
-1.666666666666667e-01 -3.333333333333333e-01 -1.666666666666665e-01
-1.666666666666667e-01 -3.333333333333333e-01 -1.666666666666665e-01
-1.666666666666667e-01 -3.333333333333333e-01 -1.666666666666665e-01
-1.666666666666667e-01 -3.333333333333333e-01 -1.666666666666665e-01
-1.666666666666667e-01 -3.333333333333333e-01 -1.666666666666665e-01
-1.666666666666667e-01 -3.333333333333333e-01 -1.666666666666665e-01
-1.666666666666667e-01 -3.333333333333333e-01 -1.666666666666665e-01
-1.666666666666667e-01 -3.333333333333333e-01 -1.666666666666665e-01
-1.666666666666667e-01 -3.333333333333333e-01 -1.666666666666665e-01
1.666666666666667e-01 3.333333333333333e-01 1.666666666666665e-01
-1.666666666666667e-01 -3.333333333333333e-01 -1.666666666666665e-01
1.666666666666667e-01 3.333333333333333e-01 1.666666666666665e-01
1.666666666666667e-01 3.333333333333333e-01 1.666666666666665e-01
1.666666666666667e-01 3.333333333333333e-01 1.666666666666665e-01
1.666666666666667e-01 3.333333333333333e-01 1.666666666666665e-01
1.666666666666667e-01 3.333333333333333e-01 1.666666666666665e-01
1.666666666666667e-01 3.333333333333333e-01 1.666666666666665e-01
1.666666666666667e-01 3.333333333333333e-01 1.666666666666665e-01
1.666666666666667e-01 3.333333333333333e-01 1.666666666666665e-01
1.666666666666667e-01 3.333333333333333e-01 1.666666666666665e-01
1.666666666666667e-01 3.333333333333333e-01 1.666666666666665e-01
1.666666666666667e-01 3.333333333333333e-01 1.666666666666665e-01
1.666666666666667e-01 3.333333333333333e-01 1.666666666666665e-01
1.666666666666667e-01 3.333333333333333e-01 1.666666666666665e-01
1.666666666666667e-01 3.333333333333333e-01 1.666666666666665e-01
1.666666666666667e-01 3.333333333333333e-01 1.666666666666665e-01
1.666666666666667e-01 3.333333333333333e-01 1.666666666666665e-01
1.666666666666667e-01 3.333333333333333e-01 1.666666666666665e-01
1.666666666666667e-01 3.333333333333333e-01 1.666666666666665e-01
1.666666666666667e-01 3.333333333333333e-01 1.666666666666665e-01
1.666666666666667e-01 3.333333333333333e-01 1.666666666666665e-01
1.666666666666667e-01 3.333333333333333e-01 1.666666666666665e-01
1.666666666666667e-01 3.333333333333333e-01 1.666666666666665e-01
1.666666666666667e-01 3.333333333333333e-01 1.666666666666665e-01
1.666666666666667e-01 3.333333333333333e-01 1.666666666666665e-01
1.666666666666667e-01 3.333333333333333e-01 1.666666666666665e-01
1.666666666666667e-01 3.333333333333333e-01 1.666666666666665e-01
1.666666666666667e-01 3.333333333333333e-01 1.666666666666665e-01
1.666666666666667e-01 3.333333333333333e-01 1.666666666666665e-01
1.666666666666667e-01 3.333333333333333e-01 1.666666666666665e-01
1.666666666666667e-01 3.333333333333333e-01 1.666666666666665e-01
1.666666666666667e-01 3.333333333333333e-01 1.666666666666665e-01
1.666666666666667e-01 3.333333333333333e-01 1.666666666666665e-01
1.666666666666667e-01 3.333333333333333e-01 1.666666666666665e-01
1.666666666666667e-01 3.333333333333333e-01 1.666666666666665e-01
1.666666666666667e-01 3.333333333333333e-01 1.666666666666665e-01
1.666666666666667e-01 3.333333333333333e-01 1.666666666666665e-01
1.666666666666667e-01 3.333333333333333e-01 1.666666666666665e-01
1.666666666666667e-01 3.333333333333333e-01 1.666666666666665e-01
1.666666666666667e-01 3.333333333333333e-01 1.666666666666665e-01
1.666666666666667e-01 3.333333333333333e-01 1.666666666666665e-01
1.666666666666667e-01 3.333333333333333e-01 1.666666666666665e-01
1.666666666666667e-01 3.333333333333333e-01 1.666666666666665e-01
1.666666666666667e-01 3.333333333333333e-01 1.666666666666665e-01
1.666666666666667e-01 3.333333333333333e-01 1.666666666666665e-01
1.666666666666667e-01 3.333333333333333e-01 1.666666666666665e-01
1.666666666666667e-01 3.333333333333333e-01 1.666666666666665e-01
1.666666666666667e-01 3.333333333333333e-01 1.666666666666665e-01
1.666666666666667e-01 3.333333333333333e-01 1.666666666666665e-01
1.666666666666667e-01 3.333333333333333e-01 1.666666666666665e-01
1.666666666666667e-01 3.333333333333333e-01 1.666666666666665e-01
1.666666666666667e-01 3.333333333333333e-01 1.666666666666665e-01
1.666666666666667e-01 3.333333333333333e-01 1.666666666666665e-01
1.666666666666667e-01 3.333333333333333e-01 1.666666666666665e-01
1.666666666666667e-01 3.333333333333333e-01 1.666666666666665e-01
1.666666666666667e-01 3.333333333333333e-01 1.666666666666665e-01
1.666666666666667e-01 3.333333333333333e-01 1.666666666666665e-01
1.666666666666667e-01 3.333333333333333e-01 1.666666666666665e-01
1.666666666666667e-01 3.333333333333333e-01 1.666666666666665e-01
1.666666666666667e-01 3.333333333333333e-01 1.666666666666665e-01
1.666666666666667e-01 3.333333333333333e-01 1.666666666666665e-01
1.666666666666667e-01 3.333333333333333e-01 1.666666666666665e-01
1.666666666666667e-01 3.333333333333333e-01 1.666666666666665e-01
1.666666666666667e-01 3.333333333333333e-01 1.666666666666665e-01
1.666666666666667e-01 3.333333333333333e-01 1.666666666666665e-01
1.666666666666667e-01 3.333333333333333e-01 1.666666666666665e-01
1.666666666666667e-01 3.333333333333333e-01 1.666666666666665e-01
1.666666666666667e-01 3.333333333333333e-01 1.666666666666665e-01
1.666666666666667e-01 3.333333333333333e-01 1.666666666666665e-01
1.666666666666667e-01 3.333333333333333e-01 1.666666666666665e-01
1.666666666666667e-01 3.333333333333333e-01 1.666666666666665e-01
1.666666666666667e-01 3.333333333333333e-01 1.666666666666665e-01
1.666666666666667e-01 3.333333333333333e-01 1.666666666666665e-01
1.666666666666667e-01 3.333333333333333e-01 1.666666666666665e-01
1.666666666666667e-01 3.333333333333333e-01 1.666666666666665e-01
1.666666666666667e-01 3.333333333333333e-01 1.666666666666665e-01
1.666666666666667e-01 3.333333333333333e-01 1.666666666666665e-01
1.666666666666667e-01 3.333333333333333e-01 1.666666666666665e-01
1.666666666666667e-01 3.333333333333333e-01 1.666666666666665e-01
1.666666666666667e-01 3.333333333333333e-01 1.666666666666665e-01
1.666666666666667e-01 3.333333333333333e-01 1.666666666666665e-01
1.666666666666667e-01 3.333333333333333e-01 1.666666666666665e-01
1.666666666666667e-01 3.333333333333333e-01 1.666666666666665e-01
1.666666666666667e-01 3.333333333333333e-01 1.666666666666665e-01
1.666666666666667e-01 3.333333333333333e-01 1.666666666666665e-01
1.666666666666667e-01 3.333333333333333e-01 1.666666666666665e-01
1.666666666666667e-01 3.333333333333333e-01 1.666666666666665e-01
1.666666666666667e-01 3.333333333333333e-01 1.666666666666665e-01
1.666666666666667e-01 3.333333333333333e-01 1.666666666666665e-01
1.666666666666667e-01 3.333333333333333e-01 1.666666666666665e-01
1.666666666666667e-01 3.333333333333333e-01 1.666666666666665e-01
1.666666666666667e-01 3.333333333333333e-01 1.666666666666665e-01
1.666666666666667e-01 3.333333333333333e-01 1.666666666666665e-01
1.666666666666667e-01 3.333333333333333e-01 1.666666666666665e-01
1.666666666666667e-01 3.333333333333333e-01 1.666666666666665e-01
1.666666666666667e-01 3.333333333333333e-01 1.666666666666665e-01
1.666666666666667e-01 3.333333333333333e-01 1.666666666666665e-01
1.666666666666667e-01 3.333333333333333e-01 1.666666666666665e-01
1.666666666666667e-01 3.333333333333333e-01 1.666666666666665e-01
1.666666666666667e-01 3.333333333333333e-01 1.666666666666665e-01
1.666666666666667e-01 3.333333333333333e-01 1.666666666666665e-01
1.666666666666667e-01 3.333333333333333e-01 1.666666666666665e-01
1.666666666666667e-01 3.333333333333333e-01 1.666666666666665e-01
1.666666666666667e-01 3.333333333333333e-01 1.666666666666665e-01
1.666666666666667e-01 3.333333333333333e-01 1.666666666666665e-01
1.666666666666667e-01 3.333333333333333e-01 1.666666666666665e-01
1.666666666666667e-01 3.333333333333333e-01 1.666666666666665e-01
1.666666666666667e-01 3.333333333333333e-01 1.666666666666665e-01
1.666666666666667e-01 3.333333333333333e-01 1.666666666666665e-01
1.666666666666667e-01 3.333333333333333e-01 1.666666666666665e-01
1.666666666666667e-01 3.333333333333333e-01 1.666666666666665e-01
1.666666666666667e-01 3.333333333333333e-01 1.666666666666665e-01
1.666666666666667e-01 3.333333333333333e-01 1.666666666666665e-01
1.666666666666667e-01 3.333333333333333e-01 1.666666666666665e-01
1.666666666666667e-01 3.333333333333333e-01 1.666666666666665e-01
1.666666666666667e-01 3.333333333333333e-01 1.666666666666665e-01
1.666666666666667e-01 3.333333333333333e-01 1.666666666666665e-01
1.666666666666667e-01 3.333333333333333e-01 1.666666666666665e-01
1.666666666666667e-01 3.333333333333333e-01 1.666666666666665e-01
1.666666666666667e-01 3.333333333333333e-01 1.666666666666665e-01
1.666666666666667e-01 3.333333333333333e-01 1.666666666666665e-01
1.666666666666667e-01 3.333333333333333e-01 1.666666666666665e-01
1.666666666666667e-01 3.333333333333333e-01 1.666666666666665e-01
1.666666666666667e-01 3.333333333333333e-01 1.666666666666665e-01
1.666666666666667e-01 3.333333333333333e-01 1.666666666666665e-01
1.666666666666667e-01 3.333333333333333e-01 1.666666666666665e-01
1.666666666666667e-01 3.333333333333333e-01 1.666666666666665e-01
1.666666666666667e-01 3.333333333333333e-01 1.666666666666665e-01
1.666666666666667e-01 3.333333333333333e-01 1.666666666666665e-01
1.666666666666667e-01 3.333333333333333e-01 1.666666666666665e-01
1.666666666666667e-01 3.333333333333333e-01 1.666666666666665e-01
1.666666666666667e-01 3.333333333333333e-01 1.666666666666665e-01
1.666666666666667e-01 3.333333333333333e-01 1.666666666666665e-01
1.666666666666667e-01 3.333333333333333e-01 1.666666666666665e-01
1.666666666666667e-01 3.333333333333333e-01 1.666666666666665e-01
1.666666666666667e-01 3.333333333333333e-01 1.666666666666665e-01
1.666666666666667e-01 3.333333333333333e-01 1.666666666666665e-01
1.666666666666667e-01 3.333333333333333e-01 1.666666666666665e-01
1.666666666666667e-01 3.333333333333333e-01 1.666666666666665e-01
1.666666666666667e-01 3.333333333333333e-01 1.666666666666665e-01
1.666666666666667e-01 3.333333333333333e-01 1.666666666666665e-01
1.666666666666667e-01 3.333333333333333e-01 1.666666666666665e-01
1.666666666666667e-01 3.333333333333333e-01 1.666666666666665e-01
1.666666666666667e-01 3.333333333333333e-01 1.666666666666665e-01
1.666666666666667e-01 3.333333333333333e-01 1.666666666666665e-01
1.666666666666667e-01 3.333333333333333e-01 1.666666666666665e-01
1.666666666666667e-01 3.333333333333333e-01 1.666666666666665e-01
1.666666666666667e-01 3.333333333333333e-01 1.666666666666665e-01
1.666666666666667e-01 3.333333333333333e-01 1.666666666666665e-01
1.666666666666667e-01 3.333333333333333e-01 1.666666666666665e-01
1.666666666666667e-01 3.333333333333333e-01 1.666666666666665e-01
1.666666666666667e-01 3.333333333333333e-01 1.666666666666665e-01
1.666666666666667e-01 3.333333333333333e-01 1.666666666666665e-01
1.666666666666667e-01 3.333333333333333e-01 1.666666666666665e-01
1.666666666666667e-01 3.333333333333333e-01 1.666666666666665e-01
1.666666666666667e-01 3.333333333333333e-01 1.666666666666665e-01
1.666666666666667e-01 3.333333333333333e-01 1.666666666666665e-01
1.666666666666667e-01 3.333333333333333e-01 1.666666666666665e-01
1.666666666666667e-01 3.333333333333333e-01 1.666666666666665e-01
1.666666666666667e-01 3.333333333333333e-01 1.666666666666665e-01
1.666666666666667e-01 3.333333333333333e-01 1.666666666666665e-01
1.666666666666667e-01 3.333333333333333e-01 1.666666666666665e-01
1.666666666666667e-01 3.333333333333333e-01 1.666666666666665e-01
1.666666666666667e-01 3.333333333333333e-01 1.666666666666665e-01
1.666666666666667e-01 3.333333333333333e-01 1.666666666666665e-01
1.666666666666667e-01 3.333333333333333e-01 1.666666666666665e-01
1.666666666666667e-01 3.333333333333333e-01 1.666666666666665e-01
1.666666666666667e-01 3.333333333333333e-01 1.666666666666665e-01
1.666666666666667e-01 3.333333333333333e-01 1.666666666666665e-01
-1.666666666666667e-01 -3.333333333333333e-01 -1.666666666666665e-01
1.666666666666667e-01 3.333333333333333e-01 1.666666666666665e-01
1.666666666666667e-01 3.333333333333333e-01 1.666666666666665e-01
1.666666666666667e-01 3.333333333333333e-01 1.666666666666665e-01
1.666666666666667e-01 3.333333333333333e-01 1.666666666666665e-01
1.666666666666667e-01 3.333333333333333e-01 1.666666666666665e-01
1.666666666666667e-01 3.333333333333333e-01 1.666666666666665e-01
1.666666666666667e-01 3.333333333333333e-01 1.666666666666665e-01
1.666666666666667e-01 3.333333333333333e-01 1.666666666666665e-01
1.666666666666667e-01 3.333333333333333e-01 1.666666666666665e-01
1.666666666666667e-01 3.333333333333333e-01 1.666666666666665e-01
1.666666666666667e-01 3.333333333333333e-01 1.666666666666665e-01
1.666666666666667e-01 3.333333333333333e-01 1.666666666666665e-01
1.666666666666667e-01 3.333333333333333e-01 1.666666666666665e-01
1.666666666666667e-01 3.333333333333333e-01 1.666666666666665e-01
1.666666666666667e-01 3.333333333333333e-01 1.666666666666665e-01
1.666666666666667e-01 3.333333333333333e-01 1.666666666666665e-01
1.666666666666667e-01 3.333333333333333e-01 1.666666666666665e-01
1.666666666666667e-01 3.333333333333333e-01 1.666666666666665e-01
1.666666666666667e-01 3.333333333333333e-01 1.666666666666665e-01
1.666666666666667e-01 3.333333333333333e-01 1.666666666666665e-01
1.666666666666667e-01 3.333333333333333e-01 1.666666666666665e-01
1.666666666666667e-01 3.333333333333333e-01 1.666666666666665e-01
1.666666666666667e-01 3.333333333333333e-01 1.666666666666665e-01
1.666666666666667e-01 3.333333333333333e-01 1.666666666666665e-01
1.666666666666667e-01 3.333333333333333e-01 1.666666666666665e-01
1.666666666666667e-01 3.333333333333333e-01 1.666666666666665e-01
1.666666666666667e-01 3.333333333333333e-01 1.666666666666665e-01
1.666666666666667e-01 3.333333333333333e-01 1.666666666666665e-01
1.666666666666667e-01 3.333333333333333e-01 1.666666666666665e-01
1.666666666666667e-01 3.333333333333333e-01 1.666666666666665e-01
1.666666666666667e-01 3.333333333333333e-01 1.666666666666665e-01
1.666666666666667e-01 3.333333333333333e-01 1.666666666666665e-01
1.666666666666667e-01 3.333333333333333e-01 1.666666666666665e-01
1.666666666666667e-01 3.333333333333333e-01 1.666666666666665e-01
1.666666666666667e-01 3.333333333333333e-01 1.666666666666665e-01
1.666666666666667e-01 3.333333333333333e-01 1.666666666666665e-01
1.666666666666667e-01 3.333333333333333e-01 1.666666666666665e-01
1.666666666666667e-01 3.333333333333333e-01 1.666666666666665e-01
1.666666666666667e-01 3.333333333333333e-01 1.666666666666665e-01
1.666666666666667e-01 3.333333333333333e-01 1.666666666666665e-01
1.666666666666667e-01 3.333333333333333e-01 1.666666666666665e-01
1.666666666666667e-01 3.333333333333333e-01 1.666666666666665e-01
1.666666666666667e-01 3.333333333333333e-01 1.666666666666665e-01
1.666666666666667e-01 3.333333333333333e-01 1.666666666666665e-01
1.666666666666667e-01 3.333333333333333e-01 1.666666666666665e-01
1.666666666666667e-01 3.333333333333333e-01 1.666666666666665e-01
1.666666666666667e-01 3.333333333333333e-01 1.666666666666665e-01
1.666666666666667e-01 3.333333333333333e-01 1.666666666666665e-01
1.666666666666667e-01 3.333333333333333e-01 1.666666666666665e-01
1.666666666666667e-01 3.333333333333333e-01 1.666666666666665e-01
1.666666666666667e-01 3.333333333333333e-01 1.666666666666665e-01
1.666666666666667e-01 3.333333333333333e-01 1.666666666666665e-01
1.666666666666667e-01 3.333333333333333e-01 1.666666666666665e-01
1.666666666666667e-01 3.333333333333333e-01 1.666666666666665e-01
1.666666666666667e-01 3.333333333333333e-01 1.666666666666665e-01
1.666666666666667e-01 3.333333333333333e-01 1.666666666666665e-01
1.666666666666667e-01 3.333333333333333e-01 1.666666666666665e-01
1.666666666666667e-01 3.333333333333333e-01 1.666666666666665e-01
1.666666666666667e-01 3.333333333333333e-01 1.666666666666665e-01
1.666666666666667e-01 3.333333333333333e-01 1.666666666666665e-01
1.666666666666667e-01 3.333333333333333e-01 1.666666666666665e-01
1.666666666666667e-01 3.333333333333333e-01 1.666666666666665e-01
1.666666666666667e-01 3.333333333333333e-01 1.666666666666665e-01
1.666666666666667e-01 3.333333333333333e-01 1.666666666666665e-01
1.666666666666667e-01 3.333333333333333e-01 1.666666666666665e-01
1.666666666666667e-01 3.333333333333333e-01 1.666666666666665e-01
1.666666666666667e-01 3.333333333333333e-01 1.666666666666665e-01
1.666666666666667e-01 3.333333333333333e-01 1.666666666666665e-01
1.666666666666667e-01 3.333333333333333e-01 1.666666666666665e-01
1.666666666666667e-01 3.333333333333333e-01 1.666666666666665e-01
1.666666666666667e-01 3.333333333333333e-01 1.666666666666665e-01
1.666666666666667e-01 3.333333333333333e-01 1.666666666666665e-01
1.666666666666667e-01 3.333333333333333e-01 1.666666666666665e-01
1.666666666666667e-01 3.333333333333333e-01 1.666666666666665e-01
1.666666666666667e-01 3.333333333333333e-01 1.666666666666665e-01
1.666666666666667e-01 3.333333333333333e-01 1.666666666666665e-01
1.666666666666667e-01 3.333333333333333e-01 1.666666666666665e-01
1.666666666666667e-01 3.333333333333333e-01 1.666666666666665e-01
1.666666666666667e-01 3.333333333333333e-01 1.666666666666665e-01
1.666666666666667e-01 3.333333333333333e-01 1.666666666666665e-01
1.666666666666667e-01 3.333333333333333e-01 1.666666666666665e-01
1.666666666666667e-01 3.333333333333333e-01 1.666666666666665e-01
1.666666666666667e-01 3.333333333333333e-01 1.666666666666665e-01
1.666666666666667e-01 3.333333333333333e-01 1.666666666666665e-01
1.666666666666667e-01 3.333333333333333e-01 1.666666666666665e-01
1.666666666666667e-01 3.333333333333333e-01 1.666666666666665e-01
1.666666666666667e-01 3.333333333333333e-01 1.666666666666665e-01
1.666666666666667e-01 3.333333333333333e-01 1.666666666666665e-01
1.666666666666667e-01 3.333333333333333e-01 1.666666666666665e-01
1.666666666666667e-01 3.333333333333333e-01 1.666666666666665e-01
1.666666666666667e-01 3.333333333333333e-01 1.666666666666665e-01
1.666666666666667e-01 3.333333333333333e-01 1.666666666666665e-01
1.666666666666667e-01 3.333333333333333e-01 1.666666666666665e-01
1.666666666666667e-01 3.333333333333333e-01 1.666666666666665e-01
1.666666666666667e-01 3.333333333333333e-01 1.666666666666665e-01
1.666666666666667e-01 3.333333333333333e-01 1.666666666666665e-01
1.666666666666667e-01 3.333333333333333e-01 1.666666666666665e-01
1.666666666666667e-01 3.333333333333333e-01 1.666666666666665e-01
1.666666666666667e-01 3.333333333333333e-01 1.666666666666665e-01
1.666666666666667e-01 3.333333333333333e-01 1.666666666666665e-01
1.666666666666667e-01 3.333333333333333e-01 1.666666666666665e-01
1.666666666666667e-01 3.333333333333333e-01 1.666666666666665e-01
1.666666666666667e-01 3.333333333333333e-01 1.666666666666665e-01
1.666666666666667e-01 3.333333333333333e-01 1.666666666666665e-01
1.666666666666667e-01 3.333333333333333e-01 1.666666666666665e-01
1.666666666666667e-01 3.333333333333333e-01 1.666666666666665e-01
1.666666666666667e-01 3.333333333333333e-01 1.666666666666665e-01
1.666666666666667e-01 3.333333333333333e-01 1.666666666666665e-01
1.666666666666667e-01 3.333333333333333e-01 1.666666666666665e-01
1.666666666666667e-01 3.333333333333333e-01 1.666666666666665e-01
1.666666666666667e-01 3.333333333333333e-01 1.666666666666665e-01
1.666666666666667e-01 3.333333333333333e-01 1.666666666666665e-01
1.666666666666667e-01 3.333333333333333e-01 1.666666666666665e-01
1.666666666666667e-01 3.333333333333333e-01 1.666666666666665e-01
1.666666666666667e-01 3.333333333333333e-01 1.666666666666665e-01
1.666666666666667e-01 3.333333333333333e-01 1.666666666666665e-01
1.666666666666667e-01 3.333333333333333e-01 1.666666666666665e-01
1.666666666666667e-01 3.333333333333333e-01 1.666666666666665e-01
1.666666666666667e-01 3.333333333333333e-01 1.666666666666665e-01
1.666666666666667e-01 3.333333333333333e-01 1.666666666666665e-01
1.666666666666667e-01 3.333333333333333e-01 1.666666666666665e-01
1.666666666666667e-01 3.333333333333333e-01 1.666666666666665e-01
1.666666666666667e-01 3.333333333333333e-01 1.666666666666665e-01
1.666666666666667e-01 3.333333333333333e-01 1.666666666666665e-01
1.666666666666667e-01 3.333333333333333e-01 1.666666666666665e-01
1.666666666666667e-01 3.333333333333333e-01 1.666666666666665e-01
1.666666666666667e-01 3.333333333333333e-01 1.666666666666665e-01
1.666666666666667e-01 3.333333333333333e-01 1.666666666666665e-01
1.666666666666667e-01 3.333333333333333e-01 1.666666666666665e-01
1.666666666666667e-01 3.333333333333333e-01 1.666666666666665e-01
1.666666666666667e-01 3.333333333333333e-01 1.666666666666665e-01
1.666666666666667e-01 3.333333333333333e-01 1.666666666666665e-01
1.666666666666667e-01 3.333333333333333e-01 1.666666666666665e-01
1.666666666666667e-01 3.333333333333333e-01 1.666666666666665e-01
1.666666666666667e-01 3.333333333333333e-01 1.666666666666665e-01
1.666666666666667e-01 3.333333333333333e-01 1.666666666666665e-01
1.666666666666667e-01 3.333333333333333e-01 1.666666666666665e-01
1.666666666666667e-01 3.333333333333333e-01 1.666666666666665e-01
1.666666666666667e-01 3.333333333333333e-01 1.666666666666665e-01
1.666666666666667e-01 3.333333333333333e-01 1.666666666666665e-01
1.666666666666667e-01 3.333333333333333e-01 1.666666666666665e-01
1.666666666666667e-01 3.333333333333333e-01 1.666666666666665e-01
1.666666666666667e-01 3.333333333333333e-01 1.666666666666665e-01
1.666666666666667e-01 3.333333333333333e-01 1.666666666666665e-01
1.666666666666667e-01 3.333333333333333e-01 1.666666666666665e-01
1.666666666666667e-01 3.333333333333333e-01 1.666666666666665e-01
1.666666666666667e-01 3.333333333333333e-01 1.666666666666665e-01
1.666666666666667e-01 3.333333333333333e-01 1.666666666666665e-01
1.666666666666667e-01 3.333333333333333e-01 1.666666666666665e-01
1.666666666666667e-01 3.333333333333333e-01 1.666666666666665e-01
1.666666666666667e-01 3.333333333333333e-01 1.666666666666665e-01
1.666666666666667e-01 3.333333333333333e-01 1.666666666666665e-01
1.666666666666667e-01 3.333333333333333e-01 1.666666666666665e-01
1.666666666666667e-01 3.333333333333333e-01 1.666666666666665e-01
1.666666666666667e-01 3.333333333333333e-01 1.666666666666665e-01
1.666666666666667e-01 3.333333333333333e-01 1.666666666666665e-01
1.666666666666667e-01 3.333333333333333e-01 1.666666666666665e-01
1.666666666666667e-01 3.333333333333333e-01 1.666666666666665e-01
1.666666666666667e-01 3.333333333333333e-01 1.666666666666665e-01
1.666666666666667e-01 3.333333333333333e-01 1.666666666666665e-01
1.666666666666667e-01 3.333333333333333e-01 1.666666666666665e-01
1.666666666666667e-01 3.333333333333333e-01 1.666666666666665e-01
1.666666666666667e-01 3.333333333333333e-01 1.666666666666665e-01
1.666666666666667e-01 3.333333333333333e-01 1.666666666666665e-01
1.666666666666667e-01 3.333333333333333e-01 1.666666666666665e-01
1.666666666666667e-01 3.333333333333333e-01 1.666666666666665e-01
1.666666666666667e-01 3.333333333333333e-01 1.666666666666665e-01
1.666666666666667e-01 3.333333333333333e-01 1.666666666666665e-01
1.666666666666667e-01 3.333333333333333e-01 1.666666666666665e-01
1.666666666666667e-01 3.333333333333333e-01 1.666666666666665e-01
 1.666666666666667e-01 -1.666666666666665e-01 -3.333333333333333e-01
-1.666666666666667e-01  1.666666666666665e-01  3.333333333333333e-01
 1.666666666666667e-01 -1.666666666666665e-01 -3.333333333333333e-01
 1.666666666666667e-01 -1.666666666666665e-01 -3.333333333333333e-01
 1.666666666666667e-01 -1.666666666666665e-01 -3.333333333333333e-01
 1.666666666666667e-01 -1.666666666666665e-01 -3.333333333333333e-01
 1.666666666666667e-01 -1.666666666666665e-01 -3.333333333333333e-01
 1.666666666666667e-01 -1.666666666666665e-01 -3.333333333333333e-01
 1.666666666666667e-01 -1.666666666666665e-01 -3.333333333333333e-01
 1.666666666666667e-01 -1.666666666666665e-01 -3.333333333333333e-01
 1.666666666666667e-01 -1.666666666666665e-01 -3.333333333333333e-01
 1.666666666666667e-01 -1.666666666666665e-01 -3.333333333333333e-01
 1.666666666666667e-01 -1.666666666666665e-01 -3.333333333333333e-01
 1.666666666666667e-01 -1.666666666666665e-01 -3.333333333333333e-01
 1.666666666666667e-01 -1.666666666666665e-01 -3.333333333333333e-01
 1.666666666666667e-01 -1.666666666666665e-01 -3.333333333333333e-01
 1.666666666666667e-01 -1.666666666666665e-01 -3.333333333333333e-01
 1.666666666666667e-01 -1.666666666666665e-01 -3.333333333333333e-01
 1.666666666666667e-01 -1.666666666666665e-01 -3.333333333333333e-01
 1.666666666666667e-01 -1.666666666666665e-01 -3.333333333333333e-01
 1.666666666666667e-01 -1.666666666666665e-01 -3.333333333333333e-01
 1.666666666666667e-01 -1.666666666666665e-01 -3.333333333333333e-01
 1.666666666666667e-01 -1.666666666666665e-01 -3.333333333333333e-01
 1.666666666666667e-01 -1.666666666666665e-01 -3.333333333333333e-01
 1.666666666666667e-01 -1.666666666666665e-01 -3.333333333333333e-01
 1.666666666666667e-01 -1.666666666666665e-01 -3.333333333333333e-01
 1.666666666666667e-01 -1.666666666666665e-01 -3.333333333333333e-01
 1.666666666666667e-01 -1.666666666666665e-01 -3.333333333333333e-01
 1.666666666666667e-01 -1.666666666666665e-01 -3.333333333333333e-01
 1.666666666666667e-01 -1.666666666666665e-01 -3.333333333333333e-01
 1.666666666666667e-01 -1.666666666666665e-01 -3.333333333333333e-01
 1.666666666666667e-01 -1.666666666666665e-01 -3.333333333333333e-01
 1.666666666666667e-01 -1.666666666666665e-01 -3.333333333333333e-01
 1.666666666666667e-01 -1.666666666666665e-01 -3.333333333333333e-01
 1.666666666666667e-01 -1.666666666666665e-01 -3.333333333333333e-01
 1.666666666666667e-01 -1.666666666666665e-01 -3.333333333333333e-01
 1.666666666666667e-01 -1.666666666666665e-01 -3.333333333333333e-01
 1.666666666666667e-01 -1.666666666666665e-01 -3.333333333333333e-01
 1.666666666666667e-01 -1.666666666666665e-01 -3.333333333333333e-01
 1.666666666666667e-01 -1.666666666666665e-01 -3.333333333333333e-01
 1.666666666666667e-01 -1.666666666666665e-01 -3.333333333333333e-01
 1.666666666666667e-01 -1.666666666666665e-01 -3.333333333333333e-01
 1.666666666666667e-01 -1.666666666666665e-01 -3.333333333333333e-01
 1.666666666666667e-01 -1.666666666666665e-01 -3.333333333333333e-01
 1.666666666666667e-01 -1.666666666666665e-01 -3.333333333333333e-01
 1.666666666666667e-01 -1.666666666666665e-01 -3.333333333333333e-01
 1.666666666666667e-01 -1.666666666666665e-01 -3.333333333333333e-01
 1.666666666666667e-01 -1.666666666666665e-01 -3.333333333333333e-01
 1.666666666666667e-01 -1.666666666666665e-01 -3.333333333333333e-01
 1.666666666666667e-01 -1.666666666666665e-01 -3.333333333333333e-01
 1.666666666666667e-01 -1.666666666666665e-01 -3.333333333333333e-01
 1.666666666666667e-01 -1.666666666666665e-01 -3.333333333333333e-01
 1.666666666666667e-01 -1.666666666666665e-01 -3.333333333333333e-01
 1.666666666666667e-01 -1.666666666666665e-01 -3.333333333333333e-01
 1.666666666666667e-01 -1.666666666666665e-01 -3.333333333333333e-01
 1.666666666666667e-01 -1.666666666666665e-01 -3.333333333333333e-01
 1.666666666666667e-01 -1.666666666666665e-01 -3.333333333333333e-01
 1.666666666666667e-01 -1.666666666666665e-01 -3.333333333333333e-01
 1.666666666666667e-01 -1.666666666666665e-01 -3.333333333333333e-01
 1.666666666666667e-01 -1.666666666666665e-01 -3.333333333333333e-01
 1.666666666666667e-01 -1.666666666666665e-01 -3.333333333333333e-01
 1.666666666666667e-01 -1.666666666666665e-01 -3.333333333333333e-01
 1.666666666666667e-01 -1.666666666666665e-01 -3.333333333333333e-01
 1.666666666666667e-01 -1.666666666666665e-01 -3.333333333333333e-01
 1.666666666666667e-01 -1.666666666666665e-01 -3.333333333333333e-01
 1.666666666666667e-01 -1.666666666666665e-01 -3.333333333333333e-01
 1.666666666666667e-01 -1.666666666666665e-01 -3.333333333333333e-01
 1.666666666666667e-01 -1.666666666666665e-01 -3.333333333333333e-01
 1.666666666666667e-01 -1.666666666666665e-01 -3.333333333333333e-01
 1.666666666666667e-01 -1.666666666666665e-01 -3.333333333333333e-01
 1.666666666666667e-01 -1.666666666666665e-01 -3.333333333333333e-01
 1.666666666666667e-01 -1.666666666666665e-01 -3.333333333333333e-01
 1.666666666666667e-01 -1.666666666666665e-01 -3.333333333333333e-01
 1.666666666666667e-01 -1.666666666666665e-01 -3.333333333333333e-01
 1.666666666666667e-01 -1.666666666666665e-01 -3.333333333333333e-01
 1.666666666666667e-01 -1.666666666666665e-01 -3.333333333333333e-01
 1.666666666666667e-01 -1.666666666666665e-01 -3.333333333333333e-01
 1.666666666666667e-01 -1.666666666666665e-01 -3.333333333333333e-01
 1.666666666666667e-01 -1.666666666666665e-01 -3.333333333333333e-01
 1.666666666666667e-01 -1.666666666666665e-01 -3.333333333333333e-01
 1.666666666666667e-01 -1.666666666666665e-01 -3.333333333333333e-01
 1.666666666666667e-01 -1.666666666666665e-01 -3.333333333333333e-01
 1.666666666666667e-01 -1.666666666666665e-01 -3.333333333333333e-01
 1.666666666666667e-01 -1.666666666666665e-01 -3.333333333333333e-01
 1.666666666666667e-01 -1.666666666666665e-01 -3.333333333333333e-01
 1.666666666666667e-01 -1.666666666666665e-01 -3.333333333333333e-01
 1.666666666666667e-01 -1.666666666666665e-01 -3.333333333333333e-01
 1.666666666666667e-01 -1.666666666666665e-01 -3.333333333333333e-01
 1.666666666666667e-01 -1.666666666666665e-01 -3.333333333333333e-01
 1.666666666666667e-01 -1.666666666666665e-01 -3.333333333333333e-01
 1.666666666666667e-01 -1.666666666666665e-01 -3.333333333333333e-01
 1.666666666666667e-01 -1.666666666666665e-01 -3.333333333333333e-01
 1.666666666666667e-01 -1.666666666666665e-01 -3.333333333333333e-01
 1.666666666666667e-01 -1.666666666666665e-01 -3.333333333333333e-01
 1.666666666666667e-01 -1.666666666666665e-01 -3.333333333333333e-01
 1.666666666666667e-01 -1.666666666666665e-01 -3.333333333333333e-01
 1.666666666666667e-01 -1.666666666666665e-01 -3.333333333333333e-01
 1.666666666666667e-01 -1.666666666666665e-01 -3.333333333333333e-01
 1.666666666666667e-01 -1.666666666666665e-01 -3.333333333333333e-01
 1.666666666666667e-01 -1.666666666666665e-01 -3.333333333333333e-01
 1.666666666666667e-01 -1.666666666666665e-01 -3.333333333333333e-01
 1.666666666666667e-01 -1.666666666666665e-01 -3.333333333333333e-01
 1.666666666666667e-01 -1.666666666666665e-01 -3.333333333333333e-01
 1.666666666666667e-01 -1.666666666666665e-01 -3.333333333333333e-01
 1.666666666666667e-01 -1.666666666666665e-01 -3.333333333333333e-01
 1.666666666666667e-01 -1.666666666666665e-01 -3.333333333333333e-01
 1.666666666666667e-01 -1.666666666666665e-01 -3.333333333333333e-01
 1.666666666666667e-01 -1.666666666666665e-01 -3.333333333333333e-01
 1.666666666666667e-01 -1.666666666666665e-01 -3.333333333333333e-01
 1.666666666666667e-01 -1.666666666666665e-01 -3.333333333333333e-01
 1.666666666666667e-01 -1.666666666666665e-01 -3.333333333333333e-01
 1.666666666666667e-01 -1.666666666666665e-01 -3.333333333333333e-01
 1.666666666666667e-01 -1.666666666666665e-01 -3.333333333333333e-01
 1.666666666666667e-01 -1.666666666666665e-01 -3.333333333333333e-01
 1.666666666666667e-01 -1.666666666666665e-01 -3.333333333333333e-01
 1.666666666666667e-01 -1.666666666666665e-01 -3.333333333333333e-01
 1.666666666666667e-01 -1.666666666666665e-01 -3.333333333333333e-01
 1.666666666666667e-01 -1.666666666666665e-01 -3.333333333333333e-01
 1.666666666666667e-01 -1.666666666666665e-01 -3.333333333333333e-01
 1.666666666666667e-01 -1.666666666666665e-01 -3.333333333333333e-01
 1.666666666666667e-01 -1.666666666666665e-01 -3.333333333333333e-01
 1.666666666666667e-01 -1.666666666666665e-01 -3.333333333333333e-01
 1.666666666666667e-01 -1.666666666666665e-01 -3.333333333333333e-01
 1.666666666666667e-01 -1.666666666666665e-01 -3.333333333333333e-01
 1.666666666666667e-01 -1.666666666666665e-01 -3.333333333333333e-01
 1.666666666666667e-01 -1.666666666666665e-01 -3.333333333333333e-01
 1.666666666666667e-01 -1.666666666666665e-01 -3.333333333333333e-01
 1.666666666666667e-01 -1.666666666666665e-01 -3.333333333333333e-01
 1.666666666666667e-01 -1.666666666666665e-01 -3.333333333333333e-01
 1.666666666666667e-01 -1.666666666666665e-01 -3.333333333333333e-01
 1.666666666666667e-01 -1.666666666666665e-01 -3.333333333333333e-01
 1.666666666666667e-01 -1.666666666666665e-01 -3.333333333333333e-01
 1.666666666666667e-01 -1.666666666666665e-01 -3.333333333333333e-01
 1.666666666666667e-01 -1.666666666666665e-01 -3.333333333333333e-01
 1.666666666666667e-01 -1.666666666666665e-01 -3.333333333333333e-01
 1.666666666666667e-01 -1.666666666666665e-01 -3.333333333333333e-01
 1.666666666666667e-01 -1.666666666666665e-01 -3.333333333333333e-01
 1.666666666666667e-01 -1.666666666666665e-01 -3.333333333333333e-01
 1.666666666666667e-01 -1.666666666666665e-01 -3.333333333333333e-01
 1.666666666666667e-01 -1.666666666666665e-01 -3.333333333333333e-01
 1.666666666666667e-01 -1.666666666666665e-01 -3.333333333333333e-01
 1.666666666666667e-01 -1.666666666666665e-01 -3.333333333333333e-01
 1.666666666666667e-01 -1.666666666666665e-01 -3.333333333333333e-01
 1.666666666666667e-01 -1.666666666666665e-01 -3.333333333333333e-01
 1.666666666666667e-01 -1.666666666666665e-01 -3.333333333333333e-01
 1.666666666666667e-01 -1.666666666666665e-01 -3.333333333333333e-01
 1.666666666666667e-01 -1.666666666666665e-01 -3.333333333333333e-01
 1.666666666666667e-01 -1.666666666666665e-01 -3.333333333333333e-01
 1.666666666666667e-01 -1.666666666666665e-01 -3.333333333333333e-01
 1.666666666666667e-01 -1.666666666666665e-01 -3.333333333333333e-01
 1.666666666666667e-01 -1.666666666666665e-01 -3.333333333333333e-01
 1.666666666666667e-01 -1.666666666666665e-01 -3.333333333333333e-01
 1.666666666666667e-01 -1.666666666666665e-01 -3.333333333333333e-01
 1.666666666666667e-01 -1.666666666666665e-01 -3.333333333333333e-01
 1.666666666666667e-01 -1.666666666666665e-01 -3.333333333333333e-01
 1.666666666666667e-01 -1.666666666666665e-01 -3.333333333333333e-01
 1.666666666666667e-01 -1.666666666666665e-01 -3.333333333333333e-01
 1.666666666666667e-01 -1.666666666666665e-01 -3.333333333333333e-01
 1.666666666666667e-01 -1.666666666666665e-01 -3.333333333333333e-01
 1.666666666666667e-01 -1.666666666666665e-01 -3.333333333333333e-01
 1.666666666666667e-01 -1.666666666666665e-01 -3.333333333333333e-01
 1.666666666666667e-01 -1.666666666666665e-01 -3.333333333333333e-01
 1.666666666666667e-01 -1.666666666666665e-01 -3.333333333333333e-01
 1.666666666666667e-01 -1.666666666666665e-01 -3.333333333333333e-01
 1.666666666666667e-01 -1.666666666666665e-01 -3.333333333333333e-01
 1.666666666666667e-01 -1.666666666666665e-01 -3.333333333333333e-01
 1.666666666666667e-01 -1.666666666666665e-01 -3.333333333333333e-01
 1.666666666666667e-01 -1.666666666666665e-01 -3.333333333333333e-01
 1.666666666666667e-01 -1.666666666666665e-01 -3.333333333333333e-01
 1.666666666666667e-01 -1.666666666666665e-01 -3.333333333333333e-01
 1.666666666666667e-01 -1.666666666666665e-01 -3.333333333333333e-01
 1.666666666666667e-01 -1.666666666666665e-01 -3.333333333333333e-01
 1.666666666666667e-01 -1.666666666666665e-01 -3.333333333333333e-01
 1.666666666666667e-01 -1.666666666666665e-01 -3.333333333333333e-01
 1.666666666666667e-01 -1.666666666666665e-01 -3.333333333333333e-01
 1.666666666666667e-01 -1.666666666666665e-01 -3.333333333333333e-01
 1.666666666666667e-01 -1.666666666666665e-01 -3.333333333333333e-01
 1.666666666666667e-01 -1.666666666666665e-01 -3.333333333333333e-01
 1.666666666666667e-01 -1.666666666666665e-01 -3.333333333333333e-01
 1.666666666666667e-01 -1.666666666666665e-01 -3.333333333333333e-01
 1.666666666666667e-01 -1.666666666666665e-01 -3.333333333333333e-01
 1.666666666666667e-01 -1.666666666666665e-01 -3.333333333333333e-01
 1.666666666666667e-01 -1.666666666666665e-01 -3.333333333333333e-01
 1.666666666666667e-01 -1.666666666666665e-01 -3.333333333333333e-01
 1.666666666666667e-01 -1.666666666666665e-01 -3.333333333333333e-01
 1.666666666666667e-01 -1.666666666666665e-01 -3.333333333333333e-01
 1.666666666666667e-01 -1.666666666666665e-01 -3.333333333333333e-01
 1.666666666666667e-01 -1.666666666666665e-01 -3.333333333333333e-01
 1.666666666666667e-01 -1.666666666666665e-01 -3.333333333333333e-01
 1.666666666666667e-01 -1.666666666666665e-01 -3.333333333333333e-01
 1.666666666666667e-01 -1.666666666666665e-01 -3.333333333333333e-01
 1.666666666666667e-01 -1.666666666666665e-01 -3.333333333333333e-01
 1.666666666666667e-01 -1.666666666666665e-01 -3.333333333333333e-01
 1.666666666666667e-01 -1.666666666666665e-01 -3.333333333333333e-01
 1.666666666666667e-01 -1.666666666666665e-01 -3.333333333333333e-01
 1.666666666666667e-01 -1.666666666666665e-01 -3.333333333333333e-01
 1.666666666666667e-01 -1.666666666666665e-01 -3.333333333333333e-01
 1.666666666666667e-01 -1.666666666666665e-01 -3.333333333333333e-01
 1.666666666666667e-01 -1.666666666666665e-01 -3.333333333333333e-01
 1.666666666666667e-01 -1.666666666666665e-01 -3.333333333333333e-01
-1.666666666666667e-01  1.666666666666665e-01  3.333333333333333e-01
 1.666666666666667e-01 -1.666666666666665e-01 -3.333333333333333e-01
 1.666666666666667e-01 -1.666666666666665e-01 -3.333333333333333e-01
 1.666666666666667e-01 -1.666666666666665e-01 -3.333333333333333e-01
 1.666666666666667e-01 -1.666666666666665e-01 -3.333333333333333e-01
 1.666666666666667e-01 -1.666666666666665e-01 -3.333333333333333e-01
 1.666666666666667e-01 -1.666666666666665e-01 -3.333333333333333e-01
 1.666666666666667e-01 -1.666666666666665e-01 -3.333333333333333e-01
 1.666666666666667e-01 -1.666666666666665e-01 -3.333333333333333e-01
 1.666666666666667e-01 -1.666666666666665e-01 -3.333333333333333e-01
 1.666666666666667e-01 -1.666666666666665e-01 -3.333333333333333e-01
 1.666666666666667e-01 -1.666666666666665e-01 -3.333333333333333e-01
 1.666666666666667e-01 -1.666666666666665e-01 -3.333333333333333e-01
 1.666666666666667e-01 -1.666666666666665e-01 -3.333333333333333e-01
 1.666666666666667e-01 -1.666666666666665e-01 -3.333333333333333e-01
 1.666666666666667e-01 -1.666666666666665e-01 -3.333333333333333e-01
 1.666666666666667e-01 -1.666666666666665e-01 -3.333333333333333e-01
 1.666666666666667e-01 -1.666666666666665e-01 -3.333333333333333e-01
 1.666666666666667e-01 -1.666666666666665e-01 -3.333333333333333e-01
 1.666666666666667e-01 -1.666666666666665e-01 -3.333333333333333e-01
 1.666666666666667e-01 -1.666666666666665e-01 -3.333333333333333e-01
 1.666666666666667e-01 -1.666666666666665e-01 -3.333333333333333e-01
 1.666666666666667e-01 -1.666666666666665e-01 -3.333333333333333e-01
 1.666666666666667e-01 -1.666666666666665e-01 -3.333333333333333e-01
 1.666666666666667e-01 -1.666666666666665e-01 -3.333333333333333e-01
 1.666666666666667e-01 -1.666666666666665e-01 -3.333333333333333e-01
 1.666666666666667e-01 -1.666666666666665e-01 -3.333333333333333e-01
 1.666666666666667e-01 -1.666666666666665e-01 -3.333333333333333e-01
 1.666666666666667e-01 -1.666666666666665e-01 -3.333333333333333e-01
 1.666666666666667e-01 -1.666666666666665e-01 -3.333333333333333e-01
 1.666666666666667e-01 -1.666666666666665e-01 -3.333333333333333e-01
 1.666666666666667e-01 -1.666666666666665e-01 -3.333333333333333e-01
 1.666666666666667e-01 -1.666666666666665e-01 -3.333333333333333e-01
 1.666666666666667e-01 -1.666666666666665e-01 -3.333333333333333e-01
 1.666666666666667e-01 -1.666666666666665e-01 -3.333333333333333e-01
 1.666666666666667e-01 -1.666666666666665e-01 -3.333333333333333e-01
 1.666666666666667e-01 -1.666666666666665e-01 -3.333333333333333e-01
 1.666666666666667e-01 -1.666666666666665e-01 -3.333333333333333e-01
 1.666666666666667e-01 -1.666666666666665e-01 -3.333333333333333e-01
 1.666666666666667e-01 -1.666666666666665e-01 -3.333333333333333e-01
 1.666666666666667e-01 -1.666666666666665e-01 -3.333333333333333e-01
 1.666666666666667e-01 -1.666666666666665e-01 -3.333333333333333e-01
 1.666666666666667e-01 -1.666666666666665e-01 -3.333333333333333e-01
 1.666666666666667e-01 -1.666666666666665e-01 -3.333333333333333e-01
 1.666666666666667e-01 -1.666666666666665e-01 -3.333333333333333e-01
 1.666666666666667e-01 -1.666666666666665e-01 -3.333333333333333e-01
 1.666666666666667e-01 -1.666666666666665e-01 -3.333333333333333e-01
 1.666666666666667e-01 -1.666666666666665e-01 -3.333333333333333e-01
 1.666666666666667e-01 -1.666666666666665e-01 -3.333333333333333e-01
 1.666666666666667e-01 -1.666666666666665e-01 -3.333333333333333e-01
 1.666666666666667e-01 -1.666666666666665e-01 -3.333333333333333e-01
 1.666666666666667e-01 -1.666666666666665e-01 -3.333333333333333e-01
 1.666666666666667e-01 -1.666666666666665e-01 -3.333333333333333e-01
 1.666666666666667e-01 -1.666666666666665e-01 -3.333333333333333e-01
 1.666666666666667e-01 -1.666666666666665e-01 -3.333333333333333e-01
 1.666666666666667e-01 -1.666666666666665e-01 -3.333333333333333e-01
 1.666666666666667e-01 -1.666666666666665e-01 -3.333333333333333e-01
 1.666666666666667e-01 -1.666666666666665e-01 -3.333333333333333e-01
 1.666666666666667e-01 -1.666666666666665e-01 -3.333333333333333e-01
 1.666666666666667e-01 -1.666666666666665e-01 -3.333333333333333e-01
 1.666666666666667e-01 -1.666666666666665e-01 -3.333333333333333e-01
 1.666666666666667e-01 -1.666666666666665e-01 -3.333333333333333e-01
 1.666666666666667e-01 -1.666666666666665e-01 -3.333333333333333e-01
 1.666666666666667e-01 -1.666666666666665e-01 -3.333333333333333e-01
 1.666666666666667e-01 -1.666666666666665e-01 -3.333333333333333e-01
 1.666666666666667e-01 -1.666666666666665e-01 -3.333333333333333e-01
 1.666666666666667e-01 -1.666666666666665e-01 -3.333333333333333e-01
 1.666666666666667e-01 -1.666666666666665e-01 -3.333333333333333e-01
 1.666666666666667e-01 -1.666666666666665e-01 -3.333333333333333e-01
 1.666666666666667e-01 -1.666666666666665e-01 -3.333333333333333e-01
 1.666666666666667e-01 -1.666666666666665e-01 -3.333333333333333e-01
 1.666666666666667e-01 -1.666666666666665e-01 -3.333333333333333e-01
 1.666666666666667e-01 -1.666666666666665e-01 -3.333333333333333e-01
 1.666666666666667e-01 -1.666666666666665e-01 -3.333333333333333e-01
 1.666666666666667e-01 -1.666666666666665e-01 -3.333333333333333e-01
 1.666666666666667e-01 -1.666666666666665e-01 -3.333333333333333e-01
 1.666666666666667e-01 -1.666666666666665e-01 -3.333333333333333e-01
 1.666666666666667e-01 -1.666666666666665e-01 -3.333333333333333e-01
 1.666666666666667e-01 -1.666666666666665e-01 -3.333333333333333e-01
 1.666666666666667e-01 -1.666666666666665e-01 -3.333333333333333e-01
 1.666666666666667e-01 -1.666666666666665e-01 -3.333333333333333e-01
 1.666666666666667e-01 -1.666666666666665e-01 -3.333333333333333e-01
 1.666666666666667e-01 -1.666666666666665e-01 -3.333333333333333e-01
 1.666666666666667e-01 -1.666666666666665e-01 -3.333333333333333e-01
 1.666666666666667e-01 -1.666666666666665e-01 -3.333333333333333e-01
 1.666666666666667e-01 -1.666666666666665e-01 -3.333333333333333e-01
 1.666666666666667e-01 -1.666666666666665e-01 -3.333333333333333e-01
 1.666666666666667e-01 -1.666666666666665e-01 -3.333333333333333e-01
 1.666666666666667e-01 -1.666666666666665e-01 -3.333333333333333e-01
 1.666666666666667e-01 -1.666666666666665e-01 -3.333333333333333e-01
 1.666666666666667e-01 -1.666666666666665e-01 -3.333333333333333e-01
 1.666666666666667e-01 -1.666666666666665e-01 -3.333333333333333e-01
 1.666666666666667e-01 -1.666666666666665e-01 -3.333333333333333e-01
 1.666666666666667e-01 -1.666666666666665e-01 -3.333333333333333e-01
 1.666666666666667e-01 -1.666666666666665e-01 -3.333333333333333e-01
 1.666666666666667e-01 -1.666666666666665e-01 -3.333333333333333e-01
 1.666666666666667e-01 -1.666666666666665e-01 -3.333333333333333e-01
 1.666666666666667e-01 -1.666666666666665e-01 -3.333333333333333e-01
 1.666666666666667e-01 -1.666666666666665e-01 -3.333333333333333e-01
 1.666666666666667e-01 -1.666666666666665e-01 -3.333333333333333e-01
 1.666666666666667e-01 -1.666666666666665e-01 -3.333333333333333e-01
 1.666666666666667e-01 -1.666666666666665e-01 -3.333333333333333e-01
 1.666666666666667e-01 -1.666666666666665e-01 -3.333333333333333e-01
 1.666666666666667e-01 -1.666666666666665e-01 -3.333333333333333e-01
 1.666666666666667e-01 -1.666666666666665e-01 -3.333333333333333e-01
 1.666666666666667e-01 -1.666666666666665e-01 -3.333333333333333e-01
 1.666666666666667e-01 -1.666666666666665e-01 -3.333333333333333e-01
 1.666666666666667e-01 -1.666666666666665e-01 -3.333333333333333e-01
 1.666666666666667e-01 -1.666666666666665e-01 -3.333333333333333e-01
 1.666666666666667e-01 -1.666666666666665e-01 -3.333333333333333e-01
 1.666666666666667e-01 -1.666666666666665e-01 -3.333333333333333e-01
 1.666666666666667e-01 -1.666666666666665e-01 -3.333333333333333e-01
 1.666666666666667e-01 -1.666666666666665e-01 -3.333333333333333e-01
 1.666666666666667e-01 -1.666666666666665e-01 -3.333333333333333e-01
 1.666666666666667e-01 -1.666666666666665e-01 -3.333333333333333e-01
 1.666666666666667e-01 -1.666666666666665e-01 -3.333333333333333e-01
 1.666666666666667e-01 -1.666666666666665e-01 -3.333333333333333e-01
 1.666666666666667e-01 -1.666666666666665e-01 -3.333333333333333e-01
 1.666666666666667e-01 -1.666666666666665e-01 -3.333333333333333e-01
 1.666666666666667e-01 -1.666666666666665e-01 -3.333333333333333e-01
 1.666666666666667e-01 -1.666666666666665e-01 -3.333333333333333e-01
 1.666666666666667e-01 -1.666666666666665e-01 -3.333333333333333e-01
 1.666666666666667e-01 -1.666666666666665e-01 -3.333333333333333e-01
 1.666666666666667e-01 -1.666666666666665e-01 -3.333333333333333e-01
 1.666666666666667e-01 -1.666666666666665e-01 -3.333333333333333e-01
 1.666666666666667e-01 -1.666666666666665e-01 -3.333333333333333e-01
 1.666666666666667e-01 -1.666666666666665e-01 -3.333333333333333e-01
 1.666666666666667e-01 -1.666666666666665e-01 -3.333333333333333e-01
 1.666666666666667e-01 -1.666666666666665e-01 -3.333333333333333e-01
 1.666666666666667e-01 -1.666666666666665e-01 -3.333333333333333e-01
 1.666666666666667e-01 -1.666666666666665e-01 -3.333333333333333e-01
 1.666666666666667e-01 -1.666666666666665e-01 -3.333333333333333e-01
 1.666666666666667e-01 -1.666666666666665e-01 -3.333333333333333e-01
 1.666666666666667e-01 -1.666666666666665e-01 -3.333333333333333e-01
 1.666666666666667e-01 -1.666666666666665e-01 -3.333333333333333e-01
 1.666666666666667e-01 -1.666666666666665e-01 -3.333333333333333e-01
 1.666666666666667e-01 -1.666666666666665e-01 -3.333333333333333e-01
 1.666666666666667e-01 -1.666666666666665e-01 -3.333333333333333e-01
 1.666666666666667e-01 -1.666666666666665e-01 -3.333333333333333e-01
 1.666666666666667e-01 -1.666666666666665e-01 -3.333333333333333e-01
 1.666666666666667e-01 -1.666666666666665e-01 -3.333333333333333e-01
 1.666666666666667e-01 -1.666666666666665e-01 -3.333333333333333e-01
 1.666666666666667e-01 -1.666666666666665e-01 -3.333333333333333e-01
 1.666666666666667e-01 -1.666666666666665e-01 -3.333333333333333e-01
 1.666666666666667e-01 -1.666666666666665e-01 -3.333333333333333e-01
 1.666666666666667e-01 -1.666666666666665e-01 -3.333333333333333e-01
 1.666666666666667e-01 -1.666666666666665e-01 -3.333333333333333e-01
 1.666666666666667e-01 -1.666666666666665e-01 -3.333333333333333e-01
 1.666666666666667e-01 -1.666666666666665e-01 -3.333333333333333e-01
 1.666666666666667e-01 -1.666666666666665e-01 -3.333333333333333e-01
 1.666666666666667e-01 -1.666666666666665e-01 -3.333333333333333e-01
 1.666666666666667e-01 -1.666666666666665e-01 -3.333333333333333e-01
 1.666666666666667e-01 -1.666666666666665e-01 -3.333333333333333e-01
 1.666666666666667e-01 -1.666666666666665e-01 -3.333333333333333e-01
 1.666666666666667e-01 -1.666666666666665e-01 -3.333333333333333e-01
 1.666666666666667e-01 -1.666666666666665e-01 -3.333333333333333e-01
 1.666666666666667e-01 -1.666666666666665e-01 -3.333333333333333e-01
 1.666666666666667e-01 -1.666666666666665e-01 -3.333333333333333e-01
 1.666666666666667e-01 -1.666666666666665e-01 -3.333333333333333e-01
 1.666666666666667e-01 -1.666666666666665e-01 -3.333333333333333e-01
 1.666666666666667e-01 -1.666666666666665e-01 -3.333333333333333e-01
 1.666666666666667e-01 -1.666666666666665e-01 -3.333333333333333e-01
 1.666666666666667e-01 -1.666666666666665e-01 -3.333333333333333e-01
 1.666666666666667e-01 -1.666666666666665e-01 -3.333333333333333e-01
 1.666666666666667e-01 -1.666666666666665e-01 -3.333333333333333e-01
 1.666666666666667e-01 -1.666666666666665e-01 -3.333333333333333e-01
 1.666666666666667e-01 -1.666666666666665e-01 -3.333333333333333e-01
 1.666666666666667e-01 -1.666666666666665e-01 -3.333333333333333e-01
 1.666666666666667e-01 -1.666666666666665e-01 -3.333333333333333e-01
 1.666666666666667e-01 -1.666666666666665e-01 -3.333333333333333e-01
 1.666666666666667e-01 -1.666666666666665e-01 -3.333333333333333e-01
 1.666666666666667e-01 -1.666666666666665e-01 -3.333333333333333e-01
 1.666666666666667e-01 -1.666666666666665e-01 -3.333333333333333e-01
 1.666666666666667e-01 -1.666666666666665e-01 -3.333333333333333e-01
 1.666666666666667e-01 -1.666666666666665e-01 -3.333333333333333e-01
 1.666666666666667e-01 -1.666666666666665e-01 -3.333333333333333e-01
 1.666666666666667e-01 -1.666666666666665e-01 -3.333333333333333e-01
 1.666666666666667e-01 -1.666666666666665e-01 -3.333333333333333e-01
 1.666666666666667e-01 -1.666666666666665e-01 -3.333333333333333e-01
 1.666666666666667e-01 -1.666666666666665e-01 -3.333333333333333e-01
 1.666666666666667e-01 -1.666666666666665e-01 -3.333333333333333e-01
 1.666666666666667e-01 -1.666666666666665e-01 -3.333333333333333e-01
 1.666666666666667e-01 -1.666666666666665e-01 -3.333333333333333e-01
-1.666666666666667e-01  1.666666666666665e-01  3.333333333333333e-01
 1.666666666666667e-01 -1.666666666666665e-01 -3.333333333333333e-01
-1.666666666666667e-01  1.666666666666665e-01  3.333333333333333e-01
-1.666666666666667e-01  1.666666666666665e-01  3.333333333333333e-01
-1.666666666666667e-01  1.666666666666665e-01  3.333333333333333e-01
-1.666666666666667e-01  1.666666666666665e-01  3.333333333333333e-01
-1.666666666666667e-01  1.666666666666665e-01  3.333333333333333e-01
-1.666666666666667e-01  1.666666666666665e-01  3.333333333333333e-01
-1.666666666666667e-01  1.666666666666665e-01  3.333333333333333e-01
-1.666666666666667e-01  1.666666666666665e-01  3.333333333333333e-01
-1.666666666666667e-01  1.666666666666665e-01  3.333333333333333e-01
-1.666666666666667e-01  1.666666666666665e-01  3.333333333333333e-01
-1.666666666666667e-01  1.666666666666665e-01  3.333333333333333e-01
-1.666666666666667e-01  1.666666666666665e-01  3.333333333333333e-01
-1.666666666666667e-01  1.666666666666665e-01  3.333333333333333e-01
-1.666666666666667e-01  1.666666666666665e-01  3.333333333333333e-01
-1.666666666666667e-01  1.666666666666665e-01  3.333333333333333e-01
-1.666666666666667e-01  1.666666666666665e-01  3.333333333333333e-01
-1.666666666666667e-01  1.666666666666665e-01  3.333333333333333e-01
-1.666666666666667e-01  1.666666666666665e-01  3.333333333333333e-01
-1.666666666666667e-01  1.666666666666665e-01  3.333333333333333e-01
-1.666666666666667e-01  1.666666666666665e-01  3.333333333333333e-01
-1.666666666666667e-01  1.666666666666665e-01  3.333333333333333e-01
-1.666666666666667e-01  1.666666666666665e-01  3.333333333333333e-01
-1.666666666666667e-01  1.666666666666665e-01  3.333333333333333e-01
-1.666666666666667e-01  1.666666666666665e-01  3.333333333333333e-01
-1.666666666666667e-01  1.666666666666665e-01  3.333333333333333e-01
-1.666666666666667e-01  1.666666666666665e-01  3.333333333333333e-01
-1.666666666666667e-01  1.666666666666665e-01  3.333333333333333e-01
-1.666666666666667e-01  1.666666666666665e-01  3.333333333333333e-01
-1.666666666666667e-01  1.666666666666665e-01  3.333333333333333e-01
-1.666666666666667e-01  1.666666666666665e-01  3.333333333333333e-01
-1.666666666666667e-01  1.666666666666665e-01  3.333333333333333e-01
-1.666666666666667e-01  1.666666666666665e-01  3.333333333333333e-01
-1.666666666666667e-01  1.666666666666665e-01  3.333333333333333e-01
-1.666666666666667e-01  1.666666666666665e-01  3.333333333333333e-01
-1.666666666666667e-01  1.666666666666665e-01  3.333333333333333e-01
-1.666666666666667e-01  1.666666666666665e-01  3.333333333333333e-01
-1.666666666666667e-01  1.666666666666665e-01  3.333333333333333e-01
-1.666666666666667e-01  1.666666666666665e-01  3.333333333333333e-01
-1.666666666666667e-01  1.666666666666665e-01  3.333333333333333e-01
-1.666666666666667e-01  1.666666666666665e-01  3.333333333333333e-01
-1.666666666666667e-01  1.666666666666665e-01  3.333333333333333e-01
-1.666666666666667e-01  1.666666666666665e-01  3.333333333333333e-01
-1.666666666666667e-01  1.666666666666665e-01  3.333333333333333e-01
-1.666666666666667e-01  1.666666666666665e-01  3.333333333333333e-01
-1.666666666666667e-01  1.666666666666665e-01  3.333333333333333e-01
-1.666666666666667e-01  1.666666666666665e-01  3.333333333333333e-01
-1.666666666666667e-01  1.666666666666665e-01  3.333333333333333e-01
-1.666666666666667e-01  1.666666666666665e-01  3.333333333333333e-01
-1.666666666666667e-01  1.666666666666665e-01  3.333333333333333e-01
-1.666666666666667e-01  1.666666666666665e-01  3.333333333333333e-01
-1.666666666666667e-01  1.666666666666665e-01  3.333333333333333e-01
-1.666666666666667e-01  1.666666666666665e-01  3.333333333333333e-01
-1.666666666666667e-01  1.666666666666665e-01  3.333333333333333e-01
-1.666666666666667e-01  1.666666666666665e-01  3.333333333333333e-01
-1.666666666666667e-01  1.666666666666665e-01  3.333333333333333e-01
-1.666666666666667e-01  1.666666666666665e-01  3.333333333333333e-01
-1.666666666666667e-01  1.666666666666665e-01  3.333333333333333e-01
-1.666666666666667e-01  1.666666666666665e-01  3.333333333333333e-01
-1.666666666666667e-01  1.666666666666665e-01  3.333333333333333e-01
-1.666666666666667e-01  1.666666666666665e-01  3.333333333333333e-01
-1.666666666666667e-01  1.666666666666665e-01  3.333333333333333e-01
-1.666666666666667e-01  1.666666666666665e-01  3.333333333333333e-01
-1.666666666666667e-01  1.666666666666665e-01  3.333333333333333e-01
-1.666666666666667e-01  1.666666666666665e-01  3.333333333333333e-01
-1.666666666666667e-01  1.666666666666665e-01  3.333333333333333e-01
-1.666666666666667e-01  1.666666666666665e-01  3.333333333333333e-01
-1.666666666666667e-01  1.666666666666665e-01  3.333333333333333e-01
-1.666666666666667e-01  1.666666666666665e-01  3.333333333333333e-01
-1.666666666666667e-01  1.666666666666665e-01  3.333333333333333e-01
-1.666666666666667e-01  1.666666666666665e-01  3.333333333333333e-01
-1.666666666666667e-01  1.666666666666665e-01  3.333333333333333e-01
-1.666666666666667e-01  1.666666666666665e-01  3.333333333333333e-01
-1.666666666666667e-01  1.666666666666665e-01  3.333333333333333e-01
-1.666666666666667e-01  1.666666666666665e-01  3.333333333333333e-01
-1.666666666666667e-01  1.666666666666665e-01  3.333333333333333e-01
-1.666666666666667e-01  1.666666666666665e-01  3.333333333333333e-01
-1.666666666666667e-01  1.666666666666665e-01  3.333333333333333e-01
-1.666666666666667e-01  1.666666666666665e-01  3.333333333333333e-01
-1.666666666666667e-01  1.666666666666665e-01  3.333333333333333e-01
-1.666666666666667e-01  1.666666666666665e-01  3.333333333333333e-01
-1.666666666666667e-01  1.666666666666665e-01  3.333333333333333e-01
-1.666666666666667e-01  1.666666666666665e-01  3.333333333333333e-01
-1.666666666666667e-01  1.666666666666665e-01  3.333333333333333e-01
-1.666666666666667e-01  1.666666666666665e-01  3.333333333333333e-01
-1.666666666666667e-01  1.666666666666665e-01  3.333333333333333e-01
-1.666666666666667e-01  1.666666666666665e-01  3.333333333333333e-01
-1.666666666666667e-01  1.666666666666665e-01  3.333333333333333e-01
-1.666666666666667e-01  1.666666666666665e-01  3.333333333333333e-01
-1.666666666666667e-01  1.666666666666665e-01  3.333333333333333e-01
-1.666666666666667e-01  1.666666666666665e-01  3.333333333333333e-01
-1.666666666666667e-01  1.666666666666665e-01  3.333333333333333e-01
-1.666666666666667e-01  1.666666666666665e-01  3.333333333333333e-01
-1.666666666666667e-01  1.666666666666665e-01  3.333333333333333e-01
-1.666666666666667e-01  1.666666666666665e-01  3.333333333333333e-01
-1.666666666666667e-01  1.666666666666665e-01  3.333333333333333e-01
-1.666666666666667e-01  1.666666666666665e-01  3.333333333333333e-01
-1.666666666666667e-01  1.666666666666665e-01  3.333333333333333e-01
-1.666666666666667e-01  1.666666666666665e-01  3.333333333333333e-01
-1.666666666666667e-01  1.666666666666665e-01  3.333333333333333e-01
-1.666666666666667e-01  1.666666666666665e-01  3.333333333333333e-01
-1.666666666666667e-01  1.666666666666665e-01  3.333333333333333e-01
-1.666666666666667e-01  1.666666666666665e-01  3.333333333333333e-01
-1.666666666666667e-01  1.666666666666665e-01  3.333333333333333e-01
-1.666666666666667e-01  1.666666666666665e-01  3.333333333333333e-01
-1.666666666666667e-01  1.666666666666665e-01  3.333333333333333e-01
-1.666666666666667e-01  1.666666666666665e-01  3.333333333333333e-01
-1.666666666666667e-01  1.666666666666665e-01  3.333333333333333e-01
-1.666666666666667e-01  1.666666666666665e-01  3.333333333333333e-01
-1.666666666666667e-01  1.666666666666665e-01  3.333333333333333e-01
-1.666666666666667e-01  1.666666666666665e-01  3.333333333333333e-01
-1.666666666666667e-01  1.666666666666665e-01  3.333333333333333e-01
-1.666666666666667e-01  1.666666666666665e-01  3.333333333333333e-01
-1.666666666666667e-01  1.666666666666665e-01  3.333333333333333e-01
-1.666666666666667e-01  1.666666666666665e-01  3.333333333333333e-01
-1.666666666666667e-01  1.666666666666665e-01  3.333333333333333e-01
-1.666666666666667e-01  1.666666666666665e-01  3.333333333333333e-01
-1.666666666666667e-01  1.666666666666665e-01  3.333333333333333e-01
-1.666666666666667e-01  1.666666666666665e-01  3.333333333333333e-01
-1.666666666666667e-01  1.666666666666665e-01  3.333333333333333e-01
-1.666666666666667e-01  1.666666666666665e-01  3.333333333333333e-01
-1.666666666666667e-01  1.666666666666665e-01  3.333333333333333e-01
-1.666666666666667e-01  1.666666666666665e-01  3.333333333333333e-01
-1.666666666666667e-01  1.666666666666665e-01  3.333333333333333e-01
-1.666666666666667e-01  1.666666666666665e-01  3.333333333333333e-01
-1.666666666666667e-01  1.666666666666665e-01  3.333333333333333e-01
-1.666666666666667e-01  1.666666666666665e-01  3.333333333333333e-01
-1.666666666666667e-01  1.666666666666665e-01  3.333333333333333e-01
-1.666666666666667e-01  1.666666666666665e-01  3.333333333333333e-01
-1.666666666666667e-01  1.666666666666665e-01  3.333333333333333e-01
-1.666666666666667e-01  1.666666666666665e-01  3.333333333333333e-01
-1.666666666666667e-01  1.666666666666665e-01  3.333333333333333e-01
-1.666666666666667e-01  1.666666666666665e-01  3.333333333333333e-01
-1.666666666666667e-01  1.666666666666665e-01  3.333333333333333e-01
-1.666666666666667e-01  1.666666666666665e-01  3.333333333333333e-01
-1.666666666666667e-01  1.666666666666665e-01  3.333333333333333e-01
-1.666666666666667e-01  1.666666666666665e-01  3.333333333333333e-01
-1.666666666666667e-01  1.666666666666665e-01  3.333333333333333e-01
-1.666666666666667e-01  1.666666666666665e-01  3.333333333333333e-01
-1.666666666666667e-01  1.666666666666665e-01  3.333333333333333e-01
-1.666666666666667e-01  1.666666666666665e-01  3.333333333333333e-01
-1.666666666666667e-01  1.666666666666665e-01  3.333333333333333e-01
-1.666666666666667e-01  1.666666666666665e-01  3.333333333333333e-01
-1.666666666666667e-01  1.666666666666665e-01  3.333333333333333e-01
-1.666666666666667e-01  1.666666666666665e-01  3.333333333333333e-01
-1.666666666666667e-01  1.666666666666665e-01  3.333333333333333e-01
-1.666666666666667e-01  1.666666666666665e-01  3.333333333333333e-01
-1.666666666666667e-01  1.666666666666665e-01  3.333333333333333e-01
-1.666666666666667e-01  1.666666666666665e-01  3.333333333333333e-01
-1.666666666666667e-01  1.666666666666665e-01  3.333333333333333e-01
-1.666666666666667e-01  1.666666666666665e-01  3.333333333333333e-01
-1.666666666666667e-01  1.666666666666665e-01  3.333333333333333e-01
 1.666666666666667e-01 -1.666666666666665e-01 -3.333333333333333e-01
-1.666666666666667e-01  1.666666666666665e-01  3.333333333333333e-01
-1.666666666666667e-01  1.666666666666665e-01  3.333333333333333e-01
-1.666666666666667e-01  1.666666666666665e-01  3.333333333333333e-01
-1.666666666666667e-01  1.666666666666665e-01  3.333333333333333e-01
-1.666666666666667e-01  1.666666666666665e-01  3.333333333333333e-01
-1.666666666666667e-01  1.666666666666665e-01  3.333333333333333e-01
-1.666666666666667e-01  1.666666666666665e-01  3.333333333333333e-01
-1.666666666666667e-01  1.666666666666665e-01  3.333333333333333e-01
-1.666666666666667e-01  1.666666666666665e-01  3.333333333333333e-01
-1.666666666666667e-01  1.666666666666665e-01  3.333333333333333e-01
-1.666666666666667e-01  1.666666666666665e-01  3.333333333333333e-01
-1.666666666666667e-01  1.666666666666665e-01  3.333333333333333e-01
-1.666666666666667e-01  1.666666666666665e-01  3.333333333333333e-01
-1.666666666666667e-01  1.666666666666665e-01  3.333333333333333e-01
-1.666666666666667e-01  1.666666666666665e-01  3.333333333333333e-01
-1.666666666666667e-01  1.666666666666665e-01  3.333333333333333e-01
-1.666666666666667e-01  1.666666666666665e-01  3.333333333333333e-01
-1.666666666666667e-01  1.666666666666665e-01  3.333333333333333e-01
-1.666666666666667e-01  1.666666666666665e-01  3.333333333333333e-01
-1.666666666666667e-01  1.666666666666665e-01  3.333333333333333e-01
-1.666666666666667e-01  1.666666666666665e-01  3.333333333333333e-01
-1.666666666666667e-01  1.666666666666665e-01  3.333333333333333e-01
-1.666666666666667e-01  1.666666666666665e-01  3.333333333333333e-01
-1.666666666666667e-01  1.666666666666665e-01  3.333333333333333e-01
-1.666666666666667e-01  1.666666666666665e-01  3.333333333333333e-01
-1.666666666666667e-01  1.666666666666665e-01  3.333333333333333e-01
-1.666666666666667e-01  1.666666666666665e-01  3.333333333333333e-01
-1.666666666666667e-01  1.666666666666665e-01  3.333333333333333e-01
-1.666666666666667e-01  1.666666666666665e-01  3.333333333333333e-01
-1.666666666666667e-01  1.666666666666665e-01  3.333333333333333e-01
-1.666666666666667e-01  1.666666666666665e-01  3.333333333333333e-01
-1.666666666666667e-01  1.666666666666665e-01  3.333333333333333e-01
-1.666666666666667e-01  1.666666666666665e-01  3.333333333333333e-01
-1.666666666666667e-01  1.666666666666665e-01  3.333333333333333e-01
-1.666666666666667e-01  1.666666666666665e-01  3.333333333333333e-01
-1.666666666666667e-01  1.666666666666665e-01  3.333333333333333e-01
-1.666666666666667e-01  1.666666666666665e-01  3.333333333333333e-01
-1.666666666666667e-01  1.666666666666665e-01  3.333333333333333e-01
-1.666666666666667e-01  1.666666666666665e-01  3.333333333333333e-01
-1.666666666666667e-01  1.666666666666665e-01  3.333333333333333e-01
-1.666666666666667e-01  1.666666666666665e-01  3.333333333333333e-01
-1.666666666666667e-01  1.666666666666665e-01  3.333333333333333e-01
-1.666666666666667e-01  1.666666666666665e-01  3.333333333333333e-01
-1.666666666666667e-01  1.666666666666665e-01  3.333333333333333e-01
-1.666666666666667e-01  1.666666666666665e-01  3.333333333333333e-01
-1.666666666666667e-01  1.666666666666665e-01  3.333333333333333e-01
-1.666666666666667e-01  1.666666666666665e-01  3.333333333333333e-01
-1.666666666666667e-01  1.666666666666665e-01  3.333333333333333e-01
-1.666666666666667e-01  1.666666666666665e-01  3.333333333333333e-01
-1.666666666666667e-01  1.666666666666665e-01  3.333333333333333e-01
-1.666666666666667e-01  1.666666666666665e-01  3.333333333333333e-01
-1.666666666666667e-01  1.666666666666665e-01  3.333333333333333e-01
-1.666666666666667e-01  1.666666666666665e-01  3.333333333333333e-01
-1.666666666666667e-01  1.666666666666665e-01  3.333333333333333e-01
-1.666666666666667e-01  1.666666666666665e-01  3.333333333333333e-01
-1.666666666666667e-01  1.666666666666665e-01  3.333333333333333e-01
-1.666666666666667e-01  1.666666666666665e-01  3.333333333333333e-01
-1.666666666666667e-01  1.666666666666665e-01  3.333333333333333e-01
-1.666666666666667e-01  1.666666666666665e-01  3.333333333333333e-01
-1.666666666666667e-01  1.666666666666665e-01  3.333333333333333e-01
-1.666666666666667e-01  1.666666666666665e-01  3.333333333333333e-01
-1.666666666666667e-01  1.666666666666665e-01  3.333333333333333e-01
-1.666666666666667e-01  1.666666666666665e-01  3.333333333333333e-01
-1.666666666666667e-01  1.666666666666665e-01  3.333333333333333e-01
-1.666666666666667e-01  1.666666666666665e-01  3.333333333333333e-01
-1.666666666666667e-01  1.666666666666665e-01  3.333333333333333e-01
-1.666666666666667e-01  1.666666666666665e-01  3.333333333333333e-01
-1.666666666666667e-01  1.666666666666665e-01  3.333333333333333e-01
-1.666666666666667e-01  1.666666666666665e-01  3.333333333333333e-01
-1.666666666666667e-01  1.666666666666665e-01  3.333333333333333e-01
-1.666666666666667e-01  1.666666666666665e-01  3.333333333333333e-01
-1.666666666666667e-01  1.666666666666665e-01  3.333333333333333e-01
-1.666666666666667e-01  1.666666666666665e-01  3.333333333333333e-01
-1.666666666666667e-01  1.666666666666665e-01  3.333333333333333e-01
-1.666666666666667e-01  1.666666666666665e-01  3.333333333333333e-01
-1.666666666666667e-01  1.666666666666665e-01  3.333333333333333e-01
-1.666666666666667e-01  1.666666666666665e-01  3.333333333333333e-01
-1.666666666666667e-01  1.666666666666665e-01  3.333333333333333e-01
-1.666666666666667e-01  1.666666666666665e-01  3.333333333333333e-01
-1.666666666666667e-01  1.666666666666665e-01  3.333333333333333e-01
-1.666666666666667e-01  1.666666666666665e-01  3.333333333333333e-01
-1.666666666666667e-01  1.666666666666665e-01  3.333333333333333e-01
-1.666666666666667e-01  1.666666666666665e-01  3.333333333333333e-01
-1.666666666666667e-01  1.666666666666665e-01  3.333333333333333e-01
-1.666666666666667e-01  1.666666666666665e-01  3.333333333333333e-01
-1.666666666666667e-01  1.666666666666665e-01  3.333333333333333e-01
-1.666666666666667e-01  1.666666666666665e-01  3.333333333333333e-01
-1.666666666666667e-01  1.666666666666665e-01  3.333333333333333e-01
-1.666666666666667e-01  1.666666666666665e-01  3.333333333333333e-01
-1.666666666666667e-01  1.666666666666665e-01  3.333333333333333e-01
-1.666666666666667e-01  1.666666666666665e-01  3.333333333333333e-01
-1.666666666666667e-01  1.666666666666665e-01  3.333333333333333e-01
-1.666666666666667e-01  1.666666666666665e-01  3.333333333333333e-01
-1.666666666666667e-01  1.666666666666665e-01  3.333333333333333e-01
-1.666666666666667e-01  1.666666666666665e-01  3.333333333333333e-01
-1.666666666666667e-01  1.666666666666665e-01  3.333333333333333e-01
-1.666666666666667e-01  1.666666666666665e-01  3.333333333333333e-01
-1.666666666666667e-01  1.666666666666665e-01  3.333333333333333e-01
-1.666666666666667e-01  1.666666666666665e-01  3.333333333333333e-01
-1.666666666666667e-01  1.666666666666665e-01  3.333333333333333e-01
-1.666666666666667e-01  1.666666666666665e-01  3.333333333333333e-01
-1.666666666666667e-01  1.666666666666665e-01  3.333333333333333e-01
-1.666666666666667e-01  1.666666666666665e-01  3.333333333333333e-01
-1.666666666666667e-01  1.666666666666665e-01  3.333333333333333e-01
-1.666666666666667e-01  1.666666666666665e-01  3.333333333333333e-01
-1.666666666666667e-01  1.666666666666665e-01  3.333333333333333e-01
-1.666666666666667e-01  1.666666666666665e-01  3.333333333333333e-01
-1.666666666666667e-01  1.666666666666665e-01  3.333333333333333e-01
-1.666666666666667e-01  1.666666666666665e-01  3.333333333333333e-01
-1.666666666666667e-01  1.666666666666665e-01  3.333333333333333e-01
-1.666666666666667e-01  1.666666666666665e-01  3.333333333333333e-01
-1.666666666666667e-01  1.666666666666665e-01  3.333333333333333e-01
-1.666666666666667e-01  1.666666666666665e-01  3.333333333333333e-01
-1.666666666666667e-01  1.666666666666665e-01  3.333333333333333e-01
-1.666666666666667e-01  1.666666666666665e-01  3.333333333333333e-01
-1.666666666666667e-01  1.666666666666665e-01  3.333333333333333e-01
-1.666666666666667e-01  1.666666666666665e-01  3.333333333333333e-01
-1.666666666666667e-01  1.666666666666665e-01  3.333333333333333e-01
-1.666666666666667e-01  1.666666666666665e-01  3.333333333333333e-01
-1.666666666666667e-01  1.666666666666665e-01  3.333333333333333e-01
-1.666666666666667e-01  1.666666666666665e-01  3.333333333333333e-01
-1.666666666666667e-01  1.666666666666665e-01  3.333333333333333e-01
-1.666666666666667e-01  1.666666666666665e-01  3.333333333333333e-01
-1.666666666666667e-01  1.666666666666665e-01  3.333333333333333e-01
-1.666666666666667e-01  1.666666666666665e-01  3.333333333333333e-01
-1.666666666666667e-01  1.666666666666665e-01  3.333333333333333e-01
-1.666666666666667e-01  1.666666666666665e-01  3.333333333333333e-01
-1.666666666666667e-01  1.666666666666665e-01  3.333333333333333e-01
-1.666666666666667e-01  1.666666666666665e-01  3.333333333333333e-01
-1.666666666666667e-01  1.666666666666665e-01  3.333333333333333e-01
-1.666666666666667e-01  1.666666666666665e-01  3.333333333333333e-01
-1.666666666666667e-01  1.666666666666665e-01  3.333333333333333e-01
-1.666666666666667e-01  1.666666666666665e-01  3.333333333333333e-01
-1.666666666666667e-01  1.666666666666665e-01  3.333333333333333e-01
-1.666666666666667e-01  1.666666666666665e-01  3.333333333333333e-01
-1.666666666666667e-01  1.666666666666665e-01  3.333333333333333e-01
-1.666666666666667e-01  1.666666666666665e-01  3.333333333333333e-01
-1.666666666666667e-01  1.666666666666665e-01  3.333333333333333e-01
-1.666666666666667e-01  1.666666666666665e-01  3.333333333333333e-01
-1.666666666666667e-01  1.666666666666665e-01  3.333333333333333e-01
-1.666666666666667e-01  1.666666666666665e-01  3.333333333333333e-01
-1.666666666666667e-01  1.666666666666665e-01  3.333333333333333e-01
-1.666666666666667e-01  1.666666666666665e-01  3.333333333333333e-01
-1.666666666666667e-01  1.666666666666665e-01  3.333333333333333e-01
-1.666666666666667e-01  1.666666666666665e-01  3.333333333333333e-01
-1.666666666666667e-01  1.666666666666665e-01  3.333333333333333e-01
-1.666666666666667e-01  1.666666666666665e-01  3.333333333333333e-01
-1.666666666666667e-01  1.666666666666665e-01  3.333333333333333e-01
-1.666666666666667e-01  1.666666666666665e-01  3.333333333333333e-01
-1.666666666666667e-01  1.666666666666665e-01  3.333333333333333e-01
-1.666666666666667e-01  1.666666666666665e-01  3.333333333333333e-01
-1.666666666666667e-01  1.666666666666665e-01  3.333333333333333e-01
-1.666666666666667e-01  1.666666666666665e-01  3.333333333333333e-01
-1.666666666666667e-01  1.666666666666665e-01  3.333333333333333e-01
