# vtk DataFile Version 3.0
# Dislocation lines converted from MoDELib file
ASCII
DATASET UNSTRUCTURED_GRID
POINTS 3611 double
-1.429999999999877e+00  3.863858941524650e+02 -2.918975276816622e+03
-1.429999999999897e+00 -3.863858941524674e+02 -2.918975276816622e+03
-1.429999999999897e+00  0.000000000000000e+00 -2.918975276816622e+03
-1.430000000000221e+00  0.000000000000000e+00  2.918975276816619e+03
-1.430000000000221e+00 -3.863858941524674e+02  2.918975276816619e+03
-1.430000000000201e+00  3.863858941524653e+02  2.918975276816619e+03
-1.148717035958728e+03  1.136622203636771e+00 -2.918975276816622e+03
-1.148425089018579e+03 -9.161524627804669e-01 -2.918975276816622e+03
-1.148551976295310e+03 -1.634328640063654e+00 -2.918975276816622e+03
-1.148405160401196e+03 -3.945682841101570e+00 -2.918975276816622e+03
-1.148603642922875e+03 -5.024499108290611e+00 -2.918975276816622e+03
-1.148472112127388e+03 -6.628783284940059e+00 -2.918975276816622e+03
-1.148582112957647e+03 -8.291716819249835e+00 -2.918975276816622e+03
-1.148970099435732e+03 -1.312082440897059e+01 -2.918975276816622e+03
-1.148884245120596e+03 -1.380341463507793e+01 -2.918975276816622e+03
-1.148633052299198e+03 -1.661098833392613e+01 -2.918975276816622e+03
-1.148933008065840e+03 -2.011380556683345e+01 -2.918975276816622e+03
-1.148716571947717e+03 -2.292564832176310e+01 -2.918975276816622e+03
-1.148768014341825e+03 -2.690546014603119e+01 -2.918975276816622e+03
-1.148867656568514e+03 -2.811934991082041e+01 -2.918975276816622e+03
-1.148951916585129e+03 -3.028911977162703e+01 -2.918975276816622e+03
-1.149191393537515e+03 -3.017810733373813e+01 -2.918975276816622e+03
-1.148404158395709e+03 -3.257365711563180e+01 -2.918975276816622e+03
-1.148838461404289e+03 -3.395404118224195e+01 -2.918975276816622e+03
-1.148272759695831e+03 -3.504655284560750e+01 -2.918975276816622e+03
-1.148443068583822e+03 -3.589527754240740e+01 -2.918975276816622e+03
-1.148074188181270e+03 -3.847126886029788e+01 -2.918975276816622e+03
-1.148305271962686e+03 -4.012079140376673e+01 -2.918975276816622e+03
-1.148051790156828e+03 -4.131739975737137e+01 -2.918975276816622e+03
-1.148129651079108e+03 -4.331338521362272e+01 -2.918975276816622e+03
-1.147947894502382e+03 -4.493034803406975e+01 -2.918975276816622e+03
-1.147653862243545e+03 -4.977515124031264e+01 -2.918975276816622e+03
-1.147490818175047e+03 -5.031716461590169e+01 -2.918975276816622e+03
-1.147514465217527e+03 -5.217659707176171e+01 -2.918975276816622e+03
-1.147227763972463e+03 -5.407016729689169e+01 -2.918975276816622e+03
-1.146921542048065e+03 -5.428870987573035e+01 -2.918975276816622e+03
-1.147457252137129e+03 -5.595316160620875e+01 -2.918975276816622e+03
-1.147497977717492e+03 -5.854037549909923e+01 -2.918975276816622e+03
-1.147711328175676e+03 -6.021555148692575e+01 -2.918975276816622e+03
-1.147648406927278e+03 -6.140576675897017e+01 -2.918975276816622e+03
-1.147733788315616e+03 -6.332001967761261e+01 -2.918975276816622e+03
-1.147740003753425e+03 -6.432476495758669e+01 -2.918975276816622e+03
-1.147702012600578e+03 -6.622828772929226e+01 -2.918975276816622e+03
-1.147819617227420e+03 -6.728828108915673e+01 -2.918975276816622e+03
-1.147720710449536e+03 -6.983298651407860e+01 -2.918975276816622e+03
-1.147850017421782e+03 -7.051791497881625e+01 -2.918975276816622e+03
-1.147666971225568e+03 -7.208325957335849e+01 -2.918975276816622e+03
-1.147759212706060e+03 -7.426669173768558e+01 -2.918975276816622e+03
-1.147698733021937e+03 -7.526588431206498e+01 -2.918975276816622e+03
-1.147957191530518e+03 -7.622981377211556e+01 -2.918975276816622e+03
-1.147788771251302e+03 -7.832665549058517e+01 -2.918975276816622e+03
-1.147972429137405e+03 -8.035221640046888e+01 -2.918975276816622e+03
-1.147836967565057e+03 -8.146216228294027e+01 -2.918975276816622e+03
-1.147965952287658e+03 -8.334561212332169e+01 -2.918975276816622e+03
-1.147561134869327e+03 -8.502475844885969e+01 -2.918975276816622e+03
-1.147998121704006e+03 -8.769580575001875e+01 -2.918975276816622e+03
-1.148038695923492e+03 -8.955437073606814e+01 -2.918975276816622e+03
-1.147897153506895e+03 -9.052807525856350e+01 -2.918975276816622e+03
-1.147740345685918e+03 -9.207638199806944e+01 -2.918975276816622e+03
-1.147961487939282e+03 -9.487468658866997e+01 -2.918975276816622e+03
-1.147973419396160e+03 -9.580178490959210e+01 -2.918975276816622e+03
-1.147976039742158e+03 -9.850686699340118e+01 -2.918975276816622e+03
-1.147943444462640e+03 -1.002961358271704e+02 -2.918975276816622e+03
-1.147924680732338e+03 -1.013702734647296e+02 -2.918975276816622e+03
-1.147871689261309e+03 -1.032518002676792e+02 -2.918975276816622e+03
-1.147860173598863e+03 -1.042263741441756e+02 -2.918975276816622e+03
-1.147775345300081e+03 -1.061687232731748e+02 -2.918975276816622e+03
-1.147779702251502e+03 -1.071933971019756e+02 -2.918975276816622e+03
-1.147643058269759e+03 -1.096907463975487e+02 -2.918975276816622e+03
-1.147669186840213e+03 -1.103903182695367e+02 -2.918975276816622e+03
-1.147377453870566e+03 -1.122434503037134e+02 -2.918975276816622e+03
-1.147405690713216e+03 -1.141145248402593e+02 -2.918975276816622e+03
-1.147402634207780e+03 -1.143192421866356e+02 -2.918975276816622e+03
-1.147602247559782e+03 -1.157881077368858e+02 -2.918975276816622e+03
-1.147509168885958e+03 -1.183428634436939e+02 -2.918975276816622e+03
-1.147650554192397e+03 -1.202614399562947e+02 -2.918975276816622e+03
-1.147601396706108e+03 -1.213573214116112e+02 -2.918975276816622e+03
-1.147674653543507e+03 -1.232518607029049e+02 -2.918975276816622e+03
-1.147626723255363e+03 -1.247920555117447e+02 -2.918975276816622e+03
-1.147584895734706e+03 -1.296295749420704e+02 -2.918975276816622e+03
-1.147552161006959e+03 -1.303288268682962e+02 -2.918975276816622e+03
-1.147503051373869e+03 -1.321760330318734e+02 -2.918975276816622e+03
-1.147341673902553e+03 -1.340823636175374e+02 -2.918975276816622e+03
-1.147000180971568e+03 -1.343554064889507e+02 -2.918975276816622e+03
-1.147467302506789e+03 -1.357947180016373e+02 -2.918975276816622e+03
-1.147470930390708e+03 -1.384183817610368e+02 -2.918975276816622e+03
-1.147701391345835e+03 -1.401067578676245e+02 -2.918975276816622e+03
-1.147625290223606e+03 -1.412931769322155e+02 -2.918975276816622e+03
-1.147753711207174e+03 -1.431957974363313e+02 -2.918975276816622e+03
-1.147724202328422e+03 -1.441544906252931e+02 -2.918975276816622e+03
-1.147751547929893e+03 -1.461095544052236e+02 -2.918975276816622e+03
-1.147774536575567e+03 -1.471495472080138e+02 -2.918975276816622e+03
-1.147775566286181e+03 -1.496419457560020e+02 -2.918975276816622e+03
-1.147783558628661e+03 -1.503406416148236e+02 -2.918975276816622e+03
-1.147753061190767e+03 -1.520204128994566e+02 -2.918975276816622e+03
-1.147777267043885e+03 -1.540347754410137e+02 -2.918975276816622e+03
-1.148146228521563e+03 -1.542515310450733e+02 -2.918975276816622e+03
-1.147921645811094e+03 -1.560060251958192e+02 -2.918975276816622e+03
-1.147813035865857e+03 -1.601700580490965e+02 -2.918975276816622e+03
-1.147751487593750e+03 -1.612280511747454e+02 -2.918975276816622e+03
-1.147899644714721e+03 -1.632001740880751e+02 -2.918975276816622e+03
-1.147835083686641e+03 -1.647433533105218e+02 -2.918975276816622e+03
-1.147856166394755e+03 -1.696260922755052e+02 -2.918975276816622e+03
-1.147961022941063e+03 -1.703647812812328e+02 -2.918975276816622e+03
-1.148029140312090e+03 -1.723382288055887e+02 -2.918975276816622e+03
-1.148125436817407e+03 -1.741405070522825e+02 -2.918975276816622e+03
-1.147670615082257e+03 -1.739383313023224e+02 -2.918975276816622e+03
-1.147853151048756e+03 -1.756771886479588e+02 -2.918975276816622e+03
-1.147797212470568e+03 -1.783043726392706e+02 -2.918975276816622e+03
-1.147858914198902e+03 -1.801865111374385e+02 -2.918975276816622e+03
-1.147747931236898e+03 -1.812802914075533e+02 -2.918975276816622e+03
-1.147815132498353e+03 -1.831617661405007e+02 -2.918975276816622e+03
-1.147840973309569e+03 -1.847119045165494e+02 -2.918975276816622e+03
-1.147687511519586e+03 -1.895276340772853e+02 -2.918975276816622e+03
-1.147666224206179e+03 -1.902192006897442e+02 -2.918975276816622e+03
-1.147631452217474e+03 -1.919298369734769e+02 -2.918975276816622e+03
-1.147507299092071e+03 -1.939325736396993e+02 -2.918975276816622e+03
-1.147617619258133e+03 -1.943677971991807e+02 -2.918975276816622e+03
-1.147553321974578e+03 -1.960514779781844e+02 -2.918975276816622e+03
-1.147659565808697e+03 -2.001016651631678e+02 -2.918975276816622e+03
-1.147608977818564e+03 -2.011197736798274e+02 -2.918975276816622e+03
-1.147582023643446e+03 -2.031211954264651e+02 -2.918975276816622e+03
-1.147695347430337e+03 -2.040490812107853e+02 -2.918975276816622e+03
-1.147678208214654e+03 -2.060348442960044e+02 -2.918975276816622e+03
-1.147916767273415e+03 -2.070787410977821e+02 -2.918975276816622e+03
-1.147946157183200e+03 -2.095746247996495e+02 -2.918975276816622e+03
-1.148061352762124e+03 -2.103819373962129e+02 -2.918975276816622e+03
-1.147767739944564e+03 -2.124230576084047e+02 -2.918975276816622e+03
-1.147774416005213e+03 -2.142628054822522e+02 -2.918975276816622e+03
-1.148077024531678e+03 -2.139944946680033e+02 -2.918975276816622e+03
-1.148050416055608e+03 -2.156113687692815e+02 -2.918975276816622e+03
-1.147893171732434e+03 -2.182401454006629e+02 -2.918975276816622e+03
-1.147896405118240e+03 -2.201176184934095e+02 -2.918975276816622e+03
-1.147763385697247e+03 -2.212188875779431e+02 -2.918975276816622e+03
-1.147820349787330e+03 -2.230875722546824e+02 -2.918975276816622e+03
-1.147796552177846e+03 -2.246478401382610e+02 -2.918975276816622e+03
-1.147626990613864e+03 -2.294766762326159e+02 -2.918975276816622e+03
-1.147607259872021e+03 -2.301813095692636e+02 -2.918975276816622e+03
-1.147238179556160e+03 -2.319542260522337e+02 -2.918975276816622e+03
-1.147199923733309e+03 -2.337847941140566e+02 -2.918975276816622e+03
-1.147293930712179e+03 -2.338356859908144e+02 -2.918975276816622e+03
-1.147538695194918e+03 -2.355410014259667e+02 -2.918975276816622e+03
-1.147563395721741e+03 -2.381320598475689e+02 -2.918975276816622e+03
-1.147683912356601e+03 -2.401433025440265e+02 -2.918975276816622e+03
-1.147676668826614e+03 -2.411904533960363e+02 -2.918975276816622e+03
-1.147765823987054e+03 -2.431579481522766e+02 -2.918975276816622e+03
-1.147698675598786e+03 -2.444625977988586e+02 -2.918975276816622e+03
-1.147743252614834e+03 -2.469907671595653e+02 -2.918975276816622e+03
-1.147746001977350e+03 -2.470700570189088e+02 -2.918975276816622e+03
-1.147860933345295e+03 -2.498160582752240e+02 -2.918975276816622e+03
-1.147711443699255e+03 -2.508092555242892e+02 -2.918975276816622e+03
-1.147839156618465e+03 -2.516295884163226e+02 -2.918975276816622e+03
-1.147677643773777e+03 -2.539356413642776e+02 -2.918975276816622e+03
-1.147861587540079e+03 -2.552337045988253e+02 -2.918975276816622e+03
-1.147768936546157e+03 -2.574203379503512e+02 -2.918975276816622e+03
-1.147788388410673e+03 -2.577785314025020e+02 -2.918975276816622e+03
-1.147761470280926e+03 -2.602013781841664e+02 -2.918975276816622e+03
-1.147954169772182e+03 -2.609069243783339e+02 -2.918975276816622e+03
-1.147668288861767e+03 -2.631317405126053e+02 -2.918975276816622e+03
-1.147906631925824e+03 -2.659594621731786e+02 -2.918975276816622e+03
-1.147858259669462e+03 -2.674048842116595e+02 -2.918975276816622e+03
-1.148890697868912e+03 -2.681115356569748e+02 -2.918975276816622e+03
-1.148388085109487e+03 -2.688704691423363e+02 -2.918975276816622e+03
-1.148049125000882e+03 -2.700960473422870e+02 -2.918975276816622e+03
-1.147771673236658e+03 -2.714334465816169e+02 -2.918975276816622e+03
-1.147696756851123e+03 -2.739263039809157e+02 -2.918975276816622e+03
-1.147732102929206e+03 -2.756470703709704e+02 -2.918975276816622e+03
-1.147883435628674e+03 -2.772170052581922e+02 -2.918975276816622e+03
-1.148045315509718e+03 -2.803356469392354e+02 -2.918975276816622e+03
-1.148365696436954e+03 -2.814521940134726e+02 -2.918975276816622e+03
-1.149918631086247e+03 -2.817892579173648e+02 -2.918975276816622e+03
-1.147894904771884e+03 -2.837871840053338e+02 -2.918975276816622e+03
-1.148097239663219e+03 -2.844933098770620e+02 -2.918975276816622e+03
-1.147707679884018e+03 -2.851301382230625e+02 -2.918975276816622e+03
-1.147771820344502e+03 -2.861686663028270e+02 -2.918975276816622e+03
-1.147875061952913e+03 -2.877564148183139e+02 -2.918975276816622e+03
-1.148738843173657e+03 -2.899415840832145e+02 -2.918975276816622e+03
-1.147878634098416e+03 -2.899082544064630e+02 -2.918975276816622e+03
-1.148193577771107e+03 -2.950272111894399e+02 -2.918975276816622e+03
-1.147932241345306e+03 -2.985355906023471e+02 -2.918975276816622e+03
-1.148333079515099e+03 -3.001437126120013e+02 -2.918975276816622e+03
-1.148350391459045e+03 -3.037227133111743e+02 -2.918975276816622e+03
-1.148333102579252e+03 -3.043755697307911e+02 -2.918975276816622e+03
-1.148530891417095e+03 -3.072926297593315e+02 -2.918975276816622e+03
-1.148815227086420e+03 -3.105926705763393e+02 -2.918975276816622e+03
-1.149043653525356e+03 -3.140488057108147e+02 -2.918975276816622e+03
-1.149091418874318e+03 -3.174260807121381e+02 -2.918975276816622e+03
-1.149469368287869e+03 -3.183391923507773e+02 -2.918975276816622e+03
-1.149090912939415e+03 -3.193725782719126e+02 -2.918975276816622e+03
-1.151549887305963e+03 -3.201240683708719e+02 -2.918975276816622e+03
-1.149155905516939e+03 -3.218194411504635e+02 -2.918975276816622e+03
-1.149396607623619e+03 -3.243075800960959e+02 -2.918975276816622e+03
-1.148336187041813e+03 -3.250518090802894e+02 -2.918975276816622e+03
-1.148324797273774e+03 -3.280694580006930e+02 -2.918975276816622e+03
-1.147023209776758e+03 -3.286322469888504e+02 -2.918975276816622e+03
-1.148890539489344e+03 -3.305661063360547e+02 -2.918975276816622e+03
-1.146609157184100e+03 -3.325356144455831e+02 -2.918975276816622e+03
-1.147696502986329e+03 -3.330075827056264e+02 -2.918975276816622e+03
-1.147647721882535e+03 -3.348803318382453e+02 -2.918975276816622e+03
-1.148514864328563e+03 -3.364605661241696e+02 -2.918975276816622e+03
-1.148195951212292e+03 -3.368948099564493e+02 -2.918975276816622e+03
-1.148285470040907e+03 -3.388762940049464e+02 -2.918975276816622e+03
-1.147728066749160e+03 -3.430918544621717e+02 -2.918975276816622e+03
-1.147377962934905e+03 -3.452851744702998e+02 -2.918975276816622e+03
-1.147076294321531e+03 -3.469724667370558e+02 -2.918975276816622e+03
-1.147981924683828e+03 -3.472141647589014e+02 -2.918975276816622e+03
-1.147493047329026e+03 -3.492788451799310e+02 -2.918975276816622e+03
-1.148106364141046e+03 -3.524331868821747e+02 -2.918975276816622e+03
-1.147548607745701e+03 -3.536075836005642e+02 -2.918975276816622e+03
-1.149754866048149e+03 -3.545610902648706e+02 -2.918975276816622e+03
-1.148560472152917e+03 -3.557447494546257e+02 -2.918975276816622e+03
-1.148553558283049e+03 -3.566204152108510e+02 -2.918975276816622e+03
-1.147649805196205e+03 -3.575406311437775e+02 -2.918975276816622e+03
-1.148245688478466e+03 -3.582394978781181e+02 -2.918975276816622e+03
-1.147937957174544e+03 -3.588767430498550e+02 -2.918975276816622e+03
-1.148259117567737e+03 -3.603569160599145e+02 -2.918975276816622e+03
-1.147742079024902e+03 -3.608357879544564e+02 -2.918975276816622e+03
-1.147967848203176e+03 -3.623839692183651e+02 -2.918975276816622e+03
-1.147511829628273e+03 -3.641252524334714e+02 -2.918975276816622e+03
-1.147941674652059e+03 -3.647069268793149e+02 -2.918975276816622e+03
-1.148060307844414e+03 -3.696300215368990e+02 -2.918975276816622e+03
-1.147866297969643e+03 -3.716634126433399e+02 -2.918975276816622e+03
-1.147567227035673e+03 -3.737900188931065e+02 -2.918975276816622e+03
-1.148322130838112e+03 -3.742803519914888e+02 -2.918975276816622e+03
-1.148816039797296e+03 -3.764683123336312e+02 -2.918975276816622e+03
-1.148193394800401e+03 -3.776953783639717e+02 -2.918975276816622e+03
-1.147843453858670e+03 -3.797132191103697e+02 -2.918975276816622e+03
-1.147940460082813e+03 -3.801060389779009e+02 -2.918975276816622e+03
-1.147914341960099e+03 -3.823799621377669e+02 -2.918975276816622e+03
-1.148045137083843e+03 -3.860596804151525e+02 -2.918975276816622e+03
-1.148071927550934e+03  3.833401452701455e+02 -2.918975276816622e+03
-1.148161679958881e+03  3.785841104098367e+02 -2.918975276816622e+03
-1.148144223760866e+03  3.772909013639199e+02 -2.918975276816622e+03
-1.148135123529144e+03  3.765487420630229e+02 -2.918975276816622e+03
-1.148164021259324e+03  3.736648995824733e+02 -2.918975276816622e+03
-1.148216374479320e+03  3.685343952627131e+02 -2.918975276816622e+03
-1.148612299240297e+03  3.657110524316135e+02 -2.918975276816622e+03
-1.147528708023446e+03  3.657167626022268e+02 -2.918975276816622e+03
-1.148209068720541e+03  3.598785989493243e+02 -2.918975276816622e+03
-1.148387592310995e+03  3.577385197366632e+02 -2.918975276816622e+03
-1.148697420169912e+03  3.547451091088613e+02 -2.918975276816622e+03
-1.148710627952024e+03  3.526666899469760e+02 -2.918975276816622e+03
-1.148793412439701e+03  3.509014388751506e+02 -2.918975276816622e+03
-1.148244451880134e+03  3.487347308523882e+02 -2.918975276816622e+03
-1.148310427445278e+03  3.461324171679591e+02 -2.918975276816622e+03
-1.148747439221430e+03  3.445866510305577e+02 -2.918975276816622e+03
-1.149106351830675e+03  3.418615606028555e+02 -2.918975276816622e+03
-1.149150767823798e+03  3.409528578437324e+02 -2.918975276816622e+03
-1.148751328875924e+03  3.383285261713060e+02 -2.918975276816622e+03
-1.149865370677634e+03  3.345191952192759e+02 -2.918975276816622e+03
-1.149728681808522e+03  3.344971898359972e+02 -2.918975276816622e+03
-1.148628691179998e+03  3.297539918915899e+02 -2.918975276816622e+03
-1.148551635928158e+03  3.277371908009642e+02 -2.918975276816622e+03
-1.148053750628065e+03  3.261559215532595e+02 -2.918975276816622e+03
-1.148096249136843e+03  3.238057850977472e+02 -2.918975276816622e+03
-1.147589018424784e+03  3.235575532205463e+02 -2.918975276816622e+03
-1.147904658100197e+03  3.211286558887040e+02 -2.918975276816622e+03
-1.147298854601173e+03  3.199677427550899e+02 -2.918975276816622e+03
-1.147516121135709e+03  3.173102044401506e+02 -2.918975276816622e+03
-1.146685295374903e+03  3.133784702184316e+02 -2.918975276816622e+03
-1.147295520580381e+03  3.122795300388483e+02 -2.918975276816622e+03
-1.147060178369800e+03  3.097745174693653e+02 -2.918975276816622e+03
-1.147277849090081e+03  3.070223427864713e+02 -2.918975276816622e+03
-1.146869292687519e+03  3.045833762860829e+02 -2.918975276816622e+03
-1.147760360327740e+03  3.036349652670571e+02 -2.918975276816622e+03
-1.146787682219138e+03  3.022083599701630e+02 -2.918975276816622e+03
-1.146860280547777e+03  3.016031907266290e+02 -2.918975276816622e+03
-1.146644309130796e+03  2.996703461359508e+02 -2.918975276816622e+03
-1.147467196919970e+03  2.960311162223358e+02 -2.918975276816622e+03
-1.147560079313184e+03  2.953960930965905e+02 -2.918975276816622e+03
-1.147510935390554e+03  2.935658446188388e+02 -2.918975276816622e+03
-1.147821976835720e+03  2.890125608453017e+02 -2.918975276816622e+03
-1.147797880968638e+03  2.884991246394563e+02 -2.918975276816622e+03
-1.148014420170034e+03  2.862471569015447e+02 -2.918975276816622e+03
-1.147882467266008e+03  2.831657571214769e+02 -2.918975276816622e+03
-1.148088288215551e+03  2.819962823916455e+02 -2.918975276816622e+03
-1.147897726066089e+03  2.800885206924885e+02 -2.918975276816622e+03
-1.147781111431077e+03  2.780094117707283e+02 -2.918975276816622e+03
-1.147930595209383e+03  2.761967729025345e+02 -2.918975276816622e+03
-1.147976266863937e+03  2.756954803990699e+02 -2.918975276816622e+03
-1.147855371874092e+03  2.742177327933666e+02 -2.918975276816622e+03
-1.147803905904514e+03  2.717147931330697e+02 -2.918975276816622e+03
-1.147725786825448e+03  2.708953638437906e+02 -2.918975276816622e+03
-1.147754587321531e+03  2.691625623438785e+02 -2.918975276816622e+03
-1.147506893297083e+03  2.667014317769614e+02 -2.918975276816622e+03
-1.147748430292863e+03  2.655899298091764e+02 -2.918975276816622e+03
-1.147665637995039e+03  2.630462551353107e+02 -2.918975276816622e+03
-1.147698448412859e+03  2.610783833060604e+02 -2.918975276816622e+03
-1.147586664020924e+03  2.599944119550488e+02 -2.918975276816622e+03
-1.147782654584571e+03  2.580362029319690e+02 -2.918975276816622e+03
-1.147605137029051e+03  2.567103201225188e+02 -2.918975276816622e+03
-1.147750427673383e+03  2.541174047985150e+02 -2.918975276816622e+03
-1.147776485585571e+03  2.541288242197542e+02 -2.918975276816622e+03
-1.147911118621529e+03  2.514075110361214e+02 -2.918975276816622e+03
-1.147643269465102e+03  2.503327933631619e+02 -2.918975276816622e+03
-1.147838787639478e+03  2.495268357474767e+02 -2.918975276816622e+03
-1.147576842629119e+03  2.471796541777660e+02 -2.918975276816622e+03
-1.147808677155585e+03  2.458156485184419e+02 -2.918975276816622e+03
-1.147566318611085e+03  2.436393863875242e+02 -2.918975276816622e+03
-1.147652232618802e+03  2.433441891459321e+02 -2.918975276816622e+03
-1.147547210596022e+03  2.407094478080717e+02 -2.918975276816622e+03
-1.147719287051518e+03  2.400899927772396e+02 -2.918975276816622e+03
-1.147554484420863e+03  2.385817665158185e+02 -2.918975276816622e+03
-1.147700370866140e+03  2.363035376460280e+02 -2.918975276816622e+03
-1.147550214233249e+03  2.354065496081642e+02 -2.918975276816622e+03
-1.147753606799972e+03  2.340432201977883e+02 -2.918975276816622e+03
-1.147574988556495e+03  2.320477318532616e+02 -2.918975276816622e+03
-1.147561641291901e+03  2.304116835185460e+02 -2.918975276816622e+03
-1.147512933266053e+03  2.291266814691663e+02 -2.918975276816622e+03
-1.147649808779001e+03  2.272108074318388e+02 -2.918975276816622e+03
-1.147436616244148e+03  2.262052784122109e+02 -2.918975276816622e+03
-1.147510494190303e+03  2.243312626674957e+02 -2.918975276816622e+03
-1.147222365365765e+03  2.232815287895563e+02 -2.918975276816622e+03
-1.147248890659444e+03  2.207845456618167e+02 -2.918975276816622e+03
-1.147078421363615e+03  2.203250125357270e+02 -2.918975276816622e+03
-1.146829883985604e+03  2.184399898826012e+02 -2.918975276816622e+03
-1.145299368201604e+03  2.161543936160568e+02 -2.918975276816622e+03
-1.146147536381247e+03  2.159307974727408e+02 -2.918975276816622e+03
-1.146814944864713e+03  2.142460960685369e+02 -2.918975276816622e+03
-1.146660882255898e+03  2.129317258647171e+02 -2.918975276816622e+03
-1.147181354839331e+03  2.119034887988035e+02 -2.918975276816622e+03
-1.147127350272731e+03  2.103157021741068e+02 -2.918975276816622e+03
-1.147371585913090e+03  2.092325103046071e+02 -2.918975276816622e+03
-1.147285435493236e+03  2.072591558389281e+02 -2.918975276816622e+03
-1.147562720750684e+03  2.062278320234583e+02 -2.918975276816622e+03
-1.147480278294736e+03  2.043491387785802e+02 -2.918975276816622e+03
-1.147694531821257e+03  2.033191891451450e+02 -2.918975276816622e+03
-1.147601655768018e+03  2.007383771127358e+02 -2.918975276816622e+03
-1.147626346807223e+03  1.999338329663815e+02 -2.918975276816622e+03
-1.147611627413084e+03  1.986382128810449e+02 -2.918975276816622e+03
-1.147830012628466e+03  1.962268472093609e+02 -2.918975276816622e+03
-1.147137463955076e+03  1.957681875643721e+02 -2.918975276816622e+03
-1.147565019806668e+03  1.944566088850140e+02 -2.918975276816622e+03
-1.147566497463732e+03  1.921315821142434e+02 -2.918975276816622e+03
-1.147600474457859e+03  1.902955722347667e+02 -2.918975276816622e+03
-1.147505590279471e+03  1.891565058670566e+02 -2.918975276816622e+03
-1.147542545782943e+03  1.872794996491396e+02 -2.918975276816622e+03
-1.147514606089976e+03  1.862837541563521e+02 -2.918975276816622e+03
-1.147561454387851e+03  1.843979819098064e+02 -2.918975276816622e+03
-1.147413481854776e+03  1.833648537738569e+02 -2.918975276816622e+03
-1.147344868364705e+03  1.808361066961235e+02 -2.918975276816622e+03
-1.147274998258869e+03  1.803039396338290e+02 -2.918975276816622e+03
-1.146993426176032e+03  1.784245997592843e+02 -2.918975276816622e+03
-1.146336923906336e+03  1.765573583247665e+02 -2.918975276816622e+03
-1.147291078861528e+03  1.764486330516845e+02 -2.918975276816622e+03
-1.147683210494238e+03  1.750971038505097e+02 -2.918975276816622e+03
-1.146763539539109e+03  1.755552155108019e+02 -2.918975276816622e+03
-1.147418812178715e+03  1.734725372105041e+02 -2.918975276816622e+03
-1.148289435374274e+03  1.717321053784365e+02 -2.918975276816622e+03
-1.147542199768673e+03  1.701956431561302e+02 -2.918975276816622e+03
-1.147190272786566e+03  1.692225429201223e+02 -2.918975276816622e+03
-1.147319558376804e+03  1.672955320836916e+02 -2.918975276816622e+03
-1.147403089303274e+03  1.663129667839493e+02 -2.918975276816622e+03
-1.147541486150741e+03  1.644272013390708e+02 -2.918975276816622e+03
-1.147512476232392e+03  1.633851413805636e+02 -2.918975276816622e+03
-1.147572448495983e+03  1.608249662761382e+02 -2.918975276816622e+03
-1.147519325459308e+03  1.601584378631237e+02 -2.918975276816622e+03
-1.147089596330175e+03  1.583266653367382e+02 -2.918975276816622e+03
-1.146762738532356e+03  1.566064268703615e+02 -2.918975276816622e+03
-1.147201267126984e+03  1.565740601922857e+02 -2.918975276816622e+03
-1.147480931154370e+03  1.549283859994190e+02 -2.918975276816622e+03
-1.145220482710122e+03  1.543203204030952e+02 -2.918975276816622e+03
-1.147024095354010e+03  1.530748759695193e+02 -2.918975276816622e+03
-1.147312110634381e+03  1.517607129871485e+02 -2.918975276816622e+03
-1.147278720099051e+03  1.502296164055892e+02 -2.918975276816622e+03
-1.146940678780346e+03  1.492256742534041e+02 -2.918975276816622e+03
-1.147229355186947e+03  1.473140490907905e+02 -2.918975276816622e+03
-1.147229392232247e+03  1.463457788129204e+02 -2.918975276816622e+03
-1.147389998347765e+03  1.444820635878014e+02 -2.918975276816622e+03
-1.147429240755284e+03  1.434256474605382e+02 -2.918975276816622e+03
-1.147430837236594e+03  1.409540270220928e+02 -2.918975276816622e+03
-1.147145134336735e+03  1.406373943596624e+02 -2.918975276816622e+03
-1.147126644467601e+03  1.386145361386583e+02 -2.918975276816622e+03
-1.146483709609629e+03  1.368392663568021e+02 -2.918975276816622e+03
-1.146593410571410e+03  1.365151763512022e+02 -2.918975276816622e+03
-1.147138899307495e+03  1.343869770963759e+02 -2.918975276816622e+03
-1.146808772012964e+03  1.329832252062560e+02 -2.918975276816622e+03
-1.147506939862550e+03  1.304815436511346e+02 -2.918975276816622e+03
-1.147595659995089e+03  1.292207814482684e+02 -2.918975276816622e+03
-1.147649045146522e+03  1.273545702501305e+02 -2.918975276816622e+03
-1.147648662945402e+03  1.257770400216977e+02 -2.918975276816622e+03
-1.147537319816421e+03  1.209967111987809e+02 -2.918975276816622e+03
-1.147569615587939e+03  1.201275033275970e+02 -2.918975276816622e+03
-1.147805704528934e+03  1.178772803482990e+02 -2.918975276816622e+03
-1.147660144996193e+03  1.148146425535062e+02 -2.918975276816622e+03
-1.147717531408696e+03  1.128730739026976e+02 -2.918975276816622e+03
-1.147670177687358e+03  1.120744966748717e+02 -2.918975276816622e+03
-1.147615238662221e+03  1.104641695823637e+02 -2.918975276816622e+03
-1.147649489848165e+03  1.094177039082597e+02 -2.918975276816622e+03
-1.147783932370592e+03  1.072380220347044e+02 -2.918975276816622e+03
-1.148025813005898e+03  1.061394800691850e+02 -2.918975276816622e+03
-1.147868256906715e+03  1.046251538201290e+02 -2.918975276816622e+03
-1.147930317378527e+03  1.034498677453501e+02 -2.918975276816622e+03
-1.147897477945784e+03  1.010571557350438e+02 -2.918975276816622e+03
-1.147882123760765e+03  1.001620602701257e+02 -2.918975276816622e+03
-1.147924842099193e+03  9.869800744204915e+01 -2.918975276816622e+03
-1.147909399634308e+03  9.720834516060975e+01 -2.918975276816622e+03
-1.147970996770106e+03  9.527953247440757e+01 -2.918975276816622e+03
-1.147733050445729e+03  9.137387947282194e+01 -2.918975276816622e+03
-1.147733150663300e+03  8.899857819914691e+01 -2.918975276816622e+03
-1.147219824476163e+03  8.646654800514489e+01 -2.918975276816622e+03
-1.147684994740185e+03  8.575093862529611e+01 -2.918975276816622e+03
-1.145278902130002e+03  8.446340231479790e+01 -2.918975276816622e+03
-1.147307289234507e+03  8.332213658963693e+01 -2.918975276816622e+03
-1.147444477835634e+03  8.290382228807331e+01 -2.918975276816622e+03
-1.147823567313360e+03  8.057888751918168e+01 -2.918975276816622e+03
-1.147582272492022e+03  7.855676355554685e+01 -2.918975276816622e+03
-1.148024110601292e+03  7.610712831432980e+01 -2.918975276816622e+03
-1.148019750986085e+03  7.371100894563003e+01 -2.918975276816622e+03
-1.148136427846141e+03  7.171742938650533e+01 -2.918975276816622e+03
-1.148034285116027e+03  7.074789047029161e+01 -2.918975276816622e+03
-1.148021932918742e+03  6.799658225970573e+01 -2.918975276816622e+03
-1.148038741303154e+03  6.737727184590136e+01 -2.918975276816622e+03
-1.148096676494091e+03  6.559779341612614e+01 -2.918975276816622e+03
-1.147999996876689e+03  6.199767527439261e+01 -2.918975276816622e+03
-1.147820819052650e+03  5.989524463540595e+01 -2.918975276816622e+03
-1.148174886421204e+03  5.984788348824385e+01 -2.918975276816622e+03
-1.147911184125070e+03  5.511569732620469e+01 -2.918975276816622e+03
-1.147792713919187e+03  5.305143638078364e+01 -2.918975276816622e+03
-1.147986915929594e+03  5.131574894943577e+01 -2.918975276816622e+03
-1.147824730371059e+03  4.961766398302868e+01 -2.918975276816622e+03
-1.147953081497331e+03  4.791338250559054e+01 -2.918975276816622e+03
-1.147855586797221e+03  4.666050110654778e+01 -2.918975276816622e+03
-1.147934297292976e+03  4.638454646590840e+01 -2.918975276816622e+03
-1.147794187639303e+03  4.461625524307174e+01 -2.918975276816622e+03
-1.148069841485154e+03  4.350141252802297e+01 -2.918975276816622e+03
-1.147747240498366e+03  4.190007249494741e+01 -2.918975276816622e+03
-1.148131037927647e+03  4.041998858738715e+01 -2.918975276816622e+03
-1.147613711705840e+03  3.779260890685526e+01 -2.918975276816622e+03
-1.148079840261701e+03  3.541922786924396e+01 -2.918975276816622e+03
-1.147997325415706e+03  3.183689438701706e+01 -2.918975276816622e+03
-1.148962928170897e+03  2.878996263231646e+01 -2.918975276816622e+03
-1.147929379887723e+03  2.508188523123099e+01 -2.918975276816622e+03
-1.148712433264265e+03  2.392220217502989e+01 -2.918975276816622e+03
-1.147809371117651e+03  2.232569775393398e+01 -2.918975276816622e+03
-1.147941040496897e+03  2.187088583174302e+01 -2.918975276816622e+03
-1.146851535311628e+03  2.014345206383809e+01 -2.918975276816622e+03
-1.147116729669385e+03  1.993350666762013e+01 -2.918975276816622e+03
-1.147895238797539e+03  1.788228921819962e+01 -2.918975276816622e+03
-1.148154413277805e+03  1.648877498234017e+01 -2.918975276816622e+03
-1.148706366130983e+03  1.449248218962822e+01 -2.918975276816622e+03
-1.148220876766347e+03  1.402770499693526e+01 -2.918975276816622e+03
-1.147915949939245e+03  1.120582431290065e+01 -2.918975276816622e+03
-1.148557559919348e+03  7.640546817373985e+00 -2.918975276816622e+03
-1.149193590222732e+03  6.445049197031379e+00 -2.918975276816622e+03
-1.148722502046876e+03  5.195443592072256e+00 -2.918975276816622e+03
1.145762025595707e+03 5.235608233268954e-01 2.918975276816622e+03
 1.146024123590869e+03 -8.493387255906124e-01  2.918975276816622e+03
 1.145593322673245e+03 -2.429118131556870e+00  2.918975276816622e+03
 1.145965650178266e+03 -4.017949803455124e+00  2.918975276816622e+03
 1.145869178230165e+03 -4.521876082468959e+00  2.918975276816622e+03
 1.145941490961767e+03 -8.861115366013040e+00  2.918975276816622e+03
 1.145703447858767e+03 -9.921520083302733e+00  2.918975276816622e+03
 1.145701063193272e+03 -1.175969927958194e+01  2.918975276816622e+03
 1.145738955769767e+03 -1.341934868147685e+01  2.918975276816622e+03
 1.145653759916940e+03 -1.706874800784328e+01  2.918975276816622e+03
 1.145524362911379e+03 -2.163578376633975e+01  2.918975276816622e+03
 1.145403737457407e+03 -2.389092262994590e+01  2.918975276816622e+03
 1.145439323135865e+03 -2.610479824710495e+01  2.918975276816622e+03
 1.145267616679339e+03 -2.780709327067102e+01  2.918975276816622e+03
 1.145455269167930e+03 -2.993261918165593e+01  2.918975276816622e+03
 1.145258156519872e+03 -3.036432776098668e+01  2.918975276816622e+03
 1.145283492115138e+03 -3.184715257278017e+01  2.918975276816622e+03
 1.145160898866907e+03 -3.330161156972775e+01  2.918975276816622e+03
 1.145005762572483e+03 -3.810516558026035e+01  2.918975276816622e+03
 1.144894891105911e+03 -3.934439713541452e+01  2.918975276816622e+03
 1.144897024302663e+03 -4.174867959044128e+01  2.918975276816622e+03
 1.144814689894383e+03 -4.510055125155608e+01  2.918975276816622e+03
 1.144593220200812e+03 -4.589805023362936e+01  2.918975276816622e+03
 1.145102941832547e+03 -4.722815755261260e+01  2.918975276816622e+03
 1.145055826529062e+03 -4.912628293096767e+01  2.918975276816622e+03
 1.145272622459259e+03 -5.026877892738359e+01  2.918975276816622e+03
 1.145180858968954e+03 -5.357977733523713e+01  2.918975276816622e+03
 1.145589154041163e+03 -5.506800865360646e+01  2.918975276816622e+03
 1.145390069415331e+03 -5.637136434547816e+01  2.918975276816622e+03
 1.145685514264145e+03 -5.860897136043884e+01  2.918975276816622e+03
 1.145528295607407e+03 -6.035334849620525e+01  2.918975276816622e+03
 1.145653037701316e+03 -6.210866676466680e+01  2.918975276816622e+03
 1.144897681433989e+03 -6.360369551620347e+01  2.918975276816622e+03
 1.145577999322812e+03 -6.545521753125198e+01  2.918975276816622e+03
 1.145523609689741e+03 -6.633066186704809e+01  2.918975276816622e+03
 1.145462275606100e+03 -6.755212258508260e+01  2.918975276816622e+03
 1.145394125614630e+03 -6.881340758795729e+01  2.918975276816622e+03
 1.145521084825793e+03 -7.034243080977809e+01  2.918975276816622e+03
 1.145318947238142e+03 -7.497546818852972e+01  2.918975276816622e+03
 1.145388728107210e+03 -7.873962575369495e+01  2.918975276816622e+03
 1.145195824735060e+03 -8.061125604605374e+01  2.918975276816622e+03
 1.145269591112455e+03 -8.217177767199017e+01  2.918975276816622e+03
 1.145158183870715e+03 -8.355284048979809e+01  2.918975276816622e+03
 1.145351281679428e+03 -8.462846605367434e+01  2.918975276816622e+03
 1.145260507720022e+03 -8.533139189363123e+01  2.918975276816622e+03
 1.145749872318540e+03 -8.626785559559677e+01  2.918975276816622e+03
 1.145602904088140e+03 -8.736157122017748e+01  2.918975276816622e+03
 1.145700354610413e+03 -8.882239262821844e+01  2.918975276816622e+03
 1.145423980731797e+03 -9.024257785025029e+01  2.918975276816622e+03
 1.145175045531482e+03 -9.469345849080412e+01  2.918975276816622e+03
 1.145269732523111e+03 -9.801756808177923e+01  2.918975276816622e+03
 1.145290113531830e+03 -9.933697850111153e+01  2.918975276816622e+03
 1.145489499632337e+03 -1.017535760973682e+02  2.918975276816622e+03
 1.145351370036821e+03 -1.027639059740764e+02  2.918975276816622e+03
 1.145529326487980e+03 -1.041414017437904e+02  2.918975276816622e+03
 1.145506553614077e+03 -1.044403057447296e+02  2.918975276816622e+03
 1.145611012306219e+03 -1.054809400932783e+02  2.918975276816622e+03
 1.145219214315070e+03 -1.061156284403010e+02  2.918975276816622e+03
 1.145553523152790e+03 -1.072724725744698e+02  2.918975276816622e+03
 1.145334519406598e+03 -1.087094173912057e+02  2.918975276816622e+03
 1.145116690986619e+03 -1.102182523780354e+02  2.918975276816622e+03
 1.144629396665652e+03 -1.151249149203541e+02  2.918975276816622e+03
 1.144976605550239e+03 -1.195807666200874e+02  2.918975276816622e+03
 1.144818902309231e+03 -1.205447464227641e+02  2.918975276816622e+03
 1.144640108222835e+03 -1.214717708506116e+02  2.918975276816622e+03
 1.143393848374267e+03 -1.234828457834291e+02  2.918975276816622e+03
 1.146340898411569e+03 -1.241766570696928e+02  2.918975276816622e+03
 1.146241055791995e+03 -1.243865602803063e+02  2.918975276816622e+03
 1.146382690884521e+03 -1.257728200986634e+02  2.918975276816622e+03
 1.145966617363735e+03 -1.267353270359394e+02  2.918975276816622e+03
 1.145963032012448e+03 -1.273528694098672e+02  2.918975276816622e+03
 1.145940271168947e+03 -1.287613964609892e+02  2.918975276816622e+03
 1.145882873757153e+03 -1.302353053781158e+02  2.918975276816622e+03
 1.145211861225713e+03 -1.346706393186793e+02  2.918975276816622e+03
 1.145055370288480e+03 -1.378228335474979e+02  2.918975276816622e+03
 1.145234539493805e+03 -1.392465761393906e+02  2.918975276816622e+03
 1.145325885458222e+03 -1.416661970295428e+02  2.918975276816622e+03
 1.144982777733549e+03 -1.414237667804924e+02  2.918975276816622e+03
 1.145233157510870e+03 -1.430317714585415e+02  2.918975276816622e+03
 1.145188035261257e+03 -1.446771553409841e+02  2.918975276816622e+03
 1.145406040970477e+03 -1.456249398162136e+02  2.918975276816622e+03
 1.145081992722635e+03 -1.458331517499450e+02  2.918975276816622e+03
 1.144852449537303e+03 -1.469350872684460e+02  2.918975276816622e+03
 1.145137163148154e+03 -1.487118386786268e+02  2.918975276816622e+03
 1.145275145019220e+03 -1.502150978446524e+02  2.918975276816622e+03
 1.144596584994067e+03 -1.548664845107016e+02  2.918975276816622e+03
 1.144898717317435e+03 -1.586941780235654e+02  2.918975276816622e+03
 1.144765831203586e+03 -1.605425599412811e+02  2.918975276816622e+03
 1.145219940703150e+03 -1.621686052071629e+02  2.918975276816622e+03
 1.145333623637830e+03 -1.634969294403039e+02  2.918975276816622e+03
 1.145741135400504e+03 -1.647772266787530e+02  2.918975276816622e+03
 1.145624495556315e+03 -1.658284647286758e+02  2.918975276816622e+03
 1.145750952365238e+03 -1.673027960727711e+02  2.918975276816622e+03
 1.145549490207406e+03 -1.686470340219501e+02  2.918975276816622e+03
 1.145592976858103e+03 -1.701909570039342e+02  2.918975276816622e+03
 1.145264111050906e+03 -1.748145010394973e+02  2.918975276816622e+03
 1.145318548427666e+03 -1.769213052652777e+02  2.918975276816622e+03
 1.144228978314937e+03 -1.772459056884985e+02  2.918975276816622e+03
 1.144887333288702e+03 -1.788017866644514e+02  2.918975276816622e+03
 1.145192831474271e+03 -1.804924382693859e+02  2.918975276816622e+03
 1.145305935197024e+03 -1.819506429315656e+02  2.918975276816622e+03
 1.145856740932168e+03 -1.827179739961525e+02  2.918975276816622e+03
 1.145806683704533e+03 -1.837907198903865e+02  2.918975276816622e+03
 1.145258883859401e+03 -1.859142908290638e+02  2.918975276816622e+03
 1.145435912459606e+03 -1.872812687489458e+02  2.918975276816622e+03
 1.145617217802661e+03 -1.886132552246960e+02  2.918975276816622e+03
 1.145387794061805e+03 -1.901367527490126e+02  2.918975276816622e+03
 1.145189725482528e+03 -1.947912530596385e+02  2.918975276816622e+03
 1.145175317833050e+03 -1.968384640776143e+02  2.918975276816622e+03
 1.144475568152176e+03 -1.968443081821324e+02  2.918975276816622e+03
 1.144638363810658e+03 -1.986046997239588e+02  2.918975276816622e+03
 1.145183093791901e+03 -2.003416163632573e+02  2.918975276816622e+03
 1.145280507954174e+03 -2.018644894063439e+02  2.918975276816622e+03
 1.145231613137005e+03 -2.030816748752152e+02  2.918975276816622e+03
 1.144750642239343e+03 -2.045913561897434e+02  2.918975276816622e+03
 1.145410351801403e+03 -2.061428338615834e+02  2.918975276816622e+03
 1.145489750826161e+03 -2.071397108556955e+02  2.918975276816622e+03
 1.145467793836081e+03 -2.085878804890455e+02  2.918975276816622e+03
 1.145552523541876e+03 -2.101411599374540e+02  2.918975276816622e+03
 1.145638602325901e+03 -2.147471070686371e+02  2.918975276816622e+03
 1.145625674749111e+03 -2.169879329201319e+02  2.918975276816622e+03
 1.145727927139639e+03 -2.185137238981779e+02  2.918975276816622e+03
 1.145477441593187e+03 -2.203445333391951e+02  2.918975276816622e+03
 1.145769210854578e+03 -2.222231621187130e+02  2.918975276816622e+03
 1.144987566500865e+03 -2.241934856817628e+02  2.918975276816622e+03
 1.145544942100322e+03 -2.256051108461819e+02  2.918975276816622e+03
 1.145596727832363e+03 -2.289255567421014e+02  2.918975276816622e+03
 1.145563079672173e+03 -2.301542132945754e+02  2.918975276816622e+03
 1.145295236577723e+03 -2.329922153913416e+02  2.918975276816622e+03
 1.145135925809381e+03 -2.342136754740824e+02  2.918975276816622e+03
 1.145215976777467e+03 -2.366790450300593e+02  2.918975276816622e+03
 1.144910845791290e+03 -2.386574716006697e+02  2.918975276816622e+03
 1.145113408869561e+03 -2.412183026749531e+02  2.918975276816622e+03
 1.144070976792289e+03 -2.447720317385781e+02  2.918975276816622e+03
 1.144776234742166e+03 -2.475901327532611e+02  2.918975276816622e+03
 1.144434299380946e+03 -2.489406149615393e+02  2.918975276816622e+03
 1.144770072836969e+03 -2.513084886800127e+02  2.918975276816622e+03
 1.144458512815505e+03 -2.516417766204543e+02  2.918975276816622e+03
 1.144770489366543e+03 -2.530760886056663e+02  2.918975276816622e+03
 1.144044542514187e+03 -2.554187409661068e+02  2.918975276816622e+03
 1.144420744676603e+03 -2.571892331329898e+02  2.918975276816622e+03
 1.144581204434983e+03 -2.581114482507916e+02  2.918975276816622e+03
 1.144568969670650e+03 -2.592052300872968e+02  2.918975276816622e+03
 1.144410728332258e+03 -2.610584304128304e+02  2.918975276816622e+03
 1.145043117986436e+03 -2.657359154997282e+02  2.918975276816622e+03
 1.145344178297850e+03 -2.690734976219712e+02  2.918975276816622e+03
 1.145127182473530e+03 -2.700291795603410e+02  2.918975276816622e+03
 1.145458097716115e+03 -2.727674232815730e+02  2.918975276816622e+03
 1.145649617933096e+03 -2.733840681520469e+02  2.918975276816622e+03
 1.145942198652184e+03 -2.757086068990791e+02  2.918975276816622e+03
 1.145687924281946e+03 -2.770081474656909e+02  2.918975276816622e+03
 1.146720192134260e+03 -2.771981374540450e+02  2.918975276816622e+03
 1.146058068941584e+03 -2.787184773824633e+02  2.918975276816622e+03
 1.146197188080396e+03 -2.832626374667302e+02  2.918975276816622e+03
 1.145975906168280e+03 -2.863352989030491e+02  2.918975276816622e+03
 1.146301066231546e+03 -2.885666034508820e+02  2.918975276816622e+03
 1.145086422844053e+03 -2.881809346846287e+02  2.918975276816622e+03
 1.146018605408489e+03 -2.909974590411583e+02  2.918975276816622e+03
 1.146301517033573e+03 -2.928293931734640e+02  2.918975276816622e+03
 1.146752856951004e+03 -2.946724387089671e+02  2.918975276816622e+03
 1.146746682111089e+03 -2.989209420292930e+02  2.918975276816622e+03
 1.146496087172238e+03 -2.994880901750297e+02  2.918975276816622e+03
 1.145662610172786e+03 -3.027131016031059e+02  2.918975276816622e+03
 1.145633130216483e+03 -3.036366168346067e+02  2.918975276816622e+03
 1.145265124090585e+03 -3.061173486792155e+02  2.918975276816622e+03
 1.145113203441606e+03 -3.060276052039017e+02  2.918975276816622e+03
 1.145115441270682e+03 -3.081530003552351e+02  2.918975276816622e+03
 1.144868515710784e+03 -3.100198976738321e+02  2.918975276816622e+03
 1.144460735787023e+03 -3.100908806659347e+02  2.918975276816622e+03
 1.144541752492790e+03 -3.112654353417531e+02  2.918975276816622e+03
 1.145123169788487e+03 -3.121908123422958e+02  2.918975276816622e+03
 1.145107340936708e+03 -3.133529676994188e+02  2.918975276816622e+03
 1.144986622099063e+03 -3.148440066115107e+02  2.918975276816622e+03
 1.144527418365712e+03 -3.172207579043105e+02  2.918975276816622e+03
 1.143860144957559e+03 -3.196726589556134e+02  2.918975276816622e+03
 1.143777693435394e+03 -3.197189909654955e+02  2.918975276816622e+03
 1.145130111070747e+03 -3.223445407897887e+02  2.918975276816622e+03
 1.144920690010894e+03 -3.232488648832955e+02  2.918975276816622e+03
 1.145199682631899e+03 -3.263796441190025e+02  2.918975276816622e+03
 1.144485908531867e+03 -3.270847131067367e+02  2.918975276816622e+03
 1.144927227799290e+03 -3.291979337254425e+02  2.918975276816622e+03
 1.144811972480828e+03 -3.317220819140798e+02  2.918975276816622e+03
 1.144811895829675e+03 -3.343462873380504e+02  2.918975276816622e+03
 1.144818154264903e+03 -3.379245403596623e+02  2.918975276816622e+03
 1.145095510114604e+03 -3.389260658477294e+02  2.918975276816622e+03
 1.144877411030845e+03 -3.405550257284372e+02  2.918975276816622e+03
 1.144871545297659e+03 -3.429836684490757e+02  2.918975276816622e+03
 1.144573060557407e+03 -3.449868366959086e+02  2.918975276816622e+03
 1.144716043317911e+03 -3.481208428172192e+02  2.918975276816622e+03
 1.145169617017468e+03 -3.507333768874939e+02  2.918975276816622e+03
 1.144843904048511e+03 -3.538285299398015e+02  2.918975276816622e+03
 1.144032020981439e+03 -3.544520948565906e+02  2.918975276816622e+03
 1.145194510101513e+03 -3.553826467655461e+02  2.918975276816622e+03
 1.145145544281676e+03 -3.566356930342638e+02  2.918975276816622e+03
 1.146018915537807e+03 -3.593466503101658e+02  2.918975276816622e+03
 1.146261664784822e+03 -3.623328196571412e+02  2.918975276816622e+03
 1.147588324765894e+03 -3.637643871579272e+02  2.918975276816622e+03
 1.147452440269385e+03 -3.647516697413906e+02  2.918975276816622e+03
 1.146622501801236e+03 -3.658054088448220e+02  2.918975276816622e+03
 1.145293706686429e+03 -3.670281214927023e+02  2.918975276816622e+03
 1.145511715427895e+03 -3.687072628074095e+02  2.918975276816622e+03
 1.145225717156761e+03 -3.714251034562299e+02  2.918975276816622e+03
 1.145321236526171e+03 -3.717416424642329e+02  2.918975276816622e+03
 1.145186170629608e+03 -3.752894508853166e+02  2.918975276816622e+03
 1.145250065582254e+03 -3.778622187128946e+02  2.918975276816622e+03
 1.145205060543359e+03 -3.828854578151492e+02  2.918975276816622e+03
 1.145204294595852e+03 -3.834847520646783e+02  2.918975276816622e+03
1.145270372803636e+03 3.848765472037749e+02 2.918975276816622e+03
1.145210227257372e+03 3.813622271361640e+02 2.918975276816622e+03
1.145477584381865e+03 3.790871121174963e+02 2.918975276816622e+03
1.145316109862625e+03 3.781877542875521e+02 2.918975276816622e+03
1.145773384856124e+03 3.763843366947970e+02 2.918975276816622e+03
1.145670466854369e+03 3.750524093855702e+02 2.918975276816622e+03
1.145940462639168e+03 3.748404484729808e+02 2.918975276816622e+03
1.145481091210690e+03 3.735665682526561e+02 2.918975276816622e+03
1.145419318997809e+03 3.725710707239741e+02 2.918975276816622e+03
1.145082729431133e+03 3.712297431297655e+02 2.918975276816622e+03
1.144546217381938e+03 3.683002331335427e+02 2.918975276816622e+03
1.144099346015571e+03 3.674419119771758e+02 2.918975276816622e+03
1.144534511708914e+03 3.670232266971464e+02 2.918975276816622e+03
1.144424628720846e+03 3.652633993034872e+02 2.918975276816622e+03
1.145094247603741e+03 3.625889613755447e+02 2.918975276816622e+03
1.144889086694399e+03 3.598565970846887e+02 2.918975276816622e+03
1.145084225443815e+03 3.582191753814550e+02 2.918975276816622e+03
1.145084106698325e+03 3.570736396942893e+02 2.918975276816622e+03
1.145292795516718e+03 3.554888680848794e+02 2.918975276816622e+03
1.145251647351635e+03 3.541785827227814e+02 2.918975276816622e+03
1.145235967400923e+03 3.526512322829493e+02 2.918975276816622e+03
1.145411859190014e+03 3.512386424163411e+02 2.918975276816622e+03
1.145246178189270e+03 3.483251984318315e+02 2.918975276816622e+03
1.145704281060669e+03 3.475302074084558e+02 2.918975276816622e+03
1.145450868476700e+03 3.449312220185074e+02 2.918975276816622e+03
1.146003440500914e+03 3.436925561260400e+02 2.918975276816622e+03
1.145624495008544e+03 3.416764241528383e+02 2.918975276816622e+03
1.146382254816210e+03 3.408507182811184e+02 2.918975276816622e+03
1.145818224907509e+03 3.390410428417461e+02 2.918975276816622e+03
1.147606355320764e+03 3.386839893996047e+02 2.918975276816622e+03
1.146227143862161e+03 3.365984448298993e+02 2.918975276816622e+03
1.149153153826325e+03 3.347923424738830e+02 2.918975276816622e+03
1.147198134606008e+03 3.339901674967990e+02 2.918975276816622e+03
1.147590803444292e+03 3.321593367334230e+02 2.918975276816622e+03
1.146551438580184e+03 3.315720084293957e+02 2.918975276816622e+03
1.145677288231574e+03 3.290826798877023e+02 2.918975276816622e+03
1.146632615197993e+03 3.287053330960702e+02 2.918975276816622e+03
1.146165665835641e+03 3.265365446772503e+02 2.918975276816622e+03
1.146505409787867e+03 3.256838165965020e+02 2.918975276816622e+03
1.145609081385828e+03 3.243481185232459e+02 2.918975276816622e+03
1.145968533592664e+03 3.228747519642837e+02 2.918975276816622e+03
1.145311709429793e+03 3.211898292629415e+02 2.918975276816622e+03
1.145736928964656e+03 3.191816146404851e+02 2.918975276816622e+03
1.145258266642931e+03 3.181910865909376e+02 2.918975276816622e+03
1.145751277805994e+03 3.157296697963585e+02 2.918975276816622e+03
1.145267814317121e+03 3.131702915563568e+02 2.918975276816622e+03
1.145638828266004e+03 3.115632280221750e+02 2.918975276816622e+03
1.145339262761883e+03 3.110753866738982e+02 2.918975276816622e+03
1.145501533174250e+03 3.095282589349304e+02 2.918975276816622e+03
1.145157997726689e+03 3.076950656043084e+02 2.918975276816622e+03
1.145577256984142e+03 3.064629628586844e+02 2.918975276816622e+03
1.145989372311516e+03 3.039613827737161e+02 2.918975276816622e+03
1.145594133829522e+03 3.042361873914912e+02 2.918975276816622e+03
1.145783825542126e+03 3.019462817596937e+02 2.918975276816622e+03
1.146140349023484e+03 3.012580386647609e+02 2.918975276816622e+03
1.145988008888233e+03 2.989953777286427e+02 2.918975276816622e+03
1.146094948450978e+03 2.977073902327271e+02 2.918975276816622e+03
1.145894140461465e+03 2.957385174206646e+02 2.918975276816622e+03
1.146334012773322e+03 2.942209027989577e+02 2.918975276816622e+03
1.146054641434084e+03 2.925685372798714e+02 2.918975276816622e+03
1.146716993807659e+03 2.916717658617760e+02 2.918975276816622e+03
1.146074681255963e+03 2.906058546642248e+02 2.918975276816622e+03
1.149020313914424e+03 2.888884289502989e+02 2.918975276816622e+03
1.145924447816406e+03 2.877996539486111e+02 2.918975276816622e+03
1.146253947622595e+03 2.867819680043779e+02 2.918975276816622e+03
1.145798892784996e+03 2.849148302925278e+02 2.918975276816622e+03
1.146319686824945e+03 2.827373180980378e+02 2.918975276816622e+03
1.145884314130096e+03 2.807590224874818e+02 2.918975276816622e+03
1.145861253871809e+03 2.770451853137621e+02 2.918975276816622e+03
1.145424356262269e+03 2.750397230829793e+02 2.918975276816622e+03
1.145295276700532e+03 2.711455795470167e+02 2.918975276816622e+03
1.145188422601249e+03 2.666789609651967e+02 2.918975276816622e+03
1.144831384504241e+03 2.652456846030686e+02 2.918975276816622e+03
1.144904497102510e+03 2.624513037731771e+02 2.918975276816622e+03
1.144110322308302e+03 2.595765782343070e+02 2.918975276816622e+03
1.144333305075003e+03 2.583536208577252e+02 2.918975276816622e+03
1.143938759349195e+03 2.559051653763913e+02 2.918975276816622e+03
1.145426678158108e+03 2.563881206310978e+02 2.918975276816622e+03
1.145169216979985e+03 2.554717693699261e+02 2.918975276816622e+03
1.145935296311004e+03 2.551626194545061e+02 2.918975276816622e+03
1.145052429390577e+03 2.534057940654810e+02 2.918975276816622e+03
1.144528132138995e+03 2.525787903086944e+02 2.918975276816622e+03
1.145013575513373e+03 2.500967562245523e+02 2.918975276816622e+03
1.144417184014824e+03 2.487505329715849e+02 2.918975276816622e+03
1.144766677915825e+03 2.474930218702253e+02 2.918975276816622e+03
1.144297653711592e+03 2.457463918055646e+02 2.918975276816622e+03
1.145480882696872e+03 2.459071793009938e+02 2.918975276816622e+03
1.145155007350647e+03 2.449272749419511e+02 2.918975276816622e+03
1.145535672112292e+03 2.440887106560073e+02 2.918975276816622e+03
1.145383928969022e+03 2.425964142223067e+02 2.918975276816622e+03
1.145651852014675e+03 2.418111052886554e+02 2.918975276816622e+03
1.145497156865132e+03 2.402180270643555e+02 2.918975276816622e+03
1.144981007769808e+03 2.355836623587232e+02 2.918975276816622e+03
1.145978529987206e+03 2.334771881713683e+02 2.918975276816622e+03
1.145382907460796e+03 2.312591177488967e+02 2.918975276816622e+03
1.145475381075780e+03 2.287640419206104e+02 2.918975276816622e+03
1.144959540673024e+03 2.286921365355424e+02 2.918975276816622e+03
1.145540557505727e+03 2.270308103387522e+02 2.918975276816622e+03
1.145168064017731e+03 2.259862295042424e+02 2.918975276816622e+03
1.145489206594140e+03 2.248084557615621e+02 2.918975276816622e+03
1.145257575968408e+03 2.244229024113077e+02 2.918975276816622e+03
1.145085856072800e+03 2.232686957839888e+02 2.918975276816622e+03
1.145274117086913e+03 2.217113904673663e+02 2.918975276816622e+03
1.145340659259655e+03 2.202175363069960e+02 2.918975276816622e+03
1.145178378261726e+03 2.158169393501646e+02 2.918975276816622e+03
1.145346684696308e+03 2.127358871373140e+02 2.918975276816622e+03
1.145299569633830e+03 2.112087103426098e+02 2.918975276816622e+03
1.145476352891387e+03 2.087619291856867e+02 2.918975276816622e+03
1.145465305351115e+03 2.077663388924128e+02 2.918975276816622e+03
1.145554180238916e+03 2.063860467942591e+02 2.918975276816622e+03
1.145710163527892e+03 2.061819981957960e+02 2.918975276816622e+03
1.145797489285980e+03 2.046997452512898e+02 2.918975276816622e+03
1.145785885654881e+03 2.040693609850309e+02 2.918975276816622e+03
1.145752817872222e+03 2.026885427122875e+02 2.918975276816622e+03
1.145971046577835e+03 2.014493527264536e+02 2.918975276816622e+03
1.145970106500449e+03 2.003046007427530e+02 2.918975276816622e+03
1.146868983179984e+03 1.961321325588137e+02 2.918975276816622e+03
1.148014771840911e+03 1.935597237389570e+02 2.918975276816622e+03
1.145570225314879e+03 1.941600264087663e+02 2.918975276816622e+03
1.145853409381547e+03 1.932462906823471e+02 2.918975276816622e+03
1.145277181660793e+03 1.912205478536114e+02 2.918975276816622e+03
1.145450552531242e+03 1.887520329952438e+02 2.918975276816622e+03
1.145397806270545e+03 1.880030742993716e+02 2.918975276816622e+03
1.145709332880765e+03 1.867032804474106e+02 2.918975276816622e+03
1.145287664792451e+03 1.860737949155203e+02 2.918975276816622e+03
1.145525998622591e+03 1.849125279781325e+02 2.918975276816622e+03
1.145662320745314e+03 1.845018058721049e+02 2.918975276816622e+03
1.145557954332018e+03 1.833717680655055e+02 2.918975276816622e+03
1.145025576497115e+03 1.818524908418217e+02 2.918975276816622e+03
1.145350800725635e+03 1.802781417118396e+02 2.918975276816622e+03
1.145505033699995e+03 1.758009453305336e+02 2.918975276816622e+03
1.145357033946887e+03 1.727859364219936e+02 2.918975276816622e+03
1.145578962784285e+03 1.713546144467251e+02 2.918975276816622e+03
1.145634058027441e+03 1.686407429582302e+02 2.918975276816622e+03
1.145469902829484e+03 1.679710439830521e+02 2.918975276816622e+03
1.145558848479915e+03 1.668337399796582e+02 2.918975276816622e+03
1.145529019259811e+03 1.658924663314955e+02 2.918975276816622e+03
1.145673617887795e+03 1.647985633877076e+02 2.918975276816622e+03
1.145797137831321e+03 1.643070480663845e+02 2.918975276816622e+03
1.146008515154495e+03 1.629402397571778e+02 2.918975276816622e+03
1.146193796729028e+03 1.617804943149836e+02 2.918975276816622e+03
1.146155001681396e+03 1.604087203625236e+02 2.918975276816622e+03
1.147195948227849e+03 1.562393259412064e+02 2.918975276816622e+03
1.148671035968933e+03 1.542949410789607e+02 2.918975276816622e+03
1.145963760410748e+03 1.546107059326399e+02 2.918975276816622e+03
1.145983213925406e+03 1.536131970555386e+02 2.918975276816622e+03
1.145407751558448e+03 1.513262366485033e+02 2.918975276816622e+03
1.145654901154183e+03 1.489031887208169e+02 2.918975276816622e+03
1.145063959422345e+03 1.487771945172942e+02 2.918975276816622e+03
1.145660400695503e+03 1.470687328400793e+02 2.918975276816622e+03
1.145262339713495e+03 1.460721908828291e+02 2.918975276816622e+03
1.145507825903381e+03 1.449522532863949e+02 2.918975276816622e+03
1.145589066640704e+03 1.446192149561523e+02 2.918975276816622e+03
1.145702005164030e+03 1.435614507597166e+02 2.918975276816622e+03
1.145314985963575e+03 1.418105467956661e+02 2.918975276816622e+03
1.145413814541774e+03 1.403634399297339e+02 2.918975276816622e+03
1.145290291801357e+03 1.359908706025595e+02 2.918975276816622e+03
1.145428151364117e+03 1.328409921212574e+02 2.918975276816622e+03
1.145332514124504e+03 1.313270562846694e+02 2.918975276816622e+03
1.145480306691626e+03 1.288593743063448e+02 2.918975276816622e+03
1.145386896101154e+03 1.278250229353003e+02 2.918975276816622e+03
1.145533486582485e+03 1.264660747279243e+02 2.918975276816622e+03
1.145373926135844e+03 1.262091793876475e+02 2.918975276816622e+03
1.145519440546561e+03 1.250067014642760e+02 2.918975276816622e+03
1.145616341996452e+03 1.245885114356750e+02 2.918975276816622e+03
1.145522228368717e+03 1.234577780335601e+02 2.918975276816622e+03
1.144831097739107e+03 1.218745045039238e+02 2.918975276816622e+03
1.145326841899218e+03 1.203869428807377e+02 2.918975276816622e+03
1.145252201545376e+03 1.160166478595061e+02 2.918975276816622e+03
1.145341200795623e+03 1.125937706847782e+02 2.918975276816622e+03
1.145253331659816e+03 1.113323317163536e+02 2.918975276816622e+03
1.145370705968456e+03 1.089587866852273e+02 2.918975276816622e+03
1.145247000464072e+03 1.081014367857805e+02 2.918975276816622e+03
1.145335079243662e+03 1.066495615872164e+02 2.918975276816622e+03
1.145122313689569e+03 1.064076521266897e+02 2.918975276816622e+03
1.145405942925630e+03 1.049099843302467e+02 2.918975276816622e+03
1.145386211238520e+03 1.043920744502581e+02 2.918975276816622e+03
1.145532911372063e+03 1.030765562324662e+02 2.918975276816622e+03
1.145064981403112e+03 1.016608716102017e+02 2.918975276816622e+03
1.145136345637227e+03 1.005293202916778e+02 2.918975276816622e+03
1.145212606651869e+03 9.563935262859630e+01 2.918975276816622e+03
1.145301141161719e+03 9.356176695371171e+01 2.918975276816622e+03
1.145380739399774e+03 9.200467529875100e+01 2.918975276816622e+03
1.144403382492901e+03 9.187626589563288e+01 2.918975276816622e+03
1.144803315683990e+03 9.021564748899790e+01 2.918975276816622e+03
1.145250008822044e+03 8.934338695558185e+01 2.918975276816622e+03
1.144919509169900e+03 8.399399840616684e+01 2.918975276816622e+03
1.144808745800183e+03 8.027265862839648e+01 2.918975276816622e+03
1.144806346279854e+03 7.928750837722137e+01 2.918975276816622e+03
1.144747126966219e+03 7.750819263840907e+01 2.918975276816622e+03
1.144444797262830e+03 7.575489592781408e+01 2.918975276816622e+03
1.144463555736019e+03 7.404303899262662e+01 2.918975276816622e+03
1.144672657909075e+03 7.314117421487099e+01 2.918975276816622e+03
1.144125879942201e+03 7.148333994938342e+01 2.918975276816622e+03
1.143959503045586e+03 6.949237916432857e+01 2.918975276816622e+03
1.143967206732567e+03 6.915481167667566e+01 2.918975276816622e+03
1.145559392728735e+03 6.789316626137008e+01 2.918975276816622e+03
1.144398567678282e+03 6.656540488638923e+01 2.918975276816622e+03
1.145632254415657e+03 6.530782935531109e+01 2.918975276816622e+03
1.145291866944963e+03 6.442197197697959e+01 2.918975276816622e+03
1.147486719820028e+03 6.170588526514589e+01 2.918975276816622e+03
1.146043754149107e+03 6.168295000864691e+01 2.918975276816622e+03
1.145500632495404e+03 6.136322641887009e+01 2.918975276816622e+03
1.144048411686790e+03 6.178340104161473e+01 2.918975276816622e+03
1.144197211224212e+03 5.991445395755188e+01 2.918975276816622e+03
1.143798135662375e+03 5.846548321871909e+01 2.918975276816622e+03
1.143717498685815e+03 5.745475587588437e+01 2.918975276816622e+03
1.143259703945878e+03 5.688965710858246e+01 2.918975276816622e+03
1.145312773986420e+03 5.625715433538995e+01 2.918975276816622e+03
1.144435848207324e+03 5.433239297571199e+01 2.918975276816622e+03
1.144714001287046e+03 5.414586949266258e+01 2.918975276816622e+03
1.144668195808695e+03 5.215383828955432e+01 2.918975276816622e+03
1.145075646361897e+03 5.034192161117307e+01 2.918975276816622e+03
1.145006082166150e+03 4.929237106731654e+01 2.918975276816622e+03
1.145377840532249e+03 4.787723475091680e+01 2.918975276816622e+03
1.145233057202838e+03 4.702352787441380e+01 2.918975276816622e+03
1.145628395066222e+03 4.419776869431815e+01 2.918975276816622e+03
1.145564619375469e+03 4.243210405352404e+01 2.918975276816622e+03
1.145638485756405e+03 4.169949293641082e+01 2.918975276816622e+03
1.145437261414464e+03 4.020140561975355e+01 2.918975276816622e+03
1.145717050482227e+03 3.806644748795019e+01 2.918975276816622e+03
1.145980739719793e+03 3.596265923112002e+01 2.918975276816622e+03
1.146330788574118e+03 3.384268625774631e+01 2.918975276816622e+03
1.145928486492369e+03 2.922708483443677e+01 2.918975276816622e+03
1.146404662869478e+03 2.738681323052527e+01 2.918975276816622e+03
1.146254618046182e+03 2.375729776036168e+01 2.918975276816622e+03
1.146742187727738e+03 2.147947029627812e+01 2.918975276816622e+03
1.146492788190321e+03 2.039465404106533e+01 2.918975276816622e+03
1.147480792897843e+03 1.816242875323823e+01 2.918975276816622e+03
1.144557511791565e+03 1.798240114806069e+01 2.918975276816622e+03
1.145529009009343e+03 1.557314693539547e+01 2.918975276816622e+03
1.145630881774602e+03 1.365694898681229e+01 2.918975276816622e+03
1.146401003105077e+03 1.240737901829950e+01 2.918975276816622e+03
1.145357173886400e+03 1.109135915310370e+01 2.918975276816622e+03
1.146399361980064e+03 9.994557921915908e+00 2.918975276816622e+03
1.145765744427440e+03 7.385373464902548e+00 2.918975276816622e+03
1.146148231240422e+03 4.362675329008010e+00 2.918975276816622e+03
1.145613051019568e+03 2.805918167540954e+00 2.918975276816622e+03
-1.158257443542758e+03  1.385446316336649e+00 -2.918975276816622e+03
-1.157772092403481e+03 -1.021476990080298e+00 -2.918975276816622e+03
-1.158322956682605e+03 -2.725495192920775e+00 -2.918975276816622e+03
-1.157509606906506e+03 -3.212257248409329e+00 -2.918975276816622e+03
-1.158364374178510e+03 -5.214869612132037e+00 -2.918975276816622e+03
-1.158028090274942e+03 -6.255410546233626e+00 -2.918975276816622e+03
-1.159340705464508e+03 -9.096393706193814e+00 -2.918975276816622e+03
-1.158441007389932e+03 -9.267923099593961e+00 -2.918975276816622e+03
-1.158393295415070e+03 -1.087921805861050e+01 -2.918975276816622e+03
-1.157747159943420e+03 -1.137627386796675e+01 -2.918975276816622e+03
-1.158050492173785e+03 -1.371884053232428e+01 -2.918975276816622e+03
-1.157592391698516e+03 -1.499590893075847e+01 -2.918975276816622e+03
-1.157775066116341e+03 -1.707792308789412e+01 -2.918975276816622e+03
-1.156740475504659e+03 -2.040224209480816e+01 -2.918975276816622e+03
-1.156871307491199e+03 -2.286770537155367e+01 -2.918975276816622e+03
-1.156516277776223e+03 -2.302890786106290e+01 -2.918975276816622e+03
-1.158379665683209e+03 -2.549289204776168e+01 -2.918975276816622e+03
-1.158321241541572e+03 -2.579401895496598e+01 -2.918975276816622e+03
-1.158969579549251e+03 -2.832359974786824e+01 -2.918975276816622e+03
-1.156545221804406e+03 -2.803230093717765e+01 -2.918975276816622e+03
-1.157408038285512e+03 -3.060853783577781e+01 -2.918975276816622e+03
-1.157145162331478e+03 -3.262499084288719e+01 -2.918975276816622e+03
-1.157462568158134e+03 -3.457724337050507e+01 -2.918975276816622e+03
-1.156982604891051e+03 -3.597493612410252e+01 -2.918975276816622e+03
-1.157240429808968e+03 -3.735477702988565e+01 -2.918975276816622e+03
-1.157073574691996e+03 -4.062416450599810e+01 -2.918975276816622e+03
-1.157162039886161e+03 -4.136572244349999e+01 -2.918975276816622e+03
-1.156950035911600e+03 -4.359004234011213e+01 -2.918975276816622e+03
-1.156994289030509e+03 -4.531124642428295e+01 -2.918975276816622e+03
-1.156984980267697e+03 -4.582578341301372e+01 -2.918975276816622e+03
-1.157023479734031e+03 -4.743693795710283e+01 -2.918975276816622e+03
-1.156835371592557e+03 -4.971213101777039e+01 -2.918975276816622e+03
-1.156964712652994e+03 -5.060682051841930e+01 -2.918975276816622e+03
-1.156911651526202e+03 -5.219714153024391e+01 -2.918975276816622e+03
-1.156932506854495e+03 -5.517487433557871e+01 -2.918975276816622e+03
-1.156696416776801e+03 -5.628159557868607e+01 -2.918975276816622e+03
-1.156850297565278e+03 -5.867625547319536e+01 -2.918975276816622e+03
-1.156899637103216e+03 -6.045447784696869e+01 -2.918975276816622e+03
-1.156783916561626e+03 -6.139602841996410e+01 -2.918975276816622e+03
-1.156801130847598e+03 -6.353320669742930e+01 -2.918975276816622e+03
-1.156867691393775e+03 -6.472720361046822e+01 -2.918975276816622e+03
-1.157096895692047e+03 -6.591572641589255e+01 -2.918975276816622e+03
-1.156908581514209e+03 -6.746787904270248e+01 -2.918975276816622e+03
-1.156768046559827e+03 -6.999481410626630e+01 -2.918975276816622e+03
-1.156083168996733e+03 -7.099140728539048e+01 -2.918975276816622e+03
-1.156707441399874e+03 -7.227037627168419e+01 -2.918975276816622e+03
-1.156654920247130e+03 -7.328265886801634e+01 -2.918975276816622e+03
-1.156712915109591e+03 -7.528976870064682e+01 -2.918975276816622e+03
-1.156810014891101e+03 -7.619015585943167e+01 -2.918975276816622e+03
-1.156812513282042e+03 -7.675421127332238e+01 -2.918975276816622e+03
-1.156552314438969e+03 -7.866614296883023e+01 -2.918975276816622e+03
-1.156721120963315e+03 -8.047658694063898e+01 -2.918975276816622e+03
-1.156874078192401e+03 -8.129276443749399e+01 -2.918975276816622e+03
-1.157032770101361e+03 -8.347751423293407e+01 -2.918975276816622e+03
-1.156866550126935e+03 -8.486585611936054e+01 -2.918975276816622e+03
-1.156675301974376e+03 -8.593436486929369e+01 -2.918975276816622e+03
-1.156888496587689e+03 -8.737636652786438e+01 -2.918975276816622e+03
-1.156959055118827e+03 -8.971572078420591e+01 -2.918975276816622e+03
-1.156967647910667e+03 -9.052588458364239e+01 -2.918975276816622e+03
-1.156812891618036e+03 -9.202800535804110e+01 -2.918975276816622e+03
-1.156716396123114e+03 -9.517796289839565e+01 -2.918975276816622e+03
-1.156649987658304e+03 -9.636141997976898e+01 -2.918975276816622e+03
-1.156898886767400e+03 -9.874573580997931e+01 -2.918975276816622e+03
-1.156452625235339e+03 -1.005050081167019e+02 -2.918975276816622e+03
-1.156599901278926e+03 -1.011495888080571e+02 -2.918975276816622e+03
-1.156221517426132e+03 -1.035454370201674e+02 -2.918975276816622e+03
-1.156419196033581e+03 -1.050467024504065e+02 -2.918975276816622e+03
-1.155970706892027e+03 -1.061109291720438e+02 -2.918975276816622e+03
-1.156427881139010e+03 -1.071374264159575e+02 -2.918975276816622e+03
-1.155967947665384e+03 -1.096736339200896e+02 -2.918975276816622e+03
-1.156150671499666e+03 -1.108573393759241e+02 -2.918975276816622e+03
-1.155723898912484e+03 -1.129179415122019e+02 -2.918975276816622e+03
-1.156154966873746e+03 -1.134822285106098e+02 -2.918975276816622e+03
-1.156482611997502e+03 -1.182125905818119e+02 -2.918975276816622e+03
-1.156341488814352e+03 -1.202636759530303e+02 -2.918975276816622e+03
-1.156654546354921e+03 -1.211410763468825e+02 -2.918975276816622e+03
-1.156446407026511e+03 -1.234191165183019e+02 -2.918975276816622e+03
-1.156491568737401e+03 -1.246747118800587e+02 -2.918975276816622e+03
-1.156799718720334e+03 -1.259230123487339e+02 -2.918975276816622e+03
-1.156752497909849e+03 -1.273292072183840e+02 -2.918975276816622e+03
-1.156744933908954e+03 -1.296875408052361e+02 -2.918975276816622e+03
-1.157327337706614e+03 -1.314291418786259e+02 -2.918975276816622e+03
-1.157029540207412e+03 -1.325753812329048e+02 -2.918975276816622e+03
-1.156556778485869e+03 -1.332549383505331e+02 -2.918975276816622e+03
-1.156605881268302e+03 -1.350014882686489e+02 -2.918975276816622e+03
-1.156848231233412e+03 -1.361558423338533e+02 -2.918975276816622e+03
-1.156827381555537e+03 -1.385536844505362e+02 -2.918975276816622e+03
-1.156880407424718e+03 -1.403446319647105e+02 -2.918975276816622e+03
-1.156768068209217e+03 -1.412807063431519e+02 -2.918975276816622e+03
-1.156890807361639e+03 -1.434283251371840e+02 -2.918975276816622e+03
-1.156880693002782e+03 -1.446359555492322e+02 -2.918975276816622e+03
-1.156841696679445e+03 -1.456489170916367e+02 -2.918975276816622e+03
-1.156782758527746e+03 -1.473229510622091e+02 -2.918975276816622e+03
-1.156982815080187e+03 -1.496531274632997e+02 -2.918975276816622e+03
-1.156128670694610e+03 -1.508809253862867e+02 -2.918975276816622e+03
-1.156946681925051e+03 -1.522299913859239e+02 -2.918975276816622e+03
-1.156558872422200e+03 -1.532305996696080e+02 -2.918975276816622e+03
-1.156827833833216e+03 -1.550431828250107e+02 -2.918975276816622e+03
-1.156873281417269e+03 -1.561386635975375e+02 -2.918975276816622e+03
-1.156864892276120e+03 -1.586077830725522e+02 -2.918975276816622e+03
-1.156801289647535e+03 -1.604474208924504e+02 -2.918975276816622e+03
-1.157029208228133e+03 -1.610745899210767e+02 -2.918975276816622e+03
-1.156826565978031e+03 -1.633407613047592e+02 -2.918975276816622e+03
-1.156831148076533e+03 -1.645555142611597e+02 -2.918975276816622e+03
-1.156793172543388e+03 -1.658840397556572e+02 -2.918975276816622e+03
-1.156894363202823e+03 -1.673072154161565e+02 -2.918975276816622e+03
-1.157018111743846e+03 -1.696479144002052e+02 -2.918975276816622e+03
-1.156721234469857e+03 -1.712536702995160e+02 -2.918975276816622e+03
-1.157026133627199e+03 -1.724173279118966e+02 -2.918975276816622e+03
-1.156537401323135e+03 -1.732558144475913e+02 -2.918975276816622e+03
-1.157044973460110e+03 -1.749841497392424e+02 -2.918975276816622e+03
-1.156557998524332e+03 -1.760930967376609e+02 -2.918975276816622e+03
-1.157315932735117e+03 -1.769929250557081e+02 -2.918975276816622e+03
-1.156756938099204e+03 -1.787135427999498e+02 -2.918975276816622e+03
-1.157368121174440e+03 -1.810020917965371e+02 -2.918975276816622e+03
-1.156805204459741e+03 -1.811768499685274e+02 -2.918975276816622e+03
-1.157036755811910e+03 -1.833787213265943e+02 -2.918975276816622e+03
-1.156900910148960e+03 -1.848150962576979e+02 -2.918975276816622e+03
-1.156856742865503e+03 -1.857090922517116e+02 -2.918975276816622e+03
-1.157019656939982e+03 -1.872198790194271e+02 -2.918975276816622e+03
-1.156528420914102e+03 -1.896913692614499e+02 -2.918975276816622e+03
-1.156447142849696e+03 -1.912189212119495e+02 -2.918975276816622e+03
-1.156538772763966e+03 -1.921790284761454e+02 -2.918975276816622e+03
-1.156476080137139e+03 -1.932738462180978e+02 -2.918975276816622e+03
-1.156833380740082e+03 -1.949884055861489e+02 -2.918975276816622e+03
-1.156454358674378e+03 -1.960176126500868e+02 -2.918975276816622e+03
-1.157275316986338e+03 -1.968586629459271e+02 -2.918975276816622e+03
-1.156799358922404e+03 -1.987215320132699e+02 -2.918975276816622e+03
-1.157672974854689e+03 -2.006068272554584e+02 -2.918975276816622e+03
-1.157586705346233e+03 -2.010675380352321e+02 -2.918975276816622e+03
-1.157042517226194e+03 -2.032421698005618e+02 -2.918975276816622e+03
-1.156970261385098e+03 -2.046617953406987e+02 -2.918975276816622e+03
-1.156965948080231e+03 -2.056320007687357e+02 -2.918975276816622e+03
-1.157089282149593e+03 -2.071927952544015e+02 -2.918975276816622e+03
-1.157305372256624e+03 -2.095606616637693e+02 -2.918975276816622e+03
-1.157295203376254e+03 -2.106536647200323e+02 -2.918975276816622e+03
-1.157189285183505e+03 -2.119784716170254e+02 -2.918975276816622e+03
-1.157449010842409e+03 -2.132079024812190e+02 -2.918975276816622e+03
-1.156770968444149e+03 -2.133410044385374e+02 -2.918975276816622e+03
-1.157152787361211e+03 -2.151761270455329e+02 -2.918975276816622e+03
-1.157835241109422e+03 -2.158219344731427e+02 -2.918975276816622e+03
-1.156711155984365e+03 -2.184595668120793e+02 -2.918975276816622e+03
-1.156401002780657e+03 -2.203813373502174e+02 -2.918975276816622e+03
-1.156368294885838e+03 -2.210928288580284e+02 -2.918975276816622e+03
-1.156778478167240e+03 -2.232399111146497e+02 -2.918975276816622e+03
-1.156613409683086e+03 -2.246858825744407e+02 -2.918975276816622e+03
-1.156678812813197e+03 -2.256737570338734e+02 -2.918975276816622e+03
-1.156746820237377e+03 -2.271814515546887e+02 -2.918975276816622e+03
-1.156648578619436e+03 -2.295659335976601e+02 -2.918975276816622e+03
-1.156422902471209e+03 -2.307770244513396e+02 -2.918975276816622e+03
-1.156887264130995e+03 -2.317831548653769e+02 -2.918975276816622e+03
-1.156531833159921e+03 -2.347285447599814e+02 -2.918975276816622e+03
-1.155926706102415e+03 -2.351737912158849e+02 -2.918975276816622e+03
-1.156532610636081e+03 -2.386112150209518e+02 -2.918975276816622e+03
-1.157013715338271e+03 -2.402441147965012e+02 -2.918975276816622e+03
-1.156957739246065e+03 -2.408722446291185e+02 -2.918975276816622e+03
-1.156905243558231e+03 -2.431385805351103e+02 -2.918975276816622e+03
-1.157978003652747e+03 -2.453496780478220e+02 -2.918975276816622e+03
-1.157351982455106e+03 -2.455146172354149e+02 -2.918975276816622e+03
-1.157023878851796e+03 -2.468955093300527e+02 -2.918975276816622e+03
-1.156805249269911e+03 -2.493301655898564e+02 -2.918975276816622e+03
-1.156719897117913e+03 -2.502697652378446e+02 -2.918975276816622e+03
-1.156785125892022e+03 -2.517365633031953e+02 -2.918975276816622e+03
-1.156866597254288e+03 -2.544568645834865e+02 -2.918975276816622e+03
-1.156557089439089e+03 -2.563882129795579e+02 -2.918975276816622e+03
-1.156454126264971e+03 -2.602193156454504e+02 -2.918975276816622e+03
-1.156662764725345e+03 -2.609819985364152e+02 -2.918975276816622e+03
-1.156678766139703e+03 -2.628137494658783e+02 -2.918975276816622e+03
-1.156512271490041e+03 -2.642640324785262e+02 -2.918975276816622e+03
-1.156651479836831e+03 -2.660194057632776e+02 -2.918975276816622e+03
-1.156830182554100e+03 -2.669183842203785e+02 -2.918975276816622e+03
-1.156987171454304e+03 -2.673940042375480e+02 -2.918975276816622e+03
-1.153670742420535e+03 -2.685119072045608e+02 -2.918975276816622e+03
-1.155735072410579e+03 -2.699335612774674e+02 -2.918975276816622e+03
-1.155148823723985e+03 -2.713308435144909e+02 -2.918975276816622e+03
-1.156649977683301e+03 -2.719443064322363e+02 -2.918975276816622e+03
-1.156072912998869e+03 -2.737462333267159e+02 -2.918975276816622e+03
-1.156800873064495e+03 -2.754124014696732e+02 -2.918975276816622e+03
-1.156199655238976e+03 -2.772879697282781e+02 -2.918975276816622e+03
-1.156753900458120e+03 -2.784848252320389e+02 -2.918975276816622e+03
-1.156216597656693e+03 -2.803298788421770e+02 -2.918975276816622e+03
-1.156832132104584e+03 -2.823651425677284e+02 -2.918975276816622e+03
-1.156275957962852e+03 -2.844348692746343e+02 -2.918975276816622e+03
-1.156604708543894e+03 -2.846658889781366e+02 -2.918975276816622e+03
-1.156351853994188e+03 -2.863597962510557e+02 -2.918975276816622e+03
-1.156929338177896e+03 -2.885932576148794e+02 -2.918975276816622e+03
-1.156647929691311e+03 -2.895358591991954e+02 -2.918975276816622e+03
-1.157251781631085e+03 -2.935923270949369e+02 -2.918975276816622e+03
-1.156774814661263e+03 -2.950985669334531e+02 -2.918975276816622e+03
-1.157109781366343e+03 -2.989986172369142e+02 -2.918975276816622e+03
-1.157140411350679e+03 -2.998341473572219e+02 -2.918975276816622e+03
-1.157262175168252e+03 -3.014495554046957e+02 -2.918975276816622e+03
-1.157078594903965e+03 -3.018685816149532e+02 -2.918975276816622e+03
-1.156959618526884e+03 -3.037785975540244e+02 -2.918975276816622e+03
-1.157159674307642e+03 -3.051851650213517e+02 -2.918975276816622e+03
-1.157370151310065e+03 -3.064127878638361e+02 -2.918975276816622e+03
-1.158304405810047e+03 -3.086092832176669e+02 -2.918975276816622e+03
-1.156318517262860e+03 -3.088618285362572e+02 -2.918975276816622e+03
-1.157023825097609e+03 -3.107295091208076e+02 -2.918975276816622e+03
-1.156286632755495e+03 -3.133120651598869e+02 -2.918975276816622e+03
-1.158973618805452e+03 -3.130151486963915e+02 -2.918975276816622e+03
-1.158026882276474e+03 -3.152752921188722e+02 -2.918975276816622e+03
-1.158122464750977e+03 -3.172884435188199e+02 -2.918975276816622e+03
-1.157683005999308e+03 -3.188995322254765e+02 -2.918975276816622e+03
-1.157937449220393e+03 -3.201606541060971e+02 -2.918975276816622e+03
-1.157547046120146e+03 -3.222709566267597e+02 -2.918975276816622e+03
-1.157640221313146e+03 -3.239063520167946e+02 -2.918975276816622e+03
-1.157611032370140e+03 -3.248211834277696e+02 -2.918975276816622e+03
-1.157600618391422e+03 -3.268390001070531e+02 -2.918975276816622e+03
-1.157558762282024e+03 -3.274984082644660e+02 -2.918975276816622e+03
-1.157327608882934e+03 -3.288875113291078e+02 -2.918975276816622e+03
-1.157485370144924e+03 -3.296998204020095e+02 -2.918975276816622e+03
-1.156993033387851e+03 -3.311218403427521e+02 -2.918975276816622e+03
-1.157122026570709e+03 -3.326896839582211e+02 -2.918975276816622e+03
-1.156701507494957e+03 -3.326811899032425e+02 -2.918975276816622e+03
-1.157125064581086e+03 -3.347579023911082e+02 -2.918975276816622e+03
-1.156374521922070e+03 -3.357283987872761e+02 -2.918975276816622e+03
-1.156776476278436e+03 -3.366168329037317e+02 -2.918975276816622e+03
-1.156506414382075e+03 -3.385392980557408e+02 -2.918975276816622e+03
-1.156916541426147e+03 -3.414042795766511e+02 -2.918975276816622e+03
-1.156538757931364e+03 -3.428979744617015e+02 -2.918975276816622e+03
-1.156717828905793e+03 -3.441353185732373e+02 -2.918975276816622e+03
-1.156445845765999e+03 -3.479407275451636e+02 -2.918975276816622e+03
-1.156654177337052e+03 -3.484314408096070e+02 -2.918975276816622e+03
-1.156300981755389e+03 -3.508446507266926e+02 -2.918975276816622e+03
-1.156479432484035e+03 -3.509503896499953e+02 -2.918975276816622e+03
-1.156492428351268e+03 -3.532719013202079e+02 -2.918975276816622e+03
-1.156760142099255e+03 -3.575621309793499e+02 -2.918975276816622e+03
-1.156559011009257e+03 -3.587063029503965e+02 -2.918975276816622e+03
-1.156627608049686e+03 -3.622494166110462e+02 -2.918975276816622e+03
-1.156504944039572e+03 -3.627494919278021e+02 -2.918975276816622e+03
-1.156932916454352e+03 -3.647750236180399e+02 -2.918975276816622e+03
-1.156710824688675e+03 -3.672346509327347e+02 -2.918975276816622e+03
-1.156910389803689e+03 -3.710953318836724e+02 -2.918975276816622e+03
-1.156963240763870e+03 -3.725719382548046e+02 -2.918975276816622e+03
-1.156899442069700e+03 -3.741838452021798e+02 -2.918975276816622e+03
-1.157002792621932e+03 -3.768429407480017e+02 -2.918975276816622e+03
-1.156903141764385e+03 -3.776536291182026e+02 -2.918975276816622e+03
-1.157017166977336e+03 -3.798961283073151e+02 -2.918975276816622e+03
-1.156913470579255e+03 -3.803337207758022e+02 -2.918975276816622e+03
-1.157038897134679e+03 -3.825134795604233e+02 -2.918975276816622e+03
-1.156793218859068e+03 -3.861379557225999e+02 -2.918975276816622e+03
-1.156850732500255e+03  3.832783758739529e+02 -2.918975276816622e+03
-1.156776675423108e+03  3.822524177631322e+02 -2.918975276816622e+03
-1.156837163442066e+03  3.786452698482188e+02 -2.918975276816622e+03
-1.156760166935048e+03  3.775305961962484e+02 -2.918975276816622e+03
-1.156839260730774e+03  3.765389849422239e+02 -2.918975276816622e+03
-1.156789829581391e+03  3.736106119942270e+02 -2.918975276816622e+03
-1.156856972973175e+03  3.694250396271512e+02 -2.918975276816622e+03
-1.157338138545216e+03  3.643298675129479e+02 -2.918975276816622e+03
-1.158284101984371e+03  3.603151921306389e+02 -2.918975276816622e+03
-1.157411002037724e+03  3.602716051442562e+02 -2.918975276816622e+03
-1.157174899447554e+03  3.584165099833252e+02 -2.918975276816622e+03
-1.157372242694625e+03  3.565950710090952e+02 -2.918975276816622e+03
-1.156766951199071e+03  3.556359606882016e+02 -2.918975276816622e+03
-1.157483169359826e+03  3.534980621953781e+02 -2.918975276816622e+03
-1.156693895777834e+03  3.505619022298407e+02 -2.918975276816622e+03
-1.157457590035992e+03  3.504251737595229e+02 -2.918975276816622e+03
-1.156616083665804e+03  3.468704057864777e+02 -2.918975276816622e+03
-1.157149164370426e+03  3.431732235404919e+02 -2.918975276816622e+03
-1.157049235468670e+03  3.380702931288363e+02 -2.918975276816622e+03
-1.157056545874644e+03  3.353851746539603e+02 -2.918975276816622e+03
-1.157031194971514e+03  3.276142798194389e+02 -2.918975276816622e+03
-1.156921055226736e+03  3.263370736050430e+02 -2.918975276816622e+03
-1.156822119179894e+03  3.242180385010673e+02 -2.918975276816622e+03
-1.156716999709201e+03  3.217140822206334e+02 -2.918975276816622e+03
-1.156671520307063e+03  3.202346069552873e+02 -2.918975276816622e+03
-1.156399437272598e+03  3.177887119171087e+02 -2.918975276816622e+03
-1.155970823582650e+03  3.125109588241718e+02 -2.918975276816622e+03
-1.156000110631523e+03  3.104157688106424e+02 -2.918975276816622e+03
-1.156325744739832e+03  3.074388719284391e+02 -2.918975276816622e+03
-1.156809968921825e+03  3.036010095926943e+02 -2.918975276816622e+03
-1.157808541654038e+03  3.014802717488499e+02 -2.918975276816622e+03
-1.154907591937606e+03  3.010335274426720e+02 -2.918975276816622e+03
-1.156074202527227e+03  2.985632064301273e+02 -2.918975276816622e+03
-1.156027905446953e+03  2.974281194545924e+02 -2.918975276816622e+03
-1.156371670533817e+03  2.953863455846217e+02 -2.918975276816622e+03
-1.156349399005412e+03  2.940238737447386e+02 -2.918975276816622e+03
-1.156597696076402e+03  2.918596081898360e+02 -2.918975276816622e+03
-1.156557739439837e+03  2.902374024288213e+02 -2.918975276816622e+03
-1.156681698062616e+03  2.891876693125986e+02 -2.918975276816622e+03
-1.156955062076840e+03  2.887632777203003e+02 -2.918975276816622e+03
-1.156786253176685e+03  2.875479171397504e+02 -2.918975276816622e+03
-1.157078542236966e+03  2.865971605136257e+02 -2.918975276816622e+03
-1.157133551815695e+03  2.845036201637925e+02 -2.918975276816622e+03
-1.157291745579342e+03  2.845059765843008e+02 -2.918975276816622e+03
-1.157236536264771e+03  2.820051286816297e+02 -2.918975276816622e+03
-1.157115210672049e+03  2.779383055629445e+02 -2.918975276816622e+03
-1.156755737988847e+03  2.775413337893654e+02 -2.918975276816622e+03
-1.156869945755609e+03  2.753182706984668e+02 -2.918975276816622e+03
-1.157017811072048e+03  2.740270176409686e+02 -2.918975276816622e+03
-1.157113671857646e+03  2.717385460991184e+02 -2.918975276816622e+03
-1.156818307645048e+03  2.710863700348066e+02 -2.918975276816622e+03
-1.156831371862305e+03  2.695864907122081e+02 -2.918975276816622e+03
-1.156723804703278e+03  2.662280078244355e+02 -2.918975276816622e+03
-1.156726203876210e+03  2.651055795614625e+02 -2.918975276816622e+03
-1.157076399803831e+03  2.629663785785975e+02 -2.918975276816622e+03
-1.156621042192561e+03  2.610274355794247e+02 -2.918975276816622e+03
-1.156843298815682e+03  2.600943536283892e+02 -2.918975276816622e+03
-1.156372012897991e+03  2.578816006417964e+02 -2.918975276816622e+03
-1.156926834869673e+03  2.568459757417303e+02 -2.918975276816622e+03
-1.156573526595770e+03  2.552256263417939e+02 -2.918975276816622e+03
-1.157016157891741e+03  2.540333237398462e+02 -2.918975276816622e+03
-1.156639697478515e+03  2.514733339112088e+02 -2.918975276816622e+03
-1.157138426651251e+03  2.500862813156119e+02 -2.918975276816622e+03
-1.156945220151335e+03  2.494331725042734e+02 -2.918975276816622e+03
-1.157106010502815e+03  2.470818561798806e+02 -2.918975276816622e+03
-1.156960232723782e+03  2.458514534940581e+02 -2.918975276816622e+03
-1.157059756142005e+03  2.443308158403667e+02 -2.918975276816622e+03
-1.156967043094190e+03  2.431126516815989e+02 -2.918975276816622e+03
-1.157004561351178e+03  2.407687889762546e+02 -2.918975276816622e+03
-1.156976583570215e+03  2.399970388786001e+02 -2.918975276816622e+03
-1.156817629552168e+03  2.384596225030066e+02 -2.918975276816622e+03
-1.156683427719645e+03  2.353561655850896e+02 -2.918975276816622e+03
-1.156655794490415e+03  2.341649428096156e+02 -2.918975276816622e+03
-1.156703700091660e+03  2.317375284087995e+02 -2.918975276816622e+03
-1.156429203417401e+03  2.299987076513625e+02 -2.918975276816622e+03
-1.156647471242768e+03  2.292915722910957e+02 -2.918975276816622e+03
-1.156446953764428e+03  2.269658687893221e+02 -2.918975276816622e+03
-1.156754412963097e+03  2.257010072244522e+02 -2.918975276816622e+03
-1.156708897207993e+03  2.248338012057533e+02 -2.918975276816622e+03
-1.156709454405398e+03  2.232636252932643e+02 -2.918975276816622e+03
-1.156733881005980e+03  2.207964023703427e+02 -2.918975276816622e+03
-1.156694578550870e+03  2.199288662752860e+02 -2.918975276816622e+03
-1.156690148857093e+03  2.184630686194392e+02 -2.918975276816622e+03
-1.156568427074151e+03  2.154049045646663e+02 -2.918975276816622e+03
-1.156727909538191e+03  2.141911548685134e+02 -2.918975276816622e+03
-1.156654250272743e+03  2.118685031424297e+02 -2.918975276816622e+03
-1.156706079883932e+03  2.100376072908384e+02 -2.918975276816622e+03
-1.156659995136869e+03  2.091790461952846e+02 -2.918975276816622e+03
-1.156631432011150e+03  2.070579374936668e+02 -2.918975276816622e+03
-1.156767285562084e+03  2.056449093079073e+02 -2.918975276816622e+03
-1.157026713298343e+03  2.044943282538193e+02 -2.918975276816622e+03
-1.156862455991426e+03  2.031799557953806e+02 -2.918975276816622e+03
-1.156791209646673e+03  2.008284725266473e+02 -2.918975276816622e+03
-1.156876929926246e+03  2.000028123003346e+02 -2.918975276816622e+03
-1.156747071454090e+03  1.985109015667553e+02 -2.918975276816622e+03
-1.156605784334695e+03  1.954276128910134e+02 -2.918975276816622e+03
-1.157009991053014e+03  1.942590764696085e+02 -2.918975276816622e+03
-1.156649709080423e+03  1.919109744741233e+02 -2.918975276816622e+03
-1.156522105620553e+03  1.901223258948155e+02 -2.918975276816622e+03
-1.156697038765532e+03  1.892102428316024e+02 -2.918975276816622e+03
-1.156837758256903e+03  1.871193657020714e+02 -2.918975276816622e+03
-1.156755359496418e+03  1.857146741975499e+02 -2.918975276816622e+03
-1.156778348864116e+03  1.845516990613248e+02 -2.918975276816622e+03
-1.156824069768033e+03  1.831892120300029e+02 -2.918975276816622e+03
-1.156934619978267e+03  1.808903919182270e+02 -2.918975276816622e+03
-1.156972084537388e+03  1.802593991256734e+02 -2.918975276816622e+03
-1.156828112772796e+03  1.786921415938676e+02 -2.918975276816622e+03
-1.156803904435800e+03  1.753800067547438e+02 -2.918975276816622e+03
-1.156539220931903e+03  1.743959045023566e+02 -2.918975276816622e+03
-1.156720469295510e+03  1.719496159888505e+02 -2.918975276816622e+03
-1.156632308202250e+03  1.700317824508743e+02 -2.918975276816622e+03
-1.156765572103054e+03  1.692202804220527e+02 -2.918975276816622e+03
-1.157209328789721e+03  1.671276931127261e+02 -2.918975276816622e+03
-1.156836146386877e+03  1.657412415889441e+02 -2.918975276816622e+03
-1.156497028425431e+03  1.646675132745272e+02 -2.918975276816622e+03
-1.156866428395250e+03  1.632304685380026e+02 -2.918975276816622e+03
-1.156898890163434e+03  1.608980495848791e+02 -2.918975276816622e+03
-1.156949435835458e+03  1.600072491721411e+02 -2.918975276816622e+03
-1.156817557821608e+03  1.585540905462317e+02 -2.918975276816622e+03
-1.156813349815637e+03  1.554370892064076e+02 -2.918975276816622e+03
-1.156822383104257e+03  1.541332131962401e+02 -2.918975276816622e+03
-1.156732601309779e+03  1.519208144686764e+02 -2.918975276816622e+03
-1.156537936732519e+03  1.501108975327276e+02 -2.918975276816622e+03
-1.156801059496095e+03  1.492988269381169e+02 -2.918975276816622e+03
-1.156942055001967e+03  1.471598948345306e+02 -2.918975276816622e+03
-1.156831408045996e+03  1.457213416951560e+02 -2.918975276816622e+03
-1.156553937253365e+03  1.446575365328246e+02 -2.918975276816622e+03
-1.156881515582502e+03  1.432678520401007e+02 -2.918975276816622e+03
-1.156896520275519e+03  1.409239871560117e+02 -2.918975276816622e+03
-1.156936528672880e+03  1.400660105327601e+02 -2.918975276816622e+03
-1.156793701550303e+03  1.385856829073709e+02 -2.918975276816622e+03
-1.156660980008288e+03  1.355172849680471e+02 -2.918975276816622e+03
-1.156966221344676e+03  1.343171524438144e+02 -2.918975276816622e+03
-1.156706179393785e+03  1.320198435850657e+02 -2.918975276816622e+03
-1.156789820285884e+03  1.301646394391310e+02 -2.918975276816622e+03
-1.156716106707418e+03  1.293058761309149e+02 -2.918975276816622e+03
-1.156849284352159e+03  1.271896257480574e+02 -2.918975276816622e+03
-1.156859393747419e+03  1.257650597421367e+02 -2.918975276816622e+03
-1.156644045037151e+03  1.246812010881094e+02 -2.918975276816622e+03
-1.156919950907419e+03  1.232937614768658e+02 -2.918975276816622e+03
-1.156937061600935e+03  1.209519219171170e+02 -2.918975276816622e+03
-1.157024007970723e+03  1.200304737754651e+02 -2.918975276816622e+03
-1.156923800149137e+03  1.185814059944247e+02 -2.918975276816622e+03
-1.156935288691066e+03  1.155022117093655e+02 -2.918975276816622e+03
-1.156587082885018e+03  1.143525786737178e+02 -2.918975276816622e+03
-1.156858395280819e+03  1.120329823676044e+02 -2.918975276816622e+03
-1.156883369516754e+03  1.103032341457924e+02 -2.918975276816622e+03
-1.156864384693979e+03  1.093743247637276e+02 -2.918975276816622e+03
-1.156689075511455e+03  1.073078788289108e+02 -2.918975276816622e+03
-1.156901876632504e+03  1.059904940026842e+02 -2.918975276816622e+03
-1.156855559426153e+03  1.046720690584896e+02 -2.918975276816622e+03
-1.156930149153903e+03  1.033027048394267e+02 -2.918975276816622e+03
-1.157025946328674e+03  1.010889277115776e+02 -2.918975276816622e+03
-1.156947178414101e+03  1.003390395627220e+02 -2.918975276816622e+03
-1.157034385907501e+03  9.841813301426649e+01 -2.918975276816622e+03
-1.156903271039050e+03  9.707659705734609e+01 -2.918975276816622e+03
-1.157057198957657e+03  9.519231442081836e+01 -2.918975276816622e+03
-1.156725977477634e+03  9.126370933371022e+01 -2.918975276816622e+03
-1.156989048978383e+03  9.009589241859391e+01 -2.918975276816622e+03
-1.156639560350033e+03  8.812551437527240e+01 -2.918975276816622e+03
-1.156902580143649e+03  8.669305134068415e+01 -2.918975276816622e+03
-1.156539819848832e+03  8.617253085040022e+01 -2.918975276816622e+03
-1.156963792579513e+03  8.492711774983746e+01 -2.918975276816622e+03
-1.156711118812823e+03  8.242461830999942e+01 -2.918975276816622e+03
-1.156998327731455e+03  7.902368096782841e+01 -2.918975276816622e+03
-1.157102169224191e+03  7.357810150413817e+01 -2.918975276816622e+03
-1.157097481480932e+03  7.198403556299925e+01 -2.918975276816622e+03
-1.157059281650023e+03  7.048594264566221e+01 -2.918975276816622e+03
-1.157372281874087e+03  6.716319941389321e+01 -2.918975276816622e+03
-1.156951370712775e+03  6.581139822862907e+01 -2.918975276816622e+03
-1.157089421121597e+03  6.235215576518769e+01 -2.918975276816622e+03
-1.156290071392028e+03  6.108702313155018e+01 -2.918975276816622e+03
-1.156838206136584e+03  5.991375907642937e+01 -2.918975276816622e+03
-1.155563233486630e+03  5.720354560269158e+01 -2.918975276816622e+03
-1.156394247650445e+03  5.634379361549112e+01 -2.918975276816622e+03
-1.154056621132992e+03  5.500605368821608e+01 -2.918975276816622e+03
-1.155907879021715e+03  5.408319076595923e+01 -2.918975276816622e+03
-1.155754305439086e+03  5.290561306464826e+01 -2.918975276816622e+03
-1.155931375104750e+03  5.270787519202408e+01 -2.918975276816622e+03
-1.156012333480922e+03  5.153765858112806e+01 -2.918975276816622e+03
-1.156224345376537e+03  4.996201848194586e+01 -2.918975276816622e+03
-1.156231296259923e+03  4.912964553536693e+01 -2.918975276816622e+03
-1.156590678265644e+03  4.783552550890185e+01 -2.918975276816622e+03
-1.157191192018729e+03  4.689186463649159e+01 -2.918975276816622e+03
-1.156883748117060e+03  4.654425330273167e+01 -2.918975276816622e+03
-1.157057081521074e+03  4.492523307982275e+01 -2.918975276816622e+03
-1.156760019891138e+03  4.419163456694927e+01 -2.918975276816622e+03
-1.156891982867227e+03  4.220258566498506e+01 -2.918975276816622e+03
-1.157016585827183e+03  4.173322672466996e+01 -2.918975276816622e+03
-1.156969597757312e+03  3.911586847695830e+01 -2.918975276816622e+03
-1.157675896980702e+03  3.650048932128965e+01 -2.918975276816622e+03
-1.156816257455513e+03  3.483158922171400e+01 -2.918975276816622e+03
-1.156309239915676e+03  3.332069609739457e+01 -2.918975276816622e+03
-1.156801421337327e+03  3.000957518429825e+01 -2.918975276816622e+03
-1.157894809928310e+03  2.902938498750876e+01 -2.918975276816622e+03
-1.157909623917592e+03  2.372967486076539e+01 -2.918975276816622e+03
-1.158207869791124e+03  2.190797230433688e+01 -2.918975276816622e+03
-1.158249423506611e+03  2.188270627529808e+01 -2.918975276816622e+03
-1.157584520962127e+03  2.038340499634780e+01 -2.918975276816622e+03
-1.158192204498216e+03  2.037179394195698e+01 -2.918975276816622e+03
-1.157642624482641e+03  1.875484923272588e+01 -2.918975276816622e+03
-1.157723990066384e+03  1.706934186472336e+01 -2.918975276816622e+03
-1.157473324852875e+03  1.575736403784188e+01 -2.918975276816622e+03
-1.157572490820287e+03  1.462444529169725e+01 -2.918975276816622e+03
-1.157469436513124e+03  1.327438667457368e+01 -2.918975276816622e+03
-1.157618005347208e+03  1.194582932560492e+01 -2.918975276816622e+03
-1.157699621108003e+03  7.658940050700762e+00 -2.918975276816622e+03
-1.158419103943989e+03  6.539426619531806e+00 -2.918975276816622e+03
-1.157549877363503e+03  5.041741123947184e+00 -2.918975276816622e+03
1.154291405676900e+03 5.926847561672343e-01 2.918975276816622e+03
 1.154343509261881e+03 -8.404336773677620e-01  2.918975276816622e+03
 1.154443947878422e+03 -2.042086698505816e+00  2.918975276816622e+03
 1.153595412515069e+03 -4.512284583405019e+00  2.918975276816622e+03
 1.154010338555907e+03 -5.389856485256451e+00  2.918975276816622e+03
 1.153321222797682e+03 -7.076073678411446e+00  2.918975276816622e+03
 1.156553978706014e+03 -6.792935403871448e+00  2.918975276816622e+03
 1.154907579326832e+03 -9.423716889205638e+00  2.918975276816622e+03
 1.154420555113243e+03 -1.118829854617564e+01  2.918975276816622e+03
 1.154436297681869e+03 -1.128095490508444e+01  2.918975276816622e+03
 1.153671886709457e+03 -1.289023413103037e+01  2.918975276816622e+03
 1.151921006157748e+03 -1.576960590464018e+01  2.918975276816622e+03
 1.155348495599193e+03 -1.500363292275961e+01  2.918975276816622e+03
 1.154878901373964e+03 -1.662262797795680e+01  2.918975276816622e+03
 1.154044535376506e+03 -2.084561861552512e+01  2.918975276816622e+03
 1.154080947009507e+03 -2.311129596203824e+01  2.918975276816622e+03
 1.154157503220247e+03 -2.376002004318424e+01  2.918975276816622e+03
 1.155330498670211e+03 -2.577878049820604e+01  2.918975276816622e+03
 1.154450998646977e+03 -2.622747036271662e+01  2.918975276816622e+03
 1.154632127947533e+03 -2.721256441161687e+01  2.918975276816622e+03
 1.153446085006081e+03 -2.802370864244978e+01  2.918975276816622e+03
 1.152942946638032e+03 -3.060994704678282e+01  2.918975276816622e+03
 1.152575847092192e+03 -3.456607576511604e+01  2.918975276816622e+03
 1.152102928589553e+03 -3.729731609440125e+01  2.918975276816622e+03
 1.151507468042655e+03 -3.885973134354045e+01  2.918975276816622e+03
 1.151274210619613e+03 -3.915256685536965e+01  2.918975276816622e+03
 1.151838947178179e+03 -4.080099373903507e+01  2.918975276816622e+03
 1.151593203441984e+03 -4.180190435303482e+01  2.918975276816622e+03
 1.151999189374387e+03 -4.304655861318579e+01  2.918975276816622e+03
 1.152558652083500e+03 -4.366792065032517e+01  2.918975276816622e+03
 1.152399412903108e+03 -4.448290541664453e+01  2.918975276816622e+03
 1.152824755299824e+03 -4.594756362120104e+01  2.918975276816622e+03
 1.152819936748893e+03 -4.901897017735909e+01  2.918975276816622e+03
 1.152951463960040e+03 -5.071145765776095e+01  2.918975276816622e+03
 1.152778579267177e+03 -5.241399218451224e+01  2.918975276816622e+03
 1.153014338097254e+03 -5.453992742507315e+01  2.918975276816622e+03
 1.152808837965082e+03 -5.658051771863965e+01  2.918975276816622e+03
 1.152820080398503e+03 -5.879259322956376e+01  2.918975276816622e+03
 1.152328004864081e+03 -6.059229539959496e+01  2.918975276816622e+03
 1.152292113696496e+03 -6.220170459551995e+01  2.918975276816622e+03
 1.152597452676059e+03 -6.374893868954210e+01  2.918975276816622e+03
 1.152626296266327e+03 -6.530235652872202e+01  2.918975276816622e+03
 1.152931595663048e+03 -6.627532619566132e+01  2.918975276816622e+03
 1.153025890768773e+03 -6.904408464454862e+01  2.918975276816622e+03
 1.152569365666393e+03 -7.087119041264053e+01  2.918975276816622e+03
 1.152930526411744e+03 -7.220050594405184e+01  2.918975276816622e+03
 1.153249034465466e+03 -7.449446597156097e+01  2.918975276816622e+03
 1.152605606395595e+03 -7.816632499913429e+01  2.918975276816622e+03
 1.152463894125126e+03 -8.052915562110772e+01  2.918975276816622e+03
 1.151770241859472e+03 -8.215510577817351e+01  2.918975276816622e+03
 1.151995227893024e+03 -8.282041731178396e+01  2.918975276816622e+03
 1.152645200976132e+03 -8.375105345756843e+01  2.918975276816622e+03
 1.152506299635445e+03 -8.494279496758304e+01  2.918975276816622e+03
 1.152943340893076e+03 -8.605392406235293e+01  2.918975276816622e+03
 1.153123619330354e+03 -8.896348607547307e+01  2.918975276816622e+03
 1.153176782716052e+03 -9.069570048431304e+01  2.918975276816622e+03
 1.153138808086431e+03 -9.233370466630784e+01  2.918975276816622e+03
 1.153460240276926e+03 -9.467906489134590e+01  2.918975276816622e+03
 1.153306158681780e+03 -9.737214171138950e+01  2.918975276816622e+03
 1.153216584420622e+03 -9.788676471668732e+01  2.918975276816622e+03
 1.153421918406994e+03 -1.004549445402309e+02  2.918975276816622e+03
 1.153346731228207e+03 -1.036236728548548e+02  2.918975276816622e+03
 1.153445193555958e+03 -1.051107613511671e+02  2.918975276816622e+03
 1.153294167272457e+03 -1.060952195017665e+02  2.918975276816622e+03
 1.153235610462799e+03 -1.089437260578059e+02  2.918975276816622e+03
 1.153616105314162e+03 -1.107155561744307e+02  2.918975276816622e+03
 1.153337724056504e+03 -1.122146132795195e+02  2.918975276816622e+03
 1.153296531033635e+03 -1.141693412435562e+02  2.918975276816622e+03
 1.153501005826542e+03 -1.170872020002443e+02  2.918975276816622e+03
 1.153572132869739e+03 -1.206976427435222e+02  2.918975276816622e+03
 1.153714132483055e+03 -1.237316928159880e+02  2.918975276816622e+03
 1.153842153573276e+03 -1.255462848618867e+02  2.918975276816622e+03
 1.154067254322935e+03 -1.264137997746012e+02  2.918975276816622e+03
 1.153468554334076e+03 -1.289721014391988e+02  2.918975276816622e+03
 1.154282719904242e+03 -1.307125773129291e+02  2.918975276816622e+03
 1.153337678210020e+03 -1.323236629636532e+02  2.918975276816622e+03
 1.153967621665561e+03 -1.343689401216828e+02  2.918975276816622e+03
 1.153102746340521e+03 -1.357692052446972e+02  2.918975276816622e+03
 1.155874541783492e+03 -1.374335718090604e+02  2.918975276816622e+03
 1.154378513745673e+03 -1.387714195730502e+02  2.918975276816622e+03
 1.153192518899633e+03 -1.400517915455910e+02  2.918975276816622e+03
 1.151870511995579e+03 -1.417366774374857e+02  2.918975276816622e+03
 1.151148369796350e+03 -1.425458585468566e+02  2.918975276816622e+03
 1.152579297135101e+03 -1.437043923285997e+02  2.918975276816622e+03
 1.152409116798095e+03 -1.450386450255970e+02  2.918975276816622e+03
 1.153141561281835e+03 -1.460692263072281e+02  2.918975276816622e+03
 1.153093596448057e+03 -1.488973241123273e+02  2.918975276816622e+03
 1.153348282579022e+03 -1.505183738627294e+02  2.918975276816622e+03
 1.153003278320645e+03 -1.520953790783146e+02  2.918975276816622e+03
 1.153389478919120e+03 -1.543614024152677e+02  2.918975276816622e+03
 1.152952864526622e+03 -1.579676223684235e+02  2.918975276816622e+03
 1.152832422638173e+03 -1.603387630692467e+02  2.918975276816622e+03
 1.152160521792900e+03 -1.615100377230049e+02  2.918975276816622e+03
 1.152278943949373e+03 -1.623891619956190e+02  2.918975276816622e+03
 1.152831175124594e+03 -1.636687850153400e+02  2.918975276816622e+03
 1.152639468284484e+03 -1.648789369054460e+02  2.918975276816622e+03
 1.153238296855525e+03 -1.659416326653056e+02  2.918975276816622e+03
 1.153111575322243e+03 -1.688298407286432e+02  2.918975276816622e+03
 1.153605977447129e+03 -1.705171440615407e+02  2.918975276816622e+03
 1.153334071875966e+03 -1.721560167312863e+02  2.918975276816622e+03
 1.153856917640918e+03 -1.743436304836899e+02  2.918975276816622e+03
 1.153615505287296e+03 -1.779870754922204e+02  2.918975276816622e+03
 1.153895784053077e+03 -1.804915001610357e+02  2.918975276816622e+03
 1.153734680930027e+03 -1.835275858336784e+02  2.918975276816622e+03
 1.153734073472644e+03 -1.847543923312800e+02  2.918975276816622e+03
 1.154273188896142e+03 -1.864621468748773e+02  2.918975276816622e+03
 1.153623760790034e+03 -1.888402059244407e+02  2.918975276816622e+03
 1.155787289045243e+03 -1.899188328350232e+02  2.918975276816622e+03
 1.153757371003769e+03 -1.919695724075610e+02  2.918975276816622e+03
 1.153971804392733e+03 -1.941107082403412e+02  2.918975276816622e+03
 1.152946274046882e+03 -1.979332257367833e+02  2.918975276816622e+03
 1.153068967719340e+03 -2.003695527985481e+02  2.918975276816622e+03
 1.152383402797737e+03 -2.014081465514654e+02  2.918975276816622e+03
 1.152174276773296e+03 -2.022879457835352e+02  2.918975276816622e+03
 1.152779914046077e+03 -2.036111232602675e+02  2.918975276816622e+03
 1.152452887265220e+03 -2.047693590744286e+02  2.918975276816622e+03
 1.153105556742028e+03 -2.058241471838968e+02  2.918975276816622e+03
 1.153093361520293e+03 -2.087680495184060e+02  2.918975276816622e+03
 1.153553205511046e+03 -2.104821620600183e+02  2.918975276816622e+03
 1.153329950488927e+03 -2.120938615080707e+02  2.918975276816622e+03
 1.153841646872603e+03 -2.143460910937774e+02  2.918975276816622e+03
 1.153590944440257e+03 -2.179327542572996e+02  2.918975276816622e+03
 1.153956555944986e+03 -2.204219451564549e+02  2.918975276816622e+03
 1.153754600354937e+03 -2.235303160530705e+02  2.918975276816622e+03
 1.154300485492842e+03 -2.252923507385647e+02  2.918975276816622e+03
 1.154176383697740e+03 -2.259677350711281e+02  2.918975276816622e+03
 1.153590242066154e+03 -2.287865456625894e+02  2.918975276816622e+03
 1.153491433925141e+03 -2.305350009851498e+02  2.918975276816622e+03
 1.153263972105792e+03 -2.318864015710173e+02  2.918975276816622e+03
 1.152881338084137e+03 -2.343552857672705e+02  2.918975276816622e+03
 1.152215337847028e+03 -2.377976050739065e+02  2.918975276816622e+03
 1.152410870578388e+03 -2.380354022478530e+02  2.918975276816622e+03
 1.152860155909117e+03 -2.400794994465773e+02  2.918975276816622e+03
 1.152862383990766e+03 -2.418886032350752e+02  2.918975276816622e+03
 1.153401843151051e+03 -2.446277940528078e+02  2.918975276816622e+03
 1.153347730479176e+03 -2.474114942708997e+02  2.918975276816622e+03
 1.153585553281375e+03 -2.491059113245293e+02  2.918975276816622e+03
 1.153271217933938e+03 -2.499108054477182e+02  2.918975276816622e+03
 1.152425895077208e+03 -2.526717755855366e+02  2.918975276816622e+03
 1.151948299847495e+03 -2.552754312686200e+02  2.918975276816622e+03
 1.150922059994057e+03 -2.572848276774763e+02  2.918975276816622e+03
 1.151309615447992e+03 -2.578367182416836e+02  2.918975276816622e+03
 1.152310263012098e+03 -2.585990915540324e+02  2.918975276816622e+03
 1.152670623784370e+03 -2.605605392353957e+02  2.918975276816622e+03
 1.153145047815209e+03 -2.611236786313286e+02  2.918975276816622e+03
 1.152701026203863e+03 -2.647256987458634e+02  2.918975276816622e+03
 1.154551744551510e+03 -2.641765949423543e+02  2.918975276816622e+03
 1.154152126683053e+03 -2.660512675744469e+02  2.918975276816622e+03
 1.153566965505280e+03 -2.684881709941941e+02  2.918975276816622e+03
 1.152967501332894e+03 -2.715736416071725e+02  2.918975276816622e+03
 1.153787446382549e+03 -2.725529903712360e+02  2.918975276816622e+03
 1.153849954553504e+03 -2.743590118400826e+02  2.918975276816622e+03
 1.153776055689006e+03 -2.774283248821575e+02  2.918975276816622e+03
 1.153938080143190e+03 -2.794748131300411e+02  2.918975276816622e+03
 1.154051035756753e+03 -2.801844612613074e+02  2.918975276816622e+03
 1.154398181875908e+03 -2.834586886441981e+02  2.918975276816622e+03
 1.154476843218119e+03 -2.861349436970622e+02  2.918975276816622e+03
 1.154812999066547e+03 -2.913320213643782e+02  2.918975276816622e+03
 1.154935536446933e+03 -2.932545357498433e+02  2.918975276816622e+03
 1.154788693502113e+03 -2.932258207949101e+02  2.918975276816622e+03
 1.154672086928354e+03 -2.951350870816277e+02  2.918975276816622e+03
 1.155169598117075e+03 -2.965241458521411e+02  2.918975276816622e+03
 1.155213651678779e+03 -2.974964815440939e+02  2.918975276816622e+03
 1.155317323862998e+03 -2.982332601604190e+02  2.918975276816622e+03
 1.155319653435783e+03 -2.988798914752434e+02  2.918975276816622e+03
 1.154533091095826e+03 -3.032952236180378e+02  2.918975276816622e+03
 1.154240655981067e+03 -3.037340189209125e+02  2.918975276816622e+03
 1.154490034497535e+03 -3.073375875635277e+02  2.918975276816622e+03
 1.154141776818029e+03 -3.092976711841296e+02  2.918975276816622e+03
 1.154474675328249e+03 -3.098950462723255e+02  2.918975276816622e+03
 1.154126539185257e+03 -3.112216553779502e+02  2.918975276816622e+03
 1.154152300413927e+03 -3.117705145844492e+02  2.918975276816622e+03
 1.153961369300573e+03 -3.135470668823888e+02  2.918975276816622e+03
 1.154185210838810e+03 -3.146230215738605e+02  2.918975276816622e+03
 1.153887820282400e+03 -3.177944658177166e+02  2.918975276816622e+03
 1.154014988500014e+03 -3.214547036089872e+02  2.918975276816622e+03
 1.153902640953011e+03 -3.260487335969718e+02  2.918975276816622e+03
 1.153942565839839e+03 -3.285967864195630e+02  2.918975276816622e+03
 1.153818083676619e+03 -3.314523290571361e+02  2.918975276816622e+03
 1.153805752084193e+03 -3.322727951080852e+02  2.918975276816622e+03
 1.153713891944774e+03 -3.348071989166754e+02  2.918975276816622e+03
 1.153777678461996e+03 -3.384054633949672e+02  2.918975276816622e+03
 1.153576602781267e+03 -3.395170024606924e+02  2.918975276816622e+03
 1.153446912377632e+03 -3.430957685064927e+02  2.918975276816622e+03
 1.152751884508161e+03 -3.456452015886841e+02  2.918975276816622e+03
 1.155757270342414e+03 -3.445707608100918e+02  2.918975276816622e+03
 1.154104221089967e+03 -3.484483850392846e+02  2.918975276816622e+03
 1.153934343613701e+03 -3.507544824094451e+02  2.918975276816622e+03
 1.154833881378421e+03 -3.506740359536900e+02  2.918975276816622e+03
 1.154202950785855e+03 -3.528213761755754e+02  2.918975276816622e+03
 1.153757969665441e+03 -3.547896037371429e+02  2.918975276816622e+03
 1.153555335616919e+03 -3.571217166436053e+02  2.918975276816622e+03
 1.154046820367590e+03 -3.600655359464989e+02  2.918975276816622e+03
 1.153836280300811e+03 -3.629451972825859e+02  2.918975276816622e+03
 1.154476087708814e+03 -3.645313986855692e+02  2.918975276816622e+03
 1.153801675047081e+03 -3.658829999951921e+02  2.918975276816622e+03
 1.154404852519868e+03 -3.665698295392256e+02  2.918975276816622e+03
 1.153915362126474e+03 -3.693074560739693e+02  2.918975276816622e+03
 1.154180000973249e+03 -3.709362537277498e+02  2.918975276816622e+03
 1.153955023570812e+03 -3.743053618792225e+02  2.918975276816622e+03
 1.154082321757436e+03 -3.760960338501963e+02  2.918975276816622e+03
 1.153952595703834e+03 -3.815159622509032e+02  2.918975276816622e+03
 1.153996079655402e+03 -3.833207874124674e+02  2.918975276816622e+03
 1.154044038580878e+03 -3.837800604769337e+02  2.918975276816622e+03
1.153695142318979e+03 3.852266094648500e+02 2.918975276816622e+03
1.152625102383446e+03 3.840116272724360e+02 2.918975276816622e+03
1.152804972171727e+03 3.816445721073071e+02 2.918975276816622e+03
1.153050915564308e+03 3.811323384692490e+02 2.918975276816622e+03
1.153260124778136e+03 3.763783008194953e+02 2.918975276816622e+03
1.153751179164226e+03 3.758572763823964e+02 2.918975276816622e+03
1.153362611655224e+03 3.746635954893817e+02 2.918975276816622e+03
1.153450660751095e+03 3.733845874283780e+02 2.918975276816622e+03
1.153543774314608e+03 3.722935640519038e+02 2.918975276816622e+03
1.153893457737306e+03 3.709193517644040e+02 2.918975276816622e+03
1.154678004381933e+03 3.677102400980697e+02 2.918975276816622e+03
1.154649638442794e+03 3.666472608127481e+02 2.918975276816622e+03
1.154655554126205e+03 3.651427307585546e+02 2.918975276816622e+03
1.154286759395342e+03 3.627355248633614e+02 2.918975276816622e+03
1.154573194301576e+03 3.598611966869047e+02 2.918975276816622e+03
1.154158129248575e+03 3.582087000251826e+02 2.918975276816622e+03
1.154410819337598e+03 3.568947228668713e+02 2.918975276816622e+03
1.153994626827297e+03 3.565782520447833e+02 2.918975276816622e+03
1.154492641427934e+03 3.549778132309329e+02 2.918975276816622e+03
1.153871695455246e+03 3.532376192250005e+02 2.918975276816622e+03
1.154587473697231e+03 3.523374367215139e+02 2.918975276816622e+03
1.153876432026908e+03 3.503241752664857e+02 2.918975276816622e+03
1.154470064926450e+03 3.472680501307772e+02 2.918975276816622e+03
1.153077712547873e+03 3.461377614891325e+02 2.918975276816622e+03
1.153922501806886e+03 3.450225550443520e+02 2.918975276816622e+03
1.154353434885228e+03 3.429486567476939e+02 2.918975276816622e+03
1.154843412612258e+03 3.419657214288429e+02 2.918975276816622e+03
1.155222236702467e+03 3.403358646448689e+02 2.918975276816622e+03
1.155750786646102e+03 3.368896025697534e+02 2.918975276816622e+03
1.156649613024765e+03 3.367910559856028e+02 2.918975276816622e+03
1.155267239384674e+03 3.342884609881876e+02 2.918975276816622e+03
1.156988843062635e+03 3.331860131609670e+02 2.918975276816622e+03
1.155012532762654e+03 3.320719619023375e+02 2.918975276816622e+03
1.154929389438484e+03 3.314577852059542e+02 2.918975276816622e+03
1.152403662984173e+03 3.314814222301067e+02 2.918975276816622e+03
1.153290937078540e+03 3.301581772832171e+02 2.918975276816622e+03
1.153519052929007e+03 3.291854496683756e+02 2.918975276816622e+03
1.154288888131809e+03 3.276548764381567e+02 2.918975276816622e+03
1.152343200845928e+03 3.271166689606733e+02 2.918975276816622e+03
1.153866727168384e+03 3.258206048132066e+02 2.918975276816622e+03
1.153847369849095e+03 3.255670429232990e+02 2.918975276816622e+03
1.154249953404633e+03 3.235049675406726e+02 2.918975276816622e+03
1.153811232319125e+03 3.216049972806840e+02 2.918975276816622e+03
1.154134158630909e+03 3.192806332434602e+02 2.918975276816622e+03
1.153694714814089e+03 3.185337726557947e+02 2.918975276816622e+03
1.154151108210264e+03 3.169709595965552e+02 2.918975276816622e+03
1.154033181057392e+03 3.150376412940506e+02 2.918975276816622e+03
1.154646045330547e+03 3.136529096031502e+02 2.918975276816622e+03
1.154597081185178e+03 3.106211898049455e+02 2.918975276816622e+03
1.155226334026103e+03 3.084608373704349e+02 2.918975276816622e+03
1.155891116083317e+03 3.046721464707080e+02 2.918975276816622e+03
1.156707384582354e+03 3.041612788832538e+02 2.918975276816622e+03
1.156976225652251e+03 3.026505475754455e+02 2.918975276816622e+03
1.155308969671949e+03 2.997414691118768e+02 2.918975276816622e+03
1.157572160309641e+03 2.974813688458086e+02 2.918975276816622e+03
1.155605265391260e+03 2.971234642242601e+02 2.918975276816622e+03
1.155842102226636e+03 2.950940161945390e+02 2.918975276816622e+03
1.155663459398671e+03 2.935067245478643e+02 2.918975276816622e+03
1.155265295298738e+03 2.880199983970091e+02 2.918975276816622e+03
1.155010023631709e+03 2.877967328087752e+02 2.918975276816622e+03
1.154153212723588e+03 2.817971266259948e+02 2.918975276816622e+03
1.153251155986991e+03 2.797436260825922e+02 2.918975276816622e+03
1.154005068567409e+03 2.766579901004977e+02 2.918975276816622e+03
1.153736422688765e+03 2.761074602168070e+02 2.918975276816622e+03
1.154392675362654e+03 2.747917777810030e+02 2.918975276816622e+03
1.154603479313247e+03 2.738889088310852e+02 2.918975276816622e+03
1.153852272185486e+03 2.732138119383361e+02 2.918975276816622e+03
1.153608164663465e+03 2.710257454060102e+02 2.918975276816622e+03
1.153371618880614e+03 2.686192739376257e+02 2.918975276816622e+03
1.152913744500497e+03 2.680174151572206e+02 2.918975276816622e+03
1.153079700597355e+03 2.666030933044359e+02 2.918975276816622e+03
1.153020573109018e+03 2.636447693352245e+02 2.918975276816622e+03
1.153329873333397e+03 2.622790544916307e+02 2.918975276816622e+03
1.152969324943617e+03 2.605352382719457e+02 2.918975276816622e+03
1.153007549580917e+03 2.595368040333137e+02 2.918975276816622e+03
1.153713146200638e+03 2.597533228463043e+02 2.918975276816622e+03
1.153222208691214e+03 2.578386885380314e+02 2.918975276816622e+03
1.153218019064454e+03 2.568879330058598e+02 2.918975276816622e+03
1.152846234941898e+03 2.559999733870349e+02 2.918975276816622e+03
1.153048452720386e+03 2.553530059699080e+02 2.918975276816622e+03
1.153617094905122e+03 2.536464774383833e+02 2.918975276816622e+03
1.153436216546813e+03 2.525575061306061e+02 2.918975276816622e+03
1.153833220651509e+03 2.505036742583042e+02 2.918975276816622e+03
1.153053842696212e+03 2.484558231393914e+02 2.918975276816622e+03
1.153253605249297e+03 2.481411557078982e+02 2.918975276816622e+03
1.153181802612444e+03 2.464901218972143e+02 2.918975276816622e+03
1.153490895774103e+03 2.455373282511780e+02 2.918975276816622e+03
1.153414635271409e+03 2.433842144223647e+02 2.918975276816622e+03
1.153558590756483e+03 2.416760551763096e+02 2.918975276816622e+03
1.153474131952556e+03 2.399997957471838e+02 2.918975276816622e+03
1.153631101092839e+03 2.383553080804875e+02 2.918975276816622e+03
1.153537590042389e+03 2.358466146124640e+02 2.918975276816622e+03
1.153644626657002e+03 2.331214048020644e+02 2.918975276816622e+03
1.153186088392454e+03 2.327538060156182e+02 2.918975276816622e+03
1.153191609096039e+03 2.299238786462616e+02 2.918975276816622e+03
1.153052578160813e+03 2.286497795814140e+02 2.918975276816622e+03
1.153273836309816e+03 2.268467529455507e+02 2.918975276816622e+03
1.153292106011477e+03 2.257909459179063e+02 2.918975276816622e+03
1.152938327890050e+03 2.244511804579526e+02 2.918975276816622e+03
1.153007757358476e+03 2.214065847164461e+02 2.918975276816622e+03
1.153466458662513e+03 2.198102456837231e+02 2.918975276816622e+03
1.152397388376072e+03 2.186190408655096e+02 2.918975276816622e+03
1.152666755763839e+03 2.162286595915463e+02 2.918975276816622e+03
1.153036863214106e+03 2.115087658923701e+02 2.918975276816622e+03
1.151625078047365e+03 2.116276392860033e+02 2.918975276816622e+03
1.152698878260123e+03 2.098178801398325e+02 2.918975276816622e+03
1.153193479054825e+03 2.090818591304066e+02 2.918975276816622e+03
1.155382395904273e+03 2.080996616610718e+02 2.918975276816622e+03
1.152913362729113e+03 2.064929511635290e+02 2.918975276816622e+03
1.153712718674425e+03 2.057503469196012e+02 2.918975276816622e+03
1.153215887976760e+03 2.044795557825106e+02 2.918975276816622e+03
1.153112705853716e+03 2.015171820493270e+02 2.918975276816622e+03
1.152996557855121e+03 1.998808604245346e+02 2.918975276816622e+03
1.153576126109599e+03 1.980156817936115e+02 2.918975276816622e+03
1.153028639534233e+03 1.958693567600556e+02 2.918975276816622e+03
1.153446056721386e+03 1.927434344326783e+02 2.918975276816622e+03
1.152690850838445e+03 1.923298710980681e+02 2.918975276816622e+03
1.152908655520364e+03 1.900195038519217e+02 2.918975276816622e+03
1.152654525329091e+03 1.883062023965537e+02 2.918975276816622e+03
1.153098320078489e+03 1.875242499546596e+02 2.918975276816622e+03
1.152862369525928e+03 1.847479244925243e+02 2.918975276816622e+03
1.152970352506005e+03 1.815738235171144e+02 2.918975276816622e+03
1.153334248743769e+03 1.801839638786789e+02 2.918975276816622e+03
1.153581624965993e+03 1.790104641840954e+02 2.918975276816622e+03
1.153587289984245e+03 1.758457837135495e+02 2.918975276816622e+03
1.153726236612461e+03 1.734243430327851e+02 2.918975276816622e+03
1.153846318904973e+03 1.726736257598660e+02 2.918975276816622e+03
1.152020145214422e+03 1.716845934826806e+02 2.918975276816622e+03
1.153019934285285e+03 1.698635457298569e+02 2.918975276816622e+03
1.153203576900441e+03 1.690878493061788e+02 2.918975276816622e+03
1.155588474519007e+03 1.673570344358075e+02 2.918975276816622e+03
1.152833571626989e+03 1.666365864287997e+02 2.918975276816622e+03
1.153949031514500e+03 1.633697856659769e+02 2.918975276816622e+03
1.153311640711961e+03 1.614296345285136e+02 2.918975276816622e+03
1.153615063820129e+03 1.599935216798097e+02 2.918975276816622e+03
1.153479811179424e+03 1.588796504301648e+02 2.918975276816622e+03
1.154327083488113e+03 1.562301338593932e+02 2.918975276816622e+03
1.154308193771152e+03 1.540800594133482e+02 2.918975276816622e+03
1.155729971852821e+03 1.515336072704401e+02 2.918975276816622e+03
1.153089997930294e+03 1.515416006504369e+02 2.918975276816622e+03
1.153327746061213e+03 1.504195358288137e+02 2.918975276816622e+03
1.152120034762083e+03 1.488215872499838e+02 2.918975276816622e+03
1.151814217723117e+03 1.487156680272017e+02 2.918975276816622e+03
1.152544061152507e+03 1.469168868592892e+02 2.918975276816622e+03
1.152714633185667e+03 1.457984642917928e+02 2.918975276816622e+03
1.152860434371225e+03 1.447481338714468e+02 2.918975276816622e+03
1.153065805944342e+03 1.415082827638940e+02 2.918975276816622e+03
1.153127040531794e+03 1.393539109530982e+02 2.918975276816622e+03
1.153279296105977e+03 1.388861910799247e+02 2.918975276816622e+03
1.153159857804717e+03 1.362803561939599e+02 2.918975276816622e+03
1.153047916162422e+03 1.303156261744067e+02 2.918975276816622e+03
1.152725140018582e+03 1.283712929749368e+02 2.918975276816622e+03
1.152760016173388e+03 1.269845226647035e+02 2.918975276816622e+03
1.152806897761077e+03 1.256833104748558e+02 2.918975276816622e+03
1.152766246297909e+03 1.246243892804700e+02 2.918975276816622e+03
1.153078063499465e+03 1.216107418537924e+02 2.918975276816622e+03
1.153211527501044e+03 1.198393839035777e+02 2.918975276816622e+03
1.153061798198898e+03 1.186529932258559e+02 2.918975276816622e+03
1.152933772740440e+03 1.163275072113997e+02 2.918975276816622e+03
1.152137052520463e+03 1.134562723471142e+02 2.918975276816622e+03
1.151654729015142e+03 1.119761188465303e+02 2.918975276816622e+03
1.152427724037035e+03 1.118162367291553e+02 2.918975276816622e+03
1.152564778690375e+03 1.102398255612817e+02 2.918975276816622e+03
1.151868739553352e+03 1.086520888621760e+02 2.918975276816622e+03
1.152071328016465e+03 1.084991407726560e+02 2.918975276816622e+03
1.152599959375974e+03 1.069065241562517e+02 2.918975276816622e+03
1.152909568192815e+03 1.056585052409468e+02 2.918975276816622e+03
1.152983774443025e+03 1.046024636759553e+02 2.918975276816622e+03
1.153435840564175e+03 1.015954835185875e+02 2.918975276816622e+03
1.153516231535548e+03 9.946273810682455e+01 2.918975276816622e+03
1.153943663991126e+03 9.686519267775051e+01 2.918975276816622e+03
1.153962363376076e+03 9.649264984053519e+01 2.918975276816622e+03
1.154601466875733e+03 9.375995053634243e+01 2.918975276816622e+03
1.154415450316013e+03 9.087849956434955e+01 2.918975276816622e+03
1.153594775332144e+03 9.017052731034536e+01 2.918975276816622e+03
1.155298815867999e+03 8.881172413970505e+01 2.918975276816622e+03
1.154612544756852e+03 8.703835016141920e+01 2.918975276816622e+03
1.154441334800070e+03 8.571109786834438e+01 2.918975276816622e+03
1.153522994786721e+03 8.455775975481841e+01 2.918975276816622e+03
1.154273002293502e+03 8.426265727001153e+01 2.918975276816622e+03
1.153983844108900e+03 8.228915486580560e+01 2.918975276816622e+03
1.153826699289727e+03 8.008665222778473e+01 2.918975276816622e+03
1.153794548575779e+03 7.890985912071940e+01 2.918975276816622e+03
1.154197641970871e+03 7.844750479632155e+01 2.918975276816622e+03
1.154082152967090e+03 7.614139064479596e+01 2.918975276816622e+03
1.155139447153600e+03 7.389714318937328e+01 2.918975276816622e+03
1.155747607835777e+03 7.242950665465195e+01 2.918975276816622e+03
1.156088454719407e+03 7.225369431178096e+01 2.918975276816622e+03
1.155008680323112e+03 6.967360264066834e+01 2.918975276816622e+03
1.155571357629365e+03 6.742575014133615e+01 2.918975276816622e+03
1.155089054942602e+03 6.544776490290361e+01 2.918975276816622e+03
1.156308981651764e+03 6.355168066197353e+01 2.918975276816622e+03
1.153776785168998e+03 6.322632874023584e+01 2.918975276816622e+03
1.153406259594801e+03 6.268976882934986e+01 2.918975276816622e+03
1.152980030046056e+03 6.066992753191181e+01 2.918975276816622e+03
1.155065236690838e+03 6.137808794365911e+01 2.918975276816622e+03
1.154726757708326e+03 5.994400669917791e+01 2.918975276816622e+03
1.155244543216454e+03 5.847026624718720e+01 2.918975276816622e+03
1.155123552872642e+03 5.752328067560655e+01 2.918975276816622e+03
1.156514178059117e+03 5.520798107704260e+01 2.918975276816622e+03
1.155990495885913e+03 5.492313814387729e+01 2.918975276816622e+03
1.154753152044867e+03 5.220243962468790e+01 2.918975276816622e+03
1.155389332896938e+03 5.042415439340682e+01 2.918975276816622e+03
1.154325538781794e+03 4.788938963388909e+01 2.918975276816622e+03
1.154510828150212e+03 4.714099448503013e+01 2.918975276816622e+03
1.154278746361194e+03 4.417156134783824e+01 2.918975276816622e+03
1.154333461176253e+03 4.239393005445020e+01 2.918975276816622e+03
1.154267898254556e+03 4.191735183560007e+01 2.918975276816622e+03
1.154458490834761e+03 4.040069487230296e+01 2.918975276816622e+03
1.154378084864175e+03 3.858813985256196e+01 2.918975276816622e+03
1.154658829614774e+03 3.547630029533556e+01 2.918975276816622e+03
1.154556093180068e+03 3.403637358562300e+01 2.918975276816622e+03
1.154829150463681e+03 3.206355813226418e+01 2.918975276816622e+03
1.154753117252629e+03 3.000621747403002e+01 2.918975276816622e+03
1.154998664084220e+03 2.819065071606445e+01 2.918975276816622e+03
1.155071691826252e+03 2.544068785564146e+01 2.918975276816622e+03
1.155622143578144e+03 1.943355276959385e+01 2.918975276816622e+03
1.155477584933481e+03 1.932506536954038e+01 2.918975276816622e+03
1.155007493275617e+03 1.594541255362645e+01 2.918975276816622e+03
1.155206136730528e+03 1.426824027936550e+01 2.918975276816622e+03
1.154838873354768e+03 1.322886966376202e+01 2.918975276816622e+03
1.155016594022766e+03 1.151778184528329e+01 2.918975276816622e+03
1.154961579461823e+03 1.022506366199097e+01 2.918975276816622e+03
1.154735184459098e+03 5.461039929646216e+00 2.918975276816622e+03
1.154677522859347e+03 4.651036310143909e+00 2.918975276816622e+03
1.154558817489600e+03 2.656679597142556e+00 2.918975276816622e+03
1.154635764627486e+03 1.530533981171015e+00 2.918975276816622e+03
-1.148047728873664e+03 -3.863858941524650e+02 -2.918975276816622e+03
-1.148047728873664e+03  3.863858941524653e+02 -2.918975276816622e+03
 1.145247759678319e+03 -3.863858941524653e+02  2.918975276816622e+03
1.145247759678319e+03 3.863858941524650e+02 2.918975276816622e+03
-1.156797468606012e+03 -3.863858941524650e+02 -2.918975276816622e+03
-1.156797468606012e+03  3.863858941524653e+02 -2.918975276816622e+03
 1.153802567917586e+03 -3.863858941524653e+02  2.918975276816622e+03
1.153802567917586e+03 3.863858941524650e+02 2.918975276816622e+03
-1.148571062488654e+03  1.102348704281519e-01 -2.918975276816622e+03
-1.148719769002802e+03  3.166032897854512e+00 -2.918975276816622e+03
-1.148488532656945e+03 -1.275240551422061e+00 -2.918975276816622e+03
-1.148478568348253e+03 -2.790005740582612e+00 -2.918975276816622e+03
-1.148504401662035e+03 -4.485090974696091e+00 -2.918975276816622e+03
-1.148537877525132e+03 -5.826641196615336e+00 -2.918975276816622e+03
-1.148527112542517e+03 -7.460250052094945e+00 -2.918975276816622e+03
-1.148679109577168e+03 -9.498993716680021e+00 -2.918975276816622e+03
-1.148873102816210e+03 -1.191354751154040e+01 -2.918975276816622e+03
-1.148927172278163e+03 -1.346211952202426e+01 -2.918975276816622e+03
-1.148758648709897e+03 -1.520720148450203e+01 -2.918975276816622e+03
-1.148783030182519e+03 -1.836239695037979e+01 -2.918975276816622e+03
-1.148824790006779e+03 -2.151972694429827e+01 -2.918975276816622e+03
-1.148742293144771e+03 -2.491555423389714e+01 -2.918975276816622e+03
-1.148817835455170e+03 -2.751240502842580e+01 -2.918975276816622e+03
-1.148909786576821e+03 -2.920423484122373e+01 -2.918975276816622e+03
-1.149071655061322e+03 -3.023361355268260e+01 -2.918975276816622e+03
-1.148797775966612e+03 -3.137588222468497e+01 -2.918975276816622e+03
-1.148621309899999e+03 -3.326384914893689e+01 -2.918975276816622e+03
-1.148555610550060e+03 -3.450029701392474e+01 -2.918975276816622e+03
-1.148357914139826e+03 -3.547091519400744e+01 -2.918975276816622e+03
-1.148258628382546e+03 -3.718327320135262e+01 -2.918975276816622e+03
-1.148189730071979e+03 -3.929603013203230e+01 -2.918975276816622e+03
-1.148178531059758e+03 -4.071909558056906e+01 -2.918975276816622e+03
-1.148090720617968e+03 -4.231539248549704e+01 -2.918975276816622e+03
-1.148038772790745e+03 -4.412186662384624e+01 -2.918975276816622e+03
-1.147874386437673e+03 -4.614154883563047e+01 -2.918975276816622e+03
-1.147727370308254e+03 -4.856395043875192e+01 -2.918975276816622e+03
-1.147572340209296e+03 -5.004615792810717e+01 -2.918975276816622e+03
-1.147502641696287e+03 -5.124688084383170e+01 -2.918975276816622e+03
-1.147371114594995e+03 -5.312338218432669e+01 -2.918975276816622e+03
-1.147074653010264e+03 -5.417943858631101e+01 -2.918975276816622e+03
-1.147189397092597e+03 -5.512093574096955e+01 -2.918975276816622e+03
-1.147477614927311e+03 -5.724676855265400e+01 -2.918975276816622e+03
-1.147604652946584e+03 -5.937796349301251e+01 -2.918975276816622e+03
-1.147679867551477e+03 -6.081065912294796e+01 -2.918975276816622e+03
-1.147691097621447e+03 -6.236289321829138e+01 -2.918975276816622e+03
-1.147736896034521e+03 -6.382239231759966e+01 -2.918975276816622e+03
-1.147721008177002e+03 -6.527652634343947e+01 -2.918975276816622e+03
-1.147760814913999e+03 -6.675828440922449e+01 -2.918975276816622e+03
-1.147770163838478e+03 -6.856063380161764e+01 -2.918975276816622e+03
-1.147785363935659e+03 -7.017545074644742e+01 -2.918975276816622e+03
-1.147758494323675e+03 -7.130058727608737e+01 -2.918975276816622e+03
-1.147713091965814e+03 -7.317497565552202e+01 -2.918975276816622e+03
-1.147728972863999e+03 -7.476628802487528e+01 -2.918975276816622e+03
-1.147827962276228e+03 -7.574784904209028e+01 -2.918975276816622e+03
-1.147872981390910e+03 -7.727823463135039e+01 -2.918975276816622e+03
-1.147880600194354e+03 -7.933943594552701e+01 -2.918975276816622e+03
-1.147904698351231e+03 -8.090718934170458e+01 -2.918975276816622e+03
-1.147901459926358e+03 -8.240388720313096e+01 -2.918975276816622e+03
-1.147763543578493e+03 -8.418518528609069e+01 -2.918975276816622e+03
-1.147779628286666e+03 -8.636028209943920e+01 -2.918975276816622e+03
-1.148018408813748e+03 -8.862508824304344e+01 -2.918975276816622e+03
-1.147967924715193e+03 -9.004122299731581e+01 -2.918975276816622e+03
-1.147818749596406e+03 -9.130222862831646e+01 -2.918975276816622e+03
-1.147850916812600e+03 -9.347553429336972e+01 -2.918975276816622e+03
-1.147967453667721e+03 -9.533823574913104e+01 -2.918975276816622e+03
-1.147974729569159e+03 -9.715432595149663e+01 -2.918975276816622e+03
-1.147959742102399e+03 -9.940150141028577e+01 -2.918975276816622e+03
-1.147934062597489e+03 -1.008332046459500e+02 -2.918975276816622e+03
-1.147898184996824e+03 -1.023110368662044e+02 -2.918975276816622e+03
-1.147865931430086e+03 -1.037390872059274e+02 -2.918975276816622e+03
-1.147817759449472e+03 -1.051975487086752e+02 -2.918975276816622e+03
-1.147777523775791e+03 -1.066810601875752e+02 -2.918975276816622e+03
-1.147711380260631e+03 -1.084420717497622e+02 -2.918975276816622e+03
-1.147656122554986e+03 -1.100405323335427e+02 -2.918975276816622e+03
-1.147523320355390e+03 -1.113168842866251e+02 -2.918975276816622e+03
-1.147391572291890e+03 -1.131789875719864e+02 -2.918975276816622e+03
-1.147404162460498e+03 -1.142168835134474e+02 -2.918975276816622e+03
-1.147502440883781e+03 -1.150536749617607e+02 -2.918975276816622e+03
-1.147555708222870e+03 -1.170654855902899e+02 -2.918975276816622e+03
-1.147579861539178e+03 -1.193021516999943e+02 -2.918975276816622e+03
-1.147625975449253e+03 -1.208093806839530e+02 -2.918975276816622e+03
-1.147638025124807e+03 -1.223045910572581e+02 -2.918975276816622e+03
-1.147650688399435e+03 -1.240219581073248e+02 -2.918975276816622e+03
-1.147616266375199e+03 -1.260014353693261e+02 -2.918975276816622e+03
-1.147595352614871e+03 -1.284201950844890e+02 -2.918975276816622e+03
-1.147568528370833e+03 -1.299792009051833e+02 -2.918975276816622e+03
-1.147527606190414e+03 -1.312524299500848e+02 -2.918975276816622e+03
-1.147422362638211e+03 -1.331291983247054e+02 -2.918975276816622e+03
-1.147170927437060e+03 -1.342188850532441e+02 -2.918975276816622e+03
-1.147233741739178e+03 -1.350750622452940e+02 -2.918975276816622e+03
-1.147469116448748e+03 -1.371065498813371e+02 -2.918975276816622e+03
-1.147586160868271e+03 -1.392625698143307e+02 -2.918975276816622e+03
-1.147663340784721e+03 -1.406999673999200e+02 -2.918975276816622e+03
-1.147689500715390e+03 -1.422444871842734e+02 -2.918975276816622e+03
-1.147738956767798e+03 -1.436751440308122e+02 -2.918975276816622e+03
-1.147737875129158e+03 -1.451320225152584e+02 -2.918975276816622e+03
-1.147763042252730e+03 -1.466295508066187e+02 -2.918975276816622e+03
-1.147775051430875e+03 -1.483957464820079e+02 -2.918975276816622e+03
-1.147779562457421e+03 -1.499912936854128e+02 -2.918975276816622e+03
-1.147768309909714e+03 -1.511805272571401e+02 -2.918975276816622e+03
-1.147765164117326e+03 -1.530275941702351e+02 -2.918975276816622e+03
-1.147961747782724e+03 -1.541431532430435e+02 -2.918975276816622e+03
-1.148033937166329e+03 -1.551287781204462e+02 -2.918975276816622e+03
-1.147867340838475e+03 -1.580880416224579e+02 -2.918975276816622e+03
-1.147782261729804e+03 -1.606990546119210e+02 -2.918975276816622e+03
-1.147825566154236e+03 -1.622141126314102e+02 -2.918975276816622e+03
-1.147867364200681e+03 -1.639717636992985e+02 -2.918975276816622e+03
-1.147840354363669e+03 -1.659640380517676e+02 -2.918975276816622e+03
-1.147850895717726e+03 -1.684054075342594e+02 -2.918975276816622e+03
-1.147908594667909e+03 -1.699954367783690e+02 -2.918975276816622e+03
-1.147995081626577e+03 -1.713515050434108e+02 -2.918975276816622e+03
-1.148077288564749e+03 -1.732393679289356e+02 -2.918975276816622e+03
-1.147898025949833e+03 -1.740394191773024e+02 -2.918975276816622e+03
-1.147761883065507e+03 -1.748077599751406e+02 -2.918975276816622e+03
-1.147825181759662e+03 -1.769907806436147e+02 -2.918975276816622e+03
-1.147828063334735e+03 -1.792454418883545e+02 -2.918975276816622e+03
-1.147803422717900e+03 -1.807334012724959e+02 -2.918975276816622e+03
-1.147781531867625e+03 -1.822210287740270e+02 -2.918975276816622e+03
-1.147828052903961e+03 -1.839368353285251e+02 -2.918975276816622e+03
-1.147802607862073e+03 -1.859158369067334e+02 -2.918975276816622e+03
-1.147725876967082e+03 -1.883237016871013e+02 -2.918975276816622e+03
-1.147676867862883e+03 -1.898734173835147e+02 -2.918975276816622e+03
-1.147648838211827e+03 -1.910745188316106e+02 -2.918975276816622e+03
-1.147569375654772e+03 -1.929312053065881e+02 -2.918975276816622e+03
-1.147562459175102e+03 -1.941501854194400e+02 -2.918975276816622e+03
-1.147585470616355e+03 -1.952096375886825e+02 -2.918975276816622e+03
-1.147606443891637e+03 -1.980765715706761e+02 -2.918975276816622e+03
-1.147634271813630e+03 -2.006107194214976e+02 -2.918975276816622e+03
-1.147595500731005e+03 -2.021204845531462e+02 -2.918975276816622e+03
-1.147638685536891e+03 -2.035851383186252e+02 -2.918975276816622e+03
-1.147686777822495e+03 -2.050419627533949e+02 -2.918975276816622e+03
-1.147797487744034e+03 -2.065567926968932e+02 -2.918975276816622e+03
-1.147931462228307e+03 -2.083266829487158e+02 -2.918975276816622e+03
-1.148003754972661e+03 -2.099782810979312e+02 -2.918975276816622e+03
-1.147914546353343e+03 -2.114024975023088e+02 -2.918975276816622e+03
-1.147771077974889e+03 -2.133429315453284e+02 -2.918975276816622e+03
-1.147925720268446e+03 -2.141286500751278e+02 -2.918975276816622e+03
-1.148063720293643e+03 -2.148029317186424e+02 -2.918975276816622e+03
-1.147971793894021e+03 -2.169257570849722e+02 -2.918975276816622e+03
-1.147894788425337e+03 -2.191788819470362e+02 -2.918975276816622e+03
-1.147829895407744e+03 -2.206682530356763e+02 -2.918975276816622e+03
-1.147791867742289e+03 -2.221532299163127e+02 -2.918975276816622e+03
-1.147808450982588e+03 -2.238677061964717e+02 -2.918975276816622e+03
-1.147754161786850e+03 -2.258550491618497e+02 -2.918975276816622e+03
-1.147669381004860e+03 -2.282694672090272e+02 -2.918975276816622e+03
-1.147617125242942e+03 -2.298289929009398e+02 -2.918975276816622e+03
-1.147422719714090e+03 -2.310677678107487e+02 -2.918975276816622e+03
-1.147219051644735e+03 -2.328695100831452e+02 -2.918975276816622e+03
-1.147246927222744e+03 -2.338102400524355e+02 -2.918975276816622e+03
-1.147416312953548e+03 -2.346883437083905e+02 -2.918975276816622e+03
-1.147551045458329e+03 -2.368365306367678e+02 -2.918975276816622e+03
-1.147623654039171e+03 -2.391376811957977e+02 -2.918975276816622e+03
-1.147680290591608e+03 -2.406668779700314e+02 -2.918975276816622e+03
-1.147721246406834e+03 -2.421742007741564e+02 -2.918975276816622e+03
-1.147732249792920e+03 -2.438102729755676e+02 -2.918975276816622e+03
-1.147720964106810e+03 -2.457266824792119e+02 -2.918975276816622e+03
-1.147744627296092e+03 -2.470304120892370e+02 -2.918975276816622e+03
-1.147803467661322e+03 -2.484430576470664e+02 -2.918975276816622e+03
-1.147786188522275e+03 -2.503126568997566e+02 -2.918975276816622e+03
-1.147775300158860e+03 -2.512194219703059e+02 -2.918975276816622e+03
-1.147758400196121e+03 -2.527826148903001e+02 -2.918975276816622e+03
-1.147769615656928e+03 -2.545846729815514e+02 -2.918975276816622e+03
-1.147815262043118e+03 -2.563270212745883e+02 -2.918975276816622e+03
-1.147778662478415e+03 -2.575994346764266e+02 -2.918975276816622e+03
-1.147774929345800e+03 -2.589899547933342e+02 -2.918975276816622e+03
-1.147857820026554e+03 -2.605541512812501e+02 -2.918975276816622e+03
-1.147811229316974e+03 -2.620193324454696e+02 -2.918975276816622e+03
-1.147787460393795e+03 -2.645456013428920e+02 -2.918975276816622e+03
-1.147882445797643e+03 -2.666821731924191e+02 -2.918975276816622e+03
-1.148374478769187e+03 -2.677582099343172e+02 -2.918975276816622e+03
-1.148639391489199e+03 -2.684910023996555e+02 -2.918975276816622e+03
-1.148218605055185e+03 -2.694832582423116e+02 -2.918975276816622e+03
-1.147910399118770e+03 -2.707647469619520e+02 -2.918975276816622e+03
-1.147734215043891e+03 -2.726798752812663e+02 -2.918975276816622e+03
-1.147714429890165e+03 -2.747866871759431e+02 -2.918975276816622e+03
-1.147807769278940e+03 -2.764320378145813e+02 -2.918975276816622e+03
-1.147964375569195e+03 -2.787763260987138e+02 -2.918975276816622e+03
-1.148205505973336e+03 -2.808939204763541e+02 -2.918975276816622e+03
-1.149142163761601e+03 -2.816207259654188e+02 -2.918975276816622e+03
-1.148906767929066e+03 -2.827882209613493e+02 -2.918975276816622e+03
-1.147996072217552e+03 -2.841402469411979e+02 -2.918975276816622e+03
-1.147902459773619e+03 -2.848117240500623e+02 -2.918975276816622e+03
-1.147739750114260e+03 -2.856494022629448e+02 -2.918975276816622e+03
-1.147823441148707e+03 -2.869625405605705e+02 -2.918975276816622e+03
-1.148306952563285e+03 -2.888489994507643e+02 -2.918975276816622e+03
-1.148308738636036e+03 -2.899249192448386e+02 -2.918975276816622e+03
-1.147957370016588e+03 -2.911879936022071e+02 -2.918975276816622e+03
-1.148114841852934e+03 -2.937474719936955e+02 -2.918975276816622e+03
-1.148062909558206e+03 -2.967814008958933e+02 -2.918975276816622e+03
-1.148132660430203e+03 -2.993396516071742e+02 -2.918975276816622e+03
-1.148341735487072e+03 -3.019332129615880e+02 -2.918975276816622e+03
-1.148341747019149e+03 -3.040491415209829e+02 -2.918975276816622e+03
-1.148431996998174e+03 -3.058340997450613e+02 -2.918975276816622e+03
-1.148673059251757e+03 -3.089426501678354e+02 -2.918975276816622e+03
-1.148929440305888e+03 -3.123207381435770e+02 -2.918975276816622e+03
-1.149067536199837e+03 -3.157374432114766e+02 -2.918975276816622e+03
-1.149280393581093e+03 -3.178826365314577e+02 -2.918975276816622e+03
-1.149280140613642e+03 -3.188558853113448e+02 -2.918975276816622e+03
-1.150320400122689e+03 -3.197483233213921e+02 -2.918975276816622e+03
-1.150352896411451e+03 -3.209717547606675e+02 -2.918975276816622e+03
-1.149276256570279e+03 -3.230635106232797e+02 -2.918975276816622e+03
-1.148866397332716e+03 -3.246796945881927e+02 -2.918975276816622e+03
-1.148330492157793e+03 -3.265606335404913e+02 -2.918975276816622e+03
-1.147674003525266e+03 -3.283508524947716e+02 -2.918975276816622e+03
-1.147956874633051e+03 -3.295991766624525e+02 -2.918975276816622e+03
-1.147749848336722e+03 -3.315508603908189e+02 -2.918975276816622e+03
-1.147152830085215e+03 -3.327715985756047e+02 -2.918975276816622e+03
-1.147672112434432e+03 -3.339439572719359e+02 -2.918975276816622e+03
-1.148081293105549e+03 -3.356704489812074e+02 -2.918975276816622e+03
-1.148355407770428e+03 -3.366776880403096e+02 -2.918975276816622e+03
-1.148240710626599e+03 -3.378855519806979e+02 -2.918975276816622e+03
-1.148006768395034e+03 -3.409840742335590e+02 -2.918975276816622e+03
-1.147553014842033e+03 -3.441885144662359e+02 -2.918975276816622e+03
-1.147227128628218e+03 -3.461288206036778e+02 -2.918975276816622e+03
-1.147529109502679e+03 -3.470933157479787e+02 -2.918975276816622e+03
-1.147737486006427e+03 -3.482465049694162e+02 -2.918975276816622e+03
-1.147799705735036e+03 -3.508560160310528e+02 -2.918975276816622e+03
-1.147827485943374e+03 -3.530203852413692e+02 -2.918975276816622e+03
-1.148651736896925e+03 -3.540843369327173e+02 -2.918975276816622e+03
-1.149157669100533e+03 -3.551529198597482e+02 -2.918975276816622e+03
-1.148557015217983e+03 -3.561825823327383e+02 -2.918975276816622e+03
-1.148101681739627e+03 -3.570805231773143e+02 -2.918975276816622e+03
-1.147947746837336e+03 -3.578900645109478e+02 -2.918975276816622e+03
-1.148091822826505e+03 -3.585581204639866e+02 -2.918975276816622e+03
-1.148098537371141e+03 -3.596168295548849e+02 -2.918975276816622e+03
-1.148000598296320e+03 -3.605963520071853e+02 -2.918975276816622e+03
-1.147854963614039e+03 -3.616098785864107e+02 -2.918975276816622e+03
-1.147739838915724e+03 -3.632546108259182e+02 -2.918975276816622e+03
-1.147726752140165e+03 -3.644160896563930e+02 -2.918975276816622e+03
-1.147971332950148e+03 -3.659377005437110e+02 -2.918975276816622e+03
-1.148030649546325e+03 -3.683992478725030e+02 -2.918975276816622e+03
-1.147963302907028e+03 -3.706467170901195e+02 -2.918975276816622e+03
-1.147716762502657e+03 -3.727267157682231e+02 -2.918975276816622e+03
-1.147944678936892e+03 -3.740351854422975e+02 -2.918975276816622e+03
-1.148569085317704e+03 -3.753743321625600e+02 -2.918975276816622e+03
-1.148504717298848e+03 -3.770818453488014e+02 -2.918975276816622e+03
-1.148018424329536e+03 -3.787042987371707e+02 -2.918975276816622e+03
-1.147891956970741e+03 -3.799096290441354e+02 -2.918975276816622e+03
-1.147927401021456e+03 -3.812430005578340e+02 -2.918975276816622e+03
-1.147979739521971e+03 -3.842198212764598e+02 -2.918975276816622e+03
-1.148046432978754e+03 -3.862227872838089e+02 -2.918975276816622e+03
-1.148094365652921e+03  3.821511365550682e+02 -2.918975276816622e+03
-1.148139241856894e+03  3.797731191249140e+02 -2.918975276816622e+03
-1.148059828212299e+03  3.848630197113053e+02 -2.918975276816622e+03
-1.148152951859874e+03  3.779375058868783e+02 -2.918975276816622e+03
-1.148139673645005e+03  3.769198217134716e+02 -2.918975276816622e+03
-1.148149572394234e+03  3.751068208227483e+02 -2.918975276816622e+03
-1.148177109564323e+03  3.723822735025333e+02 -2.918975276816622e+03
-1.148203286174321e+03  3.698170213426532e+02 -2.918975276816622e+03
-1.148414336859808e+03  3.671227238471633e+02 -2.918975276816622e+03
-1.148070503631871e+03  3.657139075169199e+02 -2.918975276816622e+03
-1.147698798197719e+03  3.642572216890009e+02 -2.918975276816622e+03
-1.148038978546267e+03  3.613381398625498e+02 -2.918975276816622e+03
-1.148298330515768e+03  3.588085593429938e+02 -2.918975276816622e+03
-1.148542506240453e+03  3.562418144227623e+02 -2.918975276816622e+03
-1.148704024060968e+03  3.537058995279186e+02 -2.918975276816622e+03
-1.148752020195863e+03  3.517840644110632e+02 -2.918975276816622e+03
-1.148518932159918e+03  3.498180848637693e+02 -2.918975276816622e+03
-1.148277439662706e+03  3.474335740101735e+02 -2.918975276816622e+03
-1.148528933333354e+03  3.453595340992582e+02 -2.918975276816622e+03
-1.148926895526053e+03  3.432241058167064e+02 -2.918975276816622e+03
-1.149128559827237e+03  3.414072092232939e+02 -2.918975276816622e+03
-1.148951048349861e+03  3.396406920075191e+02 -2.918975276816622e+03
-1.149308349776779e+03  3.364238606952909e+02 -2.918975276816622e+03
-1.149797026243078e+03  3.345081925276365e+02 -2.918975276816622e+03
-1.149453684151391e+03  3.333113903498954e+02 -2.918975276816622e+03
-1.148903688837129e+03  3.309397913776917e+02 -2.918975276816622e+03
-1.148590163554078e+03  3.287455913462770e+02 -2.918975276816622e+03
-1.148302693278112e+03  3.269465561771117e+02 -2.918975276816622e+03
-1.148074999882454e+03  3.249808533255035e+02 -2.918975276816622e+03
-1.147842633780814e+03  3.236816691591466e+02 -2.918975276816622e+03
-1.147746838262491e+03  3.223431045546251e+02 -2.918975276816622e+03
-1.147601756350685e+03  3.205481993218968e+02 -2.918975276816622e+03
-1.147407487868441e+03  3.186389735976203e+02 -2.918975276816622e+03
-1.147100708255306e+03  3.153443373292912e+02 -2.918975276816622e+03
-1.146990407977642e+03  3.128290001286401e+02 -2.918975276816622e+03
-1.147177849475090e+03  3.110270237541067e+02 -2.918975276816622e+03
-1.147169013729940e+03  3.083984301279182e+02 -2.918975276816622e+03
-1.147073570888800e+03  3.058028595362770e+02 -2.918975276816622e+03
-1.147314826507630e+03  3.041091707765700e+02 -2.918975276816622e+03
-1.147274021273439e+03  3.029216626186102e+02 -2.918975276816622e+03
-1.146823981383457e+03  3.019057753483961e+02 -2.918975276816622e+03
-1.146752294839286e+03  3.006367684312899e+02 -2.918975276816622e+03
-1.147055753025383e+03  2.978507311791434e+02 -2.918975276816622e+03
-1.147513638116577e+03  2.957136046594633e+02 -2.918975276816622e+03
-1.147535507351869e+03  2.944809688577148e+02 -2.918975276816622e+03
-1.147588695751846e+03  2.924275236754546e+02 -2.918975276816622e+03
-1.147744216474428e+03  2.901508817886859e+02 -2.918975276816622e+03
-1.147809928902179e+03  2.887558427423790e+02 -2.918975276816622e+03
-1.147906150569336e+03  2.873731407705006e+02 -2.918975276816622e+03
-1.147948443718021e+03  2.847064570115108e+02 -2.918975276816622e+03
-1.147985377740779e+03  2.825810197565612e+02 -2.918975276816622e+03
-1.147993007140820e+03  2.810424015420670e+02 -2.918975276816622e+03
-1.147839418748583e+03  2.790489662316084e+02 -2.918975276816622e+03
-1.147855853320230e+03  2.771030923366314e+02 -2.918975276816622e+03
-1.147953431036660e+03  2.759461266508022e+02 -2.918975276816622e+03
-1.147915819369014e+03  2.749566065962183e+02 -2.918975276816622e+03
-1.147829638889303e+03  2.729662629632182e+02 -2.918975276816622e+03
-1.147764846364981e+03  2.713050784884302e+02 -2.918975276816622e+03
-1.147740187073490e+03  2.700289630938345e+02 -2.918975276816622e+03
-1.147630740309307e+03  2.679319970604200e+02 -2.918975276816622e+03
-1.147627661794973e+03  2.661456807930689e+02 -2.918975276816622e+03
-1.147707034143951e+03  2.643180924722436e+02 -2.918975276816622e+03
-1.147682043203949e+03  2.620623192206855e+02 -2.918975276816622e+03
-1.147642556216892e+03  2.605363976305546e+02 -2.918975276816622e+03
-1.147684659302748e+03  2.590153074435089e+02 -2.918975276816622e+03
-1.147693895806811e+03  2.573732615272439e+02 -2.918975276816622e+03
-1.147677782351217e+03  2.554138624605169e+02 -2.918975276816622e+03
-1.147763456629477e+03  2.541231145091346e+02 -2.918975276816622e+03
-1.147843802103550e+03  2.527681676279378e+02 -2.918975276816622e+03
-1.147777194043315e+03  2.508701521996416e+02 -2.918975276816622e+03
-1.147741028552290e+03  2.499298145553193e+02 -2.918975276816622e+03
-1.147707815134299e+03  2.483532449626213e+02 -2.918975276816622e+03
-1.147692759892352e+03  2.464976513481039e+02 -2.918975276816622e+03
-1.147687497883335e+03  2.447275174529830e+02 -2.918975276816622e+03
-1.147609275614943e+03  2.434917877667281e+02 -2.918975276816622e+03
-1.147599721607412e+03  2.420268184770019e+02 -2.918975276816622e+03
-1.147633248823770e+03  2.403997202926557e+02 -2.918975276816622e+03
-1.147636885736190e+03  2.393358796465291e+02 -2.918975276816622e+03
-1.147627427643501e+03  2.374426520809233e+02 -2.918975276816622e+03
-1.147625292549694e+03  2.358550436270961e+02 -2.918975276816622e+03
-1.147651910516610e+03  2.347248849029762e+02 -2.918975276816622e+03
-1.147664297678234e+03  2.330454760255249e+02 -2.918975276816622e+03
-1.147568314924198e+03  2.312297076859038e+02 -2.918975276816622e+03
-1.147537287278977e+03  2.297691824938562e+02 -2.918975276816622e+03
-1.147581371022527e+03  2.281687444505026e+02 -2.918975276816622e+03
-1.147543212511574e+03  2.267080429220249e+02 -2.918975276816622e+03
-1.147473555217226e+03  2.252682705398533e+02 -2.918975276816622e+03
-1.147366429778034e+03  2.238063957285260e+02 -2.918975276816622e+03
-1.147235628012604e+03  2.220330372256865e+02 -2.918975276816622e+03
-1.147163656011530e+03  2.205547790987719e+02 -2.918975276816622e+03
-1.146954152674610e+03  2.193825012091641e+02 -2.918975276816622e+03
-1.146064626093604e+03  2.172971917493290e+02 -2.918975276816622e+03
-1.145723452291426e+03  2.160425955443988e+02 -2.918975276816622e+03
-1.146481240622980e+03  2.150884467706389e+02 -2.918975276816622e+03
-1.146737913560306e+03  2.135889109666270e+02 -2.918975276816622e+03
-1.146921118547615e+03  2.124176073317603e+02 -2.918975276816622e+03
-1.147154352556031e+03  2.111095954864551e+02 -2.918975276816622e+03
-1.147249468092911e+03  2.097741062393570e+02 -2.918975276816622e+03
-1.147328510703163e+03  2.082458330717676e+02 -2.918975276816622e+03
-1.147424078121960e+03  2.067434939311932e+02 -2.918975276816622e+03
-1.147521499522710e+03  2.052884854010192e+02 -2.918975276816622e+03
-1.147587405057996e+03  2.038341639618626e+02 -2.918975276816622e+03
-1.147648093794637e+03  2.020287831289404e+02 -2.918975276816622e+03
-1.147614001287620e+03  2.003361050395586e+02 -2.918975276816622e+03
-1.147618987110153e+03  1.992860229237132e+02 -2.918975276816622e+03
-1.147720820020775e+03  1.974325300452029e+02 -2.918975276816622e+03
-1.147483738291771e+03  1.959975173868665e+02 -2.918975276816622e+03
-1.147351241880872e+03  1.951123982246930e+02 -2.918975276816622e+03
-1.147565758635200e+03  1.932940954996287e+02 -2.918975276816622e+03
-1.147583485960795e+03  1.912135771745050e+02 -2.918975276816622e+03
-1.147553032368665e+03  1.897260390509117e+02 -2.918975276816622e+03
-1.147524068031207e+03  1.882180027580981e+02 -2.918975276816622e+03
-1.147528575936460e+03  1.867816269027459e+02 -2.918975276816622e+03
-1.147538030238914e+03  1.853408680330793e+02 -2.918975276816622e+03
-1.147487468121314e+03  1.838814178418317e+02 -2.918975276816622e+03
-1.147379175109741e+03  1.821004802349902e+02 -2.918975276816622e+03
-1.147309933311787e+03  1.805700231649763e+02 -2.918975276816622e+03
-1.147134212217451e+03  1.793642696965567e+02 -2.918975276816622e+03
-1.146665175041184e+03  1.774909790420254e+02 -2.918975276816622e+03
-1.146814001383932e+03  1.765029956882255e+02 -2.918975276816622e+03
-1.147487144677883e+03  1.757728684510971e+02 -2.918975276816622e+03
-1.147223375016673e+03  1.753261596806558e+02 -2.918975276816622e+03
-1.147091175858912e+03  1.745138763606530e+02 -2.918975276816622e+03
-1.147854123776494e+03  1.726023212944703e+02 -2.918975276816622e+03
-1.147915817571473e+03  1.709638742672833e+02 -2.918975276816622e+03
-1.147366236277619e+03  1.697090930381262e+02 -2.918975276816622e+03
-1.147254915581685e+03  1.682590375019069e+02 -2.918975276816622e+03
-1.147361323840039e+03  1.668042494338204e+02 -2.918975276816622e+03
-1.147472287727008e+03  1.653700840615101e+02 -2.918975276816622e+03
-1.147526981191566e+03  1.639061713598172e+02 -2.918975276816622e+03
-1.147542462364187e+03  1.621050538283509e+02 -2.918975276816622e+03
-1.147545886977646e+03  1.604917020696309e+02 -2.918975276816622e+03
-1.147304460894741e+03  1.592425515999309e+02 -2.918975276816622e+03
-1.146926167431265e+03  1.574665461035498e+02 -2.918975276816622e+03
-1.146982002829670e+03  1.565902435313236e+02 -2.918975276816622e+03
-1.147341099140677e+03  1.557512230958523e+02 -2.918975276816622e+03
-1.146350706932246e+03  1.546243532012571e+02 -2.918975276816622e+03
-1.146122289032066e+03  1.536975981863073e+02 -2.918975276816622e+03
-1.147168102994196e+03  1.524177944783339e+02 -2.918975276816622e+03
-1.147295415366716e+03  1.509951646963688e+02 -2.918975276816622e+03
-1.147109699439699e+03  1.497276453294966e+02 -2.918975276816622e+03
-1.147085016983647e+03  1.482698616720973e+02 -2.918975276816622e+03
-1.147229373709597e+03  1.468299139518554e+02 -2.918975276816622e+03
-1.147309695290007e+03  1.454139212003609e+02 -2.918975276816622e+03
-1.147409619551525e+03  1.439538555241698e+02 -2.918975276816622e+03
-1.147430038995939e+03  1.421898372413155e+02 -2.918975276816622e+03
-1.147287985786664e+03  1.407957106908776e+02 -2.918975276816622e+03
-1.147135889402168e+03  1.396259652491603e+02 -2.918975276816622e+03
-1.146805177038615e+03  1.377269012477302e+02 -2.918975276816622e+03
-1.146538560090520e+03  1.366772213540022e+02 -2.918975276816622e+03
-1.146866154939453e+03  1.354510767237890e+02 -2.918975276816622e+03
-1.146973835660230e+03  1.336851011513160e+02 -2.918975276816622e+03
-1.147157855937757e+03  1.317323844286953e+02 -2.918975276816622e+03
-1.147551299928820e+03  1.298511625497015e+02 -2.918975276816622e+03
-1.147622352570806e+03  1.282876758491995e+02 -2.918975276816622e+03
-1.147648854045962e+03  1.265658051359141e+02 -2.918975276816622e+03
-1.147620827163157e+03  1.245819578159685e+02 -2.918975276816622e+03
-1.147565155598666e+03  1.221917934045101e+02 -2.918975276816622e+03
-1.147553467702180e+03  1.205621072631890e+02 -2.918975276816622e+03
-1.147687660058436e+03  1.190023918379480e+02 -2.918975276816622e+03
-1.147732924762563e+03  1.163459614509026e+02 -2.918975276816622e+03
-1.147688838202445e+03  1.138438582281019e+02 -2.918975276816622e+03
-1.147693854548027e+03  1.124737852887846e+02 -2.918975276816622e+03
-1.147642708174790e+03  1.112693331286177e+02 -2.918975276816622e+03
-1.147632364255193e+03  1.099409367453117e+02 -2.918975276816622e+03
-1.147716711109378e+03  1.083278629714820e+02 -2.918975276816622e+03
-1.147904872688245e+03  1.066887510519446e+02 -2.918975276816622e+03
-1.147947034956306e+03  1.053823169446570e+02 -2.918975276816622e+03
-1.147899287142621e+03  1.040375107827396e+02 -2.918975276816622e+03
-1.147913897662155e+03  1.022535117401969e+02 -2.918975276816622e+03
-1.147889800853274e+03  1.006096080025847e+02 -2.918975276816622e+03
-1.147903482929979e+03  9.943003385608745e+01 -2.918975276816622e+03
-1.147917120866751e+03  9.795317630132946e+01 -2.918975276816622e+03
-1.147940198202207e+03  9.624393881750866e+01 -2.918975276816622e+03
-1.147852023607917e+03  9.332670597361474e+01 -2.918975276816622e+03
-1.147733100554515e+03  9.018622883598441e+01 -2.918975276816622e+03
-1.147476487569731e+03  8.773256310214587e+01 -2.918975276816622e+03
-1.147452409608174e+03  8.610874331522051e+01 -2.918975276816622e+03
-1.146481948435093e+03  8.510717047004701e+01 -2.918975276816622e+03
-1.146293095682254e+03  8.389276945221741e+01 -2.918975276816622e+03
-1.147375883535070e+03  8.311297943885513e+01 -2.918975276816622e+03
-1.147634022574497e+03  8.174135490362750e+01 -2.918975276816622e+03
-1.147702919902690e+03  7.956782553736426e+01 -2.918975276816622e+03
-1.147803191546657e+03  7.733194593493832e+01 -2.918975276816622e+03
-1.148021930793688e+03  7.490906862997988e+01 -2.918975276816622e+03
-1.148078089416113e+03  7.271421916606768e+01 -2.918975276816622e+03
-1.148085356481084e+03  7.123265992839845e+01 -2.918975276816622e+03
-1.148028109017385e+03  6.937223636499866e+01 -2.918975276816622e+03
-1.148030337110948e+03  6.768692705280354e+01 -2.918975276816622e+03
-1.148067708898623e+03  6.648753263101375e+01 -2.918975276816622e+03
-1.148048336685390e+03  6.379773434525937e+01 -2.918975276816622e+03
-1.147910407964670e+03  6.094645995489925e+01 -2.918975276816622e+03
-1.147997852736927e+03  5.987156406182489e+01 -2.918975276816622e+03
-1.148108960847171e+03  5.866483694773405e+01 -2.918975276816622e+03
-1.147977109699104e+03  5.629874386671449e+01 -2.918975276816622e+03
-1.147851949022129e+03  5.408356685349418e+01 -2.918975276816622e+03
-1.147889814924391e+03  5.218359266510971e+01 -2.918975276816622e+03
-1.147905823150327e+03  5.046670646623222e+01 -2.918975276816622e+03
-1.147888905934195e+03  4.876552324430961e+01 -2.918975276816622e+03
-1.147904334147277e+03  4.728694180606917e+01 -2.918975276816622e+03
-1.147894942045098e+03  4.652252378622809e+01 -2.918975276816622e+03
-1.147864242466140e+03  4.550040085449006e+01 -2.918975276816622e+03
-1.147932014562229e+03  4.405883388554734e+01 -2.918975276816622e+03
-1.147908540991760e+03  4.270074251148517e+01 -2.918975276816622e+03
-1.147939139213006e+03  4.116003054116728e+01 -2.918975276816622e+03
-1.147872374816743e+03  3.910629874712121e+01 -2.918975276816622e+03
-1.147846775983770e+03  3.660591838804961e+01 -2.918975276816622e+03
-1.148038582838704e+03  3.362806112813053e+01 -2.918975276816622e+03
-1.148480126793302e+03  3.031342850966676e+01 -2.918975276816622e+03
-1.148446154029311e+03  2.693592393177373e+01 -2.918975276816622e+03
-1.148320906575994e+03  2.450204370313044e+01 -2.918975276816622e+03
-1.148260902190958e+03  2.312394996448193e+01 -2.918975276816622e+03
-1.147875205807275e+03  2.209829179283850e+01 -2.918975276816622e+03
-1.147396287904262e+03  2.100716894779056e+01 -2.918975276816622e+03
-1.146984132490506e+03  2.003847936572911e+01 -2.918975276816622e+03
-1.147505984233462e+03  1.890789794290988e+01 -2.918975276816622e+03
-1.148024826037672e+03  1.718553210026990e+01 -2.918975276816622e+03
-1.148430389704394e+03  1.549062858598420e+01 -2.918975276816622e+03
-1.148463621448665e+03  1.426009359328174e+01 -2.918975276816622e+03
-1.148068413352796e+03  1.261676465491795e+01 -2.918975276816622e+03
-1.148236754929296e+03  9.423185565137318e+00 -2.918975276816622e+03
-1.148875575071040e+03  7.042798007202683e+00 -2.918975276816622e+03
-1.148958046134804e+03  5.820246394551819e+00 -2.918975276816622e+03
 1.145808723132058e+03 -1.639228428573741e+00  2.918975276816622e+03
1.145818587305219e+03 9.782897209751706e-01 2.918975276816622e+03
 1.145779486425756e+03 -3.223533967505998e+00  2.918975276816622e+03
 1.145917414204215e+03 -4.269912942962041e+00  2.918975276816622e+03
 1.145887256413066e+03 -5.606685903354980e+00  2.918975276816622e+03
 1.145923412778867e+03 -7.776305545127022e+00  2.918975276816622e+03
 1.145822469410267e+03 -9.391317724657888e+00  2.918975276816622e+03
 1.145702255526019e+03 -1.084060968144233e+01  2.918975276816622e+03
 1.145720009481519e+03 -1.258952398052939e+01  2.918975276816622e+03
 1.145696357843353e+03 -1.524404834466006e+01  2.918975276816622e+03
 1.145621410665550e+03 -1.821050694746739e+01  2.918975276816622e+03
 1.145556712162769e+03 -2.049402482671563e+01  2.918975276816622e+03
 1.145464050184393e+03 -2.276335319814282e+01  2.918975276816622e+03
 1.145421530296636e+03 -2.499786043852543e+01  2.918975276816622e+03
 1.145353469907602e+03 -2.695594575888799e+01  2.918975276816622e+03
 1.145361442923635e+03 -2.886985622616347e+01  2.918975276816622e+03
 1.145356712843901e+03 -3.014847347132129e+01  2.918975276816622e+03
 1.145270824317505e+03 -3.110574016688344e+01  2.918975276816622e+03
 1.145222195491023e+03 -3.257438207125396e+01  2.918975276816622e+03
 1.145122114793301e+03 -3.450250007236092e+01  2.918975276816622e+03
 1.145044546646089e+03 -3.690427707762719e+01  2.918975276816622e+03
 1.144950326839197e+03 -3.872478135783743e+01  2.918975276816622e+03
 1.144895957704287e+03 -4.054653836292791e+01  2.918975276816622e+03
 1.144855857098523e+03 -4.342461542099870e+01  2.918975276816622e+03
 1.144703955047598e+03 -4.549930074259272e+01  2.918975276816622e+03
 1.144848081016680e+03 -4.656310389312099e+01  2.918975276816622e+03
 1.145079384180805e+03 -4.817722024179012e+01  2.918975276816622e+03
 1.145164224494161e+03 -4.969753092917563e+01  2.918975276816622e+03
 1.145226740714107e+03 -5.192427813131035e+01  2.918975276816622e+03
 1.145385006505059e+03 -5.432389299442180e+01  2.918975276816622e+03
 1.145489611728247e+03 -5.571968649954231e+01  2.918975276816622e+03
 1.145537791839738e+03 -5.749016785295850e+01  2.918975276816622e+03
 1.145606904935776e+03 -5.948115992832205e+01  2.918975276816622e+03
 1.145590666654361e+03 -6.123100763043604e+01  2.918975276816622e+03
 1.145275359567652e+03 -6.285618114043513e+01  2.918975276816622e+03
 1.145237840378401e+03 -6.452945652372770e+01  2.918975276816622e+03
 1.145550804506277e+03 -6.589293969915005e+01  2.918975276816622e+03
 1.145492942647920e+03 -6.694139222606536e+01  2.918975276816622e+03
 1.145428200610365e+03 -6.818276508651994e+01  2.918975276816622e+03
 1.145457605220211e+03 -6.957791919886768e+01  2.918975276816622e+03
 1.145470550428880e+03 -7.150069015446600e+01  2.918975276816622e+03
 1.145369481635055e+03 -7.381720884384181e+01  2.918975276816622e+03
 1.145353837672676e+03 -7.685754697111234e+01  2.918975276816622e+03
 1.145292276421135e+03 -7.967544089987433e+01  2.918975276816622e+03
 1.145232707923757e+03 -8.139151685902193e+01  2.918975276816622e+03
 1.145213887491585e+03 -8.286230908089411e+01  2.918975276816622e+03
 1.145254732775072e+03 -8.409065327173620e+01  2.918975276816622e+03
 1.145305894699726e+03 -8.497992897365276e+01  2.918975276816622e+03
 1.145505190019281e+03 -8.579962374461400e+01  2.918975276816622e+03
 1.145676388203339e+03 -8.681471340788711e+01  2.918975276816622e+03
 1.145651629349276e+03 -8.809198192419797e+01  2.918975276816622e+03
 1.145562167671105e+03 -8.953248523923435e+01  2.918975276816622e+03
 1.145361746931718e+03 -9.135529801038874e+01  2.918975276816622e+03
 1.145237279331561e+03 -9.358073833066565e+01  2.918975276816622e+03
 1.145222389027297e+03 -9.635551328629165e+01  2.918975276816622e+03
 1.145279923027471e+03 -9.867727329144537e+01  2.918975276816622e+03
 1.145389806582084e+03 -1.005452772992398e+02  2.918975276816622e+03
 1.145420434834579e+03 -1.022587410357223e+02  2.918975276816622e+03
 1.145440348262400e+03 -1.034526538589334e+02  2.918975276816622e+03
 1.145517940051029e+03 -1.042908537442600e+02  2.918975276816622e+03
 1.145558782960148e+03 -1.049606229190039e+02  2.918975276816622e+03
 1.145415113310645e+03 -1.057982842667897e+02  2.918975276816622e+03
 1.145386368733931e+03 -1.066940505073854e+02  2.918975276816622e+03
 1.145444021279694e+03 -1.079909449828378e+02  2.918975276816622e+03
 1.145225605196609e+03 -1.094638348846205e+02  2.918975276816622e+03
 1.144994867406377e+03 -1.114449180136151e+02  2.918975276816622e+03
 1.144751220245893e+03 -1.138982492847744e+02  2.918975276816622e+03
 1.144716198886799e+03 -1.162388778452874e+02  2.918975276816622e+03
 1.144889803329093e+03 -1.184668036951541e+02  2.918975276816622e+03
 1.144897753929735e+03 -1.200627565214258e+02  2.918975276816622e+03
 1.144729505266033e+03 -1.210082586366879e+02  2.918975276816622e+03
 1.144016978298552e+03 -1.224773083170203e+02  2.918975276816622e+03
 1.144867373392918e+03 -1.238297514265609e+02  2.918975276816622e+03
 1.146290977101782e+03 -1.242816086749995e+02  2.918975276816622e+03
 1.146311873338258e+03 -1.250796901894849e+02  2.918975276816622e+03
 1.146174654124128e+03 -1.262540735673014e+02  2.918975276816622e+03
 1.145964824688091e+03 -1.270440982229033e+02  2.918975276816622e+03
 1.145951651590698e+03 -1.280571329354282e+02  2.918975276816622e+03
 1.145911572463050e+03 -1.294983509195525e+02  2.918975276816622e+03
 1.145715120624293e+03 -1.313441388632567e+02  2.918975276816622e+03
 1.145379614358573e+03 -1.335618058335385e+02  2.918975276816622e+03
 1.145133615757097e+03 -1.362467364330886e+02  2.918975276816622e+03
 1.145144954891143e+03 -1.385347048434442e+02  2.918975276816622e+03
 1.145280212476013e+03 -1.404563865844667e+02  2.918975276816622e+03
 1.145154331595885e+03 -1.415449819050176e+02  2.918975276816622e+03
 1.145107967622209e+03 -1.422277691195169e+02  2.918975276816622e+03
 1.145210596386064e+03 -1.438544633997628e+02  2.918975276816622e+03
 1.145297038115867e+03 -1.451510475785989e+02  2.918975276816622e+03
 1.145244016846556e+03 -1.457290457830793e+02  2.918975276816622e+03
 1.144967221129969e+03 -1.463841195091956e+02  2.918975276816622e+03
 1.144994806342728e+03 -1.478234629735364e+02  2.918975276816622e+03
 1.145206154083687e+03 -1.494634682616396e+02  2.918975276816622e+03
 1.145105505012932e+03 -1.513779445111647e+02  2.918975276816622e+03
 1.144766225000356e+03 -1.537036378441893e+02  2.918975276816622e+03
 1.144747651155751e+03 -1.567803312671335e+02  2.918975276816622e+03
 1.144832274260510e+03 -1.596183689824232e+02  2.918975276816622e+03
 1.144992885953368e+03 -1.613555825742220e+02  2.918975276816622e+03
 1.145276782170490e+03 -1.628327673237334e+02  2.918975276816622e+03
 1.145537379519167e+03 -1.641370780595284e+02  2.918975276816622e+03
 1.145682815478409e+03 -1.653028457037143e+02  2.918975276816622e+03
 1.145687723960776e+03 -1.665656304007234e+02  2.918975276816622e+03
 1.145650221286322e+03 -1.679749150473606e+02  2.918975276816622e+03
 1.145571233532755e+03 -1.694189955129421e+02  2.918975276816622e+03
 1.145510760406303e+03 -1.713468430128250e+02  2.918975276816622e+03
 1.145346327502705e+03 -1.736586150306066e+02  2.918975276816622e+03
 1.145291329739286e+03 -1.758679031523875e+02  2.918975276816622e+03
 1.144773763371302e+03 -1.770836054768881e+02  2.918975276816622e+03
 1.144558155801820e+03 -1.780238461764749e+02  2.918975276816622e+03
 1.145040082381487e+03 -1.796471124669186e+02  2.918975276816622e+03
 1.145249383335648e+03 -1.812215406004758e+02  2.918975276816622e+03
 1.145581338064596e+03 -1.823343084638590e+02  2.918975276816622e+03
 1.145831712318351e+03 -1.832543469432695e+02  2.918975276816622e+03
 1.145532783781968e+03 -1.848525053597251e+02  2.918975276816622e+03
 1.145347398159504e+03 -1.865977797890048e+02  2.918975276816622e+03
 1.145526565131133e+03 -1.879472619868209e+02  2.918975276816622e+03
 1.145502505932233e+03 -1.893750039868543e+02  2.918975276816622e+03
 1.145338276916985e+03 -1.913003778266691e+02  2.918975276816622e+03
 1.145239242627347e+03 -1.936276279819820e+02  2.918975276816622e+03
 1.145182521657789e+03 -1.958148585686264e+02  2.918975276816622e+03
 1.144825442992613e+03 -1.968413861298733e+02  2.918975276816622e+03
 1.144556965981417e+03 -1.977245039530456e+02  2.918975276816622e+03
 1.144910728801279e+03 -1.994731580436081e+02  2.918975276816622e+03
 1.145231800873038e+03 -2.011030528848006e+02  2.918975276816622e+03
 1.145256060545589e+03 -2.024730821407796e+02  2.918975276816622e+03
 1.144991127688174e+03 -2.038365155324793e+02  2.918975276816622e+03
 1.145080497020373e+03 -2.053670950256634e+02  2.918975276816622e+03
 1.145450051313782e+03 -2.066412723586395e+02  2.918975276816622e+03
 1.145478772331121e+03 -2.078637956723705e+02  2.918975276816622e+03
 1.145510158688978e+03 -2.093645202132497e+02  2.918975276816622e+03
 1.145574043237882e+03 -2.112926467202497e+02  2.918975276816622e+03
 1.145617082629894e+03 -2.135956202858413e+02  2.918975276816622e+03
 1.145632138537506e+03 -2.158675199943845e+02  2.918975276816622e+03
 1.145676800944375e+03 -2.177508284091549e+02  2.918975276816622e+03
 1.145602684366413e+03 -2.194291286186865e+02  2.918975276816622e+03
 1.145623326223882e+03 -2.212838477289540e+02  2.918975276816622e+03
 1.145378388677721e+03 -2.232083239002379e+02  2.918975276816622e+03
 1.145266254300594e+03 -2.248992982639723e+02  2.918975276816622e+03
 1.145570834966343e+03 -2.272653337941416e+02  2.918975276816622e+03
 1.145579903752268e+03 -2.295398850183384e+02  2.918975276816622e+03
 1.145429158124948e+03 -2.315732143429585e+02  2.918975276816622e+03
 1.145215581193552e+03 -2.336029454327120e+02  2.918975276816622e+03
 1.145175951293424e+03 -2.354463602520709e+02  2.918975276816622e+03
 1.145063411284379e+03 -2.376682583153645e+02  2.918975276816622e+03
 1.145012127330426e+03 -2.399378871378114e+02  2.918975276816622e+03
 1.144592192830925e+03 -2.429951672067656e+02  2.918975276816622e+03
 1.144423605767227e+03 -2.461810822459196e+02  2.918975276816622e+03
 1.144605267061556e+03 -2.482653738574002e+02  2.918975276816622e+03
 1.144602186108958e+03 -2.501245518207760e+02  2.918975276816622e+03
 1.144614292826237e+03 -2.514751326502335e+02  2.918975276816622e+03
 1.144614501091024e+03 -2.523589326130603e+02  2.918975276816622e+03
 1.144407515940365e+03 -2.542474147858865e+02  2.918975276816622e+03
 1.144232643595395e+03 -2.563039870495483e+02  2.918975276816622e+03
 1.144500974555793e+03 -2.576503406918907e+02  2.918975276816622e+03
 1.144575087052817e+03 -2.586583391690442e+02  2.918975276816622e+03
 1.144489849001454e+03 -2.601318302500636e+02  2.918975276816622e+03
 1.144568825745803e+03 -2.622278016845548e+02  2.918975276816622e+03
 1.144885020572891e+03 -2.645665442280037e+02  2.918975276816622e+03
 1.145193648142143e+03 -2.674047065608497e+02  2.918975276816622e+03
 1.145235680385690e+03 -2.695513385911561e+02  2.918975276816622e+03
 1.145292640094823e+03 -2.713983014209571e+02  2.918975276816622e+03
 1.145553857824606e+03 -2.730757457168099e+02  2.918975276816622e+03
 1.145795908292640e+03 -2.745463375255630e+02  2.918975276816622e+03
 1.145815061467065e+03 -2.763583771823850e+02  2.918975276816622e+03
 1.146204058208103e+03 -2.771031424598680e+02  2.918975276816622e+03
 1.146389130537922e+03 -2.779583074182541e+02  2.918975276816622e+03
 1.146092848726287e+03 -2.798545174035300e+02  2.918975276816622e+03
 1.146162408295693e+03 -2.821265974456634e+02  2.918975276816622e+03
 1.146086547124338e+03 -2.847989681848896e+02  2.918975276816622e+03
 1.146138486199913e+03 -2.874509511769655e+02  2.918975276816622e+03
 1.145693744537800e+03 -2.883737690677552e+02  2.918975276816622e+03
 1.145552514126271e+03 -2.895891968628933e+02  2.918975276816622e+03
 1.146160061221031e+03 -2.919134261073113e+02  2.918975276816622e+03
 1.146527186992289e+03 -2.937509159412156e+02  2.918975276816622e+03
 1.146749769531047e+03 -2.967966903691301e+02  2.918975276816622e+03
 1.146621384641664e+03 -2.992045161021613e+02  2.918975276816622e+03
 1.146079348672512e+03 -3.011005958890678e+02  2.918975276816622e+03
 1.145647870194635e+03 -3.031748592188565e+02  2.918975276816622e+03
 1.145449127153534e+03 -3.048769827569111e+02  2.918975276816622e+03
 1.145189163766095e+03 -3.060724769415585e+02  2.918975276816622e+03
 1.145114322356144e+03 -3.070903027795683e+02  2.918975276816622e+03
 1.144991978490733e+03 -3.090864490145337e+02  2.918975276816622e+03
 1.144664625748903e+03 -3.100553891698835e+02  2.918975276816622e+03
 1.144501244139906e+03 -3.106781580038439e+02  2.918975276816622e+03
 1.144832461140638e+03 -3.117281238420243e+02  2.918975276816622e+03
 1.145115255362597e+03 -3.127718900208574e+02  2.918975276816622e+03
 1.145046981517886e+03 -3.140984871554647e+02  2.918975276816622e+03
 1.144757020232388e+03 -3.160323822579106e+02  2.918975276816622e+03
 1.144193781661635e+03 -3.184467084299621e+02  2.918975276816622e+03
 1.143818919196477e+03 -3.196958249605546e+02  2.918975276816622e+03
 1.144453902253071e+03 -3.210317658776423e+02  2.918975276816622e+03
 1.145025400540821e+03 -3.227967028365422e+02  2.918975276816622e+03
 1.145060186321396e+03 -3.248142545011490e+02  2.918975276816622e+03
 1.144842795581883e+03 -3.267321786128695e+02  2.918975276816622e+03
 1.144706568165578e+03 -3.281413234160896e+02  2.918975276816622e+03
 1.144869600140059e+03 -3.304600078197613e+02  2.918975276816622e+03
 1.144811934155251e+03 -3.330341846260652e+02  2.918975276816622e+03
 1.144815025047289e+03 -3.361354138488563e+02  2.918975276816622e+03
 1.144956832189753e+03 -3.384253031036958e+02  2.918975276816622e+03
 1.144986460572725e+03 -3.397405457880831e+02  2.918975276816622e+03
 1.144874478164252e+03 -3.417693470887564e+02  2.918975276816622e+03
 1.144722302927533e+03 -3.439852525724921e+02  2.918975276816622e+03
 1.144644551937659e+03 -3.465538397565638e+02  2.918975276816622e+03
 1.144942830167689e+03 -3.494271098523565e+02  2.918975276816622e+03
 1.145006760532990e+03 -3.522809534136478e+02  2.918975276816622e+03
 1.144437962514975e+03 -3.541403123981960e+02  2.918975276816622e+03
 1.144613265541476e+03 -3.549173708110682e+02  2.918975276816622e+03
 1.145170027191594e+03 -3.560091698999049e+02  2.918975276816622e+03
 1.145582229909741e+03 -3.579911716722146e+02  2.918975276816622e+03
 1.146140290161314e+03 -3.608397349836534e+02  2.918975276816622e+03
 1.146924994775358e+03 -3.630486034075340e+02  2.918975276816622e+03
 1.147520382517640e+03 -3.642580284496588e+02  2.918975276816622e+03
 1.147037471035311e+03 -3.652785392931063e+02  2.918975276816622e+03
 1.145958104243832e+03 -3.664167651687620e+02  2.918975276816622e+03
 1.145402711057162e+03 -3.678676921500557e+02  2.918975276816622e+03
 1.145368716292328e+03 -3.700661831318197e+02  2.918975276816622e+03
 1.145273476841466e+03 -3.715833729602314e+02  2.918975276816622e+03
 1.145253703577890e+03 -3.735155466747748e+02  2.918975276816622e+03
 1.145218118105931e+03 -3.765758347991057e+02  2.918975276816622e+03
 1.145238814322531e+03 -3.791180284884581e+02  2.918975276816622e+03
 1.145216311803083e+03 -3.816296480395853e+02  2.918975276816622e+03
 1.145204677569606e+03 -3.831851049399139e+02  2.918975276816622e+03
 1.145226027137086e+03 -3.849353231085717e+02  2.918975276816622e+03
1.145240300030504e+03 3.831193871699694e+02 2.918975276816622e+03
1.145259066240978e+03 3.856312206781200e+02 2.918975276816622e+03
1.145343905819619e+03 3.802246696268300e+02 2.918975276816622e+03
1.145396847122245e+03 3.786374332025243e+02 2.918975276816622e+03
1.145544747359375e+03 3.772860454911745e+02 2.918975276816622e+03
1.145721925855246e+03 3.757183730401836e+02 2.918975276816622e+03
1.145805464746768e+03 3.749464289292756e+02 2.918975276816622e+03
1.145710776924929e+03 3.742035083628184e+02 2.918975276816622e+03
1.145450205104249e+03 3.730688194883153e+02 2.918975276816622e+03
1.145251024214471e+03 3.719004069268700e+02 2.918975276816622e+03
1.144814473406536e+03 3.697649881316540e+02 2.918975276816622e+03
1.144322781698755e+03 3.678710725553593e+02 2.918975276816622e+03
1.144316928862243e+03 3.672325693371613e+02 2.918975276816622e+03
1.144479570214880e+03 3.661433130003169e+02 2.918975276816622e+03
1.144759438162293e+03 3.639261803395161e+02 2.918975276816622e+03
1.144991667149070e+03 3.612227792301168e+02 2.918975276816622e+03
1.144986656069107e+03 3.590378862330717e+02 2.918975276816622e+03
1.145084166071070e+03 3.576464075378720e+02 2.918975276816622e+03
1.145188451107521e+03 3.562812538895844e+02 2.918975276816622e+03
1.145272221434177e+03 3.548337254038305e+02 2.918975276816622e+03
1.145243807376279e+03 3.534149075028652e+02 2.918975276816622e+03
1.145323913295468e+03 3.519449373496450e+02 2.918975276816622e+03
1.145329018689642e+03 3.497819204240864e+02 2.918975276816622e+03
1.145475229624969e+03 3.479277029201436e+02 2.918975276816622e+03
1.145577574768685e+03 3.462307147134816e+02 2.918975276816622e+03
1.145727154488807e+03 3.443118890722737e+02 2.918975276816622e+03
1.145813967754729e+03 3.426844901394392e+02 2.918975276816622e+03
1.146003374912377e+03 3.412635712169784e+02 2.918975276816622e+03
1.146100239861860e+03 3.399458805614323e+02 2.918975276816622e+03
1.146712290114137e+03 3.388625161206754e+02 2.918975276816622e+03
1.146916749591463e+03 3.376412171147521e+02 2.918975276816622e+03
1.147690148844243e+03 3.356953936518911e+02 2.918975276816622e+03
1.148175644216166e+03 3.343912549853409e+02 2.918975276816622e+03
1.147394469025150e+03 3.330747521151110e+02 2.918975276816622e+03
1.147071121012238e+03 3.318656725814096e+02 2.918975276816622e+03
1.146114363405879e+03 3.303273441585489e+02 2.918975276816622e+03
1.146154951714784e+03 3.288940064918863e+02 2.918975276816622e+03
1.146399140516817e+03 3.276209388866603e+02 2.918975276816622e+03
1.146335537811754e+03 3.261101806368761e+02 2.918975276816622e+03
1.146057245586848e+03 3.250159675598742e+02 2.918975276816622e+03
1.145788807489246e+03 3.236114352437650e+02 2.918975276816622e+03
1.145640121511228e+03 3.220322906136128e+02 2.918975276816622e+03
1.145524319197224e+03 3.201857219517133e+02 2.918975276816622e+03
1.145497597803793e+03 3.186863506157113e+02 2.918975276816622e+03
1.145504772224463e+03 3.169603781936481e+02 2.918975276816622e+03
1.145509546061558e+03 3.144499806763575e+02 2.918975276816622e+03
1.145453321291563e+03 3.123667597892659e+02 2.918975276816622e+03
1.145489045513944e+03 3.113193073480367e+02 2.918975276816622e+03
1.145420397968067e+03 3.103018228044143e+02 2.918975276816622e+03
1.145329765450470e+03 3.086116622696192e+02 2.918975276816622e+03
1.145367627355416e+03 3.070790142314964e+02 2.918975276816622e+03
1.145783314647829e+03 3.052121728162004e+02 2.918975276816622e+03
1.145791753070519e+03 3.040987850826037e+02 2.918975276816622e+03
1.145688979685824e+03 3.030912345755923e+02 2.918975276816622e+03
1.145962087282805e+03 3.016021602122274e+02 2.918975276816622e+03
1.146064178955858e+03 3.001267081967019e+02 2.918975276816622e+03
1.146041478669606e+03 2.983513839806849e+02 2.918975276816622e+03
1.145994544456222e+03 2.967229538266957e+02 2.918975276816622e+03
1.146114076617394e+03 2.949797101098110e+02 2.918975276816622e+03
1.146194327103703e+03 2.933947200394147e+02 2.918975276816622e+03
1.146385817620871e+03 2.921201515708239e+02 2.918975276816622e+03
1.146395837531811e+03 2.911388102630004e+02 2.918975276816622e+03
1.147547497585194e+03 2.897471418072617e+02 2.918975276816622e+03
1.147472380865416e+03 2.883440414494548e+02 2.918975276816622e+03
1.146089197719501e+03 2.872908109764945e+02 2.918975276816622e+03
1.146026420203795e+03 2.858483991484528e+02 2.918975276816622e+03
1.146059289804970e+03 2.838260741952828e+02 2.918975276816622e+03
1.146102000477521e+03 2.817481702927598e+02 2.918975276816622e+03
1.145872784000952e+03 2.789021039006220e+02 2.918975276816622e+03
1.145642805067039e+03 2.760424541983708e+02 2.918975276816622e+03
1.145359816481401e+03 2.730926513149980e+02 2.918975276816622e+03
1.145268563175711e+03 2.700289249015617e+02 2.918975276816622e+03
1.145215136126070e+03 2.677956156106517e+02 2.918975276816622e+03
1.145009903552745e+03 2.659623227841327e+02 2.918975276816622e+03
1.144867940803375e+03 2.638484941881229e+02 2.918975276816622e+03
1.144507409705406e+03 2.610139410037420e+02 2.918975276816622e+03
1.144221813691652e+03 2.589650995460161e+02 2.918975276816622e+03
1.144136032212099e+03 2.571293931170583e+02 2.918975276816622e+03
1.144682718753651e+03 2.561466430037445e+02 2.918975276816622e+03
1.145297947569046e+03 2.559299450005119e+02 2.918975276816622e+03
1.145552256645494e+03 2.553171944122161e+02 2.918975276816622e+03
1.145493862850791e+03 2.542842067599936e+02 2.918975276816622e+03
1.144790280764786e+03 2.529922921870877e+02 2.918975276816622e+03
1.144770853826184e+03 2.513377732666233e+02 2.918975276816622e+03
1.144715379764099e+03 2.494236445980686e+02 2.918975276816622e+03
1.144591930965325e+03 2.481217774209051e+02 2.918975276816622e+03
1.144532165813709e+03 2.466197068378949e+02 2.918975276816622e+03
1.144889268204232e+03 2.458267855532793e+02 2.918975276816622e+03
1.145317945023759e+03 2.454172271214725e+02 2.918975276816622e+03
1.145345339731469e+03 2.445079927989792e+02 2.918975276816622e+03
1.145459800540657e+03 2.433425624391569e+02 2.918975276816622e+03
1.145517890491849e+03 2.422037597554810e+02 2.918975276816622e+03
1.145574504439903e+03 2.410145661765054e+02 2.918975276816622e+03
1.145368119591301e+03 2.390594358879474e+02 2.918975276816622e+03
1.145110045043639e+03 2.367422535351313e+02 2.918975276816622e+03
1.145479768878507e+03 2.345304252650458e+02 2.918975276816622e+03
1.145680718724001e+03 2.323681529601325e+02 2.918975276816622e+03
1.145429144268288e+03 2.300115798347535e+02 2.918975276816622e+03
1.145217460874402e+03 2.287280892280764e+02 2.918975276816622e+03
1.145250049089375e+03 2.278614734371473e+02 2.918975276816622e+03
1.145354310761729e+03 2.265085199214973e+02 2.918975276816622e+03
1.145328635305935e+03 2.253973426329023e+02 2.918975276816622e+03
1.145373391281274e+03 2.246156790864349e+02 2.918975276816622e+03
1.145171716020604e+03 2.238457990976483e+02 2.918975276816622e+03
1.145179986579856e+03 2.224900431256775e+02 2.918975276816622e+03
1.145307388173284e+03 2.209644633871812e+02 2.918975276816622e+03
1.145300089010173e+03 2.191173870677882e+02 2.918975276816622e+03
1.145218948511208e+03 2.169170885893725e+02 2.918975276816622e+03
1.145262531479017e+03 2.142764132437393e+02 2.918975276816622e+03
1.145323127165069e+03 2.119722987399619e+02 2.918975276816622e+03
1.145387961262609e+03 2.099853197641482e+02 2.918975276816622e+03
1.145470829121251e+03 2.082641340390497e+02 2.918975276816622e+03
1.145509742795016e+03 2.070761928433360e+02 2.918975276816622e+03
1.145632171883404e+03 2.062840224950276e+02 2.918975276816622e+03
1.145753826406936e+03 2.054408717235429e+02 2.918975276816622e+03
1.145791687470430e+03 2.043845531181604e+02 2.918975276816622e+03
1.145769351763551e+03 2.033789518486592e+02 2.918975276816622e+03
1.145861932225029e+03 2.020689477193705e+02 2.918975276816622e+03
1.145970576539142e+03 2.008769767346033e+02 2.918975276816622e+03
1.146419544840216e+03 1.982183666507834e+02 2.918975276816622e+03
1.147441877510447e+03 1.948459281488854e+02 2.918975276816622e+03
1.146792498577895e+03 1.938598750738617e+02 2.918975276816622e+03
1.145711817348213e+03 1.937031585455567e+02 2.918975276816622e+03
1.145565295521170e+03 1.922334192679792e+02 2.918975276816622e+03
1.145363867096017e+03 1.899862904244276e+02 2.918975276816622e+03
1.145424179400893e+03 1.883775536473077e+02 2.918975276816622e+03
1.145553569575655e+03 1.873531773733911e+02 2.918975276816622e+03
1.145498498836608e+03 1.863885376814654e+02 2.918975276816622e+03
1.145406831707521e+03 1.854931614468264e+02 2.918975276816622e+03
1.145594159683952e+03 1.847071669251187e+02 2.918975276816622e+03
1.145610137538666e+03 1.839367869688052e+02 2.918975276816622e+03
1.145291765414566e+03 1.826121294536636e+02 2.918975276816622e+03
1.145188188611375e+03 1.810653162768307e+02 2.918975276816622e+03
1.145389358969225e+03 1.791588426165131e+02 2.918975276816622e+03
1.145466475456405e+03 1.769202444258601e+02 2.918975276816622e+03
1.145431033823441e+03 1.742934408762636e+02 2.918975276816622e+03
1.145467998365586e+03 1.720702754343594e+02 2.918975276816622e+03
1.145606510405863e+03 1.699976787024776e+02 2.918975276816622e+03
1.145551980428463e+03 1.683058934706411e+02 2.918975276816622e+03
1.145514375654700e+03 1.674023919813552e+02 2.918975276816622e+03
1.145543933869863e+03 1.663631031555769e+02 2.918975276816622e+03
1.145601318573803e+03 1.653455148596015e+02 2.918975276816622e+03
1.145735377859558e+03 1.645528057270461e+02 2.918975276816622e+03
1.145902826492908e+03 1.636236439117812e+02 2.918975276816622e+03
1.146101155941762e+03 1.623603670360807e+02 2.918975276816622e+03
1.146174399205212e+03 1.610946073387536e+02 2.918975276816622e+03
1.146415238318009e+03 1.593663717571943e+02 2.918975276816622e+03
1.146935711591235e+03 1.572816745465357e+02 2.918975276816622e+03
1.147933492098391e+03 1.552671335100835e+02 2.918975276816622e+03
1.147317398189841e+03 1.544528235058003e+02 2.918975276816622e+03
1.145973487168077e+03 1.541119514940893e+02 2.918975276816622e+03
1.145695482741927e+03 1.524697168520210e+02 2.918975276816622e+03
1.145531326356316e+03 1.501147126846601e+02 2.918975276816622e+03
1.145359430288264e+03 1.488401916190556e+02 2.918975276816622e+03
1.145362180058924e+03 1.479229636786868e+02 2.918975276816622e+03
1.145461370204499e+03 1.465704618614542e+02 2.918975276816622e+03
1.145385082808438e+03 1.455122220846120e+02 2.918975276816622e+03
1.145548446272043e+03 1.447857341212736e+02 2.918975276816622e+03
1.145645535902367e+03 1.440903328579344e+02 2.918975276816622e+03
1.145508495563802e+03 1.426859987776913e+02 2.918975276816622e+03
1.145364400252675e+03 1.410869933627000e+02 2.918975276816622e+03
1.145382933856670e+03 1.392702975979403e+02 2.918975276816622e+03
1.145321172486462e+03 1.370840129343532e+02 2.918975276816622e+03
1.145359221582737e+03 1.344159313619085e+02 2.918975276816622e+03
1.145380332744310e+03 1.320840242029634e+02 2.918975276816622e+03
1.145406410408065e+03 1.300932152955071e+02 2.918975276816622e+03
1.145433601396390e+03 1.283421986208226e+02 2.918975276816622e+03
1.145460191341819e+03 1.271455488316123e+02 2.918975276816622e+03
1.145453706359164e+03 1.263376270577859e+02 2.918975276816622e+03
1.145446683341203e+03 1.256079404259618e+02 2.918975276816622e+03
1.145567891271506e+03 1.247976064499755e+02 2.918975276816622e+03
1.145569285182585e+03 1.240231447346175e+02 2.918975276816622e+03
1.145176663053912e+03 1.226661412687420e+02 2.918975276816622e+03
1.145078969819162e+03 1.211307236923308e+02 2.918975276816622e+03
1.145308181810758e+03 1.192943691254298e+02 2.918975276816622e+03
1.145270861633837e+03 1.171092216148140e+02 2.918975276816622e+03
1.145296701170500e+03 1.143052092721422e+02 2.918975276816622e+03
1.145297266227719e+03 1.119630512005659e+02 2.918975276816622e+03
1.145312018814136e+03 1.101455592007905e+02 2.918975276816622e+03
1.145308853216264e+03 1.085301117355039e+02 2.918975276816622e+03
1.145291039853867e+03 1.073754991864984e+02 2.918975276816622e+03
1.145228696466616e+03 1.065286068569530e+02 2.918975276816622e+03
1.145264128307599e+03 1.056588182284682e+02 2.918975276816622e+03
1.145396077082075e+03 1.046510293902524e+02 2.918975276816622e+03
1.145459561305292e+03 1.037343153413621e+02 2.918975276816622e+03
1.145298946387588e+03 1.023687139213339e+02 2.918975276816622e+03
1.145100663520170e+03 1.010950959509397e+02 2.918975276816622e+03
1.145155410890888e+03 9.930682837590740e+01 2.918975276816622e+03
1.145193541398208e+03 9.686184454436668e+01 2.918975276816622e+03
1.145256873906794e+03 9.460055979115398e+01 2.918975276816622e+03
1.145340940280747e+03 9.278322112623140e+01 2.918975276816622e+03
1.144892060946338e+03 9.194047059719196e+01 2.918975276816622e+03
1.144603349088445e+03 9.104595669231540e+01 2.918975276816622e+03
1.145026662253017e+03 8.977951722228988e+01 2.918975276816622e+03
1.145167383909007e+03 8.800603981822807e+01 2.918975276816622e+03
1.145002134082936e+03 8.533134554352058e+01 2.918975276816622e+03
1.144864127485041e+03 8.213332851728167e+01 2.918975276816622e+03
1.144807546040019e+03 7.978008350280895e+01 2.918975276816622e+03
1.144776736623037e+03 7.839785050781522e+01 2.918975276816622e+03
1.144595962114524e+03 7.663154428311158e+01 2.918975276816622e+03
1.144454176499424e+03 7.489896746022033e+01 2.918975276816622e+03
1.144568106822547e+03 7.359210660374877e+01 2.918975276816622e+03
1.144399268925638e+03 7.231225708212720e+01 2.918975276816622e+03
1.144042691493893e+03 7.048785955685599e+01 2.918975276816622e+03
1.143963354889076e+03 6.932359542050212e+01 2.918975276816622e+03
1.144763299730651e+03 6.852398896902288e+01 2.918975276816622e+03
1.144978980203509e+03 6.722928557387965e+01 2.918975276816622e+03
1.145015411046969e+03 6.593661712085016e+01 2.918975276816622e+03
1.145462060680310e+03 6.486490066614535e+01 2.918975276816622e+03
1.146389293382495e+03 6.306392862106274e+01 2.918975276816622e+03
1.146765236984568e+03 6.169441763689639e+01 2.918975276816622e+03
1.145772193322256e+03 6.152308821375851e+01 2.918975276816622e+03
1.144774522091097e+03 6.157331373024243e+01 2.918975276816622e+03
1.144122811455501e+03 6.084892749958331e+01 2.918975276816622e+03
1.143997673443293e+03 5.918996858813547e+01 2.918975276816622e+03
1.143757817174095e+03 5.796011954730174e+01 2.918975276816622e+03
1.143488601315846e+03 5.717220649223344e+01 2.918975276816622e+03
1.144286238966149e+03 5.657340572198621e+01 2.918975276816622e+03
1.144874311096872e+03 5.529477365555098e+01 2.918975276816622e+03
1.144574924747185e+03 5.423913123418730e+01 2.918975276816622e+03
1.144691098547870e+03 5.314985389110846e+01 2.918975276816622e+03
1.144871921085296e+03 5.124787995036370e+01 2.918975276816622e+03
1.145040864264024e+03 4.981714633924482e+01 2.918975276816622e+03
1.145191961349199e+03 4.858480290911667e+01 2.918975276816622e+03
1.145305448867543e+03 4.745038131266530e+01 2.918975276816622e+03
1.145430726134530e+03 4.561064828436599e+01 2.918975276816622e+03
1.145596507220845e+03 4.331493637392109e+01 2.918975276816622e+03
1.145601552565937e+03 4.206579849496742e+01 2.918975276816622e+03
1.145537873585435e+03 4.095044927808217e+01 2.918975276816622e+03
1.145577155948346e+03 3.913392655385186e+01 2.918975276816622e+03
1.145848895101010e+03 3.701455335953512e+01 2.918975276816622e+03
1.146155764146956e+03 3.490267274443318e+01 2.918975276816622e+03
1.146230213053681e+03 3.268878590191895e+01 2.918975276816622e+03
1.146029062012806e+03 3.038098519026416e+01 2.918975276816622e+03
1.146166574680923e+03 2.830694903248102e+01 2.918975276816622e+03
1.146329640457830e+03 2.557205549544348e+01 2.918975276816622e+03
1.146498402886960e+03 2.261838402831990e+01 2.918975276816622e+03
1.146617487959030e+03 2.093706216867172e+01 2.918975276816622e+03
1.146986790544082e+03 1.927854139715178e+01 2.918975276816622e+03
1.146019152344704e+03 1.807241495064946e+01 2.918975276816622e+03
1.145043260400454e+03 1.677777404172808e+01 2.918975276816622e+03
1.145579945391973e+03 1.461504796110388e+01 2.918975276816622e+03
1.146015942439840e+03 1.303216400255589e+01 2.918975276816622e+03
1.145879088495739e+03 1.174936908570160e+01 2.918975276816622e+03
1.145878267933232e+03 1.054295853750980e+01 2.918975276816622e+03
1.146082553203752e+03 8.689965693409230e+00 2.918975276816622e+03
1.145956987833931e+03 5.874024396955281e+00 2.918975276816622e+03
1.145880641129995e+03 3.584296748274483e+00 2.918975276816622e+03
-1.158014767973119e+03  1.819846631281757e-01 -2.918975276816622e+03
-1.157903660453131e+03  3.213593720141916e+00 -2.918975276816622e+03
-1.158047524543043e+03 -1.873486091500537e+00 -2.918975276816622e+03
-1.157916281794556e+03 -2.968876220665051e+00 -2.918975276816622e+03
-1.157936990542508e+03 -4.213563430270683e+00 -2.918975276816622e+03
-1.158196232226726e+03 -5.735140079182831e+00 -2.918975276816622e+03
-1.158684397869725e+03 -7.675902126213718e+00 -2.918975276816622e+03
-1.158890856427220e+03 -9.182158402893888e+00 -2.918975276816622e+03
-1.158417151402501e+03 -1.007357057910223e+01 -2.918975276816622e+03
-1.158070227679245e+03 -1.112774596328862e+01 -2.918975276816622e+03
-1.157898826058602e+03 -1.254755720014551e+01 -2.918975276816622e+03
-1.157821441936150e+03 -1.435737473154138e+01 -2.918975276816622e+03
-1.157683728907428e+03 -1.603691600932629e+01 -2.918975276816622e+03
-1.157257770810500e+03 -1.874008259135114e+01 -2.918975276816622e+03
-1.156805891497929e+03 -2.163497373318091e+01 -2.918975276816622e+03
-1.156693792633711e+03 -2.294830661630829e+01 -2.918975276816622e+03
-1.157447971729716e+03 -2.426089995441229e+01 -2.918975276816622e+03
-1.158350453612390e+03 -2.564345550136383e+01 -2.918975276816622e+03
-1.158645410545411e+03 -2.705880935141711e+01 -2.918975276816622e+03
-1.157757400676828e+03 -2.817795034252294e+01 -2.918975276816622e+03
-1.156976630044959e+03 -2.932041938647773e+01 -2.918975276816622e+03
-1.157276600308495e+03 -3.161676433933252e+01 -2.918975276816622e+03
-1.157303865244806e+03 -3.360111710669611e+01 -2.918975276816622e+03
-1.157222586524592e+03 -3.527608974730377e+01 -2.918975276816622e+03
-1.157111517350009e+03 -3.666485657699407e+01 -2.918975276816622e+03
-1.157157002250482e+03 -3.898947076794190e+01 -2.918975276816622e+03
-1.157117807289078e+03 -4.099494347474904e+01 -2.918975276816622e+03
-1.157056037898880e+03 -4.247788239180606e+01 -2.918975276816622e+03
-1.156972162471055e+03 -4.445064438219754e+01 -2.918975276816622e+03
-1.156989634649103e+03 -4.556851491864835e+01 -2.918975276816622e+03
-1.157004230000864e+03 -4.663136068505829e+01 -2.918975276816622e+03
-1.156929425663294e+03 -4.857453448743662e+01 -2.918975276816622e+03
-1.156900042122776e+03 -5.015947576809484e+01 -2.918975276816622e+03
-1.156938182089598e+03 -5.140198102433160e+01 -2.918975276816622e+03
-1.156922079190349e+03 -5.368600793291129e+01 -2.918975276816622e+03
-1.156814461815648e+03 -5.572823495713239e+01 -2.918975276816622e+03
-1.156773357171040e+03 -5.747892552594072e+01 -2.918975276816622e+03
-1.156874967334247e+03 -5.956536666008203e+01 -2.918975276816622e+03
-1.156841776832420e+03 -6.092525313346640e+01 -2.918975276816622e+03
-1.156792523704612e+03 -6.246461755869669e+01 -2.918975276816622e+03
-1.156834411120687e+03 -6.413020515394876e+01 -2.918975276816622e+03
-1.156982293542911e+03 -6.532146501318037e+01 -2.918975276816622e+03
-1.157002738603128e+03 -6.669180272929752e+01 -2.918975276816622e+03
-1.156838314037018e+03 -6.873134657448439e+01 -2.918975276816622e+03
-1.156425607778280e+03 -7.049311069582839e+01 -2.918975276816622e+03
-1.156395305198303e+03 -7.163089177853735e+01 -2.918975276816622e+03
-1.156681180823502e+03 -7.277651756985027e+01 -2.918975276816622e+03
-1.156683917678360e+03 -7.428621378433158e+01 -2.918975276816622e+03
-1.156761465000346e+03 -7.573996228003922e+01 -2.918975276816622e+03
-1.156811264086572e+03 -7.647218356637703e+01 -2.918975276816622e+03
-1.156682413860505e+03 -7.771017712107631e+01 -2.918975276816622e+03
-1.156636717701142e+03 -7.957136495473459e+01 -2.918975276816622e+03
-1.156797599577858e+03 -8.088467568906647e+01 -2.918975276816622e+03
-1.156953424146881e+03 -8.238513933521402e+01 -2.918975276816622e+03
-1.156949660114148e+03 -8.417168517614731e+01 -2.918975276816622e+03
-1.156770926050656e+03 -8.540011049432711e+01 -2.918975276816622e+03
-1.156781899281033e+03 -8.665536569857902e+01 -2.918975276816622e+03
-1.156923775853258e+03 -8.854604365603512e+01 -2.918975276816622e+03
-1.156963351514747e+03 -9.012080268392415e+01 -2.918975276816622e+03
-1.156890269764351e+03 -9.127694497084174e+01 -2.918975276816622e+03
-1.156764643870575e+03 -9.360298412821835e+01 -2.918975276816622e+03
-1.156683191890709e+03 -9.576969143908229e+01 -2.918975276816622e+03
-1.156774437212852e+03 -9.755357789487414e+01 -2.918975276816622e+03
-1.156675756001369e+03 -9.962537196334061e+01 -2.918975276816622e+03
-1.156526263257132e+03 -1.008272984623795e+02 -2.918975276816622e+03
-1.156410709352529e+03 -1.023475129141123e+02 -2.918975276816622e+03
-1.156320356729856e+03 -1.042960697352870e+02 -2.918975276816622e+03
-1.156194951462804e+03 -1.055788158112252e+02 -2.918975276816622e+03
-1.156199294015518e+03 -1.066241777940006e+02 -2.918975276816622e+03
-1.156197914402197e+03 -1.084055301680235e+02 -2.918975276816622e+03
-1.156059309582525e+03 -1.102654866480068e+02 -2.918975276816622e+03
-1.155937285206075e+03 -1.118876404440630e+02 -2.918975276816622e+03
-1.155939432893115e+03 -1.132000850114058e+02 -2.918975276816622e+03
-1.156236878154685e+03 -1.146648190284103e+02 -2.918975276816622e+03
-1.156400700716563e+03 -1.170300000640113e+02 -2.918975276816622e+03
-1.156412050405927e+03 -1.192381332674211e+02 -2.918975276816622e+03
-1.156498017584637e+03 -1.207023761499564e+02 -2.918975276816622e+03
-1.156550476690716e+03 -1.222800964325921e+02 -2.918975276816622e+03
-1.156468987881956e+03 -1.240469141991803e+02 -2.918975276816622e+03
-1.156645643728867e+03 -1.252988621143963e+02 -2.918975276816622e+03
-1.156776108315092e+03 -1.266261097835589e+02 -2.918975276816622e+03
-1.156748715909402e+03 -1.285083740118100e+02 -2.918975276816622e+03
-1.157036135807784e+03 -1.305583413419310e+02 -2.918975276816622e+03
-1.157178438957013e+03 -1.320022615557654e+02 -2.918975276816622e+03
-1.156793159346640e+03 -1.329151597917190e+02 -2.918975276816622e+03
-1.156581329877085e+03 -1.341282133095910e+02 -2.918975276816622e+03
-1.156727056250857e+03 -1.355786653012511e+02 -2.918975276816622e+03
-1.156837806394474e+03 -1.373547633921947e+02 -2.918975276816622e+03
-1.156853894490128e+03 -1.394491582076233e+02 -2.918975276816622e+03
-1.156824237816967e+03 -1.408126691539312e+02 -2.918975276816622e+03
-1.156829437785428e+03 -1.423545157401680e+02 -2.918975276816622e+03
-1.156885750182211e+03 -1.440321403432081e+02 -2.918975276816622e+03
-1.156861194841114e+03 -1.451424363204345e+02 -2.918975276816622e+03
-1.156812227603596e+03 -1.464859340769229e+02 -2.918975276816622e+03
-1.156882786803967e+03 -1.484880392627544e+02 -2.918975276816622e+03
-1.156555742887399e+03 -1.502670264247932e+02 -2.918975276816622e+03
-1.156537676309831e+03 -1.515554583861053e+02 -2.918975276816622e+03
-1.156752777173626e+03 -1.527302955277660e+02 -2.918975276816622e+03
-1.156693353127708e+03 -1.541368912473093e+02 -2.918975276816622e+03
-1.156850557625242e+03 -1.555909232112741e+02 -2.918975276816622e+03
-1.156869086846694e+03 -1.573732233350448e+02 -2.918975276816622e+03
-1.156833090961827e+03 -1.595276019825013e+02 -2.918975276816622e+03
-1.156915248937834e+03 -1.607610054067636e+02 -2.918975276816622e+03
-1.156927887103082e+03 -1.622076756129180e+02 -2.918975276816622e+03
-1.156828857027282e+03 -1.639481377829595e+02 -2.918975276816622e+03
-1.156812160309961e+03 -1.652197770084085e+02 -2.918975276816622e+03
-1.156843767873106e+03 -1.665956275859069e+02 -2.918975276816622e+03
-1.156956237473335e+03 -1.684775649081809e+02 -2.918975276816622e+03
-1.156869673106851e+03 -1.704507923498606e+02 -2.918975276816622e+03
-1.156873684048527e+03 -1.718354991057063e+02 -2.918975276816622e+03
-1.156781767475167e+03 -1.728365711797440e+02 -2.918975276816622e+03
-1.156791187391622e+03 -1.741199820934169e+02 -2.918975276816622e+03
-1.156801485992221e+03 -1.755386232384517e+02 -2.918975276816622e+03
-1.156936965629725e+03 -1.765430108966845e+02 -2.918975276816622e+03
-1.157036435417160e+03 -1.778532339278290e+02 -2.918975276816622e+03
-1.157062529636822e+03 -1.798578172982434e+02 -2.918975276816622e+03
-1.157086662817091e+03 -1.810894708825323e+02 -2.918975276816622e+03
-1.156920980135826e+03 -1.822777856475609e+02 -2.918975276816622e+03
-1.156968832980435e+03 -1.840969087921461e+02 -2.918975276816622e+03
-1.156878826507231e+03 -1.852620942547048e+02 -2.918975276816622e+03
-1.156938199902743e+03 -1.864644856355693e+02 -2.918975276816622e+03
-1.156774038927042e+03 -1.884556241404384e+02 -2.918975276816622e+03
-1.156487781881899e+03 -1.904551452366997e+02 -2.918975276816622e+03
-1.156492957806831e+03 -1.916989748440475e+02 -2.918975276816622e+03
-1.156507426450552e+03 -1.927264373471216e+02 -2.918975276816622e+03
-1.156654730438610e+03 -1.941311259021234e+02 -2.918975276816622e+03
-1.156643869707230e+03 -1.955030091181179e+02 -2.918975276816622e+03
-1.156864837830358e+03 -1.964381377980069e+02 -2.918975276816622e+03
-1.157037337954371e+03 -1.977900974795985e+02 -2.918975276816622e+03
-1.157236166888547e+03 -1.996641796343642e+02 -2.918975276816622e+03
-1.157629840100461e+03 -2.008371826453452e+02 -2.918975276816622e+03
-1.157314611286213e+03 -2.021548539178969e+02 -2.918975276816622e+03
-1.157006389305646e+03 -2.039519825706302e+02 -2.918975276816622e+03
-1.156968104732664e+03 -2.051468980547172e+02 -2.918975276816622e+03
-1.157027615114912e+03 -2.064123980115686e+02 -2.918975276816622e+03
-1.157197327203108e+03 -2.083767284590854e+02 -2.918975276816622e+03
-1.157300287816439e+03 -2.101071631919008e+02 -2.918975276816622e+03
-1.157242244279879e+03 -2.113160681685289e+02 -2.918975276816622e+03
-1.157319148012957e+03 -2.125931870491222e+02 -2.918975276816622e+03
-1.157109989643279e+03 -2.132744534598782e+02 -2.918975276816622e+03
-1.156961877902680e+03 -2.142585657420352e+02 -2.918975276816622e+03
-1.157494014235317e+03 -2.154990307593378e+02 -2.918975276816622e+03
-1.157273198546894e+03 -2.171407506426110e+02 -2.918975276816622e+03
-1.156556079382511e+03 -2.194204520811483e+02 -2.918975276816622e+03
-1.156384648833247e+03 -2.207370831041229e+02 -2.918975276816622e+03
-1.156573386526539e+03 -2.221663699863390e+02 -2.918975276816622e+03
-1.156695943925163e+03 -2.239628968445452e+02 -2.918975276816622e+03
-1.156646111248141e+03 -2.251798198041571e+02 -2.918975276816622e+03
-1.156712816525287e+03 -2.264276042942810e+02 -2.918975276816622e+03
-1.156697699428407e+03 -2.283736925761744e+02 -2.918975276816622e+03
-1.156535740545322e+03 -2.301714790244999e+02 -2.918975276816622e+03
-1.156655083301102e+03 -2.312800896583582e+02 -2.918975276816622e+03
-1.156709548645458e+03 -2.332558498126791e+02 -2.918975276816622e+03
-1.156229269631168e+03 -2.349511679879331e+02 -2.918975276816622e+03
-1.156229658369248e+03 -2.368925031184183e+02 -2.918975276816622e+03
-1.156773162987176e+03 -2.394276649087265e+02 -2.918975276816622e+03
-1.156985727292168e+03 -2.405581797128098e+02 -2.918975276816622e+03
-1.156931491402148e+03 -2.420054125821144e+02 -2.918975276816622e+03
-1.157441623605489e+03 -2.442441292914662e+02 -2.918975276816622e+03
-1.157664993053927e+03 -2.454321476416184e+02 -2.918975276816622e+03
-1.157187930653451e+03 -2.462050632827338e+02 -2.918975276816622e+03
-1.156914564060854e+03 -2.481128374599546e+02 -2.918975276816622e+03
-1.156762573193912e+03 -2.497999654138505e+02 -2.918975276816622e+03
-1.156752511504967e+03 -2.510031642705199e+02 -2.918975276816622e+03
-1.156825861573155e+03 -2.530967139433409e+02 -2.918975276816622e+03
-1.156711843346689e+03 -2.554225387815222e+02 -2.918975276816622e+03
-1.156505607852030e+03 -2.583037643125041e+02 -2.918975276816622e+03
-1.156558445495158e+03 -2.606006570909328e+02 -2.918975276816622e+03
-1.156670765432524e+03 -2.618978740011468e+02 -2.918975276816622e+03
-1.156595518814872e+03 -2.635388909722023e+02 -2.918975276816622e+03
-1.156581875663436e+03 -2.651417191209019e+02 -2.918975276816622e+03
-1.156740831195465e+03 -2.664688949918280e+02 -2.918975276816622e+03
-1.156908677004202e+03 -2.671561942289632e+02 -2.918975276816622e+03
-1.155328956937419e+03 -2.679529557210544e+02 -2.918975276816622e+03
-1.154702907415557e+03 -2.692227342410141e+02 -2.918975276816622e+03
-1.155441948067282e+03 -2.706322023959791e+02 -2.918975276816622e+03
-1.155899400703643e+03 -2.716375749733636e+02 -2.918975276816622e+03
-1.156361445341085e+03 -2.728452698794761e+02 -2.918975276816622e+03
-1.156436893031682e+03 -2.745793173981946e+02 -2.918975276816622e+03
-1.156500264151735e+03 -2.763501855989757e+02 -2.918975276816622e+03
-1.156476777848548e+03 -2.778863974801585e+02 -2.918975276816622e+03
-1.156485249057406e+03 -2.794073520371080e+02 -2.918975276816622e+03
-1.156524364880638e+03 -2.813475107049528e+02 -2.918975276816622e+03
-1.156554045033718e+03 -2.834000059211813e+02 -2.918975276816622e+03
-1.156440333253373e+03 -2.845503791263855e+02 -2.918975276816622e+03
-1.156478281269041e+03 -2.855128426145962e+02 -2.918975276816622e+03
-1.156640596086042e+03 -2.874765269329677e+02 -2.918975276816622e+03
-1.156788633934603e+03 -2.890645584070376e+02 -2.918975276816622e+03
-1.156949855661198e+03 -2.915640931470662e+02 -2.918975276816622e+03
-1.157013298146174e+03 -2.943454470141951e+02 -2.918975276816622e+03
-1.156942298013803e+03 -2.970485920851835e+02 -2.918975276816622e+03
-1.157125096358510e+03 -2.994163822970680e+02 -2.918975276816622e+03
-1.157201293259465e+03 -3.006418513809588e+02 -2.918975276816622e+03
-1.157170385036109e+03 -3.016590685098245e+02 -2.918975276816622e+03
-1.157019106715424e+03 -3.028235895844888e+02 -2.918975276816622e+03
-1.157059646417263e+03 -3.044818812876881e+02 -2.918975276816622e+03
-1.157264912808854e+03 -3.057989764425939e+02 -2.918975276816622e+03
-1.157837278560056e+03 -3.075110355407513e+02 -2.918975276816622e+03
-1.157311461536453e+03 -3.087355558769622e+02 -2.918975276816622e+03
-1.156671171180234e+03 -3.097956688285325e+02 -2.918975276816622e+03
-1.156655228926552e+03 -3.120207871403474e+02 -2.918975276816622e+03
-1.157630125780473e+03 -3.131636069281391e+02 -2.918975276816622e+03
-1.158500250540963e+03 -3.141452204076318e+02 -2.918975276816622e+03
-1.158074673513725e+03 -3.162818678188461e+02 -2.918975276816622e+03
-1.157902735375142e+03 -3.180939878721483e+02 -2.918975276816622e+03
-1.157810227609850e+03 -3.195300931657869e+02 -2.918975276816622e+03
-1.157742247670269e+03 -3.212158053664282e+02 -2.918975276816622e+03
-1.157593633716646e+03 -3.230886543217770e+02 -2.918975276816622e+03
-1.157625626841643e+03 -3.243637677222823e+02 -2.918975276816622e+03
-1.157605825380781e+03 -3.258300917674114e+02 -2.918975276816622e+03
-1.157579690336723e+03 -3.271687041857594e+02 -2.918975276816622e+03
-1.157443185582479e+03 -3.281929597967869e+02 -2.918975276816622e+03
-1.157406489513929e+03 -3.292936658655587e+02 -2.918975276816622e+03
-1.157239201766388e+03 -3.304108303723808e+02 -2.918975276816622e+03
-1.157057529979279e+03 -3.319057621504865e+02 -2.918975276816622e+03
-1.156911767032833e+03 -3.326854369307318e+02 -2.918975276816622e+03
-1.156913286038021e+03 -3.337195461471754e+02 -2.918975276816622e+03
-1.156749793251578e+03 -3.352431505891919e+02 -2.918975276816622e+03
-1.156575499100253e+03 -3.361726158455039e+02 -2.918975276816622e+03
-1.156641445330255e+03 -3.375780654797362e+02 -2.918975276816622e+03
-1.156711477904111e+03 -3.399717888161961e+02 -2.918975276816622e+03
-1.156727649678756e+03 -3.421511270191763e+02 -2.918975276816622e+03
-1.156628293418579e+03 -3.435166465174693e+02 -2.918975276816622e+03
-1.156581837335896e+03 -3.460380230592005e+02 -2.918975276816622e+03
-1.156550011551526e+03 -3.481860841773852e+02 -2.918975276816622e+03
-1.156477579546220e+03 -3.496380457681497e+02 -2.918975276816622e+03
-1.156390207119712e+03 -3.508975201883440e+02 -2.918975276816622e+03
-1.156485930417651e+03 -3.521111454851016e+02 -2.918975276816622e+03
-1.156559356788264e+03 -3.543444587349933e+02 -2.918975276816622e+03
-1.156693213662258e+03 -3.564895735645641e+02 -2.918975276816622e+03
-1.156659576554256e+03 -3.581342169648732e+02 -2.918975276816622e+03
-1.156593309529471e+03 -3.604778597807213e+02 -2.918975276816622e+03
-1.156566276044629e+03 -3.624994542694241e+02 -2.918975276816622e+03
-1.156718930246962e+03 -3.637622577729208e+02 -2.918975276816622e+03
-1.156821870571514e+03 -3.660048372753873e+02 -2.918975276816622e+03
-1.156810607246182e+03 -3.691649914082035e+02 -2.918975276816622e+03
-1.156936815283779e+03 -3.718336350692386e+02 -2.918975276816622e+03
-1.156931341416785e+03 -3.733778917284922e+02 -2.918975276816622e+03
-1.156951117345816e+03 -3.755133929750907e+02 -2.918975276816622e+03
-1.156952967193158e+03 -3.772482849331021e+02 -2.918975276816622e+03
-1.156960154370860e+03 -3.787748787127588e+02 -2.918975276816622e+03
-1.156965318778295e+03 -3.801149245415585e+02 -2.918975276816622e+03
-1.156976183856967e+03 -3.814236001681128e+02 -2.918975276816622e+03
-1.156916057996873e+03 -3.843257176415116e+02 -2.918975276816622e+03
-1.156795343732540e+03 -3.862619249375326e+02 -2.918975276816622e+03
-1.156813703961682e+03  3.827653968185425e+02 -2.918975276816622e+03
-1.156824100553134e+03  3.848321350132090e+02 -2.918975276816622e+03
-1.156806919432587e+03  3.804488438056754e+02 -2.918975276816622e+03
-1.156798665188557e+03  3.780879330222335e+02 -2.918975276816622e+03
-1.156799713832911e+03  3.770347905692362e+02 -2.918975276816622e+03
-1.156814545156083e+03  3.750747984682256e+02 -2.918975276816622e+03
-1.156823401277283e+03  3.715178258106893e+02 -2.918975276816622e+03
-1.156977264366186e+03  3.681512465986003e+02 -2.918975276816622e+03
-1.157217847152206e+03  3.656036605414985e+02 -2.918975276816622e+03
-1.157811120264794e+03  3.623225298217934e+02 -2.918975276816622e+03
-1.157847552011047e+03  3.602933986374477e+02 -2.918975276816622e+03
-1.157292950742639e+03  3.593440575637907e+02 -2.918975276816622e+03
-1.157273571071089e+03  3.575057904962101e+02 -2.918975276816622e+03
-1.157069596946848e+03  3.561155158486483e+02 -2.918975276816622e+03
-1.157125060279448e+03  3.545670114417897e+02 -2.918975276816622e+03
-1.157088532568830e+03  3.520299822126095e+02 -2.918975276816622e+03
-1.157075742906913e+03  3.504935379946818e+02 -2.918975276816622e+03
-1.157036836850898e+03  3.486477897730004e+02 -2.918975276816622e+03
-1.156882624018115e+03  3.450218146634848e+02 -2.918975276816622e+03
-1.157124182144987e+03  3.418974909375780e+02 -2.918975276816622e+03
-1.157074217694109e+03  3.393460257317502e+02 -2.918975276816622e+03
-1.157052890671657e+03  3.367277338913983e+02 -2.918975276816622e+03
-1.157052320724122e+03  3.340900255148733e+02 -2.918975276816622e+03
-1.157043870423078e+03  3.314997272366994e+02 -2.918975276816622e+03
-1.157035420122035e+03  3.289094289585256e+02 -2.918975276816622e+03
-1.156976125099125e+03  3.269756767122408e+02 -2.918975276816622e+03
-1.156871587203315e+03  3.252775560530550e+02 -2.918975276816622e+03
-1.156769559444547e+03  3.229660603608501e+02 -2.918975276816622e+03
-1.156694260008132e+03  3.209743445879605e+02 -2.918975276816622e+03
-1.156535478789830e+03  3.190116594361980e+02 -2.918975276816622e+03
-1.156292283850111e+03  3.164692736438745e+02 -2.918975276816622e+03
-1.156077977005137e+03  3.138303970974060e+02 -2.918975276816622e+03
-1.155985467107087e+03  3.114633638174070e+02 -2.918975276816622e+03
-1.156162927685677e+03  3.089273203695407e+02 -2.918975276816622e+03
-1.156567856830828e+03  3.055199407605665e+02 -2.918975276816622e+03
-1.157309255287932e+03  3.025406406707719e+02 -2.918975276816622e+03
-1.156358066795822e+03  3.012568995957610e+02 -2.918975276816622e+03
-1.155490897232417e+03  2.997983669363995e+02 -2.918975276816622e+03
-1.156051053987090e+03  2.979956629423600e+02 -2.918975276816622e+03
-1.156199787990385e+03  2.964072325196071e+02 -2.918975276816622e+03
-1.156360534769614e+03  2.947051096646803e+02 -2.918975276816622e+03
-1.156473547540907e+03  2.929417409672874e+02 -2.918975276816622e+03
-1.156577717758119e+03  2.910485053093286e+02 -2.918975276816622e+03
-1.156619718751227e+03  2.897125358707099e+02 -2.918975276816622e+03
-1.156818380069728e+03  2.889754735164494e+02 -2.918975276816622e+03
-1.156870657626763e+03  2.881555974300252e+02 -2.918975276816622e+03
-1.156932397706826e+03  2.870725388266879e+02 -2.918975276816622e+03
-1.157106047026331e+03  2.855503903387091e+02 -2.918975276816622e+03
-1.157212648697519e+03  2.845047983740466e+02 -2.918975276816622e+03
-1.157264140922057e+03  2.832555526329653e+02 -2.918975276816622e+03
-1.157175873468410e+03  2.799717171222871e+02 -2.918975276816622e+03
-1.156935474330448e+03  2.777398196761549e+02 -2.918975276816622e+03
-1.156812841872228e+03  2.764298022439161e+02 -2.918975276816622e+03
-1.156943878413829e+03  2.746726441697177e+02 -2.918975276816622e+03
-1.157065741464847e+03  2.728827818700435e+02 -2.918975276816622e+03
-1.156965989751347e+03  2.714124580669625e+02 -2.918975276816622e+03
-1.156824839753677e+03  2.703364303735074e+02 -2.918975276816622e+03
-1.156777588282792e+03  2.679072492683218e+02 -2.918975276816622e+03
-1.156725004289744e+03  2.656667936929491e+02 -2.918975276816622e+03
-1.156901301840020e+03  2.640359790700300e+02 -2.918975276816622e+03
-1.156848720998196e+03  2.619969070790111e+02 -2.918975276816622e+03
-1.156732170504122e+03  2.605608946039069e+02 -2.918975276816622e+03
-1.156607655856837e+03  2.589879771350928e+02 -2.918975276816622e+03
-1.156649423883832e+03  2.573637881917633e+02 -2.918975276816622e+03
-1.156750180732721e+03  2.560358010417621e+02 -2.918975276816622e+03
-1.156794842243756e+03  2.546294750408201e+02 -2.918975276816622e+03
-1.156827927685128e+03  2.527533288255275e+02 -2.918975276816622e+03
-1.156889062064883e+03  2.507798076134104e+02 -2.918975276816622e+03
-1.157041823401293e+03  2.497597269099426e+02 -2.918975276816622e+03
-1.157025615327075e+03  2.482575143420770e+02 -2.918975276816622e+03
-1.157033121613299e+03  2.464666548369693e+02 -2.918975276816622e+03
-1.157009994432893e+03  2.450911346672124e+02 -2.918975276816622e+03
-1.157013399618097e+03  2.437217337609828e+02 -2.918975276816622e+03
-1.156985802222684e+03  2.419407203289268e+02 -2.918975276816622e+03
-1.156990572460697e+03  2.403829139274274e+02 -2.918975276816622e+03
-1.156897106561192e+03  2.392283306908033e+02 -2.918975276816622e+03
-1.156750528635907e+03  2.369078940440481e+02 -2.918975276816622e+03
-1.156669611105030e+03  2.347605541973526e+02 -2.918975276816622e+03
-1.156679747291037e+03  2.329512356092076e+02 -2.918975276816622e+03
-1.156566451754530e+03  2.308681180300810e+02 -2.918975276816622e+03
-1.156538337330084e+03  2.296451399712291e+02 -2.918975276816622e+03
-1.156547212503598e+03  2.281287205402089e+02 -2.918975276816622e+03
-1.156600683363763e+03  2.263334380068871e+02 -2.918975276816622e+03
-1.156731655085545e+03  2.252674042151027e+02 -2.918975276816622e+03
-1.156709175806696e+03  2.240487132495088e+02 -2.918975276816622e+03
-1.156721667705689e+03  2.220300138318035e+02 -2.918975276816622e+03
-1.156714229778425e+03  2.203626343228143e+02 -2.918975276816622e+03
-1.156692363703982e+03  2.191959674473626e+02 -2.918975276816622e+03
-1.156629287965622e+03  2.169339865920527e+02 -2.918975276816622e+03
-1.156648168306172e+03  2.147980297165898e+02 -2.918975276816622e+03
-1.156691079905467e+03  2.130298290054715e+02 -2.918975276816622e+03
-1.156680165078337e+03  2.109530552166341e+02 -2.918975276816622e+03
-1.156683037510400e+03  2.096083267430615e+02 -2.918975276816622e+03
-1.156645713574009e+03  2.081184918444757e+02 -2.918975276816622e+03
-1.156699358786616e+03  2.063514234007870e+02 -2.918975276816622e+03
-1.156896999430213e+03  2.050696187808633e+02 -2.918975276816622e+03
-1.156944584644885e+03  2.038371420245999e+02 -2.918975276816622e+03
-1.156826832819050e+03  2.020042141610139e+02 -2.918975276816622e+03
-1.156834069786460e+03  2.004156424134910e+02 -2.918975276816622e+03
-1.156812000690168e+03  1.992568569335449e+02 -2.918975276816622e+03
-1.156676427894393e+03  1.969692572288843e+02 -2.918975276816622e+03
-1.156807887693854e+03  1.948433446803109e+02 -2.918975276816622e+03
-1.156829850066718e+03  1.930850254718659e+02 -2.918975276816622e+03
-1.156585907350488e+03  1.910166501844695e+02 -2.918975276816622e+03
-1.156609572193042e+03  1.896662843632089e+02 -2.918975276816622e+03
-1.156767398511217e+03  1.881648042668369e+02 -2.918975276816622e+03
-1.156796558876661e+03  1.864170199498107e+02 -2.918975276816622e+03
-1.156766854180267e+03  1.851331866294374e+02 -2.918975276816622e+03
-1.156801209316074e+03  1.838704555456639e+02 -2.918975276816622e+03
-1.156879344873150e+03  1.820398019741150e+02 -2.918975276816622e+03
-1.156953352257827e+03  1.805748955219502e+02 -2.918975276816622e+03
-1.156900098655092e+03  1.794757703597705e+02 -2.918975276816622e+03
-1.156816008604298e+03  1.770360741743057e+02 -2.918975276816622e+03
-1.156671562683852e+03  1.748879556285502e+02 -2.918975276816622e+03
-1.156629845113707e+03  1.731727602456036e+02 -2.918975276816622e+03
-1.156676388748880e+03  1.709906992198624e+02 -2.918975276816622e+03
-1.156698940152652e+03  1.696260314364635e+02 -2.918975276816622e+03
-1.156987450446388e+03  1.681739867673894e+02 -2.918975276816622e+03
-1.157022737588299e+03  1.664344673508351e+02 -2.918975276816622e+03
-1.156666587406154e+03  1.652043774317357e+02 -2.918975276816622e+03
-1.156681728410340e+03  1.639489909062649e+02 -2.918975276816622e+03
-1.156882659279342e+03  1.620642590614409e+02 -2.918975276816622e+03
-1.156924162999446e+03  1.604526493785101e+02 -2.918975276816622e+03
-1.156883496828533e+03  1.592806698591864e+02 -2.918975276816622e+03
-1.156815453818623e+03  1.569955898763196e+02 -2.918975276816622e+03
-1.156817866459947e+03  1.547851512013239e+02 -2.918975276816622e+03
-1.156777492207018e+03  1.530270138324583e+02 -2.918975276816622e+03
-1.156635269021149e+03  1.510158560007020e+02 -2.918975276816622e+03
-1.156669498114307e+03  1.497048622354223e+02 -2.918975276816622e+03
-1.156871557249031e+03  1.482293608863238e+02 -2.918975276816622e+03
-1.156886731523982e+03  1.464406182648433e+02 -2.918975276816622e+03
-1.156692672649680e+03  1.451894391139903e+02 -2.918975276816622e+03
-1.156717726417933e+03  1.439626942864627e+02 -2.918975276816622e+03
-1.156889017929010e+03  1.420959195980562e+02 -2.918975276816622e+03
-1.156916524474199e+03  1.404949988443859e+02 -2.918975276816622e+03
-1.156865115111591e+03  1.393258467200655e+02 -2.918975276816622e+03
-1.156727340779295e+03  1.370514839377090e+02 -2.918975276816622e+03
-1.156813600676482e+03  1.349172187059307e+02 -2.918975276816622e+03
-1.156836200369230e+03  1.331684980144401e+02 -2.918975276816622e+03
-1.156747999839835e+03  1.310922415120983e+02 -2.918975276816622e+03
-1.156752963496651e+03  1.297352577850229e+02 -2.918975276816622e+03
-1.156782695529789e+03  1.282477509394861e+02 -2.918975276816622e+03
-1.156854339049789e+03  1.264773427450970e+02 -2.918975276816622e+03
-1.156751719392285e+03  1.252231304151231e+02 -2.918975276816622e+03
-1.156781997972285e+03  1.239874812824876e+02 -2.918975276816622e+03
-1.156928506254177e+03  1.221228416969914e+02 -2.918975276816622e+03
-1.156980534785829e+03  1.204911978462911e+02 -2.918975276816622e+03
-1.156973904059930e+03  1.193059398849449e+02 -2.918975276816622e+03
-1.156929544420102e+03  1.170418088518951e+02 -2.918975276816622e+03
-1.156761185788042e+03  1.149273951915417e+02 -2.918975276816622e+03
-1.156722739082919e+03  1.131927805206611e+02 -2.918975276816622e+03
-1.156870882398787e+03  1.111681082566984e+02 -2.918975276816622e+03
-1.156873877105366e+03  1.098387794547600e+02 -2.918975276816622e+03
-1.156776730102717e+03  1.083411017963192e+02 -2.918975276816622e+03
-1.156795476071979e+03  1.066491864157975e+02 -2.918975276816622e+03
-1.156878718029328e+03  1.053312815305869e+02 -2.918975276816622e+03
-1.156892854290028e+03  1.039873869489581e+02 -2.918975276816622e+03
-1.156978047741288e+03  1.021958162755021e+02 -2.918975276816622e+03
-1.156986562371388e+03  1.007139836371498e+02 -2.918975276816622e+03
-1.156990782160801e+03  9.937858628849423e+01 -2.918975276816622e+03
-1.156968828473275e+03  9.774736503580628e+01 -2.918975276816622e+03
-1.156980234998353e+03  9.613445573908221e+01 -2.918975276816622e+03
-1.156891588217645e+03  9.322801187726429e+01 -2.918975276816622e+03
-1.156857513228009e+03  9.067980087615210e+01 -2.918975276816622e+03
-1.156814304664208e+03  8.911070339693316e+01 -2.918975276816622e+03
-1.156771070246841e+03  8.740928285797828e+01 -2.918975276816622e+03
-1.156721199996240e+03  8.643279109554220e+01 -2.918975276816622e+03
-1.156751806214173e+03  8.554982430011887e+01 -2.918975276816622e+03
-1.156837455696168e+03  8.367586802991845e+01 -2.918975276816622e+03
-1.156854723272139e+03  8.072414963891391e+01 -2.918975276816622e+03
-1.157024288104639e+03  7.766228610190588e+01 -2.918975276816622e+03
-1.157076208851007e+03  7.493949637006072e+01 -2.918975276816622e+03
-1.157099825352561e+03  7.278106853356871e+01 -2.918975276816622e+03
-1.157078381565477e+03  7.123498910433074e+01 -2.918975276816622e+03
-1.157215781762055e+03  6.882457102977772e+01 -2.918975276816622e+03
-1.157161826293431e+03  6.648729882126115e+01 -2.918975276816622e+03
-1.157020395917186e+03  6.408177699690839e+01 -2.918975276816622e+03
-1.156689746256812e+03  6.171958944836894e+01 -2.918975276816622e+03
-1.156564138764306e+03  6.050039110398978e+01 -2.918975276816622e+03
-1.156200719811607e+03  5.855865233956046e+01 -2.918975276816622e+03
-1.155978740568537e+03  5.677366960909135e+01 -2.918975276816622e+03
-1.155225434391718e+03  5.567492365185359e+01 -2.918975276816622e+03
-1.154982250077354e+03  5.454462222708765e+01 -2.918975276816622e+03
-1.155831092230401e+03  5.349440191530375e+01 -2.918975276816622e+03
-1.155842840271918e+03  5.280674412833617e+01 -2.918975276816622e+03
-1.155971854292836e+03  5.212276688657607e+01 -2.918975276816622e+03
-1.156118339428729e+03  5.074983853153694e+01 -2.918975276816622e+03
-1.156227820818230e+03  4.954583200865638e+01 -2.918975276816622e+03
-1.156410987262783e+03  4.848258552213439e+01 -2.918975276816622e+03
-1.156890935142187e+03  4.736369507269671e+01 -2.918975276816622e+03
-1.157037470067894e+03  4.671805896961163e+01 -2.918975276816622e+03
-1.156970414819067e+03  4.573474319127723e+01 -2.918975276816622e+03
-1.156908550706106e+03  4.455843382338603e+01 -2.918975276816622e+03
-1.156826001379183e+03  4.319711011596714e+01 -2.918975276816622e+03
-1.156954284347205e+03  4.196790619482749e+01 -2.918975276816622e+03
-1.156993091792247e+03  4.042454760081415e+01 -2.918975276816622e+03
-1.157322747369007e+03  3.780817889912397e+01 -2.918975276816622e+03
-1.157246077218107e+03  3.566603927150181e+01 -2.918975276816622e+03
-1.156562748685594e+03  3.407614265955428e+01 -2.918975276816622e+03
-1.156555330626501e+03  3.166513564084639e+01 -2.918975276816622e+03
-1.157348115632818e+03  2.951948008590352e+01 -2.918975276816622e+03
-1.157898513425630e+03  2.770445745582292e+01 -2.918975276816622e+03
-1.157905920420272e+03  2.505460239245124e+01 -2.918975276816622e+03
-1.158058746854358e+03  2.281882358255114e+01 -2.918975276816622e+03
-1.158228646648868e+03  2.189533928981748e+01 -2.918975276816622e+03
-1.157916972234369e+03  2.113305563582294e+01 -2.918975276816622e+03
-1.157888362730172e+03  2.037759946915239e+01 -2.918975276816622e+03
-1.157917414490429e+03  1.956332158734144e+01 -2.918975276816622e+03
-1.157683307274513e+03  1.791209554872463e+01 -2.918975276816622e+03
-1.157598657459630e+03  1.641335295128262e+01 -2.918975276816622e+03
-1.157522907836581e+03  1.519090466476957e+01 -2.918975276816622e+03
-1.157520963666705e+03  1.394941598313546e+01 -2.918975276816622e+03
-1.157543720930166e+03  1.261010800008930e+01 -2.918975276816622e+03
-1.157658813227606e+03  9.802384688152840e+00 -2.918975276816622e+03
-1.158059362525996e+03  7.099183335116284e+00 -2.918975276816622e+03
-1.157984490653746e+03  5.790583871739496e+00 -2.918975276816622e+03
 1.154393728570152e+03 -1.441260187936789e+00  2.918975276816622e+03
1.154489636944683e+03 3.450501519016269e-01 2.918975276816622e+03
 1.154019680196746e+03 -3.277185640955417e+00  2.918975276816622e+03
 1.153802875535488e+03 -4.951070534330735e+00  2.918975276816622e+03
 1.153665780676794e+03 -6.232965081833951e+00  2.918975276816622e+03
 1.154937600751848e+03 -6.934504541141449e+00  2.918975276816622e+03
 1.155730779016423e+03 -8.108326146538545e+00  2.918975276816622e+03
 1.154664067220038e+03 -1.030600771769064e+01  2.918975276816622e+03
 1.154428426397556e+03 -1.123462672563004e+01  2.918975276816622e+03
 1.154054092195664e+03 -1.208559451805741e+01  2.918975276816622e+03
 1.152796446433603e+03 -1.432992001783527e+01  2.918975276816622e+03
 1.153634750878470e+03 -1.538661941369989e+01  2.918975276816622e+03
 1.155113698486578e+03 -1.581313045035820e+01  2.918975276816622e+03
 1.154670309874599e+03 -1.767837563734887e+01  2.918975276816622e+03
 1.154253126875870e+03 -1.978987095613304e+01  2.918975276816622e+03
 1.154062741193006e+03 -2.197845728878168e+01  2.918975276816622e+03
 1.154119225114877e+03 -2.343565800261124e+01  2.918975276816622e+03
 1.154744000945229e+03 -2.476940027069514e+01  2.918975276816622e+03
 1.154890748658594e+03 -2.600312543046133e+01  2.918975276816622e+03
 1.154541563297255e+03 -2.672001738716675e+01  2.918975276816622e+03
 1.154039106476807e+03 -2.761813652703333e+01  2.918975276816622e+03
 1.153194515822056e+03 -2.931682784461631e+01  2.918975276816622e+03
 1.152759396865112e+03 -3.258801140594943e+01  2.918975276816622e+03
 1.152339387840873e+03 -3.593169592975865e+01  2.918975276816622e+03
 1.151805198316104e+03 -3.807852371897085e+01  2.918975276816622e+03
 1.151390839331134e+03 -3.900614909945505e+01  2.918975276816622e+03
 1.151556578898896e+03 -3.997678029720235e+01  2.918975276816622e+03
 1.151716075310082e+03 -4.130144904603495e+01  2.918975276816622e+03
 1.151796196408186e+03 -4.242423148311030e+01  2.918975276816622e+03
 1.152278920728943e+03 -4.335723963175548e+01  2.918975276816622e+03
 1.152479032493304e+03 -4.407541303348484e+01  2.918975276816622e+03
 1.152612084101466e+03 -4.521523451892278e+01  2.918975276816622e+03
 1.152822346024359e+03 -4.748326689928007e+01  2.918975276816622e+03
 1.152885700354467e+03 -4.986521391756001e+01  2.918975276816622e+03
 1.152865021613608e+03 -5.156272492113660e+01  2.918975276816622e+03
 1.152896458682215e+03 -5.347695980479270e+01  2.918975276816622e+03
 1.152911588031168e+03 -5.556022257185640e+01  2.918975276816622e+03
 1.152814459181792e+03 -5.768655547410172e+01  2.918975276816622e+03
 1.152574042631292e+03 -5.969244431457936e+01  2.918975276816622e+03
 1.152310059280289e+03 -6.139699999755744e+01  2.918975276816622e+03
 1.152444783186278e+03 -6.297532164253101e+01  2.918975276816622e+03
 1.152611874471193e+03 -6.452564760913208e+01  2.918975276816622e+03
 1.152778945964688e+03 -6.578884136219169e+01  2.918975276816622e+03
 1.152978743215910e+03 -6.765970542010497e+01  2.918975276816622e+03
 1.152797628217583e+03 -6.995763752859459e+01  2.918975276816622e+03
 1.152749946039068e+03 -7.153584817834619e+01  2.918975276816622e+03
 1.153089780438605e+03 -7.334748595780640e+01  2.918975276816622e+03
 1.152927320430531e+03 -7.633039548534764e+01  2.918975276816622e+03
 1.152534750260361e+03 -7.934774031012100e+01  2.918975276816622e+03
 1.152117067992299e+03 -8.134213069964059e+01  2.918975276816622e+03
 1.151882734876248e+03 -8.248776154497872e+01  2.918975276816622e+03
 1.152320214434578e+03 -8.328573538467619e+01  2.918975276816622e+03
 1.152575750305788e+03 -8.434692421257574e+01  2.918975276816622e+03
 1.152724820264260e+03 -8.549835951496797e+01  2.918975276816622e+03
 1.153033480111715e+03 -8.750870506891297e+01  2.918975276816622e+03
 1.153150201023203e+03 -8.982959327989306e+01  2.918975276816622e+03
 1.153157795401241e+03 -9.151470257531044e+01  2.918975276816622e+03
 1.153299524181679e+03 -9.350638477882687e+01  2.918975276816622e+03
 1.153383199479353e+03 -9.602560330136770e+01  2.918975276816622e+03
 1.153261371551201e+03 -9.762945321403841e+01  2.918975276816622e+03
 1.153319251413808e+03 -9.917085462845914e+01  2.918975276816622e+03
 1.153384324817600e+03 -1.020393086975428e+02  2.918975276816622e+03
 1.153395962392083e+03 -1.043672171030110e+02  2.918975276816622e+03
 1.153369680414208e+03 -1.056029904264668e+02  2.918975276816622e+03
 1.153264888867627e+03 -1.075194727797862e+02  2.918975276816622e+03
 1.153425857888481e+03 -1.098296411161183e+02  2.918975276816622e+03
 1.153476914685333e+03 -1.114650847269751e+02  2.918975276816622e+03
 1.153317127545069e+03 -1.131919772615379e+02  2.918975276816622e+03
 1.153398768430088e+03 -1.156282716219003e+02  2.918975276816622e+03
 1.153536569348140e+03 -1.188924223718833e+02  2.918975276816622e+03
 1.153643132676397e+03 -1.222146677797551e+02  2.918975276816622e+03
 1.153778143028165e+03 -1.246389888389374e+02  2.918975276816622e+03
 1.153954703948105e+03 -1.259800423182439e+02  2.918975276816622e+03
 1.153767904328506e+03 -1.276929506068999e+02  2.918975276816622e+03
 1.153875637119159e+03 -1.298423393760639e+02  2.918975276816622e+03
 1.153810199057131e+03 -1.315181201382911e+02  2.918975276816622e+03
 1.153652649937790e+03 -1.333463015426680e+02  2.918975276816622e+03
 1.153535184003041e+03 -1.350690726831900e+02  2.918975276816622e+03
 1.154488644062006e+03 -1.366013885268788e+02  2.918975276816622e+03
 1.155126527764583e+03 -1.381024956910553e+02  2.918975276816622e+03
 1.153785516322653e+03 -1.394116055593206e+02  2.918975276816622e+03
 1.152531515447606e+03 -1.408942344915384e+02  2.918975276816622e+03
 1.151509440895965e+03 -1.421412679921712e+02  2.918975276816622e+03
 1.151863833465726e+03 -1.431251254377281e+02  2.918975276816622e+03
 1.152494206966598e+03 -1.443715186770984e+02  2.918975276816622e+03
 1.152775339039965e+03 -1.455539356664125e+02  2.918975276816622e+03
 1.153117578864946e+03 -1.474832752097777e+02  2.918975276816622e+03
 1.153220939513539e+03 -1.497078489875284e+02  2.918975276816622e+03
 1.153175780449833e+03 -1.513068764705220e+02  2.918975276816622e+03
 1.153196378619882e+03 -1.532283907467912e+02  2.918975276816622e+03
 1.153171171722871e+03 -1.561645123918456e+02  2.918975276816622e+03
 1.152892643582398e+03 -1.591531927188351e+02  2.918975276816622e+03
 1.152496472215537e+03 -1.609244003961257e+02  2.918975276816622e+03
 1.152219732871137e+03 -1.619495998593119e+02  2.918975276816622e+03
 1.152555059536983e+03 -1.630289735054795e+02  2.918975276816622e+03
 1.152735321704539e+03 -1.642738609603930e+02  2.918975276816622e+03
 1.152938882570005e+03 -1.654102847853758e+02  2.918975276816622e+03
 1.153174936088884e+03 -1.673857366969744e+02  2.918975276816622e+03
 1.153358776384686e+03 -1.696734923950920e+02  2.918975276816622e+03
 1.153470024661547e+03 -1.713365803964135e+02  2.918975276816622e+03
 1.153595494758442e+03 -1.732498236074881e+02  2.918975276816622e+03
 1.153736211464108e+03 -1.761653529879552e+02  2.918975276816622e+03
 1.153755644670186e+03 -1.792392878266281e+02  2.918975276816622e+03
 1.153815232491552e+03 -1.820095429973571e+02  2.918975276816622e+03
 1.153734377201335e+03 -1.841409890824792e+02  2.918975276816622e+03
 1.154003631184393e+03 -1.856082696030786e+02  2.918975276816622e+03
 1.153948474843088e+03 -1.876511763996590e+02  2.918975276816622e+03
 1.154705524917638e+03 -1.893795193797319e+02  2.918975276816622e+03
 1.154772330024506e+03 -1.909442026212921e+02  2.918975276816622e+03
 1.153864587698250e+03 -1.930401403239511e+02  2.918975276816622e+03
 1.153459039219807e+03 -1.960219669885622e+02  2.918975276816622e+03
 1.153007620883111e+03 -1.991513892676657e+02  2.918975276816622e+03
 1.152726185258538e+03 -2.008888496750068e+02  2.918975276816622e+03
 1.152278839785516e+03 -2.018480461675003e+02  2.918975276816622e+03
 1.152477095409687e+03 -2.029495345219013e+02  2.918975276816622e+03
 1.152616400655648e+03 -2.041902411673480e+02  2.918975276816622e+03
 1.152779222003624e+03 -2.052967531291627e+02  2.918975276816622e+03
 1.153099459131161e+03 -2.072960983511514e+02  2.918975276816622e+03
 1.153323283515670e+03 -2.096251057892122e+02  2.918975276816622e+03
 1.153441577999987e+03 -2.112880117840446e+02  2.918975276816622e+03
 1.153585798680765e+03 -2.132199763009241e+02  2.918975276816622e+03
 1.153716295656430e+03 -2.161394226755386e+02  2.918975276816622e+03
 1.153773750192621e+03 -2.191773497068773e+02  2.918975276816622e+03
 1.153855578149962e+03 -2.219761306047627e+02  2.918975276816622e+03
 1.154027542923890e+03 -2.244113333958176e+02  2.918975276816622e+03
 1.154238434595291e+03 -2.256300429048464e+02  2.918975276816622e+03
 1.153883312881947e+03 -2.273771403668587e+02  2.918975276816622e+03
 1.153540837995648e+03 -2.296607733238696e+02  2.918975276816622e+03
 1.153377703015467e+03 -2.312107012780836e+02  2.918975276816622e+03
 1.153072655094965e+03 -2.331208436691439e+02  2.918975276816622e+03
 1.152548337965583e+03 -2.360764454205885e+02  2.918975276816622e+03
 1.152313104212708e+03 -2.379165036608797e+02  2.918975276816622e+03
 1.152635513243752e+03 -2.390574508472151e+02  2.918975276816622e+03
 1.152861269949942e+03 -2.409840513408262e+02  2.918975276816622e+03
 1.153132113570908e+03 -2.432581986439415e+02  2.918975276816622e+03
 1.153374786815114e+03 -2.460196441618538e+02  2.918975276816622e+03
 1.153466641880275e+03 -2.482587027977145e+02  2.918975276816622e+03
 1.153428385607656e+03 -2.495083583861237e+02  2.918975276816622e+03
 1.152848556505573e+03 -2.512912905166274e+02  2.918975276816622e+03
 1.152187097462352e+03 -2.539736034270783e+02  2.918975276816622e+03
 1.151435179920776e+03 -2.562801294730482e+02  2.918975276816622e+03
 1.151115837721024e+03 -2.575607729595800e+02  2.918975276816622e+03
 1.151809939230045e+03 -2.582179048978580e+02  2.918975276816622e+03
 1.152490443398234e+03 -2.595798153947140e+02  2.918975276816622e+03
 1.152907835799790e+03 -2.608421089333622e+02  2.918975276816622e+03
 1.152923037009536e+03 -2.629246886885960e+02  2.918975276816622e+03
 1.153626385377686e+03 -2.644511468441088e+02  2.918975276816622e+03
 1.154351935617281e+03 -2.651139312584006e+02  2.918975276816622e+03
 1.153859546094166e+03 -2.672697192843204e+02  2.918975276816622e+03
 1.153267233419087e+03 -2.700309063006833e+02  2.918975276816622e+03
 1.153377473857722e+03 -2.720633159892042e+02  2.918975276816622e+03
 1.153818700468027e+03 -2.734560011056594e+02  2.918975276816622e+03
 1.153813005121255e+03 -2.758936683611201e+02  2.918975276816622e+03
 1.153857067916098e+03 -2.784515690060992e+02  2.918975276816622e+03
 1.153994557949972e+03 -2.798296371956742e+02  2.918975276816622e+03
 1.154224608816330e+03 -2.818215749527527e+02  2.918975276816622e+03
 1.154437512547013e+03 -2.847968161706302e+02  2.918975276816622e+03
 1.154560882180225e+03 -2.874342131138912e+02  2.918975276816622e+03
 1.154728960104440e+03 -2.900327519475495e+02  2.918975276816622e+03
 1.154874267756740e+03 -2.922932785571110e+02  2.918975276816622e+03
 1.154862114974523e+03 -2.932401782723767e+02  2.918975276816622e+03
 1.154730390215234e+03 -2.941804539382689e+02  2.918975276816622e+03
 1.154920842522715e+03 -2.958296164668842e+02  2.918975276816622e+03
 1.155191624897928e+03 -2.970103136981174e+02  2.918975276816622e+03
 1.155265487770889e+03 -2.978648708522564e+02  2.918975276816622e+03
 1.155318488649390e+03 -2.985565758178312e+02  2.918975276816622e+03
 1.155123012850794e+03 -2.999837245109422e+02  2.918975276816622e+03
 1.154729731680815e+03 -3.021913905823392e+02  2.918975276816622e+03
 1.154386873538446e+03 -3.035146212694750e+02  2.918975276816622e+03
 1.154365345239301e+03 -3.055358032422201e+02  2.918975276816622e+03
 1.154315905657782e+03 -3.083176293738287e+02  2.918975276816622e+03
 1.154308226073139e+03 -3.095963587282277e+02  2.918975276816622e+03
 1.154300607256753e+03 -3.105583508251379e+02  2.918975276816622e+03
 1.154139419799592e+03 -3.114960849811997e+02  2.918975276816622e+03
 1.154056834857250e+03 -3.126587907334189e+02  2.918975276816622e+03
 1.154073290069692e+03 -3.140850442281246e+02  2.918975276816622e+03
 1.154036515560605e+03 -3.162087436957883e+02  2.918975276816622e+03
 1.153951404391207e+03 -3.196245847133520e+02  2.918975276816622e+03
 1.153986901613263e+03 -3.226032111059835e+02  2.918975276816622e+03
 1.153930727839762e+03 -3.249002260999758e+02  2.918975276816622e+03
 1.153922603396425e+03 -3.273227600082674e+02  2.918975276816622e+03
 1.153880324758229e+03 -3.300245577383495e+02  2.918975276816622e+03
 1.153811917880406e+03 -3.318625620826107e+02  2.918975276816622e+03
 1.153759822014483e+03 -3.335399970123801e+02  2.918975276816622e+03
 1.153745785203385e+03 -3.366063311558213e+02  2.918975276816622e+03
 1.153677140621632e+03 -3.389612329278298e+02  2.918975276816622e+03
 1.153511757579450e+03 -3.413063854835926e+02  2.918975276816622e+03
 1.153099398442896e+03 -3.443704850475885e+02  2.918975276816622e+03
 1.154254577425287e+03 -3.451079811993880e+02  2.918975276816622e+03
 1.154930745716190e+03 -3.465095729246883e+02  2.918975276816622e+03
 1.154019282351834e+03 -3.496014337243648e+02  2.918975276816622e+03
 1.154384112496061e+03 -3.507142591815674e+02  2.918975276816622e+03
 1.154518416082138e+03 -3.517477060646326e+02  2.918975276816622e+03
 1.153980460225648e+03 -3.538054899563590e+02  2.918975276816622e+03
 1.153656652641180e+03 -3.559556601903739e+02  2.918975276816622e+03
 1.153801077992254e+03 -3.585936262950521e+02  2.918975276816622e+03
 1.153941550334201e+03 -3.615053666145424e+02  2.918975276816622e+03
 1.154156184004812e+03 -3.637382979840776e+02  2.918975276816622e+03
 1.154138881377947e+03 -3.652071993403808e+02  2.918975276816622e+03
 1.154103263783475e+03 -3.662264147672087e+02  2.918975276816622e+03
 1.154160107323171e+03 -3.679386428065974e+02  2.918975276816622e+03
 1.154047681549861e+03 -3.701218549008595e+02  2.918975276816622e+03
 1.154067512272030e+03 -3.726208078034862e+02  2.918975276816622e+03
 1.154018672664124e+03 -3.752006978647093e+02  2.918975276816622e+03
 1.154049890244035e+03 -3.774510159503729e+02  2.918975276816622e+03
 1.153985027217234e+03 -3.801609801507264e+02  2.918975276816622e+03
 1.153974337679618e+03 -3.824183748316855e+02  2.918975276816622e+03
 1.154020059118140e+03 -3.835504239447006e+02  2.918975276816622e+03
 1.153923303249232e+03 -3.850829773146994e+02  2.918975276816622e+03
1.153160122351213e+03 3.846191183686429e+02 2.918975276816622e+03
1.153748855118282e+03 3.858062518086575e+02 2.918975276816622e+03
1.152715037277587e+03 3.828280996898715e+02 2.918975276816622e+03
1.152927943868017e+03 3.813884552882778e+02 2.918975276816622e+03
1.153103217867765e+03 3.799438290568106e+02 2.918975276816622e+03
1.153207822474678e+03 3.775668102319336e+02 2.918975276816622e+03
1.153505651971180e+03 3.761177886009458e+02 2.918975276816622e+03
1.153556895409725e+03 3.752604359358889e+02 2.918975276816622e+03
1.153406636203160e+03 3.740240914588799e+02 2.918975276816622e+03
1.153497217532851e+03 3.728390757401407e+02 2.918975276816622e+03
1.153718616025957e+03 3.716064579081538e+02 2.918975276816622e+03
1.154285731059619e+03 3.693147959312369e+02 2.918975276816622e+03
1.154663821412364e+03 3.671787504554089e+02 2.918975276816622e+03
1.154652596284499e+03 3.658949957856514e+02 2.918975276816622e+03
1.154471156760773e+03 3.639391278109579e+02 2.918975276816622e+03
1.154429976848459e+03 3.612983607751332e+02 2.918975276816622e+03
1.154365661775076e+03 3.590349483560437e+02 2.918975276816622e+03
1.154284474293087e+03 3.575517114460271e+02 2.918975276816622e+03
1.154202723082447e+03 3.567364874558273e+02 2.918975276816622e+03
1.154243634127615e+03 3.557780326378581e+02 2.918975276816622e+03
1.154182168441590e+03 3.541077162279666e+02 2.918975276816622e+03
1.154229584576239e+03 3.527875279732573e+02 2.918975276816622e+03
1.154231952862070e+03 3.513308059939999e+02 2.918975276816622e+03
1.154173248476679e+03 3.487961126986313e+02 2.918975276816622e+03
1.153773888737161e+03 3.467029058099547e+02 2.918975276816622e+03
1.153500107177380e+03 3.455801582667423e+02 2.918975276816622e+03
1.154137968346057e+03 3.439856058960229e+02 2.918975276816622e+03
1.154598423748743e+03 3.424571890882683e+02 2.918975276816622e+03
1.155032824657363e+03 3.411507930368559e+02 2.918975276816622e+03
1.155486511674284e+03 3.386127336073110e+02 2.918975276816622e+03
1.156200199835433e+03 3.368403292776782e+02 2.918975276816622e+03
1.155958426204720e+03 3.355397584868953e+02 2.918975276816622e+03
1.156128041223654e+03 3.337372370745773e+02 2.918975276816622e+03
1.156000687912644e+03 3.326289875316522e+02 2.918975276816622e+03
1.154970961100569e+03 3.317648735541457e+02 2.918975276816622e+03
1.153666526211329e+03 3.314696037180305e+02 2.918975276816622e+03
1.152847300031357e+03 3.308197997566619e+02 2.918975276816622e+03
1.153404995003774e+03 3.296718134757965e+02 2.918975276816622e+03
1.153903970530408e+03 3.284201630532663e+02 2.918975276816622e+03
1.153316044488869e+03 3.273857726994151e+02 2.918975276816622e+03
1.153104964007156e+03 3.264686368869400e+02 2.918975276816622e+03
1.153857048508740e+03 3.256938238682528e+02 2.918975276816622e+03
1.154048661626864e+03 3.245360052319857e+02 2.918975276816622e+03
1.154030592861879e+03 3.225549824106785e+02 2.918975276816622e+03
1.153972695475017e+03 3.204428152620721e+02 2.918975276816622e+03
1.153914436722499e+03 3.189072029496273e+02 2.918975276816622e+03
1.153922911512177e+03 3.177523661261749e+02 2.918975276816622e+03
1.154092144633828e+03 3.160043004453029e+02 2.918975276816622e+03
1.154339613193969e+03 3.143452754486004e+02 2.918975276816622e+03
1.154621563257862e+03 3.121370497040479e+02 2.918975276816622e+03
1.154911707605640e+03 3.095410135876901e+02 2.918975276816622e+03
1.155558725054710e+03 3.065664919205714e+02 2.918975276816622e+03
1.156299250332836e+03 3.044167126769809e+02 2.918975276816622e+03
1.156841805117302e+03 3.034059132293495e+02 2.918975276816622e+03
1.156142597662100e+03 3.011960083436610e+02 2.918975276816622e+03
1.156440564990795e+03 2.986114189788427e+02 2.918975276816622e+03
1.156588712850450e+03 2.973024165350342e+02 2.918975276816622e+03
1.155723683808948e+03 2.961087402093995e+02 2.918975276816622e+03
1.155752780812654e+03 2.943003703712017e+02 2.918975276816622e+03
1.155563918373688e+03 2.921350430101503e+02 2.918975276816622e+03
1.155364836323721e+03 2.893916799347231e+02 2.918975276816622e+03
1.155137659465223e+03 2.879083656028920e+02 2.918975276816622e+03
1.154795820904679e+03 2.862968312630800e+02 2.918975276816622e+03
1.154367415450618e+03 2.832970281716899e+02 2.918975276816622e+03
1.153702184355289e+03 2.807703763542935e+02 2.918975276816622e+03
1.153628112277200e+03 2.782008080915450e+02 2.918975276816622e+03
1.153870745628087e+03 2.763827251586523e+02 2.918975276816622e+03
1.154064549025709e+03 2.754496189989050e+02 2.918975276816622e+03
1.154498077337950e+03 2.743403433060441e+02 2.918975276816622e+03
1.154227875749367e+03 2.735513603847107e+02 2.918975276816622e+03
1.153730218424476e+03 2.721197786721732e+02 2.918975276816622e+03
1.153489891772040e+03 2.698225096718180e+02 2.918975276816622e+03
1.153142681690556e+03 2.683183445474232e+02 2.918975276816622e+03
1.152996722548926e+03 2.673102542308283e+02 2.918975276816622e+03
1.153050136853186e+03 2.651239313198301e+02 2.918975276816622e+03
1.153175223221207e+03 2.629619119134276e+02 2.918975276816622e+03
1.153149599138507e+03 2.614071463817882e+02 2.918975276816622e+03
1.152988437262267e+03 2.600360211526297e+02 2.918975276816622e+03
1.153360347890777e+03 2.596450634398090e+02 2.918975276816622e+03
1.153467677445926e+03 2.587960056921679e+02 2.918975276816622e+03
1.153220113877834e+03 2.573633107719456e+02 2.918975276816622e+03
1.153032127003175e+03 2.564439531964474e+02 2.918975276816622e+03
1.152947343831142e+03 2.556764896784714e+02 2.918975276816622e+03
1.153332773812754e+03 2.544997417041456e+02 2.918975276816622e+03
1.153526655725968e+03 2.531019917844947e+02 2.918975276816622e+03
1.153634718599161e+03 2.515305901944551e+02 2.918975276816622e+03
1.153443531673861e+03 2.494797486988477e+02 2.918975276816622e+03
1.153153723972755e+03 2.482984894236448e+02 2.918975276816622e+03
1.153217703930871e+03 2.473156388025562e+02 2.918975276816622e+03
1.153336349193273e+03 2.460137250741961e+02 2.918975276816622e+03
1.153452765522756e+03 2.444607713367713e+02 2.918975276816622e+03
1.153486613013946e+03 2.425301347993372e+02 2.918975276816622e+03
1.153516361354519e+03 2.408379254617467e+02 2.918975276816622e+03
1.153552616522697e+03 2.391775519138357e+02 2.918975276816622e+03
1.153584345567614e+03 2.371009613464758e+02 2.918975276816622e+03
1.153591108349695e+03 2.344840097072642e+02 2.918975276816622e+03
1.153415357524728e+03 2.329376054088413e+02 2.918975276816622e+03
1.153188848744247e+03 2.313388423309399e+02 2.918975276816622e+03
1.153122093628426e+03 2.292868291138378e+02 2.918975276816622e+03
1.153163207235314e+03 2.277482662634823e+02 2.918975276816622e+03
1.153282971160646e+03 2.263188494317285e+02 2.918975276816622e+03
1.153115216950763e+03 2.251210631879295e+02 2.918975276816622e+03
1.152973042624263e+03 2.229288825871994e+02 2.918975276816622e+03
1.153237108010495e+03 2.206084152000846e+02 2.918975276816622e+03
1.152931923519293e+03 2.192146432746163e+02 2.918975276816622e+03
1.152532072069956e+03 2.174238502285280e+02 2.918975276816622e+03
1.152759282626406e+03 2.150486861667523e+02 2.918975276816622e+03
1.152944336351540e+03 2.126887393171642e+02 2.918975276816622e+03
1.152330970630736e+03 2.115682025891867e+02 2.918975276816622e+03
1.152161978153744e+03 2.107227597129179e+02 2.918975276816622e+03
1.152946178657474e+03 2.094498696351195e+02 2.918975276816622e+03
1.154287937479549e+03 2.085907603957392e+02 2.918975276816622e+03
1.154147879316693e+03 2.072963064123004e+02 2.918975276816622e+03
1.153313040701769e+03 2.061216490415651e+02 2.918975276816622e+03
1.153464303325592e+03 2.051149513510559e+02 2.918975276816622e+03
1.153164296915238e+03 2.029983689159188e+02 2.918975276816622e+03
1.153054631854418e+03 2.006990212369308e+02 2.918975276816622e+03
1.153286341982360e+03 1.989482711090730e+02 2.918975276816622e+03
1.153302382821916e+03 1.969425192768336e+02 2.918975276816622e+03
1.153237348127810e+03 1.943063955963669e+02 2.918975276816622e+03
1.153068453779916e+03 1.925366527653732e+02 2.918975276816622e+03
1.152799753179405e+03 1.911746874749949e+02 2.918975276816622e+03
1.152781590424728e+03 1.891628531242376e+02 2.918975276816622e+03
1.152876422703790e+03 1.879152261756066e+02 2.918975276816622e+03
1.152980344802209e+03 1.861360872235919e+02 2.918975276816622e+03
1.152916361015967e+03 1.831608740048193e+02 2.918975276816622e+03
1.153152300624887e+03 1.808788936978966e+02 2.918975276816622e+03
1.153457936854881e+03 1.795972140313871e+02 2.918975276816622e+03
1.153584457475119e+03 1.774281239488224e+02 2.918975276816622e+03
1.153656763298353e+03 1.746350633731673e+02 2.918975276816622e+03
1.153786277758717e+03 1.730489843963256e+02 2.918975276816622e+03
1.152933232059698e+03 1.721791096212733e+02 2.918975276816622e+03
1.152520039749853e+03 1.707740696062688e+02 2.918975276816622e+03
1.153111755592863e+03 1.694756975180179e+02 2.918975276816622e+03
1.154396025709724e+03 1.682224418709931e+02 2.918975276816622e+03
1.154211023072998e+03 1.669968104323036e+02 2.918975276816622e+03
1.153391301570744e+03 1.650031860473883e+02 2.918975276816622e+03
1.153630336113231e+03 1.623997100972453e+02 2.918975276816622e+03
1.153463352266045e+03 1.607115781041617e+02 2.918975276816622e+03
1.153547437499776e+03 1.594365860549873e+02 2.918975276816622e+03
1.153903447333769e+03 1.575548921447790e+02 2.918975276816622e+03
1.154317638629632e+03 1.551550966363707e+02 2.918975276816622e+03
1.155019082811987e+03 1.528068333418941e+02 2.918975276816622e+03
1.154409984891558e+03 1.515376039604384e+02 2.918975276816622e+03
1.153208871995753e+03 1.509805682396253e+02 2.918975276816622e+03
1.152723890411648e+03 1.496205615393988e+02 2.918975276816622e+03
1.151967126242600e+03 1.487686276385928e+02 2.918975276816622e+03
1.152179139437812e+03 1.478162774432455e+02 2.918975276816622e+03
1.152629347169088e+03 1.463576755755410e+02 2.918975276816622e+03
1.152787533778446e+03 1.452732990816198e+02 2.918975276816622e+03
1.152963120157784e+03 1.431282083176704e+02 2.918975276816622e+03
1.153096423238069e+03 1.404310968584961e+02 2.918975276816622e+03
1.153203168318886e+03 1.391200510165115e+02 2.918975276816622e+03
1.153219576955347e+03 1.375832736369423e+02 2.918975276816622e+03
1.153131872394143e+03 1.347891736890716e+02 2.918975276816622e+03
1.153075901572996e+03 1.318068086792950e+02 2.918975276816622e+03
1.152886528090502e+03 1.293434595746718e+02 2.918975276816622e+03
1.152742578095985e+03 1.276779078198202e+02 2.918975276816622e+03
1.152783456967233e+03 1.263339165697796e+02 2.918975276816622e+03
1.152786572029493e+03 1.251538498776629e+02 2.918975276816622e+03
1.152922154898687e+03 1.231175655671312e+02 2.918975276816622e+03
1.153144795500254e+03 1.207250628786850e+02 2.918975276816622e+03
1.153136662849971e+03 1.192461885647167e+02 2.918975276816622e+03
1.152997785469669e+03 1.174902502186278e+02 2.918975276816622e+03
1.152535412630452e+03 1.148918897792569e+02 2.918975276816622e+03
1.151895890767803e+03 1.127161955968223e+02 2.918975276816622e+03
1.152041226526089e+03 1.118961777878428e+02 2.918975276816622e+03
1.152496251363705e+03 1.110280311452185e+02 2.918975276816622e+03
1.152216759121864e+03 1.094459572117289e+02 2.918975276816622e+03
1.151970033784909e+03 1.085756148174160e+02 2.918975276816622e+03
1.152335643696220e+03 1.077028324644539e+02 2.918975276816622e+03
1.152754763784395e+03 1.062825146985993e+02 2.918975276816622e+03
1.152946671317920e+03 1.051304844584510e+02 2.918975276816622e+03
1.153209807503600e+03 1.030989735972714e+02 2.918975276816622e+03
1.153476036049862e+03 1.005291108127060e+02 2.918975276816622e+03
1.153729947763338e+03 9.816396539228754e+01 2.918975276816622e+03
1.153953013683601e+03 9.667892125914287e+01 2.918975276816622e+03
1.154281915125904e+03 9.512630018843885e+01 2.918975276816622e+03
1.154508458595873e+03 9.231922505034602e+01 2.918975276816622e+03
1.154005112824078e+03 9.052451343734745e+01 2.918975276816622e+03
1.154446795600071e+03 8.949112572502519e+01 2.918975276816622e+03
1.154955680312425e+03 8.792503715056213e+01 2.918975276816622e+03
1.154526939778461e+03 8.637472401488179e+01 2.918975276816622e+03
1.153982164793396e+03 8.513442881158140e+01 2.918975276816622e+03
1.153897998540112e+03 8.441020851241500e+01 2.918975276816622e+03
1.154128423201201e+03 8.327590606790855e+01 2.918975276816622e+03
1.153905271699313e+03 8.118790354679516e+01 2.918975276816622e+03
1.153810623932753e+03 7.949825567425205e+01 2.918975276816622e+03
1.153996095273325e+03 7.867868195852047e+01 2.918975276816622e+03
1.154139897468981e+03 7.729444772055875e+01 2.918975276816622e+03
1.154610800060345e+03 7.501926691708464e+01 2.918975276816622e+03
1.155443527494688e+03 7.316332492201261e+01 2.918975276816622e+03
1.155918031277592e+03 7.234160048321647e+01 2.918975276816622e+03
1.155548567521259e+03 7.096364847622465e+01 2.918975276816622e+03
1.155290018976239e+03 6.854967639100227e+01 2.918975276816622e+03
1.155330206285984e+03 6.643675752211988e+01 2.918975276816622e+03
1.155699018297183e+03 6.449972278243857e+01 2.918975276816622e+03
1.155042883410381e+03 6.338900470110468e+01 2.918975276816622e+03
1.153591522381899e+03 6.295804878479284e+01 2.918975276816622e+03
1.153193144820428e+03 6.167984818063082e+01 2.918975276816622e+03
1.154022633368447e+03 6.102400773778547e+01 2.918975276816622e+03
1.154895997199582e+03 6.066104732141852e+01 2.918975276816622e+03
1.154985650462390e+03 5.920713647318256e+01 2.918975276816622e+03
1.155184048044548e+03 5.799677346139686e+01 2.918975276816622e+03
1.155818865465879e+03 5.636563087632456e+01 2.918975276816622e+03
1.156252336972515e+03 5.506555961045994e+01 2.918975276816622e+03
1.155371823965390e+03 5.356278888428260e+01 2.918975276816622e+03
1.155071242470903e+03 5.131329700904736e+01 2.918975276816622e+03
1.154857435839367e+03 4.915677201364795e+01 2.918975276816622e+03
1.154418183466003e+03 4.751519205945960e+01 2.918975276816622e+03
1.154394787255703e+03 4.565627791643418e+01 2.918975276816622e+03
1.154306103768724e+03 4.328274570114421e+01 2.918975276816622e+03
1.154300679715405e+03 4.215564094502513e+01 2.918975276816622e+03
1.154363194544658e+03 4.115902335395153e+01 2.918975276816622e+03
1.154418287849468e+03 3.949441736243246e+01 2.918975276816622e+03
1.154518457239475e+03 3.703222007394876e+01 2.918975276816622e+03
1.154607461397421e+03 3.475633694047927e+01 2.918975276816622e+03
1.154692621821874e+03 3.304996585894361e+01 2.918975276816622e+03
1.154791133858155e+03 3.103488780314711e+01 2.918975276816622e+03
1.154875890668424e+03 2.909843409504723e+01 2.918975276816622e+03
1.155035177955236e+03 2.681566928585296e+01 2.918975276816622e+03
1.155209304764225e+03 2.393890408412955e+01 2.918975276816622e+03
1.155484530640172e+03 2.093533654110575e+01 2.918975276816622e+03
1.155549864255813e+03 1.937930906956711e+01 2.918975276816622e+03
1.155242539104549e+03 1.763523896158341e+01 2.918975276816622e+03
1.155106815003073e+03 1.510682641649597e+01 2.918975276816622e+03
1.155022505042648e+03 1.374855497156376e+01 2.918975276816622e+03
1.154927733688767e+03 1.237332575452266e+01 2.918975276816622e+03
1.154989086742294e+03 1.087142275363713e+01 2.918975276816622e+03
1.154904980711141e+03 9.034057728904783e+00 2.918975276816622e+03
1.154791783209779e+03 6.652045862732404e+00 2.918975276816622e+03
1.154706353659222e+03 5.056038119895063e+00 2.918975276816622e+03
1.154618170174474e+03 3.653857953643231e+00 2.918975276816622e+03
1.154597291058543e+03 2.093606789156786e+00 2.918975276816622e+03

CELLS 1769 7137
3 6 1781 7
3 6 1782 445
3 7 1783 8
3 8 1784 9
3 9 1785 10
3 10 1786 11
3 11 1787 12
4 12 1788 1789 13
3 13 1790 14
3 14 1791 15
3 15 1792 16
3 16 1793 17
3 17 1794 18
3 18 1795 19
3 19 1796 20
3 20 1797 21
3 21 1798 22
3 22 1799 23
3 23 1800 24
3 24 1801 25
3 25 1802 26
3 26 1803 27
3 27 1804 28
3 28 1805 29
3 29 1806 30
4 30 1807 1808 31
3 31 1809 32
3 32 1810 33
3 33 1811 34
3 34 1812 35
3 35 1813 36
3 36 1814 37
3 37 1815 38
3 38 1816 39
3 39 1817 40
3 40 1818 41
3 41 1819 42
3 42 1820 43
3 43 1821 44
3 44 1822 45
3 45 1823 46
3 46 1824 47
3 47 1825 48
3 48 1826 49
3 49 1827 50
3 50 1828 51
3 51 1829 52
3 52 1830 53
3 53 1831 54
3 54 1832 55
3 55 1833 56
3 56 1834 57
3 57 1835 58
3 58 1836 59
3 59 1837 60
3 60 1838 61
3 61 1839 62
3 62 1840 63
3 63 1841 64
3 64 1842 65
3 65 1843 66
3 66 1844 67
3 67 1845 68
3 68 1846 69
3 69 1847 70
3 70 1848 71
3 71 1849 72
3 72 1850 73
3 73 1851 74
3 74 1852 75
3 75 1853 76
3 76 1854 77
3 77 1855 78
4 78 1856 1857 79
3 79 1858 80
3 80 1859 81
3 81 1860 82
3 82 1861 83
3 83 1862 84
3 84 1863 85
3 85 1864 86
3 86 1865 87
3 87 1866 88
3 88 1867 89
3 89 1868 90
3 90 1869 91
3 91 1870 92
3 92 1871 93
3 93 1872 94
3 94 1873 95
3 95 1874 96
3 96 1875 97
3 97 1876 98
3 98 1877 99
3 99 1878 100
3 100 1879 101
4 101 1880 1881 102
3 102 1882 103
3 103 1883 104
3 104 1884 105
3 105 1885 106
3 106 1886 107
3 107 1887 108
3 108 1888 109
3 109 1889 110
3 110 1890 111
3 111 1891 112
4 112 1892 1893 113
3 113 1894 114
3 114 1895 115
3 115 1896 116
3 116 1897 117
3 117 1898 118
3 118 1899 119
3 119 1900 120
3 120 1901 121
3 121 1902 122
3 122 1903 123
3 123 1904 124
3 124 1905 125
3 125 1906 126
3 126 1907 127
3 127 1908 128
3 128 1909 129
3 129 1910 130
3 130 1911 131
3 131 1912 132
3 132 1913 133
3 133 1914 134
3 134 1915 135
4 135 1916 1917 136
3 136 1918 137
3 137 1919 138
3 138 1920 139
3 139 1921 140
3 140 1922 141
3 141 1923 142
3 142 1924 143
3 143 1925 144
3 144 1926 145
3 145 1927 146
3 146 1928 147
3 147 1929 148
3 148 1930 149
3 149 1931 150
3 150 1932 151
3 151 1933 152
3 152 1934 153
3 153 1935 154
3 154 1936 155
3 155 1937 156
3 156 1938 157
3 157 1939 158
3 158 1940 159
3 159 1941 160
3 160 1942 161
3 161 1943 162
3 162 1944 163
3 163 1945 164
3 164 1946 165
3 165 1947 166
3 166 1948 167
3 167 1949 168
3 168 1950 169
3 169 1951 170
3 170 1952 171
3 171 1953 172
3 172 1954 173
3 173 1955 174
3 174 1956 175
3 175 1957 176
3 176 1958 177
4 177 1959 1960 178
3 178 1961 179
3 179 1962 180
3 180 1963 181
3 181 1964 182
3 182 1965 183
3 183 1966 184
3 184 1967 185
3 185 1968 186
3 186 1969 187
3 187 1970 188
3 188 1971 189
3 189 1972 190
3 190 1973 191
3 191 1974 192
3 192 1975 193
3 193 1976 194
3 194 1977 195
3 195 1978 196
3 196 1979 197
3 197 1980 198
3 198 1981 199
3 199 1982 200
3 200 1983 201
3 201 1984 202
3 202 1985 203
3 203 1986 204
3 204 1987 205
3 205 1988 206
3 206 1989 207
3 207 1990 208
3 208 1991 209
3 209 1992 210
3 210 1993 211
3 211 1994 212
3 212 1995 213
3 213 1996 214
3 214 1997 215
3 215 1998 216
3 216 1999 217
3 217 2000 218
3 218 2001 219
4 219 2002 2003 220
3 220 2004 221
3 221 2005 222
3 222 2006 223
3 223 2007 224
3 224 2008 225
3 225 2009 226
3 226 2010 227
3 227 2011 228
3 228 2012 229
3 229 2013 1773
4 230 2014 2015 231
3 230 2016 1774
3 231 2017 232
3 232 2018 233
3 233 2019 234
4 234 2020 2021 235
3 235 2022 236
3 236 2023 237
4 237 2024 2025 238
3 238 2026 239
3 239 2027 240
3 240 2028 241
3 241 2029 242
3 242 2030 243
3 243 2031 244
3 244 2032 245
3 245 2033 246
3 246 2034 247
3 247 2035 248
3 248 2036 249
3 249 2037 250
4 250 2038 2039 251
3 251 2040 252
3 252 2041 253
3 253 2042 254
3 254 2043 255
3 255 2044 256
3 256 2045 257
3 257 2046 258
3 258 2047 259
3 259 2048 260
3 260 2049 261
3 261 2050 262
3 262 2051 263
3 263 2052 264
3 264 2053 265
3 265 2054 266
3 266 2055 267
3 267 2056 268
3 268 2057 269
3 269 2058 270
4 270 2059 2060 271
3 271 2061 272
3 272 2062 273
3 273 2063 274
3 274 2064 275
3 275 2065 276
3 276 2066 277
3 277 2067 278
3 278 2068 279
3 279 2069 280
3 280 2070 281
3 281 2071 282
3 282 2072 283
3 283 2073 284
3 284 2074 285
3 285 2075 286
3 286 2076 287
3 287 2077 288
3 288 2078 289
3 289 2079 290
3 290 2080 291
3 291 2081 292
3 292 2082 293
3 293 2083 294
3 294 2084 295
3 295 2085 296
3 296 2086 297
3 297 2087 298
3 298 2088 299
3 299 2089 300
3 300 2090 301
3 301 2091 302
3 302 2092 303
3 303 2093 304
3 304 2094 305
3 305 2095 306
3 306 2096 307
3 307 2097 308
3 308 2098 309
3 309 2099 310
3 310 2100 311
3 311 2101 312
3 312 2102 313
3 313 2103 314
3 314 2104 315
3 315 2105 316
3 316 2106 317
3 317 2107 318
3 318 2108 319
3 319 2109 320
3 320 2110 321
3 321 2111 322
3 322 2112 323
3 323 2113 324
3 324 2114 325
3 325 2115 326
3 326 2116 327
3 327 2117 328
3 328 2118 329
3 329 2119 330
3 330 2120 331
3 331 2121 332
3 332 2122 333
3 333 2123 334
3 334 2124 335
3 335 2125 336
3 336 2126 337
3 337 2127 338
3 338 2128 339
3 339 2129 340
3 340 2130 341
3 341 2131 342
3 342 2132 343
3 343 2133 344
3 344 2134 345
3 345 2135 346
3 346 2136 347
3 347 2137 348
3 348 2138 349
3 349 2139 350
3 350 2140 351
3 351 2141 352
3 352 2142 353
3 353 2143 354
3 354 2144 355
3 355 2145 356
3 356 2146 357
3 357 2147 358
3 358 2148 359
3 359 2149 360
3 360 2150 361
3 361 2151 362
3 362 2152 363
3 363 2153 364
3 364 2154 365
3 365 2155 366
3 366 2156 367
3 367 2157 368
3 368 2158 369
3 369 2159 370
3 370 2160 371
3 371 2161 372
3 372 2162 373
3 373 2163 374
3 374 2164 375
3 375 2165 376
3 376 2166 377
3 377 2167 378
3 378 2168 379
3 379 2169 380
4 380 2170 2171 381
3 381 2172 382
3 382 2173 383
3 383 2174 384
3 384 2175 385
3 385 2176 386
3 386 2177 387
3 387 2178 388
3 388 2179 389
3 389 2180 390
3 390 2181 391
3 391 2182 392
3 392 2183 393
3 393 2184 394
3 394 2185 395
3 395 2186 396
3 396 2187 397
3 397 2188 398
3 398 2189 399
3 399 2190 400
3 400 2191 401
3 401 2192 402
3 402 2193 403
3 403 2194 404
3 404 2195 405
3 405 2196 406
3 406 2197 407
3 407 2198 408
3 408 2199 409
3 409 2200 410
3 410 2201 411
3 411 2202 412
3 412 2203 413
3 413 2204 414
3 414 2205 415
3 415 2206 416
4 416 2207 2208 417
3 417 2209 418
3 418 2210 419
3 419 2211 420
3 420 2212 421
3 421 2213 422
3 422 2214 423
3 423 2215 424
3 424 2216 425
3 425 2217 426
3 426 2218 427
3 427 2219 428
3 428 2220 429
3 429 2221 430
3 430 2222 431
3 431 2223 432
3 432 2224 433
3 433 2225 434
3 434 2226 435
3 435 2227 436
3 436 2228 437
3 437 2229 438
3 438 2230 439
3 439 2231 440
3 440 2232 441
3 441 2233 442
3 442 2234 443
3 443 2235 444
3 444 2236 445
3 447 2237 448
3 447 2238 890
3 448 2239 449
3 449 2240 450
4 450 2241 2242 451
3 451 2243 452
3 452 2244 453
3 453 2245 454
3 454 2246 455
4 455 2247 2248 456
3 456 2249 457
3 457 2250 458
3 458 2251 459
3 459 2252 460
3 460 2253 461
3 461 2254 462
3 462 2255 463
4 463 2256 2257 464
3 464 2258 465
3 465 2259 466
3 466 2260 467
3 467 2261 468
3 468 2262 469
3 469 2263 470
3 470 2264 471
3 471 2265 472
3 472 2266 473
3 473 2267 474
3 474 2268 475
3 475 2269 476
3 476 2270 477
3 477 2271 478
3 478 2272 479
3 479 2273 480
3 480 2274 481
3 481 2275 482
3 482 2276 483
4 483 2277 2278 484
3 484 2279 485
3 485 2280 486
3 486 2281 487
3 487 2282 488
3 488 2283 489
3 489 2284 490
3 490 2285 491
3 491 2286 492
3 492 2287 493
3 493 2288 494
4 494 2289 2290 495
3 495 2291 496
3 496 2292 497
3 497 2293 498
3 498 2294 499
3 499 2295 500
3 500 2296 501
3 501 2297 502
3 502 2298 503
3 503 2299 504
3 504 2300 505
3 505 2301 506
4 506 2302 2303 507
4 507 2304 2305 508
3 508 2306 509
3 509 2307 510
3 510 2308 511
3 511 2309 512
3 512 2310 513
3 513 2311 514
3 514 2312 515
3 515 2313 516
3 516 2314 517
3 517 2315 518
4 518 2316 2317 519
3 519 2318 520
3 520 2319 521
3 521 2320 522
3 522 2321 523
3 523 2322 524
3 524 2323 525
3 525 2324 526
3 526 2325 527
3 527 2326 528
3 528 2327 529
3 529 2328 530
4 530 2329 2330 531
3 531 2331 532
3 532 2332 533
3 533 2333 534
3 534 2334 535
3 535 2335 536
3 536 2336 537
3 537 2337 538
3 538 2338 539
3 539 2339 540
4 540 2340 2341 541
3 541 2342 542
3 542 2343 543
3 543 2344 544
3 544 2345 545
3 545 2346 546
3 546 2347 547
3 547 2348 548
3 548 2349 549
3 549 2350 550
3 550 2351 551
3 551 2352 552
4 552 2353 2354 553
3 553 2355 554
3 554 2356 555
3 555 2357 556
3 556 2358 557
3 557 2359 558
3 558 2360 559
3 559 2361 560
3 560 2362 561
3 561 2363 562
3 562 2364 563
3 563 2365 564
4 564 2366 2367 565
3 565 2368 566
3 566 2369 567
3 567 2370 568
3 568 2371 569
3 569 2372 570
3 570 2373 571
3 571 2374 572
3 572 2375 573
3 573 2376 574
3 574 2377 575
3 575 2378 576
3 576 2379 577
3 577 2380 578
3 578 2381 579
3 579 2382 580
3 580 2383 581
3 581 2384 582
3 582 2385 583
3 583 2386 584
3 584 2387 585
3 585 2388 586
3 586 2389 587
3 587 2390 588
3 588 2391 589
4 589 2392 2393 590
3 590 2394 591
3 591 2395 592
3 592 2396 593
3 593 2397 594
3 594 2398 595
3 595 2399 596
3 596 2400 597
3 597 2401 598
4 598 2402 2403 599
3 599 2404 600
3 600 2405 601
3 601 2406 602
3 602 2407 603
3 603 2408 604
3 604 2409 605
3 605 2410 606
3 606 2411 607
3 607 2412 608
3 608 2413 609
3 609 2414 610
3 610 2415 611
3 611 2416 612
3 612 2417 613
3 613 2418 614
3 614 2419 615
3 615 2420 616
3 616 2421 617
3 617 2422 618
3 618 2423 619
3 619 2424 620
3 620 2425 621
3 621 2426 622
3 622 2427 623
3 623 2428 624
3 624 2429 625
3 625 2430 626
3 626 2431 627
3 627 2432 628
3 628 2433 629
3 629 2434 630
3 630 2435 631
3 631 2436 632
3 632 2437 633
3 633 2438 634
3 634 2439 635
3 635 2440 636
3 636 2441 637
3 637 2442 638
3 638 2443 639
3 639 2444 640
3 640 2445 641
3 641 2446 642
3 642 2447 643
3 643 2448 644
3 644 2449 645
3 645 2450 646
3 646 2451 647
3 647 2452 648
3 648 2453 649
3 649 2454 650
4 650 2455 2456 651
3 651 2457 652
3 652 2458 1775
3 653 2459 654
3 653 2460 1776
3 654 2461 655
3 655 2462 656
3 656 2463 657
3 657 2464 658
3 658 2465 659
3 659 2466 660
3 660 2467 661
3 661 2468 662
3 662 2469 663
3 663 2470 664
3 664 2471 665
3 665 2472 666
3 666 2473 667
3 667 2474 668
3 668 2475 669
3 669 2476 670
3 670 2477 671
3 671 2478 672
3 672 2479 673
3 673 2480 674
3 674 2481 675
3 675 2482 676
3 676 2483 677
3 677 2484 678
3 678 2485 679
3 679 2486 680
3 680 2487 681
3 681 2488 682
3 682 2489 683
3 683 2490 684
3 684 2491 685
3 685 2492 686
3 686 2493 687
3 687 2494 688
3 688 2495 689
3 689 2496 690
3 690 2497 691
3 691 2498 692
3 692 2499 693
3 693 2500 694
3 694 2501 695
3 695 2502 696
3 696 2503 697
3 697 2504 698
3 698 2505 699
3 699 2506 700
3 700 2507 701
3 701 2508 702
3 702 2509 703
3 703 2510 704
3 704 2511 705
3 705 2512 706
3 706 2513 707
3 707 2514 708
3 708 2515 709
3 709 2516 710
3 710 2517 711
3 711 2518 712
3 712 2519 713
3 713 2520 714
3 714 2521 715
3 715 2522 716
3 716 2523 717
3 717 2524 718
3 718 2525 719
3 719 2526 720
3 720 2527 721
3 721 2528 722
3 722 2529 723
4 723 2530 2531 724
3 724 2532 725
3 725 2533 726
3 726 2534 727
3 727 2535 728
3 728 2536 729
3 729 2537 730
3 730 2538 731
3 731 2539 732
3 732 2540 733
3 733 2541 734
3 734 2542 735
3 735 2543 736
3 736 2544 737
3 737 2545 738
3 738 2546 739
3 739 2547 740
3 740 2548 741
3 741 2549 742
3 742 2550 743
3 743 2551 744
4 744 2552 2553 745
3 745 2554 746
3 746 2555 747
3 747 2556 748
3 748 2557 749
3 749 2558 750
3 750 2559 751
3 751 2560 752
3 752 2561 753
3 753 2562 754
3 754 2563 755
3 755 2564 756
4 756 2565 2566 757
3 757 2567 758
3 758 2568 759
3 759 2569 760
3 760 2570 761
3 761 2571 762
3 762 2572 763
3 763 2573 764
3 764 2574 765
3 765 2575 766
3 766 2576 767
3 767 2577 768
3 768 2578 769
3 769 2579 770
3 770 2580 771
3 771 2581 772
3 772 2582 773
3 773 2583 774
3 774 2584 775
3 775 2585 776
3 776 2586 777
3 777 2587 778
3 778 2588 779
3 779 2589 780
3 780 2590 781
3 781 2591 782
4 782 2592 2593 783
3 783 2594 784
3 784 2595 785
3 785 2596 786
3 786 2597 787
3 787 2598 788
3 788 2599 789
3 789 2600 790
3 790 2601 791
3 791 2602 792
3 792 2603 793
3 793 2604 794
4 794 2605 2606 795
3 795 2607 796
3 796 2608 797
3 797 2609 798
3 798 2610 799
3 799 2611 800
3 800 2612 801
3 801 2613 802
3 802 2614 803
3 803 2615 804
3 804 2616 805
3 805 2617 806
3 806 2618 807
3 807 2619 808
4 808 2620 2621 809
3 809 2622 810
3 810 2623 811
3 811 2624 812
3 812 2625 813
3 813 2626 814
3 814 2627 815
3 815 2628 816
3 816 2629 817
3 817 2630 818
3 818 2631 819
3 819 2632 820
4 820 2633 2634 821
3 821 2635 822
3 822 2636 823
3 823 2637 824
3 824 2638 825
3 825 2639 826
3 826 2640 827
3 827 2641 828
3 828 2642 829
3 829 2643 830
3 830 2644 831
3 831 2645 832
4 832 2646 2647 833
3 833 2648 834
3 834 2649 835
3 835 2650 836
3 836 2651 837
3 837 2652 838
4 838 2653 2654 839
3 839 2655 840
3 840 2656 841
3 841 2657 842
3 842 2658 843
3 843 2659 844
3 844 2660 845
3 845 2661 846
3 846 2662 847
3 847 2663 848
3 848 2664 849
3 849 2665 850
3 850 2666 851
3 851 2667 852
3 852 2668 853
3 853 2669 854
3 854 2670 855
3 855 2671 856
3 856 2672 857
3 857 2673 858
3 858 2674 859
3 859 2675 860
3 860 2676 861
3 861 2677 862
3 862 2678 863
3 863 2679 864
3 864 2680 865
3 865 2681 866
3 866 2682 867
3 867 2683 868
3 868 2684 869
3 869 2685 870
3 870 2686 871
3 871 2687 872
3 872 2688 873
3 873 2689 874
3 874 2690 875
4 875 2691 2692 876
3 876 2693 877
3 877 2694 878
3 878 2695 879
3 879 2696 880
3 880 2697 881
3 881 2698 882
3 882 2699 883
3 883 2700 884
3 884 2701 885
3 885 2702 886
3 886 2703 887
3 887 2704 888
3 888 2705 889
3 889 2706 890
3 891 2707 892
3 891 2708 1341
3 892 2709 893
3 893 2710 894
3 894 2711 895
3 895 2712 896
3 896 2713 897
3 897 2714 898
3 898 2715 899
3 899 2716 900
3 900 2717 901
3 901 2718 902
3 902 2719 903
3 903 2720 904
3 904 2721 905
3 905 2722 906
3 906 2723 907
3 907 2724 908
3 908 2725 909
3 909 2726 910
3 910 2727 911
3 911 2728 912
3 912 2729 913
3 913 2730 914
3 914 2731 915
3 915 2732 916
3 916 2733 917
3 917 2734 918
3 918 2735 919
3 919 2736 920
3 920 2737 921
3 921 2738 922
3 922 2739 923
3 923 2740 924
3 924 2741 925
3 925 2742 926
3 926 2743 927
3 927 2744 928
3 928 2745 929
3 929 2746 930
3 930 2747 931
3 931 2748 932
3 932 2749 933
3 933 2750 934
3 934 2751 935
3 935 2752 936
3 936 2753 937
3 937 2754 938
3 938 2755 939
3 939 2756 940
3 940 2757 941
3 941 2758 942
3 942 2759 943
3 943 2760 944
3 944 2761 945
3 945 2762 946
3 946 2763 947
3 947 2764 948
3 948 2765 949
3 949 2766 950
3 950 2767 951
3 951 2768 952
3 952 2769 953
3 953 2770 954
3 954 2771 955
3 955 2772 956
3 956 2773 957
3 957 2774 958
3 958 2775 959
3 959 2776 960
3 960 2777 961
3 961 2778 962
3 962 2779 963
4 963 2780 2781 964
3 964 2782 965
3 965 2783 966
3 966 2784 967
3 967 2785 968
3 968 2786 969
3 969 2787 970
3 970 2788 971
3 971 2789 972
3 972 2790 973
3 973 2791 974
3 974 2792 975
3 975 2793 976
3 976 2794 977
3 977 2795 978
3 978 2796 979
3 979 2797 980
3 980 2798 981
3 981 2799 982
3 982 2800 983
3 983 2801 984
3 984 2802 985
3 985 2803 986
3 986 2804 987
3 987 2805 988
3 988 2806 989
3 989 2807 990
3 990 2808 991
3 991 2809 992
3 992 2810 993
3 993 2811 994
3 994 2812 995
3 995 2813 996
3 996 2814 997
3 997 2815 998
3 998 2816 999
3 999 2817 1000
3 1000 2818 1001
3 1001 2819 1002
3 1002 2820 1003
3 1003 2821 1004
3 1004 2822 1005
3 1005 2823 1006
3 1006 2824 1007
3 1007 2825 1008
3 1008 2826 1009
3 1009 2827 1010
3 1010 2828 1011
3 1011 2829 1012
3 1012 2830 1013
3 1013 2831 1014
3 1014 2832 1015
3 1015 2833 1016
3 1016 2834 1017
3 1017 2835 1018
3 1018 2836 1019
3 1019 2837 1020
3 1020 2838 1021
3 1021 2839 1022
3 1022 2840 1023
3 1023 2841 1024
3 1024 2842 1025
3 1025 2843 1026
3 1026 2844 1027
3 1027 2845 1028
3 1028 2846 1029
3 1029 2847 1030
3 1030 2848 1031
3 1031 2849 1032
3 1032 2850 1033
3 1033 2851 1034
3 1034 2852 1035
3 1035 2853 1036
3 1036 2854 1037
3 1037 2855 1038
3 1038 2856 1039
3 1039 2857 1040
3 1040 2858 1041
3 1041 2859 1042
3 1042 2860 1043
3 1043 2861 1044
3 1044 2862 1045
3 1045 2863 1046
3 1046 2864 1047
3 1047 2865 1048
3 1048 2866 1049
3 1049 2867 1050
3 1050 2868 1051
3 1051 2869 1052
3 1052 2870 1053
3 1053 2871 1054
3 1054 2872 1055
3 1055 2873 1056
3 1056 2874 1057
3 1057 2875 1058
3 1058 2876 1059
3 1059 2877 1060
3 1060 2878 1061
3 1061 2879 1062
3 1062 2880 1063
3 1063 2881 1064
3 1064 2882 1065
3 1065 2883 1066
3 1066 2884 1067
3 1067 2885 1068
3 1068 2886 1069
3 1069 2887 1070
3 1070 2888 1071
3 1071 2889 1072
3 1072 2890 1073
3 1073 2891 1074
3 1074 2892 1075
3 1075 2893 1076
3 1076 2894 1077
3 1077 2895 1078
3 1078 2896 1079
3 1079 2897 1080
3 1080 2898 1081
3 1081 2899 1082
3 1082 2900 1083
3 1083 2901 1084
3 1084 2902 1085
3 1085 2903 1086
3 1086 2904 1087
3 1087 2905 1088
3 1088 2906 1089
3 1089 2907 1090
3 1090 2908 1091
3 1091 2909 1092
3 1092 2910 1093
3 1093 2911 1094
3 1094 2912 1095
3 1095 2913 1096
3 1096 2914 1097
3 1097 2915 1098
3 1098 2916 1099
3 1099 2917 1100
3 1100 2918 1101
3 1101 2919 1102
3 1102 2920 1103
3 1103 2921 1104
3 1104 2922 1105
3 1105 2923 1106
3 1106 2924 1107
3 1107 2925 1108
3 1108 2926 1109
3 1109 2927 1110
3 1110 2928 1111
3 1111 2929 1112
3 1112 2930 1113
3 1113 2931 1114
3 1114 2932 1115
3 1115 2933 1116
3 1116 2934 1117
4 1117 2935 2936 1118
3 1118 2937 1119
3 1119 2938 1120
3 1120 2939 1121
3 1121 2940 1122
3 1122 2941 1123
3 1123 2942 1124
3 1124 2943 1125
3 1125 2944 1126
3 1126 2945 1127
3 1127 2946 1128
3 1128 2947 1129
3 1129 2948 1130
3 1130 2949 1131
3 1131 2950 1132
3 1132 2951 1777
3 1133 2952 1134
3 1133 2953 1778
3 1134 2954 1135
3 1135 2955 1136
3 1136 2956 1137
3 1137 2957 1138
3 1138 2958 1139
4 1139 2959 2960 1140
3 1140 2961 1141
3 1141 2962 1142
3 1142 2963 1143
3 1143 2964 1144
3 1144 2965 1145
3 1145 2966 1146
3 1146 2967 1147
3 1147 2968 1148
3 1148 2969 1149
3 1149 2970 1150
4 1150 2971 2972 1151
3 1151 2973 1152
5 1152 2974 2975 2976 1153
3 1153 2977 1154
3 1154 2978 1155
3 1155 2979 1156
3 1156 2980 1157
3 1157 2981 1158
4 1158 2982 2983 1159
3 1159 2984 1160
3 1160 2985 1161
3 1161 2986 1162
3 1162 2987 1163
3 1163 2988 1164
3 1164 2989 1165
3 1165 2990 1166
3 1166 2991 1167
3 1167 2992 1168
3 1168 2993 1169
3 1169 2994 1170
3 1170 2995 1171
3 1171 2996 1172
3 1172 2997 1173
3 1173 2998 1174
3 1174 2999 1175
3 1175 3000 1176
3 1176 3001 1177
3 1177 3002 1178
3 1178 3003 1179
3 1179 3004 1180
3 1180 3005 1181
3 1181 3006 1182
3 1182 3007 1183
3 1183 3008 1184
3 1184 3009 1185
3 1185 3010 1186
3 1186 3011 1187
3 1187 3012 1188
3 1188 3013 1189
3 1189 3014 1190
3 1190 3015 1191
3 1191 3016 1192
3 1192 3017 1193
3 1193 3018 1194
3 1194 3019 1195
3 1195 3020 1196
3 1196 3021 1197
3 1197 3022 1198
3 1198 3023 1199
3 1199 3024 1200
3 1200 3025 1201
3 1201 3026 1202
3 1202 3027 1203
3 1203 3028 1204
3 1204 3029 1205
3 1205 3030 1206
3 1206 3031 1207
3 1207 3032 1208
3 1208 3033 1209
3 1209 3034 1210
3 1210 3035 1211
3 1211 3036 1212
3 1212 3037 1213
3 1213 3038 1214
3 1214 3039 1215
3 1215 3040 1216
3 1216 3041 1217
3 1217 3042 1218
3 1218 3043 1219
3 1219 3044 1220
3 1220 3045 1221
3 1221 3046 1222
3 1222 3047 1223
3 1223 3048 1224
3 1224 3049 1225
3 1225 3050 1226
3 1226 3051 1227
3 1227 3052 1228
3 1228 3053 1229
3 1229 3054 1230
3 1230 3055 1231
3 1231 3056 1232
3 1232 3057 1233
3 1233 3058 1234
3 1234 3059 1235
3 1235 3060 1236
3 1236 3061 1237
3 1237 3062 1238
3 1238 3063 1239
3 1239 3064 1240
3 1240 3065 1241
3 1241 3066 1242
3 1242 3067 1243
3 1243 3068 1244
3 1244 3069 1245
3 1245 3070 1246
3 1246 3071 1247
3 1247 3072 1248
3 1248 3073 1249
3 1249 3074 1250
3 1250 3075 1251
3 1251 3076 1252
3 1252 3077 1253
3 1253 3078 1254
3 1254 3079 1255
3 1255 3080 1256
3 1256 3081 1257
3 1257 3082 1258
3 1258 3083 1259
3 1259 3084 1260
3 1260 3085 1261
3 1261 3086 1262
3 1262 3087 1263
3 1263 3088 1264
3 1264 3089 1265
3 1265 3090 1266
3 1266 3091 1267
3 1267 3092 1268
3 1268 3093 1269
3 1269 3094 1270
3 1270 3095 1271
3 1271 3096 1272
3 1272 3097 1273
3 1273 3098 1274
3 1274 3099 1275
3 1275 3100 1276
3 1276 3101 1277
3 1277 3102 1278
3 1278 3103 1279
3 1279 3104 1280
3 1280 3105 1281
3 1281 3106 1282
3 1282 3107 1283
3 1283 3108 1284
3 1284 3109 1285
3 1285 3110 1286
3 1286 3111 1287
3 1287 3112 1288
3 1288 3113 1289
3 1289 3114 1290
3 1290 3115 1291
3 1291 3116 1292
3 1292 3117 1293
3 1293 3118 1294
3 1294 3119 1295
3 1295 3120 1296
3 1296 3121 1297
4 1297 3122 3123 1298
3 1298 3124 1299
3 1299 3125 1300
3 1300 3126 1301
3 1301 3127 1302
3 1302 3128 1303
3 1303 3129 1304
3 1304 3130 1305
3 1305 3131 1306
3 1306 3132 1307
3 1307 3133 1308
3 1308 3134 1309
3 1309 3135 1310
3 1310 3136 1311
3 1311 3137 1312
3 1312 3138 1313
3 1313 3139 1314
3 1314 3140 1315
3 1315 3141 1316
3 1316 3142 1317
3 1317 3143 1318
3 1318 3144 1319
3 1319 3145 1320
3 1320 3146 1321
3 1321 3147 1322
3 1322 3148 1323
3 1323 3149 1324
3 1324 3150 1325
3 1325 3151 1326
3 1326 3152 1327
4 1327 3153 3154 1328
3 1328 3155 1329
3 1329 3156 1330
3 1330 3157 1331
3 1331 3158 1332
3 1332 3159 1333
3 1333 3160 1334
3 1334 3161 1335
3 1335 3162 1336
3 1336 3163 1337
3 1337 3164 1338
3 1338 3165 1339
3 1339 3166 1340
3 1340 3167 1341
3 1343 3168 1344
3 1343 3169 1772
3 1344 3170 1345
3 1345 3171 1346
3 1346 3172 1347
3 1347 3173 1348
3 1348 3174 1349
3 1349 3175 1350
3 1350 3176 1351
3 1351 3177 1352
3 1352 3178 1353
3 1353 3179 1354
3 1354 3180 1355
4 1355 3181 3182 1356
3 1356 3183 1357
3 1357 3184 1358
3 1358 3185 1359
3 1359 3186 1360
3 1360 3187 1361
3 1361 3188 1362
3 1362 3189 1363
3 1363 3190 1364
3 1364 3191 1365
3 1365 3192 1366
3 1366 3193 1367
3 1367 3194 1368
3 1368 3195 1369
3 1369 3196 1370
3 1370 3197 1371
3 1371 3198 1372
3 1372 3199 1373
3 1373 3200 1374
3 1374 3201 1375
3 1375 3202 1376
3 1376 3203 1377
3 1377 3204 1378
3 1378 3205 1379
3 1379 3206 1380
3 1380 3207 1381
3 1381 3208 1382
3 1382 3209 1383
3 1383 3210 1384
3 1384 3211 1385
3 1385 3212 1386
3 1386 3213 1387
3 1387 3214 1388
3 1388 3215 1389
3 1389 3216 1390
3 1390 3217 1391
3 1391 3218 1392
3 1392 3219 1393
3 1393 3220 1394
3 1394 3221 1395
3 1395 3222 1396
3 1396 3223 1397
3 1397 3224 1398
3 1398 3225 1399
3 1399 3226 1400
3 1400 3227 1401
3 1401 3228 1402
3 1402 3229 1403
3 1403 3230 1404
3 1404 3231 1405
3 1405 3232 1406
3 1406 3233 1407
3 1407 3234 1408
3 1408 3235 1409
3 1409 3236 1410
3 1410 3237 1411
3 1411 3238 1412
3 1412 3239 1413
3 1413 3240 1414
3 1414 3241 1415
3 1415 3242 1416
3 1416 3243 1417
3 1417 3244 1418
3 1418 3245 1419
3 1419 3246 1420
3 1420 3247 1421
3 1421 3248 1422
3 1422 3249 1423
3 1423 3250 1424
3 1424 3251 1425
3 1425 3252 1426
3 1426 3253 1427
3 1427 3254 1428
3 1428 3255 1429
3 1429 3256 1430
3 1430 3257 1431
3 1431 3258 1432
3 1432 3259 1433
3 1433 3260 1434
3 1434 3261 1435
3 1435 3262 1436
3 1436 3263 1437
3 1437 3264 1438
3 1438 3265 1439
3 1439 3266 1440
3 1440 3267 1441
3 1441 3268 1442
3 1442 3269 1443
3 1443 3270 1444
3 1444 3271 1445
3 1445 3272 1446
3 1446 3273 1447
3 1447 3274 1448
3 1448 3275 1449
3 1449 3276 1450
3 1450 3277 1451
3 1451 3278 1452
3 1452 3279 1453
3 1453 3280 1454
3 1454 3281 1455
3 1455 3282 1456
3 1456 3283 1457
3 1457 3284 1458
3 1458 3285 1459
3 1459 3286 1460
3 1460 3287 1461
3 1461 3288 1462
3 1462 3289 1463
3 1463 3290 1464
3 1464 3291 1465
3 1465 3292 1466
3 1466 3293 1467
3 1467 3294 1468
3 1468 3295 1469
3 1469 3296 1470
3 1470 3297 1471
3 1471 3298 1472
3 1472 3299 1473
3 1473 3300 1474
3 1474 3301 1475
3 1475 3302 1476
3 1476 3303 1477
3 1477 3304 1478
3 1478 3305 1479
3 1479 3306 1480
3 1480 3307 1481
3 1481 3308 1482
3 1482 3309 1483
3 1483 3310 1484
3 1484 3311 1485
3 1485 3312 1486
3 1486 3313 1487
3 1487 3314 1488
3 1488 3315 1489
3 1489 3316 1490
3 1490 3317 1491
3 1491 3318 1492
3 1492 3319 1493
3 1493 3320 1494
3 1494 3321 1495
3 1495 3322 1496
3 1496 3323 1497
3 1497 3324 1498
4 1498 3325 3326 1499
3 1499 3327 1500
3 1500 3328 1501
3 1501 3329 1502
3 1502 3330 1503
3 1503 3331 1504
3 1504 3332 1505
3 1505 3333 1506
4 1506 3334 3335 1507
3 1507 3336 1508
3 1508 3337 1509
3 1509 3338 1510
3 1510 3339 1511
3 1511 3340 1512
3 1512 3341 1513
3 1513 3342 1514
3 1514 3343 1515
3 1515 3344 1516
3 1516 3345 1517
4 1517 3346 3347 1518
3 1518 3348 1519
3 1519 3349 1520
3 1520 3350 1521
3 1521 3351 1522
3 1522 3352 1523
3 1523 3353 1524
3 1524 3354 1525
3 1525 3355 1526
3 1526 3356 1527
3 1527 3357 1528
3 1528 3358 1529
3 1529 3359 1530
3 1530 3360 1531
3 1531 3361 1532
3 1532 3362 1533
3 1533 3363 1534
3 1534 3364 1535
3 1535 3365 1536
3 1536 3366 1537
3 1537 3367 1538
3 1538 3368 1539
3 1539 3369 1540
3 1540 3370 1541
3 1541 3371 1542
4 1542 3372 3373 1543
3 1543 3374 1544
3 1544 3375 1545
3 1545 3376 1779
3 1546 3377 1547
3 1546 3378 1780
3 1547 3379 1548
3 1548 3380 1549
4 1549 3381 3382 1550
3 1550 3383 1551
3 1551 3384 1552
3 1552 3385 1553
3 1553 3386 1554
3 1554 3387 1555
3 1555 3388 1556
3 1556 3389 1557
3 1557 3390 1558
3 1558 3391 1559
3 1559 3392 1560
3 1560 3393 1561
3 1561 3394 1562
3 1562 3395 1563
3 1563 3396 1564
3 1564 3397 1565
3 1565 3398 1566
3 1566 3399 1567
3 1567 3400 1568
3 1568 3401 1569
3 1569 3402 1570
3 1570 3403 1571
3 1571 3404 1572
3 1572 3405 1573
3 1573 3406 1574
3 1574 3407 1575
3 1575 3408 1576
3 1576 3409 1577
3 1577 3410 1578
3 1578 3411 1579
3 1579 3412 1580
3 1580 3413 1581
3 1581 3414 1582
3 1582 3415 1583
3 1583 3416 1584
3 1584 3417 1585
3 1585 3418 1586
3 1586 3419 1587
3 1587 3420 1588
3 1588 3421 1589
3 1589 3422 1590
3 1590 3423 1591
3 1591 3424 1592
3 1592 3425 1593
3 1593 3426 1594
3 1594 3427 1595
3 1595 3428 1596
3 1596 3429 1597
3 1597 3430 1598
3 1598 3431 1599
3 1599 3432 1600
3 1600 3433 1601
3 1601 3434 1602
3 1602 3435 1603
4 1603 3436 3437 1604
3 1604 3438 1605
4 1605 3439 3440 1606
3 1606 3441 1607
3 1607 3442 1608
3 1608 3443 1609
3 1609 3444 1610
3 1610 3445 1611
3 1611 3446 1612
3 1612 3447 1613
3 1613 3448 1614
3 1614 3449 1615
3 1615 3450 1616
3 1616 3451 1617
3 1617 3452 1618
3 1618 3453 1619
3 1619 3454 1620
3 1620 3455 1621
3 1621 3456 1622
3 1622 3457 1623
3 1623 3458 1624
3 1624 3459 1625
3 1625 3460 1626
3 1626 3461 1627
3 1627 3462 1628
3 1628 3463 1629
3 1629 3464 1630
3 1630 3465 1631
3 1631 3466 1632
3 1632 3467 1633
3 1633 3468 1634
3 1634 3469 1635
3 1635 3470 1636
3 1636 3471 1637
3 1637 3472 1638
3 1638 3473 1639
3 1639 3474 1640
3 1640 3475 1641
3 1641 3476 1642
3 1642 3477 1643
3 1643 3478 1644
3 1644 3479 1645
3 1645 3480 1646
3 1646 3481 1647
3 1647 3482 1648
4 1648 3483 3484 1649
3 1649 3485 1650
3 1650 3486 1651
3 1651 3487 1652
3 1652 3488 1653
3 1653 3489 1654
3 1654 3490 1655
3 1655 3491 1656
3 1656 3492 1657
3 1657 3493 1658
3 1658 3494 1659
3 1659 3495 1660
3 1660 3496 1661
3 1661 3497 1662
3 1662 3498 1663
3 1663 3499 1664
3 1664 3500 1665
3 1665 3501 1666
3 1666 3502 1667
3 1667 3503 1668
3 1668 3504 1669
3 1669 3505 1670
3 1670 3506 1671
3 1671 3507 1672
3 1672 3508 1673
3 1673 3509 1674
3 1674 3510 1675
3 1675 3511 1676
3 1676 3512 1677
3 1677 3513 1678
3 1678 3514 1679
3 1679 3515 1680
3 1680 3516 1681
3 1681 3517 1682
3 1682 3518 1683
3 1683 3519 1684
3 1684 3520 1685
3 1685 3521 1686
3 1686 3522 1687
3 1687 3523 1688
3 1688 3524 1689
3 1689 3525 1690
3 1690 3526 1691
3 1691 3527 1692
3 1692 3528 1693
3 1693 3529 1694
3 1694 3530 1695
4 1695 3531 3532 1696
3 1696 3533 1697
3 1697 3534 1698
3 1698 3535 1699
3 1699 3536 1700
3 1700 3537 1701
3 1701 3538 1702
3 1702 3539 1703
3 1703 3540 1704
3 1704 3541 1705
3 1705 3542 1706
3 1706 3543 1707
3 1707 3544 1708
3 1708 3545 1709
3 1709 3546 1710
3 1710 3547 1711
3 1711 3548 1712
3 1712 3549 1713
3 1713 3550 1714
3 1714 3551 1715
3 1715 3552 1716
3 1716 3553 1717
3 1717 3554 1718
3 1718 3555 1719
3 1719 3556 1720
3 1720 3557 1721
3 1721 3558 1722
3 1722 3559 1723
3 1723 3560 1724
3 1724 3561 1725
3 1725 3562 1726
3 1726 3563 1727
3 1727 3564 1728
3 1728 3565 1729
3 1729 3566 1730
3 1730 3567 1731
3 1731 3568 1732
3 1732 3569 1733
3 1733 3570 1734
3 1734 3571 1735
3 1735 3572 1736
3 1736 3573 1737
3 1737 3574 1738
3 1738 3575 1739
3 1739 3576 1740
3 1740 3577 1741
3 1741 3578 1742
3 1742 3579 1743
3 1743 3580 1744
3 1744 3581 1745
3 1745 3582 1746
3 1746 3583 1747
3 1747 3584 1748
3 1748 3585 1749
3 1749 3586 1750
3 1750 3587 1751
3 1751 3588 1752
3 1752 3589 1753
3 1753 3590 1754
3 1754 3591 1755
3 1755 3592 1756
3 1756 3593 1757
3 1757 3594 1758
3 1758 3595 1759
3 1759 3596 1760
3 1760 3597 1761
4 1761 3598 3599 1762
3 1762 3600 1763
3 1763 3601 1764
3 1764 3602 1765
3 1765 3603 1766
3 1766 3604 1767
3 1767 3605 1768
4 1768 3606 3607 1769
3 1769 3608 1770
3 1770 3609 1771
3 1771 3610 1772

CELL_TYPES 1769
4
4
4
4
4
4
4
4
4
4
4
4
4
4
4
4
4
4
4
4
4
4
4
4
4
4
4
4
4
4
4
4
4
4
4
4
4
4
4
4
4
4
4
4
4
4
4
4
4
4
4
4
4
4
4
4
4
4
4
4
4
4
4
4
4
4
4
4
4
4
4
4
4
4
4
4
4
4
4
4
4
4
4
4
4
4
4
4
4
4
4
4
4
4
4
4
4
4
4
4
4
4
4
4
4
4
4
4
4
4
4
4
4
4
4
4
4
4
4
4
4
4
4
4
4
4
4
4
4
4
4
4
4
4
4
4
4
4
4
4
4
4
4
4
4
4
4
4
4
4
4
4
4
4
4
4
4
4
4
4
4
4
4
4
4
4
4
4
4
4
4
4
4
4
4
4
4
4
4
4
4
4
4
4
4
4
4
4
4
4
4
4
4
4
4
4
4
4
4
4
4
4
4
4
4
4
4
4
4
4
4
4
4
4
4
4
4
4
4
4
4
4
4
4
4
4
4
4
4
4
4
4
4
4
4
4
4
4
4
4
4
4
4
4
4
4
4
4
4
4
4
4
4
4
4
4
4
4
4
4
4
4
4
4
4
4
4
4
4
4
4
4
4
4
4
4
4
4
4
4
4
4
4
4
4
4
4
4
4
4
4
4
4
4
4
4
4
4
4
4
4
4
4
4
4
4
4
4
4
4
4
4
4
4
4
4
4
4
4
4
4
4
4
4
4
4
4
4
4
4
4
4
4
4
4
4
4
4
4
4
4
4
4
4
4
4
4
4
4
4
4
4
4
4
4
4
4
4
4
4
4
4
4
4
4
4
4
4
4
4
4
4
4
4
4
4
4
4
4
4
4
4
4
4
4
4
4
4
4
4
4
4
4
4
4
4
4
4
4
4
4
4
4
4
4
4
4
4
4
4
4
4
4
4
4
4
4
4
4
4
4
4
4
4
4
4
4
4
4
4
4
4
4
4
4
4
4
4
4
4
4
4
4
4
4
4
4
4
4
4
4
4
4
4
4
4
4
4
4
4
4
4
4
4
4
4
4
4
4
4
4
4
4
4
4
4
4
4
4
4
4
4
4
4
4
4
4
4
4
4
4
4
4
4
4
4
4
4
4
4
4
4
4
4
4
4
4
4
4
4
4
4
4
4
4
4
4
4
4
4
4
4
4
4
4
4
4
4
4
4
4
4
4
4
4
4
4
4
4
4
4
4
4
4
4
4
4
4
4
4
4
4
4
4
4
4
4
4
4
4
4
4
4
4
4
4
4
4
4
4
4
4
4
4
4
4
4
4
4
4
4
4
4
4
4
4
4
4
4
4
4
4
4
4
4
4
4
4
4
4
4
4
4
4
4
4
4
4
4
4
4
4
4
4
4
4
4
4
4
4
4
4
4
4
4
4
4
4
4
4
4
4
4
4
4
4
4
4
4
4
4
4
4
4
4
4
4
4
4
4
4
4
4
4
4
4
4
4
4
4
4
4
4
4
4
4
4
4
4
4
4
4
4
4
4
4
4
4
4
4
4
4
4
4
4
4
4
4
4
4
4
4
4
4
4
4
4
4
4
4
4
4
4
4
4
4
4
4
4
4
4
4
4
4
4
4
4
4
4
4
4
4
4
4
4
4
4
4
4
4
4
4
4
4
4
4
4
4
4
4
4
4
4
4
4
4
4
4
4
4
4
4
4
4
4
4
4
4
4
4
4
4
4
4
4
4
4
4
4
4
4
4
4
4
4
4
4
4
4
4
4
4
4
4
4
4
4
4
4
4
4
4
4
4
4
4
4
4
4
4
4
4
4
4
4
4
4
4
4
4
4
4
4
4
4
4
4
4
4
4
4
4
4
4
4
4
4
4
4
4
4
4
4
4
4
4
4
4
4
4
4
4
4
4
4
4
4
4
4
4
4
4
4
4
4
4
4
4
4
4
4
4
4
4
4
4
4
4
4
4
4
4
4
4
4
4
4
4
4
4
4
4
4
4
4
4
4
4
4
4
4
4
4
4
4
4
4
4
4
4
4
4
4
4
4
4
4
4
4
4
4
4
4
4
4
4
4
4
4
4
4
4
4
4
4
4
4
4
4
4
4
4
4
4
4
4
4
4
4
4
4
4
4
4
4
4
4
4
4
4
4
4
4
4
4
4
4
4
4
4
4
4
4
4
4
4
4
4
4
4
4
4
4
4
4
4
4
4
4
4
4
4
4
4
4
4
4
4
4
4
4
4
4
4
4
4
4
4
4
4
4
4
4
4
4
4
4
4
4
4
4
4
4
4
4
4
4
4
4
4
4
4
4
4
4
4
4
4
4
4
4
4
4
4
4
4
4
4
4
4
4
4
4
4
4
4
4
4
4
4
4
4
4
4
4
4
4
4
4
4
4
4
4
4
4
4
4
4
4
4
4
4
4
4
4
4
4
4
4
4
4
4
4
4
4
4
4
4
4
4
4
4
4
4
4
4
4
4
4
4
4
4
4
4
4
4
4
4
4
4
4
4
4
4
4
4
4
4
4
4
4
4
4
4
4
4
4
4
4
4
4
4
4
4
4
4
4
4
4
4
4
4
4
4
4
4
4
4
4
4
4
4
4
4
4
4
4
4
4
4
4
4
4
4
4
4
4
4
4
4
4
4
4
4
4
4
4
4
4
4
4
4
4
4
4
4
4
4
4
4
4
4
4
4
4
4
4
4
4
4
4
4
4
4
4
4
4
4
4
4
4
4
4
4
4
4
4
4
4
4
4
4
4
4
4
4
4
4
4
4
4
4
4
4
4
4
4
4
4
4
4
4
4
4
4
4
4
4
4
4
4
4
4
4
4
4
4
4
4
4
4
4
4
4
4
4
4
4
4
4
4
4
4
4
4
4
4
4
4
4
4
4
4
4
4
4
4
4
4
4
4
4
4
4
4
4
4
4
4
4
4
4
4
4
4
4
4
4
4
4
4
4
4
4
4
4
4
4
4
4
4
4
4
4
4
4
4
4
4
4
4
4
4
4
4
4
4
4
4
4
4
4
4
4
4
4
4
4
4
4
4
4
4
4
4
4
4
4
4
4
4
4
4
4
4
4
4
4
4
4
4
4
4
4
4
4
4
4
4
4
4
4
4
4
4
4
4
4
4
4
4
4
4
4
4
4
4
4
4
4
4
4
4
4
4
4
4
4
4
4
4
4
4
4
4
4
4
4
4
4
4
4
4
4
4
4
4
4
4
4
4
4
4
4
4
4
4
4
4
4
4
4
4
4
4
4
4
4
4
4
4
4
4
4
4
4
4
4
4
4
4
4
4
4
4
4
4
4
4
4
4
4
4
4
4
4
4
4
4
4
4
4
4
4
4
4
4
4
4
4
4
4
4
4
4
4
4
4
4
4
4
4
4
4
4
4
4
4
4
4
4
4
4
4
4
4
4
4
4
4
4
4
4
4
4
4
4
4
4
4
4
4
4
4
4
4
4
4
4
4
4
4
4
4
4
4
4
4
4
4
4
4
4
4
4
4
4
4
4
4
4
4
4
4
4
4
4
4
4
4
4
4
4
4
4
4
4
4
4
4
4
4
4
4
4
4
4
4
4
4
4
4
4
4
4
4
4
4
4
4
4
4
4
4
4
4
4
4
4
4
4
4
4
4
4
4
4
4
4
4
4
4
4
4
4
4
4
4
4
4
4
4
4
4
4
4
4
4
4
4
4
4
4
4
4
4
4
4
4
4
4
4
4
4
4
4
4
4
4
4
4
4
4
4
4
4
4
4
4
4
4
4
4
4
4
4
4
4
4
4
4
4
4
4
4
4
4
4
4
4
4
4
4
4
4
4
4
4
4
4
4
4
4
4
4
4
4
4
4
4
4
4
4
4
4
4
4
4
4
4
4
4
4
4
4
4
4
4
4
4
4
4
4
4
4
4
4
4
4
4
4
4
4
4
4
4
4
4
4
4
4
4
4
4
4
4
4
4
4
4
4
4
4
4
4
4
4
4
4

POINT_DATA 3611
VECTORS PK_force double
0.000000000000000e+00 0.000000000000000e+00 0.000000000000000e+00
0.000000000000000e+00 0.000000000000000e+00 0.000000000000000e+00
0.000000000000000e+00 0.000000000000000e+00 0.000000000000000e+00
0.000000000000000e+00 0.000000000000000e+00 0.000000000000000e+00
0.000000000000000e+00 0.000000000000000e+00 0.000000000000000e+00
0.000000000000000e+00 0.000000000000000e+00 0.000000000000000e+00
0.000000000000000e+00 0.000000000000000e+00 0.000000000000000e+00
0.000000000000000e+00 0.000000000000000e+00 0.000000000000000e+00
0.000000000000000e+00 0.000000000000000e+00 0.000000000000000e+00
0.000000000000000e+00 0.000000000000000e+00 0.000000000000000e+00
0.000000000000000e+00 0.000000000000000e+00 0.000000000000000e+00
0.000000000000000e+00 0.000000000000000e+00 0.000000000000000e+00
0.000000000000000e+00 0.000000000000000e+00 0.000000000000000e+00
0.000000000000000e+00 0.000000000000000e+00 0.000000000000000e+00
0.000000000000000e+00 0.000000000000000e+00 0.000000000000000e+00
0.000000000000000e+00 0.000000000000000e+00 0.000000000000000e+00
0.000000000000000e+00 0.000000000000000e+00 0.000000000000000e+00
0.000000000000000e+00 0.000000000000000e+00 0.000000000000000e+00
0.000000000000000e+00 0.000000000000000e+00 0.000000000000000e+00
0.000000000000000e+00 0.000000000000000e+00 0.000000000000000e+00
0.000000000000000e+00 0.000000000000000e+00 0.000000000000000e+00
0.000000000000000e+00 0.000000000000000e+00 0.000000000000000e+00
0.000000000000000e+00 0.000000000000000e+00 0.000000000000000e+00
0.000000000000000e+00 0.000000000000000e+00 0.000000000000000e+00
0.000000000000000e+00 0.000000000000000e+00 0.000000000000000e+00
0.000000000000000e+00 0.000000000000000e+00 0.000000000000000e+00
0.000000000000000e+00 0.000000000000000e+00 0.000000000000000e+00
0.000000000000000e+00 0.000000000000000e+00 0.000000000000000e+00
0.000000000000000e+00 0.000000000000000e+00 0.000000000000000e+00
0.000000000000000e+00 0.000000000000000e+00 0.000000000000000e+00
0.000000000000000e+00 0.000000000000000e+00 0.000000000000000e+00
0.000000000000000e+00 0.000000000000000e+00 0.000000000000000e+00
0.000000000000000e+00 0.000000000000000e+00 0.000000000000000e+00
0.000000000000000e+00 0.000000000000000e+00 0.000000000000000e+00
0.000000000000000e+00 0.000000000000000e+00 0.000000000000000e+00
0.000000000000000e+00 0.000000000000000e+00 0.000000000000000e+00
0.000000000000000e+00 0.000000000000000e+00 0.000000000000000e+00
0.000000000000000e+00 0.000000000000000e+00 0.000000000000000e+00
0.000000000000000e+00 0.000000000000000e+00 0.000000000000000e+00
0.000000000000000e+00 0.000000000000000e+00 0.000000000000000e+00
0.000000000000000e+00 0.000000000000000e+00 0.000000000000000e+00
0.000000000000000e+00 0.000000000000000e+00 0.000000000000000e+00
0.000000000000000e+00 0.000000000000000e+00 0.000000000000000e+00
0.000000000000000e+00 0.000000000000000e+00 0.000000000000000e+00
0.000000000000000e+00 0.000000000000000e+00 0.000000000000000e+00
0.000000000000000e+00 0.000000000000000e+00 0.000000000000000e+00
0.000000000000000e+00 0.000000000000000e+00 0.000000000000000e+00
0.000000000000000e+00 0.000000000000000e+00 0.000000000000000e+00
0.000000000000000e+00 0.000000000000000e+00 0.000000000000000e+00
0.000000000000000e+00 0.000000000000000e+00 0.000000000000000e+00
0.000000000000000e+00 0.000000000000000e+00 0.000000000000000e+00
0.000000000000000e+00 0.000000000000000e+00 0.000000000000000e+00
0.000000000000000e+00 0.000000000000000e+00 0.000000000000000e+00
0.000000000000000e+00 0.000000000000000e+00 0.000000000000000e+00
0.000000000000000e+00 0.000000000000000e+00 0.000000000000000e+00
0.000000000000000e+00 0.000000000000000e+00 0.000000000000000e+00
0.000000000000000e+00 0.000000000000000e+00 0.000000000000000e+00
0.000000000000000e+00 0.000000000000000e+00 0.000000000000000e+00
0.000000000000000e+00 0.000000000000000e+00 0.000000000000000e+00
0.000000000000000e+00 0.000000000000000e+00 0.000000000000000e+00
0.000000000000000e+00 0.000000000000000e+00 0.000000000000000e+00
0.000000000000000e+00 0.000000000000000e+00 0.000000000000000e+00
0.000000000000000e+00 0.000000000000000e+00 0.000000000000000e+00
0.000000000000000e+00 0.000000000000000e+00 0.000000000000000e+00
0.000000000000000e+00 0.000000000000000e+00 0.000000000000000e+00
0.000000000000000e+00 0.000000000000000e+00 0.000000000000000e+00
0.000000000000000e+00 0.000000000000000e+00 0.000000000000000e+00
0.000000000000000e+00 0.000000000000000e+00 0.000000000000000e+00
0.000000000000000e+00 0.000000000000000e+00 0.000000000000000e+00
0.000000000000000e+00 0.000000000000000e+00 0.000000000000000e+00
0.000000000000000e+00 0.000000000000000e+00 0.000000000000000e+00
0.000000000000000e+00 0.000000000000000e+00 0.000000000000000e+00
0.000000000000000e+00 0.000000000000000e+00 0.000000000000000e+00
0.000000000000000e+00 0.000000000000000e+00 0.000000000000000e+00
0.000000000000000e+00 0.000000000000000e+00 0.000000000000000e+00
0.000000000000000e+00 0.000000000000000e+00 0.000000000000000e+00
0.000000000000000e+00 0.000000000000000e+00 0.000000000000000e+00
0.000000000000000e+00 0.000000000000000e+00 0.000000000000000e+00
0.000000000000000e+00 0.000000000000000e+00 0.000000000000000e+00
0.000000000000000e+00 0.000000000000000e+00 0.000000000000000e+00
0.000000000000000e+00 0.000000000000000e+00 0.000000000000000e+00
0.000000000000000e+00 0.000000000000000e+00 0.000000000000000e+00
0.000000000000000e+00 0.000000000000000e+00 0.000000000000000e+00
0.000000000000000e+00 0.000000000000000e+00 0.000000000000000e+00
0.000000000000000e+00 0.000000000000000e+00 0.000000000000000e+00
0.000000000000000e+00 0.000000000000000e+00 0.000000000000000e+00
0.000000000000000e+00 0.000000000000000e+00 0.000000000000000e+00
0.000000000000000e+00 0.000000000000000e+00 0.000000000000000e+00
0.000000000000000e+00 0.000000000000000e+00 0.000000000000000e+00
0.000000000000000e+00 0.000000000000000e+00 0.000000000000000e+00
0.000000000000000e+00 0.000000000000000e+00 0.000000000000000e+00
0.000000000000000e+00 0.000000000000000e+00 0.000000000000000e+00
0.000000000000000e+00 0.000000000000000e+00 0.000000000000000e+00
0.000000000000000e+00 0.000000000000000e+00 0.000000000000000e+00
0.000000000000000e+00 0.000000000000000e+00 0.000000000000000e+00
0.000000000000000e+00 0.000000000000000e+00 0.000000000000000e+00
0.000000000000000e+00 0.000000000000000e+00 0.000000000000000e+00
0.000000000000000e+00 0.000000000000000e+00 0.000000000000000e+00
0.000000000000000e+00 0.000000000000000e+00 0.000000000000000e+00
0.000000000000000e+00 0.000000000000000e+00 0.000000000000000e+00
0.000000000000000e+00 0.000000000000000e+00 0.000000000000000e+00
0.000000000000000e+00 0.000000000000000e+00 0.000000000000000e+00
0.000000000000000e+00 0.000000000000000e+00 0.000000000000000e+00
0.000000000000000e+00 0.000000000000000e+00 0.000000000000000e+00
0.000000000000000e+00 0.000000000000000e+00 0.000000000000000e+00
0.000000000000000e+00 0.000000000000000e+00 0.000000000000000e+00
0.000000000000000e+00 0.000000000000000e+00 0.000000000000000e+00
0.000000000000000e+00 0.000000000000000e+00 0.000000000000000e+00
0.000000000000000e+00 0.000000000000000e+00 0.000000000000000e+00
0.000000000000000e+00 0.000000000000000e+00 0.000000000000000e+00
0.000000000000000e+00 0.000000000000000e+00 0.000000000000000e+00
0.000000000000000e+00 0.000000000000000e+00 0.000000000000000e+00
0.000000000000000e+00 0.000000000000000e+00 0.000000000000000e+00
0.000000000000000e+00 0.000000000000000e+00 0.000000000000000e+00
0.000000000000000e+00 0.000000000000000e+00 0.000000000000000e+00
0.000000000000000e+00 0.000000000000000e+00 0.000000000000000e+00
0.000000000000000e+00 0.000000000000000e+00 0.000000000000000e+00
0.000000000000000e+00 0.000000000000000e+00 0.000000000000000e+00
0.000000000000000e+00 0.000000000000000e+00 0.000000000000000e+00
0.000000000000000e+00 0.000000000000000e+00 0.000000000000000e+00
0.000000000000000e+00 0.000000000000000e+00 0.000000000000000e+00
0.000000000000000e+00 0.000000000000000e+00 0.000000000000000e+00
0.000000000000000e+00 0.000000000000000e+00 0.000000000000000e+00
0.000000000000000e+00 0.000000000000000e+00 0.000000000000000e+00
0.000000000000000e+00 0.000000000000000e+00 0.000000000000000e+00
0.000000000000000e+00 0.000000000000000e+00 0.000000000000000e+00
0.000000000000000e+00 0.000000000000000e+00 0.000000000000000e+00
0.000000000000000e+00 0.000000000000000e+00 0.000000000000000e+00
0.000000000000000e+00 0.000000000000000e+00 0.000000000000000e+00
0.000000000000000e+00 0.000000000000000e+00 0.000000000000000e+00
0.000000000000000e+00 0.000000000000000e+00 0.000000000000000e+00
0.000000000000000e+00 0.000000000000000e+00 0.000000000000000e+00
0.000000000000000e+00 0.000000000000000e+00 0.000000000000000e+00
0.000000000000000e+00 0.000000000000000e+00 0.000000000000000e+00
0.000000000000000e+00 0.000000000000000e+00 0.000000000000000e+00
0.000000000000000e+00 0.000000000000000e+00 0.000000000000000e+00
0.000000000000000e+00 0.000000000000000e+00 0.000000000000000e+00
0.000000000000000e+00 0.000000000000000e+00 0.000000000000000e+00
0.000000000000000e+00 0.000000000000000e+00 0.000000000000000e+00
0.000000000000000e+00 0.000000000000000e+00 0.000000000000000e+00
0.000000000000000e+00 0.000000000000000e+00 0.000000000000000e+00
0.000000000000000e+00 0.000000000000000e+00 0.000000000000000e+00
0.000000000000000e+00 0.000000000000000e+00 0.000000000000000e+00
0.000000000000000e+00 0.000000000000000e+00 0.000000000000000e+00
0.000000000000000e+00 0.000000000000000e+00 0.000000000000000e+00
0.000000000000000e+00 0.000000000000000e+00 0.000000000000000e+00
0.000000000000000e+00 0.000000000000000e+00 0.000000000000000e+00
0.000000000000000e+00 0.000000000000000e+00 0.000000000000000e+00
0.000000000000000e+00 0.000000000000000e+00 0.000000000000000e+00
0.000000000000000e+00 0.000000000000000e+00 0.000000000000000e+00
0.000000000000000e+00 0.000000000000000e+00 0.000000000000000e+00
0.000000000000000e+00 0.000000000000000e+00 0.000000000000000e+00
0.000000000000000e+00 0.000000000000000e+00 0.000000000000000e+00
0.000000000000000e+00 0.000000000000000e+00 0.000000000000000e+00
0.000000000000000e+00 0.000000000000000e+00 0.000000000000000e+00
0.000000000000000e+00 0.000000000000000e+00 0.000000000000000e+00
0.000000000000000e+00 0.000000000000000e+00 0.000000000000000e+00
0.000000000000000e+00 0.000000000000000e+00 0.000000000000000e+00
0.000000000000000e+00 0.000000000000000e+00 0.000000000000000e+00
0.000000000000000e+00 0.000000000000000e+00 0.000000000000000e+00
0.000000000000000e+00 0.000000000000000e+00 0.000000000000000e+00
0.000000000000000e+00 0.000000000000000e+00 0.000000000000000e+00
0.000000000000000e+00 0.000000000000000e+00 0.000000000000000e+00
0.000000000000000e+00 0.000000000000000e+00 0.000000000000000e+00
0.000000000000000e+00 0.000000000000000e+00 0.000000000000000e+00
0.000000000000000e+00 0.000000000000000e+00 0.000000000000000e+00
0.000000000000000e+00 0.000000000000000e+00 0.000000000000000e+00
0.000000000000000e+00 0.000000000000000e+00 0.000000000000000e+00
0.000000000000000e+00 0.000000000000000e+00 0.000000000000000e+00
0.000000000000000e+00 0.000000000000000e+00 0.000000000000000e+00
0.000000000000000e+00 0.000000000000000e+00 0.000000000000000e+00
0.000000000000000e+00 0.000000000000000e+00 0.000000000000000e+00
0.000000000000000e+00 0.000000000000000e+00 0.000000000000000e+00
0.000000000000000e+00 0.000000000000000e+00 0.000000000000000e+00
0.000000000000000e+00 0.000000000000000e+00 0.000000000000000e+00
0.000000000000000e+00 0.000000000000000e+00 0.000000000000000e+00
0.000000000000000e+00 0.000000000000000e+00 0.000000000000000e+00
0.000000000000000e+00 0.000000000000000e+00 0.000000000000000e+00
0.000000000000000e+00 0.000000000000000e+00 0.000000000000000e+00
0.000000000000000e+00 0.000000000000000e+00 0.000000000000000e+00
0.000000000000000e+00 0.000000000000000e+00 0.000000000000000e+00
0.000000000000000e+00 0.000000000000000e+00 0.000000000000000e+00
0.000000000000000e+00 0.000000000000000e+00 0.000000000000000e+00
0.000000000000000e+00 0.000000000000000e+00 0.000000000000000e+00
0.000000000000000e+00 0.000000000000000e+00 0.000000000000000e+00
0.000000000000000e+00 0.000000000000000e+00 0.000000000000000e+00
0.000000000000000e+00 0.000000000000000e+00 0.000000000000000e+00
0.000000000000000e+00 0.000000000000000e+00 0.000000000000000e+00
0.000000000000000e+00 0.000000000000000e+00 0.000000000000000e+00
0.000000000000000e+00 0.000000000000000e+00 0.000000000000000e+00
0.000000000000000e+00 0.000000000000000e+00 0.000000000000000e+00
0.000000000000000e+00 0.000000000000000e+00 0.000000000000000e+00
0.000000000000000e+00 0.000000000000000e+00 0.000000000000000e+00
0.000000000000000e+00 0.000000000000000e+00 0.000000000000000e+00
0.000000000000000e+00 0.000000000000000e+00 0.000000000000000e+00
0.000000000000000e+00 0.000000000000000e+00 0.000000000000000e+00
0.000000000000000e+00 0.000000000000000e+00 0.000000000000000e+00
0.000000000000000e+00 0.000000000000000e+00 0.000000000000000e+00
0.000000000000000e+00 0.000000000000000e+00 0.000000000000000e+00
0.000000000000000e+00 0.000000000000000e+00 0.000000000000000e+00
0.000000000000000e+00 0.000000000000000e+00 0.000000000000000e+00
0.000000000000000e+00 0.000000000000000e+00 0.000000000000000e+00
0.000000000000000e+00 0.000000000000000e+00 0.000000000000000e+00
0.000000000000000e+00 0.000000000000000e+00 0.000000000000000e+00
0.000000000000000e+00 0.000000000000000e+00 0.000000000000000e+00
0.000000000000000e+00 0.000000000000000e+00 0.000000000000000e+00
0.000000000000000e+00 0.000000000000000e+00 0.000000000000000e+00
0.000000000000000e+00 0.000000000000000e+00 0.000000000000000e+00
0.000000000000000e+00 0.000000000000000e+00 0.000000000000000e+00
0.000000000000000e+00 0.000000000000000e+00 0.000000000000000e+00
0.000000000000000e+00 0.000000000000000e+00 0.000000000000000e+00
0.000000000000000e+00 0.000000000000000e+00 0.000000000000000e+00
0.000000000000000e+00 0.000000000000000e+00 0.000000000000000e+00
0.000000000000000e+00 0.000000000000000e+00 0.000000000000000e+00
0.000000000000000e+00 0.000000000000000e+00 0.000000000000000e+00
0.000000000000000e+00 0.000000000000000e+00 0.000000000000000e+00
0.000000000000000e+00 0.000000000000000e+00 0.000000000000000e+00
0.000000000000000e+00 0.000000000000000e+00 0.000000000000000e+00
0.000000000000000e+00 0.000000000000000e+00 0.000000000000000e+00
0.000000000000000e+00 0.000000000000000e+00 0.000000000000000e+00
0.000000000000000e+00 0.000000000000000e+00 0.000000000000000e+00
0.000000000000000e+00 0.000000000000000e+00 0.000000000000000e+00
0.000000000000000e+00 0.000000000000000e+00 0.000000000000000e+00
0.000000000000000e+00 0.000000000000000e+00 0.000000000000000e+00
0.000000000000000e+00 0.000000000000000e+00 0.000000000000000e+00
0.000000000000000e+00 0.000000000000000e+00 0.000000000000000e+00
0.000000000000000e+00 0.000000000000000e+00 0.000000000000000e+00
0.000000000000000e+00 0.000000000000000e+00 0.000000000000000e+00
0.000000000000000e+00 0.000000000000000e+00 0.000000000000000e+00
0.000000000000000e+00 0.000000000000000e+00 0.000000000000000e+00
0.000000000000000e+00 0.000000000000000e+00 0.000000000000000e+00
0.000000000000000e+00 0.000000000000000e+00 0.000000000000000e+00
0.000000000000000e+00 0.000000000000000e+00 0.000000000000000e+00
0.000000000000000e+00 0.000000000000000e+00 0.000000000000000e+00
0.000000000000000e+00 0.000000000000000e+00 0.000000000000000e+00
0.000000000000000e+00 0.000000000000000e+00 0.000000000000000e+00
0.000000000000000e+00 0.000000000000000e+00 0.000000000000000e+00
0.000000000000000e+00 0.000000000000000e+00 0.000000000000000e+00
0.000000000000000e+00 0.000000000000000e+00 0.000000000000000e+00
0.000000000000000e+00 0.000000000000000e+00 0.000000000000000e+00
0.000000000000000e+00 0.000000000000000e+00 0.000000000000000e+00
0.000000000000000e+00 0.000000000000000e+00 0.000000000000000e+00
0.000000000000000e+00 0.000000000000000e+00 0.000000000000000e+00
0.000000000000000e+00 0.000000000000000e+00 0.000000000000000e+00
0.000000000000000e+00 0.000000000000000e+00 0.000000000000000e+00
0.000000000000000e+00 0.000000000000000e+00 0.000000000000000e+00
0.000000000000000e+00 0.000000000000000e+00 0.000000000000000e+00
0.000000000000000e+00 0.000000000000000e+00 0.000000000000000e+00
0.000000000000000e+00 0.000000000000000e+00 0.000000000000000e+00
0.000000000000000e+00 0.000000000000000e+00 0.000000000000000e+00
0.000000000000000e+00 0.000000000000000e+00 0.000000000000000e+00
0.000000000000000e+00 0.000000000000000e+00 0.000000000000000e+00
0.000000000000000e+00 0.000000000000000e+00 0.000000000000000e+00
0.000000000000000e+00 0.000000000000000e+00 0.000000000000000e+00
0.000000000000000e+00 0.000000000000000e+00 0.000000000000000e+00
0.000000000000000e+00 0.000000000000000e+00 0.000000000000000e+00
0.000000000000000e+00 0.000000000000000e+00 0.000000000000000e+00
0.000000000000000e+00 0.000000000000000e+00 0.000000000000000e+00
0.000000000000000e+00 0.000000000000000e+00 0.000000000000000e+00
0.000000000000000e+00 0.000000000000000e+00 0.000000000000000e+00
0.000000000000000e+00 0.000000000000000e+00 0.000000000000000e+00
0.000000000000000e+00 0.000000000000000e+00 0.000000000000000e+00
0.000000000000000e+00 0.000000000000000e+00 0.000000000000000e+00
0.000000000000000e+00 0.000000000000000e+00 0.000000000000000e+00
0.000000000000000e+00 0.000000000000000e+00 0.000000000000000e+00
0.000000000000000e+00 0.000000000000000e+00 0.000000000000000e+00
0.000000000000000e+00 0.000000000000000e+00 0.000000000000000e+00
0.000000000000000e+00 0.000000000000000e+00 0.000000000000000e+00
0.000000000000000e+00 0.000000000000000e+00 0.000000000000000e+00
0.000000000000000e+00 0.000000000000000e+00 0.000000000000000e+00
0.000000000000000e+00 0.000000000000000e+00 0.000000000000000e+00
0.000000000000000e+00 0.000000000000000e+00 0.000000000000000e+00
0.000000000000000e+00 0.000000000000000e+00 0.000000000000000e+00
0.000000000000000e+00 0.000000000000000e+00 0.000000000000000e+00
0.000000000000000e+00 0.000000000000000e+00 0.000000000000000e+00
0.000000000000000e+00 0.000000000000000e+00 0.000000000000000e+00
0.000000000000000e+00 0.000000000000000e+00 0.000000000000000e+00
0.000000000000000e+00 0.000000000000000e+00 0.000000000000000e+00
0.000000000000000e+00 0.000000000000000e+00 0.000000000000000e+00
0.000000000000000e+00 0.000000000000000e+00 0.000000000000000e+00
0.000000000000000e+00 0.000000000000000e+00 0.000000000000000e+00
0.000000000000000e+00 0.000000000000000e+00 0.000000000000000e+00
0.000000000000000e+00 0.000000000000000e+00 0.000000000000000e+00
0.000000000000000e+00 0.000000000000000e+00 0.000000000000000e+00
0.000000000000000e+00 0.000000000000000e+00 0.000000000000000e+00
0.000000000000000e+00 0.000000000000000e+00 0.000000000000000e+00
0.000000000000000e+00 0.000000000000000e+00 0.000000000000000e+00
0.000000000000000e+00 0.000000000000000e+00 0.000000000000000e+00
0.000000000000000e+00 0.000000000000000e+00 0.000000000000000e+00
0.000000000000000e+00 0.000000000000000e+00 0.000000000000000e+00
0.000000000000000e+00 0.000000000000000e+00 0.000000000000000e+00
0.000000000000000e+00 0.000000000000000e+00 0.000000000000000e+00
0.000000000000000e+00 0.000000000000000e+00 0.000000000000000e+00
0.000000000000000e+00 0.000000000000000e+00 0.000000000000000e+00
0.000000000000000e+00 0.000000000000000e+00 0.000000000000000e+00
0.000000000000000e+00 0.000000000000000e+00 0.000000000000000e+00
0.000000000000000e+00 0.000000000000000e+00 0.000000000000000e+00
0.000000000000000e+00 0.000000000000000e+00 0.000000000000000e+00
0.000000000000000e+00 0.000000000000000e+00 0.000000000000000e+00
0.000000000000000e+00 0.000000000000000e+00 0.000000000000000e+00
0.000000000000000e+00 0.000000000000000e+00 0.000000000000000e+00
0.000000000000000e+00 0.000000000000000e+00 0.000000000000000e+00
0.000000000000000e+00 0.000000000000000e+00 0.000000000000000e+00
0.000000000000000e+00 0.000000000000000e+00 0.000000000000000e+00
0.000000000000000e+00 0.000000000000000e+00 0.000000000000000e+00
0.000000000000000e+00 0.000000000000000e+00 0.000000000000000e+00
0.000000000000000e+00 0.000000000000000e+00 0.000000000000000e+00
0.000000000000000e+00 0.000000000000000e+00 0.000000000000000e+00
0.000000000000000e+00 0.000000000000000e+00 0.000000000000000e+00
0.000000000000000e+00 0.000000000000000e+00 0.000000000000000e+00
0.000000000000000e+00 0.000000000000000e+00 0.000000000000000e+00
0.000000000000000e+00 0.000000000000000e+00 0.000000000000000e+00
0.000000000000000e+00 0.000000000000000e+00 0.000000000000000e+00
0.000000000000000e+00 0.000000000000000e+00 0.000000000000000e+00
0.000000000000000e+00 0.000000000000000e+00 0.000000000000000e+00
0.000000000000000e+00 0.000000000000000e+00 0.000000000000000e+00
0.000000000000000e+00 0.000000000000000e+00 0.000000000000000e+00
0.000000000000000e+00 0.000000000000000e+00 0.000000000000000e+00
0.000000000000000e+00 0.000000000000000e+00 0.000000000000000e+00
0.000000000000000e+00 0.000000000000000e+00 0.000000000000000e+00
0.000000000000000e+00 0.000000000000000e+00 0.000000000000000e+00
0.000000000000000e+00 0.000000000000000e+00 0.000000000000000e+00
0.000000000000000e+00 0.000000000000000e+00 0.000000000000000e+00
0.000000000000000e+00 0.000000000000000e+00 0.000000000000000e+00
0.000000000000000e+00 0.000000000000000e+00 0.000000000000000e+00
0.000000000000000e+00 0.000000000000000e+00 0.000000000000000e+00
0.000000000000000e+00 0.000000000000000e+00 0.000000000000000e+00
0.000000000000000e+00 0.000000000000000e+00 0.000000000000000e+00
0.000000000000000e+00 0.000000000000000e+00 0.000000000000000e+00
0.000000000000000e+00 0.000000000000000e+00 0.000000000000000e+00
0.000000000000000e+00 0.000000000000000e+00 0.000000000000000e+00
0.000000000000000e+00 0.000000000000000e+00 0.000000000000000e+00
0.000000000000000e+00 0.000000000000000e+00 0.000000000000000e+00
0.000000000000000e+00 0.000000000000000e+00 0.000000000000000e+00
0.000000000000000e+00 0.000000000000000e+00 0.000000000000000e+00
0.000000000000000e+00 0.000000000000000e+00 0.000000000000000e+00
0.000000000000000e+00 0.000000000000000e+00 0.000000000000000e+00
0.000000000000000e+00 0.000000000000000e+00 0.000000000000000e+00
0.000000000000000e+00 0.000000000000000e+00 0.000000000000000e+00
0.000000000000000e+00 0.000000000000000e+00 0.000000000000000e+00
0.000000000000000e+00 0.000000000000000e+00 0.000000000000000e+00
0.000000000000000e+00 0.000000000000000e+00 0.000000000000000e+00
0.000000000000000e+00 0.000000000000000e+00 0.000000000000000e+00
0.000000000000000e+00 0.000000000000000e+00 0.000000000000000e+00
0.000000000000000e+00 0.000000000000000e+00 0.000000000000000e+00
0.000000000000000e+00 0.000000000000000e+00 0.000000000000000e+00
0.000000000000000e+00 0.000000000000000e+00 0.000000000000000e+00
0.000000000000000e+00 0.000000000000000e+00 0.000000000000000e+00
0.000000000000000e+00 0.000000000000000e+00 0.000000000000000e+00
0.000000000000000e+00 0.000000000000000e+00 0.000000000000000e+00
0.000000000000000e+00 0.000000000000000e+00 0.000000000000000e+00
0.000000000000000e+00 0.000000000000000e+00 0.000000000000000e+00
0.000000000000000e+00 0.000000000000000e+00 0.000000000000000e+00
0.000000000000000e+00 0.000000000000000e+00 0.000000000000000e+00
0.000000000000000e+00 0.000000000000000e+00 0.000000000000000e+00
0.000000000000000e+00 0.000000000000000e+00 0.000000000000000e+00
0.000000000000000e+00 0.000000000000000e+00 0.000000000000000e+00
0.000000000000000e+00 0.000000000000000e+00 0.000000000000000e+00
0.000000000000000e+00 0.000000000000000e+00 0.000000000000000e+00
0.000000000000000e+00 0.000000000000000e+00 0.000000000000000e+00
0.000000000000000e+00 0.000000000000000e+00 0.000000000000000e+00
0.000000000000000e+00 0.000000000000000e+00 0.000000000000000e+00
0.000000000000000e+00 0.000000000000000e+00 0.000000000000000e+00
0.000000000000000e+00 0.000000000000000e+00 0.000000000000000e+00
0.000000000000000e+00 0.000000000000000e+00 0.000000000000000e+00
0.000000000000000e+00 0.000000000000000e+00 0.000000000000000e+00
0.000000000000000e+00 0.000000000000000e+00 0.000000000000000e+00
0.000000000000000e+00 0.000000000000000e+00 0.000000000000000e+00
0.000000000000000e+00 0.000000000000000e+00 0.000000000000000e+00
0.000000000000000e+00 0.000000000000000e+00 0.000000000000000e+00
0.000000000000000e+00 0.000000000000000e+00 0.000000000000000e+00
0.000000000000000e+00 0.000000000000000e+00 0.000000000000000e+00
0.000000000000000e+00 0.000000000000000e+00 0.000000000000000e+00
0.000000000000000e+00 0.000000000000000e+00 0.000000000000000e+00
0.000000000000000e+00 0.000000000000000e+00 0.000000000000000e+00
0.000000000000000e+00 0.000000000000000e+00 0.000000000000000e+00
0.000000000000000e+00 0.000000000000000e+00 0.000000000000000e+00
0.000000000000000e+00 0.000000000000000e+00 0.000000000000000e+00
0.000000000000000e+00 0.000000000000000e+00 0.000000000000000e+00
0.000000000000000e+00 0.000000000000000e+00 0.000000000000000e+00
0.000000000000000e+00 0.000000000000000e+00 0.000000000000000e+00
0.000000000000000e+00 0.000000000000000e+00 0.000000000000000e+00
0.000000000000000e+00 0.000000000000000e+00 0.000000000000000e+00
0.000000000000000e+00 0.000000000000000e+00 0.000000000000000e+00
0.000000000000000e+00 0.000000000000000e+00 0.000000000000000e+00
0.000000000000000e+00 0.000000000000000e+00 0.000000000000000e+00
0.000000000000000e+00 0.000000000000000e+00 0.000000000000000e+00
0.000000000000000e+00 0.000000000000000e+00 0.000000000000000e+00
0.000000000000000e+00 0.000000000000000e+00 0.000000000000000e+00
0.000000000000000e+00 0.000000000000000e+00 0.000000000000000e+00
0.000000000000000e+00 0.000000000000000e+00 0.000000000000000e+00
0.000000000000000e+00 0.000000000000000e+00 0.000000000000000e+00
0.000000000000000e+00 0.000000000000000e+00 0.000000000000000e+00
0.000000000000000e+00 0.000000000000000e+00 0.000000000000000e+00
0.000000000000000e+00 0.000000000000000e+00 0.000000000000000e+00
0.000000000000000e+00 0.000000000000000e+00 0.000000000000000e+00
0.000000000000000e+00 0.000000000000000e+00 0.000000000000000e+00
0.000000000000000e+00 0.000000000000000e+00 0.000000000000000e+00
0.000000000000000e+00 0.000000000000000e+00 0.000000000000000e+00
0.000000000000000e+00 0.000000000000000e+00 0.000000000000000e+00
0.000000000000000e+00 0.000000000000000e+00 0.000000000000000e+00
0.000000000000000e+00 0.000000000000000e+00 0.000000000000000e+00
0.000000000000000e+00 0.000000000000000e+00 0.000000000000000e+00
0.000000000000000e+00 0.000000000000000e+00 0.000000000000000e+00
0.000000000000000e+00 0.000000000000000e+00 0.000000000000000e+00
0.000000000000000e+00 0.000000000000000e+00 0.000000000000000e+00
0.000000000000000e+00 0.000000000000000e+00 0.000000000000000e+00
0.000000000000000e+00 0.000000000000000e+00 0.000000000000000e+00
0.000000000000000e+00 0.000000000000000e+00 0.000000000000000e+00
0.000000000000000e+00 0.000000000000000e+00 0.000000000000000e+00
0.000000000000000e+00 0.000000000000000e+00 0.000000000000000e+00
0.000000000000000e+00 0.000000000000000e+00 0.000000000000000e+00
0.000000000000000e+00 0.000000000000000e+00 0.000000000000000e+00
0.000000000000000e+00 0.000000000000000e+00 0.000000000000000e+00
0.000000000000000e+00 0.000000000000000e+00 0.000000000000000e+00
0.000000000000000e+00 0.000000000000000e+00 0.000000000000000e+00
0.000000000000000e+00 0.000000000000000e+00 0.000000000000000e+00
0.000000000000000e+00 0.000000000000000e+00 0.000000000000000e+00
0.000000000000000e+00 0.000000000000000e+00 0.000000000000000e+00
0.000000000000000e+00 0.000000000000000e+00 0.000000000000000e+00
0.000000000000000e+00 0.000000000000000e+00 0.000000000000000e+00
0.000000000000000e+00 0.000000000000000e+00 0.000000000000000e+00
0.000000000000000e+00 0.000000000000000e+00 0.000000000000000e+00
0.000000000000000e+00 0.000000000000000e+00 0.000000000000000e+00
0.000000000000000e+00 0.000000000000000e+00 0.000000000000000e+00
0.000000000000000e+00 0.000000000000000e+00 0.000000000000000e+00
0.000000000000000e+00 0.000000000000000e+00 0.000000000000000e+00
0.000000000000000e+00 0.000000000000000e+00 0.000000000000000e+00
0.000000000000000e+00 0.000000000000000e+00 0.000000000000000e+00
0.000000000000000e+00 0.000000000000000e+00 0.000000000000000e+00
0.000000000000000e+00 0.000000000000000e+00 0.000000000000000e+00
0.000000000000000e+00 0.000000000000000e+00 0.000000000000000e+00
0.000000000000000e+00 0.000000000000000e+00 0.000000000000000e+00
0.000000000000000e+00 0.000000000000000e+00 0.000000000000000e+00
0.000000000000000e+00 0.000000000000000e+00 0.000000000000000e+00
0.000000000000000e+00 0.000000000000000e+00 0.000000000000000e+00
0.000000000000000e+00 0.000000000000000e+00 0.000000000000000e+00
0.000000000000000e+00 0.000000000000000e+00 0.000000000000000e+00
0.000000000000000e+00 0.000000000000000e+00 0.000000000000000e+00
0.000000000000000e+00 0.000000000000000e+00 0.000000000000000e+00
0.000000000000000e+00 0.000000000000000e+00 0.000000000000000e+00
0.000000000000000e+00 0.000000000000000e+00 0.000000000000000e+00
0.000000000000000e+00 0.000000000000000e+00 0.000000000000000e+00
0.000000000000000e+00 0.000000000000000e+00 0.000000000000000e+00
0.000000000000000e+00 0.000000000000000e+00 0.000000000000000e+00
0.000000000000000e+00 0.000000000000000e+00 0.000000000000000e+00
0.000000000000000e+00 0.000000000000000e+00 0.000000000000000e+00
0.000000000000000e+00 0.000000000000000e+00 0.000000000000000e+00
0.000000000000000e+00 0.000000000000000e+00 0.000000000000000e+00
0.000000000000000e+00 0.000000000000000e+00 0.000000000000000e+00
0.000000000000000e+00 0.000000000000000e+00 0.000000000000000e+00
0.000000000000000e+00 0.000000000000000e+00 0.000000000000000e+00
0.000000000000000e+00 0.000000000000000e+00 0.000000000000000e+00
0.000000000000000e+00 0.000000000000000e+00 0.000000000000000e+00
0.000000000000000e+00 0.000000000000000e+00 0.000000000000000e+00
0.000000000000000e+00 0.000000000000000e+00 0.000000000000000e+00
0.000000000000000e+00 0.000000000000000e+00 0.000000000000000e+00
0.000000000000000e+00 0.000000000000000e+00 0.000000000000000e+00
0.000000000000000e+00 0.000000000000000e+00 0.000000000000000e+00
0.000000000000000e+00 0.000000000000000e+00 0.000000000000000e+00
0.000000000000000e+00 0.000000000000000e+00 0.000000000000000e+00
0.000000000000000e+00 0.000000000000000e+00 0.000000000000000e+00
0.000000000000000e+00 0.000000000000000e+00 0.000000000000000e+00
0.000000000000000e+00 0.000000000000000e+00 0.000000000000000e+00
0.000000000000000e+00 0.000000000000000e+00 0.000000000000000e+00
0.000000000000000e+00 0.000000000000000e+00 0.000000000000000e+00
0.000000000000000e+00 0.000000000000000e+00 0.000000000000000e+00
0.000000000000000e+00 0.000000000000000e+00 0.000000000000000e+00
0.000000000000000e+00 0.000000000000000e+00 0.000000000000000e+00
0.000000000000000e+00 0.000000000000000e+00 0.000000000000000e+00
0.000000000000000e+00 0.000000000000000e+00 0.000000000000000e+00
0.000000000000000e+00 0.000000000000000e+00 0.000000000000000e+00
0.000000000000000e+00 0.000000000000000e+00 0.000000000000000e+00
0.000000000000000e+00 0.000000000000000e+00 0.000000000000000e+00
0.000000000000000e+00 0.000000000000000e+00 0.000000000000000e+00
0.000000000000000e+00 0.000000000000000e+00 0.000000000000000e+00
0.000000000000000e+00 0.000000000000000e+00 0.000000000000000e+00
0.000000000000000e+00 0.000000000000000e+00 0.000000000000000e+00
0.000000000000000e+00 0.000000000000000e+00 0.000000000000000e+00
0.000000000000000e+00 0.000000000000000e+00 0.000000000000000e+00
0.000000000000000e+00 0.000000000000000e+00 0.000000000000000e+00
0.000000000000000e+00 0.000000000000000e+00 0.000000000000000e+00
0.000000000000000e+00 0.000000000000000e+00 0.000000000000000e+00
0.000000000000000e+00 0.000000000000000e+00 0.000000000000000e+00
0.000000000000000e+00 0.000000000000000e+00 0.000000000000000e+00
0.000000000000000e+00 0.000000000000000e+00 0.000000000000000e+00
0.000000000000000e+00 0.000000000000000e+00 0.000000000000000e+00
0.000000000000000e+00 0.000000000000000e+00 0.000000000000000e+00
0.000000000000000e+00 0.000000000000000e+00 0.000000000000000e+00
0.000000000000000e+00 0.000000000000000e+00 0.000000000000000e+00
0.000000000000000e+00 0.000000000000000e+00 0.000000000000000e+00
0.000000000000000e+00 0.000000000000000e+00 0.000000000000000e+00
0.000000000000000e+00 0.000000000000000e+00 0.000000000000000e+00
0.000000000000000e+00 0.000000000000000e+00 0.000000000000000e+00
0.000000000000000e+00 0.000000000000000e+00 0.000000000000000e+00
0.000000000000000e+00 0.000000000000000e+00 0.000000000000000e+00
0.000000000000000e+00 0.000000000000000e+00 0.000000000000000e+00
0.000000000000000e+00 0.000000000000000e+00 0.000000000000000e+00
0.000000000000000e+00 0.000000000000000e+00 0.000000000000000e+00
0.000000000000000e+00 0.000000000000000e+00 0.000000000000000e+00
0.000000000000000e+00 0.000000000000000e+00 0.000000000000000e+00
0.000000000000000e+00 0.000000000000000e+00 0.000000000000000e+00
0.000000000000000e+00 0.000000000000000e+00 0.000000000000000e+00
0.000000000000000e+00 0.000000000000000e+00 0.000000000000000e+00
0.000000000000000e+00 0.000000000000000e+00 0.000000000000000e+00
0.000000000000000e+00 0.000000000000000e+00 0.000000000000000e+00
0.000000000000000e+00 0.000000000000000e+00 0.000000000000000e+00
0.000000000000000e+00 0.000000000000000e+00 0.000000000000000e+00
0.000000000000000e+00 0.000000000000000e+00 0.000000000000000e+00
0.000000000000000e+00 0.000000000000000e+00 0.000000000000000e+00
0.000000000000000e+00 0.000000000000000e+00 0.000000000000000e+00
0.000000000000000e+00 0.000000000000000e+00 0.000000000000000e+00
0.000000000000000e+00 0.000000000000000e+00 0.000000000000000e+00
0.000000000000000e+00 0.000000000000000e+00 0.000000000000000e+00
0.000000000000000e+00 0.000000000000000e+00 0.000000000000000e+00
0.000000000000000e+00 0.000000000000000e+00 0.000000000000000e+00
0.000000000000000e+00 0.000000000000000e+00 0.000000000000000e+00
0.000000000000000e+00 0.000000000000000e+00 0.000000000000000e+00
0.000000000000000e+00 0.000000000000000e+00 0.000000000000000e+00
0.000000000000000e+00 0.000000000000000e+00 0.000000000000000e+00
0.000000000000000e+00 0.000000000000000e+00 0.000000000000000e+00
0.000000000000000e+00 0.000000000000000e+00 0.000000000000000e+00
0.000000000000000e+00 0.000000000000000e+00 0.000000000000000e+00
0.000000000000000e+00 0.000000000000000e+00 0.000000000000000e+00
0.000000000000000e+00 0.000000000000000e+00 0.000000000000000e+00
0.000000000000000e+00 0.000000000000000e+00 0.000000000000000e+00
0.000000000000000e+00 0.000000000000000e+00 0.000000000000000e+00
0.000000000000000e+00 0.000000000000000e+00 0.000000000000000e+00
0.000000000000000e+00 0.000000000000000e+00 0.000000000000000e+00
0.000000000000000e+00 0.000000000000000e+00 0.000000000000000e+00
0.000000000000000e+00 0.000000000000000e+00 0.000000000000000e+00
0.000000000000000e+00 0.000000000000000e+00 0.000000000000000e+00
0.000000000000000e+00 0.000000000000000e+00 0.000000000000000e+00
0.000000000000000e+00 0.000000000000000e+00 0.000000000000000e+00
0.000000000000000e+00 0.000000000000000e+00 0.000000000000000e+00
0.000000000000000e+00 0.000000000000000e+00 0.000000000000000e+00
0.000000000000000e+00 0.000000000000000e+00 0.000000000000000e+00
0.000000000000000e+00 0.000000000000000e+00 0.000000000000000e+00
0.000000000000000e+00 0.000000000000000e+00 0.000000000000000e+00
0.000000000000000e+00 0.000000000000000e+00 0.000000000000000e+00
0.000000000000000e+00 0.000000000000000e+00 0.000000000000000e+00
0.000000000000000e+00 0.000000000000000e+00 0.000000000000000e+00
0.000000000000000e+00 0.000000000000000e+00 0.000000000000000e+00
0.000000000000000e+00 0.000000000000000e+00 0.000000000000000e+00
0.000000000000000e+00 0.000000000000000e+00 0.000000000000000e+00
0.000000000000000e+00 0.000000000000000e+00 0.000000000000000e+00
0.000000000000000e+00 0.000000000000000e+00 0.000000000000000e+00
0.000000000000000e+00 0.000000000000000e+00 0.000000000000000e+00
0.000000000000000e+00 0.000000000000000e+00 0.000000000000000e+00
0.000000000000000e+00 0.000000000000000e+00 0.000000000000000e+00
0.000000000000000e+00 0.000000000000000e+00 0.000000000000000e+00
0.000000000000000e+00 0.000000000000000e+00 0.000000000000000e+00
0.000000000000000e+00 0.000000000000000e+00 0.000000000000000e+00
0.000000000000000e+00 0.000000000000000e+00 0.000000000000000e+00
0.000000000000000e+00 0.000000000000000e+00 0.000000000000000e+00
0.000000000000000e+00 0.000000000000000e+00 0.000000000000000e+00
0.000000000000000e+00 0.000000000000000e+00 0.000000000000000e+00
0.000000000000000e+00 0.000000000000000e+00 0.000000000000000e+00
0.000000000000000e+00 0.000000000000000e+00 0.000000000000000e+00
0.000000000000000e+00 0.000000000000000e+00 0.000000000000000e+00
0.000000000000000e+00 0.000000000000000e+00 0.000000000000000e+00
0.000000000000000e+00 0.000000000000000e+00 0.000000000000000e+00
0.000000000000000e+00 0.000000000000000e+00 0.000000000000000e+00
0.000000000000000e+00 0.000000000000000e+00 0.000000000000000e+00
0.000000000000000e+00 0.000000000000000e+00 0.000000000000000e+00
0.000000000000000e+00 0.000000000000000e+00 0.000000000000000e+00
0.000000000000000e+00 0.000000000000000e+00 0.000000000000000e+00
0.000000000000000e+00 0.000000000000000e+00 0.000000000000000e+00
0.000000000000000e+00 0.000000000000000e+00 0.000000000000000e+00
0.000000000000000e+00 0.000000000000000e+00 0.000000000000000e+00
0.000000000000000e+00 0.000000000000000e+00 0.000000000000000e+00
0.000000000000000e+00 0.000000000000000e+00 0.000000000000000e+00
0.000000000000000e+00 0.000000000000000e+00 0.000000000000000e+00
0.000000000000000e+00 0.000000000000000e+00 0.000000000000000e+00
0.000000000000000e+00 0.000000000000000e+00 0.000000000000000e+00
0.000000000000000e+00 0.000000000000000e+00 0.000000000000000e+00
0.000000000000000e+00 0.000000000000000e+00 0.000000000000000e+00
0.000000000000000e+00 0.000000000000000e+00 0.000000000000000e+00
0.000000000000000e+00 0.000000000000000e+00 0.000000000000000e+00
0.000000000000000e+00 0.000000000000000e+00 0.000000000000000e+00
0.000000000000000e+00 0.000000000000000e+00 0.000000000000000e+00
0.000000000000000e+00 0.000000000000000e+00 0.000000000000000e+00
0.000000000000000e+00 0.000000000000000e+00 0.000000000000000e+00
0.000000000000000e+00 0.000000000000000e+00 0.000000000000000e+00
0.000000000000000e+00 0.000000000000000e+00 0.000000000000000e+00
0.000000000000000e+00 0.000000000000000e+00 0.000000000000000e+00
0.000000000000000e+00 0.000000000000000e+00 0.000000000000000e+00
0.000000000000000e+00 0.000000000000000e+00 0.000000000000000e+00
0.000000000000000e+00 0.000000000000000e+00 0.000000000000000e+00
0.000000000000000e+00 0.000000000000000e+00 0.000000000000000e+00
0.000000000000000e+00 0.000000000000000e+00 0.000000000000000e+00
0.000000000000000e+00 0.000000000000000e+00 0.000000000000000e+00
0.000000000000000e+00 0.000000000000000e+00 0.000000000000000e+00
0.000000000000000e+00 0.000000000000000e+00 0.000000000000000e+00
0.000000000000000e+00 0.000000000000000e+00 0.000000000000000e+00
0.000000000000000e+00 0.000000000000000e+00 0.000000000000000e+00
0.000000000000000e+00 0.000000000000000e+00 0.000000000000000e+00
0.000000000000000e+00 0.000000000000000e+00 0.000000000000000e+00
0.000000000000000e+00 0.000000000000000e+00 0.000000000000000e+00
0.000000000000000e+00 0.000000000000000e+00 0.000000000000000e+00
0.000000000000000e+00 0.000000000000000e+00 0.000000000000000e+00
0.000000000000000e+00 0.000000000000000e+00 0.000000000000000e+00
0.000000000000000e+00 0.000000000000000e+00 0.000000000000000e+00
0.000000000000000e+00 0.000000000000000e+00 0.000000000000000e+00
0.000000000000000e+00 0.000000000000000e+00 0.000000000000000e+00
0.000000000000000e+00 0.000000000000000e+00 0.000000000000000e+00
0.000000000000000e+00 0.000000000000000e+00 0.000000000000000e+00
0.000000000000000e+00 0.000000000000000e+00 0.000000000000000e+00
0.000000000000000e+00 0.000000000000000e+00 0.000000000000000e+00
0.000000000000000e+00 0.000000000000000e+00 0.000000000000000e+00
0.000000000000000e+00 0.000000000000000e+00 0.000000000000000e+00
0.000000000000000e+00 0.000000000000000e+00 0.000000000000000e+00
0.000000000000000e+00 0.000000000000000e+00 0.000000000000000e+00
0.000000000000000e+00 0.000000000000000e+00 0.000000000000000e+00
0.000000000000000e+00 0.000000000000000e+00 0.000000000000000e+00
0.000000000000000e+00 0.000000000000000e+00 0.000000000000000e+00
0.000000000000000e+00 0.000000000000000e+00 0.000000000000000e+00
0.000000000000000e+00 0.000000000000000e+00 0.000000000000000e+00
0.000000000000000e+00 0.000000000000000e+00 0.000000000000000e+00
0.000000000000000e+00 0.000000000000000e+00 0.000000000000000e+00
0.000000000000000e+00 0.000000000000000e+00 0.000000000000000e+00
0.000000000000000e+00 0.000000000000000e+00 0.000000000000000e+00
0.000000000000000e+00 0.000000000000000e+00 0.000000000000000e+00
0.000000000000000e+00 0.000000000000000e+00 0.000000000000000e+00
0.000000000000000e+00 0.000000000000000e+00 0.000000000000000e+00
0.000000000000000e+00 0.000000000000000e+00 0.000000000000000e+00
0.000000000000000e+00 0.000000000000000e+00 0.000000000000000e+00
0.000000000000000e+00 0.000000000000000e+00 0.000000000000000e+00
0.000000000000000e+00 0.000000000000000e+00 0.000000000000000e+00
0.000000000000000e+00 0.000000000000000e+00 0.000000000000000e+00
0.000000000000000e+00 0.000000000000000e+00 0.000000000000000e+00
0.000000000000000e+00 0.000000000000000e+00 0.000000000000000e+00
0.000000000000000e+00 0.000000000000000e+00 0.000000000000000e+00
0.000000000000000e+00 0.000000000000000e+00 0.000000000000000e+00
0.000000000000000e+00 0.000000000000000e+00 0.000000000000000e+00
0.000000000000000e+00 0.000000000000000e+00 0.000000000000000e+00
0.000000000000000e+00 0.000000000000000e+00 0.000000000000000e+00
0.000000000000000e+00 0.000000000000000e+00 0.000000000000000e+00
0.000000000000000e+00 0.000000000000000e+00 0.000000000000000e+00
0.000000000000000e+00 0.000000000000000e+00 0.000000000000000e+00
0.000000000000000e+00 0.000000000000000e+00 0.000000000000000e+00
0.000000000000000e+00 0.000000000000000e+00 0.000000000000000e+00
0.000000000000000e+00 0.000000000000000e+00 0.000000000000000e+00
0.000000000000000e+00 0.000000000000000e+00 0.000000000000000e+00
0.000000000000000e+00 0.000000000000000e+00 0.000000000000000e+00
0.000000000000000e+00 0.000000000000000e+00 0.000000000000000e+00
0.000000000000000e+00 0.000000000000000e+00 0.000000000000000e+00
0.000000000000000e+00 0.000000000000000e+00 0.000000000000000e+00
0.000000000000000e+00 0.000000000000000e+00 0.000000000000000e+00
0.000000000000000e+00 0.000000000000000e+00 0.000000000000000e+00
0.000000000000000e+00 0.000000000000000e+00 0.000000000000000e+00
0.000000000000000e+00 0.000000000000000e+00 0.000000000000000e+00
0.000000000000000e+00 0.000000000000000e+00 0.000000000000000e+00
0.000000000000000e+00 0.000000000000000e+00 0.000000000000000e+00
0.000000000000000e+00 0.000000000000000e+00 0.000000000000000e+00
0.000000000000000e+00 0.000000000000000e+00 0.000000000000000e+00
0.000000000000000e+00 0.000000000000000e+00 0.000000000000000e+00
0.000000000000000e+00 0.000000000000000e+00 0.000000000000000e+00
0.000000000000000e+00 0.000000000000000e+00 0.000000000000000e+00
0.000000000000000e+00 0.000000000000000e+00 0.000000000000000e+00
0.000000000000000e+00 0.000000000000000e+00 0.000000000000000e+00
0.000000000000000e+00 0.000000000000000e+00 0.000000000000000e+00
0.000000000000000e+00 0.000000000000000e+00 0.000000000000000e+00
0.000000000000000e+00 0.000000000000000e+00 0.000000000000000e+00
0.000000000000000e+00 0.000000000000000e+00 0.000000000000000e+00
0.000000000000000e+00 0.000000000000000e+00 0.000000000000000e+00
0.000000000000000e+00 0.000000000000000e+00 0.000000000000000e+00
0.000000000000000e+00 0.000000000000000e+00 0.000000000000000e+00
0.000000000000000e+00 0.000000000000000e+00 0.000000000000000e+00
0.000000000000000e+00 0.000000000000000e+00 0.000000000000000e+00
0.000000000000000e+00 0.000000000000000e+00 0.000000000000000e+00
0.000000000000000e+00 0.000000000000000e+00 0.000000000000000e+00
0.000000000000000e+00 0.000000000000000e+00 0.000000000000000e+00
0.000000000000000e+00 0.000000000000000e+00 0.000000000000000e+00
0.000000000000000e+00 0.000000000000000e+00 0.000000000000000e+00
0.000000000000000e+00 0.000000000000000e+00 0.000000000000000e+00
0.000000000000000e+00 0.000000000000000e+00 0.000000000000000e+00
0.000000000000000e+00 0.000000000000000e+00 0.000000000000000e+00
0.000000000000000e+00 0.000000000000000e+00 0.000000000000000e+00
0.000000000000000e+00 0.000000000000000e+00 0.000000000000000e+00
0.000000000000000e+00 0.000000000000000e+00 0.000000000000000e+00
0.000000000000000e+00 0.000000000000000e+00 0.000000000000000e+00
0.000000000000000e+00 0.000000000000000e+00 0.000000000000000e+00
0.000000000000000e+00 0.000000000000000e+00 0.000000000000000e+00
0.000000000000000e+00 0.000000000000000e+00 0.000000000000000e+00
0.000000000000000e+00 0.000000000000000e+00 0.000000000000000e+00
0.000000000000000e+00 0.000000000000000e+00 0.000000000000000e+00
0.000000000000000e+00 0.000000000000000e+00 0.000000000000000e+00
0.000000000000000e+00 0.000000000000000e+00 0.000000000000000e+00
0.000000000000000e+00 0.000000000000000e+00 0.000000000000000e+00
0.000000000000000e+00 0.000000000000000e+00 0.000000000000000e+00
0.000000000000000e+00 0.000000000000000e+00 0.000000000000000e+00
0.000000000000000e+00 0.000000000000000e+00 0.000000000000000e+00
0.000000000000000e+00 0.000000000000000e+00 0.000000000000000e+00
0.000000000000000e+00 0.000000000000000e+00 0.000000000000000e+00
0.000000000000000e+00 0.000000000000000e+00 0.000000000000000e+00
0.000000000000000e+00 0.000000000000000e+00 0.000000000000000e+00
0.000000000000000e+00 0.000000000000000e+00 0.000000000000000e+00
0.000000000000000e+00 0.000000000000000e+00 0.000000000000000e+00
0.000000000000000e+00 0.000000000000000e+00 0.000000000000000e+00
0.000000000000000e+00 0.000000000000000e+00 0.000000000000000e+00
0.000000000000000e+00 0.000000000000000e+00 0.000000000000000e+00
0.000000000000000e+00 0.000000000000000e+00 0.000000000000000e+00
0.000000000000000e+00 0.000000000000000e+00 0.000000000000000e+00
0.000000000000000e+00 0.000000000000000e+00 0.000000000000000e+00
0.000000000000000e+00 0.000000000000000e+00 0.000000000000000e+00
0.000000000000000e+00 0.000000000000000e+00 0.000000000000000e+00
0.000000000000000e+00 0.000000000000000e+00 0.000000000000000e+00
0.000000000000000e+00 0.000000000000000e+00 0.000000000000000e+00
0.000000000000000e+00 0.000000000000000e+00 0.000000000000000e+00
0.000000000000000e+00 0.000000000000000e+00 0.000000000000000e+00
0.000000000000000e+00 0.000000000000000e+00 0.000000000000000e+00
0.000000000000000e+00 0.000000000000000e+00 0.000000000000000e+00
0.000000000000000e+00 0.000000000000000e+00 0.000000000000000e+00
0.000000000000000e+00 0.000000000000000e+00 0.000000000000000e+00
0.000000000000000e+00 0.000000000000000e+00 0.000000000000000e+00
0.000000000000000e+00 0.000000000000000e+00 0.000000000000000e+00
0.000000000000000e+00 0.000000000000000e+00 0.000000000000000e+00
0.000000000000000e+00 0.000000000000000e+00 0.000000000000000e+00
0.000000000000000e+00 0.000000000000000e+00 0.000000000000000e+00
0.000000000000000e+00 0.000000000000000e+00 0.000000000000000e+00
0.000000000000000e+00 0.000000000000000e+00 0.000000000000000e+00
0.000000000000000e+00 0.000000000000000e+00 0.000000000000000e+00
0.000000000000000e+00 0.000000000000000e+00 0.000000000000000e+00
0.000000000000000e+00 0.000000000000000e+00 0.000000000000000e+00
0.000000000000000e+00 0.000000000000000e+00 0.000000000000000e+00
0.000000000000000e+00 0.000000000000000e+00 0.000000000000000e+00
0.000000000000000e+00 0.000000000000000e+00 0.000000000000000e+00
0.000000000000000e+00 0.000000000000000e+00 0.000000000000000e+00
0.000000000000000e+00 0.000000000000000e+00 0.000000000000000e+00
0.000000000000000e+00 0.000000000000000e+00 0.000000000000000e+00
0.000000000000000e+00 0.000000000000000e+00 0.000000000000000e+00
0.000000000000000e+00 0.000000000000000e+00 0.000000000000000e+00
0.000000000000000e+00 0.000000000000000e+00 0.000000000000000e+00
0.000000000000000e+00 0.000000000000000e+00 0.000000000000000e+00
0.000000000000000e+00 0.000000000000000e+00 0.000000000000000e+00
0.000000000000000e+00 0.000000000000000e+00 0.000000000000000e+00
0.000000000000000e+00 0.000000000000000e+00 0.000000000000000e+00
0.000000000000000e+00 0.000000000000000e+00 0.000000000000000e+00
0.000000000000000e+00 0.000000000000000e+00 0.000000000000000e+00
0.000000000000000e+00 0.000000000000000e+00 0.000000000000000e+00
0.000000000000000e+00 0.000000000000000e+00 0.000000000000000e+00
0.000000000000000e+00 0.000000000000000e+00 0.000000000000000e+00
0.000000000000000e+00 0.000000000000000e+00 0.000000000000000e+00
0.000000000000000e+00 0.000000000000000e+00 0.000000000000000e+00
0.000000000000000e+00 0.000000000000000e+00 0.000000000000000e+00
0.000000000000000e+00 0.000000000000000e+00 0.000000000000000e+00
0.000000000000000e+00 0.000000000000000e+00 0.000000000000000e+00
0.000000000000000e+00 0.000000000000000e+00 0.000000000000000e+00
0.000000000000000e+00 0.000000000000000e+00 0.000000000000000e+00
0.000000000000000e+00 0.000000000000000e+00 0.000000000000000e+00
0.000000000000000e+00 0.000000000000000e+00 0.000000000000000e+00
0.000000000000000e+00 0.000000000000000e+00 0.000000000000000e+00
0.000000000000000e+00 0.000000000000000e+00 0.000000000000000e+00
0.000000000000000e+00 0.000000000000000e+00 0.000000000000000e+00
0.000000000000000e+00 0.000000000000000e+00 0.000000000000000e+00
0.000000000000000e+00 0.000000000000000e+00 0.000000000000000e+00
0.000000000000000e+00 0.000000000000000e+00 0.000000000000000e+00
0.000000000000000e+00 0.000000000000000e+00 0.000000000000000e+00
0.000000000000000e+00 0.000000000000000e+00 0.000000000000000e+00
0.000000000000000e+00 0.000000000000000e+00 0.000000000000000e+00
0.000000000000000e+00 0.000000000000000e+00 0.000000000000000e+00
0.000000000000000e+00 0.000000000000000e+00 0.000000000000000e+00
0.000000000000000e+00 0.000000000000000e+00 0.000000000000000e+00
0.000000000000000e+00 0.000000000000000e+00 0.000000000000000e+00
0.000000000000000e+00 0.000000000000000e+00 0.000000000000000e+00
0.000000000000000e+00 0.000000000000000e+00 0.000000000000000e+00
0.000000000000000e+00 0.000000000000000e+00 0.000000000000000e+00
0.000000000000000e+00 0.000000000000000e+00 0.000000000000000e+00
0.000000000000000e+00 0.000000000000000e+00 0.000000000000000e+00
0.000000000000000e+00 0.000000000000000e+00 0.000000000000000e+00
0.000000000000000e+00 0.000000000000000e+00 0.000000000000000e+00
0.000000000000000e+00 0.000000000000000e+00 0.000000000000000e+00
0.000000000000000e+00 0.000000000000000e+00 0.000000000000000e+00
0.000000000000000e+00 0.000000000000000e+00 0.000000000000000e+00
0.000000000000000e+00 0.000000000000000e+00 0.000000000000000e+00
0.000000000000000e+00 0.000000000000000e+00 0.000000000000000e+00
0.000000000000000e+00 0.000000000000000e+00 0.000000000000000e+00
0.000000000000000e+00 0.000000000000000e+00 0.000000000000000e+00
0.000000000000000e+00 0.000000000000000e+00 0.000000000000000e+00
0.000000000000000e+00 0.000000000000000e+00 0.000000000000000e+00
0.000000000000000e+00 0.000000000000000e+00 0.000000000000000e+00
0.000000000000000e+00 0.000000000000000e+00 0.000000000000000e+00
0.000000000000000e+00 0.000000000000000e+00 0.000000000000000e+00
0.000000000000000e+00 0.000000000000000e+00 0.000000000000000e+00
0.000000000000000e+00 0.000000000000000e+00 0.000000000000000e+00
0.000000000000000e+00 0.000000000000000e+00 0.000000000000000e+00
0.000000000000000e+00 0.000000000000000e+00 0.000000000000000e+00
0.000000000000000e+00 0.000000000000000e+00 0.000000000000000e+00
0.000000000000000e+00 0.000000000000000e+00 0.000000000000000e+00
0.000000000000000e+00 0.000000000000000e+00 0.000000000000000e+00
0.000000000000000e+00 0.000000000000000e+00 0.000000000000000e+00
0.000000000000000e+00 0.000000000000000e+00 0.000000000000000e+00
0.000000000000000e+00 0.000000000000000e+00 0.000000000000000e+00
0.000000000000000e+00 0.000000000000000e+00 0.000000000000000e+00
0.000000000000000e+00 0.000000000000000e+00 0.000000000000000e+00
0.000000000000000e+00 0.000000000000000e+00 0.000000000000000e+00
0.000000000000000e+00 0.000000000000000e+00 0.000000000000000e+00
0.000000000000000e+00 0.000000000000000e+00 0.000000000000000e+00
0.000000000000000e+00 0.000000000000000e+00 0.000000000000000e+00
0.000000000000000e+00 0.000000000000000e+00 0.000000000000000e+00
0.000000000000000e+00 0.000000000000000e+00 0.000000000000000e+00
0.000000000000000e+00 0.000000000000000e+00 0.000000000000000e+00
0.000000000000000e+00 0.000000000000000e+00 0.000000000000000e+00
0.000000000000000e+00 0.000000000000000e+00 0.000000000000000e+00
0.000000000000000e+00 0.000000000000000e+00 0.000000000000000e+00
0.000000000000000e+00 0.000000000000000e+00 0.000000000000000e+00
0.000000000000000e+00 0.000000000000000e+00 0.000000000000000e+00
0.000000000000000e+00 0.000000000000000e+00 0.000000000000000e+00
0.000000000000000e+00 0.000000000000000e+00 0.000000000000000e+00
0.000000000000000e+00 0.000000000000000e+00 0.000000000000000e+00
0.000000000000000e+00 0.000000000000000e+00 0.000000000000000e+00
0.000000000000000e+00 0.000000000000000e+00 0.000000000000000e+00
0.000000000000000e+00 0.000000000000000e+00 0.000000000000000e+00
0.000000000000000e+00 0.000000000000000e+00 0.000000000000000e+00
0.000000000000000e+00 0.000000000000000e+00 0.000000000000000e+00
0.000000000000000e+00 0.000000000000000e+00 0.000000000000000e+00
0.000000000000000e+00 0.000000000000000e+00 0.000000000000000e+00
0.000000000000000e+00 0.000000000000000e+00 0.000000000000000e+00
0.000000000000000e+00 0.000000000000000e+00 0.000000000000000e+00
0.000000000000000e+00 0.000000000000000e+00 0.000000000000000e+00
0.000000000000000e+00 0.000000000000000e+00 0.000000000000000e+00
0.000000000000000e+00 0.000000000000000e+00 0.000000000000000e+00
0.000000000000000e+00 0.000000000000000e+00 0.000000000000000e+00
0.000000000000000e+00 0.000000000000000e+00 0.000000000000000e+00
0.000000000000000e+00 0.000000000000000e+00 0.000000000000000e+00
0.000000000000000e+00 0.000000000000000e+00 0.000000000000000e+00
0.000000000000000e+00 0.000000000000000e+00 0.000000000000000e+00
0.000000000000000e+00 0.000000000000000e+00 0.000000000000000e+00
0.000000000000000e+00 0.000000000000000e+00 0.000000000000000e+00
0.000000000000000e+00 0.000000000000000e+00 0.000000000000000e+00
0.000000000000000e+00 0.000000000000000e+00 0.000000000000000e+00
0.000000000000000e+00 0.000000000000000e+00 0.000000000000000e+00
0.000000000000000e+00 0.000000000000000e+00 0.000000000000000e+00
0.000000000000000e+00 0.000000000000000e+00 0.000000000000000e+00
0.000000000000000e+00 0.000000000000000e+00 0.000000000000000e+00
0.000000000000000e+00 0.000000000000000e+00 0.000000000000000e+00
0.000000000000000e+00 0.000000000000000e+00 0.000000000000000e+00
0.000000000000000e+00 0.000000000000000e+00 0.000000000000000e+00
0.000000000000000e+00 0.000000000000000e+00 0.000000000000000e+00
0.000000000000000e+00 0.000000000000000e+00 0.000000000000000e+00
0.000000000000000e+00 0.000000000000000e+00 0.000000000000000e+00
0.000000000000000e+00 0.000000000000000e+00 0.000000000000000e+00
0.000000000000000e+00 0.000000000000000e+00 0.000000000000000e+00
0.000000000000000e+00 0.000000000000000e+00 0.000000000000000e+00
0.000000000000000e+00 0.000000000000000e+00 0.000000000000000e+00
0.000000000000000e+00 0.000000000000000e+00 0.000000000000000e+00
0.000000000000000e+00 0.000000000000000e+00 0.000000000000000e+00
0.000000000000000e+00 0.000000000000000e+00 0.000000000000000e+00
0.000000000000000e+00 0.000000000000000e+00 0.000000000000000e+00
0.000000000000000e+00 0.000000000000000e+00 0.000000000000000e+00
0.000000000000000e+00 0.000000000000000e+00 0.000000000000000e+00
0.000000000000000e+00 0.000000000000000e+00 0.000000000000000e+00
0.000000000000000e+00 0.000000000000000e+00 0.000000000000000e+00
0.000000000000000e+00 0.000000000000000e+00 0.000000000000000e+00
0.000000000000000e+00 0.000000000000000e+00 0.000000000000000e+00
0.000000000000000e+00 0.000000000000000e+00 0.000000000000000e+00
0.000000000000000e+00 0.000000000000000e+00 0.000000000000000e+00
0.000000000000000e+00 0.000000000000000e+00 0.000000000000000e+00
0.000000000000000e+00 0.000000000000000e+00 0.000000000000000e+00
0.000000000000000e+00 0.000000000000000e+00 0.000000000000000e+00
0.000000000000000e+00 0.000000000000000e+00 0.000000000000000e+00
0.000000000000000e+00 0.000000000000000e+00 0.000000000000000e+00
0.000000000000000e+00 0.000000000000000e+00 0.000000000000000e+00
0.000000000000000e+00 0.000000000000000e+00 0.000000000000000e+00
0.000000000000000e+00 0.000000000000000e+00 0.000000000000000e+00
0.000000000000000e+00 0.000000000000000e+00 0.000000000000000e+00
0.000000000000000e+00 0.000000000000000e+00 0.000000000000000e+00
0.000000000000000e+00 0.000000000000000e+00 0.000000000000000e+00
0.000000000000000e+00 0.000000000000000e+00 0.000000000000000e+00
0.000000000000000e+00 0.000000000000000e+00 0.000000000000000e+00
0.000000000000000e+00 0.000000000000000e+00 0.000000000000000e+00
0.000000000000000e+00 0.000000000000000e+00 0.000000000000000e+00
0.000000000000000e+00 0.000000000000000e+00 0.000000000000000e+00
0.000000000000000e+00 0.000000000000000e+00 0.000000000000000e+00
0.000000000000000e+00 0.000000000000000e+00 0.000000000000000e+00
0.000000000000000e+00 0.000000000000000e+00 0.000000000000000e+00
0.000000000000000e+00 0.000000000000000e+00 0.000000000000000e+00
0.000000000000000e+00 0.000000000000000e+00 0.000000000000000e+00
0.000000000000000e+00 0.000000000000000e+00 0.000000000000000e+00
0.000000000000000e+00 0.000000000000000e+00 0.000000000000000e+00
0.000000000000000e+00 0.000000000000000e+00 0.000000000000000e+00
0.000000000000000e+00 0.000000000000000e+00 0.000000000000000e+00
0.000000000000000e+00 0.000000000000000e+00 0.000000000000000e+00
0.000000000000000e+00 0.000000000000000e+00 0.000000000000000e+00
0.000000000000000e+00 0.000000000000000e+00 0.000000000000000e+00
0.000000000000000e+00 0.000000000000000e+00 0.000000000000000e+00
0.000000000000000e+00 0.000000000000000e+00 0.000000000000000e+00
0.000000000000000e+00 0.000000000000000e+00 0.000000000000000e+00
0.000000000000000e+00 0.000000000000000e+00 0.000000000000000e+00
0.000000000000000e+00 0.000000000000000e+00 0.000000000000000e+00
0.000000000000000e+00 0.000000000000000e+00 0.000000000000000e+00
0.000000000000000e+00 0.000000000000000e+00 0.000000000000000e+00
0.000000000000000e+00 0.000000000000000e+00 0.000000000000000e+00
0.000000000000000e+00 0.000000000000000e+00 0.000000000000000e+00
0.000000000000000e+00 0.000000000000000e+00 0.000000000000000e+00
0.000000000000000e+00 0.000000000000000e+00 0.000000000000000e+00
0.000000000000000e+00 0.000000000000000e+00 0.000000000000000e+00
0.000000000000000e+00 0.000000000000000e+00 0.000000000000000e+00
0.000000000000000e+00 0.000000000000000e+00 0.000000000000000e+00
0.000000000000000e+00 0.000000000000000e+00 0.000000000000000e+00
0.000000000000000e+00 0.000000000000000e+00 0.000000000000000e+00
0.000000000000000e+00 0.000000000000000e+00 0.000000000000000e+00
0.000000000000000e+00 0.000000000000000e+00 0.000000000000000e+00
0.000000000000000e+00 0.000000000000000e+00 0.000000000000000e+00
0.000000000000000e+00 0.000000000000000e+00 0.000000000000000e+00
0.000000000000000e+00 0.000000000000000e+00 0.000000000000000e+00
0.000000000000000e+00 0.000000000000000e+00 0.000000000000000e+00
0.000000000000000e+00 0.000000000000000e+00 0.000000000000000e+00
0.000000000000000e+00 0.000000000000000e+00 0.000000000000000e+00
0.000000000000000e+00 0.000000000000000e+00 0.000000000000000e+00
0.000000000000000e+00 0.000000000000000e+00 0.000000000000000e+00
0.000000000000000e+00 0.000000000000000e+00 0.000000000000000e+00
0.000000000000000e+00 0.000000000000000e+00 0.000000000000000e+00
0.000000000000000e+00 0.000000000000000e+00 0.000000000000000e+00
0.000000000000000e+00 0.000000000000000e+00 0.000000000000000e+00
0.000000000000000e+00 0.000000000000000e+00 0.000000000000000e+00
0.000000000000000e+00 0.000000000000000e+00 0.000000000000000e+00
0.000000000000000e+00 0.000000000000000e+00 0.000000000000000e+00
0.000000000000000e+00 0.000000000000000e+00 0.000000000000000e+00
0.000000000000000e+00 0.000000000000000e+00 0.000000000000000e+00
0.000000000000000e+00 0.000000000000000e+00 0.000000000000000e+00
0.000000000000000e+00 0.000000000000000e+00 0.000000000000000e+00
0.000000000000000e+00 0.000000000000000e+00 0.000000000000000e+00
0.000000000000000e+00 0.000000000000000e+00 0.000000000000000e+00
0.000000000000000e+00 0.000000000000000e+00 0.000000000000000e+00
0.000000000000000e+00 0.000000000000000e+00 0.000000000000000e+00
0.000000000000000e+00 0.000000000000000e+00 0.000000000000000e+00
0.000000000000000e+00 0.000000000000000e+00 0.000000000000000e+00
0.000000000000000e+00 0.000000000000000e+00 0.000000000000000e+00
0.000000000000000e+00 0.000000000000000e+00 0.000000000000000e+00
0.000000000000000e+00 0.000000000000000e+00 0.000000000000000e+00
0.000000000000000e+00 0.000000000000000e+00 0.000000000000000e+00
0.000000000000000e+00 0.000000000000000e+00 0.000000000000000e+00
0.000000000000000e+00 0.000000000000000e+00 0.000000000000000e+00
0.000000000000000e+00 0.000000000000000e+00 0.000000000000000e+00
0.000000000000000e+00 0.000000000000000e+00 0.000000000000000e+00
0.000000000000000e+00 0.000000000000000e+00 0.000000000000000e+00
0.000000000000000e+00 0.000000000000000e+00 0.000000000000000e+00
0.000000000000000e+00 0.000000000000000e+00 0.000000000000000e+00
0.000000000000000e+00 0.000000000000000e+00 0.000000000000000e+00
0.000000000000000e+00 0.000000000000000e+00 0.000000000000000e+00
0.000000000000000e+00 0.000000000000000e+00 0.000000000000000e+00
0.000000000000000e+00 0.000000000000000e+00 0.000000000000000e+00
0.000000000000000e+00 0.000000000000000e+00 0.000000000000000e+00
0.000000000000000e+00 0.000000000000000e+00 0.000000000000000e+00
0.000000000000000e+00 0.000000000000000e+00 0.000000000000000e+00
0.000000000000000e+00 0.000000000000000e+00 0.000000000000000e+00
0.000000000000000e+00 0.000000000000000e+00 0.000000000000000e+00
0.000000000000000e+00 0.000000000000000e+00 0.000000000000000e+00
0.000000000000000e+00 0.000000000000000e+00 0.000000000000000e+00
0.000000000000000e+00 0.000000000000000e+00 0.000000000000000e+00
0.000000000000000e+00 0.000000000000000e+00 0.000000000000000e+00
0.000000000000000e+00 0.000000000000000e+00 0.000000000000000e+00
0.000000000000000e+00 0.000000000000000e+00 0.000000000000000e+00
0.000000000000000e+00 0.000000000000000e+00 0.000000000000000e+00
0.000000000000000e+00 0.000000000000000e+00 0.000000000000000e+00
0.000000000000000e+00 0.000000000000000e+00 0.000000000000000e+00
0.000000000000000e+00 0.000000000000000e+00 0.000000000000000e+00
0.000000000000000e+00 0.000000000000000e+00 0.000000000000000e+00
0.000000000000000e+00 0.000000000000000e+00 0.000000000000000e+00
0.000000000000000e+00 0.000000000000000e+00 0.000000000000000e+00
0.000000000000000e+00 0.000000000000000e+00 0.000000000000000e+00
0.000000000000000e+00 0.000000000000000e+00 0.000000000000000e+00
0.000000000000000e+00 0.000000000000000e+00 0.000000000000000e+00
0.000000000000000e+00 0.000000000000000e+00 0.000000000000000e+00
0.000000000000000e+00 0.000000000000000e+00 0.000000000000000e+00
0.000000000000000e+00 0.000000000000000e+00 0.000000000000000e+00
0.000000000000000e+00 0.000000000000000e+00 0.000000000000000e+00
0.000000000000000e+00 0.000000000000000e+00 0.000000000000000e+00
0.000000000000000e+00 0.000000000000000e+00 0.000000000000000e+00
0.000000000000000e+00 0.000000000000000e+00 0.000000000000000e+00
0.000000000000000e+00 0.000000000000000e+00 0.000000000000000e+00
0.000000000000000e+00 0.000000000000000e+00 0.000000000000000e+00
0.000000000000000e+00 0.000000000000000e+00 0.000000000000000e+00
0.000000000000000e+00 0.000000000000000e+00 0.000000000000000e+00
0.000000000000000e+00 0.000000000000000e+00 0.000000000000000e+00
0.000000000000000e+00 0.000000000000000e+00 0.000000000000000e+00
0.000000000000000e+00 0.000000000000000e+00 0.000000000000000e+00
0.000000000000000e+00 0.000000000000000e+00 0.000000000000000e+00
0.000000000000000e+00 0.000000000000000e+00 0.000000000000000e+00
0.000000000000000e+00 0.000000000000000e+00 0.000000000000000e+00
0.000000000000000e+00 0.000000000000000e+00 0.000000000000000e+00
0.000000000000000e+00 0.000000000000000e+00 0.000000000000000e+00
0.000000000000000e+00 0.000000000000000e+00 0.000000000000000e+00
0.000000000000000e+00 0.000000000000000e+00 0.000000000000000e+00
0.000000000000000e+00 0.000000000000000e+00 0.000000000000000e+00
0.000000000000000e+00 0.000000000000000e+00 0.000000000000000e+00
0.000000000000000e+00 0.000000000000000e+00 0.000000000000000e+00
0.000000000000000e+00 0.000000000000000e+00 0.000000000000000e+00
0.000000000000000e+00 0.000000000000000e+00 0.000000000000000e+00
0.000000000000000e+00 0.000000000000000e+00 0.000000000000000e+00
0.000000000000000e+00 0.000000000000000e+00 0.000000000000000e+00
0.000000000000000e+00 0.000000000000000e+00 0.000000000000000e+00
0.000000000000000e+00 0.000000000000000e+00 0.000000000000000e+00
0.000000000000000e+00 0.000000000000000e+00 0.000000000000000e+00
0.000000000000000e+00 0.000000000000000e+00 0.000000000000000e+00
0.000000000000000e+00 0.000000000000000e+00 0.000000000000000e+00
0.000000000000000e+00 0.000000000000000e+00 0.000000000000000e+00
0.000000000000000e+00 0.000000000000000e+00 0.000000000000000e+00
0.000000000000000e+00 0.000000000000000e+00 0.000000000000000e+00
0.000000000000000e+00 0.000000000000000e+00 0.000000000000000e+00
0.000000000000000e+00 0.000000000000000e+00 0.000000000000000e+00
0.000000000000000e+00 0.000000000000000e+00 0.000000000000000e+00
0.000000000000000e+00 0.000000000000000e+00 0.000000000000000e+00
0.000000000000000e+00 0.000000000000000e+00 0.000000000000000e+00
0.000000000000000e+00 0.000000000000000e+00 0.000000000000000e+00
0.000000000000000e+00 0.000000000000000e+00 0.000000000000000e+00
0.000000000000000e+00 0.000000000000000e+00 0.000000000000000e+00
0.000000000000000e+00 0.000000000000000e+00 0.000000000000000e+00
0.000000000000000e+00 0.000000000000000e+00 0.000000000000000e+00
0.000000000000000e+00 0.000000000000000e+00 0.000000000000000e+00
0.000000000000000e+00 0.000000000000000e+00 0.000000000000000e+00
0.000000000000000e+00 0.000000000000000e+00 0.000000000000000e+00
0.000000000000000e+00 0.000000000000000e+00 0.000000000000000e+00
0.000000000000000e+00 0.000000000000000e+00 0.000000000000000e+00
0.000000000000000e+00 0.000000000000000e+00 0.000000000000000e+00
0.000000000000000e+00 0.000000000000000e+00 0.000000000000000e+00
0.000000000000000e+00 0.000000000000000e+00 0.000000000000000e+00
0.000000000000000e+00 0.000000000000000e+00 0.000000000000000e+00
0.000000000000000e+00 0.000000000000000e+00 0.000000000000000e+00
0.000000000000000e+00 0.000000000000000e+00 0.000000000000000e+00
0.000000000000000e+00 0.000000000000000e+00 0.000000000000000e+00
0.000000000000000e+00 0.000000000000000e+00 0.000000000000000e+00
0.000000000000000e+00 0.000000000000000e+00 0.000000000000000e+00
0.000000000000000e+00 0.000000000000000e+00 0.000000000000000e+00
0.000000000000000e+00 0.000000000000000e+00 0.000000000000000e+00
0.000000000000000e+00 0.000000000000000e+00 0.000000000000000e+00
0.000000000000000e+00 0.000000000000000e+00 0.000000000000000e+00
0.000000000000000e+00 0.000000000000000e+00 0.000000000000000e+00
0.000000000000000e+00 0.000000000000000e+00 0.000000000000000e+00
0.000000000000000e+00 0.000000000000000e+00 0.000000000000000e+00
0.000000000000000e+00 0.000000000000000e+00 0.000000000000000e+00
0.000000000000000e+00 0.000000000000000e+00 0.000000000000000e+00
0.000000000000000e+00 0.000000000000000e+00 0.000000000000000e+00
0.000000000000000e+00 0.000000000000000e+00 0.000000000000000e+00
0.000000000000000e+00 0.000000000000000e+00 0.000000000000000e+00
0.000000000000000e+00 0.000000000000000e+00 0.000000000000000e+00
0.000000000000000e+00 0.000000000000000e+00 0.000000000000000e+00
0.000000000000000e+00 0.000000000000000e+00 0.000000000000000e+00
0.000000000000000e+00 0.000000000000000e+00 0.000000000000000e+00
0.000000000000000e+00 0.000000000000000e+00 0.000000000000000e+00
0.000000000000000e+00 0.000000000000000e+00 0.000000000000000e+00
0.000000000000000e+00 0.000000000000000e+00 0.000000000000000e+00
0.000000000000000e+00 0.000000000000000e+00 0.000000000000000e+00
0.000000000000000e+00 0.000000000000000e+00 0.000000000000000e+00
0.000000000000000e+00 0.000000000000000e+00 0.000000000000000e+00
0.000000000000000e+00 0.000000000000000e+00 0.000000000000000e+00
0.000000000000000e+00 0.000000000000000e+00 0.000000000000000e+00
0.000000000000000e+00 0.000000000000000e+00 0.000000000000000e+00
0.000000000000000e+00 0.000000000000000e+00 0.000000000000000e+00
0.000000000000000e+00 0.000000000000000e+00 0.000000000000000e+00
0.000000000000000e+00 0.000000000000000e+00 0.000000000000000e+00
0.000000000000000e+00 0.000000000000000e+00 0.000000000000000e+00
0.000000000000000e+00 0.000000000000000e+00 0.000000000000000e+00
0.000000000000000e+00 0.000000000000000e+00 0.000000000000000e+00
0.000000000000000e+00 0.000000000000000e+00 0.000000000000000e+00
0.000000000000000e+00 0.000000000000000e+00 0.000000000000000e+00
0.000000000000000e+00 0.000000000000000e+00 0.000000000000000e+00
0.000000000000000e+00 0.000000000000000e+00 0.000000000000000e+00
0.000000000000000e+00 0.000000000000000e+00 0.000000000000000e+00
0.000000000000000e+00 0.000000000000000e+00 0.000000000000000e+00
0.000000000000000e+00 0.000000000000000e+00 0.000000000000000e+00
0.000000000000000e+00 0.000000000000000e+00 0.000000000000000e+00
0.000000000000000e+00 0.000000000000000e+00 0.000000000000000e+00
0.000000000000000e+00 0.000000000000000e+00 0.000000000000000e+00
0.000000000000000e+00 0.000000000000000e+00 0.000000000000000e+00
0.000000000000000e+00 0.000000000000000e+00 0.000000000000000e+00
0.000000000000000e+00 0.000000000000000e+00 0.000000000000000e+00
0.000000000000000e+00 0.000000000000000e+00 0.000000000000000e+00
0.000000000000000e+00 0.000000000000000e+00 0.000000000000000e+00
0.000000000000000e+00 0.000000000000000e+00 0.000000000000000e+00
0.000000000000000e+00 0.000000000000000e+00 0.000000000000000e+00
0.000000000000000e+00 0.000000000000000e+00 0.000000000000000e+00
0.000000000000000e+00 0.000000000000000e+00 0.000000000000000e+00
0.000000000000000e+00 0.000000000000000e+00 0.000000000000000e+00
0.000000000000000e+00 0.000000000000000e+00 0.000000000000000e+00
0.000000000000000e+00 0.000000000000000e+00 0.000000000000000e+00
0.000000000000000e+00 0.000000000000000e+00 0.000000000000000e+00
0.000000000000000e+00 0.000000000000000e+00 0.000000000000000e+00
0.000000000000000e+00 0.000000000000000e+00 0.000000000000000e+00
0.000000000000000e+00 0.000000000000000e+00 0.000000000000000e+00
0.000000000000000e+00 0.000000000000000e+00 0.000000000000000e+00
0.000000000000000e+00 0.000000000000000e+00 0.000000000000000e+00
0.000000000000000e+00 0.000000000000000e+00 0.000000000000000e+00
0.000000000000000e+00 0.000000000000000e+00 0.000000000000000e+00
0.000000000000000e+00 0.000000000000000e+00 0.000000000000000e+00
0.000000000000000e+00 0.000000000000000e+00 0.000000000000000e+00
0.000000000000000e+00 0.000000000000000e+00 0.000000000000000e+00
0.000000000000000e+00 0.000000000000000e+00 0.000000000000000e+00
0.000000000000000e+00 0.000000000000000e+00 0.000000000000000e+00
0.000000000000000e+00 0.000000000000000e+00 0.000000000000000e+00
0.000000000000000e+00 0.000000000000000e+00 0.000000000000000e+00
0.000000000000000e+00 0.000000000000000e+00 0.000000000000000e+00
0.000000000000000e+00 0.000000000000000e+00 0.000000000000000e+00
0.000000000000000e+00 0.000000000000000e+00 0.000000000000000e+00
0.000000000000000e+00 0.000000000000000e+00 0.000000000000000e+00
0.000000000000000e+00 0.000000000000000e+00 0.000000000000000e+00
0.000000000000000e+00 0.000000000000000e+00 0.000000000000000e+00
0.000000000000000e+00 0.000000000000000e+00 0.000000000000000e+00
0.000000000000000e+00 0.000000000000000e+00 0.000000000000000e+00
0.000000000000000e+00 0.000000000000000e+00 0.000000000000000e+00
0.000000000000000e+00 0.000000000000000e+00 0.000000000000000e+00
0.000000000000000e+00 0.000000000000000e+00 0.000000000000000e+00
0.000000000000000e+00 0.000000000000000e+00 0.000000000000000e+00
0.000000000000000e+00 0.000000000000000e+00 0.000000000000000e+00
0.000000000000000e+00 0.000000000000000e+00 0.000000000000000e+00
0.000000000000000e+00 0.000000000000000e+00 0.000000000000000e+00
0.000000000000000e+00 0.000000000000000e+00 0.000000000000000e+00
0.000000000000000e+00 0.000000000000000e+00 0.000000000000000e+00
0.000000000000000e+00 0.000000000000000e+00 0.000000000000000e+00
0.000000000000000e+00 0.000000000000000e+00 0.000000000000000e+00
0.000000000000000e+00 0.000000000000000e+00 0.000000000000000e+00
0.000000000000000e+00 0.000000000000000e+00 0.000000000000000e+00
0.000000000000000e+00 0.000000000000000e+00 0.000000000000000e+00
0.000000000000000e+00 0.000000000000000e+00 0.000000000000000e+00
0.000000000000000e+00 0.000000000000000e+00 0.000000000000000e+00
0.000000000000000e+00 0.000000000000000e+00 0.000000000000000e+00
0.000000000000000e+00 0.000000000000000e+00 0.000000000000000e+00
0.000000000000000e+00 0.000000000000000e+00 0.000000000000000e+00
0.000000000000000e+00 0.000000000000000e+00 0.000000000000000e+00
0.000000000000000e+00 0.000000000000000e+00 0.000000000000000e+00
0.000000000000000e+00 0.000000000000000e+00 0.000000000000000e+00
0.000000000000000e+00 0.000000000000000e+00 0.000000000000000e+00
0.000000000000000e+00 0.000000000000000e+00 0.000000000000000e+00
0.000000000000000e+00 0.000000000000000e+00 0.000000000000000e+00
0.000000000000000e+00 0.000000000000000e+00 0.000000000000000e+00
0.000000000000000e+00 0.000000000000000e+00 0.000000000000000e+00
0.000000000000000e+00 0.000000000000000e+00 0.000000000000000e+00
0.000000000000000e+00 0.000000000000000e+00 0.000000000000000e+00
0.000000000000000e+00 0.000000000000000e+00 0.000000000000000e+00
0.000000000000000e+00 0.000000000000000e+00 0.000000000000000e+00
0.000000000000000e+00 0.000000000000000e+00 0.000000000000000e+00
0.000000000000000e+00 0.000000000000000e+00 0.000000000000000e+00
0.000000000000000e+00 0.000000000000000e+00 0.000000000000000e+00
0.000000000000000e+00 0.000000000000000e+00 0.000000000000000e+00
0.000000000000000e+00 0.000000000000000e+00 0.000000000000000e+00
0.000000000000000e+00 0.000000000000000e+00 0.000000000000000e+00
0.000000000000000e+00 0.000000000000000e+00 0.000000000000000e+00
0.000000000000000e+00 0.000000000000000e+00 0.000000000000000e+00
0.000000000000000e+00 0.000000000000000e+00 0.000000000000000e+00
0.000000000000000e+00 0.000000000000000e+00 0.000000000000000e+00
0.000000000000000e+00 0.000000000000000e+00 0.000000000000000e+00
0.000000000000000e+00 0.000000000000000e+00 0.000000000000000e+00
0.000000000000000e+00 0.000000000000000e+00 0.000000000000000e+00
0.000000000000000e+00 0.000000000000000e+00 0.000000000000000e+00
0.000000000000000e+00 0.000000000000000e+00 0.000000000000000e+00
0.000000000000000e+00 0.000000000000000e+00 0.000000000000000e+00
0.000000000000000e+00 0.000000000000000e+00 0.000000000000000e+00
0.000000000000000e+00 0.000000000000000e+00 0.000000000000000e+00
0.000000000000000e+00 0.000000000000000e+00 0.000000000000000e+00
0.000000000000000e+00 0.000000000000000e+00 0.000000000000000e+00
0.000000000000000e+00 0.000000000000000e+00 0.000000000000000e+00
0.000000000000000e+00 0.000000000000000e+00 0.000000000000000e+00
0.000000000000000e+00 0.000000000000000e+00 0.000000000000000e+00
0.000000000000000e+00 0.000000000000000e+00 0.000000000000000e+00
0.000000000000000e+00 0.000000000000000e+00 0.000000000000000e+00
0.000000000000000e+00 0.000000000000000e+00 0.000000000000000e+00
0.000000000000000e+00 0.000000000000000e+00 0.000000000000000e+00
0.000000000000000e+00 0.000000000000000e+00 0.000000000000000e+00
0.000000000000000e+00 0.000000000000000e+00 0.000000000000000e+00
0.000000000000000e+00 0.000000000000000e+00 0.000000000000000e+00
0.000000000000000e+00 0.000000000000000e+00 0.000000000000000e+00
0.000000000000000e+00 0.000000000000000e+00 0.000000000000000e+00
0.000000000000000e+00 0.000000000000000e+00 0.000000000000000e+00
0.000000000000000e+00 0.000000000000000e+00 0.000000000000000e+00
0.000000000000000e+00 0.000000000000000e+00 0.000000000000000e+00
0.000000000000000e+00 0.000000000000000e+00 0.000000000000000e+00
0.000000000000000e+00 0.000000000000000e+00 0.000000000000000e+00
0.000000000000000e+00 0.000000000000000e+00 0.000000000000000e+00
0.000000000000000e+00 0.000000000000000e+00 0.000000000000000e+00
0.000000000000000e+00 0.000000000000000e+00 0.000000000000000e+00
0.000000000000000e+00 0.000000000000000e+00 0.000000000000000e+00
0.000000000000000e+00 0.000000000000000e+00 0.000000000000000e+00
0.000000000000000e+00 0.000000000000000e+00 0.000000000000000e+00
0.000000000000000e+00 0.000000000000000e+00 0.000000000000000e+00
0.000000000000000e+00 0.000000000000000e+00 0.000000000000000e+00
0.000000000000000e+00 0.000000000000000e+00 0.000000000000000e+00
0.000000000000000e+00 0.000000000000000e+00 0.000000000000000e+00
0.000000000000000e+00 0.000000000000000e+00 0.000000000000000e+00
0.000000000000000e+00 0.000000000000000e+00 0.000000000000000e+00
0.000000000000000e+00 0.000000000000000e+00 0.000000000000000e+00
0.000000000000000e+00 0.000000000000000e+00 0.000000000000000e+00
0.000000000000000e+00 0.000000000000000e+00 0.000000000000000e+00
0.000000000000000e+00 0.000000000000000e+00 0.000000000000000e+00
0.000000000000000e+00 0.000000000000000e+00 0.000000000000000e+00
0.000000000000000e+00 0.000000000000000e+00 0.000000000000000e+00
0.000000000000000e+00 0.000000000000000e+00 0.000000000000000e+00
0.000000000000000e+00 0.000000000000000e+00 0.000000000000000e+00
0.000000000000000e+00 0.000000000000000e+00 0.000000000000000e+00
0.000000000000000e+00 0.000000000000000e+00 0.000000000000000e+00
0.000000000000000e+00 0.000000000000000e+00 0.000000000000000e+00
0.000000000000000e+00 0.000000000000000e+00 0.000000000000000e+00
0.000000000000000e+00 0.000000000000000e+00 0.000000000000000e+00
0.000000000000000e+00 0.000000000000000e+00 0.000000000000000e+00
0.000000000000000e+00 0.000000000000000e+00 0.000000000000000e+00
0.000000000000000e+00 0.000000000000000e+00 0.000000000000000e+00
0.000000000000000e+00 0.000000000000000e+00 0.000000000000000e+00
0.000000000000000e+00 0.000000000000000e+00 0.000000000000000e+00
0.000000000000000e+00 0.000000000000000e+00 0.000000000000000e+00
0.000000000000000e+00 0.000000000000000e+00 0.000000000000000e+00
0.000000000000000e+00 0.000000000000000e+00 0.000000000000000e+00
0.000000000000000e+00 0.000000000000000e+00 0.000000000000000e+00
0.000000000000000e+00 0.000000000000000e+00 0.000000000000000e+00
0.000000000000000e+00 0.000000000000000e+00 0.000000000000000e+00
0.000000000000000e+00 0.000000000000000e+00 0.000000000000000e+00
0.000000000000000e+00 0.000000000000000e+00 0.000000000000000e+00
0.000000000000000e+00 0.000000000000000e+00 0.000000000000000e+00
0.000000000000000e+00 0.000000000000000e+00 0.000000000000000e+00
0.000000000000000e+00 0.000000000000000e+00 0.000000000000000e+00
0.000000000000000e+00 0.000000000000000e+00 0.000000000000000e+00
0.000000000000000e+00 0.000000000000000e+00 0.000000000000000e+00
0.000000000000000e+00 0.000000000000000e+00 0.000000000000000e+00
0.000000000000000e+00 0.000000000000000e+00 0.000000000000000e+00
0.000000000000000e+00 0.000000000000000e+00 0.000000000000000e+00
0.000000000000000e+00 0.000000000000000e+00 0.000000000000000e+00
0.000000000000000e+00 0.000000000000000e+00 0.000000000000000e+00
0.000000000000000e+00 0.000000000000000e+00 0.000000000000000e+00
0.000000000000000e+00 0.000000000000000e+00 0.000000000000000e+00
0.000000000000000e+00 0.000000000000000e+00 0.000000000000000e+00
0.000000000000000e+00 0.000000000000000e+00 0.000000000000000e+00
0.000000000000000e+00 0.000000000000000e+00 0.000000000000000e+00
0.000000000000000e+00 0.000000000000000e+00 0.000000000000000e+00
0.000000000000000e+00 0.000000000000000e+00 0.000000000000000e+00
0.000000000000000e+00 0.000000000000000e+00 0.000000000000000e+00
0.000000000000000e+00 0.000000000000000e+00 0.000000000000000e+00
0.000000000000000e+00 0.000000000000000e+00 0.000000000000000e+00
0.000000000000000e+00 0.000000000000000e+00 0.000000000000000e+00
0.000000000000000e+00 0.000000000000000e+00 0.000000000000000e+00
0.000000000000000e+00 0.000000000000000e+00 0.000000000000000e+00
0.000000000000000e+00 0.000000000000000e+00 0.000000000000000e+00
0.000000000000000e+00 0.000000000000000e+00 0.000000000000000e+00
0.000000000000000e+00 0.000000000000000e+00 0.000000000000000e+00
0.000000000000000e+00 0.000000000000000e+00 0.000000000000000e+00
0.000000000000000e+00 0.000000000000000e+00 0.000000000000000e+00
0.000000000000000e+00 0.000000000000000e+00 0.000000000000000e+00
0.000000000000000e+00 0.000000000000000e+00 0.000000000000000e+00
0.000000000000000e+00 0.000000000000000e+00 0.000000000000000e+00
0.000000000000000e+00 0.000000000000000e+00 0.000000000000000e+00
0.000000000000000e+00 0.000000000000000e+00 0.000000000000000e+00
0.000000000000000e+00 0.000000000000000e+00 0.000000000000000e+00
0.000000000000000e+00 0.000000000000000e+00 0.000000000000000e+00
0.000000000000000e+00 0.000000000000000e+00 0.000000000000000e+00
0.000000000000000e+00 0.000000000000000e+00 0.000000000000000e+00
0.000000000000000e+00 0.000000000000000e+00 0.000000000000000e+00
0.000000000000000e+00 0.000000000000000e+00 0.000000000000000e+00
0.000000000000000e+00 0.000000000000000e+00 0.000000000000000e+00
0.000000000000000e+00 0.000000000000000e+00 0.000000000000000e+00
0.000000000000000e+00 0.000000000000000e+00 0.000000000000000e+00
0.000000000000000e+00 0.000000000000000e+00 0.000000000000000e+00
0.000000000000000e+00 0.000000000000000e+00 0.000000000000000e+00
0.000000000000000e+00 0.000000000000000e+00 0.000000000000000e+00
0.000000000000000e+00 0.000000000000000e+00 0.000000000000000e+00
0.000000000000000e+00 0.000000000000000e+00 0.000000000000000e+00
0.000000000000000e+00 0.000000000000000e+00 0.000000000000000e+00
0.000000000000000e+00 0.000000000000000e+00 0.000000000000000e+00
0.000000000000000e+00 0.000000000000000e+00 0.000000000000000e+00
0.000000000000000e+00 0.000000000000000e+00 0.000000000000000e+00
0.000000000000000e+00 0.000000000000000e+00 0.000000000000000e+00
0.000000000000000e+00 0.000000000000000e+00 0.000000000000000e+00
0.000000000000000e+00 0.000000000000000e+00 0.000000000000000e+00
0.000000000000000e+00 0.000000000000000e+00 0.000000000000000e+00
0.000000000000000e+00 0.000000000000000e+00 0.000000000000000e+00
0.000000000000000e+00 0.000000000000000e+00 0.000000000000000e+00
0.000000000000000e+00 0.000000000000000e+00 0.000000000000000e+00
0.000000000000000e+00 0.000000000000000e+00 0.000000000000000e+00
0.000000000000000e+00 0.000000000000000e+00 0.000000000000000e+00
0.000000000000000e+00 0.000000000000000e+00 0.000000000000000e+00
0.000000000000000e+00 0.000000000000000e+00 0.000000000000000e+00
0.000000000000000e+00 0.000000000000000e+00 0.000000000000000e+00
0.000000000000000e+00 0.000000000000000e+00 0.000000000000000e+00
0.000000000000000e+00 0.000000000000000e+00 0.000000000000000e+00
0.000000000000000e+00 0.000000000000000e+00 0.000000000000000e+00
0.000000000000000e+00 0.000000000000000e+00 0.000000000000000e+00
0.000000000000000e+00 0.000000000000000e+00 0.000000000000000e+00
0.000000000000000e+00 0.000000000000000e+00 0.000000000000000e+00
0.000000000000000e+00 0.000000000000000e+00 0.000000000000000e+00
0.000000000000000e+00 0.000000000000000e+00 0.000000000000000e+00
0.000000000000000e+00 0.000000000000000e+00 0.000000000000000e+00
0.000000000000000e+00 0.000000000000000e+00 0.000000000000000e+00
0.000000000000000e+00 0.000000000000000e+00 0.000000000000000e+00
0.000000000000000e+00 0.000000000000000e+00 0.000000000000000e+00
0.000000000000000e+00 0.000000000000000e+00 0.000000000000000e+00
0.000000000000000e+00 0.000000000000000e+00 0.000000000000000e+00
0.000000000000000e+00 0.000000000000000e+00 0.000000000000000e+00
0.000000000000000e+00 0.000000000000000e+00 0.000000000000000e+00
0.000000000000000e+00 0.000000000000000e+00 0.000000000000000e+00
0.000000000000000e+00 0.000000000000000e+00 0.000000000000000e+00
0.000000000000000e+00 0.000000000000000e+00 0.000000000000000e+00
0.000000000000000e+00 0.000000000000000e+00 0.000000000000000e+00
0.000000000000000e+00 0.000000000000000e+00 0.000000000000000e+00
0.000000000000000e+00 0.000000000000000e+00 0.000000000000000e+00
0.000000000000000e+00 0.000000000000000e+00 0.000000000000000e+00
0.000000000000000e+00 0.000000000000000e+00 0.000000000000000e+00
0.000000000000000e+00 0.000000000000000e+00 0.000000000000000e+00
0.000000000000000e+00 0.000000000000000e+00 0.000000000000000e+00
0.000000000000000e+00 0.000000000000000e+00 0.000000000000000e+00
0.000000000000000e+00 0.000000000000000e+00 0.000000000000000e+00
0.000000000000000e+00 0.000000000000000e+00 0.000000000000000e+00
0.000000000000000e+00 0.000000000000000e+00 0.000000000000000e+00
0.000000000000000e+00 0.000000000000000e+00 0.000000000000000e+00
0.000000000000000e+00 0.000000000000000e+00 0.000000000000000e+00
0.000000000000000e+00 0.000000000000000e+00 0.000000000000000e+00
0.000000000000000e+00 0.000000000000000e+00 0.000000000000000e+00
0.000000000000000e+00 0.000000000000000e+00 0.000000000000000e+00
0.000000000000000e+00 0.000000000000000e+00 0.000000000000000e+00
0.000000000000000e+00 0.000000000000000e+00 0.000000000000000e+00
0.000000000000000e+00 0.000000000000000e+00 0.000000000000000e+00
0.000000000000000e+00 0.000000000000000e+00 0.000000000000000e+00
0.000000000000000e+00 0.000000000000000e+00 0.000000000000000e+00
0.000000000000000e+00 0.000000000000000e+00 0.000000000000000e+00
0.000000000000000e+00 0.000000000000000e+00 0.000000000000000e+00
0.000000000000000e+00 0.000000000000000e+00 0.000000000000000e+00
0.000000000000000e+00 0.000000000000000e+00 0.000000000000000e+00
0.000000000000000e+00 0.000000000000000e+00 0.000000000000000e+00
0.000000000000000e+00 0.000000000000000e+00 0.000000000000000e+00
0.000000000000000e+00 0.000000000000000e+00 0.000000000000000e+00
0.000000000000000e+00 0.000000000000000e+00 0.000000000000000e+00
0.000000000000000e+00 0.000000000000000e+00 0.000000000000000e+00
0.000000000000000e+00 0.000000000000000e+00 0.000000000000000e+00
0.000000000000000e+00 0.000000000000000e+00 0.000000000000000e+00
0.000000000000000e+00 0.000000000000000e+00 0.000000000000000e+00
0.000000000000000e+00 0.000000000000000e+00 0.000000000000000e+00
0.000000000000000e+00 0.000000000000000e+00 0.000000000000000e+00
0.000000000000000e+00 0.000000000000000e+00 0.000000000000000e+00
0.000000000000000e+00 0.000000000000000e+00 0.000000000000000e+00
0.000000000000000e+00 0.000000000000000e+00 0.000000000000000e+00
0.000000000000000e+00 0.000000000000000e+00 0.000000000000000e+00
0.000000000000000e+00 0.000000000000000e+00 0.000000000000000e+00
0.000000000000000e+00 0.000000000000000e+00 0.000000000000000e+00
0.000000000000000e+00 0.000000000000000e+00 0.000000000000000e+00
0.000000000000000e+00 0.000000000000000e+00 0.000000000000000e+00
0.000000000000000e+00 0.000000000000000e+00 0.000000000000000e+00
0.000000000000000e+00 0.000000000000000e+00 0.000000000000000e+00
0.000000000000000e+00 0.000000000000000e+00 0.000000000000000e+00
0.000000000000000e+00 0.000000000000000e+00 0.000000000000000e+00
0.000000000000000e+00 0.000000000000000e+00 0.000000000000000e+00
0.000000000000000e+00 0.000000000000000e+00 0.000000000000000e+00
0.000000000000000e+00 0.000000000000000e+00 0.000000000000000e+00
0.000000000000000e+00 0.000000000000000e+00 0.000000000000000e+00
0.000000000000000e+00 0.000000000000000e+00 0.000000000000000e+00
0.000000000000000e+00 0.000000000000000e+00 0.000000000000000e+00
0.000000000000000e+00 0.000000000000000e+00 0.000000000000000e+00
0.000000000000000e+00 0.000000000000000e+00 0.000000000000000e+00
0.000000000000000e+00 0.000000000000000e+00 0.000000000000000e+00
0.000000000000000e+00 0.000000000000000e+00 0.000000000000000e+00
0.000000000000000e+00 0.000000000000000e+00 0.000000000000000e+00
0.000000000000000e+00 0.000000000000000e+00 0.000000000000000e+00
0.000000000000000e+00 0.000000000000000e+00 0.000000000000000e+00
0.000000000000000e+00 0.000000000000000e+00 0.000000000000000e+00
0.000000000000000e+00 0.000000000000000e+00 0.000000000000000e+00
0.000000000000000e+00 0.000000000000000e+00 0.000000000000000e+00
0.000000000000000e+00 0.000000000000000e+00 0.000000000000000e+00
0.000000000000000e+00 0.000000000000000e+00 0.000000000000000e+00
0.000000000000000e+00 0.000000000000000e+00 0.000000000000000e+00
0.000000000000000e+00 0.000000000000000e+00 0.000000000000000e+00
0.000000000000000e+00 0.000000000000000e+00 0.000000000000000e+00
0.000000000000000e+00 0.000000000000000e+00 0.000000000000000e+00
0.000000000000000e+00 0.000000000000000e+00 0.000000000000000e+00
0.000000000000000e+00 0.000000000000000e+00 0.000000000000000e+00
0.000000000000000e+00 0.000000000000000e+00 0.000000000000000e+00
0.000000000000000e+00 0.000000000000000e+00 0.000000000000000e+00
0.000000000000000e+00 0.000000000000000e+00 0.000000000000000e+00
0.000000000000000e+00 0.000000000000000e+00 0.000000000000000e+00
0.000000000000000e+00 0.000000000000000e+00 0.000000000000000e+00
0.000000000000000e+00 0.000000000000000e+00 0.000000000000000e+00
0.000000000000000e+00 0.000000000000000e+00 0.000000000000000e+00
0.000000000000000e+00 0.000000000000000e+00 0.000000000000000e+00
0.000000000000000e+00 0.000000000000000e+00 0.000000000000000e+00
0.000000000000000e+00 0.000000000000000e+00 0.000000000000000e+00
0.000000000000000e+00 0.000000000000000e+00 0.000000000000000e+00
0.000000000000000e+00 0.000000000000000e+00 0.000000000000000e+00
0.000000000000000e+00 0.000000000000000e+00 0.000000000000000e+00
0.000000000000000e+00 0.000000000000000e+00 0.000000000000000e+00
0.000000000000000e+00 0.000000000000000e+00 0.000000000000000e+00
0.000000000000000e+00 0.000000000000000e+00 0.000000000000000e+00
0.000000000000000e+00 0.000000000000000e+00 0.000000000000000e+00
0.000000000000000e+00 0.000000000000000e+00 0.000000000000000e+00
0.000000000000000e+00 0.000000000000000e+00 0.000000000000000e+00
0.000000000000000e+00 0.000000000000000e+00 0.000000000000000e+00
0.000000000000000e+00 0.000000000000000e+00 0.000000000000000e+00
0.000000000000000e+00 0.000000000000000e+00 0.000000000000000e+00
0.000000000000000e+00 0.000000000000000e+00 0.000000000000000e+00
0.000000000000000e+00 0.000000000000000e+00 0.000000000000000e+00
0.000000000000000e+00 0.000000000000000e+00 0.000000000000000e+00
0.000000000000000e+00 0.000000000000000e+00 0.000000000000000e+00
0.000000000000000e+00 0.000000000000000e+00 0.000000000000000e+00
0.000000000000000e+00 0.000000000000000e+00 0.000000000000000e+00
0.000000000000000e+00 0.000000000000000e+00 0.000000000000000e+00
0.000000000000000e+00 0.000000000000000e+00 0.000000000000000e+00
0.000000000000000e+00 0.000000000000000e+00 0.000000000000000e+00
0.000000000000000e+00 0.000000000000000e+00 0.000000000000000e+00
0.000000000000000e+00 0.000000000000000e+00 0.000000000000000e+00
0.000000000000000e+00 0.000000000000000e+00 0.000000000000000e+00
0.000000000000000e+00 0.000000000000000e+00 0.000000000000000e+00
0.000000000000000e+00 0.000000000000000e+00 0.000000000000000e+00
0.000000000000000e+00 0.000000000000000e+00 0.000000000000000e+00
0.000000000000000e+00 0.000000000000000e+00 0.000000000000000e+00
0.000000000000000e+00 0.000000000000000e+00 0.000000000000000e+00
0.000000000000000e+00 0.000000000000000e+00 0.000000000000000e+00
0.000000000000000e+00 0.000000000000000e+00 0.000000000000000e+00
0.000000000000000e+00 0.000000000000000e+00 0.000000000000000e+00
0.000000000000000e+00 0.000000000000000e+00 0.000000000000000e+00
0.000000000000000e+00 0.000000000000000e+00 0.000000000000000e+00
0.000000000000000e+00 0.000000000000000e+00 0.000000000000000e+00
0.000000000000000e+00 0.000000000000000e+00 0.000000000000000e+00
0.000000000000000e+00 0.000000000000000e+00 0.000000000000000e+00
0.000000000000000e+00 0.000000000000000e+00 0.000000000000000e+00
0.000000000000000e+00 0.000000000000000e+00 0.000000000000000e+00
0.000000000000000e+00 0.000000000000000e+00 0.000000000000000e+00
0.000000000000000e+00 0.000000000000000e+00 0.000000000000000e+00
0.000000000000000e+00 0.000000000000000e+00 0.000000000000000e+00
0.000000000000000e+00 0.000000000000000e+00 0.000000000000000e+00
0.000000000000000e+00 0.000000000000000e+00 0.000000000000000e+00
0.000000000000000e+00 0.000000000000000e+00 0.000000000000000e+00
0.000000000000000e+00 0.000000000000000e+00 0.000000000000000e+00
0.000000000000000e+00 0.000000000000000e+00 0.000000000000000e+00
0.000000000000000e+00 0.000000000000000e+00 0.000000000000000e+00
0.000000000000000e+00 0.000000000000000e+00 0.000000000000000e+00
0.000000000000000e+00 0.000000000000000e+00 0.000000000000000e+00
0.000000000000000e+00 0.000000000000000e+00 0.000000000000000e+00
0.000000000000000e+00 0.000000000000000e+00 0.000000000000000e+00
0.000000000000000e+00 0.000000000000000e+00 0.000000000000000e+00
0.000000000000000e+00 0.000000000000000e+00 0.000000000000000e+00
0.000000000000000e+00 0.000000000000000e+00 0.000000000000000e+00
0.000000000000000e+00 0.000000000000000e+00 0.000000000000000e+00
0.000000000000000e+00 0.000000000000000e+00 0.000000000000000e+00
0.000000000000000e+00 0.000000000000000e+00 0.000000000000000e+00
0.000000000000000e+00 0.000000000000000e+00 0.000000000000000e+00
0.000000000000000e+00 0.000000000000000e+00 0.000000000000000e+00
0.000000000000000e+00 0.000000000000000e+00 0.000000000000000e+00
0.000000000000000e+00 0.000000000000000e+00 0.000000000000000e+00
0.000000000000000e+00 0.000000000000000e+00 0.000000000000000e+00
0.000000000000000e+00 0.000000000000000e+00 0.000000000000000e+00
0.000000000000000e+00 0.000000000000000e+00 0.000000000000000e+00
0.000000000000000e+00 0.000000000000000e+00 0.000000000000000e+00
0.000000000000000e+00 0.000000000000000e+00 0.000000000000000e+00
0.000000000000000e+00 0.000000000000000e+00 0.000000000000000e+00
0.000000000000000e+00 0.000000000000000e+00 0.000000000000000e+00
0.000000000000000e+00 0.000000000000000e+00 0.000000000000000e+00
0.000000000000000e+00 0.000000000000000e+00 0.000000000000000e+00
0.000000000000000e+00 0.000000000000000e+00 0.000000000000000e+00
0.000000000000000e+00 0.000000000000000e+00 0.000000000000000e+00
0.000000000000000e+00 0.000000000000000e+00 0.000000000000000e+00
0.000000000000000e+00 0.000000000000000e+00 0.000000000000000e+00
0.000000000000000e+00 0.000000000000000e+00 0.000000000000000e+00
0.000000000000000e+00 0.000000000000000e+00 0.000000000000000e+00
0.000000000000000e+00 0.000000000000000e+00 0.000000000000000e+00
0.000000000000000e+00 0.000000000000000e+00 0.000000000000000e+00
0.000000000000000e+00 0.000000000000000e+00 0.000000000000000e+00
0.000000000000000e+00 0.000000000000000e+00 0.000000000000000e+00
0.000000000000000e+00 0.000000000000000e+00 0.000000000000000e+00
0.000000000000000e+00 0.000000000000000e+00 0.000000000000000e+00
0.000000000000000e+00 0.000000000000000e+00 0.000000000000000e+00
0.000000000000000e+00 0.000000000000000e+00 0.000000000000000e+00
0.000000000000000e+00 0.000000000000000e+00 0.000000000000000e+00
0.000000000000000e+00 0.000000000000000e+00 0.000000000000000e+00
0.000000000000000e+00 0.000000000000000e+00 0.000000000000000e+00
0.000000000000000e+00 0.000000000000000e+00 0.000000000000000e+00
0.000000000000000e+00 0.000000000000000e+00 0.000000000000000e+00
0.000000000000000e+00 0.000000000000000e+00 0.000000000000000e+00
0.000000000000000e+00 0.000000000000000e+00 0.000000000000000e+00
0.000000000000000e+00 0.000000000000000e+00 0.000000000000000e+00
0.000000000000000e+00 0.000000000000000e+00 0.000000000000000e+00
0.000000000000000e+00 0.000000000000000e+00 0.000000000000000e+00
0.000000000000000e+00 0.000000000000000e+00 0.000000000000000e+00
0.000000000000000e+00 0.000000000000000e+00 0.000000000000000e+00
0.000000000000000e+00 0.000000000000000e+00 0.000000000000000e+00
0.000000000000000e+00 0.000000000000000e+00 0.000000000000000e+00
0.000000000000000e+00 0.000000000000000e+00 0.000000000000000e+00
0.000000000000000e+00 0.000000000000000e+00 0.000000000000000e+00
0.000000000000000e+00 0.000000000000000e+00 0.000000000000000e+00
0.000000000000000e+00 0.000000000000000e+00 0.000000000000000e+00
0.000000000000000e+00 0.000000000000000e+00 0.000000000000000e+00
0.000000000000000e+00 0.000000000000000e+00 0.000000000000000e+00
0.000000000000000e+00 0.000000000000000e+00 0.000000000000000e+00
0.000000000000000e+00 0.000000000000000e+00 0.000000000000000e+00
0.000000000000000e+00 0.000000000000000e+00 0.000000000000000e+00
0.000000000000000e+00 0.000000000000000e+00 0.000000000000000e+00
0.000000000000000e+00 0.000000000000000e+00 0.000000000000000e+00
0.000000000000000e+00 0.000000000000000e+00 0.000000000000000e+00
0.000000000000000e+00 0.000000000000000e+00 0.000000000000000e+00
0.000000000000000e+00 0.000000000000000e+00 0.000000000000000e+00
0.000000000000000e+00 0.000000000000000e+00 0.000000000000000e+00
0.000000000000000e+00 0.000000000000000e+00 0.000000000000000e+00
0.000000000000000e+00 0.000000000000000e+00 0.000000000000000e+00
0.000000000000000e+00 0.000000000000000e+00 0.000000000000000e+00
0.000000000000000e+00 0.000000000000000e+00 0.000000000000000e+00
0.000000000000000e+00 0.000000000000000e+00 0.000000000000000e+00
0.000000000000000e+00 0.000000000000000e+00 0.000000000000000e+00
0.000000000000000e+00 0.000000000000000e+00 0.000000000000000e+00
0.000000000000000e+00 0.000000000000000e+00 0.000000000000000e+00
0.000000000000000e+00 0.000000000000000e+00 0.000000000000000e+00
0.000000000000000e+00 0.000000000000000e+00 0.000000000000000e+00
0.000000000000000e+00 0.000000000000000e+00 0.000000000000000e+00
0.000000000000000e+00 0.000000000000000e+00 0.000000000000000e+00
0.000000000000000e+00 0.000000000000000e+00 0.000000000000000e+00
0.000000000000000e+00 0.000000000000000e+00 0.000000000000000e+00
0.000000000000000e+00 0.000000000000000e+00 0.000000000000000e+00
0.000000000000000e+00 0.000000000000000e+00 0.000000000000000e+00
0.000000000000000e+00 0.000000000000000e+00 0.000000000000000e+00
0.000000000000000e+00 0.000000000000000e+00 0.000000000000000e+00
0.000000000000000e+00 0.000000000000000e+00 0.000000000000000e+00
0.000000000000000e+00 0.000000000000000e+00 0.000000000000000e+00
0.000000000000000e+00 0.000000000000000e+00 0.000000000000000e+00
0.000000000000000e+00 0.000000000000000e+00 0.000000000000000e+00
0.000000000000000e+00 0.000000000000000e+00 0.000000000000000e+00
0.000000000000000e+00 0.000000000000000e+00 0.000000000000000e+00
0.000000000000000e+00 0.000000000000000e+00 0.000000000000000e+00
0.000000000000000e+00 0.000000000000000e+00 0.000000000000000e+00
0.000000000000000e+00 0.000000000000000e+00 0.000000000000000e+00
0.000000000000000e+00 0.000000000000000e+00 0.000000000000000e+00
0.000000000000000e+00 0.000000000000000e+00 0.000000000000000e+00
0.000000000000000e+00 0.000000000000000e+00 0.000000000000000e+00
0.000000000000000e+00 0.000000000000000e+00 0.000000000000000e+00
0.000000000000000e+00 0.000000000000000e+00 0.000000000000000e+00
0.000000000000000e+00 0.000000000000000e+00 0.000000000000000e+00
0.000000000000000e+00 0.000000000000000e+00 0.000000000000000e+00
0.000000000000000e+00 0.000000000000000e+00 0.000000000000000e+00
0.000000000000000e+00 0.000000000000000e+00 0.000000000000000e+00
0.000000000000000e+00 0.000000000000000e+00 0.000000000000000e+00
0.000000000000000e+00 0.000000000000000e+00 0.000000000000000e+00
0.000000000000000e+00 0.000000000000000e+00 0.000000000000000e+00
0.000000000000000e+00 0.000000000000000e+00 0.000000000000000e+00
0.000000000000000e+00 0.000000000000000e+00 0.000000000000000e+00
0.000000000000000e+00 0.000000000000000e+00 0.000000000000000e+00
0.000000000000000e+00 0.000000000000000e+00 0.000000000000000e+00
0.000000000000000e+00 0.000000000000000e+00 0.000000000000000e+00
0.000000000000000e+00 0.000000000000000e+00 0.000000000000000e+00
0.000000000000000e+00 0.000000000000000e+00 0.000000000000000e+00
0.000000000000000e+00 0.000000000000000e+00 0.000000000000000e+00
0.000000000000000e+00 0.000000000000000e+00 0.000000000000000e+00
0.000000000000000e+00 0.000000000000000e+00 0.000000000000000e+00
0.000000000000000e+00 0.000000000000000e+00 0.000000000000000e+00
0.000000000000000e+00 0.000000000000000e+00 0.000000000000000e+00
0.000000000000000e+00 0.000000000000000e+00 0.000000000000000e+00
0.000000000000000e+00 0.000000000000000e+00 0.000000000000000e+00
0.000000000000000e+00 0.000000000000000e+00 0.000000000000000e+00
0.000000000000000e+00 0.000000000000000e+00 0.000000000000000e+00
0.000000000000000e+00 0.000000000000000e+00 0.000000000000000e+00
0.000000000000000e+00 0.000000000000000e+00 0.000000000000000e+00
0.000000000000000e+00 0.000000000000000e+00 0.000000000000000e+00
0.000000000000000e+00 0.000000000000000e+00 0.000000000000000e+00
0.000000000000000e+00 0.000000000000000e+00 0.000000000000000e+00
0.000000000000000e+00 0.000000000000000e+00 0.000000000000000e+00
0.000000000000000e+00 0.000000000000000e+00 0.000000000000000e+00
0.000000000000000e+00 0.000000000000000e+00 0.000000000000000e+00
0.000000000000000e+00 0.000000000000000e+00 0.000000000000000e+00
0.000000000000000e+00 0.000000000000000e+00 0.000000000000000e+00
0.000000000000000e+00 0.000000000000000e+00 0.000000000000000e+00
0.000000000000000e+00 0.000000000000000e+00 0.000000000000000e+00
0.000000000000000e+00 0.000000000000000e+00 0.000000000000000e+00
0.000000000000000e+00 0.000000000000000e+00 0.000000000000000e+00
0.000000000000000e+00 0.000000000000000e+00 0.000000000000000e+00
0.000000000000000e+00 0.000000000000000e+00 0.000000000000000e+00
0.000000000000000e+00 0.000000000000000e+00 0.000000000000000e+00
0.000000000000000e+00 0.000000000000000e+00 0.000000000000000e+00
0.000000000000000e+00 0.000000000000000e+00 0.000000000000000e+00
0.000000000000000e+00 0.000000000000000e+00 0.000000000000000e+00
0.000000000000000e+00 0.000000000000000e+00 0.000000000000000e+00
0.000000000000000e+00 0.000000000000000e+00 0.000000000000000e+00
0.000000000000000e+00 0.000000000000000e+00 0.000000000000000e+00
0.000000000000000e+00 0.000000000000000e+00 0.000000000000000e+00
0.000000000000000e+00 0.000000000000000e+00 0.000000000000000e+00
0.000000000000000e+00 0.000000000000000e+00 0.000000000000000e+00
0.000000000000000e+00 0.000000000000000e+00 0.000000000000000e+00
0.000000000000000e+00 0.000000000000000e+00 0.000000000000000e+00
0.000000000000000e+00 0.000000000000000e+00 0.000000000000000e+00
0.000000000000000e+00 0.000000000000000e+00 0.000000000000000e+00
0.000000000000000e+00 0.000000000000000e+00 0.000000000000000e+00
0.000000000000000e+00 0.000000000000000e+00 0.000000000000000e+00
0.000000000000000e+00 0.000000000000000e+00 0.000000000000000e+00
0.000000000000000e+00 0.000000000000000e+00 0.000000000000000e+00
0.000000000000000e+00 0.000000000000000e+00 0.000000000000000e+00
0.000000000000000e+00 0.000000000000000e+00 0.000000000000000e+00
0.000000000000000e+00 0.000000000000000e+00 0.000000000000000e+00
0.000000000000000e+00 0.000000000000000e+00 0.000000000000000e+00
0.000000000000000e+00 0.000000000000000e+00 0.000000000000000e+00
0.000000000000000e+00 0.000000000000000e+00 0.000000000000000e+00
0.000000000000000e+00 0.000000000000000e+00 0.000000000000000e+00
0.000000000000000e+00 0.000000000000000e+00 0.000000000000000e+00
0.000000000000000e+00 0.000000000000000e+00 0.000000000000000e+00
0.000000000000000e+00 0.000000000000000e+00 0.000000000000000e+00
0.000000000000000e+00 0.000000000000000e+00 0.000000000000000e+00
0.000000000000000e+00 0.000000000000000e+00 0.000000000000000e+00
0.000000000000000e+00 0.000000000000000e+00 0.000000000000000e+00
0.000000000000000e+00 0.000000000000000e+00 0.000000000000000e+00
0.000000000000000e+00 0.000000000000000e+00 0.000000000000000e+00
0.000000000000000e+00 0.000000000000000e+00 0.000000000000000e+00
0.000000000000000e+00 0.000000000000000e+00 0.000000000000000e+00
0.000000000000000e+00 0.000000000000000e+00 0.000000000000000e+00
0.000000000000000e+00 0.000000000000000e+00 0.000000000000000e+00
0.000000000000000e+00 0.000000000000000e+00 0.000000000000000e+00
0.000000000000000e+00 0.000000000000000e+00 0.000000000000000e+00
0.000000000000000e+00 0.000000000000000e+00 0.000000000000000e+00
0.000000000000000e+00 0.000000000000000e+00 0.000000000000000e+00
0.000000000000000e+00 0.000000000000000e+00 0.000000000000000e+00
0.000000000000000e+00 0.000000000000000e+00 0.000000000000000e+00
0.000000000000000e+00 0.000000000000000e+00 0.000000000000000e+00
0.000000000000000e+00 0.000000000000000e+00 0.000000000000000e+00
0.000000000000000e+00 0.000000000000000e+00 0.000000000000000e+00
0.000000000000000e+00 0.000000000000000e+00 0.000000000000000e+00
0.000000000000000e+00 0.000000000000000e+00 0.000000000000000e+00
0.000000000000000e+00 0.000000000000000e+00 0.000000000000000e+00
0.000000000000000e+00 0.000000000000000e+00 0.000000000000000e+00
0.000000000000000e+00 0.000000000000000e+00 0.000000000000000e+00
0.000000000000000e+00 0.000000000000000e+00 0.000000000000000e+00
0.000000000000000e+00 0.000000000000000e+00 0.000000000000000e+00
0.000000000000000e+00 0.000000000000000e+00 0.000000000000000e+00
0.000000000000000e+00 0.000000000000000e+00 0.000000000000000e+00
0.000000000000000e+00 0.000000000000000e+00 0.000000000000000e+00
0.000000000000000e+00 0.000000000000000e+00 0.000000000000000e+00
0.000000000000000e+00 0.000000000000000e+00 0.000000000000000e+00
0.000000000000000e+00 0.000000000000000e+00 0.000000000000000e+00
0.000000000000000e+00 0.000000000000000e+00 0.000000000000000e+00
0.000000000000000e+00 0.000000000000000e+00 0.000000000000000e+00
0.000000000000000e+00 0.000000000000000e+00 0.000000000000000e+00
0.000000000000000e+00 0.000000000000000e+00 0.000000000000000e+00
0.000000000000000e+00 0.000000000000000e+00 0.000000000000000e+00
0.000000000000000e+00 0.000000000000000e+00 0.000000000000000e+00
0.000000000000000e+00 0.000000000000000e+00 0.000000000000000e+00
0.000000000000000e+00 0.000000000000000e+00 0.000000000000000e+00
0.000000000000000e+00 0.000000000000000e+00 0.000000000000000e+00
0.000000000000000e+00 0.000000000000000e+00 0.000000000000000e+00
0.000000000000000e+00 0.000000000000000e+00 0.000000000000000e+00
0.000000000000000e+00 0.000000000000000e+00 0.000000000000000e+00
0.000000000000000e+00 0.000000000000000e+00 0.000000000000000e+00
0.000000000000000e+00 0.000000000000000e+00 0.000000000000000e+00
0.000000000000000e+00 0.000000000000000e+00 0.000000000000000e+00
0.000000000000000e+00 0.000000000000000e+00 0.000000000000000e+00
0.000000000000000e+00 0.000000000000000e+00 0.000000000000000e+00
0.000000000000000e+00 0.000000000000000e+00 0.000000000000000e+00
0.000000000000000e+00 0.000000000000000e+00 0.000000000000000e+00
0.000000000000000e+00 0.000000000000000e+00 0.000000000000000e+00
0.000000000000000e+00 0.000000000000000e+00 0.000000000000000e+00
0.000000000000000e+00 0.000000000000000e+00 0.000000000000000e+00
0.000000000000000e+00 0.000000000000000e+00 0.000000000000000e+00
0.000000000000000e+00 0.000000000000000e+00 0.000000000000000e+00
0.000000000000000e+00 0.000000000000000e+00 0.000000000000000e+00
0.000000000000000e+00 0.000000000000000e+00 0.000000000000000e+00
0.000000000000000e+00 0.000000000000000e+00 0.000000000000000e+00
0.000000000000000e+00 0.000000000000000e+00 0.000000000000000e+00
0.000000000000000e+00 0.000000000000000e+00 0.000000000000000e+00
0.000000000000000e+00 0.000000000000000e+00 0.000000000000000e+00
0.000000000000000e+00 0.000000000000000e+00 0.000000000000000e+00
0.000000000000000e+00 0.000000000000000e+00 0.000000000000000e+00
0.000000000000000e+00 0.000000000000000e+00 0.000000000000000e+00
0.000000000000000e+00 0.000000000000000e+00 0.000000000000000e+00
0.000000000000000e+00 0.000000000000000e+00 0.000000000000000e+00
0.000000000000000e+00 0.000000000000000e+00 0.000000000000000e+00
0.000000000000000e+00 0.000000000000000e+00 0.000000000000000e+00
0.000000000000000e+00 0.000000000000000e+00 0.000000000000000e+00
0.000000000000000e+00 0.000000000000000e+00 0.000000000000000e+00
0.000000000000000e+00 0.000000000000000e+00 0.000000000000000e+00
0.000000000000000e+00 0.000000000000000e+00 0.000000000000000e+00
0.000000000000000e+00 0.000000000000000e+00 0.000000000000000e+00
0.000000000000000e+00 0.000000000000000e+00 0.000000000000000e+00
0.000000000000000e+00 0.000000000000000e+00 0.000000000000000e+00
0.000000000000000e+00 0.000000000000000e+00 0.000000000000000e+00
0.000000000000000e+00 0.000000000000000e+00 0.000000000000000e+00
0.000000000000000e+00 0.000000000000000e+00 0.000000000000000e+00
0.000000000000000e+00 0.000000000000000e+00 0.000000000000000e+00
0.000000000000000e+00 0.000000000000000e+00 0.000000000000000e+00
0.000000000000000e+00 0.000000000000000e+00 0.000000000000000e+00
0.000000000000000e+00 0.000000000000000e+00 0.000000000000000e+00
0.000000000000000e+00 0.000000000000000e+00 0.000000000000000e+00
0.000000000000000e+00 0.000000000000000e+00 0.000000000000000e+00
0.000000000000000e+00 0.000000000000000e+00 0.000000000000000e+00
0.000000000000000e+00 0.000000000000000e+00 0.000000000000000e+00
0.000000000000000e+00 0.000000000000000e+00 0.000000000000000e+00
0.000000000000000e+00 0.000000000000000e+00 0.000000000000000e+00
0.000000000000000e+00 0.000000000000000e+00 0.000000000000000e+00
0.000000000000000e+00 0.000000000000000e+00 0.000000000000000e+00
0.000000000000000e+00 0.000000000000000e+00 0.000000000000000e+00
0.000000000000000e+00 0.000000000000000e+00 0.000000000000000e+00
0.000000000000000e+00 0.000000000000000e+00 0.000000000000000e+00
0.000000000000000e+00 0.000000000000000e+00 0.000000000000000e+00
0.000000000000000e+00 0.000000000000000e+00 0.000000000000000e+00
0.000000000000000e+00 0.000000000000000e+00 0.000000000000000e+00
0.000000000000000e+00 0.000000000000000e+00 0.000000000000000e+00
0.000000000000000e+00 0.000000000000000e+00 0.000000000000000e+00
0.000000000000000e+00 0.000000000000000e+00 0.000000000000000e+00
0.000000000000000e+00 0.000000000000000e+00 0.000000000000000e+00
0.000000000000000e+00 0.000000000000000e+00 0.000000000000000e+00
0.000000000000000e+00 0.000000000000000e+00 0.000000000000000e+00
0.000000000000000e+00 0.000000000000000e+00 0.000000000000000e+00
0.000000000000000e+00 0.000000000000000e+00 0.000000000000000e+00
0.000000000000000e+00 0.000000000000000e+00 0.000000000000000e+00
0.000000000000000e+00 0.000000000000000e+00 0.000000000000000e+00
0.000000000000000e+00 0.000000000000000e+00 0.000000000000000e+00
0.000000000000000e+00 0.000000000000000e+00 0.000000000000000e+00
0.000000000000000e+00 0.000000000000000e+00 0.000000000000000e+00
0.000000000000000e+00 0.000000000000000e+00 0.000000000000000e+00
0.000000000000000e+00 0.000000000000000e+00 0.000000000000000e+00
0.000000000000000e+00 0.000000000000000e+00 0.000000000000000e+00
0.000000000000000e+00 0.000000000000000e+00 0.000000000000000e+00
0.000000000000000e+00 0.000000000000000e+00 0.000000000000000e+00
0.000000000000000e+00 0.000000000000000e+00 0.000000000000000e+00
0.000000000000000e+00 0.000000000000000e+00 0.000000000000000e+00
0.000000000000000e+00 0.000000000000000e+00 0.000000000000000e+00
0.000000000000000e+00 0.000000000000000e+00 0.000000000000000e+00
0.000000000000000e+00 0.000000000000000e+00 0.000000000000000e+00
0.000000000000000e+00 0.000000000000000e+00 0.000000000000000e+00
0.000000000000000e+00 0.000000000000000e+00 0.000000000000000e+00
0.000000000000000e+00 0.000000000000000e+00 0.000000000000000e+00
0.000000000000000e+00 0.000000000000000e+00 0.000000000000000e+00
0.000000000000000e+00 0.000000000000000e+00 0.000000000000000e+00
0.000000000000000e+00 0.000000000000000e+00 0.000000000000000e+00
0.000000000000000e+00 0.000000000000000e+00 0.000000000000000e+00
0.000000000000000e+00 0.000000000000000e+00 0.000000000000000e+00
0.000000000000000e+00 0.000000000000000e+00 0.000000000000000e+00
0.000000000000000e+00 0.000000000000000e+00 0.000000000000000e+00
0.000000000000000e+00 0.000000000000000e+00 0.000000000000000e+00
0.000000000000000e+00 0.000000000000000e+00 0.000000000000000e+00
0.000000000000000e+00 0.000000000000000e+00 0.000000000000000e+00
0.000000000000000e+00 0.000000000000000e+00 0.000000000000000e+00
0.000000000000000e+00 0.000000000000000e+00 0.000000000000000e+00
0.000000000000000e+00 0.000000000000000e+00 0.000000000000000e+00
0.000000000000000e+00 0.000000000000000e+00 0.000000000000000e+00
0.000000000000000e+00 0.000000000000000e+00 0.000000000000000e+00
0.000000000000000e+00 0.000000000000000e+00 0.000000000000000e+00
0.000000000000000e+00 0.000000000000000e+00 0.000000000000000e+00
0.000000000000000e+00 0.000000000000000e+00 0.000000000000000e+00
0.000000000000000e+00 0.000000000000000e+00 0.000000000000000e+00
0.000000000000000e+00 0.000000000000000e+00 0.000000000000000e+00
0.000000000000000e+00 0.000000000000000e+00 0.000000000000000e+00
0.000000000000000e+00 0.000000000000000e+00 0.000000000000000e+00
0.000000000000000e+00 0.000000000000000e+00 0.000000000000000e+00
0.000000000000000e+00 0.000000000000000e+00 0.000000000000000e+00
0.000000000000000e+00 0.000000000000000e+00 0.000000000000000e+00
0.000000000000000e+00 0.000000000000000e+00 0.000000000000000e+00
0.000000000000000e+00 0.000000000000000e+00 0.000000000000000e+00
0.000000000000000e+00 0.000000000000000e+00 0.000000000000000e+00
0.000000000000000e+00 0.000000000000000e+00 0.000000000000000e+00
0.000000000000000e+00 0.000000000000000e+00 0.000000000000000e+00
0.000000000000000e+00 0.000000000000000e+00 0.000000000000000e+00
0.000000000000000e+00 0.000000000000000e+00 0.000000000000000e+00
0.000000000000000e+00 0.000000000000000e+00 0.000000000000000e+00
0.000000000000000e+00 0.000000000000000e+00 0.000000000000000e+00
0.000000000000000e+00 0.000000000000000e+00 0.000000000000000e+00
0.000000000000000e+00 0.000000000000000e+00 0.000000000000000e+00
0.000000000000000e+00 0.000000000000000e+00 0.000000000000000e+00
0.000000000000000e+00 0.000000000000000e+00 0.000000000000000e+00
0.000000000000000e+00 0.000000000000000e+00 0.000000000000000e+00
0.000000000000000e+00 0.000000000000000e+00 0.000000000000000e+00
0.000000000000000e+00 0.000000000000000e+00 0.000000000000000e+00
0.000000000000000e+00 0.000000000000000e+00 0.000000000000000e+00
0.000000000000000e+00 0.000000000000000e+00 0.000000000000000e+00
0.000000000000000e+00 0.000000000000000e+00 0.000000000000000e+00
0.000000000000000e+00 0.000000000000000e+00 0.000000000000000e+00
0.000000000000000e+00 0.000000000000000e+00 0.000000000000000e+00
0.000000000000000e+00 0.000000000000000e+00 0.000000000000000e+00
0.000000000000000e+00 0.000000000000000e+00 0.000000000000000e+00
0.000000000000000e+00 0.000000000000000e+00 0.000000000000000e+00
0.000000000000000e+00 0.000000000000000e+00 0.000000000000000e+00
0.000000000000000e+00 0.000000000000000e+00 0.000000000000000e+00
0.000000000000000e+00 0.000000000000000e+00 0.000000000000000e+00
0.000000000000000e+00 0.000000000000000e+00 0.000000000000000e+00
0.000000000000000e+00 0.000000000000000e+00 0.000000000000000e+00
0.000000000000000e+00 0.000000000000000e+00 0.000000000000000e+00
0.000000000000000e+00 0.000000000000000e+00 0.000000000000000e+00
0.000000000000000e+00 0.000000000000000e+00 0.000000000000000e+00
0.000000000000000e+00 0.000000000000000e+00 0.000000000000000e+00
0.000000000000000e+00 0.000000000000000e+00 0.000000000000000e+00
0.000000000000000e+00 0.000000000000000e+00 0.000000000000000e+00
0.000000000000000e+00 0.000000000000000e+00 0.000000000000000e+00
0.000000000000000e+00 0.000000000000000e+00 0.000000000000000e+00
0.000000000000000e+00 0.000000000000000e+00 0.000000000000000e+00
0.000000000000000e+00 0.000000000000000e+00 0.000000000000000e+00
0.000000000000000e+00 0.000000000000000e+00 0.000000000000000e+00
0.000000000000000e+00 0.000000000000000e+00 0.000000000000000e+00
0.000000000000000e+00 0.000000000000000e+00 0.000000000000000e+00
0.000000000000000e+00 0.000000000000000e+00 0.000000000000000e+00
0.000000000000000e+00 0.000000000000000e+00 0.000000000000000e+00
0.000000000000000e+00 0.000000000000000e+00 0.000000000000000e+00
0.000000000000000e+00 0.000000000000000e+00 0.000000000000000e+00
0.000000000000000e+00 0.000000000000000e+00 0.000000000000000e+00
0.000000000000000e+00 0.000000000000000e+00 0.000000000000000e+00
0.000000000000000e+00 0.000000000000000e+00 0.000000000000000e+00
0.000000000000000e+00 0.000000000000000e+00 0.000000000000000e+00
0.000000000000000e+00 0.000000000000000e+00 0.000000000000000e+00
6.636614652645564e-03 9.438636263798391e-04 2.924342946173488e-19
7.118677213103823e-03 9.586851308995436e-06 3.177118808852741e-19
 6.507344144810001e-03 -1.149716745558046e-03  2.881020794924656e-19
6.249645313399260e-03 3.969738883682232e-04 2.849879572893627e-19
 6.074209198235644e-03 -1.117543733382453e-03  2.947679628760806e-19
6.036166614519123e-03 4.948885042011001e-04 2.780268739818517e-19
 6.569923766016740e-03 -4.345916743420680e-04  2.886238733614218e-19
 6.601686593027865e-03 -5.304013387691874e-04  2.703094518840749e-19
 6.887072775410472e-03 -5.533302086979453e-04  2.886739706441369e-19
 6.444492860239118e-03  8.105705293626460e-04 -1.061960310774271e-19
6.944827523008869e-03 6.213517459366980e-04 3.329996068431860e-19
 6.975304727518292e-03 -5.973143153037754e-04  2.947202123736861e-19
7.119947215761697e-03 5.480440660917144e-04 3.216145366920874e-19
 6.975892795949864e-03 -9.016924475702370e-05  3.141578755697513e-19
 7.372366792478074e-03 -6.051612464899899e-04  3.310912357633158e-19
 7.644770862133036e-03 -2.968741208454182e-04  3.459998262006872e-19
-2.275757807353222e-03 -4.909283630164110e-03 -1.565110464192698e-19
6.902708916988365e-03 2.268395787129687e-03 3.143736703524091e-19
 6.584615423660521e-03 -2.071683061267667e-03  3.159544010085165e-19
5.872699771393057e-03 3.040879475562047e-03 2.603028594449316e-19
 7.554756278483161e-03 -1.515971133726305e-03  3.344918862617541e-19
6.591255274909202e-03 9.438637786704375e-04 3.008379130997234e-19
 6.530921181868290e-03 -9.149253332813789e-04  2.964767128320675e-19
6.417269254981513e-03 1.359392983117512e-03 2.877831060424836e-19
 6.968568926255607e-03 -2.718352490333435e-04  3.149662983257105e-19
6.644147412223919e-03 7.468430774269506e-04 3.033120239926442e-19
6.741784710736212e-03 4.091605175086552e-04 3.064329762182899e-19
6.388972588754698e-03 3.877482659154831e-04 2.943259053667120e-19
6.350818698753213e-03 1.910401782628863e-03 2.808682099243392e-19
 6.275227437345265e-03 -7.980422698981008e-05  2.891225992482491e-19
5.383968451969715e-03 8.151746568895025e-04 2.509495850507528e-19
4.651774449242968e-03 6.518067697748458e-03 2.375833541340812e-19
 6.440392015906841e-03 -2.072864545887375e-03  2.751084587164118e-19
 6.066515791640204e-03 -9.549360301207380e-05  2.838615720578243e-19
 6.446190019027014e-03 -8.209869315799989e-04  2.977680359624937e-19
6.519472509445031e-03 3.446547518135612e-04 2.999213477068002e-19
 6.846626962822639e-03 -3.053799786964723e-04  3.091534637820417e-19
 6.610352806782802e-03 -4.089219187050951e-05  3.028433873475291e-19
6.919276196676743e-03 1.380972602396517e-04 3.095726500857280e-19
 6.731626876951405e-03 -7.468636096006123e-04  3.081985346730356e-19
6.858314674005875e-03 2.665667308598867e-04 3.101608490168845e-19
 6.407065862177701e-03 -1.209583672272500e-03  2.967717559990335e-19
6.508576833459972e-03 7.610913509313249e-04 2.996632476539367e-19
 6.726639334373822e-03 -2.841742377327945e-04  3.025222450884806e-19
7.246577280403927e-03 4.386248618407250e-04 3.190046082150314e-19
 6.502877934022153e-03 -1.743617351650003e-03  3.010986142939185e-19
6.743182684747248e-03 5.416187118798677e-04 3.050500141835014e-19
 6.915451360031541e-03 -6.270249253114339e-04  3.149962644424207e-19
6.879538764396672e-03 8.396023200521860e-04 3.121833476239970e-19
 6.691557868459743e-03 -4.582594752091056e-04  3.098960094033866e-19
6.548615365130331e-03 1.578774598400665e-03 2.916505064354326e-19
 6.733293615532667e-03 -1.101575648898244e-03  3.014558471924465e-19
 6.618677217554406e-03 -1.444919409042207e-04  3.113590405484606e-19
6.576388669526563e-03 9.559757844954809e-04 2.977938927174708e-19
7.112386270130504e-03 7.203209574132125e-04 3.154524869240282e-19
 6.799166720895453e-03 -5.373192949437423e-04  3.040401362482176e-19
 6.767619132751317e-03 -8.709707915805772e-05  3.106112646368273e-19
 7.143491823801667e-03 -6.919723556586233e-06  3.221912805950808e-19
7.168869615023368e-03 1.305959755859576e-04 3.224507202732069e-19
7.166660447765374e-03 1.251918554044104e-04 3.224287941593064e-19
7.182583672324600e-03 2.022908597356265e-04 3.217390065432709e-19
7.130447746104452e-03 8.425408408686349e-05 3.211466350832284e-19
7.171537021477450e-03 3.132028511777045e-04 3.214208890475889e-19
 7.122911016912052e-03 -3.028688389360227e-05  3.211011942298633e-19
7.081145500154351e-03 3.874491718719518e-04 3.205583762594291e-19
 6.544934951157725e-03 -2.444492136405206e-04  3.047331312979835e-19
6.584007888621324e-03 1.036500442552561e-03 2.892901326595773e-19
 6.816495904491455e-03 -1.028694039276049e-04  3.016504689226466e-19
7.136169309619312e-03 1.065456380311559e-04 3.142499528285373e-19
 6.493387244297992e-03 -8.824271176213839e-04  3.030986868209929e-19
6.756679890579755e-03 2.461694486049107e-04 3.074083758010734e-19
 6.836448570061230e-03 -5.037971483981808e-04  3.118301109765921e-19
6.810438961901932e-03 3.054929511489051e-04 3.077603957477850e-19
 6.947344120516559e-03 -2.686354729802216e-04  3.144166401241675e-19
6.828625255322932e-03 2.125042716950626e-04 3.079288065724252e-19
6.858510460337411e-03 5.930198153869940e-05 3.074091960480022e-19
6.745114915530397e-03 5.832150909594315e-05 3.040327299325017e-19
6.630442858926879e-03 3.103970596199602e-04 3.000762574857064e-19
6.503713761670540e-03 1.729070651961364e-04 2.959969735979707e-19
5.792912804660772e-03 4.903900860636872e-04 2.624071148127023e-19
4.952602312312627e-03 6.194187274992049e-03 2.331977579809003e-19
 6.811593692495031e-03 -2.210669528378329e-03  2.976666921196575e-19
 6.171832533072940e-03 -8.534131675269658e-06  2.825398573464546e-19
 6.455854677742108e-03 -8.812150500098155e-04  2.991022941407984e-19
6.555483304503372e-03 4.204919249171948e-04 2.955202570089603e-19
 6.833624886783677e-03 -4.612484872266017e-04  3.054374054995290e-19
6.667545148319379e-03 2.052291427727996e-04 3.013606780949631e-19
 6.879364650225092e-03 -9.622211102776858e-05  3.054492006333440e-19
 6.782882320185580e-03 -1.499330359723503e-04  3.060153554141609e-19
 6.781708175911400e-03 -2.801797848090833e-06  3.031355570838644e-19
 6.666745744147799e-03 -7.626052815335473e-05  2.985774567215974e-19
6.724880625588284e-03 1.220949727506115e-04 2.986475450961211e-19
 7.538209767928917e-03 -9.058389175184570e-05  3.229937927383234e-19
 3.192447959225717e-03 -5.434186218892897e-03  2.552942138283647e-19
6.099463577877432e-03 7.807572696362208e-04 2.774554130541055e-19
6.868468509033470e-03 1.791494003318569e-04 3.044479123892390e-19
6.939638138511419e-03 4.037103135333718e-04 3.017710980238301e-19
 6.697302290176410e-03 -5.031395451449648e-04  3.015465096721751e-19
6.613245910978106e-03 2.766742506316532e-04 2.958718685064422e-19
 6.751059343750000e-03 -2.914974866093692e-05  2.997013867304361e-19
 6.846729295410759e-03 -2.956283272720230e-05  3.012652169974190e-19
 6.965885355227841e-03 -9.888040496927584e-04  3.063100888158746e-19
 6.993402369004404e-03 -2.413908543476352e-04  3.112351276638892e-19
 5.848570321387300e-03 -3.124916388928033e-04  2.814292319959406e-19
-2.938277875701604e-03  6.610054084345488e-03 -1.375313807914501e-19
 8.047514543323817e-03 -8.447851393688108e-04  3.370178096019205e-19
6.600107490604781e-03 1.405309373599030e-04 2.909995211431261e-19
 6.587578520681768e-03 -2.159591234444988e-04  2.967917540054119e-19
6.672973125263004e-03 6.770887563556731e-04 2.922424512301717e-19
 6.874933947759583e-03 -2.455543120627257e-04  2.997743763454768e-19
 6.692125693608031e-03 -1.115577546845019e-04  2.965450797176133e-19
6.805789525855775e-03 2.168785912316252e-04 2.975722140231212e-19
6.740590622943157e-03 2.148009121967659e-04 2.935376307765757e-19
6.689982641918824e-03 2.059263050269888e-04 2.921713959358354e-19
6.533270647665037e-03 1.328013531157027e-04 2.882100223084616e-19
6.642264758519996e-03 4.117655323525119e-04 2.873281188845159e-19
 6.327177828554618e-03 -1.603808648564830e-03  2.761170465733752e-19
6.251375949220933e-03 2.387308194249895e-04 2.770767934139350e-19
 6.451344115261951e-03 -1.692305818774687e-04  2.856947843484024e-19
6.282123753546836e-03 3.121474864941104e-04 2.774219570839887e-19
6.503565705571502e-03 8.758686129829173e-05 2.818231101090090e-19
 6.284277993378185e-03 -7.675062945433821e-04  2.808086532009338e-19
6.567037868784714e-03 5.668041634536376e-05 2.831751838687505e-19
 6.549331170992422e-03 -1.496701855019146e-03  2.953017351796827e-19
 6.826403067452921e-03 -8.038330077502166e-05  2.997019658609768e-19
 6.346022419905686e-03 -9.055150751235791e-04  2.897405029085609e-19
6.571359694114597e-03 9.452826068074032e-04 2.840091605582847e-19
 7.873587877732766e-03 -2.857160535435984e-05  3.210755990049733e-19
-4.428540820436608e-03 -4.994633614798224e-03 -1.672134411496655e-19
5.642284465811549e-03 9.285360627201413e-05 2.606838947447029e-19
7.040975750172148e-03 4.211668093457642e-04 3.004258741990557e-19
 6.834847098510211e-03 -1.177097966600484e-05  2.937276880630218e-19
6.864920706613446e-03 8.291958708223703e-04 2.869409149674386e-19
 6.971202739905731e-03 -2.125068107046498e-04  2.966335968646054e-19
6.789689494886752e-03 1.035581010289756e-04 2.924710050715991e-19
6.915090477759536e-03 2.428190838481988e-04 2.938267184364254e-19
6.821414506742828e-03 2.395297106239402e-04 2.911962179180501e-19
5.996079083827750e-03 1.678987954766359e-04 2.645888608469635e-19
6.120644841317959e-03 1.274177070948216e-03 2.591768798218107e-19
6.683299973640314e-03 1.396698353801299e-04 2.727890997248419e-19
 3.334266129263156e-03 -6.159023905749600e-03  1.562595952556792e-19
 5.920972134717421e-03 -8.498390690601624e-04  2.649632769963124e-19
 6.534099264779444e-03 -6.228948479504132e-05  2.814338269147905e-19
 6.703304411263376e-03 -4.016719073807064e-04  2.878449140718558e-19
6.734366621798547e-03 4.658410627132245e-05 3.038491504420543e-19
 6.714234340108045e-03 -3.042491665728598e-04  7.132346230007052e-19
6.656673065373974e-03 3.426091201843348e-04 5.463083204287620e-19
 6.743288838467176e-03 -1.188985593452175e-04  2.183684526619081e-19
 6.853423943800447e-03 -2.376413207823564e-04  2.581116873963756e-19
 6.701456176245661e-03 -2.804833114269402e-04  2.828185434003765e-19
6.932880614580766e-03 1.043492488608511e-03 2.833840808701649e-19
 6.862939313493134e-03 -1.068451628106016e-03  2.985829207094966e-19
6.729657706635523e-03 4.713361681201644e-04 2.764691347931479e-19
 6.768004701851002e-03 -9.590690515454852e-04  2.900438433030160e-19
6.705694867084862e-03 2.841305305879004e-04 2.753946706194813e-19
 6.965442412596713e-03 -3.782616384860474e-04  2.887818074686577e-19
7.008341263367693e-03 7.786354501174598e-05 2.848574354616987e-19
 6.211192568372871e-03 -1.696407206091578e-03  2.798064829376330e-19
6.607521200984679e-03 8.490428253466829e-04 2.644438470931840e-19
 6.876688790380768e-03 -5.796224924517774e-04  2.759269444035258e-19
9.459007948016034e-03 3.165536052491302e-04 3.622767264277263e-19
 3.454209852170365e-03 -5.046700497022999e-03  3.112158314511620e-19
3.227073443127676e-03 2.137167906543043e-03 6.529751850279355e-20
7.801858097454154e-03 2.157772280984435e-03 3.139810396869301e-19
7.761262048812968e-03 1.610121932718695e-03 3.073200271671514e-19
6.784973523831923e-03 2.039048412872190e-04 2.637135083523663e-19
 6.651124532581586e-03 -1.366200365290823e-04  2.619714201033477e-19
 6.575779310867854e-03 -6.338673293503925e-04  2.666640526146165e-19
 7.196216219681791e-03 -3.735352582140030e-04  2.763443385544408e-19
 1.115750132238823e-02 -3.201522534782639e-03  4.026221056290032e-19
 6.892798805767862e-04 -3.175678550114193e-03  2.736398080692476e-19
4.305514871421651e-03 4.361114154646906e-03 1.127024377902513e-19
 8.352316098968780e-03 -2.393291391731937e-03  3.267511401580660e-19
5.987993536984594e-03 3.662967351842758e-03 1.847793862792885e-19
 7.504780836397748e-03 -4.635022471300725e-04  2.617806546521776e-19
 7.082788861232330e-03 -4.605505890491187e-04  2.518226673577691e-19
 4.763348024781279e-03 -1.882916183091103e-03  2.837378466114790e-19
-1.961097172847956e-04  5.061415980971857e-03 -1.150369264739927e-19
 7.772239405358369e-03 -4.781868117151595e-04  2.745305708413524e-19
 6.639897772727543e-03 -4.085195244843042e-04  2.422586687923555e-19
6.545592976805477e-03 4.875760777218185e-04 2.099401814765758e-19
 6.516310873891857e-03 -1.624246238041961e-03  2.383120846996288e-19
 6.778887510869644e-03 -3.279008037920174e-05  2.234116866101993e-19
6.966788666776581e-03 1.844938154542894e-04 2.146816756105965e-19
 6.748897529164914e-03 -4.576034040956563e-04  2.112601604074885e-19
 6.954751094466188e-03 -5.992301056518660e-04  2.210446395623667e-19
 7.167881972425573e-03 -4.737470295498117e-04  2.326942641856295e-19
 7.212818331863853e-03 -1.020120613468165e-04  1.164534256098026e-19
 7.592926316136690e-03 -3.142816197800233e-03  2.565251966962465e-19
1.231326593783133e-02 4.509468588453133e-03 2.476900135978936e-19
 1.720065901805660e-03 -5.628281686175268e-03  2.719529910978357e-19
 3.771730976601875e-03  5.325940925663364e-03 -6.590761383588409e-20
 8.167630058820208e-03 -7.901350385593541e-04  1.848037363780086e-19
 3.903277073502758e-03  5.561615353804602e-03 -8.242370140666717e-20
5.973956645737939e-03 2.254801080635846e-05 8.801146319408430e-20
 3.710138581662923e-03  8.580604972215264e-03 -1.676528383748394e-19
 4.765880462170953e-03 -4.601922164874393e-03  8.830360303177442e-19
 3.988358306347926e-03  4.619920082103913e-03 -1.313339667468544e-19
 3.843882373898255e-03 -8.855742466958604e-03  1.254354863532077e-18
 5.034120467386473e-03  1.311280559452595e-04 -1.232679881689264e-19
 5.261142914360689e-03 -2.887015157371745e-03  1.644090098603430e-19
 4.117139153758753e-03  3.023669146326549e-03 -4.302060346865918e-19
 7.771775970358830e-03 -3.511107150480261e-04 -8.473756690277906e-20
 7.135112256257185e-03  9.434415895521459e-04 -3.390517453894098e-19
 5.859160275768629e-03  9.352553905859341e-04 -5.899037806646071e-19
 7.882648959271595e-03  1.409327730654705e-03 -6.873079890961691e-19
 1.435825956061651e-03 -5.379967824537308e-03  8.455773222751143e-19
 4.559878907242743e-03  1.079693261816159e-03 -1.013730090767775e-18
 6.379153975929691e-03 -1.240335622840208e-03 -6.900655222645535e-19
 1.052925820721433e-02  5.000662051715352e-03 -1.604351140647800e-18
 2.714929514508021e-03 -6.281902377994640e-03  1.175131111994303e-18
 2.889993338185748e-03  2.916202932622629e-03 -2.353068326552268e-18
 8.306524982410400e-03  6.558465073633090e-05 -1.634456392842966e-18
 6.786311131231982e-03  6.664902675210177e-03 -3.028582572236632e-18
 6.918046053338228e-03 -5.898618129228467e-03  3.463917039442181e-20
 5.744451850557694e-03  2.774046374448691e-03 -3.366757284123066e-18
 5.907076605030260e-03 -1.281687365060477e-03 -2.023189576798718e-18
 4.376789127550606e-03  4.725624323749530e-03 -4.647563050257744e-18
 7.021867576612264e-03 -1.023989444695470e-03 -3.032131978578965e-18
 6.746606017164865e-03  1.766845068446665e-03 -5.631195102540088e-18
 6.078336406433441e-03 -4.491761114609472e-03 -1.347154166831908e-18
 6.325258228443124e-03 -1.524215210774922e-04 -6.563928934929288e-18
 6.862510669840831e-03 -1.653678437987054e-04 -9.664644558643409e-18
 6.338569844032017e-03  6.047755091379389e-04 -1.541749685369420e-17
 7.714329935157874e-03  1.084889061580642e-03 -2.253776931728800e-17
 4.701846594961300e-03 -7.238838015895131e-03 -2.589015884483183e-18
 5.999486140466672e-03 -1.354320687722443e-03 -2.933719045471613e-17
 6.210326938565730e-03  3.151280291172477e-03 -5.187139706854327e-17
 7.462457497096532e-03  1.294165264936186e-03 -6.805501009882715e-17
 7.008571519350886e-03 -1.730755279764860e-03 -8.178438662127950e-17
 6.338454746622742e-03  7.280304885109767e-05 -1.202480545113641e-16
 6.625135144900383e-03 -2.354895961530724e-04  2.807981703196860e-16
 6.659110967713977e-03 -5.290707916313559e-05 -6.500064666108214e-15
 6.940067520567451e-03 -1.309678733603298e-04  2.014727204518773e-16
 6.967005751440819e-03 -1.314762319316432e-04 -1.231792589429887e-16
 6.874341847795444e-03 -5.461710280456333e-05 -6.552726472199927e-15
 6.933252454669787e-03  9.358752022010215e-05 -8.414521454778992e-17
 7.041065734444418e-03  8.633635619409357e-05 -6.604486400547157e-17
 6.948763103003897e-03 -6.963053030371290e-05 -4.643583771578406e-17
 6.945224078610282e-03 -7.087117005380581e-05 -2.795758261040537e-17
 7.196170044888923e-03 -7.343189869972864e-05 -1.757528853864371e-17
 6.057176844896903e-03 -8.494137757888160e-04 -1.084201940417966e-17
-3.330220429069814e-05  6.319596823921233e-03 -1.360348578312307e-18
 6.677169158803543e-03 -7.781356833404180e-04 -6.681732598318985e-18
 6.036390498064832e-03 -7.034614120758540e-04 -4.446656371994636e-18
 6.706508488786743e-03 -5.594512426192520e-04 -3.203194755070366e-18
 7.200115780990446e-03 -7.452356972548718e-04 -2.248541547457808e-18
 7.579068591574094e-03 -4.816289630397287e-05 -1.658890632306293e-18
 7.195620796172679e-03 -3.374510236195779e-04 -1.302991970868694e-18
 6.663549186087095e-03  1.688287324120390e-03 -1.060861742381132e-18
 6.596860118935241e-03 -1.672479290743721e-04 -8.130326865683704e-19
 6.727090777193603e-03 -1.901851656435393e-03 -5.492939493154087e-19
 7.411426619232928e-03 -9.761343840547187e-04 -4.233159693864199e-19
 6.958578082641705e-03 -3.401245931728398e-04 -3.487716516004700e-19
 7.599344618589252e-03  1.156665619241214e-03 -2.875067211875904e-19
 7.996415683093713e-03 -2.338557990101992e-03 -8.275556896826071e-20
 9.895310686368626e-04  6.146581543642071e-03 -2.242456401847552e-19
 8.682863964008105e-03  2.013634914903614e-03 -3.798076514623928e-20
 7.792059693180687e-03  1.807049324075662e-03 -2.894529072993153e-20
7.194801238085071e-03 2.748893898935429e-04 9.108798611130572e-21
 6.753611771973598e-03  2.126471521965881e-03 -4.058664396844899e-21
 6.349991057233080e-03 -1.148295666233068e-04  4.060102534874059e-20
 3.146729944465429e-03  6.429948032412518e-03 -2.678804398748476e-20
 6.804496086807562e-03 -8.842567810642438e-04  9.907392153022444e-20
5.656346888076385e-03 2.951671953114692e-03 3.246471642946356e-20
 6.621310438348021e-03 -5.413239632108797e-04  1.254196222635102e-19
5.946031822974621e-03 1.256472623661532e-03 7.975843743285042e-20
 5.541121957585763e-03 -3.076902954291401e-03  1.434968350451542e-19
6.036038952300188e-03 5.670768951407775e-04 1.379509803371139e-19
 6.560591981955298e-03 -5.188801390617907e-04  1.841898539335274e-19
7.180397484842326e-03 1.202803468149749e-03 1.834699374270515e-19
 3.857846341608418e-03 -3.624590991658948e-03  3.108904030508797e-19
4.164381135716400e-03 2.839329403448748e-03 9.752282072855493e-21
 7.601764740848568e-03 -9.119356622758638e-04  2.470035111867342e-19
5.904678198859460e-03 6.597745745165967e-04 1.531103594175340e-19
 5.970536275904961e-03 -1.350033252332137e-03  2.030710593049009e-19
 5.755101268090137e-03 -8.417765547406461e-04  2.152423124004998e-19
6.845948422068779e-03 1.838202646661347e-04 2.304864211270178e-19
 7.031898045219461e-03 -4.803591954787234e-04  2.445423419322098e-19
 6.904013883368160e-03 -4.716232421548373e-04  2.469639178042688e-19
7.181816651040298e-03 3.370469348586649e-04 2.513514171672473e-19
 7.082582312083164e-03 -6.810296132842755e-04  2.578680914654217e-19
7.129699475776042e-03 3.053107736124084e-04 2.631348642631531e-19
 6.804670700610009e-03 -1.197583623825296e-03  2.653211871474863e-19
6.636872279629659e-03 6.629426766805227e-04 2.334477131952913e-19
6.930664958126756e-03 3.887323824275105e-04 2.587768222591251e-19
 6.875709691657810e-03 -5.670225224005153e-04  2.680240667473896e-19
 6.163898848703309e-03 -5.615792316409082e-04  2.507078573534385e-19
6.675364670878769e-03 5.461136536340481e-04 2.431634684844885e-19
6.827156617637152e-03 1.403814244349675e-04 2.589787358487194e-19
6.806774665797659e-03 6.489137931231804e-04 2.741792654173612e-19
 6.611363522301437e-03 -1.098859559156747e-04  2.601292033918679e-19
6.592965454905175e-03 6.635316990199719e-04 2.651804673427373e-19
 6.558248345332615e-03 -1.425152315356069e-03  2.489807109522624e-19
6.522332635381640e-03 2.122908686390872e-04 2.619145564436526e-19
 6.597952388142028e-03 -1.100079646410101e-04  2.661547375024866e-19
6.839893702041146e-03 7.053630685603807e-04 2.796917503190594e-19
 6.580126632117023e-03 -6.585827724705004e-04  2.660753768616862e-19
6.492471637257609e-03 8.692530637824191e-04 2.870964686471535e-19
 6.860050060553276e-03 -3.843940001513840e-04  2.739763821938975e-19
-2.732030591896270e-03 -6.234205023757075e-03 -1.973561224737006e-20
 6.772187651859585e-03 -3.350441945206373e-04  2.839885166852075e-19
7.049994118249967e-03 1.757052130901506e-03 2.394954008148914e-19
 6.969749430331345e-03 -1.690799439027585e-03  2.922314109037664e-19
6.643671172907433e-03 7.414324211934761e-04 2.404726402878363e-19
 6.572211866302821e-03 -1.117052275732701e-03  2.904348577357682e-19
6.549488450823258e-03 7.293811097525984e-04 2.456756206347358e-19
 6.639477898601848e-03 -1.932349206035672e-03  3.115052327635959e-19
6.602650859495516e-03 2.631847532834626e-04 2.717690661938276e-19
 6.104857083223800e-03 -1.695848957392840e-03  2.289755325968784e-19
6.355089894941345e-03 6.944153934511846e-04 2.611499116310011e-19
 6.679674946986559e-03 -4.277331599783907e-04  2.805342669447990e-19
6.962918769572725e-03 1.165599086502313e-03 3.032902302540272e-19
 6.921135432959912e-03 -1.032551259904531e-03  2.928699549751637e-19
6.708967086412128e-03 6.005266429162585e-04 2.685840528162116e-19
6.938206770395634e-03 5.660351201883279e-05 2.912777601183080e-19
7.043622239741898e-03 2.669886279801220e-04 2.890108537478879e-19
 6.754967828418132e-03 -4.825941937976947e-04  2.725685694794609e-19
6.785317050660034e-03 1.438624757290208e-03 2.277804062290058e-19
 6.902770761783104e-03 -2.721228613475679e-04  2.893768564384878e-19
6.586261760585348e-03 1.807783762213688e-03 2.324547545433441e-19
 6.803216106449887e-03 -7.227013398177194e-05  2.899918668450881e-19
5.651845473553609e-03 2.096619510787026e-03 3.397640431233017e-19
5.593828329800896e-03 7.375377817483982e-04 2.856178245477303e-19
 4.798614894940566e-03  3.213321593821276e-03 -3.707818221155377e-20
 2.404603712821296e-03 -9.121393256702272e-03  1.823770067264574e-19
 2.880741171221888e-03 -1.141229592108434e-03  1.326010920963294e-19
5.525438747776934e-03 6.476588603855195e-04 2.542635748376019e-19
 5.632833737407884e-03 -2.851225290880755e-03  2.109696062753836e-19
6.068209495999470e-03 2.063948762199117e-04 2.744228249386449e-19
 6.495826579082545e-03 -1.464664210357215e-03  2.966524621109543e-19
6.844852935926191e-03 2.988246483474064e-04 3.742305552654891e-19
 6.629155062856484e-03 -1.782337361642505e-03  1.250009028762500e-19
6.861841798674087e-03 3.011173280949598e-04 2.007079715532197e-19
 6.897550129280227e-03 -1.434851172889948e-03  5.981354729038645e-19
6.910409852817984e-03 2.486859117711408e-04 3.489300965823085e-19
 7.094810998027935e-03 -2.177360400858574e-04  2.938050175698952e-19
7.172408915287760e-03 8.148493138095315e-05 3.086201191296482e-19
 6.246405381804714e-03 -5.657054011702965e-04  3.162631169346373e-19
4.189614741028354e-03 6.326068060738985e-03 3.032909096918270e-19
 8.000811401502023e-03 -2.608149847229088e-03  2.538450919894288e-19
 6.395690609826128e-03 -4.064743479797071e-06  2.801038726819991e-19
 6.688957000210316e-03 -1.237850924721768e-04  2.937361526036735e-19
6.772075710400671e-03 5.641136091594418e-04 3.069192461599518e-19
 6.852571963384667e-03 -1.349171060644920e-04  2.953350208738120e-19
6.830235363147985e-03 1.916500554796076e-04 3.043679703098682e-19
 6.698447178872355e-03 -1.664097291224119e-04  2.960352029371375e-19
6.598726072274023e-03 9.451201433842583e-04 2.829114292592084e-19
6.629122707965856e-03 1.798705964341208e-04 2.892778144498708e-19
5.747041941297668e-03 7.545495712362891e-04 2.636876804777022e-19
5.490709957495698e-03 8.226455788698740e-04 2.080301691015537e-19
7.523712702828466e-03 2.645257530512439e-03 2.356078952532087e-19
 8.562406645012636e-04 -7.514225990996436e-03  1.898723307734434e-19
 1.906441878569151e-04 -5.531335659333407e-05  8.528712357496675e-20
-2.224543774539546e-03  4.465828912872377e-03 -1.311058940984996e-19
 8.482099747041285e-03 -2.668721275797319e-03  2.366072500193082e-19
 5.568946200869557e-03 -2.785776292966466e-03  3.347065092823287e-19
5.611094437233453e-03 2.728872528736220e-03 1.675548949408744e-19
7.698312130162497e-03 2.784136366463609e-03 4.592785619519525e-19
 6.845092052270437e-03 -4.592458690346710e-04  2.698340089080810e-19
 6.344171664395068e-03 -5.393377284410208e-04  2.831710972965564e-19
 6.483176076332581e-03 -4.758020850233101e-04  2.992016856471106e-19
6.798553240318941e-03 1.892649964934027e-04 2.970689789411577e-19
 7.066866103612845e-03 -1.655417850113839e-04  3.115726450370895e-19
6.045115131228976e-03 4.818022256071372e-04 2.698294862516992e-19
6.307838383629767e-03 1.479802680882169e-03 2.447139127748385e-19
7.867430219113552e-03 1.494868860435573e-03 4.035754035334168e-19
 5.460414221385828e-04 -7.398188250823091e-03 -2.267735075051959e-20
 2.113309324466347e-03 -3.591334173882605e-04  1.694338767857909e-19
2.342267947224178e-03 8.707244694199255e-03 2.413160840326276e-19
 6.186334573699758e-03 -8.958851118239604e-03  1.467974094682397e-19
 3.146928693158865e-03 -6.896888453163939e-04  2.107451039414144e-19
5.239464144699945e-03 1.142635381343434e-04 2.636893116792391e-19
6.584634146972163e-03 2.217138114372633e-03 2.597565001149961e-19
 6.752060378833254e-03 -1.019635316294539e-03  2.742135459743813e-19
 6.323419141755804e-03 -2.419293083242783e-07  2.474535854087805e-19
 6.777128386318217e-03 -5.840206968452838e-04  3.062979543622299e-19
 6.768664059464847e-03 -2.514337546739034e-04 -6.660634511199648e-20
 6.678519733369346e-03 -4.313822528983587e-06  5.340406671295304e-19
4.979647423718795e-03 4.493218413763909e-03 1.994629933273312e-20
6.423741812845093e-03 5.871600106807318e-05 3.641431436665765e-19
5.602075132296871e-03 2.028857482025262e-03 1.310650548967744e-19
 7.768710852885439e-03 -2.629624603156482e-03  2.820242161150186e-19
 5.005481920537765e-03 -1.282978555761418e-03  2.659035718652422e-19
5.626343202011840e-03 1.323175037168341e-03 2.442149795381920e-19
 6.272679341444456e-03 -1.750575742940158e-03  2.665726690694580e-19
 6.209104719114983e-03 -4.369361584433513e-04  2.866368308520809e-19
 7.003500708975618e-03 -2.003433192791409e-04  3.131444823605952e-19
6.977515410401405e-03 1.690499591166131e-06 3.117781387235687e-19
6.810063673825120e-03 1.586195900101813e-04 3.070720461272907e-19
6.613210421353196e-03 1.540344959942059e-04 2.972140383529421e-19
 7.000848551724042e-03 -2.601193716188803e-04  3.045548909568868e-19
 6.646825050184361e-03 -6.973717278305342e-04  3.019059151048967e-19
6.822845015136169e-03 3.242727997585256e-04 3.022086412757120e-19
 6.659034018066333e-03 -1.968192434877204e-04  2.993871941084413e-19
6.351208144623553e-03 3.766114661915745e-04 2.892291710060548e-19
6.627301377901160e-03 2.261015657577015e-04 2.897670786375580e-19
 6.756750669133510e-03 -2.211508024335436e-04  2.994814613316760e-19
 6.830717216829740e-03 -4.213178371401300e-04  3.034896288036410e-19
 6.327358927497163e-03 -1.393179000189870e-03  2.903582060739948e-19
6.699136030492844e-03 6.970028694401104e-04 2.983091925896932e-19
 7.225815995850616e-03 -3.815560820070769e-04  3.159721606753355e-19
6.884452352849954e-03 9.448755597726969e-05 3.096178949986616e-19
7.019856669112241e-03 1.204164051029143e-04 3.065180271024864e-19
 6.919638899454931e-03 -2.019021927615469e-04  3.057179411712829e-19
6.982246259273114e-03 7.238089734691517e-05 3.075838951165919e-19
 6.999791954684152e-03 -2.235401802738127e-04  3.458780239944141e-19
7.009371937550556e-03 4.270359625017453e-04 1.073747045857562e-19
 6.869414065028755e-03 -2.898310207371430e-07  6.187254301870376e-19
6.614296800006233e-03 1.340936520024585e-03 3.426089745124384e-19
 1.543765788684518e-03 -1.003499897754771e-03  1.837343549710023e-19
3.272861162280521e-03 6.116182504918741e-03 1.628056468212885e-19
 4.537162891742287e-03 -8.063961352514777e-03  3.743776963933372e-20
 6.993317975095790e-04 -2.293499186256739e-04  1.328466606547657e-19
 5.126143409932788e-03 -8.358372260688050e-04  2.882001007415787e-19
6.837793586950511e-03 8.159362193321128e-04 3.023153693038648e-19
 6.874477950278039e-03 -1.239942293719535e-03  3.239350832892571e-19
7.027795728528544e-03 1.278671068258443e-05 3.186389386649952e-19
 7.017921482691284e-03 -4.107330650399876e-04  3.177688332640929e-19
6.832851981117168e-03 7.198536790473113e-04 3.085984741420412e-19
6.997973779855936e-03 3.141790963001107e-05 3.136370340039906e-19
 7.067419840022623e-03 -1.918131954901006e-04  3.166165579047427e-19
 6.922697935666384e-03 -2.253850454113807e-04  3.153284136463764e-19
7.006623512074901e-03 1.881598474721378e-04 3.218458190012298e-19
7.760221032243515e-03 6.613580932632549e-04 3.412112740220020e-19
 9.785957676052756e-04 -7.315887580353011e-03  1.199648614615017e-19
6.788117502795237e-03 3.782696011150115e-04 3.128338734635641e-19
7.331025155920243e-03 4.085232703105311e-04 3.281895937936689e-19
7.277851543803878e-03 4.176839041072042e-04 3.238535318219016e-19
 6.989807186765763e-03 -7.820731910092630e-04  3.191041625691974e-19
7.001995575556891e-03 6.687666316759971e-04 3.165213086316406e-19
 7.043965985712819e-03 -5.304880559092459e-04  3.268219702208212e-19
6.880683684773350e-03 5.354299241024168e-04 3.131979404236524e-19
 6.579195227886282e-03 -1.876582748718150e-03  3.132620382501389e-19
7.036162822994413e-03 5.575067746665845e-04 3.149676583911662e-19
 6.313727526702773e-03 -1.561120013524341e-03  3.013751882327870e-19
6.725329295810030e-03 1.354863940508895e-03 2.897920240292772e-19
 6.551785497682933e-03 -1.698929647411821e-03  2.965507477940245e-19
6.292255191756890e-03 1.238933462536031e-03 2.809085071392181e-19
 6.346833697619859e-03 -1.246508832287222e-03  2.885066575313729e-19
6.598530047247474e-03 1.519893927643243e-04 2.982607780785745e-19
 7.097462551438239e-03 -2.249255955262037e-03  3.307744976259222e-19
7.269039612633543e-03 2.026091313456345e-03 3.268517225990001e-19
 5.162811459852386e-03 -3.486087793099752e-03  2.541442991961153e-19
4.716746586155422e-03 2.668025995319984e-03 2.370005790867907e-19
 5.214458273479382e-03 -1.509600893191159e-03  2.662176136727408e-19
4.875475841926239e-03 3.074998479901361e-03 1.962678817730827e-19
 5.877686848764605e-03 -7.424451390861107e-03  1.408618593310418e-19
 4.864224957917500e-03 -1.846144362806153e-03  2.408998779859236e-19
 5.773496083071418e-03 -1.073790857774805e-03  2.799083769723955e-19
 5.620824322605806e-03 -1.554095688468415e-03  3.360333525415677e-19
3.677248531800540e-03 3.841120178398584e-03 1.959118832388149e-19
6.526555884351073e-03 7.052466778553441e-04 2.840177002501612e-19
 6.311530670594184e-03 -1.135827736567597e-03  2.845780070876472e-19
 5.215337717938411e-03 -2.774671211843795e-03  2.706064013459071e-19
5.891701207171389e-03 2.221109415132598e-03 2.521742443501807e-19
-6.915308693881559e-03  1.885783116127681e-03 -3.193875217566868e-19
-6.786334818690906e-03 -7.631956344495263e-04 -3.097132647760345e-19
-7.057212067088737e-03 -1.653790145182438e-03 -3.153322970185688e-19
-6.154084095438952e-03  1.178141538135151e-03 -3.035527330860077e-19
-7.311124765896100e-03 -1.218387298701758e-04 -3.347620236021662e-19
-7.060294134243857e-03 -1.176586773404201e-04 -3.297258300405203e-19
-6.938631505864430e-03  1.557606588599658e-03 -3.260027265399311e-19
-7.364366267707529e-03  9.553774827792684e-06 -3.315251038737793e-19
-7.008344288288795e-03 -1.600122421911761e-04 -3.230672788155208e-19
-7.140496428671081e-03  1.666961130987147e-04 -3.303037739266020e-19
-7.083533262762173e-03  2.006964782983781e-04 -3.281691540553150e-19
-6.988996120481032e-03  1.980179743907364e-04 -3.257692489000547e-19
-6.987838819153454e-03  3.737735371619837e-04 -3.255510660690926e-19
-6.954622686604716e-03 -1.117881080617473e-04 -3.253372602724854e-19
-7.219653032049946e-03  7.282292565738987e-04 -3.369868143333267e-19
-7.141955900599548e-03 -6.305290334137694e-04 -3.330446758928076e-19
-6.505416080446568e-03  2.970290264610380e-03 -3.297041891165666e-19
-7.823750064896849e-03 -1.336768602264155e-04 -3.580629451126733e-19
-7.492586394541234e-03  6.315341344687888e-04 -3.441570550951623e-19
-7.671469538159131e-03  2.477589206495685e-04  2.667636426202176e-19
-7.626907103377015e-03  2.463197256311672e-04  2.659871093965036e-19
-7.680400862491997e-03  6.871494709354052e-04 -2.047005219398366e-18
-7.597453757280429e-03 -6.740831818894814e-06 -9.579732186763033e-21
-7.204027395579030e-03  1.769576501755631e-04 -2.113112462782094e-19
-8.037601168912495e-03  2.232084438903663e-03 -3.725353579905561e-19
-7.107214211360051e-03 -2.723615435537829e-03 -2.287029751280321e-19
-7.283378376252974e-03  1.807881536716887e-04 -4.758368476828255e-19
-7.550978346158722e-03 -1.432846486626832e-03  2.778501659290215e-19
-7.700133774188845e-03  2.134072759622691e-04  1.457596123801594e-19
-7.394706286572153e-03 -2.028731756935903e-03 -3.434532093508744e-19
-7.725722468412094e-03  1.180086584577317e-03 -4.134998343743469e-19
-8.315779987309719e-03 -1.097982954424772e-03 -3.730065865934063e-19
-8.313425339103680e-03  7.492792343543089e-04 -3.871566073153210e-19
-7.459915844847571e-03 -5.301406244063889e-04 -3.545269344590690e-19
-7.347582295561801e-03  3.712331505967599e-03 -3.285649541234338e-19
-7.629835896593624e-03 -2.803484812522826e-03 -3.150980231100170e-19
-6.582792164013985e-03  4.089759174200887e-04 -3.740841198146621e-19
-7.815375885155657e-03  3.924390781902341e-04 -3.933653268378381e-19
-8.281948281856365e-03  4.474918067479589e-04  2.969134572932591e-19
-7.950710440740522e-03 -6.601704351733639e-04  1.478175718322667e-18
-7.789848457029864e-03  3.398680059202665e-04 -4.752540165440850e-19
-7.784855071194615e-03  3.396501464720402e-04 -4.702495796601852e-19
-7.749934383639835e-03 -1.436701697927700e-04 -3.611320925801881e-19
-7.669562192512343e-03  7.904789828919970e-04 -3.582938514732690e-19
-7.531471952183432e-03 -3.560151894918692e-04 -3.448132230721215e-19
-7.635279698816964e-03  6.159208981580921e-04 -3.489566764738246e-19
-7.727537537558839e-03 -1.387258368866246e-03 -3.450910919217512e-19
-8.616020606220305e-03  1.112649813523832e-03 -3.811547811148012e-19
-7.019213469167069e-03 -3.668006110684873e-03 -3.100569361407107e-19
-7.365769250651855e-03  9.897765451758226e-04 -3.599720593929258e-19
-8.162128240084637e-03 -5.444906923476261e-04 -3.770449074192323e-19
-7.722436275651216e-03  1.502817824576260e-03 -3.629811727285181e-19
-7.709364508079783e-03  4.311803333102132e-04 -3.506966561443944e-19
-7.210431727883086e-03  4.032753092010098e-04 -3.319955419022414e-19
-7.076684993061935e-03 -2.015787970767383e-04 -3.255075315430533e-19
-7.386663630084207e-03 -1.141022184166267e-04 -3.367551226747874e-19
-7.367446650469980e-03 -6.078655629727406e-04 -3.366467531298795e-19
-7.730043033254638e-03  1.056830785787290e-03 -3.521796952650356e-19
-7.945337374895389e-03 -1.026445288317962e-03 -3.552423961684429e-19
-7.343455990936162e-03  5.594826324406850e-04 -3.435416304544245e-19
-6.771126012053547e-03 -6.796844333759191e-04 -3.176999236812024e-19
-7.191381215466478e-03  4.439294855527855e-03 -3.191952821405712e-19
-8.164252268940242e-03 -2.359333990003260e-03 -3.608249893671841e-19
-6.882706713646102e-03  1.048988476571978e-03 -3.332778519104760e-19
-7.432610043759469e-03  1.073035630993652e-03 -3.411523768376664e-19
-6.893059210920724e-03  6.845689057686134e-04 -3.183905199048852e-19
-6.472760033856601e-03  6.428278240610326e-04 -2.989382132571276e-19
-6.533027478419848e-03 -5.090665795487744e-04 -2.964027251250407e-19
-6.358768826879839e-03 -4.954879965733800e-04 -3.010004189943582e-19
-4.783925426558216e-03  7.826310700861095e-04 -2.701574079391241e-19
-3.724890593767917e-03  7.184151686090455e-04 -2.250817385177453e-19
-6.560618155745174e-03  4.065604347141203e-03 -2.400426935505659e-19
-1.642550203086006e-03 -6.976937004500472e-03 -6.234316622367407e-20
-1.445250520256769e-03  6.874482646541001e-04 -1.843231306567648e-19
-6.349312607083317e-03 -6.487135143567763e-04 -3.128162439901812e-19
-8.356047657607904e-03  3.612161153449803e-03 -3.843207872732822e-19
-1.064734175347352e-02  6.181674663586986e-05 -4.533375833896148e-19
-9.148758159067912e-03  1.478377376652540e-04 -3.959896213022440e-19
-8.131872068792626e-03  3.166738489543496e-04 -3.753766006016787e-19
-7.622206070550718e-03  1.153147848413495e-03 -3.917786254635869e-19
-7.123212052370351e-03  1.077656071740194e-03 -3.678999799829337e-19
-6.740807127096079e-03  3.346479145797157e-04 -5.749515051761736e-19
-7.098839706684610e-03 -8.933451005927730e-04 -3.147147245391959e-19
-6.773349492864726e-03 -2.557087121694693e-04 -2.994262245593560e-19
4.747099455377375e-03 6.718495316950293e-03 1.976662023052121e-19
-8.572986960450953e-03 -1.334885772064554e-03 -3.701049847305192e-19
-7.559104257907122e-03  2.072973929159917e-04 -3.949128235642081e-19
-5.683987777643204e-03 -1.307408824521545e-03 -3.068308553642274e-19
-3.103217786077407e-03  4.829657302677543e-03 -2.147713939961340e-19
-8.497007601490634e-03  1.770003922996079e-03 -4.763690618218431e-19
-7.769377613773866e-03 -1.244995524870017e-03  5.245823522800188e-19
-7.029234903297312e-03 -6.452027741076099e-04 -3.990258125795710e-19
-7.180805301735597e-03  1.047560174200978e-03 -3.770466243657094e-19
-6.882986597234584e-03  1.004113373896842e-03 -3.501703923819099e-19
-6.542352529813749e-03 -5.164092066088594e-04 -2.996893629645640e-19
-7.025297106649528e-03  5.050711772234151e-04 -3.166425964675154e-19
-7.093651553113852e-03 -1.981060813288985e-03 -3.074162218719381e-19
-7.758168704671598e-03 -6.639729699168439e-04 -3.441316737737474e-19
-7.525666136321058e-03 -2.395379276314438e-03 -3.306979436251390e-19
-7.896985801587483e-03  8.762080040091751e-04 -3.646486667724273e-19
-8.354779610390620e-03 -7.166087684566773e-04 -3.711980795022598e-19
-8.115097502952492e-03  1.216217006042812e-03 -3.625380855276639e-19
-8.192441668146005e-03 -2.307510499741978e-04 -3.591275156324867e-19
-7.634660082393516e-03  5.430420109240017e-04 -3.425658546184265e-19
-7.433377828942583e-03  5.287251037535858e-04 -3.333512957366816e-19
-5.023115518546490e-03 -1.297914768940563e-04 -2.542081257625921e-19
-2.276054594204105e-03  7.639919369720954e-03 -7.606509125265493e-20
-8.228501093239178e-03 -3.481805295579766e-03 -3.472777405312698e-19
-5.692855329564094e-03 -1.028690339756352e-03 -2.516770288369183e-19
-7.724091135899645e-03 -5.991089488387882e-04 -3.358233907144983e-19
-5.860774338087760e-03 -4.206982183817079e-03 -2.430080702451375e-19
-5.736533212164446e-03  2.676821700091101e-04 -2.951387627180877e-19
-7.543356382138571e-03  1.945896594575123e-03 -3.344302829785382e-19
-8.060755425123561e-03 -1.043897073058835e-03 -3.399725334675961e-19
-6.673822660911649e-03 -9.084174119291084e-04 -2.982768229765665e-19
-6.926878704260091e-03  1.043119794699588e-03 -3.208470973322889e-19
-7.323130930549654e-03  3.116300445737826e-04 -3.233594786946497e-19
-7.146916961199464e-03  3.041313984832093e-04 -3.210996699476188e-19
-5.200191469622137e-03  3.659736844640968e-05 -2.605063972158029e-19
-5.890227804556147e-05  7.052722985567303e-03 -2.953397934887085e-20
-8.655670732734443e-03 -8.004501175197834e-04 -3.476407250791686e-19
-6.346965620743587e-03 -1.990528725047657e-03 -2.675708322024361e-19
-6.706266587108503e-03 -4.289821430145886e-04 -3.090527082297699e-19
-6.457435079168572e-03  2.593976971080211e-04 -3.065997454555412e-19
-7.615650984268572e-03  2.426277953454303e-03 -3.213949981663978e-19
-7.183967713611529e-03 -3.054721495656845e-03 -2.978249993216325e-19
-6.441593428043263e-03 -5.130585208526317e-04 -2.932108088638959e-19
-7.673978586714696e-03  1.163520266004936e-04 -3.402034749392469e-19
-7.878728779042346e-03 -4.297760922361467e-04 -3.407613851815216e-19
-7.717002423647544e-03 -1.442201063158095e-04 -3.352248265902653e-19
-7.655139956025452e-03 -1.430639823226283e-04 -3.320463670127050e-19
-7.690854845006517e-03  4.436940805528527e-05 -3.323402753175221e-19
-7.360761768573279e-03 -4.932887255017635e-04 -3.205751778250975e-19
-7.618800831135562e-03  1.042380188099441e-03 -3.313260293779669e-19
-6.914202182416312e-03 -1.073842627064730e-03 -3.004075268452451e-19
-6.769172427536722e-03  2.685389093710595e-03 -2.974316568841661e-19
-7.224276276698692e-03 -2.852481963247382e-03 -2.943413467744360e-19
-7.518991561668198e-03 -1.172663233890329e-04 -3.276190486168507e-19
-7.627080728379531e-03  2.088762995730592e-04 -3.337593551493330e-19
-7.644629816053438e-03  7.214798425234619e-04 -3.322192332908422e-19
-7.782813989333372e-03  1.015085219747743e-03 -3.292165408987154e-19
-7.496302961887094e-03 -2.434062299946214e-04 -3.177764633666667e-19
-7.535127788478016e-03  1.162136117268592e-03 -3.234790054906747e-19
-7.481565914659034e-03 -5.917957795742860e-04 -3.161554390055354e-19
-6.435928621698580e-03  1.887881243106313e-03 -2.855083063019623e-19
-6.193316350836476e-03 -1.549939327857750e-03 -2.467148630648587e-19
-6.585340247122788e-03  1.667375314052196e-03 -2.976508733506279e-19
-7.106174141958001e-03 -1.007682391221080e-03 -2.896712716555779e-19
-5.544090468110230e-03  5.182656603031862e-03 -2.663319267255138e-19
-7.256309703878605e-03 -1.578316641024148e-03 -2.932223085458985e-19
-6.604115739735571e-03  2.046499563834787e-03 -2.876160901143749e-19
-7.155615527403115e-03 -1.520457466673393e-03 -2.738478037653120e-19
-6.115688593475538e-03 -1.064092200499757e-03 -2.450893087543250e-19
-6.261012421523305e-03  7.003408623488196e-05 -2.681996978421235e-19
-6.991197118250032e-03  5.969653543165778e-04 -2.848174840451098e-19
-6.786360420846787e-03 -9.175067455976719e-04 -2.616355691635943e-19
-6.942867274667214e-03 -9.386662604491671e-04 -2.707208318545507e-19
-7.210962261195401e-03 -6.504512741385294e-04 -2.831793793612250e-19
-6.980423216114489e-03  1.584965278795710e-03 -2.796020584572782e-19
-7.130157647325097e-03 -8.616756168359592e-04 -2.659940932935464e-19
-6.922612387579775e-03 -2.150054739806205e-03 -2.934345991721548e-19
-7.226888187993516e-03 -9.096205195610096e-04 -3.121694123073006e-19
-1.002487119337675e-02  1.961514611321020e-03  1.761734770884346e-19
-1.264105977594341e-03 -6.868235394362788e-03 -7.109400667420524e-20
-5.241284084247508e-03  2.282631460711601e-03  6.288015832430683e-19
-8.397798539962177e-03 -2.570980069217949e-04 -3.136513485009291e-19
-7.620076860286821e-03 -2.332881128367070e-04 -2.870506700535455e-19
-7.446293908156768e-03  5.362550311265093e-04 -2.670042509643488e-19
-4.094395784450229e-03 -5.966617123607194e-04 -9.631425104769127e-20
2.325290943565689e-03 7.323380879495592e-03 6.825867558522367e-20
-7.583924740155625e-03 -2.510044834647812e-03 -2.386631995380994e-19
-6.794867335427828e-03 -1.049353754697242e-03 -2.078670616171369e-19
-7.619529111855853e-03 -1.865931998948806e-03 -2.397669752335667e-19
-8.715211126866343e-03  1.266682157925438e-05 -2.845013480596558e-19
-6.567085798533536e-03  2.901673004638182e-03 -2.424784268286350e-19
-7.351409448148646e-03  1.899909760085477e-03 -2.233445151854043e-19
-7.102413077056062e-03  2.267194086325807e-04 -1.907684795938095e-19
-6.099886764636700e-03  9.048925225646196e-04 -1.644109548002156e-19
3.670212869088730e-03 6.213054698564788e-03 4.123757561532026e-20
-6.540909195918865e-03 -6.886924897034344e-06 -1.497756751189898e-19
-4.863686240693811e-03  6.432964663817856e-04 -9.922844462941869e-20
-1.259703359125175e-03  7.236687613887106e-03 -6.548659276419634e-20
-9.023964103993932e-03 -6.224417302262445e-04 -1.453582552083275e-19
-5.333555197093578e-03 -3.351089596272248e-03 -4.369079613790480e-20
-5.215829135011068e-03  7.104092045641094e-05 -4.043541688596530e-19
-6.446963003466204e-03  5.219648352608337e-04 -3.074498265235638e-19
-6.042547774697443e-03  1.167459340613336e-03  8.932472272253197e-19
-5.314685329984008e-03  1.446366765704348e-03 -7.461625420020817e-20
-4.493840258058841e-03  7.997148636174699e-03 -2.473533054285829e-20
-5.168897598955727e-03 -2.662493091344790e-03  2.121122954610566e-20
-5.754157658769176e-03  1.332533108555704e-03 -7.555297557140453e-20
-7.076304139322255e-03 -6.305895402464922e-04  1.808359588592488e-20
-5.165731050243922e-03  5.229509587769889e-03 -6.493853099877190e-20
-7.338141831280146e-03 -1.532477654513680e-03  6.928321252800806e-20
-6.535397981424059e-03  2.984132940429875e-04  1.165695551241899e-19
-6.689785224041757e-03  1.954038129860026e-07  1.892676194484257e-19
-6.748905185954110e-03 -1.180396850218233e-05  2.940960596220412e-19
-6.361958535354481e-03 -1.761838751346762e-03  4.099637405896032e-19
-6.559410600355785e-03  8.782300036222588e-04  4.208548351915454e-19
-6.817520528754418e-03  1.646588692248981e-05  5.611467918159739e-19
-6.310913132986857e-03  9.403659778610701e-04  7.016897435029221e-19
-6.107128424077073e-03 -2.786255185935220e-04  9.937236041718311e-19
-6.449825416664613e-03 -1.119782975854740e-03  1.329011076601286e-18
-5.834339736666904e-03  6.139664454117902e-04  1.708856722637231e-18
-5.931405178504438e-03  7.722704242520478e-03  1.132020526668781e-18
-5.078451762035226e-03 -6.344240298008247e-03  1.673078321415294e-18
-4.908925217168827e-03  1.918281501470914e-04  2.811716745154367e-18
-6.847226469985722e-03 -2.205925868424000e-03  3.459588448619703e-18
-8.519091183589041e-03 -6.925270236822990e-04  5.151962517398032e-18
-7.232251108150536e-03 -6.702260363535409e-03  5.218729751280000e-18
-5.921893742811626e-03  8.150589943504731e-04  8.662397170058096e-18
-5.584641015952424e-03  4.398535078418351e-03  7.916142428845556e-18
-6.973244055628581e-03  7.578242239943282e-03  6.886949790440024e-18
-8.549506536422426e-03 -1.110012090012427e-03  1.464047006037609e-17
-6.201761958547189e-03  6.526111819315256e-04  2.074267355822838e-17
-6.375892695141789e-03 -1.924000626366969e-03  2.993664477623367e-17
-6.422268771539622e-03  2.444972745551791e-04  3.923608020163556e-17
-6.662816606766950e-03 -1.654717332113305e-04  7.442451041831270e-17
-6.785978980779026e-03  6.079807107576389e-05  1.314652511541333e-16
-6.862112899723481e-03  6.148018273988372e-05  1.156481101574331e-16
-6.991066407098056e-03  8.935159796937991e-06 -1.250655113665799e-15
-7.011397457130113e-03 -1.050451716795987e-04  6.314004345157751e-15
-7.145744082023078e-03  1.222952585459791e-04  3.863310078501935e-18
-7.061454103868974e-03 -1.057951233225935e-04  6.682151253304604e-15
-7.170832035199216e-03 -8.426708177087782e-04  1.503703850565824e-16
-7.916455922846342e-03  1.421354072507346e-03  9.246410159829462e-17
-7.918359515488841e-03 -2.007781120976824e-03  7.754136896718049e-17
-8.178192380034626e-03  6.319287936298112e-04  4.926288445343159e-17
-4.265394947506013e-03 -5.433259567819939e-03  4.672347885643790e-17
-6.763110960579027e-03  2.438832076477397e-03  2.693326565489675e-17
-7.940681096272099e-03  4.927319545912132e-04  2.902363727032125e-17
-6.809762328038029e-03  1.708825615050035e-03  1.967562366738838e-17
-5.851898719370025e-03  1.071719904578637e-03  1.443890108943337e-17
-6.683018921403140e-03  3.479408348151765e-03  7.054889369028545e-18
-4.792639879948202e-03 -4.981289182537819e-03  1.368387379321127e-17
-4.984623260504169e-03  3.112380795021679e-04  9.105624889946772e-18
-5.811781830445431e-03 -1.455138971921599e-03  7.887490016160383e-18
-6.421571815851854e-03  4.821668609690737e-04  4.116156834267366e-18
-6.498989230920429e-03 -7.745131437324540e-04  3.762121838005942e-18
-6.531975928498648e-03  6.771004060659071e-07  2.795061225386574e-18
-6.524766518256113e-03 -8.592063404582427e-04  2.674253485949718e-18
-6.408607164774168e-03  2.012557212292718e-04  1.889282546063909e-18
-6.960920982233959e-03  7.146159458276695e-05  1.635325702569229e-18
-6.489533571755453e-03 -8.080587984444435e-04  1.607832378302861e-18
-6.679422468724519e-03  3.798437192883056e-04  1.023944696531133e-18
-5.554469259794903e-03 -3.200688111175246e-03  1.393078554290805e-18
-6.499161832055626e-03  6.336970572671302e-04  6.217416819139688e-19
-5.758860259722455e-03 -2.569042298033994e-03  9.203394935277208e-19
-6.626693770070371e-03  1.245531426942253e-03  3.139221743547343e-19
-4.532361628055018e-03 -4.159400572498161e-03  8.107934044521938e-19
-7.907913175569312e-03  2.464695850641381e-03  7.551653935007158e-20
-1.162933538933519e-03 -5.823993229392913e-03  6.869126377869964e-19
-5.971918168055900e-03  3.949346413818898e-03 -1.474932420925582e-19
-4.501930231952176e-03 -7.293436428329786e-03  4.411607298618864e-19
-2.456380377797926e-03  5.986562767714751e-03 -4.694371863974853e-19
-9.956103505111020e-03 -2.135342968554495e-03  2.397881767353097e-20
-3.184249450529216e-03  5.635003412473284e-03 -3.551435497781800e-19
-8.781050495974092e-03  3.083545712687021e-03 -1.088604692739780e-19
-2.838525556125642e-03 -7.186280813216641e-03  3.045566093066313e-19
-6.373057449843031e-03  1.372146349829548e-03 -8.722110877874842e-20
-5.820425860203845e-03 -2.318974278000534e-03  1.096097496998162e-19
-6.042193100131064e-03  4.054650818690769e-03 -2.183352769353065e-19
-7.274810457653003e-03 -1.774810658904334e-03 -9.188394780984872e-21
-6.124873679922631e-03  2.387625868122393e-03 -1.522454426663620e-19
-6.228259555422915e-03 -1.318772207687626e-03 -1.643937547890019e-20
-5.782423421123735e-03  2.794295649900083e-03 -1.794648681693872e-19
-6.685550464354931e-03 -1.339086910192375e-03 -7.177527527471103e-20
-6.478699587785344e-03  1.223818604500367e-03 -1.604222102773133e-19
-5.864893144694633e-03 -1.353995731411824e-03 -7.353817681564239e-20
-4.792155818212861e-03  2.942687368713783e-03 -1.977618964407805e-19
-6.154300726164735e-03 -6.454935113079809e-04 -1.184579056118944e-19
-5.962133561920754e-03  1.117287624497698e-03 -1.568345416416375e-19
-6.213515811226968e-03 -2.114331807507078e-03 -1.083665414594613e-19
-5.189927866821388e-03 -8.549991402362187e-04 -1.082351529356959e-19
 3.235740901970261e-03  4.653813071176792e-03 -3.381472245104991e-20
-7.239502924763096e-03 -5.997075552520297e-04 -1.925010778917415e-19
-5.225481882321159e-03 -2.706902555464214e-03 -8.934509148971236e-20
-6.155399852109062e-03  4.144299444182007e-04 -1.963118176896251e-19
-6.250215857143115e-03 -5.189455277691936e-04 -1.828899081245450e-19
-6.381809022621624e-03  6.508892963724503e-04 -2.062503869360575e-19
-5.821086523056730e-03 -1.687210145310779e-03 -1.549881708399411e-19
-6.677396381683772e-03  1.128971252563227e-03 -2.315415470720159e-19
-5.034145503972919e-03 -3.718203051744312e-03 -1.069131820206511e-19
-8.130205310380516e-03  4.899219494757381e-03 -2.988626616657788e-19
-3.361507493916382e-03 -5.765469898030090e-03  4.012136934630886e-21
-1.900409700280860e-03  5.403700447130805e-03 -2.679957889803161e-19
-1.228041403362520e-02 -3.976073431027138e-03 -4.469966939704057e-19
-7.064908646651755e-03  1.721844530508048e-03 -2.688546773228062e-19
-6.706009139875307e-03 -1.603871427551973e-03 -3.891522329271931e-19
-6.889492733849645e-03  1.516202635071705e-03 -7.396766801764563e-19
-7.432812909949711e-03  4.615242335232890e-05 -2.703868940547580e-19
-7.004188924380852e-03  1.525889319108906e-03 -2.843873442848516e-19
-6.921728683067377e-03  2.294352266730361e-04 -2.703650303849595e-19
-7.194556579961629e-03  1.721140610083350e-04 -2.864732156982679e-19
-7.071580840612842e-03  1.691721348910572e-04 -2.887672713550578e-19
-7.055747325590364e-03  1.757630743566326e-03 -2.960297868457174e-19
-6.935739983279268e-03 -1.814677389966741e-04 -2.800629788057993e-19
-5.964186536267943e-03  1.647672639009323e-03 -2.639732160165394e-19
-5.539650216465569e-03 -1.010048719177050e-03 -2.071232058034634e-19
-8.033300113400962e-03  1.294491261140381e-03 -3.075416280553654e-19
 2.406814973868109e-03 -7.415066373735245e-03  1.405117006934798e-19
-3.138236203295654e-03  8.817295554271156e-04 -2.060990991176812e-19
-1.562371721363492e-03 -3.871586642614121e-03  7.049302466229327e-20
-4.927289979815553e-03  2.476137559093584e-03 -3.068411101265385e-19
-8.369524226382392e-03  5.306044274799614e-03 -3.083770841176261e-19
-6.851458631879314e-03 -1.340028011267237e-03 -2.707776305384460e-19
-5.810910741869076e-03  2.574296468017642e-03 -2.707212622714241e-19
-6.268783817346238e-03 -1.742252381300677e-03 -2.420486748886144e-19
-8.352940158637205e-03  2.243022830178366e-03 -3.213047428090344e-19
 9.487832254875845e-04 -6.982059208939957e-03  8.104248213712087e-20
-3.532631500077812e-03  1.174805992595018e-03 -2.197392104905871e-19
-6.445836745141269e-03 -2.926076091388832e-03 -2.535620799703314e-19
-7.849148150464965e-03  7.981352668563426e-04 -3.404054442772157e-19
-7.675353139028064e-03 -2.618592379824833e-03 -3.135228893468445e-19
-7.323533618412905e-03  7.111484615171023e-04 -3.274822783812104e-19
-7.318866749697830e-03  8.151336141198237e-04 -3.175917064150445e-19
-7.232169250219192e-03  8.054777413594552e-04 -2.982066379585051e-19
-6.732099135106332e-03 -3.187989910965380e-03 -2.701049691525998e-19
-7.458158900990237e-03  2.002753114587359e-03 -3.483193524498167e-19
-7.233038075290782e-03 -2.680740883945775e-04 -3.123930981338944e-19
-1.241319498179457e-03  8.905073650397589e-03 -4.983933963870595e-20
-7.839677007641148e-03 -2.741776005937798e-03 -3.220700304199964e-19
-6.720428870031331e-03  2.396478958762110e-03 -3.184557706937853e-19
-6.894212066267168e-03 -1.879839009008364e-03 -2.906340330664953e-19
-5.050614307726261e-03  3.034280344498614e-03 -2.843823653571500e-19
-7.969861014929426e-03  1.185735438612929e-03 -3.415611013331462e-19
-7.631194453447398e-03 -9.225271315573301e-04 -3.228807693046143e-19
-7.181817021028700e-03 -3.199065353832144e-04 -3.187292211633931e-19
-7.458204028077777e-03  2.750365017074528e-04 -3.334514465142007e-19
-7.457677954727986e-03  2.750171016785418e-04 -3.284387202080275e-19
-7.331152713621817e-03 -4.004736334750598e-04 -3.223678714807368e-19
-7.389829700306312e-03  2.279842708717289e-04 -3.294861642845102e-19
-7.313775926499861e-03 -5.284302315594139e-04 -3.220174270616538e-19
-7.385233554882457e-03  8.195004076439465e-05 -3.289821019124388e-19
-7.996364644797072e-03 -5.148736354999181e-04 -3.468717088376220e-19
-5.973961754099135e-03 -4.566746400796715e-03 -2.400702071071854e-19
-7.056601656054501e-03 -4.157340968175026e-04 -3.214642664083141e-19
-7.333346506252281e-03  1.349866298016994e-04 -3.346405493070628e-19
-7.975966352804911e-03  1.910081341288381e-04 -3.514584491205242e-19
-7.643829783627256e-03 -1.346123757196389e-03 -3.314778260575202e-19
-7.964740285314551e-03  6.540693823694616e-06 -3.502527631043406e-19
-8.935417744731196e-03 -1.924961025119580e-03 -3.865596015063026e-19
-5.362513938424649e-03 -2.388542449896057e-03 -2.386297305486072e-19
 1.718559220914766e-03  6.998299665404653e-03 -2.204194486256599e-20
-1.682355913579992e-02 -5.213940698785920e-03 -7.107124927811792e-19
-8.431614152583505e-03  2.398394177438459e-03 -3.422747403774039e-19
-6.839443369094356e-03 -4.803537018497493e-04 -3.016169112931202e-19
-7.371538325823790e-03  5.191488988835465e-04 -3.364532507053925e-19
-6.300958934915034e-03 -1.510175152134530e-03 -2.828064996128691e-19
-6.194522061661898e-03  4.149471502408374e-03 -3.093853456362326e-19
-8.689146834010284e-03 -1.783326106097763e-03 -3.752021169188413e-19
-6.144115448404565e-03 -2.039283612674009e-03 -2.711604385860108e-19
-5.881791541294003e-03  5.432220792381665e-04 -3.040421901119583e-19
-7.245332466319912e-03  2.538874638180468e-03 -3.275900708958123e-19
-7.463253709842961e-03 -1.541736126891068e-03 -3.206898624565740e-19
-6.982716771231613e-03 -2.405445473069378e-04 -3.195701093159532e-19
-7.286292515676756e-03 -2.510022949735448e-04 -3.318353002369600e-19
-7.256377990174380e-03  3.561986659363219e-04 -3.294972569679625e-19
-7.293075616001817e-03 -1.130803425421487e-03 -3.231942018662144e-19
-7.134004134772999e-03 -1.448298838584481e-04 -3.298766560792413e-19
-7.083265286781017e-03  1.736235022645378e-03 -3.296441135907340e-19
-7.386654596462987e-03 -5.776914489278679e-04 -3.271629762644590e-19
-7.175994972269891e-03  2.274092490710433e-04 -3.220706591199505e-19
-7.472127325998919e-03 -9.877104414073273e-04 -3.282524720334723e-19
-7.070583978257771e-03 -1.776868585372445e-03 -3.111918471751563e-19
-7.169258506463327e-03 -1.108728021357390e-03 -3.223870422265929e-19
-7.139843327502300e-03 -1.140665326639898e-03 -3.235263645313654e-19
-8.016882600428824e-03  2.267249219816923e-04 -3.572916513842692e-19
-8.410021959996725e-03 -2.099677418401700e-03 -3.674074061804588e-19
-1.001058500115718e-02 -2.499279950979897e-03 -4.438500851015386e-19
-3.004573270923658e-03 -2.279388862353507e-03 -8.424676692807353e-20
 5.805064329097562e-04  4.977092475220806e-03 -1.329476484566710e-19
-1.596079177024809e-02 -3.112689057596305e-04 -6.331568801050179e-19
-7.824960810968042e-03  1.968976137838149e-03 -3.304338217178827e-19
-6.001697960408274e-03 -6.121699895784807e-04 -2.814733717942816e-19
-1.644853569571787e-03  7.714740756687322e-03 -9.556340791014180e-20
-7.356252562271263e-03 -2.568142266476292e-03 -3.208799369643614e-19
-6.448049320832656e-03  2.575623460719273e-03 -3.225625647459807e-19
-8.413656521515305e-03 -1.844242473023443e-03 -3.682753860718209e-19
-7.026092288820681e-03 -1.713931599486347e-03 -3.168384857793882e-19
-6.529493636001330e-03 -6.971604557931122e-04 -3.153879440293637e-19
-7.426785761864198e-03  1.641614129910880e-03 -3.413524439499393e-19
-7.882860358213631e-03 -5.383513130143267e-04 -4.601323429135780e-19
-7.278206285067103e-03  2.056054274692912e-04 -1.189631916116801e-19
-7.392134513501097e-03  2.088238388732177e-04 -1.200650720830965e-19
-7.424844976830852e-03 -3.249604351844633e-04 -1.372753633821140e-18
-7.596322262703199e-03  4.798692750751549e-04 -8.958222589082592e-19
-7.658126140143040e-03 -4.586547746182599e-04 -3.221773597747603e-19
-7.869271490460589e-03  7.106611129326783e-04 -2.964841114630005e-19
-7.730109139634575e-03 -8.338510720032665e-04 -3.718258127181395e-19
-6.923499690170634e-03  4.300259793302240e-03 -3.216074582084189e-19
-8.530355544569084e-03 -1.032276465244116e-03 -3.793265913283845e-19
-6.818550206874269e-03 -1.579969286715183e-03 -3.149914635925242e-19
-6.197381777608862e-03  5.158228106243165e-04 -3.205024229772513e-19
-7.471897709965067e-03  3.261633111406799e-03 -3.317868245180621e-19
-7.621914905839223e-03 -2.540076151832164e-03 -3.320781144607686e-19
-7.169188658510317e-03  1.224427128210859e-04 -3.399399110272974e-19
-7.741853557014147e-03  1.322232677834644e-04 -3.552185204358298e-19
-7.816060336075610e-03 -2.032277158315593e-04 -3.570880358348881e-19
-7.951809569961969e-03  5.539060172571722e-04 -3.632796860308726e-19
-7.845935119959443e-03 -3.879897782711604e-04 -3.564215243568002e-19
-7.711354384835866e-03  1.112657719190550e-03 -3.556203078156159e-19
-7.579540002967242e-03 -4.598168175759273e-04 -3.429519528693886e-19
-6.302371081618360e-03  5.543096464122601e-03 -2.765960900244837e-19
-8.189819122811838e-03 -1.550992914980037e-03 -3.613124677683603e-19
-7.481129676525273e-03  2.850212280260332e-04 -3.475889488568038e-19
-6.913330255911090e-03 -7.709406514123701e-04 -3.253964642124323e-19
-7.020941201363739e-03  2.320650197572111e-03 -3.282831307335174e-19
-8.039674223589598e-03 -5.070430161730519e-04 -3.494533006086483e-19
-6.908124837021572e-03 -1.077349883757690e-04 -3.141679478522950e-19
-7.051824420582923e-03 -1.099760412417534e-04 -3.198027078167457e-19
-7.083055868737132e-03 -3.018382765916210e-04 -3.252755828864826e-19
-4.021687727045540e-03 -2.055879344443753e-04 -2.220464721808038e-19
-9.822244952763601e-04  7.475962595010448e-03 -2.412928516993500e-20
-9.283555581705395e-03 -2.235794806087946e-03 -3.889782413417660e-19
-5.137657902508449e-03 -2.631044788565282e-03 -2.244998075052235e-19
-6.518017645581011e-03  4.027007095547768e-04 -3.088874689698942e-19
-6.741197841954033e-03  4.164893840145527e-04 -3.057738785888777e-19
-6.510153528262256e-03  1.937706807819707e-04 -2.954071407557811e-19
-6.452648013397239e-03  1.571664836492923e-05 -2.947327397058482e-19
-6.073457086641679e-03  2.021372329930185e-04 -2.844985782533869e-19
-6.023453602058242e-03  1.038654170675352e-03 -2.778334229682997e-19
-6.294703856116107e-03 -6.897716222376772e-05 -2.824093619477868e-19
-4.281978886637922e-03 -9.927997104016858e-04 -2.066436979234664e-19
-4.292513755732280e-03  1.415733763622986e-03 -2.337226672391335e-19
-5.608747291184584e-03  4.687013301371017e-04 -2.393109386332671e-19
-9.081152670542240e-03 -2.072425815927659e-04 -3.671079234084980e-19
-2.468448820913020e-03 -3.115161833299306e-03 -7.330921153970842e-20
-4.333390496601848e-03  3.788563469791733e-03 -2.226141216617298e-19
-5.867887407237781e-03 -5.756421536376596e-03 -2.747567579349880e-19
-7.275815261560645e-03  2.795705510503730e-03 -3.184894542686580e-19
-4.835465165549940e-03 -3.907509496896984e-03 -1.935080876859746e-19
 3.190842049005894e-05 -2.007509939227322e-03 -2.890452458995999e-19
-1.955171207650417e-03  3.321293309359931e-03 -2.208318091290230e-19
3.609019639307045e-03 1.247360772210341e-02 2.658227694877777e-19
-1.202941653078625e-02 -9.577433360739805e-04 -4.730051001700759e-19
-3.849310351037706e-03  1.060177165664270e-03 -1.833220144849606e-19
-4.962865940304874e-03  3.959430872600094e-04 -2.136135537965328e-19
-7.926274315316098e-03  6.421190239311602e-03 -2.465993351515414e-19
-1.408123557929616e-03 -4.570693462061438e-03 -2.322320050239703e-20
-3.453824385722026e-03  1.573570471519523e-03 -2.385200628654305e-19
-4.366546504361859e-03 -6.511610967579861e-03 -2.050238073748466e-19
-5.919205465072689e-03  1.361083287040616e-04 -2.711645884518071e-19
-5.721753912294042e-03 -1.286666116972340e-03 -2.590049999400158e-19
-6.239170629656191e-03  4.135321443301523e-04 -2.894519511000237e-19
-6.073863355286505e-03 -1.595612726988581e-03 -2.742877322752535e-19
-6.188656810205435e-03  1.049557362399082e-03 -2.924344561199162e-19
-6.855399104100139e-03 -9.591046730202907e-04 -3.083888425843407e-19
-6.839317242468630e-03  2.470356891908767e-04 -3.162074391553561e-19
-6.441799539842493e-03 -6.495020449602336e-04 -2.959116975427563e-19
-6.667409549106686e-03  8.955720297804770e-04 -3.029459792797134e-19
-6.717786943057057e-03 -8.803748037140384e-04 -2.986101734681935e-19
-6.950170451019509e-03 -8.711357434555517e-04 -3.127684332124178e-19
-7.246986097333785e-03 -1.196618642095960e-03 -3.294074418332693e-19
-7.184654941406218e-03  6.262242716586768e-04 -3.337362145084936e-19
-7.136669757454496e-03  6.220418179269888e-04 -3.149171675317498e-19
-6.755530510682031e-03 -1.748015910906815e-03 -3.030676073547680e-19
-7.183021265254910e-03  2.969473929336651e-04 -3.257551700962261e-19
-7.393168888746873e-03 -1.582510114402771e-03 -3.316361276647054e-19
-8.480948035526263e-03  1.949772145051782e-03 -3.784492469448080e-19
-3.621223323878399e-03 -1.602788800256203e-03 -1.709756308291859e-19
-3.917622261676396e-04  6.361419476639129e-03 -4.453635886602796e-20
-8.173384224709770e-03 -3.295800000013420e-03 -3.519350390548181e-19
-5.706013640782190e-03 -3.033545613719285e-04 -2.663822669813363e-19
-4.023572216073720e-03 -2.479764131969237e-03 -1.685334081769186e-19
-5.775906687336308e-03  4.581283553568394e-03 -2.672500716967776e-19
-5.992128836985780e-03 -5.693762143976822e-03 -2.720550358402680e-19
-6.439018943312629e-03  1.563659254981503e-03 -3.155440428365863e-19
-6.897645396367161e-03 -8.728157050847646e-04 -3.149216153924890e-19
-6.464941449774299e-03  2.222510278761963e-03 -3.072145479637783e-19
-6.153257097222840e-03 -1.240791650668380e-03 -2.982937680953278e-19
-6.313139569756650e-03  1.221718783501787e-03 -3.083369187516290e-19
-7.479883898249822e-03  2.418049786480932e-03 -3.267620107245738e-19
-3.271480981485908e-03 -5.466445656146800e-03 -1.497515367369216e-19
-5.401690183877720e-03  2.305582481325260e-03 -2.802420286532325e-19
-5.727457904883381e-03 -1.851010218489227e-03 -2.868330998077580e-19
-5.170517973974107e-03  2.388926666732176e-03 -2.464672919325770e-19
-1.475877976519517e-03 -7.741207191745822e-03 -2.254579506494524e-20
-4.812177923417916e-03 -1.424931610596224e-04 -4.014764220024207e-19
-2.946892788012186e-03 -3.830740785328430e-03 -1.032296607527538e-19
-5.905125612318388e-03  7.646377581572927e-04 -5.665856887497449e-19
-6.395839709301734e-03 -2.294268039336556e-03 -5.872382364997518e-19
-6.728599374496543e-03  5.903624474890850e-04 -2.899317007988023e-19
-7.453045997517479e-03 -2.319528120323510e-03 -3.213496719241808e-19
-8.873889654829411e-03  4.709007928964817e-04 -3.850243774379011e-19
-2.256388316170415e-03 -4.969432564002800e-03 -1.342851281452174e-19
-5.225738207606814e-03  3.951964234873723e-03 -2.654851063564227e-19
-6.752246780875457e-03 -1.310059688636563e-03 -2.903170955700993e-19
-8.343739747610593e-03  2.138521773937645e-03 -3.265804253487751e-19
 6.307659282583965e-04 -5.249600091851732e-03  3.955340671212980e-20
-3.017102791453838e-03  1.010468414248597e-03 -2.589512771466693e-19
-7.473298783845020e-03 -9.742605161920778e-04 -3.355981849190151e-19
-7.217547058709780e-03  1.173460634927223e-03 -3.347334813701384e-19
-6.567926009323236e-03 -2.255405000333863e-03 -3.037804002547433e-19
-6.257562316199394e-03  1.169232977346546e-03 -3.193566153761869e-19
-6.862270623057653e-03 -3.502200261883906e-04 -3.236128521477514e-19
-6.922074392550716e-03  8.257785726439459e-04 -3.260783460215261e-19
-6.890913400570757e-03 -6.567854882291588e-04 -3.221811162546330e-19
-6.709046131954325e-03  1.724933254433869e-04 -3.239560548144312e-19
-6.809247345321782e-03 -1.231897217449445e-04 -3.222314423452236e-19
-6.893807025094825e-03  1.647314917439992e-04 -3.228752051823975e-19
-6.608372024274270e-03 -5.463661968502449e-04 -3.171087428611003e-19
-6.468734040358775e-03  9.351545087536783e-04 -3.174047590019189e-19
-6.814278786574782e-03 -2.273586955092552e-04 -3.190699913583515e-19
-6.654527556776197e-03  4.660671924051926e-05 -3.161065993714467e-19
-6.437550481202686e-03 -1.373283293088009e-03 -3.038476987569782e-19
-6.583219427756607e-03  4.230375255302538e-04 -3.208550195652176e-19
-6.947923192746137e-03  1.927809058136527e-04 -3.225139494818511e-19
-6.719068101883390e-03 -8.258018443522847e-04 -3.163033742810850e-19
-6.544538194270874e-03  5.271415736391135e-05 -3.204103554009308e-19
-6.150656587933358e-03  3.428744725991623e-04 -3.132576770037126e-19
-6.638132029606191e-03  1.280150777699379e-03 -3.158891330331136e-19
-6.669025462039250e-03 -8.091163363501566e-04 -3.110995817378860e-19
-7.117380581739191e-03 -3.958316024018218e-04 -3.228643900132465e-19
-4.756983987595731e-03 -3.269088801074274e-03 -2.697617262984814e-19
-5.479602395310202e-03  2.674626665881336e-03 -2.965152901371632e-19
-8.256573367878890e-03 -4.283830943715861e-04 -3.498729234903547e-19
-6.798556287667867e-03  1.964423323662890e-04 -3.267040540981114e-19
-7.016142960320902e-03  7.566366777284497e-04 -3.296673015125180e-19
-7.767401801941515e-03  3.440443228579190e-05 -3.386543834014953e-19
-6.847742710393298e-03 -9.319238417844673e-04 -3.258251955188456e-19
-6.571731439554663e-03  6.127508834989550e-04 -3.300798229859406e-19
-6.709601944935485e-03  1.257425162690300e-03 -3.262999251523412e-19
-6.741754906339119e-03  4.896954141205542e-04 -3.208825156346794e-19
-6.963905373658039e-03 -8.337572930953604e-04 -3.196552202312481e-19
-5.892028441549466e-03 -1.054590853221425e-03 -3.104186776194102e-19
-6.274172409990650e-03  9.276131916023123e-04 -3.226773898506272e-19
-6.670718596076126e-03  2.011991576321648e-04 -3.221847515851075e-19
-6.908191159853441e-03  7.326993462932185e-05 -3.241452401107624e-19
-6.602690557127806e-03 -6.802435126572007e-04 -3.172093467306260e-19
-6.779888024070757e-03 -2.076944346129868e-04 -3.284975543054723e-19
-6.452593586508534e-03 -3.620805865006504e-04 -3.247910626075401e-19
-6.732685679729054e-03  7.028261299421715e-04 -3.276964522857262e-19
-6.417767660413386e-03 -1.627947428947576e-03 -3.071594700766438e-19
-6.355003570717829e-03  1.452013371524855e-03 -3.218174632577985e-19
-7.064028478995075e-03 -1.115644262693290e-03 -3.363424034870593e-19
-7.624450571705381e-03  1.003946897875050e-03 -3.519024511732744e-19
-6.133113425214803e-03 -2.584632314899060e-03 -3.168477146215090e-19
-6.209398811484309e-03  2.765499121100024e-03 -3.230143477679797e-19
-7.420992510909039e-03 -1.345774293993867e-03 -3.297672866143316e-19
-7.618045803266037e-03  1.175966987436684e-03 -3.467413141400768e-19
-7.181949349849729e-03 -1.487457986714480e-03 -3.261057962660130e-19
-5.267439297433553e-03  4.023882041274121e-03 -2.857075599937844e-19
-7.581079955465832e-03  5.250980459472713e-04 -3.470872578403493e-19
-6.920584355698564e-03  4.793492936808468e-04 -3.317441078646399e-19
-6.534980448657104e-03 -4.496337674098753e-04 -3.253388990989665e-19
-6.498162801466465e-03  2.318552486530165e-03 -3.182685396564065e-19
-7.098579022024798e-03 -6.485809551776033e-04 -3.285346041030317e-19
-6.160189952750514e-03  2.215719539495450e-04 -3.221176972733296e-19
-6.709436260590804e-03  1.656262030713996e-03 -3.277599164832796e-19
-7.098167270315868e-03 -2.383604283393072e-04 -3.269629975208909e-19
-6.127290731143946e-03 -1.965236505715457e-05 -3.157455091659523e-19
-6.114082456912911e-03  2.044592700659567e-03 -3.055647853166727e-19
-8.059366064275701e-03 -2.093855048809435e-03 -3.034191350520823e-19
-4.543800962422988e-03 -3.161081106533719e-03 -2.429963614151479e-19
-5.478096433843495e-03  1.540120752062503e-04 -3.125224654269936e-19
-6.770919884288512e-03  1.421515501337599e-03 -3.292492774125344e-19
-6.754154909866591e-03 -5.872861820603215e-05 -3.205819291358696e-19
-6.679578113763783e-03  1.977670660064648e-04 -3.231124745919188e-19
-6.453260039342480e-03 -7.744621441890568e-04 -3.150974993421303e-19
-6.468428930464456e-03  3.696789610124552e-04 -3.235713733429716e-19
-6.793369088538631e-03 -5.689702091401675e-05 -3.253761767401598e-19
-6.646672471582391e-03 -2.558791997162135e-04 -3.216919068299990e-19
-6.365097639657096e-03 -2.240976568336617e-04 -3.211862995268090e-19
-7.297232852239975e-03  6.265016013790610e-04 -3.367068665197102e-19
-4.868314486007682e-03 -3.386749079466190e-03 -3.013369415814090e-19
-5.575687380950572e-03  3.380838962859068e-03 -3.142298702624211e-19
-7.677961730424763e-03 -2.975776405344470e-03 -3.158186263627002e-19
-6.405918192876644e-03  9.505466223003617e-04 -3.342077594242677e-19
-7.122468935019334e-03  2.954857937288868e-04 -3.344524055753240e-19
-6.717784348641457e-03 -2.282450957792684e-05 -3.261982432798494e-19
-6.304870612292876e-03 -2.179811371002495e-04 -3.236218685219734e-19
-6.427250143974937e-03  2.335717586655135e-03 -2.999788277732855e-19
-6.887676690746017e-03 -6.158997120156145e-04 -3.300912430607861e-19
-6.642543584962665e-03  2.505594972917129e-05 -3.289869977215544e-19
-6.698573237758989e-03 -1.914768599208052e-04 -3.325737264085311e-19
-6.605060925109496e-03  4.696331515300445e-04 -3.321254814210458e-19
-6.831487322827114e-03  3.611684351441106e-04 -3.289789536183171e-19
-6.354890863265304e-03 -1.174912498713975e-03 -3.065878086506555e-19
-7.274783481226959e-03  1.906123699678432e-03 -3.516927030209874e-19
-5.886505638188133e-03 -3.431093214936104e-03 -2.978770984218708e-19
-6.571998763663679e-03  1.930044171858851e-03 -3.172564425447361e-19
-5.422798257028782e-03 -2.381328266106919e-03 -2.804072048812227e-19
-5.004336426061415e-03  4.215201615145624e-03 -2.351907398491298e-19
-6.778562935566992e-03 -2.202220878439416e-03 -2.980406632195604e-19
-6.726703166984726e-03  1.796442695320778e-03 -3.290674192473318e-19
-2.152763423484049e-03 -6.934305274947637e-03 -7.657079396036342e-20
-5.694030033305791e-03  5.987908188507232e-04 -3.122630382536127e-19
-6.734489817523485e-03 -6.369167367657770e-04 -3.194272860106130e-19
-5.897699370449374e-03 -2.913719542163399e-04 -3.184048088853541e-19
-6.767947947840885e-03  7.298144249114895e-04 -3.397010002190579e-19
-6.895794905177700e-03 -1.370615520508868e-03 -3.396575999409852e-19
-6.882565840520721e-03 -3.662079247024074e-04 -3.346546961604685e-19
-7.446256322301766e-03  7.106495845784718e-04 -3.555229615273164e-19
-7.202613756184152e-03 -4.124437877621126e-04 -3.442931037282604e-19
-7.475703816820421e-03  1.557877511241104e-03 -3.340890602987252e-19
-5.299591167143247e-03 -1.951659740726724e-03 -3.212619821564692e-19
-4.758466896460152e-03  4.644791126235709e-03 -3.014725048233531e-19
-6.614611311538664e-03 -1.690015497441313e-03 -3.076211332953207e-19
-5.241513314727770e-03  2.428834189235700e-03 -3.043881365873854e-19
-8.465954708752398e-03 -1.585276020014917e-03 -3.340453990982762e-19
-5.848696174429431e-03 -1.463599965100575e-03 -3.005247392762052e-19
-6.007938448173071e-03 -3.057909522978397e-04 -3.195463410656218e-19
-6.420564669441715e-03 -2.854431859381262e-05 -3.332993922733327e-19
-6.600198767223058e-03  5.215480833881483e-04 -3.356107313194173e-19
-6.438761896234016e-03  5.875976540720979e-04 -3.312525476737376e-19
-6.601510114018157e-03 -6.141791299222018e-05 -3.246446111105358e-19
-6.027333292667950e-03 -4.818847568666158e-04 -3.195666035313871e-19
-8.091078590625113e-03  1.709295560571608e-03 -3.572274596902075e-19
-1.169026532372915e-03 -5.955205840765866e-03 -2.451477158883888e-20
-3.868337291971005e-03  8.048532288893245e-04 -2.929412612932373e-19
-5.524092317901302e-03  5.837556749346220e-03 -2.947692904598885e-19
-6.328644594094233e-03 -2.697091306085711e-03 -3.211943010494207e-19
-6.617359510954535e-03 -1.067971025511626e-03 -3.097343166431356e-19
-6.356970867619462e-03 -2.922355814815336e-04 -3.584626587963845e-19
-7.357524365151337e-03  1.405597516250125e-03 -3.613431558413885e-19
-7.189550987929690e-03 -8.207411531475724e-04 -3.331857637783202e-19
-6.380913854712528e-03  4.224542249113636e-04 -3.376200065990495e-19
-6.885622074069965e-03  3.105890581082350e-04 -3.394925640588239e-19
-6.912633550249895e-03 -2.848032788537533e-04 -3.493361528174530e-19
-5.571274618039909e-03 -1.038158113983804e-03 -3.205650515448563e-19
-5.862009033488175e-03  2.705506370244914e-03 -2.495676710096312e-19
-7.433000383452878e-03 -8.969673417848179e-04 -3.403920190673730e-19
-3.663451679087878e-03 -4.978936284590752e-03 -1.413453739175107e-19
-7.481173620113141e-03  1.318684360911501e-03 -3.600563335626571e-19
-6.885001639053207e-03  2.028542542989099e-03 -1.831951631363135e-19
-7.565334588361709e-03 -6.741884312757473e-04 -8.625470515837369e-19
-5.753865931406399e-03 -1.332781910116323e-04 -8.045904340586192e-19
-5.941561438527069e-03  2.882672507082586e-03 -2.861378629735084e-19
-2.339896740524873e-03 -8.881000211290969e-03  1.132550722481630e-19
-4.469469732594652e-03 -1.061957795138341e-03 -2.825510354707139e-19
-6.267792683840444e-03 -5.628412176439364e-04 -3.260178778423759e-19
-6.428872519586756e-03 -5.839913899975380e-04 -3.361326747512472e-19
-6.618012912596552e-03  2.943042260052236e-04 -3.615866042599735e-19
-6.754181553127937e-03  2.022836132577957e-04 -3.503756154985100e-19
-6.771587957027259e-03 -1.085179348414308e-03 -2.942134971226216e-19
-7.074840877564922e-03 -1.901405774424916e-04 -3.726089032773962e-19
-6.462887382880049e-03  1.767978394569260e-03 -3.919603971802994e-19
-6.993365814811713e-03  6.109113546134851e-05 -3.642645300426325e-19
-6.086234012823206e-03 -6.987087284982363e-04 -3.668237182333427e-19
-6.046989542130780e-03  4.795512296621910e-04 -3.580340984050858e-19
-1.001952323241961e-02  1.991722953128542e-03 -4.362967963202767e-19
-1.534836275247398e-02  5.066066400606557e-03 -6.042384591528710e-19
-2.045062409440086e-03 -6.066988415515317e-03 -6.912353987413036e-19
-3.370575891951146e-03  4.894285487641303e-03  2.582225991197766e-19
-8.135908459626369e-03 -3.413530582668727e-03  3.329296671458356e-20
-3.089843819726495e-03  7.560899199409767e-03 -7.344918979265420e-21
-8.139414426017642e-03 -2.606636613059381e-03 -3.424891611679246e-19
-6.062141818741085e-03  2.648590524824189e-03 -2.552455149520014e-19
-6.372428912566632e-03 -2.042697106068372e-03 -3.385543668032337e-19
-6.221988832097429e-03  2.881306517721547e-03 -5.167635986467927e-19
-7.004096382815857e-03 -2.039680899934232e-03 -3.543913938451543e-19
-6.788692419865946e-03  2.053136401001926e-03 -3.737463242314531e-19
-6.811033606027454e-03 -1.830251674050718e-03 -4.937420131632008e-19
-3.870433866356882e-03  5.507787271646732e-03 -1.568236101683673e-20
-7.531536426379474e-03 -1.124254722872937e-03 -4.739506792492849e-19
-7.150050130526069e-03  1.848718285427813e-03 -3.632424963368666e-19
-7.016437166504966e-03 -2.094718486685330e-03 -3.109616885500916e-19
-6.504441879803514e-03  9.682610456229072e-04 -4.020710507554877e-19
-6.499922338437602e-03 -2.058269992972048e-03 -2.856628943309619e-19
-6.952350858970500e-03  5.971220570451077e-04 -4.153867074607091e-19
-6.794480562372165e-03  2.490811858713681e-04 -4.095869925547101e-19
-7.296982689240124e-03  5.500210738708327e-04 -4.383350190490280e-19
-6.891231000404298e-03 -3.019128582768617e-03 -4.616293671164744e-19
-6.622996554994082e-03 -4.125516020136625e-04 -4.127143000411325e-19
-6.526489759281042e-03  9.282611995041515e-04 -4.491584474032887e-19
-5.955270088997759e-03  1.021036228371213e-03 -4.443268610448035e-19
-8.753152350476441e-03  3.723054527840486e-03 -5.026404718395283e-19
-9.477102287840046e-04 -7.452313509112555e-03  1.727292885150267e-19
-4.459323107067694e-03  1.684011469150507e-03 -3.528219853934287e-19
-6.216820540471169e-03 -1.774595565549470e-03 -5.459786481288445e-19
 8.104812396481900e-04  7.334560566460271e-03 -7.556288130903866e-20
-8.119653332507993e-03 -3.401187878636565e-03 -6.603957437027519e-19
-5.164197708222824e-03  2.451910948096638e-04 -4.406486520160118e-19
-5.711234132961104e-03 -1.557860726221064e-03 -4.160753453796716e-19
-6.221218299950582e-03  1.255189405271649e-03 -5.767980470169292e-19
-6.821078483496301e-03 -1.261890255502206e-03 -4.641588604716307e-19
-6.535592954628910e-03  3.723595765449892e-04 -6.532655306034169e-19
-6.852158606542203e-03 -2.186274592540246e-04 -1.315152054333867e-18
-6.555720375580799e-03 -3.383416005016730e-05 -1.540427009202202e-18
-6.902223056379602e-03 -4.381204570920099e-04 -1.330727920868389e-18
-6.021701233074110e-03 -1.002039908887858e-03 -7.683495506778824e-19
-6.959849327316633e-03  1.351695616564022e-03 -1.140522611391926e-18
-6.475334336585254e-03 -2.241913082156726e-03 -4.933154209521451e-19
-7.265212127664887e-03  5.977399960295750e-04 -7.145398088091785e-19
 1.250496781118337e-04 -6.190891770294059e-03  8.512301067437912e-19
-6.879280923168460e-03  1.403067684865971e-03 -6.707510171073025e-19
-5.400691765403444e-03 -4.176676568952425e-03 -5.199069863750986e-19
-5.304626121611950e-03  2.399972647355268e-03 -1.010028169646071e-18
-7.555148118007330e-03 -1.061323595855731e-03 -6.755300298391985e-19
-7.014750414338041e-03  1.004173615549959e-03 -1.023483019730985e-18
-6.611646291395191e-03 -1.672209543748253e-03 -7.222756946832066e-19
-6.365673567436235e-03  9.212533182870408e-04 -1.015898848719952e-18
-6.971384806781917e-03 -4.982642187610581e-04 -9.694576588837297e-19
-6.897648451754786e-03  2.928386173050291e-03 -1.533763906833562e-18
-7.162906504384227e-03 -1.048357588498748e-03 -1.042847263504477e-18
-3.339491997782224e-03  5.635907400030590e-03 -1.303100035489978e-18
-7.517457647667763e-03  4.208287331630399e-05 -1.765498717174300e-18
-7.087934728427298e-03  4.422927727403645e-04 -2.213912148210181e-18
-7.177405183314029e-03  4.478758003903631e-04 -2.679810420903172e-18
-7.035692305429607e-03 -1.236786512946591e-03 -2.001123857742405e-18
-7.235596708141473e-03  1.400859716778409e-04 -3.797344114521205e-18
-6.179759366759910e-03 -1.515839794655391e-03 -3.023313034312975e-18
-6.708062439160011e-03  1.417339306225498e-03 -6.601366506123477e-18
-6.884123389782748e-03 -6.216011302359555e-04 -7.008813842190542e-18
-6.870839347742748e-03  3.551652835600185e-04 -1.241778780347014e-17
-6.892570053151304e-03  2.467001040679196e-04 -1.914706051086865e-17
-6.712027329377116e-03 -2.656596148714741e-04 -2.393039747897933e-17
-6.786219177902820e-03  2.637586681320837e-04 -3.640471225450229e-17
-6.663042330025035e-03 -8.190297362895788e-04 -4.748149067560392e-17
-6.754186338799801e-03  3.434326930102974e-04 -6.697512990613991e-17
-6.482244202973045e-03 -1.536099050453848e-03 -8.622325167267363e-17
-6.570722535035158e-03  3.780891262050649e-04 -1.197646883811011e-16
-6.786104195631527e-03 -4.599832644208987e-04  3.454246601391357e-16
-6.548864735850701e-03  1.122497142286262e-04 -6.231002990043597e-15
-7.029253181667998e-03 -5.073949313090347e-04  8.476514889136467e-16
-7.056324880946255e-03  1.209477494636187e-04 -6.620368475180395e-15
-7.052469359481433e-03  1.182623808006976e-04 -1.429665289315797e-16
-6.920510927666501e-03 -4.780369279096092e-04 -8.398851672991250e-17
-6.938917054608354e-03  5.534681921503768e-04 -7.440713284326481e-17
-7.172191575299153e-03 -1.210671179726528e-04 -4.701523304639235e-17
-7.301040721714546e-03  1.171205738704367e-04 -2.466682724717067e-17
-7.079354583584390e-03  6.685430092535749e-04 -1.385341276578616e-17
-6.565458461004788e-03  6.200129270014773e-04 -9.180126128845381e-18
-5.476525027879302e-03  1.290413783594392e-03 -5.677008210691741e-18
-3.882397032113982e-04 -7.776909859830754e-03  3.443472831411940e-19
-3.999560725640817e-03 -5.090340736973591e-04 -3.941517256884848e-18
-7.504500726361586e-03  8.130728297463046e-04 -3.359327127951649e-18
-5.497907356750150e-03 -3.469711975660372e-03 -2.306276662142921e-18
-6.405107808686928e-03  2.145777523849363e-03 -2.453260134779789e-18
-6.220825821124285e-03 -1.672229557112227e-03 -1.859700669912217e-18
-1.207393735933491e-03  6.743874639449526e-03 -5.026518897067691e-19
-7.468858319554978e-03 -1.768073725653291e-03 -1.400506922068007e-18
-7.519989962944061e-03  1.084274802127629e-03 -1.184628072214058e-18
-7.129664776418207e-03 -1.396177320720347e-04 -1.049212569566325e-18
-7.181723377450796e-03 -1.406371774511575e-04 -9.379099645324460e-19
-7.308661173498578e-03  1.989829529037919e-05 -8.521503133382489e-19
-7.258884871062687e-03 -2.368057876405694e-05 -7.704800137756531e-19
-7.086878580214364e-03 -2.311944456910851e-05 -7.054087873679423e-19
-6.911326896425786e-03 -2.254674427850457e-05 -6.493066251902923e-19
-6.870183720515318e-03 -5.924495770766695e-04 -6.054800616387803e-19
-6.732658102168365e-03 -3.143423986289021e-04 -5.855286638145977e-19
-6.714373243422883e-03 -2.818784684472598e-04 -5.558871780451799e-19
-6.825914966316734e-03 -2.098301600446719e-04 -5.350978188981738e-19
-6.800977382509367e-03 -7.565453687414640e-04 -5.076458424011776e-19
-7.083825794085618e-03 -5.752873730700046e-04 -4.993709296315162e-19
-7.412938074842741e-03 -6.020150404273699e-04 -4.898888956962432e-19
-7.427126340673963e-03  1.038180836654722e-04 -4.874532893330159e-19
-7.134778104684245e-03  7.804526653219530e-04 -4.703849448824864e-19
-5.896716308258416e-03  7.439903730300521e-04 -4.243992913711178e-19
-8.447228204410450e-03  3.977470281013673e-03 -4.513783465920596e-19
-1.017932587911682e-03 -6.609980723677609e-03  9.172240817605934e-21
-4.727915066757057e-03  2.232760744736719e-03 -3.970089003905808e-19
-8.649490595607235e-03 -3.527889660132636e-04 -4.481560478284760e-19
-7.276525140550502e-03  1.225118674401243e-03 -4.293133927460669e-19
-7.162857541075699e-03 -1.170870329334555e-04 -4.106812874030527e-19
-6.915283582966033e-03  7.933613575409836e-04 -4.098701986790564e-19
-6.868959321607035e-03 -1.691897031715473e-04 -3.978203357217611e-19
-6.004487255415166e-03  7.090449554946043e-04 -3.880097108378092e-19
-6.336002661884964e-03  4.081219216443811e-03 -3.777413014146073e-19
-6.845212883267033e-03 -9.507736853066191e-04 -3.780197083836854e-19
-5.805010014079078e-03  1.784621716339243e-03 -3.727367034472741e-19
-6.095898781700240e-03  1.601749992464593e-04 -3.693826853047650e-19
 9.368842343872737e-05  6.289592312509444e-03 -4.899707847819975e-20
-6.217215851906607e-03 -1.372527395043896e-04 -3.618690333722676e-19
-6.319051037522577e-03 -1.885163406897553e-04 -3.608267243935787e-19
-4.724193096730055e-03 -4.277932290085339e-03 -2.430489560552438e-19
-6.266418971133740e-03  3.219313564335960e-04 -3.709089276394505e-19
-6.705921148308572e-03  7.679154344308250e-04 -3.718554818188575e-19
-6.886721129199047e-03  2.884748556245582e-04 -3.646028277878532e-19
-6.077477972019356e-03 -2.752430814341378e-03 -3.076960363659309e-19
-6.125399454878160e-03  5.335332520488639e-05 -3.561915917901618e-19
-6.963390506141059e-03 -2.230269317934857e-04 -3.657626432040503e-19
-6.337312474072545e-03  1.354590671648158e-05 -3.573962670175905e-19
-6.714654717112339e-03  1.099216369172287e-03 -3.593695477758942e-19
-6.371830568072121e-03 -1.496414050404110e-03 -3.311178321028533e-19
-6.630698303184738e-03  1.579407480950100e-03 -3.602635330259698e-19
-6.719079244830338e-03 -1.431071360936540e-03 -3.464396363405299e-19
-6.280557798050656e-03  3.364723521566961e-03 -3.439355909533603e-19
-6.998869558894659e-03 -1.526065009941017e-03 -3.417479859297304e-19
-6.238696008476583e-03  2.316058100427078e-03 -3.438054452095844e-19
-6.691249509992135e-03 -9.839845953099400e-04 -3.413970620611574e-19
-6.340731537706631e-03  2.279875906925308e-03 -3.428390328865487e-19
-7.128866544153714e-03 -2.108903339619941e-03 -3.255552678896491e-19
-6.265999551385174e-03  4.284886128637420e-04 -3.375497155050647e-19
-6.287161459596497e-03 -7.449011974370398e-04 -3.297345625407907e-19
-6.264930883928467e-03  4.100301837073020e-04 -3.370151855010099e-19
-6.455818911552678e-03 -4.913448184474394e-04 -3.340282913488191e-19
-6.326839810101536e-03  1.012738507987488e-04 -3.346480985017406e-19
-6.813307019049137e-03 -2.469986229827558e-04 -3.383197080417043e-19
-6.511383394219997e-03 -6.732142118349397e-04 -3.319171479873666e-19
-6.734553164557860e-03 -2.912202101757356e-04 -3.412987768287536e-19
-6.692873600987189e-03 -1.552570302014031e-04 -3.420732156184166e-19
-6.952054919063242e-03  1.372004593361089e-04 -3.445045157700767e-19
-6.539252400920934e-03 -1.032310563649552e-03 -3.311258496332598e-19
-6.453657110507866e-03  1.992017062540838e-03 -3.376835846354106e-19
-6.959852002709798e-03 -6.000644416358805e-04 -3.406534422642658e-19
-6.477341351047660e-03  1.574494977638121e-03 -3.352125863591115e-19
-7.254581065962083e-03 -3.807604283824782e-04 -3.383832045723082e-19
-6.405169947679705e-03  2.272958107037165e-06 -3.268063672912027e-19
-6.371775332255691e-03  6.308340020401308e-05 -3.246784137533107e-19
-6.380321547517245e-03 -2.890511445429765e-04 -3.215428148058300e-19
-6.389167695262534e-03 -1.930829692802358e-05 -3.230728534876532e-19
-6.431419254622450e-03 -2.559848996001391e-04 -3.236734546903946e-19
-6.400238914982091e-03  8.409690036127282e-04 -3.242634464968357e-19
-6.513699923250600e-03 -2.065718016656257e-04 -3.288100089924984e-19
-6.539615869399737e-03  1.851256299146855e-04 -3.423122102330034e-19
-6.750511970759748e-03 -3.623453686969496e-04 -2.614328429894175e-19
-6.552373273354555e-03 -8.823511092239570e-05  3.026125524087295e-20
-6.111427079531162e-03  5.875743162056052e-04 -6.114976686056944e-19
-6.698151367528764e-03  1.510268433698553e-03 -2.522666698189825e-19
-6.752260119401946e-03 -8.438308758615821e-04 -3.240983932602779e-19
-6.180273452032987e-03 -1.872528284113795e-04 -3.214633916630757e-19
-6.662419257333017e-03  6.916942625657558e-04 -3.313772197486529e-19
-6.862787189924753e-03 -5.973487817692903e-04 -3.285893065782691e-19
-6.639872579132423e-03 -3.042622889125432e-04 -3.311264105797537e-19
-6.491471280963231e-03  2.245455302441757e-03 -3.234847718862839e-19
-6.879726157920932e-03 -1.055593545691782e-03 -3.189714411060104e-19
-6.400749924116472e-03 -4.566340451282260e-04 -3.278403162663712e-19
-6.391029746228212e-03  1.225768768498979e-03 -3.286755534364250e-19
-6.947401750788147e-03  4.675716362830918e-04 -3.322317690481945e-19
-6.663549595791685e-03 -3.908817169862749e-04 -3.227552782709978e-19
-6.328391983212757e-03  1.250978853318047e-04 -3.215019544271771e-19
-6.417394808255814e-03  2.153481718986816e-04 -3.219910232264257e-19
-6.304697971655311e-03  3.031927912301270e-04 -3.168855961120512e-19
-6.733583865180102e-03  3.997997343135277e-04 -3.215314280720213e-19
-6.332250792898493e-03 -5.816946494054394e-04 -3.112045108358403e-19
-6.519689650706136e-03 -4.765230035629785e-05 -3.189738258976547e-19
-6.318455835929013e-03 -1.699407785945779e-03 -3.062987938274014e-19
-6.775572735756276e-03  5.020100712066263e-04 -3.308203698369689e-19
-6.732718250166463e-03 -3.094970391291518e-04 -3.262022027701222e-19
-5.677166213731261e-03  9.322975030059287e-04 -3.092426714641324e-19
-6.483526741981982e-03  1.374904804265245e-03 -3.148477040295519e-19
-7.068495256686934e-03 -1.902582238998391e-03 -3.027045099854541e-19
-4.901904763430588e-03 -1.548179300348362e-03 -2.885633118236687e-19
-5.829836941309481e-03  1.498590499955529e-03 -3.101957148378087e-19
-6.620371903992764e-03  9.213995528206926e-05 -3.173147757665737e-19
-6.593385638959413e-03  3.741209627553840e-04 -3.159658191906484e-19
-6.382803039233644e-03 -5.792563678900650e-04 -3.091331936904904e-19
-6.347340818981481e-03 -8.569020397918933e-06 -3.121042037507699e-19
-6.493784839758079e-03  4.498911877639075e-05 -3.122115810270164e-19
-6.645062214594194e-03 -2.696645964464136e-04 -3.198746922459637e-19
-6.185178670831785e-03 -6.652433420090769e-04 -2.902889719298907e-19
-5.729366308781240e-03  1.856398577545419e-03 -3.348331148077934e-19
-6.686336286939840e-03  4.407542276010768e-04 -8.418372778201431e-19
-6.923935491511468e-03 -5.325575847735240e-04 -1.982720184453437e-18
-5.473370926085168e-03 -1.427611580579947e-03  1.681717372555601e-18
-5.822925368723993e-03  1.372587931261651e-03 -5.328140032254594e-19
-6.443257689110612e-03  4.124772904540413e-05 -3.574964393095433e-19
-6.530074124109814e-03  3.045045672251297e-04 -3.647184960198756e-19
-6.451230077621127e-03 -6.224369614321347e-04 -2.960208169038637e-19
-6.409670392973708e-03 -2.772460923203291e-04 -3.137103795878270e-19
-6.435775623178383e-03  1.636873188790583e-03 -3.136977835749133e-19
-6.578140292494214e-03 -7.446070772673951e-04 -3.086595142105285e-19
-6.534261348476931e-03  2.945936971926345e-04 -3.187553747980871e-19
-6.573898499300946e-03 -5.642830547387919e-04 -3.154838189046009e-19
-6.549268270138728e-03  4.121516669579221e-04 -3.190671519560358e-19
-7.134850100501563e-03  5.063227641353879e-05 -3.264483420801905e-19
-6.097075231044372e-03 -1.211410069501939e-03 -3.060533763120972e-19
-6.163146925466202e-03  1.225601750357489e-03 -3.146107128719749e-19
-6.560277502131244e-03  4.793278739116516e-05 -3.167990903089070e-19
-6.543972630424001e-03  6.174787690014494e-04 -3.169933458708595e-19
-6.497581096049762e-03 -4.493291864844887e-04 -3.131448930184682e-19
-6.620341768809709e-03  2.470064145313944e-05 -3.181667042460399e-19
-6.281223998046215e-03 -1.902484181811766e-03 -3.037636966930283e-19
-6.627061082978393e-03  7.751365247485394e-04 -3.273440569128153e-19
-6.978952959824797e-03  1.007626518135016e-04 -3.258546142437761e-19
-7.068900755655299e-03 -1.444724648678579e-04 -3.272180701682170e-19
-6.652696366844245e-03 -5.643887130060714e-04 -3.223928139540322e-19
-6.711664647761415e-03  1.084155314917750e-03 -3.272632037635131e-19
-7.033145813752393e-03 -2.470794165289216e-04 -3.277821285119200e-19
-6.548705852260711e-03  3.567102015902310e-04 -3.221659596880960e-19
-6.701301260910925e-03  2.899866115761748e-04 -3.221224159254595e-19
-6.493512877221867e-03 -6.820756780541308e-04 -3.143168014250628e-19
-6.555286040990734e-03  2.976043080352290e-04 -3.265435745824497e-19
-6.438386660489023e-03 -6.292550085388693e-04 -3.133623870406285e-19
-6.482278478581406e-03  5.295403219756345e-04 -1.973846014337601e-19
-6.619652135447660e-03 -5.581041944721621e-04 -1.134808759438218e-18
-6.835716778244421e-03  1.539866607746948e-03 -4.821513871824635e-19
-6.746753868905449e-03 -1.196680892507812e-03 -2.616357479998692e-19
-7.010880334417872e-03  1.287293461752644e-03 -3.461842966007018e-19
-5.123390944626683e-03 -3.570585297277816e-03 -2.480003535008789e-19
-5.813723459222025e-03  1.979150700534479e-03 -3.027553999576924e-19
-6.878720730526802e-03 -6.945345318848311e-04 -3.181393107991564e-19
-6.689029979702828e-03  5.648881099181349e-04 -3.224500753414536e-19
-6.504388633157485e-03  1.240318738348881e-04 -3.157718756661934e-19
-6.478817603647973e-03  1.235442611037263e-04 -3.164853802227672e-19
-6.595203761679198e-03 -1.939481998746060e-05 -3.188176213802750e-19
-6.302245755819352e-03 -1.607007946130993e-04 -3.158544152580357e-19
-6.194615766870948e-03  5.835287254478168e-04 -3.103028480835871e-19
-5.939901558128730e-03 -1.849510778777742e-03 -2.926807803837235e-19
-6.312934303871917e-03  2.519346853325402e-04 -3.157265671685603e-19
-4.765019850434492e-03 -3.010686174371431e-03 -2.583526758484889e-19
-5.917945509918826e-03  2.764792406465909e-03 -3.059174139506343e-19
-6.854624605576383e-03 -3.224638569062353e-03 -3.019911514759531e-19
-8.759231129120448e-03  8.466447581147493e-03 -3.760189954823884e-19
-3.728846053981986e-03 -6.515952194863824e-03 -1.772179311609172e-19
-2.521719667699454e-03  5.058555626613908e-03 -1.526970717409855e-19
-1.085784660727941e-02 -1.416024098671988e-03 -4.062058929260756e-19
-6.317140547393150e-03  5.656852427070876e-03 -3.082692645139673e-19
-8.424168587876613e-03  5.828040750058521e-04 -3.716269149740764e-19
-7.737690561872835e-03  1.041153017468747e-03 -3.585800282896447e-19
-6.928975464525061e-03  5.786168403763772e-05 -3.416244853580389e-19
-5.885712523163388e-03  1.634484536533163e-03 -3.157157062720833e-19
-6.759800307697517e-03  4.301707500611375e-03 -3.119888593712513e-19
-6.202813491310502e-03 -5.486061574779568e-03 -2.208736350996021e-19
-6.458640930440686e-03  6.914664819766840e-04 -3.152610724620601e-19
-5.986542305158239e-03 -2.424176144916617e-03 -2.883437855107177e-19
-6.047356802474444e-03  4.012104480387687e-04 -3.170860028930312e-19
-6.820728027732723e-03  1.810731251305003e-03 -3.256970839412728e-19
-6.570027769257351e-03 -1.179482878006003e-04 -3.213840847796786e-19
-6.031191670456703e-03  1.628760397410022e-03 -3.002886336409960e-19
-6.859945102074654e-03 -3.533512851892932e-03 -2.706882599373756e-19
-6.176027832351330e-03 -2.072518821562756e-03 -3.174537503028707e-19
-8.306623402255152e-03  1.234737668163830e-03 -3.708937316353165e-19
-4.717928666808821e-03  5.262784094610199e-03 -2.365776660761715e-19
-6.002764339003226e-03  1.677919819355488e-05 -2.923127213762760e-19
-5.456860848208037e-03  1.525326408231723e-05 -2.893523667269081e-19
-5.938584396214623e-03  9.722543806846961e-04 -2.911875238520526e-19
-4.416117973435755e-03  7.262958082638406e-03 -2.163956486920677e-19
-4.333649298620812e-03 -1.921864861990726e-03 -2.517676525584392e-19
-1.030641464271436e-04  5.394030794860352e-03 -1.586011978541167e-20
-6.739192140658662e-03 -2.290570172547789e-03 -2.914315833960266e-19
-6.213761795215356e-03  2.999609288569151e-04 -3.061293020792256e-19
-6.549458195039015e-03 -1.251333142362973e-03 -3.058531493139336e-19
-6.577122178113824e-03  5.757047323970353e-04 -3.175860273977997e-19
-6.851810984274237e-03 -5.230207228333609e-04 -3.185928706142541e-19
-6.711361896122222e-03  7.505127368409188e-04 -3.201174567432783e-19
-6.738556453046645e-03  1.282917230430900e-04 -3.190420407648487e-19
-6.575605553028927e-03  4.225974606380247e-03 -2.970391139218892e-19
-6.226274960297581e-03 -3.613604931651437e-03 -2.572265376029282e-19
7.849435491147626e-03 6.560849325805851e-04 3.429537491387391e-19
 6.899298617893026e-03 -8.504363324923036e-04  3.321019137498103e-19
 7.597263108924153e-03 -2.609728739561043e-03  3.545165955074075e-19
6.705567120813571e-03 3.170468893936643e-03 3.277929982356808e-19
 7.367572376924871e-04 -3.010946778036167e-04  2.142600348331483e-19
-6.608019723898510e-04  7.544764069610249e-03 -7.340745358769676e-20
 7.655718480045217e-03 -4.791112535573785e-03  3.184134105014782e-19
 5.286579831635063e-03 -1.459095063641512e-03  2.893238853130980e-19
7.574343016564260e-03 1.286901580660857e-03 3.342141452271794e-19
 7.542498837089703e-03 -3.582702602209469e-03  3.502459737363336e-19
 3.718877992232045e-03 -2.261365208361260e-03  2.560837113981011e-19
-1.250151872535391e-03  5.594038490492485e-03 -6.812099653015083e-20
 1.465008771153301e-02 -4.249300556137609e-03  4.715000411663568e-19
 6.197151778751821e-03 -1.224414915646621e-03  3.059923223440719e-19
 6.243975413357847e-03 -1.233666190855495e-03  3.223136348465421e-19
6.422607943273161e-03 1.032175405289368e-04 3.337945590093792e-19
3.807958647932555e-03 4.493788549146751e-04 2.880000969114441e-19
5.749406429444743e-03 3.340677476099404e-03 2.462266291974905e-19
 3.261331838722888e-03 -6.392703858060535e-03  1.816217660871841e-19
5.559061887218569e-03 1.022145035288774e-03 2.858820345677981e-19
 3.619018693563686e-03 -5.291674912207770e-03  2.014381679888530e-19
 7.228946713202448e-03 -1.406351574512425e-03  3.592547671032981e-19
 8.101891597897216e-03 -7.517957421977556e-04  3.742490889092458e-19
 8.446667068855844e-03 -1.462553514482882e-03  4.390415024743694e-19
 9.004199914946658e-03 -3.431639449683123e-03  9.371544224718615e-19
 5.455691201084976e-03 -4.345717712081500e-03  8.682312719927642e-19
8.997844718995084e-03 3.082582498184396e-03 6.455601477627165e-19
 9.304397000252771e-03 -2.284417059728063e-03 -1.974003278267181e-18
 6.864019405425525e-03  2.238931249873864e-03 -1.605618450833071e-18
7.342991664558042e-03 6.611491794002489e-03 6.347609940722049e-19
 9.345717008068697e-03 -1.826051698193760e-03  3.610781979774386e-19
7.176624870659356e-03 2.084119566816311e-03 7.223794195327245e-19
 7.108458941503178e-03 -1.115204738318126e-05  3.759367565146160e-19
7.304884109631275e-03 5.676798474506479e-04 3.262777441445466e-19
 7.201104618805300e-03 -7.312396551925558e-04  1.904928137979915e-19
7.267047098847956e-03 8.058902686454863e-04 4.687061168888117e-19
 7.411305383066556e-03 -7.463645400008688e-04  6.648349675869138e-19
7.786784333250875e-03 3.957478124110460e-05 3.584557482140612e-19
 8.090767478012946e-03 -2.212181991511301e-03  4.123428390477284e-19
 8.058773695723000e-03 -1.797173757769743e-04  4.000153882621178e-19
8.431448381152859e-03 1.663904547403934e-03 3.697027924443614e-19
8.008132592359659e-03 1.486936028926987e-04 3.875399311811948e-19
7.340560033659119e-03 2.303328280434508e-03 3.597314289212710e-19
7.667348469449822e-03 2.611255000757099e-04 4.180475183832022e-19
 7.149934485326775e-03 -1.786500064705880e-03  6.386225649821680e-19
 6.536143664991887e-03  1.775799997810034e-03 -1.100045143189405e-18
 7.472171629968873e-03  1.037484007742208e-03 -2.571583634327704e-19
 7.148263873924757e-03 -1.252606266413617e-03  4.225854103575295e-19
 8.666777034639953e-03 -5.197954689639126e-04  3.961362765089436e-19
 7.918087365312760e-03 -3.377962858658417e-03  4.090626062887766e-19
5.539829808195260e-03 1.873384530602997e-03 3.882713075173599e-19
7.933492068783929e-03 5.540894068126224e-03 3.552780520260708e-19
 9.283076849671671e-03 -1.081972734254649e-03  4.094162521518854e-19
7.219500659998160e-03 2.839651722525689e-03 3.561037450862482e-19
7.559377037564190e-03 4.683841323824692e-04 3.659084001567512e-19
7.408473872479282e-03 2.273734428627549e-04 3.584108556724729e-19
 7.107740478034428e-03 -1.647821263583805e-04  3.593183052195314e-19
7.084963440453771e-03 9.709959663899932e-04 3.365902008024012e-19
 7.210391339387051e-03 -4.125350569030822e-04  3.524832580275556e-19
 6.596684277405273e-03 -1.148205801453662e-03  3.191903398920118e-19
7.198003110397160e-03 5.755027973608841e-04 3.521399191794113e-19
 7.202686646824101e-03 -1.709044243902768e-04  3.496306200814364e-19
7.478874633236111e-03 4.951873457271081e-04 3.550173947707238e-19
 7.534314685698169e-03 -1.155843491183360e-03  3.649355445362397e-19
 7.294815662309845e-03 -1.499596802128892e-04  3.575352661702615e-19
7.275543364336819e-03 1.562399670842792e-03 3.167081801827678e-19
 7.423115476328283e-03 -1.378504004302968e-03  3.592661172300923e-19
 6.963558709090371e-03 -1.467467793127513e-04  3.460498734413471e-19
7.204366928718600e-03 5.048600871041095e-04 3.479581647136102e-19
7.027562298239914e-03 1.384456255325681e-04 3.407535572990795e-19
6.967817439970414e-03 3.261077960158477e-04 3.418500160222951e-19
6.546830938038075e-03 4.618847724336627e-04 3.297408061607967e-19
7.494717344778489e-03 1.944711806180882e-03 3.177829396437408e-19
 6.609093602473096e-03 -1.546676187926406e-03  3.350720705343655e-19
6.843574390374286e-03 3.201309900129947e-03 2.787463233683082e-19
 6.420596641304976e-03 -3.766237707528975e-03  2.745857635845021e-19
7.024491691934803e-03 2.163536884213940e-03 3.561312999869872e-19
 3.057493148086357e-03 -1.888464074979826e-03  4.629045385107793e-19
2.857365392057692e-03 4.758586565118192e-03 1.335740466245602e-20
 5.270712324047885e-03 -5.893894378939657e-03  1.325389118774981e-18
 4.041066795631656e-03 -3.743196895049308e-03 -9.973974966198698e-20
 7.479499498962290e-03 -5.868616993032017e-03  3.953740689121559e-19
 4.329658499138111e-03 -3.863942292113306e-03  3.321037312407514e-19
5.448021111967891e-03 6.728955576483762e-03 3.535377757314878e-19
 1.043072097793996e-02 -1.330410360225943e-03  4.094345101847187e-19
6.797727846790443e-03 4.831213560829670e-03 2.281721154976134e-19
 7.494045835875911e-03 -1.270997990928349e-04  4.428554544475632e-19
 7.163440469042817e-03  1.125461409806522e-03 -1.943985696391696e-19
 6.762151512455323e-03 -1.479368010030877e-03 -3.787983280378674e-18
6.662449117404326e-03 1.135487792422044e-03 5.816954373067115e-19
 6.862186476606233e-03 -8.308226948465281e-04  3.054709793709278e-19
 8.134669974471891e-03 -4.131998633799328e-04  3.899372246626957e-19
 7.131085549603297e-03 -4.090741990458860e-03  3.957506303375877e-19
6.178140708306384e-03 8.322244857266811e-04 3.565485913393939e-19
8.437197394679444e-03 3.641137554597776e-03 3.828176328730544e-19
 8.154172836808207e-03 -1.291747524449355e-03  4.201710535269738e-19
6.826776881699401e-03 3.846885627383158e-03 3.113016759835034e-19
 7.677620964242117e-03 -3.368593533471764e-04  3.652051810497327e-19
7.230735277828111e-03 2.118700779016454e-03 3.324620381657294e-19
 7.153140442207434e-03 -1.186778432184318e-03  3.414953694440867e-19
6.596279461881240e-03 1.576529118680220e-03 3.858360969813763e-19
 6.812295336006281e-03 -4.513783649222284e-04  3.447888674576906e-19
6.921859586387324e-03 7.746490784633559e-04 3.296380048238697e-19
 7.110439879877068e-03 -3.772996530474872e-04  3.566185399669440e-19
 6.250048922588724e-03 -3.094732842221556e-06  3.426078085103986e-19
7.080889774815287e-03 2.235342838937617e-03 3.648100202164376e-19
 4.696265384465320e-03 -1.282510934694922e-03  3.342286717829357e-19
 3.174724292944553e-03  6.367916137540778e-03 -8.024036688732948e-20
 4.824561029179394e-03 -4.775576385452134e-03  2.815176681389725e-19
5.778873179666671e-03 5.787504656807157e-04 3.064989918545618e-19
 7.032257768408439e-03 -1.886660753823771e-03  3.814915950260899e-19
8.358144799821790e-03 4.209170010537621e-04 3.875870020423932e-19
 7.627615033447193e-03 -5.034909258544249e-03  3.190124246981121e-19
 6.112747498541043e-03 -1.452984426653753e-03  4.196164981230349e-19
8.136172023319489e-03 3.724042406807709e-03 3.014025289935072e-19
 8.162503909610406e-03 -2.304675217826425e-03  4.594993788651134e-19
6.630121792067881e-03 4.102509387769631e-03 3.059949547368139e-19
 7.945711800778483e-03 -3.291539807908561e-05  3.891801172810193e-19
7.390876392904366e-03 1.982746180993220e-03 3.739649727151283e-19
 7.259824768069494e-03 -1.005641803212710e-03  3.529651754283190e-19
6.774093953568554e-03 1.539043533004214e-03 3.451827341260279e-19
 6.995356167303675e-03 -4.889650146433210e-04  3.569677981964339e-19
6.951435838201058e-03 1.021024509487849e-03 3.068427528087843e-19
 6.689584643326012e-03 -4.346325000320617e-04  3.389986861146402e-19
6.184654265671581e-03 1.916029732277726e-03 3.147539002140762e-19
 7.809355806970416e-03 -1.434968250684578e-03  3.149461170153548e-19
 6.157012746635645e-03 -1.280285205377518e-03  3.609345022859235e-19
 6.922447202674467e-03 -3.911990947256911e-04  3.395795162041743e-19
 7.360750448544246e-03 -1.238929231132433e-03  3.627344158426036e-19
 7.679434880786217e-03 -1.190178566064187e-03  3.789074863362151e-19
 8.568832229053516e-03 -1.657848615406736e-03  4.199118602754090e-19
5.221267387636016e-03 4.293275048306090e-03 3.183946616781058e-19
8.519143621122122e-03 1.872477620798017e-03 3.946187984559426e-19
7.727708140369927e-03 9.517400165857528e-06 3.859846931252980e-19
6.709910604821351e-03 1.321456948903398e-03 3.839049951501362e-19
 6.056433682195781e-03 -1.177317178229396e-04  3.442176179579579e-19
6.226962515989748e-03 8.739959690395576e-04 3.808138371705940e-19
 6.737119568485810e-03 -2.631047685995888e-03  4.730853891843464e-19
 6.541448870736908e-03 -2.002787415487340e-03  3.813982791266943e-19
 8.757109048212329e-03 -1.606338939007568e-03  4.242717355198505e-19
 8.293047272031690e-03 -4.235428897701270e-03  4.471862027484796e-19
3.583924813528433e-03 2.516748243320353e-03 3.280866800878036e-19
5.889938896264806e-03 7.730796597701225e-03 1.852021279461670e-19
9.214567986175053e-03 1.692917362618933e-03 4.133609989725738e-19
6.947652426980426e-03 5.853139192685375e-03 2.494501588816321e-19
 5.277298149779805e-03 -6.505334100073030e-04  3.764922890824225e-19
-1.900215941521085e-03  6.404553173717081e-03 -5.634764793936830e-20
 1.131020892717362e-02 -2.410960455655544e-03  4.922623234484939e-19
 5.721821278770522e-03 -1.373951733729223e-03  3.434572146196043e-19
 7.422900542455142e-03 -1.442166686554718e-03  4.519953255894634e-19
5.498177276611824e-03 4.603266380177540e-03 2.445836104261606e-19
8.610664675435715e-03 2.980235334159877e-04 4.305981974676776e-19
 7.313249594710168e-03 -1.760787620661738e-04  3.072703875429675e-19
 7.359799191281537e-03  5.826896138310982e-04 -7.591798812359167e-20
7.264625317422684e-03 1.156319834974026e-03 8.393102160706956e-19
7.131596183715135e-03 7.561191233977265e-04 3.521599052923977e-19
6.926443607278526e-03 2.035842399668145e-04 3.914148574289171e-19
6.818908250397040e-03 4.410586169770794e-04 3.004206350495462e-19
6.672931716339118e-03 4.316166057549827e-04 3.003031247067013e-19
7.258186919958175e-03 4.626229162428079e-04 2.859516451633498e-19
-1.436812048772126e-03 -7.347589884251150e-03 -1.197762666846379e-19
 6.042333371516101e-03 -3.690296093634528e-04  4.714712376468339e-19
5.819116711307917e-03 2.084199555701134e-03 3.357095999204422e-19
6.777399546799946e-03 3.070632823626811e-04 4.183046034709146e-19
6.257624112335031e-03 8.805108418873495e-04 4.196690828160964e-19
6.754762843394668e-03 2.433490510849080e-05 4.276246419095521e-19
 5.855066340111508e-03 -1.043041504498721e-03  4.109330355202736e-19
 6.762699202905019e-03 -1.204730320943898e-03  4.444255909718839e-19
 5.111697231789219e-03 -3.406690447219923e-03  4.773013689597421e-19
7.005687865847469e-03 4.848160865205985e-04 4.613989533985988e-19
 6.228589772076169e-03 -1.106664122805266e-03  5.203787551971946e-19
6.030279981653976e-03 3.360487006852249e-03 4.828137070891499e-19
 7.179268218491118e-03 -1.884023512646175e-03  4.684291784807341e-19
6.344371724240303e-03 2.977791186180415e-04 4.938503047446315e-19
 6.436507249762358e-03 -6.917496865880104e-04  4.842910119102832e-19
6.606472605829526e-03 1.374410095640939e-03 3.858775417294198e-19
 6.778443027162340e-03 -6.356236428722915e-04  6.110263879775875e-19
6.742945168215952e-03 2.342712051542680e-04 5.697132051577636e-19
 6.650029754718275e-03 -1.626272646011086e-04  5.840319202106761e-19
 6.633917864381474e-03 -1.622332464162775e-04  6.189056376840802e-19
6.675668136497816e-03 1.045995956159884e-04 4.887074347449647e-19
 6.709777199464308e-03 -2.925004759232089e-04  6.806977046445813e-19
 6.803638798703117e-03 -1.022585889868351e-04  7.689002810376539e-19
 6.895938209207266e-03 -2.499451126041952e-04  8.274262800145600e-19
6.937131700060312e-03 1.229746933084369e-04 9.308151546392996e-19
 7.196613743423887e-03 -1.301856184841638e-03  1.060663018916716e-18
 7.800849917470167e-03 -2.826939122427236e-04  1.178795011849699e-18
 1.387333032592919e-03 -3.782155054888943e-04  1.260820657240547e-18
-2.556785694253751e-03  7.151745968540135e-03 -7.566877625230778e-19
 7.491859305470816e-03 -3.193814483391552e-03  1.177207212560417e-18
 4.306791820240025e-03 -3.172576035567330e-04  1.920949765245069e-18
-6.644736364910587e-04  7.430024406591707e-03 -1.260199426508031e-19
 7.862162441219667e-03 -2.310057231419114e-03  2.115780670250274e-18
 6.511235349626582e-03 -1.472074092313129e-03  2.640658400830342e-18
 7.535840349274228e-03 -6.547786922132993e-04  3.390277929173727e-18
7.622702589744942e-03 1.272646754534255e-03 4.391370693201725e-18
 7.259922684473902e-03 -5.307931830899408e-04  6.212630118963433e-18
7.269722972968375e-03 2.932302671960003e-03 7.475100796332863e-18
 5.825227227661689e-03 -2.906631542774926e-03  9.418977645813703e-18
4.493500680016500e-03 3.946216943762294e-03 8.379208894419877e-18
 7.166095772115162e-03 -1.281305172227799e-03  1.526790213673771e-17
6.752023460408271e-03 1.097034796072700e-03 2.061259491325206e-17
 6.944933751051577e-03 -4.637586818714939e-04  3.419752466790481e-17
6.808825154892300e-03 4.840367802178190e-04 5.069517826281512e-17
 6.800402759246451e-03 -1.627677245230391e-04  8.056038005687946e-17
 6.680185257614487e-03 -1.598903171280323e-04  1.411510311485390e-16
 6.423260652784771e-03  1.547566828562176e-04 -1.449983846339377e-16
 6.819360181027785e-03  7.121018235463893e-04 -1.536639229598309e-15
 6.392992336248141e-03 -5.924092985486432e-04  6.620767999791649e-15
 5.928801672150011e-03 -5.221520610479607e-03 -1.516464734172597e-15
 8.447262589357655e-03 -7.827691074863004e-04  7.047332746224122e-15
8.197785056344874e-03 6.229402187913064e-04 1.391074848764390e-16
8.141280704635875e-03 3.908947104769432e-03 1.400754165003048e-16
8.697899667792355e-03 3.827653219247152e-04 1.145424846233927e-16
7.422695359997733e-03 3.266478675925846e-04 7.186800854225573e-17
6.634940757702593e-03 6.253289727943489e-03 2.776734311449120e-17
 8.600712718228329e-03 -2.799707640553973e-03  4.983274604130738e-17
6.903391175675386e-03 4.752412201192198e-04 3.596795099575699e-17
6.962240321287260e-03 5.941935070632873e-04 2.868868741563191e-17
6.623923799647993e-03 1.685530224854069e-03 2.012773415879022e-17
6.003112901668552e-03 1.467609286934741e-03 1.387182500562100e-17
 6.108022599451342e-03 -1.629945189970320e-04  1.237766575552965e-17
5.721646995296208e-03 2.249702630765740e-05 1.011320218101948e-17
 5.818454577659408e-03 -8.914133162810732e-04  8.399592795704688e-18
6.289761222607358e-03 6.267924382441245e-04 5.025382241995314e-18
 6.161840788873887e-03 -1.547697391988193e-03  4.943894235588848e-18
6.870406097464887e-03 1.321243308840660e-03 2.986945081648834e-18
 3.698696667866915e-03 -4.864176232376343e-03  4.161053462760092e-18
6.220577851184715e-03 1.935680744231831e-03 2.139729587750340e-18
 5.879740210293131e-03 -2.098042512262592e-03  3.156644766420977e-18
5.373686554655111e-03 4.272875667067992e-03 6.274099675631435e-19
 7.125434154551726e-03 -2.516553719526048e-03  2.527414407845385e-18
7.496642835395098e-03 1.456175262984862e-03 1.435418652709874e-18
 4.498267043371345e-03 -5.541215390963299e-03  1.819469734025423e-18
4.288207566012182e-03 3.248395585535023e-03 4.727553650120491e-19
8.234990169241608e-03 1.711139678095387e-03 1.085278825035248e-18
6.467537727139255e-03 3.223965376208359e-03 6.923025321927465e-19
6.921371077272207e-03 1.608719322536884e-03 9.195336359385529e-19
4.796435456936301e-03 7.356247537632599e-04 8.700468274241416e-19
 9.129433423465611e-04  8.326798593785864e-03 -5.025577972060439e-19
 3.757680529539468e-03 -2.075652879225391e-03  9.847253163095772e-19
3.345423934080348e-03 5.224278198969940e-03 2.716912395106648e-20
 3.976654298392195e-03 -7.054525353748510e-03  8.088922177786184e-19
 9.564069505544122e-03 -1.294722733645257e-03  8.802858506323913e-19
-5.866998862113311e-05 -6.269162369160424e-03  4.133724826754828e-19
3.368405106438937e-03 2.258613265293218e-03 3.970317428901264e-19
1.001129090151951e-02 2.347763241655721e-03 6.826935554604598e-19
1.224942655194785e-02 6.161116363231129e-03 5.247079593544730e-19
 1.939915699840978e-03 -7.013037668130266e-03  5.141347146199425e-19
2.843434680050718e-03 3.342463866244371e-03 2.038223610761422e-19
 1.139098132779164e-02 -8.696056913885179e-04  7.565901186830464e-19
8.781318786171475e-03 1.714396364474001e-03 5.816523079049601e-19
 7.250556544181884e-03 -1.674222015253541e-03  6.601577905402768e-19
7.767604372040468e-03 1.079161349552584e-03 5.514007980624414e-19
 6.303721500985617e-03 -3.709034165558288e-03  6.130378608174793e-19
6.872014652922252e-03 2.006856858191252e-03 4.707591850431226e-19
 7.447680345970608e-03 -4.542882243254972e-04  5.549928026441537e-19
6.622146238128785e-03 2.930875972311854e-03 3.923082755528781e-19
 7.174913938832250e-03 -1.158792871694563e-04  5.017021734464139e-19
6.346043553394810e-03 1.848432631092908e-03 4.091174483028614e-19
5.404595251551421e-03 9.483164620252023e-04 4.025115830377054e-19
2.420246888472350e-03 3.867090697212350e-03 1.036382352150648e-19
7.057747701711629e-03 1.255956259978493e-03 3.784857791699157e-19
 3.980143939897403e-03 -2.281106841688815e-03  3.825928379842551e-19
5.154711107074001e-03 5.161759454961072e-03 1.971983705788325e-19
 1.549862742649221e-03 -8.517400919598964e-03  2.220269696877932e-19
3.790326014950911e-03 4.423315134370074e-04 3.519474487079161e-19
 6.499817944358574e-03 -7.315264723231141e-04  4.117448505519707e-19
 6.189564593057076e-03 -4.491681099835234e-04  4.009676994753233e-19
 6.497631683576388e-03 -4.715241110747631e-04  4.014645833032185e-19
 4.515783904441530e-03 -5.163140877834324e-03  3.363317616027128e-19
 6.711818744508853e-03 -9.585228327376105e-04  4.017108468755642e-19
 7.396849145472550e-03 -1.056352840584635e-03  4.119438819440661e-19
 7.547636023673359e-03 -3.315507240751313e-03 -6.289444586812257e-19
8.027243328575970e-03 1.961294127568013e-03 2.717670245266181e-19
 5.478173435492228e-03 -2.673222216529762e-03  3.974007416933821e-19
5.266550190096041e-03 2.626916306219263e-03 3.071377666964136e-19
9.623685565774632e-03 2.246960576856251e-03 3.824292354527789e-19
 5.007298081889548e-03 -5.571819468193752e-03  3.254112033900402e-19
 6.088574484451424e-03 -6.792603461011800e-04  3.806672293307317e-19
 7.793352813447267e-03 -7.660530226558334e-04  4.097122141615985e-19
 5.750831535057727e-03 -4.375043631497020e-03  3.607753023196520e-19
7.054183640040408e-03 8.277357668695229e-04 3.907641521782595e-19
 7.922112556911247e-03 -1.583378367906201e-04  4.077693426331672e-19
7.775777991953150e-03 1.761019065524389e-03 3.703390029873042e-19
 7.103975488765454e-03 -1.468805539600195e-03  3.914155268037718e-19
3.995184880292286e-03 1.529539824337163e-04 3.331317054968392e-19
-2.556583950963314e-03  8.331456139617974e-03 -2.007520547686577e-19
 8.995358210507797e-03 -2.306528582070757e-03  4.163556466537234e-19
 7.543136972992850e-03 -3.323980502859574e-05  3.862142589213883e-19
 5.827694060297326e-03 -2.440025511066290e-03  3.597388387526932e-19
4.686896415291024e-03 1.464948243164228e-03 3.308827939039791e-19
7.229003984594752e-03 2.408817985357611e-03 3.437954935646640e-19
 7.005994909602077e-03 -1.163697196167211e-03  3.717877330197360e-19
6.550097891586722e-03 1.266128831766580e-03 3.379079332112163e-19
 6.375396099427025e-03 -2.426369344086338e-03  3.586678441590100e-19
4.904360509524296e-03 3.113469900528288e-03 2.884538222940201e-19
 7.184489277645353e-03 -3.124498548946875e-04  3.822316713370047e-19
7.091387540181193e-03 2.300497494351142e-03 3.449663091190487e-19
 7.442734873208691e-03 -2.636120279621402e-04  3.764896788337664e-19
7.087499214803848e-03 5.973005091785232e-04 3.646798619950336e-19
 7.013162216562925e-03 -3.533601555121564e-04  3.702868576003228e-19
6.906851772527266e-03 6.592707301804578e-04 3.604106298511438e-19
 6.883480638031349e-03 -2.565803727806234e-04  3.653121706408439e-19
7.250451367440396e-03 2.847721176647783e-04 3.650618612253133e-19
 4.622892735102157e-03 -5.766540288218366e-03  2.723154467930470e-19
7.371790889828202e-03 1.438110137707270e-05 3.823608444236270e-19
 7.404247487894300e-03 -8.079587225891069e-04  3.865386024357770e-19
7.313491805686228e-03 8.974740735852984e-04 3.700438465325200e-19
8.421236661697293e-03 1.457212136311241e-04 3.885402016512658e-19
 7.285404778755042e-03 -1.923782104779273e-03  3.807707138118297e-19
7.348754070616554e-03 1.675822119040142e-04 3.819128659209588e-19
8.399070333325718e-03 2.413437518986886e-03 3.549916127115906e-19
 6.094675008372312e-03 -5.469786435835637e-03  3.305046353177759e-19
7.812049439143566e-03 8.803245630523066e-04 3.967489243626499e-19
8.266209834964599e-03 6.481895653552426e-04 3.926370239126618e-19
1.017637343858426e-02 7.979738244906062e-04 4.195070945462405e-19
-4.803627041761881e-04 -5.704968283350915e-03 -2.892451598869397e-20
3.125174328594143e-03 1.854287000592963e-03 3.218614901695079e-19
3.646905907423817e-03 2.450694391758318e-03 2.800867040513411e-19
4.698930514192621e-03 1.047199621056733e-02 6.018062557986185e-20
 4.267148181699511e-03 -6.557329674544853e-03  2.476662509130367e-19
2.513701427986735e-03 2.705804872017284e-03 2.161818193860128e-19
 7.835349797454877e-03 -3.063321888781180e-03  3.829631639530134e-19
 7.991495921562852e-03 -2.783509407503000e-04  3.977658732775907e-19
 7.619309440158365e-03 -5.408273830412873e-04  3.988908604901459e-19
7.787802337856539e-03 2.419909242119630e-03 3.640275707489423e-19
 7.668355752042292e-03 -1.956051280088780e-03  3.915558215948205e-19
8.070211188084573e-03 1.077648290987660e-03 3.853438955720344e-19
 3.986619269301710e-03 -7.279944988502892e-03  2.394156958953730e-19
7.762977926062534e-03 7.318373045484499e-04 3.967383883400337e-19
 7.837411407618049e-03 -1.162505788965148e-03  4.027162572774577e-19
7.005876402066243e-03 3.976164016623224e-03 3.195669021927948e-19
 8.313694564285648e-03 -7.065529070790266e-04  3.967316319445630e-19
8.074947990695700e-03 2.747098957341877e-04 3.914941829806024e-19
7.005387004785845e-03 1.834166490358074e-03 3.506855075509944e-19
7.644607136751858e-03 1.611499383087751e-03 3.513929518276634e-19
6.687292419385706e-03 1.197076101802775e-05 3.483432333315188e-19
6.649065578329014e-03 3.815353604325772e-04 3.412702236861917e-19
1.133849492413715e-02 1.813668758183570e-03 4.066561873216108e-19
 3.687092765266296e-03 -6.807939394771033e-03  2.112421297550701e-19
5.478626996941342e-03 3.007868072861804e-03 3.423288691196423e-19
5.544253482222867e-03 1.312576901848755e-03 3.403493896648549e-19
6.407182623079576e-03 8.828485842750302e-03 1.450471318393001e-19
 2.367448126950331e-03 -9.052824948082815e-03  1.654684071810393e-19
6.699665059060992e-03 2.287622715834434e-03 3.460573395771220e-19
 7.680818465765437e-03 -2.523351377897208e-03  3.741243790669561e-19
7.604123023190116e-03 1.606605389446974e-03 3.741359986415228e-19
 7.751948407218497e-03 -9.412860714526470e-04  3.890211616924303e-19
6.944180043289096e-03 2.220635840566940e-03 3.433159830897973e-19
 5.337662279304950e-03 -4.689462259082751e-05  3.239399797355025e-19
6.046149330231464e-03 3.375788003777266e-03 2.591334919445555e-19
-2.093526434742542e-05 -6.914290570513480e-03  3.224623970918169e-20
3.789622032055935e-03 8.029621262951667e-04 3.004727328567193e-19
 8.067832347256901e-03 -6.097575613101113e-03  3.894904273271530e-19
 1.781896634520942e-03 -5.144810717078421e-03  1.277990491572687e-19
7.983592017030389e-03 3.239289070014607e-03 3.866075295921330e-19
1.015237164021972e-02 1.548350974307883e-03 4.179456107542338e-19
9.094890239264073e-03 1.262503450064865e-03 3.939045171204690e-19
7.917112762876466e-03 5.018594523904120e-04 3.660560262987099e-19
7.271992949527573e-03 2.066948174803540e-04 3.007502656161148e-19
7.210336478311832e-03 2.347161161028984e-03 2.625549279615202e-19
 7.354706036392356e-03 -3.371025539586746e-04 -6.336135744795039e-20
 7.330257046121434e-03 -1.375688437688061e-04  1.162724940452803e-18
 7.516779156154364e-03 -1.410693528032233e-04  1.165333221828270e-18
 7.752212071444380e-03 -1.286934317293687e-03 -7.242795673401774e-19
7.786662028478411e-03 1.958282697009803e-04 5.586178502450717e-19
8.296376763731980e-03 2.989115209514651e-04 4.635200791508855e-19
 7.881815739905207e-03 -3.025790247118548e-04  3.909168352506528e-19
7.514133243094283e-03 7.774751549352533e-04 3.612718209656706e-19
7.310157237968362e-03 5.507880759133175e-04 3.535567958094727e-19
 7.116509936074816e-03 -8.981443351245764e-04  3.556824698337703e-19
 7.186074967561627e-03 -3.956164588907169e-04  3.592791238968623e-19
 8.199114399612855e-03 -2.275118733520718e-03  3.913666436662827e-19
 6.138842861729961e-03 -2.000406178489983e-03  3.671001020700122e-19
1.479829493685809e-03 7.154651506059134e-03 5.322181483572116e-20
1.166878031543149e-02 1.014494615120514e-03 4.324946590124524e-19
 7.690218782974901e-03 -3.371272609766027e-03  3.830668620879174e-19
3.138455098485099e-03 4.157062680202472e-03 2.200277185528497e-19
8.014111349641983e-03 2.660094422208609e-03 3.686276388800651e-19
8.777694649826421e-03 2.177572488527382e-03 3.682798194233838e-19
8.225104010459606e-03 5.779641128089163e-04 3.708496908128664e-19
7.351361987015870e-03 1.105195752788332e-03 3.469894870697971e-19
7.200437902199732e-03 2.714108276014373e-04 3.462912298936302e-19
6.795669355093977e-03 1.118244018845523e-03 3.300491250873210e-19
6.175628591539293e-03 3.099790005369398e-04 3.199943109004860e-19
5.955027039110438e-03 1.392717674942510e-03 2.973795348209813e-19
 6.326809295949513e-03 -4.084370376874704e-04  3.101318766071778e-19
 1.107788821762336e-03 -1.284138704994587e-03  1.227135513698631e-19
2.881151057383254e-03 3.613178345312920e-03 1.815538100026164e-19
 6.862798659365430e-03 -2.655807809976286e-03  3.054538538326885e-19
 6.290351023952538e-03 -8.114287935837208e-04  3.068428413080766e-19
 3.300393672669053e-03 -2.627922838818447e-03  2.161326346698882e-19
1.638892650806965e-03 4.165270894678929e-03 1.143815682736381e-19
 8.204514493199304e-03 -1.202128009241677e-03  3.486338737678959e-19
 7.467102878502095e-03 -5.327650969995687e-04  3.385396522355814e-19
 6.333544301356834e-03 -1.730363390846510e-04  3.215665026328756e-19
5.845017378414839e-03 5.095849168289118e-03 2.308324401942998e-19
 7.451118338890898e-03 -3.731481520331573e-04  3.330361605361838e-19
5.027812109395270e-03 2.368667724802948e-03 2.631700484021049e-19
4.960009905287924e-03 2.055333821581708e-03 2.359107189858424e-19
4.075671780538767e-03 7.901493162608301e-03 7.954269942313486e-20
 4.576667939962678e-03 -1.915346232556775e-03  2.447526792727343e-19
4.916633938211722e-03 1.230720583760993e-03 2.671767585092828e-19
 4.191282531978788e-03 -1.021982766543774e-03  2.496637275302213e-19
7.029880834551317e-03 4.522973825301894e-03 2.397799722943460e-19
 1.163189785435640e-03 -9.053043448271342e-03  8.571159983633427e-20
 2.667109278059910e-03 -1.841792829933555e-03  2.136600832937014e-19
 2.544445416799126e-03 -5.369321952092363e-04  2.682399540142895e-19
-2.556440223427249e-03  7.527540444862658e-03 -1.321861849091088e-19
 1.481821311766315e-02 -3.497468304543110e-03  4.713464765835680e-19
6.880988953215306e-03 2.417573838563248e-03 2.825467740249189e-19
 4.461962287060127e-03 -5.700766383261103e-04  2.623185299185435e-19
4.450046148174250e-03 2.672805825416554e-03 2.101543237132610e-19
 4.165831199255085e-03 -7.658857853274184e-03  2.060708488074163e-19
 4.125542328559312e-03 -1.876251394711235e-03  2.376991710116762e-19
5.512021512154550e-03 1.971923559030257e-03 2.717837459587083e-19
 5.961719208166424e-03 -2.502023821333060e-03  2.880927506506263e-19
5.784909503373004e-03 1.432241015815550e-03 2.988625165318521e-19
 7.426198290231310e-03 -5.804088878830023e-04  3.347119570500076e-19
7.375936848521618e-03 2.270285306389784e-04 3.355974501122660e-19
 6.934841196939929e-03 -9.540269202311882e-04  3.309479861839000e-19
7.225601160697637e-03 9.080141403584125e-04 3.286586482684300e-19
 7.293925175500472e-03 -3.235626652578388e-04  3.361440239376030e-19
7.125034942872634e-03 6.428082557788056e-04 3.297570326592456e-19
 6.948740286236991e-03 -4.957813462949267e-04  3.317060400500011e-19
6.923566820619130e-03 9.582905211612265e-04 3.248853177656941e-19
 6.990509222130735e-03 -2.583484951413946e-04  3.311513125819384e-19
6.760253323474863e-03 9.142923426251425e-04 3.223445750467518e-19
6.794854151027270e-03 1.804434755209624e-04 3.241396393169586e-19
6.388348426816928e-03 5.853834703013602e-04 3.143258036840205e-19
6.031026896349691e-03 5.526410299171986e-04 2.991563880036853e-19
 4.252686242980377e-03 -5.666672435331247e-03  2.142863695779738e-19
 6.136099859346210e-03 -8.534987209678136e-04  3.102309784642209e-19
6.900001866691771e-03 8.172328094866343e-04 3.191759044768486e-19
 6.360948544889044e-03 -2.247651993000988e-03  3.107841712909889e-19
6.245631561507241e-03 6.486971628153835e-04 3.134509708360569e-19
 6.963889847947312e-03 -2.963641630414652e-04  3.251287217695451e-19
 6.599349224213384e-03 -3.136129812817325e-04  3.204361316282753e-19
 6.734753587669570e-03 -3.200476409215413e-04  3.248634657870079e-19
 6.840751723763836e-03 -4.869715127072698e-04  3.283791752444042e-19
 6.704968496290495e-03 -3.990839548950505e-04  3.275316148143863e-19
7.023459109530807e-03 4.798980423750291e-04 3.289180417296144e-19

VECTORS velocity double
0.000000000000000e+00 0.000000000000000e+00 0.000000000000000e+00
0.000000000000000e+00 0.000000000000000e+00 0.000000000000000e+00
0.000000000000000e+00 0.000000000000000e+00 0.000000000000000e+00
0.000000000000000e+00 0.000000000000000e+00 0.000000000000000e+00
0.000000000000000e+00 0.000000000000000e+00 0.000000000000000e+00
0.000000000000000e+00 0.000000000000000e+00 0.000000000000000e+00
0.000000000000000e+00 0.000000000000000e+00 0.000000000000000e+00
0.000000000000000e+00 0.000000000000000e+00 0.000000000000000e+00
0.000000000000000e+00 0.000000000000000e+00 0.000000000000000e+00
0.000000000000000e+00 0.000000000000000e+00 0.000000000000000e+00
0.000000000000000e+00 0.000000000000000e+00 0.000000000000000e+00
0.000000000000000e+00 0.000000000000000e+00 0.000000000000000e+00
0.000000000000000e+00 0.000000000000000e+00 0.000000000000000e+00
0.000000000000000e+00 0.000000000000000e+00 0.000000000000000e+00
0.000000000000000e+00 0.000000000000000e+00 0.000000000000000e+00
0.000000000000000e+00 0.000000000000000e+00 0.000000000000000e+00
0.000000000000000e+00 0.000000000000000e+00 0.000000000000000e+00
0.000000000000000e+00 0.000000000000000e+00 0.000000000000000e+00
0.000000000000000e+00 0.000000000000000e+00 0.000000000000000e+00
0.000000000000000e+00 0.000000000000000e+00 0.000000000000000e+00
0.000000000000000e+00 0.000000000000000e+00 0.000000000000000e+00
0.000000000000000e+00 0.000000000000000e+00 0.000000000000000e+00
0.000000000000000e+00 0.000000000000000e+00 0.000000000000000e+00
0.000000000000000e+00 0.000000000000000e+00 0.000000000000000e+00
0.000000000000000e+00 0.000000000000000e+00 0.000000000000000e+00
0.000000000000000e+00 0.000000000000000e+00 0.000000000000000e+00
0.000000000000000e+00 0.000000000000000e+00 0.000000000000000e+00
0.000000000000000e+00 0.000000000000000e+00 0.000000000000000e+00
0.000000000000000e+00 0.000000000000000e+00 0.000000000000000e+00
0.000000000000000e+00 0.000000000000000e+00 0.000000000000000e+00
0.000000000000000e+00 0.000000000000000e+00 0.000000000000000e+00
0.000000000000000e+00 0.000000000000000e+00 0.000000000000000e+00
0.000000000000000e+00 0.000000000000000e+00 0.000000000000000e+00
0.000000000000000e+00 0.000000000000000e+00 0.000000000000000e+00
0.000000000000000e+00 0.000000000000000e+00 0.000000000000000e+00
0.000000000000000e+00 0.000000000000000e+00 0.000000000000000e+00
0.000000000000000e+00 0.000000000000000e+00 0.000000000000000e+00
0.000000000000000e+00 0.000000000000000e+00 0.000000000000000e+00
0.000000000000000e+00 0.000000000000000e+00 0.000000000000000e+00
0.000000000000000e+00 0.000000000000000e+00 0.000000000000000e+00
0.000000000000000e+00 0.000000000000000e+00 0.000000000000000e+00
0.000000000000000e+00 0.000000000000000e+00 0.000000000000000e+00
0.000000000000000e+00 0.000000000000000e+00 0.000000000000000e+00
0.000000000000000e+00 0.000000000000000e+00 0.000000000000000e+00
0.000000000000000e+00 0.000000000000000e+00 0.000000000000000e+00
0.000000000000000e+00 0.000000000000000e+00 0.000000000000000e+00
0.000000000000000e+00 0.000000000000000e+00 0.000000000000000e+00
0.000000000000000e+00 0.000000000000000e+00 0.000000000000000e+00
0.000000000000000e+00 0.000000000000000e+00 0.000000000000000e+00
0.000000000000000e+00 0.000000000000000e+00 0.000000000000000e+00
0.000000000000000e+00 0.000000000000000e+00 0.000000000000000e+00
0.000000000000000e+00 0.000000000000000e+00 0.000000000000000e+00
0.000000000000000e+00 0.000000000000000e+00 0.000000000000000e+00
0.000000000000000e+00 0.000000000000000e+00 0.000000000000000e+00
0.000000000000000e+00 0.000000000000000e+00 0.000000000000000e+00
0.000000000000000e+00 0.000000000000000e+00 0.000000000000000e+00
0.000000000000000e+00 0.000000000000000e+00 0.000000000000000e+00
0.000000000000000e+00 0.000000000000000e+00 0.000000000000000e+00
0.000000000000000e+00 0.000000000000000e+00 0.000000000000000e+00
0.000000000000000e+00 0.000000000000000e+00 0.000000000000000e+00
0.000000000000000e+00 0.000000000000000e+00 0.000000000000000e+00
0.000000000000000e+00 0.000000000000000e+00 0.000000000000000e+00
0.000000000000000e+00 0.000000000000000e+00 0.000000000000000e+00
0.000000000000000e+00 0.000000000000000e+00 0.000000000000000e+00
0.000000000000000e+00 0.000000000000000e+00 0.000000000000000e+00
0.000000000000000e+00 0.000000000000000e+00 0.000000000000000e+00
0.000000000000000e+00 0.000000000000000e+00 0.000000000000000e+00
0.000000000000000e+00 0.000000000000000e+00 0.000000000000000e+00
0.000000000000000e+00 0.000000000000000e+00 0.000000000000000e+00
0.000000000000000e+00 0.000000000000000e+00 0.000000000000000e+00
0.000000000000000e+00 0.000000000000000e+00 0.000000000000000e+00
0.000000000000000e+00 0.000000000000000e+00 0.000000000000000e+00
0.000000000000000e+00 0.000000000000000e+00 0.000000000000000e+00
0.000000000000000e+00 0.000000000000000e+00 0.000000000000000e+00
0.000000000000000e+00 0.000000000000000e+00 0.000000000000000e+00
0.000000000000000e+00 0.000000000000000e+00 0.000000000000000e+00
0.000000000000000e+00 0.000000000000000e+00 0.000000000000000e+00
0.000000000000000e+00 0.000000000000000e+00 0.000000000000000e+00
0.000000000000000e+00 0.000000000000000e+00 0.000000000000000e+00
0.000000000000000e+00 0.000000000000000e+00 0.000000000000000e+00
0.000000000000000e+00 0.000000000000000e+00 0.000000000000000e+00
0.000000000000000e+00 0.000000000000000e+00 0.000000000000000e+00
0.000000000000000e+00 0.000000000000000e+00 0.000000000000000e+00
0.000000000000000e+00 0.000000000000000e+00 0.000000000000000e+00
0.000000000000000e+00 0.000000000000000e+00 0.000000000000000e+00
0.000000000000000e+00 0.000000000000000e+00 0.000000000000000e+00
0.000000000000000e+00 0.000000000000000e+00 0.000000000000000e+00
0.000000000000000e+00 0.000000000000000e+00 0.000000000000000e+00
0.000000000000000e+00 0.000000000000000e+00 0.000000000000000e+00
0.000000000000000e+00 0.000000000000000e+00 0.000000000000000e+00
0.000000000000000e+00 0.000000000000000e+00 0.000000000000000e+00
0.000000000000000e+00 0.000000000000000e+00 0.000000000000000e+00
0.000000000000000e+00 0.000000000000000e+00 0.000000000000000e+00
0.000000000000000e+00 0.000000000000000e+00 0.000000000000000e+00
0.000000000000000e+00 0.000000000000000e+00 0.000000000000000e+00
0.000000000000000e+00 0.000000000000000e+00 0.000000000000000e+00
0.000000000000000e+00 0.000000000000000e+00 0.000000000000000e+00
0.000000000000000e+00 0.000000000000000e+00 0.000000000000000e+00
0.000000000000000e+00 0.000000000000000e+00 0.000000000000000e+00
0.000000000000000e+00 0.000000000000000e+00 0.000000000000000e+00
0.000000000000000e+00 0.000000000000000e+00 0.000000000000000e+00
0.000000000000000e+00 0.000000000000000e+00 0.000000000000000e+00
0.000000000000000e+00 0.000000000000000e+00 0.000000000000000e+00
0.000000000000000e+00 0.000000000000000e+00 0.000000000000000e+00
0.000000000000000e+00 0.000000000000000e+00 0.000000000000000e+00
0.000000000000000e+00 0.000000000000000e+00 0.000000000000000e+00
0.000000000000000e+00 0.000000000000000e+00 0.000000000000000e+00
0.000000000000000e+00 0.000000000000000e+00 0.000000000000000e+00
0.000000000000000e+00 0.000000000000000e+00 0.000000000000000e+00
0.000000000000000e+00 0.000000000000000e+00 0.000000000000000e+00
0.000000000000000e+00 0.000000000000000e+00 0.000000000000000e+00
0.000000000000000e+00 0.000000000000000e+00 0.000000000000000e+00
0.000000000000000e+00 0.000000000000000e+00 0.000000000000000e+00
0.000000000000000e+00 0.000000000000000e+00 0.000000000000000e+00
0.000000000000000e+00 0.000000000000000e+00 0.000000000000000e+00
0.000000000000000e+00 0.000000000000000e+00 0.000000000000000e+00
0.000000000000000e+00 0.000000000000000e+00 0.000000000000000e+00
0.000000000000000e+00 0.000000000000000e+00 0.000000000000000e+00
0.000000000000000e+00 0.000000000000000e+00 0.000000000000000e+00
0.000000000000000e+00 0.000000000000000e+00 0.000000000000000e+00
0.000000000000000e+00 0.000000000000000e+00 0.000000000000000e+00
0.000000000000000e+00 0.000000000000000e+00 0.000000000000000e+00
0.000000000000000e+00 0.000000000000000e+00 0.000000000000000e+00
0.000000000000000e+00 0.000000000000000e+00 0.000000000000000e+00
0.000000000000000e+00 0.000000000000000e+00 0.000000000000000e+00
0.000000000000000e+00 0.000000000000000e+00 0.000000000000000e+00
0.000000000000000e+00 0.000000000000000e+00 0.000000000000000e+00
0.000000000000000e+00 0.000000000000000e+00 0.000000000000000e+00
0.000000000000000e+00 0.000000000000000e+00 0.000000000000000e+00
0.000000000000000e+00 0.000000000000000e+00 0.000000000000000e+00
0.000000000000000e+00 0.000000000000000e+00 0.000000000000000e+00
0.000000000000000e+00 0.000000000000000e+00 0.000000000000000e+00
0.000000000000000e+00 0.000000000000000e+00 0.000000000000000e+00
0.000000000000000e+00 0.000000000000000e+00 0.000000000000000e+00
0.000000000000000e+00 0.000000000000000e+00 0.000000000000000e+00
0.000000000000000e+00 0.000000000000000e+00 0.000000000000000e+00
0.000000000000000e+00 0.000000000000000e+00 0.000000000000000e+00
0.000000000000000e+00 0.000000000000000e+00 0.000000000000000e+00
0.000000000000000e+00 0.000000000000000e+00 0.000000000000000e+00
0.000000000000000e+00 0.000000000000000e+00 0.000000000000000e+00
0.000000000000000e+00 0.000000000000000e+00 0.000000000000000e+00
0.000000000000000e+00 0.000000000000000e+00 0.000000000000000e+00
0.000000000000000e+00 0.000000000000000e+00 0.000000000000000e+00
0.000000000000000e+00 0.000000000000000e+00 0.000000000000000e+00
0.000000000000000e+00 0.000000000000000e+00 0.000000000000000e+00
0.000000000000000e+00 0.000000000000000e+00 0.000000000000000e+00
0.000000000000000e+00 0.000000000000000e+00 0.000000000000000e+00
0.000000000000000e+00 0.000000000000000e+00 0.000000000000000e+00
0.000000000000000e+00 0.000000000000000e+00 0.000000000000000e+00
0.000000000000000e+00 0.000000000000000e+00 0.000000000000000e+00
0.000000000000000e+00 0.000000000000000e+00 0.000000000000000e+00
0.000000000000000e+00 0.000000000000000e+00 0.000000000000000e+00
0.000000000000000e+00 0.000000000000000e+00 0.000000000000000e+00
0.000000000000000e+00 0.000000000000000e+00 0.000000000000000e+00
0.000000000000000e+00 0.000000000000000e+00 0.000000000000000e+00
0.000000000000000e+00 0.000000000000000e+00 0.000000000000000e+00
0.000000000000000e+00 0.000000000000000e+00 0.000000000000000e+00
0.000000000000000e+00 0.000000000000000e+00 0.000000000000000e+00
0.000000000000000e+00 0.000000000000000e+00 0.000000000000000e+00
0.000000000000000e+00 0.000000000000000e+00 0.000000000000000e+00
0.000000000000000e+00 0.000000000000000e+00 0.000000000000000e+00
0.000000000000000e+00 0.000000000000000e+00 0.000000000000000e+00
0.000000000000000e+00 0.000000000000000e+00 0.000000000000000e+00
0.000000000000000e+00 0.000000000000000e+00 0.000000000000000e+00
0.000000000000000e+00 0.000000000000000e+00 0.000000000000000e+00
0.000000000000000e+00 0.000000000000000e+00 0.000000000000000e+00
0.000000000000000e+00 0.000000000000000e+00 0.000000000000000e+00
0.000000000000000e+00 0.000000000000000e+00 0.000000000000000e+00
0.000000000000000e+00 0.000000000000000e+00 0.000000000000000e+00
0.000000000000000e+00 0.000000000000000e+00 0.000000000000000e+00
0.000000000000000e+00 0.000000000000000e+00 0.000000000000000e+00
0.000000000000000e+00 0.000000000000000e+00 0.000000000000000e+00
0.000000000000000e+00 0.000000000000000e+00 0.000000000000000e+00
0.000000000000000e+00 0.000000000000000e+00 0.000000000000000e+00
0.000000000000000e+00 0.000000000000000e+00 0.000000000000000e+00
0.000000000000000e+00 0.000000000000000e+00 0.000000000000000e+00
0.000000000000000e+00 0.000000000000000e+00 0.000000000000000e+00
0.000000000000000e+00 0.000000000000000e+00 0.000000000000000e+00
0.000000000000000e+00 0.000000000000000e+00 0.000000000000000e+00
0.000000000000000e+00 0.000000000000000e+00 0.000000000000000e+00
0.000000000000000e+00 0.000000000000000e+00 0.000000000000000e+00
0.000000000000000e+00 0.000000000000000e+00 0.000000000000000e+00
0.000000000000000e+00 0.000000000000000e+00 0.000000000000000e+00
0.000000000000000e+00 0.000000000000000e+00 0.000000000000000e+00
0.000000000000000e+00 0.000000000000000e+00 0.000000000000000e+00
0.000000000000000e+00 0.000000000000000e+00 0.000000000000000e+00
0.000000000000000e+00 0.000000000000000e+00 0.000000000000000e+00
0.000000000000000e+00 0.000000000000000e+00 0.000000000000000e+00
0.000000000000000e+00 0.000000000000000e+00 0.000000000000000e+00
0.000000000000000e+00 0.000000000000000e+00 0.000000000000000e+00
0.000000000000000e+00 0.000000000000000e+00 0.000000000000000e+00
0.000000000000000e+00 0.000000000000000e+00 0.000000000000000e+00
0.000000000000000e+00 0.000000000000000e+00 0.000000000000000e+00
0.000000000000000e+00 0.000000000000000e+00 0.000000000000000e+00
0.000000000000000e+00 0.000000000000000e+00 0.000000000000000e+00
0.000000000000000e+00 0.000000000000000e+00 0.000000000000000e+00
0.000000000000000e+00 0.000000000000000e+00 0.000000000000000e+00
0.000000000000000e+00 0.000000000000000e+00 0.000000000000000e+00
0.000000000000000e+00 0.000000000000000e+00 0.000000000000000e+00
0.000000000000000e+00 0.000000000000000e+00 0.000000000000000e+00
0.000000000000000e+00 0.000000000000000e+00 0.000000000000000e+00
0.000000000000000e+00 0.000000000000000e+00 0.000000000000000e+00
0.000000000000000e+00 0.000000000000000e+00 0.000000000000000e+00
0.000000000000000e+00 0.000000000000000e+00 0.000000000000000e+00
0.000000000000000e+00 0.000000000000000e+00 0.000000000000000e+00
0.000000000000000e+00 0.000000000000000e+00 0.000000000000000e+00
0.000000000000000e+00 0.000000000000000e+00 0.000000000000000e+00
0.000000000000000e+00 0.000000000000000e+00 0.000000000000000e+00
0.000000000000000e+00 0.000000000000000e+00 0.000000000000000e+00
0.000000000000000e+00 0.000000000000000e+00 0.000000000000000e+00
0.000000000000000e+00 0.000000000000000e+00 0.000000000000000e+00
0.000000000000000e+00 0.000000000000000e+00 0.000000000000000e+00
0.000000000000000e+00 0.000000000000000e+00 0.000000000000000e+00
0.000000000000000e+00 0.000000000000000e+00 0.000000000000000e+00
0.000000000000000e+00 0.000000000000000e+00 0.000000000000000e+00
0.000000000000000e+00 0.000000000000000e+00 0.000000000000000e+00
0.000000000000000e+00 0.000000000000000e+00 0.000000000000000e+00
0.000000000000000e+00 0.000000000000000e+00 0.000000000000000e+00
0.000000000000000e+00 0.000000000000000e+00 0.000000000000000e+00
0.000000000000000e+00 0.000000000000000e+00 0.000000000000000e+00
0.000000000000000e+00 0.000000000000000e+00 0.000000000000000e+00
0.000000000000000e+00 0.000000000000000e+00 0.000000000000000e+00
0.000000000000000e+00 0.000000000000000e+00 0.000000000000000e+00
0.000000000000000e+00 0.000000000000000e+00 0.000000000000000e+00
0.000000000000000e+00 0.000000000000000e+00 0.000000000000000e+00
0.000000000000000e+00 0.000000000000000e+00 0.000000000000000e+00
0.000000000000000e+00 0.000000000000000e+00 0.000000000000000e+00
0.000000000000000e+00 0.000000000000000e+00 0.000000000000000e+00
0.000000000000000e+00 0.000000000000000e+00 0.000000000000000e+00
0.000000000000000e+00 0.000000000000000e+00 0.000000000000000e+00
0.000000000000000e+00 0.000000000000000e+00 0.000000000000000e+00
0.000000000000000e+00 0.000000000000000e+00 0.000000000000000e+00
0.000000000000000e+00 0.000000000000000e+00 0.000000000000000e+00
0.000000000000000e+00 0.000000000000000e+00 0.000000000000000e+00
0.000000000000000e+00 0.000000000000000e+00 0.000000000000000e+00
0.000000000000000e+00 0.000000000000000e+00 0.000000000000000e+00
0.000000000000000e+00 0.000000000000000e+00 0.000000000000000e+00
0.000000000000000e+00 0.000000000000000e+00 0.000000000000000e+00
0.000000000000000e+00 0.000000000000000e+00 0.000000000000000e+00
0.000000000000000e+00 0.000000000000000e+00 0.000000000000000e+00
0.000000000000000e+00 0.000000000000000e+00 0.000000000000000e+00
0.000000000000000e+00 0.000000000000000e+00 0.000000000000000e+00
0.000000000000000e+00 0.000000000000000e+00 0.000000000000000e+00
0.000000000000000e+00 0.000000000000000e+00 0.000000000000000e+00
0.000000000000000e+00 0.000000000000000e+00 0.000000000000000e+00
0.000000000000000e+00 0.000000000000000e+00 0.000000000000000e+00
0.000000000000000e+00 0.000000000000000e+00 0.000000000000000e+00
0.000000000000000e+00 0.000000000000000e+00 0.000000000000000e+00
0.000000000000000e+00 0.000000000000000e+00 0.000000000000000e+00
0.000000000000000e+00 0.000000000000000e+00 0.000000000000000e+00
0.000000000000000e+00 0.000000000000000e+00 0.000000000000000e+00
0.000000000000000e+00 0.000000000000000e+00 0.000000000000000e+00
0.000000000000000e+00 0.000000000000000e+00 0.000000000000000e+00
0.000000000000000e+00 0.000000000000000e+00 0.000000000000000e+00
0.000000000000000e+00 0.000000000000000e+00 0.000000000000000e+00
0.000000000000000e+00 0.000000000000000e+00 0.000000000000000e+00
0.000000000000000e+00 0.000000000000000e+00 0.000000000000000e+00
0.000000000000000e+00 0.000000000000000e+00 0.000000000000000e+00
0.000000000000000e+00 0.000000000000000e+00 0.000000000000000e+00
0.000000000000000e+00 0.000000000000000e+00 0.000000000000000e+00
0.000000000000000e+00 0.000000000000000e+00 0.000000000000000e+00
0.000000000000000e+00 0.000000000000000e+00 0.000000000000000e+00
0.000000000000000e+00 0.000000000000000e+00 0.000000000000000e+00
0.000000000000000e+00 0.000000000000000e+00 0.000000000000000e+00
0.000000000000000e+00 0.000000000000000e+00 0.000000000000000e+00
0.000000000000000e+00 0.000000000000000e+00 0.000000000000000e+00
0.000000000000000e+00 0.000000000000000e+00 0.000000000000000e+00
0.000000000000000e+00 0.000000000000000e+00 0.000000000000000e+00
0.000000000000000e+00 0.000000000000000e+00 0.000000000000000e+00
0.000000000000000e+00 0.000000000000000e+00 0.000000000000000e+00
0.000000000000000e+00 0.000000000000000e+00 0.000000000000000e+00
0.000000000000000e+00 0.000000000000000e+00 0.000000000000000e+00
0.000000000000000e+00 0.000000000000000e+00 0.000000000000000e+00
0.000000000000000e+00 0.000000000000000e+00 0.000000000000000e+00
0.000000000000000e+00 0.000000000000000e+00 0.000000000000000e+00
0.000000000000000e+00 0.000000000000000e+00 0.000000000000000e+00
0.000000000000000e+00 0.000000000000000e+00 0.000000000000000e+00
0.000000000000000e+00 0.000000000000000e+00 0.000000000000000e+00
0.000000000000000e+00 0.000000000000000e+00 0.000000000000000e+00
0.000000000000000e+00 0.000000000000000e+00 0.000000000000000e+00
0.000000000000000e+00 0.000000000000000e+00 0.000000000000000e+00
0.000000000000000e+00 0.000000000000000e+00 0.000000000000000e+00
0.000000000000000e+00 0.000000000000000e+00 0.000000000000000e+00
0.000000000000000e+00 0.000000000000000e+00 0.000000000000000e+00
0.000000000000000e+00 0.000000000000000e+00 0.000000000000000e+00
0.000000000000000e+00 0.000000000000000e+00 0.000000000000000e+00
0.000000000000000e+00 0.000000000000000e+00 0.000000000000000e+00
0.000000000000000e+00 0.000000000000000e+00 0.000000000000000e+00
0.000000000000000e+00 0.000000000000000e+00 0.000000000000000e+00
0.000000000000000e+00 0.000000000000000e+00 0.000000000000000e+00
0.000000000000000e+00 0.000000000000000e+00 0.000000000000000e+00
0.000000000000000e+00 0.000000000000000e+00 0.000000000000000e+00
0.000000000000000e+00 0.000000000000000e+00 0.000000000000000e+00
0.000000000000000e+00 0.000000000000000e+00 0.000000000000000e+00
0.000000000000000e+00 0.000000000000000e+00 0.000000000000000e+00
0.000000000000000e+00 0.000000000000000e+00 0.000000000000000e+00
0.000000000000000e+00 0.000000000000000e+00 0.000000000000000e+00
0.000000000000000e+00 0.000000000000000e+00 0.000000000000000e+00
0.000000000000000e+00 0.000000000000000e+00 0.000000000000000e+00
0.000000000000000e+00 0.000000000000000e+00 0.000000000000000e+00
0.000000000000000e+00 0.000000000000000e+00 0.000000000000000e+00
0.000000000000000e+00 0.000000000000000e+00 0.000000000000000e+00
0.000000000000000e+00 0.000000000000000e+00 0.000000000000000e+00
0.000000000000000e+00 0.000000000000000e+00 0.000000000000000e+00
0.000000000000000e+00 0.000000000000000e+00 0.000000000000000e+00
0.000000000000000e+00 0.000000000000000e+00 0.000000000000000e+00
0.000000000000000e+00 0.000000000000000e+00 0.000000000000000e+00
0.000000000000000e+00 0.000000000000000e+00 0.000000000000000e+00
0.000000000000000e+00 0.000000000000000e+00 0.000000000000000e+00
0.000000000000000e+00 0.000000000000000e+00 0.000000000000000e+00
0.000000000000000e+00 0.000000000000000e+00 0.000000000000000e+00
0.000000000000000e+00 0.000000000000000e+00 0.000000000000000e+00
0.000000000000000e+00 0.000000000000000e+00 0.000000000000000e+00
0.000000000000000e+00 0.000000000000000e+00 0.000000000000000e+00
0.000000000000000e+00 0.000000000000000e+00 0.000000000000000e+00
0.000000000000000e+00 0.000000000000000e+00 0.000000000000000e+00
0.000000000000000e+00 0.000000000000000e+00 0.000000000000000e+00
0.000000000000000e+00 0.000000000000000e+00 0.000000000000000e+00
0.000000000000000e+00 0.000000000000000e+00 0.000000000000000e+00
0.000000000000000e+00 0.000000000000000e+00 0.000000000000000e+00
0.000000000000000e+00 0.000000000000000e+00 0.000000000000000e+00
0.000000000000000e+00 0.000000000000000e+00 0.000000000000000e+00
0.000000000000000e+00 0.000000000000000e+00 0.000000000000000e+00
0.000000000000000e+00 0.000000000000000e+00 0.000000000000000e+00
0.000000000000000e+00 0.000000000000000e+00 0.000000000000000e+00
0.000000000000000e+00 0.000000000000000e+00 0.000000000000000e+00
0.000000000000000e+00 0.000000000000000e+00 0.000000000000000e+00
0.000000000000000e+00 0.000000000000000e+00 0.000000000000000e+00
0.000000000000000e+00 0.000000000000000e+00 0.000000000000000e+00
0.000000000000000e+00 0.000000000000000e+00 0.000000000000000e+00
0.000000000000000e+00 0.000000000000000e+00 0.000000000000000e+00
0.000000000000000e+00 0.000000000000000e+00 0.000000000000000e+00
0.000000000000000e+00 0.000000000000000e+00 0.000000000000000e+00
0.000000000000000e+00 0.000000000000000e+00 0.000000000000000e+00
0.000000000000000e+00 0.000000000000000e+00 0.000000000000000e+00
0.000000000000000e+00 0.000000000000000e+00 0.000000000000000e+00
0.000000000000000e+00 0.000000000000000e+00 0.000000000000000e+00
0.000000000000000e+00 0.000000000000000e+00 0.000000000000000e+00
0.000000000000000e+00 0.000000000000000e+00 0.000000000000000e+00
0.000000000000000e+00 0.000000000000000e+00 0.000000000000000e+00
0.000000000000000e+00 0.000000000000000e+00 0.000000000000000e+00
0.000000000000000e+00 0.000000000000000e+00 0.000000000000000e+00
0.000000000000000e+00 0.000000000000000e+00 0.000000000000000e+00
0.000000000000000e+00 0.000000000000000e+00 0.000000000000000e+00
0.000000000000000e+00 0.000000000000000e+00 0.000000000000000e+00
0.000000000000000e+00 0.000000000000000e+00 0.000000000000000e+00
0.000000000000000e+00 0.000000000000000e+00 0.000000000000000e+00
0.000000000000000e+00 0.000000000000000e+00 0.000000000000000e+00
0.000000000000000e+00 0.000000000000000e+00 0.000000000000000e+00
0.000000000000000e+00 0.000000000000000e+00 0.000000000000000e+00
0.000000000000000e+00 0.000000000000000e+00 0.000000000000000e+00
0.000000000000000e+00 0.000000000000000e+00 0.000000000000000e+00
0.000000000000000e+00 0.000000000000000e+00 0.000000000000000e+00
0.000000000000000e+00 0.000000000000000e+00 0.000000000000000e+00
0.000000000000000e+00 0.000000000000000e+00 0.000000000000000e+00
0.000000000000000e+00 0.000000000000000e+00 0.000000000000000e+00
0.000000000000000e+00 0.000000000000000e+00 0.000000000000000e+00
0.000000000000000e+00 0.000000000000000e+00 0.000000000000000e+00
0.000000000000000e+00 0.000000000000000e+00 0.000000000000000e+00
0.000000000000000e+00 0.000000000000000e+00 0.000000000000000e+00
0.000000000000000e+00 0.000000000000000e+00 0.000000000000000e+00
0.000000000000000e+00 0.000000000000000e+00 0.000000000000000e+00
0.000000000000000e+00 0.000000000000000e+00 0.000000000000000e+00
0.000000000000000e+00 0.000000000000000e+00 0.000000000000000e+00
0.000000000000000e+00 0.000000000000000e+00 0.000000000000000e+00
0.000000000000000e+00 0.000000000000000e+00 0.000000000000000e+00
0.000000000000000e+00 0.000000000000000e+00 0.000000000000000e+00
0.000000000000000e+00 0.000000000000000e+00 0.000000000000000e+00
0.000000000000000e+00 0.000000000000000e+00 0.000000000000000e+00
0.000000000000000e+00 0.000000000000000e+00 0.000000000000000e+00
0.000000000000000e+00 0.000000000000000e+00 0.000000000000000e+00
0.000000000000000e+00 0.000000000000000e+00 0.000000000000000e+00
0.000000000000000e+00 0.000000000000000e+00 0.000000000000000e+00
0.000000000000000e+00 0.000000000000000e+00 0.000000000000000e+00
0.000000000000000e+00 0.000000000000000e+00 0.000000000000000e+00
0.000000000000000e+00 0.000000000000000e+00 0.000000000000000e+00
0.000000000000000e+00 0.000000000000000e+00 0.000000000000000e+00
0.000000000000000e+00 0.000000000000000e+00 0.000000000000000e+00
0.000000000000000e+00 0.000000000000000e+00 0.000000000000000e+00
0.000000000000000e+00 0.000000000000000e+00 0.000000000000000e+00
0.000000000000000e+00 0.000000000000000e+00 0.000000000000000e+00
0.000000000000000e+00 0.000000000000000e+00 0.000000000000000e+00
0.000000000000000e+00 0.000000000000000e+00 0.000000000000000e+00
0.000000000000000e+00 0.000000000000000e+00 0.000000000000000e+00
0.000000000000000e+00 0.000000000000000e+00 0.000000000000000e+00
0.000000000000000e+00 0.000000000000000e+00 0.000000000000000e+00
0.000000000000000e+00 0.000000000000000e+00 0.000000000000000e+00
0.000000000000000e+00 0.000000000000000e+00 0.000000000000000e+00
0.000000000000000e+00 0.000000000000000e+00 0.000000000000000e+00
0.000000000000000e+00 0.000000000000000e+00 0.000000000000000e+00
0.000000000000000e+00 0.000000000000000e+00 0.000000000000000e+00
0.000000000000000e+00 0.000000000000000e+00 0.000000000000000e+00
0.000000000000000e+00 0.000000000000000e+00 0.000000000000000e+00
0.000000000000000e+00 0.000000000000000e+00 0.000000000000000e+00
0.000000000000000e+00 0.000000000000000e+00 0.000000000000000e+00
0.000000000000000e+00 0.000000000000000e+00 0.000000000000000e+00
0.000000000000000e+00 0.000000000000000e+00 0.000000000000000e+00
0.000000000000000e+00 0.000000000000000e+00 0.000000000000000e+00
0.000000000000000e+00 0.000000000000000e+00 0.000000000000000e+00
0.000000000000000e+00 0.000000000000000e+00 0.000000000000000e+00
0.000000000000000e+00 0.000000000000000e+00 0.000000000000000e+00
0.000000000000000e+00 0.000000000000000e+00 0.000000000000000e+00
0.000000000000000e+00 0.000000000000000e+00 0.000000000000000e+00
0.000000000000000e+00 0.000000000000000e+00 0.000000000000000e+00
0.000000000000000e+00 0.000000000000000e+00 0.000000000000000e+00
0.000000000000000e+00 0.000000000000000e+00 0.000000000000000e+00
0.000000000000000e+00 0.000000000000000e+00 0.000000000000000e+00
0.000000000000000e+00 0.000000000000000e+00 0.000000000000000e+00
0.000000000000000e+00 0.000000000000000e+00 0.000000000000000e+00
0.000000000000000e+00 0.000000000000000e+00 0.000000000000000e+00
0.000000000000000e+00 0.000000000000000e+00 0.000000000000000e+00
0.000000000000000e+00 0.000000000000000e+00 0.000000000000000e+00
0.000000000000000e+00 0.000000000000000e+00 0.000000000000000e+00
0.000000000000000e+00 0.000000000000000e+00 0.000000000000000e+00
0.000000000000000e+00 0.000000000000000e+00 0.000000000000000e+00
0.000000000000000e+00 0.000000000000000e+00 0.000000000000000e+00
0.000000000000000e+00 0.000000000000000e+00 0.000000000000000e+00
0.000000000000000e+00 0.000000000000000e+00 0.000000000000000e+00
0.000000000000000e+00 0.000000000000000e+00 0.000000000000000e+00
0.000000000000000e+00 0.000000000000000e+00 0.000000000000000e+00
0.000000000000000e+00 0.000000000000000e+00 0.000000000000000e+00
0.000000000000000e+00 0.000000000000000e+00 0.000000000000000e+00
0.000000000000000e+00 0.000000000000000e+00 0.000000000000000e+00
0.000000000000000e+00 0.000000000000000e+00 0.000000000000000e+00
0.000000000000000e+00 0.000000000000000e+00 0.000000000000000e+00
0.000000000000000e+00 0.000000000000000e+00 0.000000000000000e+00
0.000000000000000e+00 0.000000000000000e+00 0.000000000000000e+00
0.000000000000000e+00 0.000000000000000e+00 0.000000000000000e+00
0.000000000000000e+00 0.000000000000000e+00 0.000000000000000e+00
0.000000000000000e+00 0.000000000000000e+00 0.000000000000000e+00
0.000000000000000e+00 0.000000000000000e+00 0.000000000000000e+00
0.000000000000000e+00 0.000000000000000e+00 0.000000000000000e+00
0.000000000000000e+00 0.000000000000000e+00 0.000000000000000e+00
0.000000000000000e+00 0.000000000000000e+00 0.000000000000000e+00
0.000000000000000e+00 0.000000000000000e+00 0.000000000000000e+00
0.000000000000000e+00 0.000000000000000e+00 0.000000000000000e+00
0.000000000000000e+00 0.000000000000000e+00 0.000000000000000e+00
0.000000000000000e+00 0.000000000000000e+00 0.000000000000000e+00
0.000000000000000e+00 0.000000000000000e+00 0.000000000000000e+00
0.000000000000000e+00 0.000000000000000e+00 0.000000000000000e+00
0.000000000000000e+00 0.000000000000000e+00 0.000000000000000e+00
0.000000000000000e+00 0.000000000000000e+00 0.000000000000000e+00
0.000000000000000e+00 0.000000000000000e+00 0.000000000000000e+00
0.000000000000000e+00 0.000000000000000e+00 0.000000000000000e+00
0.000000000000000e+00 0.000000000000000e+00 0.000000000000000e+00
0.000000000000000e+00 0.000000000000000e+00 0.000000000000000e+00
0.000000000000000e+00 0.000000000000000e+00 0.000000000000000e+00
0.000000000000000e+00 0.000000000000000e+00 0.000000000000000e+00
0.000000000000000e+00 0.000000000000000e+00 0.000000000000000e+00
0.000000000000000e+00 0.000000000000000e+00 0.000000000000000e+00
0.000000000000000e+00 0.000000000000000e+00 0.000000000000000e+00
0.000000000000000e+00 0.000000000000000e+00 0.000000000000000e+00
0.000000000000000e+00 0.000000000000000e+00 0.000000000000000e+00
0.000000000000000e+00 0.000000000000000e+00 0.000000000000000e+00
0.000000000000000e+00 0.000000000000000e+00 0.000000000000000e+00
0.000000000000000e+00 0.000000000000000e+00 0.000000000000000e+00
0.000000000000000e+00 0.000000000000000e+00 0.000000000000000e+00
0.000000000000000e+00 0.000000000000000e+00 0.000000000000000e+00
0.000000000000000e+00 0.000000000000000e+00 0.000000000000000e+00
0.000000000000000e+00 0.000000000000000e+00 0.000000000000000e+00
0.000000000000000e+00 0.000000000000000e+00 0.000000000000000e+00
0.000000000000000e+00 0.000000000000000e+00 0.000000000000000e+00
0.000000000000000e+00 0.000000000000000e+00 0.000000000000000e+00
0.000000000000000e+00 0.000000000000000e+00 0.000000000000000e+00
0.000000000000000e+00 0.000000000000000e+00 0.000000000000000e+00
0.000000000000000e+00 0.000000000000000e+00 0.000000000000000e+00
0.000000000000000e+00 0.000000000000000e+00 0.000000000000000e+00
0.000000000000000e+00 0.000000000000000e+00 0.000000000000000e+00
0.000000000000000e+00 0.000000000000000e+00 0.000000000000000e+00
0.000000000000000e+00 0.000000000000000e+00 0.000000000000000e+00
0.000000000000000e+00 0.000000000000000e+00 0.000000000000000e+00
0.000000000000000e+00 0.000000000000000e+00 0.000000000000000e+00
0.000000000000000e+00 0.000000000000000e+00 0.000000000000000e+00
0.000000000000000e+00 0.000000000000000e+00 0.000000000000000e+00
0.000000000000000e+00 0.000000000000000e+00 0.000000000000000e+00
0.000000000000000e+00 0.000000000000000e+00 0.000000000000000e+00
0.000000000000000e+00 0.000000000000000e+00 0.000000000000000e+00
0.000000000000000e+00 0.000000000000000e+00 0.000000000000000e+00
0.000000000000000e+00 0.000000000000000e+00 0.000000000000000e+00
0.000000000000000e+00 0.000000000000000e+00 0.000000000000000e+00
0.000000000000000e+00 0.000000000000000e+00 0.000000000000000e+00
0.000000000000000e+00 0.000000000000000e+00 0.000000000000000e+00
0.000000000000000e+00 0.000000000000000e+00 0.000000000000000e+00
0.000000000000000e+00 0.000000000000000e+00 0.000000000000000e+00
0.000000000000000e+00 0.000000000000000e+00 0.000000000000000e+00
0.000000000000000e+00 0.000000000000000e+00 0.000000000000000e+00
0.000000000000000e+00 0.000000000000000e+00 0.000000000000000e+00
0.000000000000000e+00 0.000000000000000e+00 0.000000000000000e+00
0.000000000000000e+00 0.000000000000000e+00 0.000000000000000e+00
0.000000000000000e+00 0.000000000000000e+00 0.000000000000000e+00
0.000000000000000e+00 0.000000000000000e+00 0.000000000000000e+00
0.000000000000000e+00 0.000000000000000e+00 0.000000000000000e+00
0.000000000000000e+00 0.000000000000000e+00 0.000000000000000e+00
0.000000000000000e+00 0.000000000000000e+00 0.000000000000000e+00
0.000000000000000e+00 0.000000000000000e+00 0.000000000000000e+00
0.000000000000000e+00 0.000000000000000e+00 0.000000000000000e+00
0.000000000000000e+00 0.000000000000000e+00 0.000000000000000e+00
0.000000000000000e+00 0.000000000000000e+00 0.000000000000000e+00
0.000000000000000e+00 0.000000000000000e+00 0.000000000000000e+00
0.000000000000000e+00 0.000000000000000e+00 0.000000000000000e+00
0.000000000000000e+00 0.000000000000000e+00 0.000000000000000e+00
0.000000000000000e+00 0.000000000000000e+00 0.000000000000000e+00
0.000000000000000e+00 0.000000000000000e+00 0.000000000000000e+00
0.000000000000000e+00 0.000000000000000e+00 0.000000000000000e+00
0.000000000000000e+00 0.000000000000000e+00 0.000000000000000e+00
0.000000000000000e+00 0.000000000000000e+00 0.000000000000000e+00
0.000000000000000e+00 0.000000000000000e+00 0.000000000000000e+00
0.000000000000000e+00 0.000000000000000e+00 0.000000000000000e+00
0.000000000000000e+00 0.000000000000000e+00 0.000000000000000e+00
0.000000000000000e+00 0.000000000000000e+00 0.000000000000000e+00
0.000000000000000e+00 0.000000000000000e+00 0.000000000000000e+00
0.000000000000000e+00 0.000000000000000e+00 0.000000000000000e+00
0.000000000000000e+00 0.000000000000000e+00 0.000000000000000e+00
0.000000000000000e+00 0.000000000000000e+00 0.000000000000000e+00
0.000000000000000e+00 0.000000000000000e+00 0.000000000000000e+00
0.000000000000000e+00 0.000000000000000e+00 0.000000000000000e+00
0.000000000000000e+00 0.000000000000000e+00 0.000000000000000e+00
0.000000000000000e+00 0.000000000000000e+00 0.000000000000000e+00
0.000000000000000e+00 0.000000000000000e+00 0.000000000000000e+00
0.000000000000000e+00 0.000000000000000e+00 0.000000000000000e+00
0.000000000000000e+00 0.000000000000000e+00 0.000000000000000e+00
0.000000000000000e+00 0.000000000000000e+00 0.000000000000000e+00
0.000000000000000e+00 0.000000000000000e+00 0.000000000000000e+00
0.000000000000000e+00 0.000000000000000e+00 0.000000000000000e+00
0.000000000000000e+00 0.000000000000000e+00 0.000000000000000e+00
0.000000000000000e+00 0.000000000000000e+00 0.000000000000000e+00
0.000000000000000e+00 0.000000000000000e+00 0.000000000000000e+00
0.000000000000000e+00 0.000000000000000e+00 0.000000000000000e+00
0.000000000000000e+00 0.000000000000000e+00 0.000000000000000e+00
0.000000000000000e+00 0.000000000000000e+00 0.000000000000000e+00
0.000000000000000e+00 0.000000000000000e+00 0.000000000000000e+00
0.000000000000000e+00 0.000000000000000e+00 0.000000000000000e+00
0.000000000000000e+00 0.000000000000000e+00 0.000000000000000e+00
0.000000000000000e+00 0.000000000000000e+00 0.000000000000000e+00
0.000000000000000e+00 0.000000000000000e+00 0.000000000000000e+00
0.000000000000000e+00 0.000000000000000e+00 0.000000000000000e+00
0.000000000000000e+00 0.000000000000000e+00 0.000000000000000e+00
0.000000000000000e+00 0.000000000000000e+00 0.000000000000000e+00
0.000000000000000e+00 0.000000000000000e+00 0.000000000000000e+00
0.000000000000000e+00 0.000000000000000e+00 0.000000000000000e+00
0.000000000000000e+00 0.000000000000000e+00 0.000000000000000e+00
0.000000000000000e+00 0.000000000000000e+00 0.000000000000000e+00
0.000000000000000e+00 0.000000000000000e+00 0.000000000000000e+00
0.000000000000000e+00 0.000000000000000e+00 0.000000000000000e+00
0.000000000000000e+00 0.000000000000000e+00 0.000000000000000e+00
0.000000000000000e+00 0.000000000000000e+00 0.000000000000000e+00
0.000000000000000e+00 0.000000000000000e+00 0.000000000000000e+00
0.000000000000000e+00 0.000000000000000e+00 0.000000000000000e+00
0.000000000000000e+00 0.000000000000000e+00 0.000000000000000e+00
0.000000000000000e+00 0.000000000000000e+00 0.000000000000000e+00
0.000000000000000e+00 0.000000000000000e+00 0.000000000000000e+00
0.000000000000000e+00 0.000000000000000e+00 0.000000000000000e+00
0.000000000000000e+00 0.000000000000000e+00 0.000000000000000e+00
0.000000000000000e+00 0.000000000000000e+00 0.000000000000000e+00
0.000000000000000e+00 0.000000000000000e+00 0.000000000000000e+00
0.000000000000000e+00 0.000000000000000e+00 0.000000000000000e+00
0.000000000000000e+00 0.000000000000000e+00 0.000000000000000e+00
0.000000000000000e+00 0.000000000000000e+00 0.000000000000000e+00
0.000000000000000e+00 0.000000000000000e+00 0.000000000000000e+00
0.000000000000000e+00 0.000000000000000e+00 0.000000000000000e+00
0.000000000000000e+00 0.000000000000000e+00 0.000000000000000e+00
0.000000000000000e+00 0.000000000000000e+00 0.000000000000000e+00
0.000000000000000e+00 0.000000000000000e+00 0.000000000000000e+00
0.000000000000000e+00 0.000000000000000e+00 0.000000000000000e+00
0.000000000000000e+00 0.000000000000000e+00 0.000000000000000e+00
0.000000000000000e+00 0.000000000000000e+00 0.000000000000000e+00
0.000000000000000e+00 0.000000000000000e+00 0.000000000000000e+00
0.000000000000000e+00 0.000000000000000e+00 0.000000000000000e+00
0.000000000000000e+00 0.000000000000000e+00 0.000000000000000e+00
0.000000000000000e+00 0.000000000000000e+00 0.000000000000000e+00
0.000000000000000e+00 0.000000000000000e+00 0.000000000000000e+00
0.000000000000000e+00 0.000000000000000e+00 0.000000000000000e+00
0.000000000000000e+00 0.000000000000000e+00 0.000000000000000e+00
0.000000000000000e+00 0.000000000000000e+00 0.000000000000000e+00
0.000000000000000e+00 0.000000000000000e+00 0.000000000000000e+00
0.000000000000000e+00 0.000000000000000e+00 0.000000000000000e+00
0.000000000000000e+00 0.000000000000000e+00 0.000000000000000e+00
0.000000000000000e+00 0.000000000000000e+00 0.000000000000000e+00
0.000000000000000e+00 0.000000000000000e+00 0.000000000000000e+00
0.000000000000000e+00 0.000000000000000e+00 0.000000000000000e+00
0.000000000000000e+00 0.000000000000000e+00 0.000000000000000e+00
0.000000000000000e+00 0.000000000000000e+00 0.000000000000000e+00
0.000000000000000e+00 0.000000000000000e+00 0.000000000000000e+00
0.000000000000000e+00 0.000000000000000e+00 0.000000000000000e+00
0.000000000000000e+00 0.000000000000000e+00 0.000000000000000e+00
0.000000000000000e+00 0.000000000000000e+00 0.000000000000000e+00
0.000000000000000e+00 0.000000000000000e+00 0.000000000000000e+00
0.000000000000000e+00 0.000000000000000e+00 0.000000000000000e+00
0.000000000000000e+00 0.000000000000000e+00 0.000000000000000e+00
0.000000000000000e+00 0.000000000000000e+00 0.000000000000000e+00
0.000000000000000e+00 0.000000000000000e+00 0.000000000000000e+00
0.000000000000000e+00 0.000000000000000e+00 0.000000000000000e+00
0.000000000000000e+00 0.000000000000000e+00 0.000000000000000e+00
0.000000000000000e+00 0.000000000000000e+00 0.000000000000000e+00
0.000000000000000e+00 0.000000000000000e+00 0.000000000000000e+00
0.000000000000000e+00 0.000000000000000e+00 0.000000000000000e+00
0.000000000000000e+00 0.000000000000000e+00 0.000000000000000e+00
0.000000000000000e+00 0.000000000000000e+00 0.000000000000000e+00
0.000000000000000e+00 0.000000000000000e+00 0.000000000000000e+00
0.000000000000000e+00 0.000000000000000e+00 0.000000000000000e+00
0.000000000000000e+00 0.000000000000000e+00 0.000000000000000e+00
0.000000000000000e+00 0.000000000000000e+00 0.000000000000000e+00
0.000000000000000e+00 0.000000000000000e+00 0.000000000000000e+00
0.000000000000000e+00 0.000000000000000e+00 0.000000000000000e+00
0.000000000000000e+00 0.000000000000000e+00 0.000000000000000e+00
0.000000000000000e+00 0.000000000000000e+00 0.000000000000000e+00
0.000000000000000e+00 0.000000000000000e+00 0.000000000000000e+00
0.000000000000000e+00 0.000000000000000e+00 0.000000000000000e+00
0.000000000000000e+00 0.000000000000000e+00 0.000000000000000e+00
0.000000000000000e+00 0.000000000000000e+00 0.000000000000000e+00
0.000000000000000e+00 0.000000000000000e+00 0.000000000000000e+00
0.000000000000000e+00 0.000000000000000e+00 0.000000000000000e+00
0.000000000000000e+00 0.000000000000000e+00 0.000000000000000e+00
0.000000000000000e+00 0.000000000000000e+00 0.000000000000000e+00
0.000000000000000e+00 0.000000000000000e+00 0.000000000000000e+00
0.000000000000000e+00 0.000000000000000e+00 0.000000000000000e+00
0.000000000000000e+00 0.000000000000000e+00 0.000000000000000e+00
0.000000000000000e+00 0.000000000000000e+00 0.000000000000000e+00
0.000000000000000e+00 0.000000000000000e+00 0.000000000000000e+00
0.000000000000000e+00 0.000000000000000e+00 0.000000000000000e+00
0.000000000000000e+00 0.000000000000000e+00 0.000000000000000e+00
0.000000000000000e+00 0.000000000000000e+00 0.000000000000000e+00
0.000000000000000e+00 0.000000000000000e+00 0.000000000000000e+00
0.000000000000000e+00 0.000000000000000e+00 0.000000000000000e+00
0.000000000000000e+00 0.000000000000000e+00 0.000000000000000e+00
0.000000000000000e+00 0.000000000000000e+00 0.000000000000000e+00
0.000000000000000e+00 0.000000000000000e+00 0.000000000000000e+00
0.000000000000000e+00 0.000000000000000e+00 0.000000000000000e+00
0.000000000000000e+00 0.000000000000000e+00 0.000000000000000e+00
0.000000000000000e+00 0.000000000000000e+00 0.000000000000000e+00
0.000000000000000e+00 0.000000000000000e+00 0.000000000000000e+00
0.000000000000000e+00 0.000000000000000e+00 0.000000000000000e+00
0.000000000000000e+00 0.000000000000000e+00 0.000000000000000e+00
0.000000000000000e+00 0.000000000000000e+00 0.000000000000000e+00
0.000000000000000e+00 0.000000000000000e+00 0.000000000000000e+00
0.000000000000000e+00 0.000000000000000e+00 0.000000000000000e+00
0.000000000000000e+00 0.000000000000000e+00 0.000000000000000e+00
0.000000000000000e+00 0.000000000000000e+00 0.000000000000000e+00
0.000000000000000e+00 0.000000000000000e+00 0.000000000000000e+00
0.000000000000000e+00 0.000000000000000e+00 0.000000000000000e+00
0.000000000000000e+00 0.000000000000000e+00 0.000000000000000e+00
0.000000000000000e+00 0.000000000000000e+00 0.000000000000000e+00
0.000000000000000e+00 0.000000000000000e+00 0.000000000000000e+00
0.000000000000000e+00 0.000000000000000e+00 0.000000000000000e+00
0.000000000000000e+00 0.000000000000000e+00 0.000000000000000e+00
0.000000000000000e+00 0.000000000000000e+00 0.000000000000000e+00
0.000000000000000e+00 0.000000000000000e+00 0.000000000000000e+00
0.000000000000000e+00 0.000000000000000e+00 0.000000000000000e+00
0.000000000000000e+00 0.000000000000000e+00 0.000000000000000e+00
0.000000000000000e+00 0.000000000000000e+00 0.000000000000000e+00
0.000000000000000e+00 0.000000000000000e+00 0.000000000000000e+00
0.000000000000000e+00 0.000000000000000e+00 0.000000000000000e+00
0.000000000000000e+00 0.000000000000000e+00 0.000000000000000e+00
0.000000000000000e+00 0.000000000000000e+00 0.000000000000000e+00
0.000000000000000e+00 0.000000000000000e+00 0.000000000000000e+00
0.000000000000000e+00 0.000000000000000e+00 0.000000000000000e+00
0.000000000000000e+00 0.000000000000000e+00 0.000000000000000e+00
0.000000000000000e+00 0.000000000000000e+00 0.000000000000000e+00
0.000000000000000e+00 0.000000000000000e+00 0.000000000000000e+00
0.000000000000000e+00 0.000000000000000e+00 0.000000000000000e+00
0.000000000000000e+00 0.000000000000000e+00 0.000000000000000e+00
0.000000000000000e+00 0.000000000000000e+00 0.000000000000000e+00
0.000000000000000e+00 0.000000000000000e+00 0.000000000000000e+00
0.000000000000000e+00 0.000000000000000e+00 0.000000000000000e+00
0.000000000000000e+00 0.000000000000000e+00 0.000000000000000e+00
0.000000000000000e+00 0.000000000000000e+00 0.000000000000000e+00
0.000000000000000e+00 0.000000000000000e+00 0.000000000000000e+00
0.000000000000000e+00 0.000000000000000e+00 0.000000000000000e+00
0.000000000000000e+00 0.000000000000000e+00 0.000000000000000e+00
0.000000000000000e+00 0.000000000000000e+00 0.000000000000000e+00
0.000000000000000e+00 0.000000000000000e+00 0.000000000000000e+00
0.000000000000000e+00 0.000000000000000e+00 0.000000000000000e+00
0.000000000000000e+00 0.000000000000000e+00 0.000000000000000e+00
0.000000000000000e+00 0.000000000000000e+00 0.000000000000000e+00
0.000000000000000e+00 0.000000000000000e+00 0.000000000000000e+00
0.000000000000000e+00 0.000000000000000e+00 0.000000000000000e+00
0.000000000000000e+00 0.000000000000000e+00 0.000000000000000e+00
0.000000000000000e+00 0.000000000000000e+00 0.000000000000000e+00
0.000000000000000e+00 0.000000000000000e+00 0.000000000000000e+00
0.000000000000000e+00 0.000000000000000e+00 0.000000000000000e+00
0.000000000000000e+00 0.000000000000000e+00 0.000000000000000e+00
0.000000000000000e+00 0.000000000000000e+00 0.000000000000000e+00
0.000000000000000e+00 0.000000000000000e+00 0.000000000000000e+00
0.000000000000000e+00 0.000000000000000e+00 0.000000000000000e+00
0.000000000000000e+00 0.000000000000000e+00 0.000000000000000e+00
0.000000000000000e+00 0.000000000000000e+00 0.000000000000000e+00
0.000000000000000e+00 0.000000000000000e+00 0.000000000000000e+00
0.000000000000000e+00 0.000000000000000e+00 0.000000000000000e+00
0.000000000000000e+00 0.000000000000000e+00 0.000000000000000e+00
0.000000000000000e+00 0.000000000000000e+00 0.000000000000000e+00
0.000000000000000e+00 0.000000000000000e+00 0.000000000000000e+00
0.000000000000000e+00 0.000000000000000e+00 0.000000000000000e+00
0.000000000000000e+00 0.000000000000000e+00 0.000000000000000e+00
0.000000000000000e+00 0.000000000000000e+00 0.000000000000000e+00
0.000000000000000e+00 0.000000000000000e+00 0.000000000000000e+00
0.000000000000000e+00 0.000000000000000e+00 0.000000000000000e+00
0.000000000000000e+00 0.000000000000000e+00 0.000000000000000e+00
0.000000000000000e+00 0.000000000000000e+00 0.000000000000000e+00
0.000000000000000e+00 0.000000000000000e+00 0.000000000000000e+00
0.000000000000000e+00 0.000000000000000e+00 0.000000000000000e+00
0.000000000000000e+00 0.000000000000000e+00 0.000000000000000e+00
0.000000000000000e+00 0.000000000000000e+00 0.000000000000000e+00
0.000000000000000e+00 0.000000000000000e+00 0.000000000000000e+00
0.000000000000000e+00 0.000000000000000e+00 0.000000000000000e+00
0.000000000000000e+00 0.000000000000000e+00 0.000000000000000e+00
0.000000000000000e+00 0.000000000000000e+00 0.000000000000000e+00
0.000000000000000e+00 0.000000000000000e+00 0.000000000000000e+00
0.000000000000000e+00 0.000000000000000e+00 0.000000000000000e+00
0.000000000000000e+00 0.000000000000000e+00 0.000000000000000e+00
0.000000000000000e+00 0.000000000000000e+00 0.000000000000000e+00
0.000000000000000e+00 0.000000000000000e+00 0.000000000000000e+00
0.000000000000000e+00 0.000000000000000e+00 0.000000000000000e+00
0.000000000000000e+00 0.000000000000000e+00 0.000000000000000e+00
0.000000000000000e+00 0.000000000000000e+00 0.000000000000000e+00
0.000000000000000e+00 0.000000000000000e+00 0.000000000000000e+00
0.000000000000000e+00 0.000000000000000e+00 0.000000000000000e+00
0.000000000000000e+00 0.000000000000000e+00 0.000000000000000e+00
0.000000000000000e+00 0.000000000000000e+00 0.000000000000000e+00
0.000000000000000e+00 0.000000000000000e+00 0.000000000000000e+00
0.000000000000000e+00 0.000000000000000e+00 0.000000000000000e+00
0.000000000000000e+00 0.000000000000000e+00 0.000000000000000e+00
0.000000000000000e+00 0.000000000000000e+00 0.000000000000000e+00
0.000000000000000e+00 0.000000000000000e+00 0.000000000000000e+00
0.000000000000000e+00 0.000000000000000e+00 0.000000000000000e+00
0.000000000000000e+00 0.000000000000000e+00 0.000000000000000e+00
0.000000000000000e+00 0.000000000000000e+00 0.000000000000000e+00
0.000000000000000e+00 0.000000000000000e+00 0.000000000000000e+00
0.000000000000000e+00 0.000000000000000e+00 0.000000000000000e+00
0.000000000000000e+00 0.000000000000000e+00 0.000000000000000e+00
0.000000000000000e+00 0.000000000000000e+00 0.000000000000000e+00
0.000000000000000e+00 0.000000000000000e+00 0.000000000000000e+00
0.000000000000000e+00 0.000000000000000e+00 0.000000000000000e+00
0.000000000000000e+00 0.000000000000000e+00 0.000000000000000e+00
0.000000000000000e+00 0.000000000000000e+00 0.000000000000000e+00
0.000000000000000e+00 0.000000000000000e+00 0.000000000000000e+00
0.000000000000000e+00 0.000000000000000e+00 0.000000000000000e+00
0.000000000000000e+00 0.000000000000000e+00 0.000000000000000e+00
0.000000000000000e+00 0.000000000000000e+00 0.000000000000000e+00
0.000000000000000e+00 0.000000000000000e+00 0.000000000000000e+00
0.000000000000000e+00 0.000000000000000e+00 0.000000000000000e+00
0.000000000000000e+00 0.000000000000000e+00 0.000000000000000e+00
0.000000000000000e+00 0.000000000000000e+00 0.000000000000000e+00
0.000000000000000e+00 0.000000000000000e+00 0.000000000000000e+00
0.000000000000000e+00 0.000000000000000e+00 0.000000000000000e+00
0.000000000000000e+00 0.000000000000000e+00 0.000000000000000e+00
0.000000000000000e+00 0.000000000000000e+00 0.000000000000000e+00
0.000000000000000e+00 0.000000000000000e+00 0.000000000000000e+00
0.000000000000000e+00 0.000000000000000e+00 0.000000000000000e+00
0.000000000000000e+00 0.000000000000000e+00 0.000000000000000e+00
0.000000000000000e+00 0.000000000000000e+00 0.000000000000000e+00
0.000000000000000e+00 0.000000000000000e+00 0.000000000000000e+00
0.000000000000000e+00 0.000000000000000e+00 0.000000000000000e+00
0.000000000000000e+00 0.000000000000000e+00 0.000000000000000e+00
0.000000000000000e+00 0.000000000000000e+00 0.000000000000000e+00
0.000000000000000e+00 0.000000000000000e+00 0.000000000000000e+00
0.000000000000000e+00 0.000000000000000e+00 0.000000000000000e+00
0.000000000000000e+00 0.000000000000000e+00 0.000000000000000e+00
0.000000000000000e+00 0.000000000000000e+00 0.000000000000000e+00
0.000000000000000e+00 0.000000000000000e+00 0.000000000000000e+00
0.000000000000000e+00 0.000000000000000e+00 0.000000000000000e+00
0.000000000000000e+00 0.000000000000000e+00 0.000000000000000e+00
0.000000000000000e+00 0.000000000000000e+00 0.000000000000000e+00
0.000000000000000e+00 0.000000000000000e+00 0.000000000000000e+00
0.000000000000000e+00 0.000000000000000e+00 0.000000000000000e+00
0.000000000000000e+00 0.000000000000000e+00 0.000000000000000e+00
0.000000000000000e+00 0.000000000000000e+00 0.000000000000000e+00
0.000000000000000e+00 0.000000000000000e+00 0.000000000000000e+00
0.000000000000000e+00 0.000000000000000e+00 0.000000000000000e+00
0.000000000000000e+00 0.000000000000000e+00 0.000000000000000e+00
0.000000000000000e+00 0.000000000000000e+00 0.000000000000000e+00
0.000000000000000e+00 0.000000000000000e+00 0.000000000000000e+00
0.000000000000000e+00 0.000000000000000e+00 0.000000000000000e+00
0.000000000000000e+00 0.000000000000000e+00 0.000000000000000e+00
0.000000000000000e+00 0.000000000000000e+00 0.000000000000000e+00
0.000000000000000e+00 0.000000000000000e+00 0.000000000000000e+00
0.000000000000000e+00 0.000000000000000e+00 0.000000000000000e+00
0.000000000000000e+00 0.000000000000000e+00 0.000000000000000e+00
0.000000000000000e+00 0.000000000000000e+00 0.000000000000000e+00
0.000000000000000e+00 0.000000000000000e+00 0.000000000000000e+00
0.000000000000000e+00 0.000000000000000e+00 0.000000000000000e+00
0.000000000000000e+00 0.000000000000000e+00 0.000000000000000e+00
0.000000000000000e+00 0.000000000000000e+00 0.000000000000000e+00
0.000000000000000e+00 0.000000000000000e+00 0.000000000000000e+00
0.000000000000000e+00 0.000000000000000e+00 0.000000000000000e+00
0.000000000000000e+00 0.000000000000000e+00 0.000000000000000e+00
0.000000000000000e+00 0.000000000000000e+00 0.000000000000000e+00
0.000000000000000e+00 0.000000000000000e+00 0.000000000000000e+00
0.000000000000000e+00 0.000000000000000e+00 0.000000000000000e+00
0.000000000000000e+00 0.000000000000000e+00 0.000000000000000e+00
0.000000000000000e+00 0.000000000000000e+00 0.000000000000000e+00
0.000000000000000e+00 0.000000000000000e+00 0.000000000000000e+00
0.000000000000000e+00 0.000000000000000e+00 0.000000000000000e+00
0.000000000000000e+00 0.000000000000000e+00 0.000000000000000e+00
0.000000000000000e+00 0.000000000000000e+00 0.000000000000000e+00
0.000000000000000e+00 0.000000000000000e+00 0.000000000000000e+00
0.000000000000000e+00 0.000000000000000e+00 0.000000000000000e+00
0.000000000000000e+00 0.000000000000000e+00 0.000000000000000e+00
0.000000000000000e+00 0.000000000000000e+00 0.000000000000000e+00
0.000000000000000e+00 0.000000000000000e+00 0.000000000000000e+00
0.000000000000000e+00 0.000000000000000e+00 0.000000000000000e+00
0.000000000000000e+00 0.000000000000000e+00 0.000000000000000e+00
0.000000000000000e+00 0.000000000000000e+00 0.000000000000000e+00
0.000000000000000e+00 0.000000000000000e+00 0.000000000000000e+00
0.000000000000000e+00 0.000000000000000e+00 0.000000000000000e+00
0.000000000000000e+00 0.000000000000000e+00 0.000000000000000e+00
0.000000000000000e+00 0.000000000000000e+00 0.000000000000000e+00
0.000000000000000e+00 0.000000000000000e+00 0.000000000000000e+00
0.000000000000000e+00 0.000000000000000e+00 0.000000000000000e+00
0.000000000000000e+00 0.000000000000000e+00 0.000000000000000e+00
0.000000000000000e+00 0.000000000000000e+00 0.000000000000000e+00
0.000000000000000e+00 0.000000000000000e+00 0.000000000000000e+00
0.000000000000000e+00 0.000000000000000e+00 0.000000000000000e+00
0.000000000000000e+00 0.000000000000000e+00 0.000000000000000e+00
0.000000000000000e+00 0.000000000000000e+00 0.000000000000000e+00
0.000000000000000e+00 0.000000000000000e+00 0.000000000000000e+00
0.000000000000000e+00 0.000000000000000e+00 0.000000000000000e+00
0.000000000000000e+00 0.000000000000000e+00 0.000000000000000e+00
0.000000000000000e+00 0.000000000000000e+00 0.000000000000000e+00
0.000000000000000e+00 0.000000000000000e+00 0.000000000000000e+00
0.000000000000000e+00 0.000000000000000e+00 0.000000000000000e+00
0.000000000000000e+00 0.000000000000000e+00 0.000000000000000e+00
0.000000000000000e+00 0.000000000000000e+00 0.000000000000000e+00
0.000000000000000e+00 0.000000000000000e+00 0.000000000000000e+00
0.000000000000000e+00 0.000000000000000e+00 0.000000000000000e+00
0.000000000000000e+00 0.000000000000000e+00 0.000000000000000e+00
0.000000000000000e+00 0.000000000000000e+00 0.000000000000000e+00
0.000000000000000e+00 0.000000000000000e+00 0.000000000000000e+00
0.000000000000000e+00 0.000000000000000e+00 0.000000000000000e+00
0.000000000000000e+00 0.000000000000000e+00 0.000000000000000e+00
0.000000000000000e+00 0.000000000000000e+00 0.000000000000000e+00
0.000000000000000e+00 0.000000000000000e+00 0.000000000000000e+00
0.000000000000000e+00 0.000000000000000e+00 0.000000000000000e+00
0.000000000000000e+00 0.000000000000000e+00 0.000000000000000e+00
0.000000000000000e+00 0.000000000000000e+00 0.000000000000000e+00
0.000000000000000e+00 0.000000000000000e+00 0.000000000000000e+00
0.000000000000000e+00 0.000000000000000e+00 0.000000000000000e+00
0.000000000000000e+00 0.000000000000000e+00 0.000000000000000e+00
0.000000000000000e+00 0.000000000000000e+00 0.000000000000000e+00
0.000000000000000e+00 0.000000000000000e+00 0.000000000000000e+00
0.000000000000000e+00 0.000000000000000e+00 0.000000000000000e+00
0.000000000000000e+00 0.000000000000000e+00 0.000000000000000e+00
0.000000000000000e+00 0.000000000000000e+00 0.000000000000000e+00
0.000000000000000e+00 0.000000000000000e+00 0.000000000000000e+00
0.000000000000000e+00 0.000000000000000e+00 0.000000000000000e+00
0.000000000000000e+00 0.000000000000000e+00 0.000000000000000e+00
0.000000000000000e+00 0.000000000000000e+00 0.000000000000000e+00
0.000000000000000e+00 0.000000000000000e+00 0.000000000000000e+00
0.000000000000000e+00 0.000000000000000e+00 0.000000000000000e+00
0.000000000000000e+00 0.000000000000000e+00 0.000000000000000e+00
0.000000000000000e+00 0.000000000000000e+00 0.000000000000000e+00
0.000000000000000e+00 0.000000000000000e+00 0.000000000000000e+00
0.000000000000000e+00 0.000000000000000e+00 0.000000000000000e+00
0.000000000000000e+00 0.000000000000000e+00 0.000000000000000e+00
0.000000000000000e+00 0.000000000000000e+00 0.000000000000000e+00
0.000000000000000e+00 0.000000000000000e+00 0.000000000000000e+00
0.000000000000000e+00 0.000000000000000e+00 0.000000000000000e+00
0.000000000000000e+00 0.000000000000000e+00 0.000000000000000e+00
0.000000000000000e+00 0.000000000000000e+00 0.000000000000000e+00
0.000000000000000e+00 0.000000000000000e+00 0.000000000000000e+00
0.000000000000000e+00 0.000000000000000e+00 0.000000000000000e+00
0.000000000000000e+00 0.000000000000000e+00 0.000000000000000e+00
0.000000000000000e+00 0.000000000000000e+00 0.000000000000000e+00
0.000000000000000e+00 0.000000000000000e+00 0.000000000000000e+00
0.000000000000000e+00 0.000000000000000e+00 0.000000000000000e+00
0.000000000000000e+00 0.000000000000000e+00 0.000000000000000e+00
0.000000000000000e+00 0.000000000000000e+00 0.000000000000000e+00
0.000000000000000e+00 0.000000000000000e+00 0.000000000000000e+00
0.000000000000000e+00 0.000000000000000e+00 0.000000000000000e+00
0.000000000000000e+00 0.000000000000000e+00 0.000000000000000e+00
0.000000000000000e+00 0.000000000000000e+00 0.000000000000000e+00
0.000000000000000e+00 0.000000000000000e+00 0.000000000000000e+00
0.000000000000000e+00 0.000000000000000e+00 0.000000000000000e+00
0.000000000000000e+00 0.000000000000000e+00 0.000000000000000e+00
0.000000000000000e+00 0.000000000000000e+00 0.000000000000000e+00
0.000000000000000e+00 0.000000000000000e+00 0.000000000000000e+00
0.000000000000000e+00 0.000000000000000e+00 0.000000000000000e+00
0.000000000000000e+00 0.000000000000000e+00 0.000000000000000e+00
0.000000000000000e+00 0.000000000000000e+00 0.000000000000000e+00
0.000000000000000e+00 0.000000000000000e+00 0.000000000000000e+00
0.000000000000000e+00 0.000000000000000e+00 0.000000000000000e+00
0.000000000000000e+00 0.000000000000000e+00 0.000000000000000e+00
0.000000000000000e+00 0.000000000000000e+00 0.000000000000000e+00
0.000000000000000e+00 0.000000000000000e+00 0.000000000000000e+00
0.000000000000000e+00 0.000000000000000e+00 0.000000000000000e+00
0.000000000000000e+00 0.000000000000000e+00 0.000000000000000e+00
0.000000000000000e+00 0.000000000000000e+00 0.000000000000000e+00
0.000000000000000e+00 0.000000000000000e+00 0.000000000000000e+00
0.000000000000000e+00 0.000000000000000e+00 0.000000000000000e+00
0.000000000000000e+00 0.000000000000000e+00 0.000000000000000e+00
0.000000000000000e+00 0.000000000000000e+00 0.000000000000000e+00
0.000000000000000e+00 0.000000000000000e+00 0.000000000000000e+00
0.000000000000000e+00 0.000000000000000e+00 0.000000000000000e+00
0.000000000000000e+00 0.000000000000000e+00 0.000000000000000e+00
0.000000000000000e+00 0.000000000000000e+00 0.000000000000000e+00
0.000000000000000e+00 0.000000000000000e+00 0.000000000000000e+00
0.000000000000000e+00 0.000000000000000e+00 0.000000000000000e+00
0.000000000000000e+00 0.000000000000000e+00 0.000000000000000e+00
0.000000000000000e+00 0.000000000000000e+00 0.000000000000000e+00
0.000000000000000e+00 0.000000000000000e+00 0.000000000000000e+00
0.000000000000000e+00 0.000000000000000e+00 0.000000000000000e+00
0.000000000000000e+00 0.000000000000000e+00 0.000000000000000e+00
0.000000000000000e+00 0.000000000000000e+00 0.000000000000000e+00
0.000000000000000e+00 0.000000000000000e+00 0.000000000000000e+00
0.000000000000000e+00 0.000000000000000e+00 0.000000000000000e+00
0.000000000000000e+00 0.000000000000000e+00 0.000000000000000e+00
0.000000000000000e+00 0.000000000000000e+00 0.000000000000000e+00
0.000000000000000e+00 0.000000000000000e+00 0.000000000000000e+00
0.000000000000000e+00 0.000000000000000e+00 0.000000000000000e+00
0.000000000000000e+00 0.000000000000000e+00 0.000000000000000e+00
0.000000000000000e+00 0.000000000000000e+00 0.000000000000000e+00
0.000000000000000e+00 0.000000000000000e+00 0.000000000000000e+00
0.000000000000000e+00 0.000000000000000e+00 0.000000000000000e+00
0.000000000000000e+00 0.000000000000000e+00 0.000000000000000e+00
0.000000000000000e+00 0.000000000000000e+00 0.000000000000000e+00
0.000000000000000e+00 0.000000000000000e+00 0.000000000000000e+00
0.000000000000000e+00 0.000000000000000e+00 0.000000000000000e+00
0.000000000000000e+00 0.000000000000000e+00 0.000000000000000e+00
0.000000000000000e+00 0.000000000000000e+00 0.000000000000000e+00
0.000000000000000e+00 0.000000000000000e+00 0.000000000000000e+00
0.000000000000000e+00 0.000000000000000e+00 0.000000000000000e+00
0.000000000000000e+00 0.000000000000000e+00 0.000000000000000e+00
0.000000000000000e+00 0.000000000000000e+00 0.000000000000000e+00
0.000000000000000e+00 0.000000000000000e+00 0.000000000000000e+00
0.000000000000000e+00 0.000000000000000e+00 0.000000000000000e+00
0.000000000000000e+00 0.000000000000000e+00 0.000000000000000e+00
0.000000000000000e+00 0.000000000000000e+00 0.000000000000000e+00
0.000000000000000e+00 0.000000000000000e+00 0.000000000000000e+00
0.000000000000000e+00 0.000000000000000e+00 0.000000000000000e+00
0.000000000000000e+00 0.000000000000000e+00 0.000000000000000e+00
0.000000000000000e+00 0.000000000000000e+00 0.000000000000000e+00
0.000000000000000e+00 0.000000000000000e+00 0.000000000000000e+00
0.000000000000000e+00 0.000000000000000e+00 0.000000000000000e+00
0.000000000000000e+00 0.000000000000000e+00 0.000000000000000e+00
0.000000000000000e+00 0.000000000000000e+00 0.000000000000000e+00
0.000000000000000e+00 0.000000000000000e+00 0.000000000000000e+00
0.000000000000000e+00 0.000000000000000e+00 0.000000000000000e+00
0.000000000000000e+00 0.000000000000000e+00 0.000000000000000e+00
0.000000000000000e+00 0.000000000000000e+00 0.000000000000000e+00
0.000000000000000e+00 0.000000000000000e+00 0.000000000000000e+00
0.000000000000000e+00 0.000000000000000e+00 0.000000000000000e+00
0.000000000000000e+00 0.000000000000000e+00 0.000000000000000e+00
0.000000000000000e+00 0.000000000000000e+00 0.000000000000000e+00
0.000000000000000e+00 0.000000000000000e+00 0.000000000000000e+00
0.000000000000000e+00 0.000000000000000e+00 0.000000000000000e+00
0.000000000000000e+00 0.000000000000000e+00 0.000000000000000e+00
0.000000000000000e+00 0.000000000000000e+00 0.000000000000000e+00
0.000000000000000e+00 0.000000000000000e+00 0.000000000000000e+00
0.000000000000000e+00 0.000000000000000e+00 0.000000000000000e+00
0.000000000000000e+00 0.000000000000000e+00 0.000000000000000e+00
0.000000000000000e+00 0.000000000000000e+00 0.000000000000000e+00
0.000000000000000e+00 0.000000000000000e+00 0.000000000000000e+00
0.000000000000000e+00 0.000000000000000e+00 0.000000000000000e+00
0.000000000000000e+00 0.000000000000000e+00 0.000000000000000e+00
0.000000000000000e+00 0.000000000000000e+00 0.000000000000000e+00
0.000000000000000e+00 0.000000000000000e+00 0.000000000000000e+00
0.000000000000000e+00 0.000000000000000e+00 0.000000000000000e+00
0.000000000000000e+00 0.000000000000000e+00 0.000000000000000e+00
0.000000000000000e+00 0.000000000000000e+00 0.000000000000000e+00
0.000000000000000e+00 0.000000000000000e+00 0.000000000000000e+00
0.000000000000000e+00 0.000000000000000e+00 0.000000000000000e+00
0.000000000000000e+00 0.000000000000000e+00 0.000000000000000e+00
0.000000000000000e+00 0.000000000000000e+00 0.000000000000000e+00
0.000000000000000e+00 0.000000000000000e+00 0.000000000000000e+00
0.000000000000000e+00 0.000000000000000e+00 0.000000000000000e+00
0.000000000000000e+00 0.000000000000000e+00 0.000000000000000e+00
0.000000000000000e+00 0.000000000000000e+00 0.000000000000000e+00
0.000000000000000e+00 0.000000000000000e+00 0.000000000000000e+00
0.000000000000000e+00 0.000000000000000e+00 0.000000000000000e+00
0.000000000000000e+00 0.000000000000000e+00 0.000000000000000e+00
0.000000000000000e+00 0.000000000000000e+00 0.000000000000000e+00
0.000000000000000e+00 0.000000000000000e+00 0.000000000000000e+00
0.000000000000000e+00 0.000000000000000e+00 0.000000000000000e+00
0.000000000000000e+00 0.000000000000000e+00 0.000000000000000e+00
0.000000000000000e+00 0.000000000000000e+00 0.000000000000000e+00
0.000000000000000e+00 0.000000000000000e+00 0.000000000000000e+00
0.000000000000000e+00 0.000000000000000e+00 0.000000000000000e+00
0.000000000000000e+00 0.000000000000000e+00 0.000000000000000e+00
0.000000000000000e+00 0.000000000000000e+00 0.000000000000000e+00
0.000000000000000e+00 0.000000000000000e+00 0.000000000000000e+00
0.000000000000000e+00 0.000000000000000e+00 0.000000000000000e+00
0.000000000000000e+00 0.000000000000000e+00 0.000000000000000e+00
0.000000000000000e+00 0.000000000000000e+00 0.000000000000000e+00
0.000000000000000e+00 0.000000000000000e+00 0.000000000000000e+00
0.000000000000000e+00 0.000000000000000e+00 0.000000000000000e+00
0.000000000000000e+00 0.000000000000000e+00 0.000000000000000e+00
0.000000000000000e+00 0.000000000000000e+00 0.000000000000000e+00
0.000000000000000e+00 0.000000000000000e+00 0.000000000000000e+00
0.000000000000000e+00 0.000000000000000e+00 0.000000000000000e+00
0.000000000000000e+00 0.000000000000000e+00 0.000000000000000e+00
0.000000000000000e+00 0.000000000000000e+00 0.000000000000000e+00
0.000000000000000e+00 0.000000000000000e+00 0.000000000000000e+00
0.000000000000000e+00 0.000000000000000e+00 0.000000000000000e+00
0.000000000000000e+00 0.000000000000000e+00 0.000000000000000e+00
0.000000000000000e+00 0.000000000000000e+00 0.000000000000000e+00
0.000000000000000e+00 0.000000000000000e+00 0.000000000000000e+00
0.000000000000000e+00 0.000000000000000e+00 0.000000000000000e+00
0.000000000000000e+00 0.000000000000000e+00 0.000000000000000e+00
0.000000000000000e+00 0.000000000000000e+00 0.000000000000000e+00
0.000000000000000e+00 0.000000000000000e+00 0.000000000000000e+00
0.000000000000000e+00 0.000000000000000e+00 0.000000000000000e+00
0.000000000000000e+00 0.000000000000000e+00 0.000000000000000e+00
0.000000000000000e+00 0.000000000000000e+00 0.000000000000000e+00
0.000000000000000e+00 0.000000000000000e+00 0.000000000000000e+00
0.000000000000000e+00 0.000000000000000e+00 0.000000000000000e+00
0.000000000000000e+00 0.000000000000000e+00 0.000000000000000e+00
0.000000000000000e+00 0.000000000000000e+00 0.000000000000000e+00
0.000000000000000e+00 0.000000000000000e+00 0.000000000000000e+00
0.000000000000000e+00 0.000000000000000e+00 0.000000000000000e+00
0.000000000000000e+00 0.000000000000000e+00 0.000000000000000e+00
0.000000000000000e+00 0.000000000000000e+00 0.000000000000000e+00
0.000000000000000e+00 0.000000000000000e+00 0.000000000000000e+00
0.000000000000000e+00 0.000000000000000e+00 0.000000000000000e+00
0.000000000000000e+00 0.000000000000000e+00 0.000000000000000e+00
0.000000000000000e+00 0.000000000000000e+00 0.000000000000000e+00
0.000000000000000e+00 0.000000000000000e+00 0.000000000000000e+00
0.000000000000000e+00 0.000000000000000e+00 0.000000000000000e+00
0.000000000000000e+00 0.000000000000000e+00 0.000000000000000e+00
0.000000000000000e+00 0.000000000000000e+00 0.000000000000000e+00
0.000000000000000e+00 0.000000000000000e+00 0.000000000000000e+00
0.000000000000000e+00 0.000000000000000e+00 0.000000000000000e+00
0.000000000000000e+00 0.000000000000000e+00 0.000000000000000e+00
0.000000000000000e+00 0.000000000000000e+00 0.000000000000000e+00
0.000000000000000e+00 0.000000000000000e+00 0.000000000000000e+00
0.000000000000000e+00 0.000000000000000e+00 0.000000000000000e+00
0.000000000000000e+00 0.000000000000000e+00 0.000000000000000e+00
0.000000000000000e+00 0.000000000000000e+00 0.000000000000000e+00
0.000000000000000e+00 0.000000000000000e+00 0.000000000000000e+00
0.000000000000000e+00 0.000000000000000e+00 0.000000000000000e+00
0.000000000000000e+00 0.000000000000000e+00 0.000000000000000e+00
0.000000000000000e+00 0.000000000000000e+00 0.000000000000000e+00
0.000000000000000e+00 0.000000000000000e+00 0.000000000000000e+00
0.000000000000000e+00 0.000000000000000e+00 0.000000000000000e+00
0.000000000000000e+00 0.000000000000000e+00 0.000000000000000e+00
0.000000000000000e+00 0.000000000000000e+00 0.000000000000000e+00
0.000000000000000e+00 0.000000000000000e+00 0.000000000000000e+00
0.000000000000000e+00 0.000000000000000e+00 0.000000000000000e+00
0.000000000000000e+00 0.000000000000000e+00 0.000000000000000e+00
0.000000000000000e+00 0.000000000000000e+00 0.000000000000000e+00
0.000000000000000e+00 0.000000000000000e+00 0.000000000000000e+00
0.000000000000000e+00 0.000000000000000e+00 0.000000000000000e+00
0.000000000000000e+00 0.000000000000000e+00 0.000000000000000e+00
0.000000000000000e+00 0.000000000000000e+00 0.000000000000000e+00
0.000000000000000e+00 0.000000000000000e+00 0.000000000000000e+00
0.000000000000000e+00 0.000000000000000e+00 0.000000000000000e+00
0.000000000000000e+00 0.000000000000000e+00 0.000000000000000e+00
0.000000000000000e+00 0.000000000000000e+00 0.000000000000000e+00
0.000000000000000e+00 0.000000000000000e+00 0.000000000000000e+00
0.000000000000000e+00 0.000000000000000e+00 0.000000000000000e+00
0.000000000000000e+00 0.000000000000000e+00 0.000000000000000e+00
0.000000000000000e+00 0.000000000000000e+00 0.000000000000000e+00
0.000000000000000e+00 0.000000000000000e+00 0.000000000000000e+00
0.000000000000000e+00 0.000000000000000e+00 0.000000000000000e+00
0.000000000000000e+00 0.000000000000000e+00 0.000000000000000e+00
0.000000000000000e+00 0.000000000000000e+00 0.000000000000000e+00
0.000000000000000e+00 0.000000000000000e+00 0.000000000000000e+00
0.000000000000000e+00 0.000000000000000e+00 0.000000000000000e+00
0.000000000000000e+00 0.000000000000000e+00 0.000000000000000e+00
0.000000000000000e+00 0.000000000000000e+00 0.000000000000000e+00
0.000000000000000e+00 0.000000000000000e+00 0.000000000000000e+00
0.000000000000000e+00 0.000000000000000e+00 0.000000000000000e+00
0.000000000000000e+00 0.000000000000000e+00 0.000000000000000e+00
0.000000000000000e+00 0.000000000000000e+00 0.000000000000000e+00
0.000000000000000e+00 0.000000000000000e+00 0.000000000000000e+00
0.000000000000000e+00 0.000000000000000e+00 0.000000000000000e+00
0.000000000000000e+00 0.000000000000000e+00 0.000000000000000e+00
0.000000000000000e+00 0.000000000000000e+00 0.000000000000000e+00
0.000000000000000e+00 0.000000000000000e+00 0.000000000000000e+00
0.000000000000000e+00 0.000000000000000e+00 0.000000000000000e+00
0.000000000000000e+00 0.000000000000000e+00 0.000000000000000e+00
0.000000000000000e+00 0.000000000000000e+00 0.000000000000000e+00
0.000000000000000e+00 0.000000000000000e+00 0.000000000000000e+00
0.000000000000000e+00 0.000000000000000e+00 0.000000000000000e+00
0.000000000000000e+00 0.000000000000000e+00 0.000000000000000e+00
0.000000000000000e+00 0.000000000000000e+00 0.000000000000000e+00
0.000000000000000e+00 0.000000000000000e+00 0.000000000000000e+00
0.000000000000000e+00 0.000000000000000e+00 0.000000000000000e+00
0.000000000000000e+00 0.000000000000000e+00 0.000000000000000e+00
0.000000000000000e+00 0.000000000000000e+00 0.000000000000000e+00
0.000000000000000e+00 0.000000000000000e+00 0.000000000000000e+00
0.000000000000000e+00 0.000000000000000e+00 0.000000000000000e+00
0.000000000000000e+00 0.000000000000000e+00 0.000000000000000e+00
0.000000000000000e+00 0.000000000000000e+00 0.000000000000000e+00
0.000000000000000e+00 0.000000000000000e+00 0.000000000000000e+00
0.000000000000000e+00 0.000000000000000e+00 0.000000000000000e+00
0.000000000000000e+00 0.000000000000000e+00 0.000000000000000e+00
0.000000000000000e+00 0.000000000000000e+00 0.000000000000000e+00
0.000000000000000e+00 0.000000000000000e+00 0.000000000000000e+00
0.000000000000000e+00 0.000000000000000e+00 0.000000000000000e+00
0.000000000000000e+00 0.000000000000000e+00 0.000000000000000e+00
0.000000000000000e+00 0.000000000000000e+00 0.000000000000000e+00
0.000000000000000e+00 0.000000000000000e+00 0.000000000000000e+00
0.000000000000000e+00 0.000000000000000e+00 0.000000000000000e+00
0.000000000000000e+00 0.000000000000000e+00 0.000000000000000e+00
0.000000000000000e+00 0.000000000000000e+00 0.000000000000000e+00
0.000000000000000e+00 0.000000000000000e+00 0.000000000000000e+00
0.000000000000000e+00 0.000000000000000e+00 0.000000000000000e+00
0.000000000000000e+00 0.000000000000000e+00 0.000000000000000e+00
0.000000000000000e+00 0.000000000000000e+00 0.000000000000000e+00
0.000000000000000e+00 0.000000000000000e+00 0.000000000000000e+00
0.000000000000000e+00 0.000000000000000e+00 0.000000000000000e+00
0.000000000000000e+00 0.000000000000000e+00 0.000000000000000e+00
0.000000000000000e+00 0.000000000000000e+00 0.000000000000000e+00
0.000000000000000e+00 0.000000000000000e+00 0.000000000000000e+00
0.000000000000000e+00 0.000000000000000e+00 0.000000000000000e+00
0.000000000000000e+00 0.000000000000000e+00 0.000000000000000e+00
0.000000000000000e+00 0.000000000000000e+00 0.000000000000000e+00
0.000000000000000e+00 0.000000000000000e+00 0.000000000000000e+00
0.000000000000000e+00 0.000000000000000e+00 0.000000000000000e+00
0.000000000000000e+00 0.000000000000000e+00 0.000000000000000e+00
0.000000000000000e+00 0.000000000000000e+00 0.000000000000000e+00
0.000000000000000e+00 0.000000000000000e+00 0.000000000000000e+00
0.000000000000000e+00 0.000000000000000e+00 0.000000000000000e+00
0.000000000000000e+00 0.000000000000000e+00 0.000000000000000e+00
0.000000000000000e+00 0.000000000000000e+00 0.000000000000000e+00
0.000000000000000e+00 0.000000000000000e+00 0.000000000000000e+00
0.000000000000000e+00 0.000000000000000e+00 0.000000000000000e+00
0.000000000000000e+00 0.000000000000000e+00 0.000000000000000e+00
0.000000000000000e+00 0.000000000000000e+00 0.000000000000000e+00
0.000000000000000e+00 0.000000000000000e+00 0.000000000000000e+00
0.000000000000000e+00 0.000000000000000e+00 0.000000000000000e+00
0.000000000000000e+00 0.000000000000000e+00 0.000000000000000e+00
0.000000000000000e+00 0.000000000000000e+00 0.000000000000000e+00
0.000000000000000e+00 0.000000000000000e+00 0.000000000000000e+00
0.000000000000000e+00 0.000000000000000e+00 0.000000000000000e+00
0.000000000000000e+00 0.000000000000000e+00 0.000000000000000e+00
0.000000000000000e+00 0.000000000000000e+00 0.000000000000000e+00
0.000000000000000e+00 0.000000000000000e+00 0.000000000000000e+00
0.000000000000000e+00 0.000000000000000e+00 0.000000000000000e+00
0.000000000000000e+00 0.000000000000000e+00 0.000000000000000e+00
0.000000000000000e+00 0.000000000000000e+00 0.000000000000000e+00
0.000000000000000e+00 0.000000000000000e+00 0.000000000000000e+00
0.000000000000000e+00 0.000000000000000e+00 0.000000000000000e+00
0.000000000000000e+00 0.000000000000000e+00 0.000000000000000e+00
0.000000000000000e+00 0.000000000000000e+00 0.000000000000000e+00
0.000000000000000e+00 0.000000000000000e+00 0.000000000000000e+00
0.000000000000000e+00 0.000000000000000e+00 0.000000000000000e+00
0.000000000000000e+00 0.000000000000000e+00 0.000000000000000e+00
0.000000000000000e+00 0.000000000000000e+00 0.000000000000000e+00
0.000000000000000e+00 0.000000000000000e+00 0.000000000000000e+00
0.000000000000000e+00 0.000000000000000e+00 0.000000000000000e+00
0.000000000000000e+00 0.000000000000000e+00 0.000000000000000e+00
0.000000000000000e+00 0.000000000000000e+00 0.000000000000000e+00
0.000000000000000e+00 0.000000000000000e+00 0.000000000000000e+00
0.000000000000000e+00 0.000000000000000e+00 0.000000000000000e+00
0.000000000000000e+00 0.000000000000000e+00 0.000000000000000e+00
0.000000000000000e+00 0.000000000000000e+00 0.000000000000000e+00
0.000000000000000e+00 0.000000000000000e+00 0.000000000000000e+00
0.000000000000000e+00 0.000000000000000e+00 0.000000000000000e+00
0.000000000000000e+00 0.000000000000000e+00 0.000000000000000e+00
0.000000000000000e+00 0.000000000000000e+00 0.000000000000000e+00
0.000000000000000e+00 0.000000000000000e+00 0.000000000000000e+00
0.000000000000000e+00 0.000000000000000e+00 0.000000000000000e+00
0.000000000000000e+00 0.000000000000000e+00 0.000000000000000e+00
0.000000000000000e+00 0.000000000000000e+00 0.000000000000000e+00
0.000000000000000e+00 0.000000000000000e+00 0.000000000000000e+00
0.000000000000000e+00 0.000000000000000e+00 0.000000000000000e+00
0.000000000000000e+00 0.000000000000000e+00 0.000000000000000e+00
0.000000000000000e+00 0.000000000000000e+00 0.000000000000000e+00
0.000000000000000e+00 0.000000000000000e+00 0.000000000000000e+00
0.000000000000000e+00 0.000000000000000e+00 0.000000000000000e+00
0.000000000000000e+00 0.000000000000000e+00 0.000000000000000e+00
0.000000000000000e+00 0.000000000000000e+00 0.000000000000000e+00
0.000000000000000e+00 0.000000000000000e+00 0.000000000000000e+00
0.000000000000000e+00 0.000000000000000e+00 0.000000000000000e+00
0.000000000000000e+00 0.000000000000000e+00 0.000000000000000e+00
0.000000000000000e+00 0.000000000000000e+00 0.000000000000000e+00
0.000000000000000e+00 0.000000000000000e+00 0.000000000000000e+00
0.000000000000000e+00 0.000000000000000e+00 0.000000000000000e+00
0.000000000000000e+00 0.000000000000000e+00 0.000000000000000e+00
0.000000000000000e+00 0.000000000000000e+00 0.000000000000000e+00
0.000000000000000e+00 0.000000000000000e+00 0.000000000000000e+00
0.000000000000000e+00 0.000000000000000e+00 0.000000000000000e+00
0.000000000000000e+00 0.000000000000000e+00 0.000000000000000e+00
0.000000000000000e+00 0.000000000000000e+00 0.000000000000000e+00
0.000000000000000e+00 0.000000000000000e+00 0.000000000000000e+00
0.000000000000000e+00 0.000000000000000e+00 0.000000000000000e+00
0.000000000000000e+00 0.000000000000000e+00 0.000000000000000e+00
0.000000000000000e+00 0.000000000000000e+00 0.000000000000000e+00
0.000000000000000e+00 0.000000000000000e+00 0.000000000000000e+00
0.000000000000000e+00 0.000000000000000e+00 0.000000000000000e+00
0.000000000000000e+00 0.000000000000000e+00 0.000000000000000e+00
0.000000000000000e+00 0.000000000000000e+00 0.000000000000000e+00
0.000000000000000e+00 0.000000000000000e+00 0.000000000000000e+00
0.000000000000000e+00 0.000000000000000e+00 0.000000000000000e+00
0.000000000000000e+00 0.000000000000000e+00 0.000000000000000e+00
0.000000000000000e+00 0.000000000000000e+00 0.000000000000000e+00
0.000000000000000e+00 0.000000000000000e+00 0.000000000000000e+00
0.000000000000000e+00 0.000000000000000e+00 0.000000000000000e+00
0.000000000000000e+00 0.000000000000000e+00 0.000000000000000e+00
0.000000000000000e+00 0.000000000000000e+00 0.000000000000000e+00
0.000000000000000e+00 0.000000000000000e+00 0.000000000000000e+00
0.000000000000000e+00 0.000000000000000e+00 0.000000000000000e+00
0.000000000000000e+00 0.000000000000000e+00 0.000000000000000e+00
0.000000000000000e+00 0.000000000000000e+00 0.000000000000000e+00
0.000000000000000e+00 0.000000000000000e+00 0.000000000000000e+00
0.000000000000000e+00 0.000000000000000e+00 0.000000000000000e+00
0.000000000000000e+00 0.000000000000000e+00 0.000000000000000e+00
0.000000000000000e+00 0.000000000000000e+00 0.000000000000000e+00
0.000000000000000e+00 0.000000000000000e+00 0.000000000000000e+00
0.000000000000000e+00 0.000000000000000e+00 0.000000000000000e+00
0.000000000000000e+00 0.000000000000000e+00 0.000000000000000e+00
0.000000000000000e+00 0.000000000000000e+00 0.000000000000000e+00
0.000000000000000e+00 0.000000000000000e+00 0.000000000000000e+00
0.000000000000000e+00 0.000000000000000e+00 0.000000000000000e+00
0.000000000000000e+00 0.000000000000000e+00 0.000000000000000e+00
0.000000000000000e+00 0.000000000000000e+00 0.000000000000000e+00
0.000000000000000e+00 0.000000000000000e+00 0.000000000000000e+00
0.000000000000000e+00 0.000000000000000e+00 0.000000000000000e+00
0.000000000000000e+00 0.000000000000000e+00 0.000000000000000e+00
0.000000000000000e+00 0.000000000000000e+00 0.000000000000000e+00
0.000000000000000e+00 0.000000000000000e+00 0.000000000000000e+00
0.000000000000000e+00 0.000000000000000e+00 0.000000000000000e+00
0.000000000000000e+00 0.000000000000000e+00 0.000000000000000e+00
0.000000000000000e+00 0.000000000000000e+00 0.000000000000000e+00
0.000000000000000e+00 0.000000000000000e+00 0.000000000000000e+00
0.000000000000000e+00 0.000000000000000e+00 0.000000000000000e+00
0.000000000000000e+00 0.000000000000000e+00 0.000000000000000e+00
0.000000000000000e+00 0.000000000000000e+00 0.000000000000000e+00
0.000000000000000e+00 0.000000000000000e+00 0.000000000000000e+00
0.000000000000000e+00 0.000000000000000e+00 0.000000000000000e+00
0.000000000000000e+00 0.000000000000000e+00 0.000000000000000e+00
0.000000000000000e+00 0.000000000000000e+00 0.000000000000000e+00
0.000000000000000e+00 0.000000000000000e+00 0.000000000000000e+00
0.000000000000000e+00 0.000000000000000e+00 0.000000000000000e+00
0.000000000000000e+00 0.000000000000000e+00 0.000000000000000e+00
0.000000000000000e+00 0.000000000000000e+00 0.000000000000000e+00
0.000000000000000e+00 0.000000000000000e+00 0.000000000000000e+00
0.000000000000000e+00 0.000000000000000e+00 0.000000000000000e+00
0.000000000000000e+00 0.000000000000000e+00 0.000000000000000e+00
0.000000000000000e+00 0.000000000000000e+00 0.000000000000000e+00
0.000000000000000e+00 0.000000000000000e+00 0.000000000000000e+00
0.000000000000000e+00 0.000000000000000e+00 0.000000000000000e+00
0.000000000000000e+00 0.000000000000000e+00 0.000000000000000e+00
0.000000000000000e+00 0.000000000000000e+00 0.000000000000000e+00
0.000000000000000e+00 0.000000000000000e+00 0.000000000000000e+00
0.000000000000000e+00 0.000000000000000e+00 0.000000000000000e+00
0.000000000000000e+00 0.000000000000000e+00 0.000000000000000e+00
0.000000000000000e+00 0.000000000000000e+00 0.000000000000000e+00
0.000000000000000e+00 0.000000000000000e+00 0.000000000000000e+00
0.000000000000000e+00 0.000000000000000e+00 0.000000000000000e+00
0.000000000000000e+00 0.000000000000000e+00 0.000000000000000e+00
0.000000000000000e+00 0.000000000000000e+00 0.000000000000000e+00
0.000000000000000e+00 0.000000000000000e+00 0.000000000000000e+00
0.000000000000000e+00 0.000000000000000e+00 0.000000000000000e+00
0.000000000000000e+00 0.000000000000000e+00 0.000000000000000e+00
0.000000000000000e+00 0.000000000000000e+00 0.000000000000000e+00
0.000000000000000e+00 0.000000000000000e+00 0.000000000000000e+00
0.000000000000000e+00 0.000000000000000e+00 0.000000000000000e+00
0.000000000000000e+00 0.000000000000000e+00 0.000000000000000e+00
0.000000000000000e+00 0.000000000000000e+00 0.000000000000000e+00
0.000000000000000e+00 0.000000000000000e+00 0.000000000000000e+00
0.000000000000000e+00 0.000000000000000e+00 0.000000000000000e+00
0.000000000000000e+00 0.000000000000000e+00 0.000000000000000e+00
0.000000000000000e+00 0.000000000000000e+00 0.000000000000000e+00
0.000000000000000e+00 0.000000000000000e+00 0.000000000000000e+00
0.000000000000000e+00 0.000000000000000e+00 0.000000000000000e+00
0.000000000000000e+00 0.000000000000000e+00 0.000000000000000e+00
0.000000000000000e+00 0.000000000000000e+00 0.000000000000000e+00
0.000000000000000e+00 0.000000000000000e+00 0.000000000000000e+00
0.000000000000000e+00 0.000000000000000e+00 0.000000000000000e+00
0.000000000000000e+00 0.000000000000000e+00 0.000000000000000e+00
0.000000000000000e+00 0.000000000000000e+00 0.000000000000000e+00
0.000000000000000e+00 0.000000000000000e+00 0.000000000000000e+00
0.000000000000000e+00 0.000000000000000e+00 0.000000000000000e+00
0.000000000000000e+00 0.000000000000000e+00 0.000000000000000e+00
0.000000000000000e+00 0.000000000000000e+00 0.000000000000000e+00
0.000000000000000e+00 0.000000000000000e+00 0.000000000000000e+00
0.000000000000000e+00 0.000000000000000e+00 0.000000000000000e+00
0.000000000000000e+00 0.000000000000000e+00 0.000000000000000e+00
0.000000000000000e+00 0.000000000000000e+00 0.000000000000000e+00
0.000000000000000e+00 0.000000000000000e+00 0.000000000000000e+00
0.000000000000000e+00 0.000000000000000e+00 0.000000000000000e+00
0.000000000000000e+00 0.000000000000000e+00 0.000000000000000e+00
0.000000000000000e+00 0.000000000000000e+00 0.000000000000000e+00
0.000000000000000e+00 0.000000000000000e+00 0.000000000000000e+00
0.000000000000000e+00 0.000000000000000e+00 0.000000000000000e+00
0.000000000000000e+00 0.000000000000000e+00 0.000000000000000e+00
0.000000000000000e+00 0.000000000000000e+00 0.000000000000000e+00
0.000000000000000e+00 0.000000000000000e+00 0.000000000000000e+00
0.000000000000000e+00 0.000000000000000e+00 0.000000000000000e+00
0.000000000000000e+00 0.000000000000000e+00 0.000000000000000e+00
0.000000000000000e+00 0.000000000000000e+00 0.000000000000000e+00
0.000000000000000e+00 0.000000000000000e+00 0.000000000000000e+00
0.000000000000000e+00 0.000000000000000e+00 0.000000000000000e+00
0.000000000000000e+00 0.000000000000000e+00 0.000000000000000e+00
0.000000000000000e+00 0.000000000000000e+00 0.000000000000000e+00
0.000000000000000e+00 0.000000000000000e+00 0.000000000000000e+00
0.000000000000000e+00 0.000000000000000e+00 0.000000000000000e+00
0.000000000000000e+00 0.000000000000000e+00 0.000000000000000e+00
0.000000000000000e+00 0.000000000000000e+00 0.000000000000000e+00
0.000000000000000e+00 0.000000000000000e+00 0.000000000000000e+00
0.000000000000000e+00 0.000000000000000e+00 0.000000000000000e+00
0.000000000000000e+00 0.000000000000000e+00 0.000000000000000e+00
0.000000000000000e+00 0.000000000000000e+00 0.000000000000000e+00
0.000000000000000e+00 0.000000000000000e+00 0.000000000000000e+00
0.000000000000000e+00 0.000000000000000e+00 0.000000000000000e+00
0.000000000000000e+00 0.000000000000000e+00 0.000000000000000e+00
0.000000000000000e+00 0.000000000000000e+00 0.000000000000000e+00
0.000000000000000e+00 0.000000000000000e+00 0.000000000000000e+00
0.000000000000000e+00 0.000000000000000e+00 0.000000000000000e+00
0.000000000000000e+00 0.000000000000000e+00 0.000000000000000e+00
0.000000000000000e+00 0.000000000000000e+00 0.000000000000000e+00
0.000000000000000e+00 0.000000000000000e+00 0.000000000000000e+00
0.000000000000000e+00 0.000000000000000e+00 0.000000000000000e+00
0.000000000000000e+00 0.000000000000000e+00 0.000000000000000e+00
0.000000000000000e+00 0.000000000000000e+00 0.000000000000000e+00
0.000000000000000e+00 0.000000000000000e+00 0.000000000000000e+00
0.000000000000000e+00 0.000000000000000e+00 0.000000000000000e+00
0.000000000000000e+00 0.000000000000000e+00 0.000000000000000e+00
0.000000000000000e+00 0.000000000000000e+00 0.000000000000000e+00
0.000000000000000e+00 0.000000000000000e+00 0.000000000000000e+00
0.000000000000000e+00 0.000000000000000e+00 0.000000000000000e+00
0.000000000000000e+00 0.000000000000000e+00 0.000000000000000e+00
0.000000000000000e+00 0.000000000000000e+00 0.000000000000000e+00
0.000000000000000e+00 0.000000000000000e+00 0.000000000000000e+00
0.000000000000000e+00 0.000000000000000e+00 0.000000000000000e+00
0.000000000000000e+00 0.000000000000000e+00 0.000000000000000e+00
0.000000000000000e+00 0.000000000000000e+00 0.000000000000000e+00
0.000000000000000e+00 0.000000000000000e+00 0.000000000000000e+00
0.000000000000000e+00 0.000000000000000e+00 0.000000000000000e+00
0.000000000000000e+00 0.000000000000000e+00 0.000000000000000e+00
0.000000000000000e+00 0.000000000000000e+00 0.000000000000000e+00
0.000000000000000e+00 0.000000000000000e+00 0.000000000000000e+00
0.000000000000000e+00 0.000000000000000e+00 0.000000000000000e+00
0.000000000000000e+00 0.000000000000000e+00 0.000000000000000e+00
0.000000000000000e+00 0.000000000000000e+00 0.000000000000000e+00
0.000000000000000e+00 0.000000000000000e+00 0.000000000000000e+00
0.000000000000000e+00 0.000000000000000e+00 0.000000000000000e+00
0.000000000000000e+00 0.000000000000000e+00 0.000000000000000e+00
0.000000000000000e+00 0.000000000000000e+00 0.000000000000000e+00
0.000000000000000e+00 0.000000000000000e+00 0.000000000000000e+00
0.000000000000000e+00 0.000000000000000e+00 0.000000000000000e+00
0.000000000000000e+00 0.000000000000000e+00 0.000000000000000e+00
0.000000000000000e+00 0.000000000000000e+00 0.000000000000000e+00
0.000000000000000e+00 0.000000000000000e+00 0.000000000000000e+00
0.000000000000000e+00 0.000000000000000e+00 0.000000000000000e+00
0.000000000000000e+00 0.000000000000000e+00 0.000000000000000e+00
0.000000000000000e+00 0.000000000000000e+00 0.000000000000000e+00
0.000000000000000e+00 0.000000000000000e+00 0.000000000000000e+00
0.000000000000000e+00 0.000000000000000e+00 0.000000000000000e+00
0.000000000000000e+00 0.000000000000000e+00 0.000000000000000e+00
0.000000000000000e+00 0.000000000000000e+00 0.000000000000000e+00
0.000000000000000e+00 0.000000000000000e+00 0.000000000000000e+00
0.000000000000000e+00 0.000000000000000e+00 0.000000000000000e+00
0.000000000000000e+00 0.000000000000000e+00 0.000000000000000e+00
0.000000000000000e+00 0.000000000000000e+00 0.000000000000000e+00
0.000000000000000e+00 0.000000000000000e+00 0.000000000000000e+00
0.000000000000000e+00 0.000000000000000e+00 0.000000000000000e+00
0.000000000000000e+00 0.000000000000000e+00 0.000000000000000e+00
0.000000000000000e+00 0.000000000000000e+00 0.000000000000000e+00
0.000000000000000e+00 0.000000000000000e+00 0.000000000000000e+00
0.000000000000000e+00 0.000000000000000e+00 0.000000000000000e+00
0.000000000000000e+00 0.000000000000000e+00 0.000000000000000e+00
0.000000000000000e+00 0.000000000000000e+00 0.000000000000000e+00
0.000000000000000e+00 0.000000000000000e+00 0.000000000000000e+00
0.000000000000000e+00 0.000000000000000e+00 0.000000000000000e+00
0.000000000000000e+00 0.000000000000000e+00 0.000000000000000e+00
0.000000000000000e+00 0.000000000000000e+00 0.000000000000000e+00
0.000000000000000e+00 0.000000000000000e+00 0.000000000000000e+00
0.000000000000000e+00 0.000000000000000e+00 0.000000000000000e+00
0.000000000000000e+00 0.000000000000000e+00 0.000000000000000e+00
0.000000000000000e+00 0.000000000000000e+00 0.000000000000000e+00
0.000000000000000e+00 0.000000000000000e+00 0.000000000000000e+00
0.000000000000000e+00 0.000000000000000e+00 0.000000000000000e+00
0.000000000000000e+00 0.000000000000000e+00 0.000000000000000e+00
0.000000000000000e+00 0.000000000000000e+00 0.000000000000000e+00
0.000000000000000e+00 0.000000000000000e+00 0.000000000000000e+00
0.000000000000000e+00 0.000000000000000e+00 0.000000000000000e+00
0.000000000000000e+00 0.000000000000000e+00 0.000000000000000e+00
0.000000000000000e+00 0.000000000000000e+00 0.000000000000000e+00
0.000000000000000e+00 0.000000000000000e+00 0.000000000000000e+00
0.000000000000000e+00 0.000000000000000e+00 0.000000000000000e+00
0.000000000000000e+00 0.000000000000000e+00 0.000000000000000e+00
0.000000000000000e+00 0.000000000000000e+00 0.000000000000000e+00
0.000000000000000e+00 0.000000000000000e+00 0.000000000000000e+00
0.000000000000000e+00 0.000000000000000e+00 0.000000000000000e+00
0.000000000000000e+00 0.000000000000000e+00 0.000000000000000e+00
0.000000000000000e+00 0.000000000000000e+00 0.000000000000000e+00
0.000000000000000e+00 0.000000000000000e+00 0.000000000000000e+00
0.000000000000000e+00 0.000000000000000e+00 0.000000000000000e+00
0.000000000000000e+00 0.000000000000000e+00 0.000000000000000e+00
0.000000000000000e+00 0.000000000000000e+00 0.000000000000000e+00
0.000000000000000e+00 0.000000000000000e+00 0.000000000000000e+00
0.000000000000000e+00 0.000000000000000e+00 0.000000000000000e+00
0.000000000000000e+00 0.000000000000000e+00 0.000000000000000e+00
0.000000000000000e+00 0.000000000000000e+00 0.000000000000000e+00
0.000000000000000e+00 0.000000000000000e+00 0.000000000000000e+00
0.000000000000000e+00 0.000000000000000e+00 0.000000000000000e+00
0.000000000000000e+00 0.000000000000000e+00 0.000000000000000e+00
0.000000000000000e+00 0.000000000000000e+00 0.000000000000000e+00
0.000000000000000e+00 0.000000000000000e+00 0.000000000000000e+00
0.000000000000000e+00 0.000000000000000e+00 0.000000000000000e+00
0.000000000000000e+00 0.000000000000000e+00 0.000000000000000e+00
0.000000000000000e+00 0.000000000000000e+00 0.000000000000000e+00
0.000000000000000e+00 0.000000000000000e+00 0.000000000000000e+00
0.000000000000000e+00 0.000000000000000e+00 0.000000000000000e+00
0.000000000000000e+00 0.000000000000000e+00 0.000000000000000e+00
0.000000000000000e+00 0.000000000000000e+00 0.000000000000000e+00
0.000000000000000e+00 0.000000000000000e+00 0.000000000000000e+00
0.000000000000000e+00 0.000000000000000e+00 0.000000000000000e+00
0.000000000000000e+00 0.000000000000000e+00 0.000000000000000e+00
0.000000000000000e+00 0.000000000000000e+00 0.000000000000000e+00
0.000000000000000e+00 0.000000000000000e+00 0.000000000000000e+00
0.000000000000000e+00 0.000000000000000e+00 0.000000000000000e+00
0.000000000000000e+00 0.000000000000000e+00 0.000000000000000e+00
0.000000000000000e+00 0.000000000000000e+00 0.000000000000000e+00
0.000000000000000e+00 0.000000000000000e+00 0.000000000000000e+00
0.000000000000000e+00 0.000000000000000e+00 0.000000000000000e+00
0.000000000000000e+00 0.000000000000000e+00 0.000000000000000e+00
0.000000000000000e+00 0.000000000000000e+00 0.000000000000000e+00
0.000000000000000e+00 0.000000000000000e+00 0.000000000000000e+00
0.000000000000000e+00 0.000000000000000e+00 0.000000000000000e+00
0.000000000000000e+00 0.000000000000000e+00 0.000000000000000e+00
0.000000000000000e+00 0.000000000000000e+00 0.000000000000000e+00
0.000000000000000e+00 0.000000000000000e+00 0.000000000000000e+00
0.000000000000000e+00 0.000000000000000e+00 0.000000000000000e+00
0.000000000000000e+00 0.000000000000000e+00 0.000000000000000e+00
0.000000000000000e+00 0.000000000000000e+00 0.000000000000000e+00
0.000000000000000e+00 0.000000000000000e+00 0.000000000000000e+00
0.000000000000000e+00 0.000000000000000e+00 0.000000000000000e+00
0.000000000000000e+00 0.000000000000000e+00 0.000000000000000e+00
0.000000000000000e+00 0.000000000000000e+00 0.000000000000000e+00
0.000000000000000e+00 0.000000000000000e+00 0.000000000000000e+00
0.000000000000000e+00 0.000000000000000e+00 0.000000000000000e+00
0.000000000000000e+00 0.000000000000000e+00 0.000000000000000e+00
0.000000000000000e+00 0.000000000000000e+00 0.000000000000000e+00
0.000000000000000e+00 0.000000000000000e+00 0.000000000000000e+00
0.000000000000000e+00 0.000000000000000e+00 0.000000000000000e+00
0.000000000000000e+00 0.000000000000000e+00 0.000000000000000e+00
0.000000000000000e+00 0.000000000000000e+00 0.000000000000000e+00
0.000000000000000e+00 0.000000000000000e+00 0.000000000000000e+00
0.000000000000000e+00 0.000000000000000e+00 0.000000000000000e+00
0.000000000000000e+00 0.000000000000000e+00 0.000000000000000e+00
0.000000000000000e+00 0.000000000000000e+00 0.000000000000000e+00
0.000000000000000e+00 0.000000000000000e+00 0.000000000000000e+00
0.000000000000000e+00 0.000000000000000e+00 0.000000000000000e+00
0.000000000000000e+00 0.000000000000000e+00 0.000000000000000e+00
0.000000000000000e+00 0.000000000000000e+00 0.000000000000000e+00
0.000000000000000e+00 0.000000000000000e+00 0.000000000000000e+00
0.000000000000000e+00 0.000000000000000e+00 0.000000000000000e+00
0.000000000000000e+00 0.000000000000000e+00 0.000000000000000e+00
0.000000000000000e+00 0.000000000000000e+00 0.000000000000000e+00
0.000000000000000e+00 0.000000000000000e+00 0.000000000000000e+00
0.000000000000000e+00 0.000000000000000e+00 0.000000000000000e+00
0.000000000000000e+00 0.000000000000000e+00 0.000000000000000e+00
0.000000000000000e+00 0.000000000000000e+00 0.000000000000000e+00
0.000000000000000e+00 0.000000000000000e+00 0.000000000000000e+00
0.000000000000000e+00 0.000000000000000e+00 0.000000000000000e+00
0.000000000000000e+00 0.000000000000000e+00 0.000000000000000e+00
0.000000000000000e+00 0.000000000000000e+00 0.000000000000000e+00
0.000000000000000e+00 0.000000000000000e+00 0.000000000000000e+00
0.000000000000000e+00 0.000000000000000e+00 0.000000000000000e+00
0.000000000000000e+00 0.000000000000000e+00 0.000000000000000e+00
0.000000000000000e+00 0.000000000000000e+00 0.000000000000000e+00
0.000000000000000e+00 0.000000000000000e+00 0.000000000000000e+00
0.000000000000000e+00 0.000000000000000e+00 0.000000000000000e+00
0.000000000000000e+00 0.000000000000000e+00 0.000000000000000e+00
0.000000000000000e+00 0.000000000000000e+00 0.000000000000000e+00
0.000000000000000e+00 0.000000000000000e+00 0.000000000000000e+00
0.000000000000000e+00 0.000000000000000e+00 0.000000000000000e+00
0.000000000000000e+00 0.000000000000000e+00 0.000000000000000e+00
0.000000000000000e+00 0.000000000000000e+00 0.000000000000000e+00
0.000000000000000e+00 0.000000000000000e+00 0.000000000000000e+00
0.000000000000000e+00 0.000000000000000e+00 0.000000000000000e+00
0.000000000000000e+00 0.000000000000000e+00 0.000000000000000e+00
0.000000000000000e+00 0.000000000000000e+00 0.000000000000000e+00
0.000000000000000e+00 0.000000000000000e+00 0.000000000000000e+00
0.000000000000000e+00 0.000000000000000e+00 0.000000000000000e+00
0.000000000000000e+00 0.000000000000000e+00 0.000000000000000e+00
0.000000000000000e+00 0.000000000000000e+00 0.000000000000000e+00
0.000000000000000e+00 0.000000000000000e+00 0.000000000000000e+00
0.000000000000000e+00 0.000000000000000e+00 0.000000000000000e+00
0.000000000000000e+00 0.000000000000000e+00 0.000000000000000e+00
0.000000000000000e+00 0.000000000000000e+00 0.000000000000000e+00
0.000000000000000e+00 0.000000000000000e+00 0.000000000000000e+00
0.000000000000000e+00 0.000000000000000e+00 0.000000000000000e+00
0.000000000000000e+00 0.000000000000000e+00 0.000000000000000e+00
0.000000000000000e+00 0.000000000000000e+00 0.000000000000000e+00
0.000000000000000e+00 0.000000000000000e+00 0.000000000000000e+00
0.000000000000000e+00 0.000000000000000e+00 0.000000000000000e+00
0.000000000000000e+00 0.000000000000000e+00 0.000000000000000e+00
0.000000000000000e+00 0.000000000000000e+00 0.000000000000000e+00
0.000000000000000e+00 0.000000000000000e+00 0.000000000000000e+00
0.000000000000000e+00 0.000000000000000e+00 0.000000000000000e+00
0.000000000000000e+00 0.000000000000000e+00 0.000000000000000e+00
0.000000000000000e+00 0.000000000000000e+00 0.000000000000000e+00
0.000000000000000e+00 0.000000000000000e+00 0.000000000000000e+00
0.000000000000000e+00 0.000000000000000e+00 0.000000000000000e+00
0.000000000000000e+00 0.000000000000000e+00 0.000000000000000e+00
0.000000000000000e+00 0.000000000000000e+00 0.000000000000000e+00
0.000000000000000e+00 0.000000000000000e+00 0.000000000000000e+00
0.000000000000000e+00 0.000000000000000e+00 0.000000000000000e+00
0.000000000000000e+00 0.000000000000000e+00 0.000000000000000e+00
0.000000000000000e+00 0.000000000000000e+00 0.000000000000000e+00
0.000000000000000e+00 0.000000000000000e+00 0.000000000000000e+00
0.000000000000000e+00 0.000000000000000e+00 0.000000000000000e+00
0.000000000000000e+00 0.000000000000000e+00 0.000000000000000e+00
0.000000000000000e+00 0.000000000000000e+00 0.000000000000000e+00
0.000000000000000e+00 0.000000000000000e+00 0.000000000000000e+00
0.000000000000000e+00 0.000000000000000e+00 0.000000000000000e+00
0.000000000000000e+00 0.000000000000000e+00 0.000000000000000e+00
0.000000000000000e+00 0.000000000000000e+00 0.000000000000000e+00
0.000000000000000e+00 0.000000000000000e+00 0.000000000000000e+00
0.000000000000000e+00 0.000000000000000e+00 0.000000000000000e+00
0.000000000000000e+00 0.000000000000000e+00 0.000000000000000e+00
0.000000000000000e+00 0.000000000000000e+00 0.000000000000000e+00
0.000000000000000e+00 0.000000000000000e+00 0.000000000000000e+00
0.000000000000000e+00 0.000000000000000e+00 0.000000000000000e+00
0.000000000000000e+00 0.000000000000000e+00 0.000000000000000e+00
0.000000000000000e+00 0.000000000000000e+00 0.000000000000000e+00
0.000000000000000e+00 0.000000000000000e+00 0.000000000000000e+00
0.000000000000000e+00 0.000000000000000e+00 0.000000000000000e+00
0.000000000000000e+00 0.000000000000000e+00 0.000000000000000e+00
0.000000000000000e+00 0.000000000000000e+00 0.000000000000000e+00
0.000000000000000e+00 0.000000000000000e+00 0.000000000000000e+00
0.000000000000000e+00 0.000000000000000e+00 0.000000000000000e+00
0.000000000000000e+00 0.000000000000000e+00 0.000000000000000e+00
0.000000000000000e+00 0.000000000000000e+00 0.000000000000000e+00
0.000000000000000e+00 0.000000000000000e+00 0.000000000000000e+00
0.000000000000000e+00 0.000000000000000e+00 0.000000000000000e+00
0.000000000000000e+00 0.000000000000000e+00 0.000000000000000e+00
0.000000000000000e+00 0.000000000000000e+00 0.000000000000000e+00
0.000000000000000e+00 0.000000000000000e+00 0.000000000000000e+00
0.000000000000000e+00 0.000000000000000e+00 0.000000000000000e+00
0.000000000000000e+00 0.000000000000000e+00 0.000000000000000e+00
0.000000000000000e+00 0.000000000000000e+00 0.000000000000000e+00
0.000000000000000e+00 0.000000000000000e+00 0.000000000000000e+00
0.000000000000000e+00 0.000000000000000e+00 0.000000000000000e+00
0.000000000000000e+00 0.000000000000000e+00 0.000000000000000e+00
0.000000000000000e+00 0.000000000000000e+00 0.000000000000000e+00
0.000000000000000e+00 0.000000000000000e+00 0.000000000000000e+00
0.000000000000000e+00 0.000000000000000e+00 0.000000000000000e+00
0.000000000000000e+00 0.000000000000000e+00 0.000000000000000e+00
0.000000000000000e+00 0.000000000000000e+00 0.000000000000000e+00
0.000000000000000e+00 0.000000000000000e+00 0.000000000000000e+00
0.000000000000000e+00 0.000000000000000e+00 0.000000000000000e+00
0.000000000000000e+00 0.000000000000000e+00 0.000000000000000e+00
0.000000000000000e+00 0.000000000000000e+00 0.000000000000000e+00
0.000000000000000e+00 0.000000000000000e+00 0.000000000000000e+00
0.000000000000000e+00 0.000000000000000e+00 0.000000000000000e+00
0.000000000000000e+00 0.000000000000000e+00 0.000000000000000e+00
0.000000000000000e+00 0.000000000000000e+00 0.000000000000000e+00
0.000000000000000e+00 0.000000000000000e+00 0.000000000000000e+00
0.000000000000000e+00 0.000000000000000e+00 0.000000000000000e+00
0.000000000000000e+00 0.000000000000000e+00 0.000000000000000e+00
0.000000000000000e+00 0.000000000000000e+00 0.000000000000000e+00
0.000000000000000e+00 0.000000000000000e+00 0.000000000000000e+00
0.000000000000000e+00 0.000000000000000e+00 0.000000000000000e+00
0.000000000000000e+00 0.000000000000000e+00 0.000000000000000e+00
0.000000000000000e+00 0.000000000000000e+00 0.000000000000000e+00
0.000000000000000e+00 0.000000000000000e+00 0.000000000000000e+00
0.000000000000000e+00 0.000000000000000e+00 0.000000000000000e+00
0.000000000000000e+00 0.000000000000000e+00 0.000000000000000e+00
0.000000000000000e+00 0.000000000000000e+00 0.000000000000000e+00
0.000000000000000e+00 0.000000000000000e+00 0.000000000000000e+00
0.000000000000000e+00 0.000000000000000e+00 0.000000000000000e+00
0.000000000000000e+00 0.000000000000000e+00 0.000000000000000e+00
0.000000000000000e+00 0.000000000000000e+00 0.000000000000000e+00
0.000000000000000e+00 0.000000000000000e+00 0.000000000000000e+00
0.000000000000000e+00 0.000000000000000e+00 0.000000000000000e+00
0.000000000000000e+00 0.000000000000000e+00 0.000000000000000e+00
0.000000000000000e+00 0.000000000000000e+00 0.000000000000000e+00
0.000000000000000e+00 0.000000000000000e+00 0.000000000000000e+00
0.000000000000000e+00 0.000000000000000e+00 0.000000000000000e+00
0.000000000000000e+00 0.000000000000000e+00 0.000000000000000e+00
0.000000000000000e+00 0.000000000000000e+00 0.000000000000000e+00
0.000000000000000e+00 0.000000000000000e+00 0.000000000000000e+00
0.000000000000000e+00 0.000000000000000e+00 0.000000000000000e+00
0.000000000000000e+00 0.000000000000000e+00 0.000000000000000e+00
0.000000000000000e+00 0.000000000000000e+00 0.000000000000000e+00
0.000000000000000e+00 0.000000000000000e+00 0.000000000000000e+00
0.000000000000000e+00 0.000000000000000e+00 0.000000000000000e+00
0.000000000000000e+00 0.000000000000000e+00 0.000000000000000e+00
0.000000000000000e+00 0.000000000000000e+00 0.000000000000000e+00
0.000000000000000e+00 0.000000000000000e+00 0.000000000000000e+00
0.000000000000000e+00 0.000000000000000e+00 0.000000000000000e+00
0.000000000000000e+00 0.000000000000000e+00 0.000000000000000e+00
0.000000000000000e+00 0.000000000000000e+00 0.000000000000000e+00
0.000000000000000e+00 0.000000000000000e+00 0.000000000000000e+00
0.000000000000000e+00 0.000000000000000e+00 0.000000000000000e+00
0.000000000000000e+00 0.000000000000000e+00 0.000000000000000e+00
0.000000000000000e+00 0.000000000000000e+00 0.000000000000000e+00
0.000000000000000e+00 0.000000000000000e+00 0.000000000000000e+00
0.000000000000000e+00 0.000000000000000e+00 0.000000000000000e+00
0.000000000000000e+00 0.000000000000000e+00 0.000000000000000e+00
0.000000000000000e+00 0.000000000000000e+00 0.000000000000000e+00
0.000000000000000e+00 0.000000000000000e+00 0.000000000000000e+00
0.000000000000000e+00 0.000000000000000e+00 0.000000000000000e+00
0.000000000000000e+00 0.000000000000000e+00 0.000000000000000e+00
0.000000000000000e+00 0.000000000000000e+00 0.000000000000000e+00
0.000000000000000e+00 0.000000000000000e+00 0.000000000000000e+00
0.000000000000000e+00 0.000000000000000e+00 0.000000000000000e+00
0.000000000000000e+00 0.000000000000000e+00 0.000000000000000e+00
0.000000000000000e+00 0.000000000000000e+00 0.000000000000000e+00
0.000000000000000e+00 0.000000000000000e+00 0.000000000000000e+00
0.000000000000000e+00 0.000000000000000e+00 0.000000000000000e+00
0.000000000000000e+00 0.000000000000000e+00 0.000000000000000e+00
0.000000000000000e+00 0.000000000000000e+00 0.000000000000000e+00
0.000000000000000e+00 0.000000000000000e+00 0.000000000000000e+00
0.000000000000000e+00 0.000000000000000e+00 0.000000000000000e+00
0.000000000000000e+00 0.000000000000000e+00 0.000000000000000e+00
0.000000000000000e+00 0.000000000000000e+00 0.000000000000000e+00
0.000000000000000e+00 0.000000000000000e+00 0.000000000000000e+00
0.000000000000000e+00 0.000000000000000e+00 0.000000000000000e+00
0.000000000000000e+00 0.000000000000000e+00 0.000000000000000e+00
0.000000000000000e+00 0.000000000000000e+00 0.000000000000000e+00
0.000000000000000e+00 0.000000000000000e+00 0.000000000000000e+00
0.000000000000000e+00 0.000000000000000e+00 0.000000000000000e+00
0.000000000000000e+00 0.000000000000000e+00 0.000000000000000e+00
0.000000000000000e+00 0.000000000000000e+00 0.000000000000000e+00
0.000000000000000e+00 0.000000000000000e+00 0.000000000000000e+00
0.000000000000000e+00 0.000000000000000e+00 0.000000000000000e+00
0.000000000000000e+00 0.000000000000000e+00 0.000000000000000e+00
0.000000000000000e+00 0.000000000000000e+00 0.000000000000000e+00
0.000000000000000e+00 0.000000000000000e+00 0.000000000000000e+00
0.000000000000000e+00 0.000000000000000e+00 0.000000000000000e+00
0.000000000000000e+00 0.000000000000000e+00 0.000000000000000e+00
0.000000000000000e+00 0.000000000000000e+00 0.000000000000000e+00
0.000000000000000e+00 0.000000000000000e+00 0.000000000000000e+00
0.000000000000000e+00 0.000000000000000e+00 0.000000000000000e+00
0.000000000000000e+00 0.000000000000000e+00 0.000000000000000e+00
0.000000000000000e+00 0.000000000000000e+00 0.000000000000000e+00
0.000000000000000e+00 0.000000000000000e+00 0.000000000000000e+00
0.000000000000000e+00 0.000000000000000e+00 0.000000000000000e+00
0.000000000000000e+00 0.000000000000000e+00 0.000000000000000e+00
0.000000000000000e+00 0.000000000000000e+00 0.000000000000000e+00
0.000000000000000e+00 0.000000000000000e+00 0.000000000000000e+00
0.000000000000000e+00 0.000000000000000e+00 0.000000000000000e+00
0.000000000000000e+00 0.000000000000000e+00 0.000000000000000e+00
0.000000000000000e+00 0.000000000000000e+00 0.000000000000000e+00
0.000000000000000e+00 0.000000000000000e+00 0.000000000000000e+00
0.000000000000000e+00 0.000000000000000e+00 0.000000000000000e+00
0.000000000000000e+00 0.000000000000000e+00 0.000000000000000e+00
0.000000000000000e+00 0.000000000000000e+00 0.000000000000000e+00
0.000000000000000e+00 0.000000000000000e+00 0.000000000000000e+00
0.000000000000000e+00 0.000000000000000e+00 0.000000000000000e+00
0.000000000000000e+00 0.000000000000000e+00 0.000000000000000e+00
0.000000000000000e+00 0.000000000000000e+00 0.000000000000000e+00
0.000000000000000e+00 0.000000000000000e+00 0.000000000000000e+00
0.000000000000000e+00 0.000000000000000e+00 0.000000000000000e+00
0.000000000000000e+00 0.000000000000000e+00 0.000000000000000e+00
0.000000000000000e+00 0.000000000000000e+00 0.000000000000000e+00
0.000000000000000e+00 0.000000000000000e+00 0.000000000000000e+00
0.000000000000000e+00 0.000000000000000e+00 0.000000000000000e+00
0.000000000000000e+00 0.000000000000000e+00 0.000000000000000e+00
0.000000000000000e+00 0.000000000000000e+00 0.000000000000000e+00
0.000000000000000e+00 0.000000000000000e+00 0.000000000000000e+00
0.000000000000000e+00 0.000000000000000e+00 0.000000000000000e+00
0.000000000000000e+00 0.000000000000000e+00 0.000000000000000e+00
0.000000000000000e+00 0.000000000000000e+00 0.000000000000000e+00
0.000000000000000e+00 0.000000000000000e+00 0.000000000000000e+00
0.000000000000000e+00 0.000000000000000e+00 0.000000000000000e+00
0.000000000000000e+00 0.000000000000000e+00 0.000000000000000e+00
0.000000000000000e+00 0.000000000000000e+00 0.000000000000000e+00
0.000000000000000e+00 0.000000000000000e+00 0.000000000000000e+00
0.000000000000000e+00 0.000000000000000e+00 0.000000000000000e+00
0.000000000000000e+00 0.000000000000000e+00 0.000000000000000e+00
0.000000000000000e+00 0.000000000000000e+00 0.000000000000000e+00
0.000000000000000e+00 0.000000000000000e+00 0.000000000000000e+00
0.000000000000000e+00 0.000000000000000e+00 0.000000000000000e+00
0.000000000000000e+00 0.000000000000000e+00 0.000000000000000e+00
0.000000000000000e+00 0.000000000000000e+00 0.000000000000000e+00
0.000000000000000e+00 0.000000000000000e+00 0.000000000000000e+00
0.000000000000000e+00 0.000000000000000e+00 0.000000000000000e+00
0.000000000000000e+00 0.000000000000000e+00 0.000000000000000e+00
0.000000000000000e+00 0.000000000000000e+00 0.000000000000000e+00
0.000000000000000e+00 0.000000000000000e+00 0.000000000000000e+00
0.000000000000000e+00 0.000000000000000e+00 0.000000000000000e+00
0.000000000000000e+00 0.000000000000000e+00 0.000000000000000e+00
0.000000000000000e+00 0.000000000000000e+00 0.000000000000000e+00
0.000000000000000e+00 0.000000000000000e+00 0.000000000000000e+00
0.000000000000000e+00 0.000000000000000e+00 0.000000000000000e+00
0.000000000000000e+00 0.000000000000000e+00 0.000000000000000e+00
0.000000000000000e+00 0.000000000000000e+00 0.000000000000000e+00
0.000000000000000e+00 0.000000000000000e+00 0.000000000000000e+00
0.000000000000000e+00 0.000000000000000e+00 0.000000000000000e+00
0.000000000000000e+00 0.000000000000000e+00 0.000000000000000e+00
0.000000000000000e+00 0.000000000000000e+00 0.000000000000000e+00
0.000000000000000e+00 0.000000000000000e+00 0.000000000000000e+00
0.000000000000000e+00 0.000000000000000e+00 0.000000000000000e+00
0.000000000000000e+00 0.000000000000000e+00 0.000000000000000e+00
0.000000000000000e+00 0.000000000000000e+00 0.000000000000000e+00
0.000000000000000e+00 0.000000000000000e+00 0.000000000000000e+00
0.000000000000000e+00 0.000000000000000e+00 0.000000000000000e+00
0.000000000000000e+00 0.000000000000000e+00 0.000000000000000e+00
0.000000000000000e+00 0.000000000000000e+00 0.000000000000000e+00
0.000000000000000e+00 0.000000000000000e+00 0.000000000000000e+00
0.000000000000000e+00 0.000000000000000e+00 0.000000000000000e+00
0.000000000000000e+00 0.000000000000000e+00 0.000000000000000e+00
0.000000000000000e+00 0.000000000000000e+00 0.000000000000000e+00
0.000000000000000e+00 0.000000000000000e+00 0.000000000000000e+00
0.000000000000000e+00 0.000000000000000e+00 0.000000000000000e+00
0.000000000000000e+00 0.000000000000000e+00 0.000000000000000e+00
0.000000000000000e+00 0.000000000000000e+00 0.000000000000000e+00
0.000000000000000e+00 0.000000000000000e+00 0.000000000000000e+00
0.000000000000000e+00 0.000000000000000e+00 0.000000000000000e+00
0.000000000000000e+00 0.000000000000000e+00 0.000000000000000e+00
0.000000000000000e+00 0.000000000000000e+00 0.000000000000000e+00
0.000000000000000e+00 0.000000000000000e+00 0.000000000000000e+00
0.000000000000000e+00 0.000000000000000e+00 0.000000000000000e+00
0.000000000000000e+00 0.000000000000000e+00 0.000000000000000e+00
0.000000000000000e+00 0.000000000000000e+00 0.000000000000000e+00
0.000000000000000e+00 0.000000000000000e+00 0.000000000000000e+00
0.000000000000000e+00 0.000000000000000e+00 0.000000000000000e+00
0.000000000000000e+00 0.000000000000000e+00 0.000000000000000e+00
0.000000000000000e+00 0.000000000000000e+00 0.000000000000000e+00
0.000000000000000e+00 0.000000000000000e+00 0.000000000000000e+00
0.000000000000000e+00 0.000000000000000e+00 0.000000000000000e+00
0.000000000000000e+00 0.000000000000000e+00 0.000000000000000e+00
0.000000000000000e+00 0.000000000000000e+00 0.000000000000000e+00
0.000000000000000e+00 0.000000000000000e+00 0.000000000000000e+00
0.000000000000000e+00 0.000000000000000e+00 0.000000000000000e+00
0.000000000000000e+00 0.000000000000000e+00 0.000000000000000e+00
0.000000000000000e+00 0.000000000000000e+00 0.000000000000000e+00
0.000000000000000e+00 0.000000000000000e+00 0.000000000000000e+00
0.000000000000000e+00 0.000000000000000e+00 0.000000000000000e+00
0.000000000000000e+00 0.000000000000000e+00 0.000000000000000e+00
0.000000000000000e+00 0.000000000000000e+00 0.000000000000000e+00
0.000000000000000e+00 0.000000000000000e+00 0.000000000000000e+00
0.000000000000000e+00 0.000000000000000e+00 0.000000000000000e+00
0.000000000000000e+00 0.000000000000000e+00 0.000000000000000e+00
0.000000000000000e+00 0.000000000000000e+00 0.000000000000000e+00
0.000000000000000e+00 0.000000000000000e+00 0.000000000000000e+00
0.000000000000000e+00 0.000000000000000e+00 0.000000000000000e+00
0.000000000000000e+00 0.000000000000000e+00 0.000000000000000e+00
0.000000000000000e+00 0.000000000000000e+00 0.000000000000000e+00
0.000000000000000e+00 0.000000000000000e+00 0.000000000000000e+00
0.000000000000000e+00 0.000000000000000e+00 0.000000000000000e+00
0.000000000000000e+00 0.000000000000000e+00 0.000000000000000e+00
0.000000000000000e+00 0.000000000000000e+00 0.000000000000000e+00
0.000000000000000e+00 0.000000000000000e+00 0.000000000000000e+00
0.000000000000000e+00 0.000000000000000e+00 0.000000000000000e+00
0.000000000000000e+00 0.000000000000000e+00 0.000000000000000e+00
0.000000000000000e+00 0.000000000000000e+00 0.000000000000000e+00
0.000000000000000e+00 0.000000000000000e+00 0.000000000000000e+00
0.000000000000000e+00 0.000000000000000e+00 0.000000000000000e+00
0.000000000000000e+00 0.000000000000000e+00 0.000000000000000e+00
0.000000000000000e+00 0.000000000000000e+00 0.000000000000000e+00
0.000000000000000e+00 0.000000000000000e+00 0.000000000000000e+00
0.000000000000000e+00 0.000000000000000e+00 0.000000000000000e+00
0.000000000000000e+00 0.000000000000000e+00 0.000000000000000e+00
0.000000000000000e+00 0.000000000000000e+00 0.000000000000000e+00
0.000000000000000e+00 0.000000000000000e+00 0.000000000000000e+00
0.000000000000000e+00 0.000000000000000e+00 0.000000000000000e+00
0.000000000000000e+00 0.000000000000000e+00 0.000000000000000e+00
0.000000000000000e+00 0.000000000000000e+00 0.000000000000000e+00
0.000000000000000e+00 0.000000000000000e+00 0.000000000000000e+00
0.000000000000000e+00 0.000000000000000e+00 0.000000000000000e+00
0.000000000000000e+00 0.000000000000000e+00 0.000000000000000e+00
0.000000000000000e+00 0.000000000000000e+00 0.000000000000000e+00
0.000000000000000e+00 0.000000000000000e+00 0.000000000000000e+00
0.000000000000000e+00 0.000000000000000e+00 0.000000000000000e+00
0.000000000000000e+00 0.000000000000000e+00 0.000000000000000e+00
0.000000000000000e+00 0.000000000000000e+00 0.000000000000000e+00
0.000000000000000e+00 0.000000000000000e+00 0.000000000000000e+00
0.000000000000000e+00 0.000000000000000e+00 0.000000000000000e+00
0.000000000000000e+00 0.000000000000000e+00 0.000000000000000e+00
0.000000000000000e+00 0.000000000000000e+00 0.000000000000000e+00
0.000000000000000e+00 0.000000000000000e+00 0.000000000000000e+00
0.000000000000000e+00 0.000000000000000e+00 0.000000000000000e+00
0.000000000000000e+00 0.000000000000000e+00 0.000000000000000e+00
0.000000000000000e+00 0.000000000000000e+00 0.000000000000000e+00
0.000000000000000e+00 0.000000000000000e+00 0.000000000000000e+00
0.000000000000000e+00 0.000000000000000e+00 0.000000000000000e+00
0.000000000000000e+00 0.000000000000000e+00 0.000000000000000e+00
0.000000000000000e+00 0.000000000000000e+00 0.000000000000000e+00
0.000000000000000e+00 0.000000000000000e+00 0.000000000000000e+00
0.000000000000000e+00 0.000000000000000e+00 0.000000000000000e+00
0.000000000000000e+00 0.000000000000000e+00 0.000000000000000e+00
0.000000000000000e+00 0.000000000000000e+00 0.000000000000000e+00
0.000000000000000e+00 0.000000000000000e+00 0.000000000000000e+00
0.000000000000000e+00 0.000000000000000e+00 0.000000000000000e+00
0.000000000000000e+00 0.000000000000000e+00 0.000000000000000e+00
0.000000000000000e+00 0.000000000000000e+00 0.000000000000000e+00
0.000000000000000e+00 0.000000000000000e+00 0.000000000000000e+00
0.000000000000000e+00 0.000000000000000e+00 0.000000000000000e+00
0.000000000000000e+00 0.000000000000000e+00 0.000000000000000e+00
0.000000000000000e+00 0.000000000000000e+00 0.000000000000000e+00
0.000000000000000e+00 0.000000000000000e+00 0.000000000000000e+00
0.000000000000000e+00 0.000000000000000e+00 0.000000000000000e+00
0.000000000000000e+00 0.000000000000000e+00 0.000000000000000e+00
-5.489284093207967e+00 -9.647185937328652e-01  1.076004914003439e-16
-4.687601996180851e+00  3.058522107968343e-01  8.027894873750574e-17
-2.320811352436541e+01  6.330020931044837e+00  3.479773982304734e-16
-9.518622821748068e+00 -7.463341412483679e-01  1.770635595262947e-16
-1.048232706519329e+01  2.232703832740580e+00  1.636052930927014e-16
 4.757174536624919e+00  1.031924698469048e+00 -9.526224684920400e-17
-2.177315045310120e+01  1.779471385053865e+00  3.691957622138151e-16
-5.349161463846919e+00  4.707211749309301e-01  9.035821988600330e-17
 1.519964397272460e+01 -1.089031122116447e+00 -2.593063961174058e-16
 3.192692178547363e+01  5.799108083754857e+00 -6.277613859263643e-16
-1.555606803651789e+01 -1.701430165569974e+00  2.943203635353507e-16
 6.685961231279308e-01 -2.142517891111081e-02 -1.167832961344285e-17
 1.009351423296020e+01  1.033697061404504e+00 -1.902469875455097e-16
-6.745827930662861e+00  1.169402687581786e-01  1.188485359604151e-16
-7.061583500008454e+00  8.265643828612970e-01  1.171766529171302e-16
-1.774800025607430e+01 -5.590698430954931e-01  3.215910746620579e-16
 1.963319412097194e+01  2.594001745116411e+01 -6.159203647702214e-16
-1.205533962737197e+01 -5.445824728951965e+00  2.704930195658753e-16
-6.701487496558797e+00  3.430145127922329e+00  8.401746872103381e-17
 1.853635268567193e+01  1.378101174431064e+01 -4.714713964203030e-16
-2.432674702025573e+01  9.419147738970505e+00  3.361451599018554e-16
-4.281323503018451e+00 -7.272748156205805e-01  8.366374321795427e-17
-6.530624315739724e+00  1.208044234579360e+00  1.038080340392594e-16
 1.471695506967718e+01  4.656016754943761e+00 -3.097446512227887e-16
-7.110034950043633e+00  6.308696477900084e-01  1.200495966361404e-16
 1.315331397490939e+01  1.933499903963862e+00 -2.539449211380297e-16
-7.369053051412098e+00 -3.644229745645043e-01  1.348854028551951e-16
 1.310892265025726e+01  8.853667765516821e-01 -2.423857374453578e-16
-5.613283044205680e-01  6.673595050744330e-02  9.303819089955990e-18
-8.927709691619807e+00  2.403687814418083e-01  1.564095414155120e-16
 2.737132761841145e+01  3.039115698740564e+00 -5.183312344529352e-16
-8.759678194919147e+00 -2.901758945519932e+01  4.540341129446701e-16
-1.327371686163460e+01  5.722188045054382e+00  1.774282215594828e-16
 7.606269815758725e+00  5.625541794012071e-01 -1.411426842912671e-16
 3.035690823268050e-01 -1.928683869536725e-01 -3.420721294713145e-18
 1.543694778264884e+01  1.551264632490919e+00 -2.906575802245844e-16
-7.066729506223019e+00  4.110523593643769e-01  1.215374673831166e-16
 1.750767907337180e+01 -7.034302424832062e-02 -3.108472840056643e-16
-1.040097634213900e+01 -3.772174135510213e-01  1.889735526251186e-16
 9.791471585999142e+00 -1.577834498178959e+00 -1.580392403450319e-16
-2.922149671950650e+00 -2.001099423617491e-01  5.405919604045393e-17
 1.319558541591489e+01 -4.076589906096660e+00 -1.929457023619616e-16
 3.568042975001410e+00  7.721860210647679e-01 -7.143151167809220e-17
-8.669979640818346e+00  5.611426173519629e-01  1.485270930833731e-16
-2.654975920722344e+01 -3.265209189772804e+00  5.060334730279604e-16
 1.886683437670448e+01 -7.069322147918513e+00 -2.631231059642435e-16
 9.139793990166195e+00  1.271346546131972e+00 -1.757161603142710e-16
 1.664390275648615e-01  1.667703452100461e-02 -3.133331486733255e-18
 9.247475519516181e+00  1.662292342693679e+00 -1.816493076192114e-16
 1.415467424270512e+01 -1.829360272443111e+00 -2.331033001919110e-16
-1.845256954788641e+01 -6.224333417404750e+00  3.923382508639438e-16
-1.515664887001926e+01  3.330720057126399e+00  2.355087075121307e-16
 2.450812121991649e+01 -4.913326613621408e-01 -4.311029868416434e-16
 2.599463322819006e+01  4.676308276202247e+00 -5.106528745738378e-16
-2.566332146868071e+01 -3.178942140371698e+00  4.893718935252339e-16
-8.895059290541814e+00  8.958619419930375e-01  1.490935344792985e-16
 2.420474721003789e+01 -6.542269538984682e-02 -4.300801546309247e-16
 5.432342539038898e+00 -7.573370751693997e-03 -9.659720178054952e-17
 6.714768295367610e+00  1.317192450898312e-01 -1.208506788760990e-16
 6.725964068425546e+00  1.113849843294267e-01 -1.208409938649758e-16
 3.024563383734454e+00  8.354303124731471e-02 -5.468408753153087e-17
 8.893786992600438e+00  5.767476939562138e-02 -1.588681356001120e-16
 1.677363258459921e+00  5.813006410338972e-02 -3.044794530520031e-17
 8.656182035812471e+00 -1.423731563747213e-01 -1.525842523951368e-16
 1.104147930903187e+00  4.162457472962370e-02 -2.007730688599887e-17
 2.746757632966986e+01 -2.540964404986802e+00 -4.627107990960880e-16
-7.825181097087521e+00 -1.452379632173029e+00  1.541811049793032e-16
-1.698904956459542e+01  5.974360441855753e-01  2.962019639543219e-16
-3.248823691563818e+01 -1.898095539942711e+00  5.976691714345758e-16
 1.590222096445660e+01 -2.763427258668248e+00 -2.546057797073501e-16
 3.342755904115961e+00  2.560196446279736e-01 -6.211883753890383e-17
-4.053391711462985e+00  4.053011329941115e-01  6.797061865483655e-17
 1.079381741469865e+01  8.316740526158499e-01 -2.006340050132920e-16
 5.543144854101473e-01 -1.359345681397565e-02 -9.725019625139476e-18
 8.001741838186957e+00  3.652415283741648e-01 -1.461532648546620e-16
-2.666600634621192e+00 -1.886221062087742e-02  4.764914149184654e-17
 2.388892681918153e+00  1.853885489118090e-02 -4.270367485494354e-17
 1.561044267601931e+01  9.445595632309792e-01 -2.875114546272653e-16
 2.940320855579601e+00  1.678165832750505e-02 -5.249894239002553e-17
 2.617325146594860e+01  7.196915915951404e-01 -4.731788000735585e-16
-7.796136011172096e+00 -2.274556628245389e+01  3.724439706037752e-16
-1.323178894099198e+01  6.346529509409301e+00  1.702671824864028e-16
 6.330867840347570e+00  6.108353871293116e-01 -1.189414566625999e-16
-1.369623870528582e+00  7.421759360720619e-02  2.361153170936527e-17
 1.304464964817827e+01  1.594632873996183e+00 -2.485293742337666e-16
-4.944930088165300e+00  4.437191838766266e-01  8.344187601091745e-17
 1.634819241023392e+01  9.161611800853652e-01 -3.003488079781399e-16
-5.388278702484619e+00  9.457639955880297e-02  9.491910870110851e-17
 5.102798893218172e+00 -1.423279745136738e-01 -8.934802490826802e-17
-5.198691806393116e-03  2.461179705662508e-03  6.722918717708719e-20
 8.501752457638824e+00 -1.737144747434023e-01 -1.495139731332516e-16
-3.544570257341269e+00 -7.726994517096070e-02  6.387377646001514e-17
-2.660090497292882e+01 -1.384480249951140e+00  4.876198663384413e-16
-3.217864821277462e+00  5.888808532408121e+00 -3.239625309046971e-18
 2.462748651186284e+01  5.655152308297700e+00 -4.963801348327562e-16
-3.402609661232491e+00 -5.017562183099938e-02  6.106903399037113e-17
-2.273648286212946e+01 -1.974593567101768e+00  4.249110651667876e-16
-1.458551773923340e+00  1.020865317065886e-01  2.490776661874903e-17
 9.034372072433445e+00  6.668531670346884e-01 -1.676291016451211e-16
-4.897812259465838e+00 -2.935674447771825e-02  8.746404136405188e-17
-1.106696466614211e+01  1.817110308044413e-01  1.950828225489090e-16
-2.419369480706980e+01  4.709838275858399e+00  3.821637810158738e-16
 8.409127243175478e+00 -2.080546841227392e-01 -1.475127637890522e-16
 2.409304574169300e+01 -3.319626240338194e+00 -3.946565345032468e-16
-7.180978247119160e+00  1.103504134678404e+01  1.441303255695160e-17
-1.665624138731882e+01  3.894948429932668e+00  2.563985035772579e-16
 3.656546086907166e+00  2.064466036256668e-01 -6.719376315872231e-17
 4.173332196451973e+00 -2.924767449490100e-01 -7.126433226926656e-17
-2.867805302250612e+00 -3.352903430601331e-01  5.448100260917552e-17
-1.181239985625196e+01  6.166635469522231e-01  2.038797518663727e-16
 1.410485334707126e+01 -3.246034388002294e-01 -2.476775077747173e-16
 4.312461563985841e+00  1.228969351370711e-01 -7.800811898261227e-17
-1.762831745168556e+00 -5.806864229746129e-02  3.196832790807041e-17
-9.518477016867363e+00 -3.060915607217288e-01  1.725376321127088e-16
 2.544400936509905e+00  1.276592705315392e-02 -4.541181499067015e-17
-1.550643405001036e+01 -1.328400589117151e+00  2.896043241914083e-16
-2.309871483016034e+01  8.535141447968877e+00  3.233737057568405e-16
 6.294418679902084e+00  6.630350314517992e-01 -1.188291327514168e-16
-4.695196484444786e+00  1.246573484307210e-01  8.227581310727600e-17
 1.518692787448257e+01  1.170535795150810e+00 -2.822963272226839e-16
-1.660061669256042e+01 -3.462627859024571e-01  2.989855003142201e-16
-7.616106072384862e+00  1.020580963699511e+00  1.250515937241957e-16
-1.278245865525882e+01 -4.556893617404266e-01  2.321611418918908e-16
-2.553605547827675e+00  6.524945432363762e-01  3.874031241888199e-17
 6.581138048871284e+00  1.260538643823478e-01 -1.184143595102133e-16
 2.808530717636514e+01 -6.254607910085142e+00 -4.355477184430648e-16
 4.943441046881857e+00  1.029962983242452e+00 -9.855692567760794e-17
-2.658030641211585e+01 -9.973933189941518e-01  4.832761127691245e-16
 1.197833910398136e+01  9.802943091267789e+00 -3.138905118133452e-16
 2.510711954802329e+01  1.931415910936027e+00 -4.666557380709908e-16
 1.008059099767622e-01 -1.736365567602091e-02 -1.615556153620511e-18
 4.262536462097621e+00 -1.053236098872380e-01 -7.477475903646804e-17
-8.735625934362822e+00 -1.440751303077830e+00  1.702640799891208e-16
-9.718967256499957e+00  5.220125418436004e-01  1.675971263009620e-16
 1.301935958199531e+01  2.404649035814778e-01 -2.341657233472057e-16
 2.740099307685015e+00  9.477957970922166e-02 -4.973716143991372e-17
-1.275896768758934e+00 -4.631732066604474e-02  2.318199858995243e-17
 3.159612658993214e+01 -2.910577326207534e-01 -5.593002494427857e-16
-1.365975698626694e+01 -3.166825412275755e+00  2.756296502181711e-16
-2.827392929501710e+01 -1.063530812000830e+00  5.140956909441960e-16
-4.081023763541989e+00  3.202065531514904e+01 -2.563739152905444e-16
 2.508077103295011e+01 -3.010456072536055e+00 -4.154108954171988e-16
 3.836161640316043e+00  1.140856684361704e-01 -6.944126111584362e-17
-2.238868138525555e+00  1.409485534980634e-01  3.839513395931505e-17
 4.429993936192345e+00  1.408733176533090e-01 -8.028444853957815e-17
 4.197543047175578e+00 -2.795277722266400e-01 -7.182823922121791e-17
 3.951020646939789e+00  3.585741949433056e-01 -7.399734498614636e-17
-6.538380367435219e+00  1.436191341132542e-01  1.148826434566654e-16
-3.252012611643167e+01  1.232390842991282e+00  5.660720672853593e-16
 8.306149649598275e+00 -4.935475782589839e-01 -1.427468188878837e-16
-6.172100522354567e-01 -2.524880914625729e-01  1.357821253239591e-17
 2.478893591071180e-01  1.636239682074382e-02 -4.579604526652849e-18
-3.715688810399058e+00 -3.541945066590793e-01  6.976433449899882e-17
-7.877730388459402e+00  1.576662750310219e+00  1.239939721701483e-16
 9.749472900942138e+00  6.794997854767726e-01 -1.804851133147517e-16
-2.675597952400425e+01  2.468804791691367e+00  4.507884989347897e-16
-1.134112710773597e+01 -4.354072618408836e-01  2.063025365097006e-16
 2.421910917598202e+01 -1.015973428071834e+01 -3.266203584571176e-16
-3.588580473787447e-01  7.007956546530732e-02  5.666264951046460e-18
-8.491654392607398e+00  1.027651750758778e+00  1.405603707034076e-16
-3.018744233190978e+01 -5.705335599680947e+00  5.958417958845695e-16
-6.839382253546058e+00  1.245616417860172e+01 -6.267596466531300e-18
 2.271800825858848e+01  2.270867817174628e+01 -6.376174747822204e-16
-2.834141892881568e+01 -6.872843445454338e+00  5.749853264161195e-16
-2.648997409768319e+01 -6.085164089461251e+00  5.339435379060142e-16
-1.647445721055161e+01 -3.056032028076843e-01  2.963225793965306e-16
-1.844521896948504e+01  3.393057685249379e-01  3.247684303264242e-16
-6.664460808669157e+00  7.091857977970581e-01  1.113154033021601e-16
-6.126015630241497e+00  8.771184260370372e-02  1.081185482043631e-16
-3.202238894637712e+01  5.689726507149402e+00  5.114167360388272e-16
-5.073719285376099e+00  2.338549526065821e+01 -1.499845816821827e-16
-3.854564220886160e+00 -3.384222493387888e+00  1.033682249295692e-16
-2.730726260636793e+01  1.640661467818681e+01  3.173933056084045e-16
 1.423206893295028e+01  1.196613628985793e+01 -3.762243466160806e-16
-3.172875981519397e+01  4.138114289655419e+00  5.221335072779391e-16
-2.833929716173994e+01  6.215594259087143e-01  4.979453000237427e-16
-5.299795523303591e-02 -1.984491432645290e-01  2.982154687562138e-18
 6.826963510610368e+00 -2.946728967480157e+01  1.812717376411572e-16
-3.167164540673628e+01  5.864911492603089e-01  5.576087258156471e-16
 1.386273894291532e+01 -1.888912072498102e+00 -2.272960902007763e-16
-8.953702313989181e+00 -9.574301565314929e-01  1.691790600938082e-16
-1.364360868187413e+01  4.593453374223010e+00  1.956082264302700e-16
 1.125497470098903e+01  1.733384496573714e-01 -2.020766898250397e-16
-2.744420082249514e+01 -1.468512756073107e+00  5.034907253439863e-16
-7.163888599466701e+00  5.151337734495681e-01  1.221971306256859e-16
 1.595805984100586e+00 -1.387374686185926e-01 -2.697379393161667e-17
 8.732801857968994e+00 -5.989354760784339e-01 -1.492567814837436e-16
-9.245012005212578e+00 -3.299709573530430e-01  1.679163482078786e-16
 2.141462469610126e+01 -1.140464323573891e+01 -2.639202244802597e-16
-8.385420835073269e+00 -1.495584802003301e+01  3.028944716306787e-16
-2.976169489196270e+00  1.023839739252414e+01 -5.223132773358213e-17
-6.782550348685671e+00 -1.260243238891452e+01  2.501889886677588e-16
-1.601432232360801e+00  2.287434146817936e+00  4.996841934706953e-18
-1.492808528594632e+00 -3.269572803521825e+00  6.015998128315648e-17
-4.629943454675850e+00 -7.593725014237963e-01  9.019764315914307e-17
 7.932410031899308e+00  2.544233912322567e+01 -4.025774906619800e-16
 5.584009202037761e+00 -8.311510026514387e+00 -1.397635840182136e-17
 3.979146902951691e+00  8.541917630763425e+00 -1.585787662504691e-16
 8.426450020634329e+00 -2.337437314143847e+01  9.020446323537057e-17
 7.448227429133886e+00  3.781016435436750e+00 -1.713986620136734e-16
-6.382642944306335e+00  3.213563099890504e+00  8.056855117011122e-17
 1.888261090517884e+01  2.535681157885988e+01 -5.965706126550367e-16
-6.725153734027712e+00  1.546472578887190e+00  1.037926887875804e-16
 1.181037966316999e+01  1.683257565889628e+00 -2.274746540461487e-16
-3.110089586358443e+00 -4.831881427380988e-01  6.031233667675299e-17
-2.969576030337825e+01 -8.759816439815097e+00  6.184754087114118e-16
-3.286952476371917e+00  4.793292065576574e+00  9.245905428191542e-18
-5.114850703017817e+00  1.192788413146932e+00  7.876940183601260e-17
 1.441606654603487e-02 -1.298018960160242e-01  1.077116227982759e-18
 1.357993108734624e+01 -1.966249074642359e-02 -2.414690474761572e-16
-6.293525140353533e-01  2.305826667875635e+00 -1.249145266525239e-17
-7.536536256242168e-01  2.856572026643168e+00 -1.593807460340438e-17
-4.709074799904069e+00  3.371989400273362e+00  4.915763711154725e-17
 8.634174571353347e-01 -1.992127792329941e+00  5.102845814194173e-18
-2.911694215878667e-01  5.892407725854341e+00 -5.536064166211825e-17
 1.803713436132246e+01  1.451967930110852e+01 -4.701767516617549e-16
 9.391725854079358e+00 -4.407217032473537e+00 -1.218544104309520e-16
-4.935597032823021e-02  1.586809272027501e+00 -1.542554040895103e-17
-1.573973428509262e+01  4.534368838297421e+00  2.335183540036206e-16
-1.563392130661699e+01 -6.101484433243440e+00  3.409148145243747e-16
 1.034753060511128e+01 -1.009203405544403e+01 -8.045466638191433e-17
 2.580233281460270e+01 -1.945284888746022e+00 -4.391961950092571e-16
 7.310962319167580e+00  2.081400484711715e-01 -1.322458586814762e-16
 1.930869281287124e+01  2.151344655256128e+00 -3.657255056585029e-16
-2.722238414301385e+01 -6.631450856053121e+00  5.525905463905913e-16
-3.840241962275568e-01  1.149189259046501e+01 -1.112408530287127e-16
 3.040735433464767e+01 -6.935436616788483e+00 -4.698760497987516e-16
 2.566115231191322e+01  1.752468367760234e+01 -6.367305736893588e-16
-2.656356406825853e+01 -4.548108237364338e+00  5.194604686887899e-16
-3.007078493987251e+01  1.210461636148250e+01  4.107749519301523e-16
 2.388706402750841e+00  2.251781068447810e-01 -4.482350304887862e-17
-3.627607054165309e+00  1.369081905246822e-01  6.315091277465149e-17
 2.931515469687506e+01 -1.492858684670348e-02 -5.215447606718985e-16
-1.042856141004070e+00  2.419887793202123e-02  1.831023431491675e-17
 5.162178312630918e+00 -9.525129491326498e-02 -9.088844828233883e-17
-1.081239162047781e+00  6.953444959055563e-03  1.917049651426561e-17
 1.109112984828120e+01  2.091660146476219e-01 -1.995289904374527e-16
-1.262417199344981e+01 -2.116944613150504e-01  2.268372829422558e-16
-3.736064176438235e-01  6.157204212047532e-03  6.585508813272642e-18
 3.199417215617019e+00  5.997131736483165e-03 -5.699906410526416e-17
-1.079563614562649e+01  2.530317001295266e-01  1.895214139115491e-16
 1.723304380596928e+01 -4.811019676438742e+00 -2.572510913769307e-16
 4.605055422719209e+00 -2.066044434814759e+01  1.303261059707095e-16
-3.121769216498135e+01  1.923629209400454e+00  5.357914785600503e-16
-1.841258363157891e+00 -3.254432156194186e-01  3.611119972120890e-17
 2.115804932267682e+00 -1.449837823688926e-01 -3.616361689899203e-17
 9.247993826256343e+00 -1.027538471307568e+00 -1.540214970282175e-16
 1.487911162147698e+01  6.067806808443771e-02 -2.654149848516356e-16
 2.592484145083396e+01 -2.287027243232771e+00 -4.378651037578571e-16
-2.619046362068703e+00 -8.639795975311972e-01  5.548613064327952e-17
-2.678944278311827e+01  8.058629691656354e-01  4.684701406705239e-16
-1.428634882798927e+01  5.024285323434273e+00  2.026199122487836e-16
 1.707324662854885e+01 -2.158900810600045e+00 -2.816568679028400e-16
 3.224097819803040e+01 -2.250336659829296e+00 -5.506452737713998e-16
-1.964736517752817e+01 -4.924515455831600e+00  4.002459069287853e-16
 8.421004811211199e+00 -2.001162010994854e+00 -1.293006128503689e-16
 6.848294064056902e+00 -3.181440180526681e+01  2.050078594697986e-16
-2.280995665872321e+01 -7.297246725502040e+00  4.809069466647089e-16
-1.706828103453312e+00  2.593961839264290e-01  2.770984052500867e-17
 1.833775558745983e+00  1.966812750665247e-01 -3.465505213042193e-17
-1.006584061477332e+01 -4.251138201179303e+00  2.228125414026402e-16
 1.215192902715085e+01 -1.844775186752474e+00 -1.973036774990941e-16
-1.410746480633268e-01 -5.994818852569838e+00  6.410517760443515e-17
-3.930085140265188e+00  9.695471961712790e-01  5.997880780846221e-17
-8.881981847102179e-03  5.168716648182341e-01 -5.152603135700407e-18
-8.174576189835991e+00  1.209354270732878e+00  1.330506584934153e-16
-1.501855782946062e+01 -3.881951536653247e+00  3.071587932032755e-16
-1.934591233390737e+01  1.551570430478967e+01  1.848653613111180e-16
 1.476901814393253e+01  3.075411511653884e+00 -2.944310310673833e-16
 3.477923107642525e+00 -6.087841276670148e-01 -5.563875456253161e-17
-2.083066726377359e+01 -6.139297357636307e+00  4.337856217867455e-16
-1.046865947695479e+01  9.884804050905940e+00  8.473951210872552e-17
 1.295485468479781e+01  1.455428246778006e+01 -3.800870574218519e-16
-3.128640229733601e+01  8.914961625821645e+00  4.651808564851894e-16
-2.603283405975306e+01 -4.288949020132517e+00  5.073527283109600e-16
-1.618833550172537e+01  4.028698559854479e+00  2.466973262072663e-16
 3.205478425353087e+01 -5.242127389642277e+00 -5.165921675089078e-16
-3.178855225568960e+00 -1.754145997905676e-01  5.837384193992506e-17
-8.175705290631692e+00  5.777292512227129e-01  1.395604697948727e-16
 1.031458174378510e+01 -7.658378321449836e-01 -1.756915802946585e-16
-1.352494873715561e-01 -1.644517577290185e-01  4.096608019292038e-18
 1.036586108308995e+01 -1.221376865958063e+00 -1.719236592064648e-16
 8.179939795430218e-01 -4.494452758337257e-02 -1.409538994783874e-17
 5.096656806468333e+00 -1.270230305929862e+00 -7.764993243440036e-17
 1.846904729085130e+01  2.541866315693996e+00 -3.547954802219567e-16
-1.782083774220690e+01 -1.206140476641619e+00  3.295357203399812e-16
-1.656864531994122e+01  1.637430484754252e+00  2.780348038647802e-16
 3.204292180761573e+01 -4.050381037450159e+00 -5.286258219823471e-16
 5.473286571604489e+00  6.214802351328683e-01 -1.037891469469006e-16
-6.780643644404269e-01 -1.102091272255190e-02  1.218020006456638e-17
-1.288384735604328e+01 -1.635861564828635e+00  2.460913154839051e-16
 5.248174720788008e+00 -3.005339614917675e-01 -9.030965211472353e-17
-1.393778668472553e+01 -1.896517216872773e+00  2.675255651011998e-16
-1.595556030316518e+01  4.883677038495455e+00  2.337702205887561e-16
 9.878619907888140e+00  6.975142968571446e-01 -1.829685309179877e-16
 3.030431024333685e+00 -1.649185971120810e-01 -5.223565623680934e-17
-2.044866390212140e+01 -3.137448392083606e+00  3.961445086485523e-16
 2.421990681655402e+00 -4.820538189825094e-01 -3.814928536147696e-17
 3.051558744788210e+00  8.311853218292663e-01 -6.284625513178859e-17
-1.724185020761362e+01  9.313664772991256e-01  2.972698390583868e-16
 1.105097096877355e+01  1.207625147067206e+01 -3.207443047464346e-16
 1.832382309345553e+01 -1.002486526734523e+00 -3.157941045063493e-16
 6.517642751055917e-01 -1.951814547068295e-01 -9.593504194841801e-18
-2.100188190016603e+00  1.231442111218761e+00  2.472273375184392e-17
-1.968367418329606e+00 -2.132301200253278e-01  3.722030818385685e-17
-3.960374657686441e+00  8.232483678354194e-01  6.202101322253609e-17
 4.217263091259768e+00  8.333909064537949e-01 -8.361401607325592e-17
-2.757288240877126e+01  1.320684919928201e+01  3.549967546245483e-16
-6.640415894174855e+00 -4.107035721939182e-01  1.223939518192515e-16
-2.981646622480384e+00  4.492329596477654e-01  4.844625270077642e-17
 6.560021494890021e+00  1.400183532704609e+00 -1.311297847269970e-16
-6.605142917433863e-01 -1.011595221478096e-02  1.185857744280503e-17
-1.135603421150980e+01 -3.049576930576843e+00  2.334274698892024e-16
 2.865324513597083e+00 -5.211123958975394e-01 -4.563762703193199e-17
 1.415486313630882e+01  1.807819290262118e+00 -2.704773605144671e-16
-9.238195939907413e+00  6.523846677734435e-02  1.637344149325106e-16
-1.622956476629901e+01 -9.666817966222901e-01  2.987567686231014e-16
 1.326757979962957e+01 -1.500768072773281e+00 -2.206925619084029e-16
 1.149541263516153e+01  3.365363551219430e+00 -2.391524680011945e-16
 7.092096282164688e+00 -6.430303191860126e-01 -1.196054101379699e-16
-7.689997737644610e-01 -2.473361017287740e-01  1.622655682471475e-17
-2.223145777168138e+00  9.506096619506486e-02  3.858681407416923e-17
 2.882282495142151e+01  1.495480206737058e+01 -6.665917097103918e-16
 2.364612899479625e+01  7.674609552388385e-01 -4.286964540978312e-16
-1.390534098883614e+01 -1.040910674012098e+01  3.544119202086252e-16
 5.267005722813023e+00 -1.731226630114559e+01  8.414459764179974e-17
 2.869663292561257e+01 -1.013761971922778e+01 -4.065304535888021e-16
-1.068803496390046e+01 -9.834874336840540e-01  2.003113074518053e-16
-9.561396073680701e+00  5.706999299471290e+00  1.115191038095555e-16
 1.880393415650289e+01  2.637623556841421e+00 -3.617390623078342e-16
 5.628580636686072e+00 -1.899524577366452e+00 -8.065038150611217e-17
-4.020030543715510e+00 -3.905255610517361e-01  7.555374708536882e-17
-1.494037798713526e+00  5.515297982870320e-01  2.092141645852875e-17
 6.470715681040062e+00  6.361571895531788e-01 -1.216903881072750e-16
 7.641752941348956e+00 -2.071040623471524e+00 -1.147149189732211e-16
 1.173547380683832e+01  7.144032609061336e-01 -2.161869889423162e-16
-1.424918473906922e+01  7.387934325841118e-01  2.459904053214956e-16
-1.460653686028142e+01 -5.039225839222307e-01  2.651183682235411e-16
 2.280564489724158e+01 -4.237225255513283e+00 -3.623177042764062e-16
 9.030324676470292e+00  2.232619568244857e+01 -3.900989495541272e-16
-1.896200001354860e+01  1.085493079712355e+01  2.259209382694207e-16
 1.757806835197491e+01  7.183573783236112e-01 -3.202035553079355e-16
 7.811598619592844e+00 -2.733582318663541e-01 -1.362080588998419e-16
-1.514743849516842e+00 -1.476079623774603e-01  2.847329179460077e-17
-6.785072938361365e+00  2.348523218556840e-01  1.183354441633583e-16
-2.605389058007079e+00 -1.083741851074338e-01  4.747951149053369e-17
 1.009388052483563e+01 -5.048398480531937e-01 -1.744455982990024e-16
 1.160995391757337e+01  2.291773377618067e+00 -2.301601177051880e-16
-5.212222002504184e+00 -9.677487340642436e-02  9.375203458607641e-17
 3.171391868697922e+01  4.788323688396460e+00 -6.135852992033919e-16
 1.309708352987239e+01  1.432521681283952e+00 -2.477968640873125e-16
-2.203138746805314e+01 -1.125560333729459e+01  5.077220554366955e-16
 8.913380593650012e-01 -6.883022998579600e+00  5.485813691359627e-17
 3.023628900437327e+01 -7.912396310795007e+00 -4.567938322375592e-16
 9.204809783595875e+00 -1.699465050210846e+01  1.080329022235663e-17
-1.904962234804298e+01  7.643611900358605e+00  2.604754173225048e-16
 2.210081299525140e+01 -1.476336724682001e+01 -2.416220947064192e-16
 2.678692417850599e+01  1.698191715063136e+01 -6.511882980368529e-16
-2.996354187233400e+01 -1.254084141794779e+01  6.620895592603406e-16
-2.488899899134535e+01  2.603915936305615e+00  4.161751353935289e-16
-7.637383057608846e+00  6.606694383787478e-01  1.291282031811938e-16
 8.035041016623360e+00 -6.949699278500571e-01 -1.358525758971644e-16
 1.380958937236158e+01  7.383213926386326e-01 -2.533440996086123e-16
 4.656720069020265e+00 -1.380672172805588e-01 -8.145329786384187e-17
 3.240211086262353e+01  2.322630949837470e+00 -6.004984027015868e-16
 4.646479345045263e+00  1.258187946888726e+00 -9.561706655775517e-17
-2.804494880306587e+01 -7.646146324125611e+00  5.776546930336751e-16
-3.876535549400140e+00 -2.352936865395809e+01  3.107432896402842e-16
 3.132973183327104e+01 -7.238064759374374e+00 -4.831814634096071e-16
 4.739868789299426e+00  2.317220182057809e+01 -3.224375749337523e-16
 1.418915759182062e+01 -2.040440880847290e+01 -4.286509662004729e-17
 3.212207211961747e+01 -4.366429182836468e+00 -5.267871163088615e-16
 2.955224166240753e+01  4.523362677985143e-01 -5.305649824031751e-16
-2.608425424641452e+01 -1.216805012703188e+01  5.892227135111252e-16
-2.067046249900460e+01  4.355373211252110e+00  3.231056592310157e-16
 1.665058552354721e+01  7.942645630222585e-01 -3.044778107274990e-16
-4.573984279509786e+00  4.457347808464187e-01  7.681974335882715e-17
 2.136643513572900e+01 -7.585433735266895e-01 -3.724474423678081e-16
 2.138155439734813e+01 -8.967940543301594e-01 -3.712960322178735e-16
 1.288352435135999e+01  2.000533428468104e+01 -4.348252262922828e-16
-7.252762879570704e+00  1.475580508530139e-01  1.275554614660240e-16
-4.796487398734876e+00 -1.314552950119437e+00  9.886576874387440e-17
-2.891766870120759e+01  1.492844140165069e+01  3.612400964534816e-16
 1.750198332386573e+01 -5.829208376931067e+00 -2.515756718812350e-16
-1.678951116466744e+01 -5.146201937051368e+00  3.516647338588034e-16
-1.704869138036812e+01  5.787087982045405e+00  2.439415727965283e-16
 2.899083106647210e+01 -1.222056457809137e+00 -5.033702341755116e-16
 1.006116020629294e+01 -2.773782904881236e-01 -1.762003860861474e-16
 1.235376561734274e+01  4.183053196467668e-03 -2.198929745751126e-16
 2.396570791571753e+00  6.723110224998118e-02 -4.334061112083718e-17
-8.362303965354386e+00 -1.904358985110197e-01  1.507738336423680e-16
-3.011869585181321e+01  1.126040889855233e+00  5.244284584794911e-16
 1.107265985286488e+01 -1.496848010096214e+00 -1.816716204860863e-16
 6.051309929774041e+00  4.476577811540909e-01 -1.122897995426322e-16
-6.206946179965438e+00  2.592877566690995e-01  1.077959236849582e-16
 2.115834927958982e+01  1.730185120748819e+00 -3.943150876004738e-16
-1.326759905278140e+01 -5.029909262083126e-01  2.412808003680478e-16
-2.270275054016580e+01  8.610189608055773e-01  3.951758696315260e-16
-1.435627189862204e+01  7.133721449086717e-01  2.481573435737576e-16
 2.082096253683582e+01 -6.296922697559140e+00 -3.058352712612823e-16
 1.817984820225357e+01  2.915618693262622e+00 -3.534890073792496e-16
-1.459310506488436e+01  1.353080722842748e+00  2.457992990373135e-16
 6.029435280447017e+00  1.171218161096609e-01 -1.085043771112187e-16
-1.394044322850488e+01 -3.579245954159069e-01  2.517643612097695e-16
 9.775816306748462e-01 -3.152613870968039e-02 -1.707331159265389e-17
-1.929704476020016e-01 -1.893824554460975e-02  3.628722904062355e-18
 1.211215610904251e+01 -5.929341985818196e-01 -2.094580823816023e-16
 3.257219599038877e+00  2.209009413458297e-01 -6.023578504344003e-17
 1.388278553233923e+01 -4.865145969901761e-01 -2.420619677933253e-16
-1.878173468881011e+01 -5.324679046687138e+00  3.889525153415722e-16
-1.904586818230529e+01  6.932857944665675e+00  2.677113461643348e-16
-8.573654348522191e-01 -2.653381640414948e+00  4.252037307319432e-17
 4.382700299523684e+00 -3.123112177485346e+00 -4.590653661511332e-17
 3.187840385270588e+01 -6.546548230123891e+00 -5.000508176113226e-16
 1.378386427697258e+01 -2.825019480070489e+00 -2.162742579059843e-16
-3.265529887122784e+00 -6.584715238328310e-01  6.487955529679832e-17
-7.796861808144359e+00  1.930774777164313e+00  1.189164468670324e-16
 1.417843507352005e+01  4.003123434537544e-01 -2.564352286921913e-16
 9.110188413966334e+00 -7.109744072586774e-01 -1.548216660931120e-16
 1.730274945718906e+01  2.599982917834715e+00 -3.346369459407397e-16
-6.199384221502266e+00  1.723057121975916e-02  1.101483992567695e-16
-2.103919384176164e+01  6.912910308302955e-01  3.673147866575090e-16
 1.088208373610270e+01 -4.472446478437790e-01 -1.890643844187648e-16
 8.179055555805673e+00  2.185559360086224e-01 -1.478016327919121e-16
-2.185768542287964e+01 -3.905731835294015e+00  4.291135606602174e-16
-5.654237340194088e+00 -3.158513731939985e+01  4.251497101241762e-16
 3.103081292792159e+01  3.520361633152144e-01 -5.558473746403444e-16
 2.615953201058340e-01 -2.082846035553489e-01 -2.515352124888997e-18
-1.511202046570734e+01 -1.268846410658513e+00  2.819733664078901e-16
 5.591503947547089e+00 -8.086351180260850e-01 -9.119905040067437e-17
 7.927605608097013e+00  1.050992347572627e+00 -1.518797627758521e-16
-3.364955147190282e+00  4.674490238407421e-01  5.508052178735661e-17
-4.055167068861147e+00 -5.188338478454541e-01  7.749736448095579e-17
 2.513994109795109e+01 -1.134778651953288e+01 -3.308008556878842e-16
-1.129511975887784e+01 -1.595470954908154e+00  2.174030138853757e-16
 1.507083258293073e+01 -5.791604125398521e+00 -2.086968144954221e-16
-8.304730021241395e+00 -2.528131112756665e+00  1.737682057511269e-16
 9.809399771280518e+00 -3.946023813281375e+00 -1.340260087940906e-16
-6.406172659739288e+00 -1.414120403046903e+00  1.285350574647177e-16
-1.522530753842402e+01  3.981606554348103e+00  2.300429481051222e-16
-1.127361351260485e+01 -7.920425111787512e-01  2.087653491888613e-16
 1.644798095679798e+01 -6.735283860752547e+00 -2.235088460577792e-16
 7.471026054599466e+00  2.165518915691157e+00 -1.552057405915360e-16
-1.217477042670096e+01  1.122552313623000e+01  1.013263900241388e-16
 1.509212528565240e+01  1.336061928863409e+01 -4.058578816608196e-16
 8.290541339654666e+00 -8.330070265355067e+00 -6.195162648928572e-17
-1.130165465029082e+01 -7.544637300228073e+00  2.786448330558422e-16
-1.146763362028510e+01  3.040428178394159e+01 -1.083127309547955e-16
 1.538515959444532e+01 -5.373557834583728e+00 -2.185859123747973e-16
 1.047748391054578e+01 -1.159034345775389e+00 -1.745506673246060e-16
 2.123907046655249e+01 -8.299656334720598e+00 -2.926986400112720e-16
 8.346363135550291e+00  1.966795662594497e+01 -3.506145974418807e-16
-2.887157123193120e+01 -2.732442178623334e+00  5.418789000981923e-16
-2.280592817199259e+01  4.180686150461070e+00  3.629036642442128e-16
 1.674125605423382e+01 -1.339751323736402e+01 -1.602760395870651e-16
 1.992535139078647e+01  1.184236754223184e+01 -4.762714203310251e-16
-5.827827365327412e+00  1.940330753829937e+00  8.377694602500128e-17
 3.579886692142007e+00  6.343515462470392e-01 -7.022608562680936e-17
 2.043202965540038e+01  6.980393184810222e+00 -4.353333441006697e-16
-3.007985537074817e+01  1.000774329529693e+01  4.324809800161454e-16
 1.286200456331409e+01  4.618884279554362e-01 -2.336404493649883e-16
-1.958873341626994e+01 -3.534317493681112e-01  3.522362602576536e-16
-2.055475479741101e+01  6.191512345853686e+00  3.021808401059158e-16
 1.866387512283288e+01  4.269530418622313e-01 -3.365327082953454e-16
-7.976913835433712e+00 -2.505274268667059e-01  1.445327752103925e-16
-5.978765721202905e+00  1.510890175522415e-01  1.048468829695631e-16
-2.710176729096227e+00  7.613884175718169e-02  4.744852877145442e-17
-4.837120141723357e+00  1.464273195094991e-01  8.457783533286852e-17
 3.505652757525396e+00 -2.520261344490869e-01 -5.979779554057375e-17
-5.623439902595956e+00 -1.925533859729550e-01  1.020542370428345e-16
 7.754945913270920e+00 -1.276961157863370e+00 -1.248882009478221e-16
-1.277106032012255e+01 -1.683382437891221e+00  2.445723952942258e-16
-2.585645725542994e+01  1.747277485218204e+01  2.806200853061496e-16
 1.631820412631881e+01  1.450678237348188e+00 -3.053070993822172e-16
-1.076247732135216e+01  1.006778999396922e+00  1.811868333639428e-16
-3.080329935537760e+00  1.144115534512006e-01  5.364260841272545e-17
-1.265718843249168e+01  3.974087272933670e-01  2.211665358814120e-16
-3.240677449333686e+00  1.267153940354638e-01  5.636976619098979e-17
-3.231296492135347e+00  6.106944337452259e-02  5.687730914907584e-17
-1.373905759060196e+01  1.715707793437711e-01  2.427400909346290e-16
 2.738622888704665e+01 -1.270896354958822e+01 -3.567906268519456e-16
 1.413342758937007e+00  1.662076764611610e+00 -4.222935527925511e-17
-1.949929507624372e+01  1.517063589505814e+00  3.314259382065171e-16
-1.800151834245879e+01 -4.250248359326950e+00  3.640282497836315e-16
-3.572856837816927e+00 -1.600295067676873e-01  6.522749433170826e-17
-7.872539591336770e+00 -2.142910025593377e+00  1.621188547843492e-16
-1.947649533373828e+01  4.181829560950163e+00  3.036406872882227e-16
-1.157446619932491e+01 -1.365588016314768e+00  2.200123533260923e-16
-2.011276824049768e+01  2.257993151651598e+00  3.347306428493153e-16
-2.809665607115813e+01 -4.059114615534417e+00  5.417194378028209e-16
 7.373134436312745e+00 -7.644565763155971e+00 -5.266858610859910e-17
 2.008538807467473e+01  1.123964483850390e+01 -4.729267071754582e-16
-3.216332664240316e+01  4.168486310490289e+00  5.295550808706420e-16
-8.450322489331853e+00  4.269386052119598e-01  1.459969295350556e-16
 1.408558396693159e+01 -1.264357950237335e+00 -2.376789500040833e-16
-1.802275588041477e+01 -1.842532023865259e+00  3.396677864243383e-16
-1.961601918680081e+01  8.630625565795630e-01  3.402228060164602e-16
 1.030192548980589e-02 -3.221429943165394e-02  1.476551715418452e-19
-1.050058929040536e+01 -2.294614018057128e-01  1.892281445233984e-16
-1.047002252330352e+01  1.159152794948294e+00  1.744166660161423e-16
-1.068792877614492e-02  4.759495884487742e-02 -2.988164795402878e-19
 9.901590689953212e+00 -1.623181450428506e+00 -1.595330176166778e-16
-4.307310646700936e+00 -3.292541774681756e-01  8.003669796841629e-17
 2.954326813310262e+01 -8.461089975549354e+00 -4.388230710400400e-16
-1.909105737826757e+01 -1.219470180724846e+01  4.650442697762601e-16
-3.013682259915535e+01  6.835706246473059e+00  4.660863081686884e-16
-2.036729580054088e+01 -1.922388757407333e+00  3.822121699289842e-16
-1.642704093283164e+01  3.683558242424235e+00  2.544915654546836e-16
 6.731280935975800e+00 -7.276151468469282e-01 -1.123151923054117e-16
 5.160637843908659e+00 -9.620200531147301e-02 -9.085126559824162e-17
 4.948381695343504e+00  2.293623793101220e-01 -9.041897003797007e-17
 9.513722696476623e+00 -4.262358225630701e-02 -1.688701019151471e-16
-1.423676949741491e+01 -1.422662825862274e+00  2.679776391596452e-16
-9.751820819481505e+00  1.366061950881037e+00  1.595094935553357e-16
 1.018131813033385e+01  2.222169451108130e+00 -2.040206847353508e-16
-3.042214048617346e+01  4.478910997797296e+00  4.953790953667330e-16
-3.111647214321971e+01 -5.533801408190084e+00  6.106125380581770e-16
 1.205612965234030e+01 -1.384312951868647e+01 -7.232008120290966e-17
 1.115556624564213e+01  6.873831653360023e+00 -2.691527313677212e-16
-2.872535528534004e+01  5.834678620311082e+00  4.512527588951367e-16
 7.092863894554807e+00 -1.117428582968977e+00 -1.147448009182949e-16
 1.840166883106328e+00 -2.630925484391071e-01 -3.004478434974594e-17
 1.832007349718412e+01 -1.517923277967731e+00 -3.104314505938624e-16
 2.122474127452501e+01  1.769056661721338e+00 -3.958960033195093e-16
-2.035361263785162e+01 -1.951316484462862e+00  3.822658835830355e-16
-3.086594071374788e+01  6.611635236651352e+00  4.813640829673434e-16
-3.180712577349828e+01  3.916534862323300e+00  5.258047711156066e-16
 1.533144284422666e+01 -1.360293400622669e+01 -1.330761080659505e-16
 1.339198479625330e+00  1.468722982421785e+01 -1.747385853923100e-16
-2.333446762770781e+01  2.268097122788977e+01  1.822259457672084e-16
-1.984426336886152e+01 -3.993773489115346e+00  3.941869095192482e-16
-2.610898990541883e+01  1.342942929958785e+01  3.266581117518914e-16
 3.241432321482638e+01  2.231064512341697e+00 -5.997749241937372e-16
-2.106828371928762e+01  3.332044186240776e-01  3.715116855857657e-16
-2.700833600006482e+01  7.364841016658755e-01  4.730784492231635e-16
-1.811676204188251e+01  2.820767604213388e+00  2.934270285675059e-16
 9.766008103357077e+00 -1.528468888294582e+00 -1.580933009369205e-16
 1.729600794820487e+01 -9.200829726303610e-01 -2.983495745557298e-16
 1.844255287012845e+01  3.201304444692896e+00 -3.610994676336499e-16
-2.313158294732923e+01 -1.801126271010419e+00  4.301600290343654e-16
 2.089079243332394e+01  2.155811653068948e+01 -5.932783866879761e-16
 2.637850582664717e+00  1.876728989159051e+00 -6.622640626198011e-17
-3.738263973414864e+00 -9.366106008559440e-02  6.748919994507741e-17
-2.802004120559622e+01 -1.053212785352389e+01  6.068638443884222e-16
-6.485271991740923e+00  2.370845018762030e+01 -1.281825620437006e-16
 3.187003800167965e+01 -6.084860378129508e+00 -5.046456122785222e-16
 1.883586644844139e+01  4.262555834139905e+00 -3.790029244192644e-16
-3.085617192794047e+01 -3.774895144223257e+00  5.879080623226038e-16
-2.255006649626771e+01  3.648119017977771e+00  3.638222343418405e-16
 2.042076191227426e+01 -3.113722633501851e+00 -3.314194480609709e-16
 1.130402809674109e+01  1.254913656214468e+00 -2.140624458557301e-16
 1.441993779393536e+01 -2.092761323006445e+00 -2.351176314177471e-16
 1.804832804195521e+01  6.570949633161464e+00 -3.887056467756766e-16
-5.864847405879050e+00 -7.173701173894088e-01  1.117426728173842e-16
-2.356013585142318e+01 -8.941367560906551e+00  5.111500245735388e-16
-2.869485510195048e+01  5.167263665709235e+00  4.575674179589891e-16
-1.935427500470369e+01 -2.031858567968002e+00  3.653090189855921e-16
-1.847857354096321e+01  3.196057724022854e+00  2.960099261151655e-16
-9.274684649761420e+00 -9.520581942313575e-02  1.660322818093404e-16
-1.665518745462866e+01  1.237873271995191e+00  2.836802295958683e-16
 6.206081198597824e+00 -4.897108538006389e-01 -1.054130166857343e-16
-2.505445877715403e+01 -4.521870287465003e+00  4.923345545199316e-16
-3.139539855439054e+00  1.997945593010666e+01 -1.494097950183716e-16
 2.252360140066155e+01  1.453443290222793e+01 -5.501703721820017e-16
-2.460262601256679e+01 -3.962397023808957e+00  4.785452669746108e-16
 2.679961407339025e+01 -1.025779739446040e-01 -4.758771487541787e-16
-9.097146046748422e+00 -8.164301702264222e+00  2.457797994543910e-16
-3.236599361837015e+01  3.071408245618275e+00  5.444338600248651e-16
 5.925390204697322e+00 -2.487952418482407e+00 -7.988657945265103e-17
 3.015481811780983e+01  5.771015721813980e+00 -5.959360484721195e-16
-2.831431253014323e+01 -4.959657110936478e+00  5.548456411322618e-16
-1.637770100164172e+01  3.308426460393316e+00  2.574678453442930e-16
 6.747582884979360e+00 -4.228842870112285e-01 -1.157363038212321e-16
-3.197288891499189e-01  5.713704349338555e-02  5.102894599350070e-18
-2.526835131530342e+01 -2.916479236073371e+00  4.796462175156108e-16
 3.501199497932123e+00  1.561742570599599e+01 -2.227713972440029e-16
 3.080094760074171e+01  5.118322363691240e+00 -6.007285062008741e-16
-2.237094101069170e-02 -8.551443640526098e-02  1.276747342327546e-18
-2.890969197840883e+01 -1.295822255775166e+00  5.277965564283213e-16
-3.117504014041139e+01  5.289855930281698e-01  5.493618914325372e-16
 2.294342982157429e+01 -1.096508972624667e+01 -2.956433879547429e-16
 2.280789182167983e+01  1.338106017451727e+01 -5.433791735401789e-16
-3.227967636815777e+01 -1.454459315624042e+00  5.893993866695349e-16
-9.982215319708629e+00  1.875196795861409e-01  1.757187322500343e-16
-7.691131817751198e+00 -3.734993648726901e-01  1.407104352904369e-16
-1.179171624070179e+01 -2.403518062876500e-01  2.123171836667557e-16
-1.019496264996833e+01 -1.773015723229765e-01  1.832532305949826e-16
-4.953596564618433e+00 -2.138354947434488e-02  8.837486792582405e-17
-2.149548358892339e+01 -2.112807467564157e+00  4.042461003757621e-16
 5.131770303031344e+00 -1.547534535521510e+00 -7.542561875667053e-17
-2.266037803994454e+01 -5.759028813194629e+00  4.624403864572186e-16
 4.400296460148682e+00 -3.101035959426747e+00 -4.644650641503998e-17
 2.146819400483533e+01  1.333488239531609e+01 -5.190631929199721e-16
-2.052406790121143e+01  1.195385634024609e-01  3.640220549752944e-16
-2.617016308439623e+01  6.340751496877893e-01  4.592143771624187e-16
-1.316511995361359e+01  1.258315551838921e+00  2.213602783117347e-16
 1.971964315379824e+01 -3.461035930388136e+00 -3.153736854639475e-16
-1.100519847922908e+01 -5.322520244889514e-01  2.013193306265401e-16
-1.178685982719143e+00 -2.288707807326485e-01  2.332768718128031e-17
-2.027915456590268e+01 -2.780404952397881e+00  3.894593961956026e-16
 9.213808079624862e+00 -3.510994689780449e+00 -1.278965104092787e-16
 1.703427707863399e+01  5.834742293106191e+00 -3.630951373019028e-16
-1.733121117180171e+01  6.953345065111029e+00  2.369864816264346e-16
-1.029597758080095e+01 -2.102159103140918e+00  2.048281236728263e-16
-1.447018603821684e+01  2.160896246537246e+01  3.548998179252269e-17
-1.649847734820864e+01 -5.267913194103146e+00  3.477359789057307e-16
 2.116767813653009e+00 -9.610049716313854e-01 -2.779643123460493e-17
 2.896957254715458e+01  8.342605997788056e+00 -6.012653456300529e-16
-2.944968987121011e+01 -5.765106166646011e+00  5.833267316891348e-16
-2.876428656108851e+01  6.929973154041467e-01  5.047744949595088e-16
 2.226766148530042e+01 -2.899601364303664e+00 -3.664872472790338e-16
 2.068441154935800e+01  2.596394464469916e+00 -3.947807867080256e-16
-1.029174515962391e+01 -1.584421522972459e+00  1.994332371202372e-16
-1.801026995729434e+01 -1.924727054585404e+00  3.402901086090946e-16
 8.734287231849568e-02 -2.564195893477637e-01  1.080247530934352e-18
 1.932433394562426e+01  2.656521470234242e+00 -3.711943665305475e-16
 7.193462186083178e+00  3.099644269417098e+00 -1.598639591106978e-16
-2.525815180779109e+01 -3.561709771078718e+00  4.860942144645044e-16
 1.529976668871782e+01 -9.419325663807772e+00 -1.754974490728338e-16
-2.059098985971911e-01  2.753777535585050e-01  8.350058835475987e-19
 5.243225288994902e+00 -1.076861205860616e+00 -8.224509068235872e-17
 2.475002761905260e+01  2.026376297640021e-01 -4.425382924152052e-16
-2.025314250781214e+01 -1.184079917035739e+00  3.725948207529732e-16
 2.044586693043925e-04 -2.305749582443984e-02  2.332688076384891e-19
-4.454344087439893e+00 -3.805954218016554e+00  1.183751633638582e-16
 5.640095027937729e+00  1.340516095480852e+01 -2.381053778564750e-16
 1.098924762655793e+01  5.540363075553775e+00 -2.524919879090486e-16
-1.484951168296613e+01 -1.766513082910902e+00  2.824150537415343e-16
-2.549898732620628e+01 -7.291509066782461e+00  5.287025026289875e-16
-2.435595841751979e+01 -5.540692031920987e-03  4.335002614744631e-16
-2.790688425277614e+01  1.668509754550695e+01  3.252029777572500e-16
 6.103865602276237e+00 -1.660035096178307e+00 -9.156931178293608e-17
 2.838139043473013e+01  9.302376314741987e-01 -5.146385510690750e-16
-1.713066968851871e+01  1.853938908087009e+00  2.858121525252557e-16
 2.319149550506534e+01  2.275907863403027e+01 -6.465615915703067e-16
 1.534425713056540e+01  6.661480255235780e-01 -2.799137878997352e-16
-2.808412430841087e+01  1.702133424367904e+00  4.823016894493715e-16
 2.497764369895099e+00  2.802124334661801e+01 -3.323587923853633e-16
 3.233164332403230e+01  3.312414982010981e+00 -6.094140201752538e-16
-7.330062979019980e+00 -6.894298192129148e+00  2.012836237599013e-16
-3.194435734668122e+01  2.541708240698237e+00  5.423728147449835e-16
-2.165624581546433e+01  1.565485066082338e+00  3.693139364310551e-16
-9.569817082295101e+00  1.892930259307239e+00  1.508571394966627e-16
-6.013735088647223e+00  1.281093755636603e+00  9.385881638982313e-17
 2.386509891882427e+00 -3.211739503508537e+01  2.875237763461807e-16
-2.276257404843202e+00 -2.363089154988830e+00  6.478859834953760e-17
-2.915609628917992e+01  1.276324773679348e+01  3.877297781285340e-16
-1.820536960224665e+01 -2.980772093505586e+00  3.546126186595128e-16
-7.301586338252840e+00  1.011932173800819e+01  2.596808377309428e-17
 2.089250306764333e+01  7.276672748675461e+00 -4.465721826530988e-16
-1.426463176022266e+01  1.259382171697673e+00  2.409164433379729e-16
 7.054442200199470e+00  2.831829580834944e-02 -1.258331740033848e-16
 1.172110016495000e+01 -2.016853148418504e-01 -2.065187155262635e-16
-1.151668432352162e+01 -4.839947900197494e+00  2.546818415902433e-16
-1.833594052265111e+01  3.714820225783770e+00  2.881415051684239e-16
-2.294605176326853e+00 -8.230428919573970e-02  4.168088289557899e-17
 1.268673882990899e+01 -2.288360935402237e+00 -2.022635734530367e-16
 2.206098759027187e+01  1.108295424840216e+00 -4.039889223512600e-16
-1.231308069911994e+01 -2.974560496860487e+00  2.496884871475752e-16
-2.564210105815651e+01  1.742944374207514e+00  4.384236550523265e-16
-1.450010818159462e+01  2.289879173316584e+01  2.276995487582946e-17
-8.646231082710631e+00 -1.164140244608310e+01  2.734811768639111e-16
-2.331489367101223e+01  6.329794528570616e+00  3.498800045329899e-16
-2.069198558655952e+00 -5.632105332138295e-01  4.261064021867958e-17
 6.552558665467804e+00 -1.632425955143576e+00 -9.983801396332082e-17
-1.110431469835193e+01 -7.298667741821022e+00  2.726056854175656e-16
-3.200479995706440e+01  5.897140594973467e+00  5.089726145921033e-16
-2.406400760738336e+01  2.038094215141382e+01  2.188409431696365e-16
 8.347002230567876e+00 -1.636897146912903e+01  1.964037412613744e-17
 2.756998766807854e+01  8.530651168493776e+00 -5.782901590404378e-16
 4.181780943785883e+00 -3.156389014819307e-01 -7.117670505905752e-17
 2.754452636627923e+01  1.367896336449410e+01 -6.307340823000967e-16
 3.878635048054131e-01  9.064535630822902e-02 -7.833841836835272e-18
 5.586010839408149e+00  1.873124476991463e-01 -1.013342934803146e-16
-2.727591409005957e+00  1.786344892786211e-02  4.835720226650619e-17
 9.251765075647557e-01 -1.201300995782321e-02 -1.634119022548870e-17
 1.989361393415246e+01 -6.760452109031218e-02 -3.533359778768335e-16
-9.016587353830490e-01 -1.258394761762764e-02  1.617538823385487e-17
 3.399735744206997e+00 -1.826907100409255e-01 -5.862527223813522e-17
-1.041688574250096e+01 -2.012928695520065e-01  1.874491186360071e-16
-8.878886223133302e+00 -1.285693200139819e+00  1.712204020354718e-16
 1.717687322585602e+01 -6.280912937390474e+00 -2.411488496311306e-16
-8.830034046937200e+00 -1.916243349391942e+00  1.768296930126321e-16
 2.217555536396605e+00 -1.729008905723033e+00 -2.169910754828155e-17
-9.344425178175708e+00 -2.293750982105983e+01  4.019697733397056e-16
-2.218176484495754e+01  1.027521118269899e+01  2.891769025628374e-16
 1.579626440317276e+01  6.482694473666881e-01 -2.877741005493351e-16
-1.331935937041160e+01  3.743775066042809e+00  1.985679591110575e-16
-1.640183029430709e+00 -6.265713932345322e-02  2.983279283548764e-17
 2.111006838456688e+01 -1.591122052668419e+01 -2.121968370841346e-16
-7.451056940855477e+00 -1.250139050370947e+01  2.610476922324441e-16
 3.528228307369453e+00  1.421491243482224e+00 -7.739433749734259e-17
 3.357401881531715e+00  3.727293594126089e-01 -6.357863009659070e-17
-9.468278277241939e+00  1.517432413943430e+00  1.529082392869017e-16
 1.925310292412870e+01  2.990641097848702e+00 -3.733596833438869e-16
 6.709130716593683e+00 -1.117825764544162e-01 -1.182484586697675e-16
-3.357747227977891e+00 -6.627873323334342e-01  6.656501625786422e-17
-2.017020824494167e+01  1.212129042783409e+00  3.464987300383145e-16
 1.945405518420064e+01 -4.761237314927261e-01 -3.413161192794503e-16
-1.430062546896801e+01 -2.581044478982636e+00  2.810159830756580e-16
 1.523818942279216e+01 -1.691049664080236e+00 -2.538068365608425e-16
 3.932529615003946e-02 -5.947284348391750e-02 -8.877869188944184e-20
 3.876760124024135e+00 -3.899982828591261e-01 -6.498448007897281e-17
-6.640139616840844e-02 -6.342732028060099e-01  7.698618781159063e-18
 1.183771707822965e+01 -3.726854975600841e+00 -1.723742149310693e-16
 2.324187771277535e+00  5.677230578040797e-01 -4.719484198025047e-17
-2.620843930334753e+00 -1.070791653692637e+00  5.764303923828445e-17
 1.759489841826881e+00  1.189608399217758e+01 -1.535401620427827e-16
 7.476639649618558e+00 -7.942715105685389e+00 -5.144720867543367e-17
-4.537594276913878e+00 -3.938870578399391e+00  1.212223671068193e-16
 3.241305308512592e+00 -1.192440810008707e+01  6.483606709565054e-17
-1.399563159718856e+01  1.230107210935843e-01  2.478050683933894e-16
-3.083197242288573e+00  1.254013652165457e+01 -7.397617458921967e-17
 2.570209143873219e+01 -1.007549756345834e+01 -3.538772983931801e-16
-2.805293861831744e+00 -3.928434198826621e+00  9.028678490295886e-17
-1.457081973076166e+01  5.553963916368365e+00  2.022401561779519e-16
-2.104318059149343e+01 -1.455080083280615e+01  5.239926925227974e-16
 1.230782857850644e+00 -2.068026002677884e+00 -6.550331861931169e-19
 1.129485475513372e+01  5.740875749657250e+00 -2.599908261893865e-16
 6.646879286369729e+00 -3.203980743117785e+00 -8.536940735240898e-17
 9.836027994452548e+00  2.725091770379367e+00 -2.030431790003729e-16
 9.434439840166858e+00 -5.946953603612548e+00 -1.067943228724382e-16
 5.652085712087577e+00  1.676773928291919e+00 -1.178138502840395e-16
-1.344405780956051e-02  9.645689334270077e-02 -7.518064946860497e-19
 1.130775711473858e+01  3.018931569379299e+00 -2.322534514197854e-16
-1.269692988155235e+01  1.473515085048646e+01  7.455869059846052e-17
 1.797211794804022e+01  3.009083614034058e+00 -3.507525178176942e-16
 1.965105548068507e+01 -4.909077639163429e+00 -2.992749834880054e-16
 2.815637552682270e+01  1.254353459768399e+01 -6.299565499237148e-16
-1.681938099879357e+01 -3.683896022833675e+00  3.371716411367222e-16
-1.522730680863369e+01 -1.716617229211846e+01  4.473642727655947e-16
 2.711059318675783e+01  2.819922749456143e+00 -5.114390262975320e-16
-2.130852880317888e+01 -1.656703472089830e+01  5.494309512000075e-16
-1.312016296578489e+01  2.013616591161547e+00  2.127997712919131e-16
-1.136490680111915e+00 -4.810432716834935e-01  2.516775219573955e-17
 2.007497369831751e+01 -3.089541399871178e+00 -3.255141877163354e-16
 2.183769176273124e+00 -9.856737899931277e-02 -3.785003338304652e-17
 1.730715296963714e+01 -5.099364437494012e+00 -2.556073146696813e-16
-4.187362283089345e+00 -6.341813467288524e+00  1.396789362228329e-16
 1.924948431161655e+00 -7.973691446272140e+00  4.767002950311714e-17
 1.952672464577077e+00  3.977950375108386e+00 -7.562213077075038e-17
 3.735646688494235e+00 -1.076495655585135e+01  4.412572914774347e-17
 1.932953437307449e+01  1.897399276410768e+01 -5.389430042157870e-16
 3.090136666664592e+00 -1.633456903678404e+00 -3.820949173772393e-17
 9.581033058400477e-01  3.744901197437537e-01 -2.089834113024706e-17
-1.810523419856494e+01  5.557295407846246e+00  2.651050477510595e-16
-6.072772571397025e+00  3.997635311299413e-02  1.076614892673764e-16
-6.812394322385384e+00  1.718252788745364e+00  1.035802598715443e-16
 9.434626690646866e+00 -1.398753451484855e-01 -1.664632676326015e-16
 1.650525030512048e+00  8.298964778523509e-02 -3.022575021761381e-17
-2.149140560181874e+01  7.969987840310655e-01  3.742763255794552e-16
-1.812830848083702e+00  2.116666330654742e-01  3.008668961057738e-17
-9.126137856935605e+00 -7.628717478235685e-01  1.702487393025938e-16
 8.237320790823834e+00 -2.396646787808434e+00 -1.219682741919112e-16
 2.629976439987937e+01  7.369700577497126e+00 -5.437566752120987e-16
 1.054501347260210e+01 -4.221374982134464e+00 -1.442879988558805e-16
-5.438285922074541e+00  7.639996760297718e+00  1.828259368995905e-17
 2.633546560518528e+01 -9.050809765452788e+00 -3.756772420559089e-16
 1.758313451183566e+00 -1.675075114113938e+00 -1.408049696714386e-17
-2.243730303183216e+01  1.404693132720297e+01  2.549714551117014e-16
 2.424486766220369e+01 -2.132563987532214e+01 -2.123531376493558e-16
-1.015116656775278e+00 -1.604472187267788e-01  1.971374866265798e-17
-5.258710100668862e+00  4.313424074023195e+00  4.926615363818348e-17
 1.537540141748361e+01  6.333964159826393e+00 -3.387027894602691e-16
-4.848371304310620e-01 -7.248209300310210e-01  1.607552682000989e-17
-4.106041184058425e+00  1.195992992735169e+01 -4.981203455706711e-17
 1.601985780342590e+01 -3.501546707619950e+00 -2.491153583649979e-16
 1.559762618035467e+01  1.053772513223341e+01 -3.858496610655108e-16
-1.798278574941960e+01  2.730488758308269e+00  2.919703429957348e-16
-1.275571655706185e+01 -4.628482657137920e+00  2.745591693781460e-16
-2.844149730403426e+01  3.859753509684046e+00  4.664928055933998e-16
-1.169278492225116e+01  1.764924869215313e+00  1.899530934624280e-16
 2.825155821006879e+01 -1.992297542007943e+00 -4.823000445283638e-16
-2.009773478572559e+00 -1.851365727473710e-01  3.766852741821993e-17
-2.309441694109266e+01  8.480810501203329e+00  3.238554504252339e-16
-1.732273107592490e+01 -2.031322622924884e+00  3.291497648290960e-16
 2.006965158007720e+00  3.011498205136833e+01 -3.451368396256895e-16
-1.209923252262291e+01 -4.128634799819606e+00  2.577404979785213e-16
-1.807092952966132e+01  9.490244138834635e+00  2.240849357678992e-16
 9.832639083228267e+00  4.391369939155459e+00 -2.201032721357121e-16
-2.418249680309423e+01  2.170313672764959e+01  2.073645307852545e-16
 3.143766296542049e+01 -4.637855825878473e+00 -5.118184288511788e-16
 1.649953794809261e+01  2.925985355897329e+00 -3.236923957525267e-16
-2.536501294450153e+01 -1.211838161321263e+00  4.638518587119204e-16
-1.529878176308848e+01  6.399219711249753e-01  2.656851047336488e-16
 6.993839204552670e+00 -2.773455774977632e-01 -1.216140861412882e-16
-1.602005977301021e+00 -5.389269969087518e-03  2.856498011491386e-17
-3.386516941564740e+00  2.951546408444753e-02  5.996384792055586e-17
-2.129097332332739e+00 -9.521621862562075e-02  3.886813877468266e-17
-1.278201897907593e+01  3.370399640118115e-01  2.240083114576562e-16
 2.672261483951703e+01  7.458420171581913e-01 -4.832240627300773e-16
-1.532325626117311e+01 -1.689761624657892e+01  4.463124913197561e-16
-2.772602044988100e+01 -8.688053361053296e-01  5.023442659125512e-16
-2.852922374461463e+01  8.413736151015558e-01  4.990667591577140e-16
 1.819417879426741e+01 -1.071251718807117e+00 -3.127803921546096e-16
-1.181422400400050e+00  2.032308747700687e-01  1.893669734824725e-17
 1.975139216953027e+01 -1.769095016292358e+00 -3.333227753382019e-16
-5.223797279544534e+00 -1.215007633955156e+00  1.054474658222608e-16
-1.183702537768011e+01 -7.913787002315410e+00  2.919652729080285e-16
 3.641939795550243e+00  1.055576701103088e+01 -1.732693343531985e-16
-3.007929640176097e+01 -7.585140579737708e+00  6.132315233538227e-16
-1.748829999430297e+01  5.243845526934772e+00  2.573465513567552e-16
 1.870109939756928e+01  2.230656962712372e+00 -3.557275612141812e-16
 2.752478724162965e+01 -4.166556500436100e+00 -4.470265672226007e-16
-2.653475153885404e+01 -9.437934250900877e+00  5.691889013274281e-16
-1.173983079231277e+01  1.035446998794667e+01  1.025358750925875e-16
 3.092144144628363e+01  8.663895831435262e+00 -6.393023173028856e-16
-2.982716440766869e+01 -1.301372639592296e+01  6.645212809670348e-16
-3.177957714465537e+01  3.111771408002419e+00  5.335831625321367e-16
 1.962315952708917e+01 -9.444918376647410e+00 -2.521744258783088e-16
 2.373233765431873e+01  7.761150982923612e+00 -5.020882644531538e-16
-1.737822209527204e+01 -9.919747670387706e-01  3.194583720537200e-16
-1.154208029797833e+01 -2.101028500316331e-01  2.075638172464208e-16
 6.508651391645895e-01 -1.965249456681648e-01 -9.563699114561858e-18
 1.324586729225272e+01  3.039824355040578e+00 -2.669590996668685e-16
-1.954088849814469e+01 -5.136190768508504e-01  3.530306694643074e-16
-1.450932232622919e+01  4.694426593546942e+00  2.099771702623412e-16
 2.158433901779969e+01  2.847684522993230e+00 -4.133779835373686e-16
 1.175225768311276e+01 -9.074850359290288e-01 -1.998213650116621e-16
 2.705256669668262e+01  3.809825045925436e+00 -5.205772621782121e-16
 7.937282797243989e+00  2.456536360872720e+00 -1.664934341927489e-16
-1.344393276557270e+01 -1.991045998352590e+00  2.597080943625998e-16
-2.694540691487137e+01 -4.952986923637709e+00  5.304157990532992e-16
 2.225888373505569e+01 -2.728573694716761e+00 -3.680882839182284e-16
 1.010883619639277e+01  5.007517800211371e-01 -1.850438409985456e-16
 1.194302273395393e+01  5.678290806076408e+00 -2.708827109778606e-16
 1.631614187145287e+01  1.181311455837083e+01 -4.117406679215433e-16
-2.567912024010695e+00 -1.822194589507465e+01  2.329229321429341e-16
 2.736604522936428e+01  1.230773999160458e+01 -6.134689756202110e-16
 2.334007770838062e+00 -1.627069743955848e+00 -2.481890183757062e-17
-7.876075827811146e+00 -2.577970322280397e+00  1.666518728347840e-16
 1.330104795765260e-01  2.695118688829277e+01 -2.792807348321057e-16
-5.551289582782332e+00 -1.332053489858569e+00  1.124781856548704e-16
-2.042430761562346e+01  1.213428486592527e+01  2.387995480414878e-16
 3.055084337618673e+01  9.008500583429154e+00 -6.362477712154638e-16
-3.129567864249735e+01 -8.580491914799735e+00  6.451053696567790e-16
-3.171159318693294e+01 -4.428190897263232e+00  6.098436805454625e-16
-7.536788377177791e+00  1.663469847882467e+00  1.170345909994331e-16
 1.817001118411686e+01  2.755279795290464e+00 -3.516665219774015e-16
-1.520913223372219e+01  4.736923775131773e-01  2.657976331113767e-16
 5.643405930574968e+00 -2.107033984738783e-01 -9.826623935586189e-17
-6.022077623494452e+00 -2.616586477356913e-01  1.098585022563083e-16
-6.434323638132978e+00  3.509756471251673e-01  1.109003170241350e-16
-8.735910084609461e+00 -5.355878627657379e-01  1.609689112512741e-16
-7.108911120945745e+00  4.398558164909074e-01  1.219921944854110e-16
-2.353904270559124e+01 -3.682887270344933e+00  4.567456721455408e-16
-1.528847392888412e+01  1.205807420272734e+01  1.481842984794279e-16
 2.919775252414368e+01  4.894576830963104e+00 -5.698988333800973e-16
-3.107793139291904e+01 -9.596892951834512e+00  6.516734490335382e-16
-3.207960272882342e+01  2.167785409197262e+00  5.486215889135958e-16
 1.683911283572336e+01 -1.090565375905867e+01 -1.876204686689028e-16
 1.567666527235698e+01  9.275656888567120e+00 -3.742889632794309e-16
-2.671038880523039e+01  1.711614083404348e-02  4.751673679651741e-16
 2.310471127111947e+00 -4.411099094661152e-01 -3.658534565579945e-17
-1.067300674151396e+01 -2.954595660480970e-01  1.929746258976478e-16
-8.248873168598394e+00  4.609524358410046e-01  1.420624187887696e-16
-1.276702631755843e+01 -7.275098980239956e-01  2.346793623294506e-16
-1.549402254920858e+01  2.729636483462847e+00  2.476885899377322e-16
-2.504844638914971e+01 -2.934894421876577e+00  4.759219564221012e-16
 1.178816151160434e+01 -2.224447373156402e+01  1.876949121154045e-17
 1.868632849826681e+01  5.719479300983691e+00 -3.913110775326051e-16
-2.985800554282072e+01  2.940273338535410e+00  5.011485840831230e-16
-2.893798014905608e+01 -5.088078777765902e+00  5.672640363095503e-16
-1.212647239423535e+01  4.773834911136186e+00  1.667556217177037e-16
 3.023422038257681e+01  4.161086002673470e+00 -5.808076634686740e-16
-5.679161723632375e+00 -8.626472470062943e-02  1.019537959289608e-16
 1.472025199828310e+00  1.333798578537241e-02 -2.633348728701321e-17
 4.150816379866217e+00  1.982777958880518e-01 -7.590596106101820e-17
-3.032470440611980e+01 -5.720364233142821e+00  5.984389519694917e-16
-5.679245514543441e-01  9.940381994958864e+00 -9.202691911117370e-17
 2.975301940586310e+01  1.003506559612107e+01 -6.325971245600731e-16
-2.646602466780045e+01 -1.883252171702623e+01  6.644917981186178e-16
-2.580470339014140e+01  8.838029879423931e-01  4.501447231484556e-16
 8.581987550240916e+00 -8.305237585525320e-01 -1.441933755112842e-16
 7.415055548305932e+00 -2.135722371244476e-01 -1.297653813421558e-16
 6.064193975547962e+00  1.425611071830038e-03 -1.079342130943597e-16
-1.403071730439949e+01  1.836470858090241e-01  2.478064437788200e-16
 1.226261266186286e+01 -2.327372743822119e+00 -1.943149102144835e-16
 2.878875670016150e+01  3.157485695542980e-01 -5.155744678087535e-16
-2.933298327345715e+01 -1.136019077543027e+01  6.387372603843367e-16
 5.229934268437258e+00 -5.268552367107782e-02 -9.253159417370180e-17
 2.603304304149641e+01 -1.830890945267161e+00 -4.444773149170907e-16
 3.232247314807891e+01 -3.787829921953177e+00 -5.362983888728716e-16
-2.488323112494542e+00 -1.082544238717117e+01  1.555101659202252e-16
 7.608747098926496e+00 -6.314697711778382e+00 -7.052550562111865e-17
 2.151365314822613e+00  6.984068228583399e+00 -1.100448759663507e-16
 1.371250628852625e+01 -1.206003479667948e+01 -1.201179297631609e-16
 7.034249196578487e+00  6.079131906210096e+00 -1.876437271705649e-16
 3.610958521043234e+00 -2.663670595155409e+01  2.094211631074216e-16
-2.109259817403468e+01  1.916311962880647e+01  1.784738518723759e-16
 2.054905260168891e+00  2.073973106768246e+01 -2.496626928446770e-16
-9.100150335289770e+00  3.932601585980665e+00  1.215419775753745e-16
-1.440195385800801e+00  2.164441874938404e+00  3.391140825932512e-18
-2.597590740783945e+01 -1.126322063782268e+00  4.738448075816163e-16
 1.033726549264019e+01 -1.903736459179658e+01  1.163803528126642e-17
 4.107375932154496e-01 -1.973490851387566e-01 -5.281875258255224e-18
 4.710291711879048e+00  1.518663685361404e+00 -9.942897732073195e-17
 2.389566445505992e+00  1.664576693275666e+01 -2.135543935252296e-16
-7.385206450013876e+00  1.532412429099385e+00  1.156835771449936e-16
 1.208149040071804e+01  2.893058434555072e+00 -2.447296574536926e-16
 8.693419194557544e+00 -7.888298008883432e-01 -1.466048248083033e-16
-4.029571469077510e+00 -1.905235151905557e+00  9.128663000128758e-17
-5.212725030176852e+00  2.273124004381497e+00  6.941113647912444e-17
 3.495984319499998e+00  6.648728017193442e-01 -6.904653762928507e-17
-1.411673573571683e+01  1.037147682684316e+00  2.405678357775557e-16
-2.543422058768894e+01 -4.270038874111695e+00  4.965053926612049e-16
 1.690979852753411e+01 -3.202289032718912e+00 -2.680276790237660e-16
 2.100065862389879e+01  3.367414412909763e+00 -4.083307305131231e-16
 3.384223112017222e+00  3.960837015281636e-01 -6.429590327095287e-17
-2.547249774392040e+01 -5.227236044669168e+00  5.070214334932130e-16
-2.337633167460497e+01  2.485482510235801e+00  3.904722765585912e-16
 2.414570278701504e+01 -2.284586752441416e+00 -4.062282841736032e-16
 1.155419763472285e+01  4.382392319231834e+00 -2.506482183343621e-16
-4.661786053118692e+00  2.514763048470923e-01  8.037821591187934e-17
-9.252008891876867e+00 -2.171508149882263e+00  1.869619918226872e-16
 1.734820031632870e+01 -9.390663162214391e+00 -2.122462656818788e-16
 1.553516880672285e-01 -3.344405573813314e-01  6.715866343720155e-19
 1.710196073643586e-01 -6.670060981725673e+00  6.548895563089005e-17
 1.440768914281527e+01  1.058869390043228e+01 -3.651969976664959e-16
 1.690986100542883e+01  2.011043741502786e-01 -3.029974217990884e-16
-1.533702160756423e+01 -1.647841978517056e+01  4.422503713215433e-16
-3.331858669400003e+00  2.229163009985013e+00  3.639055927882678e-17
-1.241725556805366e+01 -1.405586899086358e+01  3.653988224559004e-16
-1.392067584922374e+01  5.566360097290922e+00  1.905427040231621e-16
-1.616472425288288e+00 -2.575124693813058e-01  3.141290208302852e-17
 2.996351260780115e+00 -1.457409484758226e+00 -3.834929184295997e-17
 7.152308808444276e+00  1.563121628204506e+00 -1.433443737187428e-16
-5.734840156939326e+00  2.182037931719961e+00  7.963867427836839e-17
 6.701929233620092e+00 -4.973037815628295e+00 -6.817266806819117e-17
 2.975358413455266e-01 -2.800577460337556e+00  2.347991082481803e-17
-3.791575837794380e+00  3.864736566258459e+00  2.776685051769968e-17
-9.860867638295581e+00 -7.386918643417430e+00  2.513838077005641e-16
 1.333859624617486e+01 -6.738780439872644e+00 -1.681377100425469e-16
-2.254477062995612e+00 -2.776589616038401e+00  6.864955822276645e-17
 3.264386784802450e+00  2.507833619889024e+00 -8.386073615750230e-17
-2.131697507376234e+00 -1.365188108287112e+01  1.782042187141299e-16
-7.322016636979383e+00  2.841066767757514e+00  1.011130911059141e-16
 9.586490818621668e+00  4.780035114698206e+00 -2.197161636530747e-16
 1.286559316428395e+01 -2.314548909412614e+00 -2.051774277658184e-16
-8.760463783326371e+00 -2.694315196625243e+00  1.835860127678919e-16
-1.600555980980536e+01  6.974173566703074e-01  2.776723189517366e-16
 5.504655377163636e+00  2.919935311714050e+01 -3.979746545324960e-16
-2.453984722469744e+00  2.561718976185043e+00  1.735085347405640e-17
 2.926681310588490e+01  1.423174596225907e+01 -6.670638697129452e-16
 1.779532251807178e+01 -8.251209821658565e+00 -2.319108077519357e-16
-2.081938940322418e+00  1.523369817799035e+01 -1.194701279466678e-16
 1.342739347821755e+01 -1.647852375459206e+00 -2.220253991731922e-16
 1.415753486165556e+01  3.791205778919357e+00 -2.909034827335113e-16
 1.169538620236334e+01 -3.352070136467852e+00 -1.736920452918457e-16
 4.948700563771228e+00  2.519015148980927e+00 -1.139499951134136e-16
-2.110582917240196e+01  6.566598630644229e+00  3.081339905734736e-16
 5.523727762152332e+00  4.619991364510671e-01 -1.030481977629537e-16
 1.204502291367950e+01 -2.412034030205273e+00 -1.895727771130751e-16
 2.678987612227203e+00  3.590726199878221e-01 -5.136512089792202e-17
-1.313099213133136e+01  6.120163028637871e-01  2.273934230100438e-16
 3.378354001872740e+00  1.053739793848698e-01 -6.120451866867316e-17
 1.356026025815437e+01 -5.646282410639567e-01 -2.355196564802488e-16
-4.522659980214593e+00 -5.981108524538759e-01  8.663150090488358e-17
-2.054709258037587e+01  4.510206245033538e+00  3.193192911884097e-16
 1.401623441212458e+01  8.049459966741829e-01 -2.577061382098804e-16
 1.127989108553079e+01 -2.869798706681480e-01 -1.977905030872562e-16
-8.486847453292523e+00 -2.788443390030214e+00  1.796838166995083e-16
-1.396057067984627e+01  1.388049325534101e+00  2.341833054377266e-16
 1.835532769610369e+01 -7.122994938459408e-01 -3.193363328627147e-16
 5.373372863457194e+00  8.592983356855675e-01 -1.044545580123013e-16
-1.172536970129494e+01  2.021322601009902e-01  2.065901047908303e-16
-2.462562601788849e+01  1.068728347852808e+00  4.272615939602226e-16
 2.616752252126709e+01 -6.601022755712148e+00 -3.978591661640916e-16
 2.271900187845763e+01  3.760210018102747e+00 -4.429465305926608e-16
 2.124145631526192e+01 -9.928361085857958e-02 -3.769969498317518e-16
-7.994588771308269e+00 -1.041884645657005e+01  2.493231059158748e-16
-2.166860745255966e+01  1.545977699988191e+01  2.267751242742738e-16
 3.131886692052097e+01  4.556346910874302e+00 -6.041714046508039e-16
-1.313936805271860e+01  3.858671688002763e-01  2.298660827186552e-16
-7.915376171306997e+00  9.951212470814327e-01  1.306390514571962e-16
 3.247286257578700e+01 -4.572082888807179e-01 -5.731956754971112e-16
-1.467773173692277e+01 -2.538746145545476e+00  2.872924388859716e-16
-2.504359517955642e+01  2.834337513020226e+00  4.165588609898979e-16
 1.292360129246258e+01 -2.878328096890659e+00 -2.004171252881245e-16
 2.095735691165201e+01 -1.716452404709917e+00 -3.553252401667984e-16
 2.696087837525988e+01  3.789196329767189e+00 -5.187336065738072e-16
-2.756436345360196e+01 -6.650374813471861e+00  5.588709129472257e-16
-1.787701696959251e+01  3.855779292664940e+00  2.785261099342713e-16
 1.270077144618323e+01 -2.733762286072491e-01 -2.232165364778379e-16
 2.926677210948107e+01 -7.449941384566163e-01 -5.131825761772659e-16
 1.682034833536123e+00  1.512342324429578e-01 -3.148769307647877e-17
-2.284565478340773e+00 -4.134705400674938e-02  4.108139377880614e-17
-2.411479943713154e+01 -2.170663142681388e+00  4.514543963939981e-16
 1.737694070559143e+01 -2.706085692611400e+00 -2.814393403741521e-16
 1.075829562774925e+01  3.498932738622493e+00 -2.274069664682922e-16
-1.792978503009805e+01  7.421582600004532e+00  2.428278469638618e-16
-4.711287953545185e+00 -8.369820499377053e-01  9.244267546825324e-17
 1.092657110807848e+01 -3.326624247857942e+00 -1.602715108650340e-16
-1.449232874532035e+01 -9.175924094234775e+00  3.521875638196858e-16
 7.192415554803298e+00 -4.688918975867152e+00 -7.982067512727763e-17
 6.183990304017767e+00  2.222000218235802e+00 -1.328817290431177e-16
-8.693788248668765e+00  1.358855087676224e+00  1.407545898078344e-16
-1.783206951880748e+01 -5.105389406420327e+00  3.697989694461302e-16
-5.840735967563409e+00  8.034111084387325e+00  2.139529073050258e-17
 2.594279971907887e+01 -3.233187967348174e+00 -4.284632348563190e-16
 8.647550999623203e+00 -1.076022976206113e-01 -1.527879106933225e-16
-9.540205128158549e+00 -1.431559088140916e+00  1.844880798103047e-16
 1.164371608851494e+01 -6.052991446979685e+00 -1.450215285480293e-16
 1.465427456142394e+01  2.188796973001109e+00 -2.832793898562367e-16
-3.037094109716890e+01  8.327555894167987e-01  5.319308634138148e-16
 1.420924449635981e+01 -4.451241673996368e+00 -2.071355640187878e-16
 2.502172363888488e+01  1.859369346442392e+00 -4.643957637172367e-16
-1.996016252682561e+01 -8.967124002184115e-01  3.644282956679118e-16
 1.512787301628874e+01 -6.401973897136084e+00 -2.034405893800443e-16
 3.108825629366775e+01  9.366148867055051e+00 -6.494863813122831e-16
-2.174285781944695e+01 -2.118874265428017e+01  6.046467242105400e-16
-2.992704723483377e+01  2.175352047742125e+00  5.102365517649979e-16
 1.478413033648976e+01 -4.064159800633921e+00 -2.213434689127261e-16
 1.331245239645714e+01  4.213647664752199e-01 -2.412403399708552e-16
 1.206322247134573e+01 -5.665653423500296e-01 -2.088581803345271e-16
-1.001892354304463e+01 -1.932589847648669e+00  1.981553540765964e-16
-5.298356315615231e+00  5.180467646354088e-01  8.896782842468917e-17
 1.970949876528714e+01  2.779923627440896e-01 -3.536103114219820e-16
 9.847556425961205e+00  4.144454782513398e-01 -1.795072899383786e-16
-1.482566279728130e+01 -8.266251413191253e-01  2.723336272061024e-16
 2.479734097329669e+01 -4.340215276309488e+00 -3.967041266730158e-16
-8.303399907444026e-01 -2.995340882538641e+00  4.555293002735457e-17
-1.205896699219375e+01  1.124004557017607e+01  9.911631703659578e-17
 1.838552351113636e+01  1.302480937261478e+01 -4.610175066905516e-16
-2.432723293939770e+01  5.272440298607075e+00  3.787597199894751e-16
 2.688265065260240e+01 -8.629098143892310e-01 -4.695427502634779e-16
 7.945807293812923e+00  3.223602348910628e-02 -1.417363323231827e-16
-1.845682240791663e+01 -1.498732599024863e+00  3.438601038518110e-16
 2.413406710434028e+01 -1.286063985268738e+01 -2.973561096958496e-16
 1.548708745099899e+01  2.059986301931559e+00 -2.967768057909774e-16
-1.511082461820573e+01  3.706312651988054e-01  2.651070473146997e-16
-1.188877576377035e+01 -5.632031452828297e-01  2.173616538661768e-16
-1.185453033883696e+01  1.059131295541554e+00  2.000833186877362e-16
 1.916825204676388e+01 -1.456274728433225e+00 -3.261592160823908e-16
-1.063622306025684e+01 -3.182701609531065e+00  2.219853795714837e-16
 1.840330589374839e+01 -8.294913142112218e+00 -2.422815613911428e-16
-1.343414040574103e+01 -1.181814435977685e+01  3.605036934026608e-16
-1.596852731340565e+00  7.359582291755291e-01  2.085619569264251e-17
-1.730652729112067e+00 -3.032127957858599e+00  6.195304300248558e-17
 1.040268232734731e+01 -1.234080409839198e+01 -5.833086172930207e-17
 5.498877022334511e+00  3.243913142947897e+00 -1.311891050401016e-16
 1.829200725856431e+00 -8.801804199646489e-01 -2.350927479747588e-17
-1.278873293972093e+00 -7.967348876104889e+00  1.046206911749491e-16
-1.913325044951463e+01  4.559434173271495e+00  2.936524849004025e-16
 2.334348887536861e+01  2.944378127189408e+00 -4.456776453187507e-16
-2.959678903164025e+01 -2.034707762690676e+00  5.476160482616532e-16
 2.521683968840953e+01 -4.199548583799618e+00 -4.056149058630984e-16
 9.558951762848999e+00  2.429845027491495e+00 -1.950787239194420e-16
-2.747783402786167e+01 -1.361167447129937e+00  5.029863343212918e-16
-1.056701892016406e+01  1.199208525279696e+00  1.757312745401027e-16
-2.531923986168282e+01 -2.743520705259789e+00  4.787747538306329e-16
 1.836348989649991e+01 -5.910044795599863e+00 -2.660766441270583e-16
-1.538406248797065e+01 -1.085509709096534e+01  3.853099220117786e-16
 1.134650075076024e+01 -1.624403437433561e+01 -3.502296325281040e-17
 3.344796490703433e+00  1.365804701911886e+00 -7.355779052124520e-17
-1.488869479422598e+01  1.009137916006428e+01  1.612768287789444e-16
 3.117058400736120e+01  9.353321170524556e+00 -6.508197012621786e-16
-4.310788194399064e+00 -1.409068267340918e+00  9.119328258269947e-17
-2.540463814652615e+01 -6.284864644587946e-01  4.585633096745242e-16
-2.503072791080763e+01 -2.666383543552274e-01  4.481912731295467e-16
-1.164103385327027e+01  1.024929514361439e+00  1.966353049152410e-16
 1.066415730725916e+01 -1.045822801102950e+00 -1.790359505791099e-16
 2.845436072796955e+01  4.287191613235896e-01 -5.107842243907428e-16
-2.209462349452190e+01 -2.961871417744289e+00  4.236323333447966e-16
 2.681400894834030e+01 -1.013736418085916e+01 -3.730295397999362e-16
 2.291602121764680e+00 -1.389175963081489e+01  1.019509904038111e-16
-3.061330832053267e+01  7.588559427267001e+00  4.668306470416929e-16
 1.534668792443666e+01 -2.764097762549967e+01  1.088838612485430e-17
 1.575320868513122e+01  8.617918670272621e+00 -3.688931233401897e-16
-2.542357545494561e+01 -3.527155971471574e+00  4.886830978529439e-16
-3.245041648118582e+01 -2.226169282164666e+00  6.003669502141736e-16
 6.215989947847943e+00 -1.849659179314876e+00 -9.161637969973011e-17
 2.067951785908849e+01  3.812832910560926e+00 -4.071921607754427e-16
-2.684022643057231e+01  2.630690398944180e+00  4.506244572978821e-16
 1.765965079234470e+01 -9.697526575856427e-01 -3.043106947716056e-16
 1.596897868978707e+01  5.755699345937700e-01 -2.901007962368701e-16
-2.624111974846337e+01 -7.985061988784557e+00  5.490356386537241e-16
 2.044925372579955e+01 -1.319138599135666e+01 -2.283821638332389e-16
 2.695226172917081e+01  2.960697504337220e+00 -5.100677386084675e-16
-6.971998550196068e+00 -2.175199014201418e+01  3.475688275677236e-16
-2.537598343434334e+01  5.578915748791234e+00  3.942745621254675e-16
 1.182480841153907e+01 -4.291098753732808e+00 -1.663470899627029e-16
 3.202895406958428e+01  5.481386797699047e+00 -6.263127012997153e-16
-2.528738374429928e+01 -2.142377831030477e+00  4.720313115575065e-16
 7.136373762285378e+00 -4.176357025939051e+00 -8.408973239829347e-17
-5.347769002905216e+00 -6.207266739095090e+00  1.589473392654643e-16
-3.140077727069543e+01 -4.906450238688258e+00  6.092262815639583e-16
-5.982462743859522e+00 -3.628641191505897e-01  1.101933576655900e-16
-2.556437261693913e+01 -2.905077517447087e+00  4.847971211610348e-16
-1.404990743471357e+01  9.055508687594466e-01  2.407306558961283e-16
 1.555038137935578e+01 -7.412806992421469e-01 -2.691211959139733e-16
 6.276721493673034e+00  1.309200974770934e+00 -1.251533105570251e-16
-1.538751884066298e+01 -5.192786389215839e-01  2.791746520423333e-16
-2.637422382854013e+01  1.027524806913372e+01  3.637863320631431e-16
 2.479066356297767e+01  4.298826889232498e-02 -4.416211183209298e-16
-5.673097562935355e+00 -1.237344689257330e+00  1.136728054437620e-16
-2.236001478718432e+01  2.057989397569297e+00  3.767780416994616e-16
-3.131102926752398e+01  6.313689060697564e+00  4.923462534528142e-16
 2.784548064118769e+01 -1.684396378749535e+01 -3.224779343305226e-16
 1.744832042738735e-01 -1.317677379788670e-01 -1.751271110816992e-18
 6.931543752004269e+00 -1.145616678912524e+01 -5.647137255610201e-18
-5.865440837599632e+00  6.738870251261625e-01  9.745857185418197e-17
-3.711708428957554e+00  5.053207202614574e+00  1.413441066038423e-17
-1.410135393109657e+00  1.204805602325864e+00  1.271610149838630e-17
 3.809588265815242e+00 -1.919713399619084e+00 -4.807180962998027e-17
 6.995837851509837e+00  3.120694208538643e+00 -1.565632788387541e-16
-4.278485721074564e+00  3.016674070075159e+00  4.514552673725795e-17
-4.921418050382703e+00 -1.493324540763741e+00  1.029258718606999e-16
-1.859644323528586e+00  4.680520796240218e-01  2.828552391301141e-17
 4.365833061300735e+00  1.994947819619576e+00 -9.819257120400387e-17
-7.243130259404452e+00  2.304437942247323e+01 -1.078724842722650e-16
-3.589914703670985e+00  6.286120441398052e-03  6.382222675231537e-17
-3.520157542277817e+00  7.041453934058154e-01  5.541056434310180e-17
-3.773638088930166e+00 -9.109402943219992e-01  7.651597175834274e-17
 6.795189630820621e+00 -1.267816972276024e+00 -1.079021462435608e-16
 1.084122201726929e+01  5.088036655650742e+00 -2.452102059658522e-16
-1.416308866999856e+01  1.688052371820193e+00  2.347049323321797e-16
 1.235562697829291e+01 -2.636819910765984e-01 -2.171738836587846e-16
 2.268670379758542e+01 -2.742411399459410e+00 -3.755596748677933e-16
 2.517071446464763e+01  1.651704593941776e+01 -6.176495354716301e-16
-2.589314059870797e+01 -1.494246691775906e+00  4.761521653172591e-16
-2.644508158789261e+01  4.445026632955954e+00  4.249507377890703e-16
-2.947407335163005e+01  3.997936224598697e+00  4.834489508633171e-16
 1.547551762883639e+01 -1.149203977243067e+01 -1.573287621381790e-16
-1.022406279067002e+00 -4.919852464283691e+00  6.874463613598309e-17
 8.009080811959903e+00 -5.434449378266184e-01 -1.369474473096478e-16
-7.080299469884110e+00 -3.911141674658157e+00  1.661879346574968e-16
 1.534381541559857e+00  8.655158513289322e+00 -1.162347593607635e-16
-6.993124568466239e-01  7.553866136936971e-01  4.683776294497561e-18
-5.215051722295783e+00  2.296789946225317e+00  6.920938379945677e-17
 5.766466939655116e-03 -2.009383487030747e-02  1.038356957813620e-19
-3.935974818740354e+00  1.945499449841967e+00  5.005606673077660e-17
 8.659334218768500e+00  2.234787760234599e+00 -1.770648140501937e-16
-2.075562691341377e+01  2.118636967055250e+00  3.476029139543409e-16
 1.872839953293217e+01  9.378088154216667e-01 -3.429298546253582e-16
 5.665342298061852e+00  1.284476018872823e-02 -1.009534993004659e-16
 3.159007926312865e+01  1.797341614943560e+00 -5.806501746407957e-16
-1.935869875034033e+01 -4.375783713846167e+00  3.894707242143840e-16
 2.772734729670048e+01 -9.261070542691577e+00 -3.982870839946084e-16
-1.979743815389075e+00 -9.279321307228974e-01  4.476606827087558e-17
 1.160781352069005e+01 -2.756655171611009e+00 -1.782512574431237e-16
 9.437923314604038e-01  3.610667393771241e+00 -5.389420610870224e-17
 1.146173001403842e+01 -4.053979171591510e+00 -1.623219943528788e-16
 9.541561460440482e+00  1.075568537160427e+01 -2.803142277334479e-16
-1.932933489647823e+01  1.493208121581084e+01  1.905668612481709e-16
 1.775733471071626e+00  1.154333633489496e+00 -4.346165403648967e-17
 3.192056002432131e+00 -8.431623075628970e-01 -4.814325777000497e-17
 1.504523902501473e+01  5.418180872133529e+00 -3.234178152405130e-16
-1.510796733633479e+01  3.944449894253133e+00  2.283365104419608e-16
-5.235029257609897e+00 -5.398661156038626e-01  9.871051842903118e-17
-6.320430883027198e+00  2.728199928346007e+00  8.444834371645195e-17
-6.848881113429982e+00 -1.224124230134638e+00  1.344614408318821e-16
-3.634498061071354e+00  2.285347382165197e+01 -1.701309132274116e-16
 1.418819182071086e+01  9.479741654609786e-01 -2.622358879186053e-16
-1.181677002407215e+01  9.210215837899418e-01  2.008303559383865e-16
 1.967789187379586e+01 -1.058318915911197e+00 -3.393177161434268e-16
 1.445234956919099e+01  3.957488186825145e+00 -2.978585534475445e-16
-4.642859396936496e+00  1.056457754057352e-01  8.153974920541655e-17
-2.934134159024979e+01 -1.208115209391560e+01  6.462936222532045e-16
 8.324171428258470e+00 -2.356397706563317e+00 -1.239274295687055e-16
 1.033950727273300e+01  1.538621530446118e+00 -1.998126426272699e-16
-7.509965655823663e+00  5.049449045501897e-01  1.284606715941544e-16
 1.651320051261287e+01 -7.196805734274022e-01 -2.864776443262696e-16
-2.337247453632006e+00 -1.765284168517030e-01  4.340787176203593e-17
 4.466989216407272e+00 -2.492185681122030e-01 -7.693477127360845e-17
 1.211461421057501e-01 -6.776083950103280e-02 -1.459722032212248e-18
 4.565739230929959e+00 -3.442071948332077e-01 -7.771617190703205e-17
-2.073909096871371e+00 -1.043382006462618e+00  4.762805705585504e-17
 3.248763876045868e+00 -1.880825590753698e-01 -5.588314845408340e-17
 2.335032211189995e+00  1.955068521603836e-01 -4.356344540877697e-17
-3.251561724568384e+01  1.330528795725209e+00  5.649834948836685e-16
-2.893192644685520e+00 -2.367984047650285e-01  5.392083182376307e-17
 2.525714079368408e+00 -7.513946950801270e-02 -4.417606406263794e-17
-2.170707625728874e+00  3.641818855116082e-02  3.825614786421796e-17
-4.363487827754163e+00 -4.230440475392125e-01  8.200009476024446e-17
-5.609168500995216e+00  6.176815040066199e-01  9.347539120682513e-17
-1.066436138534761e+00  1.458622434792696e-02  1.882863501533566e-17
-1.124139474610592e+01  1.353722559501004e-01  1.986631279777900e-16
-9.344121542244650e+00  6.961353020298066e-01  1.591372515750120e-16
-1.234928721728043e+01  1.521874777647289e+00  2.041335863075892e-16
 2.084057804242209e+01 -5.970179962000251e+00 -3.095415154927777e-16
-3.897724212505594e+00  7.992840986649549e+00 -1.275888582869786e-17
-3.059282554018442e+01 -1.255231168615679e+00  5.573328671968511e-16
 2.154132988705940e+01 -4.826206662932754e+00 -3.337661405306670e-16
-1.450534566802400e+01 -1.445112063169147e+01  4.066199435810335e-16
 5.179982513565103e+00 -2.409157154822679e+00 -6.743075315014572e-17
 3.288161196021854e+00  7.023795453008927e-01 -6.573344541702196e-17
-1.030634642313577e+00 -1.074751818559536e+01  1.287682179408056e-16
-3.088007689535916e+00 -8.153036639688803e-02  5.579247524438900e-17
-1.703649657455458e+01  3.225548258561393e+00  2.700434418124035e-16
 1.475719372200416e+01  1.053100505404035e-01 -2.637038878159433e-16
-8.750916752724656e+00 -2.905128776559981e-01  1.587179163729017e-16
-7.010947154994222e+00  2.984465376839347e-02  1.244615246132057e-16
-5.013156790638090e+00 -1.163325507592172e-02  8.933463246956045e-17
-1.097782100095355e+00 -1.053248593241008e-02  1.964455942011902e-17
 7.531758634974004e+00  1.192834660767968e-01 -1.352622233984738e-16
 1.856885172108897e+01  2.046015827823373e+00 -3.514769355148155e-16
-3.720328600666844e+00 -1.551002016942881e-01  6.780128346151647e-17
 9.516718679655981e-02  2.961693495164187e-03 -1.724043936330028e-18
 1.463535970750528e+01  2.534556487899353e-01 -2.630578484427901e-16
 3.403461157267364e+00  4.212384650963464e-01 -6.489672330265430e-17
-4.644895455492558e+00 -4.035957611979671e-01  8.680825509239038e-17
-1.346878772467551e+01 -1.007537647683016e+00  2.500452270213007e-16
-2.477343666914630e+01  3.842113274224022e-01  4.369252245364046e-16
-1.182792556141603e+01  1.370392747661989e+00  1.964117565692346e-16
-9.048464994634982e+00  5.781188202775380e-01  1.550882671154992e-16
 1.082244518386501e+01 -1.093967042141505e+01 -8.019718201263211e-17
 1.558391259192749e-01  4.671543097270081e-02 -3.253327219586730e-18
-1.235949415188563e+01  1.023167036702656e+01  1.148252452235268e-16
 2.919117009475321e+01  5.220445936298160e+00 -5.731298778814113e-16
-6.492268408249259e+00  1.137255476241370e+00  1.038527736951597e-16
 8.787700506043203e+00  6.849605612061369e-01 -1.634253337832731e-16
 1.017269917949507e+00 -1.792959908692528e-01 -1.626133046473084e-17
 5.820584383276605e+00  3.437037294251253e-01 -1.071156731250516e-16
-3.192847652709702e+01  2.922572199283272e+00  5.381769578009470e-16
 2.369108187904543e+01 -2.210643792030654e+01 -1.944754427674429e-16
 9.683694671685187e+00  2.425911697813124e+00 -1.972582592514204e-16
-1.623951681968488e+01  7.506958525557583e+00  2.118703012285620e-16
-3.669875784312884e+00 -6.928390888447716e-01  7.242848709931368e-17
-3.097423690306064e+00 -1.329135749575290e+01  1.916862189107683e-16
 2.241315722026672e+01  1.244656479944434e+00 -4.116572613094181e-16
 1.759144912574164e+01  4.899703145649625e-02 -3.135642477315823e-16
 1.385723063910379e+01  1.993056925430589e+01 -4.513853076001276e-16
-2.510209622653867e+01  2.591025756323922e+00  4.200998968161716e-16
 4.408022123230967e+00 -5.700561795826451e-01 -7.258889159663486e-17
 2.372243349997645e+01 -1.694748442045921e+00 -4.047560766804267e-16
 2.078546619168796e+01  1.314309393810090e+01 -5.049426803867378e-16
-2.444710496970967e+01  1.637626426733827e+00  4.182393778699054e-16
-5.642011667475832e-01 -1.396387325272794e-02  1.018410648568528e-17
-2.907648655347593e+01 -5.652997624936401e-01  5.232590116343547e-16
 2.134909253594241e+01 -4.798648991188948e+00 -3.306281926271748e-16
 9.239481572541870e+00  2.757231416617327e+00 -1.927571470210518e-16
 8.557239124132745e-01 -2.482837058601999e-01 -1.267760294670522e-17
-1.398652118693137e+01 -4.430392488427270e+00  2.944275016313231e-16
-1.291501810990378e+01  9.749876139134786e+00  1.296617174001633e-16
 5.807533399685110e+00  2.477536376987155e+00 -1.288077705733731e-16
 7.341563885010648e+00 -3.654324927826805e+00 -9.310502556809704e-17
-1.934667860021964e-01 -1.461410166160380e-01  4.944518084276502e-18
-1.675411667226619e+01  8.554877604411868e+00  2.102612315950976e-16
 2.672628574941468e+01  1.315309218012620e+01 -6.107693791757074e-16
-1.163445109359357e+00  4.260459997812721e-01  1.632742564749387e-17
 1.223856494747043e+01  1.841862546283163e+00 -2.367243304403397e-16
-1.027053487101571e+00  3.539144063581433e-01  1.464129995838679e-17
 1.158399727776388e+01  1.147042447375922e+00 -2.179364939089652e-16
 1.694105615743635e+00  3.215130750631164e-02 -3.047897320916142e-17
 2.932284977025363e+01  1.014536848675364e+00 -5.322590867908606e-16
-1.239269052286441e+00 -2.067805072230376e-01  2.417886558633139e-17
-3.751105745889608e+00 -1.422216537056182e-01  6.821667705597812e-17
-1.636879137383777e+01 -4.437170281286820e-01  2.958611991727768e-16
 1.155013837476561e+01 -5.141573468460240e-01 -2.002657099271716e-16
-1.148045263707309e+01 -2.728222103622684e+00  2.323398400807005e-16
-1.113493589353230e+01  5.387109907785478e+00  1.428088690226064e-16
-3.170823057678191e+00 -3.849315112406835e-01  6.038361006196352e-17
-2.039603452655317e+01  6.788519113834878e+00  2.932221958592927e-16
 3.058130442853967e+01  3.214589274853967e+00 -5.772595280428938e-16
-4.845180285886993e+00  4.403667694392520e-02  8.577330186911873e-17
 8.087426026515091e+00 -9.682393420273461e-02 -1.429305624196971e-16
 1.324024714425317e+01  7.423434505853678e-01 -2.432533007797339e-16
 7.583344547139700e+00 -3.271196311572272e-03 -1.349210516037771e-16
-3.111130933712879e+00 -2.702131064970180e-01  5.814262756514770e-17
-3.868925963968148e+00  9.762552725098489e-01  5.882148423590306e-17
 1.088016032560555e+01  5.151350572883197e-01 -1.989182568939100e-16
 2.932369301472984e+00 -7.108733439104045e-02 -5.145461302657838e-17
 1.608181882465257e+01  1.173008302030647e+00 -2.982473832743376e-16
-1.080861095326758e+01 -2.530272475709581e-01  1.949518879353600e-16
-2.509093610622811e+01  2.413250075672234e+00  4.217278696873814e-16
 2.672309271353675e+01 -7.753079127052594e+00 -3.959092397307255e-16
 2.466322457343954e+01  4.466392360019506e+00 -4.848020596289478e-16
-9.921234293208419e+00 -3.365551273681697e-01  1.800181803963879e-16
 1.502474012344131e+01 -2.291521788523672e+00 -2.438386186733974e-16
 1.464885611027590e+01  1.670862129685557e+00 -2.778613696602048e-16
-1.667513646260341e+01 -1.295048214553670e+00  3.100600941253760e-16
 1.372602431553705e+01 -6.904491012901412e+00 -1.733298387459543e-16
 1.977584744636395e+01  4.185728982219200e+00 -3.949416395250872e-16
-2.380925890060301e+01 -2.121869267838200e+00  4.455155987572243e-16
-2.642992530547303e+01  6.881627281669140e+00  3.996458271780144e-16
 1.843982447617924e+01 -1.275797296869023e+00 -3.150503186136921e-16
 1.399909665280938e+01  1.152249610308987e+00 -2.609695698107798e-16
-1.579966753090757e+01  4.894535436226431e-01  2.761449728794499e-16
-2.034219422122908e+00  6.535340179056741e-02  3.552987865311018e-17
 3.987372979647966e+00 -1.905352344204385e-01 -6.900237816580673e-17
 3.146734608474609e+01 -2.762979310983805e+00 -5.316103504833960e-16
 4.708505922052346e+00  4.088817045172345e-01 -8.799459040290954e-17
 1.024544751794966e+01 -1.140136420898222e-01 -1.811585110395811e-16
-1.191702608251959e+01 -4.876319531245329e+00  2.621801060555115e-16
-1.162166645996665e+01  1.396714659045862e+00  1.924706817400208e-16
-1.135450090240274e+00 -1.436688316677983e-01  2.168283382350784e-17
-3.156392212031367e+01  6.147239215413868e+00  4.985569951288822e-16
 2.543358690172924e+01 -6.683500880431624e+00 -3.839504735723494e-16
 2.951784628269295e+01  9.880724012389749e+00 -6.268261346057934e-16
-2.888375779903703e+01 -1.214425461062267e+01  6.387987282893029e-16
-1.886036127827943e+01  7.400875323937164e+00  2.596013209744921e-16
 1.694259930667957e+01  1.760836897060753e-01 -3.033229604692164e-16
 2.535149474743830e+01 -2.149571139043618e+00 -4.290740268295180e-16
 5.797061651091919e+00  5.520199726068392e-01 -1.088374317421197e-16
-5.439822846947066e-01  4.907656190281753e-02  9.176569797211669e-18
 1.321677395600974e+01 -1.766684817373523e-01 -2.333930536052246e-16
 1.282654703527641e+01  4.919768978823103e-01 -2.333185884542308e-16
-1.862574271595701e+01 -3.164060614585849e+00  3.639768826281757e-16
-2.528177926324322e+01  1.175881959353402e+01  3.291018194963708e-16
 2.378444411181325e+01 -1.406504611211166e+00 -4.088212301372122e-16
 2.859938686441028e+01  2.165790487004914e+00 -5.312129143273625e-16
-2.556369767551925e+01 -9.679860462464914e+00  5.543935434532258e-16
-1.607141658526436e+01  5.934477837963136e+00  2.250354248912514e-16
 1.719181292750019e+01  2.418061837431335e-01 -3.084332888893538e-16
 2.604250208634088e+01 -1.921066854884123e+00 -4.437191251678759e-16
 1.143454828259501e+01  1.286031382934009e+00 -2.167049315898427e-16
-1.309207326095905e+01 -9.200516616641238e-01  2.424422570656824e-16
 1.169148556401366e+01 -4.060604594090043e+00 -1.663426946113745e-16
 1.415257723020209e+01  2.243860893937017e+00 -2.749168491585442e-16
-7.529351123491777e+00  6.985639913811507e-01  1.268162933263012e-16
-7.955133003873108e+00 -1.188416455867652e+00  1.537816284304968e-16
-4.058205032080512e+00  3.984578259491709e-01  6.812658992937992e-17
 2.616112766385550e+01 -6.317941621002316e-01 -4.590770174108703e-16
-2.263662292727391e+01 -6.740101030056333e+00  4.720977965666524e-16
-1.500852260282650e+01  4.493326820842012e+00  2.209272617355299e-16
 1.225510816579360e+01  1.581365507447203e-01 -2.197190638590192e-16
 1.988587960246701e+01 -2.575280246723111e+00 -3.274328792319753e-16
 1.074220821187259e+01  9.575111505100905e-01 -2.010084881350073e-16
 1.314637938976567e+01 -3.978028871701485e-01 -2.298682226562304e-16
-1.279326231142312e+01 -5.829483954145035e+00  2.875671931359007e-16
-1.770248448958603e+01  3.053180048658932e+00  2.836665119365126e-16
 1.708550067779369e+01 -6.993535030531865e-02 -3.033383045707863e-16
 2.465245292389116e+01  3.735368567187401e-01 -4.425577618171646e-16
-1.441662508438647e+01 -1.726111935861371e+00  2.742962132425596e-16
-1.579039709253067e+01  3.550596233366313e+00  2.445278652498882e-16
 1.617389846832799e+01  1.198626477561798e+00 -3.001492678276211e-16
-1.177408071177327e+01  8.332044033864506e-01  2.009729382964426e-16
 1.261814855010403e+01 -6.715565356264130e-01 -2.176550054788109e-16
 6.275242754700586e+00  8.022155260534239e-01 -1.199179033136462e-16
 6.222437009536609e+00 -3.663799597448990e-01 -1.069712679566393e-16
-4.051965570554154e+00 -7.838275659855296e-01  8.016310417821114e-17
 1.168068440920985e+01 -1.332856029375284e+00 -1.941771007599671e-16
-1.570020236384210e+00 -2.947821149734389e-01  3.096916203906716e-17
 1.029470114200940e+00 -5.468693673072318e-01 -1.270176464297688e-17
 1.030005833352126e+00  2.531566292551971e-01 -2.093127482461249e-17
 1.340926820667323e+01 -4.292401709365129e+00 -1.945310546351324e-16
-5.378212273435532e+00 -7.751544816362875e+00  1.753560098564881e-16
-2.743880730177293e+00  2.479038113601154e+00  2.335941455485581e-17
 1.015935972633994e+01  1.741367614155358e+00 -1.986898444998880e-16
-5.891142319569280e+00  7.300991037818235e-01  9.733840170991721e-17
 9.822774425409007e+00 -2.325924051709401e-01 -1.724181854626266e-16
 5.700510508951163e+00 -9.265564929122438e-02 -1.004953811845270e-16
 1.213338503369695e+01  4.384630890773470e-02 -2.163785648152608e-16
-1.656845300980504e+01 -8.894950643720992e-01  3.039946235360934e-16
 1.697027567102949e+01 -2.126090273325372e+00 -2.801614932330179e-16
 1.374005138753438e+01  5.403024726846974e+00 -3.000347204851338e-16
 1.497367196148258e+01 -1.396763248396970e+00 -2.521231188293133e-16
 1.013807714406947e+01  6.457698599542072e+00 -2.467696831219020e-16
 1.730991443956851e+01 -1.245509270852026e+01 -1.800790224615620e-16
-9.451276067334989e+00 -5.010986285259343e+00  2.196827952362005e-16
-2.032638175822093e+01  2.291468093917921e+01  1.262921871654841e-16
-3.079244793681620e+00 -5.098862888706289e+00  1.071877980688972e-16
 5.708631310392396e+00 -1.232100501207391e+01  2.500194695606291e-17
 2.522036514401676e+01  1.127100767085699e+01 -5.646319910758307e-16
-1.871373391727899e+01  2.658614757420914e+01  5.987020927089841e-17
 2.422209627610208e+01  1.714607058623655e-01 -4.328227928591478e-16
-3.214376284713111e+00  2.863495016369246e-01  5.426152314594958e-17
-2.739141900961444e+01 -1.343709267518369e+00  5.012690995422860e-16
-3.029550926312444e+01  8.204828590369265e+00  4.548430919427000e-16
 2.134670517699722e+01 -1.830935045778056e+01 -1.917681572105452e-16
-5.375537580016747e-01  9.664639852267395e-01 -3.636560205734956e-19
-7.712183788113314e+00  1.967201196883449e+00  1.170352322980192e-16
 5.413207502287919e+00  2.433140141016340e+00 -1.213341156627620e-16
-2.510272201849683e+01  2.354832787258370e+00  4.225378304902920e-16
 3.002660916184320e+01 -1.122365543436173e+01 -4.190403447703909e-16
-9.771423624784628e+00 -8.170094679860199e-01  1.822886146688646e-16
 2.187285382185587e+01 -7.967686615414780e+00 -3.073884391017821e-16
 2.319476233654657e+01  1.584816239128138e+01 -5.756125748784480e-16
-2.969761756040218e+01 -1.168043878742928e+01  6.485167944574752e-16
-2.999626199218031e+01  4.090797639746399e+00  4.917878033072569e-16
 1.156273777071840e+01 -2.135636531041412e+01  1.365618425198979e-17
 3.083170515874654e+01 -8.990343058398318e-01 -5.394497197905260e-16
-4.672751524278630e+00 -1.238367040348248e+00  9.588095870657436e-17
-2.481489983161831e+01  4.020607002528374e+00  4.003004663935756e-16
-2.902929124648247e+00 -1.048094589612799e+01  1.593489990091667e-16
-5.220443232406747e+00 -4.989947524663974e+00  1.441739125952545e-16
-1.812970644723718e+00 -2.078935495686567e+01  2.458670452137559e-16
 1.203749219457129e+01  5.954375966025403e+00 -2.754005824357490e-16
-1.508481622373182e+01  2.226979075682798e+00  2.455708975119328e-16
 2.205955721291013e+00  4.191221299426131e-01 -4.356394103966899e-17
-1.955875241617641e+01  2.969172875641321e+00  3.175641570907765e-16
-6.585679168276052e+00 -7.793354753007501e-01  1.252074053826849e-16
-9.706660173352132e+00  1.536918505847503e+00  1.569503169771020e-16
-1.221142632426340e+01 -4.074227249288921e-01  2.215030182490018e-16
 6.993341036500822e+00 -9.170717387243311e+00 -3.022905600983718e-17
-8.962189731366291e+00 -6.953161038483211e+00  2.309340605390958e-16
-2.614889407277896e+01 -5.326631817803368e+00  5.200799684842734e-16
 2.800010145089875e+00 -4.142930568579867e-01 -4.557280983224804e-17
 1.889550296792046e+01 -7.624506341585312e+00 -2.579289817917274e-16
 1.247569802773354e+01  8.289312200661664e+00 -3.071895995462220e-16
-2.271067561108507e+01  6.182510142760130e+00  3.406405169855632e-16
-5.020319018438242e-01  6.831429336487065e+00 -6.125619823424706e-17
-1.442207655542658e+00  3.770139038914268e+00 -1.307100348664395e-17
 2.609482012441705e+01 -6.541539935620935e+00 -3.971765046501653e-16
-2.946736358749007e+01 -1.381174895253824e+01  6.663175880564205e-16
-1.800474567091841e+01  8.922226738413482e+00  2.287432875261503e-16
 1.947445886268209e+00 -3.767985958288032e+00  4.057564376967405e-18
 2.617812822099275e+00 -1.132526661724414e+01  6.977589853441909e-17
-3.709233527857528e+00  9.153278695414087e+00 -2.803637831624996e-17
 2.793459268139269e+00 -8.639643196456686e-01 -4.083602030451547e-17
 1.738149742951799e+01 -2.858651501660864e+00 -2.799528744467004e-16
 2.232164533741337e+01  8.860911208858842e-01 -4.063445693551932e-16
 3.249263823284971e+01  1.816896785623425e+00 -5.969132104209938e-16
-1.690761329274404e+01 -1.219095589610017e+01  4.261487898861276e-16
-4.936211509849412e+00  2.142479929601605e+01 -1.322862578163265e-16
-1.970894783426384e+01 -6.079559592787413e+00  4.132095026858189e-16
 3.357807573216797e+00 -9.616088204727829e+00  3.904562195314655e-17
 2.955904874451843e+01 -4.106655947732464e+00 -4.838441336895230e-16
 1.287318350457788e+01 -1.175237774703162e+00 -2.170185149510766e-16
-7.849242442038568e+00  1.096236987533041e+00  1.284231953601307e-16
-2.220503874306397e+01  8.571441323084061e+00  3.070967057269623e-16
 2.061542284624990e+01 -2.518122833251508e+01 -1.081480670333328e-16
 1.904289114736032e+01  6.503269458998415e+00 -4.057096943924539e-16
 8.324207294488501e+00  7.585972703029223e-01 -1.559335097718381e-16
 3.059230143107218e+01  1.050504075990728e+01 -6.523619734107655e-16
-1.001521705687840e+01 -1.741797842393084e+01  3.571961349359746e-16
-1.954662365196294e+01  1.032238765158733e+01  2.417967006464127e-16
 6.014283804631601e+00  1.720284488079732e+00 -1.247066525870783e-16
-9.740334753774690e+00  4.353758733372999e-01  1.688675467021528e-16
-8.153000723512619e+00 -1.087250754174270e+00  1.562634796426710e-16
 1.147567983391187e+01 -1.568744182452340e+00 -1.881051347406513e-16
 3.356978518920499e+00  2.884108804783507e-01 -6.270475411866038e-17
-8.398249002576271e+00  1.428572375469687e+00  1.347787965865817e-16
-8.241610141462790e+00 -8.257319461893435e-01  1.551533792142793e-16
 6.937915123247896e+00 -1.299042061559285e+00 -1.101212902089539e-16
 3.135905964987884e+01 -5.740887220197505e-01 -5.521733198316569e-16
 1.854874297741397e+01  3.917405292825871e+00 -3.703469233019341e-16
 1.795522437282613e+01 -1.101226271770994e-01 -3.184031654911944e-16
-3.301118802181846e+00 -2.197496418952404e+00  8.132582425073161e-17
-2.094885970221979e+01 -8.596461241599797e-01  3.816424987448876e-16
 1.667175333349935e+01 -5.435677261213242e+00 -2.408441281228108e-16
 2.730529444390479e+01  1.005799979604424e+01 -5.892725796772147e-16
-2.547491795644373e+01 -4.404405485825080e+00  4.986102189901203e-16
-7.473576010324100e+00  1.830072574427024e+00  1.141978690187421e-16
-1.497964965361408e-01 -3.765979030274015e-01  6.535213985627944e-18
 1.913239626304232e+01 -9.083916913254253e+00 -2.471498671088280e-16
 3.005638731297621e+01  1.247807205974938e+01 -6.630969222676948e-16
-1.741678729036686e+01 -1.770473530212305e+01  4.918622289699421e-16
-7.933367185778442e+00  5.138036497776858e+00  8.839227378728148e-17
 1.383139335659975e+01  6.296183369180138e+00 -3.108371403718877e-16
-1.227852480862900e+01 -2.961886581202889e-01  2.215542261905867e-16
-8.965599880652929e+00 -3.086099013413500e-01  1.627243990405125e-16
 1.900271250940285e+01 -9.393657567322210e-01 -3.285242944724164e-16
-4.074106036138175e+00 -8.696584352527108e-01  8.143900118188921e-17
-1.595047345380104e+01  1.162005789666146e+00  2.719185141583328e-16
 3.138263150841301e+01 -8.025092961889731e+00 -4.760364474597707e-16
 5.660931229856772e+00  5.079940370882801e-01 -1.059624780315752e-16
 1.256910406495150e+00  2.490385398653754e-02 -2.262409803540550e-17
-5.921232424993004e+00 -8.825231691493138e-01  1.144429990896564e-16
-1.059984712643498e+01  2.644765344031728e+00  1.614629204261757e-16
 2.110238396077524e+01 -6.515424597876790e-01 -3.688477323329920e-16
-5.498264158453875e+00 -2.141930444796700e+00  1.198557264651491e-16
-2.292878900215032e+01  6.347568326374839e+00  3.428261920896789e-16
 2.386080653771278e+01 -3.515810670491794e-01 -4.210191467846165e-16
 6.062889385667069e+00  4.620534983760175e-01 -1.126437805402396e-16
 1.317567063166989e-01  1.875926112769400e-02 -2.537512343360638e-18
 5.658335509358960e+00  2.689785699817846e-01 -1.034604869947932e-16
 1.726371295076734e+01  9.146592358698408e-01 -3.166261562401165e-16
-2.973240846814639e+01 -1.161081608064445e+01  6.484205921432292e-16
 1.653413906901114e+01 -5.759445613584329e+00 -2.350685159205231e-16
-2.227959480870316e-01 -1.163123795855167e+00  1.591559413937478e-17
 1.144253701377066e+00  2.203117950119152e-01 -2.262698319199146e-17
 6.507386818902733e+00  2.297089787219838e+00 -1.394084738309192e-16
-4.466861807780234e+00 -2.132891119164497e+00  1.014078155734837e-16
-6.227109304920282e+00 -1.014710196162372e+01  2.150766245497754e-16
-1.678559770594412e+01  2.519196746968901e+01  3.988141953384099e-17
 1.157575284892100e+01 -1.066867743797189e+01 -9.638754495753743e-17
 1.709459358965364e+01 -1.336319550458687e+01 -1.669167047468659e-16
 2.081043611171617e+01 -2.497011547855386e+01 -1.137876685748713e-16
 9.607375822195227e+00  1.163528553580258e+01 -2.905230449510025e-16
-2.136256634897684e+00  4.818585545355351e+00 -1.149198098143147e-17
 1.263424648502291e+00 -6.335830102863240e-01 -1.597431342348852e-17
-1.567890666019591e+01  1.762136390594264e+00  2.609195352073992e-16
-1.552327505582482e+01 -3.826603659676848e+00  3.155721589468902e-16
 1.031129644986012e+01 -3.270100785007803e+00 -1.499027224551213e-16
-2.449034469226100e+00 -5.229639770557206e-01  4.895675458066612e-17
-1.181801947577661e+01  1.895276634680651e+00  1.908424747079918e-16
-1.527888360212853e+01 -7.401455935668380e-01  2.795106861054897e-16
 5.384568717650067e+00 -1.770366490124484e+00 -7.763495072648053e-17
 3.200237998377835e+01  5.904170516182429e+00 -6.301837328576405e-16
-1.177135121435335e+01 -8.462717509140502e+00  2.964365844040276e-16
 1.888841521637723e+01 -4.190882701615216e+00 -2.930820823640556e-16
-3.322181523096767e+00 -4.563908653315508e+00  1.060146864921515e-16
-5.050785338853002e-01  5.902188237734028e-01  2.924190975897065e-18
 2.534048755050163e+00  2.197150120175750e-01 -4.735391226533842e-17
 2.871907206852653e+00 -3.126298609490812e-01 -4.789685622744812e-17
-1.909242263340147e+00 -5.461917088974668e-01  3.958916490751503e-17
-7.209781654816568e+00  8.180790544514165e-01  1.199011995872134e-16
 4.138458124082353e+00  6.083864992093930e-01 -7.989974911081073e-17
-7.517112399026330e+00  6.343024118331095e-01  1.272587550161627e-16
 3.143233565656073e+01 -1.216729998014916e+00 -5.468744481239136e-16
-2.110491920795755e+01 -9.589471189343408e+00  4.741155450407917e-16
 1.050861171263553e+01 -7.742883770118193e+00 -1.074579625839671e-16
 2.382958963937778e+00  6.750400068003342e+00 -1.117655057316349e-16
-2.648875326374745e+00  3.419912870054531e+00  1.200153374310275e-17
 1.922852435634215e+01  6.185377180318101e+00 -4.057470310886656e-16
 2.869112066578628e+00 -6.469689059970556e-01 -4.441190114527140e-17
 7.743677734130886e+00 -4.105144240612557e-01 -1.335900956905925e-16
-2.199013257473447e+01  2.037008242323766e+01  1.820454429110066e-16
 3.132752738892038e+01 -8.812886239660545e+00 -4.669615140688179e-16
 9.795762813110011e+00  2.970452728629562e+00 -2.048476068108966e-16
 1.804328206650253e+01 -6.181877041167787e+00 -2.575851862773091e-16
 7.155031723250897e+00  4.152927487861978e+00 -1.700021456416314e-16
-2.008940081529367e+00  9.808000930632101e-01  2.567412044235441e-17
 3.186789416266101e-01 -3.122923571278565e-01 -2.462581369141202e-18
 5.124460811889513e+00 -7.184219004504798e-01 -8.381436878080376e-17
-2.500404451117565e+00 -8.588200609922286e-01  5.332174393603062e-17
-2.933844024985389e+00  4.529508678384787e-01  4.755734843277605e-17
 3.713549903406142e+00  6.615398983560156e-01 -7.288413233839822e-17
 6.793862053220695e+00 -9.581511471567251e-01 -1.110602242758754e-16
 8.796220022488638e+00  3.996926406379190e+00 -1.976061946662184e-16
-3.142891367709224e+01  8.443047179943997e+00  4.725657659950169e-16
 4.145108951587487e+00 -1.039083661066423e+00 -6.309095110915840e-17
 1.206537693833413e+01 -2.912720940099295e-01 -2.117250597801143e-16
-1.461503761309497e+01  2.816276176493628e+00  2.311558131270490e-16
 5.915694810760937e+00 -9.412541219619205e-01 -9.560580147361515e-17
 2.290760786015724e+01 -4.884162021204627e+00 -3.574852165634951e-16
 1.876665044270939e+01  2.658760979010550e+01 -6.071529623293911e-16
-1.844018435818386e+01 -3.876518741890679e+00  3.679948987478665e-16
 8.796107185011522e+00  1.335632791123248e-02 -1.566744511436373e-16
-4.746137447268120e+00 -1.151603907065723e+00  9.629548908833248e-17
-1.425399210923237e+01  5.711369713672698e-01  2.477985674594347e-16
-2.153666768188211e+01 -4.299555116418262e+00  4.274470581778382e-16
-2.901999605495362e+01  1.461734508034114e+01  3.662575354693808e-16
 1.270634145732872e+01 -3.988333179927934e+00 -1.851458283267975e-16
 5.153107640847577e+00 -1.766783027515236e+00 -7.355264353142783e-17
 2.323790766507707e+01 -1.336969488386316e+01 -2.761775279838469e-16
 2.449075560686696e+01  2.143111042426267e+01 -6.560390839584331e-16
-1.138043996508454e+01 -2.327885434931170e+01  4.417102761614824e-16
 5.628994676556003e-01  1.570267145576677e+00 -2.615139196466513e-17
-1.777503274549170e+01 -2.589594964293367e+01  5.823993858662379e-16
-4.421469293259492e+00 -8.887465921687870e-01  8.781686857884193e-17
-5.889788784798851e+00  1.103434675700489e+01 -8.558087445349388e-18
-2.174811516556843e+01  9.676327296317746e+00  2.876129036239209e-16
-7.214146790961617e+00  1.705992740727583e+00  1.108558918250757e-16
 2.682887717340426e+01 -6.764002659958387e+00 -4.079542017901133e-16
 1.632890312433612e+01  1.980385254446447e+01 -4.940696996486487e-16
-2.985003458970642e+01  1.257974543507220e+00  5.182917404874684e-16
 8.166636494108081e+00 -2.559516352667888e-01 -1.427052278587246e-16
 1.990487016946441e+01  1.681260297038631e+00 -3.715052468424976e-16
 1.414499277581401e+01  2.503994316358379e+00 -2.774546510891902e-16
-4.328212093671771e+00 -4.933581346807233e-01  8.209477269569378e-17
-3.730568169691738e+00 -3.846741013569235e-02  6.678514922912806e-17
 3.618883123926749e+00  2.239508483400243e-01 -6.670335556172773e-17
-2.629531240948432e+00 -1.727222454030900e-01  4.857030338134923e-17
-2.109099449959018e+01 -2.454344814303163e+00  4.005569067440820e-16
-1.471793367387651e+01 -2.807502177076453e+01  5.503838357379775e-16
 2.971580060479102e+01 -1.594100206349639e+00 -5.124493175232985e-16
 1.473627913604397e+01  7.236677297779354e+00 -3.366038956762877e-16
-3.010556471632308e+01  1.748971138299244e-01  5.339674310506588e-16
-1.277520406053601e+01 -2.027432359103402e+00  2.481811260547788e-16
-3.252685990098456e+01 -6.616976610272028e-01  5.856529744818107e-16
-1.817915028395602e+01  2.812851235570477e+00  2.946186395573493e-16
-2.213702105596708e+01  4.702958721501426e+00  3.456335032647819e-16
 2.216384671255230e+01 -2.373387446234431e+01 -1.505751519839438e-16
 6.669125989088520e+00  7.558482490115297e-01 -1.264511183852961e-16
 7.858044954414331e+00 -2.628683436912640e+00 -1.128345159907407e-16
 7.243441753510517e+00  6.166637557774776e+00 -1.922656469904307e-16
-2.542189522471975e+01  9.433656807091674e+00  3.554855531462985e-16
 3.101730442804053e+01  4.097113049778478e+00 -5.940862792869918e-16
 1.562269333110022e+01 -2.506142781816716e+00 -2.522747565777217e-16
-1.299887373788461e+01 -3.941025319813627e+00  2.718230672747147e-16
-5.645202736465209e+00  7.390673927411682e-01  9.286946755434978e-17
 3.290192700971899e+00  2.226787379231895e-01 -6.084084693715952e-17
-1.061154840240292e+01  2.604848781117959e-01  1.861687742374315e-16
 4.716760610965048e+00 -1.557433206523598e-01 -8.234017538521650e-17
-3.626952975102827e+00 -7.770326973111573e-02  6.534432744173818e-17
-5.408178632913716e+00  2.695688172831777e-01  9.347526821056302e-17
 4.604616628210429e+00 -1.967173970571827e-02 -8.174252550522848e-17
 5.665323554809714e+00 -2.521253622514192e-01 -9.823069398104106e-17
-4.794071280282086e+00 -2.062482657098298e-01  8.743534301514996e-17
-1.541444902812923e+01  4.046412819622907e+00  2.327430856578460e-16
 1.977633588946595e+00 -3.855433767857142e-01 -3.123303057625556e-17
-1.806854136794423e+01  1.744250783283330e+00  3.036297034177415e-16
-2.665039036200727e+00  7.367135283696821e+00 -2.826709014776071e-17
 6.762447499867362e-01  4.783301367786546e-01 -1.694925036995144e-17
 3.004192442540435e+01 -3.953903983896714e+00 -4.940069533588853e-16
-5.333925236169895e+00  1.951886004024578e+01 -1.056256341549729e-16
-2.185224788279968e+01  9.191778606616779e+00  2.944446313002753e-16
 2.034578241131841e+01 -4.818239271594565e+00 -3.125718091383066e-16
 2.793359264394058e+01 -2.839401051463548e+00 -4.679377871646628e-16
 8.315870838485488e+00  1.360267002549652e+00 -1.619670904026122e-16
 1.346170027922476e+01 -1.709708209084201e+00 -2.220003834059776e-16
-5.803485979775821e+00 -5.055063177773065e+00  1.552188934549952e-16
-8.860068435538212e+00  5.787640998027071e+00  9.820957771254451e-17
-1.177044675963755e+01 -1.381964037334971e+01  3.514609249503863e-16
-1.257048794828066e+01  3.861985381118592e+00  1.840263308184189e-16
 1.410017924984973e+01  3.567169881203818e+00 -2.875808837423227e-16
-4.186364362187309e+00  4.624832436412530e-01  6.974950017542563e-17
 5.298566732818080e+00  6.016109510552157e-01 -1.004756493330712e-16
-9.687365833218681e+00  2.230949883118518e-01  1.701060105464418e-16
 3.756615817249216e+00 -1.322831998132867e-01 -6.549429769813310e-17
 1.170483482882866e+01  2.961904200563893e-01 -2.113447467821808e-16
-3.203691624575835e+01 -5.354199662924445e+00  6.251475961068019e-16
-1.245237296715786e+01  1.258186226609929e+00  2.086774242608116e-16
 8.567805563273925e+00 -7.978446545679767e+00 -7.049868014104496e-17
-3.230935603781577e+01 -2.508238119639317e-02  5.752412430140937e-16
 3.106197269036022e+01  3.536715502628035e+00 -5.891233230859803e-16
-2.157798200182206e+01 -1.731858362904630e+01  5.619480843267029e-16
-1.020684746560200e+01  5.706615246863381e-01  1.757796859575955e-16
 2.833700476926385e+01  1.312037239059834e+00 -5.177715074747082e-16
 1.769490592470049e+01  2.286481968360843e+01 -5.498296743414220e-16
-1.988479960797413e+01  1.151543035013842e+01  2.355568648532184e-16
 3.036786683485362e+01  3.417274007316064e+00 -5.755436634489342e-16
 2.719581883408129e+01  1.785301591899434e+00 -5.023253618427437e-16
 1.811144090957973e+01  5.025993016140662e+00 -3.739549475254198e-16
-1.537767474993013e+01 -3.967081902829808e+00  3.144243907530071e-16
-3.179129241288914e+01  2.340343813569521e+00  5.417177879803826e-16
-2.487967667135955e+01 -5.462743156654072e-01  4.483762940650222e-16
 5.565937414183285e+00 -1.648099636186077e+00 -8.211887051944098e-17
-8.974436561510306e+00 -1.115350733121555e+00  1.711706273140588e-16
-9.081346304665407e+00  2.711425999163311e+00  1.337544729471993e-16
-1.381732895689613e+01 -4.697505310095001e+00  2.941610112591446e-16
 5.931561987436184e+00 -1.838670326404731e+01  8.335747563956782e-17
-9.192814598431760e+00 -3.800786090639195e+00  2.026487977341739e-16
 5.373371902020842e+00 -3.945903450704339e+00 -5.508283805039524e-17
-3.788654901400462e+00 -4.715520411023975e+00  1.158738924563368e-16
 8.371954171344524e-01  4.509753052344781e-01 -1.953249852534030e-17
-6.094188978675549e+00 -3.174888795307970e+00  1.410741913102655e-16
-6.911375160402450e+00  1.438122532844306e+01 -2.476570079523814e-17
 1.335368616593853e+01  1.687109458426147e+01 -4.109891422436953e-16
-2.825613752589534e+00  7.209364493843545e-01  4.287780712280805e-17
 1.148186404810752e+01  6.529086818766935e+00 -2.714174620562840e-16
-2.496690163406672e+01 -5.388681198877694e+00  4.996825379381601e-16
 7.921664925567655e+00 -8.964203582121372e-01 -1.317650831153413e-16
-2.559324655055543e+00  2.911321486407095e+01 -2.535814716069800e-16
-7.656901251332771e+00  1.121624621988564e+00  1.247394057148149e-16
 2.243949694329003e+00  8.878701425252714e+00 -1.311591932575932e-16
 4.016596674709803e-01  3.109002840474182e+00 -3.909188767880472e-17
-5.618544802543314e+00 -5.820951005083830e+00  1.597968637960785e-16
-1.162564041103315e-01  5.241551947569073e+00 -5.178612076580373e-17
 4.593566914765931e+00  8.055569957144872e+00 -1.645160576043799e-16
-1.880264677650334e-02  9.918962198080450e-02 -6.845218067472753e-19
 7.394150684591493e+00 -2.524057641423053e+00 -1.056539561268738e-16
 5.532699950464645e-03  6.363394906565041e+00 -6.548003201835979e-17
-5.622634814091351e+00 -3.164064577728940e+00  1.325711075607250e-16
-3.090755217330035e+01  1.018887356780130e+01  4.453497841994153e-16
-6.890259478891446e+00 -3.070172047936387e+00  1.541652889106890e-16
 8.751758816614611e-01  2.986146811649351e-01 -1.864295613074265e-17
 3.002572818549190e+00 -3.125057117917200e-01 -5.022348223711384e-17
 7.370865706043284e+00 -5.429951944231870e+00 -7.538256384539899e-17
 1.863837273892032e+01  7.536705265616725e+00 -4.091289842794945e-16
 1.621528592806629e+01 -2.000172469710165e+00 -2.680193098850555e-16
-7.628088643096739e-01 -1.022271673597746e+00  2.407856375521980e-17
-1.557631274408517e+00  3.917805837582244e-01  2.369450336280355e-17
 1.502811261023391e+01  5.470597956567969e+00 -3.236515967704632e-16
 5.019779646423581e+00 -3.973055351363937e-01 -8.525079657041136e-17
 2.295381977228478e+00  1.734725750875096e+01 -2.190858294532989e-16
-3.194677049339148e+01 -6.122194256186877e+00  6.314342103817782e-16
-9.091041048755917e-02 -2.140309922198193e+00  2.360876613372222e-17
 9.648493447037499e+00  1.243317620054590e+01 -2.994528188719269e-16
 2.316854418004442e+00 -2.140223464293760e+01  1.786689981254392e-16
 1.893079857528217e+01  7.499725893671597e+00 -4.139531012480645e-16
-2.440163933703641e+01  3.653572701149096e+00  3.967171470664784e-16
-1.915864678349772e+00  3.423946594121439e-01  3.057711653410133e-17
-2.639622156648054e+01  2.469249510893325e+00  4.443816076136184e-16
-9.081689824396285e+00  2.200532676516038e+01 -6.447723518070665e-17
 2.304566434557826e+01 -3.080347322819075e+00 -3.784756371528535e-16
-1.329914543875791e+01  1.569126869452102e+00  2.205519483162594e-16
 2.391488035062982e+01 -1.333522202952873e+01 -2.885792605092211e-16
 1.918463252185999e+01  5.654423707285368e+00 -3.995105694862593e-16
-1.748521517861461e+01  1.282953531550930e+01  1.793514464534241e-16
 1.898345136733865e+01  1.247929450175955e+01 -4.660533790124653e-16
-3.092519218926914e+01 -1.011428023936327e+01  6.542712391464648e-16
 9.325534833887479e+00 -1.359846287056634e+01 -2.623975020114675e-17
 2.681153926551523e+01 -1.084635243308606e+00 -4.659990900822137e-16
-1.810915239195547e+01  6.153460204357040e-01  3.159515113780041e-16
 1.332644803451381e+01 -1.411716450278884e+01 -9.211130229030849e-17
 2.800362476211278e+01  5.790411885511088e+00 -5.578522852086631e-16
 1.509449484867696e+01 -5.014882791545465e-01 -2.634719313002226e-16
-1.049251663914993e+01 -4.494585774664233e+00  2.329070856140633e-16
-1.786060216279520e+01  5.237511679148212e+00  2.640371905243735e-16
 3.249190850961205e+01 -1.302080452153982e+00 -5.648538660336191e-16
-5.983620263286745e+00  1.729964351569052e+01 -7.126189262678501e-17
-6.324073445662544e+00  4.339965183676906e+00  6.795286492416620e-17
-1.053745397807610e+01 -1.442165196909966e+00  2.023442866180474e-16
 2.152394833696202e+01 -1.248984180253336e+01 -2.547157480243874e-16
 2.997824185175269e+01  1.264795194092175e+01 -6.634516846476282e-16
-2.191495904881897e+01 -8.754459794958841e+00  4.799517315278335e-16
-1.950783253837148e+01  5.946780852089701e+00  2.860641368457137e-16
-2.023340349976513e+01 -5.844283237111640e+00  4.201254377545683e-16
-1.232219261046807e+01  6.214857746953205e+00  1.554327102820526e-16
 2.171364069773424e+01  2.415902689772983e+01 -6.346453623332200e-16
 2.050631520169285e-01  1.820723697237467e-01 -5.520070855827742e-18
-6.763958976929162e-01 -9.487192256945897e-01  2.178501725626219e-17
-1.077058379113943e+01  1.134812160487362e+00  1.800156034765693e-16
 2.279902342830366e+00  1.736798369148980e-01 -4.235807900099792e-17
 3.423050217094422e+00 -2.303779212008763e-01 -5.855021229924184e-17
-6.231564706001250e-01 -1.152673423070629e-01  1.227414279153746e-17
-3.741931870007332e+00  2.356151015517323e-01  6.417128158527217e-17
-1.881845437031713e+01 -2.164127528501654e+00  3.571324671749241e-16
 1.471701476058931e+00 -2.572914765508921e-01 -2.354710686691888e-17
 2.149256911789957e+01  1.139463287838437e+00 -3.941934760679131e-16
 2.222214902011282e+01 -3.365982866828458e+00 -3.608853981357469e-16
 1.679179337503024e+01  2.513541640859676e+00 -3.246557203389334e-16
-3.155365631958135e+01 -1.370948939485256e+00  5.756209550935075e-16
 2.127639673254862e+01 -6.980895055528549e+00 -3.069126985100180e-16
 2.417814393666247e+01  5.692354930196359e-01 -4.361275999905657e-16
-2.147172732807941e+01 -1.129664445403698e+01  4.981839182231390e-16
 1.063540313508460e+01 -1.031886420879012e+01 -8.324710398894681e-17
 2.893469790651636e+01  5.436390305391804e+00 -5.707843993062214e-16
 1.638608176957505e+01  1.684780345219569e+00 -3.089203771313214e-16
-3.170323484948338e+01  7.213143887536980e-01  5.567856378211214e-16
 6.594645618931032e+00  2.661449351404648e+01 -3.908138377383501e-16
 7.925628757191881e+00  7.966840449804263e+00 -2.229024092741006e-16
 2.852845217362380e+01  1.559143165843697e+01 -6.678941327674848e-16
 1.006409926777006e+01  1.815981205878019e+01 -3.656881233236225e-16
 4.552169894815369e+00 -6.460945948782396e+00 -1.462742075512282e-17
-1.297944330689394e+01 -1.052153402086334e+01  3.390896159781372e-16
-2.231698377951852e+01  1.439767662228255e+01  2.492264499858189e-16
 2.132679215994365e+01 -2.970148078417499e-01 -3.764839867460774e-16
 2.947341126564068e+01 -3.529856298255160e+00 -4.882465194592669e-16
-7.475104090756870e+00 -4.730062779316826e+00  1.816280706852451e-16
 2.441563305755854e+00  3.947146002477518e-01 -4.750608054133294e-17
 5.384030032865296e-01 -6.843837387196560e-01 -2.549729376927561e-18
 1.575018790132265e+00  7.142278080845383e+00 -1.014136508143594e-16
 2.507018408855510e+01  4.351715831570199e+00 -4.908661299639675e-16
 2.458027985692726e+01 -5.371700755269031e+00 -3.822431265963333e-16
 1.872453642002711e-01 -5.719227270328312e-01  2.544043637683661e-18
-6.171139149310894e+00  1.877334716476054e+00  9.053385013207425e-17
 2.310043938541092e+01  6.768803176001624e-01 -4.180545734368681e-16
 2.535276883999305e+01  7.643257052844561e+00 -5.297144530091446e-16
-2.865681995527656e+01 -6.979719671038387e+00  5.816963782959274e-16
-8.982035132280362e+00  1.562850845719771e-01  1.582402568695129e-16
 1.057397916994139e+01  5.866684658933615e-01 -1.942043777991591e-16
-3.048785542341401e+01 -1.136756323147758e+01  6.593653371913155e-16
 7.918111925155011e+00 -2.003204353018866e+01  6.490972342769090e-17
 2.074967345770800e+01  1.561804571928516e+01 -5.297349364664693e-16
 3.244943862239609e+01  1.956152712873754e+00 -5.975752258874067e-16
 1.377489119274458e+01  1.781885564032887e+01 -4.282228886822462e-16
 4.754862712764242e+00 -2.472478248758628e+01  1.694197044739244e-16
 1.289368025066910e+01  6.416617205118548e+00 -2.953868310084000e-16
-1.572291039316373e+01  9.178560424705822e+00  1.855015713547480e-16
 2.599128751485175e+01  7.823902689907999e+00 -5.429337227963168e-16
 2.851368766619407e+01 -6.267686407401786e+00 -4.430368833853009e-16
 4.942444026587564e+00  1.620624406853225e+00 -1.046080140663901e-16
 9.205859802884540e+00 -2.699361670736449e+00 -1.360942957659369e-16
-7.960131305489071e+00 -6.050553135966607e+00  2.038272672485709e-16
 7.046480546993515e-01  3.960311086651696e+00 -5.323081041719806e-17
-1.362747670629170e+01  2.538902921129495e-01  2.399085729004266e-16
-2.288107195635100e+01  1.921619572094881e+01  2.097565386513968e-16
 1.325641258667050e+00 -3.242462305033982e+01  3.095598554104504e-16
 2.262182177703949e+01  1.037293595243339e+01 -5.091604515278872e-16
-2.318897777636622e+01 -2.032874181722423e+00  4.335625640362663e-16
-8.718784943028135e+00 -1.570021279073601e+00  1.712925765060097e-16
 5.388284437455025e+00  3.580061299498716e-01 -9.956933187465588e-17
 1.524838076183538e+01  1.321819373764306e-01 -2.727212459763062e-16
-2.673671175558176e+01 -1.321938669382967e+01  6.116360745069757e-16
-8.947066039852187e+00  8.211214325778373e-01  1.507869881932219e-16
 8.561695515404008e+00 -1.084183739342173e-01 -1.512516250493339e-16
-6.569192198941732e+00  2.113463057837402e-01  1.147351046796912e-16
 3.133834484408590e+00 -1.389612784936455e-01 -5.434254617621387e-17
 2.777837889047823e+01  1.264034708044233e+00 -5.073368850449483e-16
 3.160798662482538e+00 -1.899776958971048e-02 -5.605498741430599e-17
 2.610296044066073e+01 -1.697025748393379e+00 -4.470969946919654e-16
 1.176563414029984e+01  1.294310565266442e+00 -2.226820649650964e-16
-1.962022967688970e+01 -1.914199445076131e+00  3.688330948853553e-16
-2.213052711811546e+01  3.788840941912309e+00  3.549101640306536e-16
-1.494022136415368e+01  2.002679257837758e-01  2.638213803205370e-16
-4.548943631028144e+00  1.721812448258812e+00  6.326288067087279e-17
 2.862171771518434e+01 -1.269524339872005e+01 -3.789185938571827e-16
 1.301414883168889e+00 -9.232161478654273e+00  7.169687518271771e-17
-3.206078851344891e+01 -1.254655501401588e+00  5.834511045790668e-16
 8.746264605603500e+00 -3.110193994727445e+00 -1.236940981271990e-16
 1.093073892925336e+01  3.064907005096197e+01 -5.094335987121215e-16
-1.867772938763264e+01 -5.296353655686890e+00  3.868105838601674e-16
-1.877382858498299e+01 -5.041427562354300e+00  3.859015106826351e-16
-5.609228636182540e+00  3.808888282897926e-01  9.590942017385763e-17
 2.546947801439580e+00  3.092803408038250e-01 -4.850371738805961e-17
 4.943674890074450e+00  1.471205997115953e-01 -8.949020241291399e-17
 6.026742339792068e+00  1.111052686419840e+00 -1.186687316343420e-16
 3.200526049465078e+01 -7.239642472080600e-01 -5.621333181446858e-16
-1.826986037996704e+01 -4.845413180157519e+00  3.749188187649721e-16
-2.991841488912277e+01  1.128024900519557e+00  5.208438348545670e-16
-1.805411917823687e+01  2.076513737449066e+01  1.079403433701798e-16
-1.332101325533174e+01 -1.880123367306635e+01  4.302391667961660e-16
-2.693497255643635e+01  1.515501158135907e+01  3.236277272268918e-16
-2.818623561468867e+01  1.092582000937781e+00  4.903818013684854e-16
-7.862503407212378e+00  3.053043371312268e+00  1.085537153081706e-16
-6.660975791853144e+00 -2.871752476179876e+01  4.136021443823930e-16
-2.648199903117370e+01  7.152281976629908e+00  3.977916625380463e-16
 1.616090164277037e+01 -1.107276048010076e+00 -2.762256630028528e-16
 3.199899037919491e+01 -2.979551513733731e+00 -5.388463941913560e-16
-1.533052884905399e+01 -2.248746812223370e+01  5.038756136265807e-16
 1.318669538848317e+01 -1.485623161715217e+00 -2.194087358052511e-16
 1.506661220421165e+01  8.980289331145899e+00 -3.603975468746086e-16
 1.861812414423932e+01  5.848950043684637e+00 -3.914275645911608e-16
-5.103416433947611e+00 -3.198756516461101e+01  4.194819949204055e-16
-7.926811035127313e+00  1.889979031518307e+00  1.216482098460388e-16
-1.170679936804177e+00  1.128185627649328e+00  9.241948439086771e-18
 1.860935911340196e+00 -3.541314417882599e+00  3.268144838348021e-18
 1.013358470527508e+01  6.000455312801218e+00 -2.419917261544017e-16
 2.966498691136643e+00 -7.478905688119532e+00  2.405065629884951e-17
 2.801686350936941e+01 -1.655733327020700e+01 -3.284729213296698e-16
 2.651535651241678e+01 -8.625873105131669e+00 -3.832446851806995e-16
-5.394627125362663e+00  1.365890313813285e+01 -4.433644321453646e-17
 2.856757204658995e+01 -4.986545076492524e+00 -4.571590820185078e-16
 1.711458063118769e+01  7.774893465265258e+00 -3.844585833015108e-16
 2.846927754729218e+01 -1.036869871002012e+01 -4.001101407425732e-16
-1.498047637734321e+01 -9.492171932117570e+00  3.641240648621556e-16
-4.213968794312946e+00  2.766365490150545e+01 -2.092414034118139e-16
 2.420418713823316e+01 -1.216443432567162e+01 -3.057572382207326e-16
-6.246649802195395e+00 -1.362319920099281e+00  1.251639268026457e-16
-1.621523211039491e+01  8.629137054602820e+00  1.999081491180861e-16
 2.916316387610294e+01  1.318928408621647e+01 -6.545083909492699e-16
-2.094760694083626e+00  4.668123129981226e-01  3.248243833374512e-17
 9.697260050187905e+00  4.263329644965066e-01 -1.769547262114493e-16
 3.042732141493685e+01 -6.659575327257733e+00 -4.730657621586806e-16
 1.844250427280288e+00  1.039385061524313e-01 -3.388856664245294e-17
 5.599695677608829e+00 -2.829340065046018e-01 -9.674622002203758e-17
 2.432879553059483e+00  1.945734704338594e-01 -4.529516540856984e-17
 5.818526435677450e+00 -6.793457660221590e-01 -9.656758753743071e-17
 2.426575619890403e+00  3.824115817657349e-01 -4.711294776376153e-17
 2.579393151588198e-01  4.284562687455293e-02 -5.030561076629044e-18
 7.294050954852686e+00  1.287137032614564e+00 -1.430312028305892e-16
-1.539414310046644e+00 -2.437999193705171e-02  2.764620949702622e-17
 1.761534185481360e+00  3.614509722502372e-01 -3.506237949995946e-17
-2.634932343531814e+01 -2.047705919620350e+00  4.899570755930987e-16
-8.592110772961890e+00  3.138887760825165e+01 -1.696024545085553e-16
 1.632327912093071e+01 -2.140899179433187e+00 -2.684952617282998e-16
-5.929273925974586e+00 -1.306450643718288e+00  1.189418079742669e-16
-4.087621885039624e+00  1.858737025480012e+00  5.364625960863880e-17
 1.925123132359678e+01  3.476943106611153e+00 -3.783229524338224e-16
-2.450683064756843e+01  1.563724458306963e+00  4.200615834465022e-16
-3.282121817085879e+00  1.551647185370463e-01  5.681501167557775e-17
-3.675325770394593e+00  1.787511882084250e-01  6.357020266205897e-17
-1.045732018245575e+01  8.182600608015267e-01  1.776931617444933e-16
 1.183975358484300e+01 -8.576199481892567e-01 -2.018908045976955e-16
-1.709481755849445e+01 -2.106765458031552e+00  3.258689196108772e-16
VECTORS SF_force double
0.000000000000000e+00 0.000000000000000e+00 0.000000000000000e+00
0.000000000000000e+00 0.000000000000000e+00 0.000000000000000e+00
0.000000000000000e+00 0.000000000000000e+00 0.000000000000000e+00
0.000000000000000e+00 0.000000000000000e+00 0.000000000000000e+00
0.000000000000000e+00 0.000000000000000e+00 0.000000000000000e+00
0.000000000000000e+00 0.000000000000000e+00 0.000000000000000e+00
0.000000000000000e+00 0.000000000000000e+00 0.000000000000000e+00
0.000000000000000e+00 0.000000000000000e+00 0.000000000000000e+00
0.000000000000000e+00 0.000000000000000e+00 0.000000000000000e+00
0.000000000000000e+00 0.000000000000000e+00 0.000000000000000e+00
0.000000000000000e+00 0.000000000000000e+00 0.000000000000000e+00
0.000000000000000e+00 0.000000000000000e+00 0.000000000000000e+00
0.000000000000000e+00 0.000000000000000e+00 0.000000000000000e+00
0.000000000000000e+00 0.000000000000000e+00 0.000000000000000e+00
0.000000000000000e+00 0.000000000000000e+00 0.000000000000000e+00
0.000000000000000e+00 0.000000000000000e+00 0.000000000000000e+00
0.000000000000000e+00 0.000000000000000e+00 0.000000000000000e+00
0.000000000000000e+00 0.000000000000000e+00 0.000000000000000e+00
0.000000000000000e+00 0.000000000000000e+00 0.000000000000000e+00
0.000000000000000e+00 0.000000000000000e+00 0.000000000000000e+00
0.000000000000000e+00 0.000000000000000e+00 0.000000000000000e+00
0.000000000000000e+00 0.000000000000000e+00 0.000000000000000e+00
0.000000000000000e+00 0.000000000000000e+00 0.000000000000000e+00
0.000000000000000e+00 0.000000000000000e+00 0.000000000000000e+00
0.000000000000000e+00 0.000000000000000e+00 0.000000000000000e+00
0.000000000000000e+00 0.000000000000000e+00 0.000000000000000e+00
0.000000000000000e+00 0.000000000000000e+00 0.000000000000000e+00
0.000000000000000e+00 0.000000000000000e+00 0.000000000000000e+00
0.000000000000000e+00 0.000000000000000e+00 0.000000000000000e+00
0.000000000000000e+00 0.000000000000000e+00 0.000000000000000e+00
0.000000000000000e+00 0.000000000000000e+00 0.000000000000000e+00
0.000000000000000e+00 0.000000000000000e+00 0.000000000000000e+00
0.000000000000000e+00 0.000000000000000e+00 0.000000000000000e+00
0.000000000000000e+00 0.000000000000000e+00 0.000000000000000e+00
0.000000000000000e+00 0.000000000000000e+00 0.000000000000000e+00
0.000000000000000e+00 0.000000000000000e+00 0.000000000000000e+00
0.000000000000000e+00 0.000000000000000e+00 0.000000000000000e+00
0.000000000000000e+00 0.000000000000000e+00 0.000000000000000e+00
0.000000000000000e+00 0.000000000000000e+00 0.000000000000000e+00
0.000000000000000e+00 0.000000000000000e+00 0.000000000000000e+00
0.000000000000000e+00 0.000000000000000e+00 0.000000000000000e+00
0.000000000000000e+00 0.000000000000000e+00 0.000000000000000e+00
0.000000000000000e+00 0.000000000000000e+00 0.000000000000000e+00
0.000000000000000e+00 0.000000000000000e+00 0.000000000000000e+00
0.000000000000000e+00 0.000000000000000e+00 0.000000000000000e+00
0.000000000000000e+00 0.000000000000000e+00 0.000000000000000e+00
0.000000000000000e+00 0.000000000000000e+00 0.000000000000000e+00
0.000000000000000e+00 0.000000000000000e+00 0.000000000000000e+00
0.000000000000000e+00 0.000000000000000e+00 0.000000000000000e+00
0.000000000000000e+00 0.000000000000000e+00 0.000000000000000e+00
0.000000000000000e+00 0.000000000000000e+00 0.000000000000000e+00
0.000000000000000e+00 0.000000000000000e+00 0.000000000000000e+00
0.000000000000000e+00 0.000000000000000e+00 0.000000000000000e+00
0.000000000000000e+00 0.000000000000000e+00 0.000000000000000e+00
0.000000000000000e+00 0.000000000000000e+00 0.000000000000000e+00
0.000000000000000e+00 0.000000000000000e+00 0.000000000000000e+00
0.000000000000000e+00 0.000000000000000e+00 0.000000000000000e+00
0.000000000000000e+00 0.000000000000000e+00 0.000000000000000e+00
0.000000000000000e+00 0.000000000000000e+00 0.000000000000000e+00
0.000000000000000e+00 0.000000000000000e+00 0.000000000000000e+00
0.000000000000000e+00 0.000000000000000e+00 0.000000000000000e+00
0.000000000000000e+00 0.000000000000000e+00 0.000000000000000e+00
0.000000000000000e+00 0.000000000000000e+00 0.000000000000000e+00
0.000000000000000e+00 0.000000000000000e+00 0.000000000000000e+00
0.000000000000000e+00 0.000000000000000e+00 0.000000000000000e+00
0.000000000000000e+00 0.000000000000000e+00 0.000000000000000e+00
0.000000000000000e+00 0.000000000000000e+00 0.000000000000000e+00
0.000000000000000e+00 0.000000000000000e+00 0.000000000000000e+00
0.000000000000000e+00 0.000000000000000e+00 0.000000000000000e+00
0.000000000000000e+00 0.000000000000000e+00 0.000000000000000e+00
0.000000000000000e+00 0.000000000000000e+00 0.000000000000000e+00
0.000000000000000e+00 0.000000000000000e+00 0.000000000000000e+00
0.000000000000000e+00 0.000000000000000e+00 0.000000000000000e+00
0.000000000000000e+00 0.000000000000000e+00 0.000000000000000e+00
0.000000000000000e+00 0.000000000000000e+00 0.000000000000000e+00
0.000000000000000e+00 0.000000000000000e+00 0.000000000000000e+00
0.000000000000000e+00 0.000000000000000e+00 0.000000000000000e+00
0.000000000000000e+00 0.000000000000000e+00 0.000000000000000e+00
0.000000000000000e+00 0.000000000000000e+00 0.000000000000000e+00
0.000000000000000e+00 0.000000000000000e+00 0.000000000000000e+00
0.000000000000000e+00 0.000000000000000e+00 0.000000000000000e+00
0.000000000000000e+00 0.000000000000000e+00 0.000000000000000e+00
0.000000000000000e+00 0.000000000000000e+00 0.000000000000000e+00
0.000000000000000e+00 0.000000000000000e+00 0.000000000000000e+00
0.000000000000000e+00 0.000000000000000e+00 0.000000000000000e+00
0.000000000000000e+00 0.000000000000000e+00 0.000000000000000e+00
0.000000000000000e+00 0.000000000000000e+00 0.000000000000000e+00
0.000000000000000e+00 0.000000000000000e+00 0.000000000000000e+00
0.000000000000000e+00 0.000000000000000e+00 0.000000000000000e+00
0.000000000000000e+00 0.000000000000000e+00 0.000000000000000e+00
0.000000000000000e+00 0.000000000000000e+00 0.000000000000000e+00
0.000000000000000e+00 0.000000000000000e+00 0.000000000000000e+00
0.000000000000000e+00 0.000000000000000e+00 0.000000000000000e+00
0.000000000000000e+00 0.000000000000000e+00 0.000000000000000e+00
0.000000000000000e+00 0.000000000000000e+00 0.000000000000000e+00
0.000000000000000e+00 0.000000000000000e+00 0.000000000000000e+00
0.000000000000000e+00 0.000000000000000e+00 0.000000000000000e+00
0.000000000000000e+00 0.000000000000000e+00 0.000000000000000e+00
0.000000000000000e+00 0.000000000000000e+00 0.000000000000000e+00
0.000000000000000e+00 0.000000000000000e+00 0.000000000000000e+00
0.000000000000000e+00 0.000000000000000e+00 0.000000000000000e+00
0.000000000000000e+00 0.000000000000000e+00 0.000000000000000e+00
0.000000000000000e+00 0.000000000000000e+00 0.000000000000000e+00
0.000000000000000e+00 0.000000000000000e+00 0.000000000000000e+00
0.000000000000000e+00 0.000000000000000e+00 0.000000000000000e+00
0.000000000000000e+00 0.000000000000000e+00 0.000000000000000e+00
0.000000000000000e+00 0.000000000000000e+00 0.000000000000000e+00
0.000000000000000e+00 0.000000000000000e+00 0.000000000000000e+00
0.000000000000000e+00 0.000000000000000e+00 0.000000000000000e+00
0.000000000000000e+00 0.000000000000000e+00 0.000000000000000e+00
0.000000000000000e+00 0.000000000000000e+00 0.000000000000000e+00
0.000000000000000e+00 0.000000000000000e+00 0.000000000000000e+00
0.000000000000000e+00 0.000000000000000e+00 0.000000000000000e+00
0.000000000000000e+00 0.000000000000000e+00 0.000000000000000e+00
0.000000000000000e+00 0.000000000000000e+00 0.000000000000000e+00
0.000000000000000e+00 0.000000000000000e+00 0.000000000000000e+00
0.000000000000000e+00 0.000000000000000e+00 0.000000000000000e+00
0.000000000000000e+00 0.000000000000000e+00 0.000000000000000e+00
0.000000000000000e+00 0.000000000000000e+00 0.000000000000000e+00
0.000000000000000e+00 0.000000000000000e+00 0.000000000000000e+00
0.000000000000000e+00 0.000000000000000e+00 0.000000000000000e+00
0.000000000000000e+00 0.000000000000000e+00 0.000000000000000e+00
0.000000000000000e+00 0.000000000000000e+00 0.000000000000000e+00
0.000000000000000e+00 0.000000000000000e+00 0.000000000000000e+00
0.000000000000000e+00 0.000000000000000e+00 0.000000000000000e+00
0.000000000000000e+00 0.000000000000000e+00 0.000000000000000e+00
0.000000000000000e+00 0.000000000000000e+00 0.000000000000000e+00
0.000000000000000e+00 0.000000000000000e+00 0.000000000000000e+00
0.000000000000000e+00 0.000000000000000e+00 0.000000000000000e+00
0.000000000000000e+00 0.000000000000000e+00 0.000000000000000e+00
0.000000000000000e+00 0.000000000000000e+00 0.000000000000000e+00
0.000000000000000e+00 0.000000000000000e+00 0.000000000000000e+00
0.000000000000000e+00 0.000000000000000e+00 0.000000000000000e+00
0.000000000000000e+00 0.000000000000000e+00 0.000000000000000e+00
0.000000000000000e+00 0.000000000000000e+00 0.000000000000000e+00
0.000000000000000e+00 0.000000000000000e+00 0.000000000000000e+00
0.000000000000000e+00 0.000000000000000e+00 0.000000000000000e+00
0.000000000000000e+00 0.000000000000000e+00 0.000000000000000e+00
0.000000000000000e+00 0.000000000000000e+00 0.000000000000000e+00
0.000000000000000e+00 0.000000000000000e+00 0.000000000000000e+00
0.000000000000000e+00 0.000000000000000e+00 0.000000000000000e+00
0.000000000000000e+00 0.000000000000000e+00 0.000000000000000e+00
0.000000000000000e+00 0.000000000000000e+00 0.000000000000000e+00
0.000000000000000e+00 0.000000000000000e+00 0.000000000000000e+00
0.000000000000000e+00 0.000000000000000e+00 0.000000000000000e+00
0.000000000000000e+00 0.000000000000000e+00 0.000000000000000e+00
0.000000000000000e+00 0.000000000000000e+00 0.000000000000000e+00
0.000000000000000e+00 0.000000000000000e+00 0.000000000000000e+00
0.000000000000000e+00 0.000000000000000e+00 0.000000000000000e+00
0.000000000000000e+00 0.000000000000000e+00 0.000000000000000e+00
0.000000000000000e+00 0.000000000000000e+00 0.000000000000000e+00
0.000000000000000e+00 0.000000000000000e+00 0.000000000000000e+00
0.000000000000000e+00 0.000000000000000e+00 0.000000000000000e+00
0.000000000000000e+00 0.000000000000000e+00 0.000000000000000e+00
0.000000000000000e+00 0.000000000000000e+00 0.000000000000000e+00
0.000000000000000e+00 0.000000000000000e+00 0.000000000000000e+00
0.000000000000000e+00 0.000000000000000e+00 0.000000000000000e+00
0.000000000000000e+00 0.000000000000000e+00 0.000000000000000e+00
0.000000000000000e+00 0.000000000000000e+00 0.000000000000000e+00
0.000000000000000e+00 0.000000000000000e+00 0.000000000000000e+00
0.000000000000000e+00 0.000000000000000e+00 0.000000000000000e+00
0.000000000000000e+00 0.000000000000000e+00 0.000000000000000e+00
0.000000000000000e+00 0.000000000000000e+00 0.000000000000000e+00
0.000000000000000e+00 0.000000000000000e+00 0.000000000000000e+00
0.000000000000000e+00 0.000000000000000e+00 0.000000000000000e+00
0.000000000000000e+00 0.000000000000000e+00 0.000000000000000e+00
0.000000000000000e+00 0.000000000000000e+00 0.000000000000000e+00
0.000000000000000e+00 0.000000000000000e+00 0.000000000000000e+00
0.000000000000000e+00 0.000000000000000e+00 0.000000000000000e+00
0.000000000000000e+00 0.000000000000000e+00 0.000000000000000e+00
0.000000000000000e+00 0.000000000000000e+00 0.000000000000000e+00
0.000000000000000e+00 0.000000000000000e+00 0.000000000000000e+00
0.000000000000000e+00 0.000000000000000e+00 0.000000000000000e+00
0.000000000000000e+00 0.000000000000000e+00 0.000000000000000e+00
0.000000000000000e+00 0.000000000000000e+00 0.000000000000000e+00
0.000000000000000e+00 0.000000000000000e+00 0.000000000000000e+00
0.000000000000000e+00 0.000000000000000e+00 0.000000000000000e+00
0.000000000000000e+00 0.000000000000000e+00 0.000000000000000e+00
0.000000000000000e+00 0.000000000000000e+00 0.000000000000000e+00
0.000000000000000e+00 0.000000000000000e+00 0.000000000000000e+00
0.000000000000000e+00 0.000000000000000e+00 0.000000000000000e+00
0.000000000000000e+00 0.000000000000000e+00 0.000000000000000e+00
0.000000000000000e+00 0.000000000000000e+00 0.000000000000000e+00
0.000000000000000e+00 0.000000000000000e+00 0.000000000000000e+00
0.000000000000000e+00 0.000000000000000e+00 0.000000000000000e+00
0.000000000000000e+00 0.000000000000000e+00 0.000000000000000e+00
0.000000000000000e+00 0.000000000000000e+00 0.000000000000000e+00
0.000000000000000e+00 0.000000000000000e+00 0.000000000000000e+00
0.000000000000000e+00 0.000000000000000e+00 0.000000000000000e+00
0.000000000000000e+00 0.000000000000000e+00 0.000000000000000e+00
0.000000000000000e+00 0.000000000000000e+00 0.000000000000000e+00
0.000000000000000e+00 0.000000000000000e+00 0.000000000000000e+00
0.000000000000000e+00 0.000000000000000e+00 0.000000000000000e+00
0.000000000000000e+00 0.000000000000000e+00 0.000000000000000e+00
0.000000000000000e+00 0.000000000000000e+00 0.000000000000000e+00
0.000000000000000e+00 0.000000000000000e+00 0.000000000000000e+00
0.000000000000000e+00 0.000000000000000e+00 0.000000000000000e+00
0.000000000000000e+00 0.000000000000000e+00 0.000000000000000e+00
0.000000000000000e+00 0.000000000000000e+00 0.000000000000000e+00
0.000000000000000e+00 0.000000000000000e+00 0.000000000000000e+00
0.000000000000000e+00 0.000000000000000e+00 0.000000000000000e+00
0.000000000000000e+00 0.000000000000000e+00 0.000000000000000e+00
0.000000000000000e+00 0.000000000000000e+00 0.000000000000000e+00
0.000000000000000e+00 0.000000000000000e+00 0.000000000000000e+00
0.000000000000000e+00 0.000000000000000e+00 0.000000000000000e+00
0.000000000000000e+00 0.000000000000000e+00 0.000000000000000e+00
0.000000000000000e+00 0.000000000000000e+00 0.000000000000000e+00
0.000000000000000e+00 0.000000000000000e+00 0.000000000000000e+00
0.000000000000000e+00 0.000000000000000e+00 0.000000000000000e+00
0.000000000000000e+00 0.000000000000000e+00 0.000000000000000e+00
0.000000000000000e+00 0.000000000000000e+00 0.000000000000000e+00
0.000000000000000e+00 0.000000000000000e+00 0.000000000000000e+00
0.000000000000000e+00 0.000000000000000e+00 0.000000000000000e+00
0.000000000000000e+00 0.000000000000000e+00 0.000000000000000e+00
0.000000000000000e+00 0.000000000000000e+00 0.000000000000000e+00
0.000000000000000e+00 0.000000000000000e+00 0.000000000000000e+00
0.000000000000000e+00 0.000000000000000e+00 0.000000000000000e+00
0.000000000000000e+00 0.000000000000000e+00 0.000000000000000e+00
0.000000000000000e+00 0.000000000000000e+00 0.000000000000000e+00
0.000000000000000e+00 0.000000000000000e+00 0.000000000000000e+00
0.000000000000000e+00 0.000000000000000e+00 0.000000000000000e+00
0.000000000000000e+00 0.000000000000000e+00 0.000000000000000e+00
0.000000000000000e+00 0.000000000000000e+00 0.000000000000000e+00
0.000000000000000e+00 0.000000000000000e+00 0.000000000000000e+00
0.000000000000000e+00 0.000000000000000e+00 0.000000000000000e+00
0.000000000000000e+00 0.000000000000000e+00 0.000000000000000e+00
0.000000000000000e+00 0.000000000000000e+00 0.000000000000000e+00
0.000000000000000e+00 0.000000000000000e+00 0.000000000000000e+00
0.000000000000000e+00 0.000000000000000e+00 0.000000000000000e+00
0.000000000000000e+00 0.000000000000000e+00 0.000000000000000e+00
0.000000000000000e+00 0.000000000000000e+00 0.000000000000000e+00
0.000000000000000e+00 0.000000000000000e+00 0.000000000000000e+00
0.000000000000000e+00 0.000000000000000e+00 0.000000000000000e+00
0.000000000000000e+00 0.000000000000000e+00 0.000000000000000e+00
0.000000000000000e+00 0.000000000000000e+00 0.000000000000000e+00
0.000000000000000e+00 0.000000000000000e+00 0.000000000000000e+00
0.000000000000000e+00 0.000000000000000e+00 0.000000000000000e+00
0.000000000000000e+00 0.000000000000000e+00 0.000000000000000e+00
0.000000000000000e+00 0.000000000000000e+00 0.000000000000000e+00
0.000000000000000e+00 0.000000000000000e+00 0.000000000000000e+00
0.000000000000000e+00 0.000000000000000e+00 0.000000000000000e+00
0.000000000000000e+00 0.000000000000000e+00 0.000000000000000e+00
0.000000000000000e+00 0.000000000000000e+00 0.000000000000000e+00
0.000000000000000e+00 0.000000000000000e+00 0.000000000000000e+00
0.000000000000000e+00 0.000000000000000e+00 0.000000000000000e+00
0.000000000000000e+00 0.000000000000000e+00 0.000000000000000e+00
0.000000000000000e+00 0.000000000000000e+00 0.000000000000000e+00
0.000000000000000e+00 0.000000000000000e+00 0.000000000000000e+00
0.000000000000000e+00 0.000000000000000e+00 0.000000000000000e+00
0.000000000000000e+00 0.000000000000000e+00 0.000000000000000e+00
0.000000000000000e+00 0.000000000000000e+00 0.000000000000000e+00
0.000000000000000e+00 0.000000000000000e+00 0.000000000000000e+00
0.000000000000000e+00 0.000000000000000e+00 0.000000000000000e+00
0.000000000000000e+00 0.000000000000000e+00 0.000000000000000e+00
0.000000000000000e+00 0.000000000000000e+00 0.000000000000000e+00
0.000000000000000e+00 0.000000000000000e+00 0.000000000000000e+00
0.000000000000000e+00 0.000000000000000e+00 0.000000000000000e+00
0.000000000000000e+00 0.000000000000000e+00 0.000000000000000e+00
0.000000000000000e+00 0.000000000000000e+00 0.000000000000000e+00
0.000000000000000e+00 0.000000000000000e+00 0.000000000000000e+00
0.000000000000000e+00 0.000000000000000e+00 0.000000000000000e+00
0.000000000000000e+00 0.000000000000000e+00 0.000000000000000e+00
0.000000000000000e+00 0.000000000000000e+00 0.000000000000000e+00
0.000000000000000e+00 0.000000000000000e+00 0.000000000000000e+00
0.000000000000000e+00 0.000000000000000e+00 0.000000000000000e+00
0.000000000000000e+00 0.000000000000000e+00 0.000000000000000e+00
0.000000000000000e+00 0.000000000000000e+00 0.000000000000000e+00
0.000000000000000e+00 0.000000000000000e+00 0.000000000000000e+00
0.000000000000000e+00 0.000000000000000e+00 0.000000000000000e+00
0.000000000000000e+00 0.000000000000000e+00 0.000000000000000e+00
0.000000000000000e+00 0.000000000000000e+00 0.000000000000000e+00
0.000000000000000e+00 0.000000000000000e+00 0.000000000000000e+00
0.000000000000000e+00 0.000000000000000e+00 0.000000000000000e+00
0.000000000000000e+00 0.000000000000000e+00 0.000000000000000e+00
0.000000000000000e+00 0.000000000000000e+00 0.000000000000000e+00
0.000000000000000e+00 0.000000000000000e+00 0.000000000000000e+00
0.000000000000000e+00 0.000000000000000e+00 0.000000000000000e+00
0.000000000000000e+00 0.000000000000000e+00 0.000000000000000e+00
0.000000000000000e+00 0.000000000000000e+00 0.000000000000000e+00
0.000000000000000e+00 0.000000000000000e+00 0.000000000000000e+00
0.000000000000000e+00 0.000000000000000e+00 0.000000000000000e+00
0.000000000000000e+00 0.000000000000000e+00 0.000000000000000e+00
0.000000000000000e+00 0.000000000000000e+00 0.000000000000000e+00
0.000000000000000e+00 0.000000000000000e+00 0.000000000000000e+00
0.000000000000000e+00 0.000000000000000e+00 0.000000000000000e+00
0.000000000000000e+00 0.000000000000000e+00 0.000000000000000e+00
0.000000000000000e+00 0.000000000000000e+00 0.000000000000000e+00
0.000000000000000e+00 0.000000000000000e+00 0.000000000000000e+00
0.000000000000000e+00 0.000000000000000e+00 0.000000000000000e+00
0.000000000000000e+00 0.000000000000000e+00 0.000000000000000e+00
0.000000000000000e+00 0.000000000000000e+00 0.000000000000000e+00
0.000000000000000e+00 0.000000000000000e+00 0.000000000000000e+00
0.000000000000000e+00 0.000000000000000e+00 0.000000000000000e+00
0.000000000000000e+00 0.000000000000000e+00 0.000000000000000e+00
0.000000000000000e+00 0.000000000000000e+00 0.000000000000000e+00
0.000000000000000e+00 0.000000000000000e+00 0.000000000000000e+00
0.000000000000000e+00 0.000000000000000e+00 0.000000000000000e+00
0.000000000000000e+00 0.000000000000000e+00 0.000000000000000e+00
0.000000000000000e+00 0.000000000000000e+00 0.000000000000000e+00
0.000000000000000e+00 0.000000000000000e+00 0.000000000000000e+00
0.000000000000000e+00 0.000000000000000e+00 0.000000000000000e+00
0.000000000000000e+00 0.000000000000000e+00 0.000000000000000e+00
0.000000000000000e+00 0.000000000000000e+00 0.000000000000000e+00
0.000000000000000e+00 0.000000000000000e+00 0.000000000000000e+00
0.000000000000000e+00 0.000000000000000e+00 0.000000000000000e+00
0.000000000000000e+00 0.000000000000000e+00 0.000000000000000e+00
0.000000000000000e+00 0.000000000000000e+00 0.000000000000000e+00
0.000000000000000e+00 0.000000000000000e+00 0.000000000000000e+00
0.000000000000000e+00 0.000000000000000e+00 0.000000000000000e+00
0.000000000000000e+00 0.000000000000000e+00 0.000000000000000e+00
0.000000000000000e+00 0.000000000000000e+00 0.000000000000000e+00
0.000000000000000e+00 0.000000000000000e+00 0.000000000000000e+00
0.000000000000000e+00 0.000000000000000e+00 0.000000000000000e+00
0.000000000000000e+00 0.000000000000000e+00 0.000000000000000e+00
0.000000000000000e+00 0.000000000000000e+00 0.000000000000000e+00
0.000000000000000e+00 0.000000000000000e+00 0.000000000000000e+00
0.000000000000000e+00 0.000000000000000e+00 0.000000000000000e+00
0.000000000000000e+00 0.000000000000000e+00 0.000000000000000e+00
0.000000000000000e+00 0.000000000000000e+00 0.000000000000000e+00
0.000000000000000e+00 0.000000000000000e+00 0.000000000000000e+00
0.000000000000000e+00 0.000000000000000e+00 0.000000000000000e+00
0.000000000000000e+00 0.000000000000000e+00 0.000000000000000e+00
0.000000000000000e+00 0.000000000000000e+00 0.000000000000000e+00
0.000000000000000e+00 0.000000000000000e+00 0.000000000000000e+00
0.000000000000000e+00 0.000000000000000e+00 0.000000000000000e+00
0.000000000000000e+00 0.000000000000000e+00 0.000000000000000e+00
0.000000000000000e+00 0.000000000000000e+00 0.000000000000000e+00
0.000000000000000e+00 0.000000000000000e+00 0.000000000000000e+00
0.000000000000000e+00 0.000000000000000e+00 0.000000000000000e+00
0.000000000000000e+00 0.000000000000000e+00 0.000000000000000e+00
0.000000000000000e+00 0.000000000000000e+00 0.000000000000000e+00
0.000000000000000e+00 0.000000000000000e+00 0.000000000000000e+00
0.000000000000000e+00 0.000000000000000e+00 0.000000000000000e+00
0.000000000000000e+00 0.000000000000000e+00 0.000000000000000e+00
0.000000000000000e+00 0.000000000000000e+00 0.000000000000000e+00
0.000000000000000e+00 0.000000000000000e+00 0.000000000000000e+00
0.000000000000000e+00 0.000000000000000e+00 0.000000000000000e+00
0.000000000000000e+00 0.000000000000000e+00 0.000000000000000e+00
0.000000000000000e+00 0.000000000000000e+00 0.000000000000000e+00
0.000000000000000e+00 0.000000000000000e+00 0.000000000000000e+00
0.000000000000000e+00 0.000000000000000e+00 0.000000000000000e+00
0.000000000000000e+00 0.000000000000000e+00 0.000000000000000e+00
0.000000000000000e+00 0.000000000000000e+00 0.000000000000000e+00
0.000000000000000e+00 0.000000000000000e+00 0.000000000000000e+00
0.000000000000000e+00 0.000000000000000e+00 0.000000000000000e+00
0.000000000000000e+00 0.000000000000000e+00 0.000000000000000e+00
0.000000000000000e+00 0.000000000000000e+00 0.000000000000000e+00
0.000000000000000e+00 0.000000000000000e+00 0.000000000000000e+00
0.000000000000000e+00 0.000000000000000e+00 0.000000000000000e+00
0.000000000000000e+00 0.000000000000000e+00 0.000000000000000e+00
0.000000000000000e+00 0.000000000000000e+00 0.000000000000000e+00
0.000000000000000e+00 0.000000000000000e+00 0.000000000000000e+00
0.000000000000000e+00 0.000000000000000e+00 0.000000000000000e+00
0.000000000000000e+00 0.000000000000000e+00 0.000000000000000e+00
0.000000000000000e+00 0.000000000000000e+00 0.000000000000000e+00
0.000000000000000e+00 0.000000000000000e+00 0.000000000000000e+00
0.000000000000000e+00 0.000000000000000e+00 0.000000000000000e+00
0.000000000000000e+00 0.000000000000000e+00 0.000000000000000e+00
0.000000000000000e+00 0.000000000000000e+00 0.000000000000000e+00
0.000000000000000e+00 0.000000000000000e+00 0.000000000000000e+00
0.000000000000000e+00 0.000000000000000e+00 0.000000000000000e+00
0.000000000000000e+00 0.000000000000000e+00 0.000000000000000e+00
0.000000000000000e+00 0.000000000000000e+00 0.000000000000000e+00
0.000000000000000e+00 0.000000000000000e+00 0.000000000000000e+00
0.000000000000000e+00 0.000000000000000e+00 0.000000000000000e+00
0.000000000000000e+00 0.000000000000000e+00 0.000000000000000e+00
0.000000000000000e+00 0.000000000000000e+00 0.000000000000000e+00
0.000000000000000e+00 0.000000000000000e+00 0.000000000000000e+00
0.000000000000000e+00 0.000000000000000e+00 0.000000000000000e+00
0.000000000000000e+00 0.000000000000000e+00 0.000000000000000e+00
0.000000000000000e+00 0.000000000000000e+00 0.000000000000000e+00
0.000000000000000e+00 0.000000000000000e+00 0.000000000000000e+00
0.000000000000000e+00 0.000000000000000e+00 0.000000000000000e+00
0.000000000000000e+00 0.000000000000000e+00 0.000000000000000e+00
0.000000000000000e+00 0.000000000000000e+00 0.000000000000000e+00
0.000000000000000e+00 0.000000000000000e+00 0.000000000000000e+00
0.000000000000000e+00 0.000000000000000e+00 0.000000000000000e+00
0.000000000000000e+00 0.000000000000000e+00 0.000000000000000e+00
0.000000000000000e+00 0.000000000000000e+00 0.000000000000000e+00
0.000000000000000e+00 0.000000000000000e+00 0.000000000000000e+00
0.000000000000000e+00 0.000000000000000e+00 0.000000000000000e+00
0.000000000000000e+00 0.000000000000000e+00 0.000000000000000e+00
0.000000000000000e+00 0.000000000000000e+00 0.000000000000000e+00
0.000000000000000e+00 0.000000000000000e+00 0.000000000000000e+00
0.000000000000000e+00 0.000000000000000e+00 0.000000000000000e+00
0.000000000000000e+00 0.000000000000000e+00 0.000000000000000e+00
0.000000000000000e+00 0.000000000000000e+00 0.000000000000000e+00
0.000000000000000e+00 0.000000000000000e+00 0.000000000000000e+00
0.000000000000000e+00 0.000000000000000e+00 0.000000000000000e+00
0.000000000000000e+00 0.000000000000000e+00 0.000000000000000e+00
0.000000000000000e+00 0.000000000000000e+00 0.000000000000000e+00
0.000000000000000e+00 0.000000000000000e+00 0.000000000000000e+00
0.000000000000000e+00 0.000000000000000e+00 0.000000000000000e+00
0.000000000000000e+00 0.000000000000000e+00 0.000000000000000e+00
0.000000000000000e+00 0.000000000000000e+00 0.000000000000000e+00
0.000000000000000e+00 0.000000000000000e+00 0.000000000000000e+00
0.000000000000000e+00 0.000000000000000e+00 0.000000000000000e+00
0.000000000000000e+00 0.000000000000000e+00 0.000000000000000e+00
0.000000000000000e+00 0.000000000000000e+00 0.000000000000000e+00
0.000000000000000e+00 0.000000000000000e+00 0.000000000000000e+00
0.000000000000000e+00 0.000000000000000e+00 0.000000000000000e+00
0.000000000000000e+00 0.000000000000000e+00 0.000000000000000e+00
0.000000000000000e+00 0.000000000000000e+00 0.000000000000000e+00
0.000000000000000e+00 0.000000000000000e+00 0.000000000000000e+00
0.000000000000000e+00 0.000000000000000e+00 0.000000000000000e+00
0.000000000000000e+00 0.000000000000000e+00 0.000000000000000e+00
0.000000000000000e+00 0.000000000000000e+00 0.000000000000000e+00
0.000000000000000e+00 0.000000000000000e+00 0.000000000000000e+00
0.000000000000000e+00 0.000000000000000e+00 0.000000000000000e+00
0.000000000000000e+00 0.000000000000000e+00 0.000000000000000e+00
0.000000000000000e+00 0.000000000000000e+00 0.000000000000000e+00
0.000000000000000e+00 0.000000000000000e+00 0.000000000000000e+00
0.000000000000000e+00 0.000000000000000e+00 0.000000000000000e+00
0.000000000000000e+00 0.000000000000000e+00 0.000000000000000e+00
0.000000000000000e+00 0.000000000000000e+00 0.000000000000000e+00
0.000000000000000e+00 0.000000000000000e+00 0.000000000000000e+00
0.000000000000000e+00 0.000000000000000e+00 0.000000000000000e+00
0.000000000000000e+00 0.000000000000000e+00 0.000000000000000e+00
0.000000000000000e+00 0.000000000000000e+00 0.000000000000000e+00
0.000000000000000e+00 0.000000000000000e+00 0.000000000000000e+00
0.000000000000000e+00 0.000000000000000e+00 0.000000000000000e+00
0.000000000000000e+00 0.000000000000000e+00 0.000000000000000e+00
0.000000000000000e+00 0.000000000000000e+00 0.000000000000000e+00
0.000000000000000e+00 0.000000000000000e+00 0.000000000000000e+00
0.000000000000000e+00 0.000000000000000e+00 0.000000000000000e+00
0.000000000000000e+00 0.000000000000000e+00 0.000000000000000e+00
0.000000000000000e+00 0.000000000000000e+00 0.000000000000000e+00
0.000000000000000e+00 0.000000000000000e+00 0.000000000000000e+00
0.000000000000000e+00 0.000000000000000e+00 0.000000000000000e+00
0.000000000000000e+00 0.000000000000000e+00 0.000000000000000e+00
0.000000000000000e+00 0.000000000000000e+00 0.000000000000000e+00
0.000000000000000e+00 0.000000000000000e+00 0.000000000000000e+00
0.000000000000000e+00 0.000000000000000e+00 0.000000000000000e+00
0.000000000000000e+00 0.000000000000000e+00 0.000000000000000e+00
0.000000000000000e+00 0.000000000000000e+00 0.000000000000000e+00
0.000000000000000e+00 0.000000000000000e+00 0.000000000000000e+00
0.000000000000000e+00 0.000000000000000e+00 0.000000000000000e+00
0.000000000000000e+00 0.000000000000000e+00 0.000000000000000e+00
0.000000000000000e+00 0.000000000000000e+00 0.000000000000000e+00
0.000000000000000e+00 0.000000000000000e+00 0.000000000000000e+00
0.000000000000000e+00 0.000000000000000e+00 0.000000000000000e+00
0.000000000000000e+00 0.000000000000000e+00 0.000000000000000e+00
0.000000000000000e+00 0.000000000000000e+00 0.000000000000000e+00
0.000000000000000e+00 0.000000000000000e+00 0.000000000000000e+00
0.000000000000000e+00 0.000000000000000e+00 0.000000000000000e+00
0.000000000000000e+00 0.000000000000000e+00 0.000000000000000e+00
0.000000000000000e+00 0.000000000000000e+00 0.000000000000000e+00
0.000000000000000e+00 0.000000000000000e+00 0.000000000000000e+00
0.000000000000000e+00 0.000000000000000e+00 0.000000000000000e+00
0.000000000000000e+00 0.000000000000000e+00 0.000000000000000e+00
0.000000000000000e+00 0.000000000000000e+00 0.000000000000000e+00
0.000000000000000e+00 0.000000000000000e+00 0.000000000000000e+00
0.000000000000000e+00 0.000000000000000e+00 0.000000000000000e+00
0.000000000000000e+00 0.000000000000000e+00 0.000000000000000e+00
0.000000000000000e+00 0.000000000000000e+00 0.000000000000000e+00
0.000000000000000e+00 0.000000000000000e+00 0.000000000000000e+00
0.000000000000000e+00 0.000000000000000e+00 0.000000000000000e+00
0.000000000000000e+00 0.000000000000000e+00 0.000000000000000e+00
0.000000000000000e+00 0.000000000000000e+00 0.000000000000000e+00
0.000000000000000e+00 0.000000000000000e+00 0.000000000000000e+00
0.000000000000000e+00 0.000000000000000e+00 0.000000000000000e+00
0.000000000000000e+00 0.000000000000000e+00 0.000000000000000e+00
0.000000000000000e+00 0.000000000000000e+00 0.000000000000000e+00
0.000000000000000e+00 0.000000000000000e+00 0.000000000000000e+00
0.000000000000000e+00 0.000000000000000e+00 0.000000000000000e+00
0.000000000000000e+00 0.000000000000000e+00 0.000000000000000e+00
0.000000000000000e+00 0.000000000000000e+00 0.000000000000000e+00
0.000000000000000e+00 0.000000000000000e+00 0.000000000000000e+00
0.000000000000000e+00 0.000000000000000e+00 0.000000000000000e+00
0.000000000000000e+00 0.000000000000000e+00 0.000000000000000e+00
0.000000000000000e+00 0.000000000000000e+00 0.000000000000000e+00
0.000000000000000e+00 0.000000000000000e+00 0.000000000000000e+00
0.000000000000000e+00 0.000000000000000e+00 0.000000000000000e+00
0.000000000000000e+00 0.000000000000000e+00 0.000000000000000e+00
0.000000000000000e+00 0.000000000000000e+00 0.000000000000000e+00
0.000000000000000e+00 0.000000000000000e+00 0.000000000000000e+00
0.000000000000000e+00 0.000000000000000e+00 0.000000000000000e+00
0.000000000000000e+00 0.000000000000000e+00 0.000000000000000e+00
0.000000000000000e+00 0.000000000000000e+00 0.000000000000000e+00
0.000000000000000e+00 0.000000000000000e+00 0.000000000000000e+00
0.000000000000000e+00 0.000000000000000e+00 0.000000000000000e+00
0.000000000000000e+00 0.000000000000000e+00 0.000000000000000e+00
0.000000000000000e+00 0.000000000000000e+00 0.000000000000000e+00
0.000000000000000e+00 0.000000000000000e+00 0.000000000000000e+00
0.000000000000000e+00 0.000000000000000e+00 0.000000000000000e+00
0.000000000000000e+00 0.000000000000000e+00 0.000000000000000e+00
0.000000000000000e+00 0.000000000000000e+00 0.000000000000000e+00
0.000000000000000e+00 0.000000000000000e+00 0.000000000000000e+00
0.000000000000000e+00 0.000000000000000e+00 0.000000000000000e+00
0.000000000000000e+00 0.000000000000000e+00 0.000000000000000e+00
0.000000000000000e+00 0.000000000000000e+00 0.000000000000000e+00
0.000000000000000e+00 0.000000000000000e+00 0.000000000000000e+00
0.000000000000000e+00 0.000000000000000e+00 0.000000000000000e+00
0.000000000000000e+00 0.000000000000000e+00 0.000000000000000e+00
0.000000000000000e+00 0.000000000000000e+00 0.000000000000000e+00
0.000000000000000e+00 0.000000000000000e+00 0.000000000000000e+00
0.000000000000000e+00 0.000000000000000e+00 0.000000000000000e+00
0.000000000000000e+00 0.000000000000000e+00 0.000000000000000e+00
0.000000000000000e+00 0.000000000000000e+00 0.000000000000000e+00
0.000000000000000e+00 0.000000000000000e+00 0.000000000000000e+00
0.000000000000000e+00 0.000000000000000e+00 0.000000000000000e+00
0.000000000000000e+00 0.000000000000000e+00 0.000000000000000e+00
0.000000000000000e+00 0.000000000000000e+00 0.000000000000000e+00
0.000000000000000e+00 0.000000000000000e+00 0.000000000000000e+00
0.000000000000000e+00 0.000000000000000e+00 0.000000000000000e+00
0.000000000000000e+00 0.000000000000000e+00 0.000000000000000e+00
0.000000000000000e+00 0.000000000000000e+00 0.000000000000000e+00
0.000000000000000e+00 0.000000000000000e+00 0.000000000000000e+00
0.000000000000000e+00 0.000000000000000e+00 0.000000000000000e+00
0.000000000000000e+00 0.000000000000000e+00 0.000000000000000e+00
0.000000000000000e+00 0.000000000000000e+00 0.000000000000000e+00
0.000000000000000e+00 0.000000000000000e+00 0.000000000000000e+00
0.000000000000000e+00 0.000000000000000e+00 0.000000000000000e+00
0.000000000000000e+00 0.000000000000000e+00 0.000000000000000e+00
0.000000000000000e+00 0.000000000000000e+00 0.000000000000000e+00
0.000000000000000e+00 0.000000000000000e+00 0.000000000000000e+00
0.000000000000000e+00 0.000000000000000e+00 0.000000000000000e+00
0.000000000000000e+00 0.000000000000000e+00 0.000000000000000e+00
0.000000000000000e+00 0.000000000000000e+00 0.000000000000000e+00
0.000000000000000e+00 0.000000000000000e+00 0.000000000000000e+00
0.000000000000000e+00 0.000000000000000e+00 0.000000000000000e+00
0.000000000000000e+00 0.000000000000000e+00 0.000000000000000e+00
0.000000000000000e+00 0.000000000000000e+00 0.000000000000000e+00
0.000000000000000e+00 0.000000000000000e+00 0.000000000000000e+00
0.000000000000000e+00 0.000000000000000e+00 0.000000000000000e+00
0.000000000000000e+00 0.000000000000000e+00 0.000000000000000e+00
0.000000000000000e+00 0.000000000000000e+00 0.000000000000000e+00
0.000000000000000e+00 0.000000000000000e+00 0.000000000000000e+00
0.000000000000000e+00 0.000000000000000e+00 0.000000000000000e+00
0.000000000000000e+00 0.000000000000000e+00 0.000000000000000e+00
0.000000000000000e+00 0.000000000000000e+00 0.000000000000000e+00
0.000000000000000e+00 0.000000000000000e+00 0.000000000000000e+00
0.000000000000000e+00 0.000000000000000e+00 0.000000000000000e+00
0.000000000000000e+00 0.000000000000000e+00 0.000000000000000e+00
0.000000000000000e+00 0.000000000000000e+00 0.000000000000000e+00
0.000000000000000e+00 0.000000000000000e+00 0.000000000000000e+00
0.000000000000000e+00 0.000000000000000e+00 0.000000000000000e+00
0.000000000000000e+00 0.000000000000000e+00 0.000000000000000e+00
0.000000000000000e+00 0.000000000000000e+00 0.000000000000000e+00
0.000000000000000e+00 0.000000000000000e+00 0.000000000000000e+00
0.000000000000000e+00 0.000000000000000e+00 0.000000000000000e+00
0.000000000000000e+00 0.000000000000000e+00 0.000000000000000e+00
0.000000000000000e+00 0.000000000000000e+00 0.000000000000000e+00
0.000000000000000e+00 0.000000000000000e+00 0.000000000000000e+00
0.000000000000000e+00 0.000000000000000e+00 0.000000000000000e+00
0.000000000000000e+00 0.000000000000000e+00 0.000000000000000e+00
0.000000000000000e+00 0.000000000000000e+00 0.000000000000000e+00
0.000000000000000e+00 0.000000000000000e+00 0.000000000000000e+00
0.000000000000000e+00 0.000000000000000e+00 0.000000000000000e+00
0.000000000000000e+00 0.000000000000000e+00 0.000000000000000e+00
0.000000000000000e+00 0.000000000000000e+00 0.000000000000000e+00
0.000000000000000e+00 0.000000000000000e+00 0.000000000000000e+00
0.000000000000000e+00 0.000000000000000e+00 0.000000000000000e+00
0.000000000000000e+00 0.000000000000000e+00 0.000000000000000e+00
0.000000000000000e+00 0.000000000000000e+00 0.000000000000000e+00
0.000000000000000e+00 0.000000000000000e+00 0.000000000000000e+00
0.000000000000000e+00 0.000000000000000e+00 0.000000000000000e+00
0.000000000000000e+00 0.000000000000000e+00 0.000000000000000e+00
0.000000000000000e+00 0.000000000000000e+00 0.000000000000000e+00
0.000000000000000e+00 0.000000000000000e+00 0.000000000000000e+00
0.000000000000000e+00 0.000000000000000e+00 0.000000000000000e+00
0.000000000000000e+00 0.000000000000000e+00 0.000000000000000e+00
0.000000000000000e+00 0.000000000000000e+00 0.000000000000000e+00
0.000000000000000e+00 0.000000000000000e+00 0.000000000000000e+00
0.000000000000000e+00 0.000000000000000e+00 0.000000000000000e+00
0.000000000000000e+00 0.000000000000000e+00 0.000000000000000e+00
0.000000000000000e+00 0.000000000000000e+00 0.000000000000000e+00
0.000000000000000e+00 0.000000000000000e+00 0.000000000000000e+00
0.000000000000000e+00 0.000000000000000e+00 0.000000000000000e+00
0.000000000000000e+00 0.000000000000000e+00 0.000000000000000e+00
0.000000000000000e+00 0.000000000000000e+00 0.000000000000000e+00
0.000000000000000e+00 0.000000000000000e+00 0.000000000000000e+00
0.000000000000000e+00 0.000000000000000e+00 0.000000000000000e+00
0.000000000000000e+00 0.000000000000000e+00 0.000000000000000e+00
0.000000000000000e+00 0.000000000000000e+00 0.000000000000000e+00
0.000000000000000e+00 0.000000000000000e+00 0.000000000000000e+00
0.000000000000000e+00 0.000000000000000e+00 0.000000000000000e+00
0.000000000000000e+00 0.000000000000000e+00 0.000000000000000e+00
0.000000000000000e+00 0.000000000000000e+00 0.000000000000000e+00
0.000000000000000e+00 0.000000000000000e+00 0.000000000000000e+00
0.000000000000000e+00 0.000000000000000e+00 0.000000000000000e+00
0.000000000000000e+00 0.000000000000000e+00 0.000000000000000e+00
0.000000000000000e+00 0.000000000000000e+00 0.000000000000000e+00
0.000000000000000e+00 0.000000000000000e+00 0.000000000000000e+00
0.000000000000000e+00 0.000000000000000e+00 0.000000000000000e+00
0.000000000000000e+00 0.000000000000000e+00 0.000000000000000e+00
0.000000000000000e+00 0.000000000000000e+00 0.000000000000000e+00
0.000000000000000e+00 0.000000000000000e+00 0.000000000000000e+00
0.000000000000000e+00 0.000000000000000e+00 0.000000000000000e+00
0.000000000000000e+00 0.000000000000000e+00 0.000000000000000e+00
0.000000000000000e+00 0.000000000000000e+00 0.000000000000000e+00
0.000000000000000e+00 0.000000000000000e+00 0.000000000000000e+00
0.000000000000000e+00 0.000000000000000e+00 0.000000000000000e+00
0.000000000000000e+00 0.000000000000000e+00 0.000000000000000e+00
0.000000000000000e+00 0.000000000000000e+00 0.000000000000000e+00
0.000000000000000e+00 0.000000000000000e+00 0.000000000000000e+00
0.000000000000000e+00 0.000000000000000e+00 0.000000000000000e+00
0.000000000000000e+00 0.000000000000000e+00 0.000000000000000e+00
0.000000000000000e+00 0.000000000000000e+00 0.000000000000000e+00
0.000000000000000e+00 0.000000000000000e+00 0.000000000000000e+00
0.000000000000000e+00 0.000000000000000e+00 0.000000000000000e+00
0.000000000000000e+00 0.000000000000000e+00 0.000000000000000e+00
0.000000000000000e+00 0.000000000000000e+00 0.000000000000000e+00
0.000000000000000e+00 0.000000000000000e+00 0.000000000000000e+00
0.000000000000000e+00 0.000000000000000e+00 0.000000000000000e+00
0.000000000000000e+00 0.000000000000000e+00 0.000000000000000e+00
0.000000000000000e+00 0.000000000000000e+00 0.000000000000000e+00
0.000000000000000e+00 0.000000000000000e+00 0.000000000000000e+00
0.000000000000000e+00 0.000000000000000e+00 0.000000000000000e+00
0.000000000000000e+00 0.000000000000000e+00 0.000000000000000e+00
0.000000000000000e+00 0.000000000000000e+00 0.000000000000000e+00
0.000000000000000e+00 0.000000000000000e+00 0.000000000000000e+00
0.000000000000000e+00 0.000000000000000e+00 0.000000000000000e+00
0.000000000000000e+00 0.000000000000000e+00 0.000000000000000e+00
0.000000000000000e+00 0.000000000000000e+00 0.000000000000000e+00
0.000000000000000e+00 0.000000000000000e+00 0.000000000000000e+00
0.000000000000000e+00 0.000000000000000e+00 0.000000000000000e+00
0.000000000000000e+00 0.000000000000000e+00 0.000000000000000e+00
0.000000000000000e+00 0.000000000000000e+00 0.000000000000000e+00
0.000000000000000e+00 0.000000000000000e+00 0.000000000000000e+00
0.000000000000000e+00 0.000000000000000e+00 0.000000000000000e+00
0.000000000000000e+00 0.000000000000000e+00 0.000000000000000e+00
0.000000000000000e+00 0.000000000000000e+00 0.000000000000000e+00
0.000000000000000e+00 0.000000000000000e+00 0.000000000000000e+00
0.000000000000000e+00 0.000000000000000e+00 0.000000000000000e+00
0.000000000000000e+00 0.000000000000000e+00 0.000000000000000e+00
0.000000000000000e+00 0.000000000000000e+00 0.000000000000000e+00
0.000000000000000e+00 0.000000000000000e+00 0.000000000000000e+00
0.000000000000000e+00 0.000000000000000e+00 0.000000000000000e+00
0.000000000000000e+00 0.000000000000000e+00 0.000000000000000e+00
0.000000000000000e+00 0.000000000000000e+00 0.000000000000000e+00
0.000000000000000e+00 0.000000000000000e+00 0.000000000000000e+00
0.000000000000000e+00 0.000000000000000e+00 0.000000000000000e+00
0.000000000000000e+00 0.000000000000000e+00 0.000000000000000e+00
0.000000000000000e+00 0.000000000000000e+00 0.000000000000000e+00
0.000000000000000e+00 0.000000000000000e+00 0.000000000000000e+00
0.000000000000000e+00 0.000000000000000e+00 0.000000000000000e+00
0.000000000000000e+00 0.000000000000000e+00 0.000000000000000e+00
0.000000000000000e+00 0.000000000000000e+00 0.000000000000000e+00
0.000000000000000e+00 0.000000000000000e+00 0.000000000000000e+00
0.000000000000000e+00 0.000000000000000e+00 0.000000000000000e+00
0.000000000000000e+00 0.000000000000000e+00 0.000000000000000e+00
0.000000000000000e+00 0.000000000000000e+00 0.000000000000000e+00
0.000000000000000e+00 0.000000000000000e+00 0.000000000000000e+00
0.000000000000000e+00 0.000000000000000e+00 0.000000000000000e+00
0.000000000000000e+00 0.000000000000000e+00 0.000000000000000e+00
0.000000000000000e+00 0.000000000000000e+00 0.000000000000000e+00
0.000000000000000e+00 0.000000000000000e+00 0.000000000000000e+00
0.000000000000000e+00 0.000000000000000e+00 0.000000000000000e+00
0.000000000000000e+00 0.000000000000000e+00 0.000000000000000e+00
0.000000000000000e+00 0.000000000000000e+00 0.000000000000000e+00
0.000000000000000e+00 0.000000000000000e+00 0.000000000000000e+00
0.000000000000000e+00 0.000000000000000e+00 0.000000000000000e+00
0.000000000000000e+00 0.000000000000000e+00 0.000000000000000e+00
0.000000000000000e+00 0.000000000000000e+00 0.000000000000000e+00
0.000000000000000e+00 0.000000000000000e+00 0.000000000000000e+00
0.000000000000000e+00 0.000000000000000e+00 0.000000000000000e+00
0.000000000000000e+00 0.000000000000000e+00 0.000000000000000e+00
0.000000000000000e+00 0.000000000000000e+00 0.000000000000000e+00
0.000000000000000e+00 0.000000000000000e+00 0.000000000000000e+00
0.000000000000000e+00 0.000000000000000e+00 0.000000000000000e+00
0.000000000000000e+00 0.000000000000000e+00 0.000000000000000e+00
0.000000000000000e+00 0.000000000000000e+00 0.000000000000000e+00
0.000000000000000e+00 0.000000000000000e+00 0.000000000000000e+00
0.000000000000000e+00 0.000000000000000e+00 0.000000000000000e+00
0.000000000000000e+00 0.000000000000000e+00 0.000000000000000e+00
0.000000000000000e+00 0.000000000000000e+00 0.000000000000000e+00
0.000000000000000e+00 0.000000000000000e+00 0.000000000000000e+00
0.000000000000000e+00 0.000000000000000e+00 0.000000000000000e+00
0.000000000000000e+00 0.000000000000000e+00 0.000000000000000e+00
0.000000000000000e+00 0.000000000000000e+00 0.000000000000000e+00
0.000000000000000e+00 0.000000000000000e+00 0.000000000000000e+00
0.000000000000000e+00 0.000000000000000e+00 0.000000000000000e+00
0.000000000000000e+00 0.000000000000000e+00 0.000000000000000e+00
0.000000000000000e+00 0.000000000000000e+00 0.000000000000000e+00
0.000000000000000e+00 0.000000000000000e+00 0.000000000000000e+00
0.000000000000000e+00 0.000000000000000e+00 0.000000000000000e+00
0.000000000000000e+00 0.000000000000000e+00 0.000000000000000e+00
0.000000000000000e+00 0.000000000000000e+00 0.000000000000000e+00
0.000000000000000e+00 0.000000000000000e+00 0.000000000000000e+00
0.000000000000000e+00 0.000000000000000e+00 0.000000000000000e+00
0.000000000000000e+00 0.000000000000000e+00 0.000000000000000e+00
0.000000000000000e+00 0.000000000000000e+00 0.000000000000000e+00
0.000000000000000e+00 0.000000000000000e+00 0.000000000000000e+00
0.000000000000000e+00 0.000000000000000e+00 0.000000000000000e+00
0.000000000000000e+00 0.000000000000000e+00 0.000000000000000e+00
0.000000000000000e+00 0.000000000000000e+00 0.000000000000000e+00
0.000000000000000e+00 0.000000000000000e+00 0.000000000000000e+00
0.000000000000000e+00 0.000000000000000e+00 0.000000000000000e+00
0.000000000000000e+00 0.000000000000000e+00 0.000000000000000e+00
0.000000000000000e+00 0.000000000000000e+00 0.000000000000000e+00
0.000000000000000e+00 0.000000000000000e+00 0.000000000000000e+00
0.000000000000000e+00 0.000000000000000e+00 0.000000000000000e+00
0.000000000000000e+00 0.000000000000000e+00 0.000000000000000e+00
0.000000000000000e+00 0.000000000000000e+00 0.000000000000000e+00
0.000000000000000e+00 0.000000000000000e+00 0.000000000000000e+00
0.000000000000000e+00 0.000000000000000e+00 0.000000000000000e+00
0.000000000000000e+00 0.000000000000000e+00 0.000000000000000e+00
0.000000000000000e+00 0.000000000000000e+00 0.000000000000000e+00
0.000000000000000e+00 0.000000000000000e+00 0.000000000000000e+00
0.000000000000000e+00 0.000000000000000e+00 0.000000000000000e+00
0.000000000000000e+00 0.000000000000000e+00 0.000000000000000e+00
0.000000000000000e+00 0.000000000000000e+00 0.000000000000000e+00
0.000000000000000e+00 0.000000000000000e+00 0.000000000000000e+00
0.000000000000000e+00 0.000000000000000e+00 0.000000000000000e+00
0.000000000000000e+00 0.000000000000000e+00 0.000000000000000e+00
0.000000000000000e+00 0.000000000000000e+00 0.000000000000000e+00
0.000000000000000e+00 0.000000000000000e+00 0.000000000000000e+00
0.000000000000000e+00 0.000000000000000e+00 0.000000000000000e+00
0.000000000000000e+00 0.000000000000000e+00 0.000000000000000e+00
0.000000000000000e+00 0.000000000000000e+00 0.000000000000000e+00
0.000000000000000e+00 0.000000000000000e+00 0.000000000000000e+00
0.000000000000000e+00 0.000000000000000e+00 0.000000000000000e+00
0.000000000000000e+00 0.000000000000000e+00 0.000000000000000e+00
0.000000000000000e+00 0.000000000000000e+00 0.000000000000000e+00
0.000000000000000e+00 0.000000000000000e+00 0.000000000000000e+00
0.000000000000000e+00 0.000000000000000e+00 0.000000000000000e+00
0.000000000000000e+00 0.000000000000000e+00 0.000000000000000e+00
0.000000000000000e+00 0.000000000000000e+00 0.000000000000000e+00
0.000000000000000e+00 0.000000000000000e+00 0.000000000000000e+00
0.000000000000000e+00 0.000000000000000e+00 0.000000000000000e+00
0.000000000000000e+00 0.000000000000000e+00 0.000000000000000e+00
0.000000000000000e+00 0.000000000000000e+00 0.000000000000000e+00
0.000000000000000e+00 0.000000000000000e+00 0.000000000000000e+00
0.000000000000000e+00 0.000000000000000e+00 0.000000000000000e+00
0.000000000000000e+00 0.000000000000000e+00 0.000000000000000e+00
0.000000000000000e+00 0.000000000000000e+00 0.000000000000000e+00
0.000000000000000e+00 0.000000000000000e+00 0.000000000000000e+00
0.000000000000000e+00 0.000000000000000e+00 0.000000000000000e+00
0.000000000000000e+00 0.000000000000000e+00 0.000000000000000e+00
0.000000000000000e+00 0.000000000000000e+00 0.000000000000000e+00
0.000000000000000e+00 0.000000000000000e+00 0.000000000000000e+00
0.000000000000000e+00 0.000000000000000e+00 0.000000000000000e+00
0.000000000000000e+00 0.000000000000000e+00 0.000000000000000e+00
0.000000000000000e+00 0.000000000000000e+00 0.000000000000000e+00
0.000000000000000e+00 0.000000000000000e+00 0.000000000000000e+00
0.000000000000000e+00 0.000000000000000e+00 0.000000000000000e+00
0.000000000000000e+00 0.000000000000000e+00 0.000000000000000e+00
0.000000000000000e+00 0.000000000000000e+00 0.000000000000000e+00
0.000000000000000e+00 0.000000000000000e+00 0.000000000000000e+00
0.000000000000000e+00 0.000000000000000e+00 0.000000000000000e+00
0.000000000000000e+00 0.000000000000000e+00 0.000000000000000e+00
0.000000000000000e+00 0.000000000000000e+00 0.000000000000000e+00
0.000000000000000e+00 0.000000000000000e+00 0.000000000000000e+00
0.000000000000000e+00 0.000000000000000e+00 0.000000000000000e+00
0.000000000000000e+00 0.000000000000000e+00 0.000000000000000e+00
0.000000000000000e+00 0.000000000000000e+00 0.000000000000000e+00
0.000000000000000e+00 0.000000000000000e+00 0.000000000000000e+00
0.000000000000000e+00 0.000000000000000e+00 0.000000000000000e+00
0.000000000000000e+00 0.000000000000000e+00 0.000000000000000e+00
0.000000000000000e+00 0.000000000000000e+00 0.000000000000000e+00
0.000000000000000e+00 0.000000000000000e+00 0.000000000000000e+00
0.000000000000000e+00 0.000000000000000e+00 0.000000000000000e+00
0.000000000000000e+00 0.000000000000000e+00 0.000000000000000e+00
0.000000000000000e+00 0.000000000000000e+00 0.000000000000000e+00
0.000000000000000e+00 0.000000000000000e+00 0.000000000000000e+00
0.000000000000000e+00 0.000000000000000e+00 0.000000000000000e+00
0.000000000000000e+00 0.000000000000000e+00 0.000000000000000e+00
0.000000000000000e+00 0.000000000000000e+00 0.000000000000000e+00
0.000000000000000e+00 0.000000000000000e+00 0.000000000000000e+00
0.000000000000000e+00 0.000000000000000e+00 0.000000000000000e+00
0.000000000000000e+00 0.000000000000000e+00 0.000000000000000e+00
0.000000000000000e+00 0.000000000000000e+00 0.000000000000000e+00
0.000000000000000e+00 0.000000000000000e+00 0.000000000000000e+00
0.000000000000000e+00 0.000000000000000e+00 0.000000000000000e+00
0.000000000000000e+00 0.000000000000000e+00 0.000000000000000e+00
0.000000000000000e+00 0.000000000000000e+00 0.000000000000000e+00
0.000000000000000e+00 0.000000000000000e+00 0.000000000000000e+00
0.000000000000000e+00 0.000000000000000e+00 0.000000000000000e+00
0.000000000000000e+00 0.000000000000000e+00 0.000000000000000e+00
0.000000000000000e+00 0.000000000000000e+00 0.000000000000000e+00
0.000000000000000e+00 0.000000000000000e+00 0.000000000000000e+00
0.000000000000000e+00 0.000000000000000e+00 0.000000000000000e+00
0.000000000000000e+00 0.000000000000000e+00 0.000000000000000e+00
0.000000000000000e+00 0.000000000000000e+00 0.000000000000000e+00
0.000000000000000e+00 0.000000000000000e+00 0.000000000000000e+00
0.000000000000000e+00 0.000000000000000e+00 0.000000000000000e+00
0.000000000000000e+00 0.000000000000000e+00 0.000000000000000e+00
0.000000000000000e+00 0.000000000000000e+00 0.000000000000000e+00
0.000000000000000e+00 0.000000000000000e+00 0.000000000000000e+00
0.000000000000000e+00 0.000000000000000e+00 0.000000000000000e+00
0.000000000000000e+00 0.000000000000000e+00 0.000000000000000e+00
0.000000000000000e+00 0.000000000000000e+00 0.000000000000000e+00
0.000000000000000e+00 0.000000000000000e+00 0.000000000000000e+00
0.000000000000000e+00 0.000000000000000e+00 0.000000000000000e+00
0.000000000000000e+00 0.000000000000000e+00 0.000000000000000e+00
0.000000000000000e+00 0.000000000000000e+00 0.000000000000000e+00
0.000000000000000e+00 0.000000000000000e+00 0.000000000000000e+00
0.000000000000000e+00 0.000000000000000e+00 0.000000000000000e+00
0.000000000000000e+00 0.000000000000000e+00 0.000000000000000e+00
0.000000000000000e+00 0.000000000000000e+00 0.000000000000000e+00
0.000000000000000e+00 0.000000000000000e+00 0.000000000000000e+00
0.000000000000000e+00 0.000000000000000e+00 0.000000000000000e+00
0.000000000000000e+00 0.000000000000000e+00 0.000000000000000e+00
0.000000000000000e+00 0.000000000000000e+00 0.000000000000000e+00
0.000000000000000e+00 0.000000000000000e+00 0.000000000000000e+00
0.000000000000000e+00 0.000000000000000e+00 0.000000000000000e+00
0.000000000000000e+00 0.000000000000000e+00 0.000000000000000e+00
0.000000000000000e+00 0.000000000000000e+00 0.000000000000000e+00
0.000000000000000e+00 0.000000000000000e+00 0.000000000000000e+00
0.000000000000000e+00 0.000000000000000e+00 0.000000000000000e+00
0.000000000000000e+00 0.000000000000000e+00 0.000000000000000e+00
0.000000000000000e+00 0.000000000000000e+00 0.000000000000000e+00
0.000000000000000e+00 0.000000000000000e+00 0.000000000000000e+00
0.000000000000000e+00 0.000000000000000e+00 0.000000000000000e+00
0.000000000000000e+00 0.000000000000000e+00 0.000000000000000e+00
0.000000000000000e+00 0.000000000000000e+00 0.000000000000000e+00
0.000000000000000e+00 0.000000000000000e+00 0.000000000000000e+00
0.000000000000000e+00 0.000000000000000e+00 0.000000000000000e+00
0.000000000000000e+00 0.000000000000000e+00 0.000000000000000e+00
0.000000000000000e+00 0.000000000000000e+00 0.000000000000000e+00
0.000000000000000e+00 0.000000000000000e+00 0.000000000000000e+00
0.000000000000000e+00 0.000000000000000e+00 0.000000000000000e+00
0.000000000000000e+00 0.000000000000000e+00 0.000000000000000e+00
0.000000000000000e+00 0.000000000000000e+00 0.000000000000000e+00
0.000000000000000e+00 0.000000000000000e+00 0.000000000000000e+00
0.000000000000000e+00 0.000000000000000e+00 0.000000000000000e+00
0.000000000000000e+00 0.000000000000000e+00 0.000000000000000e+00
0.000000000000000e+00 0.000000000000000e+00 0.000000000000000e+00
0.000000000000000e+00 0.000000000000000e+00 0.000000000000000e+00
0.000000000000000e+00 0.000000000000000e+00 0.000000000000000e+00
0.000000000000000e+00 0.000000000000000e+00 0.000000000000000e+00
0.000000000000000e+00 0.000000000000000e+00 0.000000000000000e+00
0.000000000000000e+00 0.000000000000000e+00 0.000000000000000e+00
0.000000000000000e+00 0.000000000000000e+00 0.000000000000000e+00
0.000000000000000e+00 0.000000000000000e+00 0.000000000000000e+00
0.000000000000000e+00 0.000000000000000e+00 0.000000000000000e+00
0.000000000000000e+00 0.000000000000000e+00 0.000000000000000e+00
0.000000000000000e+00 0.000000000000000e+00 0.000000000000000e+00
0.000000000000000e+00 0.000000000000000e+00 0.000000000000000e+00
0.000000000000000e+00 0.000000000000000e+00 0.000000000000000e+00
0.000000000000000e+00 0.000000000000000e+00 0.000000000000000e+00
0.000000000000000e+00 0.000000000000000e+00 0.000000000000000e+00
0.000000000000000e+00 0.000000000000000e+00 0.000000000000000e+00
0.000000000000000e+00 0.000000000000000e+00 0.000000000000000e+00
0.000000000000000e+00 0.000000000000000e+00 0.000000000000000e+00
0.000000000000000e+00 0.000000000000000e+00 0.000000000000000e+00
0.000000000000000e+00 0.000000000000000e+00 0.000000000000000e+00
0.000000000000000e+00 0.000000000000000e+00 0.000000000000000e+00
0.000000000000000e+00 0.000000000000000e+00 0.000000000000000e+00
0.000000000000000e+00 0.000000000000000e+00 0.000000000000000e+00
0.000000000000000e+00 0.000000000000000e+00 0.000000000000000e+00
0.000000000000000e+00 0.000000000000000e+00 0.000000000000000e+00
0.000000000000000e+00 0.000000000000000e+00 0.000000000000000e+00
0.000000000000000e+00 0.000000000000000e+00 0.000000000000000e+00
0.000000000000000e+00 0.000000000000000e+00 0.000000000000000e+00
0.000000000000000e+00 0.000000000000000e+00 0.000000000000000e+00
0.000000000000000e+00 0.000000000000000e+00 0.000000000000000e+00
0.000000000000000e+00 0.000000000000000e+00 0.000000000000000e+00
0.000000000000000e+00 0.000000000000000e+00 0.000000000000000e+00
0.000000000000000e+00 0.000000000000000e+00 0.000000000000000e+00
0.000000000000000e+00 0.000000000000000e+00 0.000000000000000e+00
0.000000000000000e+00 0.000000000000000e+00 0.000000000000000e+00
0.000000000000000e+00 0.000000000000000e+00 0.000000000000000e+00
0.000000000000000e+00 0.000000000000000e+00 0.000000000000000e+00
0.000000000000000e+00 0.000000000000000e+00 0.000000000000000e+00
0.000000000000000e+00 0.000000000000000e+00 0.000000000000000e+00
0.000000000000000e+00 0.000000000000000e+00 0.000000000000000e+00
0.000000000000000e+00 0.000000000000000e+00 0.000000000000000e+00
0.000000000000000e+00 0.000000000000000e+00 0.000000000000000e+00
0.000000000000000e+00 0.000000000000000e+00 0.000000000000000e+00
0.000000000000000e+00 0.000000000000000e+00 0.000000000000000e+00
0.000000000000000e+00 0.000000000000000e+00 0.000000000000000e+00
0.000000000000000e+00 0.000000000000000e+00 0.000000000000000e+00
0.000000000000000e+00 0.000000000000000e+00 0.000000000000000e+00
0.000000000000000e+00 0.000000000000000e+00 0.000000000000000e+00
0.000000000000000e+00 0.000000000000000e+00 0.000000000000000e+00
0.000000000000000e+00 0.000000000000000e+00 0.000000000000000e+00
0.000000000000000e+00 0.000000000000000e+00 0.000000000000000e+00
0.000000000000000e+00 0.000000000000000e+00 0.000000000000000e+00
0.000000000000000e+00 0.000000000000000e+00 0.000000000000000e+00
0.000000000000000e+00 0.000000000000000e+00 0.000000000000000e+00
0.000000000000000e+00 0.000000000000000e+00 0.000000000000000e+00
0.000000000000000e+00 0.000000000000000e+00 0.000000000000000e+00
0.000000000000000e+00 0.000000000000000e+00 0.000000000000000e+00
0.000000000000000e+00 0.000000000000000e+00 0.000000000000000e+00
0.000000000000000e+00 0.000000000000000e+00 0.000000000000000e+00
0.000000000000000e+00 0.000000000000000e+00 0.000000000000000e+00
0.000000000000000e+00 0.000000000000000e+00 0.000000000000000e+00
0.000000000000000e+00 0.000000000000000e+00 0.000000000000000e+00
0.000000000000000e+00 0.000000000000000e+00 0.000000000000000e+00
0.000000000000000e+00 0.000000000000000e+00 0.000000000000000e+00
0.000000000000000e+00 0.000000000000000e+00 0.000000000000000e+00
0.000000000000000e+00 0.000000000000000e+00 0.000000000000000e+00
0.000000000000000e+00 0.000000000000000e+00 0.000000000000000e+00
0.000000000000000e+00 0.000000000000000e+00 0.000000000000000e+00
0.000000000000000e+00 0.000000000000000e+00 0.000000000000000e+00
0.000000000000000e+00 0.000000000000000e+00 0.000000000000000e+00
0.000000000000000e+00 0.000000000000000e+00 0.000000000000000e+00
0.000000000000000e+00 0.000000000000000e+00 0.000000000000000e+00
0.000000000000000e+00 0.000000000000000e+00 0.000000000000000e+00
0.000000000000000e+00 0.000000000000000e+00 0.000000000000000e+00
0.000000000000000e+00 0.000000000000000e+00 0.000000000000000e+00
0.000000000000000e+00 0.000000000000000e+00 0.000000000000000e+00
0.000000000000000e+00 0.000000000000000e+00 0.000000000000000e+00
0.000000000000000e+00 0.000000000000000e+00 0.000000000000000e+00
0.000000000000000e+00 0.000000000000000e+00 0.000000000000000e+00
0.000000000000000e+00 0.000000000000000e+00 0.000000000000000e+00
0.000000000000000e+00 0.000000000000000e+00 0.000000000000000e+00
0.000000000000000e+00 0.000000000000000e+00 0.000000000000000e+00
0.000000000000000e+00 0.000000000000000e+00 0.000000000000000e+00
0.000000000000000e+00 0.000000000000000e+00 0.000000000000000e+00
0.000000000000000e+00 0.000000000000000e+00 0.000000000000000e+00
0.000000000000000e+00 0.000000000000000e+00 0.000000000000000e+00
0.000000000000000e+00 0.000000000000000e+00 0.000000000000000e+00
0.000000000000000e+00 0.000000000000000e+00 0.000000000000000e+00
0.000000000000000e+00 0.000000000000000e+00 0.000000000000000e+00
0.000000000000000e+00 0.000000000000000e+00 0.000000000000000e+00
0.000000000000000e+00 0.000000000000000e+00 0.000000000000000e+00
0.000000000000000e+00 0.000000000000000e+00 0.000000000000000e+00
0.000000000000000e+00 0.000000000000000e+00 0.000000000000000e+00
0.000000000000000e+00 0.000000000000000e+00 0.000000000000000e+00
0.000000000000000e+00 0.000000000000000e+00 0.000000000000000e+00
0.000000000000000e+00 0.000000000000000e+00 0.000000000000000e+00
0.000000000000000e+00 0.000000000000000e+00 0.000000000000000e+00
0.000000000000000e+00 0.000000000000000e+00 0.000000000000000e+00
0.000000000000000e+00 0.000000000000000e+00 0.000000000000000e+00
0.000000000000000e+00 0.000000000000000e+00 0.000000000000000e+00
0.000000000000000e+00 0.000000000000000e+00 0.000000000000000e+00
0.000000000000000e+00 0.000000000000000e+00 0.000000000000000e+00
0.000000000000000e+00 0.000000000000000e+00 0.000000000000000e+00
0.000000000000000e+00 0.000000000000000e+00 0.000000000000000e+00
0.000000000000000e+00 0.000000000000000e+00 0.000000000000000e+00
0.000000000000000e+00 0.000000000000000e+00 0.000000000000000e+00
0.000000000000000e+00 0.000000000000000e+00 0.000000000000000e+00
0.000000000000000e+00 0.000000000000000e+00 0.000000000000000e+00
0.000000000000000e+00 0.000000000000000e+00 0.000000000000000e+00
0.000000000000000e+00 0.000000000000000e+00 0.000000000000000e+00
0.000000000000000e+00 0.000000000000000e+00 0.000000000000000e+00
0.000000000000000e+00 0.000000000000000e+00 0.000000000000000e+00
0.000000000000000e+00 0.000000000000000e+00 0.000000000000000e+00
0.000000000000000e+00 0.000000000000000e+00 0.000000000000000e+00
0.000000000000000e+00 0.000000000000000e+00 0.000000000000000e+00
0.000000000000000e+00 0.000000000000000e+00 0.000000000000000e+00
0.000000000000000e+00 0.000000000000000e+00 0.000000000000000e+00
0.000000000000000e+00 0.000000000000000e+00 0.000000000000000e+00
0.000000000000000e+00 0.000000000000000e+00 0.000000000000000e+00
0.000000000000000e+00 0.000000000000000e+00 0.000000000000000e+00
0.000000000000000e+00 0.000000000000000e+00 0.000000000000000e+00
0.000000000000000e+00 0.000000000000000e+00 0.000000000000000e+00
0.000000000000000e+00 0.000000000000000e+00 0.000000000000000e+00
0.000000000000000e+00 0.000000000000000e+00 0.000000000000000e+00
0.000000000000000e+00 0.000000000000000e+00 0.000000000000000e+00
0.000000000000000e+00 0.000000000000000e+00 0.000000000000000e+00
0.000000000000000e+00 0.000000000000000e+00 0.000000000000000e+00
0.000000000000000e+00 0.000000000000000e+00 0.000000000000000e+00
0.000000000000000e+00 0.000000000000000e+00 0.000000000000000e+00
0.000000000000000e+00 0.000000000000000e+00 0.000000000000000e+00
0.000000000000000e+00 0.000000000000000e+00 0.000000000000000e+00
0.000000000000000e+00 0.000000000000000e+00 0.000000000000000e+00
0.000000000000000e+00 0.000000000000000e+00 0.000000000000000e+00
0.000000000000000e+00 0.000000000000000e+00 0.000000000000000e+00
0.000000000000000e+00 0.000000000000000e+00 0.000000000000000e+00
0.000000000000000e+00 0.000000000000000e+00 0.000000000000000e+00
0.000000000000000e+00 0.000000000000000e+00 0.000000000000000e+00
0.000000000000000e+00 0.000000000000000e+00 0.000000000000000e+00
0.000000000000000e+00 0.000000000000000e+00 0.000000000000000e+00
0.000000000000000e+00 0.000000000000000e+00 0.000000000000000e+00
0.000000000000000e+00 0.000000000000000e+00 0.000000000000000e+00
0.000000000000000e+00 0.000000000000000e+00 0.000000000000000e+00
0.000000000000000e+00 0.000000000000000e+00 0.000000000000000e+00
0.000000000000000e+00 0.000000000000000e+00 0.000000000000000e+00
0.000000000000000e+00 0.000000000000000e+00 0.000000000000000e+00
0.000000000000000e+00 0.000000000000000e+00 0.000000000000000e+00
0.000000000000000e+00 0.000000000000000e+00 0.000000000000000e+00
0.000000000000000e+00 0.000000000000000e+00 0.000000000000000e+00
0.000000000000000e+00 0.000000000000000e+00 0.000000000000000e+00
0.000000000000000e+00 0.000000000000000e+00 0.000000000000000e+00
0.000000000000000e+00 0.000000000000000e+00 0.000000000000000e+00
0.000000000000000e+00 0.000000000000000e+00 0.000000000000000e+00
0.000000000000000e+00 0.000000000000000e+00 0.000000000000000e+00
0.000000000000000e+00 0.000000000000000e+00 0.000000000000000e+00
0.000000000000000e+00 0.000000000000000e+00 0.000000000000000e+00
0.000000000000000e+00 0.000000000000000e+00 0.000000000000000e+00
0.000000000000000e+00 0.000000000000000e+00 0.000000000000000e+00
0.000000000000000e+00 0.000000000000000e+00 0.000000000000000e+00
0.000000000000000e+00 0.000000000000000e+00 0.000000000000000e+00
0.000000000000000e+00 0.000000000000000e+00 0.000000000000000e+00
0.000000000000000e+00 0.000000000000000e+00 0.000000000000000e+00
0.000000000000000e+00 0.000000000000000e+00 0.000000000000000e+00
0.000000000000000e+00 0.000000000000000e+00 0.000000000000000e+00
0.000000000000000e+00 0.000000000000000e+00 0.000000000000000e+00
0.000000000000000e+00 0.000000000000000e+00 0.000000000000000e+00
0.000000000000000e+00 0.000000000000000e+00 0.000000000000000e+00
0.000000000000000e+00 0.000000000000000e+00 0.000000000000000e+00
0.000000000000000e+00 0.000000000000000e+00 0.000000000000000e+00
0.000000000000000e+00 0.000000000000000e+00 0.000000000000000e+00
0.000000000000000e+00 0.000000000000000e+00 0.000000000000000e+00
0.000000000000000e+00 0.000000000000000e+00 0.000000000000000e+00
0.000000000000000e+00 0.000000000000000e+00 0.000000000000000e+00
0.000000000000000e+00 0.000000000000000e+00 0.000000000000000e+00
0.000000000000000e+00 0.000000000000000e+00 0.000000000000000e+00
0.000000000000000e+00 0.000000000000000e+00 0.000000000000000e+00
0.000000000000000e+00 0.000000000000000e+00 0.000000000000000e+00
0.000000000000000e+00 0.000000000000000e+00 0.000000000000000e+00
0.000000000000000e+00 0.000000000000000e+00 0.000000000000000e+00
0.000000000000000e+00 0.000000000000000e+00 0.000000000000000e+00
0.000000000000000e+00 0.000000000000000e+00 0.000000000000000e+00
0.000000000000000e+00 0.000000000000000e+00 0.000000000000000e+00
0.000000000000000e+00 0.000000000000000e+00 0.000000000000000e+00
0.000000000000000e+00 0.000000000000000e+00 0.000000000000000e+00
0.000000000000000e+00 0.000000000000000e+00 0.000000000000000e+00
0.000000000000000e+00 0.000000000000000e+00 0.000000000000000e+00
0.000000000000000e+00 0.000000000000000e+00 0.000000000000000e+00
0.000000000000000e+00 0.000000000000000e+00 0.000000000000000e+00
0.000000000000000e+00 0.000000000000000e+00 0.000000000000000e+00
0.000000000000000e+00 0.000000000000000e+00 0.000000000000000e+00
0.000000000000000e+00 0.000000000000000e+00 0.000000000000000e+00
0.000000000000000e+00 0.000000000000000e+00 0.000000000000000e+00
0.000000000000000e+00 0.000000000000000e+00 0.000000000000000e+00
0.000000000000000e+00 0.000000000000000e+00 0.000000000000000e+00
0.000000000000000e+00 0.000000000000000e+00 0.000000000000000e+00
0.000000000000000e+00 0.000000000000000e+00 0.000000000000000e+00
0.000000000000000e+00 0.000000000000000e+00 0.000000000000000e+00
0.000000000000000e+00 0.000000000000000e+00 0.000000000000000e+00
0.000000000000000e+00 0.000000000000000e+00 0.000000000000000e+00
0.000000000000000e+00 0.000000000000000e+00 0.000000000000000e+00
0.000000000000000e+00 0.000000000000000e+00 0.000000000000000e+00
0.000000000000000e+00 0.000000000000000e+00 0.000000000000000e+00
0.000000000000000e+00 0.000000000000000e+00 0.000000000000000e+00
0.000000000000000e+00 0.000000000000000e+00 0.000000000000000e+00
0.000000000000000e+00 0.000000000000000e+00 0.000000000000000e+00
0.000000000000000e+00 0.000000000000000e+00 0.000000000000000e+00
0.000000000000000e+00 0.000000000000000e+00 0.000000000000000e+00
0.000000000000000e+00 0.000000000000000e+00 0.000000000000000e+00
0.000000000000000e+00 0.000000000000000e+00 0.000000000000000e+00
0.000000000000000e+00 0.000000000000000e+00 0.000000000000000e+00
0.000000000000000e+00 0.000000000000000e+00 0.000000000000000e+00
0.000000000000000e+00 0.000000000000000e+00 0.000000000000000e+00
0.000000000000000e+00 0.000000000000000e+00 0.000000000000000e+00
0.000000000000000e+00 0.000000000000000e+00 0.000000000000000e+00
0.000000000000000e+00 0.000000000000000e+00 0.000000000000000e+00
0.000000000000000e+00 0.000000000000000e+00 0.000000000000000e+00
0.000000000000000e+00 0.000000000000000e+00 0.000000000000000e+00
0.000000000000000e+00 0.000000000000000e+00 0.000000000000000e+00
0.000000000000000e+00 0.000000000000000e+00 0.000000000000000e+00
0.000000000000000e+00 0.000000000000000e+00 0.000000000000000e+00
0.000000000000000e+00 0.000000000000000e+00 0.000000000000000e+00
0.000000000000000e+00 0.000000000000000e+00 0.000000000000000e+00
0.000000000000000e+00 0.000000000000000e+00 0.000000000000000e+00
0.000000000000000e+00 0.000000000000000e+00 0.000000000000000e+00
0.000000000000000e+00 0.000000000000000e+00 0.000000000000000e+00
0.000000000000000e+00 0.000000000000000e+00 0.000000000000000e+00
0.000000000000000e+00 0.000000000000000e+00 0.000000000000000e+00
0.000000000000000e+00 0.000000000000000e+00 0.000000000000000e+00
0.000000000000000e+00 0.000000000000000e+00 0.000000000000000e+00
0.000000000000000e+00 0.000000000000000e+00 0.000000000000000e+00
0.000000000000000e+00 0.000000000000000e+00 0.000000000000000e+00
0.000000000000000e+00 0.000000000000000e+00 0.000000000000000e+00
0.000000000000000e+00 0.000000000000000e+00 0.000000000000000e+00
0.000000000000000e+00 0.000000000000000e+00 0.000000000000000e+00
0.000000000000000e+00 0.000000000000000e+00 0.000000000000000e+00
0.000000000000000e+00 0.000000000000000e+00 0.000000000000000e+00
0.000000000000000e+00 0.000000000000000e+00 0.000000000000000e+00
0.000000000000000e+00 0.000000000000000e+00 0.000000000000000e+00
0.000000000000000e+00 0.000000000000000e+00 0.000000000000000e+00
0.000000000000000e+00 0.000000000000000e+00 0.000000000000000e+00
0.000000000000000e+00 0.000000000000000e+00 0.000000000000000e+00
0.000000000000000e+00 0.000000000000000e+00 0.000000000000000e+00
0.000000000000000e+00 0.000000000000000e+00 0.000000000000000e+00
0.000000000000000e+00 0.000000000000000e+00 0.000000000000000e+00
0.000000000000000e+00 0.000000000000000e+00 0.000000000000000e+00
0.000000000000000e+00 0.000000000000000e+00 0.000000000000000e+00
0.000000000000000e+00 0.000000000000000e+00 0.000000000000000e+00
0.000000000000000e+00 0.000000000000000e+00 0.000000000000000e+00
0.000000000000000e+00 0.000000000000000e+00 0.000000000000000e+00
0.000000000000000e+00 0.000000000000000e+00 0.000000000000000e+00
0.000000000000000e+00 0.000000000000000e+00 0.000000000000000e+00
0.000000000000000e+00 0.000000000000000e+00 0.000000000000000e+00
0.000000000000000e+00 0.000000000000000e+00 0.000000000000000e+00
0.000000000000000e+00 0.000000000000000e+00 0.000000000000000e+00
0.000000000000000e+00 0.000000000000000e+00 0.000000000000000e+00
0.000000000000000e+00 0.000000000000000e+00 0.000000000000000e+00
0.000000000000000e+00 0.000000000000000e+00 0.000000000000000e+00
0.000000000000000e+00 0.000000000000000e+00 0.000000000000000e+00
0.000000000000000e+00 0.000000000000000e+00 0.000000000000000e+00
0.000000000000000e+00 0.000000000000000e+00 0.000000000000000e+00
0.000000000000000e+00 0.000000000000000e+00 0.000000000000000e+00
0.000000000000000e+00 0.000000000000000e+00 0.000000000000000e+00
0.000000000000000e+00 0.000000000000000e+00 0.000000000000000e+00
0.000000000000000e+00 0.000000000000000e+00 0.000000000000000e+00
0.000000000000000e+00 0.000000000000000e+00 0.000000000000000e+00
0.000000000000000e+00 0.000000000000000e+00 0.000000000000000e+00
0.000000000000000e+00 0.000000000000000e+00 0.000000000000000e+00
0.000000000000000e+00 0.000000000000000e+00 0.000000000000000e+00
0.000000000000000e+00 0.000000000000000e+00 0.000000000000000e+00
0.000000000000000e+00 0.000000000000000e+00 0.000000000000000e+00
0.000000000000000e+00 0.000000000000000e+00 0.000000000000000e+00
0.000000000000000e+00 0.000000000000000e+00 0.000000000000000e+00
0.000000000000000e+00 0.000000000000000e+00 0.000000000000000e+00
0.000000000000000e+00 0.000000000000000e+00 0.000000000000000e+00
0.000000000000000e+00 0.000000000000000e+00 0.000000000000000e+00
0.000000000000000e+00 0.000000000000000e+00 0.000000000000000e+00
0.000000000000000e+00 0.000000000000000e+00 0.000000000000000e+00
0.000000000000000e+00 0.000000000000000e+00 0.000000000000000e+00
0.000000000000000e+00 0.000000000000000e+00 0.000000000000000e+00
0.000000000000000e+00 0.000000000000000e+00 0.000000000000000e+00
0.000000000000000e+00 0.000000000000000e+00 0.000000000000000e+00
0.000000000000000e+00 0.000000000000000e+00 0.000000000000000e+00
0.000000000000000e+00 0.000000000000000e+00 0.000000000000000e+00
0.000000000000000e+00 0.000000000000000e+00 0.000000000000000e+00
0.000000000000000e+00 0.000000000000000e+00 0.000000000000000e+00
0.000000000000000e+00 0.000000000000000e+00 0.000000000000000e+00
0.000000000000000e+00 0.000000000000000e+00 0.000000000000000e+00
0.000000000000000e+00 0.000000000000000e+00 0.000000000000000e+00
0.000000000000000e+00 0.000000000000000e+00 0.000000000000000e+00
0.000000000000000e+00 0.000000000000000e+00 0.000000000000000e+00
0.000000000000000e+00 0.000000000000000e+00 0.000000000000000e+00
0.000000000000000e+00 0.000000000000000e+00 0.000000000000000e+00
0.000000000000000e+00 0.000000000000000e+00 0.000000000000000e+00
0.000000000000000e+00 0.000000000000000e+00 0.000000000000000e+00
0.000000000000000e+00 0.000000000000000e+00 0.000000000000000e+00
0.000000000000000e+00 0.000000000000000e+00 0.000000000000000e+00
0.000000000000000e+00 0.000000000000000e+00 0.000000000000000e+00
0.000000000000000e+00 0.000000000000000e+00 0.000000000000000e+00
0.000000000000000e+00 0.000000000000000e+00 0.000000000000000e+00
0.000000000000000e+00 0.000000000000000e+00 0.000000000000000e+00
0.000000000000000e+00 0.000000000000000e+00 0.000000000000000e+00
0.000000000000000e+00 0.000000000000000e+00 0.000000000000000e+00
0.000000000000000e+00 0.000000000000000e+00 0.000000000000000e+00
0.000000000000000e+00 0.000000000000000e+00 0.000000000000000e+00
0.000000000000000e+00 0.000000000000000e+00 0.000000000000000e+00
0.000000000000000e+00 0.000000000000000e+00 0.000000000000000e+00
0.000000000000000e+00 0.000000000000000e+00 0.000000000000000e+00
0.000000000000000e+00 0.000000000000000e+00 0.000000000000000e+00
0.000000000000000e+00 0.000000000000000e+00 0.000000000000000e+00
0.000000000000000e+00 0.000000000000000e+00 0.000000000000000e+00
0.000000000000000e+00 0.000000000000000e+00 0.000000000000000e+00
0.000000000000000e+00 0.000000000000000e+00 0.000000000000000e+00
0.000000000000000e+00 0.000000000000000e+00 0.000000000000000e+00
0.000000000000000e+00 0.000000000000000e+00 0.000000000000000e+00
0.000000000000000e+00 0.000000000000000e+00 0.000000000000000e+00
0.000000000000000e+00 0.000000000000000e+00 0.000000000000000e+00
0.000000000000000e+00 0.000000000000000e+00 0.000000000000000e+00
0.000000000000000e+00 0.000000000000000e+00 0.000000000000000e+00
0.000000000000000e+00 0.000000000000000e+00 0.000000000000000e+00
0.000000000000000e+00 0.000000000000000e+00 0.000000000000000e+00
0.000000000000000e+00 0.000000000000000e+00 0.000000000000000e+00
0.000000000000000e+00 0.000000000000000e+00 0.000000000000000e+00
0.000000000000000e+00 0.000000000000000e+00 0.000000000000000e+00
0.000000000000000e+00 0.000000000000000e+00 0.000000000000000e+00
0.000000000000000e+00 0.000000000000000e+00 0.000000000000000e+00
0.000000000000000e+00 0.000000000000000e+00 0.000000000000000e+00
0.000000000000000e+00 0.000000000000000e+00 0.000000000000000e+00
0.000000000000000e+00 0.000000000000000e+00 0.000000000000000e+00
0.000000000000000e+00 0.000000000000000e+00 0.000000000000000e+00
0.000000000000000e+00 0.000000000000000e+00 0.000000000000000e+00
0.000000000000000e+00 0.000000000000000e+00 0.000000000000000e+00
0.000000000000000e+00 0.000000000000000e+00 0.000000000000000e+00
0.000000000000000e+00 0.000000000000000e+00 0.000000000000000e+00
0.000000000000000e+00 0.000000000000000e+00 0.000000000000000e+00
0.000000000000000e+00 0.000000000000000e+00 0.000000000000000e+00
0.000000000000000e+00 0.000000000000000e+00 0.000000000000000e+00
0.000000000000000e+00 0.000000000000000e+00 0.000000000000000e+00
0.000000000000000e+00 0.000000000000000e+00 0.000000000000000e+00
0.000000000000000e+00 0.000000000000000e+00 0.000000000000000e+00
0.000000000000000e+00 0.000000000000000e+00 0.000000000000000e+00
0.000000000000000e+00 0.000000000000000e+00 0.000000000000000e+00
0.000000000000000e+00 0.000000000000000e+00 0.000000000000000e+00
0.000000000000000e+00 0.000000000000000e+00 0.000000000000000e+00
0.000000000000000e+00 0.000000000000000e+00 0.000000000000000e+00
0.000000000000000e+00 0.000000000000000e+00 0.000000000000000e+00
0.000000000000000e+00 0.000000000000000e+00 0.000000000000000e+00
0.000000000000000e+00 0.000000000000000e+00 0.000000000000000e+00
0.000000000000000e+00 0.000000000000000e+00 0.000000000000000e+00
0.000000000000000e+00 0.000000000000000e+00 0.000000000000000e+00
0.000000000000000e+00 0.000000000000000e+00 0.000000000000000e+00
0.000000000000000e+00 0.000000000000000e+00 0.000000000000000e+00
0.000000000000000e+00 0.000000000000000e+00 0.000000000000000e+00
0.000000000000000e+00 0.000000000000000e+00 0.000000000000000e+00
0.000000000000000e+00 0.000000000000000e+00 0.000000000000000e+00
0.000000000000000e+00 0.000000000000000e+00 0.000000000000000e+00
0.000000000000000e+00 0.000000000000000e+00 0.000000000000000e+00
0.000000000000000e+00 0.000000000000000e+00 0.000000000000000e+00
0.000000000000000e+00 0.000000000000000e+00 0.000000000000000e+00
0.000000000000000e+00 0.000000000000000e+00 0.000000000000000e+00
0.000000000000000e+00 0.000000000000000e+00 0.000000000000000e+00
0.000000000000000e+00 0.000000000000000e+00 0.000000000000000e+00
0.000000000000000e+00 0.000000000000000e+00 0.000000000000000e+00
0.000000000000000e+00 0.000000000000000e+00 0.000000000000000e+00
0.000000000000000e+00 0.000000000000000e+00 0.000000000000000e+00
0.000000000000000e+00 0.000000000000000e+00 0.000000000000000e+00
0.000000000000000e+00 0.000000000000000e+00 0.000000000000000e+00
0.000000000000000e+00 0.000000000000000e+00 0.000000000000000e+00
0.000000000000000e+00 0.000000000000000e+00 0.000000000000000e+00
0.000000000000000e+00 0.000000000000000e+00 0.000000000000000e+00
0.000000000000000e+00 0.000000000000000e+00 0.000000000000000e+00
0.000000000000000e+00 0.000000000000000e+00 0.000000000000000e+00
0.000000000000000e+00 0.000000000000000e+00 0.000000000000000e+00
0.000000000000000e+00 0.000000000000000e+00 0.000000000000000e+00
0.000000000000000e+00 0.000000000000000e+00 0.000000000000000e+00
0.000000000000000e+00 0.000000000000000e+00 0.000000000000000e+00
0.000000000000000e+00 0.000000000000000e+00 0.000000000000000e+00
0.000000000000000e+00 0.000000000000000e+00 0.000000000000000e+00
0.000000000000000e+00 0.000000000000000e+00 0.000000000000000e+00
0.000000000000000e+00 0.000000000000000e+00 0.000000000000000e+00
0.000000000000000e+00 0.000000000000000e+00 0.000000000000000e+00
0.000000000000000e+00 0.000000000000000e+00 0.000000000000000e+00
0.000000000000000e+00 0.000000000000000e+00 0.000000000000000e+00
0.000000000000000e+00 0.000000000000000e+00 0.000000000000000e+00
0.000000000000000e+00 0.000000000000000e+00 0.000000000000000e+00
0.000000000000000e+00 0.000000000000000e+00 0.000000000000000e+00
0.000000000000000e+00 0.000000000000000e+00 0.000000000000000e+00
0.000000000000000e+00 0.000000000000000e+00 0.000000000000000e+00
0.000000000000000e+00 0.000000000000000e+00 0.000000000000000e+00
0.000000000000000e+00 0.000000000000000e+00 0.000000000000000e+00
0.000000000000000e+00 0.000000000000000e+00 0.000000000000000e+00
0.000000000000000e+00 0.000000000000000e+00 0.000000000000000e+00
0.000000000000000e+00 0.000000000000000e+00 0.000000000000000e+00
0.000000000000000e+00 0.000000000000000e+00 0.000000000000000e+00
0.000000000000000e+00 0.000000000000000e+00 0.000000000000000e+00
0.000000000000000e+00 0.000000000000000e+00 0.000000000000000e+00
0.000000000000000e+00 0.000000000000000e+00 0.000000000000000e+00
0.000000000000000e+00 0.000000000000000e+00 0.000000000000000e+00
0.000000000000000e+00 0.000000000000000e+00 0.000000000000000e+00
0.000000000000000e+00 0.000000000000000e+00 0.000000000000000e+00
0.000000000000000e+00 0.000000000000000e+00 0.000000000000000e+00
0.000000000000000e+00 0.000000000000000e+00 0.000000000000000e+00
0.000000000000000e+00 0.000000000000000e+00 0.000000000000000e+00
0.000000000000000e+00 0.000000000000000e+00 0.000000000000000e+00
0.000000000000000e+00 0.000000000000000e+00 0.000000000000000e+00
0.000000000000000e+00 0.000000000000000e+00 0.000000000000000e+00
0.000000000000000e+00 0.000000000000000e+00 0.000000000000000e+00
0.000000000000000e+00 0.000000000000000e+00 0.000000000000000e+00
0.000000000000000e+00 0.000000000000000e+00 0.000000000000000e+00
0.000000000000000e+00 0.000000000000000e+00 0.000000000000000e+00
0.000000000000000e+00 0.000000000000000e+00 0.000000000000000e+00
0.000000000000000e+00 0.000000000000000e+00 0.000000000000000e+00
0.000000000000000e+00 0.000000000000000e+00 0.000000000000000e+00
0.000000000000000e+00 0.000000000000000e+00 0.000000000000000e+00
0.000000000000000e+00 0.000000000000000e+00 0.000000000000000e+00
0.000000000000000e+00 0.000000000000000e+00 0.000000000000000e+00
0.000000000000000e+00 0.000000000000000e+00 0.000000000000000e+00
0.000000000000000e+00 0.000000000000000e+00 0.000000000000000e+00
0.000000000000000e+00 0.000000000000000e+00 0.000000000000000e+00
0.000000000000000e+00 0.000000000000000e+00 0.000000000000000e+00
0.000000000000000e+00 0.000000000000000e+00 0.000000000000000e+00
0.000000000000000e+00 0.000000000000000e+00 0.000000000000000e+00
0.000000000000000e+00 0.000000000000000e+00 0.000000000000000e+00
0.000000000000000e+00 0.000000000000000e+00 0.000000000000000e+00
0.000000000000000e+00 0.000000000000000e+00 0.000000000000000e+00
0.000000000000000e+00 0.000000000000000e+00 0.000000000000000e+00
0.000000000000000e+00 0.000000000000000e+00 0.000000000000000e+00
0.000000000000000e+00 0.000000000000000e+00 0.000000000000000e+00
0.000000000000000e+00 0.000000000000000e+00 0.000000000000000e+00
0.000000000000000e+00 0.000000000000000e+00 0.000000000000000e+00
0.000000000000000e+00 0.000000000000000e+00 0.000000000000000e+00
0.000000000000000e+00 0.000000000000000e+00 0.000000000000000e+00
0.000000000000000e+00 0.000000000000000e+00 0.000000000000000e+00
0.000000000000000e+00 0.000000000000000e+00 0.000000000000000e+00
0.000000000000000e+00 0.000000000000000e+00 0.000000000000000e+00
0.000000000000000e+00 0.000000000000000e+00 0.000000000000000e+00
0.000000000000000e+00 0.000000000000000e+00 0.000000000000000e+00
0.000000000000000e+00 0.000000000000000e+00 0.000000000000000e+00
0.000000000000000e+00 0.000000000000000e+00 0.000000000000000e+00
0.000000000000000e+00 0.000000000000000e+00 0.000000000000000e+00
0.000000000000000e+00 0.000000000000000e+00 0.000000000000000e+00
0.000000000000000e+00 0.000000000000000e+00 0.000000000000000e+00
0.000000000000000e+00 0.000000000000000e+00 0.000000000000000e+00
0.000000000000000e+00 0.000000000000000e+00 0.000000000000000e+00
0.000000000000000e+00 0.000000000000000e+00 0.000000000000000e+00
0.000000000000000e+00 0.000000000000000e+00 0.000000000000000e+00
0.000000000000000e+00 0.000000000000000e+00 0.000000000000000e+00
0.000000000000000e+00 0.000000000000000e+00 0.000000000000000e+00
0.000000000000000e+00 0.000000000000000e+00 0.000000000000000e+00
0.000000000000000e+00 0.000000000000000e+00 0.000000000000000e+00
0.000000000000000e+00 0.000000000000000e+00 0.000000000000000e+00
0.000000000000000e+00 0.000000000000000e+00 0.000000000000000e+00
0.000000000000000e+00 0.000000000000000e+00 0.000000000000000e+00
0.000000000000000e+00 0.000000000000000e+00 0.000000000000000e+00
0.000000000000000e+00 0.000000000000000e+00 0.000000000000000e+00
0.000000000000000e+00 0.000000000000000e+00 0.000000000000000e+00
0.000000000000000e+00 0.000000000000000e+00 0.000000000000000e+00
0.000000000000000e+00 0.000000000000000e+00 0.000000000000000e+00
0.000000000000000e+00 0.000000000000000e+00 0.000000000000000e+00
0.000000000000000e+00 0.000000000000000e+00 0.000000000000000e+00
0.000000000000000e+00 0.000000000000000e+00 0.000000000000000e+00
0.000000000000000e+00 0.000000000000000e+00 0.000000000000000e+00
0.000000000000000e+00 0.000000000000000e+00 0.000000000000000e+00
0.000000000000000e+00 0.000000000000000e+00 0.000000000000000e+00
0.000000000000000e+00 0.000000000000000e+00 0.000000000000000e+00
0.000000000000000e+00 0.000000000000000e+00 0.000000000000000e+00
0.000000000000000e+00 0.000000000000000e+00 0.000000000000000e+00
0.000000000000000e+00 0.000000000000000e+00 0.000000000000000e+00
0.000000000000000e+00 0.000000000000000e+00 0.000000000000000e+00
0.000000000000000e+00 0.000000000000000e+00 0.000000000000000e+00
0.000000000000000e+00 0.000000000000000e+00 0.000000000000000e+00
0.000000000000000e+00 0.000000000000000e+00 0.000000000000000e+00
0.000000000000000e+00 0.000000000000000e+00 0.000000000000000e+00
0.000000000000000e+00 0.000000000000000e+00 0.000000000000000e+00
0.000000000000000e+00 0.000000000000000e+00 0.000000000000000e+00
0.000000000000000e+00 0.000000000000000e+00 0.000000000000000e+00
0.000000000000000e+00 0.000000000000000e+00 0.000000000000000e+00
0.000000000000000e+00 0.000000000000000e+00 0.000000000000000e+00
0.000000000000000e+00 0.000000000000000e+00 0.000000000000000e+00
0.000000000000000e+00 0.000000000000000e+00 0.000000000000000e+00
0.000000000000000e+00 0.000000000000000e+00 0.000000000000000e+00
0.000000000000000e+00 0.000000000000000e+00 0.000000000000000e+00
0.000000000000000e+00 0.000000000000000e+00 0.000000000000000e+00
0.000000000000000e+00 0.000000000000000e+00 0.000000000000000e+00
0.000000000000000e+00 0.000000000000000e+00 0.000000000000000e+00
0.000000000000000e+00 0.000000000000000e+00 0.000000000000000e+00
0.000000000000000e+00 0.000000000000000e+00 0.000000000000000e+00
0.000000000000000e+00 0.000000000000000e+00 0.000000000000000e+00
0.000000000000000e+00 0.000000000000000e+00 0.000000000000000e+00
0.000000000000000e+00 0.000000000000000e+00 0.000000000000000e+00
0.000000000000000e+00 0.000000000000000e+00 0.000000000000000e+00
0.000000000000000e+00 0.000000000000000e+00 0.000000000000000e+00
0.000000000000000e+00 0.000000000000000e+00 0.000000000000000e+00
0.000000000000000e+00 0.000000000000000e+00 0.000000000000000e+00
0.000000000000000e+00 0.000000000000000e+00 0.000000000000000e+00
0.000000000000000e+00 0.000000000000000e+00 0.000000000000000e+00
0.000000000000000e+00 0.000000000000000e+00 0.000000000000000e+00
0.000000000000000e+00 0.000000000000000e+00 0.000000000000000e+00
0.000000000000000e+00 0.000000000000000e+00 0.000000000000000e+00
0.000000000000000e+00 0.000000000000000e+00 0.000000000000000e+00
0.000000000000000e+00 0.000000000000000e+00 0.000000000000000e+00
0.000000000000000e+00 0.000000000000000e+00 0.000000000000000e+00
0.000000000000000e+00 0.000000000000000e+00 0.000000000000000e+00
0.000000000000000e+00 0.000000000000000e+00 0.000000000000000e+00
0.000000000000000e+00 0.000000000000000e+00 0.000000000000000e+00
0.000000000000000e+00 0.000000000000000e+00 0.000000000000000e+00
0.000000000000000e+00 0.000000000000000e+00 0.000000000000000e+00
0.000000000000000e+00 0.000000000000000e+00 0.000000000000000e+00
0.000000000000000e+00 0.000000000000000e+00 0.000000000000000e+00
0.000000000000000e+00 0.000000000000000e+00 0.000000000000000e+00
0.000000000000000e+00 0.000000000000000e+00 0.000000000000000e+00
0.000000000000000e+00 0.000000000000000e+00 0.000000000000000e+00
0.000000000000000e+00 0.000000000000000e+00 0.000000000000000e+00
0.000000000000000e+00 0.000000000000000e+00 0.000000000000000e+00
0.000000000000000e+00 0.000000000000000e+00 0.000000000000000e+00
0.000000000000000e+00 0.000000000000000e+00 0.000000000000000e+00
0.000000000000000e+00 0.000000000000000e+00 0.000000000000000e+00
0.000000000000000e+00 0.000000000000000e+00 0.000000000000000e+00
0.000000000000000e+00 0.000000000000000e+00 0.000000000000000e+00
0.000000000000000e+00 0.000000000000000e+00 0.000000000000000e+00
0.000000000000000e+00 0.000000000000000e+00 0.000000000000000e+00
0.000000000000000e+00 0.000000000000000e+00 0.000000000000000e+00
0.000000000000000e+00 0.000000000000000e+00 0.000000000000000e+00
0.000000000000000e+00 0.000000000000000e+00 0.000000000000000e+00
0.000000000000000e+00 0.000000000000000e+00 0.000000000000000e+00
0.000000000000000e+00 0.000000000000000e+00 0.000000000000000e+00
0.000000000000000e+00 0.000000000000000e+00 0.000000000000000e+00
0.000000000000000e+00 0.000000000000000e+00 0.000000000000000e+00
0.000000000000000e+00 0.000000000000000e+00 0.000000000000000e+00
0.000000000000000e+00 0.000000000000000e+00 0.000000000000000e+00
0.000000000000000e+00 0.000000000000000e+00 0.000000000000000e+00
0.000000000000000e+00 0.000000000000000e+00 0.000000000000000e+00
0.000000000000000e+00 0.000000000000000e+00 0.000000000000000e+00
0.000000000000000e+00 0.000000000000000e+00 0.000000000000000e+00
0.000000000000000e+00 0.000000000000000e+00 0.000000000000000e+00
0.000000000000000e+00 0.000000000000000e+00 0.000000000000000e+00
0.000000000000000e+00 0.000000000000000e+00 0.000000000000000e+00
0.000000000000000e+00 0.000000000000000e+00 0.000000000000000e+00
0.000000000000000e+00 0.000000000000000e+00 0.000000000000000e+00
0.000000000000000e+00 0.000000000000000e+00 0.000000000000000e+00
0.000000000000000e+00 0.000000000000000e+00 0.000000000000000e+00
0.000000000000000e+00 0.000000000000000e+00 0.000000000000000e+00
0.000000000000000e+00 0.000000000000000e+00 0.000000000000000e+00
0.000000000000000e+00 0.000000000000000e+00 0.000000000000000e+00
0.000000000000000e+00 0.000000000000000e+00 0.000000000000000e+00
0.000000000000000e+00 0.000000000000000e+00 0.000000000000000e+00
0.000000000000000e+00 0.000000000000000e+00 0.000000000000000e+00
0.000000000000000e+00 0.000000000000000e+00 0.000000000000000e+00
0.000000000000000e+00 0.000000000000000e+00 0.000000000000000e+00
0.000000000000000e+00 0.000000000000000e+00 0.000000000000000e+00
0.000000000000000e+00 0.000000000000000e+00 0.000000000000000e+00
0.000000000000000e+00 0.000000000000000e+00 0.000000000000000e+00
0.000000000000000e+00 0.000000000000000e+00 0.000000000000000e+00
0.000000000000000e+00 0.000000000000000e+00 0.000000000000000e+00
0.000000000000000e+00 0.000000000000000e+00 0.000000000000000e+00
0.000000000000000e+00 0.000000000000000e+00 0.000000000000000e+00
0.000000000000000e+00 0.000000000000000e+00 0.000000000000000e+00
0.000000000000000e+00 0.000000000000000e+00 0.000000000000000e+00
0.000000000000000e+00 0.000000000000000e+00 0.000000000000000e+00
0.000000000000000e+00 0.000000000000000e+00 0.000000000000000e+00
0.000000000000000e+00 0.000000000000000e+00 0.000000000000000e+00
0.000000000000000e+00 0.000000000000000e+00 0.000000000000000e+00
0.000000000000000e+00 0.000000000000000e+00 0.000000000000000e+00
0.000000000000000e+00 0.000000000000000e+00 0.000000000000000e+00
0.000000000000000e+00 0.000000000000000e+00 0.000000000000000e+00
0.000000000000000e+00 0.000000000000000e+00 0.000000000000000e+00
0.000000000000000e+00 0.000000000000000e+00 0.000000000000000e+00
0.000000000000000e+00 0.000000000000000e+00 0.000000000000000e+00
0.000000000000000e+00 0.000000000000000e+00 0.000000000000000e+00
0.000000000000000e+00 0.000000000000000e+00 0.000000000000000e+00
0.000000000000000e+00 0.000000000000000e+00 0.000000000000000e+00
0.000000000000000e+00 0.000000000000000e+00 0.000000000000000e+00
0.000000000000000e+00 0.000000000000000e+00 0.000000000000000e+00
0.000000000000000e+00 0.000000000000000e+00 0.000000000000000e+00
0.000000000000000e+00 0.000000000000000e+00 0.000000000000000e+00
0.000000000000000e+00 0.000000000000000e+00 0.000000000000000e+00
0.000000000000000e+00 0.000000000000000e+00 0.000000000000000e+00
0.000000000000000e+00 0.000000000000000e+00 0.000000000000000e+00
0.000000000000000e+00 0.000000000000000e+00 0.000000000000000e+00
0.000000000000000e+00 0.000000000000000e+00 0.000000000000000e+00
0.000000000000000e+00 0.000000000000000e+00 0.000000000000000e+00
0.000000000000000e+00 0.000000000000000e+00 0.000000000000000e+00
0.000000000000000e+00 0.000000000000000e+00 0.000000000000000e+00
0.000000000000000e+00 0.000000000000000e+00 0.000000000000000e+00
0.000000000000000e+00 0.000000000000000e+00 0.000000000000000e+00
0.000000000000000e+00 0.000000000000000e+00 0.000000000000000e+00
0.000000000000000e+00 0.000000000000000e+00 0.000000000000000e+00
0.000000000000000e+00 0.000000000000000e+00 0.000000000000000e+00
0.000000000000000e+00 0.000000000000000e+00 0.000000000000000e+00
0.000000000000000e+00 0.000000000000000e+00 0.000000000000000e+00
0.000000000000000e+00 0.000000000000000e+00 0.000000000000000e+00
0.000000000000000e+00 0.000000000000000e+00 0.000000000000000e+00
0.000000000000000e+00 0.000000000000000e+00 0.000000000000000e+00
0.000000000000000e+00 0.000000000000000e+00 0.000000000000000e+00
0.000000000000000e+00 0.000000000000000e+00 0.000000000000000e+00
0.000000000000000e+00 0.000000000000000e+00 0.000000000000000e+00
0.000000000000000e+00 0.000000000000000e+00 0.000000000000000e+00
0.000000000000000e+00 0.000000000000000e+00 0.000000000000000e+00
0.000000000000000e+00 0.000000000000000e+00 0.000000000000000e+00
0.000000000000000e+00 0.000000000000000e+00 0.000000000000000e+00
0.000000000000000e+00 0.000000000000000e+00 0.000000000000000e+00
0.000000000000000e+00 0.000000000000000e+00 0.000000000000000e+00
0.000000000000000e+00 0.000000000000000e+00 0.000000000000000e+00
0.000000000000000e+00 0.000000000000000e+00 0.000000000000000e+00
0.000000000000000e+00 0.000000000000000e+00 0.000000000000000e+00
0.000000000000000e+00 0.000000000000000e+00 0.000000000000000e+00
0.000000000000000e+00 0.000000000000000e+00 0.000000000000000e+00
0.000000000000000e+00 0.000000000000000e+00 0.000000000000000e+00
0.000000000000000e+00 0.000000000000000e+00 0.000000000000000e+00
0.000000000000000e+00 0.000000000000000e+00 0.000000000000000e+00
0.000000000000000e+00 0.000000000000000e+00 0.000000000000000e+00
0.000000000000000e+00 0.000000000000000e+00 0.000000000000000e+00
0.000000000000000e+00 0.000000000000000e+00 0.000000000000000e+00
0.000000000000000e+00 0.000000000000000e+00 0.000000000000000e+00
0.000000000000000e+00 0.000000000000000e+00 0.000000000000000e+00
0.000000000000000e+00 0.000000000000000e+00 0.000000000000000e+00
0.000000000000000e+00 0.000000000000000e+00 0.000000000000000e+00
0.000000000000000e+00 0.000000000000000e+00 0.000000000000000e+00
0.000000000000000e+00 0.000000000000000e+00 0.000000000000000e+00
0.000000000000000e+00 0.000000000000000e+00 0.000000000000000e+00
0.000000000000000e+00 0.000000000000000e+00 0.000000000000000e+00
0.000000000000000e+00 0.000000000000000e+00 0.000000000000000e+00
0.000000000000000e+00 0.000000000000000e+00 0.000000000000000e+00
0.000000000000000e+00 0.000000000000000e+00 0.000000000000000e+00
0.000000000000000e+00 0.000000000000000e+00 0.000000000000000e+00
0.000000000000000e+00 0.000000000000000e+00 0.000000000000000e+00
0.000000000000000e+00 0.000000000000000e+00 0.000000000000000e+00
0.000000000000000e+00 0.000000000000000e+00 0.000000000000000e+00
0.000000000000000e+00 0.000000000000000e+00 0.000000000000000e+00
0.000000000000000e+00 0.000000000000000e+00 0.000000000000000e+00
0.000000000000000e+00 0.000000000000000e+00 0.000000000000000e+00
0.000000000000000e+00 0.000000000000000e+00 0.000000000000000e+00
0.000000000000000e+00 0.000000000000000e+00 0.000000000000000e+00
0.000000000000000e+00 0.000000000000000e+00 0.000000000000000e+00
0.000000000000000e+00 0.000000000000000e+00 0.000000000000000e+00
0.000000000000000e+00 0.000000000000000e+00 0.000000000000000e+00
0.000000000000000e+00 0.000000000000000e+00 0.000000000000000e+00
0.000000000000000e+00 0.000000000000000e+00 0.000000000000000e+00
0.000000000000000e+00 0.000000000000000e+00 0.000000000000000e+00
0.000000000000000e+00 0.000000000000000e+00 0.000000000000000e+00
0.000000000000000e+00 0.000000000000000e+00 0.000000000000000e+00
0.000000000000000e+00 0.000000000000000e+00 0.000000000000000e+00
0.000000000000000e+00 0.000000000000000e+00 0.000000000000000e+00
0.000000000000000e+00 0.000000000000000e+00 0.000000000000000e+00
0.000000000000000e+00 0.000000000000000e+00 0.000000000000000e+00
0.000000000000000e+00 0.000000000000000e+00 0.000000000000000e+00
0.000000000000000e+00 0.000000000000000e+00 0.000000000000000e+00
0.000000000000000e+00 0.000000000000000e+00 0.000000000000000e+00
0.000000000000000e+00 0.000000000000000e+00 0.000000000000000e+00
0.000000000000000e+00 0.000000000000000e+00 0.000000000000000e+00
0.000000000000000e+00 0.000000000000000e+00 0.000000000000000e+00
0.000000000000000e+00 0.000000000000000e+00 0.000000000000000e+00
0.000000000000000e+00 0.000000000000000e+00 0.000000000000000e+00
0.000000000000000e+00 0.000000000000000e+00 0.000000000000000e+00
0.000000000000000e+00 0.000000000000000e+00 0.000000000000000e+00
0.000000000000000e+00 0.000000000000000e+00 0.000000000000000e+00
0.000000000000000e+00 0.000000000000000e+00 0.000000000000000e+00
0.000000000000000e+00 0.000000000000000e+00 0.000000000000000e+00
0.000000000000000e+00 0.000000000000000e+00 0.000000000000000e+00
0.000000000000000e+00 0.000000000000000e+00 0.000000000000000e+00
0.000000000000000e+00 0.000000000000000e+00 0.000000000000000e+00
0.000000000000000e+00 0.000000000000000e+00 0.000000000000000e+00
0.000000000000000e+00 0.000000000000000e+00 0.000000000000000e+00
0.000000000000000e+00 0.000000000000000e+00 0.000000000000000e+00
0.000000000000000e+00 0.000000000000000e+00 0.000000000000000e+00
0.000000000000000e+00 0.000000000000000e+00 0.000000000000000e+00
0.000000000000000e+00 0.000000000000000e+00 0.000000000000000e+00
0.000000000000000e+00 0.000000000000000e+00 0.000000000000000e+00
0.000000000000000e+00 0.000000000000000e+00 0.000000000000000e+00
0.000000000000000e+00 0.000000000000000e+00 0.000000000000000e+00
0.000000000000000e+00 0.000000000000000e+00 0.000000000000000e+00
0.000000000000000e+00 0.000000000000000e+00 0.000000000000000e+00
0.000000000000000e+00 0.000000000000000e+00 0.000000000000000e+00
0.000000000000000e+00 0.000000000000000e+00 0.000000000000000e+00
0.000000000000000e+00 0.000000000000000e+00 0.000000000000000e+00
0.000000000000000e+00 0.000000000000000e+00 0.000000000000000e+00
0.000000000000000e+00 0.000000000000000e+00 0.000000000000000e+00
0.000000000000000e+00 0.000000000000000e+00 0.000000000000000e+00
0.000000000000000e+00 0.000000000000000e+00 0.000000000000000e+00
0.000000000000000e+00 0.000000000000000e+00 0.000000000000000e+00
0.000000000000000e+00 0.000000000000000e+00 0.000000000000000e+00
0.000000000000000e+00 0.000000000000000e+00 0.000000000000000e+00
0.000000000000000e+00 0.000000000000000e+00 0.000000000000000e+00
0.000000000000000e+00 0.000000000000000e+00 0.000000000000000e+00
0.000000000000000e+00 0.000000000000000e+00 0.000000000000000e+00
0.000000000000000e+00 0.000000000000000e+00 0.000000000000000e+00
0.000000000000000e+00 0.000000000000000e+00 0.000000000000000e+00
0.000000000000000e+00 0.000000000000000e+00 0.000000000000000e+00
0.000000000000000e+00 0.000000000000000e+00 0.000000000000000e+00
0.000000000000000e+00 0.000000000000000e+00 0.000000000000000e+00
0.000000000000000e+00 0.000000000000000e+00 0.000000000000000e+00
0.000000000000000e+00 0.000000000000000e+00 0.000000000000000e+00
0.000000000000000e+00 0.000000000000000e+00 0.000000000000000e+00
0.000000000000000e+00 0.000000000000000e+00 0.000000000000000e+00
0.000000000000000e+00 0.000000000000000e+00 0.000000000000000e+00
0.000000000000000e+00 0.000000000000000e+00 0.000000000000000e+00
0.000000000000000e+00 0.000000000000000e+00 0.000000000000000e+00
0.000000000000000e+00 0.000000000000000e+00 0.000000000000000e+00
0.000000000000000e+00 0.000000000000000e+00 0.000000000000000e+00
0.000000000000000e+00 0.000000000000000e+00 0.000000000000000e+00
0.000000000000000e+00 0.000000000000000e+00 0.000000000000000e+00
0.000000000000000e+00 0.000000000000000e+00 0.000000000000000e+00
0.000000000000000e+00 0.000000000000000e+00 0.000000000000000e+00
0.000000000000000e+00 0.000000000000000e+00 0.000000000000000e+00
0.000000000000000e+00 0.000000000000000e+00 0.000000000000000e+00
0.000000000000000e+00 0.000000000000000e+00 0.000000000000000e+00
0.000000000000000e+00 0.000000000000000e+00 0.000000000000000e+00
0.000000000000000e+00 0.000000000000000e+00 0.000000000000000e+00
0.000000000000000e+00 0.000000000000000e+00 0.000000000000000e+00
0.000000000000000e+00 0.000000000000000e+00 0.000000000000000e+00
0.000000000000000e+00 0.000000000000000e+00 0.000000000000000e+00
0.000000000000000e+00 0.000000000000000e+00 0.000000000000000e+00
0.000000000000000e+00 0.000000000000000e+00 0.000000000000000e+00
0.000000000000000e+00 0.000000000000000e+00 0.000000000000000e+00
0.000000000000000e+00 0.000000000000000e+00 0.000000000000000e+00
0.000000000000000e+00 0.000000000000000e+00 0.000000000000000e+00
0.000000000000000e+00 0.000000000000000e+00 0.000000000000000e+00
0.000000000000000e+00 0.000000000000000e+00 0.000000000000000e+00
0.000000000000000e+00 0.000000000000000e+00 0.000000000000000e+00
0.000000000000000e+00 0.000000000000000e+00 0.000000000000000e+00
0.000000000000000e+00 0.000000000000000e+00 0.000000000000000e+00
0.000000000000000e+00 0.000000000000000e+00 0.000000000000000e+00
0.000000000000000e+00 0.000000000000000e+00 0.000000000000000e+00
0.000000000000000e+00 0.000000000000000e+00 0.000000000000000e+00
0.000000000000000e+00 0.000000000000000e+00 0.000000000000000e+00
0.000000000000000e+00 0.000000000000000e+00 0.000000000000000e+00
0.000000000000000e+00 0.000000000000000e+00 0.000000000000000e+00
0.000000000000000e+00 0.000000000000000e+00 0.000000000000000e+00
0.000000000000000e+00 0.000000000000000e+00 0.000000000000000e+00
0.000000000000000e+00 0.000000000000000e+00 0.000000000000000e+00
0.000000000000000e+00 0.000000000000000e+00 0.000000000000000e+00
0.000000000000000e+00 0.000000000000000e+00 0.000000000000000e+00
0.000000000000000e+00 0.000000000000000e+00 0.000000000000000e+00
0.000000000000000e+00 0.000000000000000e+00 0.000000000000000e+00
0.000000000000000e+00 0.000000000000000e+00 0.000000000000000e+00
0.000000000000000e+00 0.000000000000000e+00 0.000000000000000e+00
0.000000000000000e+00 0.000000000000000e+00 0.000000000000000e+00
0.000000000000000e+00 0.000000000000000e+00 0.000000000000000e+00
0.000000000000000e+00 0.000000000000000e+00 0.000000000000000e+00
0.000000000000000e+00 0.000000000000000e+00 0.000000000000000e+00
0.000000000000000e+00 0.000000000000000e+00 0.000000000000000e+00
0.000000000000000e+00 0.000000000000000e+00 0.000000000000000e+00
0.000000000000000e+00 0.000000000000000e+00 0.000000000000000e+00
0.000000000000000e+00 0.000000000000000e+00 0.000000000000000e+00
0.000000000000000e+00 0.000000000000000e+00 0.000000000000000e+00
0.000000000000000e+00 0.000000000000000e+00 0.000000000000000e+00
0.000000000000000e+00 0.000000000000000e+00 0.000000000000000e+00
0.000000000000000e+00 0.000000000000000e+00 0.000000000000000e+00
0.000000000000000e+00 0.000000000000000e+00 0.000000000000000e+00
0.000000000000000e+00 0.000000000000000e+00 0.000000000000000e+00
0.000000000000000e+00 0.000000000000000e+00 0.000000000000000e+00
0.000000000000000e+00 0.000000000000000e+00 0.000000000000000e+00
0.000000000000000e+00 0.000000000000000e+00 0.000000000000000e+00
0.000000000000000e+00 0.000000000000000e+00 0.000000000000000e+00
0.000000000000000e+00 0.000000000000000e+00 0.000000000000000e+00
0.000000000000000e+00 0.000000000000000e+00 0.000000000000000e+00
0.000000000000000e+00 0.000000000000000e+00 0.000000000000000e+00
0.000000000000000e+00 0.000000000000000e+00 0.000000000000000e+00
0.000000000000000e+00 0.000000000000000e+00 0.000000000000000e+00
0.000000000000000e+00 0.000000000000000e+00 0.000000000000000e+00
0.000000000000000e+00 0.000000000000000e+00 0.000000000000000e+00
0.000000000000000e+00 0.000000000000000e+00 0.000000000000000e+00
0.000000000000000e+00 0.000000000000000e+00 0.000000000000000e+00
0.000000000000000e+00 0.000000000000000e+00 0.000000000000000e+00
0.000000000000000e+00 0.000000000000000e+00 0.000000000000000e+00
0.000000000000000e+00 0.000000000000000e+00 0.000000000000000e+00
0.000000000000000e+00 0.000000000000000e+00 0.000000000000000e+00
0.000000000000000e+00 0.000000000000000e+00 0.000000000000000e+00
0.000000000000000e+00 0.000000000000000e+00 0.000000000000000e+00
0.000000000000000e+00 0.000000000000000e+00 0.000000000000000e+00
0.000000000000000e+00 0.000000000000000e+00 0.000000000000000e+00
0.000000000000000e+00 0.000000000000000e+00 0.000000000000000e+00
0.000000000000000e+00 0.000000000000000e+00 0.000000000000000e+00
0.000000000000000e+00 0.000000000000000e+00 0.000000000000000e+00
0.000000000000000e+00 0.000000000000000e+00 0.000000000000000e+00
0.000000000000000e+00 0.000000000000000e+00 0.000000000000000e+00
0.000000000000000e+00 0.000000000000000e+00 0.000000000000000e+00
0.000000000000000e+00 0.000000000000000e+00 0.000000000000000e+00
0.000000000000000e+00 0.000000000000000e+00 0.000000000000000e+00
0.000000000000000e+00 0.000000000000000e+00 0.000000000000000e+00
0.000000000000000e+00 0.000000000000000e+00 0.000000000000000e+00
0.000000000000000e+00 0.000000000000000e+00 0.000000000000000e+00
0.000000000000000e+00 0.000000000000000e+00 0.000000000000000e+00
0.000000000000000e+00 0.000000000000000e+00 0.000000000000000e+00
0.000000000000000e+00 0.000000000000000e+00 0.000000000000000e+00
0.000000000000000e+00 0.000000000000000e+00 0.000000000000000e+00
0.000000000000000e+00 0.000000000000000e+00 0.000000000000000e+00
0.000000000000000e+00 0.000000000000000e+00 0.000000000000000e+00
0.000000000000000e+00 0.000000000000000e+00 0.000000000000000e+00
0.000000000000000e+00 0.000000000000000e+00 0.000000000000000e+00
0.000000000000000e+00 0.000000000000000e+00 0.000000000000000e+00
0.000000000000000e+00 0.000000000000000e+00 0.000000000000000e+00
0.000000000000000e+00 0.000000000000000e+00 0.000000000000000e+00
0.000000000000000e+00 0.000000000000000e+00 0.000000000000000e+00
0.000000000000000e+00 0.000000000000000e+00 0.000000000000000e+00
0.000000000000000e+00 0.000000000000000e+00 0.000000000000000e+00
0.000000000000000e+00 0.000000000000000e+00 0.000000000000000e+00
0.000000000000000e+00 0.000000000000000e+00 0.000000000000000e+00
0.000000000000000e+00 0.000000000000000e+00 0.000000000000000e+00
0.000000000000000e+00 0.000000000000000e+00 0.000000000000000e+00
0.000000000000000e+00 0.000000000000000e+00 0.000000000000000e+00
0.000000000000000e+00 0.000000000000000e+00 0.000000000000000e+00
0.000000000000000e+00 0.000000000000000e+00 0.000000000000000e+00
0.000000000000000e+00 0.000000000000000e+00 0.000000000000000e+00
0.000000000000000e+00 0.000000000000000e+00 0.000000000000000e+00
0.000000000000000e+00 0.000000000000000e+00 0.000000000000000e+00
0.000000000000000e+00 0.000000000000000e+00 0.000000000000000e+00
0.000000000000000e+00 0.000000000000000e+00 0.000000000000000e+00
0.000000000000000e+00 0.000000000000000e+00 0.000000000000000e+00
0.000000000000000e+00 0.000000000000000e+00 0.000000000000000e+00
0.000000000000000e+00 0.000000000000000e+00 0.000000000000000e+00
0.000000000000000e+00 0.000000000000000e+00 0.000000000000000e+00
0.000000000000000e+00 0.000000000000000e+00 0.000000000000000e+00
0.000000000000000e+00 0.000000000000000e+00 0.000000000000000e+00
0.000000000000000e+00 0.000000000000000e+00 0.000000000000000e+00
0.000000000000000e+00 0.000000000000000e+00 0.000000000000000e+00
0.000000000000000e+00 0.000000000000000e+00 0.000000000000000e+00
0.000000000000000e+00 0.000000000000000e+00 0.000000000000000e+00
0.000000000000000e+00 0.000000000000000e+00 0.000000000000000e+00
0.000000000000000e+00 0.000000000000000e+00 0.000000000000000e+00
0.000000000000000e+00 0.000000000000000e+00 0.000000000000000e+00
0.000000000000000e+00 0.000000000000000e+00 0.000000000000000e+00
0.000000000000000e+00 0.000000000000000e+00 0.000000000000000e+00
0.000000000000000e+00 0.000000000000000e+00 0.000000000000000e+00
0.000000000000000e+00 0.000000000000000e+00 0.000000000000000e+00
0.000000000000000e+00 0.000000000000000e+00 0.000000000000000e+00
0.000000000000000e+00 0.000000000000000e+00 0.000000000000000e+00
0.000000000000000e+00 0.000000000000000e+00 0.000000000000000e+00
0.000000000000000e+00 0.000000000000000e+00 0.000000000000000e+00
0.000000000000000e+00 0.000000000000000e+00 0.000000000000000e+00
0.000000000000000e+00 0.000000000000000e+00 0.000000000000000e+00
0.000000000000000e+00 0.000000000000000e+00 0.000000000000000e+00
0.000000000000000e+00 0.000000000000000e+00 0.000000000000000e+00
0.000000000000000e+00 0.000000000000000e+00 0.000000000000000e+00
0.000000000000000e+00 0.000000000000000e+00 0.000000000000000e+00
0.000000000000000e+00 0.000000000000000e+00 0.000000000000000e+00
0.000000000000000e+00 0.000000000000000e+00 0.000000000000000e+00
0.000000000000000e+00 0.000000000000000e+00 0.000000000000000e+00
0.000000000000000e+00 0.000000000000000e+00 0.000000000000000e+00
0.000000000000000e+00 0.000000000000000e+00 0.000000000000000e+00
0.000000000000000e+00 0.000000000000000e+00 0.000000000000000e+00
0.000000000000000e+00 0.000000000000000e+00 0.000000000000000e+00
0.000000000000000e+00 0.000000000000000e+00 0.000000000000000e+00
0.000000000000000e+00 0.000000000000000e+00 0.000000000000000e+00
0.000000000000000e+00 0.000000000000000e+00 0.000000000000000e+00
0.000000000000000e+00 0.000000000000000e+00 0.000000000000000e+00
0.000000000000000e+00 0.000000000000000e+00 0.000000000000000e+00
0.000000000000000e+00 0.000000000000000e+00 0.000000000000000e+00
0.000000000000000e+00 0.000000000000000e+00 0.000000000000000e+00
0.000000000000000e+00 0.000000000000000e+00 0.000000000000000e+00
0.000000000000000e+00 0.000000000000000e+00 0.000000000000000e+00
0.000000000000000e+00 0.000000000000000e+00 0.000000000000000e+00
0.000000000000000e+00 0.000000000000000e+00 0.000000000000000e+00
0.000000000000000e+00 0.000000000000000e+00 0.000000000000000e+00
0.000000000000000e+00 0.000000000000000e+00 0.000000000000000e+00
0.000000000000000e+00 0.000000000000000e+00 0.000000000000000e+00
0.000000000000000e+00 0.000000000000000e+00 0.000000000000000e+00
0.000000000000000e+00 0.000000000000000e+00 0.000000000000000e+00
0.000000000000000e+00 0.000000000000000e+00 0.000000000000000e+00
0.000000000000000e+00 0.000000000000000e+00 0.000000000000000e+00
0.000000000000000e+00 0.000000000000000e+00 0.000000000000000e+00
0.000000000000000e+00 0.000000000000000e+00 0.000000000000000e+00
0.000000000000000e+00 0.000000000000000e+00 0.000000000000000e+00
0.000000000000000e+00 0.000000000000000e+00 0.000000000000000e+00
0.000000000000000e+00 0.000000000000000e+00 0.000000000000000e+00
0.000000000000000e+00 0.000000000000000e+00 0.000000000000000e+00
0.000000000000000e+00 0.000000000000000e+00 0.000000000000000e+00
0.000000000000000e+00 0.000000000000000e+00 0.000000000000000e+00
0.000000000000000e+00 0.000000000000000e+00 0.000000000000000e+00
0.000000000000000e+00 0.000000000000000e+00 0.000000000000000e+00
0.000000000000000e+00 0.000000000000000e+00 0.000000000000000e+00
0.000000000000000e+00 0.000000000000000e+00 0.000000000000000e+00
0.000000000000000e+00 0.000000000000000e+00 0.000000000000000e+00
0.000000000000000e+00 0.000000000000000e+00 0.000000000000000e+00
0.000000000000000e+00 0.000000000000000e+00 0.000000000000000e+00
0.000000000000000e+00 0.000000000000000e+00 0.000000000000000e+00
0.000000000000000e+00 0.000000000000000e+00 0.000000000000000e+00
0.000000000000000e+00 0.000000000000000e+00 0.000000000000000e+00
0.000000000000000e+00 0.000000000000000e+00 0.000000000000000e+00
0.000000000000000e+00 0.000000000000000e+00 0.000000000000000e+00
0.000000000000000e+00 0.000000000000000e+00 0.000000000000000e+00
0.000000000000000e+00 0.000000000000000e+00 0.000000000000000e+00
0.000000000000000e+00 0.000000000000000e+00 0.000000000000000e+00
0.000000000000000e+00 0.000000000000000e+00 0.000000000000000e+00
0.000000000000000e+00 0.000000000000000e+00 0.000000000000000e+00
0.000000000000000e+00 0.000000000000000e+00 0.000000000000000e+00
0.000000000000000e+00 0.000000000000000e+00 0.000000000000000e+00
0.000000000000000e+00 0.000000000000000e+00 0.000000000000000e+00
0.000000000000000e+00 0.000000000000000e+00 0.000000000000000e+00
0.000000000000000e+00 0.000000000000000e+00 0.000000000000000e+00
0.000000000000000e+00 0.000000000000000e+00 0.000000000000000e+00
0.000000000000000e+00 0.000000000000000e+00 0.000000000000000e+00
0.000000000000000e+00 0.000000000000000e+00 0.000000000000000e+00
0.000000000000000e+00 0.000000000000000e+00 0.000000000000000e+00
0.000000000000000e+00 0.000000000000000e+00 0.000000000000000e+00
0.000000000000000e+00 0.000000000000000e+00 0.000000000000000e+00
0.000000000000000e+00 0.000000000000000e+00 0.000000000000000e+00
0.000000000000000e+00 0.000000000000000e+00 0.000000000000000e+00
0.000000000000000e+00 0.000000000000000e+00 0.000000000000000e+00
0.000000000000000e+00 0.000000000000000e+00 0.000000000000000e+00
0.000000000000000e+00 0.000000000000000e+00 0.000000000000000e+00
0.000000000000000e+00 0.000000000000000e+00 0.000000000000000e+00
0.000000000000000e+00 0.000000000000000e+00 0.000000000000000e+00
0.000000000000000e+00 0.000000000000000e+00 0.000000000000000e+00
0.000000000000000e+00 0.000000000000000e+00 0.000000000000000e+00
0.000000000000000e+00 0.000000000000000e+00 0.000000000000000e+00
0.000000000000000e+00 0.000000000000000e+00 0.000000000000000e+00
0.000000000000000e+00 0.000000000000000e+00 0.000000000000000e+00
0.000000000000000e+00 0.000000000000000e+00 0.000000000000000e+00
0.000000000000000e+00 0.000000000000000e+00 0.000000000000000e+00
0.000000000000000e+00 0.000000000000000e+00 0.000000000000000e+00
0.000000000000000e+00 0.000000000000000e+00 0.000000000000000e+00
0.000000000000000e+00 0.000000000000000e+00 0.000000000000000e+00
0.000000000000000e+00 0.000000000000000e+00 0.000000000000000e+00
0.000000000000000e+00 0.000000000000000e+00 0.000000000000000e+00
0.000000000000000e+00 0.000000000000000e+00 0.000000000000000e+00
0.000000000000000e+00 0.000000000000000e+00 0.000000000000000e+00
0.000000000000000e+00 0.000000000000000e+00 0.000000000000000e+00
0.000000000000000e+00 0.000000000000000e+00 0.000000000000000e+00
0.000000000000000e+00 0.000000000000000e+00 0.000000000000000e+00
0.000000000000000e+00 0.000000000000000e+00 0.000000000000000e+00
0.000000000000000e+00 0.000000000000000e+00 0.000000000000000e+00
0.000000000000000e+00 0.000000000000000e+00 0.000000000000000e+00
0.000000000000000e+00 0.000000000000000e+00 0.000000000000000e+00
0.000000000000000e+00 0.000000000000000e+00 0.000000000000000e+00
0.000000000000000e+00 0.000000000000000e+00 0.000000000000000e+00
0.000000000000000e+00 0.000000000000000e+00 0.000000000000000e+00
0.000000000000000e+00 0.000000000000000e+00 0.000000000000000e+00
0.000000000000000e+00 0.000000000000000e+00 0.000000000000000e+00
0.000000000000000e+00 0.000000000000000e+00 0.000000000000000e+00
0.000000000000000e+00 0.000000000000000e+00 0.000000000000000e+00
0.000000000000000e+00 0.000000000000000e+00 0.000000000000000e+00
0.000000000000000e+00 0.000000000000000e+00 0.000000000000000e+00
0.000000000000000e+00 0.000000000000000e+00 0.000000000000000e+00
0.000000000000000e+00 0.000000000000000e+00 0.000000000000000e+00
0.000000000000000e+00 0.000000000000000e+00 0.000000000000000e+00
0.000000000000000e+00 0.000000000000000e+00 0.000000000000000e+00
0.000000000000000e+00 0.000000000000000e+00 0.000000000000000e+00
0.000000000000000e+00 0.000000000000000e+00 0.000000000000000e+00
0.000000000000000e+00 0.000000000000000e+00 0.000000000000000e+00
0.000000000000000e+00 0.000000000000000e+00 0.000000000000000e+00
0.000000000000000e+00 0.000000000000000e+00 0.000000000000000e+00
0.000000000000000e+00 0.000000000000000e+00 0.000000000000000e+00
0.000000000000000e+00 0.000000000000000e+00 0.000000000000000e+00
0.000000000000000e+00 0.000000000000000e+00 0.000000000000000e+00
0.000000000000000e+00 0.000000000000000e+00 0.000000000000000e+00
0.000000000000000e+00 0.000000000000000e+00 0.000000000000000e+00
0.000000000000000e+00 0.000000000000000e+00 0.000000000000000e+00
0.000000000000000e+00 0.000000000000000e+00 0.000000000000000e+00
0.000000000000000e+00 0.000000000000000e+00 0.000000000000000e+00
0.000000000000000e+00 0.000000000000000e+00 0.000000000000000e+00
0.000000000000000e+00 0.000000000000000e+00 0.000000000000000e+00
0.000000000000000e+00 0.000000000000000e+00 0.000000000000000e+00
0.000000000000000e+00 0.000000000000000e+00 0.000000000000000e+00
0.000000000000000e+00 0.000000000000000e+00 0.000000000000000e+00
0.000000000000000e+00 0.000000000000000e+00 0.000000000000000e+00
0.000000000000000e+00 0.000000000000000e+00 0.000000000000000e+00
0.000000000000000e+00 0.000000000000000e+00 0.000000000000000e+00
0.000000000000000e+00 0.000000000000000e+00 0.000000000000000e+00
0.000000000000000e+00 0.000000000000000e+00 0.000000000000000e+00
0.000000000000000e+00 0.000000000000000e+00 0.000000000000000e+00
0.000000000000000e+00 0.000000000000000e+00 0.000000000000000e+00
0.000000000000000e+00 0.000000000000000e+00 0.000000000000000e+00
0.000000000000000e+00 0.000000000000000e+00 0.000000000000000e+00
0.000000000000000e+00 0.000000000000000e+00 0.000000000000000e+00
-1.089041275058533e-01 -1.548841541891114e-02  2.097216696442590e-18
-1.099999002494080e-01 -1.481388544706340e-04  1.959101510483926e-18
-1.083223094138374e-01  1.913837201155821e-02  1.731084887552300e-18
-1.097787597893272e-01 -6.973083902917852e-03  2.025289883276073e-18
-1.081842573718502e-01  1.990393068972061e-02  1.720762249478186e-18
-1.096321487506930e-01 -8.988434808455873e-03  2.043387763394577e-18
-1.097601264047159e-01  7.260485632566620e-03  1.878713523642416e-18
-1.096466820040138e-01  8.809377135223059e-03  1.860780347688796e-18
-1.096466820040138e-01  8.809377135223059e-03  1.860780347688796e-18
-1.091400940984261e-01 -1.372733988020397e-02  2.083321592016792e-18
-1.095623600253730e-01 -9.802513232353987e-03  2.050510149854616e-18
-1.095988916924901e-01  9.385251183519804e-03  1.854012965441228e-18
-1.096755741324641e-01 -8.442063652584058e-03  2.038546804717321e-18
-1.099908119036295e-01  1.421723172884810e-03  1.942810010484789e-18
-1.096312745676168e-01  8.999090880735321e-03  1.858556914161903e-18
-1.099171509445352e-01  4.268480787844984e-03  1.912249725503755e-18
 4.626282582065974e-02  9.979855182860738e-02 -1.848696035850097e-18
-1.045018631821484e-01 -3.434181986236982e-02  2.212585033344441e-18
-1.049291279673406e-01  3.301330192533569e-02  1.528139311680261e-18
-9.768169457417571e-02 -5.057950716562366e-02  2.258048335926844e-18
-1.078500710286454e-01  2.164167690166506e-02  1.696960293814797e-18
-1.088892206929089e-01 -1.559287070718166e-02  2.098024652066111e-18
-1.089362258243904e-01  1.526101907270055e-02  1.781848655299269e-18
-1.076120331630425e-01 -2.279583993881686e-02  2.149303468709749e-18
-1.099164027996495e-01  4.287702833119116e-03  1.912038911840724e-18
-1.093115839236047e-01 -1.228729506899869e-02  2.071577520708335e-18
-1.097979761423753e-01 -6.663665285584503e-03  2.022452697310508e-18
-1.097979761423753e-01 -6.663665285584503e-03  2.022452697310508e-18
-1.053373238756110e-01 -3.168671959551103e-02  2.200172862238321e-18
-1.099911058824913e-01  1.398794747815547e-03  1.943050823427649e-18
-1.087604346792496e-01 -1.646717487550931e-02  2.104715909051356e-18
-6.389991983377004e-02 -8.953658607093354e-02  2.057131191819660e-18
-1.047101627654244e-01  3.370136219262156e-02  1.517172995427295e-18
-1.099863745176497e-01  1.731305999301786e-03  1.939550190829337e-18
-1.091185768169983e-01  1.389734483391567e-02  1.799105066148473e-18
-1.098466099573981e-01 -5.807088846157410e-03  2.014517182315997e-18
-1.098907445598783e-01  4.901454893753999e-03  1.905276213393311e-18
-1.099978953410691e-01  6.804561228598608e-04  1.950552318361313e-18
-1.099780981016606e-01 -2.194980168807461e-03  1.979744066204035e-18
-1.093291611875408e-01  1.212990164958654e-02  1.821012502873756e-18
-1.099170057430059e-01 -4.272218216797931e-03  1.999999721150015e-18
-1.080906195101386e-01  2.040632191048588e-02  1.713933964744762e-18
-1.092555459501367e-01 -1.277598055483420e-02  2.075601323967435e-18
-1.099019709119938e-01  4.642928995709991e-03  1.908132259407811e-18
-1.097990481651868e-01 -6.645977882818311e-03  2.022290043597100e-18
-1.062470339880168e-01  2.848802851636345e-02  1.598088561747998e-18
-1.096468778387771e-01 -8.806939321252222e-03  2.041785084887636e-18
-1.095506099010252e-01  9.932968856959622e-03  1.847526133245099e-18
-1.091898365715947e-01 -1.332589919924229e-02  2.080082161496852e-18
-1.097429564096275e-01  7.515551774455108e-03  1.875787251149048e-18
-1.069362111638637e-01 -2.578074362615394e-02  2.167945211141826e-18
-1.085568105224938e-01  1.776003629453780e-02  1.749420013286272e-18
-1.099737969205140e-01  2.400831290504168e-03  1.932447228337520e-18
-1.088558986018830e-01 -1.582382190169233e-02  2.099804585333901e-18
-1.094401666092120e-01 -1.108376887831242e-02  2.061500008575086e-18
-1.096581089317140e-01  8.665976316623204e-03  1.862457094815444e-18
-1.099908915577783e-01  1.415547358791530e-03  1.942874882271693e-18
-1.099999483917929e-01  1.065542248643430e-04  1.956485488367644e-18
-1.099817521023599e-01 -2.003547976707598e-03  1.977842197273152e-18
-1.099832203922723e-01 -1.921257958935958e-03  1.977022827204592e-18
-1.099563990904584e-01 -3.096820798781396e-03  1.988623991276213e-18
-1.099923216918826e-01 -1.299680279657079e-03  1.970798310834409e-18
-1.098952464143236e-01 -4.799459921180410e-03  2.005029704921325e-18
-1.099990056232801e-01  4.677198836001018e-04  1.952757864735045e-18
-1.098357099278697e-01 -6.009727501375793e-03  2.016405241858046e-18
-1.099233565179874e-01  4.105568391752388e-03  1.914034026774045e-18
-1.086617451073598e-01 -1.710628978542978e-02  2.109526283925634e-18
-1.099874761284058e-01  1.659847855461285e-03  1.940304001776051e-18
-1.099877416745694e-01 -1.642157522317544e-03  1.974235633219214e-18
-1.089981268141575e-01  1.481243906332672e-02  1.787559253890356e-18
-1.099270656346069e-01 -4.005026961800474e-03  1.997433455838782e-18
-1.097025263411408e-01  8.084288117777514e-03  1.869224190531627e-18
-1.098895005581929e-01 -4.929266382621903e-03  2.006261164793904e-18
-1.099178580299570e-01  4.250233653123671e-03  1.912449791612878e-18
-1.099467749399192e-01 -3.421502639292741e-03  1.991788706000879e-18
-1.099958883405312e-01 -9.510773771397180e-04  1.967280015415677e-18
-1.099958883405312e-01 -9.510773771397180e-04  1.967280015415677e-18
-1.098796628566181e-01 -5.143898377286804e-03  2.008291356935055e-18
-1.099611460495396e-01 -2.923415719966425e-03  1.986926794883729e-18
-1.096079643889706e-01 -9.278692930908088e-03  2.045939670595288e-18
-6.869321596256753e-02 -8.591415529887950e-02  2.105214453824990e-18
-1.046277285877479e-01  3.395641928367136e-02  1.513085361948916e-18
-1.099998948395393e-01  1.521028935564847e-04  1.956016539317132e-18
-1.089893484621841e-01  1.487689220867518e-02  1.786740799991324e-18
-1.097744042286014e-01 -7.041319212728855e-03  2.025913463897826e-18
-1.097502822069982e-01  7.407803688284744e-03  1.877024694895384e-18
-1.099479284676236e-01 -3.384231918510981e-03  1.991426291285711e-18
-1.099892414913744e-01  1.538426518253657e-03  1.941582978646780e-18
-1.099731360618605e-01  2.430914379287652e-03  1.932126374760557e-18
-1.099999906123249e-01  4.544544368369328e-05  1.957114110259933e-18
-1.099928039875773e-01  1.258201474463655e-03  1.944525588043396e-18
-1.099818748443837e-01 -1.996798866747394e-03  1.977775036960795e-18
-1.099920588907236e-01  1.321734080485448e-03  1.943859553708810e-18
-5.571862498835269e-02  9.484426619151654e-02  1.708901434482961e-20
-1.091097454955759e-01 -1.396651129991233e-02  2.085238901881308e-18
-1.099626016828630e-01 -2.868140710626607e-03  1.986384768973926e-18
-1.098143358283594e-01 -6.388399375134513e-03  2.019915580203505e-18
-1.096908948767360e-01  8.240605629490166e-03  1.867411089100871e-18
-1.099038606495972e-01 -4.597979372924247e-03  2.003112866072246e-18
-1.099989746257783e-01  4.749539738931014e-04  1.952682985447702e-18
-1.099989746257783e-01  4.749539738931014e-04  1.952682985447702e-18
-1.089082399520490e-01  1.545947187153706e-02  1.779311582902384e-18
-1.099345304400010e-01  3.794603659991586e-03  1.917427929699250e-18
-1.098433207789431e-01  5.868976082260358e-03  1.894491321903348e-18
 4.468127634900051e-02 -1.005165834269360e-01  2.376147695215561e-19
-1.093988811553337e-01  1.148411084764930e-02  1.828888518758170e-18
-1.099750737514776e-01 -2.341613408951232e-03  1.981196847559763e-18
-1.099409385223096e-01  3.604169368061863e-03  1.919498612338006e-18
-1.094380762788907e-01 -1.110438923919852e-02  2.061674675370899e-18
-1.099299020251765e-01  3.926403027582809e-03  1.915991370913421e-18
-1.099847192898737e-01  1.833445588940875e-03  1.938471286897491e-18
-1.099441904635278e-01 -3.503567227761592e-03  1.992585895995416e-18
-1.099441904635278e-01 -3.503567227761592e-03  1.992585895995416e-18
-1.099479251678386e-01 -3.384339121200310e-03  1.991427334030792e-18
-1.099772819090902e-01 -2.235500813782157e-03  1.980145875990778e-18
-1.097892436020776e-01 -6.806025953783583e-03  2.023759995489540e-18
-1.066278118214226e-01  2.702794380220644e-02  1.619866797532582e-18
-1.099198776406022e-01 -4.197677866983161e-03  1.999284954977500e-18
-1.099621735218099e-01  2.884509379306527e-03  1.927270759436679e-18
-1.098644604219161e-01 -5.458968419138627e-03  2.011258041699491e-18
-1.099900257906447e-01 -1.481292197120067e-03  1.972623449010739e-18
-1.091886836148384e-01  1.333534290742683e-02  1.806127065877875e-18
-1.099959030048686e-01 -9.493798731137770e-04  1.967262835147839e-18
-1.072354604086666e-01  2.450624473356155e-02  1.656590170841135e-18
-1.099923745523487e-01  1.295198956058605e-03  1.944137810047994e-18
-1.088969883052979e-01  1.553853075537494e-02  1.778299045115399e-18
-1.088792760319622e-01 -1.566215983687124e-02  2.098559595598941e-18
-1.099992757602990e-01  3.991643892331411e-04  1.953467054945894e-18
 7.297747653200104e-02  8.230606246821170e-02 -2.144386137991021e-18
-1.099851076895042e-01 -1.809996278469701e-03  1.975913240561484e-18
-1.098037355049364e-01 -6.568079564218012e-03  2.021573083473821e-18
-1.099998368716902e-01  1.894418155108027e-04  1.955631863851195e-18
-1.092062472363876e-01 -1.319073783171061e-02  2.078985474901066e-18
-1.099489271110902e-01  3.351630516643352e-03  1.922235523762664e-18
-1.099872075050695e-01 -1.677553348394303e-03  1.974589806290428e-18
-1.099322465842403e-01 -3.860202189228354e-03  1.996037635090094e-18
-1.099322465842403e-01 -3.860202189228354e-03  1.996037635090094e-18
-1.099569009352121e-01 -3.078950588086713e-03  1.988449312279075e-18
-1.076912079448178e-01 -2.241882537926446e-02  2.146838790753758e-18
-1.099759871451258e-01 -2.298314916420012e-03  1.980768226207615e-18
-5.236841489524950e-02  9.673442573023802e-02 -6.195267315658247e-20
-1.088841587313853e-01  1.562817895208615e-02  1.777149624889375e-18
-1.099950020591536e-01  1.048580949056864e-03  1.946718480098456e-18
-1.098030481272029e-01  6.579560925707180e-03  1.886473620895437e-18
-1.099973683439469e-01 -7.608925061955899e-04  1.965352273381652e-18
-1.098872386414799e-01  4.979436087588981e-03  1.904412592955086e-18
-1.098545933456437e-01 -5.654053489593211e-03  2.013086873537435e-18
-1.099829049214782e-01  1.939233104352430e-03  1.937352069756365e-18
-1.099339306557299e-01  3.811940526961848e-03  1.917239125812566e-18
-1.099037793581983e-01  4.599922041121651e-03  1.908606323700409e-18
-1.087747902503131e-01 -1.637208007555337e-02  2.103994319038053e-18
-1.086906860763226e-01  1.692142902529878e-02  1.760418873508555e-18
-1.097311908431655e-01 -7.685424916082026e-03  2.031762382273948e-18
-1.089119223669200e-01  1.543350790785798e-02  1.779643886162393e-18
-1.099013887150544e-01 -4.656689650647703e-03  2.003672101824268e-18
-1.098381582395018e-01  5.964813035971218e-03  1.893414758471340e-18
-1.099932117105938e-01 -1.222038292538692e-03  1.970016406566500e-18
-1.061134072343172e-01  2.898180127465973e-02  1.590637178552201e-18
-1.091029700485617e-01 -1.401934116078822e-02  2.085661132348565e-18
-1.096113239006065e-01  9.238921623017156e-03  1.855737694491150e-18
-1.099384537737531e-01 -3.679182223849990e-03  1.994288185046798e-18
-6.212998356694670e-02  9.077370292089479e-02  1.730103468825106e-19
-9.171155032568137e-02 -6.073706888597722e-02  2.256167754303601e-18
-1.060198812520612e-01 -2.932208688512403e-02  2.188024042840467e-18
-1.077066712882988e-01 -2.234441675216164e-02  2.146349457783395e-18
-1.099503605001381e-01 -3.304273882352817e-03  1.990648032430286e-18
-1.099768012854789e-01  2.259021694056582e-03  1.933957736683927e-18
-1.094924822565485e-01  1.055444594942526e-02  1.840106231114267e-18
-1.098521092678422e-01  5.702112714246766e-03  1.896362184036241e-18
-1.057333600839042e-01  3.033902709988209e-02  1.569928783861171e-18
-2.333218895296701e-02  1.074970183710366e-01 -6.892686791052151e-19
-7.728116008705740e-02 -7.827913065178056e-02  2.179600058928313e-18
-1.057444763392221e-01  3.030025946660566e-02  1.570524934233243e-18
-9.383562661039661e-02 -5.740100328943869e-02  2.259691363372937e-18
-1.097908055864549e-01  6.780782305692070e-03  1.884188273698031e-18
-1.097681888822370e-01  7.137556270422744e-03  1.880120059586478e-18
-1.022976463850047e-01  4.043750170433974e-02  1.405028002248218e-18
 4.258866414978810e-03 -1.099175238843165e-01  1.053571019999822e-18
-1.097923964792805e-01  6.754974118115581e-03  1.884481755285519e-18
-1.097923964792805e-01  6.754974118115581e-03  1.884481755285519e-18
-1.096960887707452e-01 -8.171175460159358e-03  2.036128609405058e-18
-1.067342696110814e-01  2.660442990535452e-02  1.626112792326658e-18
-1.099987131640752e-01  5.320735357350794e-04  1.952091449676793e-18
-1.099614492626348e-01 -2.911988334610030e-03  1.986814778689150e-18
-1.097480112283857e-01  7.441372952220806e-03  1.876639368129865e-18
-1.095939524728059e-01  9.442752850111275e-03  1.853334257399721e-18
-1.097605284107689e-01  7.254405763997726e-03  1.878783146260562e-18
-1.099890000527883e-01  1.555592294802835e-03  1.941402309840938e-18
-1.016375207185139e-01  4.206916189079107e-02  1.376515562906375e-18
-1.032910160978879e-01 -3.782811115382029e-02  2.226856941678935e-18
-3.214939234174861e-02  1.051970368977009e-01 -5.087245531399900e-19
-6.357281018967474e-02 -8.976913614704951e-02  2.053699253065767e-18
-1.094888622897445e-01  1.059193251948331e-02  1.839656648597391e-18
-6.319105310013161e-02 -9.003827412881853e-02  2.049670725273541e-18
-1.099992164794617e-01 -4.151793641889561e-04  1.961833086211266e-18
-4.365632775928471e-02 -1.009659598407990e-01  1.814304986943776e-18
-7.913098786752647e-02  7.640868248510312e-02  6.231588645194273e-19
-7.188194934665426e-02 -8.326455042888875e-02  2.134738040540301e-18
-4.379814686850588e-02  1.009045208644525e-01 -2.573170283058249e-19
-1.099627019783651e-01 -2.864292865124234e-03  1.986347018637298e-18
-9.643489286491337e-02  5.291796895320726e-02  1.172461042827852e-18
-8.865899673342802e-02 -6.511207490336889e-02  2.246795519425685e-18
-1.098879153532055e-01  4.964479763950213e-03  1.904578306639638e-18
-1.090508354827758e-01 -1.441926768280843e-02  2.088842435293918e-18
-1.086248547679879e-01 -1.733900016245036e-02  2.111260790918975e-18
-1.082829614936974e-01 -1.935975852520837e-02  2.125938950371451e-18
-2.836443030338731e-02  1.062800973539458e-01 -5.872105202217625e-19
-1.070402952603057e-01 -2.534512163290038e-02  2.165321654062364e-18
-1.079778686437843e-01  2.099475846837944e-02  1.705881456713725e-18
-9.936321563568219e-02 -4.719058569817548e-02  2.253153072027632e-18
-4.363898158472334e-02  1.009734583256813e-01 -2.608578717610743e-19
-7.742984455866357e-02 -7.813206237916114e-02  2.180735003382341e-18
-1.099965714692118e-01 -8.684843225390178e-04  1.966443558873089e-18
-7.848059457483866e-02 -7.707656112710094e-02  2.188589461368707e-18
-8.370408886128523e-02  7.136963995917309e-02  7.563169831093833e-19
-9.905485494107365e-02 -4.783446155861667e-02  2.254281016205444e-18
-1.074986834394809e-01  2.332451626032582e-02  1.673416369432564e-18
-7.474601809093194e-02 -8.070336287633870e-02  2.159392288533426e-18
-1.088487007640177e-01  1.587325870718632e-02  1.774000502611096e-18
-1.064114207164677e-01 -2.786771503196550e-02  2.180048812195313e-18
-8.846579157243294e-02  6.537433534241685e-02  9.026567398330809e-19
-1.099680765615541e-01  2.649931574983904e-03  1.929786012794327e-18
-1.099680765615541e-01  2.649931574983904e-03  1.929786012794327e-18
-1.095027032292054e-01 -1.044786990235282e-02  2.056079291350202e-18
-1.089281040856276e-01 -1.531888182311671e-02  2.095901492169897e-18
-5.991827305483922e-02  9.224858022823798e-02  1.184964915436137e-19
-1.073000546896144e-01  2.422185508184050e-02  1.660661703482244e-18
-9.809389384490856e-02 -4.977537534106326e-02  2.257121751259392e-18
-1.083822379117208e-01 -1.879602365520641e-02  2.121913521650884e-18
-1.067919142103302e-01  2.637208864108782e-02  1.629525868818653e-18
-1.099927447552598e-01 -1.263368989728957e-03  1.970432754438696e-18
-1.099305766821087e-01  3.907468533328067e-03  1.916197922288395e-18
-1.099965283399051e-01  8.739297273712911e-04  1.948540119942062e-18
-1.099804183686230e-01  2.075469937768008e-03  1.935908034609844e-18
-1.099804183686230e-01  2.075469937768008e-03  1.935908034609844e-18
-1.099965283399055e-01  8.739297273108864e-04  1.948540119942691e-18
-1.099899800582214e-01 -1.484684071438112e-03  1.972657485424163e-18
-1.099917315452683e-01 -1.348699993900386e-03  1.971291468227843e-18
-1.099944777714315e-01  1.102206781865081e-03  1.946158163821679e-18
-1.099942734183706e-01  1.122414880807991e-03  1.945946896239585e-18
-1.099942734183706e-01  1.122414880807991e-03  1.945946896239585e-18
-1.089341098681468e-01  1.527611558068537e-02  1.781655888198494e-18
 5.796559040068586e-04 -1.099984727122740e-01  1.119878679564593e-18
-1.092605780505157e-01  1.273287414793328e-02  1.813596660763642e-18
-1.092605780505157e-01  1.273287414793328e-02  1.813596660763642e-18
-1.096192544785435e-01  9.144345114235682e-03  1.856850567856260e-18
-1.094154810159584e-01  1.132486265022092e-02  1.830820150457272e-18
-1.099977790281578e-01  6.990056312315531e-04  1.950359658974302e-18
-1.098792375222644e-01  5.152975987304521e-03  1.902487144067078e-18
-1.066308011590855e-01 -2.701614784108730e-02  2.175203405321929e-18
-1.099646653870202e-01  2.787896397036815e-03  1.928307768446585e-18
-1.058510799810211e-01  2.992572249506104e-02  1.576270304524519e-18
-1.090581699301817e-01  1.436368934081828e-02  1.793238533142845e-18
-1.098688342580417e-01  5.370219621104554e-03  1.900069906151886e-18
-1.087475535642973e-01 -1.655202687830805e-02  2.105358497750077e-18
-1.055777199070222e-01  3.087628635756396e-02  1.561638837557495e-18
-1.748365678340004e-02 -1.086016654820735e-01  1.426985188666182e-18
-1.071562075736958e-01 -2.485049654278465e-02  2.162302358826583e-18
-1.071562075736958e-01 -2.485049654278465e-02  2.162302358826583e-18
-1.099198015656904e-01 -4.199669482134852e-03  1.999304064255885e-18
-1.049219290790957e-01 -3.303617408722043e-02  2.206645571017519e-18
-1.099820188520015e-01  1.988851235742477e-03  1.936826492817902e-18
-4.835279400578845e-02 -9.880287096959135e-02  1.875659253584786e-18
-1.090827893926403e-01  1.417550910270262e-02  1.795610149430586e-18
-9.752055397180702e-02 -5.088950336790293e-02  2.258365745057876e-18
-1.096342209169277e-01  8.963124674923904e-03  1.858978887661638e-18
-1.076233823385236e-01 -2.274219809112349e-02  2.148954290326722e-18
-9.616833634861592e-02  5.340085283906433e-02  1.162755895150960e-18
-1.095177422947293e-01 -1.028902923823184e-02  2.054714899338881e-18
-1.096575642767823e-01  8.672865552013182e-03  1.862376617640276e-18
-1.084884214368597e-01 -1.817312340073217e-02  2.117403110308175e-18
-8.016754774673995e-02  7.532041083447498e-02  6.527872798956067e-19
-9.088522479506383e-02 -6.196673231622469e-02  2.254096650853677e-18
-1.092169214352236e-01  1.310206366234423e-02  1.809026451074458e-18
-1.093196729471155e-01 -1.221511795831795e-02  2.070979880938284e-18
-1.072913719963521e-01  2.426028637795320e-02  1.660112316991985e-18
-1.088418910715716e-01  1.591988529996606e-02  1.773400244708420e-18
-1.099603678658425e-01 -2.952541076518444e-03  1.987212198634749e-18
-1.097442397452027e-01  7.496788829051415e-03  1.876002872084407e-18
-1.097442397452027e-01  7.496788829051415e-03  1.876002872084407e-18
-1.098790632883892e-01 -5.156689913704261e-03  2.008412115293117e-18
-1.094949754034529e-01  1.052854982403334e-02  1.840416672918445e-18
-1.098992818572443e-01 -4.706149940440680e-03  2.004142794286499e-18
-1.083350095627774e-01  1.906635001862886e-02  1.732050901665788e-18
-1.094553060044042e-01 -1.093325145975152e-02  2.060222920374422e-18
-1.098273800074463e-01 -6.160081225107357e-03  2.017801830879950e-18
-1.096278483660089e-01  9.040733523297987e-03  1.858068077792620e-18
-1.095462879608721e-01  9.980520727578428e-03  1.846960640968307e-18
-1.096337265828838e-01 -8.969169167174971e-03  2.043217895335016e-18
-1.099767531262026e-01 -2.261365034266983e-03  1.980402211138287e-18
-1.095035152585411e-01 -1.043935563252774e-02  2.056006261351392e-18
-1.099848093965367e-01  1.828032277452900e-03  1.938528510262080e-18
-1.094471077938062e-01 -1.101501682118107e-02  2.060917132823318e-18
-1.074912840382874e-01  2.335859276155435e-02  1.672934564590898e-18
-1.099417796876181e-01 -3.578418522079246e-03  1.993312063220202e-18
-1.099847137112783e-01  1.833780207136206e-03  1.938467749539330e-18
-1.094197138112889e-01 -1.128389247802160e-02  2.063192223926888e-18
-1.094531515957339e-01  1.095479829851859e-02  1.835292820139401e-18
-1.090271548143593e-01 -1.459724333857750e-02  2.090249644761677e-18
-1.098277179231226e-01  6.154053607090156e-03  1.891284582465159e-18
 4.415199764715918e-02  1.007501915817790e-01 -1.820909083375963e-18
-1.098656268294313e-01  5.435443070816863e-03  1.899342678881826e-18
-1.067350484528645e-01 -2.660130507634158e-02  2.172796251558166e-18
-1.068994252958832e-01  2.593285312899087e-02  1.635952142155013e-18
-1.093213343689483e-01 -1.220023982520490e-02  2.070856580508679e-18
-1.084447530596105e-01  1.843191617385501e-02  1.740522495382071e-18
-1.093241658704022e-01 -1.217484113821256e-02  2.070646008172359e-18
-1.056177924429434e-01  3.073893165806603e-02  1.563763245774766e-18
-1.099127168665525e-01 -4.381172333175427e-03  2.001042859443431e-18
-1.059867223703446e-01  2.944171668214042e-02  1.583657206544900e-18
-1.093491362741484e-01 -1.194848928097827e-02  2.068764703186881e-18
-1.097751645632393e-01  7.029455534653677e-03  1.881354895940922e-18
-1.084903859947566e-01 -1.816139165121003e-02  2.117317532494829e-18
-1.087959221742299e-01  1.623106029373474e-02  1.769384963326553e-18
-1.095619580408114e-01 -9.807005162812139e-03  2.050549149013503e-18
-1.099963395600135e-01 -8.973758399474465e-04  1.966736281618183e-18
-1.099210615817489e-01 -4.166559820917516e-03  1.998986298003434e-18
-1.097203455880580e-01  7.838734849263248e-03  1.872064275917581e-18
-1.076079581338051e-01 -2.281506840386795e-02  2.149428514196845e-18
-1.099146231754261e-01  4.333083452232491e-03  1.911540971928948e-18
-1.060767382242333e-01 -2.911572784093509e-02  2.186915616267027e-18
-1.099937939521295e-01  1.168457109358528e-03  1.945465296393366e-18
-1.031324794481811e-01 -3.825822372863701e-02  2.228454843346667e-18
-1.090561667978750e-01 -1.437889019896878e-02  2.088522448427064e-18
-9.140011171975464e-02 -6.120473492807808e-02  2.255430431506587e-18
-2.804046931728878e-02  1.063660287895817e-01 -5.938587066887595e-19
-1.022673496298249e-01  4.051406175257041e-02  1.403702208667025e-18
-1.092520465134985e-01 -1.280587102122641e-02  2.075846161002007e-18
-9.814320204268957e-02  4.967808262008240e-02  1.236151097506012e-18
-1.099364284543038e-01 -3.739210974480042e-03  1.994868915677303e-18
-1.073060836878907e-01  2.419513181545673e-02  1.661043568552513e-18
-1.098953240226985e-01 -4.797682559948760e-03  2.005012824313939e-18
-1.062275229832825e-01  2.856069608458653e-02  1.596994707279743e-18
-1.098942388672212e-01 -4.822474861941745e-03  2.005248244574443e-18
-1.076945079800168e-01  2.240296745839789e-02  1.686369879886816e-18
-1.099288400128760e-01 -3.956024952325794e-03  1.996961555170315e-18
-1.099482351424838e-01  3.374253851301660e-03  1.921990762810699e-18
-1.099929018499435e-01 -1.249616992769433e-03  1.970294253352932e-18
-1.095516456027942e-01  9.921539483351506e-03  1.847661997455368e-18
-6.073808326514034e-02 -9.171087853290252e-02  2.023202603694089e-18
-1.045834041841007e-01  3.409269084811226e-02  1.510896415492888e-18
-1.099999777846092e-01  6.990983769459865e-05  1.956862519214183e-18
-1.099811691015772e-01  2.035299253233173e-03  1.936334133989004e-18
-1.096203361462026e-01 -9.131369185039259e-03  2.044646142802504e-18
-1.099786860828079e-01  2.165319260323211e-03  1.934954037367857e-18
-1.099567234234268e-01 -3.085283452771559e-03  1.988511221129201e-18
-1.099660710146355e-01  2.731890481710421e-03  1.928908223701323e-18
-1.088887886883393e-01 -1.559588721381732e-02  2.098047957539351e-18
-1.099595301866723e-01 -2.983575225500913e-03  1.987516155741672e-18
-1.090639940391528e-01 -1.431939957636331e-02  2.088050498986249e-18
-1.087857901290402e-01 -1.629883020343295e-02  2.103437459174683e-18
-1.037728877737051e-01 -3.648544590800468e-02  2.221637025298625e-18
-1.245382891355463e-02  1.092927360138442e-01 -9.013124186310372e-19
-1.056432699589162e-01  3.065125629378807e-02  1.565117481080183e-18
 4.904579752070561e-02 -9.846070152887335e-02  1.388194694223424e-19
-1.049289768819053e-01  3.301378212983928e-02  1.528131689007888e-18
-9.837778070819683e-02  4.921191179917590e-02  1.245115440512542e-18
-9.892174765974579e-02 -4.810912428990467e-02  2.254734273144961e-18
-1.034429298959786e-01 -3.741069706027373e-02  2.225271650748725e-18
-1.097532645851528e-01  7.363485105665219e-03  1.877533127208896e-18
-1.096046441728100e-01  9.317831064772488e-03  1.854808054918653e-18
-1.097049540361165e-01  8.051276913228315e-03  1.869606572394295e-18
-1.099573991819998e-01 -3.061105213854080e-03  1.988274824437467e-18
-1.099698320678579e-01  2.576050264856222e-03  1.930576357745638e-18
-1.096522812775784e-01 -8.739405621824204e-03  2.041187361298001e-18
-1.070924995165915e-01 -2.512362528157094e-02  2.163974896527848e-18
-1.080665458081559e-01 -2.053342828398780e-02  2.134146605508021e-18
-8.096795833127991e-03  1.097016038954608e-01 -9.830519885080031e-19
-1.084452381017371e-01  1.842906218605512e-02  1.740560450973162e-18
-2.857444253290380e-02 -1.062238261122885e-01  1.599927514923318e-18
-6.250413412939550e-02  9.051648035984647e-02  1.823116708173947e-19
-1.074497400826084e-01  2.354895658367550e-02  1.670239321225609e-18
-1.099738513422626e-01 -2.398337121810169e-03  1.981757908873159e-18
-1.042489533078758e-01 -3.510207592454133e-02  2.215895555309439e-18
-1.087668143034182e-01  1.642498420960195e-02  1.766874456255820e-18
-1.099999999194923e-01  4.208518097505727e-06  1.957537970322277e-18
-1.095938213660589e-01  9.444274370448376e-03  1.853316291130029e-18
-1.099241850662639e-01  4.083324321884715e-03  1.914277321516208e-18
-1.099999770529596e-01  7.105172974600713e-05  1.956850773667593e-18
-8.166821657954344e-02 -7.369058556367096e-02  2.210527328389570e-18
-1.099954051402246e-01 -1.005409388151619e-03  1.967829657965716e-18
-1.034261704307161e-01 -3.745700562026275e-02  2.225449199704274e-18
-1.041928818743754e-01  3.526816364247492e-02  1.491869049213071e-18
-1.065554747708993e-01  2.731173367525686e-02  1.615663635578927e-18
-1.070787325206830e-01 -2.518223663148222e-02  2.164332106742299e-18
-1.059513282254069e-01  2.956883574427662e-02  1.581721223331345e-18
-1.097286490277069e-01  7.721630822193446e-03  1.873415246868428e-18
-1.099550203964050e-01  3.145391808041025e-03  1.924462988853430e-18
-1.099999967715710e-01 -2.665059675732322e-05  1.957854980496161e-18
-1.099701738411838e-01 -2.561418618607306e-03  1.983368066491520e-18
-1.099701738411838e-01 -2.561418618607306e-03  1.983368066491520e-18
-1.099241496943526e-01  4.084276432060979e-03  1.914266909444667e-18
-1.093995244016975e-01  1.147798155959202e-02  1.828962942302697e-18
-1.098759725766654e-01 -5.222130822931372e-03  2.009029493960753e-18
-1.099519834555006e-01  3.249820641398380e-03  1.923335974540708e-18
-1.098071171501594e-01 -6.511299652995812e-03  2.021049870923048e-18
-1.099360386726648e-01 -3.750653404713693e-03  1.994979545862029e-18
-1.099411271342737e-01  3.598411378010911e-03  1.919561130168952e-18
-1.097913527095825e-01  6.771917763821474e-03  1.884289090354205e-18
-1.074267567733021e-01  2.365358174082127e-02  1.668755320338681e-18
-1.094094106037885e-01 -1.138335940447856e-02  2.064030852595160e-18
-1.098469622407096e-01  5.800421233672799e-03  1.895260502224395e-18
-1.099896411445430e-01 -1.509583020102183e-03  1.972907281703431e-18
-1.099838198819780e-01 -1.886627723888997e-03  1.976677682754070e-18
-1.099532048655884e-01  3.208230008255286e-03  1.923785039637029e-18
-1.099940900298093e-01 -1.140244936024901e-03  1.969191640279651e-18
-1.099439505205059e-01  3.511088712132733e-03  1.920508584364880e-18
-1.097964240552559e-01 -6.689190136209374e-03  2.022687334636541e-18
-1.099999999020928e-01  4.641067193054077e-06  1.957533525727810e-18
-1.078068405786180e-01 -2.185600888671960e-02  2.143113876398092e-18
-9.222737455438811e-02  5.995090810658773e-02  1.025322340647493e-18
-5.189918982350717e-02 -9.698697900060348e-02  1.920113967135490e-18
-5.393943433329510e-02  9.586729068772137e-02 -2.508501072027864e-20
-1.045225587590619e-01  3.427877930233784e-02  1.507901607308726e-18
-1.085662659988351e-01  1.770214357274569e-02  1.750183111452307e-18
-1.092251186875707e-01 -1.303355084717957e-02  2.077706275721039e-18
-1.082531953509392e-01  1.952551398328126e-02  1.725877177238956e-18
-1.099998179288941e-01 -2.001389769033921e-04  1.959634327860023e-18
-1.098120894956259e-01  6.426896654262261e-03  1.888203092761987e-18
-1.093945891469116e-01 -1.152492366041246e-02  2.065221608393830e-18
-1.099988914224615e-01 -4.938479821202537e-04  1.962635592905387e-18
-1.099595090449179e-01  2.984354302115552e-03  1.926197471581028e-18
-1.099417471701986e-01  3.579417433613109e-03  1.919767320326571e-18
-1.099603572103392e-01 -2.952937888702424e-03  1.987216086108398e-18
-1.096026896022120e-01 -9.340793968453122e-03  2.046483865074168e-18
-1.458404594358998e-02  1.090289209518061e-01 -8.606920616407415e-19
-1.098296050011173e-01 -6.120283106072381e-03  2.017432516080830e-18
-1.098296050011173e-01 -6.120283106072381e-03  2.017432516080830e-18
-1.098192906762482e-01 -6.302649868557875e-03  2.019122712602314e-18
-1.093178613506659e-01  1.223132003164489e-02  1.819769371764386e-18
-1.095016789452188e-01 -1.045859972358466e-02  2.056171308010168e-18
-1.096893747263002e-01  8.260815465389744e-03  1.867176387488353e-18
-1.096684585226872e-01 -8.534002885959674e-03  2.039364816177569e-18
-1.057811603317728e-01  3.017194257689911e-02  1.572496179066807e-18
-1.096563216478961e-01 -8.688562749561700e-03  2.040736872464601e-18
-1.067842123866044e-01  2.640325709022471e-02  1.629068561186110e-18
-1.078335566468166e-01 -2.172381322184734e-02  2.142231058266113e-18
-1.064784008646679e-01  2.761068904071425e-02  1.611220355702326e-18
-1.079277737727936e-01 -2.125077994918341e-02  2.139047519371986e-18
-1.079379834138710e-01  2.119886168044991e-02  1.703074565111437e-18
-1.099708309637327e-01 -2.533048982165078e-03  1.983088273062557e-18
-1.048603023994618e-01  3.323126510822842e-02  1.524674986077323e-18
-1.059609395690144e-01 -2.953437464466816e-02  2.189156284893699e-18
-9.116360855101663e-02  6.155644950739875e-02  9.898950010654805e-19
-9.574417915125967e-02 -5.415766020288740e-02  2.260332160441075e-18
-1.056612439912660e-01  3.058923860147656e-02  1.566074559685295e-18
-9.304037361581577e-02 -5.868124809024882e-02  2.258692937974213e-18
-6.827729649010458e-02  8.624506237462103e-02  3.289392496175795e-19
-1.028420593912629e-01  3.903217672848750e-02  1.429155684706377e-18
-1.081454772601587e-01  2.011357124362581e-02  1.717918130597095e-18
-1.060221325326750e-01  2.931394571230267e-02  1.585600172921879e-18
-7.606833486881534e-02 -7.945821814189957e-02  2.170131083091570e-18
-1.093633605028515e-01 -1.181758772014271e-02  2.067672874319139e-18
-1.082609065874403e-01  1.948271297497982e-02  1.726454172702702e-18
-9.711167465912839e-02  5.166548794794771e-02  1.197373969488917e-18
-1.029287296608349e-01 -3.880304898338132e-02  2.230426754412341e-18
 1.061248390118660e-01 -2.893991265891172e-02 -1.591271010979873e-18
 1.093109225356291e-01  1.229317755544155e-02 -2.071626190931638e-18
 1.070986165526689e-01  2.509753638316583e-02 -2.163815702527750e-18
 1.080380441392193e-01 -2.068286775502933e-02 -1.710156915213604e-18
 1.099847287503064e-01  1.832877988700372e-03 -1.976141598146790e-18
 1.099847287503064e-01  1.832877988700372e-03 -1.976141598146790e-18
 1.073289377558674e-01 -2.409354934826077e-02 -1.662494006901906e-18
 1.099999074361553e-01 -1.427026180557159e-04 -1.956113347904858e-18
 1.099713405071472e-01  2.510829954618921e-03 -1.982869048558925e-18
 1.099700374100298e-01 -2.567269373592265e-03 -1.930670232522417e-18
 1.099558753836786e-01 -3.115360109019161e-03 -1.924786769169621e-18
 1.099558753836786e-01 -3.115360109019161e-03 -1.924786769169621e-18
 1.098429769763666e-01 -5.875407132220125e-03 -1.894419126824276e-18
 1.099857923382556e-01  1.767903766058710e-03 -1.975492939428678e-18
 1.094446488672650e-01 -1.103942182910826e-02 -1.834272027908379e-18
 1.095738045539627e-01  9.673745684579134e-03 -2.049390779116582e-18
 1.000632024863184e-01 -4.568758593077513e-02 -1.311320699508970e-18
 1.099839472238320e-01  1.879189470297003e-03 -1.976603523600707e-18
 1.096113253067648e-01 -9.238904940224326e-03 -1.855737890925050e-18
 1.099426775713390e-01 -3.550725058987181e-03 -1.920078681650849e-18
 1.099426775713390e-01 -3.550725058987181e-03 -1.920078681650849e-18
 1.095623775144590e-01 -9.802317755463924e-03 -1.849077944569127e-18
 1.099999567034503e-01  9.759733088380025e-05 -1.958583219356385e-18
 1.099668293344376e-01 -2.701193464119966e-03 -1.929237119611149e-18
 1.059889508275173e-01 -2.943369332044576e-02 -1.583779301725242e-18
 1.027160171810848e-01  3.936267031662133e-02 -2.232391188007151e-18
 1.099661283578034e-01 -2.729581285664169e-03 -1.928932970341906e-18
 1.080715143516904e-01  2.050726178045985e-02 -2.133966175348704e-18
 1.099577784188522e-01 -3.047452245815300e-03 -1.925518364575991e-18
 1.060802241460690e-01  2.910302467304210e-02 -2.186847131968848e-18
 1.087387748098243e-01 -1.660960122514237e-02 -1.764478587252009e-18
 1.090535137320910e-01  1.439899797501752e-02 -2.088681834051068e-18
 1.095559273928338e-01 -9.874146702173818e-03 -1.848225140626784e-18
 1.097232830120336e-01  7.797510183455298e-03 -2.032773288391040e-18
 9.818013426438020e-02 -4.960505252318773e-02 -1.237558708161189e-18
 1.032506599499414e-01  3.793812356853586e-02 -2.227269093484504e-18
 1.097883185291893e-01 -6.820932086834259e-03 -1.883731489131353e-18
 1.098615837396205e-01 -5.516558548794254e-03 -1.898437295206591e-18
 1.098397794667835e-01 -5.934883881618613e-03 -1.893751121333254e-18
 1.096227542520321e-01  9.102293677887516e-03 -2.044390435606478e-18
 1.098954544010408e-01 -4.794695192469023e-03 -1.906456947782852e-18
 1.098954544010408e-01 -4.794695192469023e-03 -1.906456947782852e-18
 1.099811032147823e-01  2.038856458735956e-03 -1.978193431370965e-18
 1.094203593173576e-01 -1.127763126105227e-02 -1.831392251015612e-18
 1.098773089325976e-01  5.193937016409494e-03 -2.008763594888623e-18
 1.096438365054706e-01 -8.844722514672521e-03 -1.860366547714110e-18
 1.082691884316889e-01  1.943663644624170e-02 -2.126483735014971e-18
 1.090941100405104e-01 -1.408812104110915e-02 -1.796709494450477e-18
 9.749123127068121e-02  5.094565560797584e-02 -2.258420856482203e-18
 1.090201322383005e-01 -1.464959954208273e-02 -1.789623983587837e-18
 1.097560559524874e-01  7.321760837011170e-03 -2.028468370250830e-18
 1.079744615624903e-01 -2.101227380104877e-02 -1.705640859957627e-18
 1.098283570432012e-01 -6.142636990009932e-03 -1.891413257962497e-18
 1.098283570432012e-01 -6.142636990009932e-03 -1.891413257962497e-18
 1.099554006559776e-01  3.132070654275734e-03 -1.988968402403589e-18
 1.099868787107887e-01  1.698973648469542e-03 -1.974804040805890e-18
 1.096274939353715e-01  9.045030317805463e-03 -2.043886423702501e-18
 1.089861514803604e-01 -1.490029481251501e-02 -1.786443452633317e-18
 1.090934023303401e-01  1.409360024942022e-02 -2.086253848549513e-18
 1.096821302149202e-01 -8.356453285767241e-03 -1.866064818904890e-18
 1.094499671780913e-01  1.098656837755299e-02 -2.060675721553700e-18
 9.360197931987399e-02 -5.778122071574646e-02 -1.072077821892662e-18
 1.056758945593981e-01  3.053858721471768e-02 -2.194401488289093e-18
 1.087442622801883e-01 -1.657363632814294e-02 -1.764945769584478e-18
 1.088712870362291e-01 -1.571759711517454e-02 -1.776001818577489e-18
 1.094615134664313e-01 -1.087092772665768e-02 -1.836303369260948e-18
 1.094615134664313e-01 -1.087092772665768e-02 -1.836303369260948e-18
 1.096675620077756e-01  8.545515974510288e-03 -2.039467154427798e-18
 1.096675620077756e-01  8.545515974510288e-03 -2.039467154427798e-18
 1.085569023283354e-01 -1.775947512952405e-02 -1.749427412847393e-18
 1.080094542670706e-01 -2.083165353325359e-02 -1.708119404513853e-18
 9.350192469619605e-02 -5.794298989616269e-02 -1.068635110952184e-18
 2.520767521758608e-02  1.070727468132046e-01 -1.548734226335081e-18
 9.933509164356398e-02 -4.724975733445282e-02 -1.282312354859570e-18
 1.094303197394695e-01  1.118056893531773e-02 -2.062319357203282e-18
 1.009698411674099e-01 -4.364735014440108e-02 -1.348418097862359e-18
 1.099981461200316e-01 -6.386314712683181e-04 -1.950986514373493e-18
 1.099856410075460e-01 -1.777293492680432e-03 -1.939064632353558e-18
 1.099166870712529e-01 -4.280409242140538e-03 -1.912118909790748e-18
 1.087623630195142e-01 -1.645443376149217e-02 -1.766492656901573e-18
 1.087623630195142e-01 -1.645443376149217e-02 -1.766492656901573e-18
 1.098646951836379e-01 -5.454241671053306e-03 -1.899132950345191e-18
 1.091391941584285e-01  1.373449301753718e-02 -2.083379072398617e-18
 1.099216961985955e-01  4.149783708051144e-03 -1.998825223301798e-18
-6.347648585882450e-02 -8.983727368422523e-02  2.052685135140525e-18
 1.086902878288110e-01  1.692398687337430e-02 -2.108161139504919e-18
 1.099586605375458e-01 -3.015455651921216e-03 -1.925862816309185e-18
 1.072006929866117e-01  2.465788764655552e-02 -2.161115043374099e-18
 5.946215668872924e-02 -9.254324352390586e-02 -1.073517984131634e-19
 1.076883674137008e-01 -2.243246584242845e-02 -1.685957516004497e-18
 1.086143333331598e-01  1.740478654259165e-02 -2.111749480593424e-18
 1.095395257709718e-01  1.005446636428528e-02 -2.052692513963077e-18
 1.088478498511383e-01 -1.587909263100347e-02 -1.773925418153478e-18
 1.088478498511383e-01 -1.587909263100347e-02 -1.773925418153478e-18
 1.096589177338756e-01  8.655735753534680e-03 -2.040445787452262e-18
 1.097168223898818e-01 -7.887894818458165e-03 -1.871496475578347e-18
 1.059460341331477e-01  2.958779903030679e-02 -2.189439941037489e-18
 1.095993480543787e-01  9.379920365072290e-03 -2.046826407756289e-18
 1.048184180819276e-01  3.336314180052814e-02 -2.208162943826731e-18
 1.093290858938865e-01 -1.213058026671049e-02 -1.821004190388939e-18
 1.095975900792667e-01  9.400438756618633e-03 -2.047005941511577e-18
 1.087850581370737e-01 -1.630371510157807e-02 -1.768445123069094e-18
 1.099563921142350e-01  3.097068488188122e-03 -1.988626412044671e-18
 1.097227918232234e-01 -7.804418909662690e-03 -1.872460393403719e-18
 1.097227918232234e-01 -7.804418909662690e-03 -1.872460393403719e-18
 1.099632978668324e-01  2.841324031187541e-03 -1.986121626758598e-18
 3.140665679886383e-02 -1.054211644249783e-01  5.242452470162961e-19
 1.013041162058185e-01  4.286579101985593e-02 -2.243258018617871e-18
 1.082469583591689e-01  1.956006150267154e-02 -2.127356271975505e-18
 1.096705986842955e-01  8.506455444432820e-03 -2.039119862951777e-18
 8.936105135746997e-02  6.414516739620796e-02 -2.249354795515385e-18
 1.098804377627370e-01 -5.127318701739479e-03 -1.902772123066609e-18
 1.065131562940332e-01 -2.747630863640132e-02 -1.613219579863411e-18
 1.090890272574156e-01  1.412742481950518e-02 -2.086523524078166e-18
 1.089949213298208e-01  1.483600769432602e-02 -2.092129228473866e-18
 1.087735634633378e-01 -1.638022867627785e-02 -1.767454412453776e-18
 1.099005377249098e-01 -4.676730457873398e-03 -1.907759456389461e-18
 1.099005377249098e-01 -4.676730457873398e-03 -1.907759456389461e-18
 1.099972759968539e-01 -7.741274261293285e-04 -1.949578857779238e-18
 9.186557650057996e-04 -1.099961638948620e-01  1.113822050404264e-18
 1.095326361912346e-01  1.012924523341100e-02 -2.053338231388705e-18
 1.049593068416167e-01  3.291722812338980e-02 -2.206088626318700e-18
 1.097756380569624e-01  7.022057332912236e-03 -2.025737512527450e-18
 1.099113559459091e-01 -4.415182230846328e-03 -1.910639292556287e-18
 1.048094370956735e-01 -3.339134462234178e-02 -1.522125018466880e-18
 1.012286120931495e-01  4.304379274291006e-02 -2.243743235909800e-18
 1.096527441542884e-01  8.733596019629674e-03 -2.041135907189111e-18
 1.099873586179163e-01 -1.667616338907254e-03 -1.940222092191378e-18
 1.098367072121400e-01  5.991473007077812e-03 -2.016235431423665e-18
 1.099807954871800e-01  2.055389015980285e-03 -1.978357821011091e-18
 1.099807954871800e-01  2.055389015980285e-03 -1.978357821011091e-18
 1.099981694993436e-01 -6.345918322746187e-04 -1.951028436259414e-18
 1.097538160769193e-01  7.355260468106744e-03 -2.028772705533324e-18
 1.089846954739910e-01 -1.491094069605791e-02 -1.786308158677130e-18
 1.086968673589468e-01  1.688167723750977e-02 -2.107843513953408e-18
 1.022480710555544e-01 -4.056269179206724e-02 -1.402859467451639e-18
 1.023132336806369e-01  4.039804715343713e-02 -2.235861296034576e-18
 1.099866244732372e-01  1.715353311433321e-03 -1.974967811432084e-18
 1.099587731525604e-01 -3.011346340709318e-03 -1.925907042107607e-18
 1.095133589641873e-01 -1.033557973124815e-02 -1.842726527913261e-18
 1.090761610392846e-01 -1.422642235180622e-02 -1.794969074836826e-18
 1.099420586562114e-01  3.569837311994032e-03 -1.993228858982767e-18
 1.087146220212554e-01 -1.676696033201893e-02 -1.762431951909849e-18
 1.096574774059225e-01  8.673963855672996e-03 -2.040607442225972e-18
 1.055525487903375e-01 -3.096222608055435e-02 -1.560307888076615e-18
 1.067091438221525e-01  2.670502995211034e-02 -2.173400983172722e-18
 1.066350284622665e-01 -2.699945749180074e-02 -1.620287912755875e-18
 1.089104472977629e-01  1.544391366853388e-02 -2.096871925359230e-18
 8.035697089688600e-02 -7.511828824112637e-02 -6.582350270258589e-19
 1.074867610750418e-01  2.337939677572549e-02 -2.153069936983523e-18
 1.050707984240239e-01 -3.255959641239532e-02 -1.535322165774784e-18
 1.075978124355300e-01  2.286286856648615e-02 -2.149739088700282e-18
 1.083718144355491e-01  1.885602916700177e-02 -2.122344558294246e-18
 1.099931189971179e-01 -1.230354943013127e-03 -1.944817307008734e-18
 1.096011671943574e-01 -9.358640373176514e-03 -1.854326877120604e-18
 1.090082483313443e-01  1.473776766446997e-02 -2.091357017744026e-18
 1.090082483313443e-01  1.473776766446997e-02 -2.091357017744026e-18
 1.095551994114823e-01  9.882220494922706e-03 -2.051201681356462e-18
 1.072695753008746e-01 -2.435648198673052e-02 -1.658736043860852e-18
 1.092054402471330e-01  1.319741718783632e-02 -2.079039741522442e-18
 1.050499311434359e-01  3.262685959082336e-02 -2.204717962680628e-18
 1.091388923489855e-01  1.373689109065352e-02 -2.083398340669687e-18
 1.079529347860180e-01 -2.112259148602923e-02 -1.704124291154324e-18
 1.991118125315931e-02  1.081829231491910e-01 -1.465883456908315e-18
 1.008508644401395e-01 -4.392155668548806e-02 -1.343483392481741e-18
 1.099484861454966e-01  3.366065108321005e-03 -1.991249558453467e-18
 1.099484861454966e-01  3.366065108321005e-03 -1.991249558453467e-18
 1.097158551436733e-01 -7.901337234445280e-03 -1.871341146337271e-18
 1.088502888451605e-01  1.586236484024542e-02 -2.100100767713546e-18
-3.328901233615719e-02 -1.048419842319054e-01  1.669630984977395e-18
 1.044289942006549e-01  3.456277144905338e-02 -2.213558440185270e-18
 1.087112760768649e-01  1.678864061619004e-02 -2.107144016789590e-18
 1.068429476765125e-01  2.616456634064360e-02 -2.170229115095248e-18
 1.099998838172948e-01 -1.598755189942690e-04 -1.955936482260344e-18
 1.006158809049637e-01 -4.445722112006190e-02 -1.333797822701127e-18
 1.065007831702278e-01 -2.752422903785068e-02 -1.612507020649318e-18
 1.099439989091124e-01 -3.509573175333676e-03 -1.920525017087911e-18
 1.088092612784801e-01 -1.614139585139346e-02 -1.770543618170672e-18
-5.594737025935147e-02 -9.470951251623545e-02  1.968756026047407e-18
 1.099999390271095e-01  1.158189627874260e-04 -1.958770125433226e-18
 1.090502683348384e-01 -1.442355629169447e-02 -1.792482803656046e-18
 1.886423016442172e-02 -1.083703871927366e-01  7.777548826945588e-19
 1.097392531678775e-01  7.569432882087565e-03 -2.030714084946588e-18
 9.314127658180747e-02  5.852095861066507e-02 -2.258841710441316e-18
 1.099897982960210e-01 -1.498089049603756e-03 -1.942007340486576e-18
 1.096412382653253e-01 -8.876872852874333e-03 -1.859989975885706e-18
 1.080026669163505e-01 -2.086681429820516e-02 -1.707637351424569e-18
 1.061396842722468e-01 -2.888541885775052e-02 -1.592095104107305e-18
 5.388723134506868e-02 -9.589664383054794e-02  2.631561804513103e-20
 9.778929868972870e-02  5.037115307168325e-02 -2.257822516891799e-18
 1.071640233897183e-01 -2.481677035651167e-02 -1.652128325905067e-18
 1.095658237937793e-01  9.763721441665556e-03 -2.050173220187763e-18
 7.730307203128579e-02 -7.825749200252818e-02 -5.716330756247425e-19
 1.076769987601752e-01  2.248697262863876e-02 -2.147286109595087e-18
 1.098855076458636e-01 -5.017490349844440e-03 -1.903990794102640e-18
 1.099999999530746e-01 -3.213020851856984e-06 -1.957548199292479e-18
 1.099998317515297e-01  1.923918788995181e-04 -1.959554975232622e-18
 1.060100211777400e-01  2.935771465722489e-02 -2.188214633472184e-18
 1.090271226132428e-01 -1.459748384746017e-02 -1.790283855478457e-18
 1.099996791676603e-01 -2.656746350884510e-04 -1.954845792791912e-18
 1.087988071749044e-01 -1.621171049944794e-02 -1.769635117461979e-18
 1.098856982090095e-01  5.013315182433460e-03 -2.007057068340114e-18
 1.083787510475377e-01  1.881611865863353e-02 -2.122057937603737e-18
 1.093959405686479e-01 -1.151208873753092e-02 -1.828548724855472e-18
 6.700332331888936e-02 -8.723849301898962e-02 -2.960602383996917e-19
 6.874170444447122e-02  8.587536358041747e-02 -2.105678793384347e-18
 1.099161085903030e-01 -4.295238336184153e-03 -1.911956251477898e-18
 1.047007040051966e-01  3.373073644046549e-02 -2.209844982805589e-18
 1.096383373576050e-01  8.912630445604672e-03 -2.042719034745879e-18
 8.068179108341302e-02  7.476930244139250e-02 -2.204056134086559e-18
 1.089726882701688e-01 -1.499844029132840e-02 -1.785195449607100e-18
 8.641525393710991e-02 -6.806176523559121e-02 -8.385526107568389e-19
 7.448351403532327e-02 -8.094569869331987e-02 -4.938353305969001e-19
 1.090844387729949e-01  1.416281107621835e-02 -2.086805447457469e-18
 1.093959778237895e-01 -1.151173470754472e-02 -1.828553025384654e-18
 1.053096903576765e-01  3.177843792212303e-02 -2.200623463311512e-18
 1.099203726958212e-01 -4.184694303252428e-03 -1.913167936102888e-18
 1.099660926569548e-01  2.731019180078198e-03 -1.985038021108026e-18
 1.099955854023672e-01 -9.854907358622044e-04 -1.947377090408483e-18
 1.099955854023672e-01 -9.854907358622044e-04 -1.947377090408483e-18
 1.099999101578882e-01 -1.405889627813641e-04 -1.956135113381455e-18
 1.099876566625594e-01  1.647841581852703e-03 -1.974292521975956e-18
 1.099838938544289e-01 -1.882310446669795e-03 -1.937954528627178e-18
 1.099876566625596e-01  1.647841581835546e-03 -1.974292521975784e-18
 1.092482564863880e-01  1.283816399195374e-02 -2.076110511491777e-18
 1.082687583380490e-01 -1.943903207305036e-02 -1.727042709369990e-18
 1.066257562101363e-01  2.703605209006132e-02 -2.175318133365107e-18
 1.096730774561832e-01 -8.474436930555709e-03 -1.864691475174530e-18
 6.792497089329690e-02  8.652281970176828e-02 -2.097796422050717e-18
 1.034775489347370e-01 -3.731483440213878e-02 -1.458110047713678e-18
 1.097888375520899e-01 -6.812572859113443e-03 -1.883826613791147e-18
 1.066920952130416e-01 -2.677306144338382e-02 -1.623629620811868e-18
 1.082004194161200e-01 -1.981588348208735e-02 -1.721954525408146e-18
 9.756850727812318e-02 -5.079750375282972e-02 -1.214422073164571e-18
 7.626625421939749e-02  7.926826898161811e-02 -2.171701635403139e-18
 1.097861959948647e-01 -6.855010501602922e-03 -1.883343572769163e-18
 1.067061921357007e-01  2.671682166536379e-02 -2.173469609961501e-18
 1.096912243195404e-01 -8.236219234588005e-03 -1.867462020542716e-18
 1.092270837812808e-01  1.301707219911589e-02 -2.077571934785027e-18
 1.099999994090103e-01 -1.140252889514392e-05 -1.957464045390074e-18
 1.090584922919867e-01  1.436124155491404e-02 -2.088382499962319e-18
 1.099457985663428e-01 -3.452734801443753e-03 -1.921141037778995e-18
 1.099942038400688e-01 -1.129212818438087e-03 -1.945875811671056e-18
 1.091570398703479e-01  1.359193314960008e-02 -2.082231907274234e-18
 1.098225635014210e-01 -6.245361957187550e-03 -1.890254693255028e-18
 9.530872490199693e-02  5.492036924088727e-02 -2.260419290941851e-18
 1.094808078529416e-01 -1.067486355262732e-02 -1.838661224047724e-18
 1.004573543964130e-01  4.481428285349891e-02 -2.248208927924700e-18
 1.081069873013439e-01 -2.031943150353859e-02 -1.715118016480048e-18
 8.104476136040907e-02  7.437571281025999e-02 -2.206471632652309e-18
 1.050174452047900e-01 -3.273127254872400e-02 -1.532608771660753e-18
 2.153955746381453e-02  1.078705124872546e-01 -1.491652447912854e-18
 9.175133401799737e-02 -6.067695366379072e-02 -1.009390777112068e-18
 5.777783725497013e-02  9.360406787174431e-02 -1.989973327548832e-18
 4.175635902538216e-02 -1.017664310121138e-01  3.025088921667914e-19
 1.075540757992157e-01  2.306774325712189e-02 -2.151065756107277e-18
 5.411660586097990e-02 -9.576738990954740e-02  2.090558784264127e-20
 1.037868543531230e-01 -3.644569746188930e-02 -1.472544572915150e-18
 4.041092953028601e-02  1.023081461785824e-01 -1.770339731250365e-18
 1.075357744924798e-01 -2.315290919738747e-02 -1.675839649196235e-18
 1.021880147563552e-01  4.071375246958774e-02 -2.236876633347167e-18
 9.134006438252039e-02 -6.129431163327439e-02 -9.957286145006492e-19
 1.068656590125333e-01  2.607164981003094e-02 -2.169678606812677e-18
 1.024880883043408e-01 -3.995236858712607e-02 -1.413401709914512e-18
 1.076140720709792e-01  2.278621276785629e-02 -2.149240837824236e-18
 9.904202407314630e-02 -4.786102242424661e-02 -1.270816341117854e-18
 1.078577369053871e-01  2.160343930137584e-02 -2.141424576506194e-18
 1.080884557148669e-01 -2.041778002563420e-02 -1.713777729456091e-18
 1.071807934067910e-01  2.474424225331451e-02 -2.161648168828399e-18
 9.373765249969813e-02 -5.756085913053906e-02 -1.076756423201394e-18
 1.093998998191182e-01  1.147440279782872e-02 -2.064797034630285e-18
 1.081179516214361e-01 -2.026101027058425e-02 -1.715913396580645e-18
 1.041361293060632e-01  3.543538588968386e-02 -2.217312356425691e-18
 1.085370163894242e-01  1.788060606584069e-02 -2.115262406102402e-18
-6.279493427016562e-02 -9.031498341917303e-02  2.045464405624463e-18
 1.096245119835824e-01  9.081099733034829e-03 -2.044203956451908e-18
 9.767290071428673e-02  5.059648669677579e-02 -2.258066297214833e-18
 1.097515271406592e-01 -7.389336255244489e-03 -1.877236596140689e-18
 1.096227946534176e-01  9.101807093900046e-03 -2.044386155123616e-18
 1.094323022607417e-01 -1.116114787616305e-02 -1.832801614403841e-18
 1.056515978096549e-01  3.062253876259840e-02 -2.194831670302479e-18
 1.084607011529959e-01 -1.833783807869540e-02 -1.741772928979316e-18
 8.848194575447424e-02  6.535246954402107e-02 -2.246114653665344e-18
 9.421619489960088e-02 -5.677418972244651e-02 -1.093355398427323e-18
 5.540511116193271e-02  9.502775203662246e-02 -1.962375674043422e-18
 3.649443513274976e-02 -1.037697268202120e-01  4.167342411742621e-19
 1.046514112699362e-01  3.388336050645789e-02 -2.210535916617236e-18
 1.068717763917579e-01 -2.604656236185555e-02 -1.634291775864928e-18
 1.069827378124979e-01  2.558698517102527e-02 -2.166782410613732e-18
 1.074292084250710e-01 -2.364244439905882e-02 -1.668913382547074e-18
 1.099978795269939e-01 -6.830077341234519e-04 -1.950525820052174e-18
 1.074790705127202e-01 -2.341472617225411e-02 -1.672140459931333e-18
 1.099396195919099e-01 -3.644179466774352e-03 -1.919064051168523e-18
 1.099685369393878e-01 -2.630757193361884e-03 -1.929991215572696e-18
 1.099685369393878e-01 -2.630757193361884e-03 -1.929991215572696e-18
 1.067380836848811e-01 -2.658912355229571e-02 -1.626337935536835e-18
 1.099623683697682e-01  2.877071864125236e-03 -1.986472381246864e-18
 1.060283351827269e-01 -2.929150283579264e-02 -1.585941148881626e-18
 1.082159139335542e-01  1.973109149351645e-02 -2.128561070416182e-18
 1.085990771869119e-01 -1.749972668789678e-02 -1.752846785642283e-18
-3.396013819226167e-02  1.046265215610383e-01 -4.706383329619949e-19
 1.058995097494474e-01 -2.975388772625566e-02 -1.578897709849596e-18
 4.116480027277718e-02  1.020071527810785e-01 -1.780663162545521e-18
 9.828711083365085e-02 -4.939275092534887e-02 -1.241643805612318e-18
 9.290326696188703e-02 -5.889807287007173e-02 -1.048168151862812e-18
 1.079546014291715e-01  2.111407185430236e-02 -2.138120323505662e-18
 1.005727087739447e-01 -4.455480052554660e-02 -1.332026930188515e-18
 1.059829425750105e-01  2.945532011610064e-02 -2.188735598068757e-18
 1.062363746919031e-01 -2.852775301914762e-02 -1.597490712023458e-18
-1.481163295380899e-02  1.089982363583996e-01 -8.563266062678675e-19
 1.043794060551827e-01 -3.471223979473554e-02 -1.500900385088900e-18
 1.001628355947900e-01  4.546874053249107e-02 -2.249691929440935e-18
 1.094356888397645e-01 -1.112789324922592e-02 -1.833203561828531e-18
 1.041078545313258e-01  3.551837024532837e-02 -2.217661807190268e-18
 1.094850278335247e-01 -1.063149473461984e-02 -1.839181922486350e-18
 1.093240491982663e-01 -1.217588875174909e-02 -1.820449028157896e-18
 1.093240491982663e-01 -1.217588875174909e-02 -1.820449028157896e-18
 9.941629874560816e-02  4.707865273904842e-02 -2.252947678795607e-18
 1.062363506733503e-01 -2.852784246326502e-02 -1.597489365578846e-18
 1.099245283707034e-01  4.074071977561862e-03 -1.998097714655927e-18
 1.518657563796049e-02 -1.089466287702031e-01  8.491238047344101e-19
 1.038331338090831e-01  3.631363825596325e-02 -2.220943914150338e-18
 1.036095401574228e-01 -3.694676154099731e-02 -1.464240803904072e-18
 1.061255857283708e-01  2.893717425406532e-02 -2.185950342628898e-18
 9.429198731635657e-02 -5.664822263700763e-02 -1.095998480934597e-18
 1.088024347597387e-01 -1.618734661248491e-02 -1.769950004749087e-18
 1.092049262685214e-01  1.320166954164264e-02 -2.079074286050555e-18
 1.098910331125483e-01  4.894981251928633e-03 -2.005936171163691e-18
 1.099252808085873e-01 -4.053719175418615e-03 -1.914601003683137e-18
 1.099252808085873e-01 -4.053719175418615e-03 -1.914601003683137e-18
 1.098362446947755e-01  5.999945945532191e-03 -2.016314256740096e-18
 1.099476889163274e-01 -3.392005595282064e-03 -1.921798649343988e-18
 1.097140050218566e-01  7.926985685868001e-03 -2.033938489241190e-18
 1.099932283817839e-01 -1.220536829703285e-03 -1.944920131186962e-18
 1.097726834906451e-01  7.068094457671477e-03 -2.026157947228428e-18
 8.739049415438623e-02  6.680495139921970e-02 -2.241614693928173e-18
 1.098095968933031e-01  6.469345417445055e-03 -2.020662936380726e-18
 1.099813692885168e-01 -2.024452869992651e-03 -1.936449139202001e-18
 1.099684707940006e-01 -2.633520690815965e-03 -1.929961644504189e-18
 1.083329455219796e-01  1.907807418299129e-02 -2.123934271489437e-18
 1.099999629091424e-01 -9.033264767377784e-05 -1.956652417533994e-18
 1.075329814168590e-01  2.316587808828726e-02 -2.151698656151593e-18
 1.004830545570292e-01  4.475662796602319e-02 -2.248073909914688e-18
-2.623309396361081e-02 -1.068261427792668e-01  1.564449009219838e-18
 1.050697124487387e-01  3.256310068066729e-02 -2.204414894964426e-18
 1.058028250121829e-01 -3.009588376242369e-02 -1.573663204586012e-18
 1.097297035076990e-01  7.706631437432027e-03 -2.031953802668312e-18
 1.097282194044318e-01 -7.727733583193016e-03 -1.873344897557462e-18
 1.069705150725193e-01  2.563803629609422e-02 -2.167089424140670e-18
 9.139055258263891e-02 -6.121900765807823e-02 -9.974008332356207e-19
 1.077540091745331e-01  2.211500637156976e-02 -2.144834783613266e-18
 1.043997052537679e-01  3.465114057179527e-02 -2.213945169072488e-18
 1.095338445673867e-01 -1.011616994160857e-02 -1.845345449541543e-18
 1.038109725669146e-01 -3.637694289946895e-02 -1.473680213451120e-18
 1.077254721502588e-01  2.225359858548158e-02 -2.145750917877461e-18
 1.099347893475688e-01  3.787095338857669e-03 -1.995331740266715e-18
 1.099347893475688e-01  3.787095338857669e-03 -1.995331740266715e-18
 1.098677110770168e-01 -5.393149608262092e-03 -1.899814320517534e-18
 1.087011176530000e-01  1.685428791105047e-02 -2.107637737626410e-18
 1.099773390494994e-01  2.232687974480266e-03 -1.980117991970515e-18
 1.068372733131187e-01 -2.618772672489737e-02 -1.632227339874509e-18
 1.096651330344951e-01  8.576630837713799e-03 -2.039743621867161e-18
 1.099448065268302e-01 -3.484181077069354e-03 -1.920800284194001e-18
 1.090513911609416e-01  1.441506454592666e-02 -2.088809138545135e-18
 1.066828527907790e-01  2.680986610225613e-02 -2.174010256267123e-18
 1.087077153080546e-01  1.681168142997249e-02 -2.107317384652716e-18
 1.086225241495903e-01  1.735359465273963e-02 -2.111369267870488e-18
 1.099560367546513e-01 -3.109659339813821e-03 -1.924848214291230e-18
 1.067241140334816e-01  2.664513996526075e-02 -2.173052048081881e-18
 1.067241140334816e-01  2.664513996526075e-02 -2.173052048081881e-18
 8.763523343186155e-02  6.648357587662583e-02 -2.242668104558320e-18
-1.274353395917495e-02 -1.092593352635429e-01  1.349386366877871e-18
 1.099790877171839e-01  2.144822812235596e-03 -1.979246328974688e-18
 1.066746971657761e-01 -2.684229842226388e-02 -1.622608617001463e-18
 1.094322125644894e-01  1.116202729078963e-02 -2.062162533620477e-18
 2.293745674473733e-02 -1.075819365789780e-01  6.971659133425220e-19
 1.038532022854188e-01  3.625620464229262e-02 -2.220710947108802e-18
 1.021520701284139e-01 -4.080385482377294e-02 -1.398673153895990e-18
 1.074489809167783e-01  2.355242025664712e-02 -2.154175347413402e-18
 1.068663599069621e-01  2.606877673070909e-02 -2.169661560218771e-18
 1.093783081067215e-01  1.167842950533290e-02 -2.066509084655187e-18
 1.074074061091583e-01 -2.374129551861637e-02 -1.667509724984999e-18
 1.097443706985075e-01  7.494871579186661e-03 -2.030039067207246e-18
 1.099561344804903e-01 -3.106201878217809e-03 -1.924885477601009e-18
 1.099561344804903e-01 -3.106201878217809e-03 -1.924885477601009e-18
 1.098947976340740e-01  4.809724832655015e-03 -2.005127186577910e-18
 1.097811712584372e-01 -6.935015293827322e-03 -1.882432131414063e-18
 1.098032462292706e-01  6.576254063986819e-03 -2.021648366245281e-18
 1.095541670484819e-01 -9.893658691972484e-03 -1.847993334592194e-18
 1.093655485702799e-01  1.179732113327758e-02 -2.067503581771282e-18
 9.344278500273373e-02 -5.803831433572839e-02 -1.066603225574750e-18
 1.092033228525582e-01  1.321492633198857e-02 -2.079181960055855e-18
 1.071607517242923e-01  2.483089385995848e-02 -2.162181816961963e-18
 1.096209487483852e-01 -9.124012028917309e-03 -1.857089634474309e-18
 1.008135507809660e-01 -4.400713554565337e-02 -1.341940059707563e-18
 1.043574716039058e-01  3.477812704042473e-02 -2.214498310729682e-18
 1.099839603990234e-01 -1.878418203164088e-03 -1.937995704255695e-18
 1.099839603990234e-01 -1.878418203164088e-03 -1.937995704255695e-18
 1.099628351303604e-01  2.859176471138401e-03 -1.986296819146320e-18
 1.097340953395021e-01 -7.643841967296148e-03 -1.874311422709018e-18
 1.098657487914519e-01  5.432977313915230e-03 -2.011013920607858e-18
 1.088725243152548e-01 -1.570902445170239e-02 -1.776111918436604e-18
 1.097981401444884e-01  6.660962453820372e-03 -2.022427845309225e-18
 8.259791871398500e-02 -7.264698083277689e-02 -7.235071523958415e-19
 1.080789464455805e-01  2.046805645910888e-02 -2.133695617890094e-18
 1.099202537509130e-01 -4.187817490629293e-03 -1.913133729720629e-18
 1.093223548402265e-01  1.219109232954636e-02 -2.070780753817469e-18
 1.044425843578007e-01 -3.452168264531164e-02 -1.503982623832155e-18
 1.097818866783575e-01  6.923680909760719e-03 -2.024837932188266e-18
 1.099866255275140e-01  1.715285710992685e-03 -1.974967135624227e-18
 1.099866255275140e-01  1.715285710992685e-03 -1.974967135624227e-18
 1.099002577929039e-01  4.683304074389486e-03 -2.003925429251274e-18
 1.098565531299014e-01  5.615846723073898e-03 -2.012729189589458e-18
 1.432913411994411e-02 -1.090627155143892e-01  8.655757484662918e-19
 1.069423328782639e-01  2.575533805941059e-02 -2.167793121382652e-18
 9.790816075743335e-02  5.013972533926091e-02 -2.257559973290855e-18
 1.097906585269865e-01 -6.783162994546107e-03 -1.884161195886232e-18
 1.097906585269865e-01 -6.783162994546107e-03 -1.884161195886232e-18
 1.099513068451601e-01 -3.272632432977512e-03 -1.923089550581007e-18
 1.099996737093117e-01 -2.679250732965360e-04 -1.954822573219018e-18
 1.099391272711327e-01 -3.659001894181846e-03 -1.918902994675983e-18
 1.084002279547421e-01 -1.869199238604231e-02 -1.737057929427506e-18
 1.099933963564854e-01  1.205304096498948e-03 -1.969847754775144e-18
 1.071574743240968e-01  2.484503363814348e-02 -2.162268772800331e-18
 1.044649132386015e-01 -3.445405494352435e-02 -1.505074842969509e-18
 1.096179185459013e-01 -9.160345717496797e-03 -1.856662392955389e-18
 1.099713668501750e-01  2.509675896237800e-03 -1.982857659833898e-18
 6.831609030087914e-02  8.621433642963362e-02 -2.101587304894739e-18
 8.281329251462925e-02 -7.240137141578454e-02 -7.298635336221841e-19
 7.852398754499132e-02  7.703235281382736e-02 -2.188907466674314e-18
 1.026807071450017e-01 -3.945468768349761e-02 -1.421943082439666e-18
 8.555673585414164e-02  6.913786914553099e-02 -2.232950659950198e-18
 1.748177133516561e-03 -1.099861076532386e-01  1.098956403933174e-18
 5.580336555427610e-02 -9.479443228806091e-02 -1.910909905241572e-20
-3.057261956540691e-02 -1.056660538342793e-01  1.629756551194749e-18
 1.096530130622110e-01  8.730219148368076e-03 -2.041105996600864e-18
 1.060511966401894e-01 -2.920862357564652e-02 -1.587199550077638e-18
 1.096515857312442e-01 -8.748128178275423e-03 -1.861496926146877e-18
 8.547223724704539e-02 -6.924230397657719e-02 -8.096408971784916e-19
 3.238634291398411e-02  1.051243301650848e-01 -1.656467907761967e-18
 1.001004199832713e-01 -4.560598556300070e-02 -1.312821443397683e-18
 6.126422159130179e-02  9.136024930357728e-02 -2.028963274850914e-18
 1.099709307999055e-01 -2.528710936886078e-03 -1.931082305390907e-18
 1.073199987156756e-01  2.413333536143148e-02 -2.157848646961031e-18
 1.097591761584532e-01 -7.274836700405682e-03 -1.878549160867962e-18
 1.063901409288998e-01  2.794884457591715e-02 -2.180503689584151e-18
 1.084514146697923e-01 -1.839267941656920e-02 -1.741044190109030e-18
 1.089390125640522e-01  1.524111352786273e-02 -2.095296580572834e-18
 1.099283144050107e-01 -3.970603489776309e-03 -1.915508973626518e-18
 1.094451016920749e-01  1.103493160881896e-02 -2.061086049058552e-18
 1.090209140286183e-01 -1.464378039867283e-02 -1.789697686063701e-18
 1.090674010325064e-01  1.429342618179216e-02 -2.087844263303158e-18
 1.091459903101122e-01  1.368038008334669e-02 -2.082944027283447e-18
 1.085304382178898e-01  1.792049051317356e-02 -2.115555137900683e-18
 1.095845251953356e-01 -9.551535882400968e-03 -1.852048781612865e-18
 1.095845251953356e-01 -9.551535882400968e-03 -1.852048781612865e-18
 1.064927357939425e-01  2.755534835783218e-02 -2.178286456892286e-18
 1.099061247311489e-01 -4.543538993017125e-03 -1.909227377746650e-18
 1.075634504548554e-01  2.302399023292458e-02 -2.150783042857477e-18
 1.072034057920969e-01 -2.464609069558377e-02 -1.654582854245412e-18
 1.005876435909940e-01  4.452107317676759e-02 -2.247514956643132e-18
 6.761440255548835e-03 -1.097919984592255e-01  1.007745005185735e-18
 1.020182131915108e-01  4.113738174958851e-02 -2.238207448913713e-18
 1.098448761029233e-01  5.839793997511069e-03 -2.014822359856712e-18
 9.364375252965727e-02  5.771349592741919e-02 -2.259487483566091e-18
 8.618189665927867e-02 -6.835700906424548e-02 -8.313662165534223e-19
 7.974169893548436e-02  7.577111224525149e-02 -2.197619304737424e-18
 1.068932976051572e-01 -2.595809945075368e-02 -1.635583695804325e-18
 1.091297810433371e-01  1.380908720492539e-02 -2.083977982964671e-18
 1.040246025753069e-01 -3.576146052735236e-02 -1.483805872063889e-18
 1.078295664535446e-01  2.174361051988788e-02 -2.142363458062735e-18
 1.079963554165157e-01 -2.089945493905470e-02 -1.707189660029063e-18
 1.046667326884302e-01 -3.383600254652810e-02 -1.515016724676519e-18
 5.648802164409086e-02  9.438804696960675e-02 -1.975074620638803e-18
 1.011697745425047e-01 -4.318190267946429e-02 -1.356758454379789e-18
 1.046695475515086e-01  3.382729394087641e-02 -2.210282609787588e-18
 9.985690544076663e-02 -4.613673629325931e-02 -1.303034540692327e-18
 2.060068143972605e-02  1.080537455353533e-01 -1.476826682138220e-18
 1.099518072289620e-01  3.255777493186510e-03 -1.990175495914099e-18
 6.707060170973726e-02  8.718677873561882e-02 -2.089413841176280e-18
 1.090892564979578e-01 -1.412565455908999e-02 -1.796237476608840e-18
 1.035400308068457e-01  3.714110957574373e-02 -2.224229763813652e-18
 1.095790290351199e-01 -9.614384833172113e-03 -1.851305220747824e-18
 1.050310361946098e-01  3.268763429626780e-02 -2.205006142548283e-18
 1.098454469996421e-01 -5.829045672215349e-03 -1.894939430994571e-18
 4.547748486827972e-02  1.001588656587890e-01 -1.838422050527290e-18
 8.773609423664065e-02 -6.635041648776041e-02 -8.796420261421661e-19
 1.079863049361032e-01  2.095132325765828e-02 -2.137012342520222e-18
 1.065557859351265e-01 -2.731051965355974e-02 -1.615681646749437e-18
-1.312266674924163e-02  1.092144478417957e-01 -8.886052689983960e-19
 1.043056117129702e-01 -3.493335605382124e-02 -1.497315237507268e-18
 1.090770138581816e-01  1.421988212968072e-02 -2.087259696583651e-18
 1.085743494709484e-01 -1.765249662116716e-02 -1.750837070873028e-18
 1.040368161592235e-01  3.572591333264816e-02 -2.218530024448805e-18
 1.081286265924890e-01 -2.020396276036068e-02 -1.716689512867913e-18
 1.098570245118317e-01  5.606618000787803e-03 -2.012642756624234e-18
 1.092255171409742e-01 -1.303021125257427e-02 -1.809917679320078e-18
 1.095037397482282e-01  1.043700058217272e-02 -2.055986059126280e-18
 1.099636612088405e-01 -2.827227183533699e-03 -1.927885788354545e-18
 1.099820027220455e-01  1.989743010523618e-03 -1.977704816336818e-18
 1.099686085215665e-01 -2.627763275186882e-03 -1.930023250884596e-18
 1.096259567660333e-01  9.063641824993158e-03 -2.044050294415851e-18
 1.088682567529886e-01 -1.573857272961307e-02 -1.775732374254058e-18
 1.099388236423719e-01  3.668113429464753e-03 -1.994181039458734e-18
 1.099973022026567e-01 -7.703947932041279e-04 -1.949617675590106e-18
 1.075794193553850e-01  2.294925992615411e-02 -2.150299401736115e-18
 1.097735870104600e-01 -7.054048118415829e-03 -1.881074141643070e-18
 1.099576815229158e-01 -3.050946427745202e-03 -1.925480738747229e-18
 1.091784956242674e-01  1.341849817311060e-02 -2.080831756629126e-18
 1.099964318912518e-01 -8.859860005493031e-04 -1.948414529696024e-18
 1.098294784549274e-01 -6.122553578255844e-03 -1.891639564581875e-18
 1.080098710661037e-01 -2.082949236740102e-02 -1.708149027143869e-18
 1.091992491090994e-01  1.324854686404593e-02 -2.079454901685180e-18
 1.098302783639732e-01  6.108187496477298e-03 -2.017320221381467e-18
 9.065651130447637e-02  6.230085840581419e-02 -2.253459445661413e-18
 9.885279777016445e-02 -4.825064116683772e-02 -1.263445642296226e-18
 1.098522416925500e-01  5.699560958664302e-03 -2.013512595778621e-18
 1.099541089899706e-01 -3.177092416286574e-03 -1.924121057054968e-18
 1.093658784159509e-01 -1.179426294040534e-02 -1.825114495560088e-18
 1.099989209699288e-01 -4.872221786021348e-04 -1.952555979231161e-18
 1.089952764461954e-01  1.483339854576174e-02 -2.092108740139681e-18
 1.095249378328506e-01 -1.021214926987267e-02 -1.844200790844772e-18
 1.081177649278600e-01 -2.026200649007848e-02 -1.715899838352355e-18
 1.097109623106070e-01 -7.968986690949104e-03 -1.870558998946014e-18
 1.092199944248266e-01  1.307642221101861e-02 -2.078055571042569e-18
 1.082792555021270e-01  1.938047543031537e-02 -2.126085856504905e-18
 1.088171376781172e-01 -1.608821144632476e-02 -1.771230238539229e-18
 1.099499995890057e-01 -3.316261506215750e-03 -1.922618013520061e-18
 1.099938134437621e-01 -1.166620803357337e-03 -1.945484510647304e-18
 1.094208259947305e-01  1.127310244036127e-02 -2.063101152840643e-18
 1.099484223169550e-01  3.368149345333724e-03 -1.991269837326593e-18
 1.098272251994285e-01  6.162840659466581e-03 -2.017827428072230e-18
 1.094055026324837e-01 -1.142085783702605e-02 -1.829656257548580e-18
 1.066231562879026e-01  2.704630368840528e-02 -2.175377196096532e-18
 1.072364838917977e-01 -2.450176570217283e-02 -1.656654405364723e-18
 1.086532831479022e-01  1.715995516258040e-02 -2.109927085518418e-18
 1.090586220140512e-01 -1.436025641819390e-02 -1.793281850547450e-18
 1.013664753598605e-01  4.271811879189869e-02 -2.242850495651583e-18
 1.004846080164265e-01 -4.475314013323622e-02 -1.328421204700196e-18
 1.082346556490244e-01  1.962802375526079e-02 -2.127835618029890e-18
 1.087123799177256e-01 -1.678149137067552e-02 -1.762242749859573e-18
 1.077140690401586e-01  2.230872768249908e-02 -2.146114417376135e-18
 8.741266052041907e-02 -6.677594462635429e-02 -8.695139903144681e-19
 1.097370809185649e-01 -7.600859916633783e-03 -1.874806179606175e-18
 1.097370809185649e-01 -7.600859916633783e-03 -1.874806179606175e-18
 1.097405502167131e-01  7.550605150121452e-03 -2.030543719371419e-18
 1.036028161098916e-01 -3.696561231874767e-02 -1.463927456564084e-18
 1.095437115846327e-01  1.000875877732995e-02 -2.052297376658488e-18
 1.099289141904759e-01 -3.953963189375385e-03 -1.915690620565994e-18
 1.067942192177308e-01 -2.636275292292578e-02 -1.629662810287573e-18
 1.099380314357144e-01  3.691780605591589e-03 -1.994410112833381e-18
 1.099994342142439e-01  3.528066697196180e-04 -1.961196104283984e-18
 1.043215083992710e-01 -3.488585508914462e-02 -1.498086193158552e-18
 1.064655574799371e-01  2.766017119408654e-02 -2.178879802938464e-18
 9.029793169151938e-02  6.281945186193263e-02 -2.252406453091022e-18
 1.099565534265399e-01 -3.091336047158044e-03 -1.925045674259503e-18
 1.076530922128379e-01 -2.260114459522297e-02 -1.683596638818570e-18
 1.099958418936311e-01  9.564340600754350e-04 -1.967334226808919e-18
 1.099518177422242e-01 -3.255422427376113e-03 -1.923275469159333e-18
 1.092163102010139e-01  1.310715781837805e-02 -2.078305803085371e-18
 1.098207941282834e-01 -6.276398412557263e-03 -1.889904316845194e-18
 1.099961421221231e-01  9.212590567679429e-04 -1.966978159352148e-18
 1.099185780133882e-01  4.231572699912798e-03 -1.999610083656302e-18
 1.099318879954210e-01  3.870400723719545e-03 -1.996136039811375e-18
 1.095968210706191e-01 -9.409400151691819e-03 -1.853727994379771e-18
 9.029874158520357e-02  6.281828768860699e-02 -2.252408904657199e-18
 9.405953749150375e-02 -5.703335345992168e-02 -1.087904679726741e-18
 1.025660125514004e-01  3.975189390841583e-02 -2.233720807701791e-18
 1.088086309525803e-01 -1.614564431124220e-02 -1.770488749387803e-18
 1.099054602151520e-01 -4.559584947733384e-03 -1.909050685536151e-18
 1.099993650935739e-01  3.737365523875275e-04 -1.961409921140397e-18
 1.099343160848513e-01  3.800808723939752e-03 -1.995464218042165e-18
 1.033848391442198e-01 -3.757093338105622e-02 -1.453828842428252e-18
 1.095628381975523e-01  9.797167248594677e-03 -2.050463731457848e-18
 1.099992174520324e-01 -4.149216075850253e-04 -1.953304117586321e-18
 1.099550877698813e-01  3.143035716892001e-03 -1.989075496257370e-18
 1.097229975254334e-01 -7.801526391270697e-03 -1.872493773695625e-18
 1.098465939490700e-01 -5.807391650999651e-03 -1.895182329529474e-18
 1.081668645897787e-01  1.999823504253427e-02 -2.130432981756058e-18
 1.064079926029102e-01 -2.788080182166544e-02 -1.607192045998318e-18
 9.503465762870346e-02  5.539326537942214e-02 -2.260400772928100e-18
 1.055427890769990e-01 -3.099547828067947e-02 -1.559792548059240e-18
 1.007168261200890e-01  4.422805598594311e-02 -2.246803268651933e-18
 8.413175266525677e-02 -7.086499977754900e-02 -7.691127651817303e-19
 1.046174311055439e-01  3.398813188271372e-02 -2.211007686889448e-18
 1.062753923222714e-01 -2.838205395575289e-02 -1.599682082245847e-18
 3.261410699181160e-02  1.050538910518150e-01 -1.659797504913406e-18
 1.093967609134822e-01 -1.150429057518863e-02 -1.828643447155558e-18
 1.095113284248994e-01  1.035707229934185e-02 -2.055299874609319e-18
 1.098660018529006e-01  5.427857483243762e-03 -2.010965819737940e-18
 1.093659754705170e-01 -1.179336293778126e-02 -1.825125469961881e-18
 1.078895032084696e-01  2.144423226486739e-02 -2.140354101297012e-18
 1.098446195182646e-01  5.844618284169704e-03 -2.014867361419537e-18
 1.095024424682331e-01 -1.045060254201980e-02 -1.841350438249912e-18
 1.098200940552385e-01  6.288635917154959e-03 -2.018993021429956e-18
 1.076865827353006e-01 -2.244103158932831e-02 -1.685837745585819e-18
 1.032229305917475e-01  3.801350549543197e-02 -2.227550138393425e-18
 7.871629594819783e-02 -7.683582987249957e-02 -6.113901429174953e-19
 1.065763950358195e-01  2.722998386281060e-02 -2.176432270903123e-18
 9.980532737972450e-02 -4.624820673956965e-02 -1.300971329229735e-18
 1.081207733743021e-01  2.024594687691252e-02 -2.132157882708662e-18
 1.067095508047056e-01  2.670340366054343e-02 -2.173391516357656e-18
 1.098577939102299e-01  5.591521901720604e-03 -2.012501342052566e-18
 1.099989129508955e-01  4.890292642308110e-04 -1.962586465453739e-18
 1.096581706815025e-01 -8.665194907584692e-03 -1.862466222420594e-18
 1.095447859366479e-01 -9.996993252670673e-03 -1.846764661444233e-18
 1.099952396594720e-01  1.023353436150666e-03 -1.968011081612961e-18
 1.096501170951715e-01  8.766517040144308e-03 -2.041427407064976e-18
 1.076246007790826e-01 -2.273643127544565e-02 -1.681699578275579e-18
 2.118896338509647e-02  1.079399269532132e-01 -1.486126416499743e-18
 1.076936812283180e-01 -2.240694141317370e-02 -1.686314335912453e-18
 7.560700107016065e-02 -7.989731778462085e-02 -5.246008555157161e-19
 1.011936570240037e-01  4.312590611347510e-02 -2.243964853811548e-18
 1.085948330942128e-01  1.752604419827888e-02 -2.112648328943379e-18
 1.098839511755474e-01  5.051462565424612e-03 -2.007417928298098e-18
 1.080459857756226e-01 -2.064134098778314e-02 -1.710724918554493e-18
 1.092901739290414e-01  1.247629282118075e-02 -2.073138387562498e-18
 1.097597123803311e-01 -7.266741923789217e-03 -1.878641874465042e-18
 1.098882656971957e-01 -4.956718880719200e-03 -1.904664281684742e-18
 1.099067576701140e-01  4.528202562032497e-03 -2.002447490624044e-18
 1.081385702224879e-01  2.015067319560357e-02 -2.131495696385735e-18
 9.987576735948335e-02 -4.609589021110579e-02 -1.303789889691114e-18
 1.092077252447306e-01  1.317849562246747e-02 -2.078885993569835e-18
 6.519146527994214e-02  8.860063687499130e-02 -2.070499245660773e-18
 1.083299630036139e-01 -1.909500237328094e-02 -1.731666699590252e-18
 1.055154987547737e-01 -3.108825377101956e-02 -1.558353649761607e-18
 1.095657981848578e-01  9.764008813749064e-03 -2.050175717090224e-18
 1.099705024005717e-01  2.547273398323009e-03 -1.983228576597882e-18
 9.896702360147236e-02 -4.801591652218645e-02 -1.267890137672886e-18
 2.802552988383842e-02  1.063699660370823e-01 -1.591660494205286e-18
 1.070205506002239e-01  2.542836505213948e-02 -2.165825570176652e-18
 1.095591525587968e-01  9.838297139152900e-03 -2.050820735803974e-18
 1.095489462352327e-01  9.951300354730233e-03 -2.051800169090824e-18
 1.098913932283851e-01 -4.886890046279232e-03 -1.905437405739957e-18
 1.099507000369890e-01 -3.292956327685034e-03 -1.922869931070744e-18
 1.086141490183007e-01  1.740593671798031e-02 -2.111758018124940e-18
 1.099602951313192e-01  2.955248658428074e-03 -1.987238723657681e-18
 1.061015981660674e-01 -2.902500416203806e-02 -1.589983128122891e-18
 1.099958031665352e-01 -9.608775930460242e-04 -1.947633856882794e-18
 1.092822211636188e-01  1.254576173637397e-02 -2.073710626482939e-18
 1.096557201159164e-01 -8.696151209573811e-03 -1.862104546925452e-18
 1.078890257811079e-01 -2.144663414159449e-02 -1.699657533608038e-18
 1.044569097588444e-01 -3.447831207632709e-02 -1.504683178272712e-18
 3.513637563910646e-02  1.042373978327720e-01 -1.696295112945967e-18
 6.239048250451435e-02 -9.059485467096824e-02 -1.794838370084415e-19
 1.014338304933493e-01  4.255793734952918e-02 -2.242403354465123e-18
 4.161210098118771e-02 -1.018255029544731e-01  3.056830788890477e-19
 1.047590918322049e-01  3.354895942487095e-02 -2.209016371033888e-18
 1.007992543219100e-01 -4.403987202691293e-02 -1.341349281712515e-18
 1.047498478974555e-01  3.357781061147257e-02 -2.209148299649977e-18
 9.981673462268387e-02 -4.622358152788109e-02 -1.301427349829712e-18
 1.056128820171794e-01  3.075579867318221e-02 -2.195511873765235e-18
 1.052900728590511e-01 -3.184337540738537e-02 -1.546583326549948e-18
 1.062313787059238e-01  2.854635139975980e-02 -2.183817492005676e-18
 6.324506643536044e-02 -9.000034206372112e-02 -2.008005785124728e-19
 1.087945749572002e-01  1.624008805031880e-02 -2.102990241386811e-18
 1.064977220806600e-01 -2.753607073695294e-02 -1.612330875752535e-18
 1.054030224131890e-01  3.146748903495064e-02 -2.199089531713017e-18
 1.088011028343729e-01 -1.619629655273630e-02 -1.769834344163599e-18
 1.048678247065111e-01  3.320751934915393e-02 -2.207443229490869e-18
 1.095965117507328e-01 -9.413002287870231e-03 -1.853685479022744e-18
 1.099261595136375e-01 -4.029820663786344e-03 -1.914862189813038e-18
 1.096888363213466e-01 -8.267961445772826e-03 -1.867093383577467e-18
 1.007546634797878e-01  4.414179184259158e-02 -2.246590296866171e-18
 1.097872112877876e-01  6.838730704643967e-03 -2.024059857466905e-18
 1.089039888499110e-01 -1.548939032300594e-02 -1.778928528248616e-18
 1.084180454243534e-01 -1.858836803925557e-02 -1.738439715072152e-18
 1.012240547810133e-01 -4.305450886597578e-02 -1.359033361126921e-18
 1.387693273811420e-02  1.091211745619603e-01 -1.368136999097172e-18
 1.029066725773169e-01 -3.886150716409321e-02 -1.432059121200379e-18
 1.057749967740999e-01  3.019354330712289e-02 -2.192619929607177e-18
-1.208164603362588e-02 -1.093345042935583e-01  1.338379616190875e-18
 1.014584328288471e-01  4.249925185123010e-02 -2.242238210195778e-18
 1.098762250235067e-01 -5.216816518114638e-03 -1.901777594795615e-18
 1.061228343568038e-01  2.894726287714146e-02 -2.186005035627108e-18
 1.078272366994851e-01 -2.175516089927069e-02 -1.695387922839714e-18
 1.081646314515537e-01  2.001030991637865e-02 -2.130517305339855e-18
 1.098219007801603e-01 -6.257004797231631e-03 -1.890123273387731e-18
 1.099440518337770e-01  3.507914818194951e-03 -1.992628098825984e-18
 1.099985350460596e-01  5.677039023652065e-04 -1.963388093512984e-18
 1.097790663712465e-01  6.968255639500073e-03 -2.025245730614384e-18
 1.085079361089517e-01  1.805623995674668e-02 -2.116549462249462e-18
 1.079823657127999e-01 -2.097161641521907e-02 -1.706199263610533e-18
 1.039462289902790e-01  3.598862985305828e-02 -2.219617234530956e-18
 1.096295814627064e-01 -9.019693360186045e-03 -1.858315100348349e-18
-2.221434303072319e-03  1.099775669381583e-01 -1.090446475334491e-18
 1.077811076269706e-01 -2.198255760150189e-02 -1.692230582460869e-18
 8.701472417258403e-02  6.729366818036514e-02 -2.239948806256762e-18
 1.002200208740092e-01 -4.534255634625312e-02 -1.317656523419240e-18
 1.089304475557743e-01  1.530220883724523e-02 -2.095771888143541e-18
 1.088899489951250e-01 -1.558778392970146e-02 -1.777667713720144e-18
 1.066420340537417e-01  2.697177363245821e-02 -2.174947379207636e-18
 1.088658391049378e-01 -1.575528723882081e-02 -1.775517613812914e-18
 1.097201122025923e-01  7.842000908602332e-03 -2.033173986093429e-18
 1.012528509854159e-01 -4.298674408844094e-02 -1.360242082405785e-18
 1.088404397526540e-01  1.592980459543841e-02 -2.100618410349642e-18
 5.607447281613422e-02 -9.463431459250171e-02 -2.557892732131334e-20
 1.099982764603781e-01 -6.157724792410373e-04 -1.951223701774496e-18
 1.097864611483830e-01 -6.850762622844414e-03 -1.883391936903418e-18
 1.097864611483830e-01 -6.850762622844414e-03 -1.883391936903418e-18
 1.083388336287932e-01  1.904460889471407e-02 -2.123695213693709e-18
 1.099793898473945e-01 -2.129274241331458e-03 -1.935336911174170e-18
 1.068329938170084e-01  2.620517948984508e-02 -2.170469259646427e-18
 1.076239020233058e-01 -2.273973863697283e-02 -1.681653161144805e-18
 1.095542994142603e-01  9.892192873704665e-03 -2.051288127401645e-18
 1.098533321771161e-01 -5.678504167837394e-03 -1.896626516403555e-18
 1.099296082199616e-01 -3.934620261945828e-03 -1.915901713201164e-18
 1.099139409706652e-01  4.350354042730428e-03 -2.000747997097361e-18
 1.099170094381986e-01 -4.272123144634471e-03 -1.912209783336854e-18
 1.091782700478119e-01  1.342033342980065e-02 -2.080846598822816e-18
 1.098580750521288e-01 -5.585995510272567e-03 -1.897661414372638e-18
 1.070357547607230e-01  2.536428991322918e-02 -2.165437797573275e-18
 1.098183447426913e-01 -6.319110536727077e-03 -1.889421875547099e-18
 1.097481671933516e-01  7.439072368253027e-03 -2.029533313739538e-18
 1.099838450560375e-01 -1.885159592581203e-03 -1.937924386262367e-18
 1.097145411848968e-01  7.919561388583133e-03 -2.033871748944484e-18
 1.099838450560394e-01 -1.885159592467555e-03 -1.937924386263569e-18
 1.099845374210852e-01 -1.844323255257270e-03 -1.938356286255602e-18
 1.097385079397650e-01  7.580229228335021e-03 -2.030811751259075e-18
 1.096517441872366e-01 -8.746141817784108e-03 -1.861520155192736e-18
 1.099843318205468e-01  1.856543559366111e-03 -1.976377689449808e-18
 1.099858493717338e-01 -1.764351999535184e-03 -1.939201309583615e-18
 1.095127620985012e-01 -1.034190202801417e-02 -1.842650946673849e-18
 1.095127620985012e-01 -1.034190202801417e-02 -1.842650946673849e-18
 1.070679517424297e-01 -2.522803420167178e-02 -1.646193029734546e-18
 5.484601291585177e-03  1.098631837726920e-01 -1.226409325360385e-18
 1.091197734597316e-01  1.388794585591411e-02 -2.084610130068749e-18
 1.093600074779845e-01 -1.184857647209689e-02 -1.824451963408294e-18
 9.302402169424009e-02  5.870716640947266e-02 -2.258668237339134e-18
 1.043025683347298e-01 -3.494244179760455e-02 -1.497167724244424e-18
 1.062289058633310e-01  2.855555215854764e-02 -2.183868019276195e-18
 1.938567629405442e-02 -1.082783244912023e-01  7.675292159997717e-19
 1.070416156528954e-01  2.533954455821556e-02 -2.165287849607123e-18
 1.088741021138479e-01 -1.569808551713807e-02 -1.776252390823481e-18
 1.099789146535634e-01  2.153678626022082e-03 -1.979334239370715e-18
 1.099789146535634e-01  2.153678626022082e-03 -1.979334239370715e-18
 1.099995923228587e-01 -2.994808923142090e-04 -1.954496900272928e-18
 1.099994146656226e-01  3.588498576928236e-04 -1.961257847954058e-18
 1.099994146656226e-01  3.588498576928236e-04 -1.961257847954058e-18
 1.099994146656226e-01  3.588498576928236e-04 -1.961257847954058e-18
 1.095932619681911e-01  9.450763523196931e-03 -2.047445986307271e-18
 1.098803021997112e-01  5.130223045843019e-03 -2.008162225745305e-18
 1.099031940751161e-01  4.613884706767192e-03 -2.003264425111518e-18
 1.099480639273902e-01  3.379828193631149e-03 -1.991383455280449e-18
 1.093256551657869e-01  1.216146054433500e-02 -2.070535031218921e-18
 1.096390434964497e-01  8.903939643976266e-03 -2.042642306499321e-18
 1.096390434964497e-01  8.903939643976266e-03 -2.042642306499321e-18
 1.099892550735923e-01 -1.537455155838506e-03 -1.941593200754497e-18
 1.093477431152848e-01 -1.196123219378538e-02 -1.823076207828848e-18
 1.091347747709336e-01 -1.376956555950688e-02 -1.800706213686359e-18
 9.951959663864630e-02 -4.685989633877898e-02 -1.289601521437768e-18
 1.674255786392388e-02  1.087183827886210e-01 -1.414995677304024e-18
 9.946626109729906e-02 -4.697300185557544e-02 -1.287490233761478e-18
 1.099086160011504e-01  4.482870588319604e-03 -2.002014792279447e-18
 1.084732935205645e-01 -1.826320324591044e-02 -1.742763870975082e-18
 1.099853066562178e-01  1.797865328020864e-03 -1.975792140302454e-18
 1.092831582435839e-01 -1.253759643264101e-02 -1.816004909819731e-18
 1.099666472919994e-01  2.708594350759789e-03 -1.984817484525290e-18
 1.092409939941984e-01 -1.289981515989531e-02 -1.811532880867762e-18
 9.247598691256299e-02 -5.956670080294400e-02 -1.033694284590168e-18
 1.089540423127500e-01  1.513329652492936e-02 -2.094456272340743e-18
 1.051435037941349e-01 -3.232404074203455e-02 -1.539036293504322e-18
 1.099620464990371e-01 -2.889347632870275e-03 -1.927218787617150e-18
-1.638354748009990e-03 -1.099877983856375e-01  1.159241150027596e-18
 1.099732049770532e-01  2.427794693753390e-03 -1.982049071883867e-18
 1.099510821693533e-01  3.280172219272256e-03 -1.990413239562103e-18
 8.153748070016720e-02  7.383521680790156e-02 -2.209686760962737e-18
 1.098551255644347e-01 -5.643703325145361e-03 -1.897015997886626e-18
 1.092857885604668e-01 -1.251464816592628e-02 -1.816287504550261e-18
 1.099036209686337e-01 -4.603704810569285e-03 -1.908564638387271e-18
 1.002026963325308e-01  4.538082907672133e-02 -2.249498040544328e-18
 1.099958275404886e-01 -9.580833382669592e-04 -1.947663000599151e-18
 1.099436230169344e-01  3.521328997720553e-03 -1.992758293340395e-18
 1.099997487146790e-01 -2.351227497494545e-04 -1.955160939987298e-18
 1.085550323788912e-01 -1.777090164335675e-02 -1.749276731587771e-18
 1.070865210983414e-01  2.514909539236833e-02 -2.164130199579654e-18
 1.070062476063416e-01 -2.548848707181876e-02 -1.642418872403830e-18
 1.075868259424361e-01  2.291451251133034e-02 -2.150074193723016e-18
 9.696190351724462e-02 -5.194602262264663e-02 -1.191826221493314e-18
 1.074748065074231e-01  2.343429039232764e-02 -2.153421203162128e-18
 1.031231009042005e-01 -3.828349592059290e-02 -1.441849576994314e-18
 1.088295580010121e-01  1.600397779629524e-02 -2.101186859292748e-18
 1.035121097420311e-01 -3.721885458680400e-02 -1.459711256240940e-18
 1.054812977424295e-01  3.120409951549494e-02 -2.197776302936527e-18
 1.097437046995749e-01 -7.504617166283351e-03 -1.875912916987986e-18
 1.092359748140915e-01  1.294224889326149e-02 -2.076961379033017e-18
 1.097651615083658e-01 -7.183962628126392e-03 -1.879589375389957e-18
 1.096827869788732e-01  8.347828492912627e-03 -2.037706933890283e-18
 1.099859103497797e-01 -1.760546656633210e-03 -1.939241493276627e-18
 1.099277882252856e-01  3.985144400989413e-03 -1.997242029112279e-18
 1.094167458538324e-01  1.131263571223878e-02 -2.063434731873626e-18
 1.098972978380145e-01  4.752255033424057e-03 -2.004581199379420e-18
 1.099704154641926e-01  2.551023840113561e-03 -1.983265563888284e-18
 1.099785848760352e-01 -2.170453561975091e-03 -1.934899483188286e-18
 1.086544456913681e-01  1.715259255918758e-02 -2.109872126290890e-18
 1.051069173122314e-01 -3.244281019146946e-02 -1.537164880469520e-18
 1.095934205578490e-01  9.448924300172941e-03 -2.047429911250971e-18
 1.068875072363118e-01 -2.598193212229135e-02 -1.635235777241397e-18
 1.098488021954961e-01  5.765471031470562e-03 -2.014128587880604e-18
 1.099999930739726e-01 -3.903493241769339e-05 -1.957180019742391e-18
 1.099946093635528e-01 -1.088995389972210e-03 -1.946296247912824e-18
 1.098872908800626e-01  4.978283141853400e-03 -2.006725470330492e-18
 1.099994977047417e-01  3.324224789390705e-04 -1.960987794017849e-18
 1.099129713789317e-01  4.374782583636824e-03 -2.000981736439517e-18
 1.090625443550767e-01 -1.433043679714174e-02 -1.793658039058432e-18
 1.099447258810009e-01  3.486724960694499e-03 -1.992422376212219e-18
 1.099559515748792e-01 -3.112669796618586e-03 -1.924815767065523e-18
 1.098418761177233e-01  5.895952080766649e-03 -2.015345975446389e-18
 1.099900278399342e-01  1.481140023917688e-03 -1.972621921955917e-18
 1.094951005678417e-01 -1.052724805626727e-02 -1.840432275558946e-18
 1.073061370025739e-01 -2.419489536213796e-02 -1.661046946822851e-18
 1.091509675625023e-01  1.364061142946064e-02 -2.082623994954949e-18
 1.099495448856849e-01  3.331302962915974e-03 -1.990911231582085e-18
 1.094119239222974e-01 -1.135917706620414e-02 -1.830404279573738e-18
 1.095856585588978e-01  9.538523901141212e-03 -2.048212380571758e-18
 1.098846928691924e-01  5.035302676425879e-03 -2.007265090632200e-18
 1.039563486159259e-01 -3.595938795980892e-02 -1.480557578973326e-18
 1.087275899115449e-01  1.668266141917690e-02 -2.106345443187471e-18
 1.097211416552881e-01  7.827584165000350e-03 -2.033044179628808e-18
 1.080309635713774e-01 -2.071981925210032e-02 -1.709651244853868e-18
 1.097517199205440e-01 -7.386472397729234e-03 -1.877269451984308e-18
 1.098112342895392e-01  6.441492358755009e-03 -2.020405895740085e-18
 1.099785143436051e-01 -2.174024556761723e-03 -1.934861537305367e-18
 1.099381184823656e-01 -3.689187519942027e-03 -1.918574895737437e-18
 1.098730246614880e-01 -5.283791416778493e-03 -1.901032497782258e-18
 1.098066212530566e-01 -6.519657121945416e-03 -1.887152698754495e-18
 1.095387901887268e-01  1.006247703053489e-02 -2.052761730085264e-18
 1.099970619499853e-01  8.039666479804436e-04 -1.965789391894857e-18
 1.062249676881013e-01  2.857019845331499e-02 -2.183948420108513e-18
 1.096993148610739e-01 -8.127749935309203e-03 -1.868720484026345e-18
 1.098839601465999e-01  5.051267415254979e-03 -2.007416082851578e-18
 1.085461109149501e-01 -1.782531360844226e-02 -1.748558900320093e-18
 1.076070632675051e-01 -2.281928865988442e-02 -1.680536147812170e-18
 1.062195219832582e-01  2.859043808073067e-02 -2.184059462114175e-18
 1.048928065550452e-01  3.312852446164531e-02 -2.207076167512398e-18
 1.065364720248080e-01 -2.738576507069413e-02 -1.614564813350310e-18
 1.099893480082064e-01 -1.530792190219404e-03 -1.941663314188082e-18
 1.098233463312571e-01 -6.231580907339792e-03 -1.890410219926678e-18
 1.095497965086035e-01  9.941935672871473e-03 -2.051719082015525e-18
 1.099998997600565e-01  1.485017760499292e-04 -1.959105230662720e-18
 1.099973602290867e-01 -7.620647167330824e-04 -1.949704296749307e-18
 1.099095358621296e-01  4.460260818744462e-03 -2.001798855133918e-18
 1.093692297945344e-01  1.176314473898460e-02 -2.067217943511961e-18
 1.046440158298639e-01 -3.390619340178359e-02 -1.513891265541264e-18
 1.097617863199241e-01 -7.235348219629245e-03 -1.879001341599791e-18
 1.096760574044894e-01  8.435782844947736e-03 -2.038490872102651e-18
 1.064389653306890e-01  2.776232445837979e-02 -2.179456151603579e-18
 1.070656811249194e-01 -2.523766877619731e-02 -1.646053629634176e-18
 1.099977460803726e-01 -7.041713128432482e-04 -1.950305997127147e-18
 1.098805993950387e-01 -5.123853685165524e-03 -1.902810601292776e-18
 1.094915490272755e-01  1.056412285084175e-02 -2.057075245835994e-18
 1.098972425589191e-01  4.753533206581012e-03 -2.004593348386843e-18
 1.066059309638644e-01 -2.711411963032831e-02 -1.618591976243166e-18
 1.093019900360870e-01  1.237234715610199e-02 -2.072280665333945e-18
 1.098883766268188e-01 -4.954259008409097e-03 -1.904691530104089e-18
 1.095969871605165e-01  9.407465404535943e-03 -2.047067408108000e-18
 1.097828280994073e-01 -6.908737547189725e-03 -1.882731611176225e-18
 1.099972303079317e-01 -7.805924569155795e-04 -1.949511618847602e-18
 1.078910291715861e-01  2.143655346122392e-02 -2.140302360712957e-18
 1.078874672628352e-01 -2.145447290451622e-02 -1.699549257474886e-18
 1.099970639310529e-01 -8.036955566813577e-04 -1.949271282015183e-18
 1.095135530215079e-01 -1.033352333937164e-02 -1.842751110074265e-18
 1.097379197590750e-01  7.588739483655320e-03 -2.030888723663972e-18
 1.099992343790679e-01 -4.104095745204577e-04 -1.953350778323752e-18
 1.052769493859053e-01  3.188673592573401e-02 -2.201153521309531e-18
 1.092551845205120e-01 -1.277907099083641e-02 -1.813026020684756e-18
 1.099885366003983e-01 -1.588022828172313e-03 -1.941060850203546e-18
 1.099770335929759e-01  2.247683716498794e-03 -1.980266631809034e-18
 1.096062801086258e-01  9.298567671927925e-03 -2.046113902561522e-18
 1.085923775679647e-01 -1.754125235371101e-02 -1.752300896800370e-18
 1.099321835871443e-01  3.861995826298701e-03 -1.996054942950946e-18
 1.098371762794287e-01 -5.982867787413478e-03 -1.893211777308221e-18
 1.098971531752655e-01 -4.755599223251621e-03 -1.906888876377812e-18
 1.093981438915985e-01  1.149113193175793e-02 -2.064937671579432e-18
 1.098868154576815e-01 -4.988766237199266e-03 -1.904309197996733e-18
 1.094783680790661e-01  1.069985620204763e-02 -2.058235286015392e-18
 1.096347936098085e-01 -8.956116911622614e-03 -1.859061081636787e-18
 1.096111204156262e-01  9.241335467942572e-03 -2.045612001493198e-18
 1.073109161511637e-01 -2.417368972246220e-02 -1.661349877717046e-18
 1.083094533271899e-01  1.921099476771667e-02 -2.124881910582450e-18
 1.081913376671551e-01 -1.986540847280994e-02 -1.721284053563554e-18
 9.024597091724508e-02  6.289407550162192e-02 -2.252248479920926e-18
 1.041314306543754e-01 -3.544919110322511e-02 -1.488915460054402e-18
 1.094435452854841e-01  1.105035724961735e-02 -2.061216843802226e-18
 1.096098372014574e-01 -9.256543019398539e-03 -1.855530183459923e-18
 1.099800060816372e-01 -2.097203443401254e-03 -1.935677393595918e-18
 1.099800060816372e-01 -2.097203443401254e-03 -1.935677393595918e-18
 1.099995243637533e-01  3.234806763874865e-04 -1.960896394673848e-18
 1.099642565598482e-01  2.803975613278646e-03 -1.985754946417983e-18
 1.095151807873024e-01 -1.031625790315675e-02 -1.842957474193314e-18
 1.050265115848773e-01  3.270216910713426e-02 -2.205074961622515e-18
 1.099125101435222e-01 -4.386355429064785e-03 -1.910956017795940e-18
 9.299320492441655e-02  5.875596852989003e-02 -2.258621240219424e-18
 9.966023069957897e-02 -4.656005172792071e-02 -1.295185066758032e-18
 9.953602647319361e-02  4.682498728166054e-02 -2.252472056099148e-18
 7.909237245004362e-02 -7.644865348862297e-02 -6.220609695623406e-19
 5.463541253582970e-02  9.547236090638829e-02 -1.953246163485303e-18
 4.907578762148974e-02 -9.844575698998098e-02  1.381322100972073e-19
 1.090763244889677e-01  1.422516910189106e-02 -2.087301750155034e-18
 8.194640812097527e-02 -7.338110244518352e-02 -7.043699113612044e-19
 1.097377000587126e-01 -7.591915820396500e-03 -1.874909095283343e-18
 1.090175279692316e-01 -1.466896708966822e-02 -1.789378642997506e-18
 1.099961648348674e-01 -9.185432056459543e-04 -1.948075263653843e-18
 1.059889927138596e-01 -2.943354248984283e-02 -1.583781596872321e-18
 9.280266169770644e-02 -5.905646435252467e-02 -1.044750346237314e-18
 8.239649504024897e-02  7.287535663777017e-02 -2.215111731255574e-18
 1.093749586678831e-01 -1.170975731596617e-02 -1.826144354067171e-18
 1.019579178377083e-01  4.128659576907605e-02 -2.238667541014938e-18
 1.097587067609018e-01 -7.281915282008584e-03 -1.878468077524093e-18
 1.063173256966543e-01 -2.822456831754035e-02 -1.602046444385529e-18
 1.099822782502641e-01  1.974454578217740e-03 -1.977552636602036e-18
 1.061956983711796e-01 -2.867880136019285e-02 -1.595214861543020e-18
 9.778951238839940e-02  5.037073820025915e-02 -2.257822057261381e-18
 1.042848279028286e-01  3.499535210963573e-02 -2.215437438090948e-18
 1.088045318534987e-01 -1.617324482412108e-02 -1.770132215786711e-18
 7.342624604191278e-02 -8.190596066338793e-02 -4.651536425925462e-19
 1.099995702657536e-01 -3.074757705716345e-04 -1.954414363270649e-18
 1.099995702657536e-01 -3.074757705716345e-04 -1.954414363270649e-18
 1.085547878877013e-01 -1.777239507371331e-02 -1.749257036121015e-18
 5.714871077306226e-02 -9.398949333290844e-02 -5.132157735943953e-20
 1.005554188457283e-01  4.459380832313049e-02 -2.247688806068340e-18
 2.101394603907200e-03 -1.099799260807109e-01  1.092606964302389e-18
 1.041485581445910e-01  3.539883947819055e-02 -2.217158041331122e-18
 1.098720546120324e-01 -5.303924521570869e-03 -1.900808374257120e-18
 1.080456502243560e-01  2.064309733533443e-02 -2.134901553332099e-18
 1.095810100559264e-01 -9.591779559755070e-03 -1.851572736348632e-18
 1.096809219805088e-01  8.372296787949344e-03 -2.037925146862606e-18
 1.093185916891610e-01 -1.222479084068350e-02 -1.819849454074346e-18
 1.099800699594962e-01 -2.093850926948030e-03 -1.935712976267299e-18
 9.253731565479184e-02 -5.947138144860421e-02 -1.035765074452744e-18
 9.513774030747243e-02  5.521603362419199e-02 -2.260414260256510e-18
-1.096177586559898e-01 -9.162258850150130e-03  2.044917653377305e-18
-1.091737308650804e-01  1.345720955469453e-02  1.804608828329644e-18
-1.040332291877219e-01  3.573635718389453e-02  1.484217320656711e-18
-9.944471479375824e-02 -4.701859950687642e-02  2.252836351123385e-18
-1.018249799160344e-01  4.161338084197386e-02  1.384534607640036e-18
 9.597518868232263e-03 -1.095805075347522e-01  9.551006108556569e-19
-9.324537349251626e-02  5.835495113733799e-02  1.059836724158026e-18
-1.060354428014309e-01  2.926576275965524e-02  1.586332107366416e-18
-1.084458854729219e-01 -1.842525234546003e-02  2.119236665407000e-18
-9.936044555504725e-02  4.719641786303752e-02  1.283311601649742e-18
-9.398764461834250e-02  5.715175114636574e-02  1.085408767074198e-18
 2.399093360408597e-02 -1.073519217564562e-01  6.760547172541329e-19
-1.056457099059912e-01  3.064284546936037e-02  1.565247321014441e-18
-1.079138641655205e-01  2.132130204433033e-02  1.701387304056775e-18
-1.079138641655205e-01  2.132130204433033e-02  1.701387304056775e-18
-1.099857975665698e-01 -1.767578469401216e-03  1.975489690167781e-18
-1.092419531115562e-01 -1.289169036133483e-02  2.076548299418495e-18
-9.511016836378917e-02 -5.526351304261824e-02  2.260411418406075e-18
-4.998867566392928e-02  9.798536781257927e-02 -1.171559468981586e-19
-1.081864073951176e-01 -1.989224107378610e-02  2.129691719764259e-18
-6.209651850197531e-02  9.079659899981833e-02  1.721795472393227e-19
-1.079756688973868e-01  2.100606879361009e-02  1.705726100119602e-18
-1.095294606425643e-01  1.016352553737798e-02  1.844780870826397e-18
-1.083871960844055e-01  1.876741124824104e-02  1.736051110338313e-18
-1.027880746396718e-01  3.917412043517036e-02  1.426736541634399e-18
-8.604027845219267e-02  6.853517698138029e-02  8.270153410047698e-19
-1.040625412377824e-01 -3.565091178546213e-02  2.218217219256328e-18
-1.068273289636829e-01  2.622826312368112e-02  1.631633871542461e-18
-1.045772999339016e-01 -3.411141067934217e-02  2.211560149671571e-18
-8.174685858935846e-02 -7.360333627473280e-02  2.211030402013148e-18
-1.079585394262007e-01  2.109392720574904e-02  1.704518547478797e-18
-1.056357856949857e-01 -3.067703995829826e-02  2.195110254847653e-18
-1.099998646307005e-01  1.725723834940921e-04  1.955805685141682e-18
-1.096693402678150e-01 -8.522664209164151e-03  2.039264007098847e-18
-1.094372169315320e-01  1.111285518131008e-02  1.833385266729242e-18
-1.093297833103008e-01 -1.212429302362149e-02  2.070226613701342e-18
-1.094464113885379e-01  1.102193423001989e-02  1.834483072804729e-18
-1.099985793894708e-01 -5.590458820827766e-04  1.963299924643689e-18
-1.061053255634168e-01  2.901137513254571e-02  1.590189494931921e-18
-1.099726572020655e-01  2.452481991157694e-03  1.931896253502233e-18
-1.079186223494769e-01 -2.129720522019134e-02  2.139361661672483e-18
-1.099810428751968e-01 -2.042108734639557e-03  1.978225773509516e-18
-1.049544494604649e-01 -3.293271228506230e-02  2.206161277563241e-18
-1.099362627585519e-01 -3.744079417241016e-03  1.994915988404551e-18
-1.067191283466991e-01  2.666510162967173e-02  1.625219955538768e-18
-1.061519414977366e-01 -2.884034181942138e-02  2.185424456893554e-18
-1.089547809992404e-01 -1.512797730721253e-02  2.094414765118255e-18
-1.083490760265156e-01  1.898625092534845e-02  1.733124220252839e-18
-1.098026929038591e-01  6.585486395154853e-03  1.886406417226289e-18
-1.011775405569629e-01  4.316370334950533e-02  1.357083651374740e-18
-1.042030909871117e-01 -3.523798843197077e-02  2.216475832245588e-18
-9.018248379007632e-02 -6.298507456098301e-02  2.252053633040348e-18
-1.092603709866758e-01  1.273465083360933e-02  1.813574721015714e-18
-1.023661553890838e-01 -4.026375828034322e-02  2.235423331575962e-18
-1.097894541261780e-01 -6.802629100268390e-03  2.023728840581140e-18
-1.099482300218330e-01 -3.374420700813531e-03  1.991330851104868e-18
-1.099704508666937e-01  2.549497239861918e-03  1.930860192694913e-18
-1.089812762737102e-01 -1.493591047620545e-02  2.092912863215948e-18
-1.098204017473240e-01  6.283260304676194e-03  1.889826830509180e-18
-1.083706397983596e-01  1.886277894940658e-02  1.734776602993960e-18
-1.096500891475532e-01 -8.766866597228425e-03  2.041430501275827e-18
-1.099690474152387e-01  2.609331444057116e-03  1.930220441890124e-18
-1.097596721103563e-01 -7.267350151674764e-03  2.027973674067633e-18
-1.087279946511112e-01  1.668002335573546e-02  1.763563179659177e-18
-1.099767648523342e-01  2.260794686466699e-03  1.933938871459722e-18
-1.075480953780234e-01 -2.309560955159113e-02  2.151245643431099e-18
-1.081509560420059e-01  2.008409089802313e-02  1.718318531897093e-18
-1.099755829753093e-01  2.317573998995839e-03  1.933334451738337e-18
-1.097308978528054e-01 -7.689607039189623e-03  2.031800137956685e-18
-1.099786604446704e-01 -2.166621054972324e-03  1.979462694176082e-18
-1.098797240564349e-01 -5.142590911369463e-03  2.008279012321458e-18
-1.097272591679953e-01 -7.741356178317160e-03  2.032267086825659e-18
-1.064740071591709e-01 -2.762762746724336e-02  2.178695800088465e-18
-1.071061777336977e-01  2.506524867775135e-02  1.648545868969725e-18
-9.963746747532767e-02 -4.660874462054281e-02  2.252055504947131e-18
-9.488104378486749e-02  5.565597479421257e-02  1.116676429573156e-18
-1.051266223820255e-01 -3.237890156486129e-02  2.203535096111261e-18
-9.358760967668704e-02  5.780449216976169e-02  1.071582991215267e-18
-5.662678408007292e-02 -9.430486373856208e-02  1.976689386228038e-18
-7.332601326088568e-02  8.199570585868739e-02  4.624477814123449e-19
-8.069905432199836e-02  7.475066977315403e-02  6.680999558407390e-19
-8.654071067980439e-02  6.790217518632491e-02  8.424249929250092e-19
-8.207031952482827e-02  7.324249212781174e-02  7.079992332574659e-19
-6.921772538885329e-02 -8.549214286701001e-02  2.110212700290843e-18
-1.091160138797503e-01  1.391745361027269e-02  1.798852845250839e-18
-8.966206551827037e-02 -6.372373189791508e-02  2.250381604920037e-18
-1.099841829295912e-01  1.865343215118829e-03  1.938134005204987e-18
-1.086670004113258e-01 -1.707287385313030e-02  2.109276471763137e-18
-1.074585130089322e-01  2.350889154998823e-02  1.670807099580922e-18
-1.084364118467154e-01 -1.848092491758719e-02  2.119640086382456e-18
-1.092025351674923e-01  1.322143384783084e-02  1.807543944987523e-18
-1.098583672316930e-01  5.580246337433621e-03  1.897725684718916e-18
-9.541533709743127e-02  5.473493807965363e-02  1.135648134054121e-18
-1.090153852166842e-01 -1.468488290923397e-02  2.090940655483306e-18
-1.009964310043654e-01 -4.358578810094436e-02  2.245180101891627e-18
-1.086451957049267e-01  1.721108509763807e-02  1.756633207167180e-18
-9.583235120270146e-02 -5.400148574772775e-02  2.260296651478865e-18
-1.098942744151322e-01  4.821664730318294e-03  1.906158846321931e-18
-1.055617112863295e-01 -3.093097331642807e-02  2.196401085394510e-18
-1.085166152833726e-01  1.800400531660847e-02  1.746197997984695e-18
-1.069867665802671e-01 -2.557013446776124e-02  2.166680972487217e-18
-1.097593254946395e-01  7.272583238556670e-03  1.878574971985413e-18
-1.093175499958820e-01 -1.223410245575057e-02  2.071137159303330e-18
-1.098454650817802e-01  5.828704913388860e-03  1.894943253960941e-18
-1.099999865152746e-01  5.446686500043409e-05  1.957021345521228e-18
-1.048971879356058e-01 -3.311464877062950e-02  2.207011571721229e-18
-1.061141987059001e-01  2.897890324019693e-02  1.590681039984453e-18
-4.907926362069630e-02 -9.844402410735838e-02  1.884900625795769e-18
-7.817760913601154e-02  7.738385768218699e-02  5.961727818640649e-19
-1.094524711015939e-01 -1.096159521943451e-02  2.060463691731581e-18
-1.062428729827231e-01  2.850354259345540e-02  1.597855110189072e-18
-1.098607770832653e-01 -5.532599629562520e-03  2.011949026233545e-18
-9.180325347588075e-02  6.059837168805075e-02  1.011122147051014e-18
-1.070182683791237e-01  2.543796833738534e-02  1.643151858038674e-18
-1.000205685578991e-01 -4.578084605328499e-02  2.250366888664332e-18
-1.058612246832587e-01  2.988981613460646e-02  1.576819766411792e-18
-9.354085621611165e-02 -5.788011937061540e-02  2.259368316276685e-18
-1.099990561788476e-01  4.556750626288427e-04  1.952882520591613e-18
-1.062433304314276e-01 -2.850183746424883e-02  2.183572822700817e-18
-1.089595975773220e-01  1.509324669473074e-02  1.783988383758248e-18
-1.072664045239914e-01 -2.437044235329740e-02  2.159331062597771e-18
-1.097322615501512e-01  7.670122234304413e-03  1.874008768043458e-18
-1.088323100359251e-01 -1.598525233595720e-02  2.101043437734224e-18
-1.097685610411281e-01  7.131830547629769e-03  1.880185512319578e-18
-1.050731330191453e-01 -3.255206164808852e-02  2.204362346045433e-18
-1.081887190132981e-01  1.987966494339368e-02  1.721090971438246e-18
-1.076963105638147e-01  2.239430041198743e-02  1.686491009769077e-18
-1.098247732625736e-01  6.206382023711833e-03  1.890694523246804e-18
-1.084741863934704e-01  1.825789928427169e-02  1.742834256992560e-18
-1.087022543918445e-01  1.684695492160805e-02  1.761389939843561e-18
-1.079972764663441e-01  2.089469492124756e-02  1.707254958663216e-18
-8.496494359676560e-02 -6.986385588842352e-02  2.229878260867805e-18
-1.074354780215355e-01 -2.361393788177087e-02  2.154567118536268e-18
-1.099999165747660e-01 -1.354752541421519e-04  1.958971687120093e-18
-1.079268959039120e-01 -2.125523795552794e-02  2.139077701043800e-18
-1.099792225303200e-01  2.137898881216109e-03  1.935245318525519e-18
-1.089322500385806e-01 -1.528937217586511e-02  2.095672073442670e-18
-1.024636051081927e-01  4.001511749617016e-02  1.412321279988904e-18
-1.051806310769267e-01  3.220302542090415e-02  1.540940406251835e-18
-1.081948165664021e-01  1.984645228151771e-02  1.721540732704721e-18
-9.796331901591215e-02  5.003187111618543e-02  1.229314816196063e-18
-9.002099681653115e-02 -6.321566366145377e-02  2.251548998958380e-18
-6.666337984234282e-02 -8.749853591915399e-02  2.085370034102512e-18
-1.081892583864267e-01 -1.987672935356735e-02  2.129583079265108e-18
-8.412540751702216e-02 -7.087253212701600e-02  2.225301496822152e-18
-1.091736514323221e-01  1.345785394978688e-02  1.804600793803475e-18
 3.128862448110099e-02 -1.054562562301574e-01  5.267063284552957e-19
-1.075828675156384e-01  2.293309000358591e-02  1.678936288080209e-18
-1.069595709936588e-01  2.568365575326897e-02  1.639582919100568e-18
-1.079808943424797e-01  2.097919104727790e-02  1.706095252227814e-18
-8.434227774747502e-02 -7.061430580532349e-02  2.226507779616094e-18
-1.099341735428832e-01 -3.804929361130718e-03  1.995504019388041e-18
-1.099681310991827e-01  2.647667379584656e-03  1.929810247141693e-18
-1.096568614802001e-01 -8.681746961998566e-03  2.040676449683155e-18
-1.086324783565501e-01 -1.729117249100334e-02  2.110905049821494e-18
-1.093869061900385e-01 -1.159761846982684e-02  2.065831793770497e-18
-1.099525158014285e-01 -3.231759418116181e-03  1.989941328810088e-18
-1.097706147446509e-01 -7.100150602727414e-03  2.026450496671137e-18
-1.097706147446509e-01 -7.100150602727414e-03  2.026450496671137e-18
-1.097772386305441e-01 -6.996990685469642e-03  2.025508445947093e-18
 2.111052352500434e-02  1.079552953610901e-01 -1.484888390430983e-18
-1.097954201421746e-01  6.705648052450377e-03  1.885042372379434e-18
-1.035580649880355e-01 -3.709079637772398e-02  2.224033753747569e-18
-1.098872739467905e-01 -4.978656901513293e-03  2.006729009227444e-18
-1.089269451967058e-01 -1.532712008545034e-02  2.095965513511914e-18
-1.099992861654491e-01 -3.962866281020555e-04  1.961640210356434e-18
-1.082950453323078e-01  1.929204904807557e-02  1.729020714975970e-18
-1.082950453323078e-01  1.929204904807557e-02  1.729020714975970e-18
-9.153468624461811e-02  6.100328855151407e-02  1.002182299134752e-18
-1.097375426894477e-01 -7.594190179446332e-03  2.030938017179341e-18
-1.083037952686076e-01  1.924286700093003e-02  1.729681758197714e-18
-9.608733098013282e-02 -5.354647350773314e-02  2.260159235296152e-18
-1.063973508570377e-01  2.792138482605038e-02  1.606585687809174e-18
-1.098790357341922e-01 -5.157277006722994e-03  2.008417657100809e-18
-1.093701782298894e-01  1.175432320306858e-02  1.825601382170297e-18
-1.076941509717257e-01 -2.240468358355267e-02  2.146745863614526e-18
-1.095195477078711e-01  1.026979405165038e-02  1.843512587949124e-18
-1.099336702591449e-01 -3.819442806689151e-03  1.995644183234372e-18
-1.099671218417112e-01  2.689258977899408e-03  1.929364947637456e-18
-1.099671218417112e-01  2.689258977899408e-03  1.929364947637456e-18
-1.099864993939655e-01 -1.723354595314330e-03  1.975047795782485e-18
-1.098956286755398e-01  4.790699114724998e-03  1.906501107452604e-18
-1.099875775799575e-01  1.653111639546532e-03  1.940375019398877e-18
-1.099278165531197e-01  3.984362918162134e-03  1.915358740629999e-18
-1.099827204684538e-01 -1.949666217050206e-03  1.977305814996127e-18
-1.082431690583617e-01  1.958102020332189e-02  1.725128441155650e-18
-1.099278420378582e-01  3.983659736932902e-03  1.915366419093005e-18
-1.061268946969097e-01  2.893237325196465e-02  1.591385059014865e-18
 3.703027878623640e-02 -1.035797202786993e-01  4.052460159929258e-19
-1.011888161976324e-01  4.313726320157241e-02  1.357555977765586e-18
-1.097027540951398e-01  8.081196937412672e-03  1.869260004441026e-18
 9.798292264988347e-03 -1.095627375921661e-01  9.513450290644454e-19
-1.055387169243874e-01  3.100934101128224e-02  1.559577644725067e-18
-1.072921511516789e-01  2.425684029805322e-02  1.660161590209544e-18
-1.095871067493281e-01  9.521871366034853e-03  1.852399515574943e-18
-1.084982579238087e-01 -1.811430449944602e-02  2.116973819483330e-18
-1.097071720759984e-01  8.020997137965370e-03  1.869957158750815e-18
-1.020138754768229e-01 -4.114813738432450e-02  2.238240764346324e-18
-9.842738879634430e-02  4.911261685894207e-02  1.247018495055683e-18
-8.265200284703354e-02 -7.258544224136081e-02  2.216680032352564e-18
-1.082827285486967e-01  1.936106138746621e-02  1.728092446402591e-18
-1.085762310684144e-01 -1.764091967495594e-02  2.113497587496874e-18
-1.097555662803077e-01  7.329097522133711e-03  1.877927408548496e-18
-1.097230937575551e-01 -7.800172835953062e-03  2.032797278168993e-18
-1.099685048665843e-01  2.632097530105422e-03  1.929976873325766e-18
-1.099685048665843e-01  2.632097530105422e-03  1.929976873325766e-18
-1.099680874581068e-01 -2.649479346238399e-03  1.984235728802399e-18
-1.094051252924572e-01 -1.142447196774083e-02  2.064377007020815e-18
-1.095307415763638e-01  1.014971180535571e-02  1.844945597649708e-18
-8.254964998079575e-02  7.270182451663837e-02  7.220846537831765e-19
-1.095307415763648e-01  1.014971180534395e-02  1.844945597649848e-18
-1.096837820451527e-01 -8.334743923565362e-03  2.037590203084891e-18
-9.916215503263534e-02 -4.761162682878580e-02  2.253901003427448e-18
-1.098936423227621e-01 -4.836049734731859e-03  2.005377105240763e-18
-1.098936423227621e-01 -4.836049734731859e-03  2.005377105240763e-18
-8.004995774184669e-02 -7.544537272443239e-02  2.199758282656505e-18
-1.045977347170534e-01  3.404869883065865e-02  1.511603446419152e-18
-1.097402679036729e-01 -7.554707170371126e-03  2.030580842042034e-18
-1.096015664762159e-01 -9.353963115150243e-03  2.046599185905691e-18
-1.066028412306545e-01 -2.712626479174419e-02  2.175837236709347e-18
-1.068531447131774e-01 -2.612289158773834e-02  2.169982390579312e-18
-1.099608550675334e-01  2.934340269442505e-03  1.926735301676112e-18
-1.099991497125550e-01 -4.325072425715392e-04  1.962009935670176e-18
-1.087313510290205e-01  1.665813024933686e-02  1.763847854122811e-18
-1.094578469964706e-01 -1.090778304226781e-02  2.060006461621553e-18
-1.066861263660311e-01  2.679683639930680e-02  1.623279119024072e-18
-1.080206760243793e-01 -2.077338564692974e-02  2.135795772724828e-18
-6.658109669834242e-02  8.756116469329280e-02  2.852308778008535e-19
-1.050323780284570e-01 -3.268332243954510e-02  2.204985719320740e-18
-1.036020131906238e-01  3.696786256804398e-02  1.463890047163888e-18
-8.609897641351193e-02 -6.846142169532768e-02  2.235650225695346e-18
-1.037211925781935e-01  3.663214722285953e-02  1.469460339743986e-18
-1.079817532313639e-01 -2.097476982187865e-02  2.137172244434813e-18
-6.932832211002132e-02  8.540248095581936e-02  3.563007222251600e-19
-8.768256237355697e-02 -6.642114313686014e-02  2.242868905810734e-18
-1.076995387027278e-01 -2.237877036880291e-02  2.146575495846403e-18
-9.844660869280492e-02 -4.907407907323091e-02  2.256193168320134e-18
-1.071439622956645e-01 -2.490323962028199e-02  2.162626355458552e-18
-1.087286711395550e-01 -1.667561309896801e-02  2.106292265999953e-18
-1.198846949252424e-02 -1.093447602733061e-01  1.336826804963172e-18
-9.628698137214327e-02  5.318662631000856e-02  1.167068424633205e-18
-5.931962751876009e-02 -9.263466840786726e-02  2.007451097070776e-18
-5.401625385826898e-02  9.582402787985382e-02 -2.327340600502531e-20
-1.090057143215194e-01  1.475649840766001e-02  1.788269052549900e-18
 1.029390494962896e-03  1.099951833273114e-01 -1.148479782338729e-18
-9.136234295853826e-02 -6.126109931372764e-02  2.255337414935510e-18
-1.070945445430075e-01 -2.511490651238313e-02  2.163921708026193e-18
-9.826989744762460e-02 -4.942698914189812e-02  2.256674403676755e-18
-2.932642251573495e-02  1.060186820443858e-01 -5.674047739561740e-19
-7.127537886449502e-02 -8.378436827787548e-02  2.129284334830175e-18
-1.096808521709625e-01  8.373211274739462e-03  1.865869892339167e-18
-1.079617268114957e-01 -2.107760764128454e-02  2.137872471641233e-18
-1.071797378079935e-01  2.474881418189016e-02  1.653106207730809e-18
-1.089535241867756e-01 -1.513702636853326e-02  2.094485374459069e-18
-9.480643560949989e-02  5.578297022409003e-02  1.114043856188458e-18
-1.055895890783277e-01 -3.083567217152665e-02  2.195918019313275e-18
-1.097959325421790e-01  6.697252958732901e-03  1.885137747686974e-18
-1.005884902722967e-01 -4.451916019805445e-02  2.247510369185525e-18
-1.099856564723344e-01  1.776336215254049e-03  1.939074743245717e-18
-1.056111619239729e-01 -3.076170471655182e-02  2.195541945104951e-18
-1.083447886665997e-01 -1.901070142813828e-02  2.123452803793449e-18
-5.835735487528356e-02 -9.324386913872773e-02  1.996585623744117e-18
-1.082985805685561e-01 -1.927219361764325e-02  2.125317212824268e-18
-9.543706135282222e-02  5.469705038059747e-02  1.136424025436715e-18
-7.772858628127909e-02 -7.783486927279903e-02  2.182997917482208e-18
-1.969270342478142e-02  1.082229062251776e-01 -7.614958994217345e-19
-1.092585245003801e-01 -1.275048328495124e-02  2.075392355636342e-18
-1.093098898651299e-01  1.230235659022871e-02  1.818897634836644e-18
-1.097114977969264e-01  7.961611090412365e-03  1.870644310179989e-18
-1.097114977969264e-01  7.961611090412365e-03  1.870644310179989e-18
-7.241766354291017e-02  8.279904593040806e-02  4.380285872557804e-19
-1.088951447338741e-01  1.555144537940337e-02  1.778133543492444e-18
-1.088951447338741e-01  1.555144537940337e-02  1.778133543492444e-18
-1.007114555735173e-01  4.424028386282600e-02  1.337727639444617e-18
-1.068567177490570e-01 -2.610827209714062e-02  2.169895767059812e-18
-9.885782621661884e-02  4.824033784836874e-02  1.263640992353397e-18
-9.843448465941343e-02 -4.909839335289570e-02  2.256227227074734e-18
-1.071190000841433e-01 -2.501039425865300e-02  2.163283098111571e-18
-7.352655873369036e-02  8.181592241600127e-02  4.678639368836123e-19
-1.093217764232193e-01  1.219627810734131e-02  1.820199088193031e-18
-1.094724077615580e-01  1.076066628453569e-02  1.837630142500884e-18
-8.754547743199134e-02  6.660172205885266e-02  8.736676992766397e-19
-1.092504580499815e-01 -1.281941558220194e-02  2.075957057842605e-18
-1.099780355671254e-01  2.198111188282580e-03  1.934605535517914e-18
-1.072830792908447e-01 -2.429693186133350e-02  2.158872516363640e-18
-1.077216010339425e-01  2.227232970939673e-02  1.688194288513214e-18
-1.099194745031368e-01 -4.208221115175555e-03  1.999386108710539e-18
 3.226940105202162e-02 -1.051602860196935e-01  5.062112530681296e-19
-1.065529498083471e-01  2.732158280809915e-02  1.615517504596380e-18
-1.099989320047722e-01  4.847244675899975e-04  1.952581838682664e-18
-1.014652484221521e-01  4.248297732775948e-02  1.369197968611263e-18
-1.049909280844693e-01 -3.281623104443515e-02  2.205613655757543e-18
-1.043588434555842e-01 -3.477401030385829e-02  2.214480426493975e-18
-1.085132830084551e-01  1.802407863739233e-02  1.745932450098665e-18
-1.080008007602773e-01 -2.087647084971123e-02  2.136501231702731e-18
-1.028062680917911e-01  3.912634970245410e-02  1.427551142741715e-18
-9.286692075877606e-02 -5.895536471588633e-02  2.258422586230817e-18
-1.098961238062488e-01  4.779327605594907e-03  1.906626757019550e-18
-1.046319637179342e-01 -3.394336707707231e-02  2.210806369945870e-18
-1.099310681936507e-01  3.893616031774509e-03  1.916348998743826e-18
-1.096114413894331e-01 -9.237527620031232e-03  2.045578589350956e-18
-1.098606380751403e-01  5.535359222579308e-03  1.898227295885742e-18
-1.095022919362708e-01 -1.045217971064746e-02  2.056116253616421e-18
-1.099236619449789e-01  4.097382653105018e-03  1.914123567702642e-18
-1.099152527887282e-01 -4.317082856505745e-03  2.000429493112601e-18
-6.880409052688510e-02  8.582538742568058e-02  3.426261855292020e-19
-1.099997906852993e-01 -2.145907507339689e-04  1.959782329753949e-18
-1.093508849069382e-01  1.193247543762539e-02  1.823427584982019e-18
-1.091809970269307e-01 -1.339813002643676e-02  2.080666996765393e-18
-1.099835351041910e-01 -1.903156847226502e-03  1.976842445531390e-18
-1.063545551207217e-01  2.808395636432550e-02  1.604153723134649e-18
-1.099714094997445e-01 -2.507806340105636e-03  1.982839209823760e-18
-1.057219516696699e-01 -3.037875795940244e-02  2.193578941968330e-18
-8.186527372643425e-02  7.347160647281342e-02  7.019961320233686e-19
-1.093081593971796e-01 -1.231772256550431e-02  2.071829208648831e-18
-1.096633669629331e-01 -8.599182888683648e-03  2.039943906648269e-18
-1.096633669629331e-01 -8.599182888683648e-03  2.039943906648269e-18
 9.229424889776659e-03  1.096121239471434e-01 -1.290473379772838e-18
-9.460109657713754e-02 -5.613049551182547e-02  2.260259808640934e-18
-9.130047838177015e-02 -6.135326109718935e-02  2.255183389842509e-18
-4.503275389495521e-02 -1.003596087907698e-01  1.832570095119528e-18
-5.999698349715364e-02  9.219740761671252e-02  1.204230177476890e-19
-7.486830481790069e-02 -8.058993072148575e-02  2.160403052524272e-18
-1.024486125759796e-01  4.005348650563144e-02  1.411660242360581e-18
-1.099333351402187e-01  3.829076252611491e-03  1.917052464547558e-18
-1.097239349035055e-01  7.788331611535401e-03  1.872646027025057e-18
-1.050455742281783e-01 -3.264088441008078e-02  2.204784526099556e-18
-1.065870317076379e-01  2.718831866362771e-02  1.617493273322005e-18
-1.090321994357870e-01 -1.455951531455390e-02  2.089951778076096e-18
-5.283443241892967e-02  9.648068589603574e-02 -5.105225081687651e-20
-1.095144298253436e-01 -1.032422684901168e-02  2.055017592659381e-18
-1.088095458060550e-01  1.613947773256564e-02  1.770568389652422e-18
-9.566629601925261e-02 -5.429511769907769e-02  2.260358463043619e-18
-1.096048890242030e-01  9.314950455697784e-03  1.854842009553062e-18
-1.099364003020652e-01 -3.740038585904291e-03  1.994876918081372e-18
-1.064130951283860e-01 -2.786132059319946e-02  2.180012909817307e-18
-1.076344881628595e-01 -2.268957817852139e-02  2.148611281231610e-18
-1.099998237599777e-01 -1.969080338761114e-04  1.959601234865215e-18
-1.098193490836533e-01 -6.301632077696044e-03  2.019113294600389e-18
-1.086192023567537e-01 -1.737437421556680e-02  2.111523655064010e-18
-5.238520267451269e-02  9.672533556804129e-02 -6.156051648503089e-20
-9.642368196024625e-02 -5.293839398044907e-02  2.259897205956324e-18
-1.070411509103235e-01 -2.534150768587633e-02  2.165299749382258e-18
-6.460958920951443e-02 -8.902584446203117e-02  2.064512920391673e-18
-2.783069963957935e-02  1.064211076693505e-01 -5.981577238069684e-19
-1.040988062846258e-01 -3.554488050501664e-02  2.217773166134979e-18
-1.045048888671308e-01  3.433261136104582e-02  1.507034045656826e-18
-1.076240783451600e-01 -2.273890411508067e-02  2.148932832187811e-18
-1.091979270630906e-01  1.325943909537323e-02  1.807071448160671e-18
-1.047732314282136e-01 -3.350477542216855e-02  2.208814027434204e-18
-1.099957549632429e-01  9.663798767474854e-04  1.947576465081500e-18
-9.604368105254961e-02 -5.362472685129575e-02  2.260186457445191e-18
 3.330592630901927e-04  1.099994957785136e-01 -1.136132046323107e-18
-1.076109219157751e-01 -2.280108515919631e-02  2.149337585473041e-18
-8.775556868415346e-02  6.632465729214729e-02  8.802532635429629e-19
-3.600021414859173e-02  1.039422175117286e-01 -4.273017723098739e-19
-1.019293229533060e-01 -4.135714112799162e-02  2.238883488873529e-18
-1.087426102213450e-01 -1.658447232348934e-02  2.105603890228344e-18
-1.089552528383924e-01 -1.512457863617832e-02  2.094388241948559e-18
-1.097796632999788e-01 -6.958845144364764e-03  2.025159664254268e-18
-1.099555929506632e-01 -3.125312603246943e-03  1.988902387997583e-18
-1.045975238659863e-01 -3.404934655913953e-02  2.211282372378037e-18
-1.098846354152373e-01  5.036556329512307e-03  1.903779375703248e-18
-1.099806335619024e-01  2.064035203796457e-03  1.936029351968588e-18
-1.099806335619024e-01  2.064035203796457e-03  1.936029351968588e-18
-1.085148883758910e-01  1.801441091925757e-02  1.746060351818970e-18
-1.099652299864636e-01 -2.765536841943494e-03  1.985377325293988e-18
-1.099286738967008e-01 -3.960638245635726e-03  1.997005998847706e-18
-1.099190329972479e-01  4.219737545143051e-03  1.912784037988506e-18
-1.094158722101895e-01 -1.132108247843132e-02  2.063505971797042e-18
-1.096890904929655e-01 -8.264588726971472e-03  2.036963854086243e-18
-1.091342942756910e-01  1.377337333215238e-02  1.800658539219684e-18
-1.098336809250428e-01  6.046696160371734e-03  1.892493759962394e-18
-1.059950106354815e-01  2.941186359930511e-02  1.584111435690972e-18
-1.045872621834133e-01  3.408085370083792e-02  1.511086695580792e-18
-2.228021706793370e-02 -1.077199699563907e-01  1.503286599242087e-18
-1.095866121492230e-01 -9.527561999574418e-03  2.048116721292627e-18
-1.007445577650561e-01  4.416485119100069e-02  1.339091775729244e-18
-6.627887673603688e-02 -8.779015035076086e-02  2.081523575023457e-18
-1.043991466007283e-01 -3.465282368061216e-02  2.213952520506932e-18
-1.067637270228285e-01 -2.648596972351460e-02  2.172121592067454e-18
-1.097294316607992e-01 -7.710501111987358e-03  2.031988724328775e-18
-1.087775846430533e-01 -1.635350357640011e-02  2.103853181809651e-18
-1.099219385304965e-01 -4.143359711358957e-03  1.998763531654682e-18
-1.085403145610361e-01 -1.786057431862971e-02  2.115115282074805e-18
-1.098616926648124e-01 -5.514388889284992e-03  2.011778211358409e-18
-1.071097373815864e-01 -2.505003309473965e-02  2.163525531911753e-18
-1.097714987579674e-01  7.086470237679163e-03  1.880703853201607e-18
-7.185210519638491e-02  8.329030543135019e-02  4.229162889453145e-19
-6.858005848026021e-02 -8.600450906111873e-02  2.104129033532267e-18
-1.025863119493619e-01  3.969947859390809e-02  1.417748069655671e-18
-1.090960702236990e-01  1.407293365811518e-02  1.796900423091629e-18
-8.605295574395651e-02  6.851925866301117e-02  8.274045034723001e-19
-4.027574979372568e-02 -1.023614379468810e-01  1.768481600149938e-18
-1.088379265283481e-01  1.594696676518343e-02  1.773051438715495e-18
-1.097210825421755e-01  7.828412723731755e-03  1.872183446985274e-18
-1.099589700809246e-01  3.004146924218363e-03  1.925984518071857e-18
-8.291364422688106e-02 -7.228642750211246e-02  2.218263984981823e-18
-1.098623214123031e-01  5.501848225802810e-03  1.898601566196802e-18
-9.950992897787271e-02 -4.688042272440265e-02  2.252577199075757e-18
-1.016207320915390e-01 -4.210969970422049e-02  2.241124012375594e-18
-5.042611669063297e-02 -9.776096744356939e-02  1.901851323674334e-18
-1.014722062729673e-01  4.246635555467823e-02  1.369492574546339e-18
-1.067076930996028e-01 -2.671082614523432e-02  2.173434719613224e-18
-1.068688880286089e-01  2.605841076367871e-02  1.634118635972782e-18
-9.250709103274109e-02 -5.951838462744192e-02  2.257803812097770e-18
-1.401822795023881e-02  1.091031130863602e-01 -8.715237649952192e-19
-9.051520962042756e-02  6.250597433341891e-02  9.685999460053008e-19
-1.076297243362409e-01  2.271216500699063e-02  1.682040085179944e-18
 3.537303787184256e-02 -1.041573242346267e-01  4.406732657132176e-19
-1.070584183119691e-01  2.526845995583024e-02  1.645608011029157e-18
-1.037809499203470e-01 -3.646250723181810e-02  2.221544814250144e-18
-1.091130485743919e-01  1.394068258021669e-02  1.798561404877087e-18
-9.429823991977769e-02 -5.663781376458672e-02  2.260082623915608e-18
-5.255966036817173e-02  9.663064784002229e-02 -5.748295171765065e-20
-1.001311226536074e-01  4.553853616584741e-02  1.314060852093095e-18
-1.035716903681840e-01 -3.705273207574569e-02  2.223885136765099e-18
-1.014295581798970e-01  4.256811867384843e-02  1.367688021775828e-18
-1.067761410245518e-01 -2.643587917783330e-02  2.171827851875666e-18
-1.096655635565280e-01  8.571124187006396e-03  1.863564329930950e-18
-1.099479308200863e-01 -3.384155490144052e-03  1.991425547876886e-18
-1.089736409839022e-01  1.499151662479690e-02  1.785283542442864e-18
-1.091415934609251e-01 -1.371541384027912e-02  2.083225739233129e-18
-1.098919271773587e-01  4.874868331150214e-03  1.905570426754668e-18
-1.095550509617420e-01 -9.883866084182723e-03  2.051215947348109e-18
-1.097210819379207e-01  7.828421192811151e-03  1.872183349215125e-18
-1.089612489108879e-01 -1.508132075713188e-02  2.094050490218140e-18
-1.099249566285483e-01  4.062500487598585e-03  1.914505009719998e-18
-1.090075733123349e-01 -1.474275959771098e-02  2.091396295276186e-18
-1.099612336289133e-01 -2.920119656368767e-03  1.986894487607053e-18
-1.095410747750763e-01 -1.003757625729962e-02  2.052546540625253e-18
-1.095410747750763e-01 -1.003757625729962e-02  2.052546540625253e-18
-6.602664598602614e-02  8.798000920570505e-02  2.710602907916492e-19
-1.089510930156340e-01  1.515451519180406e-02  1.783207523388070e-18
-1.092364881291862e-01 -1.293791564364746e-02  2.076925991521792e-18
-1.037155668864545e-01  3.664807205599441e-02  1.469196601973496e-18
-1.094114309496243e-01 -1.136392439061269e-02  2.063867119351976e-18
-1.099005234199661e-01  4.677066603915016e-03  1.907755748037457e-18
-1.098760022778183e-01  5.221505859886109e-03  1.901725449487191e-18
-1.098760022778183e-01  5.221505859886109e-03  1.901725449487191e-18
-1.097223386990648e-01  7.810786798247436e-03  1.872386901776874e-18
-1.098056673927422e-01  6.535702596847434e-03  1.886970862246638e-18
-1.097441172076313e-01 -7.498582420541250e-03  2.030072683581606e-18

TENSORS stress double
0.000000000000000e+00 0.000000000000000e+00 0.000000000000000e+00
0.000000000000000e+00 0.000000000000000e+00 0.000000000000000e+00
0.000000000000000e+00 0.000000000000000e+00 0.000000000000000e+00

0.000000000000000e+00 0.000000000000000e+00 0.000000000000000e+00
0.000000000000000e+00 0.000000000000000e+00 0.000000000000000e+00
0.000000000000000e+00 0.000000000000000e+00 0.000000000000000e+00

0.000000000000000e+00 0.000000000000000e+00 0.000000000000000e+00
0.000000000000000e+00 0.000000000000000e+00 0.000000000000000e+00
0.000000000000000e+00 0.000000000000000e+00 0.000000000000000e+00

0.000000000000000e+00 0.000000000000000e+00 0.000000000000000e+00
0.000000000000000e+00 0.000000000000000e+00 0.000000000000000e+00
0.000000000000000e+00 0.000000000000000e+00 0.000000000000000e+00

0.000000000000000e+00 0.000000000000000e+00 0.000000000000000e+00
0.000000000000000e+00 0.000000000000000e+00 0.000000000000000e+00
0.000000000000000e+00 0.000000000000000e+00 0.000000000000000e+00

0.000000000000000e+00 0.000000000000000e+00 0.000000000000000e+00
0.000000000000000e+00 0.000000000000000e+00 0.000000000000000e+00
0.000000000000000e+00 0.000000000000000e+00 0.000000000000000e+00

0.000000000000000e+00 0.000000000000000e+00 0.000000000000000e+00
0.000000000000000e+00 0.000000000000000e+00 0.000000000000000e+00
0.000000000000000e+00 0.000000000000000e+00 0.000000000000000e+00

0.000000000000000e+00 0.000000000000000e+00 0.000000000000000e+00
0.000000000000000e+00 0.000000000000000e+00 0.000000000000000e+00
0.000000000000000e+00 0.000000000000000e+00 0.000000000000000e+00

0.000000000000000e+00 0.000000000000000e+00 0.000000000000000e+00
0.000000000000000e+00 0.000000000000000e+00 0.000000000000000e+00
0.000000000000000e+00 0.000000000000000e+00 0.000000000000000e+00

0.000000000000000e+00 0.000000000000000e+00 0.000000000000000e+00
0.000000000000000e+00 0.000000000000000e+00 0.000000000000000e+00
0.000000000000000e+00 0.000000000000000e+00 0.000000000000000e+00

0.000000000000000e+00 0.000000000000000e+00 0.000000000000000e+00
0.000000000000000e+00 0.000000000000000e+00 0.000000000000000e+00
0.000000000000000e+00 0.000000000000000e+00 0.000000000000000e+00

0.000000000000000e+00 0.000000000000000e+00 0.000000000000000e+00
0.000000000000000e+00 0.000000000000000e+00 0.000000000000000e+00
0.000000000000000e+00 0.000000000000000e+00 0.000000000000000e+00

0.000000000000000e+00 0.000000000000000e+00 0.000000000000000e+00
0.000000000000000e+00 0.000000000000000e+00 0.000000000000000e+00
0.000000000000000e+00 0.000000000000000e+00 0.000000000000000e+00

0.000000000000000e+00 0.000000000000000e+00 0.000000000000000e+00
0.000000000000000e+00 0.000000000000000e+00 0.000000000000000e+00
0.000000000000000e+00 0.000000000000000e+00 0.000000000000000e+00

0.000000000000000e+00 0.000000000000000e+00 0.000000000000000e+00
0.000000000000000e+00 0.000000000000000e+00 0.000000000000000e+00
0.000000000000000e+00 0.000000000000000e+00 0.000000000000000e+00

0.000000000000000e+00 0.000000000000000e+00 0.000000000000000e+00
0.000000000000000e+00 0.000000000000000e+00 0.000000000000000e+00
0.000000000000000e+00 0.000000000000000e+00 0.000000000000000e+00

0.000000000000000e+00 0.000000000000000e+00 0.000000000000000e+00
0.000000000000000e+00 0.000000000000000e+00 0.000000000000000e+00
0.000000000000000e+00 0.000000000000000e+00 0.000000000000000e+00

0.000000000000000e+00 0.000000000000000e+00 0.000000000000000e+00
0.000000000000000e+00 0.000000000000000e+00 0.000000000000000e+00
0.000000000000000e+00 0.000000000000000e+00 0.000000000000000e+00

0.000000000000000e+00 0.000000000000000e+00 0.000000000000000e+00
0.000000000000000e+00 0.000000000000000e+00 0.000000000000000e+00
0.000000000000000e+00 0.000000000000000e+00 0.000000000000000e+00

0.000000000000000e+00 0.000000000000000e+00 0.000000000000000e+00
0.000000000000000e+00 0.000000000000000e+00 0.000000000000000e+00
0.000000000000000e+00 0.000000000000000e+00 0.000000000000000e+00

0.000000000000000e+00 0.000000000000000e+00 0.000000000000000e+00
0.000000000000000e+00 0.000000000000000e+00 0.000000000000000e+00
0.000000000000000e+00 0.000000000000000e+00 0.000000000000000e+00

0.000000000000000e+00 0.000000000000000e+00 0.000000000000000e+00
0.000000000000000e+00 0.000000000000000e+00 0.000000000000000e+00
0.000000000000000e+00 0.000000000000000e+00 0.000000000000000e+00

0.000000000000000e+00 0.000000000000000e+00 0.000000000000000e+00
0.000000000000000e+00 0.000000000000000e+00 0.000000000000000e+00
0.000000000000000e+00 0.000000000000000e+00 0.000000000000000e+00

0.000000000000000e+00 0.000000000000000e+00 0.000000000000000e+00
0.000000000000000e+00 0.000000000000000e+00 0.000000000000000e+00
0.000000000000000e+00 0.000000000000000e+00 0.000000000000000e+00

0.000000000000000e+00 0.000000000000000e+00 0.000000000000000e+00
0.000000000000000e+00 0.000000000000000e+00 0.000000000000000e+00
0.000000000000000e+00 0.000000000000000e+00 0.000000000000000e+00

0.000000000000000e+00 0.000000000000000e+00 0.000000000000000e+00
0.000000000000000e+00 0.000000000000000e+00 0.000000000000000e+00
0.000000000000000e+00 0.000000000000000e+00 0.000000000000000e+00

0.000000000000000e+00 0.000000000000000e+00 0.000000000000000e+00
0.000000000000000e+00 0.000000000000000e+00 0.000000000000000e+00
0.000000000000000e+00 0.000000000000000e+00 0.000000000000000e+00

0.000000000000000e+00 0.000000000000000e+00 0.000000000000000e+00
0.000000000000000e+00 0.000000000000000e+00 0.000000000000000e+00
0.000000000000000e+00 0.000000000000000e+00 0.000000000000000e+00

0.000000000000000e+00 0.000000000000000e+00 0.000000000000000e+00
0.000000000000000e+00 0.000000000000000e+00 0.000000000000000e+00
0.000000000000000e+00 0.000000000000000e+00 0.000000000000000e+00

0.000000000000000e+00 0.000000000000000e+00 0.000000000000000e+00
0.000000000000000e+00 0.000000000000000e+00 0.000000000000000e+00
0.000000000000000e+00 0.000000000000000e+00 0.000000000000000e+00

0.000000000000000e+00 0.000000000000000e+00 0.000000000000000e+00
0.000000000000000e+00 0.000000000000000e+00 0.000000000000000e+00
0.000000000000000e+00 0.000000000000000e+00 0.000000000000000e+00

0.000000000000000e+00 0.000000000000000e+00 0.000000000000000e+00
0.000000000000000e+00 0.000000000000000e+00 0.000000000000000e+00
0.000000000000000e+00 0.000000000000000e+00 0.000000000000000e+00

0.000000000000000e+00 0.000000000000000e+00 0.000000000000000e+00
0.000000000000000e+00 0.000000000000000e+00 0.000000000000000e+00
0.000000000000000e+00 0.000000000000000e+00 0.000000000000000e+00

0.000000000000000e+00 0.000000000000000e+00 0.000000000000000e+00
0.000000000000000e+00 0.000000000000000e+00 0.000000000000000e+00
0.000000000000000e+00 0.000000000000000e+00 0.000000000000000e+00

0.000000000000000e+00 0.000000000000000e+00 0.000000000000000e+00
0.000000000000000e+00 0.000000000000000e+00 0.000000000000000e+00
0.000000000000000e+00 0.000000000000000e+00 0.000000000000000e+00

0.000000000000000e+00 0.000000000000000e+00 0.000000000000000e+00
0.000000000000000e+00 0.000000000000000e+00 0.000000000000000e+00
0.000000000000000e+00 0.000000000000000e+00 0.000000000000000e+00

0.000000000000000e+00 0.000000000000000e+00 0.000000000000000e+00
0.000000000000000e+00 0.000000000000000e+00 0.000000000000000e+00
0.000000000000000e+00 0.000000000000000e+00 0.000000000000000e+00

0.000000000000000e+00 0.000000000000000e+00 0.000000000000000e+00
0.000000000000000e+00 0.000000000000000e+00 0.000000000000000e+00
0.000000000000000e+00 0.000000000000000e+00 0.000000000000000e+00

0.000000000000000e+00 0.000000000000000e+00 0.000000000000000e+00
0.000000000000000e+00 0.000000000000000e+00 0.000000000000000e+00
0.000000000000000e+00 0.000000000000000e+00 0.000000000000000e+00

0.000000000000000e+00 0.000000000000000e+00 0.000000000000000e+00
0.000000000000000e+00 0.000000000000000e+00 0.000000000000000e+00
0.000000000000000e+00 0.000000000000000e+00 0.000000000000000e+00

0.000000000000000e+00 0.000000000000000e+00 0.000000000000000e+00
0.000000000000000e+00 0.000000000000000e+00 0.000000000000000e+00
0.000000000000000e+00 0.000000000000000e+00 0.000000000000000e+00

0.000000000000000e+00 0.000000000000000e+00 0.000000000000000e+00
0.000000000000000e+00 0.000000000000000e+00 0.000000000000000e+00
0.000000000000000e+00 0.000000000000000e+00 0.000000000000000e+00

0.000000000000000e+00 0.000000000000000e+00 0.000000000000000e+00
0.000000000000000e+00 0.000000000000000e+00 0.000000000000000e+00
0.000000000000000e+00 0.000000000000000e+00 0.000000000000000e+00

0.000000000000000e+00 0.000000000000000e+00 0.000000000000000e+00
0.000000000000000e+00 0.000000000000000e+00 0.000000000000000e+00
0.000000000000000e+00 0.000000000000000e+00 0.000000000000000e+00

0.000000000000000e+00 0.000000000000000e+00 0.000000000000000e+00
0.000000000000000e+00 0.000000000000000e+00 0.000000000000000e+00
0.000000000000000e+00 0.000000000000000e+00 0.000000000000000e+00

0.000000000000000e+00 0.000000000000000e+00 0.000000000000000e+00
0.000000000000000e+00 0.000000000000000e+00 0.000000000000000e+00
0.000000000000000e+00 0.000000000000000e+00 0.000000000000000e+00

0.000000000000000e+00 0.000000000000000e+00 0.000000000000000e+00
0.000000000000000e+00 0.000000000000000e+00 0.000000000000000e+00
0.000000000000000e+00 0.000000000000000e+00 0.000000000000000e+00

0.000000000000000e+00 0.000000000000000e+00 0.000000000000000e+00
0.000000000000000e+00 0.000000000000000e+00 0.000000000000000e+00
0.000000000000000e+00 0.000000000000000e+00 0.000000000000000e+00

0.000000000000000e+00 0.000000000000000e+00 0.000000000000000e+00
0.000000000000000e+00 0.000000000000000e+00 0.000000000000000e+00
0.000000000000000e+00 0.000000000000000e+00 0.000000000000000e+00

0.000000000000000e+00 0.000000000000000e+00 0.000000000000000e+00
0.000000000000000e+00 0.000000000000000e+00 0.000000000000000e+00
0.000000000000000e+00 0.000000000000000e+00 0.000000000000000e+00

0.000000000000000e+00 0.000000000000000e+00 0.000000000000000e+00
0.000000000000000e+00 0.000000000000000e+00 0.000000000000000e+00
0.000000000000000e+00 0.000000000000000e+00 0.000000000000000e+00

0.000000000000000e+00 0.000000000000000e+00 0.000000000000000e+00
0.000000000000000e+00 0.000000000000000e+00 0.000000000000000e+00
0.000000000000000e+00 0.000000000000000e+00 0.000000000000000e+00

0.000000000000000e+00 0.000000000000000e+00 0.000000000000000e+00
0.000000000000000e+00 0.000000000000000e+00 0.000000000000000e+00
0.000000000000000e+00 0.000000000000000e+00 0.000000000000000e+00

0.000000000000000e+00 0.000000000000000e+00 0.000000000000000e+00
0.000000000000000e+00 0.000000000000000e+00 0.000000000000000e+00
0.000000000000000e+00 0.000000000000000e+00 0.000000000000000e+00

0.000000000000000e+00 0.000000000000000e+00 0.000000000000000e+00
0.000000000000000e+00 0.000000000000000e+00 0.000000000000000e+00
0.000000000000000e+00 0.000000000000000e+00 0.000000000000000e+00

0.000000000000000e+00 0.000000000000000e+00 0.000000000000000e+00
0.000000000000000e+00 0.000000000000000e+00 0.000000000000000e+00
0.000000000000000e+00 0.000000000000000e+00 0.000000000000000e+00

0.000000000000000e+00 0.000000000000000e+00 0.000000000000000e+00
0.000000000000000e+00 0.000000000000000e+00 0.000000000000000e+00
0.000000000000000e+00 0.000000000000000e+00 0.000000000000000e+00

0.000000000000000e+00 0.000000000000000e+00 0.000000000000000e+00
0.000000000000000e+00 0.000000000000000e+00 0.000000000000000e+00
0.000000000000000e+00 0.000000000000000e+00 0.000000000000000e+00

0.000000000000000e+00 0.000000000000000e+00 0.000000000000000e+00
0.000000000000000e+00 0.000000000000000e+00 0.000000000000000e+00
0.000000000000000e+00 0.000000000000000e+00 0.000000000000000e+00

0.000000000000000e+00 0.000000000000000e+00 0.000000000000000e+00
0.000000000000000e+00 0.000000000000000e+00 0.000000000000000e+00
0.000000000000000e+00 0.000000000000000e+00 0.000000000000000e+00

0.000000000000000e+00 0.000000000000000e+00 0.000000000000000e+00
0.000000000000000e+00 0.000000000000000e+00 0.000000000000000e+00
0.000000000000000e+00 0.000000000000000e+00 0.000000000000000e+00

0.000000000000000e+00 0.000000000000000e+00 0.000000000000000e+00
0.000000000000000e+00 0.000000000000000e+00 0.000000000000000e+00
0.000000000000000e+00 0.000000000000000e+00 0.000000000000000e+00

0.000000000000000e+00 0.000000000000000e+00 0.000000000000000e+00
0.000000000000000e+00 0.000000000000000e+00 0.000000000000000e+00
0.000000000000000e+00 0.000000000000000e+00 0.000000000000000e+00

0.000000000000000e+00 0.000000000000000e+00 0.000000000000000e+00
0.000000000000000e+00 0.000000000000000e+00 0.000000000000000e+00
0.000000000000000e+00 0.000000000000000e+00 0.000000000000000e+00

0.000000000000000e+00 0.000000000000000e+00 0.000000000000000e+00
0.000000000000000e+00 0.000000000000000e+00 0.000000000000000e+00
0.000000000000000e+00 0.000000000000000e+00 0.000000000000000e+00

0.000000000000000e+00 0.000000000000000e+00 0.000000000000000e+00
0.000000000000000e+00 0.000000000000000e+00 0.000000000000000e+00
0.000000000000000e+00 0.000000000000000e+00 0.000000000000000e+00

0.000000000000000e+00 0.000000000000000e+00 0.000000000000000e+00
0.000000000000000e+00 0.000000000000000e+00 0.000000000000000e+00
0.000000000000000e+00 0.000000000000000e+00 0.000000000000000e+00

0.000000000000000e+00 0.000000000000000e+00 0.000000000000000e+00
0.000000000000000e+00 0.000000000000000e+00 0.000000000000000e+00
0.000000000000000e+00 0.000000000000000e+00 0.000000000000000e+00

0.000000000000000e+00 0.000000000000000e+00 0.000000000000000e+00
0.000000000000000e+00 0.000000000000000e+00 0.000000000000000e+00
0.000000000000000e+00 0.000000000000000e+00 0.000000000000000e+00

0.000000000000000e+00 0.000000000000000e+00 0.000000000000000e+00
0.000000000000000e+00 0.000000000000000e+00 0.000000000000000e+00
0.000000000000000e+00 0.000000000000000e+00 0.000000000000000e+00

0.000000000000000e+00 0.000000000000000e+00 0.000000000000000e+00
0.000000000000000e+00 0.000000000000000e+00 0.000000000000000e+00
0.000000000000000e+00 0.000000000000000e+00 0.000000000000000e+00

0.000000000000000e+00 0.000000000000000e+00 0.000000000000000e+00
0.000000000000000e+00 0.000000000000000e+00 0.000000000000000e+00
0.000000000000000e+00 0.000000000000000e+00 0.000000000000000e+00

0.000000000000000e+00 0.000000000000000e+00 0.000000000000000e+00
0.000000000000000e+00 0.000000000000000e+00 0.000000000000000e+00
0.000000000000000e+00 0.000000000000000e+00 0.000000000000000e+00

0.000000000000000e+00 0.000000000000000e+00 0.000000000000000e+00
0.000000000000000e+00 0.000000000000000e+00 0.000000000000000e+00
0.000000000000000e+00 0.000000000000000e+00 0.000000000000000e+00

0.000000000000000e+00 0.000000000000000e+00 0.000000000000000e+00
0.000000000000000e+00 0.000000000000000e+00 0.000000000000000e+00
0.000000000000000e+00 0.000000000000000e+00 0.000000000000000e+00

0.000000000000000e+00 0.000000000000000e+00 0.000000000000000e+00
0.000000000000000e+00 0.000000000000000e+00 0.000000000000000e+00
0.000000000000000e+00 0.000000000000000e+00 0.000000000000000e+00

0.000000000000000e+00 0.000000000000000e+00 0.000000000000000e+00
0.000000000000000e+00 0.000000000000000e+00 0.000000000000000e+00
0.000000000000000e+00 0.000000000000000e+00 0.000000000000000e+00

0.000000000000000e+00 0.000000000000000e+00 0.000000000000000e+00
0.000000000000000e+00 0.000000000000000e+00 0.000000000000000e+00
0.000000000000000e+00 0.000000000000000e+00 0.000000000000000e+00

0.000000000000000e+00 0.000000000000000e+00 0.000000000000000e+00
0.000000000000000e+00 0.000000000000000e+00 0.000000000000000e+00
0.000000000000000e+00 0.000000000000000e+00 0.000000000000000e+00

0.000000000000000e+00 0.000000000000000e+00 0.000000000000000e+00
0.000000000000000e+00 0.000000000000000e+00 0.000000000000000e+00
0.000000000000000e+00 0.000000000000000e+00 0.000000000000000e+00

0.000000000000000e+00 0.000000000000000e+00 0.000000000000000e+00
0.000000000000000e+00 0.000000000000000e+00 0.000000000000000e+00
0.000000000000000e+00 0.000000000000000e+00 0.000000000000000e+00

0.000000000000000e+00 0.000000000000000e+00 0.000000000000000e+00
0.000000000000000e+00 0.000000000000000e+00 0.000000000000000e+00
0.000000000000000e+00 0.000000000000000e+00 0.000000000000000e+00

0.000000000000000e+00 0.000000000000000e+00 0.000000000000000e+00
0.000000000000000e+00 0.000000000000000e+00 0.000000000000000e+00
0.000000000000000e+00 0.000000000000000e+00 0.000000000000000e+00

0.000000000000000e+00 0.000000000000000e+00 0.000000000000000e+00
0.000000000000000e+00 0.000000000000000e+00 0.000000000000000e+00
0.000000000000000e+00 0.000000000000000e+00 0.000000000000000e+00

0.000000000000000e+00 0.000000000000000e+00 0.000000000000000e+00
0.000000000000000e+00 0.000000000000000e+00 0.000000000000000e+00
0.000000000000000e+00 0.000000000000000e+00 0.000000000000000e+00

0.000000000000000e+00 0.000000000000000e+00 0.000000000000000e+00
0.000000000000000e+00 0.000000000000000e+00 0.000000000000000e+00
0.000000000000000e+00 0.000000000000000e+00 0.000000000000000e+00

0.000000000000000e+00 0.000000000000000e+00 0.000000000000000e+00
0.000000000000000e+00 0.000000000000000e+00 0.000000000000000e+00
0.000000000000000e+00 0.000000000000000e+00 0.000000000000000e+00

0.000000000000000e+00 0.000000000000000e+00 0.000000000000000e+00
0.000000000000000e+00 0.000000000000000e+00 0.000000000000000e+00
0.000000000000000e+00 0.000000000000000e+00 0.000000000000000e+00

0.000000000000000e+00 0.000000000000000e+00 0.000000000000000e+00
0.000000000000000e+00 0.000000000000000e+00 0.000000000000000e+00
0.000000000000000e+00 0.000000000000000e+00 0.000000000000000e+00

0.000000000000000e+00 0.000000000000000e+00 0.000000000000000e+00
0.000000000000000e+00 0.000000000000000e+00 0.000000000000000e+00
0.000000000000000e+00 0.000000000000000e+00 0.000000000000000e+00

0.000000000000000e+00 0.000000000000000e+00 0.000000000000000e+00
0.000000000000000e+00 0.000000000000000e+00 0.000000000000000e+00
0.000000000000000e+00 0.000000000000000e+00 0.000000000000000e+00

0.000000000000000e+00 0.000000000000000e+00 0.000000000000000e+00
0.000000000000000e+00 0.000000000000000e+00 0.000000000000000e+00
0.000000000000000e+00 0.000000000000000e+00 0.000000000000000e+00

0.000000000000000e+00 0.000000000000000e+00 0.000000000000000e+00
0.000000000000000e+00 0.000000000000000e+00 0.000000000000000e+00
0.000000000000000e+00 0.000000000000000e+00 0.000000000000000e+00

0.000000000000000e+00 0.000000000000000e+00 0.000000000000000e+00
0.000000000000000e+00 0.000000000000000e+00 0.000000000000000e+00
0.000000000000000e+00 0.000000000000000e+00 0.000000000000000e+00

0.000000000000000e+00 0.000000000000000e+00 0.000000000000000e+00
0.000000000000000e+00 0.000000000000000e+00 0.000000000000000e+00
0.000000000000000e+00 0.000000000000000e+00 0.000000000000000e+00

0.000000000000000e+00 0.000000000000000e+00 0.000000000000000e+00
0.000000000000000e+00 0.000000000000000e+00 0.000000000000000e+00
0.000000000000000e+00 0.000000000000000e+00 0.000000000000000e+00

0.000000000000000e+00 0.000000000000000e+00 0.000000000000000e+00
0.000000000000000e+00 0.000000000000000e+00 0.000000000000000e+00
0.000000000000000e+00 0.000000000000000e+00 0.000000000000000e+00

0.000000000000000e+00 0.000000000000000e+00 0.000000000000000e+00
0.000000000000000e+00 0.000000000000000e+00 0.000000000000000e+00
0.000000000000000e+00 0.000000000000000e+00 0.000000000000000e+00

0.000000000000000e+00 0.000000000000000e+00 0.000000000000000e+00
0.000000000000000e+00 0.000000000000000e+00 0.000000000000000e+00
0.000000000000000e+00 0.000000000000000e+00 0.000000000000000e+00

0.000000000000000e+00 0.000000000000000e+00 0.000000000000000e+00
0.000000000000000e+00 0.000000000000000e+00 0.000000000000000e+00
0.000000000000000e+00 0.000000000000000e+00 0.000000000000000e+00

0.000000000000000e+00 0.000000000000000e+00 0.000000000000000e+00
0.000000000000000e+00 0.000000000000000e+00 0.000000000000000e+00
0.000000000000000e+00 0.000000000000000e+00 0.000000000000000e+00

0.000000000000000e+00 0.000000000000000e+00 0.000000000000000e+00
0.000000000000000e+00 0.000000000000000e+00 0.000000000000000e+00
0.000000000000000e+00 0.000000000000000e+00 0.000000000000000e+00

0.000000000000000e+00 0.000000000000000e+00 0.000000000000000e+00
0.000000000000000e+00 0.000000000000000e+00 0.000000000000000e+00
0.000000000000000e+00 0.000000000000000e+00 0.000000000000000e+00

0.000000000000000e+00 0.000000000000000e+00 0.000000000000000e+00
0.000000000000000e+00 0.000000000000000e+00 0.000000000000000e+00
0.000000000000000e+00 0.000000000000000e+00 0.000000000000000e+00

0.000000000000000e+00 0.000000000000000e+00 0.000000000000000e+00
0.000000000000000e+00 0.000000000000000e+00 0.000000000000000e+00
0.000000000000000e+00 0.000000000000000e+00 0.000000000000000e+00

0.000000000000000e+00 0.000000000000000e+00 0.000000000000000e+00
0.000000000000000e+00 0.000000000000000e+00 0.000000000000000e+00
0.000000000000000e+00 0.000000000000000e+00 0.000000000000000e+00

0.000000000000000e+00 0.000000000000000e+00 0.000000000000000e+00
0.000000000000000e+00 0.000000000000000e+00 0.000000000000000e+00
0.000000000000000e+00 0.000000000000000e+00 0.000000000000000e+00

0.000000000000000e+00 0.000000000000000e+00 0.000000000000000e+00
0.000000000000000e+00 0.000000000000000e+00 0.000000000000000e+00
0.000000000000000e+00 0.000000000000000e+00 0.000000000000000e+00

0.000000000000000e+00 0.000000000000000e+00 0.000000000000000e+00
0.000000000000000e+00 0.000000000000000e+00 0.000000000000000e+00
0.000000000000000e+00 0.000000000000000e+00 0.000000000000000e+00

0.000000000000000e+00 0.000000000000000e+00 0.000000000000000e+00
0.000000000000000e+00 0.000000000000000e+00 0.000000000000000e+00
0.000000000000000e+00 0.000000000000000e+00 0.000000000000000e+00

0.000000000000000e+00 0.000000000000000e+00 0.000000000000000e+00
0.000000000000000e+00 0.000000000000000e+00 0.000000000000000e+00
0.000000000000000e+00 0.000000000000000e+00 0.000000000000000e+00

0.000000000000000e+00 0.000000000000000e+00 0.000000000000000e+00
0.000000000000000e+00 0.000000000000000e+00 0.000000000000000e+00
0.000000000000000e+00 0.000000000000000e+00 0.000000000000000e+00

0.000000000000000e+00 0.000000000000000e+00 0.000000000000000e+00
0.000000000000000e+00 0.000000000000000e+00 0.000000000000000e+00
0.000000000000000e+00 0.000000000000000e+00 0.000000000000000e+00

0.000000000000000e+00 0.000000000000000e+00 0.000000000000000e+00
0.000000000000000e+00 0.000000000000000e+00 0.000000000000000e+00
0.000000000000000e+00 0.000000000000000e+00 0.000000000000000e+00

0.000000000000000e+00 0.000000000000000e+00 0.000000000000000e+00
0.000000000000000e+00 0.000000000000000e+00 0.000000000000000e+00
0.000000000000000e+00 0.000000000000000e+00 0.000000000000000e+00

0.000000000000000e+00 0.000000000000000e+00 0.000000000000000e+00
0.000000000000000e+00 0.000000000000000e+00 0.000000000000000e+00
0.000000000000000e+00 0.000000000000000e+00 0.000000000000000e+00

0.000000000000000e+00 0.000000000000000e+00 0.000000000000000e+00
0.000000000000000e+00 0.000000000000000e+00 0.000000000000000e+00
0.000000000000000e+00 0.000000000000000e+00 0.000000000000000e+00

0.000000000000000e+00 0.000000000000000e+00 0.000000000000000e+00
0.000000000000000e+00 0.000000000000000e+00 0.000000000000000e+00
0.000000000000000e+00 0.000000000000000e+00 0.000000000000000e+00

0.000000000000000e+00 0.000000000000000e+00 0.000000000000000e+00
0.000000000000000e+00 0.000000000000000e+00 0.000000000000000e+00
0.000000000000000e+00 0.000000000000000e+00 0.000000000000000e+00

0.000000000000000e+00 0.000000000000000e+00 0.000000000000000e+00
0.000000000000000e+00 0.000000000000000e+00 0.000000000000000e+00
0.000000000000000e+00 0.000000000000000e+00 0.000000000000000e+00

0.000000000000000e+00 0.000000000000000e+00 0.000000000000000e+00
0.000000000000000e+00 0.000000000000000e+00 0.000000000000000e+00
0.000000000000000e+00 0.000000000000000e+00 0.000000000000000e+00

0.000000000000000e+00 0.000000000000000e+00 0.000000000000000e+00
0.000000000000000e+00 0.000000000000000e+00 0.000000000000000e+00
0.000000000000000e+00 0.000000000000000e+00 0.000000000000000e+00

0.000000000000000e+00 0.000000000000000e+00 0.000000000000000e+00
0.000000000000000e+00 0.000000000000000e+00 0.000000000000000e+00
0.000000000000000e+00 0.000000000000000e+00 0.000000000000000e+00

0.000000000000000e+00 0.000000000000000e+00 0.000000000000000e+00
0.000000000000000e+00 0.000000000000000e+00 0.000000000000000e+00
0.000000000000000e+00 0.000000000000000e+00 0.000000000000000e+00

0.000000000000000e+00 0.000000000000000e+00 0.000000000000000e+00
0.000000000000000e+00 0.000000000000000e+00 0.000000000000000e+00
0.000000000000000e+00 0.000000000000000e+00 0.000000000000000e+00

0.000000000000000e+00 0.000000000000000e+00 0.000000000000000e+00
0.000000000000000e+00 0.000000000000000e+00 0.000000000000000e+00
0.000000000000000e+00 0.000000000000000e+00 0.000000000000000e+00

0.000000000000000e+00 0.000000000000000e+00 0.000000000000000e+00
0.000000000000000e+00 0.000000000000000e+00 0.000000000000000e+00
0.000000000000000e+00 0.000000000000000e+00 0.000000000000000e+00

0.000000000000000e+00 0.000000000000000e+00 0.000000000000000e+00
0.000000000000000e+00 0.000000000000000e+00 0.000000000000000e+00
0.000000000000000e+00 0.000000000000000e+00 0.000000000000000e+00

0.000000000000000e+00 0.000000000000000e+00 0.000000000000000e+00
0.000000000000000e+00 0.000000000000000e+00 0.000000000000000e+00
0.000000000000000e+00 0.000000000000000e+00 0.000000000000000e+00

0.000000000000000e+00 0.000000000000000e+00 0.000000000000000e+00
0.000000000000000e+00 0.000000000000000e+00 0.000000000000000e+00
0.000000000000000e+00 0.000000000000000e+00 0.000000000000000e+00

0.000000000000000e+00 0.000000000000000e+00 0.000000000000000e+00
0.000000000000000e+00 0.000000000000000e+00 0.000000000000000e+00
0.000000000000000e+00 0.000000000000000e+00 0.000000000000000e+00

0.000000000000000e+00 0.000000000000000e+00 0.000000000000000e+00
0.000000000000000e+00 0.000000000000000e+00 0.000000000000000e+00
0.000000000000000e+00 0.000000000000000e+00 0.000000000000000e+00

0.000000000000000e+00 0.000000000000000e+00 0.000000000000000e+00
0.000000000000000e+00 0.000000000000000e+00 0.000000000000000e+00
0.000000000000000e+00 0.000000000000000e+00 0.000000000000000e+00

0.000000000000000e+00 0.000000000000000e+00 0.000000000000000e+00
0.000000000000000e+00 0.000000000000000e+00 0.000000000000000e+00
0.000000000000000e+00 0.000000000000000e+00 0.000000000000000e+00

0.000000000000000e+00 0.000000000000000e+00 0.000000000000000e+00
0.000000000000000e+00 0.000000000000000e+00 0.000000000000000e+00
0.000000000000000e+00 0.000000000000000e+00 0.000000000000000e+00

0.000000000000000e+00 0.000000000000000e+00 0.000000000000000e+00
0.000000000000000e+00 0.000000000000000e+00 0.000000000000000e+00
0.000000000000000e+00 0.000000000000000e+00 0.000000000000000e+00

0.000000000000000e+00 0.000000000000000e+00 0.000000000000000e+00
0.000000000000000e+00 0.000000000000000e+00 0.000000000000000e+00
0.000000000000000e+00 0.000000000000000e+00 0.000000000000000e+00

0.000000000000000e+00 0.000000000000000e+00 0.000000000000000e+00
0.000000000000000e+00 0.000000000000000e+00 0.000000000000000e+00
0.000000000000000e+00 0.000000000000000e+00 0.000000000000000e+00

0.000000000000000e+00 0.000000000000000e+00 0.000000000000000e+00
0.000000000000000e+00 0.000000000000000e+00 0.000000000000000e+00
0.000000000000000e+00 0.000000000000000e+00 0.000000000000000e+00

0.000000000000000e+00 0.000000000000000e+00 0.000000000000000e+00
0.000000000000000e+00 0.000000000000000e+00 0.000000000000000e+00
0.000000000000000e+00 0.000000000000000e+00 0.000000000000000e+00

0.000000000000000e+00 0.000000000000000e+00 0.000000000000000e+00
0.000000000000000e+00 0.000000000000000e+00 0.000000000000000e+00
0.000000000000000e+00 0.000000000000000e+00 0.000000000000000e+00

0.000000000000000e+00 0.000000000000000e+00 0.000000000000000e+00
0.000000000000000e+00 0.000000000000000e+00 0.000000000000000e+00
0.000000000000000e+00 0.000000000000000e+00 0.000000000000000e+00

0.000000000000000e+00 0.000000000000000e+00 0.000000000000000e+00
0.000000000000000e+00 0.000000000000000e+00 0.000000000000000e+00
0.000000000000000e+00 0.000000000000000e+00 0.000000000000000e+00

0.000000000000000e+00 0.000000000000000e+00 0.000000000000000e+00
0.000000000000000e+00 0.000000000000000e+00 0.000000000000000e+00
0.000000000000000e+00 0.000000000000000e+00 0.000000000000000e+00

0.000000000000000e+00 0.000000000000000e+00 0.000000000000000e+00
0.000000000000000e+00 0.000000000000000e+00 0.000000000000000e+00
0.000000000000000e+00 0.000000000000000e+00 0.000000000000000e+00

0.000000000000000e+00 0.000000000000000e+00 0.000000000000000e+00
0.000000000000000e+00 0.000000000000000e+00 0.000000000000000e+00
0.000000000000000e+00 0.000000000000000e+00 0.000000000000000e+00

0.000000000000000e+00 0.000000000000000e+00 0.000000000000000e+00
0.000000000000000e+00 0.000000000000000e+00 0.000000000000000e+00
0.000000000000000e+00 0.000000000000000e+00 0.000000000000000e+00

0.000000000000000e+00 0.000000000000000e+00 0.000000000000000e+00
0.000000000000000e+00 0.000000000000000e+00 0.000000000000000e+00
0.000000000000000e+00 0.000000000000000e+00 0.000000000000000e+00

0.000000000000000e+00 0.000000000000000e+00 0.000000000000000e+00
0.000000000000000e+00 0.000000000000000e+00 0.000000000000000e+00
0.000000000000000e+00 0.000000000000000e+00 0.000000000000000e+00

0.000000000000000e+00 0.000000000000000e+00 0.000000000000000e+00
0.000000000000000e+00 0.000000000000000e+00 0.000000000000000e+00
0.000000000000000e+00 0.000000000000000e+00 0.000000000000000e+00

0.000000000000000e+00 0.000000000000000e+00 0.000000000000000e+00
0.000000000000000e+00 0.000000000000000e+00 0.000000000000000e+00
0.000000000000000e+00 0.000000000000000e+00 0.000000000000000e+00

0.000000000000000e+00 0.000000000000000e+00 0.000000000000000e+00
0.000000000000000e+00 0.000000000000000e+00 0.000000000000000e+00
0.000000000000000e+00 0.000000000000000e+00 0.000000000000000e+00

0.000000000000000e+00 0.000000000000000e+00 0.000000000000000e+00
0.000000000000000e+00 0.000000000000000e+00 0.000000000000000e+00
0.000000000000000e+00 0.000000000000000e+00 0.000000000000000e+00

0.000000000000000e+00 0.000000000000000e+00 0.000000000000000e+00
0.000000000000000e+00 0.000000000000000e+00 0.000000000000000e+00
0.000000000000000e+00 0.000000000000000e+00 0.000000000000000e+00

0.000000000000000e+00 0.000000000000000e+00 0.000000000000000e+00
0.000000000000000e+00 0.000000000000000e+00 0.000000000000000e+00
0.000000000000000e+00 0.000000000000000e+00 0.000000000000000e+00

0.000000000000000e+00 0.000000000000000e+00 0.000000000000000e+00
0.000000000000000e+00 0.000000000000000e+00 0.000000000000000e+00
0.000000000000000e+00 0.000000000000000e+00 0.000000000000000e+00

0.000000000000000e+00 0.000000000000000e+00 0.000000000000000e+00
0.000000000000000e+00 0.000000000000000e+00 0.000000000000000e+00
0.000000000000000e+00 0.000000000000000e+00 0.000000000000000e+00

0.000000000000000e+00 0.000000000000000e+00 0.000000000000000e+00
0.000000000000000e+00 0.000000000000000e+00 0.000000000000000e+00
0.000000000000000e+00 0.000000000000000e+00 0.000000000000000e+00

0.000000000000000e+00 0.000000000000000e+00 0.000000000000000e+00
0.000000000000000e+00 0.000000000000000e+00 0.000000000000000e+00
0.000000000000000e+00 0.000000000000000e+00 0.000000000000000e+00

0.000000000000000e+00 0.000000000000000e+00 0.000000000000000e+00
0.000000000000000e+00 0.000000000000000e+00 0.000000000000000e+00
0.000000000000000e+00 0.000000000000000e+00 0.000000000000000e+00

0.000000000000000e+00 0.000000000000000e+00 0.000000000000000e+00
0.000000000000000e+00 0.000000000000000e+00 0.000000000000000e+00
0.000000000000000e+00 0.000000000000000e+00 0.000000000000000e+00

0.000000000000000e+00 0.000000000000000e+00 0.000000000000000e+00
0.000000000000000e+00 0.000000000000000e+00 0.000000000000000e+00
0.000000000000000e+00 0.000000000000000e+00 0.000000000000000e+00

0.000000000000000e+00 0.000000000000000e+00 0.000000000000000e+00
0.000000000000000e+00 0.000000000000000e+00 0.000000000000000e+00
0.000000000000000e+00 0.000000000000000e+00 0.000000000000000e+00

0.000000000000000e+00 0.000000000000000e+00 0.000000000000000e+00
0.000000000000000e+00 0.000000000000000e+00 0.000000000000000e+00
0.000000000000000e+00 0.000000000000000e+00 0.000000000000000e+00

0.000000000000000e+00 0.000000000000000e+00 0.000000000000000e+00
0.000000000000000e+00 0.000000000000000e+00 0.000000000000000e+00
0.000000000000000e+00 0.000000000000000e+00 0.000000000000000e+00

0.000000000000000e+00 0.000000000000000e+00 0.000000000000000e+00
0.000000000000000e+00 0.000000000000000e+00 0.000000000000000e+00
0.000000000000000e+00 0.000000000000000e+00 0.000000000000000e+00

0.000000000000000e+00 0.000000000000000e+00 0.000000000000000e+00
0.000000000000000e+00 0.000000000000000e+00 0.000000000000000e+00
0.000000000000000e+00 0.000000000000000e+00 0.000000000000000e+00

0.000000000000000e+00 0.000000000000000e+00 0.000000000000000e+00
0.000000000000000e+00 0.000000000000000e+00 0.000000000000000e+00
0.000000000000000e+00 0.000000000000000e+00 0.000000000000000e+00

0.000000000000000e+00 0.000000000000000e+00 0.000000000000000e+00
0.000000000000000e+00 0.000000000000000e+00 0.000000000000000e+00
0.000000000000000e+00 0.000000000000000e+00 0.000000000000000e+00

0.000000000000000e+00 0.000000000000000e+00 0.000000000000000e+00
0.000000000000000e+00 0.000000000000000e+00 0.000000000000000e+00
0.000000000000000e+00 0.000000000000000e+00 0.000000000000000e+00

0.000000000000000e+00 0.000000000000000e+00 0.000000000000000e+00
0.000000000000000e+00 0.000000000000000e+00 0.000000000000000e+00
0.000000000000000e+00 0.000000000000000e+00 0.000000000000000e+00

0.000000000000000e+00 0.000000000000000e+00 0.000000000000000e+00
0.000000000000000e+00 0.000000000000000e+00 0.000000000000000e+00
0.000000000000000e+00 0.000000000000000e+00 0.000000000000000e+00

0.000000000000000e+00 0.000000000000000e+00 0.000000000000000e+00
0.000000000000000e+00 0.000000000000000e+00 0.000000000000000e+00
0.000000000000000e+00 0.000000000000000e+00 0.000000000000000e+00

0.000000000000000e+00 0.000000000000000e+00 0.000000000000000e+00
0.000000000000000e+00 0.000000000000000e+00 0.000000000000000e+00
0.000000000000000e+00 0.000000000000000e+00 0.000000000000000e+00

0.000000000000000e+00 0.000000000000000e+00 0.000000000000000e+00
0.000000000000000e+00 0.000000000000000e+00 0.000000000000000e+00
0.000000000000000e+00 0.000000000000000e+00 0.000000000000000e+00

0.000000000000000e+00 0.000000000000000e+00 0.000000000000000e+00
0.000000000000000e+00 0.000000000000000e+00 0.000000000000000e+00
0.000000000000000e+00 0.000000000000000e+00 0.000000000000000e+00

0.000000000000000e+00 0.000000000000000e+00 0.000000000000000e+00
0.000000000000000e+00 0.000000000000000e+00 0.000000000000000e+00
0.000000000000000e+00 0.000000000000000e+00 0.000000000000000e+00

0.000000000000000e+00 0.000000000000000e+00 0.000000000000000e+00
0.000000000000000e+00 0.000000000000000e+00 0.000000000000000e+00
0.000000000000000e+00 0.000000000000000e+00 0.000000000000000e+00

0.000000000000000e+00 0.000000000000000e+00 0.000000000000000e+00
0.000000000000000e+00 0.000000000000000e+00 0.000000000000000e+00
0.000000000000000e+00 0.000000000000000e+00 0.000000000000000e+00

0.000000000000000e+00 0.000000000000000e+00 0.000000000000000e+00
0.000000000000000e+00 0.000000000000000e+00 0.000000000000000e+00
0.000000000000000e+00 0.000000000000000e+00 0.000000000000000e+00

0.000000000000000e+00 0.000000000000000e+00 0.000000000000000e+00
0.000000000000000e+00 0.000000000000000e+00 0.000000000000000e+00
0.000000000000000e+00 0.000000000000000e+00 0.000000000000000e+00

0.000000000000000e+00 0.000000000000000e+00 0.000000000000000e+00
0.000000000000000e+00 0.000000000000000e+00 0.000000000000000e+00
0.000000000000000e+00 0.000000000000000e+00 0.000000000000000e+00

0.000000000000000e+00 0.000000000000000e+00 0.000000000000000e+00
0.000000000000000e+00 0.000000000000000e+00 0.000000000000000e+00
0.000000000000000e+00 0.000000000000000e+00 0.000000000000000e+00

0.000000000000000e+00 0.000000000000000e+00 0.000000000000000e+00
0.000000000000000e+00 0.000000000000000e+00 0.000000000000000e+00
0.000000000000000e+00 0.000000000000000e+00 0.000000000000000e+00

0.000000000000000e+00 0.000000000000000e+00 0.000000000000000e+00
0.000000000000000e+00 0.000000000000000e+00 0.000000000000000e+00
0.000000000000000e+00 0.000000000000000e+00 0.000000000000000e+00

0.000000000000000e+00 0.000000000000000e+00 0.000000000000000e+00
0.000000000000000e+00 0.000000000000000e+00 0.000000000000000e+00
0.000000000000000e+00 0.000000000000000e+00 0.000000000000000e+00

0.000000000000000e+00 0.000000000000000e+00 0.000000000000000e+00
0.000000000000000e+00 0.000000000000000e+00 0.000000000000000e+00
0.000000000000000e+00 0.000000000000000e+00 0.000000000000000e+00

0.000000000000000e+00 0.000000000000000e+00 0.000000000000000e+00
0.000000000000000e+00 0.000000000000000e+00 0.000000000000000e+00
0.000000000000000e+00 0.000000000000000e+00 0.000000000000000e+00

0.000000000000000e+00 0.000000000000000e+00 0.000000000000000e+00
0.000000000000000e+00 0.000000000000000e+00 0.000000000000000e+00
0.000000000000000e+00 0.000000000000000e+00 0.000000000000000e+00

0.000000000000000e+00 0.000000000000000e+00 0.000000000000000e+00
0.000000000000000e+00 0.000000000000000e+00 0.000000000000000e+00
0.000000000000000e+00 0.000000000000000e+00 0.000000000000000e+00

0.000000000000000e+00 0.000000000000000e+00 0.000000000000000e+00
0.000000000000000e+00 0.000000000000000e+00 0.000000000000000e+00
0.000000000000000e+00 0.000000000000000e+00 0.000000000000000e+00

0.000000000000000e+00 0.000000000000000e+00 0.000000000000000e+00
0.000000000000000e+00 0.000000000000000e+00 0.000000000000000e+00
0.000000000000000e+00 0.000000000000000e+00 0.000000000000000e+00

0.000000000000000e+00 0.000000000000000e+00 0.000000000000000e+00
0.000000000000000e+00 0.000000000000000e+00 0.000000000000000e+00
0.000000000000000e+00 0.000000000000000e+00 0.000000000000000e+00

0.000000000000000e+00 0.000000000000000e+00 0.000000000000000e+00
0.000000000000000e+00 0.000000000000000e+00 0.000000000000000e+00
0.000000000000000e+00 0.000000000000000e+00 0.000000000000000e+00

0.000000000000000e+00 0.000000000000000e+00 0.000000000000000e+00
0.000000000000000e+00 0.000000000000000e+00 0.000000000000000e+00
0.000000000000000e+00 0.000000000000000e+00 0.000000000000000e+00

0.000000000000000e+00 0.000000000000000e+00 0.000000000000000e+00
0.000000000000000e+00 0.000000000000000e+00 0.000000000000000e+00
0.000000000000000e+00 0.000000000000000e+00 0.000000000000000e+00

0.000000000000000e+00 0.000000000000000e+00 0.000000000000000e+00
0.000000000000000e+00 0.000000000000000e+00 0.000000000000000e+00
0.000000000000000e+00 0.000000000000000e+00 0.000000000000000e+00

0.000000000000000e+00 0.000000000000000e+00 0.000000000000000e+00
0.000000000000000e+00 0.000000000000000e+00 0.000000000000000e+00
0.000000000000000e+00 0.000000000000000e+00 0.000000000000000e+00

0.000000000000000e+00 0.000000000000000e+00 0.000000000000000e+00
0.000000000000000e+00 0.000000000000000e+00 0.000000000000000e+00
0.000000000000000e+00 0.000000000000000e+00 0.000000000000000e+00

0.000000000000000e+00 0.000000000000000e+00 0.000000000000000e+00
0.000000000000000e+00 0.000000000000000e+00 0.000000000000000e+00
0.000000000000000e+00 0.000000000000000e+00 0.000000000000000e+00

0.000000000000000e+00 0.000000000000000e+00 0.000000000000000e+00
0.000000000000000e+00 0.000000000000000e+00 0.000000000000000e+00
0.000000000000000e+00 0.000000000000000e+00 0.000000000000000e+00

0.000000000000000e+00 0.000000000000000e+00 0.000000000000000e+00
0.000000000000000e+00 0.000000000000000e+00 0.000000000000000e+00
0.000000000000000e+00 0.000000000000000e+00 0.000000000000000e+00

0.000000000000000e+00 0.000000000000000e+00 0.000000000000000e+00
0.000000000000000e+00 0.000000000000000e+00 0.000000000000000e+00
0.000000000000000e+00 0.000000000000000e+00 0.000000000000000e+00

0.000000000000000e+00 0.000000000000000e+00 0.000000000000000e+00
0.000000000000000e+00 0.000000000000000e+00 0.000000000000000e+00
0.000000000000000e+00 0.000000000000000e+00 0.000000000000000e+00

0.000000000000000e+00 0.000000000000000e+00 0.000000000000000e+00
0.000000000000000e+00 0.000000000000000e+00 0.000000000000000e+00
0.000000000000000e+00 0.000000000000000e+00 0.000000000000000e+00

0.000000000000000e+00 0.000000000000000e+00 0.000000000000000e+00
0.000000000000000e+00 0.000000000000000e+00 0.000000000000000e+00
0.000000000000000e+00 0.000000000000000e+00 0.000000000000000e+00

0.000000000000000e+00 0.000000000000000e+00 0.000000000000000e+00
0.000000000000000e+00 0.000000000000000e+00 0.000000000000000e+00
0.000000000000000e+00 0.000000000000000e+00 0.000000000000000e+00

0.000000000000000e+00 0.000000000000000e+00 0.000000000000000e+00
0.000000000000000e+00 0.000000000000000e+00 0.000000000000000e+00
0.000000000000000e+00 0.000000000000000e+00 0.000000000000000e+00

0.000000000000000e+00 0.000000000000000e+00 0.000000000000000e+00
0.000000000000000e+00 0.000000000000000e+00 0.000000000000000e+00
0.000000000000000e+00 0.000000000000000e+00 0.000000000000000e+00

0.000000000000000e+00 0.000000000000000e+00 0.000000000000000e+00
0.000000000000000e+00 0.000000000000000e+00 0.000000000000000e+00
0.000000000000000e+00 0.000000000000000e+00 0.000000000000000e+00

0.000000000000000e+00 0.000000000000000e+00 0.000000000000000e+00
0.000000000000000e+00 0.000000000000000e+00 0.000000000000000e+00
0.000000000000000e+00 0.000000000000000e+00 0.000000000000000e+00

0.000000000000000e+00 0.000000000000000e+00 0.000000000000000e+00
0.000000000000000e+00 0.000000000000000e+00 0.000000000000000e+00
0.000000000000000e+00 0.000000000000000e+00 0.000000000000000e+00

0.000000000000000e+00 0.000000000000000e+00 0.000000000000000e+00
0.000000000000000e+00 0.000000000000000e+00 0.000000000000000e+00
0.000000000000000e+00 0.000000000000000e+00 0.000000000000000e+00

0.000000000000000e+00 0.000000000000000e+00 0.000000000000000e+00
0.000000000000000e+00 0.000000000000000e+00 0.000000000000000e+00
0.000000000000000e+00 0.000000000000000e+00 0.000000000000000e+00

0.000000000000000e+00 0.000000000000000e+00 0.000000000000000e+00
0.000000000000000e+00 0.000000000000000e+00 0.000000000000000e+00
0.000000000000000e+00 0.000000000000000e+00 0.000000000000000e+00

0.000000000000000e+00 0.000000000000000e+00 0.000000000000000e+00
0.000000000000000e+00 0.000000000000000e+00 0.000000000000000e+00
0.000000000000000e+00 0.000000000000000e+00 0.000000000000000e+00

0.000000000000000e+00 0.000000000000000e+00 0.000000000000000e+00
0.000000000000000e+00 0.000000000000000e+00 0.000000000000000e+00
0.000000000000000e+00 0.000000000000000e+00 0.000000000000000e+00

0.000000000000000e+00 0.000000000000000e+00 0.000000000000000e+00
0.000000000000000e+00 0.000000000000000e+00 0.000000000000000e+00
0.000000000000000e+00 0.000000000000000e+00 0.000000000000000e+00

0.000000000000000e+00 0.000000000000000e+00 0.000000000000000e+00
0.000000000000000e+00 0.000000000000000e+00 0.000000000000000e+00
0.000000000000000e+00 0.000000000000000e+00 0.000000000000000e+00

0.000000000000000e+00 0.000000000000000e+00 0.000000000000000e+00
0.000000000000000e+00 0.000000000000000e+00 0.000000000000000e+00
0.000000000000000e+00 0.000000000000000e+00 0.000000000000000e+00

0.000000000000000e+00 0.000000000000000e+00 0.000000000000000e+00
0.000000000000000e+00 0.000000000000000e+00 0.000000000000000e+00
0.000000000000000e+00 0.000000000000000e+00 0.000000000000000e+00

0.000000000000000e+00 0.000000000000000e+00 0.000000000000000e+00
0.000000000000000e+00 0.000000000000000e+00 0.000000000000000e+00
0.000000000000000e+00 0.000000000000000e+00 0.000000000000000e+00

0.000000000000000e+00 0.000000000000000e+00 0.000000000000000e+00
0.000000000000000e+00 0.000000000000000e+00 0.000000000000000e+00
0.000000000000000e+00 0.000000000000000e+00 0.000000000000000e+00

0.000000000000000e+00 0.000000000000000e+00 0.000000000000000e+00
0.000000000000000e+00 0.000000000000000e+00 0.000000000000000e+00
0.000000000000000e+00 0.000000000000000e+00 0.000000000000000e+00

0.000000000000000e+00 0.000000000000000e+00 0.000000000000000e+00
0.000000000000000e+00 0.000000000000000e+00 0.000000000000000e+00
0.000000000000000e+00 0.000000000000000e+00 0.000000000000000e+00

0.000000000000000e+00 0.000000000000000e+00 0.000000000000000e+00
0.000000000000000e+00 0.000000000000000e+00 0.000000000000000e+00
0.000000000000000e+00 0.000000000000000e+00 0.000000000000000e+00

0.000000000000000e+00 0.000000000000000e+00 0.000000000000000e+00
0.000000000000000e+00 0.000000000000000e+00 0.000000000000000e+00
0.000000000000000e+00 0.000000000000000e+00 0.000000000000000e+00

0.000000000000000e+00 0.000000000000000e+00 0.000000000000000e+00
0.000000000000000e+00 0.000000000000000e+00 0.000000000000000e+00
0.000000000000000e+00 0.000000000000000e+00 0.000000000000000e+00

0.000000000000000e+00 0.000000000000000e+00 0.000000000000000e+00
0.000000000000000e+00 0.000000000000000e+00 0.000000000000000e+00
0.000000000000000e+00 0.000000000000000e+00 0.000000000000000e+00

0.000000000000000e+00 0.000000000000000e+00 0.000000000000000e+00
0.000000000000000e+00 0.000000000000000e+00 0.000000000000000e+00
0.000000000000000e+00 0.000000000000000e+00 0.000000000000000e+00

0.000000000000000e+00 0.000000000000000e+00 0.000000000000000e+00
0.000000000000000e+00 0.000000000000000e+00 0.000000000000000e+00
0.000000000000000e+00 0.000000000000000e+00 0.000000000000000e+00

0.000000000000000e+00 0.000000000000000e+00 0.000000000000000e+00
0.000000000000000e+00 0.000000000000000e+00 0.000000000000000e+00
0.000000000000000e+00 0.000000000000000e+00 0.000000000000000e+00

0.000000000000000e+00 0.000000000000000e+00 0.000000000000000e+00
0.000000000000000e+00 0.000000000000000e+00 0.000000000000000e+00
0.000000000000000e+00 0.000000000000000e+00 0.000000000000000e+00

0.000000000000000e+00 0.000000000000000e+00 0.000000000000000e+00
0.000000000000000e+00 0.000000000000000e+00 0.000000000000000e+00
0.000000000000000e+00 0.000000000000000e+00 0.000000000000000e+00

0.000000000000000e+00 0.000000000000000e+00 0.000000000000000e+00
0.000000000000000e+00 0.000000000000000e+00 0.000000000000000e+00
0.000000000000000e+00 0.000000000000000e+00 0.000000000000000e+00

0.000000000000000e+00 0.000000000000000e+00 0.000000000000000e+00
0.000000000000000e+00 0.000000000000000e+00 0.000000000000000e+00
0.000000000000000e+00 0.000000000000000e+00 0.000000000000000e+00

0.000000000000000e+00 0.000000000000000e+00 0.000000000000000e+00
0.000000000000000e+00 0.000000000000000e+00 0.000000000000000e+00
0.000000000000000e+00 0.000000000000000e+00 0.000000000000000e+00

0.000000000000000e+00 0.000000000000000e+00 0.000000000000000e+00
0.000000000000000e+00 0.000000000000000e+00 0.000000000000000e+00
0.000000000000000e+00 0.000000000000000e+00 0.000000000000000e+00

0.000000000000000e+00 0.000000000000000e+00 0.000000000000000e+00
0.000000000000000e+00 0.000000000000000e+00 0.000000000000000e+00
0.000000000000000e+00 0.000000000000000e+00 0.000000000000000e+00

0.000000000000000e+00 0.000000000000000e+00 0.000000000000000e+00
0.000000000000000e+00 0.000000000000000e+00 0.000000000000000e+00
0.000000000000000e+00 0.000000000000000e+00 0.000000000000000e+00

0.000000000000000e+00 0.000000000000000e+00 0.000000000000000e+00
0.000000000000000e+00 0.000000000000000e+00 0.000000000000000e+00
0.000000000000000e+00 0.000000000000000e+00 0.000000000000000e+00

0.000000000000000e+00 0.000000000000000e+00 0.000000000000000e+00
0.000000000000000e+00 0.000000000000000e+00 0.000000000000000e+00
0.000000000000000e+00 0.000000000000000e+00 0.000000000000000e+00

0.000000000000000e+00 0.000000000000000e+00 0.000000000000000e+00
0.000000000000000e+00 0.000000000000000e+00 0.000000000000000e+00
0.000000000000000e+00 0.000000000000000e+00 0.000000000000000e+00

0.000000000000000e+00 0.000000000000000e+00 0.000000000000000e+00
0.000000000000000e+00 0.000000000000000e+00 0.000000000000000e+00
0.000000000000000e+00 0.000000000000000e+00 0.000000000000000e+00

0.000000000000000e+00 0.000000000000000e+00 0.000000000000000e+00
0.000000000000000e+00 0.000000000000000e+00 0.000000000000000e+00
0.000000000000000e+00 0.000000000000000e+00 0.000000000000000e+00

0.000000000000000e+00 0.000000000000000e+00 0.000000000000000e+00
0.000000000000000e+00 0.000000000000000e+00 0.000000000000000e+00
0.000000000000000e+00 0.000000000000000e+00 0.000000000000000e+00

0.000000000000000e+00 0.000000000000000e+00 0.000000000000000e+00
0.000000000000000e+00 0.000000000000000e+00 0.000000000000000e+00
0.000000000000000e+00 0.000000000000000e+00 0.000000000000000e+00

0.000000000000000e+00 0.000000000000000e+00 0.000000000000000e+00
0.000000000000000e+00 0.000000000000000e+00 0.000000000000000e+00
0.000000000000000e+00 0.000000000000000e+00 0.000000000000000e+00

0.000000000000000e+00 0.000000000000000e+00 0.000000000000000e+00
0.000000000000000e+00 0.000000000000000e+00 0.000000000000000e+00
0.000000000000000e+00 0.000000000000000e+00 0.000000000000000e+00

0.000000000000000e+00 0.000000000000000e+00 0.000000000000000e+00
0.000000000000000e+00 0.000000000000000e+00 0.000000000000000e+00
0.000000000000000e+00 0.000000000000000e+00 0.000000000000000e+00

0.000000000000000e+00 0.000000000000000e+00 0.000000000000000e+00
0.000000000000000e+00 0.000000000000000e+00 0.000000000000000e+00
0.000000000000000e+00 0.000000000000000e+00 0.000000000000000e+00

0.000000000000000e+00 0.000000000000000e+00 0.000000000000000e+00
0.000000000000000e+00 0.000000000000000e+00 0.000000000000000e+00
0.000000000000000e+00 0.000000000000000e+00 0.000000000000000e+00

0.000000000000000e+00 0.000000000000000e+00 0.000000000000000e+00
0.000000000000000e+00 0.000000000000000e+00 0.000000000000000e+00
0.000000000000000e+00 0.000000000000000e+00 0.000000000000000e+00

0.000000000000000e+00 0.000000000000000e+00 0.000000000000000e+00
0.000000000000000e+00 0.000000000000000e+00 0.000000000000000e+00
0.000000000000000e+00 0.000000000000000e+00 0.000000000000000e+00

0.000000000000000e+00 0.000000000000000e+00 0.000000000000000e+00
0.000000000000000e+00 0.000000000000000e+00 0.000000000000000e+00
0.000000000000000e+00 0.000000000000000e+00 0.000000000000000e+00

0.000000000000000e+00 0.000000000000000e+00 0.000000000000000e+00
0.000000000000000e+00 0.000000000000000e+00 0.000000000000000e+00
0.000000000000000e+00 0.000000000000000e+00 0.000000000000000e+00

0.000000000000000e+00 0.000000000000000e+00 0.000000000000000e+00
0.000000000000000e+00 0.000000000000000e+00 0.000000000000000e+00
0.000000000000000e+00 0.000000000000000e+00 0.000000000000000e+00

0.000000000000000e+00 0.000000000000000e+00 0.000000000000000e+00
0.000000000000000e+00 0.000000000000000e+00 0.000000000000000e+00
0.000000000000000e+00 0.000000000000000e+00 0.000000000000000e+00

0.000000000000000e+00 0.000000000000000e+00 0.000000000000000e+00
0.000000000000000e+00 0.000000000000000e+00 0.000000000000000e+00
0.000000000000000e+00 0.000000000000000e+00 0.000000000000000e+00

0.000000000000000e+00 0.000000000000000e+00 0.000000000000000e+00
0.000000000000000e+00 0.000000000000000e+00 0.000000000000000e+00
0.000000000000000e+00 0.000000000000000e+00 0.000000000000000e+00

0.000000000000000e+00 0.000000000000000e+00 0.000000000000000e+00
0.000000000000000e+00 0.000000000000000e+00 0.000000000000000e+00
0.000000000000000e+00 0.000000000000000e+00 0.000000000000000e+00

0.000000000000000e+00 0.000000000000000e+00 0.000000000000000e+00
0.000000000000000e+00 0.000000000000000e+00 0.000000000000000e+00
0.000000000000000e+00 0.000000000000000e+00 0.000000000000000e+00

0.000000000000000e+00 0.000000000000000e+00 0.000000000000000e+00
0.000000000000000e+00 0.000000000000000e+00 0.000000000000000e+00
0.000000000000000e+00 0.000000000000000e+00 0.000000000000000e+00

0.000000000000000e+00 0.000000000000000e+00 0.000000000000000e+00
0.000000000000000e+00 0.000000000000000e+00 0.000000000000000e+00
0.000000000000000e+00 0.000000000000000e+00 0.000000000000000e+00

0.000000000000000e+00 0.000000000000000e+00 0.000000000000000e+00
0.000000000000000e+00 0.000000000000000e+00 0.000000000000000e+00
0.000000000000000e+00 0.000000000000000e+00 0.000000000000000e+00

0.000000000000000e+00 0.000000000000000e+00 0.000000000000000e+00
0.000000000000000e+00 0.000000000000000e+00 0.000000000000000e+00
0.000000000000000e+00 0.000000000000000e+00 0.000000000000000e+00

0.000000000000000e+00 0.000000000000000e+00 0.000000000000000e+00
0.000000000000000e+00 0.000000000000000e+00 0.000000000000000e+00
0.000000000000000e+00 0.000000000000000e+00 0.000000000000000e+00

0.000000000000000e+00 0.000000000000000e+00 0.000000000000000e+00
0.000000000000000e+00 0.000000000000000e+00 0.000000000000000e+00
0.000000000000000e+00 0.000000000000000e+00 0.000000000000000e+00

0.000000000000000e+00 0.000000000000000e+00 0.000000000000000e+00
0.000000000000000e+00 0.000000000000000e+00 0.000000000000000e+00
0.000000000000000e+00 0.000000000000000e+00 0.000000000000000e+00

0.000000000000000e+00 0.000000000000000e+00 0.000000000000000e+00
0.000000000000000e+00 0.000000000000000e+00 0.000000000000000e+00
0.000000000000000e+00 0.000000000000000e+00 0.000000000000000e+00

0.000000000000000e+00 0.000000000000000e+00 0.000000000000000e+00
0.000000000000000e+00 0.000000000000000e+00 0.000000000000000e+00
0.000000000000000e+00 0.000000000000000e+00 0.000000000000000e+00

0.000000000000000e+00 0.000000000000000e+00 0.000000000000000e+00
0.000000000000000e+00 0.000000000000000e+00 0.000000000000000e+00
0.000000000000000e+00 0.000000000000000e+00 0.000000000000000e+00

0.000000000000000e+00 0.000000000000000e+00 0.000000000000000e+00
0.000000000000000e+00 0.000000000000000e+00 0.000000000000000e+00
0.000000000000000e+00 0.000000000000000e+00 0.000000000000000e+00

0.000000000000000e+00 0.000000000000000e+00 0.000000000000000e+00
0.000000000000000e+00 0.000000000000000e+00 0.000000000000000e+00
0.000000000000000e+00 0.000000000000000e+00 0.000000000000000e+00

0.000000000000000e+00 0.000000000000000e+00 0.000000000000000e+00
0.000000000000000e+00 0.000000000000000e+00 0.000000000000000e+00
0.000000000000000e+00 0.000000000000000e+00 0.000000000000000e+00

0.000000000000000e+00 0.000000000000000e+00 0.000000000000000e+00
0.000000000000000e+00 0.000000000000000e+00 0.000000000000000e+00
0.000000000000000e+00 0.000000000000000e+00 0.000000000000000e+00

0.000000000000000e+00 0.000000000000000e+00 0.000000000000000e+00
0.000000000000000e+00 0.000000000000000e+00 0.000000000000000e+00
0.000000000000000e+00 0.000000000000000e+00 0.000000000000000e+00

0.000000000000000e+00 0.000000000000000e+00 0.000000000000000e+00
0.000000000000000e+00 0.000000000000000e+00 0.000000000000000e+00
0.000000000000000e+00 0.000000000000000e+00 0.000000000000000e+00

0.000000000000000e+00 0.000000000000000e+00 0.000000000000000e+00
0.000000000000000e+00 0.000000000000000e+00 0.000000000000000e+00
0.000000000000000e+00 0.000000000000000e+00 0.000000000000000e+00

0.000000000000000e+00 0.000000000000000e+00 0.000000000000000e+00
0.000000000000000e+00 0.000000000000000e+00 0.000000000000000e+00
0.000000000000000e+00 0.000000000000000e+00 0.000000000000000e+00

0.000000000000000e+00 0.000000000000000e+00 0.000000000000000e+00
0.000000000000000e+00 0.000000000000000e+00 0.000000000000000e+00
0.000000000000000e+00 0.000000000000000e+00 0.000000000000000e+00

0.000000000000000e+00 0.000000000000000e+00 0.000000000000000e+00
0.000000000000000e+00 0.000000000000000e+00 0.000000000000000e+00
0.000000000000000e+00 0.000000000000000e+00 0.000000000000000e+00

0.000000000000000e+00 0.000000000000000e+00 0.000000000000000e+00
0.000000000000000e+00 0.000000000000000e+00 0.000000000000000e+00
0.000000000000000e+00 0.000000000000000e+00 0.000000000000000e+00

0.000000000000000e+00 0.000000000000000e+00 0.000000000000000e+00
0.000000000000000e+00 0.000000000000000e+00 0.000000000000000e+00
0.000000000000000e+00 0.000000000000000e+00 0.000000000000000e+00

0.000000000000000e+00 0.000000000000000e+00 0.000000000000000e+00
0.000000000000000e+00 0.000000000000000e+00 0.000000000000000e+00
0.000000000000000e+00 0.000000000000000e+00 0.000000000000000e+00

0.000000000000000e+00 0.000000000000000e+00 0.000000000000000e+00
0.000000000000000e+00 0.000000000000000e+00 0.000000000000000e+00
0.000000000000000e+00 0.000000000000000e+00 0.000000000000000e+00

0.000000000000000e+00 0.000000000000000e+00 0.000000000000000e+00
0.000000000000000e+00 0.000000000000000e+00 0.000000000000000e+00
0.000000000000000e+00 0.000000000000000e+00 0.000000000000000e+00

0.000000000000000e+00 0.000000000000000e+00 0.000000000000000e+00
0.000000000000000e+00 0.000000000000000e+00 0.000000000000000e+00
0.000000000000000e+00 0.000000000000000e+00 0.000000000000000e+00

0.000000000000000e+00 0.000000000000000e+00 0.000000000000000e+00
0.000000000000000e+00 0.000000000000000e+00 0.000000000000000e+00
0.000000000000000e+00 0.000000000000000e+00 0.000000000000000e+00

0.000000000000000e+00 0.000000000000000e+00 0.000000000000000e+00
0.000000000000000e+00 0.000000000000000e+00 0.000000000000000e+00
0.000000000000000e+00 0.000000000000000e+00 0.000000000000000e+00

0.000000000000000e+00 0.000000000000000e+00 0.000000000000000e+00
0.000000000000000e+00 0.000000000000000e+00 0.000000000000000e+00
0.000000000000000e+00 0.000000000000000e+00 0.000000000000000e+00

0.000000000000000e+00 0.000000000000000e+00 0.000000000000000e+00
0.000000000000000e+00 0.000000000000000e+00 0.000000000000000e+00
0.000000000000000e+00 0.000000000000000e+00 0.000000000000000e+00

0.000000000000000e+00 0.000000000000000e+00 0.000000000000000e+00
0.000000000000000e+00 0.000000000000000e+00 0.000000000000000e+00
0.000000000000000e+00 0.000000000000000e+00 0.000000000000000e+00

0.000000000000000e+00 0.000000000000000e+00 0.000000000000000e+00
0.000000000000000e+00 0.000000000000000e+00 0.000000000000000e+00
0.000000000000000e+00 0.000000000000000e+00 0.000000000000000e+00

0.000000000000000e+00 0.000000000000000e+00 0.000000000000000e+00
0.000000000000000e+00 0.000000000000000e+00 0.000000000000000e+00
0.000000000000000e+00 0.000000000000000e+00 0.000000000000000e+00

0.000000000000000e+00 0.000000000000000e+00 0.000000000000000e+00
0.000000000000000e+00 0.000000000000000e+00 0.000000000000000e+00
0.000000000000000e+00 0.000000000000000e+00 0.000000000000000e+00

0.000000000000000e+00 0.000000000000000e+00 0.000000000000000e+00
0.000000000000000e+00 0.000000000000000e+00 0.000000000000000e+00
0.000000000000000e+00 0.000000000000000e+00 0.000000000000000e+00

0.000000000000000e+00 0.000000000000000e+00 0.000000000000000e+00
0.000000000000000e+00 0.000000000000000e+00 0.000000000000000e+00
0.000000000000000e+00 0.000000000000000e+00 0.000000000000000e+00

0.000000000000000e+00 0.000000000000000e+00 0.000000000000000e+00
0.000000000000000e+00 0.000000000000000e+00 0.000000000000000e+00
0.000000000000000e+00 0.000000000000000e+00 0.000000000000000e+00

0.000000000000000e+00 0.000000000000000e+00 0.000000000000000e+00
0.000000000000000e+00 0.000000000000000e+00 0.000000000000000e+00
0.000000000000000e+00 0.000000000000000e+00 0.000000000000000e+00

0.000000000000000e+00 0.000000000000000e+00 0.000000000000000e+00
0.000000000000000e+00 0.000000000000000e+00 0.000000000000000e+00
0.000000000000000e+00 0.000000000000000e+00 0.000000000000000e+00

0.000000000000000e+00 0.000000000000000e+00 0.000000000000000e+00
0.000000000000000e+00 0.000000000000000e+00 0.000000000000000e+00
0.000000000000000e+00 0.000000000000000e+00 0.000000000000000e+00

0.000000000000000e+00 0.000000000000000e+00 0.000000000000000e+00
0.000000000000000e+00 0.000000000000000e+00 0.000000000000000e+00
0.000000000000000e+00 0.000000000000000e+00 0.000000000000000e+00

0.000000000000000e+00 0.000000000000000e+00 0.000000000000000e+00
0.000000000000000e+00 0.000000000000000e+00 0.000000000000000e+00
0.000000000000000e+00 0.000000000000000e+00 0.000000000000000e+00

0.000000000000000e+00 0.000000000000000e+00 0.000000000000000e+00
0.000000000000000e+00 0.000000000000000e+00 0.000000000000000e+00
0.000000000000000e+00 0.000000000000000e+00 0.000000000000000e+00

0.000000000000000e+00 0.000000000000000e+00 0.000000000000000e+00
0.000000000000000e+00 0.000000000000000e+00 0.000000000000000e+00
0.000000000000000e+00 0.000000000000000e+00 0.000000000000000e+00

0.000000000000000e+00 0.000000000000000e+00 0.000000000000000e+00
0.000000000000000e+00 0.000000000000000e+00 0.000000000000000e+00
0.000000000000000e+00 0.000000000000000e+00 0.000000000000000e+00

0.000000000000000e+00 0.000000000000000e+00 0.000000000000000e+00
0.000000000000000e+00 0.000000000000000e+00 0.000000000000000e+00
0.000000000000000e+00 0.000000000000000e+00 0.000000000000000e+00

0.000000000000000e+00 0.000000000000000e+00 0.000000000000000e+00
0.000000000000000e+00 0.000000000000000e+00 0.000000000000000e+00
0.000000000000000e+00 0.000000000000000e+00 0.000000000000000e+00

0.000000000000000e+00 0.000000000000000e+00 0.000000000000000e+00
0.000000000000000e+00 0.000000000000000e+00 0.000000000000000e+00
0.000000000000000e+00 0.000000000000000e+00 0.000000000000000e+00

0.000000000000000e+00 0.000000000000000e+00 0.000000000000000e+00
0.000000000000000e+00 0.000000000000000e+00 0.000000000000000e+00
0.000000000000000e+00 0.000000000000000e+00 0.000000000000000e+00

0.000000000000000e+00 0.000000000000000e+00 0.000000000000000e+00
0.000000000000000e+00 0.000000000000000e+00 0.000000000000000e+00
0.000000000000000e+00 0.000000000000000e+00 0.000000000000000e+00

0.000000000000000e+00 0.000000000000000e+00 0.000000000000000e+00
0.000000000000000e+00 0.000000000000000e+00 0.000000000000000e+00
0.000000000000000e+00 0.000000000000000e+00 0.000000000000000e+00

0.000000000000000e+00 0.000000000000000e+00 0.000000000000000e+00
0.000000000000000e+00 0.000000000000000e+00 0.000000000000000e+00
0.000000000000000e+00 0.000000000000000e+00 0.000000000000000e+00

0.000000000000000e+00 0.000000000000000e+00 0.000000000000000e+00
0.000000000000000e+00 0.000000000000000e+00 0.000000000000000e+00
0.000000000000000e+00 0.000000000000000e+00 0.000000000000000e+00

0.000000000000000e+00 0.000000000000000e+00 0.000000000000000e+00
0.000000000000000e+00 0.000000000000000e+00 0.000000000000000e+00
0.000000000000000e+00 0.000000000000000e+00 0.000000000000000e+00

0.000000000000000e+00 0.000000000000000e+00 0.000000000000000e+00
0.000000000000000e+00 0.000000000000000e+00 0.000000000000000e+00
0.000000000000000e+00 0.000000000000000e+00 0.000000000000000e+00

0.000000000000000e+00 0.000000000000000e+00 0.000000000000000e+00
0.000000000000000e+00 0.000000000000000e+00 0.000000000000000e+00
0.000000000000000e+00 0.000000000000000e+00 0.000000000000000e+00

0.000000000000000e+00 0.000000000000000e+00 0.000000000000000e+00
0.000000000000000e+00 0.000000000000000e+00 0.000000000000000e+00
0.000000000000000e+00 0.000000000000000e+00 0.000000000000000e+00

0.000000000000000e+00 0.000000000000000e+00 0.000000000000000e+00
0.000000000000000e+00 0.000000000000000e+00 0.000000000000000e+00
0.000000000000000e+00 0.000000000000000e+00 0.000000000000000e+00

0.000000000000000e+00 0.000000000000000e+00 0.000000000000000e+00
0.000000000000000e+00 0.000000000000000e+00 0.000000000000000e+00
0.000000000000000e+00 0.000000000000000e+00 0.000000000000000e+00

0.000000000000000e+00 0.000000000000000e+00 0.000000000000000e+00
0.000000000000000e+00 0.000000000000000e+00 0.000000000000000e+00
0.000000000000000e+00 0.000000000000000e+00 0.000000000000000e+00

0.000000000000000e+00 0.000000000000000e+00 0.000000000000000e+00
0.000000000000000e+00 0.000000000000000e+00 0.000000000000000e+00
0.000000000000000e+00 0.000000000000000e+00 0.000000000000000e+00

0.000000000000000e+00 0.000000000000000e+00 0.000000000000000e+00
0.000000000000000e+00 0.000000000000000e+00 0.000000000000000e+00
0.000000000000000e+00 0.000000000000000e+00 0.000000000000000e+00

0.000000000000000e+00 0.000000000000000e+00 0.000000000000000e+00
0.000000000000000e+00 0.000000000000000e+00 0.000000000000000e+00
0.000000000000000e+00 0.000000000000000e+00 0.000000000000000e+00

0.000000000000000e+00 0.000000000000000e+00 0.000000000000000e+00
0.000000000000000e+00 0.000000000000000e+00 0.000000000000000e+00
0.000000000000000e+00 0.000000000000000e+00 0.000000000000000e+00

0.000000000000000e+00 0.000000000000000e+00 0.000000000000000e+00
0.000000000000000e+00 0.000000000000000e+00 0.000000000000000e+00
0.000000000000000e+00 0.000000000000000e+00 0.000000000000000e+00

0.000000000000000e+00 0.000000000000000e+00 0.000000000000000e+00
0.000000000000000e+00 0.000000000000000e+00 0.000000000000000e+00
0.000000000000000e+00 0.000000000000000e+00 0.000000000000000e+00

0.000000000000000e+00 0.000000000000000e+00 0.000000000000000e+00
0.000000000000000e+00 0.000000000000000e+00 0.000000000000000e+00
0.000000000000000e+00 0.000000000000000e+00 0.000000000000000e+00

0.000000000000000e+00 0.000000000000000e+00 0.000000000000000e+00
0.000000000000000e+00 0.000000000000000e+00 0.000000000000000e+00
0.000000000000000e+00 0.000000000000000e+00 0.000000000000000e+00

0.000000000000000e+00 0.000000000000000e+00 0.000000000000000e+00
0.000000000000000e+00 0.000000000000000e+00 0.000000000000000e+00
0.000000000000000e+00 0.000000000000000e+00 0.000000000000000e+00

0.000000000000000e+00 0.000000000000000e+00 0.000000000000000e+00
0.000000000000000e+00 0.000000000000000e+00 0.000000000000000e+00
0.000000000000000e+00 0.000000000000000e+00 0.000000000000000e+00

0.000000000000000e+00 0.000000000000000e+00 0.000000000000000e+00
0.000000000000000e+00 0.000000000000000e+00 0.000000000000000e+00
0.000000000000000e+00 0.000000000000000e+00 0.000000000000000e+00

0.000000000000000e+00 0.000000000000000e+00 0.000000000000000e+00
0.000000000000000e+00 0.000000000000000e+00 0.000000000000000e+00
0.000000000000000e+00 0.000000000000000e+00 0.000000000000000e+00

0.000000000000000e+00 0.000000000000000e+00 0.000000000000000e+00
0.000000000000000e+00 0.000000000000000e+00 0.000000000000000e+00
0.000000000000000e+00 0.000000000000000e+00 0.000000000000000e+00

0.000000000000000e+00 0.000000000000000e+00 0.000000000000000e+00
0.000000000000000e+00 0.000000000000000e+00 0.000000000000000e+00
0.000000000000000e+00 0.000000000000000e+00 0.000000000000000e+00

0.000000000000000e+00 0.000000000000000e+00 0.000000000000000e+00
0.000000000000000e+00 0.000000000000000e+00 0.000000000000000e+00
0.000000000000000e+00 0.000000000000000e+00 0.000000000000000e+00

0.000000000000000e+00 0.000000000000000e+00 0.000000000000000e+00
0.000000000000000e+00 0.000000000000000e+00 0.000000000000000e+00
0.000000000000000e+00 0.000000000000000e+00 0.000000000000000e+00

0.000000000000000e+00 0.000000000000000e+00 0.000000000000000e+00
0.000000000000000e+00 0.000000000000000e+00 0.000000000000000e+00
0.000000000000000e+00 0.000000000000000e+00 0.000000000000000e+00

0.000000000000000e+00 0.000000000000000e+00 0.000000000000000e+00
0.000000000000000e+00 0.000000000000000e+00 0.000000000000000e+00
0.000000000000000e+00 0.000000000000000e+00 0.000000000000000e+00

0.000000000000000e+00 0.000000000000000e+00 0.000000000000000e+00
0.000000000000000e+00 0.000000000000000e+00 0.000000000000000e+00
0.000000000000000e+00 0.000000000000000e+00 0.000000000000000e+00

0.000000000000000e+00 0.000000000000000e+00 0.000000000000000e+00
0.000000000000000e+00 0.000000000000000e+00 0.000000000000000e+00
0.000000000000000e+00 0.000000000000000e+00 0.000000000000000e+00

0.000000000000000e+00 0.000000000000000e+00 0.000000000000000e+00
0.000000000000000e+00 0.000000000000000e+00 0.000000000000000e+00
0.000000000000000e+00 0.000000000000000e+00 0.000000000000000e+00

0.000000000000000e+00 0.000000000000000e+00 0.000000000000000e+00
0.000000000000000e+00 0.000000000000000e+00 0.000000000000000e+00
0.000000000000000e+00 0.000000000000000e+00 0.000000000000000e+00

0.000000000000000e+00 0.000000000000000e+00 0.000000000000000e+00
0.000000000000000e+00 0.000000000000000e+00 0.000000000000000e+00
0.000000000000000e+00 0.000000000000000e+00 0.000000000000000e+00

0.000000000000000e+00 0.000000000000000e+00 0.000000000000000e+00
0.000000000000000e+00 0.000000000000000e+00 0.000000000000000e+00
0.000000000000000e+00 0.000000000000000e+00 0.000000000000000e+00

0.000000000000000e+00 0.000000000000000e+00 0.000000000000000e+00
0.000000000000000e+00 0.000000000000000e+00 0.000000000000000e+00
0.000000000000000e+00 0.000000000000000e+00 0.000000000000000e+00

0.000000000000000e+00 0.000000000000000e+00 0.000000000000000e+00
0.000000000000000e+00 0.000000000000000e+00 0.000000000000000e+00
0.000000000000000e+00 0.000000000000000e+00 0.000000000000000e+00

0.000000000000000e+00 0.000000000000000e+00 0.000000000000000e+00
0.000000000000000e+00 0.000000000000000e+00 0.000000000000000e+00
0.000000000000000e+00 0.000000000000000e+00 0.000000000000000e+00

0.000000000000000e+00 0.000000000000000e+00 0.000000000000000e+00
0.000000000000000e+00 0.000000000000000e+00 0.000000000000000e+00
0.000000000000000e+00 0.000000000000000e+00 0.000000000000000e+00

0.000000000000000e+00 0.000000000000000e+00 0.000000000000000e+00
0.000000000000000e+00 0.000000000000000e+00 0.000000000000000e+00
0.000000000000000e+00 0.000000000000000e+00 0.000000000000000e+00

0.000000000000000e+00 0.000000000000000e+00 0.000000000000000e+00
0.000000000000000e+00 0.000000000000000e+00 0.000000000000000e+00
0.000000000000000e+00 0.000000000000000e+00 0.000000000000000e+00

0.000000000000000e+00 0.000000000000000e+00 0.000000000000000e+00
0.000000000000000e+00 0.000000000000000e+00 0.000000000000000e+00
0.000000000000000e+00 0.000000000000000e+00 0.000000000000000e+00

0.000000000000000e+00 0.000000000000000e+00 0.000000000000000e+00
0.000000000000000e+00 0.000000000000000e+00 0.000000000000000e+00
0.000000000000000e+00 0.000000000000000e+00 0.000000000000000e+00

0.000000000000000e+00 0.000000000000000e+00 0.000000000000000e+00
0.000000000000000e+00 0.000000000000000e+00 0.000000000000000e+00
0.000000000000000e+00 0.000000000000000e+00 0.000000000000000e+00

0.000000000000000e+00 0.000000000000000e+00 0.000000000000000e+00
0.000000000000000e+00 0.000000000000000e+00 0.000000000000000e+00
0.000000000000000e+00 0.000000000000000e+00 0.000000000000000e+00

0.000000000000000e+00 0.000000000000000e+00 0.000000000000000e+00
0.000000000000000e+00 0.000000000000000e+00 0.000000000000000e+00
0.000000000000000e+00 0.000000000000000e+00 0.000000000000000e+00

0.000000000000000e+00 0.000000000000000e+00 0.000000000000000e+00
0.000000000000000e+00 0.000000000000000e+00 0.000000000000000e+00
0.000000000000000e+00 0.000000000000000e+00 0.000000000000000e+00

0.000000000000000e+00 0.000000000000000e+00 0.000000000000000e+00
0.000000000000000e+00 0.000000000000000e+00 0.000000000000000e+00
0.000000000000000e+00 0.000000000000000e+00 0.000000000000000e+00

0.000000000000000e+00 0.000000000000000e+00 0.000000000000000e+00
0.000000000000000e+00 0.000000000000000e+00 0.000000000000000e+00
0.000000000000000e+00 0.000000000000000e+00 0.000000000000000e+00

0.000000000000000e+00 0.000000000000000e+00 0.000000000000000e+00
0.000000000000000e+00 0.000000000000000e+00 0.000000000000000e+00
0.000000000000000e+00 0.000000000000000e+00 0.000000000000000e+00

0.000000000000000e+00 0.000000000000000e+00 0.000000000000000e+00
0.000000000000000e+00 0.000000000000000e+00 0.000000000000000e+00
0.000000000000000e+00 0.000000000000000e+00 0.000000000000000e+00

0.000000000000000e+00 0.000000000000000e+00 0.000000000000000e+00
0.000000000000000e+00 0.000000000000000e+00 0.000000000000000e+00
0.000000000000000e+00 0.000000000000000e+00 0.000000000000000e+00

0.000000000000000e+00 0.000000000000000e+00 0.000000000000000e+00
0.000000000000000e+00 0.000000000000000e+00 0.000000000000000e+00
0.000000000000000e+00 0.000000000000000e+00 0.000000000000000e+00

0.000000000000000e+00 0.000000000000000e+00 0.000000000000000e+00
0.000000000000000e+00 0.000000000000000e+00 0.000000000000000e+00
0.000000000000000e+00 0.000000000000000e+00 0.000000000000000e+00

0.000000000000000e+00 0.000000000000000e+00 0.000000000000000e+00
0.000000000000000e+00 0.000000000000000e+00 0.000000000000000e+00
0.000000000000000e+00 0.000000000000000e+00 0.000000000000000e+00

0.000000000000000e+00 0.000000000000000e+00 0.000000000000000e+00
0.000000000000000e+00 0.000000000000000e+00 0.000000000000000e+00
0.000000000000000e+00 0.000000000000000e+00 0.000000000000000e+00

0.000000000000000e+00 0.000000000000000e+00 0.000000000000000e+00
0.000000000000000e+00 0.000000000000000e+00 0.000000000000000e+00
0.000000000000000e+00 0.000000000000000e+00 0.000000000000000e+00

0.000000000000000e+00 0.000000000000000e+00 0.000000000000000e+00
0.000000000000000e+00 0.000000000000000e+00 0.000000000000000e+00
0.000000000000000e+00 0.000000000000000e+00 0.000000000000000e+00

0.000000000000000e+00 0.000000000000000e+00 0.000000000000000e+00
0.000000000000000e+00 0.000000000000000e+00 0.000000000000000e+00
0.000000000000000e+00 0.000000000000000e+00 0.000000000000000e+00

0.000000000000000e+00 0.000000000000000e+00 0.000000000000000e+00
0.000000000000000e+00 0.000000000000000e+00 0.000000000000000e+00
0.000000000000000e+00 0.000000000000000e+00 0.000000000000000e+00

0.000000000000000e+00 0.000000000000000e+00 0.000000000000000e+00
0.000000000000000e+00 0.000000000000000e+00 0.000000000000000e+00
0.000000000000000e+00 0.000000000000000e+00 0.000000000000000e+00

0.000000000000000e+00 0.000000000000000e+00 0.000000000000000e+00
0.000000000000000e+00 0.000000000000000e+00 0.000000000000000e+00
0.000000000000000e+00 0.000000000000000e+00 0.000000000000000e+00

0.000000000000000e+00 0.000000000000000e+00 0.000000000000000e+00
0.000000000000000e+00 0.000000000000000e+00 0.000000000000000e+00
0.000000000000000e+00 0.000000000000000e+00 0.000000000000000e+00

0.000000000000000e+00 0.000000000000000e+00 0.000000000000000e+00
0.000000000000000e+00 0.000000000000000e+00 0.000000000000000e+00
0.000000000000000e+00 0.000000000000000e+00 0.000000000000000e+00

0.000000000000000e+00 0.000000000000000e+00 0.000000000000000e+00
0.000000000000000e+00 0.000000000000000e+00 0.000000000000000e+00
0.000000000000000e+00 0.000000000000000e+00 0.000000000000000e+00

0.000000000000000e+00 0.000000000000000e+00 0.000000000000000e+00
0.000000000000000e+00 0.000000000000000e+00 0.000000000000000e+00
0.000000000000000e+00 0.000000000000000e+00 0.000000000000000e+00

0.000000000000000e+00 0.000000000000000e+00 0.000000000000000e+00
0.000000000000000e+00 0.000000000000000e+00 0.000000000000000e+00
0.000000000000000e+00 0.000000000000000e+00 0.000000000000000e+00

0.000000000000000e+00 0.000000000000000e+00 0.000000000000000e+00
0.000000000000000e+00 0.000000000000000e+00 0.000000000000000e+00
0.000000000000000e+00 0.000000000000000e+00 0.000000000000000e+00

0.000000000000000e+00 0.000000000000000e+00 0.000000000000000e+00
0.000000000000000e+00 0.000000000000000e+00 0.000000000000000e+00
0.000000000000000e+00 0.000000000000000e+00 0.000000000000000e+00

0.000000000000000e+00 0.000000000000000e+00 0.000000000000000e+00
0.000000000000000e+00 0.000000000000000e+00 0.000000000000000e+00
0.000000000000000e+00 0.000000000000000e+00 0.000000000000000e+00

0.000000000000000e+00 0.000000000000000e+00 0.000000000000000e+00
0.000000000000000e+00 0.000000000000000e+00 0.000000000000000e+00
0.000000000000000e+00 0.000000000000000e+00 0.000000000000000e+00

0.000000000000000e+00 0.000000000000000e+00 0.000000000000000e+00
0.000000000000000e+00 0.000000000000000e+00 0.000000000000000e+00
0.000000000000000e+00 0.000000000000000e+00 0.000000000000000e+00

0.000000000000000e+00 0.000000000000000e+00 0.000000000000000e+00
0.000000000000000e+00 0.000000000000000e+00 0.000000000000000e+00
0.000000000000000e+00 0.000000000000000e+00 0.000000000000000e+00

0.000000000000000e+00 0.000000000000000e+00 0.000000000000000e+00
0.000000000000000e+00 0.000000000000000e+00 0.000000000000000e+00
0.000000000000000e+00 0.000000000000000e+00 0.000000000000000e+00

0.000000000000000e+00 0.000000000000000e+00 0.000000000000000e+00
0.000000000000000e+00 0.000000000000000e+00 0.000000000000000e+00
0.000000000000000e+00 0.000000000000000e+00 0.000000000000000e+00

0.000000000000000e+00 0.000000000000000e+00 0.000000000000000e+00
0.000000000000000e+00 0.000000000000000e+00 0.000000000000000e+00
0.000000000000000e+00 0.000000000000000e+00 0.000000000000000e+00

0.000000000000000e+00 0.000000000000000e+00 0.000000000000000e+00
0.000000000000000e+00 0.000000000000000e+00 0.000000000000000e+00
0.000000000000000e+00 0.000000000000000e+00 0.000000000000000e+00

0.000000000000000e+00 0.000000000000000e+00 0.000000000000000e+00
0.000000000000000e+00 0.000000000000000e+00 0.000000000000000e+00
0.000000000000000e+00 0.000000000000000e+00 0.000000000000000e+00

0.000000000000000e+00 0.000000000000000e+00 0.000000000000000e+00
0.000000000000000e+00 0.000000000000000e+00 0.000000000000000e+00
0.000000000000000e+00 0.000000000000000e+00 0.000000000000000e+00

0.000000000000000e+00 0.000000000000000e+00 0.000000000000000e+00
0.000000000000000e+00 0.000000000000000e+00 0.000000000000000e+00
0.000000000000000e+00 0.000000000000000e+00 0.000000000000000e+00

0.000000000000000e+00 0.000000000000000e+00 0.000000000000000e+00
0.000000000000000e+00 0.000000000000000e+00 0.000000000000000e+00
0.000000000000000e+00 0.000000000000000e+00 0.000000000000000e+00

0.000000000000000e+00 0.000000000000000e+00 0.000000000000000e+00
0.000000000000000e+00 0.000000000000000e+00 0.000000000000000e+00
0.000000000000000e+00 0.000000000000000e+00 0.000000000000000e+00

0.000000000000000e+00 0.000000000000000e+00 0.000000000000000e+00
0.000000000000000e+00 0.000000000000000e+00 0.000000000000000e+00
0.000000000000000e+00 0.000000000000000e+00 0.000000000000000e+00

0.000000000000000e+00 0.000000000000000e+00 0.000000000000000e+00
0.000000000000000e+00 0.000000000000000e+00 0.000000000000000e+00
0.000000000000000e+00 0.000000000000000e+00 0.000000000000000e+00

0.000000000000000e+00 0.000000000000000e+00 0.000000000000000e+00
0.000000000000000e+00 0.000000000000000e+00 0.000000000000000e+00
0.000000000000000e+00 0.000000000000000e+00 0.000000000000000e+00

0.000000000000000e+00 0.000000000000000e+00 0.000000000000000e+00
0.000000000000000e+00 0.000000000000000e+00 0.000000000000000e+00
0.000000000000000e+00 0.000000000000000e+00 0.000000000000000e+00

0.000000000000000e+00 0.000000000000000e+00 0.000000000000000e+00
0.000000000000000e+00 0.000000000000000e+00 0.000000000000000e+00
0.000000000000000e+00 0.000000000000000e+00 0.000000000000000e+00

0.000000000000000e+00 0.000000000000000e+00 0.000000000000000e+00
0.000000000000000e+00 0.000000000000000e+00 0.000000000000000e+00
0.000000000000000e+00 0.000000000000000e+00 0.000000000000000e+00

0.000000000000000e+00 0.000000000000000e+00 0.000000000000000e+00
0.000000000000000e+00 0.000000000000000e+00 0.000000000000000e+00
0.000000000000000e+00 0.000000000000000e+00 0.000000000000000e+00

0.000000000000000e+00 0.000000000000000e+00 0.000000000000000e+00
0.000000000000000e+00 0.000000000000000e+00 0.000000000000000e+00
0.000000000000000e+00 0.000000000000000e+00 0.000000000000000e+00

0.000000000000000e+00 0.000000000000000e+00 0.000000000000000e+00
0.000000000000000e+00 0.000000000000000e+00 0.000000000000000e+00
0.000000000000000e+00 0.000000000000000e+00 0.000000000000000e+00

0.000000000000000e+00 0.000000000000000e+00 0.000000000000000e+00
0.000000000000000e+00 0.000000000000000e+00 0.000000000000000e+00
0.000000000000000e+00 0.000000000000000e+00 0.000000000000000e+00

0.000000000000000e+00 0.000000000000000e+00 0.000000000000000e+00
0.000000000000000e+00 0.000000000000000e+00 0.000000000000000e+00
0.000000000000000e+00 0.000000000000000e+00 0.000000000000000e+00

0.000000000000000e+00 0.000000000000000e+00 0.000000000000000e+00
0.000000000000000e+00 0.000000000000000e+00 0.000000000000000e+00
0.000000000000000e+00 0.000000000000000e+00 0.000000000000000e+00

0.000000000000000e+00 0.000000000000000e+00 0.000000000000000e+00
0.000000000000000e+00 0.000000000000000e+00 0.000000000000000e+00
0.000000000000000e+00 0.000000000000000e+00 0.000000000000000e+00

0.000000000000000e+00 0.000000000000000e+00 0.000000000000000e+00
0.000000000000000e+00 0.000000000000000e+00 0.000000000000000e+00
0.000000000000000e+00 0.000000000000000e+00 0.000000000000000e+00

0.000000000000000e+00 0.000000000000000e+00 0.000000000000000e+00
0.000000000000000e+00 0.000000000000000e+00 0.000000000000000e+00
0.000000000000000e+00 0.000000000000000e+00 0.000000000000000e+00

0.000000000000000e+00 0.000000000000000e+00 0.000000000000000e+00
0.000000000000000e+00 0.000000000000000e+00 0.000000000000000e+00
0.000000000000000e+00 0.000000000000000e+00 0.000000000000000e+00

0.000000000000000e+00 0.000000000000000e+00 0.000000000000000e+00
0.000000000000000e+00 0.000000000000000e+00 0.000000000000000e+00
0.000000000000000e+00 0.000000000000000e+00 0.000000000000000e+00

0.000000000000000e+00 0.000000000000000e+00 0.000000000000000e+00
0.000000000000000e+00 0.000000000000000e+00 0.000000000000000e+00
0.000000000000000e+00 0.000000000000000e+00 0.000000000000000e+00

0.000000000000000e+00 0.000000000000000e+00 0.000000000000000e+00
0.000000000000000e+00 0.000000000000000e+00 0.000000000000000e+00
0.000000000000000e+00 0.000000000000000e+00 0.000000000000000e+00

0.000000000000000e+00 0.000000000000000e+00 0.000000000000000e+00
0.000000000000000e+00 0.000000000000000e+00 0.000000000000000e+00
0.000000000000000e+00 0.000000000000000e+00 0.000000000000000e+00

0.000000000000000e+00 0.000000000000000e+00 0.000000000000000e+00
0.000000000000000e+00 0.000000000000000e+00 0.000000000000000e+00
0.000000000000000e+00 0.000000000000000e+00 0.000000000000000e+00

0.000000000000000e+00 0.000000000000000e+00 0.000000000000000e+00
0.000000000000000e+00 0.000000000000000e+00 0.000000000000000e+00
0.000000000000000e+00 0.000000000000000e+00 0.000000000000000e+00

0.000000000000000e+00 0.000000000000000e+00 0.000000000000000e+00
0.000000000000000e+00 0.000000000000000e+00 0.000000000000000e+00
0.000000000000000e+00 0.000000000000000e+00 0.000000000000000e+00

0.000000000000000e+00 0.000000000000000e+00 0.000000000000000e+00
0.000000000000000e+00 0.000000000000000e+00 0.000000000000000e+00
0.000000000000000e+00 0.000000000000000e+00 0.000000000000000e+00

0.000000000000000e+00 0.000000000000000e+00 0.000000000000000e+00
0.000000000000000e+00 0.000000000000000e+00 0.000000000000000e+00
0.000000000000000e+00 0.000000000000000e+00 0.000000000000000e+00

0.000000000000000e+00 0.000000000000000e+00 0.000000000000000e+00
0.000000000000000e+00 0.000000000000000e+00 0.000000000000000e+00
0.000000000000000e+00 0.000000000000000e+00 0.000000000000000e+00

0.000000000000000e+00 0.000000000000000e+00 0.000000000000000e+00
0.000000000000000e+00 0.000000000000000e+00 0.000000000000000e+00
0.000000000000000e+00 0.000000000000000e+00 0.000000000000000e+00

0.000000000000000e+00 0.000000000000000e+00 0.000000000000000e+00
0.000000000000000e+00 0.000000000000000e+00 0.000000000000000e+00
0.000000000000000e+00 0.000000000000000e+00 0.000000000000000e+00

0.000000000000000e+00 0.000000000000000e+00 0.000000000000000e+00
0.000000000000000e+00 0.000000000000000e+00 0.000000000000000e+00
0.000000000000000e+00 0.000000000000000e+00 0.000000000000000e+00

0.000000000000000e+00 0.000000000000000e+00 0.000000000000000e+00
0.000000000000000e+00 0.000000000000000e+00 0.000000000000000e+00
0.000000000000000e+00 0.000000000000000e+00 0.000000000000000e+00

0.000000000000000e+00 0.000000000000000e+00 0.000000000000000e+00
0.000000000000000e+00 0.000000000000000e+00 0.000000000000000e+00
0.000000000000000e+00 0.000000000000000e+00 0.000000000000000e+00

0.000000000000000e+00 0.000000000000000e+00 0.000000000000000e+00
0.000000000000000e+00 0.000000000000000e+00 0.000000000000000e+00
0.000000000000000e+00 0.000000000000000e+00 0.000000000000000e+00

0.000000000000000e+00 0.000000000000000e+00 0.000000000000000e+00
0.000000000000000e+00 0.000000000000000e+00 0.000000000000000e+00
0.000000000000000e+00 0.000000000000000e+00 0.000000000000000e+00

0.000000000000000e+00 0.000000000000000e+00 0.000000000000000e+00
0.000000000000000e+00 0.000000000000000e+00 0.000000000000000e+00
0.000000000000000e+00 0.000000000000000e+00 0.000000000000000e+00

0.000000000000000e+00 0.000000000000000e+00 0.000000000000000e+00
0.000000000000000e+00 0.000000000000000e+00 0.000000000000000e+00
0.000000000000000e+00 0.000000000000000e+00 0.000000000000000e+00

0.000000000000000e+00 0.000000000000000e+00 0.000000000000000e+00
0.000000000000000e+00 0.000000000000000e+00 0.000000000000000e+00
0.000000000000000e+00 0.000000000000000e+00 0.000000000000000e+00

0.000000000000000e+00 0.000000000000000e+00 0.000000000000000e+00
0.000000000000000e+00 0.000000000000000e+00 0.000000000000000e+00
0.000000000000000e+00 0.000000000000000e+00 0.000000000000000e+00

0.000000000000000e+00 0.000000000000000e+00 0.000000000000000e+00
0.000000000000000e+00 0.000000000000000e+00 0.000000000000000e+00
0.000000000000000e+00 0.000000000000000e+00 0.000000000000000e+00

0.000000000000000e+00 0.000000000000000e+00 0.000000000000000e+00
0.000000000000000e+00 0.000000000000000e+00 0.000000000000000e+00
0.000000000000000e+00 0.000000000000000e+00 0.000000000000000e+00

0.000000000000000e+00 0.000000000000000e+00 0.000000000000000e+00
0.000000000000000e+00 0.000000000000000e+00 0.000000000000000e+00
0.000000000000000e+00 0.000000000000000e+00 0.000000000000000e+00

0.000000000000000e+00 0.000000000000000e+00 0.000000000000000e+00
0.000000000000000e+00 0.000000000000000e+00 0.000000000000000e+00
0.000000000000000e+00 0.000000000000000e+00 0.000000000000000e+00

0.000000000000000e+00 0.000000000000000e+00 0.000000000000000e+00
0.000000000000000e+00 0.000000000000000e+00 0.000000000000000e+00
0.000000000000000e+00 0.000000000000000e+00 0.000000000000000e+00

0.000000000000000e+00 0.000000000000000e+00 0.000000000000000e+00
0.000000000000000e+00 0.000000000000000e+00 0.000000000000000e+00
0.000000000000000e+00 0.000000000000000e+00 0.000000000000000e+00

0.000000000000000e+00 0.000000000000000e+00 0.000000000000000e+00
0.000000000000000e+00 0.000000000000000e+00 0.000000000000000e+00
0.000000000000000e+00 0.000000000000000e+00 0.000000000000000e+00

0.000000000000000e+00 0.000000000000000e+00 0.000000000000000e+00
0.000000000000000e+00 0.000000000000000e+00 0.000000000000000e+00
0.000000000000000e+00 0.000000000000000e+00 0.000000000000000e+00

0.000000000000000e+00 0.000000000000000e+00 0.000000000000000e+00
0.000000000000000e+00 0.000000000000000e+00 0.000000000000000e+00
0.000000000000000e+00 0.000000000000000e+00 0.000000000000000e+00

0.000000000000000e+00 0.000000000000000e+00 0.000000000000000e+00
0.000000000000000e+00 0.000000000000000e+00 0.000000000000000e+00
0.000000000000000e+00 0.000000000000000e+00 0.000000000000000e+00

0.000000000000000e+00 0.000000000000000e+00 0.000000000000000e+00
0.000000000000000e+00 0.000000000000000e+00 0.000000000000000e+00
0.000000000000000e+00 0.000000000000000e+00 0.000000000000000e+00

0.000000000000000e+00 0.000000000000000e+00 0.000000000000000e+00
0.000000000000000e+00 0.000000000000000e+00 0.000000000000000e+00
0.000000000000000e+00 0.000000000000000e+00 0.000000000000000e+00

0.000000000000000e+00 0.000000000000000e+00 0.000000000000000e+00
0.000000000000000e+00 0.000000000000000e+00 0.000000000000000e+00
0.000000000000000e+00 0.000000000000000e+00 0.000000000000000e+00

0.000000000000000e+00 0.000000000000000e+00 0.000000000000000e+00
0.000000000000000e+00 0.000000000000000e+00 0.000000000000000e+00
0.000000000000000e+00 0.000000000000000e+00 0.000000000000000e+00

0.000000000000000e+00 0.000000000000000e+00 0.000000000000000e+00
0.000000000000000e+00 0.000000000000000e+00 0.000000000000000e+00
0.000000000000000e+00 0.000000000000000e+00 0.000000000000000e+00

0.000000000000000e+00 0.000000000000000e+00 0.000000000000000e+00
0.000000000000000e+00 0.000000000000000e+00 0.000000000000000e+00
0.000000000000000e+00 0.000000000000000e+00 0.000000000000000e+00

0.000000000000000e+00 0.000000000000000e+00 0.000000000000000e+00
0.000000000000000e+00 0.000000000000000e+00 0.000000000000000e+00
0.000000000000000e+00 0.000000000000000e+00 0.000000000000000e+00

0.000000000000000e+00 0.000000000000000e+00 0.000000000000000e+00
0.000000000000000e+00 0.000000000000000e+00 0.000000000000000e+00
0.000000000000000e+00 0.000000000000000e+00 0.000000000000000e+00

0.000000000000000e+00 0.000000000000000e+00 0.000000000000000e+00
0.000000000000000e+00 0.000000000000000e+00 0.000000000000000e+00
0.000000000000000e+00 0.000000000000000e+00 0.000000000000000e+00

0.000000000000000e+00 0.000000000000000e+00 0.000000000000000e+00
0.000000000000000e+00 0.000000000000000e+00 0.000000000000000e+00
0.000000000000000e+00 0.000000000000000e+00 0.000000000000000e+00

0.000000000000000e+00 0.000000000000000e+00 0.000000000000000e+00
0.000000000000000e+00 0.000000000000000e+00 0.000000000000000e+00
0.000000000000000e+00 0.000000000000000e+00 0.000000000000000e+00

0.000000000000000e+00 0.000000000000000e+00 0.000000000000000e+00
0.000000000000000e+00 0.000000000000000e+00 0.000000000000000e+00
0.000000000000000e+00 0.000000000000000e+00 0.000000000000000e+00

0.000000000000000e+00 0.000000000000000e+00 0.000000000000000e+00
0.000000000000000e+00 0.000000000000000e+00 0.000000000000000e+00
0.000000000000000e+00 0.000000000000000e+00 0.000000000000000e+00

0.000000000000000e+00 0.000000000000000e+00 0.000000000000000e+00
0.000000000000000e+00 0.000000000000000e+00 0.000000000000000e+00
0.000000000000000e+00 0.000000000000000e+00 0.000000000000000e+00

0.000000000000000e+00 0.000000000000000e+00 0.000000000000000e+00
0.000000000000000e+00 0.000000000000000e+00 0.000000000000000e+00
0.000000000000000e+00 0.000000000000000e+00 0.000000000000000e+00

0.000000000000000e+00 0.000000000000000e+00 0.000000000000000e+00
0.000000000000000e+00 0.000000000000000e+00 0.000000000000000e+00
0.000000000000000e+00 0.000000000000000e+00 0.000000000000000e+00

0.000000000000000e+00 0.000000000000000e+00 0.000000000000000e+00
0.000000000000000e+00 0.000000000000000e+00 0.000000000000000e+00
0.000000000000000e+00 0.000000000000000e+00 0.000000000000000e+00

0.000000000000000e+00 0.000000000000000e+00 0.000000000000000e+00
0.000000000000000e+00 0.000000000000000e+00 0.000000000000000e+00
0.000000000000000e+00 0.000000000000000e+00 0.000000000000000e+00

0.000000000000000e+00 0.000000000000000e+00 0.000000000000000e+00
0.000000000000000e+00 0.000000000000000e+00 0.000000000000000e+00
0.000000000000000e+00 0.000000000000000e+00 0.000000000000000e+00

0.000000000000000e+00 0.000000000000000e+00 0.000000000000000e+00
0.000000000000000e+00 0.000000000000000e+00 0.000000000000000e+00
0.000000000000000e+00 0.000000000000000e+00 0.000000000000000e+00

0.000000000000000e+00 0.000000000000000e+00 0.000000000000000e+00
0.000000000000000e+00 0.000000000000000e+00 0.000000000000000e+00
0.000000000000000e+00 0.000000000000000e+00 0.000000000000000e+00

0.000000000000000e+00 0.000000000000000e+00 0.000000000000000e+00
0.000000000000000e+00 0.000000000000000e+00 0.000000000000000e+00
0.000000000000000e+00 0.000000000000000e+00 0.000000000000000e+00

0.000000000000000e+00 0.000000000000000e+00 0.000000000000000e+00
0.000000000000000e+00 0.000000000000000e+00 0.000000000000000e+00
0.000000000000000e+00 0.000000000000000e+00 0.000000000000000e+00

0.000000000000000e+00 0.000000000000000e+00 0.000000000000000e+00
0.000000000000000e+00 0.000000000000000e+00 0.000000000000000e+00
0.000000000000000e+00 0.000000000000000e+00 0.000000000000000e+00

0.000000000000000e+00 0.000000000000000e+00 0.000000000000000e+00
0.000000000000000e+00 0.000000000000000e+00 0.000000000000000e+00
0.000000000000000e+00 0.000000000000000e+00 0.000000000000000e+00

0.000000000000000e+00 0.000000000000000e+00 0.000000000000000e+00
0.000000000000000e+00 0.000000000000000e+00 0.000000000000000e+00
0.000000000000000e+00 0.000000000000000e+00 0.000000000000000e+00

0.000000000000000e+00 0.000000000000000e+00 0.000000000000000e+00
0.000000000000000e+00 0.000000000000000e+00 0.000000000000000e+00
0.000000000000000e+00 0.000000000000000e+00 0.000000000000000e+00

0.000000000000000e+00 0.000000000000000e+00 0.000000000000000e+00
0.000000000000000e+00 0.000000000000000e+00 0.000000000000000e+00
0.000000000000000e+00 0.000000000000000e+00 0.000000000000000e+00

0.000000000000000e+00 0.000000000000000e+00 0.000000000000000e+00
0.000000000000000e+00 0.000000000000000e+00 0.000000000000000e+00
0.000000000000000e+00 0.000000000000000e+00 0.000000000000000e+00

0.000000000000000e+00 0.000000000000000e+00 0.000000000000000e+00
0.000000000000000e+00 0.000000000000000e+00 0.000000000000000e+00
0.000000000000000e+00 0.000000000000000e+00 0.000000000000000e+00

0.000000000000000e+00 0.000000000000000e+00 0.000000000000000e+00
0.000000000000000e+00 0.000000000000000e+00 0.000000000000000e+00
0.000000000000000e+00 0.000000000000000e+00 0.000000000000000e+00

0.000000000000000e+00 0.000000000000000e+00 0.000000000000000e+00
0.000000000000000e+00 0.000000000000000e+00 0.000000000000000e+00
0.000000000000000e+00 0.000000000000000e+00 0.000000000000000e+00

0.000000000000000e+00 0.000000000000000e+00 0.000000000000000e+00
0.000000000000000e+00 0.000000000000000e+00 0.000000000000000e+00
0.000000000000000e+00 0.000000000000000e+00 0.000000000000000e+00

0.000000000000000e+00 0.000000000000000e+00 0.000000000000000e+00
0.000000000000000e+00 0.000000000000000e+00 0.000000000000000e+00
0.000000000000000e+00 0.000000000000000e+00 0.000000000000000e+00

0.000000000000000e+00 0.000000000000000e+00 0.000000000000000e+00
0.000000000000000e+00 0.000000000000000e+00 0.000000000000000e+00
0.000000000000000e+00 0.000000000000000e+00 0.000000000000000e+00

0.000000000000000e+00 0.000000000000000e+00 0.000000000000000e+00
0.000000000000000e+00 0.000000000000000e+00 0.000000000000000e+00
0.000000000000000e+00 0.000000000000000e+00 0.000000000000000e+00

0.000000000000000e+00 0.000000000000000e+00 0.000000000000000e+00
0.000000000000000e+00 0.000000000000000e+00 0.000000000000000e+00
0.000000000000000e+00 0.000000000000000e+00 0.000000000000000e+00

0.000000000000000e+00 0.000000000000000e+00 0.000000000000000e+00
0.000000000000000e+00 0.000000000000000e+00 0.000000000000000e+00
0.000000000000000e+00 0.000000000000000e+00 0.000000000000000e+00

0.000000000000000e+00 0.000000000000000e+00 0.000000000000000e+00
0.000000000000000e+00 0.000000000000000e+00 0.000000000000000e+00
0.000000000000000e+00 0.000000000000000e+00 0.000000000000000e+00

0.000000000000000e+00 0.000000000000000e+00 0.000000000000000e+00
0.000000000000000e+00 0.000000000000000e+00 0.000000000000000e+00
0.000000000000000e+00 0.000000000000000e+00 0.000000000000000e+00

0.000000000000000e+00 0.000000000000000e+00 0.000000000000000e+00
0.000000000000000e+00 0.000000000000000e+00 0.000000000000000e+00
0.000000000000000e+00 0.000000000000000e+00 0.000000000000000e+00

0.000000000000000e+00 0.000000000000000e+00 0.000000000000000e+00
0.000000000000000e+00 0.000000000000000e+00 0.000000000000000e+00
0.000000000000000e+00 0.000000000000000e+00 0.000000000000000e+00

0.000000000000000e+00 0.000000000000000e+00 0.000000000000000e+00
0.000000000000000e+00 0.000000000000000e+00 0.000000000000000e+00
0.000000000000000e+00 0.000000000000000e+00 0.000000000000000e+00

0.000000000000000e+00 0.000000000000000e+00 0.000000000000000e+00
0.000000000000000e+00 0.000000000000000e+00 0.000000000000000e+00
0.000000000000000e+00 0.000000000000000e+00 0.000000000000000e+00

0.000000000000000e+00 0.000000000000000e+00 0.000000000000000e+00
0.000000000000000e+00 0.000000000000000e+00 0.000000000000000e+00
0.000000000000000e+00 0.000000000000000e+00 0.000000000000000e+00

0.000000000000000e+00 0.000000000000000e+00 0.000000000000000e+00
0.000000000000000e+00 0.000000000000000e+00 0.000000000000000e+00
0.000000000000000e+00 0.000000000000000e+00 0.000000000000000e+00

0.000000000000000e+00 0.000000000000000e+00 0.000000000000000e+00
0.000000000000000e+00 0.000000000000000e+00 0.000000000000000e+00
0.000000000000000e+00 0.000000000000000e+00 0.000000000000000e+00

0.000000000000000e+00 0.000000000000000e+00 0.000000000000000e+00
0.000000000000000e+00 0.000000000000000e+00 0.000000000000000e+00
0.000000000000000e+00 0.000000000000000e+00 0.000000000000000e+00

0.000000000000000e+00 0.000000000000000e+00 0.000000000000000e+00
0.000000000000000e+00 0.000000000000000e+00 0.000000000000000e+00
0.000000000000000e+00 0.000000000000000e+00 0.000000000000000e+00

0.000000000000000e+00 0.000000000000000e+00 0.000000000000000e+00
0.000000000000000e+00 0.000000000000000e+00 0.000000000000000e+00
0.000000000000000e+00 0.000000000000000e+00 0.000000000000000e+00

0.000000000000000e+00 0.000000000000000e+00 0.000000000000000e+00
0.000000000000000e+00 0.000000000000000e+00 0.000000000000000e+00
0.000000000000000e+00 0.000000000000000e+00 0.000000000000000e+00

0.000000000000000e+00 0.000000000000000e+00 0.000000000000000e+00
0.000000000000000e+00 0.000000000000000e+00 0.000000000000000e+00
0.000000000000000e+00 0.000000000000000e+00 0.000000000000000e+00

0.000000000000000e+00 0.000000000000000e+00 0.000000000000000e+00
0.000000000000000e+00 0.000000000000000e+00 0.000000000000000e+00
0.000000000000000e+00 0.000000000000000e+00 0.000000000000000e+00

0.000000000000000e+00 0.000000000000000e+00 0.000000000000000e+00
0.000000000000000e+00 0.000000000000000e+00 0.000000000000000e+00
0.000000000000000e+00 0.000000000000000e+00 0.000000000000000e+00

0.000000000000000e+00 0.000000000000000e+00 0.000000000000000e+00
0.000000000000000e+00 0.000000000000000e+00 0.000000000000000e+00
0.000000000000000e+00 0.000000000000000e+00 0.000000000000000e+00

0.000000000000000e+00 0.000000000000000e+00 0.000000000000000e+00
0.000000000000000e+00 0.000000000000000e+00 0.000000000000000e+00
0.000000000000000e+00 0.000000000000000e+00 0.000000000000000e+00

0.000000000000000e+00 0.000000000000000e+00 0.000000000000000e+00
0.000000000000000e+00 0.000000000000000e+00 0.000000000000000e+00
0.000000000000000e+00 0.000000000000000e+00 0.000000000000000e+00

0.000000000000000e+00 0.000000000000000e+00 0.000000000000000e+00
0.000000000000000e+00 0.000000000000000e+00 0.000000000000000e+00
0.000000000000000e+00 0.000000000000000e+00 0.000000000000000e+00

0.000000000000000e+00 0.000000000000000e+00 0.000000000000000e+00
0.000000000000000e+00 0.000000000000000e+00 0.000000000000000e+00
0.000000000000000e+00 0.000000000000000e+00 0.000000000000000e+00

0.000000000000000e+00 0.000000000000000e+00 0.000000000000000e+00
0.000000000000000e+00 0.000000000000000e+00 0.000000000000000e+00
0.000000000000000e+00 0.000000000000000e+00 0.000000000000000e+00

0.000000000000000e+00 0.000000000000000e+00 0.000000000000000e+00
0.000000000000000e+00 0.000000000000000e+00 0.000000000000000e+00
0.000000000000000e+00 0.000000000000000e+00 0.000000000000000e+00

0.000000000000000e+00 0.000000000000000e+00 0.000000000000000e+00
0.000000000000000e+00 0.000000000000000e+00 0.000000000000000e+00
0.000000000000000e+00 0.000000000000000e+00 0.000000000000000e+00

0.000000000000000e+00 0.000000000000000e+00 0.000000000000000e+00
0.000000000000000e+00 0.000000000000000e+00 0.000000000000000e+00
0.000000000000000e+00 0.000000000000000e+00 0.000000000000000e+00

0.000000000000000e+00 0.000000000000000e+00 0.000000000000000e+00
0.000000000000000e+00 0.000000000000000e+00 0.000000000000000e+00
0.000000000000000e+00 0.000000000000000e+00 0.000000000000000e+00

0.000000000000000e+00 0.000000000000000e+00 0.000000000000000e+00
0.000000000000000e+00 0.000000000000000e+00 0.000000000000000e+00
0.000000000000000e+00 0.000000000000000e+00 0.000000000000000e+00

0.000000000000000e+00 0.000000000000000e+00 0.000000000000000e+00
0.000000000000000e+00 0.000000000000000e+00 0.000000000000000e+00
0.000000000000000e+00 0.000000000000000e+00 0.000000000000000e+00

0.000000000000000e+00 0.000000000000000e+00 0.000000000000000e+00
0.000000000000000e+00 0.000000000000000e+00 0.000000000000000e+00
0.000000000000000e+00 0.000000000000000e+00 0.000000000000000e+00

0.000000000000000e+00 0.000000000000000e+00 0.000000000000000e+00
0.000000000000000e+00 0.000000000000000e+00 0.000000000000000e+00
0.000000000000000e+00 0.000000000000000e+00 0.000000000000000e+00

0.000000000000000e+00 0.000000000000000e+00 0.000000000000000e+00
0.000000000000000e+00 0.000000000000000e+00 0.000000000000000e+00
0.000000000000000e+00 0.000000000000000e+00 0.000000000000000e+00

0.000000000000000e+00 0.000000000000000e+00 0.000000000000000e+00
0.000000000000000e+00 0.000000000000000e+00 0.000000000000000e+00
0.000000000000000e+00 0.000000000000000e+00 0.000000000000000e+00

0.000000000000000e+00 0.000000000000000e+00 0.000000000000000e+00
0.000000000000000e+00 0.000000000000000e+00 0.000000000000000e+00
0.000000000000000e+00 0.000000000000000e+00 0.000000000000000e+00

0.000000000000000e+00 0.000000000000000e+00 0.000000000000000e+00
0.000000000000000e+00 0.000000000000000e+00 0.000000000000000e+00
0.000000000000000e+00 0.000000000000000e+00 0.000000000000000e+00

0.000000000000000e+00 0.000000000000000e+00 0.000000000000000e+00
0.000000000000000e+00 0.000000000000000e+00 0.000000000000000e+00
0.000000000000000e+00 0.000000000000000e+00 0.000000000000000e+00

0.000000000000000e+00 0.000000000000000e+00 0.000000000000000e+00
0.000000000000000e+00 0.000000000000000e+00 0.000000000000000e+00
0.000000000000000e+00 0.000000000000000e+00 0.000000000000000e+00

0.000000000000000e+00 0.000000000000000e+00 0.000000000000000e+00
0.000000000000000e+00 0.000000000000000e+00 0.000000000000000e+00
0.000000000000000e+00 0.000000000000000e+00 0.000000000000000e+00

0.000000000000000e+00 0.000000000000000e+00 0.000000000000000e+00
0.000000000000000e+00 0.000000000000000e+00 0.000000000000000e+00
0.000000000000000e+00 0.000000000000000e+00 0.000000000000000e+00

0.000000000000000e+00 0.000000000000000e+00 0.000000000000000e+00
0.000000000000000e+00 0.000000000000000e+00 0.000000000000000e+00
0.000000000000000e+00 0.000000000000000e+00 0.000000000000000e+00

0.000000000000000e+00 0.000000000000000e+00 0.000000000000000e+00
0.000000000000000e+00 0.000000000000000e+00 0.000000000000000e+00
0.000000000000000e+00 0.000000000000000e+00 0.000000000000000e+00

0.000000000000000e+00 0.000000000000000e+00 0.000000000000000e+00
0.000000000000000e+00 0.000000000000000e+00 0.000000000000000e+00
0.000000000000000e+00 0.000000000000000e+00 0.000000000000000e+00

0.000000000000000e+00 0.000000000000000e+00 0.000000000000000e+00
0.000000000000000e+00 0.000000000000000e+00 0.000000000000000e+00
0.000000000000000e+00 0.000000000000000e+00 0.000000000000000e+00

0.000000000000000e+00 0.000000000000000e+00 0.000000000000000e+00
0.000000000000000e+00 0.000000000000000e+00 0.000000000000000e+00
0.000000000000000e+00 0.000000000000000e+00 0.000000000000000e+00

0.000000000000000e+00 0.000000000000000e+00 0.000000000000000e+00
0.000000000000000e+00 0.000000000000000e+00 0.000000000000000e+00
0.000000000000000e+00 0.000000000000000e+00 0.000000000000000e+00

0.000000000000000e+00 0.000000000000000e+00 0.000000000000000e+00
0.000000000000000e+00 0.000000000000000e+00 0.000000000000000e+00
0.000000000000000e+00 0.000000000000000e+00 0.000000000000000e+00

0.000000000000000e+00 0.000000000000000e+00 0.000000000000000e+00
0.000000000000000e+00 0.000000000000000e+00 0.000000000000000e+00
0.000000000000000e+00 0.000000000000000e+00 0.000000000000000e+00

0.000000000000000e+00 0.000000000000000e+00 0.000000000000000e+00
0.000000000000000e+00 0.000000000000000e+00 0.000000000000000e+00
0.000000000000000e+00 0.000000000000000e+00 0.000000000000000e+00

0.000000000000000e+00 0.000000000000000e+00 0.000000000000000e+00
0.000000000000000e+00 0.000000000000000e+00 0.000000000000000e+00
0.000000000000000e+00 0.000000000000000e+00 0.000000000000000e+00

0.000000000000000e+00 0.000000000000000e+00 0.000000000000000e+00
0.000000000000000e+00 0.000000000000000e+00 0.000000000000000e+00
0.000000000000000e+00 0.000000000000000e+00 0.000000000000000e+00

0.000000000000000e+00 0.000000000000000e+00 0.000000000000000e+00
0.000000000000000e+00 0.000000000000000e+00 0.000000000000000e+00
0.000000000000000e+00 0.000000000000000e+00 0.000000000000000e+00

0.000000000000000e+00 0.000000000000000e+00 0.000000000000000e+00
0.000000000000000e+00 0.000000000000000e+00 0.000000000000000e+00
0.000000000000000e+00 0.000000000000000e+00 0.000000000000000e+00

0.000000000000000e+00 0.000000000000000e+00 0.000000000000000e+00
0.000000000000000e+00 0.000000000000000e+00 0.000000000000000e+00
0.000000000000000e+00 0.000000000000000e+00 0.000000000000000e+00

0.000000000000000e+00 0.000000000000000e+00 0.000000000000000e+00
0.000000000000000e+00 0.000000000000000e+00 0.000000000000000e+00
0.000000000000000e+00 0.000000000000000e+00 0.000000000000000e+00

0.000000000000000e+00 0.000000000000000e+00 0.000000000000000e+00
0.000000000000000e+00 0.000000000000000e+00 0.000000000000000e+00
0.000000000000000e+00 0.000000000000000e+00 0.000000000000000e+00

0.000000000000000e+00 0.000000000000000e+00 0.000000000000000e+00
0.000000000000000e+00 0.000000000000000e+00 0.000000000000000e+00
0.000000000000000e+00 0.000000000000000e+00 0.000000000000000e+00

0.000000000000000e+00 0.000000000000000e+00 0.000000000000000e+00
0.000000000000000e+00 0.000000000000000e+00 0.000000000000000e+00
0.000000000000000e+00 0.000000000000000e+00 0.000000000000000e+00

0.000000000000000e+00 0.000000000000000e+00 0.000000000000000e+00
0.000000000000000e+00 0.000000000000000e+00 0.000000000000000e+00
0.000000000000000e+00 0.000000000000000e+00 0.000000000000000e+00

0.000000000000000e+00 0.000000000000000e+00 0.000000000000000e+00
0.000000000000000e+00 0.000000000000000e+00 0.000000000000000e+00
0.000000000000000e+00 0.000000000000000e+00 0.000000000000000e+00

0.000000000000000e+00 0.000000000000000e+00 0.000000000000000e+00
0.000000000000000e+00 0.000000000000000e+00 0.000000000000000e+00
0.000000000000000e+00 0.000000000000000e+00 0.000000000000000e+00

0.000000000000000e+00 0.000000000000000e+00 0.000000000000000e+00
0.000000000000000e+00 0.000000000000000e+00 0.000000000000000e+00
0.000000000000000e+00 0.000000000000000e+00 0.000000000000000e+00

0.000000000000000e+00 0.000000000000000e+00 0.000000000000000e+00
0.000000000000000e+00 0.000000000000000e+00 0.000000000000000e+00
0.000000000000000e+00 0.000000000000000e+00 0.000000000000000e+00

0.000000000000000e+00 0.000000000000000e+00 0.000000000000000e+00
0.000000000000000e+00 0.000000000000000e+00 0.000000000000000e+00
0.000000000000000e+00 0.000000000000000e+00 0.000000000000000e+00

0.000000000000000e+00 0.000000000000000e+00 0.000000000000000e+00
0.000000000000000e+00 0.000000000000000e+00 0.000000000000000e+00
0.000000000000000e+00 0.000000000000000e+00 0.000000000000000e+00

0.000000000000000e+00 0.000000000000000e+00 0.000000000000000e+00
0.000000000000000e+00 0.000000000000000e+00 0.000000000000000e+00
0.000000000000000e+00 0.000000000000000e+00 0.000000000000000e+00

0.000000000000000e+00 0.000000000000000e+00 0.000000000000000e+00
0.000000000000000e+00 0.000000000000000e+00 0.000000000000000e+00
0.000000000000000e+00 0.000000000000000e+00 0.000000000000000e+00

0.000000000000000e+00 0.000000000000000e+00 0.000000000000000e+00
0.000000000000000e+00 0.000000000000000e+00 0.000000000000000e+00
0.000000000000000e+00 0.000000000000000e+00 0.000000000000000e+00

0.000000000000000e+00 0.000000000000000e+00 0.000000000000000e+00
0.000000000000000e+00 0.000000000000000e+00 0.000000000000000e+00
0.000000000000000e+00 0.000000000000000e+00 0.000000000000000e+00

0.000000000000000e+00 0.000000000000000e+00 0.000000000000000e+00
0.000000000000000e+00 0.000000000000000e+00 0.000000000000000e+00
0.000000000000000e+00 0.000000000000000e+00 0.000000000000000e+00

0.000000000000000e+00 0.000000000000000e+00 0.000000000000000e+00
0.000000000000000e+00 0.000000000000000e+00 0.000000000000000e+00
0.000000000000000e+00 0.000000000000000e+00 0.000000000000000e+00

0.000000000000000e+00 0.000000000000000e+00 0.000000000000000e+00
0.000000000000000e+00 0.000000000000000e+00 0.000000000000000e+00
0.000000000000000e+00 0.000000000000000e+00 0.000000000000000e+00

0.000000000000000e+00 0.000000000000000e+00 0.000000000000000e+00
0.000000000000000e+00 0.000000000000000e+00 0.000000000000000e+00
0.000000000000000e+00 0.000000000000000e+00 0.000000000000000e+00

0.000000000000000e+00 0.000000000000000e+00 0.000000000000000e+00
0.000000000000000e+00 0.000000000000000e+00 0.000000000000000e+00
0.000000000000000e+00 0.000000000000000e+00 0.000000000000000e+00

0.000000000000000e+00 0.000000000000000e+00 0.000000000000000e+00
0.000000000000000e+00 0.000000000000000e+00 0.000000000000000e+00
0.000000000000000e+00 0.000000000000000e+00 0.000000000000000e+00

0.000000000000000e+00 0.000000000000000e+00 0.000000000000000e+00
0.000000000000000e+00 0.000000000000000e+00 0.000000000000000e+00
0.000000000000000e+00 0.000000000000000e+00 0.000000000000000e+00

0.000000000000000e+00 0.000000000000000e+00 0.000000000000000e+00
0.000000000000000e+00 0.000000000000000e+00 0.000000000000000e+00
0.000000000000000e+00 0.000000000000000e+00 0.000000000000000e+00

0.000000000000000e+00 0.000000000000000e+00 0.000000000000000e+00
0.000000000000000e+00 0.000000000000000e+00 0.000000000000000e+00
0.000000000000000e+00 0.000000000000000e+00 0.000000000000000e+00

0.000000000000000e+00 0.000000000000000e+00 0.000000000000000e+00
0.000000000000000e+00 0.000000000000000e+00 0.000000000000000e+00
0.000000000000000e+00 0.000000000000000e+00 0.000000000000000e+00

0.000000000000000e+00 0.000000000000000e+00 0.000000000000000e+00
0.000000000000000e+00 0.000000000000000e+00 0.000000000000000e+00
0.000000000000000e+00 0.000000000000000e+00 0.000000000000000e+00

0.000000000000000e+00 0.000000000000000e+00 0.000000000000000e+00
0.000000000000000e+00 0.000000000000000e+00 0.000000000000000e+00
0.000000000000000e+00 0.000000000000000e+00 0.000000000000000e+00

0.000000000000000e+00 0.000000000000000e+00 0.000000000000000e+00
0.000000000000000e+00 0.000000000000000e+00 0.000000000000000e+00
0.000000000000000e+00 0.000000000000000e+00 0.000000000000000e+00

0.000000000000000e+00 0.000000000000000e+00 0.000000000000000e+00
0.000000000000000e+00 0.000000000000000e+00 0.000000000000000e+00
0.000000000000000e+00 0.000000000000000e+00 0.000000000000000e+00

0.000000000000000e+00 0.000000000000000e+00 0.000000000000000e+00
0.000000000000000e+00 0.000000000000000e+00 0.000000000000000e+00
0.000000000000000e+00 0.000000000000000e+00 0.000000000000000e+00

0.000000000000000e+00 0.000000000000000e+00 0.000000000000000e+00
0.000000000000000e+00 0.000000000000000e+00 0.000000000000000e+00
0.000000000000000e+00 0.000000000000000e+00 0.000000000000000e+00

0.000000000000000e+00 0.000000000000000e+00 0.000000000000000e+00
0.000000000000000e+00 0.000000000000000e+00 0.000000000000000e+00
0.000000000000000e+00 0.000000000000000e+00 0.000000000000000e+00

0.000000000000000e+00 0.000000000000000e+00 0.000000000000000e+00
0.000000000000000e+00 0.000000000000000e+00 0.000000000000000e+00
0.000000000000000e+00 0.000000000000000e+00 0.000000000000000e+00

0.000000000000000e+00 0.000000000000000e+00 0.000000000000000e+00
0.000000000000000e+00 0.000000000000000e+00 0.000000000000000e+00
0.000000000000000e+00 0.000000000000000e+00 0.000000000000000e+00

0.000000000000000e+00 0.000000000000000e+00 0.000000000000000e+00
0.000000000000000e+00 0.000000000000000e+00 0.000000000000000e+00
0.000000000000000e+00 0.000000000000000e+00 0.000000000000000e+00

0.000000000000000e+00 0.000000000000000e+00 0.000000000000000e+00
0.000000000000000e+00 0.000000000000000e+00 0.000000000000000e+00
0.000000000000000e+00 0.000000000000000e+00 0.000000000000000e+00

0.000000000000000e+00 0.000000000000000e+00 0.000000000000000e+00
0.000000000000000e+00 0.000000000000000e+00 0.000000000000000e+00
0.000000000000000e+00 0.000000000000000e+00 0.000000000000000e+00

0.000000000000000e+00 0.000000000000000e+00 0.000000000000000e+00
0.000000000000000e+00 0.000000000000000e+00 0.000000000000000e+00
0.000000000000000e+00 0.000000000000000e+00 0.000000000000000e+00

0.000000000000000e+00 0.000000000000000e+00 0.000000000000000e+00
0.000000000000000e+00 0.000000000000000e+00 0.000000000000000e+00
0.000000000000000e+00 0.000000000000000e+00 0.000000000000000e+00

0.000000000000000e+00 0.000000000000000e+00 0.000000000000000e+00
0.000000000000000e+00 0.000000000000000e+00 0.000000000000000e+00
0.000000000000000e+00 0.000000000000000e+00 0.000000000000000e+00

0.000000000000000e+00 0.000000000000000e+00 0.000000000000000e+00
0.000000000000000e+00 0.000000000000000e+00 0.000000000000000e+00
0.000000000000000e+00 0.000000000000000e+00 0.000000000000000e+00

0.000000000000000e+00 0.000000000000000e+00 0.000000000000000e+00
0.000000000000000e+00 0.000000000000000e+00 0.000000000000000e+00
0.000000000000000e+00 0.000000000000000e+00 0.000000000000000e+00

0.000000000000000e+00 0.000000000000000e+00 0.000000000000000e+00
0.000000000000000e+00 0.000000000000000e+00 0.000000000000000e+00
0.000000000000000e+00 0.000000000000000e+00 0.000000000000000e+00

0.000000000000000e+00 0.000000000000000e+00 0.000000000000000e+00
0.000000000000000e+00 0.000000000000000e+00 0.000000000000000e+00
0.000000000000000e+00 0.000000000000000e+00 0.000000000000000e+00

0.000000000000000e+00 0.000000000000000e+00 0.000000000000000e+00
0.000000000000000e+00 0.000000000000000e+00 0.000000000000000e+00
0.000000000000000e+00 0.000000000000000e+00 0.000000000000000e+00

0.000000000000000e+00 0.000000000000000e+00 0.000000000000000e+00
0.000000000000000e+00 0.000000000000000e+00 0.000000000000000e+00
0.000000000000000e+00 0.000000000000000e+00 0.000000000000000e+00

0.000000000000000e+00 0.000000000000000e+00 0.000000000000000e+00
0.000000000000000e+00 0.000000000000000e+00 0.000000000000000e+00
0.000000000000000e+00 0.000000000000000e+00 0.000000000000000e+00

0.000000000000000e+00 0.000000000000000e+00 0.000000000000000e+00
0.000000000000000e+00 0.000000000000000e+00 0.000000000000000e+00
0.000000000000000e+00 0.000000000000000e+00 0.000000000000000e+00

0.000000000000000e+00 0.000000000000000e+00 0.000000000000000e+00
0.000000000000000e+00 0.000000000000000e+00 0.000000000000000e+00
0.000000000000000e+00 0.000000000000000e+00 0.000000000000000e+00

0.000000000000000e+00 0.000000000000000e+00 0.000000000000000e+00
0.000000000000000e+00 0.000000000000000e+00 0.000000000000000e+00
0.000000000000000e+00 0.000000000000000e+00 0.000000000000000e+00

0.000000000000000e+00 0.000000000000000e+00 0.000000000000000e+00
0.000000000000000e+00 0.000000000000000e+00 0.000000000000000e+00
0.000000000000000e+00 0.000000000000000e+00 0.000000000000000e+00

0.000000000000000e+00 0.000000000000000e+00 0.000000000000000e+00
0.000000000000000e+00 0.000000000000000e+00 0.000000000000000e+00
0.000000000000000e+00 0.000000000000000e+00 0.000000000000000e+00

0.000000000000000e+00 0.000000000000000e+00 0.000000000000000e+00
0.000000000000000e+00 0.000000000000000e+00 0.000000000000000e+00
0.000000000000000e+00 0.000000000000000e+00 0.000000000000000e+00

0.000000000000000e+00 0.000000000000000e+00 0.000000000000000e+00
0.000000000000000e+00 0.000000000000000e+00 0.000000000000000e+00
0.000000000000000e+00 0.000000000000000e+00 0.000000000000000e+00

0.000000000000000e+00 0.000000000000000e+00 0.000000000000000e+00
0.000000000000000e+00 0.000000000000000e+00 0.000000000000000e+00
0.000000000000000e+00 0.000000000000000e+00 0.000000000000000e+00

0.000000000000000e+00 0.000000000000000e+00 0.000000000000000e+00
0.000000000000000e+00 0.000000000000000e+00 0.000000000000000e+00
0.000000000000000e+00 0.000000000000000e+00 0.000000000000000e+00

0.000000000000000e+00 0.000000000000000e+00 0.000000000000000e+00
0.000000000000000e+00 0.000000000000000e+00 0.000000000000000e+00
0.000000000000000e+00 0.000000000000000e+00 0.000000000000000e+00

0.000000000000000e+00 0.000000000000000e+00 0.000000000000000e+00
0.000000000000000e+00 0.000000000000000e+00 0.000000000000000e+00
0.000000000000000e+00 0.000000000000000e+00 0.000000000000000e+00

0.000000000000000e+00 0.000000000000000e+00 0.000000000000000e+00
0.000000000000000e+00 0.000000000000000e+00 0.000000000000000e+00
0.000000000000000e+00 0.000000000000000e+00 0.000000000000000e+00

0.000000000000000e+00 0.000000000000000e+00 0.000000000000000e+00
0.000000000000000e+00 0.000000000000000e+00 0.000000000000000e+00
0.000000000000000e+00 0.000000000000000e+00 0.000000000000000e+00

0.000000000000000e+00 0.000000000000000e+00 0.000000000000000e+00
0.000000000000000e+00 0.000000000000000e+00 0.000000000000000e+00
0.000000000000000e+00 0.000000000000000e+00 0.000000000000000e+00

0.000000000000000e+00 0.000000000000000e+00 0.000000000000000e+00
0.000000000000000e+00 0.000000000000000e+00 0.000000000000000e+00
0.000000000000000e+00 0.000000000000000e+00 0.000000000000000e+00

0.000000000000000e+00 0.000000000000000e+00 0.000000000000000e+00
0.000000000000000e+00 0.000000000000000e+00 0.000000000000000e+00
0.000000000000000e+00 0.000000000000000e+00 0.000000000000000e+00

0.000000000000000e+00 0.000000000000000e+00 0.000000000000000e+00
0.000000000000000e+00 0.000000000000000e+00 0.000000000000000e+00
0.000000000000000e+00 0.000000000000000e+00 0.000000000000000e+00

0.000000000000000e+00 0.000000000000000e+00 0.000000000000000e+00
0.000000000000000e+00 0.000000000000000e+00 0.000000000000000e+00
0.000000000000000e+00 0.000000000000000e+00 0.000000000000000e+00

0.000000000000000e+00 0.000000000000000e+00 0.000000000000000e+00
0.000000000000000e+00 0.000000000000000e+00 0.000000000000000e+00
0.000000000000000e+00 0.000000000000000e+00 0.000000000000000e+00

0.000000000000000e+00 0.000000000000000e+00 0.000000000000000e+00
0.000000000000000e+00 0.000000000000000e+00 0.000000000000000e+00
0.000000000000000e+00 0.000000000000000e+00 0.000000000000000e+00

0.000000000000000e+00 0.000000000000000e+00 0.000000000000000e+00
0.000000000000000e+00 0.000000000000000e+00 0.000000000000000e+00
0.000000000000000e+00 0.000000000000000e+00 0.000000000000000e+00

0.000000000000000e+00 0.000000000000000e+00 0.000000000000000e+00
0.000000000000000e+00 0.000000000000000e+00 0.000000000000000e+00
0.000000000000000e+00 0.000000000000000e+00 0.000000000000000e+00

0.000000000000000e+00 0.000000000000000e+00 0.000000000000000e+00
0.000000000000000e+00 0.000000000000000e+00 0.000000000000000e+00
0.000000000000000e+00 0.000000000000000e+00 0.000000000000000e+00

0.000000000000000e+00 0.000000000000000e+00 0.000000000000000e+00
0.000000000000000e+00 0.000000000000000e+00 0.000000000000000e+00
0.000000000000000e+00 0.000000000000000e+00 0.000000000000000e+00

0.000000000000000e+00 0.000000000000000e+00 0.000000000000000e+00
0.000000000000000e+00 0.000000000000000e+00 0.000000000000000e+00
0.000000000000000e+00 0.000000000000000e+00 0.000000000000000e+00

0.000000000000000e+00 0.000000000000000e+00 0.000000000000000e+00
0.000000000000000e+00 0.000000000000000e+00 0.000000000000000e+00
0.000000000000000e+00 0.000000000000000e+00 0.000000000000000e+00

0.000000000000000e+00 0.000000000000000e+00 0.000000000000000e+00
0.000000000000000e+00 0.000000000000000e+00 0.000000000000000e+00
0.000000000000000e+00 0.000000000000000e+00 0.000000000000000e+00

0.000000000000000e+00 0.000000000000000e+00 0.000000000000000e+00
0.000000000000000e+00 0.000000000000000e+00 0.000000000000000e+00
0.000000000000000e+00 0.000000000000000e+00 0.000000000000000e+00

0.000000000000000e+00 0.000000000000000e+00 0.000000000000000e+00
0.000000000000000e+00 0.000000000000000e+00 0.000000000000000e+00
0.000000000000000e+00 0.000000000000000e+00 0.000000000000000e+00

0.000000000000000e+00 0.000000000000000e+00 0.000000000000000e+00
0.000000000000000e+00 0.000000000000000e+00 0.000000000000000e+00
0.000000000000000e+00 0.000000000000000e+00 0.000000000000000e+00

0.000000000000000e+00 0.000000000000000e+00 0.000000000000000e+00
0.000000000000000e+00 0.000000000000000e+00 0.000000000000000e+00
0.000000000000000e+00 0.000000000000000e+00 0.000000000000000e+00

0.000000000000000e+00 0.000000000000000e+00 0.000000000000000e+00
0.000000000000000e+00 0.000000000000000e+00 0.000000000000000e+00
0.000000000000000e+00 0.000000000000000e+00 0.000000000000000e+00

0.000000000000000e+00 0.000000000000000e+00 0.000000000000000e+00
0.000000000000000e+00 0.000000000000000e+00 0.000000000000000e+00
0.000000000000000e+00 0.000000000000000e+00 0.000000000000000e+00

0.000000000000000e+00 0.000000000000000e+00 0.000000000000000e+00
0.000000000000000e+00 0.000000000000000e+00 0.000000000000000e+00
0.000000000000000e+00 0.000000000000000e+00 0.000000000000000e+00

0.000000000000000e+00 0.000000000000000e+00 0.000000000000000e+00
0.000000000000000e+00 0.000000000000000e+00 0.000000000000000e+00
0.000000000000000e+00 0.000000000000000e+00 0.000000000000000e+00

0.000000000000000e+00 0.000000000000000e+00 0.000000000000000e+00
0.000000000000000e+00 0.000000000000000e+00 0.000000000000000e+00
0.000000000000000e+00 0.000000000000000e+00 0.000000000000000e+00

0.000000000000000e+00 0.000000000000000e+00 0.000000000000000e+00
0.000000000000000e+00 0.000000000000000e+00 0.000000000000000e+00
0.000000000000000e+00 0.000000000000000e+00 0.000000000000000e+00

0.000000000000000e+00 0.000000000000000e+00 0.000000000000000e+00
0.000000000000000e+00 0.000000000000000e+00 0.000000000000000e+00
0.000000000000000e+00 0.000000000000000e+00 0.000000000000000e+00

0.000000000000000e+00 0.000000000000000e+00 0.000000000000000e+00
0.000000000000000e+00 0.000000000000000e+00 0.000000000000000e+00
0.000000000000000e+00 0.000000000000000e+00 0.000000000000000e+00

0.000000000000000e+00 0.000000000000000e+00 0.000000000000000e+00
0.000000000000000e+00 0.000000000000000e+00 0.000000000000000e+00
0.000000000000000e+00 0.000000000000000e+00 0.000000000000000e+00

0.000000000000000e+00 0.000000000000000e+00 0.000000000000000e+00
0.000000000000000e+00 0.000000000000000e+00 0.000000000000000e+00
0.000000000000000e+00 0.000000000000000e+00 0.000000000000000e+00

0.000000000000000e+00 0.000000000000000e+00 0.000000000000000e+00
0.000000000000000e+00 0.000000000000000e+00 0.000000000000000e+00
0.000000000000000e+00 0.000000000000000e+00 0.000000000000000e+00

0.000000000000000e+00 0.000000000000000e+00 0.000000000000000e+00
0.000000000000000e+00 0.000000000000000e+00 0.000000000000000e+00
0.000000000000000e+00 0.000000000000000e+00 0.000000000000000e+00

0.000000000000000e+00 0.000000000000000e+00 0.000000000000000e+00
0.000000000000000e+00 0.000000000000000e+00 0.000000000000000e+00
0.000000000000000e+00 0.000000000000000e+00 0.000000000000000e+00

0.000000000000000e+00 0.000000000000000e+00 0.000000000000000e+00
0.000000000000000e+00 0.000000000000000e+00 0.000000000000000e+00
0.000000000000000e+00 0.000000000000000e+00 0.000000000000000e+00

0.000000000000000e+00 0.000000000000000e+00 0.000000000000000e+00
0.000000000000000e+00 0.000000000000000e+00 0.000000000000000e+00
0.000000000000000e+00 0.000000000000000e+00 0.000000000000000e+00

0.000000000000000e+00 0.000000000000000e+00 0.000000000000000e+00
0.000000000000000e+00 0.000000000000000e+00 0.000000000000000e+00
0.000000000000000e+00 0.000000000000000e+00 0.000000000000000e+00

0.000000000000000e+00 0.000000000000000e+00 0.000000000000000e+00
0.000000000000000e+00 0.000000000000000e+00 0.000000000000000e+00
0.000000000000000e+00 0.000000000000000e+00 0.000000000000000e+00

0.000000000000000e+00 0.000000000000000e+00 0.000000000000000e+00
0.000000000000000e+00 0.000000000000000e+00 0.000000000000000e+00
0.000000000000000e+00 0.000000000000000e+00 0.000000000000000e+00

0.000000000000000e+00 0.000000000000000e+00 0.000000000000000e+00
0.000000000000000e+00 0.000000000000000e+00 0.000000000000000e+00
0.000000000000000e+00 0.000000000000000e+00 0.000000000000000e+00

0.000000000000000e+00 0.000000000000000e+00 0.000000000000000e+00
0.000000000000000e+00 0.000000000000000e+00 0.000000000000000e+00
0.000000000000000e+00 0.000000000000000e+00 0.000000000000000e+00

0.000000000000000e+00 0.000000000000000e+00 0.000000000000000e+00
0.000000000000000e+00 0.000000000000000e+00 0.000000000000000e+00
0.000000000000000e+00 0.000000000000000e+00 0.000000000000000e+00

0.000000000000000e+00 0.000000000000000e+00 0.000000000000000e+00
0.000000000000000e+00 0.000000000000000e+00 0.000000000000000e+00
0.000000000000000e+00 0.000000000000000e+00 0.000000000000000e+00

0.000000000000000e+00 0.000000000000000e+00 0.000000000000000e+00
0.000000000000000e+00 0.000000000000000e+00 0.000000000000000e+00
0.000000000000000e+00 0.000000000000000e+00 0.000000000000000e+00

0.000000000000000e+00 0.000000000000000e+00 0.000000000000000e+00
0.000000000000000e+00 0.000000000000000e+00 0.000000000000000e+00
0.000000000000000e+00 0.000000000000000e+00 0.000000000000000e+00

0.000000000000000e+00 0.000000000000000e+00 0.000000000000000e+00
0.000000000000000e+00 0.000000000000000e+00 0.000000000000000e+00
0.000000000000000e+00 0.000000000000000e+00 0.000000000000000e+00

0.000000000000000e+00 0.000000000000000e+00 0.000000000000000e+00
0.000000000000000e+00 0.000000000000000e+00 0.000000000000000e+00
0.000000000000000e+00 0.000000000000000e+00 0.000000000000000e+00

0.000000000000000e+00 0.000000000000000e+00 0.000000000000000e+00
0.000000000000000e+00 0.000000000000000e+00 0.000000000000000e+00
0.000000000000000e+00 0.000000000000000e+00 0.000000000000000e+00

0.000000000000000e+00 0.000000000000000e+00 0.000000000000000e+00
0.000000000000000e+00 0.000000000000000e+00 0.000000000000000e+00
0.000000000000000e+00 0.000000000000000e+00 0.000000000000000e+00

0.000000000000000e+00 0.000000000000000e+00 0.000000000000000e+00
0.000000000000000e+00 0.000000000000000e+00 0.000000000000000e+00
0.000000000000000e+00 0.000000000000000e+00 0.000000000000000e+00

0.000000000000000e+00 0.000000000000000e+00 0.000000000000000e+00
0.000000000000000e+00 0.000000000000000e+00 0.000000000000000e+00
0.000000000000000e+00 0.000000000000000e+00 0.000000000000000e+00

0.000000000000000e+00 0.000000000000000e+00 0.000000000000000e+00
0.000000000000000e+00 0.000000000000000e+00 0.000000000000000e+00
0.000000000000000e+00 0.000000000000000e+00 0.000000000000000e+00

0.000000000000000e+00 0.000000000000000e+00 0.000000000000000e+00
0.000000000000000e+00 0.000000000000000e+00 0.000000000000000e+00
0.000000000000000e+00 0.000000000000000e+00 0.000000000000000e+00

0.000000000000000e+00 0.000000000000000e+00 0.000000000000000e+00
0.000000000000000e+00 0.000000000000000e+00 0.000000000000000e+00
0.000000000000000e+00 0.000000000000000e+00 0.000000000000000e+00

0.000000000000000e+00 0.000000000000000e+00 0.000000000000000e+00
0.000000000000000e+00 0.000000000000000e+00 0.000000000000000e+00
0.000000000000000e+00 0.000000000000000e+00 0.000000000000000e+00

0.000000000000000e+00 0.000000000000000e+00 0.000000000000000e+00
0.000000000000000e+00 0.000000000000000e+00 0.000000000000000e+00
0.000000000000000e+00 0.000000000000000e+00 0.000000000000000e+00

0.000000000000000e+00 0.000000000000000e+00 0.000000000000000e+00
0.000000000000000e+00 0.000000000000000e+00 0.000000000000000e+00
0.000000000000000e+00 0.000000000000000e+00 0.000000000000000e+00

0.000000000000000e+00 0.000000000000000e+00 0.000000000000000e+00
0.000000000000000e+00 0.000000000000000e+00 0.000000000000000e+00
0.000000000000000e+00 0.000000000000000e+00 0.000000000000000e+00

0.000000000000000e+00 0.000000000000000e+00 0.000000000000000e+00
0.000000000000000e+00 0.000000000000000e+00 0.000000000000000e+00
0.000000000000000e+00 0.000000000000000e+00 0.000000000000000e+00

0.000000000000000e+00 0.000000000000000e+00 0.000000000000000e+00
0.000000000000000e+00 0.000000000000000e+00 0.000000000000000e+00
0.000000000000000e+00 0.000000000000000e+00 0.000000000000000e+00

0.000000000000000e+00 0.000000000000000e+00 0.000000000000000e+00
0.000000000000000e+00 0.000000000000000e+00 0.000000000000000e+00
0.000000000000000e+00 0.000000000000000e+00 0.000000000000000e+00

0.000000000000000e+00 0.000000000000000e+00 0.000000000000000e+00
0.000000000000000e+00 0.000000000000000e+00 0.000000000000000e+00
0.000000000000000e+00 0.000000000000000e+00 0.000000000000000e+00

0.000000000000000e+00 0.000000000000000e+00 0.000000000000000e+00
0.000000000000000e+00 0.000000000000000e+00 0.000000000000000e+00
0.000000000000000e+00 0.000000000000000e+00 0.000000000000000e+00

0.000000000000000e+00 0.000000000000000e+00 0.000000000000000e+00
0.000000000000000e+00 0.000000000000000e+00 0.000000000000000e+00
0.000000000000000e+00 0.000000000000000e+00 0.000000000000000e+00

0.000000000000000e+00 0.000000000000000e+00 0.000000000000000e+00
0.000000000000000e+00 0.000000000000000e+00 0.000000000000000e+00
0.000000000000000e+00 0.000000000000000e+00 0.000000000000000e+00

0.000000000000000e+00 0.000000000000000e+00 0.000000000000000e+00
0.000000000000000e+00 0.000000000000000e+00 0.000000000000000e+00
0.000000000000000e+00 0.000000000000000e+00 0.000000000000000e+00

0.000000000000000e+00 0.000000000000000e+00 0.000000000000000e+00
0.000000000000000e+00 0.000000000000000e+00 0.000000000000000e+00
0.000000000000000e+00 0.000000000000000e+00 0.000000000000000e+00

0.000000000000000e+00 0.000000000000000e+00 0.000000000000000e+00
0.000000000000000e+00 0.000000000000000e+00 0.000000000000000e+00
0.000000000000000e+00 0.000000000000000e+00 0.000000000000000e+00

0.000000000000000e+00 0.000000000000000e+00 0.000000000000000e+00
0.000000000000000e+00 0.000000000000000e+00 0.000000000000000e+00
0.000000000000000e+00 0.000000000000000e+00 0.000000000000000e+00

0.000000000000000e+00 0.000000000000000e+00 0.000000000000000e+00
0.000000000000000e+00 0.000000000000000e+00 0.000000000000000e+00
0.000000000000000e+00 0.000000000000000e+00 0.000000000000000e+00

0.000000000000000e+00 0.000000000000000e+00 0.000000000000000e+00
0.000000000000000e+00 0.000000000000000e+00 0.000000000000000e+00
0.000000000000000e+00 0.000000000000000e+00 0.000000000000000e+00

0.000000000000000e+00 0.000000000000000e+00 0.000000000000000e+00
0.000000000000000e+00 0.000000000000000e+00 0.000000000000000e+00
0.000000000000000e+00 0.000000000000000e+00 0.000000000000000e+00

0.000000000000000e+00 0.000000000000000e+00 0.000000000000000e+00
0.000000000000000e+00 0.000000000000000e+00 0.000000000000000e+00
0.000000000000000e+00 0.000000000000000e+00 0.000000000000000e+00

0.000000000000000e+00 0.000000000000000e+00 0.000000000000000e+00
0.000000000000000e+00 0.000000000000000e+00 0.000000000000000e+00
0.000000000000000e+00 0.000000000000000e+00 0.000000000000000e+00

0.000000000000000e+00 0.000000000000000e+00 0.000000000000000e+00
0.000000000000000e+00 0.000000000000000e+00 0.000000000000000e+00
0.000000000000000e+00 0.000000000000000e+00 0.000000000000000e+00

0.000000000000000e+00 0.000000000000000e+00 0.000000000000000e+00
0.000000000000000e+00 0.000000000000000e+00 0.000000000000000e+00
0.000000000000000e+00 0.000000000000000e+00 0.000000000000000e+00

0.000000000000000e+00 0.000000000000000e+00 0.000000000000000e+00
0.000000000000000e+00 0.000000000000000e+00 0.000000000000000e+00
0.000000000000000e+00 0.000000000000000e+00 0.000000000000000e+00

0.000000000000000e+00 0.000000000000000e+00 0.000000000000000e+00
0.000000000000000e+00 0.000000000000000e+00 0.000000000000000e+00
0.000000000000000e+00 0.000000000000000e+00 0.000000000000000e+00

0.000000000000000e+00 0.000000000000000e+00 0.000000000000000e+00
0.000000000000000e+00 0.000000000000000e+00 0.000000000000000e+00
0.000000000000000e+00 0.000000000000000e+00 0.000000000000000e+00

0.000000000000000e+00 0.000000000000000e+00 0.000000000000000e+00
0.000000000000000e+00 0.000000000000000e+00 0.000000000000000e+00
0.000000000000000e+00 0.000000000000000e+00 0.000000000000000e+00

0.000000000000000e+00 0.000000000000000e+00 0.000000000000000e+00
0.000000000000000e+00 0.000000000000000e+00 0.000000000000000e+00
0.000000000000000e+00 0.000000000000000e+00 0.000000000000000e+00

0.000000000000000e+00 0.000000000000000e+00 0.000000000000000e+00
0.000000000000000e+00 0.000000000000000e+00 0.000000000000000e+00
0.000000000000000e+00 0.000000000000000e+00 0.000000000000000e+00

0.000000000000000e+00 0.000000000000000e+00 0.000000000000000e+00
0.000000000000000e+00 0.000000000000000e+00 0.000000000000000e+00
0.000000000000000e+00 0.000000000000000e+00 0.000000000000000e+00

0.000000000000000e+00 0.000000000000000e+00 0.000000000000000e+00
0.000000000000000e+00 0.000000000000000e+00 0.000000000000000e+00
0.000000000000000e+00 0.000000000000000e+00 0.000000000000000e+00

0.000000000000000e+00 0.000000000000000e+00 0.000000000000000e+00
0.000000000000000e+00 0.000000000000000e+00 0.000000000000000e+00
0.000000000000000e+00 0.000000000000000e+00 0.000000000000000e+00

0.000000000000000e+00 0.000000000000000e+00 0.000000000000000e+00
0.000000000000000e+00 0.000000000000000e+00 0.000000000000000e+00
0.000000000000000e+00 0.000000000000000e+00 0.000000000000000e+00

0.000000000000000e+00 0.000000000000000e+00 0.000000000000000e+00
0.000000000000000e+00 0.000000000000000e+00 0.000000000000000e+00
0.000000000000000e+00 0.000000000000000e+00 0.000000000000000e+00

0.000000000000000e+00 0.000000000000000e+00 0.000000000000000e+00
0.000000000000000e+00 0.000000000000000e+00 0.000000000000000e+00
0.000000000000000e+00 0.000000000000000e+00 0.000000000000000e+00

0.000000000000000e+00 0.000000000000000e+00 0.000000000000000e+00
0.000000000000000e+00 0.000000000000000e+00 0.000000000000000e+00
0.000000000000000e+00 0.000000000000000e+00 0.000000000000000e+00

0.000000000000000e+00 0.000000000000000e+00 0.000000000000000e+00
0.000000000000000e+00 0.000000000000000e+00 0.000000000000000e+00
0.000000000000000e+00 0.000000000000000e+00 0.000000000000000e+00

0.000000000000000e+00 0.000000000000000e+00 0.000000000000000e+00
0.000000000000000e+00 0.000000000000000e+00 0.000000000000000e+00
0.000000000000000e+00 0.000000000000000e+00 0.000000000000000e+00

0.000000000000000e+00 0.000000000000000e+00 0.000000000000000e+00
0.000000000000000e+00 0.000000000000000e+00 0.000000000000000e+00
0.000000000000000e+00 0.000000000000000e+00 0.000000000000000e+00

0.000000000000000e+00 0.000000000000000e+00 0.000000000000000e+00
0.000000000000000e+00 0.000000000000000e+00 0.000000000000000e+00
0.000000000000000e+00 0.000000000000000e+00 0.000000000000000e+00

0.000000000000000e+00 0.000000000000000e+00 0.000000000000000e+00
0.000000000000000e+00 0.000000000000000e+00 0.000000000000000e+00
0.000000000000000e+00 0.000000000000000e+00 0.000000000000000e+00

0.000000000000000e+00 0.000000000000000e+00 0.000000000000000e+00
0.000000000000000e+00 0.000000000000000e+00 0.000000000000000e+00
0.000000000000000e+00 0.000000000000000e+00 0.000000000000000e+00

0.000000000000000e+00 0.000000000000000e+00 0.000000000000000e+00
0.000000000000000e+00 0.000000000000000e+00 0.000000000000000e+00
0.000000000000000e+00 0.000000000000000e+00 0.000000000000000e+00

0.000000000000000e+00 0.000000000000000e+00 0.000000000000000e+00
0.000000000000000e+00 0.000000000000000e+00 0.000000000000000e+00
0.000000000000000e+00 0.000000000000000e+00 0.000000000000000e+00

0.000000000000000e+00 0.000000000000000e+00 0.000000000000000e+00
0.000000000000000e+00 0.000000000000000e+00 0.000000000000000e+00
0.000000000000000e+00 0.000000000000000e+00 0.000000000000000e+00

0.000000000000000e+00 0.000000000000000e+00 0.000000000000000e+00
0.000000000000000e+00 0.000000000000000e+00 0.000000000000000e+00
0.000000000000000e+00 0.000000000000000e+00 0.000000000000000e+00

0.000000000000000e+00 0.000000000000000e+00 0.000000000000000e+00
0.000000000000000e+00 0.000000000000000e+00 0.000000000000000e+00
0.000000000000000e+00 0.000000000000000e+00 0.000000000000000e+00

0.000000000000000e+00 0.000000000000000e+00 0.000000000000000e+00
0.000000000000000e+00 0.000000000000000e+00 0.000000000000000e+00
0.000000000000000e+00 0.000000000000000e+00 0.000000000000000e+00

0.000000000000000e+00 0.000000000000000e+00 0.000000000000000e+00
0.000000000000000e+00 0.000000000000000e+00 0.000000000000000e+00
0.000000000000000e+00 0.000000000000000e+00 0.000000000000000e+00

0.000000000000000e+00 0.000000000000000e+00 0.000000000000000e+00
0.000000000000000e+00 0.000000000000000e+00 0.000000000000000e+00
0.000000000000000e+00 0.000000000000000e+00 0.000000000000000e+00

0.000000000000000e+00 0.000000000000000e+00 0.000000000000000e+00
0.000000000000000e+00 0.000000000000000e+00 0.000000000000000e+00
0.000000000000000e+00 0.000000000000000e+00 0.000000000000000e+00

0.000000000000000e+00 0.000000000000000e+00 0.000000000000000e+00
0.000000000000000e+00 0.000000000000000e+00 0.000000000000000e+00
0.000000000000000e+00 0.000000000000000e+00 0.000000000000000e+00

0.000000000000000e+00 0.000000000000000e+00 0.000000000000000e+00
0.000000000000000e+00 0.000000000000000e+00 0.000000000000000e+00
0.000000000000000e+00 0.000000000000000e+00 0.000000000000000e+00

0.000000000000000e+00 0.000000000000000e+00 0.000000000000000e+00
0.000000000000000e+00 0.000000000000000e+00 0.000000000000000e+00
0.000000000000000e+00 0.000000000000000e+00 0.000000000000000e+00

0.000000000000000e+00 0.000000000000000e+00 0.000000000000000e+00
0.000000000000000e+00 0.000000000000000e+00 0.000000000000000e+00
0.000000000000000e+00 0.000000000000000e+00 0.000000000000000e+00

0.000000000000000e+00 0.000000000000000e+00 0.000000000000000e+00
0.000000000000000e+00 0.000000000000000e+00 0.000000000000000e+00
0.000000000000000e+00 0.000000000000000e+00 0.000000000000000e+00

0.000000000000000e+00 0.000000000000000e+00 0.000000000000000e+00
0.000000000000000e+00 0.000000000000000e+00 0.000000000000000e+00
0.000000000000000e+00 0.000000000000000e+00 0.000000000000000e+00

0.000000000000000e+00 0.000000000000000e+00 0.000000000000000e+00
0.000000000000000e+00 0.000000000000000e+00 0.000000000000000e+00
0.000000000000000e+00 0.000000000000000e+00 0.000000000000000e+00

0.000000000000000e+00 0.000000000000000e+00 0.000000000000000e+00
0.000000000000000e+00 0.000000000000000e+00 0.000000000000000e+00
0.000000000000000e+00 0.000000000000000e+00 0.000000000000000e+00

0.000000000000000e+00 0.000000000000000e+00 0.000000000000000e+00
0.000000000000000e+00 0.000000000000000e+00 0.000000000000000e+00
0.000000000000000e+00 0.000000000000000e+00 0.000000000000000e+00

0.000000000000000e+00 0.000000000000000e+00 0.000000000000000e+00
0.000000000000000e+00 0.000000000000000e+00 0.000000000000000e+00
0.000000000000000e+00 0.000000000000000e+00 0.000000000000000e+00

0.000000000000000e+00 0.000000000000000e+00 0.000000000000000e+00
0.000000000000000e+00 0.000000000000000e+00 0.000000000000000e+00
0.000000000000000e+00 0.000000000000000e+00 0.000000000000000e+00

0.000000000000000e+00 0.000000000000000e+00 0.000000000000000e+00
0.000000000000000e+00 0.000000000000000e+00 0.000000000000000e+00
0.000000000000000e+00 0.000000000000000e+00 0.000000000000000e+00

0.000000000000000e+00 0.000000000000000e+00 0.000000000000000e+00
0.000000000000000e+00 0.000000000000000e+00 0.000000000000000e+00
0.000000000000000e+00 0.000000000000000e+00 0.000000000000000e+00

0.000000000000000e+00 0.000000000000000e+00 0.000000000000000e+00
0.000000000000000e+00 0.000000000000000e+00 0.000000000000000e+00
0.000000000000000e+00 0.000000000000000e+00 0.000000000000000e+00

0.000000000000000e+00 0.000000000000000e+00 0.000000000000000e+00
0.000000000000000e+00 0.000000000000000e+00 0.000000000000000e+00
0.000000000000000e+00 0.000000000000000e+00 0.000000000000000e+00

0.000000000000000e+00 0.000000000000000e+00 0.000000000000000e+00
0.000000000000000e+00 0.000000000000000e+00 0.000000000000000e+00
0.000000000000000e+00 0.000000000000000e+00 0.000000000000000e+00

0.000000000000000e+00 0.000000000000000e+00 0.000000000000000e+00
0.000000000000000e+00 0.000000000000000e+00 0.000000000000000e+00
0.000000000000000e+00 0.000000000000000e+00 0.000000000000000e+00

0.000000000000000e+00 0.000000000000000e+00 0.000000000000000e+00
0.000000000000000e+00 0.000000000000000e+00 0.000000000000000e+00
0.000000000000000e+00 0.000000000000000e+00 0.000000000000000e+00

0.000000000000000e+00 0.000000000000000e+00 0.000000000000000e+00
0.000000000000000e+00 0.000000000000000e+00 0.000000000000000e+00
0.000000000000000e+00 0.000000000000000e+00 0.000000000000000e+00

0.000000000000000e+00 0.000000000000000e+00 0.000000000000000e+00
0.000000000000000e+00 0.000000000000000e+00 0.000000000000000e+00
0.000000000000000e+00 0.000000000000000e+00 0.000000000000000e+00

0.000000000000000e+00 0.000000000000000e+00 0.000000000000000e+00
0.000000000000000e+00 0.000000000000000e+00 0.000000000000000e+00
0.000000000000000e+00 0.000000000000000e+00 0.000000000000000e+00

0.000000000000000e+00 0.000000000000000e+00 0.000000000000000e+00
0.000000000000000e+00 0.000000000000000e+00 0.000000000000000e+00
0.000000000000000e+00 0.000000000000000e+00 0.000000000000000e+00

0.000000000000000e+00 0.000000000000000e+00 0.000000000000000e+00
0.000000000000000e+00 0.000000000000000e+00 0.000000000000000e+00
0.000000000000000e+00 0.000000000000000e+00 0.000000000000000e+00

0.000000000000000e+00 0.000000000000000e+00 0.000000000000000e+00
0.000000000000000e+00 0.000000000000000e+00 0.000000000000000e+00
0.000000000000000e+00 0.000000000000000e+00 0.000000000000000e+00

0.000000000000000e+00 0.000000000000000e+00 0.000000000000000e+00
0.000000000000000e+00 0.000000000000000e+00 0.000000000000000e+00
0.000000000000000e+00 0.000000000000000e+00 0.000000000000000e+00

0.000000000000000e+00 0.000000000000000e+00 0.000000000000000e+00
0.000000000000000e+00 0.000000000000000e+00 0.000000000000000e+00
0.000000000000000e+00 0.000000000000000e+00 0.000000000000000e+00

0.000000000000000e+00 0.000000000000000e+00 0.000000000000000e+00
0.000000000000000e+00 0.000000000000000e+00 0.000000000000000e+00
0.000000000000000e+00 0.000000000000000e+00 0.000000000000000e+00

0.000000000000000e+00 0.000000000000000e+00 0.000000000000000e+00
0.000000000000000e+00 0.000000000000000e+00 0.000000000000000e+00
0.000000000000000e+00 0.000000000000000e+00 0.000000000000000e+00

0.000000000000000e+00 0.000000000000000e+00 0.000000000000000e+00
0.000000000000000e+00 0.000000000000000e+00 0.000000000000000e+00
0.000000000000000e+00 0.000000000000000e+00 0.000000000000000e+00

0.000000000000000e+00 0.000000000000000e+00 0.000000000000000e+00
0.000000000000000e+00 0.000000000000000e+00 0.000000000000000e+00
0.000000000000000e+00 0.000000000000000e+00 0.000000000000000e+00

0.000000000000000e+00 0.000000000000000e+00 0.000000000000000e+00
0.000000000000000e+00 0.000000000000000e+00 0.000000000000000e+00
0.000000000000000e+00 0.000000000000000e+00 0.000000000000000e+00

0.000000000000000e+00 0.000000000000000e+00 0.000000000000000e+00
0.000000000000000e+00 0.000000000000000e+00 0.000000000000000e+00
0.000000000000000e+00 0.000000000000000e+00 0.000000000000000e+00

0.000000000000000e+00 0.000000000000000e+00 0.000000000000000e+00
0.000000000000000e+00 0.000000000000000e+00 0.000000000000000e+00
0.000000000000000e+00 0.000000000000000e+00 0.000000000000000e+00

0.000000000000000e+00 0.000000000000000e+00 0.000000000000000e+00
0.000000000000000e+00 0.000000000000000e+00 0.000000000000000e+00
0.000000000000000e+00 0.000000000000000e+00 0.000000000000000e+00

0.000000000000000e+00 0.000000000000000e+00 0.000000000000000e+00
0.000000000000000e+00 0.000000000000000e+00 0.000000000000000e+00
0.000000000000000e+00 0.000000000000000e+00 0.000000000000000e+00

0.000000000000000e+00 0.000000000000000e+00 0.000000000000000e+00
0.000000000000000e+00 0.000000000000000e+00 0.000000000000000e+00
0.000000000000000e+00 0.000000000000000e+00 0.000000000000000e+00

0.000000000000000e+00 0.000000000000000e+00 0.000000000000000e+00
0.000000000000000e+00 0.000000000000000e+00 0.000000000000000e+00
0.000000000000000e+00 0.000000000000000e+00 0.000000000000000e+00

0.000000000000000e+00 0.000000000000000e+00 0.000000000000000e+00
0.000000000000000e+00 0.000000000000000e+00 0.000000000000000e+00
0.000000000000000e+00 0.000000000000000e+00 0.000000000000000e+00

0.000000000000000e+00 0.000000000000000e+00 0.000000000000000e+00
0.000000000000000e+00 0.000000000000000e+00 0.000000000000000e+00
0.000000000000000e+00 0.000000000000000e+00 0.000000000000000e+00

0.000000000000000e+00 0.000000000000000e+00 0.000000000000000e+00
0.000000000000000e+00 0.000000000000000e+00 0.000000000000000e+00
0.000000000000000e+00 0.000000000000000e+00 0.000000000000000e+00

0.000000000000000e+00 0.000000000000000e+00 0.000000000000000e+00
0.000000000000000e+00 0.000000000000000e+00 0.000000000000000e+00
0.000000000000000e+00 0.000000000000000e+00 0.000000000000000e+00

0.000000000000000e+00 0.000000000000000e+00 0.000000000000000e+00
0.000000000000000e+00 0.000000000000000e+00 0.000000000000000e+00
0.000000000000000e+00 0.000000000000000e+00 0.000000000000000e+00

0.000000000000000e+00 0.000000000000000e+00 0.000000000000000e+00
0.000000000000000e+00 0.000000000000000e+00 0.000000000000000e+00
0.000000000000000e+00 0.000000000000000e+00 0.000000000000000e+00

0.000000000000000e+00 0.000000000000000e+00 0.000000000000000e+00
0.000000000000000e+00 0.000000000000000e+00 0.000000000000000e+00
0.000000000000000e+00 0.000000000000000e+00 0.000000000000000e+00

0.000000000000000e+00 0.000000000000000e+00 0.000000000000000e+00
0.000000000000000e+00 0.000000000000000e+00 0.000000000000000e+00
0.000000000000000e+00 0.000000000000000e+00 0.000000000000000e+00

0.000000000000000e+00 0.000000000000000e+00 0.000000000000000e+00
0.000000000000000e+00 0.000000000000000e+00 0.000000000000000e+00
0.000000000000000e+00 0.000000000000000e+00 0.000000000000000e+00

0.000000000000000e+00 0.000000000000000e+00 0.000000000000000e+00
0.000000000000000e+00 0.000000000000000e+00 0.000000000000000e+00
0.000000000000000e+00 0.000000000000000e+00 0.000000000000000e+00

0.000000000000000e+00 0.000000000000000e+00 0.000000000000000e+00
0.000000000000000e+00 0.000000000000000e+00 0.000000000000000e+00
0.000000000000000e+00 0.000000000000000e+00 0.000000000000000e+00

0.000000000000000e+00 0.000000000000000e+00 0.000000000000000e+00
0.000000000000000e+00 0.000000000000000e+00 0.000000000000000e+00
0.000000000000000e+00 0.000000000000000e+00 0.000000000000000e+00

0.000000000000000e+00 0.000000000000000e+00 0.000000000000000e+00
0.000000000000000e+00 0.000000000000000e+00 0.000000000000000e+00
0.000000000000000e+00 0.000000000000000e+00 0.000000000000000e+00

0.000000000000000e+00 0.000000000000000e+00 0.000000000000000e+00
0.000000000000000e+00 0.000000000000000e+00 0.000000000000000e+00
0.000000000000000e+00 0.000000000000000e+00 0.000000000000000e+00

0.000000000000000e+00 0.000000000000000e+00 0.000000000000000e+00
0.000000000000000e+00 0.000000000000000e+00 0.000000000000000e+00
0.000000000000000e+00 0.000000000000000e+00 0.000000000000000e+00

0.000000000000000e+00 0.000000000000000e+00 0.000000000000000e+00
0.000000000000000e+00 0.000000000000000e+00 0.000000000000000e+00
0.000000000000000e+00 0.000000000000000e+00 0.000000000000000e+00

0.000000000000000e+00 0.000000000000000e+00 0.000000000000000e+00
0.000000000000000e+00 0.000000000000000e+00 0.000000000000000e+00
0.000000000000000e+00 0.000000000000000e+00 0.000000000000000e+00

0.000000000000000e+00 0.000000000000000e+00 0.000000000000000e+00
0.000000000000000e+00 0.000000000000000e+00 0.000000000000000e+00
0.000000000000000e+00 0.000000000000000e+00 0.000000000000000e+00

0.000000000000000e+00 0.000000000000000e+00 0.000000000000000e+00
0.000000000000000e+00 0.000000000000000e+00 0.000000000000000e+00
0.000000000000000e+00 0.000000000000000e+00 0.000000000000000e+00

0.000000000000000e+00 0.000000000000000e+00 0.000000000000000e+00
0.000000000000000e+00 0.000000000000000e+00 0.000000000000000e+00
0.000000000000000e+00 0.000000000000000e+00 0.000000000000000e+00

0.000000000000000e+00 0.000000000000000e+00 0.000000000000000e+00
0.000000000000000e+00 0.000000000000000e+00 0.000000000000000e+00
0.000000000000000e+00 0.000000000000000e+00 0.000000000000000e+00

0.000000000000000e+00 0.000000000000000e+00 0.000000000000000e+00
0.000000000000000e+00 0.000000000000000e+00 0.000000000000000e+00
0.000000000000000e+00 0.000000000000000e+00 0.000000000000000e+00

0.000000000000000e+00 0.000000000000000e+00 0.000000000000000e+00
0.000000000000000e+00 0.000000000000000e+00 0.000000000000000e+00
0.000000000000000e+00 0.000000000000000e+00 0.000000000000000e+00

0.000000000000000e+00 0.000000000000000e+00 0.000000000000000e+00
0.000000000000000e+00 0.000000000000000e+00 0.000000000000000e+00
0.000000000000000e+00 0.000000000000000e+00 0.000000000000000e+00

0.000000000000000e+00 0.000000000000000e+00 0.000000000000000e+00
0.000000000000000e+00 0.000000000000000e+00 0.000000000000000e+00
0.000000000000000e+00 0.000000000000000e+00 0.000000000000000e+00

0.000000000000000e+00 0.000000000000000e+00 0.000000000000000e+00
0.000000000000000e+00 0.000000000000000e+00 0.000000000000000e+00
0.000000000000000e+00 0.000000000000000e+00 0.000000000000000e+00

0.000000000000000e+00 0.000000000000000e+00 0.000000000000000e+00
0.000000000000000e+00 0.000000000000000e+00 0.000000000000000e+00
0.000000000000000e+00 0.000000000000000e+00 0.000000000000000e+00

0.000000000000000e+00 0.000000000000000e+00 0.000000000000000e+00
0.000000000000000e+00 0.000000000000000e+00 0.000000000000000e+00
0.000000000000000e+00 0.000000000000000e+00 0.000000000000000e+00

0.000000000000000e+00 0.000000000000000e+00 0.000000000000000e+00
0.000000000000000e+00 0.000000000000000e+00 0.000000000000000e+00
0.000000000000000e+00 0.000000000000000e+00 0.000000000000000e+00

0.000000000000000e+00 0.000000000000000e+00 0.000000000000000e+00
0.000000000000000e+00 0.000000000000000e+00 0.000000000000000e+00
0.000000000000000e+00 0.000000000000000e+00 0.000000000000000e+00

0.000000000000000e+00 0.000000000000000e+00 0.000000000000000e+00
0.000000000000000e+00 0.000000000000000e+00 0.000000000000000e+00
0.000000000000000e+00 0.000000000000000e+00 0.000000000000000e+00

0.000000000000000e+00 0.000000000000000e+00 0.000000000000000e+00
0.000000000000000e+00 0.000000000000000e+00 0.000000000000000e+00
0.000000000000000e+00 0.000000000000000e+00 0.000000000000000e+00

0.000000000000000e+00 0.000000000000000e+00 0.000000000000000e+00
0.000000000000000e+00 0.000000000000000e+00 0.000000000000000e+00
0.000000000000000e+00 0.000000000000000e+00 0.000000000000000e+00

0.000000000000000e+00 0.000000000000000e+00 0.000000000000000e+00
0.000000000000000e+00 0.000000000000000e+00 0.000000000000000e+00
0.000000000000000e+00 0.000000000000000e+00 0.000000000000000e+00

0.000000000000000e+00 0.000000000000000e+00 0.000000000000000e+00
0.000000000000000e+00 0.000000000000000e+00 0.000000000000000e+00
0.000000000000000e+00 0.000000000000000e+00 0.000000000000000e+00

0.000000000000000e+00 0.000000000000000e+00 0.000000000000000e+00
0.000000000000000e+00 0.000000000000000e+00 0.000000000000000e+00
0.000000000000000e+00 0.000000000000000e+00 0.000000000000000e+00

0.000000000000000e+00 0.000000000000000e+00 0.000000000000000e+00
0.000000000000000e+00 0.000000000000000e+00 0.000000000000000e+00
0.000000000000000e+00 0.000000000000000e+00 0.000000000000000e+00

0.000000000000000e+00 0.000000000000000e+00 0.000000000000000e+00
0.000000000000000e+00 0.000000000000000e+00 0.000000000000000e+00
0.000000000000000e+00 0.000000000000000e+00 0.000000000000000e+00

0.000000000000000e+00 0.000000000000000e+00 0.000000000000000e+00
0.000000000000000e+00 0.000000000000000e+00 0.000000000000000e+00
0.000000000000000e+00 0.000000000000000e+00 0.000000000000000e+00

0.000000000000000e+00 0.000000000000000e+00 0.000000000000000e+00
0.000000000000000e+00 0.000000000000000e+00 0.000000000000000e+00
0.000000000000000e+00 0.000000000000000e+00 0.000000000000000e+00

0.000000000000000e+00 0.000000000000000e+00 0.000000000000000e+00
0.000000000000000e+00 0.000000000000000e+00 0.000000000000000e+00
0.000000000000000e+00 0.000000000000000e+00 0.000000000000000e+00

0.000000000000000e+00 0.000000000000000e+00 0.000000000000000e+00
0.000000000000000e+00 0.000000000000000e+00 0.000000000000000e+00
0.000000000000000e+00 0.000000000000000e+00 0.000000000000000e+00

0.000000000000000e+00 0.000000000000000e+00 0.000000000000000e+00
0.000000000000000e+00 0.000000000000000e+00 0.000000000000000e+00
0.000000000000000e+00 0.000000000000000e+00 0.000000000000000e+00

0.000000000000000e+00 0.000000000000000e+00 0.000000000000000e+00
0.000000000000000e+00 0.000000000000000e+00 0.000000000000000e+00
0.000000000000000e+00 0.000000000000000e+00 0.000000000000000e+00

0.000000000000000e+00 0.000000000000000e+00 0.000000000000000e+00
0.000000000000000e+00 0.000000000000000e+00 0.000000000000000e+00
0.000000000000000e+00 0.000000000000000e+00 0.000000000000000e+00

0.000000000000000e+00 0.000000000000000e+00 0.000000000000000e+00
0.000000000000000e+00 0.000000000000000e+00 0.000000000000000e+00
0.000000000000000e+00 0.000000000000000e+00 0.000000000000000e+00

0.000000000000000e+00 0.000000000000000e+00 0.000000000000000e+00
0.000000000000000e+00 0.000000000000000e+00 0.000000000000000e+00
0.000000000000000e+00 0.000000000000000e+00 0.000000000000000e+00

0.000000000000000e+00 0.000000000000000e+00 0.000000000000000e+00
0.000000000000000e+00 0.000000000000000e+00 0.000000000000000e+00
0.000000000000000e+00 0.000000000000000e+00 0.000000000000000e+00

0.000000000000000e+00 0.000000000000000e+00 0.000000000000000e+00
0.000000000000000e+00 0.000000000000000e+00 0.000000000000000e+00
0.000000000000000e+00 0.000000000000000e+00 0.000000000000000e+00

0.000000000000000e+00 0.000000000000000e+00 0.000000000000000e+00
0.000000000000000e+00 0.000000000000000e+00 0.000000000000000e+00
0.000000000000000e+00 0.000000000000000e+00 0.000000000000000e+00

0.000000000000000e+00 0.000000000000000e+00 0.000000000000000e+00
0.000000000000000e+00 0.000000000000000e+00 0.000000000000000e+00
0.000000000000000e+00 0.000000000000000e+00 0.000000000000000e+00

0.000000000000000e+00 0.000000000000000e+00 0.000000000000000e+00
0.000000000000000e+00 0.000000000000000e+00 0.000000000000000e+00
0.000000000000000e+00 0.000000000000000e+00 0.000000000000000e+00

0.000000000000000e+00 0.000000000000000e+00 0.000000000000000e+00
0.000000000000000e+00 0.000000000000000e+00 0.000000000000000e+00
0.000000000000000e+00 0.000000000000000e+00 0.000000000000000e+00

0.000000000000000e+00 0.000000000000000e+00 0.000000000000000e+00
0.000000000000000e+00 0.000000000000000e+00 0.000000000000000e+00
0.000000000000000e+00 0.000000000000000e+00 0.000000000000000e+00

0.000000000000000e+00 0.000000000000000e+00 0.000000000000000e+00
0.000000000000000e+00 0.000000000000000e+00 0.000000000000000e+00
0.000000000000000e+00 0.000000000000000e+00 0.000000000000000e+00

0.000000000000000e+00 0.000000000000000e+00 0.000000000000000e+00
0.000000000000000e+00 0.000000000000000e+00 0.000000000000000e+00
0.000000000000000e+00 0.000000000000000e+00 0.000000000000000e+00

0.000000000000000e+00 0.000000000000000e+00 0.000000000000000e+00
0.000000000000000e+00 0.000000000000000e+00 0.000000000000000e+00
0.000000000000000e+00 0.000000000000000e+00 0.000000000000000e+00

0.000000000000000e+00 0.000000000000000e+00 0.000000000000000e+00
0.000000000000000e+00 0.000000000000000e+00 0.000000000000000e+00
0.000000000000000e+00 0.000000000000000e+00 0.000000000000000e+00

0.000000000000000e+00 0.000000000000000e+00 0.000000000000000e+00
0.000000000000000e+00 0.000000000000000e+00 0.000000000000000e+00
0.000000000000000e+00 0.000000000000000e+00 0.000000000000000e+00

0.000000000000000e+00 0.000000000000000e+00 0.000000000000000e+00
0.000000000000000e+00 0.000000000000000e+00 0.000000000000000e+00
0.000000000000000e+00 0.000000000000000e+00 0.000000000000000e+00

0.000000000000000e+00 0.000000000000000e+00 0.000000000000000e+00
0.000000000000000e+00 0.000000000000000e+00 0.000000000000000e+00
0.000000000000000e+00 0.000000000000000e+00 0.000000000000000e+00

0.000000000000000e+00 0.000000000000000e+00 0.000000000000000e+00
0.000000000000000e+00 0.000000000000000e+00 0.000000000000000e+00
0.000000000000000e+00 0.000000000000000e+00 0.000000000000000e+00

0.000000000000000e+00 0.000000000000000e+00 0.000000000000000e+00
0.000000000000000e+00 0.000000000000000e+00 0.000000000000000e+00
0.000000000000000e+00 0.000000000000000e+00 0.000000000000000e+00

0.000000000000000e+00 0.000000000000000e+00 0.000000000000000e+00
0.000000000000000e+00 0.000000000000000e+00 0.000000000000000e+00
0.000000000000000e+00 0.000000000000000e+00 0.000000000000000e+00

0.000000000000000e+00 0.000000000000000e+00 0.000000000000000e+00
0.000000000000000e+00 0.000000000000000e+00 0.000000000000000e+00
0.000000000000000e+00 0.000000000000000e+00 0.000000000000000e+00

0.000000000000000e+00 0.000000000000000e+00 0.000000000000000e+00
0.000000000000000e+00 0.000000000000000e+00 0.000000000000000e+00
0.000000000000000e+00 0.000000000000000e+00 0.000000000000000e+00

0.000000000000000e+00 0.000000000000000e+00 0.000000000000000e+00
0.000000000000000e+00 0.000000000000000e+00 0.000000000000000e+00
0.000000000000000e+00 0.000000000000000e+00 0.000000000000000e+00

0.000000000000000e+00 0.000000000000000e+00 0.000000000000000e+00
0.000000000000000e+00 0.000000000000000e+00 0.000000000000000e+00
0.000000000000000e+00 0.000000000000000e+00 0.000000000000000e+00

0.000000000000000e+00 0.000000000000000e+00 0.000000000000000e+00
0.000000000000000e+00 0.000000000000000e+00 0.000000000000000e+00
0.000000000000000e+00 0.000000000000000e+00 0.000000000000000e+00

0.000000000000000e+00 0.000000000000000e+00 0.000000000000000e+00
0.000000000000000e+00 0.000000000000000e+00 0.000000000000000e+00
0.000000000000000e+00 0.000000000000000e+00 0.000000000000000e+00

0.000000000000000e+00 0.000000000000000e+00 0.000000000000000e+00
0.000000000000000e+00 0.000000000000000e+00 0.000000000000000e+00
0.000000000000000e+00 0.000000000000000e+00 0.000000000000000e+00

0.000000000000000e+00 0.000000000000000e+00 0.000000000000000e+00
0.000000000000000e+00 0.000000000000000e+00 0.000000000000000e+00
0.000000000000000e+00 0.000000000000000e+00 0.000000000000000e+00

0.000000000000000e+00 0.000000000000000e+00 0.000000000000000e+00
0.000000000000000e+00 0.000000000000000e+00 0.000000000000000e+00
0.000000000000000e+00 0.000000000000000e+00 0.000000000000000e+00

0.000000000000000e+00 0.000000000000000e+00 0.000000000000000e+00
0.000000000000000e+00 0.000000000000000e+00 0.000000000000000e+00
0.000000000000000e+00 0.000000000000000e+00 0.000000000000000e+00

0.000000000000000e+00 0.000000000000000e+00 0.000000000000000e+00
0.000000000000000e+00 0.000000000000000e+00 0.000000000000000e+00
0.000000000000000e+00 0.000000000000000e+00 0.000000000000000e+00

0.000000000000000e+00 0.000000000000000e+00 0.000000000000000e+00
0.000000000000000e+00 0.000000000000000e+00 0.000000000000000e+00
0.000000000000000e+00 0.000000000000000e+00 0.000000000000000e+00

0.000000000000000e+00 0.000000000000000e+00 0.000000000000000e+00
0.000000000000000e+00 0.000000000000000e+00 0.000000000000000e+00
0.000000000000000e+00 0.000000000000000e+00 0.000000000000000e+00

0.000000000000000e+00 0.000000000000000e+00 0.000000000000000e+00
0.000000000000000e+00 0.000000000000000e+00 0.000000000000000e+00
0.000000000000000e+00 0.000000000000000e+00 0.000000000000000e+00

0.000000000000000e+00 0.000000000000000e+00 0.000000000000000e+00
0.000000000000000e+00 0.000000000000000e+00 0.000000000000000e+00
0.000000000000000e+00 0.000000000000000e+00 0.000000000000000e+00

0.000000000000000e+00 0.000000000000000e+00 0.000000000000000e+00
0.000000000000000e+00 0.000000000000000e+00 0.000000000000000e+00
0.000000000000000e+00 0.000000000000000e+00 0.000000000000000e+00

0.000000000000000e+00 0.000000000000000e+00 0.000000000000000e+00
0.000000000000000e+00 0.000000000000000e+00 0.000000000000000e+00
0.000000000000000e+00 0.000000000000000e+00 0.000000000000000e+00

0.000000000000000e+00 0.000000000000000e+00 0.000000000000000e+00
0.000000000000000e+00 0.000000000000000e+00 0.000000000000000e+00
0.000000000000000e+00 0.000000000000000e+00 0.000000000000000e+00

0.000000000000000e+00 0.000000000000000e+00 0.000000000000000e+00
0.000000000000000e+00 0.000000000000000e+00 0.000000000000000e+00
0.000000000000000e+00 0.000000000000000e+00 0.000000000000000e+00

0.000000000000000e+00 0.000000000000000e+00 0.000000000000000e+00
0.000000000000000e+00 0.000000000000000e+00 0.000000000000000e+00
0.000000000000000e+00 0.000000000000000e+00 0.000000000000000e+00

0.000000000000000e+00 0.000000000000000e+00 0.000000000000000e+00
0.000000000000000e+00 0.000000000000000e+00 0.000000000000000e+00
0.000000000000000e+00 0.000000000000000e+00 0.000000000000000e+00

0.000000000000000e+00 0.000000000000000e+00 0.000000000000000e+00
0.000000000000000e+00 0.000000000000000e+00 0.000000000000000e+00
0.000000000000000e+00 0.000000000000000e+00 0.000000000000000e+00

0.000000000000000e+00 0.000000000000000e+00 0.000000000000000e+00
0.000000000000000e+00 0.000000000000000e+00 0.000000000000000e+00
0.000000000000000e+00 0.000000000000000e+00 0.000000000000000e+00

0.000000000000000e+00 0.000000000000000e+00 0.000000000000000e+00
0.000000000000000e+00 0.000000000000000e+00 0.000000000000000e+00
0.000000000000000e+00 0.000000000000000e+00 0.000000000000000e+00

0.000000000000000e+00 0.000000000000000e+00 0.000000000000000e+00
0.000000000000000e+00 0.000000000000000e+00 0.000000000000000e+00
0.000000000000000e+00 0.000000000000000e+00 0.000000000000000e+00

0.000000000000000e+00 0.000000000000000e+00 0.000000000000000e+00
0.000000000000000e+00 0.000000000000000e+00 0.000000000000000e+00
0.000000000000000e+00 0.000000000000000e+00 0.000000000000000e+00

0.000000000000000e+00 0.000000000000000e+00 0.000000000000000e+00
0.000000000000000e+00 0.000000000000000e+00 0.000000000000000e+00
0.000000000000000e+00 0.000000000000000e+00 0.000000000000000e+00

0.000000000000000e+00 0.000000000000000e+00 0.000000000000000e+00
0.000000000000000e+00 0.000000000000000e+00 0.000000000000000e+00
0.000000000000000e+00 0.000000000000000e+00 0.000000000000000e+00

0.000000000000000e+00 0.000000000000000e+00 0.000000000000000e+00
0.000000000000000e+00 0.000000000000000e+00 0.000000000000000e+00
0.000000000000000e+00 0.000000000000000e+00 0.000000000000000e+00

0.000000000000000e+00 0.000000000000000e+00 0.000000000000000e+00
0.000000000000000e+00 0.000000000000000e+00 0.000000000000000e+00
0.000000000000000e+00 0.000000000000000e+00 0.000000000000000e+00

0.000000000000000e+00 0.000000000000000e+00 0.000000000000000e+00
0.000000000000000e+00 0.000000000000000e+00 0.000000000000000e+00
0.000000000000000e+00 0.000000000000000e+00 0.000000000000000e+00

0.000000000000000e+00 0.000000000000000e+00 0.000000000000000e+00
0.000000000000000e+00 0.000000000000000e+00 0.000000000000000e+00
0.000000000000000e+00 0.000000000000000e+00 0.000000000000000e+00

0.000000000000000e+00 0.000000000000000e+00 0.000000000000000e+00
0.000000000000000e+00 0.000000000000000e+00 0.000000000000000e+00
0.000000000000000e+00 0.000000000000000e+00 0.000000000000000e+00

0.000000000000000e+00 0.000000000000000e+00 0.000000000000000e+00
0.000000000000000e+00 0.000000000000000e+00 0.000000000000000e+00
0.000000000000000e+00 0.000000000000000e+00 0.000000000000000e+00

0.000000000000000e+00 0.000000000000000e+00 0.000000000000000e+00
0.000000000000000e+00 0.000000000000000e+00 0.000000000000000e+00
0.000000000000000e+00 0.000000000000000e+00 0.000000000000000e+00

0.000000000000000e+00 0.000000000000000e+00 0.000000000000000e+00
0.000000000000000e+00 0.000000000000000e+00 0.000000000000000e+00
0.000000000000000e+00 0.000000000000000e+00 0.000000000000000e+00

0.000000000000000e+00 0.000000000000000e+00 0.000000000000000e+00
0.000000000000000e+00 0.000000000000000e+00 0.000000000000000e+00
0.000000000000000e+00 0.000000000000000e+00 0.000000000000000e+00

0.000000000000000e+00 0.000000000000000e+00 0.000000000000000e+00
0.000000000000000e+00 0.000000000000000e+00 0.000000000000000e+00
0.000000000000000e+00 0.000000000000000e+00 0.000000000000000e+00

0.000000000000000e+00 0.000000000000000e+00 0.000000000000000e+00
0.000000000000000e+00 0.000000000000000e+00 0.000000000000000e+00
0.000000000000000e+00 0.000000000000000e+00 0.000000000000000e+00

0.000000000000000e+00 0.000000000000000e+00 0.000000000000000e+00
0.000000000000000e+00 0.000000000000000e+00 0.000000000000000e+00
0.000000000000000e+00 0.000000000000000e+00 0.000000000000000e+00

0.000000000000000e+00 0.000000000000000e+00 0.000000000000000e+00
0.000000000000000e+00 0.000000000000000e+00 0.000000000000000e+00
0.000000000000000e+00 0.000000000000000e+00 0.000000000000000e+00

0.000000000000000e+00 0.000000000000000e+00 0.000000000000000e+00
0.000000000000000e+00 0.000000000000000e+00 0.000000000000000e+00
0.000000000000000e+00 0.000000000000000e+00 0.000000000000000e+00

0.000000000000000e+00 0.000000000000000e+00 0.000000000000000e+00
0.000000000000000e+00 0.000000000000000e+00 0.000000000000000e+00
0.000000000000000e+00 0.000000000000000e+00 0.000000000000000e+00

0.000000000000000e+00 0.000000000000000e+00 0.000000000000000e+00
0.000000000000000e+00 0.000000000000000e+00 0.000000000000000e+00
0.000000000000000e+00 0.000000000000000e+00 0.000000000000000e+00

0.000000000000000e+00 0.000000000000000e+00 0.000000000000000e+00
0.000000000000000e+00 0.000000000000000e+00 0.000000000000000e+00
0.000000000000000e+00 0.000000000000000e+00 0.000000000000000e+00

0.000000000000000e+00 0.000000000000000e+00 0.000000000000000e+00
0.000000000000000e+00 0.000000000000000e+00 0.000000000000000e+00
0.000000000000000e+00 0.000000000000000e+00 0.000000000000000e+00

0.000000000000000e+00 0.000000000000000e+00 0.000000000000000e+00
0.000000000000000e+00 0.000000000000000e+00 0.000000000000000e+00
0.000000000000000e+00 0.000000000000000e+00 0.000000000000000e+00

0.000000000000000e+00 0.000000000000000e+00 0.000000000000000e+00
0.000000000000000e+00 0.000000000000000e+00 0.000000000000000e+00
0.000000000000000e+00 0.000000000000000e+00 0.000000000000000e+00

0.000000000000000e+00 0.000000000000000e+00 0.000000000000000e+00
0.000000000000000e+00 0.000000000000000e+00 0.000000000000000e+00
0.000000000000000e+00 0.000000000000000e+00 0.000000000000000e+00

0.000000000000000e+00 0.000000000000000e+00 0.000000000000000e+00
0.000000000000000e+00 0.000000000000000e+00 0.000000000000000e+00
0.000000000000000e+00 0.000000000000000e+00 0.000000000000000e+00

0.000000000000000e+00 0.000000000000000e+00 0.000000000000000e+00
0.000000000000000e+00 0.000000000000000e+00 0.000000000000000e+00
0.000000000000000e+00 0.000000000000000e+00 0.000000000000000e+00

0.000000000000000e+00 0.000000000000000e+00 0.000000000000000e+00
0.000000000000000e+00 0.000000000000000e+00 0.000000000000000e+00
0.000000000000000e+00 0.000000000000000e+00 0.000000000000000e+00

0.000000000000000e+00 0.000000000000000e+00 0.000000000000000e+00
0.000000000000000e+00 0.000000000000000e+00 0.000000000000000e+00
0.000000000000000e+00 0.000000000000000e+00 0.000000000000000e+00

0.000000000000000e+00 0.000000000000000e+00 0.000000000000000e+00
0.000000000000000e+00 0.000000000000000e+00 0.000000000000000e+00
0.000000000000000e+00 0.000000000000000e+00 0.000000000000000e+00

0.000000000000000e+00 0.000000000000000e+00 0.000000000000000e+00
0.000000000000000e+00 0.000000000000000e+00 0.000000000000000e+00
0.000000000000000e+00 0.000000000000000e+00 0.000000000000000e+00

0.000000000000000e+00 0.000000000000000e+00 0.000000000000000e+00
0.000000000000000e+00 0.000000000000000e+00 0.000000000000000e+00
0.000000000000000e+00 0.000000000000000e+00 0.000000000000000e+00

0.000000000000000e+00 0.000000000000000e+00 0.000000000000000e+00
0.000000000000000e+00 0.000000000000000e+00 0.000000000000000e+00
0.000000000000000e+00 0.000000000000000e+00 0.000000000000000e+00

0.000000000000000e+00 0.000000000000000e+00 0.000000000000000e+00
0.000000000000000e+00 0.000000000000000e+00 0.000000000000000e+00
0.000000000000000e+00 0.000000000000000e+00 0.000000000000000e+00

0.000000000000000e+00 0.000000000000000e+00 0.000000000000000e+00
0.000000000000000e+00 0.000000000000000e+00 0.000000000000000e+00
0.000000000000000e+00 0.000000000000000e+00 0.000000000000000e+00

0.000000000000000e+00 0.000000000000000e+00 0.000000000000000e+00
0.000000000000000e+00 0.000000000000000e+00 0.000000000000000e+00
0.000000000000000e+00 0.000000000000000e+00 0.000000000000000e+00

0.000000000000000e+00 0.000000000000000e+00 0.000000000000000e+00
0.000000000000000e+00 0.000000000000000e+00 0.000000000000000e+00
0.000000000000000e+00 0.000000000000000e+00 0.000000000000000e+00

0.000000000000000e+00 0.000000000000000e+00 0.000000000000000e+00
0.000000000000000e+00 0.000000000000000e+00 0.000000000000000e+00
0.000000000000000e+00 0.000000000000000e+00 0.000000000000000e+00

0.000000000000000e+00 0.000000000000000e+00 0.000000000000000e+00
0.000000000000000e+00 0.000000000000000e+00 0.000000000000000e+00
0.000000000000000e+00 0.000000000000000e+00 0.000000000000000e+00

0.000000000000000e+00 0.000000000000000e+00 0.000000000000000e+00
0.000000000000000e+00 0.000000000000000e+00 0.000000000000000e+00
0.000000000000000e+00 0.000000000000000e+00 0.000000000000000e+00

0.000000000000000e+00 0.000000000000000e+00 0.000000000000000e+00
0.000000000000000e+00 0.000000000000000e+00 0.000000000000000e+00
0.000000000000000e+00 0.000000000000000e+00 0.000000000000000e+00

0.000000000000000e+00 0.000000000000000e+00 0.000000000000000e+00
0.000000000000000e+00 0.000000000000000e+00 0.000000000000000e+00
0.000000000000000e+00 0.000000000000000e+00 0.000000000000000e+00

0.000000000000000e+00 0.000000000000000e+00 0.000000000000000e+00
0.000000000000000e+00 0.000000000000000e+00 0.000000000000000e+00
0.000000000000000e+00 0.000000000000000e+00 0.000000000000000e+00

0.000000000000000e+00 0.000000000000000e+00 0.000000000000000e+00
0.000000000000000e+00 0.000000000000000e+00 0.000000000000000e+00
0.000000000000000e+00 0.000000000000000e+00 0.000000000000000e+00

0.000000000000000e+00 0.000000000000000e+00 0.000000000000000e+00
0.000000000000000e+00 0.000000000000000e+00 0.000000000000000e+00
0.000000000000000e+00 0.000000000000000e+00 0.000000000000000e+00

0.000000000000000e+00 0.000000000000000e+00 0.000000000000000e+00
0.000000000000000e+00 0.000000000000000e+00 0.000000000000000e+00
0.000000000000000e+00 0.000000000000000e+00 0.000000000000000e+00

0.000000000000000e+00 0.000000000000000e+00 0.000000000000000e+00
0.000000000000000e+00 0.000000000000000e+00 0.000000000000000e+00
0.000000000000000e+00 0.000000000000000e+00 0.000000000000000e+00

0.000000000000000e+00 0.000000000000000e+00 0.000000000000000e+00
0.000000000000000e+00 0.000000000000000e+00 0.000000000000000e+00
0.000000000000000e+00 0.000000000000000e+00 0.000000000000000e+00

0.000000000000000e+00 0.000000000000000e+00 0.000000000000000e+00
0.000000000000000e+00 0.000000000000000e+00 0.000000000000000e+00
0.000000000000000e+00 0.000000000000000e+00 0.000000000000000e+00

0.000000000000000e+00 0.000000000000000e+00 0.000000000000000e+00
0.000000000000000e+00 0.000000000000000e+00 0.000000000000000e+00
0.000000000000000e+00 0.000000000000000e+00 0.000000000000000e+00

0.000000000000000e+00 0.000000000000000e+00 0.000000000000000e+00
0.000000000000000e+00 0.000000000000000e+00 0.000000000000000e+00
0.000000000000000e+00 0.000000000000000e+00 0.000000000000000e+00

0.000000000000000e+00 0.000000000000000e+00 0.000000000000000e+00
0.000000000000000e+00 0.000000000000000e+00 0.000000000000000e+00
0.000000000000000e+00 0.000000000000000e+00 0.000000000000000e+00

0.000000000000000e+00 0.000000000000000e+00 0.000000000000000e+00
0.000000000000000e+00 0.000000000000000e+00 0.000000000000000e+00
0.000000000000000e+00 0.000000000000000e+00 0.000000000000000e+00

0.000000000000000e+00 0.000000000000000e+00 0.000000000000000e+00
0.000000000000000e+00 0.000000000000000e+00 0.000000000000000e+00
0.000000000000000e+00 0.000000000000000e+00 0.000000000000000e+00

0.000000000000000e+00 0.000000000000000e+00 0.000000000000000e+00
0.000000000000000e+00 0.000000000000000e+00 0.000000000000000e+00
0.000000000000000e+00 0.000000000000000e+00 0.000000000000000e+00

0.000000000000000e+00 0.000000000000000e+00 0.000000000000000e+00
0.000000000000000e+00 0.000000000000000e+00 0.000000000000000e+00
0.000000000000000e+00 0.000000000000000e+00 0.000000000000000e+00

0.000000000000000e+00 0.000000000000000e+00 0.000000000000000e+00
0.000000000000000e+00 0.000000000000000e+00 0.000000000000000e+00
0.000000000000000e+00 0.000000000000000e+00 0.000000000000000e+00

0.000000000000000e+00 0.000000000000000e+00 0.000000000000000e+00
0.000000000000000e+00 0.000000000000000e+00 0.000000000000000e+00
0.000000000000000e+00 0.000000000000000e+00 0.000000000000000e+00

0.000000000000000e+00 0.000000000000000e+00 0.000000000000000e+00
0.000000000000000e+00 0.000000000000000e+00 0.000000000000000e+00
0.000000000000000e+00 0.000000000000000e+00 0.000000000000000e+00

0.000000000000000e+00 0.000000000000000e+00 0.000000000000000e+00
0.000000000000000e+00 0.000000000000000e+00 0.000000000000000e+00
0.000000000000000e+00 0.000000000000000e+00 0.000000000000000e+00

0.000000000000000e+00 0.000000000000000e+00 0.000000000000000e+00
0.000000000000000e+00 0.000000000000000e+00 0.000000000000000e+00
0.000000000000000e+00 0.000000000000000e+00 0.000000000000000e+00

0.000000000000000e+00 0.000000000000000e+00 0.000000000000000e+00
0.000000000000000e+00 0.000000000000000e+00 0.000000000000000e+00
0.000000000000000e+00 0.000000000000000e+00 0.000000000000000e+00

0.000000000000000e+00 0.000000000000000e+00 0.000000000000000e+00
0.000000000000000e+00 0.000000000000000e+00 0.000000000000000e+00
0.000000000000000e+00 0.000000000000000e+00 0.000000000000000e+00

0.000000000000000e+00 0.000000000000000e+00 0.000000000000000e+00
0.000000000000000e+00 0.000000000000000e+00 0.000000000000000e+00
0.000000000000000e+00 0.000000000000000e+00 0.000000000000000e+00

0.000000000000000e+00 0.000000000000000e+00 0.000000000000000e+00
0.000000000000000e+00 0.000000000000000e+00 0.000000000000000e+00
0.000000000000000e+00 0.000000000000000e+00 0.000000000000000e+00

0.000000000000000e+00 0.000000000000000e+00 0.000000000000000e+00
0.000000000000000e+00 0.000000000000000e+00 0.000000000000000e+00
0.000000000000000e+00 0.000000000000000e+00 0.000000000000000e+00

0.000000000000000e+00 0.000000000000000e+00 0.000000000000000e+00
0.000000000000000e+00 0.000000000000000e+00 0.000000000000000e+00
0.000000000000000e+00 0.000000000000000e+00 0.000000000000000e+00

0.000000000000000e+00 0.000000000000000e+00 0.000000000000000e+00
0.000000000000000e+00 0.000000000000000e+00 0.000000000000000e+00
0.000000000000000e+00 0.000000000000000e+00 0.000000000000000e+00

0.000000000000000e+00 0.000000000000000e+00 0.000000000000000e+00
0.000000000000000e+00 0.000000000000000e+00 0.000000000000000e+00
0.000000000000000e+00 0.000000000000000e+00 0.000000000000000e+00

0.000000000000000e+00 0.000000000000000e+00 0.000000000000000e+00
0.000000000000000e+00 0.000000000000000e+00 0.000000000000000e+00
0.000000000000000e+00 0.000000000000000e+00 0.000000000000000e+00

0.000000000000000e+00 0.000000000000000e+00 0.000000000000000e+00
0.000000000000000e+00 0.000000000000000e+00 0.000000000000000e+00
0.000000000000000e+00 0.000000000000000e+00 0.000000000000000e+00

0.000000000000000e+00 0.000000000000000e+00 0.000000000000000e+00
0.000000000000000e+00 0.000000000000000e+00 0.000000000000000e+00
0.000000000000000e+00 0.000000000000000e+00 0.000000000000000e+00

0.000000000000000e+00 0.000000000000000e+00 0.000000000000000e+00
0.000000000000000e+00 0.000000000000000e+00 0.000000000000000e+00
0.000000000000000e+00 0.000000000000000e+00 0.000000000000000e+00

0.000000000000000e+00 0.000000000000000e+00 0.000000000000000e+00
0.000000000000000e+00 0.000000000000000e+00 0.000000000000000e+00
0.000000000000000e+00 0.000000000000000e+00 0.000000000000000e+00

0.000000000000000e+00 0.000000000000000e+00 0.000000000000000e+00
0.000000000000000e+00 0.000000000000000e+00 0.000000000000000e+00
0.000000000000000e+00 0.000000000000000e+00 0.000000000000000e+00

0.000000000000000e+00 0.000000000000000e+00 0.000000000000000e+00
0.000000000000000e+00 0.000000000000000e+00 0.000000000000000e+00
0.000000000000000e+00 0.000000000000000e+00 0.000000000000000e+00

0.000000000000000e+00 0.000000000000000e+00 0.000000000000000e+00
0.000000000000000e+00 0.000000000000000e+00 0.000000000000000e+00
0.000000000000000e+00 0.000000000000000e+00 0.000000000000000e+00

0.000000000000000e+00 0.000000000000000e+00 0.000000000000000e+00
0.000000000000000e+00 0.000000000000000e+00 0.000000000000000e+00
0.000000000000000e+00 0.000000000000000e+00 0.000000000000000e+00

0.000000000000000e+00 0.000000000000000e+00 0.000000000000000e+00
0.000000000000000e+00 0.000000000000000e+00 0.000000000000000e+00
0.000000000000000e+00 0.000000000000000e+00 0.000000000000000e+00

0.000000000000000e+00 0.000000000000000e+00 0.000000000000000e+00
0.000000000000000e+00 0.000000000000000e+00 0.000000000000000e+00
0.000000000000000e+00 0.000000000000000e+00 0.000000000000000e+00

0.000000000000000e+00 0.000000000000000e+00 0.000000000000000e+00
0.000000000000000e+00 0.000000000000000e+00 0.000000000000000e+00
0.000000000000000e+00 0.000000000000000e+00 0.000000000000000e+00

0.000000000000000e+00 0.000000000000000e+00 0.000000000000000e+00
0.000000000000000e+00 0.000000000000000e+00 0.000000000000000e+00
0.000000000000000e+00 0.000000000000000e+00 0.000000000000000e+00

0.000000000000000e+00 0.000000000000000e+00 0.000000000000000e+00
0.000000000000000e+00 0.000000000000000e+00 0.000000000000000e+00
0.000000000000000e+00 0.000000000000000e+00 0.000000000000000e+00

0.000000000000000e+00 0.000000000000000e+00 0.000000000000000e+00
0.000000000000000e+00 0.000000000000000e+00 0.000000000000000e+00
0.000000000000000e+00 0.000000000000000e+00 0.000000000000000e+00

0.000000000000000e+00 0.000000000000000e+00 0.000000000000000e+00
0.000000000000000e+00 0.000000000000000e+00 0.000000000000000e+00
0.000000000000000e+00 0.000000000000000e+00 0.000000000000000e+00

0.000000000000000e+00 0.000000000000000e+00 0.000000000000000e+00
0.000000000000000e+00 0.000000000000000e+00 0.000000000000000e+00
0.000000000000000e+00 0.000000000000000e+00 0.000000000000000e+00

0.000000000000000e+00 0.000000000000000e+00 0.000000000000000e+00
0.000000000000000e+00 0.000000000000000e+00 0.000000000000000e+00
0.000000000000000e+00 0.000000000000000e+00 0.000000000000000e+00

0.000000000000000e+00 0.000000000000000e+00 0.000000000000000e+00
0.000000000000000e+00 0.000000000000000e+00 0.000000000000000e+00
0.000000000000000e+00 0.000000000000000e+00 0.000000000000000e+00

0.000000000000000e+00 0.000000000000000e+00 0.000000000000000e+00
0.000000000000000e+00 0.000000000000000e+00 0.000000000000000e+00
0.000000000000000e+00 0.000000000000000e+00 0.000000000000000e+00

0.000000000000000e+00 0.000000000000000e+00 0.000000000000000e+00
0.000000000000000e+00 0.000000000000000e+00 0.000000000000000e+00
0.000000000000000e+00 0.000000000000000e+00 0.000000000000000e+00

0.000000000000000e+00 0.000000000000000e+00 0.000000000000000e+00
0.000000000000000e+00 0.000000000000000e+00 0.000000000000000e+00
0.000000000000000e+00 0.000000000000000e+00 0.000000000000000e+00

0.000000000000000e+00 0.000000000000000e+00 0.000000000000000e+00
0.000000000000000e+00 0.000000000000000e+00 0.000000000000000e+00
0.000000000000000e+00 0.000000000000000e+00 0.000000000000000e+00

0.000000000000000e+00 0.000000000000000e+00 0.000000000000000e+00
0.000000000000000e+00 0.000000000000000e+00 0.000000000000000e+00
0.000000000000000e+00 0.000000000000000e+00 0.000000000000000e+00

0.000000000000000e+00 0.000000000000000e+00 0.000000000000000e+00
0.000000000000000e+00 0.000000000000000e+00 0.000000000000000e+00
0.000000000000000e+00 0.000000000000000e+00 0.000000000000000e+00

0.000000000000000e+00 0.000000000000000e+00 0.000000000000000e+00
0.000000000000000e+00 0.000000000000000e+00 0.000000000000000e+00
0.000000000000000e+00 0.000000000000000e+00 0.000000000000000e+00

0.000000000000000e+00 0.000000000000000e+00 0.000000000000000e+00
0.000000000000000e+00 0.000000000000000e+00 0.000000000000000e+00
0.000000000000000e+00 0.000000000000000e+00 0.000000000000000e+00

0.000000000000000e+00 0.000000000000000e+00 0.000000000000000e+00
0.000000000000000e+00 0.000000000000000e+00 0.000000000000000e+00
0.000000000000000e+00 0.000000000000000e+00 0.000000000000000e+00

0.000000000000000e+00 0.000000000000000e+00 0.000000000000000e+00
0.000000000000000e+00 0.000000000000000e+00 0.000000000000000e+00
0.000000000000000e+00 0.000000000000000e+00 0.000000000000000e+00

0.000000000000000e+00 0.000000000000000e+00 0.000000000000000e+00
0.000000000000000e+00 0.000000000000000e+00 0.000000000000000e+00
0.000000000000000e+00 0.000000000000000e+00 0.000000000000000e+00

0.000000000000000e+00 0.000000000000000e+00 0.000000000000000e+00
0.000000000000000e+00 0.000000000000000e+00 0.000000000000000e+00
0.000000000000000e+00 0.000000000000000e+00 0.000000000000000e+00

0.000000000000000e+00 0.000000000000000e+00 0.000000000000000e+00
0.000000000000000e+00 0.000000000000000e+00 0.000000000000000e+00
0.000000000000000e+00 0.000000000000000e+00 0.000000000000000e+00

0.000000000000000e+00 0.000000000000000e+00 0.000000000000000e+00
0.000000000000000e+00 0.000000000000000e+00 0.000000000000000e+00
0.000000000000000e+00 0.000000000000000e+00 0.000000000000000e+00

0.000000000000000e+00 0.000000000000000e+00 0.000000000000000e+00
0.000000000000000e+00 0.000000000000000e+00 0.000000000000000e+00
0.000000000000000e+00 0.000000000000000e+00 0.000000000000000e+00

0.000000000000000e+00 0.000000000000000e+00 0.000000000000000e+00
0.000000000000000e+00 0.000000000000000e+00 0.000000000000000e+00
0.000000000000000e+00 0.000000000000000e+00 0.000000000000000e+00

0.000000000000000e+00 0.000000000000000e+00 0.000000000000000e+00
0.000000000000000e+00 0.000000000000000e+00 0.000000000000000e+00
0.000000000000000e+00 0.000000000000000e+00 0.000000000000000e+00

0.000000000000000e+00 0.000000000000000e+00 0.000000000000000e+00
0.000000000000000e+00 0.000000000000000e+00 0.000000000000000e+00
0.000000000000000e+00 0.000000000000000e+00 0.000000000000000e+00

0.000000000000000e+00 0.000000000000000e+00 0.000000000000000e+00
0.000000000000000e+00 0.000000000000000e+00 0.000000000000000e+00
0.000000000000000e+00 0.000000000000000e+00 0.000000000000000e+00

0.000000000000000e+00 0.000000000000000e+00 0.000000000000000e+00
0.000000000000000e+00 0.000000000000000e+00 0.000000000000000e+00
0.000000000000000e+00 0.000000000000000e+00 0.000000000000000e+00

0.000000000000000e+00 0.000000000000000e+00 0.000000000000000e+00
0.000000000000000e+00 0.000000000000000e+00 0.000000000000000e+00
0.000000000000000e+00 0.000000000000000e+00 0.000000000000000e+00

0.000000000000000e+00 0.000000000000000e+00 0.000000000000000e+00
0.000000000000000e+00 0.000000000000000e+00 0.000000000000000e+00
0.000000000000000e+00 0.000000000000000e+00 0.000000000000000e+00

0.000000000000000e+00 0.000000000000000e+00 0.000000000000000e+00
0.000000000000000e+00 0.000000000000000e+00 0.000000000000000e+00
0.000000000000000e+00 0.000000000000000e+00 0.000000000000000e+00

0.000000000000000e+00 0.000000000000000e+00 0.000000000000000e+00
0.000000000000000e+00 0.000000000000000e+00 0.000000000000000e+00
0.000000000000000e+00 0.000000000000000e+00 0.000000000000000e+00

0.000000000000000e+00 0.000000000000000e+00 0.000000000000000e+00
0.000000000000000e+00 0.000000000000000e+00 0.000000000000000e+00
0.000000000000000e+00 0.000000000000000e+00 0.000000000000000e+00

0.000000000000000e+00 0.000000000000000e+00 0.000000000000000e+00
0.000000000000000e+00 0.000000000000000e+00 0.000000000000000e+00
0.000000000000000e+00 0.000000000000000e+00 0.000000000000000e+00

0.000000000000000e+00 0.000000000000000e+00 0.000000000000000e+00
0.000000000000000e+00 0.000000000000000e+00 0.000000000000000e+00
0.000000000000000e+00 0.000000000000000e+00 0.000000000000000e+00

0.000000000000000e+00 0.000000000000000e+00 0.000000000000000e+00
0.000000000000000e+00 0.000000000000000e+00 0.000000000000000e+00
0.000000000000000e+00 0.000000000000000e+00 0.000000000000000e+00

0.000000000000000e+00 0.000000000000000e+00 0.000000000000000e+00
0.000000000000000e+00 0.000000000000000e+00 0.000000000000000e+00
0.000000000000000e+00 0.000000000000000e+00 0.000000000000000e+00

0.000000000000000e+00 0.000000000000000e+00 0.000000000000000e+00
0.000000000000000e+00 0.000000000000000e+00 0.000000000000000e+00
0.000000000000000e+00 0.000000000000000e+00 0.000000000000000e+00

0.000000000000000e+00 0.000000000000000e+00 0.000000000000000e+00
0.000000000000000e+00 0.000000000000000e+00 0.000000000000000e+00
0.000000000000000e+00 0.000000000000000e+00 0.000000000000000e+00

0.000000000000000e+00 0.000000000000000e+00 0.000000000000000e+00
0.000000000000000e+00 0.000000000000000e+00 0.000000000000000e+00
0.000000000000000e+00 0.000000000000000e+00 0.000000000000000e+00

0.000000000000000e+00 0.000000000000000e+00 0.000000000000000e+00
0.000000000000000e+00 0.000000000000000e+00 0.000000000000000e+00
0.000000000000000e+00 0.000000000000000e+00 0.000000000000000e+00

0.000000000000000e+00 0.000000000000000e+00 0.000000000000000e+00
0.000000000000000e+00 0.000000000000000e+00 0.000000000000000e+00
0.000000000000000e+00 0.000000000000000e+00 0.000000000000000e+00

0.000000000000000e+00 0.000000000000000e+00 0.000000000000000e+00
0.000000000000000e+00 0.000000000000000e+00 0.000000000000000e+00
0.000000000000000e+00 0.000000000000000e+00 0.000000000000000e+00

0.000000000000000e+00 0.000000000000000e+00 0.000000000000000e+00
0.000000000000000e+00 0.000000000000000e+00 0.000000000000000e+00
0.000000000000000e+00 0.000000000000000e+00 0.000000000000000e+00

0.000000000000000e+00 0.000000000000000e+00 0.000000000000000e+00
0.000000000000000e+00 0.000000000000000e+00 0.000000000000000e+00
0.000000000000000e+00 0.000000000000000e+00 0.000000000000000e+00

0.000000000000000e+00 0.000000000000000e+00 0.000000000000000e+00
0.000000000000000e+00 0.000000000000000e+00 0.000000000000000e+00
0.000000000000000e+00 0.000000000000000e+00 0.000000000000000e+00

0.000000000000000e+00 0.000000000000000e+00 0.000000000000000e+00
0.000000000000000e+00 0.000000000000000e+00 0.000000000000000e+00
0.000000000000000e+00 0.000000000000000e+00 0.000000000000000e+00

0.000000000000000e+00 0.000000000000000e+00 0.000000000000000e+00
0.000000000000000e+00 0.000000000000000e+00 0.000000000000000e+00
0.000000000000000e+00 0.000000000000000e+00 0.000000000000000e+00

0.000000000000000e+00 0.000000000000000e+00 0.000000000000000e+00
0.000000000000000e+00 0.000000000000000e+00 0.000000000000000e+00
0.000000000000000e+00 0.000000000000000e+00 0.000000000000000e+00

0.000000000000000e+00 0.000000000000000e+00 0.000000000000000e+00
0.000000000000000e+00 0.000000000000000e+00 0.000000000000000e+00
0.000000000000000e+00 0.000000000000000e+00 0.000000000000000e+00

0.000000000000000e+00 0.000000000000000e+00 0.000000000000000e+00
0.000000000000000e+00 0.000000000000000e+00 0.000000000000000e+00
0.000000000000000e+00 0.000000000000000e+00 0.000000000000000e+00

0.000000000000000e+00 0.000000000000000e+00 0.000000000000000e+00
0.000000000000000e+00 0.000000000000000e+00 0.000000000000000e+00
0.000000000000000e+00 0.000000000000000e+00 0.000000000000000e+00

0.000000000000000e+00 0.000000000000000e+00 0.000000000000000e+00
0.000000000000000e+00 0.000000000000000e+00 0.000000000000000e+00
0.000000000000000e+00 0.000000000000000e+00 0.000000000000000e+00

0.000000000000000e+00 0.000000000000000e+00 0.000000000000000e+00
0.000000000000000e+00 0.000000000000000e+00 0.000000000000000e+00
0.000000000000000e+00 0.000000000000000e+00 0.000000000000000e+00

0.000000000000000e+00 0.000000000000000e+00 0.000000000000000e+00
0.000000000000000e+00 0.000000000000000e+00 0.000000000000000e+00
0.000000000000000e+00 0.000000000000000e+00 0.000000000000000e+00

0.000000000000000e+00 0.000000000000000e+00 0.000000000000000e+00
0.000000000000000e+00 0.000000000000000e+00 0.000000000000000e+00
0.000000000000000e+00 0.000000000000000e+00 0.000000000000000e+00

0.000000000000000e+00 0.000000000000000e+00 0.000000000000000e+00
0.000000000000000e+00 0.000000000000000e+00 0.000000000000000e+00
0.000000000000000e+00 0.000000000000000e+00 0.000000000000000e+00

0.000000000000000e+00 0.000000000000000e+00 0.000000000000000e+00
0.000000000000000e+00 0.000000000000000e+00 0.000000000000000e+00
0.000000000000000e+00 0.000000000000000e+00 0.000000000000000e+00

0.000000000000000e+00 0.000000000000000e+00 0.000000000000000e+00
0.000000000000000e+00 0.000000000000000e+00 0.000000000000000e+00
0.000000000000000e+00 0.000000000000000e+00 0.000000000000000e+00

0.000000000000000e+00 0.000000000000000e+00 0.000000000000000e+00
0.000000000000000e+00 0.000000000000000e+00 0.000000000000000e+00
0.000000000000000e+00 0.000000000000000e+00 0.000000000000000e+00

0.000000000000000e+00 0.000000000000000e+00 0.000000000000000e+00
0.000000000000000e+00 0.000000000000000e+00 0.000000000000000e+00
0.000000000000000e+00 0.000000000000000e+00 0.000000000000000e+00

0.000000000000000e+00 0.000000000000000e+00 0.000000000000000e+00
0.000000000000000e+00 0.000000000000000e+00 0.000000000000000e+00
0.000000000000000e+00 0.000000000000000e+00 0.000000000000000e+00

0.000000000000000e+00 0.000000000000000e+00 0.000000000000000e+00
0.000000000000000e+00 0.000000000000000e+00 0.000000000000000e+00
0.000000000000000e+00 0.000000000000000e+00 0.000000000000000e+00

0.000000000000000e+00 0.000000000000000e+00 0.000000000000000e+00
0.000000000000000e+00 0.000000000000000e+00 0.000000000000000e+00
0.000000000000000e+00 0.000000000000000e+00 0.000000000000000e+00

0.000000000000000e+00 0.000000000000000e+00 0.000000000000000e+00
0.000000000000000e+00 0.000000000000000e+00 0.000000000000000e+00
0.000000000000000e+00 0.000000000000000e+00 0.000000000000000e+00

0.000000000000000e+00 0.000000000000000e+00 0.000000000000000e+00
0.000000000000000e+00 0.000000000000000e+00 0.000000000000000e+00
0.000000000000000e+00 0.000000000000000e+00 0.000000000000000e+00

0.000000000000000e+00 0.000000000000000e+00 0.000000000000000e+00
0.000000000000000e+00 0.000000000000000e+00 0.000000000000000e+00
0.000000000000000e+00 0.000000000000000e+00 0.000000000000000e+00

0.000000000000000e+00 0.000000000000000e+00 0.000000000000000e+00
0.000000000000000e+00 0.000000000000000e+00 0.000000000000000e+00
0.000000000000000e+00 0.000000000000000e+00 0.000000000000000e+00

0.000000000000000e+00 0.000000000000000e+00 0.000000000000000e+00
0.000000000000000e+00 0.000000000000000e+00 0.000000000000000e+00
0.000000000000000e+00 0.000000000000000e+00 0.000000000000000e+00

0.000000000000000e+00 0.000000000000000e+00 0.000000000000000e+00
0.000000000000000e+00 0.000000000000000e+00 0.000000000000000e+00
0.000000000000000e+00 0.000000000000000e+00 0.000000000000000e+00

0.000000000000000e+00 0.000000000000000e+00 0.000000000000000e+00
0.000000000000000e+00 0.000000000000000e+00 0.000000000000000e+00
0.000000000000000e+00 0.000000000000000e+00 0.000000000000000e+00

0.000000000000000e+00 0.000000000000000e+00 0.000000000000000e+00
0.000000000000000e+00 0.000000000000000e+00 0.000000000000000e+00
0.000000000000000e+00 0.000000000000000e+00 0.000000000000000e+00

0.000000000000000e+00 0.000000000000000e+00 0.000000000000000e+00
0.000000000000000e+00 0.000000000000000e+00 0.000000000000000e+00
0.000000000000000e+00 0.000000000000000e+00 0.000000000000000e+00

0.000000000000000e+00 0.000000000000000e+00 0.000000000000000e+00
0.000000000000000e+00 0.000000000000000e+00 0.000000000000000e+00
0.000000000000000e+00 0.000000000000000e+00 0.000000000000000e+00

0.000000000000000e+00 0.000000000000000e+00 0.000000000000000e+00
0.000000000000000e+00 0.000000000000000e+00 0.000000000000000e+00
0.000000000000000e+00 0.000000000000000e+00 0.000000000000000e+00

0.000000000000000e+00 0.000000000000000e+00 0.000000000000000e+00
0.000000000000000e+00 0.000000000000000e+00 0.000000000000000e+00
0.000000000000000e+00 0.000000000000000e+00 0.000000000000000e+00

0.000000000000000e+00 0.000000000000000e+00 0.000000000000000e+00
0.000000000000000e+00 0.000000000000000e+00 0.000000000000000e+00
0.000000000000000e+00 0.000000000000000e+00 0.000000000000000e+00

0.000000000000000e+00 0.000000000000000e+00 0.000000000000000e+00
0.000000000000000e+00 0.000000000000000e+00 0.000000000000000e+00
0.000000000000000e+00 0.000000000000000e+00 0.000000000000000e+00

0.000000000000000e+00 0.000000000000000e+00 0.000000000000000e+00
0.000000000000000e+00 0.000000000000000e+00 0.000000000000000e+00
0.000000000000000e+00 0.000000000000000e+00 0.000000000000000e+00

0.000000000000000e+00 0.000000000000000e+00 0.000000000000000e+00
0.000000000000000e+00 0.000000000000000e+00 0.000000000000000e+00
0.000000000000000e+00 0.000000000000000e+00 0.000000000000000e+00

0.000000000000000e+00 0.000000000000000e+00 0.000000000000000e+00
0.000000000000000e+00 0.000000000000000e+00 0.000000000000000e+00
0.000000000000000e+00 0.000000000000000e+00 0.000000000000000e+00

0.000000000000000e+00 0.000000000000000e+00 0.000000000000000e+00
0.000000000000000e+00 0.000000000000000e+00 0.000000000000000e+00
0.000000000000000e+00 0.000000000000000e+00 0.000000000000000e+00

0.000000000000000e+00 0.000000000000000e+00 0.000000000000000e+00
0.000000000000000e+00 0.000000000000000e+00 0.000000000000000e+00
0.000000000000000e+00 0.000000000000000e+00 0.000000000000000e+00

0.000000000000000e+00 0.000000000000000e+00 0.000000000000000e+00
0.000000000000000e+00 0.000000000000000e+00 0.000000000000000e+00
0.000000000000000e+00 0.000000000000000e+00 0.000000000000000e+00

0.000000000000000e+00 0.000000000000000e+00 0.000000000000000e+00
0.000000000000000e+00 0.000000000000000e+00 0.000000000000000e+00
0.000000000000000e+00 0.000000000000000e+00 0.000000000000000e+00

0.000000000000000e+00 0.000000000000000e+00 0.000000000000000e+00
0.000000000000000e+00 0.000000000000000e+00 0.000000000000000e+00
0.000000000000000e+00 0.000000000000000e+00 0.000000000000000e+00

0.000000000000000e+00 0.000000000000000e+00 0.000000000000000e+00
0.000000000000000e+00 0.000000000000000e+00 0.000000000000000e+00
0.000000000000000e+00 0.000000000000000e+00 0.000000000000000e+00

0.000000000000000e+00 0.000000000000000e+00 0.000000000000000e+00
0.000000000000000e+00 0.000000000000000e+00 0.000000000000000e+00
0.000000000000000e+00 0.000000000000000e+00 0.000000000000000e+00

0.000000000000000e+00 0.000000000000000e+00 0.000000000000000e+00
0.000000000000000e+00 0.000000000000000e+00 0.000000000000000e+00
0.000000000000000e+00 0.000000000000000e+00 0.000000000000000e+00

0.000000000000000e+00 0.000000000000000e+00 0.000000000000000e+00
0.000000000000000e+00 0.000000000000000e+00 0.000000000000000e+00
0.000000000000000e+00 0.000000000000000e+00 0.000000000000000e+00

0.000000000000000e+00 0.000000000000000e+00 0.000000000000000e+00
0.000000000000000e+00 0.000000000000000e+00 0.000000000000000e+00
0.000000000000000e+00 0.000000000000000e+00 0.000000000000000e+00

0.000000000000000e+00 0.000000000000000e+00 0.000000000000000e+00
0.000000000000000e+00 0.000000000000000e+00 0.000000000000000e+00
0.000000000000000e+00 0.000000000000000e+00 0.000000000000000e+00

0.000000000000000e+00 0.000000000000000e+00 0.000000000000000e+00
0.000000000000000e+00 0.000000000000000e+00 0.000000000000000e+00
0.000000000000000e+00 0.000000000000000e+00 0.000000000000000e+00

0.000000000000000e+00 0.000000000000000e+00 0.000000000000000e+00
0.000000000000000e+00 0.000000000000000e+00 0.000000000000000e+00
0.000000000000000e+00 0.000000000000000e+00 0.000000000000000e+00

0.000000000000000e+00 0.000000000000000e+00 0.000000000000000e+00
0.000000000000000e+00 0.000000000000000e+00 0.000000000000000e+00
0.000000000000000e+00 0.000000000000000e+00 0.000000000000000e+00

0.000000000000000e+00 0.000000000000000e+00 0.000000000000000e+00
0.000000000000000e+00 0.000000000000000e+00 0.000000000000000e+00
0.000000000000000e+00 0.000000000000000e+00 0.000000000000000e+00

0.000000000000000e+00 0.000000000000000e+00 0.000000000000000e+00
0.000000000000000e+00 0.000000000000000e+00 0.000000000000000e+00
0.000000000000000e+00 0.000000000000000e+00 0.000000000000000e+00

0.000000000000000e+00 0.000000000000000e+00 0.000000000000000e+00
0.000000000000000e+00 0.000000000000000e+00 0.000000000000000e+00
0.000000000000000e+00 0.000000000000000e+00 0.000000000000000e+00

0.000000000000000e+00 0.000000000000000e+00 0.000000000000000e+00
0.000000000000000e+00 0.000000000000000e+00 0.000000000000000e+00
0.000000000000000e+00 0.000000000000000e+00 0.000000000000000e+00

0.000000000000000e+00 0.000000000000000e+00 0.000000000000000e+00
0.000000000000000e+00 0.000000000000000e+00 0.000000000000000e+00
0.000000000000000e+00 0.000000000000000e+00 0.000000000000000e+00

0.000000000000000e+00 0.000000000000000e+00 0.000000000000000e+00
0.000000000000000e+00 0.000000000000000e+00 0.000000000000000e+00
0.000000000000000e+00 0.000000000000000e+00 0.000000000000000e+00

0.000000000000000e+00 0.000000000000000e+00 0.000000000000000e+00
0.000000000000000e+00 0.000000000000000e+00 0.000000000000000e+00
0.000000000000000e+00 0.000000000000000e+00 0.000000000000000e+00

0.000000000000000e+00 0.000000000000000e+00 0.000000000000000e+00
0.000000000000000e+00 0.000000000000000e+00 0.000000000000000e+00
0.000000000000000e+00 0.000000000000000e+00 0.000000000000000e+00

0.000000000000000e+00 0.000000000000000e+00 0.000000000000000e+00
0.000000000000000e+00 0.000000000000000e+00 0.000000000000000e+00
0.000000000000000e+00 0.000000000000000e+00 0.000000000000000e+00

0.000000000000000e+00 0.000000000000000e+00 0.000000000000000e+00
0.000000000000000e+00 0.000000000000000e+00 0.000000000000000e+00
0.000000000000000e+00 0.000000000000000e+00 0.000000000000000e+00

0.000000000000000e+00 0.000000000000000e+00 0.000000000000000e+00
0.000000000000000e+00 0.000000000000000e+00 0.000000000000000e+00
0.000000000000000e+00 0.000000000000000e+00 0.000000000000000e+00

0.000000000000000e+00 0.000000000000000e+00 0.000000000000000e+00
0.000000000000000e+00 0.000000000000000e+00 0.000000000000000e+00
0.000000000000000e+00 0.000000000000000e+00 0.000000000000000e+00

0.000000000000000e+00 0.000000000000000e+00 0.000000000000000e+00
0.000000000000000e+00 0.000000000000000e+00 0.000000000000000e+00
0.000000000000000e+00 0.000000000000000e+00 0.000000000000000e+00

0.000000000000000e+00 0.000000000000000e+00 0.000000000000000e+00
0.000000000000000e+00 0.000000000000000e+00 0.000000000000000e+00
0.000000000000000e+00 0.000000000000000e+00 0.000000000000000e+00

0.000000000000000e+00 0.000000000000000e+00 0.000000000000000e+00
0.000000000000000e+00 0.000000000000000e+00 0.000000000000000e+00
0.000000000000000e+00 0.000000000000000e+00 0.000000000000000e+00

0.000000000000000e+00 0.000000000000000e+00 0.000000000000000e+00
0.000000000000000e+00 0.000000000000000e+00 0.000000000000000e+00
0.000000000000000e+00 0.000000000000000e+00 0.000000000000000e+00

0.000000000000000e+00 0.000000000000000e+00 0.000000000000000e+00
0.000000000000000e+00 0.000000000000000e+00 0.000000000000000e+00
0.000000000000000e+00 0.000000000000000e+00 0.000000000000000e+00

0.000000000000000e+00 0.000000000000000e+00 0.000000000000000e+00
0.000000000000000e+00 0.000000000000000e+00 0.000000000000000e+00
0.000000000000000e+00 0.000000000000000e+00 0.000000000000000e+00

0.000000000000000e+00 0.000000000000000e+00 0.000000000000000e+00
0.000000000000000e+00 0.000000000000000e+00 0.000000000000000e+00
0.000000000000000e+00 0.000000000000000e+00 0.000000000000000e+00

0.000000000000000e+00 0.000000000000000e+00 0.000000000000000e+00
0.000000000000000e+00 0.000000000000000e+00 0.000000000000000e+00
0.000000000000000e+00 0.000000000000000e+00 0.000000000000000e+00

0.000000000000000e+00 0.000000000000000e+00 0.000000000000000e+00
0.000000000000000e+00 0.000000000000000e+00 0.000000000000000e+00
0.000000000000000e+00 0.000000000000000e+00 0.000000000000000e+00

0.000000000000000e+00 0.000000000000000e+00 0.000000000000000e+00
0.000000000000000e+00 0.000000000000000e+00 0.000000000000000e+00
0.000000000000000e+00 0.000000000000000e+00 0.000000000000000e+00

0.000000000000000e+00 0.000000000000000e+00 0.000000000000000e+00
0.000000000000000e+00 0.000000000000000e+00 0.000000000000000e+00
0.000000000000000e+00 0.000000000000000e+00 0.000000000000000e+00

0.000000000000000e+00 0.000000000000000e+00 0.000000000000000e+00
0.000000000000000e+00 0.000000000000000e+00 0.000000000000000e+00
0.000000000000000e+00 0.000000000000000e+00 0.000000000000000e+00

0.000000000000000e+00 0.000000000000000e+00 0.000000000000000e+00
0.000000000000000e+00 0.000000000000000e+00 0.000000000000000e+00
0.000000000000000e+00 0.000000000000000e+00 0.000000000000000e+00

0.000000000000000e+00 0.000000000000000e+00 0.000000000000000e+00
0.000000000000000e+00 0.000000000000000e+00 0.000000000000000e+00
0.000000000000000e+00 0.000000000000000e+00 0.000000000000000e+00

0.000000000000000e+00 0.000000000000000e+00 0.000000000000000e+00
0.000000000000000e+00 0.000000000000000e+00 0.000000000000000e+00
0.000000000000000e+00 0.000000000000000e+00 0.000000000000000e+00

0.000000000000000e+00 0.000000000000000e+00 0.000000000000000e+00
0.000000000000000e+00 0.000000000000000e+00 0.000000000000000e+00
0.000000000000000e+00 0.000000000000000e+00 0.000000000000000e+00

0.000000000000000e+00 0.000000000000000e+00 0.000000000000000e+00
0.000000000000000e+00 0.000000000000000e+00 0.000000000000000e+00
0.000000000000000e+00 0.000000000000000e+00 0.000000000000000e+00

0.000000000000000e+00 0.000000000000000e+00 0.000000000000000e+00
0.000000000000000e+00 0.000000000000000e+00 0.000000000000000e+00
0.000000000000000e+00 0.000000000000000e+00 0.000000000000000e+00

0.000000000000000e+00 0.000000000000000e+00 0.000000000000000e+00
0.000000000000000e+00 0.000000000000000e+00 0.000000000000000e+00
0.000000000000000e+00 0.000000000000000e+00 0.000000000000000e+00

0.000000000000000e+00 0.000000000000000e+00 0.000000000000000e+00
0.000000000000000e+00 0.000000000000000e+00 0.000000000000000e+00
0.000000000000000e+00 0.000000000000000e+00 0.000000000000000e+00

0.000000000000000e+00 0.000000000000000e+00 0.000000000000000e+00
0.000000000000000e+00 0.000000000000000e+00 0.000000000000000e+00
0.000000000000000e+00 0.000000000000000e+00 0.000000000000000e+00

0.000000000000000e+00 0.000000000000000e+00 0.000000000000000e+00
0.000000000000000e+00 0.000000000000000e+00 0.000000000000000e+00
0.000000000000000e+00 0.000000000000000e+00 0.000000000000000e+00

0.000000000000000e+00 0.000000000000000e+00 0.000000000000000e+00
0.000000000000000e+00 0.000000000000000e+00 0.000000000000000e+00
0.000000000000000e+00 0.000000000000000e+00 0.000000000000000e+00

0.000000000000000e+00 0.000000000000000e+00 0.000000000000000e+00
0.000000000000000e+00 0.000000000000000e+00 0.000000000000000e+00
0.000000000000000e+00 0.000000000000000e+00 0.000000000000000e+00

0.000000000000000e+00 0.000000000000000e+00 0.000000000000000e+00
0.000000000000000e+00 0.000000000000000e+00 0.000000000000000e+00
0.000000000000000e+00 0.000000000000000e+00 0.000000000000000e+00

0.000000000000000e+00 0.000000000000000e+00 0.000000000000000e+00
0.000000000000000e+00 0.000000000000000e+00 0.000000000000000e+00
0.000000000000000e+00 0.000000000000000e+00 0.000000000000000e+00

0.000000000000000e+00 0.000000000000000e+00 0.000000000000000e+00
0.000000000000000e+00 0.000000000000000e+00 0.000000000000000e+00
0.000000000000000e+00 0.000000000000000e+00 0.000000000000000e+00

0.000000000000000e+00 0.000000000000000e+00 0.000000000000000e+00
0.000000000000000e+00 0.000000000000000e+00 0.000000000000000e+00
0.000000000000000e+00 0.000000000000000e+00 0.000000000000000e+00

0.000000000000000e+00 0.000000000000000e+00 0.000000000000000e+00
0.000000000000000e+00 0.000000000000000e+00 0.000000000000000e+00
0.000000000000000e+00 0.000000000000000e+00 0.000000000000000e+00

0.000000000000000e+00 0.000000000000000e+00 0.000000000000000e+00
0.000000000000000e+00 0.000000000000000e+00 0.000000000000000e+00
0.000000000000000e+00 0.000000000000000e+00 0.000000000000000e+00

0.000000000000000e+00 0.000000000000000e+00 0.000000000000000e+00
0.000000000000000e+00 0.000000000000000e+00 0.000000000000000e+00
0.000000000000000e+00 0.000000000000000e+00 0.000000000000000e+00

0.000000000000000e+00 0.000000000000000e+00 0.000000000000000e+00
0.000000000000000e+00 0.000000000000000e+00 0.000000000000000e+00
0.000000000000000e+00 0.000000000000000e+00 0.000000000000000e+00

0.000000000000000e+00 0.000000000000000e+00 0.000000000000000e+00
0.000000000000000e+00 0.000000000000000e+00 0.000000000000000e+00
0.000000000000000e+00 0.000000000000000e+00 0.000000000000000e+00

0.000000000000000e+00 0.000000000000000e+00 0.000000000000000e+00
0.000000000000000e+00 0.000000000000000e+00 0.000000000000000e+00
0.000000000000000e+00 0.000000000000000e+00 0.000000000000000e+00

0.000000000000000e+00 0.000000000000000e+00 0.000000000000000e+00
0.000000000000000e+00 0.000000000000000e+00 0.000000000000000e+00
0.000000000000000e+00 0.000000000000000e+00 0.000000000000000e+00

0.000000000000000e+00 0.000000000000000e+00 0.000000000000000e+00
0.000000000000000e+00 0.000000000000000e+00 0.000000000000000e+00
0.000000000000000e+00 0.000000000000000e+00 0.000000000000000e+00

0.000000000000000e+00 0.000000000000000e+00 0.000000000000000e+00
0.000000000000000e+00 0.000000000000000e+00 0.000000000000000e+00
0.000000000000000e+00 0.000000000000000e+00 0.000000000000000e+00

0.000000000000000e+00 0.000000000000000e+00 0.000000000000000e+00
0.000000000000000e+00 0.000000000000000e+00 0.000000000000000e+00
0.000000000000000e+00 0.000000000000000e+00 0.000000000000000e+00

0.000000000000000e+00 0.000000000000000e+00 0.000000000000000e+00
0.000000000000000e+00 0.000000000000000e+00 0.000000000000000e+00
0.000000000000000e+00 0.000000000000000e+00 0.000000000000000e+00

0.000000000000000e+00 0.000000000000000e+00 0.000000000000000e+00
0.000000000000000e+00 0.000000000000000e+00 0.000000000000000e+00
0.000000000000000e+00 0.000000000000000e+00 0.000000000000000e+00

0.000000000000000e+00 0.000000000000000e+00 0.000000000000000e+00
0.000000000000000e+00 0.000000000000000e+00 0.000000000000000e+00
0.000000000000000e+00 0.000000000000000e+00 0.000000000000000e+00

0.000000000000000e+00 0.000000000000000e+00 0.000000000000000e+00
0.000000000000000e+00 0.000000000000000e+00 0.000000000000000e+00
0.000000000000000e+00 0.000000000000000e+00 0.000000000000000e+00

0.000000000000000e+00 0.000000000000000e+00 0.000000000000000e+00
0.000000000000000e+00 0.000000000000000e+00 0.000000000000000e+00
0.000000000000000e+00 0.000000000000000e+00 0.000000000000000e+00

0.000000000000000e+00 0.000000000000000e+00 0.000000000000000e+00
0.000000000000000e+00 0.000000000000000e+00 0.000000000000000e+00
0.000000000000000e+00 0.000000000000000e+00 0.000000000000000e+00

0.000000000000000e+00 0.000000000000000e+00 0.000000000000000e+00
0.000000000000000e+00 0.000000000000000e+00 0.000000000000000e+00
0.000000000000000e+00 0.000000000000000e+00 0.000000000000000e+00

0.000000000000000e+00 0.000000000000000e+00 0.000000000000000e+00
0.000000000000000e+00 0.000000000000000e+00 0.000000000000000e+00
0.000000000000000e+00 0.000000000000000e+00 0.000000000000000e+00

0.000000000000000e+00 0.000000000000000e+00 0.000000000000000e+00
0.000000000000000e+00 0.000000000000000e+00 0.000000000000000e+00
0.000000000000000e+00 0.000000000000000e+00 0.000000000000000e+00

0.000000000000000e+00 0.000000000000000e+00 0.000000000000000e+00
0.000000000000000e+00 0.000000000000000e+00 0.000000000000000e+00
0.000000000000000e+00 0.000000000000000e+00 0.000000000000000e+00

0.000000000000000e+00 0.000000000000000e+00 0.000000000000000e+00
0.000000000000000e+00 0.000000000000000e+00 0.000000000000000e+00
0.000000000000000e+00 0.000000000000000e+00 0.000000000000000e+00

0.000000000000000e+00 0.000000000000000e+00 0.000000000000000e+00
0.000000000000000e+00 0.000000000000000e+00 0.000000000000000e+00
0.000000000000000e+00 0.000000000000000e+00 0.000000000000000e+00

0.000000000000000e+00 0.000000000000000e+00 0.000000000000000e+00
0.000000000000000e+00 0.000000000000000e+00 0.000000000000000e+00
0.000000000000000e+00 0.000000000000000e+00 0.000000000000000e+00

0.000000000000000e+00 0.000000000000000e+00 0.000000000000000e+00
0.000000000000000e+00 0.000000000000000e+00 0.000000000000000e+00
0.000000000000000e+00 0.000000000000000e+00 0.000000000000000e+00

0.000000000000000e+00 0.000000000000000e+00 0.000000000000000e+00
0.000000000000000e+00 0.000000000000000e+00 0.000000000000000e+00
0.000000000000000e+00 0.000000000000000e+00 0.000000000000000e+00

0.000000000000000e+00 0.000000000000000e+00 0.000000000000000e+00
0.000000000000000e+00 0.000000000000000e+00 0.000000000000000e+00
0.000000000000000e+00 0.000000000000000e+00 0.000000000000000e+00

0.000000000000000e+00 0.000000000000000e+00 0.000000000000000e+00
0.000000000000000e+00 0.000000000000000e+00 0.000000000000000e+00
0.000000000000000e+00 0.000000000000000e+00 0.000000000000000e+00

0.000000000000000e+00 0.000000000000000e+00 0.000000000000000e+00
0.000000000000000e+00 0.000000000000000e+00 0.000000000000000e+00
0.000000000000000e+00 0.000000000000000e+00 0.000000000000000e+00

0.000000000000000e+00 0.000000000000000e+00 0.000000000000000e+00
0.000000000000000e+00 0.000000000000000e+00 0.000000000000000e+00
0.000000000000000e+00 0.000000000000000e+00 0.000000000000000e+00

0.000000000000000e+00 0.000000000000000e+00 0.000000000000000e+00
0.000000000000000e+00 0.000000000000000e+00 0.000000000000000e+00
0.000000000000000e+00 0.000000000000000e+00 0.000000000000000e+00

0.000000000000000e+00 0.000000000000000e+00 0.000000000000000e+00
0.000000000000000e+00 0.000000000000000e+00 0.000000000000000e+00
0.000000000000000e+00 0.000000000000000e+00 0.000000000000000e+00

0.000000000000000e+00 0.000000000000000e+00 0.000000000000000e+00
0.000000000000000e+00 0.000000000000000e+00 0.000000000000000e+00
0.000000000000000e+00 0.000000000000000e+00 0.000000000000000e+00

0.000000000000000e+00 0.000000000000000e+00 0.000000000000000e+00
0.000000000000000e+00 0.000000000000000e+00 0.000000000000000e+00
0.000000000000000e+00 0.000000000000000e+00 0.000000000000000e+00

0.000000000000000e+00 0.000000000000000e+00 0.000000000000000e+00
0.000000000000000e+00 0.000000000000000e+00 0.000000000000000e+00
0.000000000000000e+00 0.000000000000000e+00 0.000000000000000e+00

0.000000000000000e+00 0.000000000000000e+00 0.000000000000000e+00
0.000000000000000e+00 0.000000000000000e+00 0.000000000000000e+00
0.000000000000000e+00 0.000000000000000e+00 0.000000000000000e+00

0.000000000000000e+00 0.000000000000000e+00 0.000000000000000e+00
0.000000000000000e+00 0.000000000000000e+00 0.000000000000000e+00
0.000000000000000e+00 0.000000000000000e+00 0.000000000000000e+00

0.000000000000000e+00 0.000000000000000e+00 0.000000000000000e+00
0.000000000000000e+00 0.000000000000000e+00 0.000000000000000e+00
0.000000000000000e+00 0.000000000000000e+00 0.000000000000000e+00

0.000000000000000e+00 0.000000000000000e+00 0.000000000000000e+00
0.000000000000000e+00 0.000000000000000e+00 0.000000000000000e+00
0.000000000000000e+00 0.000000000000000e+00 0.000000000000000e+00

0.000000000000000e+00 0.000000000000000e+00 0.000000000000000e+00
0.000000000000000e+00 0.000000000000000e+00 0.000000000000000e+00
0.000000000000000e+00 0.000000000000000e+00 0.000000000000000e+00

0.000000000000000e+00 0.000000000000000e+00 0.000000000000000e+00
0.000000000000000e+00 0.000000000000000e+00 0.000000000000000e+00
0.000000000000000e+00 0.000000000000000e+00 0.000000000000000e+00

0.000000000000000e+00 0.000000000000000e+00 0.000000000000000e+00
0.000000000000000e+00 0.000000000000000e+00 0.000000000000000e+00
0.000000000000000e+00 0.000000000000000e+00 0.000000000000000e+00

0.000000000000000e+00 0.000000000000000e+00 0.000000000000000e+00
0.000000000000000e+00 0.000000000000000e+00 0.000000000000000e+00
0.000000000000000e+00 0.000000000000000e+00 0.000000000000000e+00

0.000000000000000e+00 0.000000000000000e+00 0.000000000000000e+00
0.000000000000000e+00 0.000000000000000e+00 0.000000000000000e+00
0.000000000000000e+00 0.000000000000000e+00 0.000000000000000e+00

0.000000000000000e+00 0.000000000000000e+00 0.000000000000000e+00
0.000000000000000e+00 0.000000000000000e+00 0.000000000000000e+00
0.000000000000000e+00 0.000000000000000e+00 0.000000000000000e+00

0.000000000000000e+00 0.000000000000000e+00 0.000000000000000e+00
0.000000000000000e+00 0.000000000000000e+00 0.000000000000000e+00
0.000000000000000e+00 0.000000000000000e+00 0.000000000000000e+00

0.000000000000000e+00 0.000000000000000e+00 0.000000000000000e+00
0.000000000000000e+00 0.000000000000000e+00 0.000000000000000e+00
0.000000000000000e+00 0.000000000000000e+00 0.000000000000000e+00

0.000000000000000e+00 0.000000000000000e+00 0.000000000000000e+00
0.000000000000000e+00 0.000000000000000e+00 0.000000000000000e+00
0.000000000000000e+00 0.000000000000000e+00 0.000000000000000e+00

0.000000000000000e+00 0.000000000000000e+00 0.000000000000000e+00
0.000000000000000e+00 0.000000000000000e+00 0.000000000000000e+00
0.000000000000000e+00 0.000000000000000e+00 0.000000000000000e+00

0.000000000000000e+00 0.000000000000000e+00 0.000000000000000e+00
0.000000000000000e+00 0.000000000000000e+00 0.000000000000000e+00
0.000000000000000e+00 0.000000000000000e+00 0.000000000000000e+00

0.000000000000000e+00 0.000000000000000e+00 0.000000000000000e+00
0.000000000000000e+00 0.000000000000000e+00 0.000000000000000e+00
0.000000000000000e+00 0.000000000000000e+00 0.000000000000000e+00

0.000000000000000e+00 0.000000000000000e+00 0.000000000000000e+00
0.000000000000000e+00 0.000000000000000e+00 0.000000000000000e+00
0.000000000000000e+00 0.000000000000000e+00 0.000000000000000e+00

0.000000000000000e+00 0.000000000000000e+00 0.000000000000000e+00
0.000000000000000e+00 0.000000000000000e+00 0.000000000000000e+00
0.000000000000000e+00 0.000000000000000e+00 0.000000000000000e+00

0.000000000000000e+00 0.000000000000000e+00 0.000000000000000e+00
0.000000000000000e+00 0.000000000000000e+00 0.000000000000000e+00
0.000000000000000e+00 0.000000000000000e+00 0.000000000000000e+00

0.000000000000000e+00 0.000000000000000e+00 0.000000000000000e+00
0.000000000000000e+00 0.000000000000000e+00 0.000000000000000e+00
0.000000000000000e+00 0.000000000000000e+00 0.000000000000000e+00

0.000000000000000e+00 0.000000000000000e+00 0.000000000000000e+00
0.000000000000000e+00 0.000000000000000e+00 0.000000000000000e+00
0.000000000000000e+00 0.000000000000000e+00 0.000000000000000e+00

0.000000000000000e+00 0.000000000000000e+00 0.000000000000000e+00
0.000000000000000e+00 0.000000000000000e+00 0.000000000000000e+00
0.000000000000000e+00 0.000000000000000e+00 0.000000000000000e+00

0.000000000000000e+00 0.000000000000000e+00 0.000000000000000e+00
0.000000000000000e+00 0.000000000000000e+00 0.000000000000000e+00
0.000000000000000e+00 0.000000000000000e+00 0.000000000000000e+00

0.000000000000000e+00 0.000000000000000e+00 0.000000000000000e+00
0.000000000000000e+00 0.000000000000000e+00 0.000000000000000e+00
0.000000000000000e+00 0.000000000000000e+00 0.000000000000000e+00

0.000000000000000e+00 0.000000000000000e+00 0.000000000000000e+00
0.000000000000000e+00 0.000000000000000e+00 0.000000000000000e+00
0.000000000000000e+00 0.000000000000000e+00 0.000000000000000e+00

0.000000000000000e+00 0.000000000000000e+00 0.000000000000000e+00
0.000000000000000e+00 0.000000000000000e+00 0.000000000000000e+00
0.000000000000000e+00 0.000000000000000e+00 0.000000000000000e+00

0.000000000000000e+00 0.000000000000000e+00 0.000000000000000e+00
0.000000000000000e+00 0.000000000000000e+00 0.000000000000000e+00
0.000000000000000e+00 0.000000000000000e+00 0.000000000000000e+00

0.000000000000000e+00 0.000000000000000e+00 0.000000000000000e+00
0.000000000000000e+00 0.000000000000000e+00 0.000000000000000e+00
0.000000000000000e+00 0.000000000000000e+00 0.000000000000000e+00

0.000000000000000e+00 0.000000000000000e+00 0.000000000000000e+00
0.000000000000000e+00 0.000000000000000e+00 0.000000000000000e+00
0.000000000000000e+00 0.000000000000000e+00 0.000000000000000e+00

0.000000000000000e+00 0.000000000000000e+00 0.000000000000000e+00
0.000000000000000e+00 0.000000000000000e+00 0.000000000000000e+00
0.000000000000000e+00 0.000000000000000e+00 0.000000000000000e+00

0.000000000000000e+00 0.000000000000000e+00 0.000000000000000e+00
0.000000000000000e+00 0.000000000000000e+00 0.000000000000000e+00
0.000000000000000e+00 0.000000000000000e+00 0.000000000000000e+00

0.000000000000000e+00 0.000000000000000e+00 0.000000000000000e+00
0.000000000000000e+00 0.000000000000000e+00 0.000000000000000e+00
0.000000000000000e+00 0.000000000000000e+00 0.000000000000000e+00

0.000000000000000e+00 0.000000000000000e+00 0.000000000000000e+00
0.000000000000000e+00 0.000000000000000e+00 0.000000000000000e+00
0.000000000000000e+00 0.000000000000000e+00 0.000000000000000e+00

0.000000000000000e+00 0.000000000000000e+00 0.000000000000000e+00
0.000000000000000e+00 0.000000000000000e+00 0.000000000000000e+00
0.000000000000000e+00 0.000000000000000e+00 0.000000000000000e+00

0.000000000000000e+00 0.000000000000000e+00 0.000000000000000e+00
0.000000000000000e+00 0.000000000000000e+00 0.000000000000000e+00
0.000000000000000e+00 0.000000000000000e+00 0.000000000000000e+00

0.000000000000000e+00 0.000000000000000e+00 0.000000000000000e+00
0.000000000000000e+00 0.000000000000000e+00 0.000000000000000e+00
0.000000000000000e+00 0.000000000000000e+00 0.000000000000000e+00

0.000000000000000e+00 0.000000000000000e+00 0.000000000000000e+00
0.000000000000000e+00 0.000000000000000e+00 0.000000000000000e+00
0.000000000000000e+00 0.000000000000000e+00 0.000000000000000e+00

0.000000000000000e+00 0.000000000000000e+00 0.000000000000000e+00
0.000000000000000e+00 0.000000000000000e+00 0.000000000000000e+00
0.000000000000000e+00 0.000000000000000e+00 0.000000000000000e+00

0.000000000000000e+00 0.000000000000000e+00 0.000000000000000e+00
0.000000000000000e+00 0.000000000000000e+00 0.000000000000000e+00
0.000000000000000e+00 0.000000000000000e+00 0.000000000000000e+00

0.000000000000000e+00 0.000000000000000e+00 0.000000000000000e+00
0.000000000000000e+00 0.000000000000000e+00 0.000000000000000e+00
0.000000000000000e+00 0.000000000000000e+00 0.000000000000000e+00

0.000000000000000e+00 0.000000000000000e+00 0.000000000000000e+00
0.000000000000000e+00 0.000000000000000e+00 0.000000000000000e+00
0.000000000000000e+00 0.000000000000000e+00 0.000000000000000e+00

0.000000000000000e+00 0.000000000000000e+00 0.000000000000000e+00
0.000000000000000e+00 0.000000000000000e+00 0.000000000000000e+00
0.000000000000000e+00 0.000000000000000e+00 0.000000000000000e+00

0.000000000000000e+00 0.000000000000000e+00 0.000000000000000e+00
0.000000000000000e+00 0.000000000000000e+00 0.000000000000000e+00
0.000000000000000e+00 0.000000000000000e+00 0.000000000000000e+00

0.000000000000000e+00 0.000000000000000e+00 0.000000000000000e+00
0.000000000000000e+00 0.000000000000000e+00 0.000000000000000e+00
0.000000000000000e+00 0.000000000000000e+00 0.000000000000000e+00

0.000000000000000e+00 0.000000000000000e+00 0.000000000000000e+00
0.000000000000000e+00 0.000000000000000e+00 0.000000000000000e+00
0.000000000000000e+00 0.000000000000000e+00 0.000000000000000e+00

0.000000000000000e+00 0.000000000000000e+00 0.000000000000000e+00
0.000000000000000e+00 0.000000000000000e+00 0.000000000000000e+00
0.000000000000000e+00 0.000000000000000e+00 0.000000000000000e+00

0.000000000000000e+00 0.000000000000000e+00 0.000000000000000e+00
0.000000000000000e+00 0.000000000000000e+00 0.000000000000000e+00
0.000000000000000e+00 0.000000000000000e+00 0.000000000000000e+00

0.000000000000000e+00 0.000000000000000e+00 0.000000000000000e+00
0.000000000000000e+00 0.000000000000000e+00 0.000000000000000e+00
0.000000000000000e+00 0.000000000000000e+00 0.000000000000000e+00

0.000000000000000e+00 0.000000000000000e+00 0.000000000000000e+00
0.000000000000000e+00 0.000000000000000e+00 0.000000000000000e+00
0.000000000000000e+00 0.000000000000000e+00 0.000000000000000e+00

0.000000000000000e+00 0.000000000000000e+00 0.000000000000000e+00
0.000000000000000e+00 0.000000000000000e+00 0.000000000000000e+00
0.000000000000000e+00 0.000000000000000e+00 0.000000000000000e+00

0.000000000000000e+00 0.000000000000000e+00 0.000000000000000e+00
0.000000000000000e+00 0.000000000000000e+00 0.000000000000000e+00
0.000000000000000e+00 0.000000000000000e+00 0.000000000000000e+00

0.000000000000000e+00 0.000000000000000e+00 0.000000000000000e+00
0.000000000000000e+00 0.000000000000000e+00 0.000000000000000e+00
0.000000000000000e+00 0.000000000000000e+00 0.000000000000000e+00

0.000000000000000e+00 0.000000000000000e+00 0.000000000000000e+00
0.000000000000000e+00 0.000000000000000e+00 0.000000000000000e+00
0.000000000000000e+00 0.000000000000000e+00 0.000000000000000e+00

0.000000000000000e+00 0.000000000000000e+00 0.000000000000000e+00
0.000000000000000e+00 0.000000000000000e+00 0.000000000000000e+00
0.000000000000000e+00 0.000000000000000e+00 0.000000000000000e+00

0.000000000000000e+00 0.000000000000000e+00 0.000000000000000e+00
0.000000000000000e+00 0.000000000000000e+00 0.000000000000000e+00
0.000000000000000e+00 0.000000000000000e+00 0.000000000000000e+00

0.000000000000000e+00 0.000000000000000e+00 0.000000000000000e+00
0.000000000000000e+00 0.000000000000000e+00 0.000000000000000e+00
0.000000000000000e+00 0.000000000000000e+00 0.000000000000000e+00

0.000000000000000e+00 0.000000000000000e+00 0.000000000000000e+00
0.000000000000000e+00 0.000000000000000e+00 0.000000000000000e+00
0.000000000000000e+00 0.000000000000000e+00 0.000000000000000e+00

0.000000000000000e+00 0.000000000000000e+00 0.000000000000000e+00
0.000000000000000e+00 0.000000000000000e+00 0.000000000000000e+00
0.000000000000000e+00 0.000000000000000e+00 0.000000000000000e+00

0.000000000000000e+00 0.000000000000000e+00 0.000000000000000e+00
0.000000000000000e+00 0.000000000000000e+00 0.000000000000000e+00
0.000000000000000e+00 0.000000000000000e+00 0.000000000000000e+00

0.000000000000000e+00 0.000000000000000e+00 0.000000000000000e+00
0.000000000000000e+00 0.000000000000000e+00 0.000000000000000e+00
0.000000000000000e+00 0.000000000000000e+00 0.000000000000000e+00

0.000000000000000e+00 0.000000000000000e+00 0.000000000000000e+00
0.000000000000000e+00 0.000000000000000e+00 0.000000000000000e+00
0.000000000000000e+00 0.000000000000000e+00 0.000000000000000e+00

0.000000000000000e+00 0.000000000000000e+00 0.000000000000000e+00
0.000000000000000e+00 0.000000000000000e+00 0.000000000000000e+00
0.000000000000000e+00 0.000000000000000e+00 0.000000000000000e+00

0.000000000000000e+00 0.000000000000000e+00 0.000000000000000e+00
0.000000000000000e+00 0.000000000000000e+00 0.000000000000000e+00
0.000000000000000e+00 0.000000000000000e+00 0.000000000000000e+00

0.000000000000000e+00 0.000000000000000e+00 0.000000000000000e+00
0.000000000000000e+00 0.000000000000000e+00 0.000000000000000e+00
0.000000000000000e+00 0.000000000000000e+00 0.000000000000000e+00

0.000000000000000e+00 0.000000000000000e+00 0.000000000000000e+00
0.000000000000000e+00 0.000000000000000e+00 0.000000000000000e+00
0.000000000000000e+00 0.000000000000000e+00 0.000000000000000e+00

0.000000000000000e+00 0.000000000000000e+00 0.000000000000000e+00
0.000000000000000e+00 0.000000000000000e+00 0.000000000000000e+00
0.000000000000000e+00 0.000000000000000e+00 0.000000000000000e+00

0.000000000000000e+00 0.000000000000000e+00 0.000000000000000e+00
0.000000000000000e+00 0.000000000000000e+00 0.000000000000000e+00
0.000000000000000e+00 0.000000000000000e+00 0.000000000000000e+00

0.000000000000000e+00 0.000000000000000e+00 0.000000000000000e+00
0.000000000000000e+00 0.000000000000000e+00 0.000000000000000e+00
0.000000000000000e+00 0.000000000000000e+00 0.000000000000000e+00

0.000000000000000e+00 0.000000000000000e+00 0.000000000000000e+00
0.000000000000000e+00 0.000000000000000e+00 0.000000000000000e+00
0.000000000000000e+00 0.000000000000000e+00 0.000000000000000e+00

0.000000000000000e+00 0.000000000000000e+00 0.000000000000000e+00
0.000000000000000e+00 0.000000000000000e+00 0.000000000000000e+00
0.000000000000000e+00 0.000000000000000e+00 0.000000000000000e+00

0.000000000000000e+00 0.000000000000000e+00 0.000000000000000e+00
0.000000000000000e+00 0.000000000000000e+00 0.000000000000000e+00
0.000000000000000e+00 0.000000000000000e+00 0.000000000000000e+00

0.000000000000000e+00 0.000000000000000e+00 0.000000000000000e+00
0.000000000000000e+00 0.000000000000000e+00 0.000000000000000e+00
0.000000000000000e+00 0.000000000000000e+00 0.000000000000000e+00

0.000000000000000e+00 0.000000000000000e+00 0.000000000000000e+00
0.000000000000000e+00 0.000000000000000e+00 0.000000000000000e+00
0.000000000000000e+00 0.000000000000000e+00 0.000000000000000e+00

0.000000000000000e+00 0.000000000000000e+00 0.000000000000000e+00
0.000000000000000e+00 0.000000000000000e+00 0.000000000000000e+00
0.000000000000000e+00 0.000000000000000e+00 0.000000000000000e+00

0.000000000000000e+00 0.000000000000000e+00 0.000000000000000e+00
0.000000000000000e+00 0.000000000000000e+00 0.000000000000000e+00
0.000000000000000e+00 0.000000000000000e+00 0.000000000000000e+00

0.000000000000000e+00 0.000000000000000e+00 0.000000000000000e+00
0.000000000000000e+00 0.000000000000000e+00 0.000000000000000e+00
0.000000000000000e+00 0.000000000000000e+00 0.000000000000000e+00

0.000000000000000e+00 0.000000000000000e+00 0.000000000000000e+00
0.000000000000000e+00 0.000000000000000e+00 0.000000000000000e+00
0.000000000000000e+00 0.000000000000000e+00 0.000000000000000e+00

0.000000000000000e+00 0.000000000000000e+00 0.000000000000000e+00
0.000000000000000e+00 0.000000000000000e+00 0.000000000000000e+00
0.000000000000000e+00 0.000000000000000e+00 0.000000000000000e+00

0.000000000000000e+00 0.000000000000000e+00 0.000000000000000e+00
0.000000000000000e+00 0.000000000000000e+00 0.000000000000000e+00
0.000000000000000e+00 0.000000000000000e+00 0.000000000000000e+00

0.000000000000000e+00 0.000000000000000e+00 0.000000000000000e+00
0.000000000000000e+00 0.000000000000000e+00 0.000000000000000e+00
0.000000000000000e+00 0.000000000000000e+00 0.000000000000000e+00

0.000000000000000e+00 0.000000000000000e+00 0.000000000000000e+00
0.000000000000000e+00 0.000000000000000e+00 0.000000000000000e+00
0.000000000000000e+00 0.000000000000000e+00 0.000000000000000e+00

0.000000000000000e+00 0.000000000000000e+00 0.000000000000000e+00
0.000000000000000e+00 0.000000000000000e+00 0.000000000000000e+00
0.000000000000000e+00 0.000000000000000e+00 0.000000000000000e+00

0.000000000000000e+00 0.000000000000000e+00 0.000000000000000e+00
0.000000000000000e+00 0.000000000000000e+00 0.000000000000000e+00
0.000000000000000e+00 0.000000000000000e+00 0.000000000000000e+00

0.000000000000000e+00 0.000000000000000e+00 0.000000000000000e+00
0.000000000000000e+00 0.000000000000000e+00 0.000000000000000e+00
0.000000000000000e+00 0.000000000000000e+00 0.000000000000000e+00

0.000000000000000e+00 0.000000000000000e+00 0.000000000000000e+00
0.000000000000000e+00 0.000000000000000e+00 0.000000000000000e+00
0.000000000000000e+00 0.000000000000000e+00 0.000000000000000e+00

0.000000000000000e+00 0.000000000000000e+00 0.000000000000000e+00
0.000000000000000e+00 0.000000000000000e+00 0.000000000000000e+00
0.000000000000000e+00 0.000000000000000e+00 0.000000000000000e+00

0.000000000000000e+00 0.000000000000000e+00 0.000000000000000e+00
0.000000000000000e+00 0.000000000000000e+00 0.000000000000000e+00
0.000000000000000e+00 0.000000000000000e+00 0.000000000000000e+00

0.000000000000000e+00 0.000000000000000e+00 0.000000000000000e+00
0.000000000000000e+00 0.000000000000000e+00 0.000000000000000e+00
0.000000000000000e+00 0.000000000000000e+00 0.000000000000000e+00

0.000000000000000e+00 0.000000000000000e+00 0.000000000000000e+00
0.000000000000000e+00 0.000000000000000e+00 0.000000000000000e+00
0.000000000000000e+00 0.000000000000000e+00 0.000000000000000e+00

0.000000000000000e+00 0.000000000000000e+00 0.000000000000000e+00
0.000000000000000e+00 0.000000000000000e+00 0.000000000000000e+00
0.000000000000000e+00 0.000000000000000e+00 0.000000000000000e+00

0.000000000000000e+00 0.000000000000000e+00 0.000000000000000e+00
0.000000000000000e+00 0.000000000000000e+00 0.000000000000000e+00
0.000000000000000e+00 0.000000000000000e+00 0.000000000000000e+00

0.000000000000000e+00 0.000000000000000e+00 0.000000000000000e+00
0.000000000000000e+00 0.000000000000000e+00 0.000000000000000e+00
0.000000000000000e+00 0.000000000000000e+00 0.000000000000000e+00

0.000000000000000e+00 0.000000000000000e+00 0.000000000000000e+00
0.000000000000000e+00 0.000000000000000e+00 0.000000000000000e+00
0.000000000000000e+00 0.000000000000000e+00 0.000000000000000e+00

0.000000000000000e+00 0.000000000000000e+00 0.000000000000000e+00
0.000000000000000e+00 0.000000000000000e+00 0.000000000000000e+00
0.000000000000000e+00 0.000000000000000e+00 0.000000000000000e+00

0.000000000000000e+00 0.000000000000000e+00 0.000000000000000e+00
0.000000000000000e+00 0.000000000000000e+00 0.000000000000000e+00
0.000000000000000e+00 0.000000000000000e+00 0.000000000000000e+00

0.000000000000000e+00 0.000000000000000e+00 0.000000000000000e+00
0.000000000000000e+00 0.000000000000000e+00 0.000000000000000e+00
0.000000000000000e+00 0.000000000000000e+00 0.000000000000000e+00

0.000000000000000e+00 0.000000000000000e+00 0.000000000000000e+00
0.000000000000000e+00 0.000000000000000e+00 0.000000000000000e+00
0.000000000000000e+00 0.000000000000000e+00 0.000000000000000e+00

0.000000000000000e+00 0.000000000000000e+00 0.000000000000000e+00
0.000000000000000e+00 0.000000000000000e+00 0.000000000000000e+00
0.000000000000000e+00 0.000000000000000e+00 0.000000000000000e+00

0.000000000000000e+00 0.000000000000000e+00 0.000000000000000e+00
0.000000000000000e+00 0.000000000000000e+00 0.000000000000000e+00
0.000000000000000e+00 0.000000000000000e+00 0.000000000000000e+00

0.000000000000000e+00 0.000000000000000e+00 0.000000000000000e+00
0.000000000000000e+00 0.000000000000000e+00 0.000000000000000e+00
0.000000000000000e+00 0.000000000000000e+00 0.000000000000000e+00

0.000000000000000e+00 0.000000000000000e+00 0.000000000000000e+00
0.000000000000000e+00 0.000000000000000e+00 0.000000000000000e+00
0.000000000000000e+00 0.000000000000000e+00 0.000000000000000e+00

0.000000000000000e+00 0.000000000000000e+00 0.000000000000000e+00
0.000000000000000e+00 0.000000000000000e+00 0.000000000000000e+00
0.000000000000000e+00 0.000000000000000e+00 0.000000000000000e+00

0.000000000000000e+00 0.000000000000000e+00 0.000000000000000e+00
0.000000000000000e+00 0.000000000000000e+00 0.000000000000000e+00
0.000000000000000e+00 0.000000000000000e+00 0.000000000000000e+00

0.000000000000000e+00 0.000000000000000e+00 0.000000000000000e+00
0.000000000000000e+00 0.000000000000000e+00 0.000000000000000e+00
0.000000000000000e+00 0.000000000000000e+00 0.000000000000000e+00

0.000000000000000e+00 0.000000000000000e+00 0.000000000000000e+00
0.000000000000000e+00 0.000000000000000e+00 0.000000000000000e+00
0.000000000000000e+00 0.000000000000000e+00 0.000000000000000e+00

0.000000000000000e+00 0.000000000000000e+00 0.000000000000000e+00
0.000000000000000e+00 0.000000000000000e+00 0.000000000000000e+00
0.000000000000000e+00 0.000000000000000e+00 0.000000000000000e+00

0.000000000000000e+00 0.000000000000000e+00 0.000000000000000e+00
0.000000000000000e+00 0.000000000000000e+00 0.000000000000000e+00
0.000000000000000e+00 0.000000000000000e+00 0.000000000000000e+00

0.000000000000000e+00 0.000000000000000e+00 0.000000000000000e+00
0.000000000000000e+00 0.000000000000000e+00 0.000000000000000e+00
0.000000000000000e+00 0.000000000000000e+00 0.000000000000000e+00

0.000000000000000e+00 0.000000000000000e+00 0.000000000000000e+00
0.000000000000000e+00 0.000000000000000e+00 0.000000000000000e+00
0.000000000000000e+00 0.000000000000000e+00 0.000000000000000e+00

0.000000000000000e+00 0.000000000000000e+00 0.000000000000000e+00
0.000000000000000e+00 0.000000000000000e+00 0.000000000000000e+00
0.000000000000000e+00 0.000000000000000e+00 0.000000000000000e+00

0.000000000000000e+00 0.000000000000000e+00 0.000000000000000e+00
0.000000000000000e+00 0.000000000000000e+00 0.000000000000000e+00
0.000000000000000e+00 0.000000000000000e+00 0.000000000000000e+00

0.000000000000000e+00 0.000000000000000e+00 0.000000000000000e+00
0.000000000000000e+00 0.000000000000000e+00 0.000000000000000e+00
0.000000000000000e+00 0.000000000000000e+00 0.000000000000000e+00

0.000000000000000e+00 0.000000000000000e+00 0.000000000000000e+00
0.000000000000000e+00 0.000000000000000e+00 0.000000000000000e+00
0.000000000000000e+00 0.000000000000000e+00 0.000000000000000e+00

0.000000000000000e+00 0.000000000000000e+00 0.000000000000000e+00
0.000000000000000e+00 0.000000000000000e+00 0.000000000000000e+00
0.000000000000000e+00 0.000000000000000e+00 0.000000000000000e+00

0.000000000000000e+00 0.000000000000000e+00 0.000000000000000e+00
0.000000000000000e+00 0.000000000000000e+00 0.000000000000000e+00
0.000000000000000e+00 0.000000000000000e+00 0.000000000000000e+00

0.000000000000000e+00 0.000000000000000e+00 0.000000000000000e+00
0.000000000000000e+00 0.000000000000000e+00 0.000000000000000e+00
0.000000000000000e+00 0.000000000000000e+00 0.000000000000000e+00

0.000000000000000e+00 0.000000000000000e+00 0.000000000000000e+00
0.000000000000000e+00 0.000000000000000e+00 0.000000000000000e+00
0.000000000000000e+00 0.000000000000000e+00 0.000000000000000e+00

0.000000000000000e+00 0.000000000000000e+00 0.000000000000000e+00
0.000000000000000e+00 0.000000000000000e+00 0.000000000000000e+00
0.000000000000000e+00 0.000000000000000e+00 0.000000000000000e+00

0.000000000000000e+00 0.000000000000000e+00 0.000000000000000e+00
0.000000000000000e+00 0.000000000000000e+00 0.000000000000000e+00
0.000000000000000e+00 0.000000000000000e+00 0.000000000000000e+00

0.000000000000000e+00 0.000000000000000e+00 0.000000000000000e+00
0.000000000000000e+00 0.000000000000000e+00 0.000000000000000e+00
0.000000000000000e+00 0.000000000000000e+00 0.000000000000000e+00

0.000000000000000e+00 0.000000000000000e+00 0.000000000000000e+00
0.000000000000000e+00 0.000000000000000e+00 0.000000000000000e+00
0.000000000000000e+00 0.000000000000000e+00 0.000000000000000e+00

0.000000000000000e+00 0.000000000000000e+00 0.000000000000000e+00
0.000000000000000e+00 0.000000000000000e+00 0.000000000000000e+00
0.000000000000000e+00 0.000000000000000e+00 0.000000000000000e+00

0.000000000000000e+00 0.000000000000000e+00 0.000000000000000e+00
0.000000000000000e+00 0.000000000000000e+00 0.000000000000000e+00
0.000000000000000e+00 0.000000000000000e+00 0.000000000000000e+00

0.000000000000000e+00 0.000000000000000e+00 0.000000000000000e+00
0.000000000000000e+00 0.000000000000000e+00 0.000000000000000e+00
0.000000000000000e+00 0.000000000000000e+00 0.000000000000000e+00

0.000000000000000e+00 0.000000000000000e+00 0.000000000000000e+00
0.000000000000000e+00 0.000000000000000e+00 0.000000000000000e+00
0.000000000000000e+00 0.000000000000000e+00 0.000000000000000e+00

0.000000000000000e+00 0.000000000000000e+00 0.000000000000000e+00
0.000000000000000e+00 0.000000000000000e+00 0.000000000000000e+00
0.000000000000000e+00 0.000000000000000e+00 0.000000000000000e+00

0.000000000000000e+00 0.000000000000000e+00 0.000000000000000e+00
0.000000000000000e+00 0.000000000000000e+00 0.000000000000000e+00
0.000000000000000e+00 0.000000000000000e+00 0.000000000000000e+00

0.000000000000000e+00 0.000000000000000e+00 0.000000000000000e+00
0.000000000000000e+00 0.000000000000000e+00 0.000000000000000e+00
0.000000000000000e+00 0.000000000000000e+00 0.000000000000000e+00

0.000000000000000e+00 0.000000000000000e+00 0.000000000000000e+00
0.000000000000000e+00 0.000000000000000e+00 0.000000000000000e+00
0.000000000000000e+00 0.000000000000000e+00 0.000000000000000e+00

0.000000000000000e+00 0.000000000000000e+00 0.000000000000000e+00
0.000000000000000e+00 0.000000000000000e+00 0.000000000000000e+00
0.000000000000000e+00 0.000000000000000e+00 0.000000000000000e+00

0.000000000000000e+00 0.000000000000000e+00 0.000000000000000e+00
0.000000000000000e+00 0.000000000000000e+00 0.000000000000000e+00
0.000000000000000e+00 0.000000000000000e+00 0.000000000000000e+00

0.000000000000000e+00 0.000000000000000e+00 0.000000000000000e+00
0.000000000000000e+00 0.000000000000000e+00 0.000000000000000e+00
0.000000000000000e+00 0.000000000000000e+00 0.000000000000000e+00

0.000000000000000e+00 0.000000000000000e+00 0.000000000000000e+00
0.000000000000000e+00 0.000000000000000e+00 0.000000000000000e+00
0.000000000000000e+00 0.000000000000000e+00 0.000000000000000e+00

0.000000000000000e+00 0.000000000000000e+00 0.000000000000000e+00
0.000000000000000e+00 0.000000000000000e+00 0.000000000000000e+00
0.000000000000000e+00 0.000000000000000e+00 0.000000000000000e+00

0.000000000000000e+00 0.000000000000000e+00 0.000000000000000e+00
0.000000000000000e+00 0.000000000000000e+00 0.000000000000000e+00
0.000000000000000e+00 0.000000000000000e+00 0.000000000000000e+00

0.000000000000000e+00 0.000000000000000e+00 0.000000000000000e+00
0.000000000000000e+00 0.000000000000000e+00 0.000000000000000e+00
0.000000000000000e+00 0.000000000000000e+00 0.000000000000000e+00

0.000000000000000e+00 0.000000000000000e+00 0.000000000000000e+00
0.000000000000000e+00 0.000000000000000e+00 0.000000000000000e+00
0.000000000000000e+00 0.000000000000000e+00 0.000000000000000e+00

0.000000000000000e+00 0.000000000000000e+00 0.000000000000000e+00
0.000000000000000e+00 0.000000000000000e+00 0.000000000000000e+00
0.000000000000000e+00 0.000000000000000e+00 0.000000000000000e+00

0.000000000000000e+00 0.000000000000000e+00 0.000000000000000e+00
0.000000000000000e+00 0.000000000000000e+00 0.000000000000000e+00
0.000000000000000e+00 0.000000000000000e+00 0.000000000000000e+00

0.000000000000000e+00 0.000000000000000e+00 0.000000000000000e+00
0.000000000000000e+00 0.000000000000000e+00 0.000000000000000e+00
0.000000000000000e+00 0.000000000000000e+00 0.000000000000000e+00

0.000000000000000e+00 0.000000000000000e+00 0.000000000000000e+00
0.000000000000000e+00 0.000000000000000e+00 0.000000000000000e+00
0.000000000000000e+00 0.000000000000000e+00 0.000000000000000e+00

0.000000000000000e+00 0.000000000000000e+00 0.000000000000000e+00
0.000000000000000e+00 0.000000000000000e+00 0.000000000000000e+00
0.000000000000000e+00 0.000000000000000e+00 0.000000000000000e+00

0.000000000000000e+00 0.000000000000000e+00 0.000000000000000e+00
0.000000000000000e+00 0.000000000000000e+00 0.000000000000000e+00
0.000000000000000e+00 0.000000000000000e+00 0.000000000000000e+00

0.000000000000000e+00 0.000000000000000e+00 0.000000000000000e+00
0.000000000000000e+00 0.000000000000000e+00 0.000000000000000e+00
0.000000000000000e+00 0.000000000000000e+00 0.000000000000000e+00

0.000000000000000e+00 0.000000000000000e+00 0.000000000000000e+00
0.000000000000000e+00 0.000000000000000e+00 0.000000000000000e+00
0.000000000000000e+00 0.000000000000000e+00 0.000000000000000e+00

0.000000000000000e+00 0.000000000000000e+00 0.000000000000000e+00
0.000000000000000e+00 0.000000000000000e+00 0.000000000000000e+00
0.000000000000000e+00 0.000000000000000e+00 0.000000000000000e+00

0.000000000000000e+00 0.000000000000000e+00 0.000000000000000e+00
0.000000000000000e+00 0.000000000000000e+00 0.000000000000000e+00
0.000000000000000e+00 0.000000000000000e+00 0.000000000000000e+00

0.000000000000000e+00 0.000000000000000e+00 0.000000000000000e+00
0.000000000000000e+00 0.000000000000000e+00 0.000000000000000e+00
0.000000000000000e+00 0.000000000000000e+00 0.000000000000000e+00

0.000000000000000e+00 0.000000000000000e+00 0.000000000000000e+00
0.000000000000000e+00 0.000000000000000e+00 0.000000000000000e+00
0.000000000000000e+00 0.000000000000000e+00 0.000000000000000e+00

0.000000000000000e+00 0.000000000000000e+00 0.000000000000000e+00
0.000000000000000e+00 0.000000000000000e+00 0.000000000000000e+00
0.000000000000000e+00 0.000000000000000e+00 0.000000000000000e+00

0.000000000000000e+00 0.000000000000000e+00 0.000000000000000e+00
0.000000000000000e+00 0.000000000000000e+00 0.000000000000000e+00
0.000000000000000e+00 0.000000000000000e+00 0.000000000000000e+00

0.000000000000000e+00 0.000000000000000e+00 0.000000000000000e+00
0.000000000000000e+00 0.000000000000000e+00 0.000000000000000e+00
0.000000000000000e+00 0.000000000000000e+00 0.000000000000000e+00

0.000000000000000e+00 0.000000000000000e+00 0.000000000000000e+00
0.000000000000000e+00 0.000000000000000e+00 0.000000000000000e+00
0.000000000000000e+00 0.000000000000000e+00 0.000000000000000e+00

0.000000000000000e+00 0.000000000000000e+00 0.000000000000000e+00
0.000000000000000e+00 0.000000000000000e+00 0.000000000000000e+00
0.000000000000000e+00 0.000000000000000e+00 0.000000000000000e+00

0.000000000000000e+00 0.000000000000000e+00 0.000000000000000e+00
0.000000000000000e+00 0.000000000000000e+00 0.000000000000000e+00
0.000000000000000e+00 0.000000000000000e+00 0.000000000000000e+00

0.000000000000000e+00 0.000000000000000e+00 0.000000000000000e+00
0.000000000000000e+00 0.000000000000000e+00 0.000000000000000e+00
0.000000000000000e+00 0.000000000000000e+00 0.000000000000000e+00

0.000000000000000e+00 0.000000000000000e+00 0.000000000000000e+00
0.000000000000000e+00 0.000000000000000e+00 0.000000000000000e+00
0.000000000000000e+00 0.000000000000000e+00 0.000000000000000e+00

0.000000000000000e+00 0.000000000000000e+00 0.000000000000000e+00
0.000000000000000e+00 0.000000000000000e+00 0.000000000000000e+00
0.000000000000000e+00 0.000000000000000e+00 0.000000000000000e+00

0.000000000000000e+00 0.000000000000000e+00 0.000000000000000e+00
0.000000000000000e+00 0.000000000000000e+00 0.000000000000000e+00
0.000000000000000e+00 0.000000000000000e+00 0.000000000000000e+00

0.000000000000000e+00 0.000000000000000e+00 0.000000000000000e+00
0.000000000000000e+00 0.000000000000000e+00 0.000000000000000e+00
0.000000000000000e+00 0.000000000000000e+00 0.000000000000000e+00

0.000000000000000e+00 0.000000000000000e+00 0.000000000000000e+00
0.000000000000000e+00 0.000000000000000e+00 0.000000000000000e+00
0.000000000000000e+00 0.000000000000000e+00 0.000000000000000e+00

0.000000000000000e+00 0.000000000000000e+00 0.000000000000000e+00
0.000000000000000e+00 0.000000000000000e+00 0.000000000000000e+00
0.000000000000000e+00 0.000000000000000e+00 0.000000000000000e+00

0.000000000000000e+00 0.000000000000000e+00 0.000000000000000e+00
0.000000000000000e+00 0.000000000000000e+00 0.000000000000000e+00
0.000000000000000e+00 0.000000000000000e+00 0.000000000000000e+00

0.000000000000000e+00 0.000000000000000e+00 0.000000000000000e+00
0.000000000000000e+00 0.000000000000000e+00 0.000000000000000e+00
0.000000000000000e+00 0.000000000000000e+00 0.000000000000000e+00

0.000000000000000e+00 0.000000000000000e+00 0.000000000000000e+00
0.000000000000000e+00 0.000000000000000e+00 0.000000000000000e+00
0.000000000000000e+00 0.000000000000000e+00 0.000000000000000e+00

0.000000000000000e+00 0.000000000000000e+00 0.000000000000000e+00
0.000000000000000e+00 0.000000000000000e+00 0.000000000000000e+00
0.000000000000000e+00 0.000000000000000e+00 0.000000000000000e+00

0.000000000000000e+00 0.000000000000000e+00 0.000000000000000e+00
0.000000000000000e+00 0.000000000000000e+00 0.000000000000000e+00
0.000000000000000e+00 0.000000000000000e+00 0.000000000000000e+00

0.000000000000000e+00 0.000000000000000e+00 0.000000000000000e+00
0.000000000000000e+00 0.000000000000000e+00 0.000000000000000e+00
0.000000000000000e+00 0.000000000000000e+00 0.000000000000000e+00

0.000000000000000e+00 0.000000000000000e+00 0.000000000000000e+00
0.000000000000000e+00 0.000000000000000e+00 0.000000000000000e+00
0.000000000000000e+00 0.000000000000000e+00 0.000000000000000e+00

0.000000000000000e+00 0.000000000000000e+00 0.000000000000000e+00
0.000000000000000e+00 0.000000000000000e+00 0.000000000000000e+00
0.000000000000000e+00 0.000000000000000e+00 0.000000000000000e+00

0.000000000000000e+00 0.000000000000000e+00 0.000000000000000e+00
0.000000000000000e+00 0.000000000000000e+00 0.000000000000000e+00
0.000000000000000e+00 0.000000000000000e+00 0.000000000000000e+00

0.000000000000000e+00 0.000000000000000e+00 0.000000000000000e+00
0.000000000000000e+00 0.000000000000000e+00 0.000000000000000e+00
0.000000000000000e+00 0.000000000000000e+00 0.000000000000000e+00

0.000000000000000e+00 0.000000000000000e+00 0.000000000000000e+00
0.000000000000000e+00 0.000000000000000e+00 0.000000000000000e+00
0.000000000000000e+00 0.000000000000000e+00 0.000000000000000e+00

0.000000000000000e+00 0.000000000000000e+00 0.000000000000000e+00
0.000000000000000e+00 0.000000000000000e+00 0.000000000000000e+00
0.000000000000000e+00 0.000000000000000e+00 0.000000000000000e+00

0.000000000000000e+00 0.000000000000000e+00 0.000000000000000e+00
0.000000000000000e+00 0.000000000000000e+00 0.000000000000000e+00
0.000000000000000e+00 0.000000000000000e+00 0.000000000000000e+00

0.000000000000000e+00 0.000000000000000e+00 0.000000000000000e+00
0.000000000000000e+00 0.000000000000000e+00 0.000000000000000e+00
0.000000000000000e+00 0.000000000000000e+00 0.000000000000000e+00

0.000000000000000e+00 0.000000000000000e+00 0.000000000000000e+00
0.000000000000000e+00 0.000000000000000e+00 0.000000000000000e+00
0.000000000000000e+00 0.000000000000000e+00 0.000000000000000e+00

0.000000000000000e+00 0.000000000000000e+00 0.000000000000000e+00
0.000000000000000e+00 0.000000000000000e+00 0.000000000000000e+00
0.000000000000000e+00 0.000000000000000e+00 0.000000000000000e+00

0.000000000000000e+00 0.000000000000000e+00 0.000000000000000e+00
0.000000000000000e+00 0.000000000000000e+00 0.000000000000000e+00
0.000000000000000e+00 0.000000000000000e+00 0.000000000000000e+00

0.000000000000000e+00 0.000000000000000e+00 0.000000000000000e+00
0.000000000000000e+00 0.000000000000000e+00 0.000000000000000e+00
0.000000000000000e+00 0.000000000000000e+00 0.000000000000000e+00

0.000000000000000e+00 0.000000000000000e+00 0.000000000000000e+00
0.000000000000000e+00 0.000000000000000e+00 0.000000000000000e+00
0.000000000000000e+00 0.000000000000000e+00 0.000000000000000e+00

0.000000000000000e+00 0.000000000000000e+00 0.000000000000000e+00
0.000000000000000e+00 0.000000000000000e+00 0.000000000000000e+00
0.000000000000000e+00 0.000000000000000e+00 0.000000000000000e+00

0.000000000000000e+00 0.000000000000000e+00 0.000000000000000e+00
0.000000000000000e+00 0.000000000000000e+00 0.000000000000000e+00
0.000000000000000e+00 0.000000000000000e+00 0.000000000000000e+00

0.000000000000000e+00 0.000000000000000e+00 0.000000000000000e+00
0.000000000000000e+00 0.000000000000000e+00 0.000000000000000e+00
0.000000000000000e+00 0.000000000000000e+00 0.000000000000000e+00

0.000000000000000e+00 0.000000000000000e+00 0.000000000000000e+00
0.000000000000000e+00 0.000000000000000e+00 0.000000000000000e+00
0.000000000000000e+00 0.000000000000000e+00 0.000000000000000e+00

0.000000000000000e+00 0.000000000000000e+00 0.000000000000000e+00
0.000000000000000e+00 0.000000000000000e+00 0.000000000000000e+00
0.000000000000000e+00 0.000000000000000e+00 0.000000000000000e+00

0.000000000000000e+00 0.000000000000000e+00 0.000000000000000e+00
0.000000000000000e+00 0.000000000000000e+00 0.000000000000000e+00
0.000000000000000e+00 0.000000000000000e+00 0.000000000000000e+00

0.000000000000000e+00 0.000000000000000e+00 0.000000000000000e+00
0.000000000000000e+00 0.000000000000000e+00 0.000000000000000e+00
0.000000000000000e+00 0.000000000000000e+00 0.000000000000000e+00

0.000000000000000e+00 0.000000000000000e+00 0.000000000000000e+00
0.000000000000000e+00 0.000000000000000e+00 0.000000000000000e+00
0.000000000000000e+00 0.000000000000000e+00 0.000000000000000e+00

0.000000000000000e+00 0.000000000000000e+00 0.000000000000000e+00
0.000000000000000e+00 0.000000000000000e+00 0.000000000000000e+00
0.000000000000000e+00 0.000000000000000e+00 0.000000000000000e+00

0.000000000000000e+00 0.000000000000000e+00 0.000000000000000e+00
0.000000000000000e+00 0.000000000000000e+00 0.000000000000000e+00
0.000000000000000e+00 0.000000000000000e+00 0.000000000000000e+00

0.000000000000000e+00 0.000000000000000e+00 0.000000000000000e+00
0.000000000000000e+00 0.000000000000000e+00 0.000000000000000e+00
0.000000000000000e+00 0.000000000000000e+00 0.000000000000000e+00

0.000000000000000e+00 0.000000000000000e+00 0.000000000000000e+00
0.000000000000000e+00 0.000000000000000e+00 0.000000000000000e+00
0.000000000000000e+00 0.000000000000000e+00 0.000000000000000e+00

0.000000000000000e+00 0.000000000000000e+00 0.000000000000000e+00
0.000000000000000e+00 0.000000000000000e+00 0.000000000000000e+00
0.000000000000000e+00 0.000000000000000e+00 0.000000000000000e+00

0.000000000000000e+00 0.000000000000000e+00 0.000000000000000e+00
0.000000000000000e+00 0.000000000000000e+00 0.000000000000000e+00
0.000000000000000e+00 0.000000000000000e+00 0.000000000000000e+00

0.000000000000000e+00 0.000000000000000e+00 0.000000000000000e+00
0.000000000000000e+00 0.000000000000000e+00 0.000000000000000e+00
0.000000000000000e+00 0.000000000000000e+00 0.000000000000000e+00

0.000000000000000e+00 0.000000000000000e+00 0.000000000000000e+00
0.000000000000000e+00 0.000000000000000e+00 0.000000000000000e+00
0.000000000000000e+00 0.000000000000000e+00 0.000000000000000e+00

0.000000000000000e+00 0.000000000000000e+00 0.000000000000000e+00
0.000000000000000e+00 0.000000000000000e+00 0.000000000000000e+00
0.000000000000000e+00 0.000000000000000e+00 0.000000000000000e+00

0.000000000000000e+00 0.000000000000000e+00 0.000000000000000e+00
0.000000000000000e+00 0.000000000000000e+00 0.000000000000000e+00
0.000000000000000e+00 0.000000000000000e+00 0.000000000000000e+00

0.000000000000000e+00 0.000000000000000e+00 0.000000000000000e+00
0.000000000000000e+00 0.000000000000000e+00 0.000000000000000e+00
0.000000000000000e+00 0.000000000000000e+00 0.000000000000000e+00

0.000000000000000e+00 0.000000000000000e+00 0.000000000000000e+00
0.000000000000000e+00 0.000000000000000e+00 0.000000000000000e+00
0.000000000000000e+00 0.000000000000000e+00 0.000000000000000e+00

0.000000000000000e+00 0.000000000000000e+00 0.000000000000000e+00
0.000000000000000e+00 0.000000000000000e+00 0.000000000000000e+00
0.000000000000000e+00 0.000000000000000e+00 0.000000000000000e+00

0.000000000000000e+00 0.000000000000000e+00 0.000000000000000e+00
0.000000000000000e+00 0.000000000000000e+00 0.000000000000000e+00
0.000000000000000e+00 0.000000000000000e+00 0.000000000000000e+00

0.000000000000000e+00 0.000000000000000e+00 0.000000000000000e+00
0.000000000000000e+00 0.000000000000000e+00 0.000000000000000e+00
0.000000000000000e+00 0.000000000000000e+00 0.000000000000000e+00

0.000000000000000e+00 0.000000000000000e+00 0.000000000000000e+00
0.000000000000000e+00 0.000000000000000e+00 0.000000000000000e+00
0.000000000000000e+00 0.000000000000000e+00 0.000000000000000e+00

0.000000000000000e+00 0.000000000000000e+00 0.000000000000000e+00
0.000000000000000e+00 0.000000000000000e+00 0.000000000000000e+00
0.000000000000000e+00 0.000000000000000e+00 0.000000000000000e+00

0.000000000000000e+00 0.000000000000000e+00 0.000000000000000e+00
0.000000000000000e+00 0.000000000000000e+00 0.000000000000000e+00
0.000000000000000e+00 0.000000000000000e+00 0.000000000000000e+00

0.000000000000000e+00 0.000000000000000e+00 0.000000000000000e+00
0.000000000000000e+00 0.000000000000000e+00 0.000000000000000e+00
0.000000000000000e+00 0.000000000000000e+00 0.000000000000000e+00

0.000000000000000e+00 0.000000000000000e+00 0.000000000000000e+00
0.000000000000000e+00 0.000000000000000e+00 0.000000000000000e+00
0.000000000000000e+00 0.000000000000000e+00 0.000000000000000e+00

0.000000000000000e+00 0.000000000000000e+00 0.000000000000000e+00
0.000000000000000e+00 0.000000000000000e+00 0.000000000000000e+00
0.000000000000000e+00 0.000000000000000e+00 0.000000000000000e+00

0.000000000000000e+00 0.000000000000000e+00 0.000000000000000e+00
0.000000000000000e+00 0.000000000000000e+00 0.000000000000000e+00
0.000000000000000e+00 0.000000000000000e+00 0.000000000000000e+00

0.000000000000000e+00 0.000000000000000e+00 0.000000000000000e+00
0.000000000000000e+00 0.000000000000000e+00 0.000000000000000e+00
0.000000000000000e+00 0.000000000000000e+00 0.000000000000000e+00

0.000000000000000e+00 0.000000000000000e+00 0.000000000000000e+00
0.000000000000000e+00 0.000000000000000e+00 0.000000000000000e+00
0.000000000000000e+00 0.000000000000000e+00 0.000000000000000e+00

0.000000000000000e+00 0.000000000000000e+00 0.000000000000000e+00
0.000000000000000e+00 0.000000000000000e+00 0.000000000000000e+00
0.000000000000000e+00 0.000000000000000e+00 0.000000000000000e+00

0.000000000000000e+00 0.000000000000000e+00 0.000000000000000e+00
0.000000000000000e+00 0.000000000000000e+00 0.000000000000000e+00
0.000000000000000e+00 0.000000000000000e+00 0.000000000000000e+00

0.000000000000000e+00 0.000000000000000e+00 0.000000000000000e+00
0.000000000000000e+00 0.000000000000000e+00 0.000000000000000e+00
0.000000000000000e+00 0.000000000000000e+00 0.000000000000000e+00

0.000000000000000e+00 0.000000000000000e+00 0.000000000000000e+00
0.000000000000000e+00 0.000000000000000e+00 0.000000000000000e+00
0.000000000000000e+00 0.000000000000000e+00 0.000000000000000e+00

0.000000000000000e+00 0.000000000000000e+00 0.000000000000000e+00
0.000000000000000e+00 0.000000000000000e+00 0.000000000000000e+00
0.000000000000000e+00 0.000000000000000e+00 0.000000000000000e+00

0.000000000000000e+00 0.000000000000000e+00 0.000000000000000e+00
0.000000000000000e+00 0.000000000000000e+00 0.000000000000000e+00
0.000000000000000e+00 0.000000000000000e+00 0.000000000000000e+00

0.000000000000000e+00 0.000000000000000e+00 0.000000000000000e+00
0.000000000000000e+00 0.000000000000000e+00 0.000000000000000e+00
0.000000000000000e+00 0.000000000000000e+00 0.000000000000000e+00

0.000000000000000e+00 0.000000000000000e+00 0.000000000000000e+00
0.000000000000000e+00 0.000000000000000e+00 0.000000000000000e+00
0.000000000000000e+00 0.000000000000000e+00 0.000000000000000e+00

0.000000000000000e+00 0.000000000000000e+00 0.000000000000000e+00
0.000000000000000e+00 0.000000000000000e+00 0.000000000000000e+00
0.000000000000000e+00 0.000000000000000e+00 0.000000000000000e+00

0.000000000000000e+00 0.000000000000000e+00 0.000000000000000e+00
0.000000000000000e+00 0.000000000000000e+00 0.000000000000000e+00
0.000000000000000e+00 0.000000000000000e+00 0.000000000000000e+00

0.000000000000000e+00 0.000000000000000e+00 0.000000000000000e+00
0.000000000000000e+00 0.000000000000000e+00 0.000000000000000e+00
0.000000000000000e+00 0.000000000000000e+00 0.000000000000000e+00

0.000000000000000e+00 0.000000000000000e+00 0.000000000000000e+00
0.000000000000000e+00 0.000000000000000e+00 0.000000000000000e+00
0.000000000000000e+00 0.000000000000000e+00 0.000000000000000e+00

0.000000000000000e+00 0.000000000000000e+00 0.000000000000000e+00
0.000000000000000e+00 0.000000000000000e+00 0.000000000000000e+00
0.000000000000000e+00 0.000000000000000e+00 0.000000000000000e+00

0.000000000000000e+00 0.000000000000000e+00 0.000000000000000e+00
0.000000000000000e+00 0.000000000000000e+00 0.000000000000000e+00
0.000000000000000e+00 0.000000000000000e+00 0.000000000000000e+00

0.000000000000000e+00 0.000000000000000e+00 0.000000000000000e+00
0.000000000000000e+00 0.000000000000000e+00 0.000000000000000e+00
0.000000000000000e+00 0.000000000000000e+00 0.000000000000000e+00

0.000000000000000e+00 0.000000000000000e+00 0.000000000000000e+00
0.000000000000000e+00 0.000000000000000e+00 0.000000000000000e+00
0.000000000000000e+00 0.000000000000000e+00 0.000000000000000e+00

0.000000000000000e+00 0.000000000000000e+00 0.000000000000000e+00
0.000000000000000e+00 0.000000000000000e+00 0.000000000000000e+00
0.000000000000000e+00 0.000000000000000e+00 0.000000000000000e+00

0.000000000000000e+00 0.000000000000000e+00 0.000000000000000e+00
0.000000000000000e+00 0.000000000000000e+00 0.000000000000000e+00
0.000000000000000e+00 0.000000000000000e+00 0.000000000000000e+00

0.000000000000000e+00 0.000000000000000e+00 0.000000000000000e+00
0.000000000000000e+00 0.000000000000000e+00 0.000000000000000e+00
0.000000000000000e+00 0.000000000000000e+00 0.000000000000000e+00

0.000000000000000e+00 0.000000000000000e+00 0.000000000000000e+00
0.000000000000000e+00 0.000000000000000e+00 0.000000000000000e+00
0.000000000000000e+00 0.000000000000000e+00 0.000000000000000e+00

0.000000000000000e+00 0.000000000000000e+00 0.000000000000000e+00
0.000000000000000e+00 0.000000000000000e+00 0.000000000000000e+00
0.000000000000000e+00 0.000000000000000e+00 0.000000000000000e+00

0.000000000000000e+00 0.000000000000000e+00 0.000000000000000e+00
0.000000000000000e+00 0.000000000000000e+00 0.000000000000000e+00
0.000000000000000e+00 0.000000000000000e+00 0.000000000000000e+00

0.000000000000000e+00 0.000000000000000e+00 0.000000000000000e+00
0.000000000000000e+00 0.000000000000000e+00 0.000000000000000e+00
0.000000000000000e+00 0.000000000000000e+00 0.000000000000000e+00

0.000000000000000e+00 0.000000000000000e+00 0.000000000000000e+00
0.000000000000000e+00 0.000000000000000e+00 0.000000000000000e+00
0.000000000000000e+00 0.000000000000000e+00 0.000000000000000e+00

0.000000000000000e+00 0.000000000000000e+00 0.000000000000000e+00
0.000000000000000e+00 0.000000000000000e+00 0.000000000000000e+00
0.000000000000000e+00 0.000000000000000e+00 0.000000000000000e+00

0.000000000000000e+00 0.000000000000000e+00 0.000000000000000e+00
0.000000000000000e+00 0.000000000000000e+00 0.000000000000000e+00
0.000000000000000e+00 0.000000000000000e+00 0.000000000000000e+00

0.000000000000000e+00 0.000000000000000e+00 0.000000000000000e+00
0.000000000000000e+00 0.000000000000000e+00 0.000000000000000e+00
0.000000000000000e+00 0.000000000000000e+00 0.000000000000000e+00

0.000000000000000e+00 0.000000000000000e+00 0.000000000000000e+00
0.000000000000000e+00 0.000000000000000e+00 0.000000000000000e+00
0.000000000000000e+00 0.000000000000000e+00 0.000000000000000e+00

0.000000000000000e+00 0.000000000000000e+00 0.000000000000000e+00
0.000000000000000e+00 0.000000000000000e+00 0.000000000000000e+00
0.000000000000000e+00 0.000000000000000e+00 0.000000000000000e+00

0.000000000000000e+00 0.000000000000000e+00 0.000000000000000e+00
0.000000000000000e+00 0.000000000000000e+00 0.000000000000000e+00
0.000000000000000e+00 0.000000000000000e+00 0.000000000000000e+00

0.000000000000000e+00 0.000000000000000e+00 0.000000000000000e+00
0.000000000000000e+00 0.000000000000000e+00 0.000000000000000e+00
0.000000000000000e+00 0.000000000000000e+00 0.000000000000000e+00

0.000000000000000e+00 0.000000000000000e+00 0.000000000000000e+00
0.000000000000000e+00 0.000000000000000e+00 0.000000000000000e+00
0.000000000000000e+00 0.000000000000000e+00 0.000000000000000e+00

0.000000000000000e+00 0.000000000000000e+00 0.000000000000000e+00
0.000000000000000e+00 0.000000000000000e+00 0.000000000000000e+00
0.000000000000000e+00 0.000000000000000e+00 0.000000000000000e+00

0.000000000000000e+00 0.000000000000000e+00 0.000000000000000e+00
0.000000000000000e+00 0.000000000000000e+00 0.000000000000000e+00
0.000000000000000e+00 0.000000000000000e+00 0.000000000000000e+00

0.000000000000000e+00 0.000000000000000e+00 0.000000000000000e+00
0.000000000000000e+00 0.000000000000000e+00 0.000000000000000e+00
0.000000000000000e+00 0.000000000000000e+00 0.000000000000000e+00

0.000000000000000e+00 0.000000000000000e+00 0.000000000000000e+00
0.000000000000000e+00 0.000000000000000e+00 0.000000000000000e+00
0.000000000000000e+00 0.000000000000000e+00 0.000000000000000e+00

0.000000000000000e+00 0.000000000000000e+00 0.000000000000000e+00
0.000000000000000e+00 0.000000000000000e+00 0.000000000000000e+00
0.000000000000000e+00 0.000000000000000e+00 0.000000000000000e+00

0.000000000000000e+00 0.000000000000000e+00 0.000000000000000e+00
0.000000000000000e+00 0.000000000000000e+00 0.000000000000000e+00
0.000000000000000e+00 0.000000000000000e+00 0.000000000000000e+00

0.000000000000000e+00 0.000000000000000e+00 0.000000000000000e+00
0.000000000000000e+00 0.000000000000000e+00 0.000000000000000e+00
0.000000000000000e+00 0.000000000000000e+00 0.000000000000000e+00

0.000000000000000e+00 0.000000000000000e+00 0.000000000000000e+00
0.000000000000000e+00 0.000000000000000e+00 0.000000000000000e+00
0.000000000000000e+00 0.000000000000000e+00 0.000000000000000e+00

0.000000000000000e+00 0.000000000000000e+00 0.000000000000000e+00
0.000000000000000e+00 0.000000000000000e+00 0.000000000000000e+00
0.000000000000000e+00 0.000000000000000e+00 0.000000000000000e+00

0.000000000000000e+00 0.000000000000000e+00 0.000000000000000e+00
0.000000000000000e+00 0.000000000000000e+00 0.000000000000000e+00
0.000000000000000e+00 0.000000000000000e+00 0.000000000000000e+00

0.000000000000000e+00 0.000000000000000e+00 0.000000000000000e+00
0.000000000000000e+00 0.000000000000000e+00 0.000000000000000e+00
0.000000000000000e+00 0.000000000000000e+00 0.000000000000000e+00

0.000000000000000e+00 0.000000000000000e+00 0.000000000000000e+00
0.000000000000000e+00 0.000000000000000e+00 0.000000000000000e+00
0.000000000000000e+00 0.000000000000000e+00 0.000000000000000e+00

0.000000000000000e+00 0.000000000000000e+00 0.000000000000000e+00
0.000000000000000e+00 0.000000000000000e+00 0.000000000000000e+00
0.000000000000000e+00 0.000000000000000e+00 0.000000000000000e+00

0.000000000000000e+00 0.000000000000000e+00 0.000000000000000e+00
0.000000000000000e+00 0.000000000000000e+00 0.000000000000000e+00
0.000000000000000e+00 0.000000000000000e+00 0.000000000000000e+00

0.000000000000000e+00 0.000000000000000e+00 0.000000000000000e+00
0.000000000000000e+00 0.000000000000000e+00 0.000000000000000e+00
0.000000000000000e+00 0.000000000000000e+00 0.000000000000000e+00

0.000000000000000e+00 0.000000000000000e+00 0.000000000000000e+00
0.000000000000000e+00 0.000000000000000e+00 0.000000000000000e+00
0.000000000000000e+00 0.000000000000000e+00 0.000000000000000e+00

0.000000000000000e+00 0.000000000000000e+00 0.000000000000000e+00
0.000000000000000e+00 0.000000000000000e+00 0.000000000000000e+00
0.000000000000000e+00 0.000000000000000e+00 0.000000000000000e+00

0.000000000000000e+00 0.000000000000000e+00 0.000000000000000e+00
0.000000000000000e+00 0.000000000000000e+00 0.000000000000000e+00
0.000000000000000e+00 0.000000000000000e+00 0.000000000000000e+00

0.000000000000000e+00 0.000000000000000e+00 0.000000000000000e+00
0.000000000000000e+00 0.000000000000000e+00 0.000000000000000e+00
0.000000000000000e+00 0.000000000000000e+00 0.000000000000000e+00

0.000000000000000e+00 0.000000000000000e+00 0.000000000000000e+00
0.000000000000000e+00 0.000000000000000e+00 0.000000000000000e+00
0.000000000000000e+00 0.000000000000000e+00 0.000000000000000e+00

0.000000000000000e+00 0.000000000000000e+00 0.000000000000000e+00
0.000000000000000e+00 0.000000000000000e+00 0.000000000000000e+00
0.000000000000000e+00 0.000000000000000e+00 0.000000000000000e+00

0.000000000000000e+00 0.000000000000000e+00 0.000000000000000e+00
0.000000000000000e+00 0.000000000000000e+00 0.000000000000000e+00
0.000000000000000e+00 0.000000000000000e+00 0.000000000000000e+00

0.000000000000000e+00 0.000000000000000e+00 0.000000000000000e+00
0.000000000000000e+00 0.000000000000000e+00 0.000000000000000e+00
0.000000000000000e+00 0.000000000000000e+00 0.000000000000000e+00

0.000000000000000e+00 0.000000000000000e+00 0.000000000000000e+00
0.000000000000000e+00 0.000000000000000e+00 0.000000000000000e+00
0.000000000000000e+00 0.000000000000000e+00 0.000000000000000e+00

0.000000000000000e+00 0.000000000000000e+00 0.000000000000000e+00
0.000000000000000e+00 0.000000000000000e+00 0.000000000000000e+00
0.000000000000000e+00 0.000000000000000e+00 0.000000000000000e+00

0.000000000000000e+00 0.000000000000000e+00 0.000000000000000e+00
0.000000000000000e+00 0.000000000000000e+00 0.000000000000000e+00
0.000000000000000e+00 0.000000000000000e+00 0.000000000000000e+00

0.000000000000000e+00 0.000000000000000e+00 0.000000000000000e+00
0.000000000000000e+00 0.000000000000000e+00 0.000000000000000e+00
0.000000000000000e+00 0.000000000000000e+00 0.000000000000000e+00

0.000000000000000e+00 0.000000000000000e+00 0.000000000000000e+00
0.000000000000000e+00 0.000000000000000e+00 0.000000000000000e+00
0.000000000000000e+00 0.000000000000000e+00 0.000000000000000e+00

0.000000000000000e+00 0.000000000000000e+00 0.000000000000000e+00
0.000000000000000e+00 0.000000000000000e+00 0.000000000000000e+00
0.000000000000000e+00 0.000000000000000e+00 0.000000000000000e+00

0.000000000000000e+00 0.000000000000000e+00 0.000000000000000e+00
0.000000000000000e+00 0.000000000000000e+00 0.000000000000000e+00
0.000000000000000e+00 0.000000000000000e+00 0.000000000000000e+00

0.000000000000000e+00 0.000000000000000e+00 0.000000000000000e+00
0.000000000000000e+00 0.000000000000000e+00 0.000000000000000e+00
0.000000000000000e+00 0.000000000000000e+00 0.000000000000000e+00

0.000000000000000e+00 0.000000000000000e+00 0.000000000000000e+00
0.000000000000000e+00 0.000000000000000e+00 0.000000000000000e+00
0.000000000000000e+00 0.000000000000000e+00 0.000000000000000e+00

0.000000000000000e+00 0.000000000000000e+00 0.000000000000000e+00
0.000000000000000e+00 0.000000000000000e+00 0.000000000000000e+00
0.000000000000000e+00 0.000000000000000e+00 0.000000000000000e+00

0.000000000000000e+00 0.000000000000000e+00 0.000000000000000e+00
0.000000000000000e+00 0.000000000000000e+00 0.000000000000000e+00
0.000000000000000e+00 0.000000000000000e+00 0.000000000000000e+00

0.000000000000000e+00 0.000000000000000e+00 0.000000000000000e+00
0.000000000000000e+00 0.000000000000000e+00 0.000000000000000e+00
0.000000000000000e+00 0.000000000000000e+00 0.000000000000000e+00

0.000000000000000e+00 0.000000000000000e+00 0.000000000000000e+00
0.000000000000000e+00 0.000000000000000e+00 0.000000000000000e+00
0.000000000000000e+00 0.000000000000000e+00 0.000000000000000e+00

0.000000000000000e+00 0.000000000000000e+00 0.000000000000000e+00
0.000000000000000e+00 0.000000000000000e+00 0.000000000000000e+00
0.000000000000000e+00 0.000000000000000e+00 0.000000000000000e+00

0.000000000000000e+00 0.000000000000000e+00 0.000000000000000e+00
0.000000000000000e+00 0.000000000000000e+00 0.000000000000000e+00
0.000000000000000e+00 0.000000000000000e+00 0.000000000000000e+00

0.000000000000000e+00 0.000000000000000e+00 0.000000000000000e+00
0.000000000000000e+00 0.000000000000000e+00 0.000000000000000e+00
0.000000000000000e+00 0.000000000000000e+00 0.000000000000000e+00

0.000000000000000e+00 0.000000000000000e+00 0.000000000000000e+00
0.000000000000000e+00 0.000000000000000e+00 0.000000000000000e+00
0.000000000000000e+00 0.000000000000000e+00 0.000000000000000e+00

0.000000000000000e+00 0.000000000000000e+00 0.000000000000000e+00
0.000000000000000e+00 0.000000000000000e+00 0.000000000000000e+00
0.000000000000000e+00 0.000000000000000e+00 0.000000000000000e+00

0.000000000000000e+00 0.000000000000000e+00 0.000000000000000e+00
0.000000000000000e+00 0.000000000000000e+00 0.000000000000000e+00
0.000000000000000e+00 0.000000000000000e+00 0.000000000000000e+00

0.000000000000000e+00 0.000000000000000e+00 0.000000000000000e+00
0.000000000000000e+00 0.000000000000000e+00 0.000000000000000e+00
0.000000000000000e+00 0.000000000000000e+00 0.000000000000000e+00

0.000000000000000e+00 0.000000000000000e+00 0.000000000000000e+00
0.000000000000000e+00 0.000000000000000e+00 0.000000000000000e+00
0.000000000000000e+00 0.000000000000000e+00 0.000000000000000e+00

0.000000000000000e+00 0.000000000000000e+00 0.000000000000000e+00
0.000000000000000e+00 0.000000000000000e+00 0.000000000000000e+00
0.000000000000000e+00 0.000000000000000e+00 0.000000000000000e+00

0.000000000000000e+00 0.000000000000000e+00 0.000000000000000e+00
0.000000000000000e+00 0.000000000000000e+00 0.000000000000000e+00
0.000000000000000e+00 0.000000000000000e+00 0.000000000000000e+00

0.000000000000000e+00 0.000000000000000e+00 0.000000000000000e+00
0.000000000000000e+00 0.000000000000000e+00 0.000000000000000e+00
0.000000000000000e+00 0.000000000000000e+00 0.000000000000000e+00

0.000000000000000e+00 0.000000000000000e+00 0.000000000000000e+00
0.000000000000000e+00 0.000000000000000e+00 0.000000000000000e+00
0.000000000000000e+00 0.000000000000000e+00 0.000000000000000e+00

0.000000000000000e+00 0.000000000000000e+00 0.000000000000000e+00
0.000000000000000e+00 0.000000000000000e+00 0.000000000000000e+00
0.000000000000000e+00 0.000000000000000e+00 0.000000000000000e+00

0.000000000000000e+00 0.000000000000000e+00 0.000000000000000e+00
0.000000000000000e+00 0.000000000000000e+00 0.000000000000000e+00
0.000000000000000e+00 0.000000000000000e+00 0.000000000000000e+00

0.000000000000000e+00 0.000000000000000e+00 0.000000000000000e+00
0.000000000000000e+00 0.000000000000000e+00 0.000000000000000e+00
0.000000000000000e+00 0.000000000000000e+00 0.000000000000000e+00

0.000000000000000e+00 0.000000000000000e+00 0.000000000000000e+00
0.000000000000000e+00 0.000000000000000e+00 0.000000000000000e+00
0.000000000000000e+00 0.000000000000000e+00 0.000000000000000e+00

0.000000000000000e+00 0.000000000000000e+00 0.000000000000000e+00
0.000000000000000e+00 0.000000000000000e+00 0.000000000000000e+00
0.000000000000000e+00 0.000000000000000e+00 0.000000000000000e+00

0.000000000000000e+00 0.000000000000000e+00 0.000000000000000e+00
0.000000000000000e+00 0.000000000000000e+00 0.000000000000000e+00
0.000000000000000e+00 0.000000000000000e+00 0.000000000000000e+00

0.000000000000000e+00 0.000000000000000e+00 0.000000000000000e+00
0.000000000000000e+00 0.000000000000000e+00 0.000000000000000e+00
0.000000000000000e+00 0.000000000000000e+00 0.000000000000000e+00

0.000000000000000e+00 0.000000000000000e+00 0.000000000000000e+00
0.000000000000000e+00 0.000000000000000e+00 0.000000000000000e+00
0.000000000000000e+00 0.000000000000000e+00 0.000000000000000e+00

0.000000000000000e+00 0.000000000000000e+00 0.000000000000000e+00
0.000000000000000e+00 0.000000000000000e+00 0.000000000000000e+00
0.000000000000000e+00 0.000000000000000e+00 0.000000000000000e+00

0.000000000000000e+00 0.000000000000000e+00 0.000000000000000e+00
0.000000000000000e+00 0.000000000000000e+00 0.000000000000000e+00
0.000000000000000e+00 0.000000000000000e+00 0.000000000000000e+00

0.000000000000000e+00 0.000000000000000e+00 0.000000000000000e+00
0.000000000000000e+00 0.000000000000000e+00 0.000000000000000e+00
0.000000000000000e+00 0.000000000000000e+00 0.000000000000000e+00

0.000000000000000e+00 0.000000000000000e+00 0.000000000000000e+00
0.000000000000000e+00 0.000000000000000e+00 0.000000000000000e+00
0.000000000000000e+00 0.000000000000000e+00 0.000000000000000e+00

0.000000000000000e+00 0.000000000000000e+00 0.000000000000000e+00
0.000000000000000e+00 0.000000000000000e+00 0.000000000000000e+00
0.000000000000000e+00 0.000000000000000e+00 0.000000000000000e+00

0.000000000000000e+00 0.000000000000000e+00 0.000000000000000e+00
0.000000000000000e+00 0.000000000000000e+00 0.000000000000000e+00
0.000000000000000e+00 0.000000000000000e+00 0.000000000000000e+00

0.000000000000000e+00 0.000000000000000e+00 0.000000000000000e+00
0.000000000000000e+00 0.000000000000000e+00 0.000000000000000e+00
0.000000000000000e+00 0.000000000000000e+00 0.000000000000000e+00

0.000000000000000e+00 0.000000000000000e+00 0.000000000000000e+00
0.000000000000000e+00 0.000000000000000e+00 0.000000000000000e+00
0.000000000000000e+00 0.000000000000000e+00 0.000000000000000e+00

0.000000000000000e+00 0.000000000000000e+00 0.000000000000000e+00
0.000000000000000e+00 0.000000000000000e+00 0.000000000000000e+00
0.000000000000000e+00 0.000000000000000e+00 0.000000000000000e+00

0.000000000000000e+00 0.000000000000000e+00 0.000000000000000e+00
0.000000000000000e+00 0.000000000000000e+00 0.000000000000000e+00
0.000000000000000e+00 0.000000000000000e+00 0.000000000000000e+00

0.000000000000000e+00 0.000000000000000e+00 0.000000000000000e+00
0.000000000000000e+00 0.000000000000000e+00 0.000000000000000e+00
0.000000000000000e+00 0.000000000000000e+00 0.000000000000000e+00

0.000000000000000e+00 0.000000000000000e+00 0.000000000000000e+00
0.000000000000000e+00 0.000000000000000e+00 0.000000000000000e+00
0.000000000000000e+00 0.000000000000000e+00 0.000000000000000e+00

0.000000000000000e+00 0.000000000000000e+00 0.000000000000000e+00
0.000000000000000e+00 0.000000000000000e+00 0.000000000000000e+00
0.000000000000000e+00 0.000000000000000e+00 0.000000000000000e+00

0.000000000000000e+00 0.000000000000000e+00 0.000000000000000e+00
0.000000000000000e+00 0.000000000000000e+00 0.000000000000000e+00
0.000000000000000e+00 0.000000000000000e+00 0.000000000000000e+00

0.000000000000000e+00 0.000000000000000e+00 0.000000000000000e+00
0.000000000000000e+00 0.000000000000000e+00 0.000000000000000e+00
0.000000000000000e+00 0.000000000000000e+00 0.000000000000000e+00

0.000000000000000e+00 0.000000000000000e+00 0.000000000000000e+00
0.000000000000000e+00 0.000000000000000e+00 0.000000000000000e+00
0.000000000000000e+00 0.000000000000000e+00 0.000000000000000e+00

0.000000000000000e+00 0.000000000000000e+00 0.000000000000000e+00
0.000000000000000e+00 0.000000000000000e+00 0.000000000000000e+00
0.000000000000000e+00 0.000000000000000e+00 0.000000000000000e+00

0.000000000000000e+00 0.000000000000000e+00 0.000000000000000e+00
0.000000000000000e+00 0.000000000000000e+00 0.000000000000000e+00
0.000000000000000e+00 0.000000000000000e+00 0.000000000000000e+00

0.000000000000000e+00 0.000000000000000e+00 0.000000000000000e+00
0.000000000000000e+00 0.000000000000000e+00 0.000000000000000e+00
0.000000000000000e+00 0.000000000000000e+00 0.000000000000000e+00

0.000000000000000e+00 0.000000000000000e+00 0.000000000000000e+00
0.000000000000000e+00 0.000000000000000e+00 0.000000000000000e+00
0.000000000000000e+00 0.000000000000000e+00 0.000000000000000e+00

0.000000000000000e+00 0.000000000000000e+00 0.000000000000000e+00
0.000000000000000e+00 0.000000000000000e+00 0.000000000000000e+00
0.000000000000000e+00 0.000000000000000e+00 0.000000000000000e+00

0.000000000000000e+00 0.000000000000000e+00 0.000000000000000e+00
0.000000000000000e+00 0.000000000000000e+00 0.000000000000000e+00
0.000000000000000e+00 0.000000000000000e+00 0.000000000000000e+00

0.000000000000000e+00 0.000000000000000e+00 0.000000000000000e+00
0.000000000000000e+00 0.000000000000000e+00 0.000000000000000e+00
0.000000000000000e+00 0.000000000000000e+00 0.000000000000000e+00

0.000000000000000e+00 0.000000000000000e+00 0.000000000000000e+00
0.000000000000000e+00 0.000000000000000e+00 0.000000000000000e+00
0.000000000000000e+00 0.000000000000000e+00 0.000000000000000e+00

0.000000000000000e+00 0.000000000000000e+00 0.000000000000000e+00
0.000000000000000e+00 0.000000000000000e+00 0.000000000000000e+00
0.000000000000000e+00 0.000000000000000e+00 0.000000000000000e+00

0.000000000000000e+00 0.000000000000000e+00 0.000000000000000e+00
0.000000000000000e+00 0.000000000000000e+00 0.000000000000000e+00
0.000000000000000e+00 0.000000000000000e+00 0.000000000000000e+00

0.000000000000000e+00 0.000000000000000e+00 0.000000000000000e+00
0.000000000000000e+00 0.000000000000000e+00 0.000000000000000e+00
0.000000000000000e+00 0.000000000000000e+00 0.000000000000000e+00

0.000000000000000e+00 0.000000000000000e+00 0.000000000000000e+00
0.000000000000000e+00 0.000000000000000e+00 0.000000000000000e+00
0.000000000000000e+00 0.000000000000000e+00 0.000000000000000e+00

0.000000000000000e+00 0.000000000000000e+00 0.000000000000000e+00
0.000000000000000e+00 0.000000000000000e+00 0.000000000000000e+00
0.000000000000000e+00 0.000000000000000e+00 0.000000000000000e+00

0.000000000000000e+00 0.000000000000000e+00 0.000000000000000e+00
0.000000000000000e+00 0.000000000000000e+00 0.000000000000000e+00
0.000000000000000e+00 0.000000000000000e+00 0.000000000000000e+00

0.000000000000000e+00 0.000000000000000e+00 0.000000000000000e+00
0.000000000000000e+00 0.000000000000000e+00 0.000000000000000e+00
0.000000000000000e+00 0.000000000000000e+00 0.000000000000000e+00

0.000000000000000e+00 0.000000000000000e+00 0.000000000000000e+00
0.000000000000000e+00 0.000000000000000e+00 0.000000000000000e+00
0.000000000000000e+00 0.000000000000000e+00 0.000000000000000e+00

0.000000000000000e+00 0.000000000000000e+00 0.000000000000000e+00
0.000000000000000e+00 0.000000000000000e+00 0.000000000000000e+00
0.000000000000000e+00 0.000000000000000e+00 0.000000000000000e+00

0.000000000000000e+00 0.000000000000000e+00 0.000000000000000e+00
0.000000000000000e+00 0.000000000000000e+00 0.000000000000000e+00
0.000000000000000e+00 0.000000000000000e+00 0.000000000000000e+00

0.000000000000000e+00 0.000000000000000e+00 0.000000000000000e+00
0.000000000000000e+00 0.000000000000000e+00 0.000000000000000e+00
0.000000000000000e+00 0.000000000000000e+00 0.000000000000000e+00

0.000000000000000e+00 0.000000000000000e+00 0.000000000000000e+00
0.000000000000000e+00 0.000000000000000e+00 0.000000000000000e+00
0.000000000000000e+00 0.000000000000000e+00 0.000000000000000e+00

0.000000000000000e+00 0.000000000000000e+00 0.000000000000000e+00
0.000000000000000e+00 0.000000000000000e+00 0.000000000000000e+00
0.000000000000000e+00 0.000000000000000e+00 0.000000000000000e+00

0.000000000000000e+00 0.000000000000000e+00 0.000000000000000e+00
0.000000000000000e+00 0.000000000000000e+00 0.000000000000000e+00
0.000000000000000e+00 0.000000000000000e+00 0.000000000000000e+00

0.000000000000000e+00 0.000000000000000e+00 0.000000000000000e+00
0.000000000000000e+00 0.000000000000000e+00 0.000000000000000e+00
0.000000000000000e+00 0.000000000000000e+00 0.000000000000000e+00

0.000000000000000e+00 0.000000000000000e+00 0.000000000000000e+00
0.000000000000000e+00 0.000000000000000e+00 0.000000000000000e+00
0.000000000000000e+00 0.000000000000000e+00 0.000000000000000e+00

0.000000000000000e+00 0.000000000000000e+00 0.000000000000000e+00
0.000000000000000e+00 0.000000000000000e+00 0.000000000000000e+00
0.000000000000000e+00 0.000000000000000e+00 0.000000000000000e+00

0.000000000000000e+00 0.000000000000000e+00 0.000000000000000e+00
0.000000000000000e+00 0.000000000000000e+00 0.000000000000000e+00
0.000000000000000e+00 0.000000000000000e+00 0.000000000000000e+00

0.000000000000000e+00 0.000000000000000e+00 0.000000000000000e+00
0.000000000000000e+00 0.000000000000000e+00 0.000000000000000e+00
0.000000000000000e+00 0.000000000000000e+00 0.000000000000000e+00

0.000000000000000e+00 0.000000000000000e+00 0.000000000000000e+00
0.000000000000000e+00 0.000000000000000e+00 0.000000000000000e+00
0.000000000000000e+00 0.000000000000000e+00 0.000000000000000e+00

0.000000000000000e+00 0.000000000000000e+00 0.000000000000000e+00
0.000000000000000e+00 0.000000000000000e+00 0.000000000000000e+00
0.000000000000000e+00 0.000000000000000e+00 0.000000000000000e+00

0.000000000000000e+00 0.000000000000000e+00 0.000000000000000e+00
0.000000000000000e+00 0.000000000000000e+00 0.000000000000000e+00
0.000000000000000e+00 0.000000000000000e+00 0.000000000000000e+00

0.000000000000000e+00 0.000000000000000e+00 0.000000000000000e+00
0.000000000000000e+00 0.000000000000000e+00 0.000000000000000e+00
0.000000000000000e+00 0.000000000000000e+00 0.000000000000000e+00

0.000000000000000e+00 0.000000000000000e+00 0.000000000000000e+00
0.000000000000000e+00 0.000000000000000e+00 0.000000000000000e+00
0.000000000000000e+00 0.000000000000000e+00 0.000000000000000e+00

0.000000000000000e+00 0.000000000000000e+00 0.000000000000000e+00
0.000000000000000e+00 0.000000000000000e+00 0.000000000000000e+00
0.000000000000000e+00 0.000000000000000e+00 0.000000000000000e+00

0.000000000000000e+00 0.000000000000000e+00 0.000000000000000e+00
0.000000000000000e+00 0.000000000000000e+00 0.000000000000000e+00
0.000000000000000e+00 0.000000000000000e+00 0.000000000000000e+00

0.000000000000000e+00 0.000000000000000e+00 0.000000000000000e+00
0.000000000000000e+00 0.000000000000000e+00 0.000000000000000e+00
0.000000000000000e+00 0.000000000000000e+00 0.000000000000000e+00

0.000000000000000e+00 0.000000000000000e+00 0.000000000000000e+00
0.000000000000000e+00 0.000000000000000e+00 0.000000000000000e+00
0.000000000000000e+00 0.000000000000000e+00 0.000000000000000e+00

0.000000000000000e+00 0.000000000000000e+00 0.000000000000000e+00
0.000000000000000e+00 0.000000000000000e+00 0.000000000000000e+00
0.000000000000000e+00 0.000000000000000e+00 0.000000000000000e+00

0.000000000000000e+00 0.000000000000000e+00 0.000000000000000e+00
0.000000000000000e+00 0.000000000000000e+00 0.000000000000000e+00
0.000000000000000e+00 0.000000000000000e+00 0.000000000000000e+00

0.000000000000000e+00 0.000000000000000e+00 0.000000000000000e+00
0.000000000000000e+00 0.000000000000000e+00 0.000000000000000e+00
0.000000000000000e+00 0.000000000000000e+00 0.000000000000000e+00

0.000000000000000e+00 0.000000000000000e+00 0.000000000000000e+00
0.000000000000000e+00 0.000000000000000e+00 0.000000000000000e+00
0.000000000000000e+00 0.000000000000000e+00 0.000000000000000e+00

0.000000000000000e+00 0.000000000000000e+00 0.000000000000000e+00
0.000000000000000e+00 0.000000000000000e+00 0.000000000000000e+00
0.000000000000000e+00 0.000000000000000e+00 0.000000000000000e+00

0.000000000000000e+00 0.000000000000000e+00 0.000000000000000e+00
0.000000000000000e+00 0.000000000000000e+00 0.000000000000000e+00
0.000000000000000e+00 0.000000000000000e+00 0.000000000000000e+00

0.000000000000000e+00 0.000000000000000e+00 0.000000000000000e+00
0.000000000000000e+00 0.000000000000000e+00 0.000000000000000e+00
0.000000000000000e+00 0.000000000000000e+00 0.000000000000000e+00

0.000000000000000e+00 0.000000000000000e+00 0.000000000000000e+00
0.000000000000000e+00 0.000000000000000e+00 0.000000000000000e+00
0.000000000000000e+00 0.000000000000000e+00 0.000000000000000e+00

0.000000000000000e+00 0.000000000000000e+00 0.000000000000000e+00
0.000000000000000e+00 0.000000000000000e+00 0.000000000000000e+00
0.000000000000000e+00 0.000000000000000e+00 0.000000000000000e+00

0.000000000000000e+00 0.000000000000000e+00 0.000000000000000e+00
0.000000000000000e+00 0.000000000000000e+00 0.000000000000000e+00
0.000000000000000e+00 0.000000000000000e+00 0.000000000000000e+00

0.000000000000000e+00 0.000000000000000e+00 0.000000000000000e+00
0.000000000000000e+00 0.000000000000000e+00 0.000000000000000e+00
0.000000000000000e+00 0.000000000000000e+00 0.000000000000000e+00

0.000000000000000e+00 0.000000000000000e+00 0.000000000000000e+00
0.000000000000000e+00 0.000000000000000e+00 0.000000000000000e+00
0.000000000000000e+00 0.000000000000000e+00 0.000000000000000e+00

0.000000000000000e+00 0.000000000000000e+00 0.000000000000000e+00
0.000000000000000e+00 0.000000000000000e+00 0.000000000000000e+00
0.000000000000000e+00 0.000000000000000e+00 0.000000000000000e+00

0.000000000000000e+00 0.000000000000000e+00 0.000000000000000e+00
0.000000000000000e+00 0.000000000000000e+00 0.000000000000000e+00
0.000000000000000e+00 0.000000000000000e+00 0.000000000000000e+00

0.000000000000000e+00 0.000000000000000e+00 0.000000000000000e+00
0.000000000000000e+00 0.000000000000000e+00 0.000000000000000e+00
0.000000000000000e+00 0.000000000000000e+00 0.000000000000000e+00

0.000000000000000e+00 0.000000000000000e+00 0.000000000000000e+00
0.000000000000000e+00 0.000000000000000e+00 0.000000000000000e+00
0.000000000000000e+00 0.000000000000000e+00 0.000000000000000e+00

0.000000000000000e+00 0.000000000000000e+00 0.000000000000000e+00
0.000000000000000e+00 0.000000000000000e+00 0.000000000000000e+00
0.000000000000000e+00 0.000000000000000e+00 0.000000000000000e+00

0.000000000000000e+00 0.000000000000000e+00 0.000000000000000e+00
0.000000000000000e+00 0.000000000000000e+00 0.000000000000000e+00
0.000000000000000e+00 0.000000000000000e+00 0.000000000000000e+00

0.000000000000000e+00 0.000000000000000e+00 0.000000000000000e+00
0.000000000000000e+00 0.000000000000000e+00 0.000000000000000e+00
0.000000000000000e+00 0.000000000000000e+00 0.000000000000000e+00

0.000000000000000e+00 0.000000000000000e+00 0.000000000000000e+00
0.000000000000000e+00 0.000000000000000e+00 0.000000000000000e+00
0.000000000000000e+00 0.000000000000000e+00 0.000000000000000e+00

0.000000000000000e+00 0.000000000000000e+00 0.000000000000000e+00
0.000000000000000e+00 0.000000000000000e+00 0.000000000000000e+00
0.000000000000000e+00 0.000000000000000e+00 0.000000000000000e+00

0.000000000000000e+00 0.000000000000000e+00 0.000000000000000e+00
0.000000000000000e+00 0.000000000000000e+00 0.000000000000000e+00
0.000000000000000e+00 0.000000000000000e+00 0.000000000000000e+00

0.000000000000000e+00 0.000000000000000e+00 0.000000000000000e+00
0.000000000000000e+00 0.000000000000000e+00 0.000000000000000e+00
0.000000000000000e+00 0.000000000000000e+00 0.000000000000000e+00

0.000000000000000e+00 0.000000000000000e+00 0.000000000000000e+00
0.000000000000000e+00 0.000000000000000e+00 0.000000000000000e+00
0.000000000000000e+00 0.000000000000000e+00 0.000000000000000e+00

0.000000000000000e+00 0.000000000000000e+00 0.000000000000000e+00
0.000000000000000e+00 0.000000000000000e+00 0.000000000000000e+00
0.000000000000000e+00 0.000000000000000e+00 0.000000000000000e+00

0.000000000000000e+00 0.000000000000000e+00 0.000000000000000e+00
0.000000000000000e+00 0.000000000000000e+00 0.000000000000000e+00
0.000000000000000e+00 0.000000000000000e+00 0.000000000000000e+00

0.000000000000000e+00 0.000000000000000e+00 0.000000000000000e+00
0.000000000000000e+00 0.000000000000000e+00 0.000000000000000e+00
0.000000000000000e+00 0.000000000000000e+00 0.000000000000000e+00

0.000000000000000e+00 0.000000000000000e+00 0.000000000000000e+00
0.000000000000000e+00 0.000000000000000e+00 0.000000000000000e+00
0.000000000000000e+00 0.000000000000000e+00 0.000000000000000e+00

0.000000000000000e+00 0.000000000000000e+00 0.000000000000000e+00
0.000000000000000e+00 0.000000000000000e+00 0.000000000000000e+00
0.000000000000000e+00 0.000000000000000e+00 0.000000000000000e+00

0.000000000000000e+00 0.000000000000000e+00 0.000000000000000e+00
0.000000000000000e+00 0.000000000000000e+00 0.000000000000000e+00
0.000000000000000e+00 0.000000000000000e+00 0.000000000000000e+00

0.000000000000000e+00 0.000000000000000e+00 0.000000000000000e+00
0.000000000000000e+00 0.000000000000000e+00 0.000000000000000e+00
0.000000000000000e+00 0.000000000000000e+00 0.000000000000000e+00

0.000000000000000e+00 0.000000000000000e+00 0.000000000000000e+00
0.000000000000000e+00 0.000000000000000e+00 0.000000000000000e+00
0.000000000000000e+00 0.000000000000000e+00 0.000000000000000e+00

0.000000000000000e+00 0.000000000000000e+00 0.000000000000000e+00
0.000000000000000e+00 0.000000000000000e+00 0.000000000000000e+00
0.000000000000000e+00 0.000000000000000e+00 0.000000000000000e+00

0.000000000000000e+00 0.000000000000000e+00 0.000000000000000e+00
0.000000000000000e+00 0.000000000000000e+00 0.000000000000000e+00
0.000000000000000e+00 0.000000000000000e+00 0.000000000000000e+00

0.000000000000000e+00 0.000000000000000e+00 0.000000000000000e+00
0.000000000000000e+00 0.000000000000000e+00 0.000000000000000e+00
0.000000000000000e+00 0.000000000000000e+00 0.000000000000000e+00

0.000000000000000e+00 0.000000000000000e+00 0.000000000000000e+00
0.000000000000000e+00 0.000000000000000e+00 0.000000000000000e+00
0.000000000000000e+00 0.000000000000000e+00 0.000000000000000e+00

0.000000000000000e+00 0.000000000000000e+00 0.000000000000000e+00
0.000000000000000e+00 0.000000000000000e+00 0.000000000000000e+00
0.000000000000000e+00 0.000000000000000e+00 0.000000000000000e+00

0.000000000000000e+00 0.000000000000000e+00 0.000000000000000e+00
0.000000000000000e+00 0.000000000000000e+00 0.000000000000000e+00
0.000000000000000e+00 0.000000000000000e+00 0.000000000000000e+00

0.000000000000000e+00 0.000000000000000e+00 0.000000000000000e+00
0.000000000000000e+00 0.000000000000000e+00 0.000000000000000e+00
0.000000000000000e+00 0.000000000000000e+00 0.000000000000000e+00

0.000000000000000e+00 0.000000000000000e+00 0.000000000000000e+00
0.000000000000000e+00 0.000000000000000e+00 0.000000000000000e+00
0.000000000000000e+00 0.000000000000000e+00 0.000000000000000e+00

0.000000000000000e+00 0.000000000000000e+00 0.000000000000000e+00
0.000000000000000e+00 0.000000000000000e+00 0.000000000000000e+00
0.000000000000000e+00 0.000000000000000e+00 0.000000000000000e+00

0.000000000000000e+00 0.000000000000000e+00 0.000000000000000e+00
0.000000000000000e+00 0.000000000000000e+00 0.000000000000000e+00
0.000000000000000e+00 0.000000000000000e+00 0.000000000000000e+00

0.000000000000000e+00 0.000000000000000e+00 0.000000000000000e+00
0.000000000000000e+00 0.000000000000000e+00 0.000000000000000e+00
0.000000000000000e+00 0.000000000000000e+00 0.000000000000000e+00

0.000000000000000e+00 0.000000000000000e+00 0.000000000000000e+00
0.000000000000000e+00 0.000000000000000e+00 0.000000000000000e+00
0.000000000000000e+00 0.000000000000000e+00 0.000000000000000e+00

0.000000000000000e+00 0.000000000000000e+00 0.000000000000000e+00
0.000000000000000e+00 0.000000000000000e+00 0.000000000000000e+00
0.000000000000000e+00 0.000000000000000e+00 0.000000000000000e+00

0.000000000000000e+00 0.000000000000000e+00 0.000000000000000e+00
0.000000000000000e+00 0.000000000000000e+00 0.000000000000000e+00
0.000000000000000e+00 0.000000000000000e+00 0.000000000000000e+00

0.000000000000000e+00 0.000000000000000e+00 0.000000000000000e+00
0.000000000000000e+00 0.000000000000000e+00 0.000000000000000e+00
0.000000000000000e+00 0.000000000000000e+00 0.000000000000000e+00

0.000000000000000e+00 0.000000000000000e+00 0.000000000000000e+00
0.000000000000000e+00 0.000000000000000e+00 0.000000000000000e+00
0.000000000000000e+00 0.000000000000000e+00 0.000000000000000e+00

0.000000000000000e+00 0.000000000000000e+00 0.000000000000000e+00
0.000000000000000e+00 0.000000000000000e+00 0.000000000000000e+00
0.000000000000000e+00 0.000000000000000e+00 0.000000000000000e+00

0.000000000000000e+00 0.000000000000000e+00 0.000000000000000e+00
0.000000000000000e+00 0.000000000000000e+00 0.000000000000000e+00
0.000000000000000e+00 0.000000000000000e+00 0.000000000000000e+00

0.000000000000000e+00 0.000000000000000e+00 0.000000000000000e+00
0.000000000000000e+00 0.000000000000000e+00 0.000000000000000e+00
0.000000000000000e+00 0.000000000000000e+00 0.000000000000000e+00

0.000000000000000e+00 0.000000000000000e+00 0.000000000000000e+00
0.000000000000000e+00 0.000000000000000e+00 0.000000000000000e+00
0.000000000000000e+00 0.000000000000000e+00 0.000000000000000e+00

0.000000000000000e+00 0.000000000000000e+00 0.000000000000000e+00
0.000000000000000e+00 0.000000000000000e+00 0.000000000000000e+00
0.000000000000000e+00 0.000000000000000e+00 0.000000000000000e+00

0.000000000000000e+00 0.000000000000000e+00 0.000000000000000e+00
0.000000000000000e+00 0.000000000000000e+00 0.000000000000000e+00
0.000000000000000e+00 0.000000000000000e+00 0.000000000000000e+00

0.000000000000000e+00 0.000000000000000e+00 0.000000000000000e+00
0.000000000000000e+00 0.000000000000000e+00 0.000000000000000e+00
0.000000000000000e+00 0.000000000000000e+00 0.000000000000000e+00

0.000000000000000e+00 0.000000000000000e+00 0.000000000000000e+00
0.000000000000000e+00 0.000000000000000e+00 0.000000000000000e+00
0.000000000000000e+00 0.000000000000000e+00 0.000000000000000e+00

0.000000000000000e+00 0.000000000000000e+00 0.000000000000000e+00
0.000000000000000e+00 0.000000000000000e+00 0.000000000000000e+00
0.000000000000000e+00 0.000000000000000e+00 0.000000000000000e+00

0.000000000000000e+00 0.000000000000000e+00 0.000000000000000e+00
0.000000000000000e+00 0.000000000000000e+00 0.000000000000000e+00
0.000000000000000e+00 0.000000000000000e+00 0.000000000000000e+00

0.000000000000000e+00 0.000000000000000e+00 0.000000000000000e+00
0.000000000000000e+00 0.000000000000000e+00 0.000000000000000e+00
0.000000000000000e+00 0.000000000000000e+00 0.000000000000000e+00

0.000000000000000e+00 0.000000000000000e+00 0.000000000000000e+00
0.000000000000000e+00 0.000000000000000e+00 0.000000000000000e+00
0.000000000000000e+00 0.000000000000000e+00 0.000000000000000e+00

0.000000000000000e+00 0.000000000000000e+00 0.000000000000000e+00
0.000000000000000e+00 0.000000000000000e+00 0.000000000000000e+00
0.000000000000000e+00 0.000000000000000e+00 0.000000000000000e+00

0.000000000000000e+00 0.000000000000000e+00 0.000000000000000e+00
0.000000000000000e+00 0.000000000000000e+00 0.000000000000000e+00
0.000000000000000e+00 0.000000000000000e+00 0.000000000000000e+00

0.000000000000000e+00 0.000000000000000e+00 0.000000000000000e+00
0.000000000000000e+00 0.000000000000000e+00 0.000000000000000e+00
0.000000000000000e+00 0.000000000000000e+00 0.000000000000000e+00

0.000000000000000e+00 0.000000000000000e+00 0.000000000000000e+00
0.000000000000000e+00 0.000000000000000e+00 0.000000000000000e+00
0.000000000000000e+00 0.000000000000000e+00 0.000000000000000e+00

0.000000000000000e+00 0.000000000000000e+00 0.000000000000000e+00
0.000000000000000e+00 0.000000000000000e+00 0.000000000000000e+00
0.000000000000000e+00 0.000000000000000e+00 0.000000000000000e+00

0.000000000000000e+00 0.000000000000000e+00 0.000000000000000e+00
0.000000000000000e+00 0.000000000000000e+00 0.000000000000000e+00
0.000000000000000e+00 0.000000000000000e+00 0.000000000000000e+00

0.000000000000000e+00 0.000000000000000e+00 0.000000000000000e+00
0.000000000000000e+00 0.000000000000000e+00 0.000000000000000e+00
0.000000000000000e+00 0.000000000000000e+00 0.000000000000000e+00

0.000000000000000e+00 0.000000000000000e+00 0.000000000000000e+00
0.000000000000000e+00 0.000000000000000e+00 0.000000000000000e+00
0.000000000000000e+00 0.000000000000000e+00 0.000000000000000e+00

0.000000000000000e+00 0.000000000000000e+00 0.000000000000000e+00
0.000000000000000e+00 0.000000000000000e+00 0.000000000000000e+00
0.000000000000000e+00 0.000000000000000e+00 0.000000000000000e+00

0.000000000000000e+00 0.000000000000000e+00 0.000000000000000e+00
0.000000000000000e+00 0.000000000000000e+00 0.000000000000000e+00
0.000000000000000e+00 0.000000000000000e+00 0.000000000000000e+00

0.000000000000000e+00 0.000000000000000e+00 0.000000000000000e+00
0.000000000000000e+00 0.000000000000000e+00 0.000000000000000e+00
0.000000000000000e+00 0.000000000000000e+00 0.000000000000000e+00

0.000000000000000e+00 0.000000000000000e+00 0.000000000000000e+00
0.000000000000000e+00 0.000000000000000e+00 0.000000000000000e+00
0.000000000000000e+00 0.000000000000000e+00 0.000000000000000e+00

0.000000000000000e+00 0.000000000000000e+00 0.000000000000000e+00
0.000000000000000e+00 0.000000000000000e+00 0.000000000000000e+00
0.000000000000000e+00 0.000000000000000e+00 0.000000000000000e+00

0.000000000000000e+00 0.000000000000000e+00 0.000000000000000e+00
0.000000000000000e+00 0.000000000000000e+00 0.000000000000000e+00
0.000000000000000e+00 0.000000000000000e+00 0.000000000000000e+00

0.000000000000000e+00 0.000000000000000e+00 0.000000000000000e+00
0.000000000000000e+00 0.000000000000000e+00 0.000000000000000e+00
0.000000000000000e+00 0.000000000000000e+00 0.000000000000000e+00

0.000000000000000e+00 0.000000000000000e+00 0.000000000000000e+00
0.000000000000000e+00 0.000000000000000e+00 0.000000000000000e+00
0.000000000000000e+00 0.000000000000000e+00 0.000000000000000e+00

0.000000000000000e+00 0.000000000000000e+00 0.000000000000000e+00
0.000000000000000e+00 0.000000000000000e+00 0.000000000000000e+00
0.000000000000000e+00 0.000000000000000e+00 0.000000000000000e+00

0.000000000000000e+00 0.000000000000000e+00 0.000000000000000e+00
0.000000000000000e+00 0.000000000000000e+00 0.000000000000000e+00
0.000000000000000e+00 0.000000000000000e+00 0.000000000000000e+00

0.000000000000000e+00 0.000000000000000e+00 0.000000000000000e+00
0.000000000000000e+00 0.000000000000000e+00 0.000000000000000e+00
0.000000000000000e+00 0.000000000000000e+00 0.000000000000000e+00

0.000000000000000e+00 0.000000000000000e+00 0.000000000000000e+00
0.000000000000000e+00 0.000000000000000e+00 0.000000000000000e+00
0.000000000000000e+00 0.000000000000000e+00 0.000000000000000e+00

0.000000000000000e+00 0.000000000000000e+00 0.000000000000000e+00
0.000000000000000e+00 0.000000000000000e+00 0.000000000000000e+00
0.000000000000000e+00 0.000000000000000e+00 0.000000000000000e+00

0.000000000000000e+00 0.000000000000000e+00 0.000000000000000e+00
0.000000000000000e+00 0.000000000000000e+00 0.000000000000000e+00
0.000000000000000e+00 0.000000000000000e+00 0.000000000000000e+00

0.000000000000000e+00 0.000000000000000e+00 0.000000000000000e+00
0.000000000000000e+00 0.000000000000000e+00 0.000000000000000e+00
0.000000000000000e+00 0.000000000000000e+00 0.000000000000000e+00

0.000000000000000e+00 0.000000000000000e+00 0.000000000000000e+00
0.000000000000000e+00 0.000000000000000e+00 0.000000000000000e+00
0.000000000000000e+00 0.000000000000000e+00 0.000000000000000e+00

0.000000000000000e+00 0.000000000000000e+00 0.000000000000000e+00
0.000000000000000e+00 0.000000000000000e+00 0.000000000000000e+00
0.000000000000000e+00 0.000000000000000e+00 0.000000000000000e+00

0.000000000000000e+00 0.000000000000000e+00 0.000000000000000e+00
0.000000000000000e+00 0.000000000000000e+00 0.000000000000000e+00
0.000000000000000e+00 0.000000000000000e+00 0.000000000000000e+00

0.000000000000000e+00 0.000000000000000e+00 0.000000000000000e+00
0.000000000000000e+00 0.000000000000000e+00 0.000000000000000e+00
0.000000000000000e+00 0.000000000000000e+00 0.000000000000000e+00

0.000000000000000e+00 0.000000000000000e+00 0.000000000000000e+00
0.000000000000000e+00 0.000000000000000e+00 0.000000000000000e+00
0.000000000000000e+00 0.000000000000000e+00 0.000000000000000e+00

0.000000000000000e+00 0.000000000000000e+00 0.000000000000000e+00
0.000000000000000e+00 0.000000000000000e+00 0.000000000000000e+00
0.000000000000000e+00 0.000000000000000e+00 0.000000000000000e+00

0.000000000000000e+00 0.000000000000000e+00 0.000000000000000e+00
0.000000000000000e+00 0.000000000000000e+00 0.000000000000000e+00
0.000000000000000e+00 0.000000000000000e+00 0.000000000000000e+00

0.000000000000000e+00 0.000000000000000e+00 0.000000000000000e+00
0.000000000000000e+00 0.000000000000000e+00 0.000000000000000e+00
0.000000000000000e+00 0.000000000000000e+00 0.000000000000000e+00

0.000000000000000e+00 0.000000000000000e+00 0.000000000000000e+00
0.000000000000000e+00 0.000000000000000e+00 0.000000000000000e+00
0.000000000000000e+00 0.000000000000000e+00 0.000000000000000e+00

0.000000000000000e+00 0.000000000000000e+00 0.000000000000000e+00
0.000000000000000e+00 0.000000000000000e+00 0.000000000000000e+00
0.000000000000000e+00 0.000000000000000e+00 0.000000000000000e+00

0.000000000000000e+00 0.000000000000000e+00 0.000000000000000e+00
0.000000000000000e+00 0.000000000000000e+00 0.000000000000000e+00
0.000000000000000e+00 0.000000000000000e+00 0.000000000000000e+00

0.000000000000000e+00 0.000000000000000e+00 0.000000000000000e+00
0.000000000000000e+00 0.000000000000000e+00 0.000000000000000e+00
0.000000000000000e+00 0.000000000000000e+00 0.000000000000000e+00

0.000000000000000e+00 0.000000000000000e+00 0.000000000000000e+00
0.000000000000000e+00 0.000000000000000e+00 0.000000000000000e+00
0.000000000000000e+00 0.000000000000000e+00 0.000000000000000e+00

0.000000000000000e+00 0.000000000000000e+00 0.000000000000000e+00
0.000000000000000e+00 0.000000000000000e+00 0.000000000000000e+00
0.000000000000000e+00 0.000000000000000e+00 0.000000000000000e+00

0.000000000000000e+00 0.000000000000000e+00 0.000000000000000e+00
0.000000000000000e+00 0.000000000000000e+00 0.000000000000000e+00
0.000000000000000e+00 0.000000000000000e+00 0.000000000000000e+00

0.000000000000000e+00 0.000000000000000e+00 0.000000000000000e+00
0.000000000000000e+00 0.000000000000000e+00 0.000000000000000e+00
0.000000000000000e+00 0.000000000000000e+00 0.000000000000000e+00

0.000000000000000e+00 0.000000000000000e+00 0.000000000000000e+00
0.000000000000000e+00 0.000000000000000e+00 0.000000000000000e+00
0.000000000000000e+00 0.000000000000000e+00 0.000000000000000e+00

0.000000000000000e+00 0.000000000000000e+00 0.000000000000000e+00
0.000000000000000e+00 0.000000000000000e+00 0.000000000000000e+00
0.000000000000000e+00 0.000000000000000e+00 0.000000000000000e+00

0.000000000000000e+00 0.000000000000000e+00 0.000000000000000e+00
0.000000000000000e+00 0.000000000000000e+00 0.000000000000000e+00
0.000000000000000e+00 0.000000000000000e+00 0.000000000000000e+00

0.000000000000000e+00 0.000000000000000e+00 0.000000000000000e+00
0.000000000000000e+00 0.000000000000000e+00 0.000000000000000e+00
0.000000000000000e+00 0.000000000000000e+00 0.000000000000000e+00

0.000000000000000e+00 0.000000000000000e+00 0.000000000000000e+00
0.000000000000000e+00 0.000000000000000e+00 0.000000000000000e+00
0.000000000000000e+00 0.000000000000000e+00 0.000000000000000e+00

0.000000000000000e+00 0.000000000000000e+00 0.000000000000000e+00
0.000000000000000e+00 0.000000000000000e+00 0.000000000000000e+00
0.000000000000000e+00 0.000000000000000e+00 0.000000000000000e+00

0.000000000000000e+00 0.000000000000000e+00 0.000000000000000e+00
0.000000000000000e+00 0.000000000000000e+00 0.000000000000000e+00
0.000000000000000e+00 0.000000000000000e+00 0.000000000000000e+00

0.000000000000000e+00 0.000000000000000e+00 0.000000000000000e+00
0.000000000000000e+00 0.000000000000000e+00 0.000000000000000e+00
0.000000000000000e+00 0.000000000000000e+00 0.000000000000000e+00

0.000000000000000e+00 0.000000000000000e+00 0.000000000000000e+00
0.000000000000000e+00 0.000000000000000e+00 0.000000000000000e+00
0.000000000000000e+00 0.000000000000000e+00 0.000000000000000e+00

0.000000000000000e+00 0.000000000000000e+00 0.000000000000000e+00
0.000000000000000e+00 0.000000000000000e+00 0.000000000000000e+00
0.000000000000000e+00 0.000000000000000e+00 0.000000000000000e+00

0.000000000000000e+00 0.000000000000000e+00 0.000000000000000e+00
0.000000000000000e+00 0.000000000000000e+00 0.000000000000000e+00
0.000000000000000e+00 0.000000000000000e+00 0.000000000000000e+00

0.000000000000000e+00 0.000000000000000e+00 0.000000000000000e+00
0.000000000000000e+00 0.000000000000000e+00 0.000000000000000e+00
0.000000000000000e+00 0.000000000000000e+00 0.000000000000000e+00

0.000000000000000e+00 0.000000000000000e+00 0.000000000000000e+00
0.000000000000000e+00 0.000000000000000e+00 0.000000000000000e+00
0.000000000000000e+00 0.000000000000000e+00 0.000000000000000e+00

0.000000000000000e+00 0.000000000000000e+00 0.000000000000000e+00
0.000000000000000e+00 0.000000000000000e+00 0.000000000000000e+00
0.000000000000000e+00 0.000000000000000e+00 0.000000000000000e+00

0.000000000000000e+00 0.000000000000000e+00 0.000000000000000e+00
0.000000000000000e+00 0.000000000000000e+00 0.000000000000000e+00
0.000000000000000e+00 0.000000000000000e+00 0.000000000000000e+00

0.000000000000000e+00 0.000000000000000e+00 0.000000000000000e+00
0.000000000000000e+00 0.000000000000000e+00 0.000000000000000e+00
0.000000000000000e+00 0.000000000000000e+00 0.000000000000000e+00

0.000000000000000e+00 0.000000000000000e+00 0.000000000000000e+00
0.000000000000000e+00 0.000000000000000e+00 0.000000000000000e+00
0.000000000000000e+00 0.000000000000000e+00 0.000000000000000e+00

0.000000000000000e+00 0.000000000000000e+00 0.000000000000000e+00
0.000000000000000e+00 0.000000000000000e+00 0.000000000000000e+00
0.000000000000000e+00 0.000000000000000e+00 0.000000000000000e+00

0.000000000000000e+00 0.000000000000000e+00 0.000000000000000e+00
0.000000000000000e+00 0.000000000000000e+00 0.000000000000000e+00
0.000000000000000e+00 0.000000000000000e+00 0.000000000000000e+00

0.000000000000000e+00 0.000000000000000e+00 0.000000000000000e+00
0.000000000000000e+00 0.000000000000000e+00 0.000000000000000e+00
0.000000000000000e+00 0.000000000000000e+00 0.000000000000000e+00

0.000000000000000e+00 0.000000000000000e+00 0.000000000000000e+00
0.000000000000000e+00 0.000000000000000e+00 0.000000000000000e+00
0.000000000000000e+00 0.000000000000000e+00 0.000000000000000e+00

0.000000000000000e+00 0.000000000000000e+00 0.000000000000000e+00
0.000000000000000e+00 0.000000000000000e+00 0.000000000000000e+00
0.000000000000000e+00 0.000000000000000e+00 0.000000000000000e+00

0.000000000000000e+00 0.000000000000000e+00 0.000000000000000e+00
0.000000000000000e+00 0.000000000000000e+00 0.000000000000000e+00
0.000000000000000e+00 0.000000000000000e+00 0.000000000000000e+00

0.000000000000000e+00 0.000000000000000e+00 0.000000000000000e+00
0.000000000000000e+00 0.000000000000000e+00 0.000000000000000e+00
0.000000000000000e+00 0.000000000000000e+00 0.000000000000000e+00

0.000000000000000e+00 0.000000000000000e+00 0.000000000000000e+00
0.000000000000000e+00 0.000000000000000e+00 0.000000000000000e+00
0.000000000000000e+00 0.000000000000000e+00 0.000000000000000e+00

0.000000000000000e+00 0.000000000000000e+00 0.000000000000000e+00
0.000000000000000e+00 0.000000000000000e+00 0.000000000000000e+00
0.000000000000000e+00 0.000000000000000e+00 0.000000000000000e+00

0.000000000000000e+00 0.000000000000000e+00 0.000000000000000e+00
0.000000000000000e+00 0.000000000000000e+00 0.000000000000000e+00
0.000000000000000e+00 0.000000000000000e+00 0.000000000000000e+00

0.000000000000000e+00 0.000000000000000e+00 0.000000000000000e+00
0.000000000000000e+00 0.000000000000000e+00 0.000000000000000e+00
0.000000000000000e+00 0.000000000000000e+00 0.000000000000000e+00

0.000000000000000e+00 0.000000000000000e+00 0.000000000000000e+00
0.000000000000000e+00 0.000000000000000e+00 0.000000000000000e+00
0.000000000000000e+00 0.000000000000000e+00 0.000000000000000e+00

0.000000000000000e+00 0.000000000000000e+00 0.000000000000000e+00
0.000000000000000e+00 0.000000000000000e+00 0.000000000000000e+00
0.000000000000000e+00 0.000000000000000e+00 0.000000000000000e+00

0.000000000000000e+00 0.000000000000000e+00 0.000000000000000e+00
0.000000000000000e+00 0.000000000000000e+00 0.000000000000000e+00
0.000000000000000e+00 0.000000000000000e+00 0.000000000000000e+00

0.000000000000000e+00 0.000000000000000e+00 0.000000000000000e+00
0.000000000000000e+00 0.000000000000000e+00 0.000000000000000e+00
0.000000000000000e+00 0.000000000000000e+00 0.000000000000000e+00

0.000000000000000e+00 0.000000000000000e+00 0.000000000000000e+00
0.000000000000000e+00 0.000000000000000e+00 0.000000000000000e+00
0.000000000000000e+00 0.000000000000000e+00 0.000000000000000e+00

0.000000000000000e+00 0.000000000000000e+00 0.000000000000000e+00
0.000000000000000e+00 0.000000000000000e+00 0.000000000000000e+00
0.000000000000000e+00 0.000000000000000e+00 0.000000000000000e+00

0.000000000000000e+00 0.000000000000000e+00 0.000000000000000e+00
0.000000000000000e+00 0.000000000000000e+00 0.000000000000000e+00
0.000000000000000e+00 0.000000000000000e+00 0.000000000000000e+00

0.000000000000000e+00 0.000000000000000e+00 0.000000000000000e+00
0.000000000000000e+00 0.000000000000000e+00 0.000000000000000e+00
0.000000000000000e+00 0.000000000000000e+00 0.000000000000000e+00

0.000000000000000e+00 0.000000000000000e+00 0.000000000000000e+00
0.000000000000000e+00 0.000000000000000e+00 0.000000000000000e+00
0.000000000000000e+00 0.000000000000000e+00 0.000000000000000e+00

0.000000000000000e+00 0.000000000000000e+00 0.000000000000000e+00
0.000000000000000e+00 0.000000000000000e+00 0.000000000000000e+00
0.000000000000000e+00 0.000000000000000e+00 0.000000000000000e+00

0.000000000000000e+00 0.000000000000000e+00 0.000000000000000e+00
0.000000000000000e+00 0.000000000000000e+00 0.000000000000000e+00
0.000000000000000e+00 0.000000000000000e+00 0.000000000000000e+00

0.000000000000000e+00 0.000000000000000e+00 0.000000000000000e+00
0.000000000000000e+00 0.000000000000000e+00 0.000000000000000e+00
0.000000000000000e+00 0.000000000000000e+00 0.000000000000000e+00

0.000000000000000e+00 0.000000000000000e+00 0.000000000000000e+00
0.000000000000000e+00 0.000000000000000e+00 0.000000000000000e+00
0.000000000000000e+00 0.000000000000000e+00 0.000000000000000e+00

0.000000000000000e+00 0.000000000000000e+00 0.000000000000000e+00
0.000000000000000e+00 0.000000000000000e+00 0.000000000000000e+00
0.000000000000000e+00 0.000000000000000e+00 0.000000000000000e+00

0.000000000000000e+00 0.000000000000000e+00 0.000000000000000e+00
0.000000000000000e+00 0.000000000000000e+00 0.000000000000000e+00
0.000000000000000e+00 0.000000000000000e+00 0.000000000000000e+00

0.000000000000000e+00 0.000000000000000e+00 0.000000000000000e+00
0.000000000000000e+00 0.000000000000000e+00 0.000000000000000e+00
0.000000000000000e+00 0.000000000000000e+00 0.000000000000000e+00

0.000000000000000e+00 0.000000000000000e+00 0.000000000000000e+00
0.000000000000000e+00 0.000000000000000e+00 0.000000000000000e+00
0.000000000000000e+00 0.000000000000000e+00 0.000000000000000e+00

0.000000000000000e+00 0.000000000000000e+00 0.000000000000000e+00
0.000000000000000e+00 0.000000000000000e+00 0.000000000000000e+00
0.000000000000000e+00 0.000000000000000e+00 0.000000000000000e+00

0.000000000000000e+00 0.000000000000000e+00 0.000000000000000e+00
0.000000000000000e+00 0.000000000000000e+00 0.000000000000000e+00
0.000000000000000e+00 0.000000000000000e+00 0.000000000000000e+00

0.000000000000000e+00 0.000000000000000e+00 0.000000000000000e+00
0.000000000000000e+00 0.000000000000000e+00 0.000000000000000e+00
0.000000000000000e+00 0.000000000000000e+00 0.000000000000000e+00

0.000000000000000e+00 0.000000000000000e+00 0.000000000000000e+00
0.000000000000000e+00 0.000000000000000e+00 0.000000000000000e+00
0.000000000000000e+00 0.000000000000000e+00 0.000000000000000e+00

0.000000000000000e+00 0.000000000000000e+00 0.000000000000000e+00
0.000000000000000e+00 0.000000000000000e+00 0.000000000000000e+00
0.000000000000000e+00 0.000000000000000e+00 0.000000000000000e+00

0.000000000000000e+00 0.000000000000000e+00 0.000000000000000e+00
0.000000000000000e+00 0.000000000000000e+00 0.000000000000000e+00
0.000000000000000e+00 0.000000000000000e+00 0.000000000000000e+00

0.000000000000000e+00 0.000000000000000e+00 0.000000000000000e+00
0.000000000000000e+00 0.000000000000000e+00 0.000000000000000e+00
0.000000000000000e+00 0.000000000000000e+00 0.000000000000000e+00

0.000000000000000e+00 0.000000000000000e+00 0.000000000000000e+00
0.000000000000000e+00 0.000000000000000e+00 0.000000000000000e+00
0.000000000000000e+00 0.000000000000000e+00 0.000000000000000e+00

0.000000000000000e+00 0.000000000000000e+00 0.000000000000000e+00
0.000000000000000e+00 0.000000000000000e+00 0.000000000000000e+00
0.000000000000000e+00 0.000000000000000e+00 0.000000000000000e+00

0.000000000000000e+00 0.000000000000000e+00 0.000000000000000e+00
0.000000000000000e+00 0.000000000000000e+00 0.000000000000000e+00
0.000000000000000e+00 0.000000000000000e+00 0.000000000000000e+00

0.000000000000000e+00 0.000000000000000e+00 0.000000000000000e+00
0.000000000000000e+00 0.000000000000000e+00 0.000000000000000e+00
0.000000000000000e+00 0.000000000000000e+00 0.000000000000000e+00

0.000000000000000e+00 0.000000000000000e+00 0.000000000000000e+00
0.000000000000000e+00 0.000000000000000e+00 0.000000000000000e+00
0.000000000000000e+00 0.000000000000000e+00 0.000000000000000e+00

0.000000000000000e+00 0.000000000000000e+00 0.000000000000000e+00
0.000000000000000e+00 0.000000000000000e+00 0.000000000000000e+00
0.000000000000000e+00 0.000000000000000e+00 0.000000000000000e+00

0.000000000000000e+00 0.000000000000000e+00 0.000000000000000e+00
0.000000000000000e+00 0.000000000000000e+00 0.000000000000000e+00
0.000000000000000e+00 0.000000000000000e+00 0.000000000000000e+00

0.000000000000000e+00 0.000000000000000e+00 0.000000000000000e+00
0.000000000000000e+00 0.000000000000000e+00 0.000000000000000e+00
0.000000000000000e+00 0.000000000000000e+00 0.000000000000000e+00

0.000000000000000e+00 0.000000000000000e+00 0.000000000000000e+00
0.000000000000000e+00 0.000000000000000e+00 0.000000000000000e+00
0.000000000000000e+00 0.000000000000000e+00 0.000000000000000e+00

0.000000000000000e+00 0.000000000000000e+00 0.000000000000000e+00
0.000000000000000e+00 0.000000000000000e+00 0.000000000000000e+00
0.000000000000000e+00 0.000000000000000e+00 0.000000000000000e+00

0.000000000000000e+00 0.000000000000000e+00 0.000000000000000e+00
0.000000000000000e+00 0.000000000000000e+00 0.000000000000000e+00
0.000000000000000e+00 0.000000000000000e+00 0.000000000000000e+00

0.000000000000000e+00 0.000000000000000e+00 0.000000000000000e+00
0.000000000000000e+00 0.000000000000000e+00 0.000000000000000e+00
0.000000000000000e+00 0.000000000000000e+00 0.000000000000000e+00

0.000000000000000e+00 0.000000000000000e+00 0.000000000000000e+00
0.000000000000000e+00 0.000000000000000e+00 0.000000000000000e+00
0.000000000000000e+00 0.000000000000000e+00 0.000000000000000e+00

0.000000000000000e+00 0.000000000000000e+00 0.000000000000000e+00
0.000000000000000e+00 0.000000000000000e+00 0.000000000000000e+00
0.000000000000000e+00 0.000000000000000e+00 0.000000000000000e+00

0.000000000000000e+00 0.000000000000000e+00 0.000000000000000e+00
0.000000000000000e+00 0.000000000000000e+00 0.000000000000000e+00
0.000000000000000e+00 0.000000000000000e+00 0.000000000000000e+00

0.000000000000000e+00 0.000000000000000e+00 0.000000000000000e+00
0.000000000000000e+00 0.000000000000000e+00 0.000000000000000e+00
0.000000000000000e+00 0.000000000000000e+00 0.000000000000000e+00

0.000000000000000e+00 0.000000000000000e+00 0.000000000000000e+00
0.000000000000000e+00 0.000000000000000e+00 0.000000000000000e+00
0.000000000000000e+00 0.000000000000000e+00 0.000000000000000e+00

0.000000000000000e+00 0.000000000000000e+00 0.000000000000000e+00
0.000000000000000e+00 0.000000000000000e+00 0.000000000000000e+00
0.000000000000000e+00 0.000000000000000e+00 0.000000000000000e+00

0.000000000000000e+00 0.000000000000000e+00 0.000000000000000e+00
0.000000000000000e+00 0.000000000000000e+00 0.000000000000000e+00
0.000000000000000e+00 0.000000000000000e+00 0.000000000000000e+00

0.000000000000000e+00 0.000000000000000e+00 0.000000000000000e+00
0.000000000000000e+00 0.000000000000000e+00 0.000000000000000e+00
0.000000000000000e+00 0.000000000000000e+00 0.000000000000000e+00

0.000000000000000e+00 0.000000000000000e+00 0.000000000000000e+00
0.000000000000000e+00 0.000000000000000e+00 0.000000000000000e+00
0.000000000000000e+00 0.000000000000000e+00 0.000000000000000e+00

0.000000000000000e+00 0.000000000000000e+00 0.000000000000000e+00
0.000000000000000e+00 0.000000000000000e+00 0.000000000000000e+00
0.000000000000000e+00 0.000000000000000e+00 0.000000000000000e+00

0.000000000000000e+00 0.000000000000000e+00 0.000000000000000e+00
0.000000000000000e+00 0.000000000000000e+00 0.000000000000000e+00
0.000000000000000e+00 0.000000000000000e+00 0.000000000000000e+00

0.000000000000000e+00 0.000000000000000e+00 0.000000000000000e+00
0.000000000000000e+00 0.000000000000000e+00 0.000000000000000e+00
0.000000000000000e+00 0.000000000000000e+00 0.000000000000000e+00

0.000000000000000e+00 0.000000000000000e+00 0.000000000000000e+00
0.000000000000000e+00 0.000000000000000e+00 0.000000000000000e+00
0.000000000000000e+00 0.000000000000000e+00 0.000000000000000e+00

0.000000000000000e+00 0.000000000000000e+00 0.000000000000000e+00
0.000000000000000e+00 0.000000000000000e+00 0.000000000000000e+00
0.000000000000000e+00 0.000000000000000e+00 0.000000000000000e+00

0.000000000000000e+00 0.000000000000000e+00 0.000000000000000e+00
0.000000000000000e+00 0.000000000000000e+00 0.000000000000000e+00
0.000000000000000e+00 0.000000000000000e+00 0.000000000000000e+00

0.000000000000000e+00 0.000000000000000e+00 0.000000000000000e+00
0.000000000000000e+00 0.000000000000000e+00 0.000000000000000e+00
0.000000000000000e+00 0.000000000000000e+00 0.000000000000000e+00

0.000000000000000e+00 0.000000000000000e+00 0.000000000000000e+00
0.000000000000000e+00 0.000000000000000e+00 0.000000000000000e+00
0.000000000000000e+00 0.000000000000000e+00 0.000000000000000e+00

0.000000000000000e+00 0.000000000000000e+00 0.000000000000000e+00
0.000000000000000e+00 0.000000000000000e+00 0.000000000000000e+00
0.000000000000000e+00 0.000000000000000e+00 0.000000000000000e+00

0.000000000000000e+00 0.000000000000000e+00 0.000000000000000e+00
0.000000000000000e+00 0.000000000000000e+00 0.000000000000000e+00
0.000000000000000e+00 0.000000000000000e+00 0.000000000000000e+00

0.000000000000000e+00 0.000000000000000e+00 0.000000000000000e+00
0.000000000000000e+00 0.000000000000000e+00 0.000000000000000e+00
0.000000000000000e+00 0.000000000000000e+00 0.000000000000000e+00

0.000000000000000e+00 0.000000000000000e+00 0.000000000000000e+00
0.000000000000000e+00 0.000000000000000e+00 0.000000000000000e+00
0.000000000000000e+00 0.000000000000000e+00 0.000000000000000e+00

0.000000000000000e+00 0.000000000000000e+00 0.000000000000000e+00
0.000000000000000e+00 0.000000000000000e+00 0.000000000000000e+00
0.000000000000000e+00 0.000000000000000e+00 0.000000000000000e+00

0.000000000000000e+00 0.000000000000000e+00 0.000000000000000e+00
0.000000000000000e+00 0.000000000000000e+00 0.000000000000000e+00
0.000000000000000e+00 0.000000000000000e+00 0.000000000000000e+00

0.000000000000000e+00 0.000000000000000e+00 0.000000000000000e+00
0.000000000000000e+00 0.000000000000000e+00 0.000000000000000e+00
0.000000000000000e+00 0.000000000000000e+00 0.000000000000000e+00

0.000000000000000e+00 0.000000000000000e+00 0.000000000000000e+00
0.000000000000000e+00 0.000000000000000e+00 0.000000000000000e+00
0.000000000000000e+00 0.000000000000000e+00 0.000000000000000e+00

0.000000000000000e+00 0.000000000000000e+00 0.000000000000000e+00
0.000000000000000e+00 0.000000000000000e+00 0.000000000000000e+00
0.000000000000000e+00 0.000000000000000e+00 0.000000000000000e+00

0.000000000000000e+00 0.000000000000000e+00 0.000000000000000e+00
0.000000000000000e+00 0.000000000000000e+00 0.000000000000000e+00
0.000000000000000e+00 0.000000000000000e+00 0.000000000000000e+00

0.000000000000000e+00 0.000000000000000e+00 0.000000000000000e+00
0.000000000000000e+00 0.000000000000000e+00 0.000000000000000e+00
0.000000000000000e+00 0.000000000000000e+00 0.000000000000000e+00

0.000000000000000e+00 0.000000000000000e+00 0.000000000000000e+00
0.000000000000000e+00 0.000000000000000e+00 0.000000000000000e+00
0.000000000000000e+00 0.000000000000000e+00 0.000000000000000e+00

0.000000000000000e+00 0.000000000000000e+00 0.000000000000000e+00
0.000000000000000e+00 0.000000000000000e+00 0.000000000000000e+00
0.000000000000000e+00 0.000000000000000e+00 0.000000000000000e+00

0.000000000000000e+00 0.000000000000000e+00 0.000000000000000e+00
0.000000000000000e+00 0.000000000000000e+00 0.000000000000000e+00
0.000000000000000e+00 0.000000000000000e+00 0.000000000000000e+00

0.000000000000000e+00 0.000000000000000e+00 0.000000000000000e+00
0.000000000000000e+00 0.000000000000000e+00 0.000000000000000e+00
0.000000000000000e+00 0.000000000000000e+00 0.000000000000000e+00

0.000000000000000e+00 0.000000000000000e+00 0.000000000000000e+00
0.000000000000000e+00 0.000000000000000e+00 0.000000000000000e+00
0.000000000000000e+00 0.000000000000000e+00 0.000000000000000e+00

0.000000000000000e+00 0.000000000000000e+00 0.000000000000000e+00
0.000000000000000e+00 0.000000000000000e+00 0.000000000000000e+00
0.000000000000000e+00 0.000000000000000e+00 0.000000000000000e+00

0.000000000000000e+00 0.000000000000000e+00 0.000000000000000e+00
0.000000000000000e+00 0.000000000000000e+00 0.000000000000000e+00
0.000000000000000e+00 0.000000000000000e+00 0.000000000000000e+00

0.000000000000000e+00 0.000000000000000e+00 0.000000000000000e+00
0.000000000000000e+00 0.000000000000000e+00 0.000000000000000e+00
0.000000000000000e+00 0.000000000000000e+00 0.000000000000000e+00

0.000000000000000e+00 0.000000000000000e+00 0.000000000000000e+00
0.000000000000000e+00 0.000000000000000e+00 0.000000000000000e+00
0.000000000000000e+00 0.000000000000000e+00 0.000000000000000e+00

0.000000000000000e+00 0.000000000000000e+00 0.000000000000000e+00
0.000000000000000e+00 0.000000000000000e+00 0.000000000000000e+00
0.000000000000000e+00 0.000000000000000e+00 0.000000000000000e+00

0.000000000000000e+00 0.000000000000000e+00 0.000000000000000e+00
0.000000000000000e+00 0.000000000000000e+00 0.000000000000000e+00
0.000000000000000e+00 0.000000000000000e+00 0.000000000000000e+00

0.000000000000000e+00 0.000000000000000e+00 0.000000000000000e+00
0.000000000000000e+00 0.000000000000000e+00 0.000000000000000e+00
0.000000000000000e+00 0.000000000000000e+00 0.000000000000000e+00

0.000000000000000e+00 0.000000000000000e+00 0.000000000000000e+00
0.000000000000000e+00 0.000000000000000e+00 0.000000000000000e+00
0.000000000000000e+00 0.000000000000000e+00 0.000000000000000e+00

0.000000000000000e+00 0.000000000000000e+00 0.000000000000000e+00
0.000000000000000e+00 0.000000000000000e+00 0.000000000000000e+00
0.000000000000000e+00 0.000000000000000e+00 0.000000000000000e+00

0.000000000000000e+00 0.000000000000000e+00 0.000000000000000e+00
0.000000000000000e+00 0.000000000000000e+00 0.000000000000000e+00
0.000000000000000e+00 0.000000000000000e+00 0.000000000000000e+00

0.000000000000000e+00 0.000000000000000e+00 0.000000000000000e+00
0.000000000000000e+00 0.000000000000000e+00 0.000000000000000e+00
0.000000000000000e+00 0.000000000000000e+00 0.000000000000000e+00

0.000000000000000e+00 0.000000000000000e+00 0.000000000000000e+00
0.000000000000000e+00 0.000000000000000e+00 0.000000000000000e+00
0.000000000000000e+00 0.000000000000000e+00 0.000000000000000e+00

0.000000000000000e+00 0.000000000000000e+00 0.000000000000000e+00
0.000000000000000e+00 0.000000000000000e+00 0.000000000000000e+00
0.000000000000000e+00 0.000000000000000e+00 0.000000000000000e+00

0.000000000000000e+00 0.000000000000000e+00 0.000000000000000e+00
0.000000000000000e+00 0.000000000000000e+00 0.000000000000000e+00
0.000000000000000e+00 0.000000000000000e+00 0.000000000000000e+00

0.000000000000000e+00 0.000000000000000e+00 0.000000000000000e+00
0.000000000000000e+00 0.000000000000000e+00 0.000000000000000e+00
0.000000000000000e+00 0.000000000000000e+00 0.000000000000000e+00

0.000000000000000e+00 0.000000000000000e+00 0.000000000000000e+00
0.000000000000000e+00 0.000000000000000e+00 0.000000000000000e+00
0.000000000000000e+00 0.000000000000000e+00 0.000000000000000e+00

0.000000000000000e+00 0.000000000000000e+00 0.000000000000000e+00
0.000000000000000e+00 0.000000000000000e+00 0.000000000000000e+00
0.000000000000000e+00 0.000000000000000e+00 0.000000000000000e+00

0.000000000000000e+00 0.000000000000000e+00 0.000000000000000e+00
0.000000000000000e+00 0.000000000000000e+00 0.000000000000000e+00
0.000000000000000e+00 0.000000000000000e+00 0.000000000000000e+00

0.000000000000000e+00 0.000000000000000e+00 0.000000000000000e+00
0.000000000000000e+00 0.000000000000000e+00 0.000000000000000e+00
0.000000000000000e+00 0.000000000000000e+00 0.000000000000000e+00

0.000000000000000e+00 0.000000000000000e+00 0.000000000000000e+00
0.000000000000000e+00 0.000000000000000e+00 0.000000000000000e+00
0.000000000000000e+00 0.000000000000000e+00 0.000000000000000e+00

0.000000000000000e+00 0.000000000000000e+00 0.000000000000000e+00
0.000000000000000e+00 0.000000000000000e+00 0.000000000000000e+00
0.000000000000000e+00 0.000000000000000e+00 0.000000000000000e+00

0.000000000000000e+00 0.000000000000000e+00 0.000000000000000e+00
0.000000000000000e+00 0.000000000000000e+00 0.000000000000000e+00
0.000000000000000e+00 0.000000000000000e+00 0.000000000000000e+00

0.000000000000000e+00 0.000000000000000e+00 0.000000000000000e+00
0.000000000000000e+00 0.000000000000000e+00 0.000000000000000e+00
0.000000000000000e+00 0.000000000000000e+00 0.000000000000000e+00

0.000000000000000e+00 0.000000000000000e+00 0.000000000000000e+00
0.000000000000000e+00 0.000000000000000e+00 0.000000000000000e+00
0.000000000000000e+00 0.000000000000000e+00 0.000000000000000e+00

0.000000000000000e+00 0.000000000000000e+00 0.000000000000000e+00
0.000000000000000e+00 0.000000000000000e+00 0.000000000000000e+00
0.000000000000000e+00 0.000000000000000e+00 0.000000000000000e+00

0.000000000000000e+00 0.000000000000000e+00 0.000000000000000e+00
0.000000000000000e+00 0.000000000000000e+00 0.000000000000000e+00
0.000000000000000e+00 0.000000000000000e+00 0.000000000000000e+00

0.000000000000000e+00 0.000000000000000e+00 0.000000000000000e+00
0.000000000000000e+00 0.000000000000000e+00 0.000000000000000e+00
0.000000000000000e+00 0.000000000000000e+00 0.000000000000000e+00

0.000000000000000e+00 0.000000000000000e+00 0.000000000000000e+00
0.000000000000000e+00 0.000000000000000e+00 0.000000000000000e+00
0.000000000000000e+00 0.000000000000000e+00 0.000000000000000e+00

0.000000000000000e+00 0.000000000000000e+00 0.000000000000000e+00
0.000000000000000e+00 0.000000000000000e+00 0.000000000000000e+00
0.000000000000000e+00 0.000000000000000e+00 0.000000000000000e+00

0.000000000000000e+00 0.000000000000000e+00 0.000000000000000e+00
0.000000000000000e+00 0.000000000000000e+00 0.000000000000000e+00
0.000000000000000e+00 0.000000000000000e+00 0.000000000000000e+00

0.000000000000000e+00 0.000000000000000e+00 0.000000000000000e+00
0.000000000000000e+00 0.000000000000000e+00 0.000000000000000e+00
0.000000000000000e+00 0.000000000000000e+00 0.000000000000000e+00

0.000000000000000e+00 0.000000000000000e+00 0.000000000000000e+00
0.000000000000000e+00 0.000000000000000e+00 0.000000000000000e+00
0.000000000000000e+00 0.000000000000000e+00 0.000000000000000e+00

0.000000000000000e+00 0.000000000000000e+00 0.000000000000000e+00
0.000000000000000e+00 0.000000000000000e+00 0.000000000000000e+00
0.000000000000000e+00 0.000000000000000e+00 0.000000000000000e+00

0.000000000000000e+00 0.000000000000000e+00 0.000000000000000e+00
0.000000000000000e+00 0.000000000000000e+00 0.000000000000000e+00
0.000000000000000e+00 0.000000000000000e+00 0.000000000000000e+00

0.000000000000000e+00 0.000000000000000e+00 0.000000000000000e+00
0.000000000000000e+00 0.000000000000000e+00 0.000000000000000e+00
0.000000000000000e+00 0.000000000000000e+00 0.000000000000000e+00

0.000000000000000e+00 0.000000000000000e+00 0.000000000000000e+00
0.000000000000000e+00 0.000000000000000e+00 0.000000000000000e+00
0.000000000000000e+00 0.000000000000000e+00 0.000000000000000e+00

0.000000000000000e+00 0.000000000000000e+00 0.000000000000000e+00
0.000000000000000e+00 0.000000000000000e+00 0.000000000000000e+00
0.000000000000000e+00 0.000000000000000e+00 0.000000000000000e+00

0.000000000000000e+00 0.000000000000000e+00 0.000000000000000e+00
0.000000000000000e+00 0.000000000000000e+00 0.000000000000000e+00
0.000000000000000e+00 0.000000000000000e+00 0.000000000000000e+00

0.000000000000000e+00 0.000000000000000e+00 0.000000000000000e+00
0.000000000000000e+00 0.000000000000000e+00 0.000000000000000e+00
0.000000000000000e+00 0.000000000000000e+00 0.000000000000000e+00

0.000000000000000e+00 0.000000000000000e+00 0.000000000000000e+00
0.000000000000000e+00 0.000000000000000e+00 0.000000000000000e+00
0.000000000000000e+00 0.000000000000000e+00 0.000000000000000e+00

0.000000000000000e+00 0.000000000000000e+00 0.000000000000000e+00
0.000000000000000e+00 0.000000000000000e+00 0.000000000000000e+00
0.000000000000000e+00 0.000000000000000e+00 0.000000000000000e+00

0.000000000000000e+00 0.000000000000000e+00 0.000000000000000e+00
0.000000000000000e+00 0.000000000000000e+00 0.000000000000000e+00
0.000000000000000e+00 0.000000000000000e+00 0.000000000000000e+00

0.000000000000000e+00 0.000000000000000e+00 0.000000000000000e+00
0.000000000000000e+00 0.000000000000000e+00 0.000000000000000e+00
0.000000000000000e+00 0.000000000000000e+00 0.000000000000000e+00

0.000000000000000e+00 0.000000000000000e+00 0.000000000000000e+00
0.000000000000000e+00 0.000000000000000e+00 0.000000000000000e+00
0.000000000000000e+00 0.000000000000000e+00 0.000000000000000e+00

0.000000000000000e+00 0.000000000000000e+00 0.000000000000000e+00
0.000000000000000e+00 0.000000000000000e+00 0.000000000000000e+00
0.000000000000000e+00 0.000000000000000e+00 0.000000000000000e+00

0.000000000000000e+00 0.000000000000000e+00 0.000000000000000e+00
0.000000000000000e+00 0.000000000000000e+00 0.000000000000000e+00
0.000000000000000e+00 0.000000000000000e+00 0.000000000000000e+00

0.000000000000000e+00 0.000000000000000e+00 0.000000000000000e+00
0.000000000000000e+00 0.000000000000000e+00 0.000000000000000e+00
0.000000000000000e+00 0.000000000000000e+00 0.000000000000000e+00

0.000000000000000e+00 0.000000000000000e+00 0.000000000000000e+00
0.000000000000000e+00 0.000000000000000e+00 0.000000000000000e+00
0.000000000000000e+00 0.000000000000000e+00 0.000000000000000e+00

0.000000000000000e+00 0.000000000000000e+00 0.000000000000000e+00
0.000000000000000e+00 0.000000000000000e+00 0.000000000000000e+00
0.000000000000000e+00 0.000000000000000e+00 0.000000000000000e+00

0.000000000000000e+00 0.000000000000000e+00 0.000000000000000e+00
0.000000000000000e+00 0.000000000000000e+00 0.000000000000000e+00
0.000000000000000e+00 0.000000000000000e+00 0.000000000000000e+00

0.000000000000000e+00 0.000000000000000e+00 0.000000000000000e+00
0.000000000000000e+00 0.000000000000000e+00 0.000000000000000e+00
0.000000000000000e+00 0.000000000000000e+00 0.000000000000000e+00

0.000000000000000e+00 0.000000000000000e+00 0.000000000000000e+00
0.000000000000000e+00 0.000000000000000e+00 0.000000000000000e+00
0.000000000000000e+00 0.000000000000000e+00 0.000000000000000e+00

0.000000000000000e+00 0.000000000000000e+00 0.000000000000000e+00
0.000000000000000e+00 0.000000000000000e+00 0.000000000000000e+00
0.000000000000000e+00 0.000000000000000e+00 0.000000000000000e+00

0.000000000000000e+00 0.000000000000000e+00 0.000000000000000e+00
0.000000000000000e+00 0.000000000000000e+00 0.000000000000000e+00
0.000000000000000e+00 0.000000000000000e+00 0.000000000000000e+00

0.000000000000000e+00 0.000000000000000e+00 0.000000000000000e+00
0.000000000000000e+00 0.000000000000000e+00 0.000000000000000e+00
0.000000000000000e+00 0.000000000000000e+00 0.000000000000000e+00

0.000000000000000e+00 0.000000000000000e+00 0.000000000000000e+00
0.000000000000000e+00 0.000000000000000e+00 0.000000000000000e+00
0.000000000000000e+00 0.000000000000000e+00 0.000000000000000e+00

0.000000000000000e+00 0.000000000000000e+00 0.000000000000000e+00
0.000000000000000e+00 0.000000000000000e+00 0.000000000000000e+00
0.000000000000000e+00 0.000000000000000e+00 0.000000000000000e+00

0.000000000000000e+00 0.000000000000000e+00 0.000000000000000e+00
0.000000000000000e+00 0.000000000000000e+00 0.000000000000000e+00
0.000000000000000e+00 0.000000000000000e+00 0.000000000000000e+00

0.000000000000000e+00 0.000000000000000e+00 0.000000000000000e+00
0.000000000000000e+00 0.000000000000000e+00 0.000000000000000e+00
0.000000000000000e+00 0.000000000000000e+00 0.000000000000000e+00

0.000000000000000e+00 0.000000000000000e+00 0.000000000000000e+00
0.000000000000000e+00 0.000000000000000e+00 0.000000000000000e+00
0.000000000000000e+00 0.000000000000000e+00 0.000000000000000e+00

0.000000000000000e+00 0.000000000000000e+00 0.000000000000000e+00
0.000000000000000e+00 0.000000000000000e+00 0.000000000000000e+00
0.000000000000000e+00 0.000000000000000e+00 0.000000000000000e+00

0.000000000000000e+00 0.000000000000000e+00 0.000000000000000e+00
0.000000000000000e+00 0.000000000000000e+00 0.000000000000000e+00
0.000000000000000e+00 0.000000000000000e+00 0.000000000000000e+00

0.000000000000000e+00 0.000000000000000e+00 0.000000000000000e+00
0.000000000000000e+00 0.000000000000000e+00 0.000000000000000e+00
0.000000000000000e+00 0.000000000000000e+00 0.000000000000000e+00

0.000000000000000e+00 0.000000000000000e+00 0.000000000000000e+00
0.000000000000000e+00 0.000000000000000e+00 0.000000000000000e+00
0.000000000000000e+00 0.000000000000000e+00 0.000000000000000e+00

0.000000000000000e+00 0.000000000000000e+00 0.000000000000000e+00
0.000000000000000e+00 0.000000000000000e+00 0.000000000000000e+00
0.000000000000000e+00 0.000000000000000e+00 0.000000000000000e+00

0.000000000000000e+00 0.000000000000000e+00 0.000000000000000e+00
0.000000000000000e+00 0.000000000000000e+00 0.000000000000000e+00
0.000000000000000e+00 0.000000000000000e+00 0.000000000000000e+00

0.000000000000000e+00 0.000000000000000e+00 0.000000000000000e+00
0.000000000000000e+00 0.000000000000000e+00 0.000000000000000e+00
0.000000000000000e+00 0.000000000000000e+00 0.000000000000000e+00

0.000000000000000e+00 0.000000000000000e+00 0.000000000000000e+00
0.000000000000000e+00 0.000000000000000e+00 0.000000000000000e+00
0.000000000000000e+00 0.000000000000000e+00 0.000000000000000e+00

0.000000000000000e+00 0.000000000000000e+00 0.000000000000000e+00
0.000000000000000e+00 0.000000000000000e+00 0.000000000000000e+00
0.000000000000000e+00 0.000000000000000e+00 0.000000000000000e+00

0.000000000000000e+00 0.000000000000000e+00 0.000000000000000e+00
0.000000000000000e+00 0.000000000000000e+00 0.000000000000000e+00
0.000000000000000e+00 0.000000000000000e+00 0.000000000000000e+00

0.000000000000000e+00 0.000000000000000e+00 0.000000000000000e+00
0.000000000000000e+00 0.000000000000000e+00 0.000000000000000e+00
0.000000000000000e+00 0.000000000000000e+00 0.000000000000000e+00

0.000000000000000e+00 0.000000000000000e+00 0.000000000000000e+00
0.000000000000000e+00 0.000000000000000e+00 0.000000000000000e+00
0.000000000000000e+00 0.000000000000000e+00 0.000000000000000e+00

0.000000000000000e+00 0.000000000000000e+00 0.000000000000000e+00
0.000000000000000e+00 0.000000000000000e+00 0.000000000000000e+00
0.000000000000000e+00 0.000000000000000e+00 0.000000000000000e+00

0.000000000000000e+00 0.000000000000000e+00 0.000000000000000e+00
0.000000000000000e+00 0.000000000000000e+00 0.000000000000000e+00
0.000000000000000e+00 0.000000000000000e+00 0.000000000000000e+00

0.000000000000000e+00 0.000000000000000e+00 0.000000000000000e+00
0.000000000000000e+00 0.000000000000000e+00 0.000000000000000e+00
0.000000000000000e+00 0.000000000000000e+00 0.000000000000000e+00

0.000000000000000e+00 0.000000000000000e+00 0.000000000000000e+00
0.000000000000000e+00 0.000000000000000e+00 0.000000000000000e+00
0.000000000000000e+00 0.000000000000000e+00 0.000000000000000e+00

0.000000000000000e+00 0.000000000000000e+00 0.000000000000000e+00
0.000000000000000e+00 0.000000000000000e+00 0.000000000000000e+00
0.000000000000000e+00 0.000000000000000e+00 0.000000000000000e+00

0.000000000000000e+00 0.000000000000000e+00 0.000000000000000e+00
0.000000000000000e+00 0.000000000000000e+00 0.000000000000000e+00
0.000000000000000e+00 0.000000000000000e+00 0.000000000000000e+00

0.000000000000000e+00 0.000000000000000e+00 0.000000000000000e+00
0.000000000000000e+00 0.000000000000000e+00 0.000000000000000e+00
0.000000000000000e+00 0.000000000000000e+00 0.000000000000000e+00

0.000000000000000e+00 0.000000000000000e+00 0.000000000000000e+00
0.000000000000000e+00 0.000000000000000e+00 0.000000000000000e+00
0.000000000000000e+00 0.000000000000000e+00 0.000000000000000e+00

0.000000000000000e+00 0.000000000000000e+00 0.000000000000000e+00
0.000000000000000e+00 0.000000000000000e+00 0.000000000000000e+00
0.000000000000000e+00 0.000000000000000e+00 0.000000000000000e+00

0.000000000000000e+00 0.000000000000000e+00 0.000000000000000e+00
0.000000000000000e+00 0.000000000000000e+00 0.000000000000000e+00
0.000000000000000e+00 0.000000000000000e+00 0.000000000000000e+00

0.000000000000000e+00 0.000000000000000e+00 0.000000000000000e+00
0.000000000000000e+00 0.000000000000000e+00 0.000000000000000e+00
0.000000000000000e+00 0.000000000000000e+00 0.000000000000000e+00

0.000000000000000e+00 0.000000000000000e+00 0.000000000000000e+00
0.000000000000000e+00 0.000000000000000e+00 0.000000000000000e+00
0.000000000000000e+00 0.000000000000000e+00 0.000000000000000e+00

0.000000000000000e+00 0.000000000000000e+00 0.000000000000000e+00
0.000000000000000e+00 0.000000000000000e+00 0.000000000000000e+00
0.000000000000000e+00 0.000000000000000e+00 0.000000000000000e+00

0.000000000000000e+00 0.000000000000000e+00 0.000000000000000e+00
0.000000000000000e+00 0.000000000000000e+00 0.000000000000000e+00
0.000000000000000e+00 0.000000000000000e+00 0.000000000000000e+00

0.000000000000000e+00 0.000000000000000e+00 0.000000000000000e+00
0.000000000000000e+00 0.000000000000000e+00 0.000000000000000e+00
0.000000000000000e+00 0.000000000000000e+00 0.000000000000000e+00

0.000000000000000e+00 0.000000000000000e+00 0.000000000000000e+00
0.000000000000000e+00 0.000000000000000e+00 0.000000000000000e+00
0.000000000000000e+00 0.000000000000000e+00 0.000000000000000e+00

0.000000000000000e+00 0.000000000000000e+00 0.000000000000000e+00
0.000000000000000e+00 0.000000000000000e+00 0.000000000000000e+00
0.000000000000000e+00 0.000000000000000e+00 0.000000000000000e+00

0.000000000000000e+00 0.000000000000000e+00 0.000000000000000e+00
0.000000000000000e+00 0.000000000000000e+00 0.000000000000000e+00
0.000000000000000e+00 0.000000000000000e+00 0.000000000000000e+00

0.000000000000000e+00 0.000000000000000e+00 0.000000000000000e+00
0.000000000000000e+00 0.000000000000000e+00 0.000000000000000e+00
0.000000000000000e+00 0.000000000000000e+00 0.000000000000000e+00

0.000000000000000e+00 0.000000000000000e+00 0.000000000000000e+00
0.000000000000000e+00 0.000000000000000e+00 0.000000000000000e+00
0.000000000000000e+00 0.000000000000000e+00 0.000000000000000e+00

0.000000000000000e+00 0.000000000000000e+00 0.000000000000000e+00
0.000000000000000e+00 0.000000000000000e+00 0.000000000000000e+00
0.000000000000000e+00 0.000000000000000e+00 0.000000000000000e+00

0.000000000000000e+00 0.000000000000000e+00 0.000000000000000e+00
0.000000000000000e+00 0.000000000000000e+00 0.000000000000000e+00
0.000000000000000e+00 0.000000000000000e+00 0.000000000000000e+00

0.000000000000000e+00 0.000000000000000e+00 0.000000000000000e+00
0.000000000000000e+00 0.000000000000000e+00 0.000000000000000e+00
0.000000000000000e+00 0.000000000000000e+00 0.000000000000000e+00

0.000000000000000e+00 0.000000000000000e+00 0.000000000000000e+00
0.000000000000000e+00 0.000000000000000e+00 0.000000000000000e+00
0.000000000000000e+00 0.000000000000000e+00 0.000000000000000e+00

0.000000000000000e+00 0.000000000000000e+00 0.000000000000000e+00
0.000000000000000e+00 0.000000000000000e+00 0.000000000000000e+00
0.000000000000000e+00 0.000000000000000e+00 0.000000000000000e+00

0.000000000000000e+00 0.000000000000000e+00 0.000000000000000e+00
0.000000000000000e+00 0.000000000000000e+00 0.000000000000000e+00
0.000000000000000e+00 0.000000000000000e+00 0.000000000000000e+00

0.000000000000000e+00 0.000000000000000e+00 0.000000000000000e+00
0.000000000000000e+00 0.000000000000000e+00 0.000000000000000e+00
0.000000000000000e+00 0.000000000000000e+00 0.000000000000000e+00

0.000000000000000e+00 0.000000000000000e+00 0.000000000000000e+00
0.000000000000000e+00 0.000000000000000e+00 0.000000000000000e+00
0.000000000000000e+00 0.000000000000000e+00 0.000000000000000e+00

0.000000000000000e+00 0.000000000000000e+00 0.000000000000000e+00
0.000000000000000e+00 0.000000000000000e+00 0.000000000000000e+00
0.000000000000000e+00 0.000000000000000e+00 0.000000000000000e+00

0.000000000000000e+00 0.000000000000000e+00 0.000000000000000e+00
0.000000000000000e+00 0.000000000000000e+00 0.000000000000000e+00
0.000000000000000e+00 0.000000000000000e+00 0.000000000000000e+00

0.000000000000000e+00 0.000000000000000e+00 0.000000000000000e+00
0.000000000000000e+00 0.000000000000000e+00 0.000000000000000e+00
0.000000000000000e+00 0.000000000000000e+00 0.000000000000000e+00

0.000000000000000e+00 0.000000000000000e+00 0.000000000000000e+00
0.000000000000000e+00 0.000000000000000e+00 0.000000000000000e+00
0.000000000000000e+00 0.000000000000000e+00 0.000000000000000e+00

0.000000000000000e+00 0.000000000000000e+00 0.000000000000000e+00
0.000000000000000e+00 0.000000000000000e+00 0.000000000000000e+00
0.000000000000000e+00 0.000000000000000e+00 0.000000000000000e+00

0.000000000000000e+00 0.000000000000000e+00 0.000000000000000e+00
0.000000000000000e+00 0.000000000000000e+00 0.000000000000000e+00
0.000000000000000e+00 0.000000000000000e+00 0.000000000000000e+00

0.000000000000000e+00 0.000000000000000e+00 0.000000000000000e+00
0.000000000000000e+00 0.000000000000000e+00 0.000000000000000e+00
0.000000000000000e+00 0.000000000000000e+00 0.000000000000000e+00

0.000000000000000e+00 0.000000000000000e+00 0.000000000000000e+00
0.000000000000000e+00 0.000000000000000e+00 0.000000000000000e+00
0.000000000000000e+00 0.000000000000000e+00 0.000000000000000e+00

0.000000000000000e+00 0.000000000000000e+00 0.000000000000000e+00
0.000000000000000e+00 0.000000000000000e+00 0.000000000000000e+00
0.000000000000000e+00 0.000000000000000e+00 0.000000000000000e+00

0.000000000000000e+00 0.000000000000000e+00 0.000000000000000e+00
0.000000000000000e+00 0.000000000000000e+00 0.000000000000000e+00
0.000000000000000e+00 0.000000000000000e+00 0.000000000000000e+00

0.000000000000000e+00 0.000000000000000e+00 0.000000000000000e+00
0.000000000000000e+00 0.000000000000000e+00 0.000000000000000e+00
0.000000000000000e+00 0.000000000000000e+00 0.000000000000000e+00

0.000000000000000e+00 0.000000000000000e+00 0.000000000000000e+00
0.000000000000000e+00 0.000000000000000e+00 0.000000000000000e+00
0.000000000000000e+00 0.000000000000000e+00 0.000000000000000e+00

0.000000000000000e+00 0.000000000000000e+00 0.000000000000000e+00
0.000000000000000e+00 0.000000000000000e+00 0.000000000000000e+00
0.000000000000000e+00 0.000000000000000e+00 0.000000000000000e+00

0.000000000000000e+00 0.000000000000000e+00 0.000000000000000e+00
0.000000000000000e+00 0.000000000000000e+00 0.000000000000000e+00
0.000000000000000e+00 0.000000000000000e+00 0.000000000000000e+00

0.000000000000000e+00 0.000000000000000e+00 0.000000000000000e+00
0.000000000000000e+00 0.000000000000000e+00 0.000000000000000e+00
0.000000000000000e+00 0.000000000000000e+00 0.000000000000000e+00

0.000000000000000e+00 0.000000000000000e+00 0.000000000000000e+00
0.000000000000000e+00 0.000000000000000e+00 0.000000000000000e+00
0.000000000000000e+00 0.000000000000000e+00 0.000000000000000e+00

0.000000000000000e+00 0.000000000000000e+00 0.000000000000000e+00
0.000000000000000e+00 0.000000000000000e+00 0.000000000000000e+00
0.000000000000000e+00 0.000000000000000e+00 0.000000000000000e+00

0.000000000000000e+00 0.000000000000000e+00 0.000000000000000e+00
0.000000000000000e+00 0.000000000000000e+00 0.000000000000000e+00
0.000000000000000e+00 0.000000000000000e+00 0.000000000000000e+00

0.000000000000000e+00 0.000000000000000e+00 0.000000000000000e+00
0.000000000000000e+00 0.000000000000000e+00 0.000000000000000e+00
0.000000000000000e+00 0.000000000000000e+00 0.000000000000000e+00

0.000000000000000e+00 0.000000000000000e+00 0.000000000000000e+00
0.000000000000000e+00 0.000000000000000e+00 0.000000000000000e+00
0.000000000000000e+00 0.000000000000000e+00 0.000000000000000e+00

0.000000000000000e+00 0.000000000000000e+00 0.000000000000000e+00
0.000000000000000e+00 0.000000000000000e+00 0.000000000000000e+00
0.000000000000000e+00 0.000000000000000e+00 0.000000000000000e+00

0.000000000000000e+00 0.000000000000000e+00 0.000000000000000e+00
0.000000000000000e+00 0.000000000000000e+00 0.000000000000000e+00
0.000000000000000e+00 0.000000000000000e+00 0.000000000000000e+00

0.000000000000000e+00 0.000000000000000e+00 0.000000000000000e+00
0.000000000000000e+00 0.000000000000000e+00 0.000000000000000e+00
0.000000000000000e+00 0.000000000000000e+00 0.000000000000000e+00

0.000000000000000e+00 0.000000000000000e+00 0.000000000000000e+00
0.000000000000000e+00 0.000000000000000e+00 0.000000000000000e+00
0.000000000000000e+00 0.000000000000000e+00 0.000000000000000e+00

0.000000000000000e+00 0.000000000000000e+00 0.000000000000000e+00
0.000000000000000e+00 0.000000000000000e+00 0.000000000000000e+00
0.000000000000000e+00 0.000000000000000e+00 0.000000000000000e+00

0.000000000000000e+00 0.000000000000000e+00 0.000000000000000e+00
0.000000000000000e+00 0.000000000000000e+00 0.000000000000000e+00
0.000000000000000e+00 0.000000000000000e+00 0.000000000000000e+00

0.000000000000000e+00 0.000000000000000e+00 0.000000000000000e+00
0.000000000000000e+00 0.000000000000000e+00 0.000000000000000e+00
0.000000000000000e+00 0.000000000000000e+00 0.000000000000000e+00

0.000000000000000e+00 0.000000000000000e+00 0.000000000000000e+00
0.000000000000000e+00 0.000000000000000e+00 0.000000000000000e+00
0.000000000000000e+00 0.000000000000000e+00 0.000000000000000e+00

0.000000000000000e+00 0.000000000000000e+00 0.000000000000000e+00
0.000000000000000e+00 0.000000000000000e+00 0.000000000000000e+00
0.000000000000000e+00 0.000000000000000e+00 0.000000000000000e+00

0.000000000000000e+00 0.000000000000000e+00 0.000000000000000e+00
0.000000000000000e+00 0.000000000000000e+00 0.000000000000000e+00
0.000000000000000e+00 0.000000000000000e+00 0.000000000000000e+00

0.000000000000000e+00 0.000000000000000e+00 0.000000000000000e+00
0.000000000000000e+00 0.000000000000000e+00 0.000000000000000e+00
0.000000000000000e+00 0.000000000000000e+00 0.000000000000000e+00

0.000000000000000e+00 0.000000000000000e+00 0.000000000000000e+00
0.000000000000000e+00 0.000000000000000e+00 0.000000000000000e+00
0.000000000000000e+00 0.000000000000000e+00 0.000000000000000e+00

0.000000000000000e+00 0.000000000000000e+00 0.000000000000000e+00
0.000000000000000e+00 0.000000000000000e+00 0.000000000000000e+00
0.000000000000000e+00 0.000000000000000e+00 0.000000000000000e+00

0.000000000000000e+00 0.000000000000000e+00 0.000000000000000e+00
0.000000000000000e+00 0.000000000000000e+00 0.000000000000000e+00
0.000000000000000e+00 0.000000000000000e+00 0.000000000000000e+00

0.000000000000000e+00 0.000000000000000e+00 0.000000000000000e+00
0.000000000000000e+00 0.000000000000000e+00 0.000000000000000e+00
0.000000000000000e+00 0.000000000000000e+00 0.000000000000000e+00

0.000000000000000e+00 0.000000000000000e+00 0.000000000000000e+00
0.000000000000000e+00 0.000000000000000e+00 0.000000000000000e+00
0.000000000000000e+00 0.000000000000000e+00 0.000000000000000e+00

0.000000000000000e+00 0.000000000000000e+00 0.000000000000000e+00
0.000000000000000e+00 0.000000000000000e+00 0.000000000000000e+00
0.000000000000000e+00 0.000000000000000e+00 0.000000000000000e+00

0.000000000000000e+00 0.000000000000000e+00 0.000000000000000e+00
0.000000000000000e+00 0.000000000000000e+00 0.000000000000000e+00
0.000000000000000e+00 0.000000000000000e+00 0.000000000000000e+00

0.000000000000000e+00 0.000000000000000e+00 0.000000000000000e+00
0.000000000000000e+00 0.000000000000000e+00 0.000000000000000e+00
0.000000000000000e+00 0.000000000000000e+00 0.000000000000000e+00

0.000000000000000e+00 0.000000000000000e+00 0.000000000000000e+00
0.000000000000000e+00 0.000000000000000e+00 0.000000000000000e+00
0.000000000000000e+00 0.000000000000000e+00 0.000000000000000e+00

0.000000000000000e+00 0.000000000000000e+00 0.000000000000000e+00
0.000000000000000e+00 0.000000000000000e+00 0.000000000000000e+00
0.000000000000000e+00 0.000000000000000e+00 0.000000000000000e+00

0.000000000000000e+00 0.000000000000000e+00 0.000000000000000e+00
0.000000000000000e+00 0.000000000000000e+00 0.000000000000000e+00
0.000000000000000e+00 0.000000000000000e+00 0.000000000000000e+00

0.000000000000000e+00 0.000000000000000e+00 0.000000000000000e+00
0.000000000000000e+00 0.000000000000000e+00 0.000000000000000e+00
0.000000000000000e+00 0.000000000000000e+00 0.000000000000000e+00

0.000000000000000e+00 0.000000000000000e+00 0.000000000000000e+00
0.000000000000000e+00 0.000000000000000e+00 0.000000000000000e+00
0.000000000000000e+00 0.000000000000000e+00 0.000000000000000e+00

0.000000000000000e+00 0.000000000000000e+00 0.000000000000000e+00
0.000000000000000e+00 0.000000000000000e+00 0.000000000000000e+00
0.000000000000000e+00 0.000000000000000e+00 0.000000000000000e+00

0.000000000000000e+00 0.000000000000000e+00 0.000000000000000e+00
0.000000000000000e+00 0.000000000000000e+00 0.000000000000000e+00
0.000000000000000e+00 0.000000000000000e+00 0.000000000000000e+00

0.000000000000000e+00 0.000000000000000e+00 0.000000000000000e+00
0.000000000000000e+00 0.000000000000000e+00 0.000000000000000e+00
0.000000000000000e+00 0.000000000000000e+00 0.000000000000000e+00

0.000000000000000e+00 0.000000000000000e+00 0.000000000000000e+00
0.000000000000000e+00 0.000000000000000e+00 0.000000000000000e+00
0.000000000000000e+00 0.000000000000000e+00 0.000000000000000e+00

0.000000000000000e+00 0.000000000000000e+00 0.000000000000000e+00
0.000000000000000e+00 0.000000000000000e+00 0.000000000000000e+00
0.000000000000000e+00 0.000000000000000e+00 0.000000000000000e+00

0.000000000000000e+00 0.000000000000000e+00 0.000000000000000e+00
0.000000000000000e+00 0.000000000000000e+00 0.000000000000000e+00
0.000000000000000e+00 0.000000000000000e+00 0.000000000000000e+00

0.000000000000000e+00 0.000000000000000e+00 0.000000000000000e+00
0.000000000000000e+00 0.000000000000000e+00 0.000000000000000e+00
0.000000000000000e+00 0.000000000000000e+00 0.000000000000000e+00

0.000000000000000e+00 0.000000000000000e+00 0.000000000000000e+00
0.000000000000000e+00 0.000000000000000e+00 0.000000000000000e+00
0.000000000000000e+00 0.000000000000000e+00 0.000000000000000e+00

0.000000000000000e+00 0.000000000000000e+00 0.000000000000000e+00
0.000000000000000e+00 0.000000000000000e+00 0.000000000000000e+00
0.000000000000000e+00 0.000000000000000e+00 0.000000000000000e+00

0.000000000000000e+00 0.000000000000000e+00 0.000000000000000e+00
0.000000000000000e+00 0.000000000000000e+00 0.000000000000000e+00
0.000000000000000e+00 0.000000000000000e+00 0.000000000000000e+00

0.000000000000000e+00 0.000000000000000e+00 0.000000000000000e+00
0.000000000000000e+00 0.000000000000000e+00 0.000000000000000e+00
0.000000000000000e+00 0.000000000000000e+00 0.000000000000000e+00

0.000000000000000e+00 0.000000000000000e+00 0.000000000000000e+00
0.000000000000000e+00 0.000000000000000e+00 0.000000000000000e+00
0.000000000000000e+00 0.000000000000000e+00 0.000000000000000e+00

0.000000000000000e+00 0.000000000000000e+00 0.000000000000000e+00
0.000000000000000e+00 0.000000000000000e+00 0.000000000000000e+00
0.000000000000000e+00 0.000000000000000e+00 0.000000000000000e+00

0.000000000000000e+00 0.000000000000000e+00 0.000000000000000e+00
0.000000000000000e+00 0.000000000000000e+00 0.000000000000000e+00
0.000000000000000e+00 0.000000000000000e+00 0.000000000000000e+00

0.000000000000000e+00 0.000000000000000e+00 0.000000000000000e+00
0.000000000000000e+00 0.000000000000000e+00 0.000000000000000e+00
0.000000000000000e+00 0.000000000000000e+00 0.000000000000000e+00

0.000000000000000e+00 0.000000000000000e+00 0.000000000000000e+00
0.000000000000000e+00 0.000000000000000e+00 0.000000000000000e+00
0.000000000000000e+00 0.000000000000000e+00 0.000000000000000e+00

0.000000000000000e+00 0.000000000000000e+00 0.000000000000000e+00
0.000000000000000e+00 0.000000000000000e+00 0.000000000000000e+00
0.000000000000000e+00 0.000000000000000e+00 0.000000000000000e+00

0.000000000000000e+00 0.000000000000000e+00 0.000000000000000e+00
0.000000000000000e+00 0.000000000000000e+00 0.000000000000000e+00
0.000000000000000e+00 0.000000000000000e+00 0.000000000000000e+00

0.000000000000000e+00 0.000000000000000e+00 0.000000000000000e+00
0.000000000000000e+00 0.000000000000000e+00 0.000000000000000e+00
0.000000000000000e+00 0.000000000000000e+00 0.000000000000000e+00

0.000000000000000e+00 0.000000000000000e+00 0.000000000000000e+00
0.000000000000000e+00 0.000000000000000e+00 0.000000000000000e+00
0.000000000000000e+00 0.000000000000000e+00 0.000000000000000e+00

0.000000000000000e+00 0.000000000000000e+00 0.000000000000000e+00
0.000000000000000e+00 0.000000000000000e+00 0.000000000000000e+00
0.000000000000000e+00 0.000000000000000e+00 0.000000000000000e+00

0.000000000000000e+00 0.000000000000000e+00 0.000000000000000e+00
0.000000000000000e+00 0.000000000000000e+00 0.000000000000000e+00
0.000000000000000e+00 0.000000000000000e+00 0.000000000000000e+00

0.000000000000000e+00 0.000000000000000e+00 0.000000000000000e+00
0.000000000000000e+00 0.000000000000000e+00 0.000000000000000e+00
0.000000000000000e+00 0.000000000000000e+00 0.000000000000000e+00

 1.078679970005113e-17 -1.724334694341125e-19 -9.745088951283631e-01
-1.724334694341125e-19  7.479372523591801e-18  3.870408149290087e-01
-9.745088951283631e-01  3.870408149290087e-01  8.124805848231348e-18

 1.160319276036894e-17 -1.480577300132516e-19 -1.014905890636514e+00
-1.480577300132516e-19  1.175849264313898e-17  3.764201451622000e-01
-1.014905890636514e+00  3.764201451622000e-01  1.008406145784852e-17

 1.054820910310162e-17 -1.194142258747496e-19 -9.603710839192047e-01
-1.194142258747496e-19  2.065315341297156e-17  3.810409786427881e-01
-9.603710839192047e-01  3.810409786427881e-01  7.620821023202084e-18

 9.931086287077337e-18 -1.710738365433980e-19 -9.339264378461956e-01
-1.710738365433980e-19  1.687989428903925e-17  4.023605988166682e-01
-9.339264378461956e-01  4.023605988166682e-01  5.870085381837138e-18

 9.926504457104202e-18 -1.863966136168163e-19 -9.310352367366413e-01
-1.863966136168163e-19  1.623260402033934e-18  4.140580999855686e-01
-9.310352367366413e-01  4.140580999855686e-01  5.692018946819049e-18

 9.706979095695199e-18 -2.220265458248446e-19 -9.227262445649393e-01
-2.220265458248446e-19  1.314422476242356e-17  4.229027242938059e-01
-9.227262445649393e-01  4.229027242938059e-01  5.107198757729822e-18

 1.054697253799066e-17 -3.981540033467226e-20 -9.553251056559051e-01
-3.981540033467226e-20  3.608865287451476e-17  3.769289544815703e-01
-9.553251056559051e-01  3.769289544815703e-01  7.451940651005686e-18

 6.902732997587735e-18  6.847934696289716e-19 -9.684006005321788e-01
 6.847934696289716e-19  1.262952783052216e-17  3.920706360094744e-01
-9.684006005321788e-01  3.920706360094744e-01  7.807516445566500e-18

 7.765497163590946e-18  6.833195236784247e-19 -1.010293834904993e+00
 6.833195236784247e-19  8.841739607895236e-18  4.090714785081823e-01
-1.010293834904993e+00  4.090714785081823e-01  9.766306879133286e-18

-4.066181256553809e-17  1.008347297445419e-17 -9.835425595956637e-01
 1.008347297445419e-17 -5.997676926515894e-18  4.430769194162176e-01
-9.835425595956637e-01  4.430769194162176e-01  7.169563659553496e-18

 1.346478790204626e-17 -3.357972193927859e-19 -1.001973868460116e+00
-3.357972193927859e-19  2.428050162117252e-17  3.823763249866267e-01
-1.001973868460116e+00  3.823763249866267e-01  8.723894641848616e-18

 8.503153073990450e-18  4.479058131111301e-19 -1.016443129364140e+00
 4.479058131111301e-19  1.046030463168683e-17  4.019527976700467e-01
-1.016443129364140e+00  4.019527976700467e-01  8.699844100930291e-18

 1.127910576077766e-17 -2.470171945745428e-20 -1.039738255112301e+00
-2.470171945745428e-20  2.170138113932376e-17  4.150987394382478e-01
-1.039738255112301e+00  4.150987394382478e-01  9.539322912748460e-18

 1.116598275803891e-17 -8.410466033587648e-20 -1.017413837318987e+00
-8.410466033587648e-20  2.464597060604726e-17  4.083608814458813e-01
-1.017413837318987e+00  4.083608814458813e-01  8.203159367345357e-18

 1.206924930681166e-17 -9.067445002603266e-20 -1.057316834193552e+00
-9.067445002603266e-20  1.399563204680359e-17  3.958365928598894e-01
-1.057316834193552e+00  3.958365928598894e-01  1.070155087936109e-17

 1.289560948182035e-17 -5.215482071212248e-20 -1.093406456036937e+00
-5.215482071212248e-20  1.757484126193211e-17  4.091766728712949e-01
-1.093406456036937e+00  4.091766728712949e-01  1.283356320933138e-17

 8.817321035039589e-18  1.481671585496852e-19 -9.324394061734003e-01
 1.481671585496852e-19  3.152650983363506e-17  5.649544506158664e-01
-9.324394061734003e-01  5.649544506158664e-01  4.105357749123894e-19

 1.193538892990435e-17  3.700815898520381e-21 -1.052358214855126e+00
 3.700815898520381e-21  1.783896984057343e-17  4.127246535197142e-01
-1.052358214855126e+00  4.127246535197142e-01  1.018570003920548e-17

 1.114666649611985e-17 -7.858466494288968e-20 -1.014527691131283e+00
-7.858466494288968e-20  6.642549456383499e-18  4.176539824315187e-01
-1.014527691131283e+00  4.176539824315187e-01  8.092485427006301e-18

 1.073576531761803e-17 -5.402415252416051e-20 -9.963123339205519e-01
-5.402415252416051e-20  1.324328249568761e-17  4.422924118903945e-01
-9.963123339205519e-01  4.422924118903945e-01  6.883045387633940e-18

 1.268644953087536e-17 -1.647141961259782e-19 -1.068402810486520e+00
-1.647141961259782e-19  1.245956907192637e-17  3.552301724873642e-01
-1.068402810486520e+00  3.552301724873642e-01  1.299687857165421e-17

 1.054135392559479e-17 -9.942938527742386e-20 -9.801979816240975e-01
-9.942938527742386e-20  2.056115663750755e-17  4.056087288987268e-01
-9.801979816240975e-01  4.056087288987268e-01  6.850589815082497e-18

 1.053827502456015e-17 -6.441139617717472e-20 -9.794382939795653e-01
-6.441139617717472e-20  1.970567161313908e-17  4.166732010792435e-01
-9.794382939795653e-01  4.166732010792435e-01  6.840950705326094e-18

 1.061984521434271e-17 -6.290863129898365e-20 -9.822987312708606e-01
-6.290863129898365e-20  1.008831555269369e-17  4.284244723458937e-01
-9.822987312708606e-01  4.284244723458937e-01  6.944560795320626e-18

 1.132841290495187e-17 -6.928986541007443e-20 -1.009912856816278e+00
-6.928986541007443e-20  1.355330882836597e-17  3.958746452377695e-01
-1.009912856816278e+00  3.958746452377695e-01  9.195417626989837e-18

 1.087572966274453e-17 -3.967484990157838e-20 -9.904336385595304e-01
-3.967484990157838e-20  1.483041823094980e-17  4.180011884836972e-01
-9.904336385595304e-01  4.180011884836972e-01  7.836376007631596e-18

 1.089546771592344e-17 -7.668876769294064e-20 -9.863843604734890e-01
-7.668876769294064e-20  2.046532941910765e-17  3.977530079141014e-01
-9.863843604734890e-01  3.977530079141014e-01  8.174509362450855e-18

 1.030475429506113e-17 -4.456474525312669e-20 -9.583009313373448e-01
-4.456474525312669e-20  1.779240964455383e-17  4.177036128391421e-01
-9.583009313373448e-01  4.177036128391421e-01  6.591665743470092e-18

 1.067624939382833e-17 -8.983638000201057e-20 -9.688801216255331e-01
-8.983638000201057e-20  1.189758801229596e-17  3.911598139874081e-01
-9.688801216255331e-01  3.911598139874081e-01  7.972324955473286e-18

 1.002683627286724e-17 -5.864692002081850e-20 -9.416052143418576e-01
-5.864692002081850e-20  8.853251258877012e-18  4.130418998902351e-01
-9.416052143418576e-01  4.130418998902351e-01  6.161074188118263e-18

 8.255750465341711e-18 -2.172766810245920e-20 -8.669607388449103e-01
-2.172766810245920e-20  1.400110654366534e-17  4.449017272062700e-01
-8.669607388449103e-01  4.449017272062700e-01  1.207193792051930e-18

 1.265663344882232e-17 -1.443101213979036e-19 -1.040728385928895e+00
-1.443101213979036e-19  2.104247529240838e-17  2.486123811370160e-01
-1.040728385928895e+00  2.486123811370160e-01  1.478164027206731e-17

 1.033980761707884e-17 -1.955755075576290e-20 -9.513657254099525e-01
-1.955755075576290e-20  1.660705542392974e-17  3.348548668085211e-01
-9.513657254099525e-01  3.348548668085211e-01  7.748652398583383e-18

 9.751108496442250e-18 -1.398450964046942e-19 -9.303156922222547e-01
-1.398450964046942e-19  1.117275781327691e-17  4.339429860467431e-01
-9.303156922222547e-01  4.339429860467431e-01  5.307881675394752e-18

 1.053382260394420e-17 -1.205753518195353e-19 -9.684127748640570e-01
-1.205753518195353e-19  1.475346155175904e-17  4.162907993137284e-01
-9.684127748640570e-01  4.162907993137284e-01  7.325503337564165e-18

 1.061264536568868e-17 -1.190100283128437e-19 -9.747200898956961e-01
-1.190100283128437e-19  1.679704407412514e-17  4.213322535021066e-01
-9.747200898956961e-01  4.213322535021066e-01  7.381430912396485e-18

 1.106994675675869e-17 -1.036839543815809e-19 -9.962854884197823e-01
-1.036839543815809e-19  1.558995162900775e-17  3.956428875235931e-01
-9.962854884197823e-01  3.956428875235931e-01  8.806871368187747e-18

 1.066114917298582e-17 -8.095661720525050e-20 -9.804506060173449e-01
-8.095661720525050e-20  2.503877686234799e-18  4.153637461628437e-01
-9.804506060173449e-01  4.153637461628437e-01  7.402483226202892e-18

 1.109377257204660e-17 -8.218565432263438e-20 -1.000545523287338e+00
-8.218565432263438e-20  7.838891663211179e-18  3.899767739560541e-01
-1.000545523287338e+00  3.899767739560541e-01  8.852960422684178e-18

 1.091360768302586e-17 -8.231046027548908e-20 -9.940020463234563e-01
-8.231046027548908e-20  1.234701725865698e-17  4.073100635000599e-01
-9.940020463234563e-01  4.073100635000599e-01  8.121018504548679e-18

 1.105869971699165e-17 -8.821226047793352e-20 -1.002673617869577e+00
-8.821226047793352e-20  1.577575144588031e-17  4.047553831264132e-01
-1.002673617869577e+00  4.047553831264132e-01  8.624800107561874e-18

 1.042898826613813e-17 -9.122200841275433e-20 -9.782529211767742e-01
-9.122200841275433e-20  1.550577520585900e-17  4.290682053118553e-01
-9.782529211767742e-01  4.290682053118553e-01  6.704200612854571e-18

 1.041128361362963e-17 -1.012367956569876e-19 -9.785805270477603e-01
-1.012367956569876e-19  2.098317951814359e-17  4.232935377914542e-01
-9.785805270477603e-01  4.232935377914542e-01  6.728200529280968e-18

 1.055737566567235e-17 -9.982702652260107e-20 -9.856308075366838e-01
-9.982702652260107e-20  1.508510795244031e-17  4.006298064333819e-01
-9.856308075366838e-01  4.006298064333819e-01  7.326452884805708e-18

 1.159268522818541e-17 -7.840717173173946e-20 -1.029654523471144e+00
-7.840717173173946e-20  1.059313724139534e-17  3.745728320128687e-01
-1.029654523471144e+00  3.745728320128687e-01  1.029099589462804e-17

 1.083479323799659e-17 -1.199058225620774e-19 -9.996901522880659e-01
-1.199058225620774e-19  1.482976771326934e-17  4.249929627705822e-01
-9.996901522880659e-01  4.249929627705822e-01  7.804109877696365e-18

 1.089939322398785e-17 -1.345732515665008e-19 -1.004614641564823e+00
-1.345732515665008e-19  9.781850788952640e-18  4.272503934494531e-01
-1.004614641564823e+00  4.272503934494531e-01  8.020051059294619e-18

 1.114865744558060e-17 -1.322687988690076e-19 -1.015730677821626e+00
-1.322687988690076e-19  1.212404617095176e-17  4.117827978642349e-01
-1.015730677821626e+00  4.117827978642349e-01  8.820707435435348e-18

 1.123276643581309e-17 -1.250196045188865e-19 -1.018962313474553e+00
-1.250196045188865e-19  1.602623220033414e-17  4.199487340859295e-01
-1.018962313474553e+00  4.199487340859295e-01  8.984747830320924e-18

 1.083031542899251e-17 -8.886496127310047e-20 -1.002788698851687e+00
-8.886496127310047e-20  1.225814500806114e-17  4.352788546165485e-01
-1.002788698851687e+00  4.352788546165485e-01  7.900891784566916e-18

 1.050743124839409e-17 -1.168239261959391e-19 -9.855277643805461e-01
-1.168239261959391e-19  1.510840539853655e-17  3.997531088217439e-01
-9.855277643805461e-01  3.997531088217439e-01  7.367732957277035e-18

 1.060660623274598e-17 -7.285137698149504e-20 -9.906959619497165e-01
-7.285137698149504e-20  1.462160536964528e-17  3.919047723543567e-01
-9.906959619497165e-01  3.919047723543567e-01  7.671839434348650e-18

 1.096367391060732e-17 -1.273547206821033e-19 -1.008733612045112e+00
-1.273547206821033e-19  1.387589222564824e-17  4.624544292604033e-01
-1.008733612045112e+00  4.624544292604033e-01  8.109663308474157e-18

 1.075242637652863e-17 -5.515792889926793e-20 -1.000376496500728e+00
-5.515792889926793e-20  9.462274450535126e-18  4.430787297683415e-01
-1.000376496500728e+00  4.430787297683415e-01  7.537104901214551e-18

 1.126379574954883e-17 -1.138327746162093e-19 -1.019099873900186e+00
-1.138327746162093e-19  1.820002513766860e-17  3.778459576747889e-01
-1.019099873900186e+00  3.778459576747889e-01  9.556271175338398e-18

 1.066629039291502e-17 -6.023635031543082e-20 -9.974940243266481e-01
-6.023635031543082e-20  1.954934079108776e-17  4.041534695270236e-01
-9.974940243266481e-01  4.041534695270236e-01  7.703863267466483e-18

 1.089964059986681e-17 -7.386325971246717e-20 -1.009593362212950e+00
-7.386325971246717e-20  1.922925134932577e-17  4.352372383166319e-01
-1.009593362212950e+00  4.352372383166319e-01  7.929750219881553e-18

 1.149202784301929e-17 -5.108760017174056e-20 -1.038297570549749e+00
-5.108760017174056e-20  1.897862347308573e-17  4.121208138465163e-01
-1.038297570549749e+00  4.121208138465163e-01  9.743837144415554e-18

 1.146938283047215e-17 -3.619815218293086e-20 -1.040589738810908e+00
-3.619815218293086e-20  1.634424445498629e-17  4.109359914765664e-01
-1.040589738810908e+00  4.109359914765664e-01  9.629719124411003e-18

 1.144003818048689e-17 -3.236359559873177e-20 -1.040762298341828e+00
-3.236359559873177e-20  1.833489438859687e-17  4.116822243327020e-01
-1.040762298341828e+00  4.116822243327020e-01  9.489677441237166e-18

 1.142767422305968e-17 -3.505040272950748e-20 -1.042192751205856e+00
-3.505040272950748e-20  1.233981077692667e-17  4.107292676085950e-01
-1.042192751205856e+00  4.107292676085950e-01  9.509693273148285e-18

 1.134823468556352e-17 -3.300196428126118e-20 -1.039480200799922e+00
-3.300196428126118e-20  1.566187000016961e-17  4.166045724617347e-01
-1.039480200799922e+00  4.166045724617347e-01  9.163435046433522e-18

 1.138007787898705e-17 -4.896670421269039e-20 -1.042826825551896e+00
-4.896670421269039e-20  1.508989389101000e-17  4.131973345621094e-01
-1.042826825551896e+00  4.131973345621094e-01  9.401301590666440e-18

 1.131915820836858e-17 -5.699469258092672e-20 -1.040701191970399e+00
-5.699469258092672e-20  1.886640940832195e-17  4.202660648825414e-01
-1.040701191970399e+00  4.202660648825414e-01  9.147682382105056e-18

 1.125944161751896e-17 -6.614703477535458e-20 -1.039211999748445e+00
-6.614703477535458e-20  2.035511042886420e-17  4.237487535870205e-01
-1.039211999748445e+00  4.237487535870205e-01  9.143597990702227e-18

 1.025593548449030e-17 -4.174534567555543e-20 -9.977516809008427e-01
-4.174534567555543e-20  6.828720117508225e-18  4.571640145676655e-01
-9.977516809008427e-01  4.571640145676655e-01  6.253404048504787e-18

 1.028966527659141e-17 -1.087433297323448e-19 -9.958736863533610e-01
-1.087433297323448e-19  6.414371419379699e-18  4.314785806239995e-01
-9.958736863533610e-01  4.314785806239995e-01  6.691431713649937e-18

 1.029849626411122e-17 -1.506235488956387e-19 -9.937272886550298e-01
-1.506235488956387e-19  1.548969149130629e-17  3.982295235231937e-01
-9.937272886550298e-01  3.982295235231937e-01  7.100016508785627e-18

 1.101728910568109e-17 -1.083674312730181e-19 -1.023653010019262e+00
-1.083674312730181e-19  1.246498974903773e-17  3.880230019989823e-01
-1.023653010019262e+00  3.880230019989823e-01  9.208750668107559e-18

 1.018375871938014e-17 -1.644166457144277e-19 -9.905325309303346e-01
-1.644166457144277e-19  9.877377215424267e-18  4.439665408539570e-01
-9.905325309303346e-01  4.439665408539570e-01  6.508520267792194e-18

 1.062344475289379e-17 -1.791251497815900e-19 -1.008902414717931e+00
-1.791251497815900e-19  1.846434682344580e-17  4.354021504175291e-01
-1.008902414717931e+00  4.354021504175291e-01  7.811300185880296e-18

 1.070269982889422e-17 -1.713656201722081e-19 -1.011645001982077e+00
-1.713656201722081e-19  7.673770279997981e-18  4.219450595397428e-01
-1.011645001982077e+00  4.219450595397428e-01  8.157639451737270e-18

 1.071573380083586e-17 -1.857622622098989e-19 -1.011360990623743e+00
-1.857622622098989e-19  1.446563894924648e-17  4.287690554808458e-01
-1.011360990623743e+00  4.287690554808458e-01  8.145772941878153e-18

 1.094343863876032e-17 -1.743470916746084e-19 -1.020027681844132e+00
-1.743470916746084e-19  8.171414186238075e-18  4.175339073031449e-01
-1.020027681844132e+00  4.175339073031449e-01  8.940989431455491e-18

 1.073173824794241e-17 -1.774727189766209e-19 -1.009652244350754e+00
-1.774727189766209e-19  1.382710471045403e-17  4.229676550532078e-01
-1.009652244350754e+00  4.229676550532078e-01  8.390223521225811e-18

 1.070526805490933e-17 -1.759707602097263e-19 -1.005092655526948e+00
-1.759707602097263e-19  1.529556560084176e-17  4.098624630028264e-01
-1.005092655526948e+00  4.098624630028264e-01  8.548306873233432e-18

 1.056049247228590e-17 -1.585167761445891e-19 -9.949153485268746e-01
-1.585167761445891e-19  1.501937149996650e-17  4.142411591367533e-01
-9.949153485268746e-01  4.142411591367533e-01  8.250893631838456e-18

 1.039597035684706e-17 -1.422627824048216e-19 -9.857671240365381e-01
-1.422627824048216e-19  1.574298793841513e-17  4.192889453607479e-01
-9.857671240365381e-01  4.192889453607479e-01  7.891082295984027e-18

 1.015857141209473e-17 -1.148828036776941e-19 -9.745838830588716e-01
-1.148828036776941e-19  1.494221611276937e-17  4.254751954661061e-01
-9.745838830588716e-01  4.254751954661061e-01  7.325840543728795e-18

 8.603304104379892e-18 -7.076136332395970e-20 -9.080726131577566e-01
-7.076136332395970e-20  6.036390345903404e-18  4.446371273102266e-01
-9.080726131577566e-01  4.446371273102266e-01  3.094242491392366e-18

 1.221253859523320e-17 -1.861099874182485e-19 -1.049499329715292e+00
-1.861099874182485e-19  1.846878699933490e-17  2.787554994187549e-01
-1.049499329715292e+00  2.787554994187549e-01  1.434360003787611e-17

 1.075619513631747e-17 -9.177839984223090e-20 -9.929713388615541e-01
-9.177839984223090e-20  9.466533609024874e-18  3.301494651942451e-01
-9.929713388615541e-01  3.301494651942451e-01  9.946272236577363e-18

 9.416805798138986e-18 -1.600360220119073e-19 -9.409912101419277e-01
-1.600360220119073e-19  1.378263294470958e-17  4.321405064776219e-01
-9.409912101419277e-01  4.321405064776219e-01  5.523551456829002e-18

 1.005239446713418e-17 -1.328859919274920e-19 -9.719985642333960e-01
-1.328859919274920e-19  7.522518106100795e-18  4.191134354263177e-01
-9.719985642333960e-01  4.191134354263177e-01  7.223912439232351e-18

 1.019029990667724e-17 -1.416149547849257e-19 -9.800936784495130e-01
-1.416149547849257e-19  1.259334466232279e-17  4.228036389673105e-01
-9.800936784495130e-01  4.228036389673105e-01  7.472644762914879e-18

 1.060434852176298e-17 -1.153632241171859e-19 -9.992930090347292e-01
-1.153632241171859e-19  1.542657606155318e-17  4.016788351352832e-01
-9.992930090347292e-01  4.016788351352832e-01  8.729942160024847e-18

 1.030349935648688e-17 -1.276386799496509e-19 -9.883009161377818e-01
-1.276386799496509e-19  2.300169186157080e-17  4.172739141174672e-01
-9.883009161377818e-01  4.172739141174672e-01  7.704059279049375e-18

 1.057809127943551e-17 -1.083021229908496e-19 -1.001879668696782e+00
-1.083021229908496e-19  2.436690900923284e-17  4.001696210955624e-01
-1.001879668696782e+00  4.001696210955624e-01  8.665497551818876e-18

 1.042776022281209e-17 -9.403780922875345e-20 -9.965699537086476e-01
-9.403780922875345e-20 -4.484616661042898e-18  4.095052853323803e-01
-9.965699537086476e-01  4.095052853323803e-01  8.108171136488480e-18

 1.036938503349213e-17 -1.057886459964650e-19 -9.969153025827621e-01
-1.057886459964650e-19  1.690070498477376e-17  4.106527267204264e-01
-9.969153025827621e-01  4.106527267204264e-01  8.064770749837689e-18

 1.009263021069841e-17 -1.049386260861460e-19 -9.870277757388315e-01
-1.049386260861460e-19  1.690356217764558e-17  4.157520557398922e-01
-9.870277757388315e-01  4.157520557398922e-01  7.297821271594217e-18

 1.006970111168290e-17 -9.890170020922999e-20 -9.879573513487182e-01
-9.890170020922999e-20  1.790232607011000e-17  4.059500700232731e-01
-9.879573513487182e-01  4.059500700232731e-01  7.308730556108938e-18

 1.141095927418908e-17 -2.701598026402270e-20 -1.047244495221328e+00
-2.701598026402270e-20  2.220998922192681e-17  3.509135983861590e-01
-1.047244495221328e+00  3.509135983861590e-01  1.139893562380936e-17

 9.619187910770385e-18 -1.859020547268416e-19 -9.743542164008158e-01
-1.859020547268416e-19 -4.840310230933612e-18  4.645616058865639e-01
-9.743542164008158e-01  4.645616058865639e-01  5.674039076690343e-18

 9.535094035017330e-18 -1.788629622026242e-19 -9.721591651796402e-01
-1.788629622026242e-19  4.777880382128917e-18  4.905122398540327e-01
-9.721591651796402e-01  4.905122398540327e-01  5.226558735010366e-18

 1.039643090676011e-17 -1.295750565107502e-19 -1.005393562474270e+00
-1.295750565107502e-19  1.328821436625219e-17  4.080476293354763e-01
-1.005393562474270e+00  4.080476293354763e-01  8.341482646898072e-18

 1.038824537475833e-17 -1.241916319381749e-19 -1.003455787402544e+00
-1.241916319381749e-19  8.490341449309454e-18  3.890565925769678e-01
-1.003455787402544e+00  3.890565925769678e-01  8.595653560157594e-18

 1.005176803359595e-17 -1.184550381936573e-19 -9.910378746124705e-01
-1.184550381936573e-19  8.388874631188972e-18  4.131901619805779e-01
-9.910378746124705e-01  4.131901619805779e-01  7.607119189551011e-18

 9.974248220183258e-18 -1.178480624714266e-19 -9.889435711907191e-01
-1.178480624714266e-19  9.798730164136471e-18  4.284144703463653e-01
-9.889435711907191e-01  4.284144703463653e-01  7.318253549778901e-18

 1.004888925392341e-17 -1.134353079977990e-19 -9.926529557894700e-01
-1.134353079977990e-19  3.141873576176930e-19  4.092057234710152e-01
-9.926529557894700e-01  4.092057234710152e-01  7.758805456887837e-18

 1.011561244541723e-17 -9.752211818623152e-20 -9.969325096340961e-01
-9.752211818623152e-20  7.281353214480027e-19  3.980522890393066e-01
-9.969325096340961e-01  3.980522890393066e-01  8.009542881544429e-18

 1.054084101680925e-17 -1.016030278102033e-19 -1.016633083739374e+00
-1.016030278102033e-19  1.572321008427862e-17  3.955125003816778e-01
-1.016633083739374e+00  3.955125003816778e-01  9.194423145948677e-18

 1.069162542485406e-17 -1.127215674295597e-19 -1.025247682914958e+00
-1.127215674295597e-19  2.049065789646835e-17  4.178364666869838e-01
-1.025247682914958e+00  4.178364666869838e-01  9.454998621272616e-18

 8.571526008892632e-18  3.664996579386150e-21 -9.428638761137008e-01
 3.664996579386150e-21 -3.142252395169452e-20  4.964984086304885e-01
-9.428638761137008e-01  4.964984086304885e-01  3.097636788672220e-18

 1.093160570429992e-17 -1.230609110270213e-19 -1.033105556040390e+00
-1.230609110270213e-19  1.409003365656137e-17  3.856245356712887e-01
-1.033105556040390e+00  3.856245356712887e-01  1.051502972117160e-17

 1.234407437107723e-17 -2.467473949009590e-19 -1.086942083359697e+00
-2.467473949009590e-19  1.369052415477852e-17  3.123608812201531e-01
-1.086942083359697e+00  3.123608812201531e-01  1.503935759390916e-17

 9.633813666532346e-18 -1.268977503064817e-19 -9.785082367637852e-01
-1.268977503064817e-19  3.575298250102803e-18  4.137219087728249e-01
-9.785082367637852e-01  4.137219087728249e-01  6.986135160271309e-18

 9.671514224685316e-18 -1.013707783433058e-19 -9.806107232859878e-01
-1.013707783433058e-19 -3.158027395522826e-18  4.193984283245394e-01
-9.806107232859878e-01  4.193984283245394e-01  7.150693871696892e-18

 9.835548428394612e-18 -1.081140780599360e-19 -9.866004576985957e-01
-1.081140780599360e-19  1.227471062220453e-17  4.072389704562489e-01
-9.866004576985957e-01  4.072389704562489e-01  7.666171719535321e-18

 1.004918982601882e-17 -1.005744982657871e-19 -9.965582683780085e-01
-1.005744982657871e-19  1.767705913228948e-17  3.910923552556235e-01
-9.965582683780085e-01  3.910923552556235e-01  8.485312462336002e-18

 9.845564007170230e-18 -1.006227004181302e-19 -9.899258677689581e-01
-1.006227004181302e-19  2.215091389365341e-17  4.157506868018673e-01
-9.899258677689581e-01  4.157506868018673e-01  7.768837446682998e-18

 1.001178651392479e-17 -8.301295454973007e-20 -9.980782977971633e-01
-8.301295454973007e-20  1.148684611898241e-18  4.073235662226786e-01
-9.980782977971633e-01  4.073235662226786e-01  8.373202372372424e-18

 9.781971471010508e-18 -9.445136716137277e-20 -9.889217832712972e-01
-9.445136716137277e-20  1.114226154590838e-18  4.041229090481011e-01
-9.889217832712972e-01  4.041229090481011e-01  7.863967398439866e-18

 9.645408834541851e-18 -1.101311865180216e-19 -9.839788510958682e-01
-1.101311865180216e-19  6.756057926886365e-18  4.054315672171554e-01
-9.839788510958682e-01  4.054315672171554e-01  7.627210568590953e-18

 9.327957525767989e-18 -1.227160471610367e-19 -9.719975741972473e-01
-1.227160471610367e-19  1.531823384608173e-17  4.154438385796563e-01
-9.719975741972473e-01  4.154438385796563e-01  6.793521960171516e-18

 9.419617931195397e-18 -1.473644142869566e-19 -9.749812569010299e-01
-1.473644142869566e-19  1.057417173752151e-17  3.972478691370266e-01
-9.749812569010299e-01  3.972478691370266e-01  7.367234695371302e-18

 9.201900782377994e-18 -1.599087122137575e-19 -9.653753588138763e-01
-1.599087122137575e-19  1.763267326867983e-17  4.053983075225893e-01
-9.653753588138763e-01  4.053983075225893e-01  6.803743557821605e-18

 8.735423654953267e-18 -1.650159010240845e-19 -9.471298622689277e-01
-1.650159010240845e-19  1.565848368033665e-17  4.264536742223512e-01
-9.471298622689277e-01  4.264536742223512e-01  5.451762223742229e-18

 9.131089096538956e-18 -1.675626236614677e-19 -9.623743163460352e-01
-1.675626236614677e-19  7.386195757302723e-18  4.145057277657042e-01
-9.623743163460352e-01  4.145057277657042e-01  6.848137112646764e-18

 8.835569803161381e-18 -1.653259450707032e-19 -9.490888306151308e-01
-1.653259450707032e-19  1.281721951548628e-17  4.232600701469937e-01
-9.490888306151308e-01  4.232600701469937e-01  6.059051533604757e-18

 8.992845913699156e-18 -1.497388624704849e-19 -9.562839867493470e-01
-1.497388624704849e-19  1.402322019988351e-17  3.941390843855296e-01
-9.562839867493470e-01  3.941390843855296e-01  6.891801180644712e-18

 8.667689572252425e-18 -1.227737065053241e-19 -9.435699629556694e-01
-1.227737065053241e-19  6.824051685233222e-18  4.057255086507688e-01
-9.435699629556694e-01  4.057255086507688e-01  5.911460961035136e-18

 9.018690102992575e-18 -9.846143985460254e-20 -9.615700817558549e-01
-9.846143985460254e-20  6.207123325419956e-18  3.910444729482588e-01
-9.615700817558549e-01  3.910444729482588e-01  7.020270501638391e-18

 9.443234762091437e-18 -1.095885045091679e-19 -9.811762330202254e-01
-1.095885045091679e-19  6.774106592397665e-18  3.957214795925427e-01
-9.811762330202254e-01  3.957214795925427e-01  8.051333252334407e-18

 9.819980575751437e-18 -1.448394081625190e-19 -1.001001279275612e+00
-1.448394081625190e-19  3.429284279960481e-18  4.089646489892839e-01
-1.001001279275612e+00  4.089646489892839e-01  9.062085125888631e-18

 9.049341597446646e-18 -8.713828732468996e-20 -9.729351592418548e-01
-8.713828732468996e-20  9.709340391142687e-18  4.411931273864699e-01
-9.729351592418548e-01  4.411931273864699e-01  6.708376045840625e-18

 9.127449890229430e-18 -7.303882378068721e-20 -9.770427463275512e-01
-7.303882378068721e-20  1.527291911626830e-17  4.039263497133821e-01
-9.770427463275512e-01  4.039263497133821e-01  7.292639190219668e-18

 1.095557760432766e-17  1.850073637786492e-22 -1.054539901161609e+00
 1.850073637786492e-22  1.438347962185935e-17  2.985618473764318e-01
-1.054539901161609e+00  2.985618473764318e-01  1.314772483641463e-17

 9.123003437560236e-18 -9.466206425793486e-20 -9.797371193245358e-01
-9.466206425793486e-20  1.040690179750284e-17  4.015676443596917e-01
-9.797371193245358e-01  4.015676443596917e-01  7.358432911555479e-18

 7.544977292735238e-18 -1.761014780374679e-19 -9.166587549920366e-01
-1.761014780374679e-19  2.234439938039840e-17  4.926121950790827e-01
-9.166587549920366e-01  4.926121950790827e-01  2.375248612692528e-18

 9.900882483294740e-18 -6.889179235760793e-20 -1.018885869735666e+00
-6.889179235760793e-20  7.198290751418433e-18  3.959513703096250e-01
-1.018885869735666e+00  3.959513703096250e-01  9.602183549472542e-18

 9.278161344891750e-18 -6.717101233794120e-20 -9.975686791054713e-01
-6.717101233794120e-20  1.717172646455673e-17  4.014704389253889e-01
-9.975686791054713e-01  4.014704389253889e-01  7.971440533453884e-18

 9.326792690053497e-18 -8.171473922879591e-20 -1.001181441038244e+00
-8.171473922879591e-20  6.892990727867965e-18  3.922108598126581e-01
-1.001181441038244e+00  3.922108598126581e-01  8.228559087376900e-18

 9.358927976675710e-18 -9.450239372663127e-20 -1.005563077128677e+00
-9.450239372663127e-20  1.124790484557790e-17  3.882295888831268e-01
-1.005563077128677e+00  3.882295888831268e-01  8.503883678232216e-18

 9.131921764755934e-18 -9.999859724615761e-20 -9.997865622860052e-01
-9.999859724615761e-20  1.434325740303971e-17  4.139239065835296e-01
-9.997865622860052e-01  4.139239065835296e-01  7.798790068085952e-18

 9.306042493211708e-18 -1.071694776959577e-19 -1.008916143722926e+00
-1.071694776959577e-19  4.820315768035522e-18  4.047277348698142e-01
-1.008916143722926e+00  4.047277348698142e-01  8.559237135079121e-18

 9.154430453533508e-18 -9.233613057261625e-20 -1.003306707480010e+00
-9.233613057261625e-20  4.217855725585723e-18  4.132018253069630e-01
-1.003306707480010e+00  4.132018253069630e-01  8.342052625048048e-18

 7.573390565410842e-18 -1.994221391970861e-20 -9.403727302954549e-01
-1.994221391970861e-20  5.584892720098184e-18  4.647209581128331e-01
-9.403727302954549e-01  4.647209581128331e-01  3.874319814048436e-18

 7.743394981472450e-18 -1.682626138604735e-19 -9.433127872665383e-01
-1.682626138604735e-19  1.451196746600527e-17  4.206316080373221e-01
-9.433127872665383e-01  4.206316080373221e-01  4.954942778930297e-18

 8.032550817446888e-18 -1.922164859663410e-19 -9.547548768091436e-01
-1.922164859663410e-19  1.446905505793020e-17  3.564427031670319e-01
-9.547548768091436e-01  3.564427031670319e-01  6.456244109551308e-18

 8.728342642705389e-18 -1.017500284719926e-19 -9.863483732449152e-01
-1.017500284719926e-19  1.012389191343661e-17  3.492833249978407e-01
-9.863483732449152e-01  3.492833249978407e-01  8.458683296603323e-18

 7.205359606792337e-18 -2.160458043213934e-19 -9.265203501525283e-01
-2.160458043213934e-19  7.453329757807557e-18  4.439841081321700e-01
-9.265203501525283e-01  4.439841081321700e-01  3.645218015944470e-18

 8.358198956975569e-18 -2.442509874604800e-19 -9.802491801466710e-01
-2.442509874604800e-19  7.805521385844957e-18  4.297795222269893e-01
-9.802491801466710e-01  4.297795222269893e-01  6.969614003480790e-18

 8.297387880973090e-18 -1.837546690662961e-19 -9.917129721992158e-01
-1.837546690662961e-19  4.401645403898185e-19  4.145238414333871e-01
-9.917129721992158e-01  4.145238414333871e-01  7.608514554254413e-18

 1.097180114429222e-17 -8.947258733423573e-19 -9.951697088059909e-01
-8.947258733423573e-19  1.249376110321451e-17  4.167851953184779e-01
-9.951697088059909e-01  4.167851953184779e-01  7.796432062873166e-18

 6.431979781004261e-17 -1.492893585022797e-17 -9.945726844242955e-01
-1.492893585022797e-17  1.656301794598112e-17  4.183522060203947e-01
-9.945726844242955e-01  4.183522060203947e-01  7.820468642180372e-18

 4.435171824263645e-17 -9.733981946715689e-18 -9.870132593515365e-01
-9.733981946715689e-18  4.939484540549116e-18  4.160564011071101e-01
-9.870132593515365e-01  4.160564011071101e-01  7.411379237980724e-18

-9.112970360122746e-20  1.973696193825255e-18 -9.864634912565050e-01
 1.973696193825255e-18  1.159512791760985e-17  3.998020086383678e-01
-9.864634912565050e-01  3.998020086383678e-01  7.574042139158893e-18

 4.912417621897058e-18  7.187144926898989e-19 -9.971594759747062e-01
 7.187144926898989e-19  1.763876985639733e-17  3.963593295420394e-01
-9.971594759747062e-01  3.963593295420394e-01  8.276837245977068e-18

 7.990330772070684e-18 -1.468869951126731e-19 -9.925828077256148e-01
-1.468869951126731e-19  6.779506234925749e-18  4.175838332049666e-01
-9.925828077256148e-01  4.175838332049666e-01  7.658567721122471e-18

 8.759359866705554e-18 -2.271779423706453e-19 -1.014967621860309e+00
-2.271779423706453e-19  9.781981871178520e-18  3.974297945876187e-01
-1.014967621860309e+00  3.974297945876187e-01  9.114936475941754e-18

 8.600194364735469e-18 -2.446164525736109e-19 -1.008143798663894e+00
-2.446164525736109e-19  3.735257739966213e-19  3.982940814155748e-01
-1.008143798663894e+00  3.982940814155748e-01  8.635140986466629e-18

 7.709342692202403e-18 -1.671186261345636e-19 -9.902143849169034e-01
-1.671186261345636e-19  1.555518374306791e-17  4.059481949913833e-01
-9.902143849169034e-01  4.059481949913833e-01  7.186616667157876e-18

 7.871123702418315e-18 -1.824217104866822e-19 -1.001471546159173e+00
-1.824217104866822e-19  1.292197608895184e-18  4.080823767045783e-01
-1.001471546159173e+00  4.080823767045783e-01  7.663267916920681e-18

 7.701556360657347e-18 -1.998770138013932e-19 -1.000299959013254e+00
-1.998770138013932e-19  9.618204367704709e-20  4.300987212605207e-01
-1.000299959013254e+00  4.300987212605207e-01  7.168742143796398e-18

 7.984175312402405e-18 -2.047535619422169e-19 -1.016064156718039e+00
-2.047535619422169e-19  3.413169625040936e-18  4.061725605239321e-01
-1.016064156718039e+00  4.061725605239321e-01  8.268756124133103e-18

 7.894696778173142e-18 -2.061141093269990e-19 -1.018838450160825e+00
-2.061141093269990e-19  1.176614245738500e-17  4.045605982707902e-01
-1.018838450160825e+00  4.045605982707902e-01  8.214023719921538e-18

 6.975095944384677e-18 -2.144271952033089e-19 -9.884825129816237e-01
-2.144271952033089e-19  5.485782290956263e-18  4.626130428082770e-01
-9.884825129816237e-01  4.626130428082770e-01  5.444869428625503e-18

 7.124915169806880e-18 -2.200648959428867e-19 -1.001328181709728e+00
-2.200648959428867e-19  6.590365870595610e-18  4.415563053132506e-01
-1.001328181709728e+00  4.415563053132506e-01  6.223856006954506e-18

 6.935246221283996e-18 -1.660833618180184e-19 -1.010592265910495e+00
-1.660833618180184e-19  1.296125078565018e-17  4.111781187186315e-01
-1.010592265910495e+00  4.111781187186315e-01  6.107691468446959e-18

 1.139643611763288e-17  1.868848272482257e-19 -1.221796090879069e+00
 1.868848272482257e-19  1.721659759142252e-17  2.795746291875532e-01
-1.221796090879069e+00  2.795746291875532e-01  1.900298043193242e-17

 6.617057427968216e-18 -5.766926680657753e-19 -1.026887516502253e+00
-5.766926680657753e-19 -1.152807191172129e-17  5.918278905948062e-01
-1.026887516502253e+00  5.918278905948062e-01  4.438261779177793e-18

 2.653094074667516e-18 -4.512751327604762e-19 -8.797689703818047e-01
-4.512751327604762e-19 -5.366958850508940e-18  7.726791014754186e-01
-8.797689703818047e-01  7.726791014754186e-01 -7.194450616470207e-18

 9.842534837759552e-18 -3.564404787086466e-19 -1.172541485551668e+00
-3.564404787086466e-19  1.351265843052050e-17  4.600381077750679e-01
-1.172541485551668e+00  4.600381077750679e-01  1.441528105419016e-17

 8.705965088309236e-18 -6.864770220979108e-19 -1.118131763273886e+00
-6.864770220979108e-19  2.027320326128516e-17  3.984447268354975e-01
-1.118131763273886e+00  3.984447268354975e-01  1.207328191184500e-17

 6.069521254766066e-18 -6.221813513566031e-19 -1.014097383845376e+00
-6.221813513566031e-19  6.840909803394875e-18  4.391849568635954e-01
-1.014097383845376e+00  4.391849568635954e-01  5.385675782483889e-18

 5.664306656064826e-18 -5.630915731711274e-19 -1.004301743837504e+00
-5.630915731711274e-19  3.554526454855454e-18  4.485152656316054e-01
-1.004301743837504e+00  4.485152656316054e-01  4.925602806076893e-18

 5.525323373542078e-18 -5.688035760326022e-19 -1.005872145457021e+00
-5.688035760326022e-19  2.809664346176540e-18  4.602140815948080e-01
-1.005872145457021e+00  4.602140815948080e-01  4.852435406616857e-18

 5.922753468810100e-18 -2.714998468145661e-19 -1.043045384835453e+00
-2.714998468145661e-19  9.730262322416575e-19  4.082331880597036e-01
-1.043045384835453e+00  4.082331880597036e-01  6.333455317560028e-18

 1.429870998982305e-17  4.389109228643033e-19 -1.420004150005123e+00
 4.389109228643033e-19  1.568866083333673e-17  2.069271221410094e-01
-1.420004150005123e+00  2.069271221410094e-01  2.923529507932249e-17

 9.545127464049033e-19 -1.247236246580888e-18 -8.599909504096549e-01
-1.247236246580888e-18 -9.118279706934449e-18  8.589279588960694e-01
-8.599909504096549e-01  8.589279588960694e-01 -7.144711783961046e-18

 5.271169090373051e-18 -4.291711466755813e-20 -1.063007451285257e+00
-4.291711466755813e-20  5.498613623128525e-18  6.519165773529535e-01
-1.063007451285257e+00  6.519165773529535e-01  5.035694993616063e-18

 9.158730969605794e-18 -1.868753705229384e-18 -1.167258001652806e+00
-1.868753705229384e-18  3.094848088543393e-18  3.356751354028110e-01
-1.167258001652806e+00  3.356751354028110e-01  1.676623869409889e-17

 5.201821641548270e-18 -1.596217400950490e-18 -1.012356344287417e+00
-1.596217400950490e-18  7.426364292964163e-18  3.912515141443560e-01
-1.012356344287417e+00  3.912515141443560e-01  6.306876782620278e-18

 5.534070186892933e-18 -1.268551201115990e-18 -1.034820558601229e+00
-1.268551201115990e-18  1.505843103786652e-17  3.332125637069817e-01
-1.034820558601229e+00  3.332125637069817e-01  8.436634632857889e-18

 4.436403547878956e-18 -7.020096895767772e-19 -1.011005724718402e+00
-7.020096895767772e-19  9.826411347339311e-18  3.737279233240133e-01
-1.011005724718402e+00  3.737279233240133e-01  5.832289749567534e-18

 2.071568971179884e-18 -9.459304237661762e-19 -9.259601563596048e-01
-9.459304237661762e-19 -2.012448978105847e-17  6.098376099890493e-01
-9.259601563596048e-01  6.098376099890493e-01 -1.306528751420758e-18

 1.486226270389784e-18 -8.088092567695188e-19 -9.114934102592127e-01
-8.088092567695188e-19  5.066514469032639e-18  5.957998786504002e-01
-9.114934102592127e-01  5.957998786504002e-01 -2.455300229484991e-18

 5.664419614808504e-18 -1.195424530851926e-18 -1.079602919227621e+00
-1.195424530851926e-18  1.047346991406176e-17  3.587980041313322e-01
-1.079602919227621e+00  3.587980041313322e-01  1.130050030526520e-17

 3.363096842014039e-18 -1.067124320990964e-18 -1.007748480473108e+00
-1.067124320990964e-18  5.467519940976625e-18  4.544996566448043e-01
-1.007748480473108e+00  4.544996566448043e-01  5.598385215132310e-18

 2.239064040610968e-18 -1.191665844481153e-18 -9.861191104415190e-01
-1.191665844481153e-18 -1.178197656818840e-17  4.342545261935392e-01
-9.861191104415190e-01  4.342545261935392e-01  4.399097771977306e-18

 1.883240327565691e-18 -1.285262844592263e-18 -9.981880236617034e-01
-1.285262844592263e-18  1.020841639438721e-18  4.256688419497323e-01
-9.981880236617034e-01  4.256688419497323e-01  4.965216679259112e-18

 1.639659664244504e-18 -1.443638795206035e-18 -1.020062257528185e+00
-1.443638795206035e-18  1.355040405464192e-17  4.512765283218603e-01
-1.020062257528185e+00  4.512765283218603e-01  5.813887941088846e-18

 1.027497983999841e-18 -1.548029990395850e-18 -1.021916795368629e+00
-1.548029990395850e-18 -1.126897122737599e-18  4.175660815172009e-01
-1.021916795368629e+00  4.175660815172009e-01  5.850929621092685e-18

 2.091491285300257e-20 -1.655129247107639e-18 -1.007737312324710e+00
-1.655129247107639e-18  1.574810590638812e-18  4.327571975279997e-01
-1.007737312324710e+00  4.327571975279997e-01  4.362363269183452e-18

-5.577985050819038e-19 -1.890519846742503e-18 -1.035770486679499e+00
-1.890519846742503e-18 -1.746436675630767e-17  4.393709399715405e-01
-1.035770486679499e+00  4.393709399715405e-01  5.217646647406916e-18

 1.605308203413255e-19 -2.708075101521158e-18 -1.059908707217974e+00
-2.708075101521158e-18 -3.955541125993505e-17  4.417850852619153e-01
-1.059908707217974e+00  4.417850852619153e-01  5.801475864312695e-18

-1.200863830535418e-17  2.773467211040993e-19 -1.044823550155503e+00
 2.773467211040993e-19  3.448538249354324e-18  4.098313378169675e-01
-1.044823550155503e+00  4.098313378169675e-01  3.839270310267851e-18

-5.373341627307134e-19 -2.620243394114370e-18 -1.112203489604834e+00
-2.620243394114370e-18 -1.014036347263899e-17  3.316790218443458e-01
-1.112203489604834e+00  3.316790218443458e-01  5.051978475032094e-18

 1.057703234169732e-19  4.200995570140884e-19 -1.512409009687167e+00
 4.200995570140884e-19 -2.925008932342529e-17  7.485878744115511e-02
-1.512409009687167e+00  7.485878744115511e-02  2.996973395918068e-17

-2.636454431660745e-18 -3.536631302176414e-18 -1.065816069855462e+00
-3.536631302176414e-18 -9.216878151057207e-18  7.039584939653170e-01
-1.065816069855462e+00  7.039584939653170e-01  2.857026557005632e-18

-4.866421232658726e-18 -2.082501674960812e-18 -1.112589223918058e+00
-2.082501674960812e-18 -9.854521687201015e-18  6.605850636839867e-01
-1.112589223918058e+00  6.605850636839867e-01  4.107331439978166e-18

-6.571221902780333e-18 -3.746716409928579e-18 -1.140337015200344e+00
-3.746716409928579e-18 -2.215366570207924e-17  3.827157371587009e-01
-1.140337015200344e+00  3.827157371587009e-01  8.713098514938551e-18

-9.321711514294052e-18 -5.098547381279316e-18 -1.009699605996625e+00
-5.098547381279316e-18 -7.240199249904782e-18  4.302862937139229e-01
-1.009699605996625e+00  4.302862937139229e-01  5.017446024698657e-19

-6.019707430997670e-18 -1.006204385021066e-17 -9.188865746669983e-01
-1.006204385021066e-17 -1.695753758630094e-17  4.322467442088327e-01
-9.188865746669983e-01  4.322467442088327e-01 -4.590474142081304e-18

-7.623951940408859e-18 -9.353458103557929e-18 -1.144415697838287e+00
-9.353458103557929e-18 -2.292133996448740e-17  1.680469840388062e-01
-1.144415697838287e+00  1.680469840388062e-01  1.225752813749405e-17

 7.415630182031807e-17 -5.196996951586360e-17 -9.740694166921742e-01
-5.196996951586360e-17 -1.952548201333284e-17  4.014833718344281e-01
-9.740694166921742e-01  4.014833718344281e-01 -1.363457169672277e-18

 8.297265228234214e-17 -6.051167724743232e-17 -9.293400871651916e-01
-6.051167724743232e-17 -1.618388976162848e-17  4.252544634546192e-01
-9.293400871651916e-01  4.252544634546192e-01 -4.665593794489789e-18

 1.628891689563668e-16 -1.002517090223460e-16 -1.148666394231048e+00
-1.002517090223460e-16  1.248868967413691e-17  1.160989343664723e-01
-1.148666394231048e+00  1.160989343664723e-01  1.119430856467697e-17

-2.415365588526169e-17 -1.336784594360705e-17 -8.237144715478574e-01
-1.336784594360705e-17 -5.741097042301217e-17  4.494648937416582e-01
-8.237144715478574e-01  4.494648937416582e-01 -1.368537492257575e-17

-2.760018104495552e-17 -1.248402811679105e-17 -9.547480509908082e-01
-1.248402811679105e-17 -6.295811449997483e-17  4.890807773773600e-01
-9.547480509908082e-01  4.890807773773600e-01 -7.207045977013868e-18

-3.269737448142723e-17 -1.197609885320574e-17 -9.128919907661444e-01
-1.197609885320574e-17 -5.371867917997300e-17  5.898860552583061e-01
-9.128919907661444e-01  5.898860552583061e-01 -1.204732818739699e-17

-3.048178962008396e-17 -1.370332813942740e-17 -1.107478838478567e+00
-1.370332813942740e-17 -5.958534804606034e-17  4.084840708126314e-01
-1.107478838478567e+00  4.084840708126314e-01  1.880966220295229e-19

-4.234911621148287e-17 -1.908700306814965e-17 -1.042943598722370e+00
-1.908700306814965e-17 -7.711522914685977e-17  4.097430567262299e-01
-1.042943598722370e+00  4.097430567262299e-01 -7.380636792594519e-18

-5.850730813825054e-17 -2.722724201822528e-17 -9.181106762818397e-01
-2.722724201822528e-17 -9.201423931435808e-17  4.387941639211071e-01
-9.181106762818397e-01  4.387941639211071e-01 -1.876699809973113e-17

-6.612324426200704e-17 -3.416469880070229e-17 -1.050040392863000e+00
-3.416469880070229e-17 -9.748932237978766e-17  2.647637004033724e-01
-1.050040392863000e+00  2.647637004033724e-01 -1.216866825711512e-17

-7.477411766083925e-17 -3.559310440945561e-17 -8.961570650175722e-01
-3.559310440945561e-17 -1.230385270030020e-16  4.716133628620278e-01
-8.961570650175722e-01  4.716133628620278e-01 -2.534173987461605e-17

-8.357881867805766e-17 -3.915023239199686e-17 -8.530655913772005e-01
-3.915023239199686e-17 -1.339833794145034e-16  5.681974912621172e-01
-8.530655913772005e-01  5.681974912621172e-01 -3.145944039272209e-17

-1.031591379718248e-16 -4.991958157375475e-17 -9.748809946938027e-01
-4.991958157375475e-17 -1.639694055041630e-16  4.274246155580872e-01
-9.748809946938027e-01  4.274246155580872e-01 -3.123439037410981e-17

-1.173600062796506e-16 -6.117483712398723e-17 -1.360518083059446e+00
-6.117483712398723e-17 -1.768033083092016e-16  9.444892938217084e-02
-1.360518083059446e+00  9.444892938217084e-02 -1.528332239023965e-17

-1.333083880942483e-16 -5.814685582547185e-17 -1.084016946300083e+00
-5.814685582547185e-17 -2.307986346250406e-16  5.495310167158548e-01
-1.084016946300083e+00  5.495310167158548e-01 -3.633569027660594e-17

-1.510097207195537e-16 -5.990068147318042e-17 -9.204372704891294e-01
-5.990068147318042e-17 -2.252776962804319e-16  7.975050383190837e-01
-9.204372704891294e-01  7.975050383190837e-01 -5.321714467960760e-17

-1.642142501124888e-16 -7.806215382212322e-17 -1.185397549362122e+00
-7.806215382212322e-17 -2.798502760392515e-16  4.411581867891197e-01
-1.185397549362122e+00  4.411581867891197e-01 -4.001746608596659e-17

-1.838676894015894e-16 -9.579357460915006e-17 -1.225671212440801e+00
-9.579357460915006e-17 -2.909502985216506e-16  2.770631612690616e-01
-1.225671212440801e+00  2.770631612690616e-01 -4.041319642571645e-17

-2.040114343422991e-16 -1.077638805477938e-16 -1.173054976204248e+00
-1.077638805477938e-16 -2.969857069173128e-16  2.675232917402166e-01
-1.173054976204248e+00  2.675232917402166e-01 -4.893850654260037e-17

-2.245255465142802e-16 -1.140927310763035e-16 -9.719606476191338e-01
-1.140927310763035e-16 -3.276712877667826e-16  4.455426692245564e-01
-9.719606476191338e-01  4.455426692245564e-01 -6.887411720013936e-17

-2.554451948723151e-16 -1.299120124802492e-16 -9.620331363469284e-01
-1.299120124802492e-16 -3.587593823532862e-16  4.932926726843226e-01
-9.620331363469284e-01  4.932926726843226e-01 -7.888986072891019e-17

-2.874648696913461e-16 -1.491454902299858e-16 -9.888610003990537e-01
-1.491454902299858e-16 -3.903170082939483e-16  4.628000525994541e-01
-9.888610003990537e-01  4.628000525994541e-01 -8.582226291284098e-17

-3.295386205701610e-16 -1.745602844100093e-16 -1.028409840236937e+00
-1.745602844100093e-16 -4.246123860492212e-16  4.041848173636888e-01
-1.028409840236937e+00  4.041848173636888e-01 -9.439317545018766e-17

-4.150131686645164e-16 -2.206032900325631e-16 -1.002614272799079e+00
-2.206032900325631e-16 -4.858156599639404e-16  3.831832211871398e-01
-1.002614272799079e+00  3.831832211871398e-01 -1.196740164613174e-16

-4.829252307520858e-16 -2.555222656140273e-16 -1.047996840756026e+00
-2.555222656140273e-16 -5.226104856776716e-16  3.484981682840064e-01
-1.047996840756026e+00  3.484981682840064e-01 -1.360898421684925e-16

-5.990558158423130e-16 -3.053758287392700e-16 -9.817752996138688e-01
-3.053758287392700e-16 -6.326380851134636e-16  4.726517147397378e-01
-9.817752996138688e-01  4.726517147397378e-01 -1.747411144337605e-16

-8.838414203621157e-16 -4.252488017282514e-16 -1.025663825970388e+00
-4.252488017282514e-16 -8.176808906956142e-16  4.443796487312879e-01
-1.025663825970388e+00  4.443796487312879e-01 -2.538283107544448e-16

-1.314080421330965e-15 -5.772846136357603e-16 -9.747008960344841e-01
-5.772846136357603e-16 -9.961432312202890e-16  4.525853681626651e-01
-9.747008960344841e-01  4.525853681626651e-01 -3.827992605821275e-16

-1.953048981869654e-15 -7.474306031505028e-16 -1.035442947418665e+00
-7.474306031505028e-16 -1.033629933449673e-15  2.816690727509914e-01
-1.035442947418665e+00  2.816690727509914e-01 -5.781006404148017e-16

-2.535037609037246e-15 -8.243427246213073e-16 -1.128603518160265e+00
-8.243427246213073e-16 -1.318871928395962e-15  2.797136995265584e-01
-1.128603518160265e+00  2.797136995265584e-01 -7.639554632572952e-16

-3.381775984179745e-15 -8.282645583796120e-16 -1.020920587990122e+00
-8.282645583796120e-16 -2.118021013677997e-15  5.747331431990075e-01
-1.020920587990122e+00  5.747331431990075e-01 -1.049357783048626e-15

-4.974029903866452e-15 -7.370432759209336e-16 -1.064967752145128e+00
-7.370432759209336e-16 -2.603934236526295e-15  4.931277189830507e-01
-1.064967752145128e+00  4.931277189830507e-01 -1.665322046865854e-15

-7.168094885185744e-15 -5.012037735442023e-16 -1.054156749307617e+00
-5.012037735442023e-16 -2.176062411011311e-15  3.560761349115615e-01
-1.054156749307617e+00  3.560761349115615e-01 -2.748200350035792e-15

-9.765089283556382e-15  4.516947000907933e-17 -1.017191264684885e+00
 4.516947000907933e-17 -2.002440559657982e-15  3.608893128153367e-01
-1.017191264684885e+00  3.608893128153367e-01 -4.146641230796187e-15

-1.431950194348906e-14  1.420864771358380e-15 -9.582693403667001e-01
 1.420864771358380e-15 -2.004882112769065e-15  4.296524874310228e-01
-9.582693403667001e-01  4.296524874310228e-01 -6.714458309862209e-15

 1.763062522886918e-14  2.677784938112180e-14 -9.905503600514848e-01
 2.677784938112180e-14  3.324695178674388e-14  4.292009980841036e-01
-9.905503600514848e-01  4.292009980841036e-01 -1.277404299598201e-15

-6.425619913306334e-13 -1.527920331693981e-13 -9.983737802130862e-01
-1.527920331693981e-13 -2.717339427120845e-13  4.369293674167663e-01
-9.983737802130862e-01  4.369293674167663e-01 -2.096564300221263e-13

 2.053539605284344e-14  4.088380907880723e-15 -1.018960269103543e+00
 4.088380907880723e-15  2.440939426942699e-14  4.178649101498190e-01
-1.018960269103543e+00  4.178649101498190e-01 -3.910406198323273e-15

-7.142570855403241e-15 -1.195995487184351e-14 -1.025110235656614e+00
-1.195995487184351e-14  5.562304933525728e-16  4.232884134443519e-01
-1.025110235656614e+00  4.232884134443519e-01 -8.288702719020928e-15

-6.495212669365973e-13 -1.513081025134720e-13 -1.013023561821250e+00
-1.513081025134720e-13 -3.182866437331852e-13  4.205346113363513e-01
-1.013023561821250e+00  4.205346113363513e-01 -1.590214121858123e-13

-4.036087932308385e-15 -9.184226892628568e-15 -1.022989045755083e+00
-9.184226892628568e-15  1.273236873600958e-15  4.262827051491502e-01
-1.022989045755083e+00  4.262827051491502e-01 -4.571155180237262e-15

-3.170100402225678e-15 -7.236194523174999e-15 -1.028676715009089e+00
-7.236194523174999e-15  1.711478682228835e-15  4.152316967026161e-01
-1.028676715009089e+00  4.152316967026161e-01 -3.360842968796966e-15

-2.653716124416456e-15 -4.518183573984436e-15 -1.021333362030902e+00
-4.518183573984436e-15  1.774477444053093e-15  4.204598580440314e-01
-1.021333362030902e+00  4.204598580440314e-01 -2.055148723057223e-15

-1.954985471175918e-15 -2.105560825422151e-15 -1.021371097072176e+00
-2.105560825422151e-15  1.312275151923130e-15  4.212095288363438e-01
-1.021371097072176e+00  4.212095288363438e-01 -1.092282066104518e-15

-1.409295087062478e-15 -1.022378621644047e-15 -1.038369529976561e+00
-1.022378621644047e-15  8.226404395942285e-16  4.019506860961566e-01
-1.038369529976561e+00  4.019506860961566e-01 -6.517499977353401e-16

-1.004443551956318e-15 -4.779554824745639e-16 -9.879815729283430e-01
-4.779554824745639e-16  4.749132776412097e-16  5.242798949863745e-01
-9.879815729283430e-01  5.242798949863745e-01 -4.102642053926993e-16

-8.052710486437099e-16 -3.390445659470383e-16 -9.636761445608693e-01
-3.390445659470383e-16  3.325182249688237e-16  4.427410135146531e-01
-9.636761445608693e-01  4.427410135146531e-01 -3.231601517586577e-16

-6.499810645034026e-16 -2.451217420111419e-16 -9.518947062728466e-01
-2.451217420111419e-16  2.124160600038089e-16  3.441925477544518e-01
-9.518947062728466e-01  3.441925477544518e-01 -2.558126375054915e-16

-4.665463143700987e-16 -1.121852051865144e-16 -9.373265298569805e-01
-1.121852051865144e-16  1.011101436360273e-16  4.441504675343570e-01
-9.373265298569805e-01  4.441504675343570e-01 -1.730552120728107e-16

-3.531250989743264e-16 -5.886993672674485e-17 -9.979069444178548e-01
-5.886993672674485e-17  5.077634832402595e-17  4.224432026170211e-01
-9.979069444178548e-01  4.224432026170211e-01 -1.239410802301620e-16

-2.645308895745536e-16 -2.749711469675050e-17 -1.048653196769470e+00
-2.749711469675050e-17  2.688271507501939e-17  4.116051266133993e-01
-1.048653196769470e+00  4.116051266133993e-01 -8.756768675547422e-17

-2.040020614119045e-16 -1.352635315322756e-17 -1.087465158367824e+00
-1.352635315322756e-17  1.835067210381900e-18  4.127247038246996e-01
-1.087465158367824e+00  4.127247038246996e-01 -6.375472296167790e-17

-1.684746573819782e-16 -7.074062131166522e-18 -1.069744094096165e+00
-7.074062131166522e-18 -7.003392437831230e-18  4.549376304112710e-01
-1.069744094096165e+00  4.549376304112710e-01 -5.256653428637481e-17

-1.404719266436195e-16 -3.418133430702274e-18 -1.022149843525756e+00
-3.418133430702274e-18 -6.381978463951904e-18  4.364315230622909e-01
-1.022149843525756e+00  4.364315230622909e-01 -4.472476010660644e-17

-1.141780026714529e-16 -7.372267822132788e-19 -9.698463305007963e-01
-7.372267822132788e-19 -1.436776429850128e-17  3.992281740228424e-01
-9.698463305007963e-01  3.992281740228424e-01 -3.801901956257138e-17

-9.395611333235609e-17  9.896518041718296e-19 -1.027054494408501e+00
 9.896518041718296e-19 -1.535402261585863e-17  4.222860537945461e-01
-1.027054494408501e+00  4.222860537945461e-01 -2.849334336295938e-17

-7.724905664233983e-17  1.427652889372278e-18 -1.105131385042401e+00
 1.427652889372278e-18 -1.451235496796491e-17  4.634648806268702e-01
-1.105131385042401e+00  4.634648806268702e-01 -1.898428968300932e-17

-6.673763971485577e-17  1.895888011746746e-18 -1.079109546262622e+00
 1.895888011746746e-18 -1.443926232319756e-17  5.170820188927860e-01
-1.079109546262622e+00  5.170820188927860e-01 -1.809359862705846e-17

-5.765103709254229e-17  2.163813058942533e-18 -1.095739985420576e+00
 2.163813058942533e-18 -1.188051740422867e-17  4.061676426917592e-01
-1.095739985420576e+00  4.061676426917592e-01 -1.317444376532510e-17

-4.297732079525544e-17  1.885070217605588e-18 -1.178494241173486e+00
 1.885070217605588e-18 -1.108127746155586e-17  4.244325697336703e-01
-1.178494241173486e+00  4.244325697336703e-01 -4.279312588678220e-18

-3.918439627048600e-17  1.673223314828718e-18 -1.072329493048932e+00
 1.673223314828718e-18 -1.673369053717126e-17  6.491681230447343e-01
-1.072329493048932e+00  6.491681230447343e-01 -1.176813229730366e-17

-3.176258140419708e-17  1.944853949163514e-18 -1.245558948094274e+00
 1.944853949163514e-18 -1.031593365093566e-17  4.276612582399765e-01
-1.245558948094274e+00  4.276612582399765e-01  2.888821965895171e-18

-2.814113629900355e-17  1.748826630501029e-18 -1.123569386340955e+00
 1.748826630501029e-18 -8.188812079364819e-18  3.938259291069566e-01
-1.123569386340955e+00  3.938259291069566e-01 -7.528444770012415e-19

-2.467017669554903e-17  1.978842819535387e-18 -1.054462481007374e+00
 1.978842819535387e-18 -7.168204504184790e-18  4.291441355458981e-01
-1.054462481007374e+00  4.291441355458981e-01 -2.802308979273411e-18

-2.162181558734649e-17  1.915358793700537e-18 -1.033892751204207e+00
 1.915358793700537e-18 -1.090790018670166e-17  4.167207403880676e-01
-1.033892751204207e+00  4.167207403880676e-01 -1.921140408876163e-18

-1.991614255428735e-17  1.894210969249339e-18 -9.709995902007041e-01
 1.894210969249339e-18 -1.662121413021592e-17  4.493428635983505e-01
-9.709995902007041e-01  4.493428635983505e-01 -4.634302185060436e-18

-1.653253837901008e-17  1.897648896747602e-18 -1.023038381541571e+00
 1.897648896747602e-18 -8.353363980011394e-19  3.827519305126477e-01
-1.023038381541571e+00  3.827519305126477e-01  7.371527957415007e-19

-1.533305078416337e-17  1.806084738092700e-18 -1.001989236054426e+00
 1.806084738092700e-18 -9.298905797629128e-18  4.039158502628841e-01
-1.001989236054426e+00  4.039158502628841e-01 -3.974245467072117e-20

-1.407914805190833e-17  1.801442477865757e-18 -9.624725946338587e-01
 1.801442477865757e-18 -4.397888180436220e-18  4.289177442502911e-01
-9.624725946338587e-01  4.289177442502911e-01 -1.840628138329764e-18

-1.170702287753651e-17  1.381566874455541e-18 -9.760220097908523e-01
 1.381566874455541e-18 -2.507292605662512e-17  4.013043222716031e-01
-9.760220097908523e-01  4.013043222716031e-01  3.281880849366655e-19

-1.004523497970870e-17  1.348253340702555e-18 -9.212724957063517e-01
 1.348253340702555e-18 -1.358413736518182e-17  4.163257088054965e-01
-9.212724957063517e-01  4.163257088054965e-01 -1.914854256828938e-18

-7.664729196180748e-18  1.438469441631334e-18 -9.387842819125831e-01
 1.438469441631334e-18  4.589366842212510e-18  3.960556073896499e-01
-9.387842819125831e-01  3.960556073896499e-01  3.747063974945944e-20

-6.370885702381314e-18  1.065618137848646e-18 -9.457275829457983e-01
 1.065618137848646e-18 -4.275672581699032e-18  4.615393241999538e-01
-9.457275829457983e-01  4.615393241999538e-01  3.021649975739730e-19

-4.087181509289900e-18  9.262480074378236e-19 -9.783289037983627e-01
 9.262480074378236e-19 -7.214815203789705e-18  4.173942125600340e-01
-9.783289037983627e-01  4.173942125600340e-01  3.061806684957330e-18

-1.815190042615503e-18  8.857997047730817e-19 -1.016541271748090e+00
 8.857997047730817e-19 -7.654083264918119e-18  3.478618488122748e-01
-1.016541271748090e+00  3.478618488122748e-01  6.532125143178211e-18

-3.916774525658593e-18  4.591134595049139e-19 -8.987925981995640e-01
 4.591134595049139e-19 -3.455828714464640e-17  5.295095503573137e-01
-8.987925981995640e-01  5.295095503573137e-01 -2.305899721389920e-18

-3.899183488747846e-18  7.690784182307025e-19 -8.801597729503751e-01
 7.690784182307025e-19 -1.979445530384069e-17  5.463778621982913e-01
-8.801597729503751e-01  5.463778621982913e-01 -3.457331683859248e-18

 9.945498639406001e-19  6.948990352298001e-20 -1.043324929028208e+00
 6.948990352298001e-20 -1.697222921358221e-17  3.213198204953275e-01
-1.043324929028208e+00  3.213198204953275e-01  1.064433236776211e-17

-2.471367000158724e-18  4.184361038006235e-19 -8.874839015406317e-01
 4.184361038006235e-19 -9.231549037779655e-18  3.841771163328848e-01
-8.874839015406317e-01  3.841771163328848e-01 -3.759109912504662e-19

-7.886762528451374e-19  6.526770759299198e-19 -9.301197269570014e-01
 6.526770759299198e-19  3.480368590290284e-18  4.231246751938976e-01
-9.301197269570014e-01  4.231246751938976e-01  1.481221692618551e-18

 1.974070058106676e-19  1.895330015029918e-19 -9.468889279377239e-01
 1.895330015029918e-19  1.769277426394800e-18  5.113440572153153e-01
-9.468889279377239e-01  5.113440572153153e-01  1.699775465070697e-18

 2.099567042981060e-18  1.100712692617462e-19 -1.017541566388941e+00
 1.100712692617462e-19 -1.298687315650116e-17  4.334333154285301e-01
-1.017541566388941e+00  4.334333154285301e-01  6.462156176438891e-18

 2.620123831155093e-18  3.404626277656368e-19 -1.019386470605642e+00
 3.404626277656368e-19  4.160990353665075e-18  3.978420822998336e-01
-1.019386470605642e+00  3.978420822998336e-01  6.705515584471103e-18

 3.019733067596359e-18  2.554457986857003e-19 -1.014604244772837e+00
 2.554457986857003e-19  4.105363066636425e-18  4.144340014451232e-01
-1.014604244772837e+00  4.144340014451232e-01  6.394516193844291e-18

 3.856511400154620e-18  1.973703745120877e-19 -1.034631764734860e+00
 1.973703745120877e-19  3.861358062521240e-18  3.968008496863454e-01
-1.034631764734860e+00  3.968008496863454e-01  7.958787140514949e-18

 4.137155261459851e-18  2.853060444212613e-19 -1.033861275274446e+00
 2.853060444212613e-19  1.290738175969046e-17  4.099182935504678e-01
-1.033861275274446e+00  4.099182935504678e-01  7.931346683644209e-18

 4.604363151679624e-18  4.102421712437667e-19 -1.028058999497786e+00
 4.102421712437667e-19  2.661718431629002e-17  3.957962761490499e-01
-1.028058999497786e+00  3.957962761490499e-01  8.064136921673200e-18

 4.688433898086361e-18  1.252280088795084e-19 -1.012794079676181e+00
 1.252280088795084e-19  3.084231061005916e-18  4.134047799456129e-01
-1.012794079676181e+00  4.134047799456129e-01  7.230994320682787e-18

 4.565704526545536e-18 -7.404307527837479e-20 -9.960232157708357e-01
-7.404307527837479e-20 -1.461165835252581e-17  4.308051323710104e-01
-9.960232157708357e-01  4.308051323710104e-01  6.248468308127222e-18

 4.997594154733846e-18  3.273734865647362e-19 -9.959896025395477e-01
 3.273734865647362e-19  2.174177234688162e-17  3.780290672625929e-01
-9.959896025395477e-01  3.780290672625929e-01  7.108288835230916e-18

 5.320914150913882e-18 -9.496220070997679e-20 -9.981028445219080e-01
-9.496220070997679e-20 -8.637384918512777e-18  3.899383184163335e-01
-9.981028445219080e-01  3.899383184163335e-01  7.231715245753191e-18

 4.446541960483862e-18  2.681000840880626e-20 -9.558926020818929e-01
 2.681000840880626e-20 -1.556112719695376e-18  4.545370312337374e-01
-9.558926020818929e-01  4.545370312337374e-01  3.905255577118790e-18

 5.488101906992237e-18 -1.528391956574168e-19 -9.938177403770881e-01
-1.528391956574168e-19 -1.726276458307488e-17  4.215968347208640e-01
-9.938177403770881e-01  4.215968347208640e-01  6.709697908796817e-18

 5.823085272686131e-18 -1.445294930969594e-19 -9.956471065354440e-01
-1.445294930969594e-19 -1.218007814408573e-17  3.993565038177709e-01
-9.956471065354440e-01  3.993565038177709e-01  7.220016098133270e-18

 6.021113164868203e-18  4.505975410187136e-19 -9.935624806804871e-01
 4.505975410187136e-19  3.361019383850062e-17  3.939921914308116e-01
-9.935624806804871e-01  3.939921914308116e-01  7.346188845593138e-18

 5.764408135521879e-18 -9.507821686384504e-20 -9.777549355838220e-01
-9.507821686384504e-20 -7.882120303140883e-18  4.103459118028148e-01
-9.777549355838220e-01  4.103459118028148e-01  6.239617019400746e-18

 5.813761043288629e-18  3.786650227556234e-19 -9.683121205527708e-01
 3.786650227556234e-19  3.009219206785218e-17  3.912747337006725e-01
-9.683121205527708e-01  3.912747337006725e-01  6.007581361905532e-18

 6.220861859114993e-18  2.708280395814888e-19 -9.778628729474840e-01
 2.708280395814888e-19  2.384908737322712e-17  3.913145207302414e-01
-9.778628729474840e-01  3.913145207302414e-01  6.624948154486189e-18

 6.296444666682040e-18  8.262091423931289e-20 -9.759099189298108e-01
 8.262091423931289e-20  9.816294686794326e-18  4.239344735039208e-01
-9.759099189298108e-01  4.239344735039208e-01  6.209628717111061e-18

 6.492499420786518e-18 -3.879137663038371e-19 -9.770507519266393e-01
-3.879137663038371e-19 -2.104696930659623e-17  4.117280337238442e-01
-9.770507519266393e-01  4.117280337238442e-01  6.321902567141696e-18

 7.052799254706735e-18  2.720199005535693e-19 -9.939397071208660e-01
 2.720199005535693e-19  2.734290348400574e-17  3.871681759325688e-01
-9.939397071208660e-01  3.871681759325688e-01  7.647207148539547e-18

 6.771983768696626e-18  1.457495039745784e-19 -9.792383746884487e-01
 1.457495039745784e-19  1.899006483101617e-17  4.127745094648281e-01
-9.792383746884487e-01  4.127745094648281e-01  6.448021291839649e-18

 6.772663705482058e-18  5.226345680463507e-19 -9.742280913116698e-01
 5.226345680463507e-19  4.546803468416830e-17  4.162442716075524e-01
-9.742280913116698e-01  4.162442716075524e-01  6.055475076398988e-18

 7.306849689255706e-18  1.020375350800855e-19 -9.914685170079985e-01
 1.020375350800855e-19  2.014684272325830e-17  3.839274521468858e-01
-9.914685170079985e-01  3.839274521468858e-01  7.416050517353047e-18

 7.505341818005141e-18 -2.235352371995450e-19 -9.964281681437582e-01
-2.235352371995450e-19 -2.332281196706293e-18  4.049857311491751e-01
-9.964281681437582e-01  4.049857311491751e-01  7.558964557587482e-18

 7.772943844222762e-18 -9.187538757321243e-20 -1.004692503469842e+00
-9.187538757321243e-20  7.181714523534960e-18  4.243635288796337e-01
-1.004692503469842e+00  4.243635288796337e-01  7.924880706735001e-18

 8.645420350636297e-18 -5.121691272850291e-19 -1.033075023412182e+00
-5.121691272850291e-19 -1.972110192706301e-17  3.793700646884569e-01
-1.033075023412182e+00  3.793700646884569e-01  1.035001791911232e-17

 8.449715196881317e-18 -1.028078950361609e-19 -1.020802220983393e+00
-1.028078950361609e-19  7.938781678767446e-18  3.763049373117025e-01
-1.020802220983393e+00  3.763049373117025e-01  9.761481320283550e-18

 7.533221917040832e-18 -6.806749653279413e-19 -9.781898324101921e-01
-6.806749653279413e-19 -3.280701562552655e-17  3.970030098237651e-01
-9.781898324101921e-01  3.970030098237651e-01  6.939346115402938e-18

 7.692127584033060e-18 -2.918364923312396e-19 -9.787169690501660e-01
-2.918364923312396e-19 -6.026414367900932e-18  4.014961609151573e-01
-9.787169690501660e-01  4.014961609151573e-01  7.142572162781479e-18

 7.749497797635148e-18 -5.710041356193198e-19 -9.754225414031110e-01
-5.710041356193198e-19 -2.675865302734987e-17  4.106335630221195e-01
-9.754225414031110e-01  4.106335630221195e-01  7.026862385977863e-18

 8.272743283625133e-18 -3.850823920744916e-19 -9.916847817537511e-01
-3.850823920744916e-19 -1.226568942573089e-17  3.757349677150137e-01
-9.916847817537511e-01  3.757349677150137e-01  8.569155529821987e-18

 7.726770837902721e-18 -4.801142786257512e-20 -9.664521506787145e-01
-4.801142786257512e-20  9.312486006343164e-18  3.916193882322511e-01
-9.664521506787145e-01  3.916193882322511e-01  6.741335328372025e-18

 7.417315594046600e-18  3.764095909371730e-19 -9.507993125471883e-01
 3.764095909371730e-19  3.875373711105464e-17  4.172671156185635e-01
-9.507993125471883e-01  4.172671156185635e-01  5.444679341116921e-18

 7.574137535875870e-18 -9.846535638167720e-20 -9.563655454913279e-01
-9.846535638167720e-20  4.950449039136504e-18  4.158673464120269e-01
-9.563655454913279e-01  4.158673464120269e-01  5.734368709097508e-18

 8.166145137180030e-18  6.142300260467031e-21 -9.784872963857248e-01
 6.142300260467031e-21  1.333725391383003e-17  3.958801995312673e-01
-9.784872963857248e-01  3.958801995312673e-01  7.229473473197486e-18

 8.942584787500654e-18  2.325771172536289e-19 -1.008007242309790e+00
 2.325771172536289e-19  3.013616385860702e-17  3.758971324123468e-01
-1.008007242309790e+00  3.758971324123468e-01  9.203614946650668e-18

 8.930349419960352e-18 -5.574487198631294e-20 -1.007820923975961e+00
-5.574487198631294e-20  1.179655493150948e-17  3.876201054569033e-01
-1.007820923975961e+00  3.876201054569033e-01  8.973889902766126e-18

 8.549334482719764e-18 -4.123128235078498e-19 -9.909069611322024e-01
-4.123128235078498e-19 -1.364750702618169e-17  4.091568785305353e-01
-9.909069611322024e-01  4.091568785305353e-01  7.604591352989768e-18

 8.785131343185936e-18  2.360296063446236e-19 -9.960223928790211e-01
 2.360296063446236e-19  3.227993267468878e-17  3.786914239190370e-01
-9.960223928790211e-01  3.786914239190370e-01  8.268512961030006e-18

 9.038096074633617e-18 -2.589701516237945e-19 -1.003755066177060e+00
-2.589701516237945e-19  1.892152244132234e-18  3.706911273758799e-01
-1.003755066177060e+00  3.706911273758799e-01  8.869097376448111e-18

 8.816059534727009e-18  7.528436837982429e-19 -9.923262958837156e-01
 7.528436837982429e-19  6.818339668916554e-17  4.045525402204389e-01
-9.923262958837156e-01  4.045525402204389e-01  7.866665723123912e-18

 9.210373669579264e-18 -8.127787125948444e-19 -1.004729090508382e+00
-8.127787125948444e-19 -3.543925096591444e-17  3.942159226352039e-01
-1.004729090508382e+00  3.942159226352039e-01  8.914939979493580e-18

 9.189861167234238e-18  4.410178136112880e-19 -9.992883743717412e-01
 4.410178136112880e-19  4.641545980118257e-17  3.902292690855648e-01
-9.992883743717412e-01  3.902292690855648e-01  8.856174282962698e-18

 9.072475116835491e-18 -5.489454824441505e-19 -9.877905970629017e-01
-5.489454824441505e-19 -1.593431902299616e-17  3.855049388664393e-01
-9.877905970629017e-01  3.855049388664393e-01  8.536748330083568e-18

 9.167654269187658e-18 -3.111441903421680e-19 -9.852158161899600e-01
-3.111441903421680e-19 -4.322258264882747e-18  3.861404255497560e-01
-9.852158161899600e-01  3.861404255497560e-01  8.946229652663878e-18

 7.943252173751294e-18  1.085727143591194e-18 -9.331283893331309e-01
 1.085727143591194e-18  6.264542861384213e-17  4.463965046505444e-01
-9.331283893331309e-01  4.463965046505444e-01  5.301249082712220e-18

 7.016756810319271e-18  1.371283966470809e-18 -8.939468373452867e-01
 1.371283966470809e-18  5.905158344645085e-17  4.534307983166918e-01
-8.939468373452867e-01  4.534307983166918e-01  3.220185935803413e-18

 6.415407621412847e-18 -1.963480835794205e-18 -8.260311231539225e-01
-1.963480835794205e-18 -6.114904497116099e-17  3.100086117588701e-01
-8.260311231539225e-01  3.100086117588701e-01  2.304020316612882e-18

 1.234079722314310e-17 -3.106088103268959e-19 -1.088174877055223e+00
-3.106088103268959e-19 -1.649253199563341e-17  5.420603075541493e-02
-1.088174877055223e+00  5.420603075541493e-02  1.918863912478733e-17

 2.302413029379255e-18 -1.857148363753214e-19 -6.598035700845204e-01
-1.857148363753214e-19  3.075782464456421e-17  5.415081835140152e-01
-6.598035700845204e-01  5.415081835140152e-01 -9.773694629368205e-18

 7.252261232720686e-18 -1.046927094405668e-20 -8.789823780069808e-01
-1.046927094405668e-20  2.678669720900393e-17  4.428372223662163e-01
-8.789823780069808e-01  4.428372223662163e-01  4.115757959732267e-18

 8.651583787806949e-18  1.454317153104805e-19 -9.407495785978005e-01
 1.454317153104805e-19  3.198381063366497e-17  4.042616516728342e-01
-9.407495785978005e-01  4.042616516728342e-01  7.463293218997492e-18

 7.433184313310006e-18  6.598106093453353e-19 -9.327607037185351e-01
 6.598106093453353e-19  5.844976961825003e-17  4.373140819829375e-01
-9.327607037185351e-01  4.373140819829375e-01  6.057154924388139e-18

 8.509045172626837e-18 -2.342400247188180e-19 -9.754538436490329e-01
-2.342400247188180e-19 -2.867695268576420e-18  3.973117977163696e-01
-9.754538436490329e-01  3.973117977163696e-01  8.444251055951386e-18

 2.182005586760343e-17 -3.172437205459893e-18 -9.851193985003366e-01
-3.172437205459893e-18 -3.435944610452552e-17  3.767026687406461e-01
-9.851193985003366e-01  3.767026687406461e-01  8.721833795875443e-18

-6.832571525482728e-18  3.421702023008154e-18 -9.883441550797234e-01
 3.421702023008154e-18  3.604157207064648e-17  3.797256070399642e-01
-9.883441550797234e-01  3.797256070399642e-01  8.565498514738226e-18

-4.805493136729523e-18  3.606538093211033e-18 -9.934363059710333e-01
 3.606538093211033e-18  7.520210042094201e-17  3.877948224897110e-01
-9.934363059710333e-01  3.877948224897110e-01  8.631286631239647e-18

 3.925776153620362e-17 -6.677845944506710e-18 -1.010025420950720e+00
-6.677845944506710e-18 -4.833932687879876e-17  3.822250278825866e-01
-1.010025420950720e+00  3.822250278825866e-01  9.569891581948517e-18

 1.513905351551753e-17 -6.554895921533923e-19 -1.002975673791817e+00
-6.554895921533923e-19  4.433815457890073e-17  3.953058361752826e-01
-1.002975673791817e+00  3.953058361752826e-01  8.884661975284061e-18

 9.472597123147560e-18  7.976563946511394e-19 -1.008904115760105e+00
 7.976563946511394e-19  6.682913496482860e-17  3.700092651871129e-01
-1.008904115760105e+00  3.700092651871129e-01  9.455227533239907e-18

 1.054797576684234e-17 -1.593029059219429e-19 -1.016424036982270e+00
-1.593029059219429e-19  1.636068679857103e-17  3.685339339596969e-01
-1.016424036982270e+00  3.685339339596969e-01  9.892044772881583e-18

 8.913773858659342e-18 -1.183612751703354e-18 -9.631053774547448e-01
-1.183612751703354e-18 -6.540006553960301e-17  4.510119584473752e-01
-9.631053774547448e-01  4.510119584473752e-01  5.603210726469758e-18

 1.079962009594614e-17  2.791848155067227e-19 -1.040019254572057e+00
 2.791848155067227e-19  4.274708379170189e-17  3.289157992290584e-01
-1.040019254572057e+00  3.289157992290584e-01  1.224321729151905e-17

 1.229712626237791e-17  3.089313488053825e-19 -1.090213738311318e+00
 3.089313488053825e-19  5.474896927944272e-17  2.552576825478082e-01
-1.090213738311318e+00  2.552576825478082e-01  1.637508785671795e-17

 8.943373006471882e-18 -5.409617665918250e-19 -9.584026804755833e-01
-5.409617665918250e-19 -1.090287519207414e-17  4.188571584352955e-01
-9.584026804755833e-01  4.188571584352955e-01  6.107126798589490e-18

 9.585420770923000e-18 -4.323177522183052e-19 -9.839659921296856e-01
-4.323177522183052e-19 -4.307947717687758e-18  4.060009729597773e-01
-9.839659921296856e-01  4.060009729597773e-01  7.768780216929272e-18

 9.762955313402224e-18  3.012824266148811e-19 -9.879268107454621e-01
 3.012824266148811e-19  3.905450680816348e-17  3.924019776640913e-01
-9.879268107454621e-01  3.924019776640913e-01  8.164602370236173e-18

 9.826106291866787e-18  6.474221237989412e-19 -9.888101444349858e-01
 6.474221237989412e-19  6.446536792363610e-17  3.826047827188567e-01
-9.888101444349858e-01  3.826047827188567e-01  8.403448130455972e-18

 9.922870398715743e-18  3.898796308205998e-19 -9.900678998427175e-01
 3.898796308205998e-19  4.458732006810462e-17  3.888539492562784e-01
-9.900678998427175e-01  3.888539492562784e-01  8.504106491961832e-18

 9.798697013739820e-18 -2.050967003664584e-19 -9.841649203019138e-01
-2.050967003664584e-19  6.841373991276066e-18  4.043250482235814e-01
-9.841649203019138e-01  4.043250482235814e-01  8.126337606906766e-18

 9.785511488191776e-18 -2.226264788603154e-19 -9.794457640151621e-01
-2.226264788603154e-19  6.341375846920717e-18  4.028361488823236e-01
-9.794457640151621e-01  4.028361488823236e-01  8.031617191976870e-18

 9.726299039023853e-18 -2.631491187115820e-19 -9.726481095314164e-01
-2.631491187115820e-19  2.063266310352450e-18  3.977580256208252e-01
-9.726481095314164e-01  3.977580256208252e-01  8.090370285175991e-18

 8.227806068254275e-18  1.777776803868551e-19 -9.086830670424244e-01
 1.777776803868551e-19  1.689776779154559e-17  4.490455454739525e-01
-9.086830670424244e-01  4.490455454739525e-01  3.709309992353644e-18

 7.480731150891853e-18 -6.631416797189003e-19 -8.746533920938034e-01
-6.631416797189003e-19 -3.039427205775615e-17  4.375266823377989e-01
-8.746533920938034e-01  4.375266823377989e-01  1.946355330651888e-18

 1.093667251948551e-17 -6.860886094840494e-19 -1.011822501077909e+00
-6.860886094840494e-19 -2.274678049938443e-17  2.048665259313033e-01
-1.011822501077909e+00  2.048665259313033e-01  1.264327573656293e-17

 1.048907728998251e-17 -3.841215754545404e-19 -9.980001859417090e-01
-3.841215754545404e-19 -1.899506732215525e-17  2.609433794821003e-01
-9.980001859417090e-01  2.609433794821003e-01  1.087739734326165e-17

-2.012912122412644e-18 -2.909553917827492e-19 -4.703020134184795e-01
-2.909553917827492e-19  2.660178477320265e-17  7.760649313662480e-01
-4.703020134184795e-01  7.760649313662480e-01 -2.582743233470464e-17

 6.611028039089553e-18 -2.331680859705454e-19 -8.306630756789906e-01
-2.331680859705454e-19  1.391177337311549e-17  4.705467669572003e-01
-8.306630756789906e-01  4.705467669572003e-01 -8.643818464592562e-19

 1.331654699131947e-17  1.193367898931903e-18 -1.118148791611368e+00
 1.193367898931903e-18  7.677959623807190e-17  2.111085158959549e-01
-1.118148791611368e+00  2.111085158959549e-01  1.854601089550998e-17

 1.030911385702990e-17 -8.978897729886845e-19 -9.910755502611088e-01
-8.978897729886845e-19 -7.417352912028848e-18  5.082128236746128e-01
-9.910755502611088e-01  5.082128236746128e-01  8.620825257118880e-18

 9.791587712772094e-18 -3.046108249467225e-19 -9.887142024408756e-01
-3.046108249467225e-19 -2.230710417928668e-17  5.016724237066371e-01
-9.887142024408756e-01  5.016724237066371e-01  6.848932131618748e-18

 1.272383113379857e-17  4.517718683266218e-19 -1.078744196322865e+00
 4.517718683266218e-19  8.800666161430357e-17  2.798111888275466e-01
-1.078744196322865e+00  2.798111888275466e-01  1.608932093060963e-17

 9.613012496792034e-18  6.336373432129194e-19 -9.557887771668137e-01
 6.336373432129194e-19  7.309342790869687e-17  3.241330972800326e-01
-9.557887771668137e-01  3.241330972800326e-01  7.528263187488580e-18

 9.065797259472637e-18 -3.819942830058340e-19 -9.362886442048345e-01
-3.819942830058340e-19  6.534294684136901e-19  3.861116365909110e-01
-9.362886442048345e-01  3.861116365909110e-01  5.579451403392271e-18

 9.650527699656143e-18 -6.357442794701144e-19 -9.615541948890720e-01
-6.357442794701144e-19 -1.801220473480764e-17  4.039549472363993e-01
-9.615541948890720e-01  4.039549472363993e-01  7.068348796261996e-18

 1.035481404350441e-17 -3.954181485425679e-19 -9.892422802308259e-01
-3.954181485425679e-19 -1.985801464646986e-18  3.935826831615115e-01
-9.892422802308259e-01  3.935826831615115e-01  8.831728395950057e-18

 1.096209145970466e-17  2.406778355894722e-19 -1.013874943966416e+00
 2.406778355894722e-19  3.314241992906628e-17  3.843139725266329e-01
-1.013874943966416e+00  3.843139725266329e-01  1.056540572148266e-17

 9.159653731819461e-18 -1.794884351073176e-19 -9.406381665062092e-01
-1.794884351073176e-19 -3.872788651604803e-18  4.524008215561820e-01
-9.406381665062092e-01  4.524008215561820e-01  5.157450655231182e-18

 9.626693405942879e-18 -4.343867484643678e-19 -9.523100087050655e-01
-4.343867484643678e-19 -1.126419787656942e-17  3.921196389082784e-01
-9.523100087050655e-01  3.921196389082784e-01  7.093364041877153e-18

 1.205161414631254e-17  1.164203832363898e-18 -1.044279462207868e+00
 1.164203832363898e-18  8.614374950819171e-17  2.546796737898077e-01
-1.044279462207868e+00  2.546796737898077e-01  1.495924287160251e-17

 1.116923771051179e-17  6.332848299786125e-19 -1.016502384413046e+00
 6.332848299786125e-19  2.106814206668398e-17  3.210396497463238e-01
-1.016502384413046e+00  3.210396497463238e-01  1.249034533550497e-17

 1.100227627808737e-18  9.683967890880856e-19 -6.198824249824727e-01
 9.683967890880856e-19 -4.077855860781668e-18  6.576803862752075e-01
-6.198824249824727e-01  6.576803862752075e-01 -1.604821379244986e-17

 1.374232282579602e-17 -3.411149789673705e-19 -1.087190816993634e+00
-3.411149789673705e-19  3.623210312088881e-17  1.332775409291405e-01
-1.087190816993634e+00  1.332775409291405e-01  1.910770825517194e-17

 1.646127237694799e-17 -3.124629429381538e-19 -1.210491938535903e+00
-3.124629429381538e-19  1.908445981511524e-17 -1.613696882154059e-02
-1.210491938535903e+00 -1.613696882154059e-02  2.620727607953139e-17

 4.644714073122675e-18 -1.382189336297809e-18 -7.094411121823794e-01
-1.382189336297809e-18 -3.951126540517764e-19  6.036021174440344e-01
-7.094411121823794e-01  6.036021174440344e-01 -6.147927096101364e-18

 8.598778486558053e-18 -2.242931683619464e-19 -8.861973576889129e-01
-2.242931683619464e-19  2.593630455578558e-17  5.179291298105623e-01
-8.861973576889129e-01  5.179291298105623e-01  3.473227045829221e-18

 9.966576343839179e-18 -2.915603057713346e-19 -9.835627545154066e-01
-2.915603057713346e-19  2.618070154426917e-18  3.552773185909612e-01
-9.835627545154066e-01  3.552773185909612e-01  1.027296220324824e-17

 7.620286522204609e-18  4.274902398256604e-19 -9.595967091016853e-01
 4.274902398256604e-19  8.120848892463341e-18  3.369125261736400e-01
-9.595967091016853e-01  3.369125261736400e-01  8.418101105838399e-18

 4.895849484522993e-18  1.121672995628193e-18 -9.348083440027416e-01
 1.121672995628193e-18  1.601324936055191e-17  3.920157859370505e-01
-9.348083440027416e-01  3.920157859370505e-01  6.140991714363966e-18

 1.164824589216686e-17 -3.711533324025559e-19 -9.784110050137100e-01
-3.711533324025559e-19  2.016015186778107e-17  3.746169135762212e-01
-9.784110050137100e-01  3.746169135762212e-01  8.960365391562787e-18

-3.774131569015607e-17  1.315953800468207e-17 -9.863587617495968e-01
 1.315953800468207e-17  2.737523622691677e-17  3.939937690759209e-01
-9.863587617495968e-01  3.939937690759209e-01  9.160682160428892e-18

 4.159935239067447e-17 -8.922812918672668e-18 -9.847942137955766e-01
-8.922812918672668e-18 -1.835377307703455e-17  4.096829279334459e-01
-9.847942137955766e-01  4.096829279334459e-01  8.899352326506311e-18

-3.713322123287232e-17  1.284481153130064e-17 -9.764513866767189e-01
 1.284481153130064e-17  1.211412538150791e-17  3.896764566953643e-01
-9.764513866767189e-01  3.896764566953643e-01  8.915041110862919e-18

 1.917774423475791e-17 -1.792061909749453e-18 -9.459354612637734e-01
-1.792061909749453e-18  5.936289368424824e-17  3.917678746756999e-01
-9.459354612637734e-01  3.917678746756999e-01  7.338933952003950e-18

 2.399125660315214e-18  7.199719566908931e-19 -8.800474797294220e-01
 7.199719566908931e-19 -2.475806573837040e-17  3.680518458965590e-01
-8.800474797294220e-01  3.680518458965590e-01  4.094529108959375e-18

 1.225144098397834e-17 -1.143010244188459e-19 -1.034545548873052e+00
-1.143010244188459e-19  2.569467048500685e-17  2.002684416099886e-01
-1.034545548873052e+00  2.002684416099886e-01  1.583644460263463e-17

 6.895420551571636e-18 -5.376610243605167e-19 -8.312944163545980e-01
-5.376610243605167e-19 -1.114117222602207e-17  4.370823361649280e-01
-8.312944163545980e-01  4.370823361649280e-01  3.172718506953526e-19

 8.697199039524106e-18 -2.458912312456292e-19 -8.840520378432073e-01
-2.458912312456292e-19  6.772897893581597e-18  4.095903425045376e-01
-8.840520378432073e-01  4.095903425045376e-01  3.484390732472307e-18

 9.646889514221446e-18  1.451292165598017e-19 -9.424133818604313e-01
 1.451292165598017e-19  2.162391475148756e-17  3.685195115084801e-01
-9.424133818604313e-01  3.685195115084801e-01  6.761849131997854e-18

 1.004122981668511e-17 -3.033284559919533e-20 -9.575407877283306e-01
-3.033284559919533e-20  3.211333387619308e-17  4.505936186968151e-01
-9.575407877283306e-01  4.505936186968151e-01  6.869895236055124e-18

 1.123614201838826e-17  2.215665905817486e-19 -1.014177607568767e+00
 2.215665905817486e-19  3.588533126434283e-17  3.969551039438053e-01
-1.014177607568767e+00  3.969551039438053e-01  1.028495406371144e-17

 1.100311876113217e-17  4.300574746642028e-20 -1.007341188331252e+00
 4.300574746642028e-20  2.545971652957311e-17  3.907127028063950e-01
-1.007341188331252e+00  3.907127028063950e-01  9.577040168448493e-18

 1.059422136706740e-17  1.953451914738003e-19 -9.890458345911869e-01
 1.953451914738003e-19  3.346919786919951e-17  3.911614325079817e-01
-9.890458345911869e-01  3.911614325079817e-01  8.453338642746401e-18

 1.005752230321742e-17  1.952591021003433e-19 -9.654571975986072e-01
 1.952591021003433e-19  3.274135007810506e-17  3.885163257947277e-01
-9.654571975986072e-01  3.885163257947277e-01  7.057164164607355e-18

 1.071163507736659e-17 -9.922985598415311e-21 -9.924613700642756e-01
-9.922985598415311e-21  1.988675401073404e-17  3.594746689923057e-01
-9.924613700642756e-01  3.594746689923057e-01  9.014691859732650e-18

 1.045778820185692e-17 -2.179590456049901e-19 -9.834662427717624e-01
-2.179590456049901e-19  1.141295244223434e-17  4.064538072454281e-01
-9.834662427717624e-01  4.064538072454281e-01  7.912639147779541e-18

 1.077424651515504e-17 -2.600345982620996e-19 -9.974666993048521e-01
-2.600345982620996e-19  2.601008691948016e-18  4.021303231016307e-01
-9.974666993048521e-01  4.021303231016307e-01  8.703066914019197e-18

 1.036219683092086e-17 -1.609311251916133e-20 -9.797082661372606e-01
-1.609311251916133e-20  1.907256021420690e-17  4.040911361616557e-01
-9.797082661372606e-01  4.040911361616557e-01  7.543007224922028e-18

 9.839408288744741e-18 -1.241886734864873e-19 -9.577253221367708e-01
-1.241886734864873e-19  1.675303967707537e-17  4.241514536244465e-01
-9.577253221367708e-01  4.241514536244465e-01  5.956345778910346e-18

 1.018760624312681e-17 -4.662030109062779e-19 -9.720817363569644e-01
-4.662030109062779e-19 -8.254527417319889e-18  3.968556975199743e-01
-9.720817363569644e-01  3.968556975199743e-01  7.134042877387668e-18

 1.033504545050398e-17 -3.616198987379100e-19 -9.779494517924661e-01
-3.616198987379100e-19  3.587854972154895e-18  3.819441172387199e-01
-9.779494517924661e-01  3.819441172387199e-01  7.523940743012395e-18

 1.055606830699091e-17 -1.358440828048635e-19 -9.897846662653942e-01
-1.358440828048635e-19  1.318468685397760e-17  3.862724402387959e-01
-9.897846662653942e-01  3.862724402387959e-01  8.029566523333542e-18

 1.034503371899212e-17 -1.102761641860887e-19 -9.822382157157903e-01
-1.102761641860887e-19  2.061804864875082e-17  4.439900956150331e-01
-9.822382157157903e-01  4.439900956150331e-01  6.886843415558036e-18

 1.081227049795262e-17 -3.387296185573108e-19 -1.003469831376259e+00
-3.387296185573108e-19  4.579559433600020e-18  4.310119903167797e-01
-1.003469831376259e+00  4.310119903167797e-01  8.222720619158038e-18

 1.155845147506019e-17  1.968710212508177e-19 -1.032406035455405e+00
 1.968710212508177e-19  3.900360130075197e-17  3.839876502925441e-01
-1.032406035455405e+00  3.839876502925441e-01  1.048566405904613e-17

 1.088553416960506e-17 -4.714140535437614e-20 -1.004158465211002e+00
-4.714140535437614e-20  1.762271249576586e-17  4.031340535516331e-01
-1.004158465211002e+00  4.031340535516331e-01  8.494402271068568e-18

 1.104945480210197e-17 -6.581825118085575e-19 -1.010587212099678e+00
-6.581825118085575e-19 -1.335985761612793e-17  3.879178872921889e-01
-1.010587212099678e+00  3.879178872921889e-01  9.134372115934218e-18

 1.063210351219795e-17  1.566680533894000e-19 -1.004305906869855e+00
 1.566680533894000e-19  3.296614469172635e-17  3.961154760795993e-01
-1.004305906869855e+00  3.961154760795993e-01  8.610487617964163e-18

 1.031452905207436e-17  1.949653840097261e-19 -1.010329509462964e+00
 1.949653840097261e-19  2.645165031348096e-17  3.948977977931698e-01
-1.010329509462964e+00  3.948977977931698e-01  9.021732124495384e-18

 1.463555828765168e-17 -1.073461706477230e-18 -1.016136654074761e+00
-1.073461706477230e-18 -1.665057449216575e-17  4.009314594038073e-01
-1.016136654074761e+00  4.009314594038073e-01  9.378708428754137e-18

-1.379884075301811e-17  2.981473130205105e-18 -1.012392749178538e+00
 2.981473130205105e-18  1.395951237711678e-17  3.907581976400109e-01
-1.012392749178538e+00  3.907581976400109e-01  9.470502792213034e-18

 4.836218855971034e-17 -4.997616316170303e-18 -1.004913654164640e+00
-4.997616316170303e-18  3.473902250586734e-18  4.074862253559438e-01
-1.004913654164640e+00  4.074862253559438e-01  9.294980789700699e-18

 1.631546318154044e-17 -3.415573373436118e-19 -9.893500584768982e-01
-3.415573373436118e-19  1.354515283293789e-17  4.039250805566460e-01
-9.893500584768982e-01  4.039250805566460e-01  9.044932982014959e-18

 4.299946309833234e-19  1.418467689917933e-18 -5.785285114187775e-01
 1.418467689917933e-18 -1.475766084352489e-18  6.447274343439214e-01
-5.785285114187775e-01  6.447274343439214e-01 -1.972343529954001e-17

 1.002822408665846e-17 -5.050997131597452e-19 -9.115592457055534e-01
-5.050997131597452e-19  1.720031661567863e-17  2.327131650410665e-01
-9.115592457055534e-01  2.327131650410665e-01  6.494767450272305e-18

 1.315084279577506e-17  7.627786648237092e-19 -1.073222223718343e+00
 7.627786648237092e-19  3.100610974269185e-17  6.329174122855044e-02
-1.073222223718343e+00  6.329174122855044e-02  1.477063846543264e-17

-2.846149538844229e-21 -1.615195778380988e-18 -4.996600899368909e-01
-1.615195778380988e-18  7.443851189577141e-18  7.226127557824779e-01
-4.996600899368909e-01  7.226127557824779e-01 -1.932702194777724e-17

 9.378952026144029e-18 -1.358723134279050e-18 -9.016344786110685e-01
-1.358723134279050e-18 -3.863495495449273e-18  5.537626376082981e-01
-9.016344786110685e-01  5.537626376082981e-01  5.288707255148199e-18

 1.122437170173319e-17 -3.506722783818462e-19 -1.003436036995716e+00
-3.506722783818462e-19  6.665287237818985e-18  4.016494027322133e-01
-1.003436036995716e+00  4.016494027322133e-01  9.639091076951221e-18

 1.105685349786264e-17 -5.194247645246514e-19 -1.002470784000418e+00
-5.194247645246514e-19 -5.880497760935902e-18  3.807456134927608e-01
-1.002470784000418e+00  3.807456134927608e-01  8.998848380090884e-18

 1.148237330483731e-17 -1.075143129298222e-19 -1.023149314213719e+00
-1.075143129298222e-19  1.946119089805597e-17  4.083335873629211e-01
-1.023149314213719e+00  4.083335873629211e-01  9.826316968283338e-18

 1.142514994234148e-17 -2.311791892922413e-20 -1.022355599016092e+00
-2.311791892922413e-20  1.694600281290981e-17  4.065468065384049e-01
-1.022355599016092e+00  4.065468065384049e-01  9.571249054300357e-18

 1.112737027634961e-17 -1.806072326517669e-19 -1.009283622549379e+00
-1.806072326517669e-19  1.399366686720622e-17  4.148122241383269e-01
-1.009283622549379e+00  4.148122241383269e-01  8.605318332321066e-18

 1.117075393527222e-17 -1.956039179200236e-20 -1.010444424260431e+00
-1.956039179200236e-20  1.800172287532945e-17  3.921038769704920e-01
-1.010444424260431e+00  3.921038769704920e-01  8.944781389093621e-18

 1.134613046297162e-17 -2.618689183466498e-19 -1.017999429273343e+00
-2.618689183466498e-19  7.815207376012562e-18  3.912215112642826e-01
-1.017999429273343e+00  3.912215112642826e-01  9.387018533209357e-18

 1.119394742309492e-17 -1.686153139604828e-19 -1.013535794609505e+00
-1.686153139604828e-19  6.442646402213963e-18  4.113681577569725e-01
-1.013535794609505e+00  4.113681577569725e-01  8.754434988770827e-18

 1.134889833138512e-17  3.388707842577343e-19 -1.023238948942133e+00
 3.388707842577343e-19  3.237696459725309e-17  4.121095687276154e-01
-1.023238948942133e+00  4.121095687276154e-01  8.982495824681813e-18

 1.237986875723820e-17  3.972307345538654e-20 -1.073047266711149e+00
 3.972307345538654e-20  2.443541872753667e-17  3.471684628397628e-01
-1.073047266711149e+00  3.471684628397628e-01  1.207281490077279e-17

 1.189090931874496e-17 -2.120689070684560e-19 -1.057941134270547e+00
-2.120689070684560e-19  1.863486805520735e-18  4.000451900855904e-01
-1.057941134270547e+00  4.000451900855904e-01  1.024829854011587e-17

 1.115327540913793e-17 -1.945283915402850e-19 -1.033898430803780e+00
-1.945283915402850e-19  5.128477671736636e-18  4.714219834726187e-01
-1.033898430803780e+00  4.714219834726187e-01  7.600372272149433e-18

 1.183091424844347e-17 -1.545595174839253e-19 -1.068965589642233e+00
-1.545595174839253e-19  9.134666387682445e-18  4.266402240262095e-01
-1.068965589642233e+00  4.266402240262095e-01  9.757349395983768e-18

 1.148890098767686e-17 -1.532208884076355e-19 -1.056124024948802e+00
-1.532208884076355e-19  1.380217852678743e-17  4.145999832940817e-01
-1.056124024948802e+00  4.145999832940817e-01  8.986474297630882e-18

 1.123545503398950e-17 -1.609882234375848e-19 -1.046743639076421e+00
-1.609882234375848e-19  1.876182424367964e-17  4.481103348707654e-01
-1.046743639076421e+00  4.481103348707654e-01  8.131527512476251e-18

 1.133716260670258e-17 -3.181280655833476e-19 -1.048360505205455e+00
-3.181280655833476e-19  1.173981605770913e-17  4.508260187860320e-01
-1.048360505205455e+00  4.508260187860320e-01  8.492897795998091e-18

 1.136242862017648e-17 -5.306996451170311e-19 -1.044245322369425e+00
-5.306996451170311e-19 -1.479958907380187e-18  4.378661986839304e-01
-1.044245322369425e+00  4.378661986839304e-01  8.787484781475447e-18

 1.117111602151968e-17 -2.749787321568439e-19 -1.031188832883886e+00
-2.749787321568439e-19  1.252136612224917e-17  4.467725289897331e-01
-1.031188832883886e+00  4.467725289897331e-01  8.275997303626391e-18

 1.101143683646402e-17 -3.315506358206647e-19 -1.021577791407586e+00
-3.315506358206647e-19  1.000026959726394e-17  4.417486154633516e-01
-1.021577791407586e+00  4.417486154633516e-01  7.930364518384804e-18

 1.132143210636383e-17 -2.802062328874362e-19 -1.031065743359256e+00
-2.802062328874362e-19  1.266173803801968e-17  4.161443239179980e-01
-1.031065743359256e+00  4.161443239179980e-01  9.030425338939990e-18

 1.049977098554050e-17 -2.860034132973054e-19 -9.931526833944104e-01
-2.860034132973054e-19  1.313803893368741e-17  4.580540418386623e-01
-9.931526833944104e-01  4.580540418386623e-01  6.466319619221180e-18

 1.109834468168657e-17 -4.538846458154326e-19 -1.014279762653138e+00
-4.538846458154326e-19  2.944657865047347e-18  4.254492664749503e-01
-1.014279762653138e+00  4.254492664749503e-01  8.466843482834356e-18

 1.108995139827731e-17 -4.803578969886725e-20 -1.010207664442970e+00
-4.803578969886725e-20  2.274235355703607e-17  4.362438900065368e-01
-1.010207664442970e+00  4.362438900065368e-01  8.421878510232531e-18

 1.024204957549655e-17 -2.974099394383020e-19 -9.703339396415547e-01
-2.974099394383020e-19  9.491374190937030e-18  4.361508539631294e-01
-9.703339396415547e-01  4.361508539631294e-01  6.226224807466656e-18

 1.011199404220127e-17 -8.343964627895295e-20 -9.629675367335691e-01
-8.343964627895295e-20  1.685490196337739e-17  4.127157703238821e-01
-9.629675367335691e-01  4.127157703238821e-01  6.035201388417171e-18

 1.039873886587988e-17 -2.242178534175003e-19 -9.795742116550843e-01
-2.242178534175003e-19  1.095282412367339e-17  4.158250042473038e-01
-9.795742116550843e-01  4.158250042473038e-01  6.622319961492570e-18

 1.255008924637841e-17 -4.162236714189915e-19 -1.073206169851938e+00
-4.162236714189915e-19  1.171599381362062e-17  4.140079037452486e-01
-1.073206169851938e+00  4.140079037452486e-01  1.226490046286725e-17

 1.247842401766187e-17 -2.480692549988511e-19 -1.060595736903070e+00
-2.480692549988511e-19  1.894484480695519e-17  3.726084676825770e-01
-1.060595736903070e+00  3.726084676825770e-01  1.243739036219312e-17

 1.025435200416706e-17 -1.262878812733308e-19 -9.591958389757381e-01
-1.262878812733308e-19  1.518146855773405e-17  4.524702339889539e-01
-9.591958389757381e-01  4.524702339889539e-01  6.285416092387089e-18

 8.860829053894223e-18  5.748684798631443e-19 -9.043010196880930e-01
 5.748684798631443e-19  1.971925043870101e-17  5.146777526998690e-01
-9.043010196880930e-01  5.146777526998690e-01  2.602207551751144e-18

 8.433631524779083e-18 -9.365547544144139e-20 -8.676746196955143e-01
-9.365547544144139e-20  6.163631646742845e-18  4.493890250009099e-01
-8.676746196955143e-01  4.493890250009099e-01  2.027630274397345e-18

 8.516093363694836e-18 -7.949804718181389e-19 -8.462670842717430e-01
-7.949804718181389e-19  9.770761163533355e-18  3.471816733631423e-01
-8.462670842717430e-01  3.471816733631423e-01  2.812837123438091e-18

 1.469053243649589e-17 -2.488361373341728e-19 -1.104315573906152e+00
-2.488361373341728e-19  2.452992654534460e-17  7.510186414755698e-02
-1.104315573906152e+00  7.510186414755698e-02  2.110871260052289e-17

 7.088874755162061e-18  7.006690638113282e-20 -8.052718157460643e-01
 7.006690638113282e-20  3.694961699415468e-18  3.851223901368023e-01
-8.052718157460643e-01  3.851223901368023e-01 -1.309837569428046e-18

 9.855642610276764e-18 -3.670107413330302e-19 -9.164636394360922e-01
-3.670107413330302e-19  1.429736213955060e-17  4.477465285128044e-01
-9.164636394360922e-01  4.477465285128044e-01  5.834400042756650e-18

 1.049061162389613e-17 -5.941038863206041e-19 -9.511764892173046e-01
-5.941038863206041e-19 -1.751765017953540e-17  5.157864605512862e-01
-9.511764892173046e-01  5.157864605512862e-01  6.773383632880598e-18

 8.985927860784793e-18 -7.993851636963152e-21 -9.002807470242431e-01
-7.993851636963152e-21  2.400747455560558e-17  5.274103102249131e-01
-9.002807470242431e-01  5.274103102249131e-01  2.256991517878605e-18

 1.031511144861483e-17 -3.694934500806557e-19 -9.442763066123990e-01
-3.694934500806557e-19  7.469406124154692e-18  3.616212166385842e-01
-9.442763066123990e-01  3.616212166385842e-01  7.173699032739980e-18

 9.722694113645627e-18  6.365780972833276e-20 -9.335768803254836e-01
 6.365780972833276e-20  1.053356494523152e-17  3.725146200606523e-01
-9.335768803254836e-01  3.725146200606523e-01  5.195752696616796e-18

 1.039746854349372e-17 -5.975889849488987e-19 -9.604111490524080e-01
-5.975889849488987e-19  1.739840323602739e-17  5.170743580986815e-01
-9.604111490524080e-01  5.170743580986815e-01  6.008911838481820e-18

 1.092860625076183e-17 -4.066362550725736e-19 -9.904510696038994e-01
-4.066362550725736e-19  2.610180950963802e-18  4.936225435544994e-01
-9.904510696038994e-01  4.936225435544994e-01  7.336554479782425e-18

 1.179774777899867e-17 -2.402734633675114e-19 -1.048733919894497e+00
-2.402734633675114e-19  1.442644748227807e-17  4.254762479987442e-01
-1.048733919894497e+00  4.254762479987442e-01  9.425804161951439e-18

 1.117890045701450e-17 -2.504635793055726e-19 -1.019849458108677e+00
-2.504635793055726e-19  1.372292223787257e-17  4.411762700258898e-01
-1.019849458108677e+00  4.411762700258898e-01  7.718268542151953e-18

 1.179438499371439e-17 -2.192786720062192e-19 -1.049451045860452e+00
-2.192786720062192e-19  1.518754279641522e-17  4.110819346822670e-01
-1.049451045860452e+00  4.110819346822670e-01  9.464581481947481e-18

 1.023898812360683e-17 -1.704537255986521e-19 -9.895754102733747e-01
-1.704537255986521e-19  1.165994817486724e-17  4.980486364680357e-01
-9.895754102733747e-01  4.980486364680357e-01  4.476115614259732e-18

 1.224805750035562e-17 -2.095330777445063e-19 -1.071442409494529e+00
-2.095330777445063e-19  1.431427434421665e-17  4.368022411814899e-01
-1.071442409494529e+00  4.368022411814899e-01  1.046500285430946e-17

 1.197342922661240e-17 -2.580986864066279e-19 -1.061348158279359e+00
-2.580986864066279e-19  1.337864037247407e-17  4.680013188584571e-01
-1.061348158279359e+00  4.680013188584571e-01  9.479320737811905e-18

 1.185424155359267e-17 -2.340924315231679e-19 -1.056358299519562e+00
-2.340924315231679e-19  1.387153845124133e-17  4.496485420277004e-01
-1.056358299519562e+00  4.496485420277004e-01  9.245926865169119e-18

 1.201145077524709e-17 -2.038065182357618e-19 -1.064088451929467e+00
-2.038065182357618e-19  1.541077690939292e-17  4.139285873090013e-01
-1.064088451929467e+00  4.139285873090013e-01  1.003979817642804e-17

 1.156258259879174e-17 -2.337966982242938e-19 -1.047091743183937e+00
-2.337966982242938e-19  1.392889583775817e-17  4.532256482845120e-01
-1.047091743183937e+00  4.532256482845120e-01  8.547666311922558e-18

 1.190776234434049e-17 -2.360487049089928e-19 -1.061210412328605e+00
-2.360487049089928e-19  1.414316162263223e-17  4.520114106295108e-01
-1.061210412328605e+00  4.520114106295108e-01  9.504931921229691e-18

 1.181458213528788e-17 -2.418138745194146e-19 -1.054806687239850e+00
-2.418138745194146e-19  1.414316823943489e-17  4.517999940145415e-01
-1.054806687239850e+00  4.517999940145415e-01  9.281016143295838e-18

 1.168667321324044e-17 -2.771533257094172e-19 -1.049326335868634e+00
-2.771533257094172e-19  1.399651678316006e-17  4.606609426694882e-01
-1.049326335868634e+00  4.606609426694882e-01  8.945293051937123e-18

 1.162083462493673e-17 -3.180990259853871e-19 -1.050411300863067e+00
-3.180990259853871e-19  1.415743313203788e-17  4.613704960526102e-01
-1.050411300863067e+00  4.613704960526102e-01  8.821377946953572e-18

 1.163721703471702e-17 -3.937560172222252e-19 -1.058153302209804e+00
-3.937560172222252e-19  1.380663709820636e-17  4.829901176851013e-01
-1.058153302209804e+00  4.829901176851013e-01  8.618565657793310e-18

 1.207897935089893e-17 -4.365120813947257e-19 -1.086844817660361e+00
-4.365120813947257e-19  1.455229327461007e-17  4.743186937218549e-01
-1.086844817660361e+00  4.743186937218549e-01  9.773600810425709e-18

 1.211307671112536e-17 -4.942847777359324e-19 -1.097661846933149e+00
-4.942847777359324e-19  1.369328891939035e-17  5.098506553549337e-01
-1.097661846933149e+00  5.098506553549337e-01  9.201772512833880e-18

 1.216017109263769e-17 -5.185928203742220e-19 -1.107103844773312e+00
-5.185928203742220e-19  1.326977355826253e-17  5.297554342578462e-01
-1.107103844773312e+00  5.297554342578462e-01  9.013556508594244e-18

 1.295280277719834e-17 -4.226669769599765e-19 -1.157686772359271e+00
-4.226669769599765e-19  1.512571272476636e-17  4.866774310952108e-01
-1.157686772359271e+00  4.866774310952108e-01  1.227872495394635e-17

 1.146120052095738e-17 -2.387874113432789e-19 -1.138398568770359e+00
-2.387874113432789e-19  1.406971988967517e-17  5.126005320013783e-01
-1.138398568770359e+00  5.126005320013783e-01  1.016076335023828e-17

-6.737065096028337e-17  1.819951719549608e-17 -1.152477943162622e+00
 1.819951719549608e-17  1.005542860176733e-17  5.066523658396309e-01
-1.152477943162622e+00  5.066523658396309e-01  1.057925115215692e-17

-6.740306598568956e-17  1.825655301923659e-17 -1.155293429903725e+00
 1.825655301923659e-17  9.454681601874266e-18  5.201812059814874e-01
-1.155293429903725e+00  5.201812059814874e-01  1.027445923577130e-17

 2.285902922481800e-16 -5.213237198544053e-17 -1.155425479008303e+00
-5.213237198544053e-17  2.672783021621214e-17  5.048473456738484e-01
-1.155425479008303e+00  5.048473456738484e-01  1.041419555878506e-17

-2.952416921618177e-17  6.062995904466530e-18 -1.141908998828575e+00
 6.062995904466530e-18  1.312573580734081e-17  5.034855015116457e-01
-1.141908998828575e+00  5.034855015116457e-01  9.868560820241166e-18

-4.006930051979458e-18  2.469330981027223e-18 -1.104330397334579e+00
 2.469330981027223e-18  1.263393959980380e-17  5.143244712140707e-01
-1.104330397334579e+00  5.143244712140707e-01  8.168356325279094e-18

 1.620847993501275e-17 -9.621796574027478e-19 -1.163562748407550e+00
-9.621796574027478e-19  1.761314575283656e-17  3.965485726186289e-01
-1.163562748407550e+00  3.965485726186289e-01  1.387288091889324e-17

-3.445080060314934e-18  5.943632759887474e-18 -1.118778234209560e+00
 5.943632759887474e-18  1.274510269569992e-17  4.607521627711127e-01
-1.118778234209560e+00  4.607521627711127e-01  1.027258738223336e-17

 3.084258303067446e-17 -7.310711122024079e-18 -1.114748457438710e+00
-7.310711122024079e-18  1.600654993858133e-17  5.169566090463330e-01
-1.114748457438710e+00  5.169566090463330e-01  9.024725283107802e-18

-8.664451421439874e-17  3.921016601396832e-17 -1.148371496868662e+00
 3.921016601396832e-17 -1.171879891087689e-18  4.975501581280199e-01
-1.148371496868662e+00  4.975501581280199e-01  1.127155717280259e-17

-5.934371905877135e-17  2.838221069387460e-17 -1.144075148931637e+00
 2.838221069387460e-17  3.773252864441424e-18  4.867381526004209e-01
-1.144075148931637e+00  4.867381526004209e-01  1.086141690977888e-17

 1.406613927810380e-17 -6.634046927612197e-19 -1.153321112876541e+00
-6.634046927612197e-19  1.485090508159999e-17  5.095722738834115e-01
-1.153321112876541e+00  5.095722738834115e-01  1.054521036099787e-17

 1.967776114777676e-17 -2.740714536725100e-18 -1.174411651013376e+00
-2.740714536725100e-18  1.576652852014590e-17  5.175012533578519e-01
-1.174411651013376e+00  5.175012533578519e-01  1.134799776784197e-17

 1.339765667831927e-17  1.126155486800912e-19 -1.220931493427264e+00
 1.126155486800912e-19  1.616125345768426e-17  4.869530535581585e-01
-1.220931493427264e+00  4.869530535581585e-01  1.431192811791939e-17

 1.418344487214905e-17 -1.813789427067817e-19 -1.229620465821615e+00
-1.813789427067817e-19  1.555419258641255e-17  5.099263613902328e-01
-1.229620465821615e+00  5.099263613902328e-01  1.447547432077980e-17

 1.278732448334893e-17 -3.449865560012090e-19 -1.165975487949882e+00
-3.449865560012090e-19  1.339128330297070e-17  5.682100562555732e-01
-1.165975487949882e+00  5.682100562555732e-01  1.034758496211825e-17

 1.307991893190526e-17 -5.415166326735601e-20 -1.175332396744295e+00
-5.415166326735601e-20  1.705061360207325e-17  4.382073395811263e-01
-1.175332396744295e+00  4.382073395811263e-01  1.216174111578298e-17

 9.380142203626326e-18  9.571453417368499e-19 -1.163126782258037e+00
 9.571453417368499e-19  1.668476796341925e-17  4.371649364807499e-01
-1.163126782258037e+00  4.371649364807499e-01  1.182083875916957e-17

 1.654408406552892e-17 -1.675595928795771e-18 -1.088292086258936e+00
-1.675595928795771e-18  1.122709444670970e-17  6.050605771085020e-01
-1.088292086258936e+00  6.050605771085020e-01  4.788706306619881e-18

 1.658154033979466e-17 -1.123018871681588e-18 -1.177502279901319e+00
-1.123018871681588e-18  1.455670508463824e-17  5.209347390248692e-01
-1.177502279901319e+00  5.209347390248692e-01  1.176407036262067e-17

-7.662202898088791e-17  2.768627291371038e-17 -1.199275066712723e+00
 2.768627291371038e-17  7.623040398430916e-18  4.676699695842621e-01
-1.199275066712723e+00  4.676699695842621e-01  1.381369541414202e-17

-2.452143498773479e-16  7.947946712656370e-17 -1.177659245257686e+00
 7.947946712656370e-17 -9.034740109238391e-18  4.915448645994726e-01
-1.177659245257686e+00  4.915448645994726e-01  1.224209543824721e-17

 2.799961231168259e-17 -4.788536615965725e-18 -1.168591378757238e+00
-4.788536615965725e-18  1.600578324894652e-17  5.109271910304330e-01
-1.168591378757238e+00  5.109271910304330e-01  1.160608767367514e-17

 2.775198472532996e-17 -4.794540022452513e-18 -1.156947059715603e+00
-4.794540022452513e-18  1.657052310998135e-17  4.917285747911110e-01
-1.156947059715603e+00  4.917285747911110e-01  1.111155073263472e-17

 1.316647153516095e-17 -3.016540267941381e-19 -1.160958867571112e+00
-3.016540267941381e-19  1.466086954713146e-17  5.066326971921197e-01
-1.160958867571112e+00  5.066326971921197e-01  1.110645139437500e-17

 1.268044069450083e-17 -1.841541823466482e-19 -1.154023224020860e+00
-1.841541823466482e-19  1.427059055185727e-17  5.025908492297234e-01
-1.154023224020860e+00  5.025908492297234e-01  1.065530318719562e-17

 1.209542120223725e-17 -1.271532693317791e-19 -1.130434193227394e+00
-1.271532693317791e-19  1.435835822850635e-17  4.947835351778102e-01
-1.130434193227394e+00  4.947835351778102e-01  9.336588996006359e-18

 1.224594390711122e-17 -1.640673072341038e-19 -1.131744418506212e+00
-1.640673072341038e-19  1.505831887324969e-17  4.737269252425863e-01
-1.131744418506212e+00  4.737269252425863e-01  9.797189274413806e-18

 1.260778561072908e-17 -2.173068399579605e-19 -1.143512682974159e+00
-2.173068399579605e-19  1.594097719874748e-17  4.570468225527261e-01
-1.143512682974159e+00  4.570468225527261e-01  1.079090070107760e-17

 1.438607936718081e-17 -2.358709678145683e-19 -1.214146652489348e+00
-2.358709678145683e-19  1.755131768703021e-17  4.170587221599001e-01
-1.214146652489348e+00  4.170587221599001e-01  1.593773163059889e-17

 1.317139934604585e-17 -1.334537142827995e-20 -1.173385570646085e+00
-1.334537142827995e-20  1.438602259396340e-17  4.954459090117108e-01
-1.173385570646085e+00  4.954459090117108e-01  1.195593162623311e-17

 1.252296529583720e-17  9.359013429562252e-20 -1.151591558504331e+00
 9.359013429562252e-20  1.233575698779506e-17  5.523699952642417e-01
-1.151591558504331e+00  5.523699952642417e-01  9.720769430545079e-18

 1.400972587604978e-17 -5.806718288225377e-20 -1.204901771282126e+00
-5.806718288225377e-20  1.470150037297832e-17  4.994918324909138e-01
-1.204901771282126e+00  4.994918324909138e-01  1.430088392578874e-17

 1.323959973345184e-17 -1.065289364906657e-19 -1.163951005807373e+00
-1.065289364906657e-19  1.464374359150853e-17  4.892968076168005e-01
-1.163951005807373e+00  4.892968076168005e-01  1.231880719423976e-17

 1.253106290759970e-17 -3.162314235795146e-20 -1.126357722977117e+00
-3.162314235795146e-20  1.511311637412445e-17  4.524950233329033e-01
-1.126357722977117e+00  4.524950233329033e-01  1.093909266667363e-17

 1.156388536827227e-17 -7.567251822813739e-20 -1.077502614102543e+00
-7.567251822813739e-20  1.404646014682284e-17  4.648494717358171e-01
-1.077502614102543e+00  4.648494717358171e-01  8.500812270326782e-18

 1.136517590276671e-17 -1.216595229447694e-19 -1.065782449913879e+00
-1.216595229447694e-19  1.357465302917196e-17  4.721341464052189e-01
-1.065782449913879e+00  4.721341464052189e-01  8.089577030007635e-18

 1.195760997679824e-17 -1.486618084375216e-19 -1.091708413768050e+00
-1.486618084375216e-19  1.440136945139163e-17  4.572709424137326e-01
-1.091708413768050e+00  4.572709424137326e-01  9.794295286192806e-18

 1.207721818361423e-17 -1.276593880239744e-19 -1.100599495083134e+00
-1.276593880239744e-19  1.388418998132935e-17  4.717129008583319e-01
-1.100599495083134e+00  4.717129008583319e-01  9.963584606615550e-18

 1.279355299511075e-17 -1.452202430706942e-19 -1.131103116491633e+00
-1.452202430706942e-19  1.503999665287232e-17  4.450848914462489e-01
-1.131103116491633e+00  4.450848914462489e-01  1.201649046398185e-17

 1.317873674974333e-17 -1.559363863174904e-19 -1.148057033542530e+00
-1.559363863174904e-19  1.544629683907471e-17  4.338112862331363e-01
-1.148057033542530e+00  4.338112862331363e-01  1.319197740283325e-17

 1.213488696391000e-17 -1.541700494905674e-19 -1.106499765893858e+00
-1.541700494905674e-19  1.345490445116748e-17  4.873161904780245e-01
-1.106499765893858e+00  4.873161904780245e-01  9.908771410868119e-18

 1.114447297610013e-17 -1.752541643003851e-19 -1.066402380526254e+00
-1.752541643003851e-19  1.205179394209453e-17  5.264581394026997e-01
-1.066402380526254e+00  5.264581394026997e-01  6.847097317051154e-18

 1.400702598073219e-17 -1.328849674504224e-19 -1.180454037584493e+00
-1.328849674504224e-19  1.661151602245318e-17  4.045644673564752e-01
-1.180454037584493e+00  4.045644673564752e-01  1.572326742020426e-17

 1.410062634748919e-17 -1.349076137244512e-19 -1.183271725436394e+00
-1.349076137244512e-19  1.657448405882947e-17  4.003064112571239e-01
-1.183271725436394e+00  4.003064112571239e-01  1.606121091730520e-17

 1.155746346455187e-17 -2.426657351545337e-19 -1.075962478831339e+00
-2.426657351545337e-19  1.212442397683090e-17  5.125431972046193e-01
-1.075962478831339e+00  5.125431972046193e-01  8.384486989069377e-18

 1.225798134254766e-17 -1.566274054245471e-19 -1.098710648165421e+00
-1.566274054245471e-19  1.401726671256581e-17  4.457002126474541e-01
-1.098710648165421e+00  4.457002126474541e-01  1.100654173298949e-17

 1.098413162286475e-17 -1.116622198292409e-19 -1.036660699404007e+00
-1.116622198292409e-19  1.298169218857851e-17  4.513046332998604e-01
-1.036660699404007e+00  4.513046332998604e-01  7.800959998768834e-18

 9.981620160863883e-18 -8.355660467192887e-20 -9.854783309448356e-01
-8.355660467192887e-20  1.247354842612938e-17  4.446184748373634e-01
-9.854783309448356e-01  4.446184748373634e-01  5.437156340832837e-18

 1.018320769334077e-17 -1.365436912000414e-19 -9.893318398068536e-01
-1.365436912000414e-19  1.240288446164583e-17  4.419336538867146e-01
-9.893318398068536e-01  4.419336538867146e-01  6.220972765713572e-18

 1.055949251339444e-17 -1.645683070270162e-19 -1.005199730561199e+00
-1.645683070270162e-19  1.008631592743788e-17  5.033367082267043e-01
-1.005199730561199e+00  5.033367082267043e-01  6.948354176026270e-18

 8.087245883807328e-18 -6.705264225999366e-19 -8.911323497887506e-01
-6.705264225999366e-19  6.604713029911508e-18  6.027789681259751e-01
-8.911323497887506e-01  6.027789681259751e-01 -8.491038062814391e-20

 5.595300512079513e-18 -1.059201531029325e-18 -7.769859644855576e-01
-1.059201531029325e-18  6.568517277871061e-18  6.096069645758616e-01
-7.769859644855576e-01  6.096069645758616e-01 -6.765245441576753e-18

 1.181716242136593e-17 -1.910505073104812e-18 -1.005099398150713e+00
-1.910505073104812e-18  2.147088296206082e-17  2.430899504239350e-01
-1.005099398150713e+00  2.430899504239350e-01  8.995702882524335e-18

 1.187284464263401e-17 -1.584493834225199e-18 -1.034272372953033e+00
-1.584493834225199e-18  1.715600653049869e-17  4.004558804496803e-01
-1.034272372953033e+00  4.004558804496803e-01  9.159846464830619e-18

-2.080423288398201e-18  3.828262868009065e-18 -6.270363329258362e-01
 3.828262868009065e-18 -3.382591804454693e-18  7.754826362403275e-01
-6.270363329258362e-01  7.754826362403275e-01 -2.140806393334170e-17

 9.299372306841816e-18  2.686150351680971e-18 -1.063752787882343e+00
 2.686150351680971e-18  5.575877029918230e-18  6.039148537107857e-01
-1.063752787882343e+00  6.039148537107857e-01  5.774942251868837e-18

 1.539944813826286e-17  8.548396946827131e-19 -1.280352360339221e+00
 8.548396946827131e-19  1.450461653612995e-17  4.510407323814780e-01
-1.280352360339221e+00  4.510407323814780e-01  2.066280711244376e-17

 1.813772144736326e-17  3.115991018817401e-19 -1.369856307077069e+00
 3.115991018817401e-19  2.069895965517945e-17  3.064077399720624e-01
-1.369856307077069e+00  3.064077399720624e-01  2.786902615787420e-17

 1.489463259964296e-17  2.224045328235940e-20 -1.242893089229006e+00
 2.224045328235940e-20  1.830763087060602e-17  3.771184658225415e-01
-1.242893089229006e+00  3.771184658225415e-01  1.910323750779352e-17

 1.467542193381567e-17 -6.762635992998845e-19 -1.168418075978373e+00
-6.762635992998845e-19  1.589515035315977e-17  4.444960640754220e-01
-1.168418075978373e+00  4.444960640754220e-01  1.422224413060717e-17

 1.826775994780349e-17 -2.130716201157991e-18 -1.127045299324653e+00
-2.130716201157991e-18  1.540531986753713e-17  4.561061865770148e-01
-1.127045299324653e+00  4.561061865770148e-01  1.217456187283990e-17

 1.691045705538887e-17 -2.020072825045696e-18 -1.066725486236999e+00
-2.020072825045696e-18  1.472858479139560e-17  4.495656583778465e-01
-1.066725486236999e+00  4.495656583778465e-01  8.852646983585657e-18

 4.628562830295023e-17 -1.172694083873974e-17 -1.025580979990210e+00
-1.172694083873974e-17  1.692479800743759e-17  4.666294632416904e-01
-1.025580979990210e+00  4.666294632416904e-01  6.329894829182493e-18

 1.059587180900500e-17 -1.736721958238264e-19 -1.074856691048001e+00
-1.736721958238264e-19  1.340230321694995e-17  4.732434600167497e-01
-1.074856691048001e+00  4.732434600167497e-01  8.895283647926046e-18

 8.141982750206485e-18  4.428783624738884e-19 -1.070464248315456e+00
 4.428783624738884e-19  1.099501100153238e-17  5.387290827100587e-01
-1.070464248315456e+00  5.387290827100587e-01  7.135558976652385e-18

 1.342534276812239e-17 -4.433535043205829e-19 -1.169883550200597e+00
-4.433535043205829e-19  1.531477383746602e-17  4.298925977378542e-01
-1.169883550200597e+00  4.298925977378542e-01  1.444149204433472e-17

 1.351656628132785e-17 -9.038447054354415e-20 -1.199771673062173e+00
-9.038447054354415e-20  1.673612119150886e-17  3.943485236216031e-01
-1.199771673062173e+00  3.943485236216031e-01  1.656431874959222e-17

 1.913767462590558e-17 -3.179011258150411e-18 -1.128819791329113e+00
-3.179011258150411e-18  1.445961553745980e-17  4.877055014309727e-01
-1.128819791329113e+00  4.877055014309727e-01  1.085699249333329e-17

 1.610526317626432e-17 -3.231818835264654e-18 -1.002702709945745e+00
-3.231818835264654e-18  9.700192272923584e-18  6.048968086853656e-01
-1.002702709945745e+00  6.048968086853656e-01  1.627329458707368e-18

 7.341046057395994e-18  1.611658559646175e-19 -9.843394063928377e-01
 1.611658559646175e-19  8.732240837543466e-18  5.908897644537950e-01
-9.843394063928377e-01  5.908897644537950e-01  6.504739780831213e-19

 2.943022178112825e-17 -6.509408470402662e-18 -1.183088979319254e+00
-6.509408470402662e-18  1.983719847909771e-17  3.648491616838004e-01
-1.183088979319254e+00  3.648491616838004e-01  1.572423378703968e-17

-1.242897265605170e-16  5.477772293277587e-17 -1.118966251154648e+00
 5.477772293277587e-17 -6.766393646159546e-18  4.111495853191470e-01
-1.118966251154648e+00  4.111495853191470e-01  1.146160118883954e-17

 2.255752257552632e-17 -4.680758206349228e-18 -1.092111246425701e+00
-4.680758206349228e-18  1.305758223353867e-17  5.217678678251956e-01
-1.092111246425701e+00  5.217678678251956e-01  8.706829535932695e-18

 1.691936324621248e-17 -2.382422204495484e-18 -1.101849344243793e+00
-2.382422204495484e-18  1.277873918501335e-17  5.002051478479468e-01
-1.101849344243793e+00  5.002051478479468e-01  1.028731249882806e-17

 1.551648113660869e-17 -2.204679054895116e-18 -1.039591011535000e+00
-2.204679054895116e-18  1.359230133526540e-17  4.507768639625094e-01
-1.039591011535000e+00  4.507768639625094e-01  6.997941095276262e-18

 1.015110434400428e-17 -3.492229828983999e-19 -1.018623017997829e+00
-3.492229828983999e-19  1.116517606390649e-17  4.907519772794949e-01
-1.018623017997829e+00  4.907519772794949e-01  5.481617655358309e-18

 1.043958416071728e-17 -2.612622115389515e-19 -1.053914508947024e+00
-2.612622115389515e-19  1.274671354002438e-17  4.585888811848903e-01
-1.053914508947024e+00  4.585888811848903e-01  7.442008546771679e-18

 1.107088591586558e-17 -3.314259936653480e-19 -1.083280093238289e+00
-3.314259936653480e-19  1.384254721265894e-17  4.470309836790914e-01
-1.083280093238289e+00  4.470309836790914e-01  8.855834727815977e-18

 1.205080431371919e-17 -1.316048955259128e-19 -1.137700170695039e+00
-1.316048955259128e-19  1.359007736152435e-17  4.595042262305660e-01
-1.137700170695039e+00  4.595042262305660e-01  1.129093790619637e-17

 1.245269650005213e-17  6.584799765664655e-20 -1.165194202637750e+00
 6.584799765664655e-20  1.300875151161080e-17  4.855537132397597e-01
-1.165194202637750e+00  4.855537132397597e-01  1.201567948149771e-17

 1.267510469593121e-17  5.446630177819508e-20 -1.176983239714466e+00
 5.446630177819508e-20  1.295518107405895e-17  4.967050775529467e-01
-1.176983239714466e+00  4.967050775529467e-01  1.242981822284403e-17

 1.343546051540423e-17 -5.860085325290467e-20 -1.203341365915566e+00
-5.860085325290467e-20  1.458180938685088e-17  4.569707378391196e-01
-1.203341365915566e+00  4.569707378391196e-01  1.485559652861735e-17

 1.291010620006669e-17 -8.369052908499191e-20 -1.175987191261899e+00
-8.369052908499191e-20  1.486849496276539e-17  4.444695996245284e-01
-1.175987191261899e+00  4.444695996245284e-01  1.359702522592436e-17

 1.273753482788850e-17 -5.959328622757334e-20 -1.162567982773994e+00
-5.959328622757334e-20  1.527393226989007e-17  4.231749047083987e-01
-1.162567982773994e+00  4.231749047083987e-01  1.348805234535735e-17

 1.183091865482665e-17 -8.692104536371050e-20 -1.116499277086930e+00
-8.692104536371050e-20  1.359567033549795e-17  4.485117896627692e-01
-1.116499277086930e+00  4.485117896627692e-01  1.117744414753553e-17

 1.146356367209174e-17 -1.336842236128378e-19 -1.089200077982965e+00
-1.336842236128378e-19  1.316974442987463e-17  4.403876144069552e-01
-1.089200077982965e+00  4.403876144069552e-01  1.068900252035448e-17

 7.550748250772377e-18 -6.596873242838438e-19 -9.104239051020409e-01
-6.596873242838438e-19  7.000043396347066e-18  6.017916618710645e-01
-9.104239051020409e-01  6.017916618710645e-01 -6.859349176004510e-20

 1.134691467722287e-17  2.192963760700013e-19 -1.073099674282941e+00
 2.192963760700013e-19  1.608637643948701e-17  3.116691497336849e-01
-1.073099674282941e+00  3.116691497336849e-01  1.176944467056465e-17

 1.267794186436157e-17  1.109924463750738e-19 -1.122717379574861e+00
 1.109924463750738e-19  2.020296381274209e-17  2.107144922698897e-01
-1.122717379574861e+00  2.107144922698897e-01  1.606572001111965e-17

 7.752238929115650e-18 -5.290240525246091e-20 -9.256339725753367e-01
-5.290240525246091e-20  9.963674159814510e-18  4.806009376854298e-01
-9.256339725753367e-01  4.806009376854298e-01  1.123193541656595e-18

 1.194354447521946e-17 -2.931970201646186e-19 -1.099379751583114e+00
-2.931970201646186e-19  1.425668138612636e-17  4.007459500065980e-01
-1.099379751583114e+00  4.007459500065980e-01  1.298329601848439e-17

 1.125758297328857e-17  9.536740953638045e-20 -1.087747766797526e+00
 9.536740953638045e-20  1.102127047375396e-17  4.840138970674454e-01
-1.087747766797526e+00  4.840138970674454e-01  1.038187399292489e-17

 8.880532305105653e-18  1.092111649294497e-19 -9.970604608822150e-01
 1.092111649294497e-19  6.375817703725333e-18  6.125191071520980e-01
-9.970604608822150e-01  6.125191071520980e-01  2.934142960624802e-18

 1.190733824732957e-17 -1.219676005722513e-19 -1.112295153249983e+00
-1.219676005722513e-19  1.412512219900632e-17  4.147701812824908e-01
-1.112295153249983e+00  4.147701812824908e-01  1.269991361265483e-17

 1.196477134275515e-17 -1.505992707202349e-19 -1.112576711113482e+00
-1.505992707202349e-19  1.639067897370690e-17  3.497102015845948e-01
-1.112576711113482e+00  3.497102015845948e-01  1.350662098864900e-17

 9.972135700342389e-18 -1.887561304575967e-19 -1.035268872457379e+00
-1.887561304575967e-19  1.138285426834663e-17  4.860766581569703e-01
-1.035268872457379e+00  4.860766581569703e-01  7.193835372973044e-18

 1.058195214173834e-17 -2.792001187515335e-19 -1.061716790979932e+00
-2.792001187515335e-19  1.168532021511271e-17  4.795642463682104e-01
-1.061716790979932e+00  4.795642463682104e-01  9.084970795029090e-18

 1.080362065681537e-17 -2.792142014354708e-19 -1.074268870550658e+00
-2.792142014354708e-19  1.323976490599236e-17  4.382787562008854e-01
-1.074268870550658e+00  4.382787562008854e-01  1.015210677625076e-17

 1.062640439740283e-17 -3.970220604877572e-19 -1.071373181739223e+00
-3.970220604877572e-19  1.218092365983568e-17  4.674902246016458e-01
-1.071373181739223e+00  4.674902246016458e-01  9.658042049448002e-18

 7.349300831053993e-18 -7.837362719958524e-19 -9.360406445301729e-01
-7.837362719958524e-19  6.696967388605664e-18  6.120982397349405e-01
-9.360406445301729e-01  6.120982397349405e-01  1.811845774525045e-19

 9.597906945077636e-18 -2.206207199800800e-19 -1.036969136625501e+00
-2.206207199800800e-19  1.270850550085438e-17  4.273873759994242e-01
-1.036969136625501e+00  4.273873759994242e-01  7.301266293005456e-18

 1.190990300301076e-17 -7.389519090863962e-20 -1.133167463638171e+00
-7.389519090863962e-20  1.821855064145520e-17  2.758210451452964e-01
-1.133167463638171e+00  2.758210451452964e-01  1.450618566613396e-17

 9.026877140439862e-18 -3.007005501132309e-19 -1.022931490050712e+00
-3.007005501132309e-19  1.085781234790161e-17  4.809279981770361e-01
-1.022931490050712e+00  4.809279981770361e-01  5.354150187478483e-18

 9.820218044016688e-18 -7.943965132838152e-20 -1.073057796162034e+00
-7.943965132838152e-20  8.332573580188547e-18  5.545158045041932e-01
-1.073057796162034e+00  5.545158045041932e-01  6.895108126692669e-18

 9.308829320727509e-18 -3.129250515434492e-19 -1.049226353079467e+00
-3.129250515434492e-19  8.391114905526732e-18  5.631758687319224e-01
-1.049226353079467e+00  5.631758687319224e-01  5.369644687961826e-18

 1.109890037938296e-17 -2.293993329548442e-19 -1.118623276417420e+00
-2.293993329548442e-19  1.474015869929269e-17  3.864319514869636e-01
-1.118623276417420e+00  3.864319514869636e-01  1.147969854704461e-17

 1.086685106297858e-17 -3.238162455167202e-19 -1.107685313019317e+00
-3.238162455167202e-19  1.428438110577652e-17  4.036505358553665e-01
-1.107685313019317e+00  4.036505358553665e-01  1.074416278297329e-17

 8.798205986845563e-18  1.485771173637216e-19 -1.041554621346322e+00
 1.485771173637216e-19  8.369018306865850e-18  5.500141635008136e-01
-1.041554621346322e+00  5.500141635008136e-01  3.990112994726816e-18

 1.114914821959989e-17 -1.815410242332104e-20 -1.134250938427683e+00
-1.815410242332104e-20  1.174500589182489e-17  4.752003975275949e-01
-1.134250938427683e+00  4.752003975275949e-01  1.102132259636205e-17

 1.137745058623372e-17 -9.477140790884461e-20 -1.141330609487067e+00
-9.477140790884461e-20  1.312075816707554e-17  4.456271243825075e-01
-1.141330609487067e+00  4.456271243825075e-01  1.191857460883768e-17

 1.099171227752727e-17 -1.014928026792099e-19 -1.125017676246021e+00
-1.014928026792099e-19  1.290296807104191e-17  4.507683956274632e-01
-1.125017676246021e+00  4.507683956274632e-01  1.102050578854012e-17

 1.082514844170769e-17 -1.132044656129150e-19 -1.117295257158757e+00
-1.132044656129150e-19  1.290290284872060e-17  4.493998712130893e-01
-1.117295257158757e+00  4.493998712130893e-01  1.078621111477229e-17

 1.079390470188225e-17 -1.330936166083872e-19 -1.116872695710912e+00
-1.330936166083872e-19  1.310312244325354e-17  4.419717246979233e-01
-1.116872695710912e+00  4.419717246979233e-01  1.105419089223076e-17

 1.031761860155477e-17 -1.616785693364557e-19 -1.098941076484252e+00
-1.616785693364557e-19  1.185646127492337e-17  4.717917547733806e-01
-1.098941076484252e+00  4.717917547733806e-01  9.770072142967610e-18

 1.071611305585477e-17 -1.834637743853989e-19 -1.114220078321584e+00
-1.834637743853989e-19  1.299839679848384e-17  4.376111048244719e-01
-1.114220078321584e+00  4.376111048244719e-01  1.132603960571335e-17

 9.710983318158340e-18 -3.008053470905082e-19 -1.073466655831397e+00
-3.008053470905082e-19  1.056254526457709e-17  5.014459256351913e-01
-1.073466655831397e+00  5.014459256351913e-01  8.518830649102420e-18

 9.463246727139690e-18 -1.971671616768636e-19 -1.064819011038672e+00
-1.971671616768636e-19  1.266678155413403e-17  4.311060187111353e-01
-1.064819011038672e+00  4.311060187111353e-01  8.569283597469901e-18

 1.007566934757337e-17 -2.905835916055391e-19 -1.091593667821579e+00
-2.905835916055391e-19  1.470975834760870e-17  3.834286606414676e-01
-1.091593667821579e+00  3.834286606414676e-01  1.074980908990936e-17

 1.030956195841491e-17 -2.356019862731120e-19 -1.121735957385297e+00
-2.356019862731120e-19  1.146866577398836e-17  4.835942403281058e-01
-1.121735957385297e+00  4.835942403281058e-01  1.076494693139549e-17

 1.045284418615350e-17 -3.701253672689374e-19 -1.138871506981417e+00
-3.701253672689374e-19  1.162836405362793e-17  4.919206586200529e-01
-1.138871506981417e+00  4.919206586200529e-01  1.113667770595839e-17

 1.020899028441129e-17 -3.668837036426239e-19 -1.135308458831514e+00
-3.668837036426239e-19  1.192868282483777e-17  4.763064064186522e-01
-1.135308458831514e+00  4.763064064186522e-01  1.080203088045115e-17

 1.004131328173357e-17 -2.644905140186030e-19 -1.132832278308704e+00
-2.644905140186030e-19  1.280084008867768e-17  4.390018323125502e-01
-1.132832278308704e+00  4.390018323125502e-01  1.078249745093806e-17

 9.520042497405930e-18 -2.916855061334305e-19 -1.114059702944795e+00
-2.916855061334305e-19  1.125344148692476e-17  4.741122953648684e-01
-1.114059702944795e+00  4.741122953648684e-01  9.367667022430314e-18

 9.604149640171507e-18 -2.395188074536187e-19 -1.117625709896483e+00
-2.395188074536187e-19  1.146095318204050e-17  4.562321947986805e-01
-1.117625709896483e+00  4.562321947986805e-01  9.993970765040973e-18

 9.655916270035035e-18 -2.786606770134588e-19 -1.116037718799766e+00
-2.786606770134588e-19  1.035231332521499e-17  4.766298386790638e-01
-1.116037718799766e+00  4.766298386790638e-01  1.044993729391570e-17

 7.553049759636567e-18 -1.506123536885588e-19 -1.019149686166380e+00
-1.506123536885588e-19  9.351474480686646e-18  4.636411567088238e-01
-1.019149686166380e+00  4.636411567088238e-01  5.600857499877725e-18

 6.772649825935198e-18 -2.145104652665276e-19 -9.891443348304324e-01
-2.145104652665276e-19  8.618441490299166e-18  4.743110417694864e-01
-9.891443348304324e-01  4.743110417694864e-01  4.151932905129348e-18

 7.818964115087631e-18 -2.093770263259000e-19 -1.048049252123722e+00
-2.093770263259000e-19  8.237192556035506e-18  4.969996184298160e-01
-1.048049252123722e+00  4.969996184298160e-01  6.992854350553855e-18

 8.237550320543044e-18 -2.614652832276958e-19 -1.076563207946956e+00
-2.614652832276958e-19  9.438144003569920e-18  4.718454605093862e-01
-1.076563207946956e+00  4.718454605093862e-01  8.467898651194054e-18

 9.098273390424153e-18 -2.904848970215386e-19 -1.119841501155962e+00
-2.904848970215386e-19  9.786408301877478e-18  4.668541155646196e-01
-1.119841501155962e+00  4.668541155646196e-01  1.109468014391940e-17

 8.852686546423306e-18 -3.326124919731888e-19 -1.113891586325145e+00
-3.326124919731888e-19  8.932294236609863e-18  4.882354665906071e-01
-1.113891586325145e+00  4.882354665906071e-01  1.044468154666980e-17

 7.072730982575417e-18 -1.761639022874770e-19 -1.045668619256917e+00
-1.761639022874770e-19  8.679744261023111e-18  4.694360728787821e-01
-1.045668619256917e+00  4.694360728787821e-01  6.000741202333911e-18

 7.233343807240807e-18 -1.320877338866115e-19 -1.051949284751074e+00
-1.320877338866115e-19  1.064551149616873e-17  4.024125107949268e-01
-1.051949284751074e+00  4.024125107949268e-01  7.357168177177792e-18

 5.712308636225234e-18  7.693188458388412e-20 -9.999477618570839e-01
 7.693188458388412e-20  5.498979102565192e-18  5.273219814497428e-01
-9.999477618570839e-01  5.273219814497428e-01  2.504155131504289e-18

 5.937881590703616e-18  8.140355407275631e-20 -1.009718670019777e+00
 8.140355407275631e-20  5.180001887889224e-18  5.337988873092212e-01
-1.009718670019777e+00  5.337988873092212e-01  3.262427422205936e-18

 6.809273790383000e-18  3.952825702902003e-20 -1.041806095287340e+00
 3.952825702902003e-20  8.499010938862967e-18  4.428156569412517e-01
-1.041806095287340e+00  4.428156569412517e-01  6.736226816359017e-18

 6.178439761796549e-18 -2.426630461184014e-21 -1.015892078123502e+00
-2.426630461184014e-21  8.709864082560294e-18  4.306371476611593e-01
-1.015892078123502e+00  4.306371476611593e-01  5.677248617524332e-18

 6.564565531714482e-18  1.050044138945927e-19 -1.043789149336121e+00
 1.050044138945927e-19  8.187704865914065e-18  4.483083258057494e-01
-1.043789149336121e+00  4.483083258057494e-01  7.118340188810709e-18

 6.850131187615931e-18  9.113620134529544e-20 -1.074413895847826e+00
 9.113620134529544e-20  8.202605498062221e-18  4.559020251523099e-01
-1.074413895847826e+00  4.559020251523099e-01  8.644750751908439e-18

 5.906802163391943e-18  2.809627474576666e-20 -1.053976241157003e+00
 2.809627474576666e-20  8.795297830619950e-18  4.364424883426454e-01
-1.053976241157003e+00  4.364424883426454e-01  7.357406490297274e-18

 5.860715339033528e-18 -1.546958006919922e-19 -1.044353855774171e+00
-1.546958006919922e-19  9.687263254877460e-18  4.151315034014527e-01
-1.044353855774171e+00  4.151315034014527e-01  6.798755953851493e-18

 1.139460291149658e-17 -6.931805974632222e-19 -1.067621466473545e+00
-6.931805974632222e-19  8.781404645076978e-18  4.424732600131248e-01
-1.067621466473545e+00  4.424732600131248e-01  7.403769930306992e-18

 1.072738652564947e-17 -5.713644920421889e-19 -1.083442543417931e+00
-5.713644920421889e-19  8.266365358612728e-18  4.630656653152219e-01
-1.083442543417931e+00  4.630656653152219e-01  7.568399453237703e-18

-5.344129626792463e-17  7.141756649952454e-18 -1.307202030947292e+00
 7.141756649952454e-18  1.525690811272153e-17  2.818283198901473e-01
-1.307202030947292e+00  2.818283198901473e-01  2.410584809750210e-17

 1.809994254259091e-16 -2.043001181204980e-17 -1.081495301243382e+00
-2.043001181204980e-17  8.581328928580036e-18  5.179713225120330e-01
-1.081495301243382e+00  5.179713225120330e-01  5.919606052436165e-18

-1.085329805488882e-16  1.322301546917824e-17 -9.965574739016435e-01
 1.322301546917824e-17  8.130000128258279e-19  6.166943638689392e-01
-9.965574739016435e-01  6.166943638689392e-01 -8.676924720269781e-19

 7.785670866041949e-18 -6.257658513869301e-20 -1.158315769165762e+00
-6.257658513869301e-20  1.123793347209889e-17  3.758253615102508e-01
-1.158315769165762e+00  3.758253615102508e-01  1.253423869622682e-17

 6.224529050341277e-18 -1.541030551551217e-19 -1.104552344091733e+00
-1.541030551551217e-19  8.567353589363844e-18  4.336993951432241e-01
-1.104552344091733e+00  4.336993951432241e-01  9.076132396333133e-18

 3.842558388185986e-18  1.379362892874303e-19 -1.082367108503414e+00
 1.379362892874303e-19  7.939154373927968e-18  4.259481522265338e-01
-1.082367108503414e+00  4.259481522265338e-01  8.504173005355765e-18

-7.722582866652669e-18  1.639430024290805e-18 -8.340320464365968e-01
 1.639430024290805e-18 -1.536153581510331e-18  6.416369919421491e-01
-8.340320464365968e-01  6.416369919421491e-01 -7.434915961234483e-18

-2.132401591614731e-17  9.765849484099494e-18 -1.055566567278831e+00
 9.765849484099494e-18  5.693443697156617e-18  3.372042467798033e-01
-1.055566567278831e+00  3.372042467798033e-01  8.265700602013980e-18

 3.125811535949353e-18 -8.039279969818873e-20 -1.052276301872101e+00
-8.039279969818873e-20  1.195166317892535e-17  2.723501426444518e-01
-1.052276301872101e+00  2.723501426444518e-01  8.490057938243361e-18

 4.746924151123465e-20  4.373146050150369e-19 -1.023606886193629e+00
 4.373146050150369e-19  5.801405735656989e-18  4.386988359068703e-01
-1.023606886193629e+00  4.386988359068703e-01  4.420266917116111e-18

 2.325561462230507e-18  1.784547443976159e-19 -1.123405480697267e+00
 1.784547443976159e-19  6.996696734206498e-18  4.234614064414863e-01
-1.123405480697267e+00  4.234614064414863e-01  9.691502973967279e-18

 3.368918942838590e-18 -1.909246411893508e-19 -1.205748004138382e+00
-1.909246411893508e-19  8.704766885937083e-18  3.971452239829403e-01
-1.205748004138382e+00  3.971452239829403e-01  1.434814342395155e-17

-1.199186012239021e-19 -5.792810382692785e-19 -1.090010610958978e+00
-5.792810382692785e-19  4.511734435373322e-18  4.946884564157698e-01
-1.090010610958978e+00  4.946884564157698e-01  6.869097257543637e-18

-1.215262421803422e-18 -1.546628247741851e-20 -1.078125594794961e+00
-1.546628247741851e-20  6.242930603115351e-18  3.938841323101743e-01
-1.078125594794961e+00  3.938841323101743e-01  6.759836623045958e-18

-3.187935022325636e-18  7.232869979994066e-20 -1.024911973817597e+00
 7.232869979994066e-20  4.685000820041021e-18  3.962066065005703e-01
-1.024911973817597e+00  3.962066065005703e-01  4.032190274907850e-18

-5.499487736466117e-18 -1.033857859555289e-19 -9.561347008774180e-01
-1.033857859555289e-19  1.615175626548988e-18  4.593786053517752e-01
-9.561347008774180e-01  4.593786053517752e-01 -1.837073053587898e-19

-4.483760685648026e-18  1.136988884675176e-19 -1.023800070086513e+00
 1.136988884675176e-19  4.088541373953299e-18  3.729152085290097e-01
-1.023800070086513e+00  3.729152085290097e-01  5.012718133449263e-18

-6.343975846971241e-18  4.355354829098208e-20 -9.738975616261292e-01
 4.355354829098208e-20  2.052775673244727e-18  4.175135760396889e-01
-9.738975616261292e-01  4.175135760396889e-01  1.559669367488076e-18

-1.065015107658592e-17 -1.353675881172738e-19 -8.478559284256567e-01
-1.353675881172738e-19 -2.432896131214699e-18  5.164648143271197e-01
-8.478559284256567e-01  5.164648143271197e-01 -7.199078764193026e-18

-6.448076300469098e-18  1.234776203223071e-19 -1.001922716788772e+00
 1.234776203223071e-19  4.869035630783174e-18  3.099150410166490e-01
-1.001922716788772e+00  3.099150410166490e-01  4.011017785489726e-18

-1.083505840819661e-17  6.472851842354104e-19 -1.124164564876356e+00
 6.472851842354104e-19  9.561517260250046e-18  1.917629700299764e-01
-1.124164564876356e+00  1.917629700299764e-01  1.306764751711912e-17

-1.088122584657235e-17  1.840907534650830e-19 -9.447854763755018e-01
 1.840907534650830e-19  5.380161442799300e-19  4.140476000046748e-01
-9.447854763755018e-01  4.140476000046748e-01 -1.112022867671846e-18

 2.535225754142297e-17 -2.872703427874264e-18 -9.001848119778434e-01
-2.872703427874264e-18 -4.931787662624668e-18  5.468905875639618e-01
-9.001848119778434e-01  5.468905875639618e-01 -6.183348490140670e-18

 1.062377886270309e-17 -1.789202652355940e-18 -1.002753422047121e+00
-1.789202652355940e-18 -2.246151282359007e-18  4.816314904728339e-01
-1.002753422047121e+00  4.816314904728339e-01  1.361535708093441e-18

-1.308528407079650e-16  9.846934653412297e-18 -9.551175308165966e-01
 9.846934653412297e-18 -3.294577865193414e-18  4.600125140187142e-01
-9.551175308165966e-01  4.600125140187142e-01 -1.507187190044136e-18

-1.404329222784934e-17 -2.255163046358656e-19 -8.430601989303962e-01
-2.255163046358656e-19 -1.557509381977286e-18  3.913468421780745e-01
-8.430601989303962e-01  3.913468421780745e-01 -9.246990311565525e-18

-1.689478566396749e-17  3.390203592127113e-19 -1.107985558388977e+00
 3.390203592127113e-19  8.951713125930564e-18  1.389256956693528e-01
-1.107985558388977e+00  1.389256956693528e-01  1.072707421768515e-17

-1.595403337238714e-17 -1.962306564381595e-18 -8.978591476616411e-01
-1.962306564381595e-18 -2.230954850950246e-18  4.268125284490708e-01
-8.978591476616411e-01  4.268125284490708e-01 -7.150025602877567e-18

-1.707176742526263e-17 -1.618697492771250e-18 -9.560911501779552e-01
-1.618697492771250e-18 -6.228677336708802e-18  5.097984287288646e-01
-9.560911501779552e-01  5.097984287288646e-01 -7.052516893696289e-18

-2.679871890914737e-17  1.527860431996607e-18 -1.049803431406692e+00
 1.527860431996607e-18 -4.548944278813329e-18  4.396469381781473e-01
-1.049803431406692e+00  4.396469381781473e-01 -1.224944273264138e-18

-2.439645049668039e-17 -1.124931174365466e-18 -1.035648915515312e+00
-1.124931174365466e-18 -1.475667235821604e-18  3.673263407789448e-01
-1.035648915515312e+00  3.673263407789448e-01 -3.013480937017248e-18

-3.089005241261015e-17  3.972163729483135e-19 -1.029762611231917e+00
 3.972163729483135e-19 -1.303421032262910e-18  3.288429263406096e-01
-1.029762611231917e+00  3.288429263406096e-01 -4.221762953246315e-18

-3.702266345349747e-17 -1.939231427536034e-19 -9.867578132129016e-01
-1.939231427536034e-19 -6.122682146676965e-18  4.395369657535281e-01
-9.867578132129016e-01  4.395369657535281e-01 -9.966842294402806e-18

-4.441904414981619e-17 -4.945895897026374e-19 -9.903207705326248e-01
-4.945895897026374e-19 -5.985657737511648e-18  4.170692989539048e-01
-9.903207705326248e-01  4.170692989539048e-01 -1.235739240329346e-17

-5.577113473601111e-17 -1.222054999938474e-18 -9.925494579983406e-01
-1.222054999938474e-18 -6.256627602917806e-18  4.094547040680553e-01
-9.925494579983406e-01  4.094547040680553e-01 -1.654198100295095e-17

-6.548703772538251e-17 -1.919334543987958e-18 -9.980069572641416e-01
-1.919334543987958e-18 -7.972694301723902e-18  4.475325404520261e-01
-9.980069572641416e-01  4.475325404520261e-01 -2.046526262885664e-17

-7.230392863323518e-17 -2.573205502594801e-18 -1.003260794430052e+00
-2.573205502594801e-18 -8.091107321200790e-18  4.534239547542809e-01
-1.003260794430052e+00  4.534239547542809e-01 -2.267444535458965e-17

-8.455895881308951e-17 -3.867095348242433e-18 -1.006320564647614e+00
-3.867095348242433e-18 -6.263316891416828e-18  4.199896435889042e-01
-1.006320564647614e+00  4.199896435889042e-01 -2.640499931085727e-17

-1.016003588126742e-16 -5.875830989706700e-18 -9.570131528387217e-01
-5.875830989706700e-18 -5.122339735201842e-18  4.193813372754848e-01
-9.570131528387217e-01  4.193813372754848e-01 -3.509068263963861e-17

-1.267299701031357e-16 -9.900637587509703e-18 -9.240949332309886e-01
-9.900637587509703e-18 -1.286639556824060e-18  4.142001153198082e-01
-9.240949332309886e-01  4.142001153198082e-01 -4.602837539491064e-17

-1.609969882832114e-16 -1.632905978751404e-17 -9.893624260889741e-01
-1.632905978751404e-17  4.782848368804230e-18  4.432523227818532e-01
-9.893624260889741e-01  4.432523227818532e-01 -5.599530159630475e-17

-2.017959075417626e-16 -2.571561373011228e-17 -9.434972772193313e-01
-2.571561373011228e-17  3.632118301854390e-17  4.957241799989353e-01
-9.434972772193313e-01  4.957241799989353e-01 -8.045507414478648e-17

-2.395730918899620e-16 -4.118033864440456e-17 -1.175764306420837e+00
-4.118033864440456e-17  4.113771295821301e-17  1.468007026827314e-01
-1.175764306420837e+00  1.468007026827314e-01 -7.483720433016084e-17

-2.635500585365874e-16 -4.714403695579166e-17 -1.061978598461561e+00
-4.714403695579166e-17  4.475822139079994e-17  2.623754441738643e-01
-1.061978598461561e+00  2.623754441738643e-01 -9.104012515636885e-17

-3.051840459195116e-16 -5.514466238978007e-17 -8.503236726128924e-01
-5.514466238978007e-17  4.687331359218123e-17  5.194530005718435e-01
-8.503236726128924e-01  5.194530005718435e-01 -1.221186855608306e-16

-3.748760095083590e-16 -7.767230333771627e-17 -1.057503704222187e+00
-7.767230333771627e-17  8.466993687422035e-17  4.356265595798142e-01
-1.057503704222187e+00  4.356265595798142e-01 -1.377057576990794e-16

-5.287804154665853e-16 -1.302794737170907e-16 -1.176852970400936e+00
-1.302794737170907e-16  1.760785615716464e-16  3.797048618272534e-01
-1.176852970400936e+00  3.797048618272534e-01 -1.916111470481406e-16

-7.278865421558088e-16 -1.764372666854718e-16 -1.359495075290700e+00
-1.764372666854718e-16  3.243196116710552e-16  4.412270355748035e-01
-1.359495075290700e+00  4.412270355748035e-01 -2.570617901323602e-16

-8.839533983770530e-16 -2.054092076804787e-16 -1.134100860851460e+00
-2.054092076804787e-16  4.398141666336645e-16  8.042865986502460e-01
-1.134100860851460e+00  8.042865986502460e-01 -3.262428921268416e-16

-9.928067054834610e-16 -3.034330472208693e-16 -1.177768912446122e+00
-3.034330472208693e-16  5.283879558506035e-16  6.604212535293605e-01
-1.177768912446122e+00  6.604212535293605e-01 -3.702020276122736e-16

-1.061501602152810e-15 -5.153032458021136e-16 -1.289071487813591e+00
-5.153032458021136e-16  6.011365778017141e-16  2.342455025508258e-01
-1.289071487813591e+00  2.342455025508258e-01 -4.333266267542474e-16

-1.222627948137536e-15 -7.241877630942797e-16 -1.110074759323511e+00
-7.241877630942797e-16  7.350688776793720e-16  2.496674710181427e-01
-1.110074759323511e+00  2.496674710181427e-01 -5.576243406716271e-16

-1.687195908360447e-15 -1.295223033286165e-15 -9.672576990917722e-01
-1.295223033286165e-15  1.024838528659508e-15  4.651833533391713e-01
-9.672576990917722e-01  4.651833533391713e-01 -8.142961741212353e-16

-2.039860827619793e-15 -1.945318269846203e-15 -1.001188186214954e+00
-1.945318269846203e-15  1.296746926501059e-15  4.416987497340669e-01
-1.001188186214954e+00  4.416987497340669e-01 -1.082423619391764e-15

-2.619715619422977e-15 -3.274184785328917e-15 -9.881572832378276e-01
-3.274184785328917e-15  1.713214660010280e-15  4.643333145166055e-01
-9.881572832378276e-01  4.643333145166055e-01 -1.625205694969659e-15

-3.956483493617191e-15 -7.364759897538368e-15 -1.006800889540427e+00
-7.364759897538368e-15  1.861600112371753e-15  4.504485371144129e-01
-1.006800889540427e+00  4.504485371144129e-01 -3.456874803539134e-15

-7.439336048819876e-15 -1.286285857043300e-14 -1.022454886003973e+00
-1.286285857043300e-14  7.520490841951268e-16  4.540070524955588e-01
-1.022454886003973e+00  4.540070524955588e-01 -7.532349448295198e-15

-7.792023027450459e-15 -9.037722522928023e-15 -1.028986991809412e+00
-9.037722522928023e-15  1.030434706570719e-14  4.505458859739635e-01
-1.028986991809412e+00  4.505458859739635e-01 -1.294033832243044e-14

 1.222629376398355e-13  3.105850521222847e-14 -1.040495802710304e+00
 3.105850521222847e-14  7.543530135707545e-14  4.455074110105505e-01
-1.040495802710304e+00  4.455074110105505e-01  2.773868657488325e-14

-6.264752963009229e-13 -1.323670988345207e-13 -1.048122127428252e+00
-1.323670988345207e-13 -3.059664352425937e-13  4.546195707099801e-01
-1.048122127428252e+00  4.546195707099801e-01 -1.507413612079234e-13

-1.065829700851650e-14  1.858940738135309e-14 -1.062619906741141e+00
 1.858940738135309e-14  2.170461988438880e-14  4.536088444738657e-01
-1.062619906741141e+00  4.536088444738657e-01 -1.005607092850276e-14

-6.695296815948013e-13 -1.292715080362518e-13 -1.061307786959347e+00
-1.292715080362518e-13 -3.096045062876057e-13  4.677427433535670e-01
-1.061307786959347e+00  4.677427433535670e-01 -1.626048957027936e-13

-1.682751502767370e-14  1.907537804924246e-16 -1.069581863441198e+00
 1.907537804924246e-16 -4.313099398566637e-15  4.514263590793051e-01
-1.069581863441198e+00  4.514263590793051e-01 -7.193716362993794e-15

-1.058702706768575e-14 -9.002733694072114e-16 -1.129288124519391e+00
-9.002733694072114e-16 -3.775035524649210e-15  3.951554745804461e-01
-1.129288124519391e+00  3.951554745804461e-01 -4.085292695283701e-15

-7.467610626213759e-15 -1.215580096645589e-15 -1.148280613216573e+00
-1.215580096645589e-15 -3.482811344203620e-15  4.036194307538110e-01
-1.148280613216573e+00  4.036194307538110e-01 -2.631043484610153e-15

-5.091205419371773e-15 -1.220130115212055e-15 -1.173369186386386e+00
-1.220130115212055e-15 -3.067266708488878e-15  4.405480318323509e-01
-1.173369186386386e+00  4.405480318323509e-01 -1.668133715985423e-15

-4.249267035715063e-15 -1.155385779959852e-15 -1.078237995033863e+00
-1.155385779959852e-15 -2.854376428235895e-15  5.270918925619390e-01
-1.078237995033863e+00  5.270918925619390e-01 -1.365875771687770e-15

-3.506199346131995e-15 -1.092789497782875e-15 -1.090472388825258e+00
-1.092789497782875e-15 -2.426234780001191e-15  4.935806396107936e-01
-1.090472388825258e+00  4.935806396107936e-01 -1.147454837996826e-15

-2.825809993840354e-15 -1.025466565203840e-15 -1.123261757181520e+00
-1.025466565203840e-15 -1.923631982017710e-15  4.016177590580896e-01
-1.123261757181520e+00  4.016177590580896e-01 -8.823791595890830e-16

-2.228377271125279e-15 -9.033749051504721e-16 -1.033381809854158e+00
-9.033749051504721e-16 -1.541799012997795e-15  4.273984570234853e-01
-1.033381809854158e+00  4.273984570234853e-01 -6.918032975759137e-16

-1.502446639962090e-15 -7.007827495171457e-16 -9.202465804019758e-01
-7.007827495171457e-16 -1.043269711953970e-15  4.394096198630638e-01
-9.202465804019758e-01  4.394096198630638e-01 -4.666097834957239e-16

-1.105516638336161e-15 -5.542374055225881e-16 -1.002494820413572e+00
-5.542374055225881e-16 -7.273477886145108e-16  2.742261155571842e-01
-1.002494820413572e+00  2.742261155571842e-01 -3.353203478528345e-16

-9.950767793369078e-16 -5.067721925118454e-16 -9.548390738229457e-01
-5.067721925118454e-16 -6.863301148948609e-16  3.123935158325534e-01
-9.548390738229457e-01  3.123935158325534e-01 -3.043728736196682e-16

-8.429973824711984e-16 -4.346010368845354e-16 -8.191236270320710e-01
-4.346010368845354e-16 -6.793895828387665e-16  4.495662790427257e-01
-8.191236270320710e-01  4.495662790427257e-01 -2.682210304071583e-16

-5.896004214250188e-16 -3.073525420398954e-16 -9.248535454505735e-01
-3.073525420398954e-16 -5.971857162068061e-16  4.392477475630625e-01
-9.248535454505735e-01  4.392477475630625e-01 -1.872388566498079e-16

-4.038465525775921e-16 -2.057106853789404e-16 -9.708953418868873e-01
-2.057106853789404e-16 -4.818105959799029e-16  4.319649360379392e-01
-9.708953418868873e-01  4.319649360379392e-01 -1.292700296708642e-16

-3.108264002365152e-16 -1.559484770064286e-16 -9.659234207226532e-01
-1.559484770064286e-16 -3.898533380039677e-16  4.029131520815150e-01
-9.659234207226532e-01  4.029131520815150e-01 -1.004857878399827e-16

-2.623594683630457e-16 -1.280574528926298e-16 -9.734724391722690e-01
-1.280574528926298e-16 -3.475589658371511e-16  4.185115248225133e-01
-9.734724391722690e-01  4.185115248225133e-01 -8.539674451170453e-17

-2.250550081845175e-16 -1.065988143225999e-16 -9.862743639028593e-01
-1.065988143225999e-16 -3.107955407956057e-16  4.311530584295716e-01
-9.862743639028593e-01  4.311530584295716e-01 -7.325032712349118e-17

-1.923492029043693e-16 -8.788392825079835e-17 -9.782236621151161e-01
-8.788392825079835e-17 -2.758803567864956e-16  4.500686765149344e-01
-9.782236621151161e-01  4.500686765149344e-01 -6.367388869797325e-17

-1.661782024746062e-16 -7.513200911205694e-17 -1.012565429336365e+00
-7.513200911205694e-17 -2.408814737090284e-16  4.029105180282919e-01
-1.012565429336365e+00  4.029105180282919e-01 -5.267833244369935e-17

-1.442199064281461e-16 -6.266725489707693e-17 -9.863763774875907e-01
-6.266725489707693e-17 -2.147169244339649e-16  4.393728357263202e-01
-9.863763774875907e-01  4.393728357263202e-01 -4.743753024755061e-17

-1.188392620215713e-16 -4.992754443291577e-17 -9.886393359457689e-01
-4.992754443291577e-17 -1.796932771014240e-16  4.140737264897041e-01
-9.886393359457689e-01  4.140737264897041e-01 -3.856134740553725e-17

-9.989215440553423e-17 -3.944385249010220e-17 -9.769871646891586e-01
-3.944385249010220e-17 -1.557021003147678e-16  4.481421583859167e-01
-9.769871646891586e-01  4.481421583859167e-01 -3.337403838415800e-17

-8.655490427138613e-17 -3.256774442987005e-17 -9.867284494538663e-01
-3.256774442987005e-17 -1.377810940057278e-16  4.418583840166321e-01
-9.867284494538663e-01  4.418583840166321e-01 -2.825842210096030e-17

-7.378639836450227e-17 -2.601794389500004e-17 -9.701139568898125e-01
-2.601794389500004e-17 -1.191267146447503e-16  4.565655044106086e-01
-9.701139568898125e-01  4.565655044106086e-01 -2.499580416947020e-17

-6.411046530837597e-17 -2.189085115886595e-17 -9.972485861881043e-01
-2.189085115886595e-17 -1.042792601947827e-16  4.187940313921324e-01
-9.972485861881043e-01  4.187940313921324e-01 -1.961376226323989e-17

-5.812375710980489e-17 -1.855748420323705e-17 -9.512769564406971e-01
-1.855748420323705e-17 -9.458944336515781e-17  4.538718489963022e-01
-9.512769564406971e-01  4.538718489963022e-01 -2.070782458975784e-17

-4.811600974523119e-17 -1.669351897069311e-17 -1.125541592211787e+00
-1.669351897069311e-17 -8.031188097220295e-17  3.420798833061465e-01
-1.125541592211787e+00  3.420798833061465e-01 -6.467909570298682e-18

-4.827458608559848e-17 -1.145392362313209e-17 -9.748166416477192e-01
-1.145392362313209e-17 -8.308593768846230e-17  5.359190793536462e-01
-9.748166416477192e-01  5.359190793536462e-01 -1.842453646202039e-17

-4.176608704334973e-17 -9.697604671853632e-18 -1.074576389823695e+00
-9.697604671853632e-18 -7.297337804649860e-17  4.718150449739643e-01
-1.074576389823695e+00  4.718150449739643e-01 -1.078970740981005e-17

-3.275087848560283e-17 -5.304699133417183e-18 -1.262398250518862e+00
-5.304699133417183e-18 -6.365016044547561e-17  5.232587563036828e-01
-1.262398250518862e+00  5.232587563036828e-01  3.395913495907447e-19

-3.174758360890281e-17 -3.465852629685313e-18 -1.166494015650205e+00
-3.465852629685313e-18 -6.535248081728172e-17  7.646842033289218e-01
-1.166494015650205e+00  7.646842033289218e-01 -5.658918827318955e-18

-2.302336443014080e-17 -5.717917622150861e-18 -1.387512513932279e+00
-5.717917622150861e-18 -4.801646899150945e-17  4.272273596647905e-01
-1.387512513932279e+00  4.272273596647905e-01  1.126592153403255e-17

-2.792465488146171e-17 -6.568902184609640e-18 -1.065216210360810e+00
-6.568902184609640e-18 -4.988277990895070e-17  5.889664940287683e-01
-1.065216210360810e+00  5.889664940287683e-01 -7.935099319729569e-18

-2.287306835622252e-17 -6.294768798758798e-18 -1.182541260594985e+00
-6.294768798758798e-18 -3.524859205428862e-17  2.421631404651669e-01
-1.182541260594985e+00  2.421631404651669e-01  3.349625174292980e-19

-2.183697058360931e-17 -6.522501870463159e-18 -1.097642159510418e+00
-6.522501870463159e-18 -3.603929935366125e-17  4.017577396332040e-01
-1.097642159510418e+00  4.017577396332040e-01 -2.572062807694374e-18

-2.087448297463583e-17 -5.530275179007045e-18 -1.057390423960550e+00
-5.530275179007045e-18 -3.933408684946684e-17  5.663607087171715e-01
-1.057390423960550e+00  5.663607087171715e-01 -5.725867282400185e-18

-1.864668721631600e-17 -5.535342222747757e-18 -1.041888103810988e+00
-5.535342222747757e-18 -3.620395285356579e-17  5.887462286941924e-01
-1.041888103810988e+00  5.887462286941924e-01 -4.972821707282090e-18

-1.601975414213609e-17 -5.274305470360129e-18 -1.087499315361987e+00
-5.274305470360129e-18 -3.012860064868085e-17  4.715187009309625e-01
-1.087499315361987e+00  4.715187009309625e-01 -2.619536126505068e-19

-1.437577205281464e-17 -4.988787422414329e-18 -1.078137881825640e+00
-4.988787422414329e-18 -2.592427767422710e-17  4.142371358618623e-01
-1.078137881825640e+00  4.142371358618623e-01  7.812743787437108e-19

-1.428202153630495e-17 -4.720327542749664e-18 -9.971615060480683e-01
-4.720327542749664e-18 -2.505295137948111e-17  4.514260099065963e-01
-9.971615060480683e-01  4.514260099065963e-01 -3.079559896429000e-18

-1.276528188640109e-17 -4.341137122177328e-18 -9.729897874148573e-01
-4.341137122177328e-18 -2.252653503642108e-17  4.498173793800039e-01
-9.729897874148573e-01  4.498173793800039e-01 -3.063666057542288e-18

-1.114524406503850e-17 -3.959879679406748e-18 -9.742320313138289e-01
-3.959879679406748e-18 -2.034002097757603e-17  4.411324253682868e-01
-9.742320313138289e-01  4.411324253682868e-01 -1.835895771085739e-18

-8.875555626558470e-18 -3.552612126727577e-18 -1.002644973163897e+00
-3.552612126727577e-18 -1.717612466585899e-17  4.134684722048934e-01
-1.002644973163897e+00  4.134684722048934e-01  1.324028979453883e-18

-7.289497801498517e-18 -2.979612957407192e-18 -9.792649920038968e-01
-2.979612957407192e-18 -1.498965919232763e-17  4.166487832531224e-01
-9.792649920038968e-01  4.166487832531224e-01  1.368723353288346e-18

-7.081502121545736e-18 -2.643159042943498e-18 -9.204121788265660e-01
-2.643159042943498e-18 -1.374265046992855e-17  4.261254624105335e-01
-9.204121788265660e-01  4.261254624105335e-01 -1.178186409068081e-18

-6.949067755919453e-18 -2.459822186865286e-18 -8.936660376162145e-01
-2.459822186865286e-18 -1.410988102715153e-17  4.565740582774088e-01
-8.936660376162145e-01  4.565740582774088e-01 -2.425236245579465e-18

-5.384779155698583e-18 -2.370075407287035e-18 -9.297613562666596e-01
-2.370075407287035e-18 -1.149001308523640e-17  4.095419932495457e-01
-9.297613562666596e-01  4.095419932495457e-01  1.069284703891573e-18

-5.129594081398106e-18 -2.257843414813595e-18 -8.958345844721802e-01
-2.257843414813595e-18 -8.927958740716437e-18  3.744816932827228e-01
-8.958345844721802e-01  3.744816932827228e-01  7.840512206508125e-20

-3.308594996702491e-18 -2.209306877857288e-18 -9.325141699825579e-01
-2.209306877857288e-18 -6.152819027879593e-18  3.414722062049157e-01
-9.325141699825579e-01  3.414722062049157e-01  3.558505020202423e-18

-4.275675813016788e-18 -1.495005624630359e-18 -8.664585132151030e-01
-1.495005624630359e-18 -1.059643202914805e-17  4.800196296762886e-01
-8.664585132151030e-01  4.800196296762886e-01 -2.108539015069226e-18

-3.204277715140295e-18 -1.554144891843445e-18 -8.876683376650059e-01
-1.554144891843445e-18 -7.744765687707770e-18  4.375269108059854e-01
-8.876683376650059e-01  4.375269108059854e-01 -7.136224230216650e-20

-1.577289915389354e-19 -1.669327946063791e-18 -9.948648317202942e-01
-1.669327946063791e-18 -1.855276596969267e-18  3.134498123198441e-01
-9.948648317202942e-01  3.134498123198441e-01  8.308740330503852e-18

-1.826524228226993e-18 -1.319745612392425e-18 -9.100048095804284e-01
-1.319745612392425e-18 -5.720126711835077e-18  4.341382193271386e-01
-9.100048095804284e-01  4.341382193271386e-01  1.381851948178827e-18

-5.998584757600963e-19 -1.243129296108159e-18 -9.437835045067624e-01
-1.243129296108159e-18 -4.766982537976905e-18  4.374626358909658e-01
-9.437835045067624e-01  4.374626358909658e-01  3.515620985755417e-18

-7.311286491240996e-20 -1.268590825439462e-18 -9.453791705824028e-01
-1.268590825439462e-18 -2.745924905304978e-18  4.203572277788098e-01
-9.453791705824028e-01  4.203572277788098e-01  3.642025802520280e-18

 3.428585040444212e-19 -1.272269132115668e-18 -9.476600959532652e-01
-1.272269132115668e-18 -7.511838810671189e-19  3.965198973239802e-01
-9.476600959532652e-01  3.965198973239802e-01  3.781582699122823e-18

 2.235071919443767e-19 -1.212899879787912e-18 -9.320329679883897e-01
-1.212899879787912e-18 -1.158520576382803e-18  4.381975814882890e-01
-9.320329679883897e-01  4.381975814882890e-01  1.789064678035086e-18

 1.928834682540578e-18 -1.414013638193319e-18 -9.915971508918934e-01
-1.414013638193319e-18  1.927744398436060e-18  4.032937646373379e-01
-9.915971508918934e-01  4.032937646373379e-01  5.413089082553382e-18

 1.567283142535240e-18 -1.864647158141361e-18 -9.601787939857803e-01
-1.864647158141361e-18  2.008195214408706e-18  4.485749720149418e-01
-9.601787939857803e-01  4.485749720149418e-01  2.059262198454377e-18

 8.949660607881298e-18 -2.805757386632035e-18 -1.237419295991038e+00
-2.805757386632035e-18  1.033299188096147e-17  3.012137457545800e-01
-1.237419295991038e+00  3.012137457545800e-01  2.104394015613629e-17

 4.602234684889420e-18 -6.524360326081622e-19 -1.132781733859208e+00
-6.524360326081622e-19 -3.773281368133713e-18  6.669098259155155e-01
-1.132781733859208e+00  6.669098259155155e-01  1.012780728615971e-17

 4.316445531345746e-18 -2.089576525909886e-18 -1.068107665073469e+00
-2.089576525909886e-18 -3.829808983782689e-18  7.384174613582978e-01
-1.068107665073469e+00  7.384174613582978e-01  7.886465011844282e-18

 1.402467365820820e-17  1.247667126368682e-18 -1.476106681484948e+00
 1.247667126368682e-18  1.532389553275565e-17  5.176182130782148e-02
-1.476106681484948e+00  5.176182130782148e-02  2.820528817542731e-17

 5.507518136110142e-18 -6.283296585249026e-19 -1.026450188961401e+00
-6.283296585249026e-19  5.473846599824930e-18  3.667203529621473e-01
-1.026450188961401e+00  3.667203529621473e-01  2.584029379112446e-18

 2.665149567056196e-17 -5.563442658553454e-18 -1.043436231842428e+00
-5.563442658553454e-18  4.529868955445241e-18  4.692168336546592e-01
-1.043436231842428e+00  4.692168336546592e-01  5.171789079694160e-18

 6.172696380138876e-17 -1.262995640779545e-17 -1.082819700394454e+00
-1.262995640779545e-17  5.480350583316206e-18  5.065331339566052e-01
-1.082819700394454e+00  5.065331339566052e-01  7.205443677458031e-18

 4.446373961785491e-18 -4.918723197832326e-19 -1.099103423584574e+00
-4.918723197832326e-19  5.131521440122881e-18  4.612669705864767e-01
-1.099103423584574e+00  4.612669705864767e-01  8.660612005291772e-18

 5.571750466627049e-18 -6.869812555192264e-19 -1.074761450287682e+00
-6.869812555192264e-19  5.156695210482528e-18  4.704309814366111e-01
-1.074761450287682e+00  4.704309814366111e-01  7.556423685147586e-18

 5.679035940324893e-18 -6.936764917786911e-19 -1.043010236635844e+00
-6.936764917786911e-19  5.526275303936627e-18  4.625815730009851e-01
-1.043010236635844e+00  4.625815730009851e-01  5.979030611723377e-18

 6.828867308407450e-18 -6.879229085348430e-19 -1.073870456359848e+00
-6.879229085348430e-19  6.266644591773868e-18  4.634264487618263e-01
-1.073870456359848e+00  4.634264487618263e-01  7.973566224525585e-18

 7.071088409033552e-18 -6.971362028299497e-19 -1.073782993639947e+00
-6.971362028299497e-19  5.644798038586704e-18  4.871464012292631e-01
-1.073782993639947e+00  4.871464012292631e-01  7.932830418079637e-18

 7.303306288983209e-18 -5.778010165630469e-19 -1.071907273538641e+00
-5.778010165630469e-19  6.957733985972962e-18  4.455190052163378e-01
-1.071907273538641e+00  4.455190052163378e-01  8.390819020548428e-18

 7.099297186122103e-18 -5.847652433175166e-19 -1.046900371550947e+00
-5.847652433175166e-19  6.052765569754015e-18  4.668775640599376e-01
-1.046900371550947e+00  4.668775640599376e-01  7.408699909068196e-18

 5.668420075845731e-18 -4.707361806879469e-19 -9.649642655905979e-01
-4.707361806879469e-19  5.172496963642447e-18  4.706051206392174e-01
-9.649642655905979e-01  4.706051206392174e-01  3.222122828252808e-18

 4.288070896707160e-18 -6.456123378083464e-19 -8.885239465960629e-01
-6.456123378083464e-19  6.065782841145169e-18  4.462234958136255e-01
-8.885239465960629e-01  4.462234958136255e-01 -8.060624485072552e-19

 1.015901849338620e-17 -2.161527600289227e-18 -1.088132281351979e+00
-2.161527600289227e-18  1.446752609330085e-17  3.056517046051290e-01
-1.088132281351979e+00  3.056517046051290e-01  1.425469657224934e-17

 9.842504013421187e-18 -9.718423708379791e-19 -1.107846135199613e+00
-9.718423708379791e-19  9.696918017066756e-18  4.059781961150852e-01
-1.107846135199613e+00  4.059781961150852e-01  1.315168693792519e-17

 3.629726224810929e-20  1.224727774680008e-18 -7.687649854970794e-01
 1.224727774680008e-18 -4.222866179230686e-18  6.989543523701645e-01
-7.687649854970794e-01  6.989543523701645e-01 -1.262440397209278e-17

 2.601603809975537e-18  1.373454778347165e-18 -8.836251873158661e-01
 1.373454778347165e-18 -4.555366995317931e-18  7.202953164855198e-01
-8.836251873158661e-01  7.202953164855198e-01 -5.677800882226910e-18

 6.506505581612604e-18 -4.924871855826014e-20 -1.005776974410539e+00
-4.924871855826014e-20 -3.279486521226972e-19  6.719202197139652e-01
-1.005776974410539e+00  6.719202197139652e-01  3.540591791215792e-18

 1.278282808861664e-17  4.134338050248059e-19 -1.254373812880217e+00
 4.134338050248059e-19  1.466766239243955e-17  2.495587395649020e-01
-1.254373812880217e+00  2.495587395649020e-01  2.154795180257835e-17

 7.667945204350085e-18 -1.634708131611828e-19 -1.024872447937947e+00
-1.634708131611828e-19  8.887404596036130e-18  4.203487490176997e-01
-1.024872447937947e+00  4.203487490176997e-01  6.810692150562651e-18

 6.871998541456316e-18 -3.494497485929089e-19 -9.810214691280077e-01
-3.494497485929089e-19  7.134025852852988e-18  4.658137370745476e-01
-9.810214691280077e-01  4.658137370745476e-01  4.336300575175610e-18

 6.789637054527149e-18 -4.662205862078645e-19 -9.703494919682774e-01
-4.662205862078645e-19  9.276687160359205e-18  4.180678740981151e-01
-9.703494919682774e-01  4.180678740981151e-01  4.192454914472229e-18

 1.128340112719135e-17 -1.176882281748598e-18 -1.136659057467526e+00
-1.176882281748598e-18  1.590958691315934e-17  2.903577216251677e-01
-1.136659057467526e+00  2.903577216251677e-01  1.677649903685280e-17

 8.362528108393217e-18 -5.784771518377145e-19 -1.034642139918389e+00
-5.784771518377145e-19  1.025140179276038e-17  4.246648881177407e-01
-1.034642139918389e+00  4.246648881177407e-01  7.821840345377553e-18

 1.709042961437817e-18  5.439473472522562e-19 -7.964561920500504e-01
 5.439473472522562e-19 -1.035063576538447e-19  6.570469585043889e-01
-7.964561920500504e-01  6.570469585043889e-01 -1.167443201983837e-17

 8.710968794810696e-18  3.142069645602434e-19 -1.079092541094510e+00
 3.142069645602434e-19  7.228691200654626e-18  4.953163538997076e-01
-1.079092541094510e+00  4.953163538997076e-01  8.178925829587896e-18

 1.052623929829041e-17 -3.106575188114225e-21 -1.149313294408306e+00
-3.106575188114225e-21  9.693991503624703e-18  4.596125266301812e-01
-1.149313294408306e+00  4.596125266301812e-01  1.283846274195402e-17

 1.113136161492883e-17 -2.190593867553182e-19 -1.168948107264039e+00
-2.190593867553182e-19  1.065240361478139e-17  4.509029016110609e-01
-1.168948107264039e+00  4.509029016110609e-01  1.415874976944731e-17

 9.879958386510400e-18 -3.246925426696141e-19 -1.115825575455844e+00
-3.246925426696141e-19  8.916649599769550e-18  5.047803388011908e-01
-1.115825575455844e+00  5.047803388011908e-01  1.026019178305993e-17

 9.494361707705900e-18 -3.160542503827791e-19 -1.091678990321439e+00
-3.160542503827791e-19  1.038781762758284e-17  4.617659274290974e-01
-1.091678990321439e+00  4.617659274290974e-01  9.433778796776101e-18

 8.659529184582609e-18 -4.082239773842775e-19 -1.048694274676292e+00
-4.082239773842775e-19  1.249641297622215e-17  4.042427179391961e-01
-1.048694274676292e+00  4.042427179391961e-01  7.387574867336775e-18

 9.948421115787625e-18 -2.244520582561564e-19 -1.114519103640419e+00
-2.244520582561564e-19  1.014893124190730e-17  4.848954541754679e-01
-1.114519103640419e+00  4.848954541754679e-01  9.933613320740448e-18

 1.104871997349044e-17 -2.826727242581895e-19 -1.165355662102941e+00
-2.826727242581895e-19  9.786693897483685e-18  5.198537485052837e-01
-1.165355662102941e+00  5.198537485052837e-01  1.234051838819500e-17

 9.483732785391160e-18 -3.181503021902464e-19 -1.093047716612666e+00
-3.181503021902464e-19  1.074759566147805e-17  4.886104886369765e-01
-1.093047716612666e+00  4.886104886369765e-01  8.021331257639547e-18

 1.255366165946377e-17 -2.572545378232160e-19 -1.214699679371454e+00
-2.572545378232160e-19  1.539268527982346e-17  3.590985306777160e-01
-1.214699679371454e+00  3.590985306777160e-01  1.739683270466860e-17

 1.142429009907648e-17 -2.597249252721752e-19 -1.167583472554542e+00
-2.597249252721752e-19  1.360490706728924e-17  4.105928627474000e-01
-1.167583472554542e+00  4.105928627474000e-01  1.382528886669492e-17

 9.639800084501842e-18 -2.761083499853887e-19 -1.095551462587741e+00
-2.761083499853887e-19  9.879894772109748e-18  5.129489446408013e-01
-1.095551462587741e+00  5.129489446408013e-01  8.020792343558997e-18

 9.732484927488040e-18 -2.886945507758880e-19 -1.097277916436551e+00
-2.886945507758880e-19  9.860385419838558e-18  5.138101683786217e-01
-1.097277916436551e+00  5.138101683786217e-01  8.183476071512148e-18

 7.397621487004521e-18 -3.306444753775572e-19 -1.000843789117315e+00
-3.306444753775572e-19  6.906968133859753e-18  5.901152078768225e-01
-1.000843789117315e+00  5.901152078768225e-01  1.076250157348802e-18

 1.109282529148418e-17 -2.272104289176215e-19 -1.150339866890171e+00
-2.272104289176215e-19  1.297986409819499e-17  4.287961957832820e-01
-1.150339866890171e+00  4.287961957832820e-01  1.240479931166080e-17

 1.044080425760044e-17 -2.719825158116774e-19 -1.122375188562965e+00
-2.719825158116774e-19  1.223039842238420e-17  4.523229914199522e-01
-1.122375188562965e+00  4.523229914199522e-01  1.029414894558875e-17

 9.950205420971971e-18 -2.344996934046750e-19 -1.105660379036080e+00
-2.344996934046750e-19  9.945025659714714e-18  5.199779217136472e-01
-1.105660379036080e+00  5.199779217136472e-01  8.267581158988950e-18

 1.054264634947227e-17 -2.395070780518414e-19 -1.127642128361094e+00
-2.395070780518414e-19  1.063857336504882e-17  5.048140814074922e-01
-1.127642128361094e+00  5.048140814074922e-01  9.811226049563202e-18

 1.030893454915460e-17 -1.979634174659698e-19 -1.114347369684828e+00
-1.979634174659698e-19  1.135386079492716e-17  4.818890428470071e-01
-1.114347369684828e+00  4.818890428470071e-01  9.200645215507632e-18

 1.026595771775607e-17 -1.521534257798935e-19 -1.108270411235305e+00
-1.521534257798935e-19  1.097865146470102e-17  4.947795154540004e-01
-1.108270411235305e+00  4.947795154540004e-01  8.782173312007005e-18

 1.045260633613042e-17 -1.210774511360794e-19 -1.112128024370034e+00
-1.210774511360794e-19  1.132983105864089e-17  4.915130457340890e-01
-1.112128024370034e+00  4.915130457340890e-01  9.171749853788460e-18

 1.038204197741814e-17 -1.102966270838619e-19 -1.105509053414123e+00
-1.102966270838619e-19  1.136091207488435e-17  4.917901590740610e-01
-1.105509053414123e+00  4.917901590740610e-01  8.853818157992466e-18

 1.053009594489973e-17 -1.335010648037356e-19 -1.110653593960925e+00
-1.335010648037356e-19  1.185950378264285e-17  4.904452538575946e-01
-1.110653593960925e+00  4.904452538575946e-01  9.080113828557050e-18

 1.173491127103691e-17 -1.861065194404599e-19 -1.159478195984386e+00
-1.861065194404599e-19  1.368593049845488e-17  4.532909676020673e-01
-1.159478195984386e+00  4.532909676020673e-01  1.259372948601412e-17

 1.094708660066596e-17 -1.192278644787725e-19 -1.131526307924998e+00
-1.192278644787725e-19  1.201068125618737e-17  5.006238033518945e-01
-1.131526307924998e+00  5.006238033518945e-01  9.967511305060468e-18

 1.022812300351994e-17 -4.672391017693127e-20 -1.107982203853489e+00
-4.672391017693127e-20  1.045527675551158e-17  5.473061978914280e-01
-1.107982203853489e+00  5.473061978914280e-01  7.549544765971111e-18

 1.068858076845640e-17 -1.073874335447429e-19 -1.127802251485797e+00
-1.073874335447429e-19  1.141098992027721e-17  5.300639358676681e-01
-1.127802251485797e+00  5.300639358676681e-01  8.824577311526068e-18

 1.167729555019954e-17 -1.849174282836416e-19 -1.168821223043352e+00
-1.849174282836416e-19  1.380280602474295e-17  4.762016689907307e-01
-1.168821223043352e+00  4.762016689907307e-01  1.183489438012389e-17

 1.119650948182471e-17 -2.338579861813638e-19 -1.153478474134746e+00
-2.338579861813638e-19  1.352055447840343e-17  4.916990062671778e-01
-1.153478474134746e+00  4.916990062671778e-01  1.017695497572798e-17

 1.156644669928935e-17 -3.034577323157350e-19 -1.173631069738236e+00
-3.034577323157350e-19  1.425975890362047e-17  4.871543473917677e-01
-1.173631069738236e+00  4.871543473917677e-01  1.097128715403961e-17

 1.410331610503321e-17 -3.854821718539239e-19 -1.298353326375062e+00
-3.854821718539239e-19  1.709906134090929e-17  4.750294933152208e-01
-1.298353326375062e+00  4.750294933152208e-01  1.724176719552639e-17

 1.151149379441440e-17 -2.354071574840825e-18 -1.196498805067149e+00
-2.354071574840825e-18  6.363760868959679e-18  9.331880801119101e-01
-1.196498805067149e+00  9.331880801119101e-01  1.240873058655538e-17

 1.270269215772784e-17 -1.826276676824481e-18 -1.223386007686954e+00
-1.826276676824481e-18  1.106997081552519e-17  7.205305382969183e-01
-1.223386007686954e+00  7.205305382969183e-01  1.424171373269819e-17

 2.898626995210486e-17  2.458224898558772e-18 -1.943067859902496e+00
 2.458224898558772e-18  3.188952393016740e-17 -5.247580836906542e-02
-1.943067859902496e+00 -5.247580836906542e-02  5.274297859886718e-17

 1.135188519587466e-17  1.572683106114236e-18 -1.189378498936269e+00
 1.572683106114236e-18  1.575302200324513e-17  3.589198023687267e-01
-1.189378498936269e+00  3.589198023687267e-01  7.506333098219385e-18

 9.221923576106798e-18  4.521520327692922e-21 -1.052680437875692e+00
 4.521520327692922e-21  1.219695191696097e-17  4.927673928384407e-01
-1.052680437875692e+00  4.927673928384407e-01  4.257067633495764e-18

 1.101193991348506e-17 -2.046835532310756e-19 -1.118302791653922e+00
-2.046835532310756e-19  1.215535450196766e-17  5.028967945120979e-01
-1.118302791653922e+00  5.028967945120979e-01  9.270793752675887e-18

 9.572674471215533e-18 -1.740723145840169e-19 -1.061807638796341e+00
-1.740723145840169e-19  9.149221701324565e-18  5.817141258154750e-01
-1.061807638796341e+00  5.817141258154750e-01  4.622279624090013e-18

 1.136993822374557e-17 -1.702973076534350e-19 -1.130363570859429e+00
-1.702973076534350e-19  1.191165562972751e-17  5.109616303980773e-01
-1.130363570859429e+00  5.109616303980773e-01  9.955286397774835e-18

 1.398551340198565e-17 -1.706256041780143e-19 -1.233273858326379e+00
-1.706256041780143e-19  1.534500709166183e-17  4.147343426598035e-01
-1.233273858326379e+00  4.147343426598035e-01  1.790329832611623e-17

 9.851167315682898e-18 -1.813755137307435e-19 -1.065217521429071e+00
-1.813755137307435e-19  8.794143330916932e-18  5.887270662484948e-01
-1.065217521429071e+00  5.887270662484948e-01  5.216846357399970e-18

 9.005496571173561e-18 -2.941143135437309e-19 -1.025852903018319e+00
-2.941143135437309e-19  7.059533990188745e-18  6.305539753133507e-01
-1.025852903018319e+00  6.305539753133507e-01  2.681635474005322e-18

 1.140204565664605e-17 -2.379324327211758e-20 -1.117047277191963e+00
-2.379324327211758e-20  1.339633143375669e-17  4.449320250670384e-01
-1.117047277191963e+00  4.449320250670384e-01  1.051012749494054e-17

 1.109116618391396e-17 -6.036959000235278e-20 -1.095733512296463e+00
-6.036959000235278e-20  1.424377467596374e-17  4.189706931143904e-01
-1.095733512296463e+00  4.189706931143904e-01  9.894972053262230e-18

 1.056307080705424e-17 -4.907887927407444e-20 -1.073832567701659e+00
-4.907887927407444e-20  1.130193412472931e-17  5.040660258534798e-01
-1.073832567701659e+00  5.040660258534798e-01  7.775609599645681e-18

 1.127240857492767e-17 -9.058599544725850e-20 -1.102054095362286e+00
-9.058599544725850e-20  1.196521951977623e-17  4.940004336537288e-01
-1.102054095362286e+00  4.940004336537288e-01  9.716754684905947e-18

 1.099672496272610e-17 -1.105009825529223e-19 -1.088328285960823e+00
-1.105009825529223e-19  1.250925547877747e-17  4.751750276874908e-01
-1.088328285960823e+00  4.751750276874908e-01  9.003635311038866e-18

 1.123815303681490e-17 -1.141008267197512e-19 -1.098553475566526e+00
-1.141008267197512e-19  1.288351828201728e-17  4.705481169210004e-01
-1.098553475566526e+00  4.705481169210004e-01  9.643279068015089e-18

 1.112466698026920e-17 -6.883733659931482e-20 -1.095664644175934e+00
-6.883733659931482e-20  1.130480075437253e-17  5.130400653707651e-01
-1.095664644175934e+00  5.130400653707651e-01  8.944574188288585e-18

 1.114295258116535e-17 -7.265863331618719e-20 -1.092565669050777e+00
-7.265863331618719e-20  1.266050738335022e-17  4.771122591271998e-01
-1.092565669050777e+00  4.771122591271998e-01  9.198485906316688e-18

 1.115044933025068e-17 -8.425809419271624e-20 -1.091505762765774e+00
-8.425809419271624e-20  1.357045805061418e-17  4.527156022263416e-01
-1.091505762765774e+00  4.527156022263416e-01  9.374177627733227e-18

 1.068080283507540e-17 -1.439324795851501e-19 -1.070414878775317e+00
-1.439324795851501e-19  1.337897159171389e-17  4.607436428932426e-01
-1.070414878775317e+00  4.607436428932426e-01  7.903154681716483e-18

 1.142806410466652e-17 -2.136968055752994e-19 -1.100811823910252e+00
-2.136968055752994e-19  1.432573405506168e-17  4.440109873774586e-01
-1.100811823910252e+00  4.440109873774586e-01  1.001597317044689e-17

 1.106924709754191e-17 -1.527706843846766e-19 -1.091200189726298e+00
-1.527706843846766e-19  1.343333635199724e-17  4.752360669370974e-01
-1.091200189726298e+00  4.752360669370974e-01  8.735321564970399e-18

 1.113782524262395e-17 -3.533471024473398e-20 -1.101916090139755e+00
-3.533471024473398e-20  1.264293372570572e-17  5.007727856879493e-01
-1.101916090139755e+00  5.007727856879493e-01  8.589816560648821e-18

 1.116425120514859e-17  1.316581880582328e-20 -1.110907874525904e+00
 1.316581880582328e-20  1.245610506300968e-17  5.210235778999213e-01
-1.110907874525904e+00  5.210235778999213e-01  8.270839587314324e-18

 1.247906753428140e-17 -2.051013948241011e-19 -1.164367343593741e+00
-2.051013948241011e-19  1.572247968825672e-17  4.603688811667246e-01
-1.164367343593741e+00  4.603688811667246e-01  1.208715010815626e-17

 1.376591756191382e-17 -4.453473477464144e-19 -1.221361121850169e+00
-4.453473477464144e-19  1.815291065593280e-17  4.333191352011783e-01
-1.221361121850169e+00  4.333191352011783e-01  1.528043605075620e-17

 1.806983856101361e-17 -7.753662762636031e-19 -1.412552172817674e+00
-7.753662762636031e-19  2.040886775659248e-17  4.443332600590089e-01
-1.412552172817674e+00  4.443332600590089e-01  2.650426680475923e-17

 8.461242257271563e-18 -2.563229566975626e-18 -1.027243194184097e+00
-2.563229566975626e-18  2.946017917172222e-18  1.047371159718962e+00
-1.027243194184097e+00  1.047371159718962e+00  4.290901358042467e-18

 1.016750043828536e-17 -2.789397055622283e-18 -1.064240712844780e+00
-2.789397055622283e-18  7.820058877311026e-18  8.709192745309425e-01
-1.064240712844780e+00  8.709192745309425e-01  7.767194787310406e-18

 2.645402129735221e-17  2.458406229625826e-18 -1.799787749018015e+00
 2.458406229625826e-18  2.970016730808051e-17  1.939108711955578e-02
-1.799787749018015e+00  1.939108711955578e-02  4.423474436214546e-17

 1.097083955968003e-17  1.183809604881891e-18 -1.129640481605238e+00
 1.183809604881891e-18  1.595508415093025e-17  3.907509779424662e-01
-1.129640481605238e+00  3.907509779424662e-01  5.959313169576734e-18

 8.788003497053187e-18 -2.849100220967438e-19 -1.006385510169530e+00
-2.849100220967438e-19  1.037684121583329e-17  5.723811773245974e-01
-1.006385510169530e+00  5.723811773245974e-01  1.594861476689359e-18

 1.232329709972715e-17 -3.694487910865599e-19 -1.147030935886008e+00
-3.694487910865599e-19  1.493989207828934e-17  4.559469095158569e-01
-1.147030935886008e+00  4.559469095158569e-01  1.218253412259354e-17

 1.220825936581315e-17 -3.311537317029122e-19 -1.142126240597880e+00
-3.311537317029122e-19  1.458108172279164e-17  4.661767642170379e-01
-1.142126240597880e+00  4.661767642170379e-01  1.153762763566254e-17

 1.084619176150070e-17 -3.194188647327000e-19 -1.087379122463715e+00
-3.194188647327000e-19  1.194318787269195e-17  5.359577234006329e-01
-1.087379122463715e+00  5.359577234006329e-01  6.806675012584808e-18

 1.392541655998544e-17 -3.415452839036172e-19 -1.212323251839774e+00
-3.415452839036172e-19  1.619274742211087e-17  4.282909887428402e-01
-1.212323251839774e+00  4.282909887428402e-01  1.613077587194183e-17

 1.155105752556419e-17 -2.209453602724857e-19 -1.122302633838255e+00
-2.209453602724857e-19  1.184217434974096e-17  5.404236991803770e-01
-1.122302633838255e+00  5.404236991803770e-01  8.794194624964454e-18

 1.093590095014898e-17 -2.828250319670509e-19 -1.084748664486515e+00
-2.828250319670509e-19  9.521844465488876e-18  6.045272310374437e-01
-1.084748664486515e+00  6.045272310374437e-01  5.602996886145872e-18

 1.085917531392898e-17  1.362125384451365e-19 -1.147135332992073e+00
 1.362125384451365e-19  1.283747888143466e-17  5.108695744228194e-01
-1.147135332992073e+00  5.108695744228194e-01  1.089289532247317e-17

 2.693283557515224e-17 -3.700161961429097e-18 -1.148549084844408e+00
-3.700161961429097e-18  1.561146260271795e-17  4.560379193325123e-01
-1.148549084844408e+00  4.560379193325123e-01  1.172231135470796e-17

-1.688190972830857e-17  6.867640252996469e-18 -1.107892268631487e+00
 6.867640252996469e-18  1.119730614229793e-17  5.059569318379015e-01
-1.107892268631487e+00  5.059569318379015e-01  8.960715154365206e-18

-1.677456925173233e-17  6.863335070285449e-18 -1.109683330151808e+00
 6.863335070285449e-18  1.188552283342262e-17  4.869414626490392e-01
-1.109683330151808e+00  4.869414626490392e-01  9.400743859769361e-18

 1.524707204177423e-16 -4.057948050644505e-17 -1.119776183916424e+00
-4.057948050644505e-17  2.496989918246609e-17  4.972679629294369e-01
-1.119776183916424e+00  4.972679629294369e-01  9.768029338728297e-18

 8.443894440367823e-17 -2.106591950404074e-17 -1.135752089279026e+00
-2.106591950404074e-17  1.982522526548122e-17  4.901031522633871e-01
-1.135752089279026e+00  4.901031522633871e-01  1.053722682054891e-17

 8.721629873674800e-18  8.593592718184376e-19 -1.142606694654035e+00
 8.593592718184376e-19  1.379290257211784e-17  4.902575076920870e-01
-1.142606694654035e+00  4.902575076920870e-01  1.069780440329565e-17

 4.317835973158863e-18  2.244868038567038e-18 -1.164387376858950e+00
 2.244868038567038e-18  1.386059859078737e-17  4.834563583662385e-01
-1.164387376858950e+00  4.834563583662385e-01  1.193554118665061e-17

 1.556287586068804e-17 -1.050753191021474e-18 -1.155848421715840e+00
-1.050753191021474e-18  1.436048313573038e-17  4.931844409005994e-01
-1.155848421715840e+00  4.931844409005994e-01  1.116020423504504e-17

 1.267441660033318e-17 -1.265390556348181e-20 -1.186634974731489e+00
-1.265390556348181e-20  1.504453898737422e-17  4.736723261486238e-01
-1.186634974731489e+00  4.736723261486238e-01  1.344811290082910e-17

 1.399148076702165e-17 -1.261199304771315e-19 -1.226743465650955e+00
-1.261199304771315e-19  1.590402341731131e-17  4.573084947113640e-01
-1.226743465650955e+00  4.573084947113640e-01  1.635678622029084e-17

 1.157274395073497e-17 -2.686383638094596e-19 -1.119619847820408e+00
-2.686383638094596e-19  1.120569730253674e-17  5.809751925549166e-01
-1.119619847820408e+00  5.809751925549166e-01  8.291854106881695e-18

 1.022095583032499e-17 -4.166327510636050e-19 -1.062323344148497e+00
-4.166327510636050e-19  9.141961404453089e-18  6.331783933297069e-01
-1.062323344148497e+00  6.331783933297069e-01  4.501315896175335e-18

 1.278600010788426e-17 -4.126378833004350e-20 -1.157164704802739e+00
-4.126378833004350e-20  1.606730307939874e-17  4.221471471393810e-01
-1.157164704802739e+00  4.221471471393810e-01  1.227047338030741e-17

 1.241517858153919e-17 -1.155018025612154e-19 -1.139457756518674e+00
-1.155018025612154e-19  1.636308667010326e-17  4.145194013896932e-01
-1.139457756518674e+00  4.145194013896932e-01  1.155883127554253e-17

 1.164754215066434e-17 -1.267039570979168e-19 -1.113372114389010e+00
-1.267039570979168e-19  1.217061766453465e-17  5.369647788008155e-01
-1.113372114389010e+00  5.369647788008155e-01  8.380216197085869e-18

 1.252815950946170e-17 -1.979537377458991e-19 -1.151700374169783e+00
-1.979537377458991e-19  1.419397053573519e-17  4.922039829248029e-01
-1.151700374169783e+00  4.922039829248029e-01  1.096942159427481e-17

 1.264445653618637e-17 -1.651596723152242e-19 -1.161905703451972e+00
-1.651596723152242e-19  1.415474600626834e-17  4.951860632582450e-01
-1.161905703451972e+00  4.951860632582450e-01  1.113256924977752e-17

 1.287494668818247e-17 -1.156401663254900e-19 -1.170311500097577e+00
-1.156401663254900e-19  1.439069210410320e-17  4.801752768812129e-01
-1.170311500097577e+00  4.801752768812129e-01  1.171965155841287e-17

 1.269793832277817e-17 -5.638244770510377e-20 -1.158098163106485e+00
-5.638244770510377e-20  1.418722890873600e-17  4.814458346106227e-01
-1.158098163106485e+00  4.814458346106227e-01  1.117641775323728e-17

 1.260922040717484e-17 -8.829245858267999e-21 -1.146466088074705e+00
-8.829245858267999e-21  1.410103206943793e-17  4.737784431815369e-01
-1.146466088074705e+00  4.737784431815369e-01  1.093758097906814e-17

 1.210213549117605e-17  1.542455312171901e-20 -1.119249924697936e+00
 1.542455312171901e-20  1.412241419864449e-17  4.650115863499527e-01
-1.119249924697936e+00  4.650115863499527e-01  9.621315979789910e-18

 1.353158367897243e-17  5.314549557123196e-21 -1.170325506045900e+00
 5.314549557123196e-21  1.642567914107555e-17  3.982828485752639e-01
-1.170325506045900e+00  3.982828485752639e-01  1.408536409262551e-17

 1.355002248874108e-17  2.924939106915728e-20 -1.166887459401706e+00
 2.924939106915728e-20  1.604056304203534e-17  4.035466009386843e-01
-1.166887459401706e+00  4.035466009386843e-01  1.412502444952958e-17

 1.234049846850428e-17  8.848040129187019e-20 -1.114352783938794e+00
 8.848040129187019e-20  1.314294168033415e-17  4.772778564118743e-01
-1.114352783938794e+00  4.772778564118743e-01  1.028859931462835e-17

 1.165930172214314e-17  3.908441199950808e-20 -1.080749845589918e+00
 3.908441199950808e-20  1.140385215948943e-17  5.219999853583948e-01
-1.080749845589918e+00  5.219999853583948e-01  8.202906026968957e-18

 1.208019405095145e-17  7.906154196577634e-20 -1.085767086419856e+00
 7.906154196577634e-20  1.372937738375393e-17  4.456252674953811e-01
-1.085767086419856e+00  4.456252674953811e-01  1.004125233192715e-17

 1.278557731785037e-17  2.179021620360624e-19 -1.105476338025667e+00
 2.179021620360624e-19  1.649067276400287e-17  3.514660278477705e-01
-1.105476338025667e+00  3.514660278477705e-01  1.276474536722393e-17

 1.098511203451874e-17  1.076604252988453e-19 -1.019568324828126e+00
 1.076604252988453e-19  1.328009884547322e-17  4.251936497558930e-01
-1.019568324828126e+00  4.251936497558930e-01  7.562132265704368e-18

 1.143986643879666e-17  6.235194446778984e-20 -1.027822795901705e+00
 6.235194446778984e-20  1.357041604102272e-17  4.116011480911012e-01
-1.027822795901705e+00  4.116011480911012e-01  9.113225297434145e-18

 1.196303193293126e-17 -7.695400107351223e-20 -1.039656648173044e+00
-7.695400107351223e-20  1.309547677488896e-17  4.249561422336397e-01
-1.039656648173044e+00  4.249561422336397e-01  1.069890760591174e-17

 6.699646349356712e-18 -6.032689752498968e-19 -8.078544623567220e-01
-6.032689752498968e-19  5.777300307207108e-18  6.177790547433052e-01
-8.078544623567220e-01  6.177790547433052e-01 -4.387191513977799e-18

 1.181671356595428e-17  1.567229826989896e-19 -1.026656690534443e+00
 1.567229826989896e-19  1.620396724632020e-17  3.149717340013863e-01
-1.026656690534443e+00  3.149717340013863e-01  1.118935149131582e-17

 1.491580534117852e-17  2.462431461587402e-19 -1.151773595840831e+00
 2.462431461587402e-19  2.295012491696931e-17  1.418581328663606e-01
-1.151773595840831e+00  1.418581328663606e-01  2.056565529426777e-17

 8.792336636235602e-18  1.544066188760415e-19 -9.019669899190200e-01
 1.544066188760415e-19  1.105665115743135e-17  4.421083983216541e-01
-9.019669899190200e-01  4.421083983216541e-01  2.110731434911957e-18

 1.094671918181183e-17  2.792396237463748e-20 -9.888441194192689e-01
 2.792396237463748e-20  1.132109889274326e-17  4.454330056313779e-01
-9.888441194192689e-01  4.454330056313779e-01  8.017741216853296e-18

 1.093619689517424e-17 -7.888992661328713e-20 -9.829643781954583e-01
-7.888992661328713e-20  1.316749276803134e-17  3.918561695273490e-01
-9.829643781954583e-01  3.918561695273490e-01  8.360614232809839e-18

 1.043687418960042e-17 -6.101678507570753e-20 -9.545902441799079e-01
-6.101678507570753e-20  1.263525662740258e-17  3.894819635246655e-01
-9.545902441799079e-01  3.894819635246655e-01  7.099505785807920e-18

 1.052598153206666e-17 -4.750690619745526e-20 -9.489747859323759e-01
-4.750690619745526e-20  1.191998568681204e-17  3.914709752679346e-01
-9.489747859323759e-01  3.914709752679346e-01  7.379903079365131e-18

 9.976602917236573e-18 -7.201503274763146e-20 -9.203523166145678e-01
-7.201503274763146e-20  1.095058160479428e-17  4.148321408661363e-01
-9.203523166145678e-01  4.148321408661363e-01  5.929880576224673e-18

 9.761087848091167e-18  1.171113444196695e-20 -9.036908738587495e-01
 1.171113444196695e-20  1.177164446273284e-17  3.790791509282730e-01
-9.036908738587495e-01  3.790791509282730e-01  5.798187184018019e-18

 1.008278388573530e-17  1.246828598782020e-20 -9.087783258907774e-01
 1.246828598782020e-20  1.279163687403565e-17  3.524296101395027e-01
-9.087783258907774e-01  3.524296101395027e-01  7.177402422457455e-18

 7.177043497138258e-18 -1.512570931613362e-19 -7.819867363359356e-01
-1.512570931613362e-19  6.838661541676804e-18  5.014394092916028e-01
-7.819867363359356e-01  5.014394092916028e-01 -1.590040530857014e-18

 7.100449781717725e-18 -1.717786202914121e-19 -7.747613956803628e-01
-1.717786202914121e-19  7.904674823969595e-18  4.647861083541782e-01
-7.747613956803628e-01  4.647861083541782e-01 -1.347255469872173e-18

 8.076627040072189e-18 -4.589631151791519e-19 -8.077183245083540e-01
-4.589631151791519e-19  1.488449286409072e-17  3.067844936810287e-01
-8.077183245083540e-01  3.067844936810287e-01  2.082950237464364e-18

 1.576406917694553e-17 -1.557699603672643e-18 -1.099300937801568e+00
-1.557699603672643e-18  2.310581648850152e-17  1.413019939127373e-01
-1.099300937801568e+00  1.413019939127373e-01  2.327065825984936e-17

 5.643801905279840e-18  3.951416465899282e-19 -7.355794177088544e-01
 3.951416465899282e-19  6.114930107570748e-18  5.027512324695509e-01
-7.355794177088544e-01  5.027512324695509e-01 -5.692217576153517e-18

 9.094339550244074e-18  1.957253722392241e-19 -8.817200121783551e-01
 1.957253722392241e-19  1.057363512398724e-17  4.101780287933373e-01
-8.817200121783551e-01  4.101780287933373e-01  3.886613559566179e-18

 1.384763506179021e-17 -7.227027219900392e-19 -1.062445385398328e+00
-7.227027219900392e-19  1.923772702656736e-17  2.450389529890748e-01
-1.062445385398328e+00  2.450389529890748e-01  1.706567211535056e-17

 1.367781831595312e-17 -7.035832507057551e-19 -1.065558229594313e+00
-7.035832507057551e-19  1.638432858958869e-17  3.330135941943801e-01
-1.065558229594313e+00  3.330135941943801e-01  1.565971685701471e-17

 1.326699232309996e-17 -1.575805440185868e-18 -1.054255538892293e+00
-1.575805440185868e-18  7.834817466291886e-18  6.195675199570894e-01
-1.054255538892293e+00  6.195675199570894e-01  1.743350883296964e-17

-1.718116407713725e-18 -4.436651371309038e-18 -3.889948309906054e-01
-4.436651371309038e-18 -4.574719234365219e-18  1.063384458180955e+00
-3.889948309906054e-01  1.063384458180955e+00 -1.444839831502909e-17

 8.083359060488250e-18 -2.483219272630344e-18 -8.022916395991182e-01
-2.483219272630344e-18  7.135791896877359e-18  6.416951880712434e-01
-8.022916395991182e-01  6.416951880712434e-01  5.112634495029777e-18

 2.288020348968186e-17  1.777437961749765e-18 -1.480219348803478e+00
 1.777437961749765e-18  2.284532970551559e-17  4.390959517357782e-02
-1.480219348803478e+00  4.390959517357782e-02  3.411989718839806e-17

 1.821732863253489e-17  3.732510548746806e-18 -1.321175827211361e+00
 3.732510548746806e-18  2.270493580245370e-17 -5.346635373663362e-02
-1.321175827211361e+00 -5.346635373663362e-02  2.154223457316819e-17

 4.085124402302622e-18  8.420837377131962e-19 -6.699293776057231e-01
 8.420837377131962e-19  9.124982829936199e-18  3.855420723727362e-01
-6.699293776057231e-01  3.855420723727362e-01 -1.117536668806987e-17

 6.829953886557361e-18 -7.917567810247911e-19 -7.431985494694975e-01
-7.917567810247911e-19  1.453058274651071e-17  3.211060141867753e-01
-7.431985494694975e-01  3.211060141867753e-01 -2.032124206655097e-18

 1.818229694063606e-17 -2.037530223951251e-18 -1.179797623224171e+00
-2.037530223951251e-18  2.634403138641879e-17  6.389565046921135e-02
-1.179797623224171e+00  6.389565046921135e-02  2.911358744955950e-17

 7.489372716556809e-18 -2.044287434675382e-19 -7.872365337580496e-01
-2.044287434675382e-19  9.063467693196705e-18  4.354085703071083e-01
-7.872365337580496e-01  4.354085703071083e-01 -1.030307881016817e-19

 5.817096710168898e-18  9.701167334101144e-19 -7.543441568504309e-01
 9.701167334101144e-19  2.395467361843709e-18  5.700297331332475e-01
-7.543441568504309e-01  5.700297331332475e-01 -4.825723613916239e-18

 1.321089010174555e-17  2.428075469087017e-19 -1.042807833686673e+00
 2.428075469087017e-19  1.493971974078025e-17  2.847421194416407e-01
-1.042807833686673e+00  2.847421194416407e-01  1.652216399171298e-17

 9.412980164635070e-18 -1.093973229941397e-19 -8.844779653534660e-01
-1.093973229941397e-19  1.197789629969924e-17  3.829788946216241e-01
-8.844779653534660e-01  3.829788946216241e-01  5.081907347299377e-18

 9.435502412611151e-18 -2.466087753678460e-19 -8.918332625954442e-01
-2.466087753678460e-19  1.166110901249236e-17  4.066116383095184e-01
-8.918332625954442e-01  4.066116383095184e-01  4.705464616812015e-18

 1.027611274496776e-17 -2.345745856590274e-19 -9.341846816359727e-01
-2.345745856590274e-19  1.196127831484134e-17  4.046282335421701e-01
-9.341846816359727e-01  4.046282335421701e-01  6.701264994921912e-18

 1.030847700256573e-17 -2.028922808078003e-19 -9.446306581989119e-01
-2.028922808078003e-19  1.202455333117593e-17  4.174637640915357e-01
-9.446306581989119e-01  4.174637640915357e-01  6.525778535259886e-18

 1.026644777228348e-17 -1.941910154581375e-19 -9.483752921252279e-01
-1.941910154581375e-19  1.191430998434521e-17  4.245176414968517e-01
-9.483752921252279e-01  4.245176414968517e-01  6.119396421823765e-18

 1.143870608528272e-17 -2.256603689703157e-19 -1.004391283293537e+00
-2.256603689703157e-19  1.355554188552765e-17  3.963444866296935e-01
-1.004391283293537e+00  3.963444866296935e-01  9.281285759835583e-18

 1.143271156994022e-17 -1.805860969467717e-19 -1.012155106054566e+00
-1.805860969467717e-19  1.269875314181577e-17  4.250038584985019e-01
-1.012155106054566e+00  4.250038584985019e-01  8.845233554230071e-18

 1.059075736342405e-17 -1.931132095411790e-19 -9.777086253110092e-01
-1.931132095411790e-19  1.217169377958159e-17  4.370103065628662e-01
-9.777086253110092e-01  4.370103065628662e-01  6.385797625494972e-18

 1.075465277778647e-17 -1.767465032766561e-19 -9.843958438831496e-01
-1.767465032766561e-19  1.367805833122573e-17  3.995293189630145e-01
-9.843958438831496e-01  3.995293189630145e-01  7.081142296749352e-18

 1.071882272407771e-17 -2.259926712166580e-19 -9.830622942665652e-01
-2.259926712166580e-19  1.405771764998350e-17  3.879161679553184e-01
-9.830622942665652e-01  3.879161679553184e-01  7.019602334443110e-18

 1.143144858725282e-17 -1.452220787416524e-19 -1.019417209616455e+00
-1.452220787416524e-19  1.391683072596503e-17  4.063823438965973e-01
-1.019417209616455e+00  4.063823438965973e-01  8.600611742532546e-18

 1.242648804603616e-17  3.007869486151942e-23 -1.068986377338006e+00
 3.007869486151942e-23  1.347519184653169e-17  4.261492788326873e-01
-1.068986377338006e+00  4.261492788326873e-01  1.094940863071354e-17

 1.225611306692536e-17 -1.095471039417898e-19 -1.058510582257947e+00
-1.095471039417898e-19  1.356534335952267e-17  4.338572201829349e-01
-1.058510582257947e+00  4.338572201829349e-01  1.043122759590768e-17

 1.136529661737169e-17 -8.158719422423764e-20 -1.016158255542804e+00
-8.158719422423764e-20  1.559317194880679e-17  3.698481259549767e-01
-1.016158255542804e+00  3.698481259549767e-01  8.580779590229044e-18

 1.136123421578529e-17 -8.780746386101433e-20 -1.016106367357652e+00
-8.780746386101433e-20  1.450786240005841e-17  4.057967106989848e-01
-1.016106367357652e+00  4.057967106989848e-01  8.359333686153273e-18

 1.186775444887779e-17 -7.285656023304469e-20 -1.039021028520265e+00
-7.285656023304469e-20  1.469643258284550e-17  4.045128500576300e-01
-1.039021028520265e+00  4.045128500576300e-01  9.662517684371351e-18

 1.268252632445670e-17 -1.750749937096421e-19 -1.074669065350222e+00
-1.750749937096421e-19  1.582991943437442e-17  3.941670679582142e-01
-1.074669065350222e+00  3.941670679582142e-01  1.181025729053142e-17

 1.576798913245601e-17 -7.323632194925473e-19 -1.191918950690863e+00
-7.323632194925473e-19  1.761131155398688e-17  3.757214816504454e-01
-1.191918950690863e+00  3.757214816504454e-01  2.083031662497849e-17

 9.083362894345986e-18 -2.582226882724827e-18 -8.841674348623808e-01
-2.582226882724827e-18  5.994828207088832e-18  7.629327085551980e-01
-8.841674348623808e-01  7.629327085551980e-01  4.494440799979140e-18

 1.039009949417994e-17 -2.267221603628587e-19 -9.653204187003134e-01
-2.267221603628587e-19  1.315525424308678e-17  4.351511674544837e-01
-9.653204187003134e-01  4.351511674544837e-01  6.119611418368874e-18

 1.186464169335718e-17  1.876208616093626e-18 -1.054949556817008e+00
 1.876208616093626e-18  2.104278823055220e-17  1.170066777581595e-01
-1.054949556817008e+00  1.170066777581595e-01  8.253933793089458e-18

 8.844001137314997e-18 -6.802170013524553e-20 -8.974387101273514e-01
-6.802170013524553e-20  1.153237293170193e-17  4.455393572581534e-01
-8.974387101273514e-01  4.455393572581534e-01  2.038243083344526e-18

 7.835827490719747e-18  7.160307082027818e-21 -8.676950250891097e-01
 7.160307082027818e-21  6.499270284280388e-18  5.856990259907631e-01
-8.676950250891097e-01  5.856990259907631e-01 -1.837898735861823e-18

 1.249412426852513e-17 -2.972701086262930e-19 -1.054465908813647e+00
-2.972701086262930e-19  1.486876889299622e-17  3.957438433032245e-01
-1.054465908813647e+00  3.957438433032245e-01  1.202201414371463e-17

 1.401950859096536e-17 -2.592010900352498e-19 -1.121005834307212e+00
-2.592010900352498e-19  1.719885045188574e-17  3.375690348616912e-01
-1.121005834307212e+00  3.375690348616912e-01  1.646772160762681e-17

 1.126005188849765e-17 -1.970061709527180e-19 -1.017128250725301e+00
-1.970061709527180e-19  1.205100436490849e-17  4.758483149471330e-01
-1.017128250725301e+00  4.758483149471330e-01  7.826343938886298e-18

 1.158582894917391e-17 -2.723577070290668e-19 -1.031726973989207e+00
-2.723577070290668e-19  1.374973496688218e-17  4.377758497408732e-01
-1.031726973989207e+00  4.377758497408732e-01  8.911746655494554e-18

 1.128420283106806e-17 -2.779884463499967e-19 -1.021481882424620e+00
-2.779884463499967e-19  1.345288697276761e-17  4.426090245814218e-01
-1.021481882424620e+00  4.426090245814218e-01  8.035562467249587e-18

-2.328243177853017e-17 -8.556547973370995e-20  9.355974981067741e-01
-8.556547973370995e-20 -1.047326238645809e-17  4.023689568304933e-01
 9.355974981067741e-01  4.023689568304933e-01 -3.169897382553417e-17

-2.367955204214351e-17 -4.476185492843785e-20  9.578722104325176e-01
-4.476185492843785e-20 -1.004121370656115e-17  4.112288156070029e-01
 9.578722104325176e-01  4.112288156070029e-01 -3.256298094702335e-17

-2.479155180214449e-17 -3.723568559545564e-20  1.062083536739186e+00
-3.723568559545564e-20 -1.244031533077072e-17  3.140768770517123e-01
 1.062083536739186e+00  3.140768770517123e-01 -3.614236829836675e-17

-2.380755437771229e-17 -1.160546437348403e-20  9.624600488430807e-01
-1.160546437348403e-20 -1.151205280622650e-17  4.307529592778770e-01
 9.624600488430807e-01  4.307529592778770e-01 -3.271976008488649e-17

-2.325798256195640e-17 -1.142472697433497e-20  9.292876672650064e-01
-1.142472697433497e-20 -9.115801818801170e-18  4.698314494090812e-01
 9.292876672650064e-01  4.698314494090812e-01 -3.151482211726738e-17

-2.308434650668199e-17  3.536939565074984e-20  9.229109975757740e-01
 3.536939565074984e-20 -1.028930040007440e-17  4.304577856013294e-01
 9.229109975757740e-01  4.304577856013294e-01 -3.118941798480218e-17

-1.956948190051503e-17 -5.387152277943004e-19  8.469353582025859e-01
-5.387152277943004e-19 -1.253524953844053e-17  3.616263054527303e-01
 8.469353582025859e-01  3.616263054527303e-01 -2.846799987647859e-17

-2.280521330263373e-17  1.485831859782932e-19  9.951582412902278e-01
 1.485831859782932e-19 -1.074023069095570e-17  1.943511050597783e-01
 9.951582412902278e-01  1.943511050597783e-01 -3.291103628636402e-17

-3.416686407137766e-17  2.395776018019679e-18  8.034516412014946e-01
 2.395776018019679e-18 -9.990066431459844e-18  4.573607538765669e-01
 8.034516412014946e-01  4.573607538765669e-01 -2.706315584382414e-17

-5.183447081266536e-18 -3.751820190069502e-18  8.501523092302344e-01
-3.751820190069502e-18 -9.669150584222682e-18  5.345999475766784e-01
 8.501523092302344e-01  5.345999475766784e-01 -2.933375289888162e-17

-4.921776064192162e-17  4.751511978363719e-18  9.415262713665461e-01
 4.751511978363719e-18 -1.329381336286714e-17  4.752583711006515e-01
 9.415262713665461e-01  4.752583711006515e-01 -3.225974230746015e-17

-5.789347498776692e-17  6.481291864845449e-18  9.925054449761700e-01
 6.481291864845449e-18 -1.395768970611875e-17  4.004580922484360e-01
 9.925054449761700e-01  4.004580922484360e-01 -3.375143035601605e-17

-2.112101460761092e-17 -7.190851012807065e-19  9.867321001187059e-01
-7.190851012807065e-19 -1.330488565224001e-17  3.983049743892556e-01
 9.867321001187059e-01  3.983049743892556e-01 -3.345020195620237e-17

-2.609635242171429e-17 -1.616542375058170e-19  1.092213346213044e+00
-1.616542375058170e-19 -1.500470250304340e-17  3.770090487631551e-01
 1.092213346213044e+00  3.770090487631551e-01 -3.742697066640271e-17

-2.837923416435735e-17 -7.421565163832891e-20  1.232020835572550e+00
-7.421565163832891e-20 -1.656212553075412e-17  4.094368586962762e-01
 1.232020835572550e+00  4.094368586962762e-01 -4.266438583317263e-17

-2.507643964162129e-17  5.964859147509733e-19  9.617941501563250e-01
 5.964859147509733e-19 -1.178152702178588e-17  6.067565777400621e-01
 9.617941501563250e-01  6.067565777400621e-01 -3.275395889410295e-17

-2.455716881775275e-17  1.361024801953047e-19  9.895852708787258e-01
 1.361024801953047e-19 -1.095853692024025e-17  4.425686093455202e-01
 9.895852708787258e-01  4.425686093455202e-01 -3.344948023842699e-17

-2.321084368551724e-17 -6.975656147772041e-19  9.449501991358372e-01
-6.975656147772041e-19 -1.531626128444866e-17  3.019291310432564e-01
 9.449501991358372e-01  3.019291310432564e-01 -3.126120213279055e-17

-2.323175327274742e-17  5.864253328232738e-19  1.035347181416975e+00
 5.864253328232738e-19 -1.445498954005770e-17  1.217546893272205e-01
 1.035347181416975e+00  1.217546893272205e-01 -3.110971131137682e-17

-2.290566888561255e-17 -3.609821619072822e-19  8.751318484759487e-01
-3.609821619072822e-19 -1.153493884150577e-17  4.897103818661538e-01
 8.751318484759487e-01  4.897103818661538e-01 -2.967016017742190e-17

-2.361009662435516e-17 -1.345237247737979e-18  8.052206312246627e-01
-1.345237247737979e-18 -9.045336698310016e-18  7.772212405269138e-01
 8.052206312246627e-01  7.772212405269138e-01 -3.094484948907003e-17

-2.583233222868967e-17 -4.527279814383157e-19  1.078220627915972e+00
-4.527279814383157e-19 -1.501088830269648e-17  4.049962154301915e-01
 1.078220627915972e+00  4.049962154301915e-01 -3.694167909144463e-17

-2.519540420688254e-17 -3.455086829202587e-19  1.044455904312588e+00
-3.455086829202587e-19 -1.509685616812320e-17  3.900256708428317e-01
 1.044455904312588e+00  3.900256708428317e-01 -3.538082680085144e-17

-2.495297884446247e-17 -3.777890775094527e-19  1.022256218038546e+00
-3.777890775094527e-19 -1.376729857867972e-17  4.229753137944008e-01
 1.022256218038546e+00  4.229753137944008e-01 -3.461814338263736e-17

-2.463586924127732e-17 -3.831509861032461e-19  9.884926852296549e-01
-3.831509861032461e-19 -1.285062284024840e-17  4.767634605169421e-01
 9.884926852296549e-01  4.767634605169421e-01 -3.349719151197169e-17

-2.469316939662449e-17 -3.993566814625684e-19  1.011084544931808e+00
-3.993566814625684e-19 -1.448253947327670e-17  4.178276241871122e-01
 1.011084544931808e+00  4.178276241871122e-01 -3.423273034457789e-17

-2.470665759681740e-17 -3.575715310276865e-19  1.016413107820358e+00
-3.575715310276865e-19 -1.239247137814453e-17  4.076597585055895e-01
 1.016413107820358e+00  4.076597585055895e-01 -3.442920174593003e-17

-2.468875968848586e-17 -3.883819438467491e-19  1.014779281660027e+00
-3.883819438467491e-19 -1.360544943451015e-17  4.143415688877848e-01
 1.014779281660027e+00  4.143415688877848e-01 -3.439958913067468e-17

-2.456707863394053e-17 -3.635965582125264e-19  1.002849720261991e+00
-3.635965582125264e-19 -1.313378536403203e-17  4.346020680260742e-01
 1.002849720261991e+00  4.346020680260742e-01 -3.402283811396466e-17

-2.448746607220873e-17 -3.829583012452841e-19  1.002783967021155e+00
-3.829583012452841e-19 -1.443343101050917e-17  4.152571940197413e-01
 1.002783967021155e+00  4.152571940197413e-01 -3.401192819485997e-17

-2.441639461354305e-17 -3.288997068754596e-19  1.003289011740568e+00
-3.288997068754596e-19 -1.281870362170426e-17  3.995566879071048e-01
 1.003289011740568e+00  3.995566879071048e-01 -3.401619815136630e-17

-2.424772630962424e-17 -3.207129787450004e-19  9.877216113811237e-01
-3.207129787450004e-19 -1.200896269918550e-17  4.239908286706502e-01
 9.877216113811237e-01  4.239908286706502e-01 -3.352866338907012e-17

-2.414087542351822e-17 -3.262589352239950e-19  9.794462493750242e-01
-3.262589352239950e-19 -1.366346894939055e-17  4.280814538999961e-01
 9.794462493750242e-01  4.280814538999961e-01 -3.327732223359258e-17

-2.421719427532862e-17 -2.730137751926508e-19  9.932006510677996e-01
-2.730137751926508e-19 -1.249821340041101e-17  3.971623896080216e-01
 9.932006510677996e-01  3.971623896080216e-01 -3.376860286538480e-17

-2.395744496778260e-17 -1.978142997084380e-19  9.741899917587873e-01
-1.978142997084380e-19 -1.253518330049570e-17  3.959403852281737e-01
 9.741899917587873e-01  3.959403852281737e-01 -3.312546419999009e-17

-2.419483633941497e-17 -2.415000565976263e-19  9.793415770630957e-01
-2.415000565976263e-19 -1.605157384211151e-17  4.188922964301487e-01
 9.793415770630957e-01  4.188922964301487e-01 -3.341337252240852e-17

-2.428895101552597e-17 -1.466420473903254e-19  9.837537457074013e-01
-1.466420473903254e-19 -1.292854209032392e-17  4.237400106350240e-01
 9.837537457074013e-01  4.237400106350240e-01 -3.360684930682678e-17

-2.431519176491929e-17 -1.356713548580539e-19  9.949221485881418e-01
-1.356713548580539e-19 -1.465397194094960e-17  3.744260737709854e-01
 9.949221485881418e-01  3.744260737709854e-01 -3.396508352936859e-17

-2.435232530752342e-17 -7.169503076101296e-20  9.872998400538499e-01
-7.169503076101296e-20 -1.276426041807652e-17  3.963431932823929e-01
 9.872998400538499e-01  3.963431932823929e-01 -3.370586270655990e-17

-2.430814431374856e-17 -1.061109953408560e-19  9.804204662278584e-01
-1.061109953408560e-19 -1.356670280345786e-17  4.280668423393173e-01
 9.804204662278584e-01  4.280668423393173e-01 -3.347495227004881e-17

-2.388843673590445e-17 -5.629719129935168e-20  9.462912321310587e-01
-5.629719129935168e-20 -1.136059060117407e-17  4.435777763051214e-01
 9.462912321310587e-01  4.435777763051214e-01 -3.219853448742738e-17

-2.406759204369504e-17 -7.408418634220150e-20  9.750581718310123e-01
-7.408418634220150e-20 -1.192804694990886e-17  3.769219843188750e-01
 9.750581718310123e-01  3.769219843188750e-01 -3.320116600565407e-17

-2.388767644212151e-17 -2.581042657642932e-20  9.654735754763611e-01
-2.581042657642932e-20 -1.070201779865004e-17  3.685711299926776e-01
 9.654735754763611e-01  3.685711299926776e-01 -3.276887136621265e-17

-2.460191118145426e-17 -7.075721044305519e-20  1.009247434965972e+00
-7.075721044305519e-20 -1.712179599321109e-17  3.647379159727668e-01
 1.009247434965972e+00  3.647379159727668e-01 -3.424125561367732e-17

-2.465798543323003e-17 -1.520554071926433e-19  9.542625991646222e-01
-1.520554071926433e-19 -9.240814682475574e-18  5.327221360366681e-01
 9.542625991646222e-01  5.327221360366681e-01 -3.290667494921681e-17

-2.496815765010579e-17 -1.124829161417693e-19  9.807511172245464e-01
-1.124829161417693e-19 -1.230871122274641e-17  5.154301581120490e-01
 9.807511172245464e-01  5.154301581120490e-01 -3.370473008630332e-17

-2.629998606653939e-17 -1.481731956623738e-19  1.115918501193024e+00
-1.481731956623738e-19 -1.372307989970035e-17  3.284056246194006e-01
 1.115918501193024e+00  3.284056246194006e-01 -3.839350743666905e-17

-2.476473204943337e-17 -1.491392837008211e-19  9.968615867424807e-01
-1.491392837008211e-19 -1.543716804694880e-17  4.067396236924754e-01
 9.968615867424807e-01  4.067396236924754e-01 -3.405295658566165e-17

-2.489258617936564e-17 -1.137378610070649e-19  1.009892212250780e+00
-1.137378610070649e-19 -1.348973841241137e-17  3.797407109390313e-01
 1.009892212250780e+00  3.797407109390313e-01 -3.446613019268511e-17

-2.540414984237935e-17 -1.586815698641447e-19  1.062131835163161e+00
-1.586815698641447e-19 -1.864524841877543e-17  3.323131568594566e-01
 1.062131835163161e+00  3.323131568594566e-01 -3.628987872284254e-17

-2.502824042253079e-17 -6.443047463544410e-20  1.014510795813269e+00
-6.443047463544410e-20 -1.101921357178062e-17  4.160649129770923e-01
 1.014510795813269e+00  4.160649129770923e-01 -3.467627369732232e-17

-2.496856910867794e-17 -1.356576823382797e-19  1.002967414697522e+00
-1.356576823382797e-19 -1.617151090508883e-17  4.563517734707245e-01
 1.002967414697522e+00  4.563517734707245e-01 -3.425210979746951e-17

-2.477270564250469e-17 -1.410692006370617e-19  1.002212439246074e+00
-1.410692006370617e-19 -1.436395018264977e-17  4.111528938445840e-01
 1.002212439246074e+00  4.111528938445840e-01 -3.418872063921626e-17

-2.429627751552003e-17 -1.368713088180246e-19  9.787477641933475e-01
-1.368713088180246e-19 -1.329807403105744e-17  3.834922816000601e-01
 9.787477641933475e-01  3.834922816000601e-01 -3.330023340606776e-17

-2.462695820059077e-17 -9.809359847862957e-20  1.004261215809993e+00
-9.809359847862957e-20 -1.394829013318658e-17  3.783679847359570e-01
 1.004261215809993e+00  3.783679847359570e-01 -3.414684779968578e-17

-2.428200666264434e-17 -1.342037569625027e-19  9.501055475210242e-01
-1.342037569625027e-19 -1.157859686587186e-17  4.840561279208147e-01
 9.501055475210242e-01  4.840561279208147e-01 -3.238838314680279e-17

-2.457067145773838e-17 -1.680212281904580e-19  9.777786879616888e-01
-1.680212281904580e-19 -1.532668603034050e-17  4.627642699376085e-01
 9.777786879616888e-01  4.627642699376085e-01 -3.332587470189181e-17

-2.443950213588400e-17 -1.594369112030009e-19  9.826459071684950e-01
-1.594369112030009e-19 -1.486296790533638e-17  4.068874180934614e-01
 9.826459071684950e-01  4.068874180934614e-01 -3.344061632848960e-17

-2.455137722136064e-17 -1.509189205785261e-19  9.958752689220911e-01
-1.509189205785261e-19 -1.468007005287614e-17  3.842308176955069e-01
 9.958752689220911e-01  3.842308176955069e-01 -3.386125063851624e-17

-2.450896867142744e-17 -1.525692668998102e-19  9.832466825523994e-01
-1.525692668998102e-19 -1.480775050941681e-17  4.149360574115448e-01
 9.832466825523994e-01  4.149360574115448e-01 -3.343152483377411e-17

-2.496671628597782e-17 -1.048737612069255e-19  1.006979401940521e+00
-1.048737612069255e-19 -1.071803947040863e-17  4.278203820019567e-01
 1.006979401940521e+00  4.278203820019567e-01 -3.434741216460618e-17

-2.487670122720393e-17 -1.407149722246389e-19  9.894092851564809e-01
-1.407149722246389e-19 -1.237242837791350e-17  4.595499791446562e-01
 9.894092851564809e-01  4.595499791446562e-01 -3.371600177875821e-17

-2.476847813862075e-17 -2.094708076730942e-19  9.947301000044365e-01
-2.094708076730942e-19 -1.649814793992302e-17  4.092816364023934e-01
 9.947301000044365e-01  4.092816364023934e-01 -3.381295458623583e-17

-2.478552858638550e-17 -2.136721877055413e-19  9.877242806997978e-01
-2.136721877055413e-19 -1.510709782850224e-17  4.259158802144288e-01
 9.877242806997978e-01  4.259158802144288e-01 -3.355886009295976e-17

-2.506833582675717e-17 -1.870017553924590e-19  9.938303288867087e-01
-1.870017553924590e-19 -1.147828325312637e-17  4.563344095995373e-01
 9.938303288867087e-01  4.563344095995373e-01 -3.391016680287203e-17

-2.585779245876616e-17 -1.596685570621569e-19  1.049996598823825e+00
-1.596685570621569e-19 -9.918142480882552e-18  4.308143199066011e-01
 1.049996598823825e+00  4.308143199066011e-01 -3.592699539238760e-17

-2.643368474463789e-17 -2.096855128219594e-19  1.092375017739979e+00
-2.096855128219594e-19 -1.508616908807858e-17  3.996800543195503e-01
 1.092375017739979e+00  3.996800543195503e-01 -3.740878157754158e-17

-2.571285576551055e-17 -1.111782718982350e-19  1.018743727374903e+00
-1.111782718982350e-19 -6.672352610093005e-18  4.729566996803120e-01
 1.018743727374903e+00  4.729566996803120e-01 -3.486332577754340e-17

-2.572628460269321e-17 -2.889417171655169e-19  1.022998253955611e+00
-2.889417171655169e-19 -1.727661527750838e-17  4.527850844038079e-01
 1.022998253955611e+00  4.527850844038079e-01 -3.499047675615547e-17

-2.624527701455150e-17 -3.197128646327606e-19  1.073090610402499e+00
-3.197128646327606e-19 -2.053516656148977e-17  3.950443648278465e-01
 1.073090610402499e+00  3.950443648278465e-01 -3.675111577488928e-17

-2.675576264925648e-17 -2.849986813412470e-20  1.099556864608074e+00
-2.849986813412470e-20 -3.111598238113291e-18  4.086239043059521e-01
 1.099556864608074e+00  4.086239043059521e-01 -3.780812445066594e-17

-2.672288489894629e-17 -3.965312897850094e-19  1.085482012677569e+00
-3.965312897850094e-19 -2.730023052845099e-17  4.568063209252004e-01
 1.085482012677569e+00  4.568063209252004e-01 -3.739121842828277e-17

-2.601009550078300e-17 -1.545270690836450e-19  1.028666209702975e+00
-1.545270690836450e-19 -1.533826358283767e-17  4.953707547010907e-01
 1.028666209702975e+00  4.953707547010907e-01 -3.532250567969523e-17

-2.618812788251103e-17 -1.856583664114731e-19  1.072798614528402e+00
-1.856583664114731e-19 -1.250653253541222e-17  3.834360749345898e-01
 1.072798614528402e+00  3.834360749345898e-01 -3.686555280956021e-17

-2.522076996108725e-17 -1.268619643781956e-19  1.010854810948190e+00
-1.268619643781956e-19 -1.146861069342346e-17  4.046288226182704e-01
 1.010854810948190e+00  4.046288226182704e-01 -3.455992734960855e-17

-2.498327850432683e-17 -1.160928356810471e-19  9.898213129463332e-01
-1.160928356810471e-19 -1.238989115950099e-17  4.432473223848097e-01
 9.898213129463332e-01  4.432473223848097e-01 -3.379113378732778e-17

-2.519134757468317e-17 -1.540321173393775e-19  1.009280180878010e+00
-1.540321173393775e-19 -1.248247916467801e-17  4.092290198085435e-01
 1.009280180878010e+00  4.092290198085435e-01 -3.447616458148019e-17

-2.526191709329538e-17 -1.635926415513816e-19  1.023747552239060e+00
-1.635926415513816e-19 -1.494732356182414e-17  3.898978789963405e-01
 1.023747552239060e+00  3.898978789963405e-01 -3.497748215193508e-17

-2.472361968283347e-17 -5.328133407921447e-21  9.665732488225506e-01
-5.328133407921447e-21 -6.238909509753489e-18  4.779373593290651e-01
 9.665732488225506e-01  4.779373593290651e-01 -3.293594541848854e-17

-2.500988061081220e-17 -1.877642635822317e-19  1.006807765078985e+00
-1.877642635822317e-19 -1.546514856932881e-17  4.027274133289821e-01
 1.006807765078985e+00  4.027274133289821e-01 -3.435601257647721e-17

-2.488625677987719e-17 -1.800314728037506e-19  1.010203360280703e+00
-1.800314728037506e-19 -1.381563808894790e-17  3.714800920386466e-01
 1.010203360280703e+00  3.714800920386466e-01 -3.445856350958906e-17

-2.415763293520338e-17 -7.228067063431356e-20  9.492729909535494e-01
-7.228067063431356e-20 -1.044302889254876e-17  4.551237619091464e-01
 9.492729909535494e-01  4.551237619091464e-01 -3.222537648247038e-17

-2.368284724243832e-17 -1.743218366044618e-19  9.370538676399508e-01
-1.743218366044618e-19 -1.519420456621878e-17  3.719448583072091e-01
 9.370538676399508e-01  3.719448583072091e-01 -3.174320185404357e-17

-2.502534426358112e-17 -6.531119323097123e-20  1.066190046700432e+00
-6.531119323097123e-20 -2.161101289536603e-17  2.307769729483621e-01
 1.066190046700432e+00  2.307769729483621e-01 -3.593495476699684e-17

-2.355335866226003e-17 -2.134949656194157e-19  8.947537906381049e-01
-2.134949656194157e-19 -1.233362175230434e-17  4.755985662256421e-01
 8.947537906381049e-01  4.755985662256421e-01 -3.057463659566452e-17

-2.420540210059005e-17 -2.674517285780197e-19  9.219956509293972e-01
-2.674517285780197e-19 -1.384572445504567e-17  5.334464325352125e-01
 9.219956509293972e-01  5.334464325352125e-01 -3.173341630694267e-17

-2.506815828523473e-17 -1.203069536651882e-19  1.009168278620405e+00
-1.203069536651882e-19 -1.449240145182075e-17  4.053239662333052e-01
 1.009168278620405e+00  4.053239662333052e-01 -3.456795125273573e-17

-2.454330726210257e-17 -2.641869910563753e-19  9.786943942757688e-01
-2.641869910563753e-19 -2.482495812972462e-17  3.843907260981420e-01
 9.786943942757688e-01  3.843907260981420e-01 -3.343161978589988e-17

-2.454116975384686e-17 -1.448451924186730e-19  9.756654832077873e-01
-1.448451924186730e-19 -1.912353127240422e-17  3.930983576118910e-01
 9.756654832077873e-01  3.930983576118910e-01 -3.330790914892056e-17

-2.458970374931545e-17 -7.195106567483538e-20  9.676588390899529e-01
-7.195106567483538e-20 -1.545400036577201e-17  4.147315579774704e-01
 9.676588390899529e-01  4.147315579774704e-01 -3.304286915919950e-17

-2.456191937011818e-17 -1.598911203085492e-19  9.669391900921001e-01
-1.598911203085492e-19 -2.009048506640085e-17  4.174791758243110e-01
 9.669391900921001e-01  4.174791758243110e-01 -3.301102662158412e-17

-2.477095050914581e-17  1.708879393786669e-20  9.847095954884008e-01
 1.708879393786669e-20 -9.376285822010989e-18  3.872027857904747e-01
 9.847095954884008e-01  3.872027857904747e-01 -3.361457693831895e-17

-2.476182267068711e-17 -1.228236328097015e-19  9.774601579583470e-01
-1.228236328097015e-19 -1.830658047429672e-17  4.022050515338207e-01
 9.774601579583470e-01  4.022050515338207e-01 -3.335895266268578e-17

-2.460037542405405e-17  1.695531075751607e-20  9.611808663073959e-01
 1.695531075751607e-20 -9.059725175423930e-18  4.288409109391474e-01
 9.611808663073959e-01  4.288409109391474e-01 -3.278152653011780e-17

-2.517171337667330e-17 -7.222710592826117e-20  1.017093693236551e+00
-7.222710592826117e-20 -2.056684401092963e-17  3.403508951949541e-01
 1.017093693236551e+00  3.403508951949541e-01 -3.457176684280727e-17

-2.496590454637655e-17  9.967672431717719e-20  9.520194585609186e-01
 9.967672431717719e-20  1.912360918241168e-18  4.980805156598183e-01
 9.520194585609186e-01  4.980805156598183e-01 -3.270341209744631e-17

-2.560144062626401e-17 -2.131615342985969e-19  1.001923387073230e+00
-2.131615342985969e-19 -2.090369210732165e-17  4.699955801736961e-01
 1.001923387073230e+00  4.699955801736961e-01 -3.445800514007860e-17

-2.670300545711833e-17 -1.236504306728384e-19  1.111088064046114e+00
-1.236504306728384e-19 -1.525612733102586e-17  3.264854048959587e-01
 1.111088064046114e+00  3.264854048959587e-01 -3.823738843582388e-17

-2.514595627989349e-17 -2.473809516114635e-19  9.796563681284659e-01
-2.473809516114635e-19 -2.381541741128992e-17  4.400738244772124e-01
 9.796563681284659e-01  4.400738244772124e-01 -3.349122595894192e-17

-2.544593924470684e-17 -1.087259167426835e-20  1.016674047222217e+00
-1.087259167426835e-20 -7.893266180088855e-18  3.775591725641355e-01
 1.016674047222217e+00  3.775591725641355e-01 -3.476071984368267e-17

-2.504579204285380e-17 -2.890529236743457e-19  9.862151149039674e-01
-2.890529236743457e-19 -2.508680220022703e-17  4.045170737888515e-01
 9.862151149039674e-01  4.045170737888515e-01 -3.363729911846516e-17

-2.483791592578425e-17 -1.985067891799921e-20  9.638824892209781e-01
-1.985067891799921e-20 -8.267909819670297e-18  4.452421696094968e-01
 9.638824892209781e-01  4.452421696094968e-01 -3.284504621008516e-17

-2.514180532547038e-17  7.701127324166615e-20  9.946754837681540e-01
 7.701127324166615e-20 -2.151198411616600e-18  3.957518136013606e-01
 9.946754837681540e-01  3.957518136013606e-01 -3.393279291516829e-17

-2.516810478819983e-17  2.291509515769723e-20  9.978395583623334e-01
 2.291509515769723e-20 -5.744494008584853e-18  3.863563113710414e-01
 9.978395583623334e-01  3.863563113710414e-01 -3.402965463996973e-17

-2.529453857774239e-17 -4.352152548609732e-19  9.915120990829839e-01
-4.352152548609732e-19 -3.406497957793177e-17  4.282912610112385e-01
 9.915120990829839e-01  4.282912610112385e-01 -3.387303635153015e-17

-2.540640126522745e-17 -1.097012153913360e-20  9.987863196733452e-01
-1.097012153913360e-20 -7.203302769856969e-18  4.294956970632468e-01
 9.987863196733452e-01  4.294956970632468e-01 -3.413254099503417e-17

-2.526052303688939e-17 -1.887960792758285e-19  9.884844446337087e-01
-1.887960792758285e-19 -1.948966442220443e-17  4.270943274390416e-01
 9.884844446337087e-01  4.270943274390416e-01 -3.373794330138401e-17

-2.512238765575441e-17 -5.301319469028429e-20  9.891795345257846e-01
-5.301319469028429e-20 -1.073285108921575e-17  3.857425526865079e-01
 9.891795345257846e-01  3.857425526865079e-01 -3.371485022434429e-17

-2.505368516439297e-17 -2.806637849838390e-19  9.708405791774464e-01
-2.806637849838390e-19 -2.311082264451953e-17  4.274182010655521e-01
 9.708405791774464e-01  4.274182010655521e-01 -3.308841819356672e-17

-2.610750377897573e-17 -2.396919569084615e-19  1.055885999480550e+00
-2.396919569084615e-19 -2.279879960936852e-17  3.694510711943100e-01
 1.055885999480550e+00  3.694510711943100e-01 -3.609702985291864e-17

-2.571848131952675e-17  1.179139095292055e-20  1.010449351570248e+00
 1.179139095292055e-20 -6.050161729316217e-18  4.279311588918908e-01
 1.010449351570248e+00  4.279311588918908e-01 -3.455084815582343e-17

-2.569783230246593e-17  3.243355507746997e-20  1.012838020738589e+00
 3.243355507746997e-20 -4.630694986819685e-18  4.250678165791749e-01
 1.012838020738589e+00  4.250678165791749e-01 -3.461193724732696e-17

-2.476990662615893e-17 -1.365095682237697e-19  9.365777050224509e-01
-1.365095682237697e-19 -1.583078584041244e-17  4.728586882397722e-01
 9.365777050224509e-01  4.728586882397722e-01 -3.184034681225857e-17

-2.504021593560489e-17 -5.760711877107930e-21  9.715474909974905e-01
-5.760711877107930e-21 -4.157765634771054e-18  4.130312948169894e-01
 9.715474909974905e-01  4.130312948169894e-01 -3.308777721353614e-17

-2.540139559847414e-17 -2.653607264225026e-19  1.011667333529127e+00
-2.653607264225026e-19 -1.945480475319964e-17  3.691348115752326e-01
 1.011667333529127e+00  3.691348115752326e-01 -3.451001900917173e-17

-2.520129591301075e-17 -1.724311772875700e-19  9.974571683750127e-01
-1.724311772875700e-19 -1.598226290711883e-17  3.765162604027000e-01
 9.974571683750127e-01  3.765162604027000e-01 -3.397053104205130e-17

-2.543823899704361e-17 -1.239650724976157e-19  1.018474162314216e+00
-1.239650724976157e-19 -1.208881986217585e-17  3.550247064938946e-01
 1.018474162314216e+00  3.550247064938946e-01 -3.472787778828360e-17

-2.443648266293199e-17 -1.441541669954464e-19  9.163744188439465e-01
-1.441541669954464e-19 -9.271846962695870e-18  4.761331276357350e-01
 9.163744188439465e-01  4.761331276357350e-01 -3.121986396833231e-17

-2.524355042241750e-17 -3.133632445558438e-19  9.886602207565226e-01
-3.133632445558438e-19 -2.420909443883835e-17  3.996860563657873e-01
 9.886602207565226e-01  3.996860563657873e-01 -3.370533578653478e-17

-2.459779384195996e-17 -2.931844944207434e-20  9.265420404041784e-01
-2.931844944207434e-20 -4.425489916347337e-18  4.589172125960853e-01
 9.265420404041784e-01  4.589172125960853e-01 -3.151929567056881e-17

-2.518592090444729e-17 -4.602116076482129e-19  9.832224214240897e-01
-4.602116076482129e-19 -3.588121647471984e-17  3.819923249227303e-01
 9.832224214240897e-01  3.819923249227303e-01 -3.345380688569552e-17

-2.568917878043017e-17  1.148831367941822e-19  1.008846973488540e+00
 1.148831367941822e-19  1.697903235123026e-18  3.830021838241769e-01
 1.008846973488540e+00  3.830021838241769e-01 -3.443884203230042e-17

-2.638319139157115e-17 -5.025018314572413e-19  1.028717029101632e+00
-5.025018314572413e-19 -3.441561236965336e-17  4.442733447691634e-01
 1.028717029101632e+00  4.442733447691634e-01 -3.545392480878978e-17

-2.690694413869677e-17 -2.143480520828947e-19  1.070168203221104e+00
-2.143480520828947e-19 -1.832523957597427e-17  4.020028096243441e-01
 1.070168203221104e+00  4.020028096243441e-01 -3.685590329575750e-17

-2.657497581515291e-17 -1.331493080831414e-19  1.045658833115174e+00
-1.331493080831414e-19 -1.672527139619946e-17  4.111086165566952e-01
 1.045658833115174e+00  4.111086165566952e-01 -3.593680883686449e-17

-2.660137403779626e-17  1.775743139606531e-19  1.065851884470702e+00
 1.775743139606531e-19  2.079948881737750e-18  3.642121484330991e-01
 1.065851884470702e+00  3.642121484330991e-01 -3.662132098982953e-17

-2.478686073525569e-17  2.543024427049144e-19  9.134219584244049e-01
 2.543024427049144e-19  2.617373869030516e-18  4.861354004441691e-01
 9.134219584244049e-01  4.861354004441691e-01 -3.111057289984445e-17

-2.535441657051033e-17 -2.898889470424998e-19  9.766569687820525e-01
-2.898889470424998e-19 -2.724798985378109e-17  4.012025156009598e-01
 9.766569687820525e-01  4.012025156009598e-01 -3.341948845060677e-17

-2.529193722353866e-17 -1.496824465124362e-19  9.861977019486230e-01
-1.496824465124362e-19 -1.717034825874530e-17  3.832815357974035e-01
 9.861977019486230e-01  3.832815357974035e-01 -3.375069812982717e-17

-2.395002048247496e-17 -1.736086640466627e-19  8.901717402790316e-01
-1.736086640466627e-19 -2.081978448534633e-17  4.207580919657272e-01
 8.901717402790316e-01  4.207580919657272e-01 -3.027914714853485e-17

-2.575561987553866e-17  5.419095703854187e-21  1.073639751002129e+00
 5.419095703854187e-21 -7.737041765162599e-18  1.881444685509647e-01
 1.073639751002129e+00  1.881444685509647e-01 -3.666609460913203e-17

-2.405426902440515e-17  4.773548335616474e-20  9.011209356787132e-01
 4.773548335616474e-20 -8.388703056706754e-18  3.907937823940420e-01
 9.011209356787132e-01  3.907937823940420e-01 -3.062579278933077e-17

-2.510463786619521e-17 -2.295338902310560e-19  9.430536763170473e-01
-2.295338902310560e-19 -2.059812101742495e-17  4.660099537282735e-01
 9.430536763170473e-01  4.660099537282735e-01 -3.245505277577959e-17

-2.561998136411817e-17  2.029969623883339e-19  9.759021442059118e-01
 2.029969623883339e-19  2.102558842425118e-18  4.443280078642862e-01
 9.759021442059118e-01  4.443280078642862e-01 -3.353232506384708e-17

-2.558972084741805e-17 -1.049641804236228e-19  9.827686894198616e-01
-1.049641804236228e-19 -2.038315760017191e-17  4.173811758021999e-01
 9.827686894198616e-01  4.173811758021999e-01 -3.368787242073873e-17

-2.507826985111270e-17 -2.472669652693813e-19  9.526194509638515e-01
-2.472669652693813e-19 -2.810680731612602e-17  3.952898497920179e-01
 9.526194509638515e-01  3.952898497920179e-01 -3.257230475885300e-17

-2.508403242223049e-17 -2.462865542327895e-20  9.556494048065075e-01
-2.462865542327895e-20 -1.385480303886722e-17  3.740919166063216e-01
 9.556494048065075e-01  3.740919166063216e-01 -3.261222630927959e-17

-2.470176724700772e-17  1.460918896809091e-19  9.188625648181448e-01
 1.460918896809091e-19 -3.335158145560488e-18  4.181228919690103e-01
 9.188625648181448e-01  4.181228919690103e-01 -3.124857830764635e-17

-2.676751705608879e-17  5.797955598091786e-20  1.096082791393570e+00
 5.797955598091786e-20 -1.497084530165154e-17  2.936651139077274e-01
 1.096082791393570e+00  2.936651139077274e-01 -3.740297472317247e-17

-2.526312825571668e-17 -8.001114032281949e-20  9.465763228805312e-01
-8.001114032281949e-20 -1.717239297926598e-17  4.617975455260139e-01
 9.465763228805312e-01  4.617975455260139e-01 -3.232552330986452e-17

-2.351314463020769e-17 -4.281347773716856e-20  7.899361366773133e-01
-4.281347773716856e-20 -1.795925331947734e-17  6.014454123055645e-01
 7.899361366773133e-01  6.014454123055645e-01 -2.676736289040795e-17

-2.605608400457942e-17 -2.281836112978517e-19  1.046603381274130e+00
-2.281836112978517e-19 -2.150844309140860e-17  2.531222742396077e-01
 1.046603381274130e+00  2.531222742396077e-01 -3.566908468712502e-17

-2.508628707054508e-17  3.851579991209148e-19  9.574702097176727e-01
 3.851579991209148e-19  3.980251542979012e-18  3.233753211683401e-01
 9.574702097176727e-01  3.233753211683401e-01 -3.216166460956818e-17

-2.715927459516115e-17 -8.581447312413172e-19  1.029776002742993e+00
-8.581447312413172e-19 -5.143341874431245e-17  4.828462080744302e-01
 1.029776002742993e+00  4.828462080744302e-01 -3.594191322187546e-17

-2.705931010680724e-17  3.628669395795691e-19  1.009589456519390e+00
 3.628669395795691e-19  2.616561849718959e-17  5.137265991494407e-01
 1.009589456519390e+00  5.137265991494407e-01 -3.497023314768797e-17

-2.742519269993915e-17 -1.712182368646589e-19  1.065437753927595e+00
-1.712182368646589e-19 -1.968324996428211e-17  3.917728298866988e-01
 1.065437753927595e+00  3.917728298866988e-01 -3.669817365307029e-17

-2.683105101801206e-17 -3.138526700528035e-19  1.028775294156748e+00
-3.138526700528035e-19 -2.776493699422373e-17  3.776285217505697e-01
 1.028775294156748e+00  3.776285217505697e-01 -3.533639748375032e-17

-2.626206382943984e-17 -1.419989811402194e-19  9.716770353148666e-01
-1.419989811402194e-19 -1.460522836540357e-17  4.420059812476532e-01
 9.716770353148666e-01  4.420059812476532e-01 -3.330871685092791e-17

-2.650068748768876e-17  2.341139444800799e-19  1.003073645305630e+00
 2.341139444800799e-19  9.888597526330154e-18  3.997952509988487e-01
 1.003073645305630e+00  3.997952509988487e-01 -3.441574322662924e-17

-2.653595431055790e-17  3.231207867587512e-19  1.004724713403075e+00
 3.231207867587512e-19  1.468007750330363e-17  3.976337530200408e-01
 1.004724713403075e+00  3.976337530200408e-01 -3.449294218109611e-17

-2.584274743833595e-17 -6.325036248272695e-20  9.257375881023397e-01
-6.325036248272695e-20 -1.282812955337374e-17  5.036551966096707e-01
 9.257375881023397e-01  5.036551966096707e-01 -3.178313546620116e-17

-2.625033096188172e-17  4.147763014244648e-19  9.670633620644011e-01
 4.147763014244648e-19  1.894125388445996e-17  4.221097714171533e-01
 9.670633620644011e-01  4.221097714171533e-01 -3.321221884109820e-17

-2.681406489433874e-17  1.424117650892187e-19  1.022831738591738e+00
 1.424117650892187e-19 -1.515779563892324e-17  3.186873869237288e-01
 1.022831738591738e+00  3.186873869237288e-01 -3.493830018743307e-17

-2.744424884879280e-17 -2.510090635200889e-19  9.855838783027159e-01
-2.510090635200889e-19 -2.650225788181645e-17  5.075063965087261e-01
 9.855838783027159e-01  5.075063965087261e-01 -3.458438528209234e-17

-2.836168021768123e-17  2.017402079387808e-19  1.099545588161149e+00
 2.017402079387808e-19 -2.984448718496122e-18  4.302946308087641e-01
 1.099545588161149e+00  4.302946308087641e-01 -3.832146659879616e-17

-7.867637307214821e-18 -5.467416719005811e-18  1.013479558277335e+00
-5.467416719005811e-18 -4.432867147470937e-17  3.625124600827526e-01
 1.013479558277335e+00  3.625124600827526e-01 -3.516663438419220e-17

-7.835158688090924e-17  1.357573822455837e-17  1.036255063499033e+00
 1.357573822455837e-17 -1.147217463501909e-17  3.209030479156399e-01
 1.036255063499033e+00  3.209030479156399e-01 -3.594287794258521e-17

-7.213625905210220e-17  1.267654713474716e-17  9.152620556978873e-01
 1.267654713474716e-17  1.630868695400527e-18  4.683883461711440e-01
 9.152620556978873e-01  4.683883461711440e-01 -3.144040135294509e-17

-2.449848144073736e-17 -1.019698571256042e-19  9.308576450490594e-01
-1.019698571256042e-19 -7.506835560414160e-18  3.307362635632368e-01
 9.308576450490594e-01  3.307362635632368e-01 -3.200124006431402e-17

-2.819330537773361e-17  7.621629685492690e-20  1.113768789009860e+00
 7.621629685492690e-20 -4.452998442929236e-17  1.468463265016690e-01
 1.113768789009860e+00  1.468463265016690e-01 -3.789932797057108e-17

-2.457994929855065e-17 -3.468558748706661e-20  7.984567134704047e-01
-3.468558748706661e-20 -2.105384600540864e-17  4.914775773335224e-01
 7.984567134704047e-01  4.914775773335224e-01 -2.757373527084465e-17

-2.694585554612925e-17 -3.039257270133254e-19  9.667596646401914e-01
-3.039257270133254e-19 -4.004602542776546e-17  4.532576568569500e-01
 9.667596646401914e-01  4.532576568569500e-01 -3.364845504796338e-17

-2.750305389264930e-17 -1.614446081540889e-19  9.861363534559465e-01
-1.614446081540889e-19 -3.430947028843596e-17  4.553175064798854e-01
 9.861363534559465e-01  4.553175064798854e-01 -3.429007111029242e-17

-2.749610656928498e-17 -6.959105538236134e-19  9.949668028906531e-01
-6.959105538236134e-19 -7.460601111876047e-17  4.377752895269554e-01
 9.949668028906531e-01  4.377752895269554e-01 -3.455181835041100e-17

-2.742404184928299e-17  3.140654626815367e-19  9.867707729824140e-01
 3.140654626815367e-19 -5.390601124473377e-18  3.978361010572283e-01
 9.867707729824140e-01  3.978361010572283e-01 -3.421449461204060e-17

-2.791118381417289e-17 -6.145899883249247e-19  1.003754673004032e+00
-6.145899883249247e-19 -7.516268614791929e-17  4.076958906317143e-01
 1.003754673004032e+00  4.076958906317143e-01 -3.489796323029293e-17

-2.886293621729793e-17  4.917884657540221e-19  1.043492028469726e+00
 4.917884657540221e-19  7.099056358221511e-18  4.339451534297629e-01
 1.043492028469726e+00  4.339451534297629e-01 -3.653013124871040e-17

-2.849662670182096e-17 -1.063239741929099e-19  1.005307728151389e+00
-1.063239741929099e-19 -4.195837070652579e-17  4.409776988566704e-01
 1.005307728151389e+00  4.409776988566704e-01 -3.517212240981521e-17

-2.854307681069471e-17  5.238824138307022e-19  1.014134299197989e+00
 5.238824138307022e-19  5.288990802206515e-18  3.993510530727210e-01
 1.014134299197989e+00  3.993510530727210e-01 -3.548677571400468e-17

-2.804478408742709e-17  7.163127659302134e-19  9.551797408777907e-01
 7.163127659302134e-19  1.548545379060480e-17  4.655705632036402e-01
 9.551797408777907e-01  4.655705632036402e-01 -3.333670918841025e-17

-2.770615556311929e-17  3.653570403682490e-19  9.300226273876506e-01
 3.653570403682490e-19 -3.643599404111053e-17  4.336861849487786e-01
 9.300226273876506e-01  4.336861849487786e-01 -3.168150473226724e-17

-3.061073233750020e-17  1.273479946296967e-18  1.212634611707389e+00
 1.273479946296967e-18 -3.599781484269048e-17  1.179166342356327e-01
 1.212634611707389e+00  1.179166342356327e-01 -3.868566970449156e-17

-3.588273346653535e-17  1.509980676344172e-18  1.690981267357723e+00
 1.509980676344172e-18 -6.907446959349325e-17 -2.076869252346253e-01
 1.690981267357723e+00 -2.076869252346253e-01 -5.233698096130899e-17

-3.231780355583710e-17  7.748504696944689e-19  1.089537931317585e+00
 7.748504696944689e-19  1.029741738869513e-16  6.446897761779100e-01
 1.089537931317585e+00  6.446897761779100e-01 -4.205277248684045e-17

-3.366465324674951e-17  9.118334722214837e-19  1.118932139098114e+00
 9.118334722214837e-19  1.029146344377665e-16  7.848239549429689e-01
 1.118932139098114e+00  7.848239549429689e-01 -4.455892034545328e-17

-3.393066182362932e-17 -2.102997103682254e-18  1.250475349607203e+00
-2.102997103682254e-18 -2.259714377527782e-16  4.537010329916111e-01
 1.250475349607203e+00  4.537010329916111e-01 -4.518508271340023e-17

-3.218157731316071e-17  5.927254702304734e-19  1.147665936196871e+00
 5.927254702304734e-19  2.386919877508228e-17  4.027599341542569e-01
 1.147665936196871e+00  4.027599341542569e-01 -4.103093948578394e-17

-3.170284747946228e-17 -2.568471504678835e-19  1.144205605172379e+00
-2.568471504678835e-19 -3.324989989604710e-17  3.232702058230880e-01
 1.144205605172379e+00  3.232702058230880e-01 -4.072822987235452e-17

-2.979116279395163e-17  1.067257152108340e-18  9.942462772628091e-01
 1.067257152108340e-18  3.643035591737603e-17  4.382878266145943e-01
 9.942462772628091e-01  4.382878266145943e-01 -3.522137690567643e-17

-3.007052354859670e-17  4.444925604281869e-19  1.005004921039785e+00
 4.444925604281869e-19 -2.137900507050990e-17  4.421080279766431e-01
 1.005004921039785e+00  4.421080279766431e-01 -3.562427702651454e-17

-3.063569162336652e-17 -3.318408329430401e-19  1.028008563901563e+00
-3.318408329430401e-19 -8.898165347677699e-17  4.499446343437206e-01
 1.028008563901563e+00  4.499446343437206e-01 -3.655447261995839e-17

-3.129305762938954e-17  4.924285173605881e-19  1.065636552111935e+00
 4.924285173605881e-19 -2.502306436022967e-17  4.300638601436108e-01
 1.065636552111935e+00  4.300638601436108e-01 -3.797871681670471e-17

-3.129232582753194e-17  7.903482089183459e-19  1.046646841111336e+00
 7.903482089183459e-19 -5.204984982087230e-18  4.365034798838481e-01
 1.046646841111336e+00  4.365034798838481e-01 -3.736866103842939e-17

-3.145182531634722e-17  1.808586420444509e-18  1.039221930839130e+00
 1.808586420444509e-18  7.455503356171479e-17  4.313494647185658e-01
 1.039221930839130e+00  4.313494647185658e-01 -3.717116311577519e-17

-3.176134072730872e-17  1.386989267478934e-18  1.034683549043409e+00
 1.386989267478934e-18  4.327463245509527e-17  4.857711269828047e-01
 1.034683549043409e+00  4.857711269828047e-01 -3.718855947341360e-17

-3.267589113616360e-17  1.840566173994298e-18  1.105062149420479e+00
 1.840566173994298e-18  7.359856012775927e-17  4.362634500490112e-01
 1.105062149420479e+00  4.362634500490112e-01 -3.965044539004314e-17

-3.231480856493049e-17  1.252020948565204e-18  1.067218936433886e+00
 1.252020948565204e-18  1.817265335547726e-17  4.153116291947959e-01
 1.067218936433886e+00  4.153116291947959e-01 -3.831200185063194e-17

-3.228624588214991e-17  3.602645727197395e-19  1.052749833197053e+00
 3.602645727197395e-19 -5.768164179511492e-17  4.024254803821343e-01
 1.052749833197053e+00  4.024254803821343e-01 -3.784316526770375e-17

-3.171930131455764e-17  9.592183455036287e-19  9.862929642201190e-01
 9.592183455036287e-19 -2.548586212981918e-17  4.321516491816937e-01
 9.862929642201190e-01  4.321516491816937e-01 -3.556430412114656e-17

-3.246237396021836e-17  5.730336350997645e-19  1.003416397537500e+00
 5.730336350997645e-19 -6.838768736162588e-17  4.148654275420723e-01
 1.003416397537500e+00  4.148654275420723e-01 -3.637381875038097e-17

-3.360336340860368e-17  1.631259214019395e-18  1.031505368537891e+00
 1.631259214019395e-18 -4.616214232236757e-18  4.324826752838190e-01
 1.031505368537891e+00  4.324826752838190e-01 -3.771340410781609e-17

-3.360158800628343e-17  2.440642253018712e-18  9.960898784509423e-01
 2.440642253018712e-18  3.875680913803608e-17  4.058588630574639e-01
 9.960898784509423e-01  4.058588630574639e-01 -3.661275532938224e-17

-3.431490454026357e-17  1.456679339724396e-18  1.030257935405877e+00
 1.456679339724396e-18 -4.796914940141501e-17  3.643930150288886e-01
 1.030257935405877e+00  3.643930150288886e-01 -3.790443603218482e-17

-3.498160454560225e-17  2.548985486252582e-18  1.055216834695465e+00
 2.548985486252582e-18  2.648912017456196e-17  3.676674510508267e-01
 1.055216834695465e+00  3.676674510508267e-01 -3.892495615670962e-17

-3.510792421411383e-17  1.538017765848768e-18  1.011835232563035e+00
 1.538017765848768e-18 -5.332817567963210e-17  4.648033463580739e-01
 1.011835232563035e+00  4.648033463580739e-01 -3.765155626221285e-17

-3.549996200482596e-17  2.123086208964416e-18  1.011304771713542e+00
 2.123086208964416e-18 -3.167998436851226e-17  4.723573475832467e-01
 1.011304771713542e+00  4.723573475832467e-01 -3.767603761376766e-17

-3.501475554726845e-17  2.428106302028058e-18  9.398200095888146e-01
 2.428106302028058e-18 -3.487247631683286e-17  4.552763106865360e-01
 9.398200095888146e-01  4.552763106865360e-01 -3.507782479755260e-17

-3.707505892969110e-17  3.153902073766102e-18  1.139211414065806e+00
 3.153902073766102e-18 -3.293386255413677e-17  1.272709749932037e-01
 1.139211414065806e+00  1.272709749932037e-01 -4.079059930564049e-17

-3.687146261380347e-17  2.350251365103424e-18  1.050045322410815e+00
 2.350251365103424e-18 -4.829943712097537e-17  3.608922251426992e-01
 1.050045322410815e+00  3.608922251426992e-01 -3.940856524835793e-17

-3.657164173604940e-17  2.235581138839138e-18  9.234013538981418e-01
 2.235581138839138e-18  2.011426956754315e-17  6.743539124693309e-01
 9.234013538981418e-01  6.743539124693309e-01 -3.791665065117543e-17

-5.988052177288290e-17  9.691745398612161e-18  1.039436229553558e+00
 9.691745398612161e-18 -8.054802211689447e-17  5.457341394413607e-01
 1.039436229553558e+00  5.457341394413607e-01 -4.098246067504229e-17

 1.808324514096254e-17 -1.488926625265285e-17  1.051749812070887e+00
-1.488926625265285e-17 -4.583145723253437e-17  3.896791450609736e-01
 1.051749812070887e+00  3.896791450609736e-01 -4.021253918615558e-17

-7.416722725475568e-17  1.329832370824909e-17  1.115893308316724e+00
 1.329832370824909e-17 -4.304019004408539e-17  2.244333119915017e-01
 1.115893308316724e+00  2.244333119915017e-01 -4.150450156916169e-17

-3.626510744708075e-17  3.355954569653266e-18  8.623481791860127e-01
 3.355954569653266e-18 -4.046487194844338e-17  4.903401390445188e-01
 8.623481791860127e-01  4.903401390445188e-01 -3.400524787846010e-17

-3.826772848700346e-17  3.978301050874483e-18  9.446072403240776e-01
 3.978301050874483e-18 -2.503737143768959e-17  4.872961947216206e-01
 9.446072403240776e-01  4.872961947216206e-01 -3.722644132695207e-17

-4.321554429519532e-17  4.778687146130502e-18  9.839517225838317e-01
 4.778687146130502e-18 -7.250507941426334e-17  4.726403376468853e-01
 9.839517225838317e-01  4.726403376468853e-01 -3.894447468734538e-17

-4.281844743427720e-17  4.464271528646711e-18  1.029992144063048e+00
 4.464271528646711e-18 -4.553953083289600e-17  4.378425833487243e-01
 1.029992144063048e+00  4.378425833487243e-01 -4.095403328765704e-17

-5.408810621387345e-17  9.872384064812393e-18  1.012200783471464e+00
 9.872384064812393e-18 -3.884799843379823e-17  4.828322686440725e-01
 1.012200783471464e+00  4.828322686440725e-01 -4.086857239144928e-17

-1.140565246899934e-16  3.946812272899764e-17  1.023642522340959e+00
 3.946812272899764e-17 -2.558446395896522e-17  4.425974946433707e-01
 1.023642522340959e+00  4.425974946433707e-01 -4.157709514210183e-17

-1.333063112641955e-16  4.848745867334904e-17  9.909064866148575e-01
 4.848745867334904e-17 -8.105122262271970e-17  4.440834082084890e-01
 9.909064866148575e-01  4.440834082084890e-01 -4.087769032813246e-17

-1.189456905132798e-16  4.129763258635613e-17  1.012554616084470e+00
 4.129763258635613e-17 -8.446303503586194e-17  4.116581961646226e-01
 1.012554616084470e+00  4.116581961646226e-01 -4.213207605044003e-17

-7.435183731848984e-17  1.952418768532658e-17  9.542855519709136e-01
 1.952418768532658e-17 -7.651937307319770e-17  4.682338605503895e-01
 9.542855519709136e-01  4.682338605503895e-01 -4.057505885075583e-17

-9.149894058623711e-17  2.796882615582442e-17  1.024798305315433e+00
 2.796882615582442e-17 -5.221514825474568e-17  3.991414006892515e-01
 1.024798305315433e+00  3.991414006892515e-01 -4.353142147646969e-17

-4.644637677931141e-17  5.913844359528902e-18  1.014354638908965e+00
 5.913844359528902e-18 -1.556823270900236e-17  4.271297085344308e-01
 1.014354638908965e+00  4.271297085344308e-01 -4.385524057524659e-17

-6.230019195339990e-17  1.424927863966856e-17  1.058871624173448e+00
 1.424927863966856e-17  7.420528546926504e-17  4.193720431697388e-01
 1.058871624173448e+00  4.193720431697388e-01 -4.639083519756662e-17

-5.750412816255059e-17  9.111801255977986e-18  9.765594655464694e-01
 9.111801255977986e-18 -1.569048114526228e-16  4.898039902087140e-01
 9.765594655464694e-01  4.898039902087140e-01 -4.400888521368693e-17

-6.105377085301478e-17  1.328040741784725e-17  1.027813204287374e+00
 1.328040741784725e-17  5.023008510088935e-17  4.177511794773862e-01
 1.027813204287374e+00  4.177511794773862e-01 -4.637283739281520e-17

-6.360764390651114e-17  1.325327005847095e-17  1.021662951505526e+00
 1.325327005847095e-17 -8.002934796501289e-18  4.446684528876262e-01
 1.021662951505526e+00  4.446684528876262e-01 -4.734395619531593e-17

-6.507074785793563e-17  1.210503064592088e-17  9.597297351906700e-01
 1.210503064592088e-17 -1.460211922187698e-16  5.324320199451731e-01
 9.597297351906700e-01  5.324320199451731e-01 -4.605891576247349e-17

-6.993622637936950e-17  1.381683313250254e-17  1.091455499876517e+00
 1.381683313250254e-17 -1.624454079064089e-16  4.099122380069151e-01
 1.091455499876517e+00  4.099122380069151e-01 -5.172073727368479e-17

-7.604057203791082e-17  1.723024636243655e-17  1.032079391104514e+00
 1.723024636243655e-17 -1.916683905942059e-16  4.124575433477088e-01
 1.032079391104514e+00  4.124575433477088e-01 -5.184394895933613e-17

-8.309489903186561e-17  2.163530880976077e-17  1.006881851869167e+00
 2.163530880976077e-17 -1.359344825668521e-16  4.205165064833785e-01
 1.006881851869167e+00  4.205165064833785e-01 -5.338088277717512e-17

-8.845675409961148e-17  2.625940920023127e-17  9.878979652161494e-01
 2.625940920023127e-17  3.992886965005373e-17  4.629003128711559e-01
 9.878979652161494e-01  4.629003128711559e-01 -5.461844586641806e-17

-1.023221707440854e-16  2.706454109671990e-17  1.027813638171034e+00
 2.706454109671990e-17 -4.767173800087155e-16  4.239107138783250e-01
 1.027813638171034e+00  4.239107138783250e-01 -6.042810439100217e-17

-1.152724196600048e-16  3.822724940314877e-17  1.065114741466164e+00
 3.822724940314877e-17 -9.158023703944563e-17  3.906418200091031e-01
 1.065114741466164e+00  3.906418200091031e-01 -6.583365310053852e-17

-1.266777496216528e-16  3.963697659615251e-17  1.052808546468425e+00
 3.963697659615251e-17 -4.602674263638247e-16  4.186785547732550e-01
 1.052808546468425e+00  4.186785547732550e-01 -6.913519672127327e-17

-1.364745573115064e-16  4.954429922815439e-17  1.009939514548351e+00
 4.954429922815439e-17 -3.622871675771325e-17  4.779816971389682e-01
 1.009939514548351e+00  4.779816971389682e-01 -7.096540961886390e-17

-1.507933180842717e-16  5.922400883141405e-17  1.078281181985218e+00
 5.922400883141405e-17  8.459843530388096e-17  4.087806197206516e-01
 1.078281181985218e+00  4.087806197206516e-01 -7.751919829813910e-17

-1.780491513808600e-16  7.008800195895247e-17  1.043453370251834e+00
 7.008800195895247e-17 -3.769361491821316e-16  4.291575916557219e-01
 1.043453370251834e+00  4.291575916557219e-01 -8.468892392413312e-17

-2.148239978524105e-16  9.210105892474308e-17  1.037302396473234e+00
 9.210105892474308e-17 -4.184440292791274e-16  4.011074270291383e-01
 1.037302396473234e+00  4.011074270291383e-01 -9.542836947533272e-17

-2.512730974770595e-16  1.080343180221007e-16  1.041606521698176e+00
 1.080343180221007e-16 -7.906174126506083e-16  4.178373645541044e-01
 1.041606521698176e+00  4.178373645541044e-01 -1.064503286256542e-16

-3.192168117170227e-16  1.497118529981903e-16  1.059111860644663e+00
 1.497118529981903e-16 -4.041210930628031e-16  4.300359060632546e-01
 1.059111860644663e+00  4.300359060632546e-01 -1.272250590488858e-16

-4.021564076939642e-16  1.888769115858282e-16  9.945500600582708e-01
 1.888769115858282e-16 -9.131502502102103e-16  4.878191675430827e-01
 9.945500600582708e-01  4.878191675430827e-01 -1.493321348261051e-16

-4.802686870069659e-16  2.352976086098809e-16  1.016182435911180e+00
 2.352976086098809e-16 -6.487170788616153e-16  4.295760889939594e-01
 1.016182435911180e+00  4.295760889939594e-01 -1.721111381864743e-16

-6.464066665774763e-16  3.219285600162109e-16  1.010905555676444e+00
 3.219285600162109e-16 -5.212079735149524e-16  4.095750465399940e-01
 1.010905555676444e+00  4.095750465399940e-01 -2.193544415016878e-16

-1.054321953273399e-15  4.942266028710875e-16  1.017927711589564e+00
 4.942266028710875e-16 -5.403032307766813e-16  4.279704554053819e-01
 1.017927711589564e+00  4.279704554053819e-01 -3.375517013381715e-16

-1.695729486208236e-15  6.857147327205155e-16  1.007851664506730e+00
 6.857147327205155e-16 -9.030828462441610e-16  4.072248772589352e-01
 1.007851664506730e+00  4.072248772589352e-01 -5.319575512239108e-16

-2.266221024121503e-15  8.068342989575198e-16  9.984502210764205e-01
 8.068342989575198e-16 -1.264249965179742e-15  4.258137875848876e-01
 9.984502210764205e-01  4.258137875848876e-01 -7.164776110464780e-16

-3.486200474904113e-15  9.180035887308000e-16  1.004581609949038e+00
 9.180035887308000e-16 -8.138013904540478e-16  4.220615488475859e-01
 1.004581609949038e+00  4.220615488475859e-01 -1.159334696510202e-15

-5.081231299439710e-15  8.178252380890176e-16  9.996575132975215e-01
 8.178252380890176e-16 -1.486272274498952e-15  4.286987625842629e-01
 9.996575132975215e-01  4.286987625842629e-01 -1.839114588449904e-15

-7.175232389233278e-15  4.847828205618556e-16  1.004195848996748e+00
 4.847828205618556e-16 -7.555764187920738e-16  4.269106867810757e-01
 1.004195848996748e+00  4.269106867810757e-01 -2.873768332020313e-15

-1.011208728552489e-14 -2.462119639265734e-16  9.952707081001835e-01
-2.462119639265734e-16 -8.280063828317414e-16  4.310807652920597e-01
 9.952707081001835e-01  4.310807652920597e-01 -4.505815118387100e-15

-1.456109030064397e-14 -1.800111010378133e-15  9.861352868175018e-01
-1.800111010378133e-15 -3.326231739317095e-16  4.308158621577102e-01
 9.861352868175018e-01  4.308158621577102e-01 -7.144550467905514e-15

 2.485158226722982e-14 -3.063010263496240e-14  1.005577691589536e+00
-3.063010263496240e-14  4.234387291509713e-14  4.217816138686118e-01
 1.005577691589536e+00  4.217816138686118e-01  1.041886280036798e-15

-6.128652232209709e-13  1.397882536207047e-13  9.974100986788064e-01
 1.397882536207047e-13 -2.269978848946693e-13  4.565086687564529e-01
 9.974100986788064e-01  4.565086687564529e-01 -2.103074527262975e-13

 8.583737229231393e-14 -2.339836843659578e-14  1.028540242208476e+00
-2.339836843659578e-14  5.822789660159180e-14  4.138412307734965e-01
 1.028540242208476e+00  4.138412307734965e-01  1.757476141644886e-14

-6.496384422522627e-13  1.498626727456064e-13  1.028851570588696e+00
 1.498626727456064e-13 -3.147400283686592e-13  4.124749523860142e-01
 1.028851570588696e+00  4.124749523860142e-01 -1.593666468055518e-13

-9.257837503038015e-15  1.140346168613840e-14  1.029470509349310e+00
 1.140346168613840e-14  2.552933661616294e-15  4.143039131067822e-01
 1.029470509349310e+00  4.143039131067822e-01 -1.014232576055733e-14

-4.678242859698867e-15  9.228799461709576e-15  1.022012676685349e+00
 9.228799461709576e-15  1.279840536888322e-15  4.239866024026239e-01
 1.022012676685349e+00  4.239866024026239e-01 -4.875937952699736e-15

-3.584502509060534e-15  7.369750184871882e-15  1.023976822420854e+00
 7.369750184871882e-15  1.648919483778065e-15  4.227401777903416e-01
 1.023976822420854e+00  4.227401777903416e-01 -3.549319660361935e-15

-2.777451491054684e-15  4.392265732755017e-15  1.038662729536920e+00
 4.392265732755017e-15  1.719982046743567e-15  4.069861997813045e-01
 1.038662729536920e+00  4.069861997813045e-01 -2.087797906158091e-15

-1.800015004966903e-15  1.620225752816480e-15  1.052755153434429e+00
 1.620225752816480e-15  1.060465319322673e-15  4.064065786792165e-01
 1.052755153434429e+00  4.064065786792165e-01 -9.531051612669551e-16

-1.140354094876528e-15  6.466155877544318e-16  1.034856774262538e+00
 6.466155877544318e-16  5.045682444881413e-16  4.124959686446711e-01
 1.034856774262538e+00  4.124959686446711e-01 -5.217273324476149e-16

-8.094516866781444e-16  3.377400885659681e-16  9.883746556827213e-01
 3.377400885659681e-16  2.652538668036067e-16  4.321567159123388e-01
 9.883746556827213e-01  4.321567159123388e-01 -3.537766401504204e-16

-5.309181429785556e-16  1.566172144650526e-16  8.599276832239474e-01
 1.566172144650526e-16  1.019051032324516e-16  3.975626207747632e-01
 8.599276832239474e-01  3.975626207747632e-01 -2.274979310786592e-16

-4.295093308670044e-16  9.576067128314322e-17  1.029576870980940e+00
 9.576067128314322e-17  5.038597670605320e-17  2.722165260531278e-01
 1.029576870980940e+00  2.722165260531278e-01 -1.877887186477893e-16

-3.991290004916714e-16  7.258272740942614e-17  8.006897576640732e-01
 7.258272740942614e-17  4.031163098653915e-17  6.044215363125104e-01
 8.006897576640732e-01  6.044215363125104e-01 -1.668768964778853e-16

-3.357038492970816e-16  4.557528165338544e-17  1.066067645246224e+00
 4.557528165338544e-17  8.460888942088271e-18  3.816408052629970e-01
 1.066067645246224e+00  3.816408052629970e-01 -1.489083237178870e-16

-2.940163927584665e-16  3.057077681453350e-17  1.002847329181400e+00
 3.057077681453350e-17 -6.256655997888129e-18  4.753584414346854e-01
 1.002847329181400e+00  4.753584414346854e-01 -1.305401050374356e-16

-2.573463488747081e-16  2.061910598936716e-17  1.010656850388979e+00
 2.061910598936716e-17 -1.797492462427449e-17  4.396405768867695e-01
 1.010656850388979e+00  4.396405768867695e-01 -1.168794533620188e-16

-2.007537452698089e-16  1.111518005349936e-17  9.892746467203840e-01
 1.111518005349936e-17 -1.056560124014340e-17  4.634077916748265e-01
 9.892746467203840e-01  4.634077916748265e-01 -1.004012148407661e-16

-1.838561827643301e-16  5.651807027496586e-18  1.018416317077204e+00
 5.651807027496586e-18 -3.646106458964517e-17  4.344265016022971e-01
 1.018416317077204e+00  4.344265016022971e-01 -9.013515072373667e-17

-1.513225409197928e-16  6.908140249012176e-18  1.078239546834679e+00
 6.908140249012176e-18 -4.594841267470729e-17  3.781043532172902e-01
 1.078239546834679e+00  3.781043532172902e-01 -8.449417304073947e-17

-1.230144586891672e-16 -5.637434235545663e-18  1.098947266108256e+00
-5.637434235545663e-18 -3.420793391725441e-17  4.290154654605224e-01
 1.098947266108256e+00  4.290154654605224e-01 -7.459942509366631e-17

-1.066836729087058e-16 -1.961338913365081e-18  1.042680155946242e+00
-1.961338913365081e-18 -4.259790554269335e-17  4.221303329337742e-01
 1.042680155946242e+00  4.221303329337742e-01 -6.330105313880925e-17

-9.418087977394184e-17 -2.374375136908348e-18  1.063095501657959e+00
-2.374375136908348e-18 -4.150798920164756e-17  4.473863443366564e-01
 1.063095501657959e+00  4.473863443366564e-01 -5.945489893916081e-17

-8.411126672306807e-17 -2.560664757023301e-18  1.078965142611438e+00
-2.560664757023301e-18 -4.022340051729441e-17  4.505018220177555e-01
 1.078965142611438e+00  4.505018220177555e-01 -5.634805301906010e-17

-7.514878073797279e-17 -2.672879484058982e-18  1.076005515170792e+00
-2.672879484058982e-18 -3.849417875167174e-17  4.550329235902385e-01
 1.076005515170792e+00  4.550329235902385e-01 -5.302835539949716e-17

-6.803343911630337e-17 -2.673747923199703e-18  1.060968560237583e+00
-2.673747923199703e-18 -3.673327657226432e-17  4.623677916062905e-01
 1.060968560237583e+00  4.623677916062905e-01 -4.995624832132138e-17

-6.196815485707049e-17 -2.587794589040350e-18  1.037987203990958e+00
-2.587794589040350e-18 -3.509934857378994e-17  4.566305738682204e-01
 1.037987203990958e+00  4.566305738682204e-01 -4.706503821414258e-17

-5.826024402816879e-17 -2.455188382593234e-18  1.033570058612554e+00
-2.455188382593234e-18 -3.393173989221883e-17  4.520231639662185e-01
 1.033570058612554e+00  4.520231639662185e-01 -4.566731113794418e-17

-5.539284128704338e-17 -2.312560289727259e-18  1.022991658676944e+00
-2.312560289727259e-18 -3.284050682025261e-17  4.639137751635778e-01
 1.022991658676944e+00  4.639137751635778e-01 -4.442055321011527e-17

-5.196439931161055e-17 -2.098367782711593e-18  1.014712862647996e+00
-2.098367782711593e-18 -3.172169684361048e-17  4.533983930330610e-01
 1.014712862647996e+00  4.533983930330610e-01 -4.304844381246352e-17

-4.938845624131557e-17 -1.887973672890397e-18  1.013115780489998e+00
-1.887973672890397e-18 -3.110224181529994e-17  4.295084246515301e-01
 1.013115780489998e+00  4.295084246515301e-01 -4.214709539128093e-17

-4.736997824974225e-17 -1.697753157461123e-18  1.014136148128168e+00
-1.697753157461123e-18 -3.033877706637105e-17  4.286000607804342e-01
 1.014136148128168e+00  4.286000607804342e-01 -4.155895371352286e-17

-4.552195963253665e-17 -1.452480064887757e-18  1.038589372410643e+00
-1.452480064887757e-18 -2.972586023988199e-17  4.196798716293761e-01
 1.038589372410643e+00  4.196798716293761e-01 -4.181276754015144e-17

-4.396905445662180e-17 -1.217187242983311e-18  1.068822470640707e+00
-1.217187242983311e-18 -2.923756098172301e-17  4.079674927716262e-01
 1.068822470640707e+00  4.079674927716262e-01 -4.231312549451851e-17

-4.233148268921224e-17 -1.011443010736496e-18  1.072872726632626e+00
-1.011443010736496e-18 -2.810264877296166e-17  4.168246075497684e-01
 1.072872726632626e+00  4.168246075497684e-01 -4.192836758865249e-17

-4.015175385825826e-17 -8.956216432074136e-19  1.038426694819892e+00
-8.956216432074136e-19 -2.670164665887300e-17  4.057771545148433e-01
 1.038426694819892e+00  4.057771545148433e-01 -4.012874245409475e-17

-3.646659443038901e-17 -7.398335055823821e-19  9.206135201146647e-01
-7.398335055823821e-19 -2.359554987259453e-17  4.411632117967360e-01
 9.206135201146647e-01  4.411632117967360e-01 -3.515492751444592e-17

-3.579436455035037e-17  1.718810247205610e-19  1.086753820359130e+00
 1.718810247205610e-19 -2.730836048758061e-17  7.041675375649865e-02
 1.086753820359130e+00  7.041675375649865e-02 -3.695385208238378e-17

-3.574186664202764e-17 -5.968654336631041e-19  9.835370963076472e-01
-5.968654336631041e-19 -2.372543311283033e-17  4.056851066646803e-01
 9.835370963076472e-01  4.056851066646803e-01 -3.703823916864126e-17

-3.673229696981357e-17 -1.193343971425931e-18  9.731521487250994e-01
-1.193343971425931e-18 -2.173145526144164e-17  6.708866329338302e-01
 9.731521487250994e-01  6.708866329338302e-01 -3.988374088623966e-17

-3.733501949963182e-17 -6.581002851544477e-19  1.157158666585855e+00
-6.581002851544477e-19 -2.608409159659856e-17  3.243458949756367e-01
 1.157158666585855e+00  3.243458949756367e-01 -4.339825521068277e-17

-3.514266693859136e-17 -4.083988851416660e-19  1.039095500799555e+00
-4.083988851416660e-19 -2.413461542583577e-17  3.678128415514528e-01
 1.039095500799555e+00  3.678128415514528e-01 -3.864968855859927e-17

-3.427863547763876e-17 -3.495009027568292e-19  1.018462332083200e+00
-3.495009027568292e-19 -2.322819107063707e-17  3.738220233789779e-01
 1.018462332083200e+00  3.738220233789779e-01 -3.764062715906981e-17

-3.357095490008783e-17 -3.080334512190683e-19  1.004267241058060e+00
-3.080334512190683e-19 -2.233953870235740e-17  3.886625066189678e-01
 1.004267241058060e+00  3.886625066189678e-01 -3.691496104987161e-17

-3.303975304056038e-17 -2.829769214678192e-19  1.002214898935859e+00
-2.829769214678192e-19 -2.151327773802621e-17  4.024957998326888e-01
 1.002214898935859e+00  4.024957998326888e-01 -3.661180518003960e-17

-3.204711398847064e-17 -2.416596321639796e-19  9.419399845794949e-01
-2.416596321639796e-19 -1.998199868506182e-17  4.581639237371106e-01
 9.419399845794949e-01  4.581639237371106e-01 -3.427769919819229e-17

-3.292313682342665e-17 -3.452493642393690e-19  1.047548486856421e+00
-3.452493642393690e-19 -2.178441918149887e-17  3.518460245999265e-01
 1.047548486856421e+00  3.518460245999265e-01 -3.802406665647871e-17

-3.211097148997504e-17 -3.373095510836739e-19  9.973240333182396e-01
-3.373095510836739e-19 -2.084960397368300e-17  3.862846647062312e-01
 9.973240333182396e-01  3.862846647062312e-01 -3.611421716283549e-17

-3.107415563620148e-17 -3.391966071470767e-19  9.317513511915918e-01
-3.391966071470767e-19 -1.943549745010294e-17  4.352901892240152e-01
 9.317513511915918e-01  4.352901892240152e-01 -3.363130224693886e-17

-3.047840344730766e-17 -3.629366664484934e-19  9.254285761195682e-01
-3.629366664484934e-19 -1.925397602672949e-17  4.195137446939938e-01
 9.254285761195682e-01  4.195137446939938e-01 -3.325673040323820e-17

-3.028735960437814e-17 -3.883684907761338e-19  9.346060025353659e-01
-3.883684907761338e-19 -1.942434558473876e-17  3.980943361755573e-01
 9.346060025353659e-01  3.980943361755573e-01 -3.349169233906217e-17

-2.990911994169184e-17 -3.826855632235565e-19  9.267755478739865e-01
-3.826855632235565e-19 -1.903059970295280e-17  3.984183698285833e-01
 9.267755478739865e-01  3.984183698285833e-01 -3.308689607064411e-17

-2.964651832904705e-17 -3.477368194325383e-19  9.413655309989158e-01
-3.477368194325383e-19 -1.871546233878609e-17  4.036752650522999e-01
 9.413655309989158e-01  4.036752650522999e-01 -3.336547006042877e-17

-2.997933194420635e-17 -3.927749797382247e-19  9.695038269733991e-01
-3.927749797382247e-19 -1.841353410191549e-17  4.424340426775716e-01
 9.695038269733991e-01  4.424340426775716e-01 -3.446067420896297e-17

-3.002609669569346e-17 -3.914192405157801e-19  9.767535913509778e-01
-3.914192405157801e-19 -1.794323598042722e-17  4.741248028104824e-01
 9.767535913509778e-01  4.741248028104824e-01 -3.470594833504868e-17

-2.974759769377337e-17 -3.638431646568434e-19  9.906724516304052e-01
-3.638431646568434e-19 -1.871612947702491e-17  4.060424473830724e-01
 9.906724516304052e-01  4.060424473830724e-01 -3.498254356191198e-17

-2.918368669771251e-17 -3.516645030642747e-19  9.807030544506101e-01
-3.516645030642747e-19 -1.920040615691125e-17  3.610216628289867e-01
 9.807030544506101e-01  3.610216628289867e-01 -3.446848427147871e-17

-2.906759282023558e-17 -3.379423808111958e-19  9.754955509813205e-01
-3.379423808111958e-19 -1.864683711350683e-17  3.949003962205784e-01
 9.754955509813205e-01  3.949003962205784e-01 -3.428044641973237e-17

-2.882627955499631e-17 -3.746091250214415e-19  9.491372381989395e-01
-3.746091250214415e-19 -1.768886105612357e-17  4.552166768662874e-01
 9.491372381989395e-01  4.552166768662874e-01 -3.343356083495113e-17

-2.934365392781464e-17 -3.186788567740155e-19  1.013256794148333e+00
-3.186788567740155e-19 -1.856190292577154e-17  4.030070176376920e-01
 1.013256794148333e+00  4.030070176376920e-01 -3.561436429991369e-17

-2.867581516095021e-17 -2.624836822881577e-19  9.700795667921300e-01
-2.624836822881577e-19 -1.738061614719342e-17  4.504083937692844e-01
 9.700795667921300e-01  4.504083937692844e-01 -3.398689502474958e-17

-2.837460195452306e-17 -2.768696249516278e-19  9.806903388879200e-01
-2.768696249516278e-19 -1.830346224117024e-17  3.782180393324860e-01
 9.806903388879200e-01  3.782180393324860e-01 -3.428503673384197e-17

-2.805236770572125e-17 -2.582478755396813e-19  9.642296719717205e-01
-2.582478755396813e-19 -1.777508110839645e-17  3.999387520977306e-01
 9.642296719717205e-01  3.999387520977306e-01 -3.364614523033888e-17

-2.857621462190260e-17 -2.746799802185244e-19  9.989856769645299e-01
-2.746799802185244e-19 -1.774792827802936e-17  4.075438630486801e-01
 9.989856769645299e-01  4.075438630486801e-01 -3.493321949850230e-17

-2.878070117754723e-17 -2.361845071187868e-19  1.017304841269929e+00
-2.361845071187868e-19 -1.758161037374423e-17  4.288757704077008e-01
 1.017304841269929e+00  4.288757704077008e-01 -3.561195077791998e-17

-2.878478323857005e-17 -2.184615642122436e-19  1.030763561201640e+00
-2.184615642122436e-19 -1.779705934481683e-17  4.026450905716372e-01
 1.030763561201640e+00  4.026450905716372e-01 -3.601874114474850e-17

-2.844025143314719e-17 -2.450717403521060e-19  1.021851538824510e+00
-2.450717403521060e-19 -1.802284513310335e-17  3.797896625429553e-01
 1.021851538824510e+00  3.797896625429553e-01 -3.564054996676171e-17

-2.777126163650725e-17 -2.219010142888170e-19  9.785773232468602e-01
-2.219010142888170e-19 -1.724131211758830e-17  4.035315370381899e-01
 9.785773232468602e-01  4.035315370381899e-01 -3.402738037711368e-17

-2.774237600567328e-17 -2.228714233155188e-19  9.910435110318432e-01
-2.228714233155188e-19 -1.705143821180404e-17  4.040718259707284e-01
 9.910435110318432e-01  4.040718259707284e-01 -3.441694737132615e-17

-2.754888355472545e-17 -2.152606830656787e-19  9.900701305265115e-01
-2.152606830656787e-19 -1.668223490618749e-17  4.072488821554084e-01
 9.900701305265115e-01  4.072488821554084e-01 -3.432331889502967e-17

-2.776722907467524e-17 -2.866644248394650e-19  1.029072552929171e+00
-2.866644248394650e-19 -1.785768377402417e-17  3.397170625189581e-01
 1.029072552929171e+00  3.397170625189581e-01 -3.570376806078714e-17

-2.660060902749895e-17 -2.452441662864991e-19  9.408851536084388e-01
-2.452441662864991e-19 -1.610377451624896e-17  4.108441577499866e-01
 9.408851536084388e-01  4.108441577499866e-01 -3.247383914535480e-17

-2.658264321733095e-17 -2.390542603223902e-19  9.476294219784616e-01
-2.390542603223902e-19 -1.599221346948135e-17  4.127251079261038e-01
 9.476294219784616e-01  4.127251079261038e-01 -3.266912588735657e-17

-2.650191449926398e-17 -2.370074433342602e-19  9.466232444739732e-01
-2.370074433342602e-19 -1.552737706662735e-17  4.212289048182020e-01
 9.466232444739732e-01  4.212289048182020e-01 -3.262148194974648e-17

-2.658600223910937e-17 -2.351272135157696e-19  9.602086913068891e-01
-2.351272135157696e-19 -1.580610056758869e-17  4.066937869389978e-01
 9.602086913068891e-01  4.066937869389978e-01 -3.308021438995924e-17

-2.632660216599531e-17 -2.309866351455498e-19  9.475623558000694e-01
-2.309866351455498e-19 -1.577907505266192e-17  4.132852858134561e-01
 9.475623558000694e-01  4.132852858134561e-01 -3.260235706524916e-17

-2.660401871318882e-17 -2.153155458235044e-19  9.797015094572089e-01
-2.153155458235044e-19 -1.630435552785521e-17  3.738370707481625e-01
 9.797015094572089e-01  3.738370707481625e-01 -3.369037082555987e-17

-2.649226242903707e-17 -2.295862485269906e-19  9.658552114492099e-01
-2.295862485269906e-19 -1.591419474635062e-17  4.025785907185928e-01
 9.658552114492099e-01  4.025785907185928e-01 -3.321812166771262e-17

-2.684164015339936e-17 -2.439040535694659e-19  9.907642336296772e-01
-2.439040535694659e-19 -1.603148008894957e-17  4.079284152144864e-01
 9.907642336296772e-01  4.079284152144864e-01 -3.413560172435988e-17

-2.683320795842658e-17 -2.507430709634120e-19  9.895334024847711e-01
-2.507430709634120e-19 -1.583313166659093e-17  4.147567981207860e-01
 9.895334024847711e-01  4.147567981207860e-01 -3.405221763309874e-17

-2.678443080460928e-17 -2.519305359629054e-19  1.000876916038444e+00
-2.519305359629054e-19 -1.644088840542238e-17  3.841944451966030e-01
 1.000876916038444e+00  3.841944451966030e-01 -3.438361553438657e-17

-2.662740070380721e-17 -2.924614571321684e-19  9.855580488637110e-01
-2.924614571321684e-19 -1.568519003557691e-17  4.223172650432915e-01
 9.855580488637110e-01  4.223172650432915e-01 -3.385875115004330e-17

-2.672853812628105e-17 -2.993748778941934e-19  9.974606957968503e-01
-2.993748778941934e-19 -1.585288119672505e-17  4.169557601242092e-01
 9.974606957968503e-01  4.169557601242092e-01 -3.427840405928840e-17

-2.680569395281875e-17 -3.074464261967001e-19  1.014724750246190e+00
-3.074464261967001e-19 -1.599358161675891e-17  4.019185282070931e-01
 1.014724750246190e+00  4.019185282070931e-01 -3.484425349592197e-17

-2.625341878641619e-17 -3.221972151322251e-19  9.836038720544222e-01
-3.221972151322251e-19 -1.549698723623414e-17  4.100593449756112e-01
 9.836038720544222e-01  4.100593449756112e-01 -3.368974034459212e-17

-2.638793228986875e-17 -3.614272005508804e-19  1.015466843007539e+00
-3.614272005508804e-19 -1.645029281072175e-17  3.490818089911676e-01
 1.015466843007539e+00  3.490818089911676e-01 -3.483074821135852e-17

-2.553612900709016e-17 -3.404424534430803e-19  9.503140825065880e-01
-3.404424534430803e-19 -1.507180201347444e-17  4.030079123180733e-01
 9.503140825065880e-01  4.030079123180733e-01 -3.247716653491121e-17

-2.530604040418113e-17 -3.261637502537812e-19  9.461700985557645e-01
-3.261637502537812e-19 -1.506665297424435e-17  4.022503444713355e-01
 9.461700985557645e-01  4.022503444713355e-01 -3.235113029561163e-17

-2.518981237716824e-17 -2.936360407840008e-19  9.445295992027118e-01
-2.936360407840008e-19 -1.491163232240837e-17  3.965410831564239e-01
 9.445295992027118e-01  3.965410831564239e-01 -3.234076803768557e-17

-2.515911648654866e-17 -2.697993796205256e-19  9.444577124404601e-01
-2.697993796205256e-19 -1.500220540638146e-17  3.959641879860604e-01
 9.444577124404601e-01  3.959641879860604e-01 -3.237761703443135e-17

-2.525744342794628e-17 -1.801500150283123e-19  9.512632155994755e-01
-1.801500150283123e-19 -1.486228733899960e-17  3.985697861014728e-01
 9.512632155994755e-01  3.985697861014728e-01 -3.273616176031091e-17

-2.498447573807092e-17 -1.261071477727774e-19  9.471748719839362e-01
-1.261071477727774e-19 -1.469758662959534e-17  3.878516887921979e-01
 9.471748719839362e-01  3.878516887921979e-01 -3.264047394371337e-17

-2.572470583635387e-17  8.802477924944681e-20  9.456465080259118e-01
 8.802477924944681e-20 -1.496108036067431e-17  3.732267460480527e-01
 9.456465080259118e-01  3.732267460480527e-01 -3.260332080739816e-17

-2.677129108701726e-17  3.148606451339591e-19  9.514230745000790e-01
 3.148606451339591e-19 -1.501505871401899e-17  3.783299162070900e-01
 9.514230745000790e-01  3.783299162070900e-01 -3.280935908898966e-17

-1.869867838919600e-17 -1.247759865794147e-18  9.704149336195570e-01
-1.247759865794147e-18 -1.484787757405830e-17  3.689209502894479e-01
 9.704149336195570e-01  3.689209502894479e-01 -3.347498936195986e-17

 1.092494739122938e-17 -6.873972892161054e-18  9.649714474082870e-01
-6.873972892161054e-18 -1.313517210109347e-17  3.997137986494237e-01
 9.649714474082870e-01  3.997137986494237e-01 -3.325425785791843e-17

-5.369460888572105e-17  5.534741656935555e-18  9.322806560676711e-01
 5.534741656935555e-18 -1.492109274147915e-17  4.233080366057587e-01
 9.322806560676711e-01  4.233080366057587e-01 -3.198443181623902e-17

-1.767229894641326e-17 -1.480648066351915e-18  9.696663480018706e-01
-1.480648066351915e-18 -1.470371523525645e-17  3.470394715531214e-01
 9.696663480018706e-01  3.470394715531214e-01 -3.330324792328584e-17

-2.571311600910817e-17  9.439918021755004e-20  9.619722813605809e-01
 9.439918021755004e-20 -1.506170437974256e-17  3.456519242236625e-01
 9.619722813605809e-01  3.456519242236625e-01 -3.294507998498474e-17

-2.505777568585992e-17 -5.934453102056609e-21  9.332828478895856e-01
-5.934453102056609e-21 -1.391887730803128e-17  4.166019660487277e-01
 9.332828478895856e-01  4.166019660487277e-01 -3.191959985015407e-17

-2.541520988282468e-17 -3.220878776040621e-20  9.706436401329059e-01
-3.220878776040621e-20 -1.481094216718377e-17  3.813489208249707e-01
 9.706436401329059e-01  3.813489208249707e-01 -3.319730145714328e-17

-2.563022328408092e-17 -4.626788899605424e-20  9.866470063022419e-01
-4.626788899605424e-20 -1.478603225079336e-17  3.720980009107137e-01
 9.866470063022419e-01  3.720980009107137e-01 -3.373431714407903e-17

-2.563520256200762e-17 -1.019654475264637e-19  9.867962706641775e-01
-1.019654475264637e-19 -1.428764146779944e-17  4.192985959927206e-01
 9.867962706641775e-01  4.192985959927206e-01 -3.377261841528734e-17

-2.540889495919801e-17 -1.368166322080685e-19  9.834860298355752e-01
-1.368166322080685e-19 -1.462130610847488e-17  3.704795732848394e-01
 9.834860298355752e-01  3.704795732848394e-01 -3.357076222749505e-17

-2.525739305791521e-17 -1.360407027727440e-19  9.835789672143962e-01
-1.360407027727440e-19 -1.530225589852228e-17  3.529082601061778e-01
 9.835789672143962e-01  3.529082601061778e-01 -3.349937655326324e-17

-2.550466469305106e-17 -1.900342321852023e-19  9.775191449151438e-01
-1.900342321852023e-19 -1.360257534949915e-17  4.478294006531519e-01
 9.775191449151438e-01  4.478294006531519e-01 -3.346178952061133e-17

-2.547823998319617e-17 -1.930448654113778e-19  9.789808185258606e-01
-1.930448654113778e-19 -1.387499391262891e-17  4.327989203302602e-01
 9.789808185258606e-01  4.327989203302602e-01 -3.343108705875912e-17

-2.535788949011111e-17 -1.963903666587101e-19  9.938335521929607e-01
-1.963903666587101e-19 -1.494804453701762e-17  3.701107567653217e-01
 9.938335521929607e-01  3.701107567653217e-01 -3.392370394787040e-17

-2.501613864405454e-17 -1.927820377290032e-19  9.716345632335787e-01
-1.927820377290032e-19 -1.445953112974404e-17  3.875722280490330e-01
 9.716345632335787e-01  3.875722280490330e-01 -3.309722443783967e-17

-2.479296802334255e-17 -1.960153863227961e-19  9.518926267340960e-01
-1.960153863227961e-19 -1.380151418029461e-17  4.204016837715340e-01
 9.518926267340960e-01  4.204016837715340e-01 -3.240233826944262e-17

-2.475110027913837e-17 -1.893036490107002e-19  9.571082084855534e-01
-1.893036490107002e-19 -1.390954216614212e-17  4.117024300065225e-01
 9.571082084855534e-01  4.117024300065225e-01 -3.258156663105270e-17

-2.436263490897867e-17 -1.862228853561980e-19  9.388705683792363e-01
-1.862228853561980e-19 -1.400673042588575e-17  4.012708584771150e-01
 9.388705683792363e-01  4.012708584771150e-01 -3.193173854311214e-17

-2.453391355066476e-17 -1.684202389844737e-19  9.634571865255221e-01
-1.684202389844737e-19 -1.412149142985676e-17  3.597394256964520e-01
 9.634571865255221e-01  3.597394256964520e-01 -3.280509420047421e-17

-2.427120682976777e-17 -1.552929550199969e-19  9.381570666935907e-01
-1.552929550199969e-19 -1.391540032724694e-17  3.909281112287485e-01
 9.381570666935907e-01  3.909281112287485e-01 -3.192218748333289e-17

-2.451673465374992e-17 -1.106245769208946e-19  9.533341352694269e-01
-1.106245769208946e-19 -1.391947367834147e-17  3.859814413839365e-01
 9.533341352694269e-01  3.859814413839365e-01 -3.250880970709525e-17

-2.491947745691861e-17 -6.911569009126753e-20  9.683670345315307e-01
-6.911569009126753e-20 -1.384562549172629e-17  4.075290593863652e-01
 9.683670345315307e-01  4.075290593863652e-01 -3.314131986333633e-17

-2.522007927744431e-17 -9.967367813333247e-20  9.922866215298742e-01
-9.967367813333247e-20 -1.381268804425823e-17  4.002223335875204e-01
 9.922866215298742e-01  4.002223335875204e-01 -3.398382415358695e-17

-2.507112918624608e-17 -8.822129461330250e-20  9.868257496707953e-01
-8.822129461330250e-20 -1.373561126082820e-17  4.013044395516379e-01
 9.868257496707953e-01  4.013044395516379e-01 -3.369000934675860e-17

-2.406558556298806e-17 -5.477693247730744e-20  9.096575990007834e-01
-5.477693247730744e-20 -1.254015375452956e-17  4.591084515047718e-01
 9.096575990007834e-01  4.591084515047718e-01 -3.083921996432444e-17

-2.413619480081517e-17 -1.739882866715032e-19  9.446573245661425e-01
-1.739882866715032e-19 -1.416556849105217e-17  3.500250233829309e-01
 9.446573245661425e-01  3.500250233829309e-01 -3.207942272496547e-17

-2.465456893099556e-17 -9.089474780174894e-20  9.964250757539925e-01
-9.089474780174894e-20 -1.480754339620544e-17  3.053292382035878e-01
 9.964250757539925e-01  3.053292382035878e-01 -3.369538551499748e-17

-2.374116267481391e-17 -2.706385151798841e-19  8.754038394741805e-01
-2.706385151798841e-19 -1.148845201324352e-17  5.186660054465483e-01
 8.754038394741805e-01  5.186660054465483e-01 -2.987670136077121e-17

-2.442352304944864e-17 -1.986373213970268e-19  9.423643669473269e-01
-1.986373213970268e-19 -1.254353883470623e-17  4.641075289875740e-01
 9.423643669473269e-01  4.641075289875740e-01 -3.208194375420978e-17

-2.427101189237063e-17 -2.310204999259138e-19  9.584411516135370e-01
-2.310204999259138e-19 -1.393343898982531e-17  3.751980741183368e-01
 9.584411516135370e-01  3.751980741183368e-01 -3.256882474641043e-17

-2.408512326270108e-17 -2.178145086838162e-19  9.524797866769594e-01
-2.178145086838162e-19 -1.399141266270226e-17  3.681759276716872e-01
 9.524797866769594e-01  3.681759276716872e-01 -3.231845314148803e-17

-2.397388782580984e-17 -2.144242344744422e-19  9.423590387386332e-01
-2.144242344744422e-19 -1.317608435660986e-17  3.884796585406253e-01
 9.423590387386332e-01  3.884796585406253e-01 -3.196945504223372e-17

-2.391911648631677e-17 -2.249864822408419e-19  9.425633149346768e-01
-2.249864822408419e-19 -1.327690129704137e-17  4.008044385380383e-01
 9.425633149346768e-01  4.008044385380383e-01 -3.204261811643713e-17

-2.384661662660968e-17 -2.064723375376632e-19  9.467399129275276e-01
-2.064723375376632e-19 -1.352608905606130e-17  3.795905403343883e-01
 9.467399129275276e-01  3.795905403343883e-01 -3.220919584133185e-17

-2.464119534804838e-17 -5.440379604523406e-21  9.590549589993764e-01
-5.440379604523406e-21 -1.394227021104445e-17  3.705328614022584e-01
 9.590549589993764e-01  3.705328614022584e-01 -3.267812564129957e-17

-2.203701411691791e-17 -6.758975007451954e-19  9.448821845595464e-01
-6.758975007451954e-19 -1.233445567611325e-17  4.293685671146757e-01
 9.448821845595464e-01  4.293685671146757e-01 -3.225374984697735e-17

-2.705510364692091e-17  7.851734946228787e-19  9.236282362367356e-01
 7.851734946228787e-19 -1.267429652313905e-17  4.310257866755788e-01
 9.236282362367356e-01  4.310257866755788e-01 -3.145239556915547e-17

-7.424242992433967e-17  1.336330692480189e-17  9.515481143489953e-01
 1.336330692480189e-17 -1.756465911116785e-17  3.477663487687758e-01
 9.515481143489953e-01  3.477663487687758e-01 -3.243996457183947e-17

-1.898622583228926e-16  4.444471859890645e-17  9.721846848405261e-01
 4.444471859890645e-17 -2.576528130385442e-17  3.362489232944471e-01
 9.721846848405261e-01  3.362489232944471e-01 -3.308083588583414e-17

 1.892004657759213e-16 -5.736470805308117e-17  8.993297582306855e-01
-5.736470805308117e-17  3.589045574068502e-18  4.599892882475417e-01
 8.993297582306855e-01  4.599892882475417e-01 -3.062592776593440e-17

-4.515954347019072e-17  5.668973088570576e-18  9.233110264472723e-01
 5.668973088570576e-18 -1.348541903464194e-17  4.382580050659716e-01
 9.233110264472723e-01  4.382580050659716e-01 -3.142295932894978e-17

-2.827889946392955e-17  1.110336451065293e-18  9.362238073467211e-01
 1.110336451065293e-18 -1.311923274069501e-17  3.711860078849037e-01
 9.362238073467211e-01  3.711860078849037e-01 -3.185854128261745e-17

-2.878412503121354e-17  1.279733379430728e-18  9.404066907828484e-01
 1.279733379430728e-18 -1.363599545657729e-17  3.602320239321878e-01
 9.404066907828484e-01  3.602320239321878e-01 -3.198032514587168e-17

-2.263232616830059e-17 -4.004170146538427e-19  9.417369571506558e-01
-4.004170146538427e-19 -1.292190585210185e-17  3.733999550848200e-01
 9.417369571506558e-01  3.733999550848200e-01 -3.204796371851025e-17

-2.401297485541311e-17 -8.176122849960094e-20  9.535527929667316e-01
-8.176122849960094e-20 -1.241144188259260e-17  4.065812006169660e-01
 9.535527929667316e-01  4.065812006169660e-01 -3.258689332979987e-17

-2.405932673329638e-17 -2.136039248799361e-20  9.564146334273719e-01
-2.136039248799361e-20 -1.353323949699803e-17  3.678724946005457e-01
 9.564146334273719e-01  3.678724946005457e-01 -3.268814798267953e-17

-2.391370324750307e-17 -2.519784501316413e-21  9.509583773573170e-01
-2.519784501316413e-21 -1.344032996389763e-17  3.624052571454108e-01
 9.509583773573170e-01  3.624052571454108e-01 -3.249862644161943e-17

-2.421489634751757e-17  2.667578010581519e-20  9.601268452831977e-01
 2.667578010581519e-20 -1.297489498627753e-17  3.936647210699987e-01
 9.601268452831977e-01  3.936647210699987e-01 -3.287387551572679e-17

-2.428965565184887e-17  3.239083361796984e-20  9.645359044447954e-01
 3.239083361796984e-20 -1.350832464554176e-17  3.902063866135898e-01
 9.645359044447954e-01  3.902063866135898e-01 -3.301611277026006e-17

-2.422003635848635e-17  2.928859901863787e-20  9.598162630224791e-01
 2.928859901863787e-20 -1.330348358342818e-17  3.889884134397573e-01
 9.598162630224791e-01  3.889884134397573e-01 -3.280767704394511e-17

-2.467076094391895e-17  2.438202617417915e-20  9.998763315288447e-01
 2.438202617417915e-20 -1.412194300023383e-17  3.472160715537029e-01
 9.998763315288447e-01  3.472160715537029e-01 -3.417770135489678e-17

-2.419863098045684e-17  2.030137807373664e-20  9.452684934925174e-01
 2.030137807373664e-20 -1.286973040923749e-17  4.309292940189736e-01
 9.452684934925174e-01  4.309292940189736e-01 -3.226359973526234e-17

-2.421669222644201e-17  1.452021231709872e-20  9.510509494328141e-01
 1.452021231709872e-20 -1.251896451417160e-17  4.278320694746158e-01
 9.510509494328141e-01  4.278320694746158e-01 -3.243412398030251e-17

-2.412361576436560e-17 -3.390589128450852e-20  9.583873847431925e-01
-3.390589128450852e-20 -1.292691830161774e-17  3.868572793036045e-01
 9.583873847431925e-01  3.868572793036045e-01 -3.266009021259912e-17

-2.405714370323494e-17 -3.485315527368768e-20  9.571310057908556e-01
-3.485315527368768e-20 -1.307771344944163e-17  3.822384203078953e-01
 9.571310057908556e-01  3.822384203078953e-01 -3.258016307703584e-17

-2.405288079322478e-17 -3.456957541043756e-20  9.549594465889403e-01
-3.456957541043756e-20 -1.293631310717374e-17  3.901093621041238e-01
 9.549594465889403e-01  3.901093621041238e-01 -3.248483183972499e-17

-2.420917973366068e-17 -3.238700402464494e-20  9.647363140378463e-01
-3.238700402464494e-20 -1.333677886832010e-17  3.862229433087232e-01
 9.647363140378463e-01  3.862229433087232e-01 -3.281444128150390e-17

-2.467483417113547e-17 -7.208485908797896e-20  9.808821450876178e-01
-7.208485908797896e-20 -1.292438567945548e-17  4.253212766519263e-01
 9.808821450876178e-01  4.253212766519263e-01 -3.351804046587661e-17

-2.485932578909901e-17 -5.450624301060634e-20  9.939814891160922e-01
-5.450624301060634e-20 -1.338431020380523e-17  4.268148336646049e-01
 9.939814891160922e-01  4.268148336646049e-01 -3.397582174731507e-17

-2.468782449827109e-17 -6.792934028057353e-20  9.955739507593564e-01
-6.792934028057353e-20 -1.400980490263625e-17  3.699111656666430e-01
 9.955739507593564e-01  3.699111656666430e-01 -3.396406454147598e-17

-2.485469448158144e-17 -4.766734522096311e-20  1.004452847826974e+00
-4.766734522096311e-20 -1.398227213888897e-17  3.676893235072351e-01
 1.004452847826974e+00  3.676893235072351e-01 -3.426163512392474e-17

-2.476574315237390e-17 -6.499582245225767e-20  9.900153122146602e-01
-6.499582245225767e-20 -1.328051290104535e-17  4.191001692193438e-01
 9.900153122146602e-01  4.191001692193438e-01 -3.380552717379858e-17

-2.488800569541997e-17 -6.152867187621047e-20  9.997661439242937e-01
-6.152867187621047e-20 -1.316968347787562e-17  4.123001603198510e-01
 9.997661439242937e-01  4.123001603198510e-01 -3.412854316110973e-17

-2.492543628914069e-17 -8.826796331793485e-20  1.010290077827727e+00
-8.826796331793485e-20 -1.362941724101124e-17  3.841827929192819e-01
 1.010290077827727e+00  3.841827929192819e-01 -3.447330034244688e-17

-2.450027098429235e-17 -7.617424778635553e-20  9.746665748797357e-01
-7.617424778635553e-20 -1.277823483589328e-17  4.154493301259513e-01
 9.746665748797357e-01  4.154493301259513e-01 -3.316788018995696e-17

-2.443174066735567e-17 -1.061320039703732e-19  9.801983352435266e-01
-1.061320039703732e-19 -1.331874466170123e-17  3.960849081741817e-01
 9.801983352435266e-01  3.960849081741817e-01 -3.332315581308084e-17

-2.426570608366181e-17 -1.240247099839802e-19  9.679750735596794e-01
-1.240247099839802e-19 -1.305568215403696e-17  4.095213166684186e-01
 9.679750735596794e-01  4.095213166684186e-01 -3.286633787675997e-17

-2.500763277442174e-17 -4.966717517676733e-20  9.717808613192086e-01
-4.966717517676733e-20 -1.291031221333200e-17  4.097477911133722e-01
 9.717808613192086e-01  4.097477911133722e-01 -3.298109823408062e-17

-2.408964435186546e-17 -1.852698681783532e-19  9.684307558895444e-01
-1.852698681783532e-19 -1.246164214329817e-17  4.219878051445951e-01
 9.684307558895444e-01  4.219878051445951e-01 -3.285401960109256e-17

-1.165102960636396e-17 -1.758534404867150e-18  9.671461723564085e-01
-1.758534404867150e-18 -1.319975991156433e-17  4.130080074845766e-01
 9.671461723564085e-01  4.130080074845766e-01 -3.278529855990817e-17

-1.108991394574293e-16  1.077234787437549e-17  9.830043750140246e-01
 1.077234787437549e-17 -1.419502633470295e-17  4.134493831543392e-01
 9.830043750140246e-01  4.134493831543392e-01 -3.338541256131826e-17

-4.109389359748894e-17  1.880546230629485e-18  1.006837212489834e+00
 1.880546230629485e-18 -1.424109527201415e-17  3.841157935424797e-01
 1.006837212489834e+00  3.841157935424797e-01 -3.425526471713945e-17

-1.887786836786262e-17 -9.343562533967449e-19  9.948295891186162e-01
-9.343562533967449e-19 -1.331436326858602e-17  3.933877406480667e-01
 9.948295891186162e-01  3.933877406480667e-01 -3.387535269662897e-17

-2.663906339693128e-17  5.854144919302682e-20  1.022993367975519e+00
 5.854144919302682e-20 -1.378190169689025e-17  3.886040333322255e-01
 1.022993367975519e+00  3.886040333322255e-01 -3.495452851054597e-17

-2.396941439700236e-17 -1.526809036438079e-19  9.542196143719507e-01
-1.526809036438079e-19 -1.263990619067613e-17  4.408832113750439e-01
 9.542196143719507e-01  4.408832113750439e-01 -3.255375956359213e-17

-2.402647199466892e-17 -9.591725385861570e-20  9.396397679850752e-01
-9.591725385861570e-20 -1.274938779590856e-17  4.357125487548639e-01
 9.396397679850752e-01  4.357125487548639e-01 -3.204507998499098e-17

-2.444191038509773e-17 -6.955867834802225e-20  9.915868718012162e-01
-6.955867834802225e-20 -1.368250692088974e-17  3.758104451917432e-01
 9.915868718012162e-01  3.758104451917432e-01 -3.394980922174294e-17

-2.433749347876766e-17  1.248408679283601e-20  9.831115915860552e-01
 1.248408679283601e-20 -1.327741289419638e-17  4.001086394277020e-01
 9.831115915860552e-01  4.001086394277020e-01 -3.369427860813705e-17

-2.395122801769306e-17  2.187324034536851e-20  9.580528081162104e-01
 2.187324034536851e-20 -1.314133551101882e-17  3.969280549843214e-01
 9.580528081162104e-01  3.969280549843214e-01 -3.273830037873889e-17

-2.401501217628737e-17  1.065127827025714e-20  9.606188910028187e-01
 1.065127827025714e-20 -1.264618859108120e-17  4.063358450702418e-01
 9.606188910028187e-01  4.063358450702418e-01 -3.277201921709962e-17

-2.418786673457481e-17 -2.274208386284530e-20  9.737522283566199e-01
-2.274208386284530e-20 -1.244613361914594e-17  4.067206428846308e-01
 9.737522283566199e-01  4.067206428846308e-01 -3.319032841818117e-17

-2.407251029218434e-17 -3.398518243132942e-20  9.597250554607627e-01
-3.398518243132942e-20 -1.174418130212356e-17  4.388841596357951e-01
 9.597250554607627e-01  4.388841596357951e-01 -3.266824963559578e-17

-2.363043440610746e-17 -7.740522680756768e-20  9.380229691105385e-01
-7.740522680756768e-20 -1.249194155584174e-17  4.172574488350249e-01
 9.380229691105385e-01  4.172574488350249e-01 -3.182201292293936e-17

-2.378111694291474e-17 -1.081468319750241e-19  9.447792439954759e-01
-1.081468319750241e-19 -1.224722187773364e-17  4.291257476113098e-01
 9.447792439954759e-01  4.291257476113098e-01 -3.204507790286840e-17

-2.403286984049358e-17 -9.803563393527274e-20  9.562662582851141e-01
-9.803563393527274e-20 -1.251472645393213e-17  4.302415052002774e-01
 9.562662582851141e-01  4.302415052002774e-01 -3.242639284101656e-17

-2.403491503103757e-17 -1.910662640268959e-19  9.216250455842997e-01
-1.910662640268959e-19 -1.235443243080795e-17  5.024932321092972e-01
 9.216250455842997e-01  5.024932321092972e-01 -3.142170454040730e-17

-2.493735744990621e-17 -9.855137220159974e-20  9.891367080518654e-01
-9.855137220159974e-20 -1.383457982775459e-17  4.456510620634253e-01
 9.891367080518654e-01  4.456510620634253e-01 -3.368929252240665e-17

-2.644392103801177e-17 -4.258083911041690e-20  1.082485445039835e+00
-4.258083911041690e-20 -1.527821133499580e-17  4.048733946410450e-01
 1.082485445039835e+00  4.048733946410450e-01 -3.699042894408701e-17

-3.104097550301363e-17  3.601919726324593e-19  1.456569331141933e+00
 3.601919726324593e-19 -2.067090572114475e-17  1.587890716063445e-01
 1.456569331141933e+00  1.587890716063445e-01 -4.910208445573551e-17

-2.919134207984234e-17 -3.185821799712756e-19  1.178400987775607e+00
-3.185821799712756e-19 -1.554126495395195e-17  5.841565917099673e-01
 1.178400987775607e+00  5.841565917099673e-01 -4.224991349504568e-17

-2.785288110463399e-17 -2.896091750243521e-20  1.047554354985020e+00
-2.896091750243521e-20 -1.313943855417011e-17  7.175422292230816e-01
 1.047554354985020e+00  7.175422292230816e-01 -3.813642138430185e-17

-3.089750869161454e-17 -6.654446166178427e-19  1.384619006472890e+00
-6.654446166178427e-19 -2.063154848124724e-17  2.733188460843526e-01
 1.384619006472890e+00  2.733188460843526e-01 -4.834537619573367e-17

-2.818463231959922e-17 -4.592617398055411e-19  1.172274454901795e+00
-4.592617398055411e-19 -1.747590568976669e-17  3.848616371096484e-01
 1.172274454901795e+00  3.848616371096484e-01 -4.086768713975999e-17

-2.780977837324156e-17 -3.550856816156775e-19  1.160585261340305e+00
-3.550856816156775e-19 -1.732754432955386e-17  3.714948757065881e-01
 1.160585261340305e+00  3.714948757065881e-01 -4.034503283426197e-17

-2.687844798086049e-17 -1.525878511646820e-19  1.109665698382537e+00
-1.525878511646820e-19 -1.611627414186575e-17  4.068925026053587e-01
 1.109665698382537e+00  4.068925026053587e-01 -3.831889880381450e-17

-2.587508949505818e-17  1.497621554936483e-20  1.043059901395676e+00
 1.497621554936483e-20 -1.326656189835655e-17  4.619521250687176e-01
 1.043059901395676e+00  4.619521250687176e-01 -3.576486083274919e-17

-2.471010541928858e-17  4.211935486649780e-20  9.667115445988670e-01
 4.211935486649780e-20 -1.314333905430948e-17  4.889907178910201e-01
 9.667115445988670e-01  4.889907178910201e-01 -3.293202153361877e-17

-2.567279875789536e-17 -3.671621216925448e-19  1.080835961958083e+00
-3.671621216925448e-19 -1.572424244851896e-17  3.171676853075835e-01
 1.080835961958083e+00  3.171676853075835e-01 -3.714572004365014e-17

-2.557350587089837e-17 -3.599882194850313e-19  1.089122485759963e+00
-3.599882194850313e-19 -1.664729763785255e-17  2.794459224181000e-01
 1.089122485759963e+00  2.794459224181000e-01 -3.739121487483016e-17

-2.395329769986777e-17 -1.643285957770901e-19  9.549834605646917e-01
-1.643285957770901e-19 -1.379707182788641e-17  3.935564984471335e-01
 9.549834605646917e-01  3.935564984471335e-01 -3.248015271449067e-17

-2.425352341504809e-17 -1.067546005562969e-19  9.718764483797807e-01
-1.067546005562969e-19 -1.273310931647761e-17  4.299593791159344e-01
 9.718764483797807e-01  4.299593791159344e-01 -3.310317483664126e-17

-2.421829310442742e-17 -7.901785800586925e-20  9.576398561955621e-01
-7.901785800586925e-20 -1.188790713025268e-17  4.825537313681179e-01
 9.576398561955621e-01  4.825537313681179e-01 -3.266231788989538e-17

-2.486478006260718e-17 -7.889982429555082e-20  1.022694899001260e+00
-7.889982429555082e-20 -1.363150107981692e-17  4.018837516209343e-01
 1.022694899001260e+00  4.018837516209343e-01 -3.496580198122768e-17

-2.437667529596402e-17 -3.163726534848700e-20  9.858096973768323e-01
-3.163726534848700e-20 -1.283619518757617e-17  4.322905267492381e-01
 9.858096973768323e-01  4.322905267492381e-01 -3.361483628632580e-17

-2.318037618816835e-17 -2.192485157468711e-20  9.181993814732115e-01
-2.192485157468711e-20 -1.286238282433532e-17  3.780295549113732e-01
 9.181993814732115e-01  3.780295549113732e-01 -3.107069839022444e-17

-2.450116618622265e-17  2.446169718265394e-19  1.027559929656769e+00
 2.446169718265394e-19 -1.451937710690604e-17  2.823232667621150e-01
 1.027559929656769e+00  2.823232667621150e-01 -3.438897460243099e-17

-2.585821212227279e-17 -3.728718538138854e-19  1.027235272678328e+00
-3.728718538138854e-19 -1.284645970615606e-17  5.150236983745194e-01
 1.027235272678328e+00  5.150236983745194e-01 -3.629632265443199e-17

-2.738500952377053e-17  2.350871209905874e-19  1.173623740174402e+00
 2.350871209905874e-19 -1.448126169115366e-17  4.030851921496628e-01
 1.173623740174402e+00  4.030851921496628e-01 -4.054579064242879e-17

-2.456481613334053e-17 -2.430823738467684e-19  1.005656429621206e+00
-2.430823738467684e-19 -1.323617618583508e-17  3.702472927266622e-01
 1.005656429621206e+00  3.702472927266622e-01 -3.437732624057519e-17

-2.249410583477487e-17 -4.420967130800281e-19  8.854526306479020e-01
-4.420967130800281e-19 -1.265270580923269e-17  3.687507537900201e-01
 8.854526306479020e-01  3.687507537900201e-01 -3.003861412162287e-17

-2.216704674722118e-17 -1.328533842386454e-19  8.704759984593343e-01
-1.328533842386454e-19 -1.036637759573074e-17  4.487486558088469e-01
 8.704759984593343e-01  4.487486558088469e-01 -2.927812167879750e-17

-2.225259827628215e-17 -1.047828008192706e-19  8.950790838112126e-01
-1.047828008192706e-19 -1.066241937524641e-17  3.825408852078477e-01
 8.950790838112126e-01  3.825408852078477e-01 -3.014856533746540e-17

-2.421794849862362e-17 -4.290309188151112e-20  1.076641107836675e+00
-4.290309188151112e-20 -1.471360795355481e-17  2.152607346617523e-01
 1.076641107836675e+00  2.152607346617523e-01 -3.647554967849354e-17

-2.130943977820424e-17 -1.244720854426817e-19  8.022373102883216e-01
-1.244720854426817e-19 -9.465430835683060e-18  4.695409437778186e-01
 8.022373102883216e-01  4.695409437778186e-01 -2.694857000836696e-17

-2.201973331306250e-17 -1.049229756520572e-19  8.571096133560103e-01
-1.049229756520572e-19 -1.118927178856588e-17  4.376032466206099e-01
 8.571096133560103e-01  4.376032466206099e-01 -2.897781098593691e-17

-2.357982971389939e-17 -6.511207601818971e-20  9.904087315246379e-01
-6.511207601818971e-20 -1.108664697214776e-17  3.341565942437379e-01
 9.904087315246379e-01  3.341565942437379e-01 -3.368271882017060e-17

-2.322615389995563e-17 -8.044503609025503e-20  9.341983866191760e-01
-8.044503609025503e-20 -1.129450292657007e-17  4.108351694858450e-01
 9.341983866191760e-01  4.108351694858450e-01 -3.188693942554576e-17

-2.380835430929057e-17 -4.246217309245628e-20  9.711799987492729e-01
-4.246217309245628e-20 -1.184215471101394e-17  3.881584990327685e-01
 9.711799987492729e-01  3.881584990327685e-01 -3.321693273993465e-17

-2.398947806212725e-17 -1.427839571623695e-20  9.719843896601422e-01
-1.427839571623695e-20 -1.235815396710709e-17  4.022928765567013e-01
 9.719843896601422e-01  4.022928765567013e-01 -3.328530418565008e-17

-2.423191197311511e-17  1.444763110798744e-20  9.923635382476791e-01
 1.444763110798744e-20 -1.276402232878892e-17  3.852966584335648e-01
 9.923635382476791e-01  3.852966584335648e-01 -3.399420202266720e-17

-2.411087745378306e-17  3.692006658720149e-20  9.810028720454262e-01
 3.692006658720149e-20 -1.285804490777666e-17  3.886248803000446e-01
 9.810028720454262e-01  3.886248803000446e-01 -3.357003518148066e-17

-2.403977703768979e-17  6.433878363392195e-20  9.797613792408176e-01
 6.433878363392195e-20 -1.253391475936852e-17  3.890784039514992e-01
 9.797613792408176e-01  3.890784039514992e-01 -3.345510523739096e-17

-2.426230302780749e-17 -3.006090193012769e-20  1.027957426147224e+00
-3.006090193012769e-20 -1.387746286347773e-17  2.636109187933433e-01
 1.027957426147224e+00  2.636109187933433e-01 -3.503911563588101e-17

-2.397402342996667e-17 -1.643783917896817e-20  9.946768416772803e-01
-1.643783917896817e-20 -1.401611612429938e-17  3.258092009825591e-01
 9.946768416772803e-01  3.258092009825591e-01 -3.382379064436957e-17

-2.607710564262164e-17 -2.291614240329922e-19  1.092958294875931e+00
-2.291614240329922e-19 -1.520522283375147e-17  3.644898596151489e-01
 1.092958294875931e+00  3.644898596151489e-01 -3.779979421087357e-17

-2.505100926104277e-17 -1.142362253548619e-19  1.021294050304490e+00
-1.142362253548619e-19 -1.428741673580920e-17  4.199253998726767e-01
 1.021294050304490e+00  4.199253998726767e-01 -3.510736721156464e-17

-2.723570444686362e-17 -1.633844595050577e-19  1.148108027927227e+00
-1.633844595050577e-19 -1.534324741147045e-17  4.297011928568941e-01
 1.148108027927227e+00  4.297011928568941e-01 -4.012474564861247e-17

-2.796168033789371e-17 -7.767683389129164e-19  1.149553248404995e+00
-7.767683389129164e-19 -1.461430646587264e-17  5.516847172721057e-01
 1.149553248404995e+00  5.516847172721057e-01 -4.243596167840933e-17

-2.225851608090330e-17 -1.695456479590001e-18  6.238788241200963e-01
-1.695456479590001e-18 -1.031995020756702e-17  9.261363250747973e-01
 6.238788241200963e-01  9.261363250747973e-01 -2.868551733129293e-17

-2.408713067549870e-17  4.670324529571269e-19  1.020883885520518e+00
 4.670324529571269e-19 -1.409235780587747e-17  2.984844258483145e-01
 1.020883885520518e+00  2.984844258483145e-01 -3.306555054189220e-17

-2.337680816906255e-17  8.150185831897238e-19  1.060060891953638e+00
 8.150185831897238e-19 -1.597197482914468e-17  8.346511905418008e-02
 1.060060891953638e+00  8.346511905418008e-02 -3.151104545815674e-17

-2.296915508112112e-17  2.283253833142743e-20  8.848416816807899e-01
 2.283253833142743e-20 -1.051119766030148e-17  4.683217653530250e-01
 8.848416816807899e-01  4.683217653530250e-01 -2.998819997218670e-17

-2.590405392955506e-17 -3.209346600541649e-19  1.085140369328829e+00
-3.209346600541649e-19 -1.476889678408122e-17  3.885803521454353e-01
 1.085140369328829e+00  3.885803521454353e-01 -3.751639529442936e-17

-2.746593188569387e-17 -3.216978959691960e-19  1.169971338889804e+00
-3.216978959691960e-19 -1.722467787398430e-17  4.060231162296910e-01
 1.169971338889804e+00  4.060231162296910e-01 -4.087009716222466e-17

-2.740338883732134e-17 -1.179231496336704e-18  9.782856355716354e-01
-1.179231496336704e-18 -5.977573707433263e-18  8.498059001295796e-01
 9.782856355716354e-01  8.498059001295796e-01 -4.105364755611265e-17

-2.598074474274197e-17 -6.353762517620099e-19  9.907943222035641e-01
-6.353762517620099e-19 -1.258814434877913e-17  6.037514111215050e-01
 9.907943222035641e-01  6.037514111215050e-01 -3.697391744182913e-17

-3.020367100835999e-17  1.718434168079439e-18  1.610988492366857e+00
 1.718434168079439e-18 -2.157272552290226e-17 -1.698517959813595e-01
 1.610988492366857e+00 -1.698517959813595e-01 -4.668129683204584e-17

-2.293421480520084e-17  5.441749725728453e-19  9.168978565732330e-01
 5.441749725728453e-19 -1.368676184130762e-17  3.622489310446634e-01
 9.168978565732330e-01  3.622489310446634e-01 -2.949502203567369e-17

-2.457058827536514e-17  1.309817317159176e-19  9.887317219928926e-01
 1.309817317159176e-19 -1.338440093685418e-17  4.774066060378497e-01
 9.887317219928926e-01  4.774066060378497e-01 -3.384787349911468e-17

-2.531540350044916e-17 -1.034656709180563e-19  1.024364106698352e+00
-1.034656709180563e-19 -1.162440255958103e-17  5.277214423482135e-01
 1.024364106698352e+00  5.277214423482135e-01 -3.559606201000583e-17

-2.273677427295640e-17 -3.533787063795440e-19  8.100273804928855e-01
-3.533787063795440e-19 -9.037018517944097e-18  6.589100724851897e-01
 8.100273804928855e-01  6.589100724851897e-01 -2.849748652538509e-17

-2.312060818379498e-17  9.123856916705978e-20  9.397416937099181e-01
 9.123856916705978e-20 -1.397564942793689e-17  3.372822293961856e-01
 9.397416937099181e-01  3.372822293961856e-01 -3.152012076870944e-17

-2.353747104032611e-17 -5.034128580879754e-19  9.677955641547489e-01
-5.034128580879754e-19 -1.557914033204757e-17  2.835920972883799e-01
 9.677955641547489e-01  2.835920972883799e-01 -3.283609172955297e-17

-2.301158293918427e-17 -5.405334350165967e-19  8.799505578885360e-01
-5.405334350165967e-19 -1.510492818838482e-17  4.272457493993965e-01
 8.799505578885360e-01  4.272457493993965e-01 -3.005633502694477e-17

-2.457946839488682e-17 -8.748356213661959e-20  9.817290781804233e-01
-8.748356213661959e-20 -1.403405828997330e-17  4.563162450440925e-01
 9.817290781804233e-01  4.563162450440925e-01 -3.377795755655513e-17

-2.696409275715460e-17  5.204367988402214e-19  1.111906098645295e+00
 5.204367988402214e-19 -1.419637504607333e-17  4.967312393945612e-01
 1.111906098645295e+00  4.967312393945612e-01 -3.867656623134868e-17

-2.784914360301937e-17 -1.484029706567221e-19  1.173641061676682e+00
-1.484029706567221e-19 -1.748607713910869e-17  4.538022611852048e-01
 1.173641061676682e+00  4.538022611852048e-01 -4.145604497310990e-17

-3.444449204664324e-17  8.866796677758634e-19  1.214664043070714e+00
 8.866796677758634e-19 -1.306363335188243e-17  4.403128949977674e-01
 1.214664043070714e+00  4.403128949977674e-01 -4.337418412198950e-17

-8.495303653244206e-17  1.221067588415091e-17  1.349183161381875e+00
 1.221067588415091e-17 -8.243427811447405e-18  4.669034888964780e-01
 1.349183161381875e+00  4.669034888964780e-01 -4.869492398345070e-17

-8.955397323838868e-17  1.348160926937037e-17  1.182224297152460e+00
 1.348160926937037e-17 -1.918510277845805e-17  6.941183862263461e-01
 1.182224297152460e+00  6.941183862263461e-01 -4.349021897089731e-17

-5.980919957971464e-17  8.329593155359482e-18  1.368438126877016e+00
 8.329593155359482e-18 -1.858517869599140e-17  5.244592296394741e-01
 1.368438126877016e+00  5.244592296394741e-01 -4.989113194267281e-17

 2.059509718175656e-16 -4.723466925768165e-17  1.357680975354571e+00
-4.723466925768165e-17 -1.699434850118507e-17  4.923406759959694e-01
 1.357680975354571e+00  4.923406759959694e-01 -4.935708029996777e-17

 1.907007499041466e-16 -4.169125823581685e-17  1.169764534557018e+00
-4.169125823581685e-17 -2.308188941454804e-17  6.249928645179909e-01
 1.169764534557018e+00  6.249928645179909e-01 -4.291337212203374e-17

-8.250122530041005e-17  9.448402757749487e-18  1.324779723099593e+00
 9.448402757749487e-18 -6.725421959497886e-18  3.771111524751606e-01
 1.324779723099593e+00  3.771111524751606e-01 -4.656721490087237e-17

-2.693581692019935e-17 -7.695997062914528e-19  1.277008137952245e+00
-7.695997062914528e-19 -5.072564787484754e-18  3.639224434669908e-01
 1.277008137952245e+00  3.639224434669908e-01 -4.439210456103086e-17

-6.951155415858025e-17  7.682216361645915e-18  1.111312502412981e+00
 7.682216361645915e-18 -1.345877546876088e-17  4.746198530979880e-01
 1.111312502412981e+00  4.746198530979880e-01 -3.864414436238980e-17

-2.874073499897425e-17  8.275640167167599e-19  1.086500506353869e+00
 8.275640167167599e-19 -2.127412588029828e-17  5.024081652572051e-01
 1.086500506353869e+00  5.024081652572051e-01 -3.780534586651834e-17

-2.456834997290267e-17 -1.221762497381571e-18  1.111441271277897e+00
-1.221762497381571e-18 -2.098791413168989e-17  5.032162615184318e-01
 1.111441271277897e+00  5.032162615184318e-01 -3.871779971583211e-17

-1.240953190948926e-17 -6.251801369789507e-18  1.113999666654791e+00
-6.251801369789507e-18 -1.199319597014872e-17  5.248746504461534e-01
 1.113999666654791e+00  5.248746504461534e-01 -3.886134540249561e-17

-3.822040592854301e-17  3.936421296993821e-18  1.117547614991631e+00
 3.936421296993821e-18 -1.810647148045874e-17  5.167643951111434e-01
 1.117547614991631e+00  5.167643951111434e-01 -3.898461266233140e-17

-5.338530723674165e-17  1.012844476460545e-17  1.123267412517145e+00
 1.012844476460545e-17 -3.238563925050941e-17  5.000470699032603e-01
 1.123267412517145e+00  5.000470699032603e-01 -3.922848164017329e-17

-2.695786535381785e-17 -8.228758934975902e-19  1.153793376546792e+00
-8.228758934975902e-19 -1.468154715162636e-17  4.873095092913129e-01
 1.153793376546792e+00  4.873095092913129e-01 -4.053645071214149e-17

-2.990748008290166e-17  1.882830779908592e-19  1.223853624209494e+00
 1.882830779908592e-19 -3.106147490758228e-17  4.920547718057782e-01
 1.223853624209494e+00  4.920547718057782e-01 -4.336864701010489e-17

-2.996473110780731e-17  5.486670787171712e-21  1.233773578647066e+00
 5.486670787171712e-21 -2.911357592367262e-17  5.726878378998930e-01
 1.233773578647066e+00  5.726878378998930e-01 -4.414484878382908e-17

-3.001601232661398e-17 -3.914086167169773e-21  1.255918210287068e+00
-3.914086167169773e-21 -3.407798578201827e-17  5.075545163535795e-01
 1.255918210287068e+00  5.075545163535795e-01 -4.479037270958018e-17

-2.941221718797544e-17 -1.977418075558534e-20  1.191765961684284e+00
-1.977418075558534e-20 -2.100442106070389e-17  5.098768639771200e-01
 1.191765961684284e+00  5.098768639771200e-01 -4.223243074127991e-17

-2.856124847132779e-17 -1.955436376609739e-19  1.150021386776636e+00
-1.955436376609739e-19 -9.764806984962276e-18  4.989085439373205e-01
 1.150021386776636e+00  4.989085439373205e-01 -4.045585202173393e-17

-3.281761920583720e-17  1.328327732313977e-18  1.125542506885199e+00
 1.328327732313977e-18 -1.086780592513410e-17  4.607121053670680e-01
 1.125542506885199e+00  4.607121053670680e-01 -3.933637967840866e-17

-5.467393950624228e-17  7.783487313679452e-18  1.140745564035423e+00
 7.783487313679452e-18 -5.006667628534395e-18  5.456599524654629e-01
 1.140745564035423e+00  5.456599524654629e-01 -4.018544003966088e-17

 1.266748289403929e-16 -4.765939294837447e-17  1.105825961906013e+00
-4.765939294837447e-17 -9.764152526782255e-18  6.009656280951788e-01
 1.105825961906013e+00  6.009656280951788e-01 -3.914024661143332e-17

 3.415073346850664e-17 -1.912739650671799e-17  1.110400429850362e+00
-1.912739650671799e-17 -5.998902579587490e-18  4.593133278652241e-01
 1.110400429850362e+00  4.593133278652241e-01 -3.862740457204320e-17

-3.246233663289834e-17  1.490175214577345e-18  1.102751178820304e+00
 1.490175214577345e-18 -2.415772299268060e-17  5.016956152621127e-01
 1.102751178820304e+00  5.016956152621127e-01 -3.865667918046602e-17

-2.958301501425001e-17 -2.514244897940886e-19  1.238365718038976e+00
-2.514244897940886e-19 -1.950546602430250e-17  4.600194514451804e-01
 1.238365718038976e+00  4.600194514451804e-01 -4.397622061169125e-17

-3.095809905857648e-17 -6.750217507564439e-21  1.286617797942898e+00
-6.750217507564439e-21 -2.612955290284400e-17  5.579206343996349e-01
 1.286617797942898e+00  5.579206343996349e-01 -4.628452938764420e-17

-2.942352386001402e-17 -5.763926675030293e-19  1.100977250761709e+00
-5.763926675030293e-19  2.441390917103299e-18  7.720854072666620e-01
 1.100977250761709e+00  7.720854072666620e-01 -4.079637596153917e-17

-3.151564507570167e-17 -3.905467415721473e-19  1.349317914877371e+00
-3.905467415721473e-19 -7.002673149754840e-18  4.591984145618102e-01
 1.349317914877371e+00  4.591984145618102e-01 -4.820681496610951e-17

-3.026258376099423e-17 -8.268438080702145e-20  1.287824717557890e+00
-8.268438080702145e-20 -1.893287842111883e-17  4.169133929680323e-01
 1.287824717557890e+00  4.169133929680323e-01 -4.536895088153933e-17

-2.842222798262206e-17 -3.156234746379839e-19  1.152443024198613e+00
-3.156234746379839e-19 -6.398093813519393e-18  4.905979366908694e-01
 1.152443024198613e+00  4.905979366908694e-01 -4.052975966272992e-17

-2.758850105902621e-17 -4.197373074163805e-19  1.117341897145025e+00
-4.197373074163805e-19  2.919894576978914e-18  4.655105219072757e-01
 1.117341897145025e+00  4.655105219072757e-01 -3.896450864844211e-17

-2.735775715699141e-17  1.240743189823374e-19  1.107297076083444e+00
 1.240743189823374e-19 -3.171264407877937e-17  4.795328759795023e-01
 1.107297076083444e+00  4.795328759795023e-01 -3.865538926490273e-17

-2.720330318754164e-17 -4.992157666060418e-20  1.091811487063140e+00
-4.992157666060418e-20 -2.113534188655404e-17  5.113775504912500e-01
 1.091811487063140e+00  5.113775504912500e-01 -3.815600621257422e-17

-2.681548284202038e-17  1.208408219281383e-19  1.079127306349212e+00
 1.208408219281383e-19 -3.020578219031974e-17  4.813464421497028e-01
 1.079127306349212e+00  4.813464421497028e-01 -3.753655475076992e-17

-2.665490842339328e-17 -1.307133813921468e-19  1.076069712206970e+00
-1.307133813921468e-19 -1.610898716880609e-17  4.622739443414952e-01
 1.076069712206970e+00  4.622739443414952e-01 -3.735264941202792e-17

-2.658639753732406e-17 -5.860727402533035e-19  1.054002374772225e+00
-5.860727402533035e-19  1.258160710035845e-17  5.261890623469242e-01
 1.054002374772225e+00  5.261890623469242e-01 -3.666430722696756e-17

-2.692379920282181e-17 -1.765112678812366e-19  1.087993064678409e+00
-1.765112678812366e-19 -1.348828959979366e-17  4.831606083067685e-01
 1.087993064678409e+00  4.831606083067685e-01 -3.783823461582889e-17

-2.670282771696042e-17 -3.272434518964143e-19  1.076223661562890e+00
-3.272434518964143e-19 -2.944175176089283e-18  4.659306415682276e-01
 1.076223661562890e+00  4.659306415682276e-01 -3.737670159110951e-17

-2.690879150685944e-17 -2.490331820260319e-19  1.093867800481920e+00
-2.490331820260319e-19 -6.321587934640686e-18  4.401098505409526e-01
 1.093867800481920e+00  4.401098505409526e-01 -3.803760176927925e-17

-2.712324286133565e-17  2.021601952520516e-20  1.105147033548653e+00
 2.021601952520516e-20 -2.154051733186643e-17  4.349601021869295e-01
 1.105147033548653e+00  4.349601021869295e-01 -3.848972607810780e-17

-2.707350851247775e-17 -5.565771310722802e-20  1.093339048002903e+00
-5.565771310722802e-20 -1.445946774349919e-17  4.777911819741554e-01
 1.093339048002903e+00  4.777911819741554e-01 -3.819722808702282e-17

-2.654598255343251e-17  2.706810542990581e-19  1.076231826128842e+00
 2.706810542990581e-19 -3.379240697378795e-17  4.200111232688941e-01
 1.076231826128842e+00  4.200111232688941e-01 -3.741005856471793e-17

-2.643409615780464e-17  8.731434844617229e-20  1.076851705385337e+00
 8.731434844617229e-20 -2.373848531491472e-17  4.000070433076440e-01
 1.076851705385337e+00  4.000070433076440e-01 -3.741006995831275e-17

-2.636335156329098e-17 -1.581638161309082e-19  1.055938823992605e+00
-1.581638161309082e-19 -8.464342730252464e-18  4.772947189425695e-01
 1.055938823992605e+00  4.772947189425695e-01 -3.674806104767038e-17

-2.634777370862034e-17 -3.474156399165009e-19  1.067361222260817e+00
-3.474156399165009e-19 -3.107260806106523e-18  4.472191737950845e-01
 1.067361222260817e+00  4.472191737950845e-01 -3.707371778871292e-17

-2.597243369020846e-17 -2.178603963668675e-19  1.048148973882951e+00
-2.178603963668675e-19 -1.813609639694133e-17  4.514172085075822e-01
 1.048148973882951e+00  4.514172085075822e-01 -3.621729494791914e-17

-2.605020033048818e-17 -5.080219839855012e-19  1.052106676179275e+00
-5.080219839855012e-19 -6.673042189591870e-18  4.686507190636974e-01
 1.052106676179275e+00  4.686507190636974e-01 -3.627137053244617e-17

-2.562811284077431e-17 -2.230279689821499e-19  1.014600924475836e+00
-2.230279689821499e-19 -2.261622984644467e-17  4.837074771648295e-01
 1.014600924475836e+00  4.837074771648295e-01 -3.487855724114017e-17

-2.638873974068175e-17 -1.777706461465221e-19  1.087039684986147e+00
-1.777706461465221e-19 -2.413687031784023e-17  3.802220106665224e-01
 1.087039684986147e+00  3.802220106665224e-01 -3.734244352659058e-17

-2.604991110309265e-17 -3.210197817843770e-19  1.043026775009224e+00
-3.210197817843770e-19 -1.295621635104480e-17  4.893652839046605e-01
 1.043026775009224e+00  4.893652839046605e-01 -3.600401624635259e-17

-2.635361641566999e-17 -7.196800282840830e-20  1.080680654347241e+00
-7.196800282840830e-20 -2.569375572264473e-17  4.056114833497531e-01
 1.080680654347241e+00  4.056114833497531e-01 -3.728884339116551e-17

-2.649569413456461e-17 -3.792176564715647e-19  1.077565814285206e+00
-3.792176564715647e-19  6.961753826389549e-19  4.218786073328479e-01
 1.077565814285206e+00  4.218786073328479e-01 -3.727194847234349e-17

-3.442189814741423e-17  2.661484212497196e-18  1.101067776880140e+00
 2.661484212497196e-18 -4.615769692691499e-17  4.807430134532215e-01
 1.101067776880140e+00  4.807430134532215e-01 -3.849897474756967e-17

-3.954370752990053e-17  4.358391908957403e-18  8.362305597069020e-01
 4.358391908957403e-18 -3.306066655826832e-17  7.510052825011877e-01
 8.362305597069020e-01  7.510052825011877e-01 -3.117195353650177e-17

-1.714909706418811e-17 -1.355357724064420e-18  8.577202793844421e-01
-1.355357724064420e-18 -3.532325775936028e-17  4.084766066696878e-01
 8.577202793844421e-01  4.084766066696878e-01 -2.847693236419127e-17

-1.394100829760889e-16  3.558326625786176e-17  9.997313800066153e-01
 3.558326625786176e-17 -2.134143802728648e-17  1.971844297948683e-01
 9.997313800066153e-01  1.971844297948683e-01 -3.203018844684776e-17

 1.229497588837843e-17 -1.180062955518802e-17  8.994331166474627e-01
-1.180062955518802e-17 -1.777988351554630e-17  4.889191302034654e-01
 8.994331166474627e-01  4.889191302034654e-01 -3.108593695385856e-17

-3.810020560308603e-17  2.937450458811396e-18  1.309027552233723e+00
 2.937450458811396e-18 -5.753643492222754e-18  4.223728559740874e-01
 1.309027552233723e+00  4.223728559740874e-01 -4.660390946606289e-17

-3.042589212925570e-17  9.001313122046349e-19  1.117232960674984e+00
 9.001313122046349e-19 -2.607110052619566e-17  8.089569936793422e-01
 1.117232960674984e+00  8.089569936793422e-01 -4.261116630309146e-17

-3.277614319701305e-17 -3.786606211930158e-19  1.321532498091853e+00
-3.786606211930158e-19  7.464978974007182e-18  6.088073016936094e-01
 1.321532498091853e+00  6.088073016936094e-01 -4.880753515243313e-17

-3.128486845373116e-17 -3.913875603708002e-19  1.373529562979322e+00
-3.913875603708002e-19  7.438361175889323e-18  3.384435749619138e-01
 1.373529562979322e+00  3.384435749619138e-01 -4.825427398190407e-17

-2.932968794384458e-17  5.650983330896358e-19  1.166826992728759e+00
 5.650983330896358e-19 -3.687120478574908e-17  4.026154505915239e-01
 1.166826992728759e+00  4.026154505915239e-01 -4.071486712740018e-17

-3.505882291868953e-17  2.993941230371464e-18  1.080191686039939e+00
 2.993941230371464e-18 -5.608057885064894e-18  4.164467083865487e-01
 1.080191686039939e+00  4.164467083865487e-01 -3.746892455872196e-17

 2.679808087073969e-17 -2.194698227426092e-17  1.067904480267615e+00
-2.194698227426092e-17  5.279063686789425e-18  4.424783754629438e-01
 1.067904480267615e+00  4.424783754629438e-01 -3.719529017208613e-17

 3.268186887617629e-16 -1.427330038954023e-16  1.055229028389014e+00
-1.427330038954023e-16  4.160416504025865e-17  4.844142462132662e-01
 1.055229028389014e+00  4.844142462132662e-01 -3.679172008467523e-17

-4.528765002501162e-17  6.370958745075119e-18  1.040741150870704e+00
 6.370958745075119e-18  4.972204180312532e-17  4.910617783772356e-01
 1.040741150870704e+00  4.910617783772356e-01 -3.621246408891983e-17

-2.200758191606182e-17 -1.947922392447587e-18  1.046477134497578e+00
-1.947922392447587e-18 -2.988682850154626e-17  4.711541663503939e-01
 1.046477134497578e+00  4.711541663503939e-01 -3.636031555819415e-17

-2.966569707172366e-17  2.035331048701735e-20  1.160442282473397e+00
 2.035331048701735e-20 -1.901392562967990e-17  4.292995503187565e-01
 1.160442282473397e+00  4.292995503187565e-01 -4.066280196379818e-17

-2.957725386918071e-17 -1.955941203123681e-19  1.215987063359977e+00
-1.955941203123681e-19 -3.265449771310302e-17  5.107677769862838e-01
 1.215987063359977e+00  5.107677769862838e-01 -4.290725697747183e-17

-2.896644765130092e-17 -1.387373697244423e-19  1.096895090186477e+00
-1.387373697244423e-19 -3.488461126868457e-17  6.901223556694969e-01
 1.096895090186477e+00  6.901223556694969e-01 -3.934264662591767e-17

-3.087825574714485e-17 -5.740279344293773e-19  1.292233114346242e+00
-5.740279344293773e-19 -6.985196630008565e-18  4.549321396441215e-01
 1.292233114346242e+00  4.549321396441215e-01 -4.577626268288804e-17

-2.968502856749779e-17  1.040940753522603e-19  1.196692457690259e+00
 1.040940753522603e-19 -5.016651896210652e-17  4.706047255125263e-01
 1.196692457690259e+00  4.706047255125263e-01 -4.220578426941401e-17

-2.870466430055148e-17 -3.004775876806673e-19  1.143635553482319e+00
-3.004775876806673e-19 -1.632324978310062e-17  4.601780052307241e-01
 1.143635553482319e+00  4.601780052307241e-01 -4.002312642829323e-17

-2.818571646376774e-17 -4.655028056906447e-19  1.121596472006168e+00
-4.655028056906447e-19  4.460170616418474e-19  4.513131450453718e-01
 1.121596472006168e+00  4.513131450453718e-01 -3.910053945503528e-17

-2.782912156230291e-17 -1.155977547549933e-19  1.104199696937333e+00
-1.155977547549933e-19 -2.155734502311162e-17  4.503403278058269e-01
 1.104199696937333e+00  4.503403278058269e-01 -3.847055820177921e-17

-2.740911982915580e-17 -4.176853020885012e-19  1.078387257901963e+00
-4.176853020885012e-19  2.105395905993858e-18  4.607111051646697e-01
 1.078387257901963e+00  4.607111051646697e-01 -3.754041879286992e-17

-2.673046711378990e-17 -8.569713509560264e-19  1.035475356748623e+00
-8.569713509560264e-19  3.165186742302556e-17  4.773724090196862e-01
 1.035475356748623e+00  4.773724090196862e-01 -3.598070116723022e-17

-2.646441759579561e-17 -1.798382402629994e-19  1.027933175365180e+00
-1.798382402629994e-19 -1.382480018026109e-17  4.555428483110511e-01
 1.027933175365180e+00  4.555428483110511e-01 -3.561593827831153e-17

-2.669595402691040e-17  1.551583394339747e-19  1.042776376159066e+00
 1.551583394339747e-19 -3.992925912095762e-17  4.545031430975627e-01
 1.042776376159066e+00  4.545031430975627e-01 -3.612260372836598e-17

-2.681008422009535e-17  2.554479319872420e-20  1.052221863852794e+00
 2.554479319872420e-20 -3.197015606090292e-17  4.407118671661812e-01
 1.052221863852794e+00  4.407118671661812e-01 -3.643161421355685e-17

-2.652050653992965e-17 -1.350399007241170e-19  1.006357956767035e+00
-1.350399007241170e-19 -2.439627781200380e-17  5.301813931257812e-01
 1.006357956767035e+00  5.301813931257812e-01 -3.502601912468865e-17

-2.686869069909160e-17 -6.217054847349740e-19  1.066975370336790e+00
-6.217054847349740e-19  1.082119888848365e-17  4.070964542382544e-01
 1.066975370336790e+00  4.070964542382544e-01 -3.694200825236497e-17

-2.528283198463295e-17 -2.758560051698220e-19  9.030399126226250e-01
-2.758560051698220e-19 -3.211240736031410e-17  6.193829886155015e-01
 9.030399126226250e-01  6.193829886155015e-01 -3.233005297663998e-17

-2.484966401931619e-17  6.746056269228136e-19  9.774457463107427e-01
 6.746056269228136e-19 -5.445382586388014e-17  3.121702293447180e-01
 9.774457463107427e-01  3.121702293447180e-01 -3.270510410811057e-17

-2.448771310870316e-17 -1.470221957486061e-19  9.419444535683632e-01
-1.470221957486061e-19 -2.211210896222685e-17  3.141398597015559e-01
 9.419444535683632e-01  3.141398597015559e-01 -3.183198224016347e-17

-2.556108715340421e-17  9.117798300333274e-19  9.532740974609196e-01
 9.117798300333274e-19 -5.908915536415204e-17  5.240637865530833e-01
 9.532740974609196e-01  5.240637865530833e-01 -3.279596821446226e-17

-2.766496021357705e-17  8.878127392016850e-20  1.072871573618594e+00
 8.878127392016850e-20 -3.358866466203756e-17  4.453315879086347e-01
 1.072871573618594e+00  4.453315879086347e-01 -3.749221494532504e-17

-2.950333382265139e-17 -6.615479009742088e-19  1.172066077713219e+00
-6.615479009742088e-19  6.106675283732813e-18  4.060448483564771e-01
 1.172066077713219e+00  4.060448483564771e-01 -4.137233421282692e-17

-3.102231531695038e-17 -5.442179054825630e-19  1.259647434474217e+00
-5.442179054825630e-19 -1.915160271042083e-18  4.081624177960265e-01
 1.259647434474217e+00  4.081624177960265e-01 -4.468414685246169e-17

-2.956424014767500e-17  3.535536880812493e-19  1.084610150450241e+00
 3.535536880812493e-19 -5.437996479738732e-17  6.593121601906564e-01
 1.084610150450241e+00  6.593121601906564e-01 -3.888810214293538e-17

-3.170974697140065e-17 -1.324477577985563e-20  1.279054317890516e+00
-1.324477577985563e-20 -4.671660567362571e-17  4.789523137303229e-01
 1.279054317890516e+00  4.789523137303229e-01 -4.567418245364442e-17

-3.092842320446468e-17  8.031619393550683e-20  1.224862527065613e+00
 8.031619393550683e-20 -5.863874274613574e-17  4.755835459297291e-01
 1.224862527065613e+00  4.755835459297291e-01 -4.365020751828883e-17

-2.987123612033206e-17 -3.961039868112296e-19  1.154100877475995e+00
-3.961039868112296e-19 -1.912153960126756e-17  4.859303416150728e-01
 1.154100877475995e+00  4.859303416150728e-01 -4.087886656354206e-17

-2.937088671943173e-17  7.505164479213380e-19  1.144892670581681e+00
 7.505164479213380e-19 -9.844765212695751e-17  4.410579296382932e-01
 1.144892670581681e+00  4.410579296382932e-01 -4.010367959275690e-17

-2.891148377990548e-17 -5.648211684819317e-19  1.118259395985441e+00
-5.648211684819317e-19 -3.983605674675389e-19  4.518975641022777e-01
 1.118259395985441e+00  4.518975641022777e-01 -3.910045882957843e-17

-2.857980504510242e-17 -6.211660826606858e-19  1.093265491302244e+00
-6.211660826606858e-19  5.092537245881026e-18  4.713008654409656e-01
 1.093265491302244e+00  4.713008654409656e-01 -3.821036836405562e-17

-2.808379759884065e-17 -3.078730092707449e-19  1.057860181068965e+00
-3.078730092707449e-19 -1.655646540819940e-17  4.841891585825915e-01
 1.057860181068965e+00  4.841891585825915e-01 -3.691440173415467e-17

-2.804411696325452e-17 -4.174567008026689e-19  1.056323399365135e+00
-4.174567008026689e-19 -4.332624033618388e-18  4.687780161456073e-01
 1.056323399365135e+00  4.687780161456073e-01 -3.685424940873520e-17

-2.811966724578812e-17  7.260105284447081e-19  1.057096026387139e+00
 7.260105284447081e-19 -8.302641142955943e-17  4.674779518224722e-01
 1.057096026387139e+00  4.674779518224722e-01 -3.693740486457497e-17

-2.776253820789183e-17 -8.027333768572728e-19  1.030458598719883e+00
-8.027333768572728e-19  2.766674150295221e-17  4.838918694520410e-01
 1.030458598719883e+00  4.838918694520410e-01 -3.600668762958997e-17

-2.707927726629370e-17 -9.421303018875267e-20  9.900503806994383e-01
-9.421303018875267e-20 -1.993755579133906e-17  4.583496263897960e-01
 9.900503806994383e-01  4.583496263897960e-01 -3.441351493971474e-17

-2.783678792171800e-17 -8.992595469072807e-19  1.075449737594524e+00
-8.992595469072807e-19  3.141252561695408e-17  3.218816908180154e-01
 1.075449737594524e+00  3.218816908180154e-01 -3.734085613151254e-17

-2.722757554580209e-17  6.170761214041081e-20  9.805833462172162e-01
 6.170761214041081e-20 -2.976796653557420e-17  4.780350887067455e-01
 9.805833462172162e-01  4.780350887067455e-01 -3.422421296249141e-17

-2.853919246996229e-17 -1.085477823420595e-18  1.049783528525200e+00
-1.085477823420595e-18  5.767121660096301e-17  4.727681849051011e-01
 1.049783528525200e+00  4.727681849051011e-01 -3.692219364637256e-17

-2.929852056579485e-17 -3.400396283286772e-19  1.089640623959642e+00
-3.400396283286772e-19 -1.195567247742303e-18  4.387967185192921e-01
 1.089640623959642e+00  4.387967185192921e-01 -3.854828156174978e-17

-3.013271734766106e-17 -2.568861698094338e-19  1.123801015369313e+00
-2.568861698094338e-19 -5.457933873377737e-18  4.384213056195888e-01
 1.123801015369313e+00  4.384213056195888e-01 -4.002424818905754e-17

-3.221246387256085e-17  7.905719365684354e-21  1.234385612103473e+00
 7.905719365684354e-21 -1.858450091182816e-17  4.443185412993129e-01
 1.234385612103473e+00  4.443185412993129e-01 -4.443589055608347e-17

-3.105699932910777e-17 -2.259970263487290e-19  1.102178597495889e+00
-2.259970263487290e-19 -8.069642283870526e-18  5.972408086215341e-01
 1.102178597495889e+00  5.972408086215341e-01 -4.028009788881155e-17

-3.178922128175849e-17 -9.851945034270699e-20  1.212704126782465e+00
-9.851945034270699e-20 -1.525961952369498e-17  4.077811795408858e-01
 1.212704126782465e+00  4.077811795408858e-01 -4.353857553014768e-17

-3.025796460356857e-17 -4.461149007316037e-19  1.115060285378877e+00
-4.461149007316037e-19  1.322882700882574e-17  4.317045040282770e-01
 1.115060285378877e+00  4.317045040282770e-01 -3.981216523190832e-17

-2.887750395641745e-17 -5.212655549772940e-19  1.030695547474236e+00
-5.212655549772940e-19  1.636887868355418e-17  4.580832467665935e-01
 1.030695547474236e+00  4.580832467665935e-01 -3.657997059134038e-17

-2.769328167962275e-17 -4.467910329019098e-19  9.548654513434250e-01
-4.467910329019098e-19  6.364425272677679e-18  4.783447477779145e-01
 9.548654513434250e-01  4.783447477779145e-01 -3.369501774730759e-17

-2.766191549081048e-17 -1.162560491481273e-18  9.551607235094410e-01
-1.162560491481273e-18  4.782812916640540e-17  4.341407628793264e-01
 9.551607235094410e-01  4.341407628793264e-01 -3.373919185480914e-17

-2.876659554510202e-17  1.963941349288005e-19  1.026962852591947e+00
 1.963941349288005e-19 -7.761868091817093e-17  3.751876192279227e-01
 1.026962852591947e+00  3.751876192279227e-01 -3.649274186061289e-17

-2.959767401945143e-17 -2.045050502331715e-19  1.036873158479015e+00
-2.045050502331715e-19 -2.643326357478835e-17  4.683212697537290e-01
 1.036873158479015e+00  4.683212697537290e-01 -3.693367325161724e-17

-3.307269906891981e-17 -4.620577393700070e-19  1.230741800265514e+00
-4.620577393700070e-19 -1.779814557106237e-17  4.039530864655262e-01
 1.230741800265514e+00  4.039530864655262e-01 -4.444012665329532e-17

-3.591031049213573e-17 -2.845540207929814e-19  1.353842338878970e+00
-2.845540207929814e-19 -2.663949541354492e-17  5.378398211213747e-01
 1.353842338878970e+00  5.378398211213747e-01 -4.997260434890999e-17

-3.290704280953027e-17 -1.174461225467954e-18  1.007563825820406e+00
-1.174461225467954e-18 -1.862091902279034e-17  8.953008401370018e-01
 1.007563825820406e+00  8.953008401370018e-01 -4.082340795838261e-17

-3.567528834453392e-17 -6.388773343272641e-19  1.353854475488602e+00
-6.388773343272641e-19 -3.314087975707562e-17  4.589037533059233e-01
 1.353854475488602e+00  4.589037533059233e-01 -4.971186319850215e-17

-3.304895763689689e-17 -2.601384479941477e-19  1.240759105058926e+00
-2.601384479941477e-19 -1.225805252506615e-17  3.309547402936953e-01
 1.240759105058926e+00  3.309547402936953e-01 -4.333227327461068e-17

-3.217763296092813e-17 -2.334965741093114e-19  1.196023227737754e+00
-2.334965741093114e-19 -2.666436519087643e-17  3.086287915058631e-01
 1.196023227737754e+00  3.086287915058631e-01 -4.188997370510129e-17

-3.035539054996276e-17 -1.125430814680478e-18  9.691374290226435e-01
-1.125430814680478e-18 -3.347731340867019e-17  6.467336440661048e-01
 9.691374290226435e-01  6.467336440661048e-01 -3.660076765220168e-17

-2.973119428014683e-17 -8.194702580302228e-19  1.006803090130159e+00
-8.194702580302228e-19 -8.454469682234447e-19  4.474187946197747e-01
 1.006803090130159e+00  4.474187946197747e-01 -3.527740396185522e-17

-3.224741949712098e-17  8.356350972914888e-19  1.321961733634808e+00
 8.356350972914888e-19 -6.431714664201095e-17  4.553786235104868e-02
 1.321961733634808e+00  4.553786235104868e-02 -4.258125598206858e-17

-2.912668037867500e-17 -8.485475106822583e-19  9.346755022950852e-01
-8.485475106822583e-19 -1.018215873014879e-17  4.769680469088237e-01
 9.346755022950852e-01  4.769680469088237e-01 -3.295737339913584e-17

-3.341297206434990e-17 -3.464225396117307e-19  1.152366377035394e+00
-3.464225396117307e-19 -5.339565716762453e-17  5.285372737529682e-01
 1.152366377035394e+00  5.285372737529682e-01 -4.146883866802859e-17

-3.301470409285369e-17 -8.436160830394001e-19  1.110279739932950e+00
-8.436160830394001e-19 -3.298943008081822e-17  5.315036698929670e-01
 1.110279739932950e+00  5.315036698929670e-01 -4.029052239290503e-17

-3.576696449896788e-17  4.245596725018636e-19  1.164235551836990e+00
 4.245596725018636e-19 -8.398563834860359e-17  3.445330177935398e-01
 1.164235551836990e+00  3.445330177935398e-01 -4.125254167234139e-17

-2.224661859576180e-17 -1.900892232737291e-18  1.089691197860876e+00
-1.900892232737291e-18 -3.875098590944964e-17  4.677834367181224e-01
 1.089691197860876e+00  4.677834367181224e-01 -3.932081332899617e-17

 1.803549889077979e-17 -7.031978161216777e-18  1.108289431989241e+00
-7.031978161216777e-18 -1.312746870424904e-17  4.869051682580995e-01
 1.108289431989241e+00  4.869051682580995e-01 -4.033414327379874e-17

-7.749666879011759e-17  3.611744641799951e-18  1.095433047535629e+00
 3.611744641799951e-18  2.535156037340029e-17  4.698289952520757e-01
 1.095433047535629e+00  4.698289952520757e-01 -3.990348987267602e-17

-3.097928606060306e-17 -4.718909791510051e-19  1.063781409718812e+00
-4.718909791510051e-19 -6.971612072573740e-17  4.508124178970521e-01
 1.063781409718812e+00  4.508124178970521e-01 -3.876351413432593e-17

-3.212781879660360e-17 -1.473266058705160e-18  1.037837242118402e+00
-1.473266058705160e-18  4.814504309438638e-18  4.528639447331704e-01
 1.037837242118402e+00  4.528639447331704e-01 -3.804887016381803e-17

-2.393939920901222e-17 -5.238479804762695e-18  1.030062202772247e+00
-5.238479804762695e-18 -2.585454775944510e-18  4.580807081567774e-01
 1.030062202772247e+00  4.580807081567774e-01 -3.800494018315411e-17

-2.421028289371021e-17 -5.303051502955774e-18  1.009349561118077e+00
-5.303051502955774e-18 -2.571785347814627e-18  4.505926950496466e-01
 1.009349561118077e+00  4.505926950496466e-01 -3.743449069947160e-17

-2.256462024408230e-17 -6.491256258151857e-18  1.044954801545620e+00
-6.491256258151857e-18  4.718716745387607e-18  3.985362624217582e-01
 1.044954801545620e+00  3.985362624217582e-01 -3.889985520523489e-17

-3.419570455602192e-17 -2.110371010178636e-18  1.071237975138514e+00
-2.110371010178636e-18 -3.717728588666825e-18  4.025623554138950e-01
 1.071237975138514e+00  4.025623554138950e-01 -4.002921555685390e-17

-3.908736245625346e-17  8.053803077105171e-19  9.807807846599792e-01
 8.053803077105171e-19 -5.854207204069494e-17  5.240049295520517e-01
 9.807807846599792e-01  5.240049295520517e-01 -3.708968750084425e-17

-3.647685643271240e-17 -4.641889266592904e-19  9.708910049981888e-01
-4.641889266592904e-19 -4.831000315256961e-17  4.821310199584750e-01
 9.708910049981888e-01  4.821310199584750e-01 -3.690119359351506e-17

-3.630999744267785e-17 -6.358987352597799e-19  9.796394334138887e-01
-6.358987352597799e-19 -3.377770267725845e-17  3.802170906688527e-01
 9.796394334138887e-01  3.802170906688527e-01 -3.697601021738850e-17

-3.569562521796929e-17 -1.383679987551799e-18  9.302658897028031e-01
-1.383679987551799e-18  8.766326530648674e-18  3.849534277156860e-01
 9.302658897028031e-01  3.849534277156860e-01 -3.542734906178683e-17

-3.640371078511213e-17  6.887415412391785e-19  9.591259132540051e-01
 6.887415412391785e-19 -1.353530399515728e-16  3.504201888168486e-01
 9.591259132540051e-01  3.504201888168486e-01 -3.668276175753066e-17

-3.653749104681898e-17 -1.183894175005547e-18  9.094542343732901e-01
-1.183894175005547e-18 -1.189075982389954e-17  4.211011248247357e-01
 9.094542343732901e-01  4.211011248247357e-01 -3.538994329264580e-17

-3.899262777288360e-17 -1.093864917202735e-18  1.003322774960381e+00
-1.093864917202735e-18 -1.325462253249264e-17  4.047784003620042e-01
 1.003322774960381e+00  4.047784003620042e-01 -3.931120330937566e-17

-3.945075767892959e-17 -4.737423774186646e-19  9.678149787942814e-01
-4.737423774186646e-19 -4.613028568483556e-17  4.842200802964899e-01
 9.678149787942814e-01  4.842200802964899e-01 -3.830747228000094e-17

-4.108819352973749e-17 -9.486479148903639e-19  1.020639833529326e+00
-9.486479148903639e-19 -3.075396484365422e-17  4.050279973847456e-01
 1.020639833529326e+00  4.050279973847456e-01 -4.073048933232986e-17

-4.184423223293297e-17 -6.051053420160982e-19  9.521874756979019e-01
-6.051053420160982e-19 -7.234288921186692e-17  4.215894903042037e-01
 9.521874756979019e-01  4.215894903042037e-01 -3.885525978917762e-17

-4.300803269036806e-17 -1.881752510687534e-18  9.927204562926688e-01
-1.881752510687534e-18  1.450930617462584e-17  3.797686293298997e-01
 9.927204562926688e-01  3.797686293298997e-01 -4.059985246461154e-17

-4.446439738682583e-17 -1.761797571776324e-18  1.029606343779821e+00
-1.761797571776324e-18 -8.417991028053044e-19  3.429506753067907e-01
 1.029606343779821e+00  3.429506753067907e-01 -4.216090418772810e-17

-4.586034591127408e-17 -8.803107268248767e-19  9.572501388655692e-01
-8.803107268248767e-19 -5.886735206005782e-17  4.254646724708894e-01
 9.572501388655692e-01  4.254646724708894e-01 -3.981800991459805e-17

-4.467247606502272e-17 -1.891495221909338e-18  9.756145528509230e-01
-1.891495221909338e-18 -2.795293303205931e-18  4.335554890113881e-01
 9.756145528509230e-01  4.335554890113881e-01 -4.082453154154504e-17

-3.406162227818251e-17 -2.924689366124620e-18  9.867978688467220e-01
-2.924689366124620e-18 -1.262139943348863e-17  3.996849979043005e-01
 9.867978688467220e-01  3.996849979043005e-01 -4.164174784560363e-17

-5.643760470798723e-17 -1.192562079065625e-18  9.878879805110442e-01
-1.192562079065625e-18 -3.391252381435066e-17  3.898800574176666e-01
 9.878879805110442e-01  3.898800574176666e-01 -4.240826092769401e-17

-5.386850230817656e-17 -2.035089788679337e-18  9.912400538006800e-01
-2.035089788679337e-18 -4.103282624629371e-17  4.075558326741724e-01
 9.912400538006800e-01  4.075558326741724e-01 -4.388100832905875e-17

-5.595203243005018e-17 -3.341563147655311e-18  9.791994443003528e-01
-3.341563147655311e-18 -9.791422405742922e-19  4.051356888078655e-01
 9.791994443003528e-01  4.051356888078655e-01 -4.488548811041475e-17

-5.992370763179964e-17 -3.579794853922910e-18  9.858841496339745e-01
-3.579794853922910e-18 -1.339165509025159e-18  4.198415387962620e-01
 9.858841496339745e-01  4.198415387962620e-01 -4.650866134825464e-17

-4.909688689830391e-17 -1.031073996315393e-17  9.874480473510533e-01
-1.031073996315393e-17 -3.716098313723680e-17  4.146741353880781e-01
 9.874480473510533e-01  4.146741353880781e-01 -4.822644092172585e-17

-6.820491412024702e-17 -5.441509023446258e-18  9.913739475031009e-01
-5.441509023446258e-18  1.422675331482097e-18  4.137771805195079e-01
 9.913739475031009e-01  4.137771805195079e-01 -5.070739029367907e-17

-7.638321611538091e-17 -3.898665248288946e-18  1.003240190749942e+00
-3.898665248288946e-18 -2.946287705763028e-17  4.172028992964038e-01
 1.003240190749942e+00  4.172028992964038e-01 -5.294295789235824e-17

-8.226369985097219e-17 -3.776807584191868e-18  1.014437254214811e+00
-3.776807584191868e-18 -4.606801264520450e-17  4.179555868172217e-01
 1.014437254214811e+00  4.179555868172217e-01 -5.536591499074950e-17

-9.477839275776549e-17 -3.951342452332534e-18  1.011429304861560e+00
-3.951342452332534e-18 -3.389520106075548e-17  4.054189061499813e-01
 1.011429304861560e+00  4.054189061499813e-01 -5.968813212993904e-17

-1.060628717584830e-16 -3.795400755521646e-18  1.043195669611157e+00
-3.795400755521646e-18 -5.779403345956886e-17  3.876294787485570e-01
 1.043195669611157e+00  3.876294787485570e-01 -6.481565312011131e-17

-1.218142583948648e-16 -4.331517969352330e-18  1.101204723241705e+00
-4.331517969352330e-18 -5.100172465386405e-18  3.925195489227250e-01
 1.101204723241705e+00  3.925195489227250e-01 -7.266530263421394e-17

-1.411797062104184e-16 -5.138975818611182e-18  6.644851772700093e-01
-5.138975818611182e-18 -2.886236335479780e-17  8.718715041420134e-01
 6.644851772700093e-01  8.718715041420134e-01 -7.252613027943537e-17

-1.485383357643850e-16 -1.459748992790453e-18  1.036447067608703e+00
-1.459748992790453e-18 -6.600514452430813e-17  3.212891877680937e-01
 1.036447067608703e+00  3.212891877680937e-01 -7.923193795981947e-17

-1.604195999155559e-16 -9.253997338347875e-19  1.009876044548195e+00
-9.253997338347875e-19  1.106716533582869e-16  1.686920542102022e-01
 1.009876044548195e+00  1.686920542102022e-01 -8.072054089732552e-17

-2.018221487466985e-16  3.399969766112971e-18  8.453825183482271e-01
 3.399969766112971e-18 -5.381987199059477e-17  6.262068902430594e-01
 8.453825183482271e-01  6.262068902430594e-01 -9.442874804637107e-17

-2.194268867156062e-16  6.098540037199534e-18  1.041937789033592e+00
 6.098540037199534e-18  1.512170461850746e-17  3.570676698045172e-01
 1.041937789033592e+00  3.570676698045172e-01 -1.071127322463551e-16

-2.391787940645615e-16  9.437975404813326e-18  1.074023010099070e+00
 9.437975404813326e-18  7.149717135732897e-17  2.700400177846941e-01
 1.074023010099070e+00  2.700400177846941e-01 -1.156706535294718e-16

-2.856738276937202e-16  1.621807938917984e-17  1.013771026905978e+00
 1.621807938917984e-17  4.726368963963369e-17  4.604456166131556e-01
 1.013771026905978e+00  4.604456166131556e-01 -1.310329647635347e-16

-3.514874452298369e-16  2.861621295662815e-17  1.123356730807624e+00
 2.861621295662815e-17  4.089607025318415e-17  4.777993639755257e-01
 1.123356730807624e+00  4.777993639755257e-01 -1.592701003873286e-16

-4.487760260390658e-16  5.943775348298562e-17  1.121117371300298e+00
 5.943775348298562e-17  1.190438176884437e-16  4.420994974595775e-01
 1.121117371300298e+00  4.420994974595775e-01 -1.978989351894005e-16

-6.075092687019251e-16  1.320639952965909e-16  1.087678255726533e+00
 1.320639952965909e-16  1.891550637198730e-16  4.712963114709474e-01
 1.087678255726533e+00  4.712963114709474e-01 -2.634922362877285e-16

-7.733810793106440e-16  2.502848285364962e-16  1.108153304368881e+00
 2.502848285364962e-16  3.052904653764483e-16  3.981779539201010e-01
 1.108153304368881e+00  3.981779539201010e-01 -3.425753854519496e-16

-9.259693611894132e-16  3.561653705847443e-16  1.003803983516354e+00
 3.561653705847443e-16  4.826092190733223e-16  4.752869184519951e-01
 1.003803983516354e+00  4.752869184519951e-01 -4.101249797608966e-16

-1.039468108496277e-15  4.595651606121218e-16  9.642715974885658e-01
 4.595651606121218e-16  6.537809259479168e-16  5.096301215616202e-01
 9.642715974885658e-01  5.096301215616202e-01 -4.679943734592097e-16

-1.277121267029431e-15  7.238612291415164e-16  1.056359227837812e+00
 7.238612291415164e-16  9.528982544366323e-16  4.169641540312586e-01
 1.056359227837812e+00  4.169641540312586e-01 -6.051490639541388e-16

-1.667109672629123e-15  1.279887713087245e-15  1.029807895751203e+00
 1.279887713087245e-15  1.370130632615678e-15  4.562030852766711e-01
 1.029807895751203e+00  4.562030852766711e-01 -8.675820738275418e-16

-2.242498629857467e-15  2.589328267057795e-15  1.027016611800824e+00
 2.589328267057795e-15  2.131200206324592e-15  4.281128620543348e-01
 1.027016611800824e+00  4.281128620543348e-01 -1.385253057651625e-15

-2.866650982871022e-15  5.297286372028686e-15  1.020260694967948e+00
 5.297286372028686e-15  3.247815887826873e-15  4.424913509644996e-01
 1.020260694967948e+00  4.424913509644996e-01 -2.438228783063011e-15

-3.376369416179158e-15  9.462529807752876e-15  1.010613420488633e+00
 9.462529807752876e-15  3.569106571916322e-15  4.303728540724926e-01
 1.010613420488633e+00  4.303728540724926e-01 -4.339833944548365e-15

-6.598140014659497e-15  1.542092913700303e-14  1.009057018989934e+00
 1.542092913700303e-14  4.575244127783753e-15  4.510131212832589e-01
 1.009057018989934e+00  4.510131212832589e-01 -9.902190276260963e-15

 1.727834699724068e-14  9.964063199318533e-16  9.855953178767204e-01
 9.964063199318533e-16  3.341958766736217e-14  4.602444784242875e-01
 9.855953178767204e-01  4.602444784242875e-01 -6.869040779497200e-15

 1.614593511131575e-13 -3.736672985594041e-14  1.008712361589606e+00
-3.736672985594041e-14  9.980119533745640e-14  4.165836235159924e-01
 1.008712361589606e+00  4.165836235159924e-01  4.146254945783123e-14

-6.310025523872073e-13  1.421126003108368e-13  9.729378977841570e-01
 1.421126003108368e-13 -3.502728341242675e-13  4.392416235009872e-01
 9.729378977841570e-01  4.392416235009872e-01 -1.672090266572190e-13

 1.519225307966685e-13 -2.672780551696335e-14  1.146623860382140e+00
-2.672780551696335e-14  6.985548611630378e-14  4.528794775812939e-01
 1.146623860382140e+00  4.528794775812939e-01  3.452805930569622e-14

-6.653654806403815e-13  1.588178178131546e-13  1.145235162678415e+00
 1.588178178131546e-13 -3.958681015154116e-13  3.373105917919395e-01
 1.145235162678415e+00  3.373105917919395e-01 -2.097365003879353e-13

-1.871834382091250e-14 -5.694228931124324e-15  1.220466533462354e+00
-5.694228931124324e-15 -5.649214634208491e-15  5.184652731562825e-01
 1.220466533462354e+00  5.184652731562825e-01 -1.502517438603378e-14

-1.950131863003589e-14 -4.229960928090720e-15  1.245345598517812e+00
-4.229960928090720e-15 -6.124741477652860e-15  4.044356244777883e-01
 1.245345598517812e+00  4.044356244777883e-01 -1.038644318389893e-14

-1.364148830907213e-14 -1.342179283599385e-15  1.195529540483691e+00
-1.342179283599385e-15 -3.708825156369288e-15  3.811739660198736e-01
 1.195529540483691e+00  3.811739660198736e-01 -6.183108542416219e-15

-7.684901049084612e-15  7.861327613578047e-16  1.100125270960453e+00
 7.861327613578047e-16 -2.265736223818457e-15  4.636339783673745e-01
 1.100125270960453e+00  4.636339783673745e-01 -2.851175668065461e-15

-5.501499892820647e-15  1.139799716104632e-15  1.199711086397850e+00
 1.139799716104632e-15 -1.521612691959148e-15  3.086518777438570e-01
 1.199711086397850e+00  3.086518777438570e-01 -1.918611107136841e-15

-4.498701363900172e-15  1.202205993926796e-15  1.192185882217610e+00
 1.202205993926796e-15 -1.460875537400785e-15  3.096731008925194e-01
 1.192185882217610e+00  3.096731008925194e-01 -1.539911543986558e-15

-3.520375787734818e-15  1.115388003569334e-15  1.054448557431184e+00
 1.115388003569334e-15 -1.536426921016893e-15  4.835188995693409e-01
 1.054448557431184e+00  4.835188995693409e-01 -1.149182472005771e-15

-2.777389953731379e-15  1.022818475983604e-15  1.062785548313259e+00
 1.022818475983604e-15 -1.374904017327378e-15  4.847978664264270e-01
 1.062785548313259e+00  4.847978664264270e-01 -8.964995561026066e-16

-2.187951107145017e-15  8.980264139902227e-16  1.034523702153566e+00
 8.980264139902227e-16 -1.120461142195450e-15  4.654485303244613e-01
 1.034523702153566e+00  4.654485303244613e-01 -7.036025536877630e-16

-1.463745518725549e-15  6.835399070382488e-16  9.366036474115844e-01
 6.835399070382488e-16 -7.342853402762487e-16  4.229753839408247e-01
 9.366036474115844e-01  4.229753839408247e-01 -4.727791084313397e-16

-1.052685245675529e-15  5.221366399849874e-16  9.065418201018776e-01
 5.221366399849874e-16 -5.571173770325027e-16  3.844345217933538e-01
 9.065418201018776e-01  3.844345217933538e-01 -3.457321603449275e-16

-8.698118319420641e-16  4.429098996975732e-16  8.847231270024603e-01
 4.429098996975732e-16 -5.310161236005808e-16  4.220366846240832e-01
 8.847231270024603e-01  4.220366846240832e-01 -2.906345810803049e-16

-6.504816230983986e-16  3.379012707422976e-16  9.242765624045696e-01
 3.379012707422976e-16 -5.042736216179837e-16  4.585930394856769e-01
 9.242765624045696e-01  4.585930394856769e-01 -2.275530466941713e-16

-4.641951679937846e-16  2.387744961652236e-16  9.562825884204273e-01
 2.387744961652236e-16 -4.219438964753590e-16  4.296962438904492e-01
 9.562825884204273e-01  4.296962438904492e-01 -1.732103995964501e-16

-3.602320386679461e-16  1.794600991440087e-16  9.625759739218436e-01
 1.794600991440087e-16 -3.591069799907660e-16  4.343238540103215e-01
 9.625759739218436e-01  4.343238540103215e-01 -1.420679262243411e-16

-3.071638435643661e-16  1.477052552691658e-16  1.027435447280411e+00
 1.477052552691658e-16 -3.278230843520255e-16  4.218723828788778e-01
 1.027435447280411e+00  4.218723828788778e-01 -1.281240006950990e-16

-2.811249957600836e-16  1.321831189907715e-16  9.620283950557640e-01
 1.321831189907715e-16 -3.095512520735913e-16  4.804438572878857e-01
 9.620283950557640e-01  4.804438572878857e-01 -1.181227193181974e-16

-2.580106200079863e-16  1.188371712480419e-16  9.857741402008739e-01
 1.188371712480419e-16 -2.888799826676615e-16  4.431543917970741e-01
 9.857741402008739e-01  4.431543917970741e-01 -1.115792957874763e-16

-2.221987568021729e-16  9.773718806694564e-17  9.738610719526947e-01
 9.773718806694564e-17 -2.546836437284224e-16  4.752930642306739e-01
 9.738610719526947e-01  4.752930642306739e-01 -9.986978101013773e-17

-1.987361403215334e-16  8.399225700431548e-17  1.015059201203138e+00
 8.399225700431548e-17 -2.324082171356102e-16  4.258341720019778e-01
 1.015059201203138e+00  4.258341720019778e-01 -9.363559025888832e-17

-1.789409052576918e-16  7.253183093746338e-17  1.069493340673637e+00
 7.253183093746338e-17 -2.099426611123163e-16  3.859525047477693e-01
 1.069493340673637e+00  3.859525047477693e-01 -8.883892525939789e-17

-1.494987239848340e-16  5.481501197876676e-17  1.077966672290370e+00
 5.481501197876676e-17 -1.814112472160946e-16  3.851070118173309e-01
 1.077966672290370e+00  3.851070118173309e-01 -7.961882798084840e-17

-1.296789088112480e-16  4.140968955573568e-17  1.096892098918091e+00
 4.140968955573568e-17 -1.593878187818634e-16  5.148331843904806e-01
 1.096892098918091e+00  5.148331843904806e-01 -7.375386136897060e-17

-1.198866546247550e-16  3.472189903574657e-17  1.007548810908063e+00
 3.472189903574657e-17 -1.496198214434330e-16  7.011504134683437e-01
 1.007548810908063e+00  7.011504134683437e-01 -6.850615128769061e-17

-1.127275721825864e-16  3.370860495173368e-17  1.189461901235801e+00
 3.370860495173368e-17 -1.347016323712817e-16  4.279951662715019e-01
 1.189461901235801e+00  4.279951662715019e-01 -7.069535861888271e-17

-1.029196953471130e-16  3.143081463584234e-17  1.067698556976898e+00
 3.143081463584234e-17 -1.182776835121513e-16  4.469276103591639e-01
 1.067698556976898e+00  4.469276103591639e-01 -6.306192929404439e-17

-9.635580101724851e-17  2.996400330396795e-17  1.035319695047245e+00
 2.996400330396795e-17 -1.069025601310590e-16  4.142649568229947e-01
 1.035319695047245e+00  4.142649568229947e-01 -5.927193147638243e-17

-8.435650215194110e-17  2.550850959805985e-17  8.663819065741464e-01
 2.550850959805985e-17 -8.862352269666065e-17  5.589399894679660e-01
 8.663819065741464e-01  5.589399894679660e-01 -5.045212516830331e-17

-8.010183393362142e-17  2.416187666145341e-17  1.077818396511740e+00
 2.416187666145341e-17 -8.150744398747022e-17  2.412584652376146e-01
 1.077818396511740e+00  2.412584652376146e-01 -5.456182049574778e-17

-7.294801663926081e-17  2.114370037476598e-17  7.860952487022420e-01
 2.114370037476598e-17 -7.319919182306171e-17  5.284898781150307e-01
 7.860952487022420e-01  5.284898781150307e-01 -4.381855919707389e-17

-6.947830869346445e-17  1.773455964004012e-17  9.131675714089624e-01
 1.773455964004012e-17 -7.121901983079083e-17  3.777803636841167e-01
 9.131675714089624e-01  3.777803636841167e-01 -4.622826832265037e-17

-6.945948245619232e-17  1.525395838495045e-17  1.090765768466105e+00
 1.525395838495045e-17 -7.125278558019368e-17  3.177376436728540e-01
 1.090765768466105e+00  3.177376436728540e-01 -5.034915532994347e-17

-6.962687225159596e-17  1.337254415212193e-17  1.286897931441498e+00
 1.337254415212193e-17 -7.258688986547480e-17  3.560444233754570e-01
 1.286897931441498e+00  3.560444233754570e-01 -5.655919962129555e-17

-6.553534497018876e-17  1.283842065954859e-17  1.023167411585103e+00
 1.283842065954859e-17 -7.078060885813548e-17  5.555339507775373e-01
 1.023167411585103e+00  5.555339507775373e-01 -5.264156003092884e-17

-6.391681645204179e-17  1.054610319525813e-17  9.231086291333506e-01
 1.054610319525813e-17 -6.919230886457888e-17  8.118528860023968e-01
 9.231086291333506e-01  8.118528860023968e-01 -5.127235345084166e-17

-6.724451251209958e-17  9.980564950155603e-18  1.391174290960623e+00
 9.980564950155603e-18 -7.207840105149090e-17  4.140906840328609e-01
 1.391174290960623e+00  4.140906840328609e-01 -6.258833620862419e-17

-6.708561583429950e-17  9.362716993974968e-18  1.589848204842329e+00
 9.362716993974968e-18 -7.366732632192385e-17  9.283238089307842e-02
 1.589848204842329e+00  9.283238089307842e-02 -6.740850833998077e-17

-6.068927782019068e-17  7.705941225276101e-18  1.141715724911848e+00
 7.705941225276101e-18 -6.409375858520000e-17  5.654552195993948e-01
 1.141715724911848e+00  5.654552195993948e-01 -5.262147933408591e-17

-5.714342734541007e-17  6.638248068514870e-18  9.416749784075226e-01
 6.638248068514870e-18 -5.889646396935260e-17  7.794372719649251e-01
 9.416749784075226e-01  7.794372719649251e-01 -4.609934322409439e-17

-6.035937679192997e-17  8.065941937011630e-18  1.414880060630529e+00
 8.065941937011630e-18 -6.372145808784998e-17  2.336834789595618e-01
 1.414880060630529e+00  2.336834789595618e-01 -5.901495426056652e-17

-5.557035607505721e-17  7.677607812228251e-18  1.171796768651926e+00
 7.677607812228251e-18 -5.932573447246390e-17  2.933402400579693e-01
 1.171796768651926e+00  2.933402400579693e-01 -4.995434062840093e-17

-5.195176705979067e-17  6.486022180865586e-18  1.069226936106496e+00
 6.486022180865586e-18 -5.361993589755239e-17  4.078917858926354e-01
 1.069226936106496e+00  4.078917858926354e-01 -4.608695681397291e-17

-5.016017822383473e-17  5.500927083827459e-18  1.111391406474864e+00
 5.500927083827459e-18 -5.048579730547581e-17  4.031306653767306e-01
 1.111391406474864e+00  4.031306653767306e-01 -4.679874725043466e-17

-4.826160895230928e-17  4.853905984392229e-18  1.076769054090097e+00
 4.853905984392229e-18 -4.741910557523845e-17  4.456773313979228e-01
 1.076769054090097e+00  4.456773313979228e-01 -4.500577269692328e-17

-4.708634779595498e-17  4.504001426728307e-18  1.067518464502049e+00
 4.504001426728307e-18 -4.556361537752393e-17  4.597134717978139e-01
 1.067518464502049e+00  4.597134717978139e-01 -4.428933442871673e-17

-4.560829861478200e-17  4.131229235140923e-18  1.081030587920580e+00
 4.131229235140923e-18 -4.354012937867494e-17  4.244203072241589e-01
 1.081030587920580e+00  4.244203072241589e-01 -4.416807485555883e-17

-4.358201051437910e-17  3.891717059800510e-18  1.043399677629428e+00
 3.891717059800510e-18 -4.120447000563549e-17  4.018918202960656e-01
 1.043399677629428e+00  4.018918202960656e-01 -4.210107128324188e-17

-4.162290788002861e-17  3.584399474354061e-18  1.026898328156204e+00
 3.584399474354061e-18 -3.846611512610747e-17  3.860980547972682e-01
 1.026898328156204e+00  3.860980547972682e-01 -4.081703013057859e-17

-3.946061187226086e-17  3.012320494729043e-18  9.902094196066852e-01
 3.012320494729043e-18 -3.462099261650496e-17  4.324054351695719e-01
 9.902094196066852e-01  4.324054351695719e-01 -3.911522326260926e-17

-3.624628765884952e-17  2.645171234064688e-18  8.885468390294298e-01
 2.645171234064688e-18 -3.012481582012900e-17  4.741720533857544e-01
 8.885468390294298e-01  4.741720533857544e-01 -3.512911226552274e-17

-3.286916327112896e-17  2.885503503138418e-18  7.606308975709575e-01
 2.885503503138418e-18 -2.737538815130589e-17  4.321487659135608e-01
 7.606308975709575e-01  4.321487659135608e-01 -2.933914990035119e-17

-3.368535220304221e-17  3.142856047631111e-18  9.139057621933609e-01
 3.142856047631111e-18 -3.033165300710374e-17  1.917905993081366e-01
 9.139057621933609e-01  1.917905993081366e-01 -3.362621862697378e-17

-3.257424116372530e-17  2.293651342119407e-18  8.125995773960133e-01
 2.293651342119407e-18 -2.438825906130867e-17  5.172190778571623e-01
 8.125995773960133e-01  5.172190778571623e-01 -3.106489344093097e-17

-3.336075022612153e-17  1.965944044335183e-18  9.749736726828951e-01
 1.965944044335183e-18 -2.779826938579087e-17  2.730691480471618e-01
 9.749736726828951e-01  2.730691480471618e-01 -3.595083186418533e-17

-3.406853563601074e-17  1.699119485317366e-18  1.069547039563493e+00
 1.699119485317366e-18 -2.934955649896149e-17  1.724855147925413e-01
 1.069547039563493e+00  1.724855147925413e-01 -3.897963781588536e-17

-3.042928123501015e-17  2.125098403115384e-18  7.547584425488895e-01
 2.125098403115384e-18 -2.148401262205190e-17  5.667393245034480e-01
 7.547584425488895e-01  5.667393245034480e-01 -2.820668980487573e-17

-3.280072694894850e-17  1.527576906468562e-18  9.693359712956978e-01
 1.527576906468562e-18 -2.485913366171709e-17  4.096241849823809e-01
 9.693359712956978e-01  4.096241849823809e-01 -3.562618774576099e-17

-3.231235435396137e-17  1.292658980263064e-18  9.489190082857871e-01
 1.292658980263064e-18 -2.411383306723832e-17  4.392733440316001e-01
 9.489190082857871e-01  4.392733440316001e-01 -3.483194381628834e-17

-3.221730388497042e-17  1.106223611549421e-18  9.689391283600602e-01
 1.106223611549421e-18 -2.441844537759692e-17  4.140086447594933e-01
 9.689391283600602e-01  4.140086447594933e-01 -3.555638478435668e-17

-3.281181996967146e-17  1.101823539809015e-18  1.006184986780232e+00
 1.101823539809015e-18 -2.450703922641273e-17  4.116462805698649e-01
 1.006184986780232e+00  4.116462805698649e-01 -3.691008260436710e-17

-3.156181312684099e-17  8.590450682066438e-19  1.016415421763718e+00
 8.590450682066438e-19 -2.399834857143527e-17  4.447755972938408e-01
 1.016415421763718e+00  4.447755972938408e-01 -3.727838677754947e-17

-3.209460852144574e-17  5.919080032119793e-19  1.069438263891022e+00
 5.919080032119793e-19 -2.541422732992149e-17  4.023283928857302e-01
 1.069438263891022e+00  4.023283928857302e-01 -3.933281048345467e-17

 7.236196482568646e-17 -2.122498531340905e-17  1.178397401391289e+00
-2.122498531340905e-17 -2.086873508365602e-17  4.412660937532409e-01
 1.178397401391289e+00  4.412660937532409e-01 -4.333005729424020e-17

-2.031087650751847e-17 -2.263682655941056e-18  1.178164482832009e+00
-2.263682655941056e-18 -2.450869328988218e-17  4.370547181981300e-01
 1.178164482832009e+00  4.370547181981300e-01 -4.337290031691350e-17

-3.341481052842682e-17  1.097281576485150e-18  9.717860194619791e-01
 1.097281576485150e-18 -2.245517906784445e-17  5.002708992448899e-01
 9.717860194619791e-01  5.002708992448899e-01 -3.568630963368677e-17

-3.104800731399271e-17  8.704253822767081e-19  9.264056398279067e-01
 8.704253822767081e-19 -2.218632115075573e-17  4.624750908194982e-01
 9.264056398279067e-01  4.624750908194982e-01 -3.368865270207877e-17

-3.275292518231215e-17  7.209395591898808e-19  1.197673427315680e+00
 7.209395591898808e-19 -2.703375794853904e-17  1.566344693448806e-01
 1.197673427315680e+00  1.566344693448806e-01 -4.271539066549776e-17

-3.062440211004683e-17  4.549264478145951e-19  1.034147503292098e+00
 4.549264478145951e-19 -2.387380273349759e-17  3.374555822550281e-01
 1.034147503292098e+00  3.374555822550281e-01 -3.736166848940837e-17

-3.015837728531756e-17  7.260859070170925e-19  9.747179678993572e-01
 7.260859070170925e-19 -2.100411022166452e-17  4.993849108899281e-01
 9.747179678993572e-01  4.993849108899281e-01 -3.520961057599205e-17

-3.180725041934761e-17  4.376331745687354e-19  1.108886670993683e+00
 4.376331745687354e-19 -2.351034287630140e-17  4.009849031924343e-01
 1.108886670993683e+00  4.009849031924343e-01 -4.020380713949014e-17

-3.170448640707161e-17  5.322326408369331e-19  1.085744819448740e+00
 5.322326408369331e-19 -2.233044682964938e-17  4.783179468531268e-01
 1.085744819448740e+00  4.783179468531268e-01 -3.939727658844562e-17

-3.174445105414132e-17  5.022431554849688e-19  1.086879390818321e+00
 5.022431554849688e-19 -2.200233728155587e-17  5.042068288741831e-01
 1.086879390818321e+00  5.042068288741831e-01 -3.947329558236719e-17

-3.188514555851611e-17  3.389621660447119e-19  1.133014746424006e+00
 3.389621660447119e-19 -2.310386806807044e-17  4.247706134850884e-01
 1.133014746424006e+00  4.247706134850884e-01 -4.103305013185516e-17

-3.116461937452085e-17  2.586653442686358e-19  1.117298291304075e+00
 2.586653442686358e-19 -2.302071852288395e-17  3.880393865525789e-01
 1.117298291304075e+00  3.880393865525789e-01 -4.019261595207055e-17

-3.045927664883443e-17  1.624192027594265e-19  1.071183807439879e+00
 1.624192027594265e-19 -2.165106791583757e-17  4.475922376684500e-01
 1.071183807439879e+00  4.475922376684500e-01 -3.855644333959151e-17

-2.763814805991310e-17  8.148668940914359e-21  8.262408455783912e-01
 8.148668940914359e-21 -1.770075037614666e-17  6.552194382126575e-01
 8.262408455783912e-01  6.552194382126575e-01 -3.010373788794261e-17

-3.103250207360661e-17  1.902743591685513e-19  1.163905952648480e+00
 1.902743591685513e-19 -2.320301321106633e-17  3.247370451712663e-01
 1.163905952648480e+00  3.247370451712663e-01 -4.139936906432444e-17

-3.110888846776484e-17  1.716745359926907e-19  1.191673703828751e+00
 1.716745359926907e-19 -2.407700598944513e-17  2.619320825859647e-01
 1.191673703828751e+00  2.619320825859647e-01 -4.218726529254580e-17

-3.024830483567743e-17  5.408551648082647e-20  1.092427597387277e+00
 5.408551648082647e-20 -2.119037554434051e-17  4.283082578351088e-01
 1.092427597387277e+00  4.283082578351088e-01 -3.890704978569195e-17

-2.965896139347881e-17 -1.458599259805166e-20  1.027219874521589e+00
-1.458599259805166e-20 -1.907793112588524e-17  5.531501049731764e-01
 1.027219874521589e+00  5.531501049731764e-01 -3.674103404169657e-17

-2.856633771207586e-17 -1.457176827974781e-19  9.283954834395085e-01
-1.457176827974781e-19 -1.734878970477816e-17  6.550976065832604e-01
 9.283954834395085e-01  6.550976065832604e-01 -3.352584686383125e-17

-2.989582920569289e-17 -1.055076942787726e-20  1.097544502813209e+00
-1.055076942787726e-20 -2.070402817300200e-17  4.223137411821177e-01
 1.097544502813209e+00  4.223137411821177e-01 -3.884944937460750e-17

-2.882397631559069e-17  5.214177010597953e-21  1.035787559740387e+00
 5.214177010597953e-21 -2.011308583880515e-17  4.158292723749716e-01
 1.035787559740387e+00  4.158292723749716e-01 -3.639680946120713e-17

-2.805758962981785e-17 -9.715959162973946e-20  9.919093967496655e-01
-9.715959162973946e-20 -1.970658755568809e-17  4.233990839380305e-01
 9.919093967496655e-01  4.233990839380305e-01 -3.484479282739910e-17

-2.871498865368619e-17 -1.132693636034940e-19  1.031694236479371e+00
-1.132693636034940e-19 -1.930495023868197e-17  4.631685794171986e-01
 1.031694236479371e+00  4.631685794171986e-01 -3.631025221589711e-17

-2.851941104095340e-17 -3.862820737167076e-20  9.885538505125103e-01
-3.862820737167076e-20 -1.739151878170332e-17  5.849008373216332e-01
 9.885538505125103e-01  5.849008373216332e-01 -3.481381145937914e-17

-2.974717419511959e-17 -1.635850156860928e-19  1.095676001326413e+00
-1.635850156860928e-19 -1.912157853261370e-17  5.022300292742412e-01
 1.095676001326413e+00  5.022300292742412e-01 -3.868628447348033e-17

-2.960670530073162e-17 -1.911724053843640e-19  1.097713016168969e+00
-1.911724053843640e-19 -1.974492839945830e-17  4.545413250244527e-01
 1.097713016168969e+00  4.545413250244527e-01 -3.864133348468686e-17

-2.922221884264547e-17 -1.853274111374676e-19  1.085457852386313e+00
-1.853274111374676e-19 -1.978229830472891e-17  4.348288390637818e-01
 1.085457852386313e+00  4.348288390637818e-01 -3.806688102829280e-17

-2.892922983417089e-17 -1.980238852358134e-19  1.064948235110295e+00
-1.980238852358134e-19 -1.904760486942501e-17  4.642720622559876e-01
 1.064948235110295e+00  4.642720622559876e-01 -3.734131790351276e-17

-2.881309435443471e-17 -1.806281478014449e-19  1.060250386892014e+00
-1.806281478014449e-19 -1.870768047890784e-17  4.737101225248263e-01
 1.060250386892014e+00  4.737101225248263e-01 -3.716187482116005e-17

-2.863638562039289e-17 -1.710280107059027e-19  1.052606336687487e+00
-1.710280107059027e-19 -1.847324657525176e-17  4.767351379894529e-01
 1.052606336687487e+00  4.767351379894529e-01 -3.685717809146801e-17

-2.845342912999822e-17 -1.458276066935443e-19  1.045995937649084e+00
-1.458276066935443e-19 -1.833321006594287e-17  4.749854073934828e-01
 1.045995937649084e+00  4.749854073934828e-01 -3.659244672569487e-17

-2.861806791840041e-17 -1.872775553077716e-19  1.065793663225335e+00
-1.872775553077716e-19 -1.908964456531861e-17  4.379047302949273e-01
 1.065793663225335e+00  4.379047302949273e-01 -3.735960404739890e-17

-2.915811874269969e-17 -1.380411500151507e-19  1.093981580568235e+00
-1.380411500151507e-19 -1.903533598434065e-17  4.605738707115213e-01
 1.093981580568235e+00  4.605738707115213e-01 -3.848583120892765e-17

-2.964108070292276e-17 -4.048123987117378e-20  1.115262708435999e+00
-4.048123987117378e-20 -1.872689578802100e-17  5.011226613438797e-01
 1.115262708435999e+00  5.011226613438797e-01 -3.933942035212903e-17

-2.975588073660369e-17 -7.704764681181152e-20  1.121567153949526e+00
-7.704764681181152e-20 -1.903607417749649e-17  4.972171534742478e-01
 1.121567153949526e+00  4.972171534742478e-01 -3.967386403484417e-17

-2.937829692697351e-17 -9.778812346573597e-20  1.103593681032583e+00
-9.778812346573597e-20 -1.915775683888403e-17  4.815812408807644e-01
 1.103593681032583e+00  4.815812408807644e-01 -3.897296340120473e-17

-2.989631161955460e-17 -1.189088953808752e-19  1.166285457186267e+00
-1.189088953808752e-19 -2.073510282841429e-17  3.855997728973535e-01
 1.166285457186267e+00  3.855997728973535e-01 -4.108712216812262e-17

-2.947627080540297e-17 -9.651504924240848e-20  1.117652718922328e+00
-9.651504924240848e-20 -1.936662300431642e-17  4.735690852050771e-01
 1.117652718922328e+00  4.735690852050771e-01 -3.945679125152836e-17

-2.966141348461392e-17 -1.330946959362853e-19  1.122807344250306e+00
-1.330946959362853e-19 -1.885133723263819e-17  5.182928323238670e-01
 1.122807344250306e+00  5.182928323238670e-01 -3.977715527476318e-17

-2.988992164302234e-17 -3.200044724102741e-19  1.180253226717960e+00
-3.200044724102741e-19 -2.172804935509808e-17  3.483840486403958e-01
 1.180253226717960e+00  3.483840486403958e-01 -4.157853803848848e-17

-3.020309273237068e-17 -2.065370730623421e-19  1.174221675214686e+00
-2.065370730623421e-19 -2.057382889163327e-17  4.446118099105436e-01
 1.174221675214686e+00  4.446118099105436e-01 -4.158607451279569e-17

-3.102404449800042e-17 -5.705991652443730e-20  1.201718388743434e+00
-5.705991652443730e-20 -1.943997383949825e-17  5.558394596344534e-01
 1.201718388743434e+00  5.558394596344534e-01 -4.285687597932414e-17

-3.057956595261701e-17 -2.428210249988491e-19  1.195395336223792e+00
-2.428210249988491e-19 -2.084686398819510e-17  4.614244341478215e-01
 1.195395336223792e+00  4.614244341478215e-01 -4.240231190354862e-17

-3.228889557823174e-17 -6.675587233563177e-19  1.342527817437001e+00
-6.675587233563177e-19 -2.337395252030460e-17  3.444420206681568e-01
 1.342527817437001e+00  3.444420206681568e-01 -4.765368091939674e-17

-3.002725369658530e-17 -5.148438935587769e-19  1.076006448977945e+00
-5.148438935587769e-19 -1.692335579499845e-17  7.526767403016525e-01
 1.076006448977945e+00  7.526767403016525e-01 -3.983208904716675e-17

-2.907509055143570e-17 -1.048723444311335e-18  9.497115100882673e-01
-1.048723444311335e-18 -1.472217862403272e-17  9.397592412810926e-01
 9.497115100882673e-01  9.397592412810926e-01 -3.770946376178833e-17

-2.740942780533250e-17 -1.103542091141281e-18  9.114022399899404e-01
-1.103542091141281e-18 -1.625404342619121e-17  7.259285447669670e-01
 9.114022399899404e-01  7.259285447669670e-01 -3.546477575059474e-17

-2.942123674528112e-17  7.721000393378527e-19  1.324139415921081e+00
 7.721000393378527e-19 -2.264211270519591e-17  6.607691629447542e-02
 1.324139415921081e+00  6.607691629447542e-02 -4.100062457761703e-17

-2.681528498132566e-17 -8.186139847615169e-20  1.053796223089223e+00
-8.186139847615169e-20 -1.953032132379952e-17  3.070041740933596e-01
 1.053796223089223e+00  3.070041740933596e-01 -3.496307420885137e-17

-2.509257004695542e-17  2.923689612101274e-19  8.233238782998914e-01
 2.923689612101274e-19 -1.317297527289028e-17  7.093289646600954e-01
 8.233238782998914e-01  7.093289646600954e-01 -2.851861459960266e-17

-2.977057320785377e-17 -1.513903632966370e-19  1.205432463345867e+00
-1.513903632966370e-19 -1.885647678213723e-17  4.552695895966891e-01
 1.205432463345867e+00  4.552695895966891e-01 -4.200046479201996e-17

-3.038993201525678e-17 -3.479326530371985e-19  1.201414025168630e+00
-3.479326530371985e-19 -1.893819234580118e-17  5.291437337059515e-01
 1.201414025168630e+00  5.291437337059515e-01 -4.241012511104606e-17

-3.065026060215546e-17 -4.065801804225530e-19  1.192132976000974e+00
-4.065801804225530e-19 -1.865689219884405e-17  5.825151061580306e-01
 1.192132976000974e+00  5.825151061580306e-01 -4.258701985531099e-17

-3.033680741615308e-17 -2.737094290359990e-19  1.195155717848520e+00
-2.737094290359990e-19 -1.968262879153081e-17  4.874935130593260e-01
 1.195155717848520e+00  4.874935130593260e-01 -4.242421429952710e-17

-3.011145207420037e-17 -1.376378225563045e-19  1.174447074311597e+00
-1.376378225563045e-19 -1.936924924010465e-17  4.984342309736993e-01
 1.174447074311597e+00  4.984342309736993e-01 -4.199482410264793e-17

-3.029568769987250e-17 -6.418420739053230e-20  1.186354214277917e+00
-6.418420739053230e-20 -1.993914335282990e-17  4.748232093408846e-01
 1.186354214277917e+00  4.748232093408846e-01 -4.279499806352642e-17

-3.069029538511673e-17  3.743391194286226e-20  1.207704412515004e+00
 3.743391194286226e-20 -2.007199492058318e-17  4.811027260151624e-01
 1.207704412515004e+00  4.811027260151624e-01 -4.364427776405016e-17

-3.077751214589131e-17  2.077393718120827e-19  1.195487359871797e+00
 2.077393718120827e-19 -1.905300883582346e-17  5.574854820646692e-01
 1.195487359871797e+00  5.574854820646692e-01 -4.329538128916621e-17

-3.063878576537395e-17  9.059945972360401e-20  1.195543597158698e+00
 9.059945972360401e-20 -1.942815592769188e-17  5.331778620179550e-01
 1.195543597158698e+00  5.331778620179550e-01 -4.316184940625020e-17

-3.024364884614136e-17  7.740580362999925e-20  1.185895385736985e+00
 7.740580362999925e-20 -1.968316256507726e-17  4.907711990388026e-01
 1.185895385736985e+00  4.907711990388026e-01 -4.250801525482839e-17

-2.992421834190198e-17  3.618433226080593e-20  1.190525095005948e+00
 3.618433226080593e-20 -2.005426799482285e-17  4.428823573812652e-01
 1.190525095005948e+00  4.428823573812652e-01 -4.235294083876526e-17

-2.994872532859187e-17 -1.020778866517255e-19  1.193882058386976e+00
-1.020778866517255e-19 -1.888387243318141e-17  4.999372113822653e-01
 1.193882058386976e+00  4.999372113822653e-01 -4.251284250653222e-17

-2.853101633945001e-17 -1.979637530994336e-19  1.111318057889209e+00
-1.979637530994336e-19 -1.754402135273525e-17  5.195733309523959e-01
 1.111318057889209e+00  5.195733309523959e-01 -3.927876698866879e-17

-2.808147023456225e-17 -5.023205207725794e-20  1.122079288122942e+00
-5.023205207725794e-20 -1.815025698348117e-17  4.273859824293277e-01
 1.122079288122942e+00  4.273859824293277e-01 -3.900411157856686e-17

-2.685932787046280e-17 -1.741550040045787e-19  1.034710905978552e+00
-1.741550040045787e-19 -1.643360136717493e-17  4.944369427526966e-01
 1.034710905978552e+00  4.944369427526966e-01 -3.593333443427348e-17

-2.667918245085512e-17 -4.681819308383661e-19  1.020313153343247e+00
-4.681819308383661e-19 -1.705977520325990e-17  4.747971208043268e-01
 1.020313153343247e+00  4.747971208043268e-01 -3.552879946109762e-17

-3.162416727240547e-17 -1.184740001309876e-18  1.411617623712454e+00
-1.184740001309876e-18 -2.325250172066779e-17  2.166790495804875e-01
 1.411617623712454e+00  2.166790495804875e-01 -4.926428286769891e-17

-2.968548290451630e-17 -6.782555688379999e-20  1.190798573297486e+00
-6.782555688379999e-20 -1.718331139666629e-17  5.600629993023628e-01
 1.190798573297486e+00  5.600629993023628e-01 -4.219092056753043e-17

-3.007086488720610e-17 -5.796405297117668e-19  1.143682880308211e+00
-5.796405297117668e-19 -1.536732103597922e-17  7.680428535646306e-01
 1.143682880308211e+00  7.680428535646306e-01 -4.279708332686655e-17

-2.784967304574340e-17 -9.807359853150627e-19  1.015792028823685e+00
-9.807359853150627e-19 -1.621551598372562e-17  6.537475410486036e-01
 1.015792028823685e+00  6.537475410486036e-01 -3.820303187314634e-17

-2.848484948528514e-17  1.211366873092931e-19  1.278369451028775e+00
 1.211366873092931e-19 -2.196936069805986e-17  9.731329240305857e-02
 1.278369451028775e+00  9.731329240305857e-02 -4.096567368884181e-17

-2.813204173161705e-17 -4.744887374850427e-19  1.196675456661319e+00
-4.744887374850427e-19 -2.024083613997834e-17  2.568357884668314e-01
 1.196675456661319e+00  2.568357884668314e-01 -4.025868054088251e-17

-2.836932635186078e-17 -5.445030487194955e-20  1.126495956531519e+00
-5.445030487194955e-20 -1.567312873731056e-17  5.773118686937938e-01
 1.126495956531519e+00  5.773118686937938e-01 -3.936179628302930e-17

-2.891216664386572e-17 -3.655311514715596e-19  1.173681527900998e+00
-3.655311514715596e-19 -1.805060780405491e-17  4.639641340355308e-01
 1.173681527900998e+00  4.639641340355308e-01 -4.094325504550609e-17

-2.955715171708575e-17 -3.742660344071994e-19  1.189542048108165e+00
-3.742660344071994e-19 -1.699651074332455e-17  5.521180314338561e-01
 1.189542048108165e+00  5.521180314338561e-01 -4.198400631036218e-17

-2.963401955387829e-17 -3.835971135186150e-19  1.192398217722996e+00
-3.835971135186150e-19 -1.691264916062955e-17  5.499052460997300e-01
 1.192398217722996e+00  5.499052460997300e-01 -4.235083962139048e-17

-2.817221966419408e-17 -1.917536885025658e-19  1.116776324911111e+00
-1.917536885025658e-19 -1.602823938851822e-17  5.195027552028810e-01
 1.116776324911111e+00  5.195027552028810e-01 -3.931804622321220e-17

-2.531881587730056e-17 -1.310846899485741e-19  9.310821027631225e-01
-1.310846899485741e-19 -1.328849931259458e-17  5.768172879520453e-01
 9.310821027631225e-01  5.768172879520453e-01 -3.261185063458769e-17

-2.506654724275275e-17 -8.967909364391514e-19  9.708744981841341e-01
-8.967909364391514e-19 -1.722747646908340e-17  3.377943635494506e-01
 9.708744981841341e-01  3.377943635494506e-01 -3.269482432108586e-17

-2.659446457476046e-17 -1.083384659030274e-18  1.023943267696628e+00
-1.083384659030274e-18 -1.720586692858061e-17  4.317316198286222e-01
 1.023943267696628e+00  4.317316198286222e-01 -3.536507518900113e-17

-2.437155342354676e-17  1.318178618920199e-18  8.047847638324697e-01
 1.318178618920199e-18 -1.310585859423541e-17  6.421888787857200e-01
 8.047847638324697e-01  6.421888787857200e-01 -3.082616931824260e-17

-3.221083605186739e-17  9.371353814276842e-19  1.380626274746960e+00
 9.371353814276842e-19 -1.994984951555670e-17  4.288140421714313e-01
 1.380626274746960e+00  4.288140421714313e-01 -5.012363286791117e-17

-2.964309355952715e-17  1.043445517120023e-18  1.075726783731391e+00
 1.043445517120023e-18 -1.521405934334995e-17  8.066268686031494e-01
 1.075726783731391e+00  8.066268686031494e-01 -4.071570541555953e-17

-3.254995567321651e-17  2.812920151670246e-19  1.320257068688592e+00
 2.812920151670246e-19 -1.910756944537854e-17  6.147885577144760e-01
 1.320257068688592e+00  6.147885577144760e-01 -4.870875015804403e-17

-3.225139392621846e-17  1.527246957620949e-19  1.372025954319485e+00
 1.527246957620949e-19 -2.180306314196215e-17  3.834731778758924e-01
 1.372025954319485e+00  3.834731778758924e-01 -4.916094451968943e-17

-3.051342572883469e-17  8.124116339993791e-20  1.263056037453723e+00
 8.124116339993791e-20 -2.053865228365276e-17  4.058033788845209e-01
 1.263056037453723e+00  4.058033788845209e-01 -4.497589033134822e-17

-2.782294959894890e-17 -2.777149971665551e-19  1.157920059013001e+00
-2.777149971665551e-19 -1.839211897584317e-17  4.661015125572227e-01
 1.157920059013001e+00  4.661015125572227e-01 -4.101634901563295e-17

-2.160541316539552e-17 -1.641413728286150e-18  1.104901139045158e+00
-1.641413728286150e-18 -1.661133043751539e-17  5.019754285192385e-01
 1.104901139045158e+00  5.019754285192385e-01 -3.891133906770115e-17

-1.956052198450688e-17 -2.122510012578520e-18  1.117695109517453e+00
-2.122510012578520e-18 -1.672814680056298e-17  4.643995425549555e-01
 1.117695109517453e+00  4.643995425549555e-01 -3.919106257142629e-17

 1.385054486241993e-17 -1.030389126838581e-17  1.099392622267488e+00
-1.030389126838581e-17 -1.437905846837217e-17  4.754546387740658e-01
 1.099392622267488e+00  4.754546387740658e-01 -3.848387684328386e-17

-1.048084636832608e-16  2.048103116404206e-17  1.108258409091930e+00
 2.048103116404206e-17 -2.210821362438339e-17  4.968031310032083e-01
 1.108258409091930e+00  4.968031310032083e-01 -3.882808117885097e-17

-1.049835771766867e-16  2.045036854423522e-17  1.118892579552097e+00
 2.045036854423522e-17 -2.259960022207521e-17  4.790192873196917e-01
 1.118892579552097e+00  4.790192873196917e-01 -3.923046831179394e-17

 7.379421580183539e-17 -2.978720670644550e-17  1.161927529314231e+00
-2.978720670644550e-17 -8.896390988003829e-18  4.875380980451661e-01
 1.161927529314231e+00  4.875380980451661e-01 -4.092518844975610e-17

-4.614011366835456e-17  4.858495700027332e-18  1.171766600425902e+00
 4.858495700027332e-18 -1.873393092195926e-17  5.180055076012908e-01
 1.171766600425902e+00  5.180055076012908e-01 -4.143389278535573e-17

-3.677084931208313e-17  2.022980191852080e-18  1.204048640755865e+00
 2.022980191852080e-18 -1.860851662135982e-17  4.744378008589645e-01
 1.204048640755865e+00  4.744378008589645e-01 -4.256129988899563e-17

-2.969916972401764e-17  9.888654318111689e-20  1.172426005646402e+00
 9.888654318111689e-20 -1.753205977366192e-17  5.000332656184567e-01
 1.172426005646402e+00  5.000332656184567e-01 -4.144353481047215e-17

-2.774973794340305e-17 -2.428423616819268e-19  1.133857602710510e+00
-2.428423616819268e-19 -1.682399811329857e-17  4.979251030573710e-01
 1.133857602710510e+00  4.979251030573710e-01 -3.986715060853151e-17

-2.717241344453097e-17 -9.958829544237321e-20  1.088678615566710e+00
-9.958829544237321e-20 -1.672711298112622e-17  4.630199983785015e-01
 1.088678615566710e+00  4.630199983785015e-01 -3.790249075006146e-17

-2.700476962345465e-17 -1.600172070439673e-19  1.077062996784201e+00
-1.600172070439673e-19 -1.654215631937054e-17  4.735462772735932e-01
 1.077062996784201e+00  4.735462772735932e-01 -3.753233996600040e-17

-2.734095525174881e-17 -2.068187638352692e-19  1.085828780978862e+00
-2.068187638352692e-19 -1.693586084508582e-17  4.840725656973390e-01
 1.085828780978862e+00  4.840725656973390e-01 -3.801064980046456e-17

-2.967728919674649e-17 -1.776275925661917e-19  1.223152217761813e+00
-1.776275925661917e-19 -1.877006227346047e-17  4.673256344969474e-01
 1.223152217761813e+00  4.673256344969474e-01 -4.337805013832031e-17

-2.961994343728823e-17 -9.172312905410480e-20  1.132472677006369e+00
-9.172312905410480e-20 -1.607883495468276e-17  7.085454631126371e-01
 1.132472677006369e+00  7.085454631126371e-01 -4.138066094339422e-17

-2.985101677457508e-17 -1.726901407072512e-19  1.170487318540898e+00
-1.726901407072512e-19 -1.791091502630110e-17  6.095273315251218e-01
 1.170487318540898e+00  6.095273315251218e-01 -4.245763167184761e-17

-3.232853908100938e-17  8.762112904678070e-21  1.452236243600398e+00
 8.762112904678070e-21 -2.336305631848831e-17  2.423668882603623e-01
 1.452236243600398e+00  2.423668882603623e-01 -5.106957881962096e-17

-3.027638134907830e-17 -1.050780975926774e-19  1.236250523792666e+00
-1.050780975926774e-19 -1.851845696504063e-17  5.117847335412758e-01
 1.236250523792666e+00  5.117847335412758e-01 -4.424459463365548e-17

-2.823869617261372e-17 -2.596204081289766e-19  1.023748270727850e+00
-2.596204081289766e-19 -1.522798324732016e-17  7.623765432408731e-01
 1.023748270727850e+00  7.623765432408731e-01 -3.762492973515227e-17

-3.028172439227221e-17 -2.483189513572221e-19  1.245306871193374e+00
-2.483189513572221e-19 -1.836472267430371e-17  5.182851997427051e-01
 1.245306871193374e+00  5.182851997427051e-01 -4.465705065885674e-17

-2.938273319911679e-17  6.195527374673553e-21  1.238747185984752e+00
 6.195527374673553e-21 -1.897622776336252e-17  3.905436159529194e-01
 1.238747185984752e+00  3.905436159529194e-01 -4.334021269595816e-17

-2.822018411115304e-17 -1.626391014926207e-20  1.164016819774601e+00
-1.626391014926207e-20 -1.765495033852737e-17  4.160406618015537e-01
 1.164016819774601e+00  4.160406618015537e-01 -4.057061021701989e-17

-2.699544565182871e-17 -7.413311129165060e-20  1.091709577086546e+00
-7.413311129165060e-20 -1.615021855053259e-17  4.482627908009101e-01
 1.091709577086546e+00  4.482627908009101e-01 -3.794866237988747e-17

-2.635296761583813e-17 -1.063791568131239e-19  1.066831103351015e+00
-1.063791568131239e-19 -1.504720237952682e-17  4.494997560251823e-01
 1.066831103351015e+00  4.494997560251823e-01 -3.699143554852220e-17

-2.567892878975028e-17 -1.551563595442273e-19  1.036356359413178e+00
-1.551563595442273e-19 -1.399295095982911e-17  4.585222808481847e-01
 1.036356359413178e+00  4.585222808481847e-01 -3.590301985025191e-17

-2.457797121750695e-17 -1.532806267809751e-19  9.686506501654972e-01
-1.532806267809751e-19 -1.299190505351140e-17  4.778038032516127e-01
 9.686506501654972e-01  4.778038032516127e-01 -3.343374401495877e-17

-2.366822821395306e-17 -5.546456101393380e-20  9.347332479591083e-01
-5.546456101393380e-20 -1.274272219626241e-17  4.321920570112165e-01
 9.347332479591083e-01  4.321920570112165e-01 -3.188584518571218e-17

-2.357476119539832e-17 -1.983816668860882e-19  9.444305997483631e-01
-1.983816668860882e-19 -1.282184005854816e-17  4.054683790157435e-01
 9.444305997483631e-01  4.054683790157435e-01 -3.243240670853386e-17

-2.074973686782371e-17 -3.725912341663089e-19  6.460150708956289e-01
-3.725912341663089e-19 -6.191208911416387e-18  7.898178423543019e-01
 6.460150708956289e-01  7.898178423543019e-01 -2.296504202208414e-17

-2.219240595274750e-17 -2.246353424316963e-19  8.236956558180089e-01
-2.246353424316963e-19 -1.018438006701568e-17  5.298822235718487e-01
 8.236956558180089e-01  5.298822235718487e-01 -2.837152162654823e-17

-2.309080743087391e-17 -1.965403959573866e-20  9.649076245510417e-01
-1.965403959573866e-20 -1.474076063433214e-17  2.432318789422149e-01
 9.649076245510417e-01  2.432318789422149e-01 -3.246251978460264e-17

-2.331220442348537e-17 -1.392539334636955e-19  9.356817902308265e-01
-1.392539334636955e-19 -1.269320342016826e-17  3.898315324951029e-01
 9.356817902308265e-01  3.898315324951029e-01 -3.200664372756401e-17

-2.223532682526274e-17  2.823657876335727e-19  8.091830581053228e-01
 2.823657876335727e-19 -9.216334546330900e-18  5.828408369624443e-01
 8.091830581053228e-01  5.828408369624443e-01 -2.741717022758401e-17

-2.263670253484613e-17  1.947374359391531e-19  8.319300027210532e-01
 1.947374359391531e-19 -9.800265551455085e-18  5.723156047252103e-01
 8.319300027210532e-01  5.723156047252103e-01 -2.834343529492624e-17

-2.562268998382273e-17  1.963775789526111e-20  1.101502583528466e+00
 1.963775789526111e-20 -1.527384399738000e-17  2.986944976394951e-01
 1.101502583528466e+00  2.986944976394951e-01 -3.794340347169322e-17

-2.527381536295712e-17 -1.626722568935546e-20  1.052968057017315e+00
-1.626722568935546e-20 -1.419631175647205e-17  3.710480800415013e-01
 1.052968057017315e+00  3.710480800415013e-01 -3.636682734444212e-17

-2.449764904366861e-17 -1.134190042685479e-19  9.745350075219493e-01
-1.134190042685479e-19 -1.263923946131661e-17  4.584008839979070e-01
 9.745350075219493e-01  4.584008839979070e-01 -3.377774851063260e-17

-2.531744721166350e-17 -7.372359206864785e-20  1.068348069806684e+00
-7.372359206864785e-20 -1.445824368664289e-17  3.456030414176916e-01
 1.068348069806684e+00  3.456030414176916e-01 -3.697999685946038e-17

-2.489009195162206e-17 -1.907236730411359e-19  1.045855973087196e+00
-1.907236730411359e-19 -1.375618100718713e-17  3.637030776025716e-01
 1.045855973087196e+00  3.637030776025716e-01 -3.632412151609444e-17

-2.253953920398050e-17 -4.399975989115448e-19  8.875694750282084e-01
-4.399975989115448e-19 -1.100480061643895e-17  4.587654125957164e-01
 8.875694750282084e-01  4.587654125957164e-01 -3.109878872678273e-17

-2.016742502301941e-17  1.531015657379717e-19  7.941199931847557e-01
 1.531015657379717e-19 -1.104646929431648e-17  3.335517332450563e-01
 7.941199931847557e-01  3.335517332450563e-01 -2.605719640725402e-17

-2.268738985541059e-17  1.698364542579851e-19  1.043371597762601e+00
 1.698364542579851e-19 -1.543518470308340e-17  8.184591881484145e-02
 1.043371597762601e+00  8.184591881484145e-02 -3.453997297346165e-17

-2.017343247608959e-17 -2.339156226513069e-19  7.843597793969879e-01
-2.339156226513069e-19 -1.012137545328863e-17  3.957645484846885e-01
 7.843597793969879e-01  3.957645484846885e-01 -2.651806924786362e-17

-2.107065565874168e-17 -2.593320395628885e-19  8.314944707207381e-01
-2.593320395628885e-19 -9.332592066735659e-18  4.566330462743688e-01
 8.314944707207381e-01  4.566330462743688e-01 -2.820306091587229e-17

-2.028564398876659e-17 -5.119336462802785e-19  7.569605996837576e-01
-5.119336462802785e-19 -9.355036839781196e-18  4.739056062588634e-01
 7.569605996837576e-01  4.739056062588634e-01 -2.577860400997932e-17

-2.399525477951351e-17 -1.570491022491800e-18  1.047583233580194e+00
-1.570491022491800e-18 -1.628756961147870e-17  1.922815535298094e-01
 1.047583233580194e+00  1.922815535298094e-01 -3.527232826004446e-17

-2.620363903129149e-17 -1.278317226861898e-18  1.175692987098069e+00
-1.278317226861898e-18 -1.565997082356470e-17  2.650885188009566e-01
 1.175692987098069e+00  2.650885188009566e-01 -3.940719442801629e-17

-2.125407314963776e-17  1.124790733208223e-18  7.286815000954338e-01
 1.124790733208223e-18 -7.407607368631922e-18  6.331187852213263e-01
 7.286815000954338e-01  6.331187852213263e-01 -2.875906049019019e-17

-2.312131037182600e-17 -4.435488484418779e-19  7.640720781240468e-01
-4.435488484418779e-19 -7.622827972942394e-18  8.187636370543124e-01
 7.640720781240468e-01  8.187636370543124e-01 -3.257963100676301e-17

-2.641840478898389e-17 -1.402439886295085e-19  1.139540008489186e+00
-1.402439886295085e-19 -1.274581544630985e-17  4.310075564925194e-01
 1.139540008489186e+00  4.310075564925194e-01 -4.049913853494336e-17

-3.083705174219996e-17  1.092617738720628e-18  1.649462605824555e+00
 1.092617738720628e-18 -1.975598291703178e-17 -9.767407584797866e-02
 1.649462605824555e+00 -9.767407584797866e-02 -5.202975416812743e-17

-2.307137183487704e-17  3.584711749765198e-19  9.883427309124001e-01
 3.584711749765198e-19 -1.262314439051964e-17  2.965194878077420e-01
 9.883427309124001e-01  2.965194878077420e-01 -3.219179947133438e-17

-2.058943376502878e-17 -2.218036043253561e-19  7.770493729570231e-01
-2.218036043253561e-19 -9.408728393176846e-18  4.729641166850451e-01
 7.770493729570231e-01  4.729641166850451e-01 -2.643982200084770e-17

-1.970927632855257e-17 -5.045373005794171e-20  7.734265284795874e-01
-5.045373005794171e-20 -1.092255005256346e-17  3.322450172873504e-01
 7.734265284795874e-01  3.322450172873504e-01 -2.561781495388188e-17

-2.271335657640120e-17 -5.493231581023013e-19  1.034986279957350e+00
-5.493231581023013e-19 -1.587663674284024e-17  1.007406690285514e-01
 1.034986279957350e+00  1.007406690285514e-01 -3.501437739996137e-17

-2.033871140308222e-17 -1.368556057055010e-19  7.826799386123664e-01
-1.368556057055010e-19 -8.921379100813652e-18  4.761337579096172e-01
 7.826799386123664e-01  4.761337579096172e-01 -2.636136389194417e-17

-2.219843012603131e-17 -3.587891690777661e-19  9.012218072653859e-01
-3.587891690777661e-19 -1.101270160047037e-17  4.249118054759027e-01
 9.012218072653859e-01  4.249118054759027e-01 -3.057320167661108e-17

-2.308845151806006e-17 -4.598120008934833e-19  9.486738448238546e-01
-4.598120008934833e-19 -1.260579528831501e-17  3.884664642706395e-01
 9.486738448238546e-01  3.884664642706395e-01 -3.227917191049213e-17

-2.356216984805176e-17 -2.741226812498538e-19  9.472958541976432e-01
-2.741226812498538e-19 -1.145493164352438e-17  4.842528949235046e-01
 9.472958541976432e-01  4.842528949235046e-01 -3.207980070440297e-17

-2.507370751265562e-17 -4.428992605245830e-19  1.057942596735857e+00
-4.428992605245830e-19 -1.416984054868223e-17  3.868909051337068e-01
 1.057942596735857e+00  3.868909051337068e-01 -3.616130629019033e-17

-2.536672648727896e-17 -4.619338627536187e-19  1.062522040290689e+00
-4.619338627536187e-19 -1.412383807955146e-17  4.082934347458582e-01
 1.062522040290689e+00  4.082934347458582e-01 -3.635661118946982e-17

-2.509426389557684e-17 -4.661419554436863e-19  1.034020147069836e+00
-4.661419554436863e-19 -1.392416975843514e-17  4.325283524134612e-01
 1.034020147069836e+00  4.325283524134612e-01 -3.535252297719167e-17

-2.527066208127579e-17 -4.592463519476806e-19  1.051499909613044e+00
-4.592463519476806e-19 -1.425232984052713e-17  4.080261075055145e-01
 1.051499909613044e+00  4.080261075055145e-01 -3.592337661552141e-17

-2.532082357012417e-17 -4.462765499824855e-19  1.054382041808823e+00
-4.462765499824855e-19 -1.411452103884786e-17  4.093955349633506e-01
 1.054382041808823e+00  4.093955349633506e-01 -3.600508317817371e-17

-2.520345856751485e-17 -4.252167486543481e-19  1.043632421268682e+00
-4.252167486543481e-19 -1.403032689138353e-17  4.193277828179875e-01
 1.043632421268682e+00  4.193277828179875e-01 -3.560495917235996e-17

-2.507861430648587e-17 -3.901948294907569e-19  1.031532158990039e+00
-3.901948294907569e-19 -1.367287222258195e-17  4.347689241007154e-01
 1.031532158990039e+00  4.347689241007154e-01 -3.518777133206850e-17

-2.505019544391826e-17 -3.708969739788176e-19  1.031495958827434e+00
-3.708969739788176e-19 -1.356986278253136e-17  4.302105929821173e-01
 1.031495958827434e+00  4.302105929821173e-01 -3.518260172074611e-17

-2.500378335796034e-17 -3.282617997134207e-19  1.030242840418151e+00
-3.282617997134207e-19 -1.358004891966407e-17  4.269318903699777e-01
 1.030242840418151e+00  4.269318903699777e-01 -3.514017087241092e-17

-2.483346476515761e-17 -3.116550039677419e-19  1.017568734117932e+00
-3.116550039677419e-19 -1.316134436667876e-17  4.386454276897166e-01
 1.017568734117932e+00  4.386454276897166e-01 -3.471728759916578e-17

-2.457891581044174e-17 -2.567363973578901e-19  1.007661270422650e+00
-2.567363973578901e-19 -1.286922843468379e-17  4.262494304462628e-01
 1.007661270422650e+00  4.262494304462628e-01 -3.434040680993921e-17

-2.405259087863264e-17 -1.999752242088377e-19  9.747599918615224e-01
-1.999752242088377e-19 -1.204989510849420e-17  4.434200848080349e-01
 9.747599918615224e-01  4.434200848080349e-01 -3.323108096810902e-17

-2.299850189956827e-17 -9.834357889653708e-20  9.175079436005010e-01
-9.834357889653708e-20 -1.187281095552045e-17  4.138887860860607e-01
 9.175079436005010e-01  4.138887860860607e-01 -3.114017010174841e-17

-2.383066267760988e-17 -1.529199931938245e-19  9.916619580570822e-01
-1.529199931938245e-19 -1.314463732833119e-17  3.427068092215963e-01
 9.916619580570822e-01  3.427068092215963e-01 -3.392933576969383e-17

-2.361862937864175e-17 -2.375731291932783e-20  9.498641130953662e-01
-2.375731291932783e-20 -1.186846602239625e-17  4.429803257203596e-01
 9.498641130953662e-01  4.429803257203596e-01 -3.248117654445330e-17

-2.441303472864806e-17 -7.947303382436085e-20  1.008425947873135e+00
-7.947303382436085e-20 -1.301216703709345e-17  3.982747827629199e-01
 1.008425947873135e+00  3.982747827629199e-01 -3.464047551263603e-17

-2.435666111212767e-17 -8.241364470280942e-20  9.966219724201482e-01
-8.241364470280942e-20 -1.261900357470022e-17  4.170010810699237e-01
 9.966219724201482e-01  4.170010810699237e-01 -3.421153767221693e-17

-2.404258187839462e-17 -8.687711867536621e-20  9.673227773745459e-01
-8.687711867536621e-20 -1.222106641937799e-17  4.569078818378434e-01
 9.673227773745459e-01  4.569078818378434e-01 -3.315014994388205e-17

-2.443962068941059e-17 -1.111705674275882e-19  1.008315348292622e+00
-1.111705674275882e-19 -1.326200566951874e-17  3.938209778362310e-01
 1.008315348292622e+00  3.938209778362310e-01 -3.456180303207751e-17

-2.421846617945319e-17 -1.188460725258710e-19  9.844399438551028e-01
-1.188460725258710e-19 -1.301328083010499e-17  4.229881135156681e-01
 9.844399438551028e-01  4.229881135156681e-01 -3.371756538524219e-17

-2.452045187060227e-17 -1.161006919654186e-19  1.000216430788402e+00
-1.161006919654186e-19 -1.324286648176255e-17  4.240076293507800e-01
 1.000216430788402e+00  4.240076293507800e-01 -3.429508497140561e-17

-2.476326030037813e-17 -1.189597597847285e-19  1.013257770786895e+00
-1.189597597847285e-19 -1.302926610020451e-17  4.241414812100163e-01
 1.013257770786895e+00  4.241414812100163e-01 -3.477672091604659e-17

-2.477209859166437e-17 -1.181705473537321e-19  1.007287000066821e+00
-1.181705473537321e-19 -1.239177891527654e-17  4.412064313342652e-01
 1.007287000066821e+00  4.412064313342652e-01 -3.457223757427392e-17

-2.502694784781326e-17 -1.181198126321276e-19  1.026341327207079e+00
-1.181198126321276e-19 -1.366479617853719e-17  4.115281943766798e-01
 1.026341327207079e+00  4.115281943766798e-01 -3.525607617935050e-17


CELL_DATA 1769
SCALARS dislocation_index int
LOOKUP_TABLE default
0
1
2
3
4
5
6
7
8
9
10
11
12
13
14
15
16
17
18
19
20
21
22
23
24
25
26
27
28
29
30
31
32
33
34
35
36
37
38
39
40
41
42
43
44
45
46
47
48
49
50
51
52
53
54
55
56
57
58
59
60
61
62
63
64
65
66
67
68
69
70
71
72
73
74
75
76
77
78
79
80
81
82
83
84
85
86
87
88
89
90
91
92
93
94
95
96
97
98
99
100
101
102
103
104
105
106
107
108
109
110
111
112
113
114
115
116
117
118
119
120
121
122
123
124
125
126
127
128
129
130
131
132
133
134
135
136
137
138
139
140
141
142
143
144
145
146
147
148
149
150
151
152
153
154
155
156
157
158
159
160
161
162
163
164
165
166
167
168
169
170
171
172
173
174
175
176
177
178
179
180
181
182
183
184
185
186
187
188
189
190
191
192
193
194
195
196
197
198
199
200
201
202
203
204
205
206
207
208
209
210
211
212
213
214
215
216
217
218
219
220
221
222
223
224
225
226
227
228
229
230
231
232
233
234
235
236
237
238
239
240
241
242
243
244
245
246
247
248
249
250
251
252
253
254
255
256
257
258
259
260
261
262
263
264
265
266
267
268
269
270
271
272
273
274
275
276
277
278
279
280
281
282
283
284
285
286
287
288
289
290
291
292
293
294
295
296
297
298
299
300
301
302
303
304
305
306
307
308
309
310
311
312
313
314
315
316
317
318
319
320
321
322
323
324
325
326
327
328
329
330
331
332
333
334
335
336
337
338
339
340
341
342
343
344
345
346
347
348
349
350
351
352
353
354
355
356
357
358
359
360
361
362
363
364
365
366
367
368
369
370
371
372
373
374
375
376
377
378
379
380
381
382
383
384
385
386
387
388
389
390
391
392
393
394
395
396
397
398
399
400
401
402
403
404
405
406
407
408
409
410
411
412
413
414
415
416
417
418
419
420
421
422
423
424
425
426
427
428
429
430
431
432
433
434
435
436
437
438
439
440
441
442
443
444
445
446
447
448
449
450
451
452
453
454
455
456
457
458
459
460
461
462
463
464
465
466
467
468
469
470
471
472
473
474
475
476
477
478
479
480
481
482
483
484
485
486
487
488
489
490
491
492
493
494
495
496
497
498
499
500
501
502
503
504
505
506
507
508
509
510
511
512
513
514
515
516
517
518
519
520
521
522
523
524
525
526
527
528
529
530
531
532
533
534
535
536
537
538
539
540
541
542
543
544
545
546
547
548
549
550
551
552
553
554
555
556
557
558
559
560
561
562
563
564
565
566
567
568
569
570
571
572
573
574
575
576
577
578
579
580
581
582
583
584
585
586
587
588
589
590
591
592
593
594
595
596
597
598
599
600
601
602
603
604
605
606
607
608
609
610
611
612
613
614
615
616
617
618
619
620
621
622
623
624
625
626
627
628
629
630
631
632
633
634
635
636
637
638
639
640
641
642
643
644
645
646
647
648
649
650
651
652
653
654
655
656
657
658
659
660
661
662
663
664
665
666
667
668
669
670
671
672
673
674
675
676
677
678
679
680
681
682
683
684
685
686
687
688
689
690
691
692
693
694
695
696
697
698
699
700
701
702
703
704
705
706
707
708
709
710
711
712
713
714
715
716
717
718
719
720
721
722
723
724
725
726
727
728
729
730
731
732
733
734
735
736
737
738
739
740
741
742
743
744
745
746
747
748
749
750
751
752
753
754
755
756
757
758
759
760
761
762
763
764
765
766
767
768
769
770
771
772
773
774
775
776
777
778
779
780
781
782
783
784
785
786
787
788
789
790
791
792
793
794
795
796
797
798
799
800
801
802
803
804
805
806
807
808
809
810
811
812
813
814
815
816
817
818
819
820
821
822
823
824
825
826
827
828
829
830
831
832
833
834
835
836
837
838
839
840
841
842
843
844
845
846
847
848
849
850
851
852
853
854
855
856
857
858
859
860
861
862
863
864
865
866
867
868
869
870
871
872
873
874
875
876
877
878
879
880
881
882
883
884
885
886
887
888
889
890
891
892
893
894
895
896
897
898
899
900
901
902
903
904
905
906
907
908
909
910
911
912
913
914
915
916
917
918
919
920
921
922
923
924
925
926
927
928
929
930
931
932
933
934
935
936
937
938
939
940
941
942
943
944
945
946
947
948
949
950
951
952
953
954
955
956
957
958
959
960
961
962
963
964
965
966
967
968
969
970
971
972
973
974
975
976
977
978
979
980
981
982
983
984
985
986
987
988
989
990
991
992
993
994
995
996
997
998
999
1000
1001
1002
1003
1004
1005
1006
1007
1008
1009
1010
1011
1012
1013
1014
1015
1016
1017
1018
1019
1020
1021
1022
1023
1024
1025
1026
1027
1028
1029
1030
1031
1032
1033
1034
1035
1036
1037
1038
1039
1040
1041
1042
1043
1044
1045
1046
1047
1048
1049
1050
1051
1052
1053
1054
1055
1056
1057
1058
1059
1060
1061
1062
1063
1064
1065
1066
1067
1068
1069
1070
1071
1072
1073
1074
1075
1076
1077
1078
1079
1080
1081
1082
1083
1084
1085
1086
1087
1088
1089
1090
1091
1092
1093
1094
1095
1096
1097
1098
1099
1100
1101
1102
1103
1104
1105
1106
1107
1108
1109
1110
1111
1112
1113
1114
1115
1116
1117
1118
1119
1120
1121
1122
1123
1124
1125
1126
1127
1128
1129
1130
1131
1132
1133
1134
1135
1136
1137
1138
1139
1140
1141
1142
1143
1144
1145
1146
1147
1148
1149
1150
1151
1152
1153
1154
1155
1156
1157
1158
1159
1160
1161
1162
1163
1164
1165
1166
1167
1168
1169
1170
1171
1172
1173
1174
1175
1176
1177
1178
1179
1180
1181
1182
1183
1184
1185
1186
1187
1188
1189
1190
1191
1192
1193
1194
1195
1196
1197
1198
1199
1200
1201
1202
1203
1204
1205
1206
1207
1208
1209
1210
1211
1212
1213
1214
1215
1216
1217
1218
1219
1220
1221
1222
1223
1224
1225
1226
1227
1228
1229
1230
1231
1232
1233
1234
1235
1236
1237
1238
1239
1240
1241
1242
1243
1244
1245
1246
1247
1248
1249
1250
1251
1252
1253
1254
1255
1256
1257
1258
1259
1260
1261
1262
1263
1264
1265
1266
1267
1268
1269
1270
1271
1272
1273
1274
1275
1276
1277
1278
1279
1280
1281
1282
1283
1284
1285
1286
1287
1288
1289
1290
1291
1292
1293
1294
1295
1296
1297
1298
1299
1300
1301
1302
1303
1304
1305
1306
1307
1308
1309
1310
1311
1312
1313
1314
1315
1316
1317
1318
1319
1320
1321
1322
1323
1324
1325
1326
1327
1328
1329
1330
1331
1332
1333
1334
1335
1336
1337
1338
1339
1340
1341
1342
1343
1344
1345
1346
1347
1348
1349
1350
1351
1352
1353
1354
1355
1356
1357
1358
1359
1360
1361
1362
1363
1364
1365
1366
1367
1368
1369
1370
1371
1372
1373
1374
1375
1376
1377
1378
1379
1380
1381
1382
1383
1384
1385
1386
1387
1388
1389
1390
1391
1392
1393
1394
1395
1396
1397
1398
1399
1400
1401
1402
1403
1404
1405
1406
1407
1408
1409
1410
1411
1412
1413
1414
1415
1416
1417
1418
1419
1420
1421
1422
1423
1424
1425
1426
1427
1428
1429
1430
1431
1432
1433
1434
1435
1436
1437
1438
1439
1440
1441
1442
1443
1444
1445
1446
1447
1448
1449
1450
1451
1452
1453
1454
1455
1456
1457
1458
1459
1460
1461
1462
1463
1464
1465
1466
1467
1468
1469
1470
1471
1472
1473
1474
1475
1476
1477
1478
1479
1480
1481
1482
1483
1484
1485
1486
1487
1488
1489
1490
1491
1492
1493
1494
1495
1496
1497
1498
1499
1500
1501
1502
1503
1504
1505
1506
1507
1508
1509
1510
1511
1512
1513
1514
1515
1516
1517
1518
1519
1520
1521
1522
1523
1524
1525
1526
1527
1528
1529
1530
1531
1532
1533
1534
1535
1536
1537
1538
1539
1540
1541
1542
1543
1544
1545
1546
1547
1548
1549
1550
1551
1552
1553
1554
1555
1556
1557
1558
1559
1560
1561
1562
1563
1564
1565
1566
1567
1568
1569
1570
1571
1572
1573
1574
1575
1576
1577
1578
1579
1580
1581
1582
1583
1584
1585
1586
1587
1588
1589
1590
1591
1592
1593
1594
1595
1596
1597
1598
1599
1600
1601
1602
1603
1604
1605
1606
1607
1608
1609
1610
1611
1612
1613
1614
1615
1616
1617
1618
1619
1620
1621
1622
1623
1624
1625
1626
1627
1628
1629
1630
1631
1632
1633
1634
1635
1636
1637
1638
1639
1640
1641
1642
1643
1644
1645
1646
1647
1648
1649
1650
1651
1652
1653
1654
1655
1656
1657
1658
1659
1660
1661
1662
1663
1664
1665
1666
1667
1668
1669
1670
1671
1672
1673
1674
1675
1676
1677
1678
1679
1680
1681
1682
1683
1684
1685
1686
1687
1688
1689
1690
1691
1692
1693
1694
1695
1696
1697
1698
1699
1700
1701
1702
1703
1704
1705
1706
1707
1708
1709
1710
1711
1712
1713
1714
1715
1716
1717
1718
1719
1720
1721
1722
1723
1724
1725
1726
1727
1728
1729
1730
1731
1732
1733
1734
1735
1736
1737
1738
1739
1740
1741
1742
1743
1744
1745
1746
1747
1748
1749
1750
1751
1752
1753
1754
1755
1756
1757
1758
1759
1760
1761
1762
1763
1764
1765
1766
1767
1768

VECTORS burgers_vector_global double
-1.429999999999999e+00 -8.256108849411650e-01  3.393140768766017e-17
 1.429999999999999e+00  8.256108849411650e-01 -3.393140768766017e-17
-1.429999999999999e+00 -8.256108849411650e-01  3.393140768766017e-17
-1.429999999999999e+00 -8.256108849411650e-01  3.393140768766017e-17
-1.429999999999999e+00 -8.256108849411650e-01  3.393140768766017e-17
-1.429999999999999e+00 -8.256108849411650e-01  3.393140768766017e-17
-1.429999999999999e+00 -8.256108849411650e-01  3.393140768766017e-17
-1.429999999999999e+00 -8.256108849411650e-01  3.393140768766017e-17
-1.429999999999999e+00 -8.256108849411650e-01  3.393140768766017e-17
-1.429999999999999e+00 -8.256108849411650e-01  3.393140768766017e-17
-1.429999999999999e+00 -8.256108849411650e-01  3.393140768766017e-17
-1.429999999999999e+00 -8.256108849411650e-01  3.393140768766017e-17
-1.429999999999999e+00 -8.256108849411650e-01  3.393140768766017e-17
-1.429999999999999e+00 -8.256108849411650e-01  3.393140768766017e-17
-1.429999999999999e+00 -8.256108849411650e-01  3.393140768766017e-17
-1.429999999999999e+00 -8.256108849411650e-01  3.393140768766017e-17
-1.429999999999999e+00 -8.256108849411650e-01  3.393140768766017e-17
-1.429999999999999e+00 -8.256108849411650e-01  3.393140768766017e-17
-1.429999999999999e+00 -8.256108849411650e-01  3.393140768766017e-17
-1.429999999999999e+00 -8.256108849411650e-01  3.393140768766017e-17
-1.429999999999999e+00 -8.256108849411650e-01  3.393140768766017e-17
-1.429999999999999e+00 -8.256108849411650e-01  3.393140768766017e-17
-1.429999999999999e+00 -8.256108849411650e-01  3.393140768766017e-17
-1.429999999999999e+00 -8.256108849411650e-01  3.393140768766017e-17
-1.429999999999999e+00 -8.256108849411650e-01  3.393140768766017e-17
-1.429999999999999e+00 -8.256108849411650e-01  3.393140768766017e-17
-1.429999999999999e+00 -8.256108849411650e-01  3.393140768766017e-17
-1.429999999999999e+00 -8.256108849411650e-01  3.393140768766017e-17
-1.429999999999999e+00 -8.256108849411650e-01  3.393140768766017e-17
-1.429999999999999e+00 -8.256108849411650e-01  3.393140768766017e-17
-1.429999999999999e+00 -8.256108849411650e-01  3.393140768766017e-17
-1.429999999999999e+00 -8.256108849411650e-01  3.393140768766017e-17
-1.429999999999999e+00 -8.256108849411650e-01  3.393140768766017e-17
-1.429999999999999e+00 -8.256108849411650e-01  3.393140768766017e-17
-1.429999999999999e+00 -8.256108849411650e-01  3.393140768766017e-17
-1.429999999999999e+00 -8.256108849411650e-01  3.393140768766017e-17
-1.429999999999999e+00 -8.256108849411650e-01  3.393140768766017e-17
-1.429999999999999e+00 -8.256108849411650e-01  3.393140768766017e-17
-1.429999999999999e+00 -8.256108849411650e-01  3.393140768766017e-17
-1.429999999999999e+00 -8.256108849411650e-01  3.393140768766017e-17
-1.429999999999999e+00 -8.256108849411650e-01  3.393140768766017e-17
-1.429999999999999e+00 -8.256108849411650e-01  3.393140768766017e-17
-1.429999999999999e+00 -8.256108849411650e-01  3.393140768766017e-17
-1.429999999999999e+00 -8.256108849411650e-01  3.393140768766017e-17
-1.429999999999999e+00 -8.256108849411650e-01  3.393140768766017e-17
-1.429999999999999e+00 -8.256108849411650e-01  3.393140768766017e-17
-1.429999999999999e+00 -8.256108849411650e-01  3.393140768766017e-17
-1.429999999999999e+00 -8.256108849411650e-01  3.393140768766017e-17
-1.429999999999999e+00 -8.256108849411650e-01  3.393140768766017e-17
-1.429999999999999e+00 -8.256108849411650e-01  3.393140768766017e-17
-1.429999999999999e+00 -8.256108849411650e-01  3.393140768766017e-17
-1.429999999999999e+00 -8.256108849411650e-01  3.393140768766017e-17
-1.429999999999999e+00 -8.256108849411650e-01  3.393140768766017e-17
-1.429999999999999e+00 -8.256108849411650e-01  3.393140768766017e-17
-1.429999999999999e+00 -8.256108849411650e-01  3.393140768766017e-17
-1.429999999999999e+00 -8.256108849411650e-01  3.393140768766017e-17
-1.429999999999999e+00 -8.256108849411650e-01  3.393140768766017e-17
-1.429999999999999e+00 -8.256108849411650e-01  3.393140768766017e-17
-1.429999999999999e+00 -8.256108849411650e-01  3.393140768766017e-17
-1.429999999999999e+00 -8.256108849411650e-01  3.393140768766017e-17
-1.429999999999999e+00 -8.256108849411650e-01  3.393140768766017e-17
-1.429999999999999e+00 -8.256108849411650e-01  3.393140768766017e-17
-1.429999999999999e+00 -8.256108849411650e-01  3.393140768766017e-17
-1.429999999999999e+00 -8.256108849411650e-01  3.393140768766017e-17
-1.429999999999999e+00 -8.256108849411650e-01  3.393140768766017e-17
-1.429999999999999e+00 -8.256108849411650e-01  3.393140768766017e-17
-1.429999999999999e+00 -8.256108849411650e-01  3.393140768766017e-17
-1.429999999999999e+00 -8.256108849411650e-01  3.393140768766017e-17
-1.429999999999999e+00 -8.256108849411650e-01  3.393140768766017e-17
-1.429999999999999e+00 -8.256108849411650e-01  3.393140768766017e-17
-1.429999999999999e+00 -8.256108849411650e-01  3.393140768766017e-17
-1.429999999999999e+00 -8.256108849411650e-01  3.393140768766017e-17
-1.429999999999999e+00 -8.256108849411650e-01  3.393140768766017e-17
-1.429999999999999e+00 -8.256108849411650e-01  3.393140768766017e-17
-1.429999999999999e+00 -8.256108849411650e-01  3.393140768766017e-17
-1.429999999999999e+00 -8.256108849411650e-01  3.393140768766017e-17
-1.429999999999999e+00 -8.256108849411650e-01  3.393140768766017e-17
-1.429999999999999e+00 -8.256108849411650e-01  3.393140768766017e-17
-1.429999999999999e+00 -8.256108849411650e-01  3.393140768766017e-17
-1.429999999999999e+00 -8.256108849411650e-01  3.393140768766017e-17
-1.429999999999999e+00 -8.256108849411650e-01  3.393140768766017e-17
-1.429999999999999e+00 -8.256108849411650e-01  3.393140768766017e-17
-1.429999999999999e+00 -8.256108849411650e-01  3.393140768766017e-17
-1.429999999999999e+00 -8.256108849411650e-01  3.393140768766017e-17
-1.429999999999999e+00 -8.256108849411650e-01  3.393140768766017e-17
-1.429999999999999e+00 -8.256108849411650e-01  3.393140768766017e-17
-1.429999999999999e+00 -8.256108849411650e-01  3.393140768766017e-17
-1.429999999999999e+00 -8.256108849411650e-01  3.393140768766017e-17
-1.429999999999999e+00 -8.256108849411650e-01  3.393140768766017e-17
-1.429999999999999e+00 -8.256108849411650e-01  3.393140768766017e-17
-1.429999999999999e+00 -8.256108849411650e-01  3.393140768766017e-17
-1.429999999999999e+00 -8.256108849411650e-01  3.393140768766017e-17
-1.429999999999999e+00 -8.256108849411650e-01  3.393140768766017e-17
-1.429999999999999e+00 -8.256108849411650e-01  3.393140768766017e-17
-1.429999999999999e+00 -8.256108849411650e-01  3.393140768766017e-17
-1.429999999999999e+00 -8.256108849411650e-01  3.393140768766017e-17
-1.429999999999999e+00 -8.256108849411650e-01  3.393140768766017e-17
-1.429999999999999e+00 -8.256108849411650e-01  3.393140768766017e-17
-1.429999999999999e+00 -8.256108849411650e-01  3.393140768766017e-17
-1.429999999999999e+00 -8.256108849411650e-01  3.393140768766017e-17
-1.429999999999999e+00 -8.256108849411650e-01  3.393140768766017e-17
-1.429999999999999e+00 -8.256108849411650e-01  3.393140768766017e-17
-1.429999999999999e+00 -8.256108849411650e-01  3.393140768766017e-17
-1.429999999999999e+00 -8.256108849411650e-01  3.393140768766017e-17
-1.429999999999999e+00 -8.256108849411650e-01  3.393140768766017e-17
-1.429999999999999e+00 -8.256108849411650e-01  3.393140768766017e-17
-1.429999999999999e+00 -8.256108849411650e-01  3.393140768766017e-17
-1.429999999999999e+00 -8.256108849411650e-01  3.393140768766017e-17
-1.429999999999999e+00 -8.256108849411650e-01  3.393140768766017e-17
-1.429999999999999e+00 -8.256108849411650e-01  3.393140768766017e-17
-1.429999999999999e+00 -8.256108849411650e-01  3.393140768766017e-17
-1.429999999999999e+00 -8.256108849411650e-01  3.393140768766017e-17
-1.429999999999999e+00 -8.256108849411650e-01  3.393140768766017e-17
-1.429999999999999e+00 -8.256108849411650e-01  3.393140768766017e-17
-1.429999999999999e+00 -8.256108849411650e-01  3.393140768766017e-17
-1.429999999999999e+00 -8.256108849411650e-01  3.393140768766017e-17
-1.429999999999999e+00 -8.256108849411650e-01  3.393140768766017e-17
-1.429999999999999e+00 -8.256108849411650e-01  3.393140768766017e-17
-1.429999999999999e+00 -8.256108849411650e-01  3.393140768766017e-17
-1.429999999999999e+00 -8.256108849411650e-01  3.393140768766017e-17
-1.429999999999999e+00 -8.256108849411650e-01  3.393140768766017e-17
-1.429999999999999e+00 -8.256108849411650e-01  3.393140768766017e-17
-1.429999999999999e+00 -8.256108849411650e-01  3.393140768766017e-17
-1.429999999999999e+00 -8.256108849411650e-01  3.393140768766017e-17
-1.429999999999999e+00 -8.256108849411650e-01  3.393140768766017e-17
-1.429999999999999e+00 -8.256108849411650e-01  3.393140768766017e-17
-1.429999999999999e+00 -8.256108849411650e-01  3.393140768766017e-17
-1.429999999999999e+00 -8.256108849411650e-01  3.393140768766017e-17
-1.429999999999999e+00 -8.256108849411650e-01  3.393140768766017e-17
-1.429999999999999e+00 -8.256108849411650e-01  3.393140768766017e-17
-1.429999999999999e+00 -8.256108849411650e-01  3.393140768766017e-17
-1.429999999999999e+00 -8.256108849411650e-01  3.393140768766017e-17
-1.429999999999999e+00 -8.256108849411650e-01  3.393140768766017e-17
-1.429999999999999e+00 -8.256108849411650e-01  3.393140768766017e-17
-1.429999999999999e+00 -8.256108849411650e-01  3.393140768766017e-17
-1.429999999999999e+00 -8.256108849411650e-01  3.393140768766017e-17
-1.429999999999999e+00 -8.256108849411650e-01  3.393140768766017e-17
-1.429999999999999e+00 -8.256108849411650e-01  3.393140768766017e-17
-1.429999999999999e+00 -8.256108849411650e-01  3.393140768766017e-17
-1.429999999999999e+00 -8.256108849411650e-01  3.393140768766017e-17
-1.429999999999999e+00 -8.256108849411650e-01  3.393140768766017e-17
-1.429999999999999e+00 -8.256108849411650e-01  3.393140768766017e-17
-1.429999999999999e+00 -8.256108849411650e-01  3.393140768766017e-17
-1.429999999999999e+00 -8.256108849411650e-01  3.393140768766017e-17
-1.429999999999999e+00 -8.256108849411650e-01  3.393140768766017e-17
-1.429999999999999e+00 -8.256108849411650e-01  3.393140768766017e-17
-1.429999999999999e+00 -8.256108849411650e-01  3.393140768766017e-17
-1.429999999999999e+00 -8.256108849411650e-01  3.393140768766017e-17
-1.429999999999999e+00 -8.256108849411650e-01  3.393140768766017e-17
-1.429999999999999e+00 -8.256108849411650e-01  3.393140768766017e-17
-1.429999999999999e+00 -8.256108849411650e-01  3.393140768766017e-17
-1.429999999999999e+00 -8.256108849411650e-01  3.393140768766017e-17
-1.429999999999999e+00 -8.256108849411650e-01  3.393140768766017e-17
-1.429999999999999e+00 -8.256108849411650e-01  3.393140768766017e-17
-1.429999999999999e+00 -8.256108849411650e-01  3.393140768766017e-17
-1.429999999999999e+00 -8.256108849411650e-01  3.393140768766017e-17
-1.429999999999999e+00 -8.256108849411650e-01  3.393140768766017e-17
-1.429999999999999e+00 -8.256108849411650e-01  3.393140768766017e-17
-1.429999999999999e+00 -8.256108849411650e-01  3.393140768766017e-17
-1.429999999999999e+00 -8.256108849411650e-01  3.393140768766017e-17
-1.429999999999999e+00 -8.256108849411650e-01  3.393140768766017e-17
-1.429999999999999e+00 -8.256108849411650e-01  3.393140768766017e-17
-1.429999999999999e+00 -8.256108849411650e-01  3.393140768766017e-17
-1.429999999999999e+00 -8.256108849411650e-01  3.393140768766017e-17
-1.429999999999999e+00 -8.256108849411650e-01  3.393140768766017e-17
-1.429999999999999e+00 -8.256108849411650e-01  3.393140768766017e-17
-1.429999999999999e+00 -8.256108849411650e-01  3.393140768766017e-17
-1.429999999999999e+00 -8.256108849411650e-01  3.393140768766017e-17
-1.429999999999999e+00 -8.256108849411650e-01  3.393140768766017e-17
-1.429999999999999e+00 -8.256108849411650e-01  3.393140768766017e-17
-1.429999999999999e+00 -8.256108849411650e-01  3.393140768766017e-17
-1.429999999999999e+00 -8.256108849411650e-01  3.393140768766017e-17
-1.429999999999999e+00 -8.256108849411650e-01  3.393140768766017e-17
-1.429999999999999e+00 -8.256108849411650e-01  3.393140768766017e-17
-1.429999999999999e+00 -8.256108849411650e-01  3.393140768766017e-17
-1.429999999999999e+00 -8.256108849411650e-01  3.393140768766017e-17
-1.429999999999999e+00 -8.256108849411650e-01  3.393140768766017e-17
-1.429999999999999e+00 -8.256108849411650e-01  3.393140768766017e-17
-1.429999999999999e+00 -8.256108849411650e-01  3.393140768766017e-17
-1.429999999999999e+00 -8.256108849411650e-01  3.393140768766017e-17
-1.429999999999999e+00 -8.256108849411650e-01  3.393140768766017e-17
-1.429999999999999e+00 -8.256108849411650e-01  3.393140768766017e-17
-1.429999999999999e+00 -8.256108849411650e-01  3.393140768766017e-17
-1.429999999999999e+00 -8.256108849411650e-01  3.393140768766017e-17
-1.429999999999999e+00 -8.256108849411650e-01  3.393140768766017e-17
-1.429999999999999e+00 -8.256108849411650e-01  3.393140768766017e-17
-1.429999999999999e+00 -8.256108849411650e-01  3.393140768766017e-17
-1.429999999999999e+00 -8.256108849411650e-01  3.393140768766017e-17
-1.429999999999999e+00 -8.256108849411650e-01  3.393140768766017e-17
-1.429999999999999e+00 -8.256108849411650e-01  3.393140768766017e-17
-1.429999999999999e+00 -8.256108849411650e-01  3.393140768766017e-17
-1.429999999999999e+00 -8.256108849411650e-01  3.393140768766017e-17
-1.429999999999999e+00 -8.256108849411650e-01  3.393140768766017e-17
-1.429999999999999e+00 -8.256108849411650e-01  3.393140768766017e-17
-1.429999999999999e+00 -8.256108849411650e-01  3.393140768766017e-17
-1.429999999999999e+00 -8.256108849411650e-01  3.393140768766017e-17
-1.429999999999999e+00 -8.256108849411650e-01  3.393140768766017e-17
-1.429999999999999e+00 -8.256108849411650e-01  3.393140768766017e-17
-1.429999999999999e+00 -8.256108849411650e-01  3.393140768766017e-17
-1.429999999999999e+00 -8.256108849411650e-01  3.393140768766017e-17
-1.429999999999999e+00 -8.256108849411650e-01  3.393140768766017e-17
-1.429999999999999e+00 -8.256108849411650e-01  3.393140768766017e-17
-1.429999999999999e+00 -8.256108849411650e-01  3.393140768766017e-17
-1.429999999999999e+00 -8.256108849411650e-01  3.393140768766017e-17
-1.429999999999999e+00 -8.256108849411650e-01  3.393140768766017e-17
-1.429999999999999e+00 -8.256108849411650e-01  3.393140768766017e-17
-1.429999999999999e+00 -8.256108849411650e-01  3.393140768766017e-17
-1.429999999999999e+00 -8.256108849411650e-01  3.393140768766017e-17
-1.429999999999999e+00 -8.256108849411650e-01  3.393140768766017e-17
-1.429999999999999e+00 -8.256108849411650e-01  3.393140768766017e-17
-1.429999999999999e+00 -8.256108849411650e-01  3.393140768766017e-17
-1.429999999999999e+00 -8.256108849411650e-01  3.393140768766017e-17
-1.429999999999999e+00 -8.256108849411650e-01  3.393140768766017e-17
-1.429999999999999e+00 -8.256108849411650e-01  3.393140768766017e-17
-1.429999999999999e+00 -8.256108849411650e-01  3.393140768766017e-17
-1.429999999999999e+00 -8.256108849411650e-01  3.393140768766017e-17
-1.429999999999999e+00 -8.256108849411650e-01  3.393140768766017e-17
-1.429999999999999e+00 -8.256108849411650e-01  3.393140768766017e-17
-1.429999999999999e+00 -8.256108849411650e-01  3.393140768766017e-17
-1.429999999999999e+00 -8.256108849411650e-01  3.393140768766017e-17
-1.429999999999999e+00 -8.256108849411650e-01  3.393140768766017e-17
-1.429999999999999e+00 -8.256108849411650e-01  3.393140768766017e-17
-1.429999999999999e+00 -8.256108849411650e-01  3.393140768766017e-17
-1.429999999999999e+00 -8.256108849411650e-01  3.393140768766017e-17
-1.429999999999999e+00 -8.256108849411650e-01  3.393140768766017e-17
-1.429999999999999e+00 -8.256108849411650e-01  3.393140768766017e-17
 1.429999999999999e+00  8.256108849411650e-01 -3.393140768766017e-17
-1.429999999999999e+00 -8.256108849411650e-01  3.393140768766017e-17
-1.429999999999999e+00 -8.256108849411650e-01  3.393140768766017e-17
-1.429999999999999e+00 -8.256108849411650e-01  3.393140768766017e-17
-1.429999999999999e+00 -8.256108849411650e-01  3.393140768766017e-17
-1.429999999999999e+00 -8.256108849411650e-01  3.393140768766017e-17
-1.429999999999999e+00 -8.256108849411650e-01  3.393140768766017e-17
-1.429999999999999e+00 -8.256108849411650e-01  3.393140768766017e-17
-1.429999999999999e+00 -8.256108849411650e-01  3.393140768766017e-17
-1.429999999999999e+00 -8.256108849411650e-01  3.393140768766017e-17
-1.429999999999999e+00 -8.256108849411650e-01  3.393140768766017e-17
-1.429999999999999e+00 -8.256108849411650e-01  3.393140768766017e-17
-1.429999999999999e+00 -8.256108849411650e-01  3.393140768766017e-17
-1.429999999999999e+00 -8.256108849411650e-01  3.393140768766017e-17
-1.429999999999999e+00 -8.256108849411650e-01  3.393140768766017e-17
-1.429999999999999e+00 -8.256108849411650e-01  3.393140768766017e-17
-1.429999999999999e+00 -8.256108849411650e-01  3.393140768766017e-17
-1.429999999999999e+00 -8.256108849411650e-01  3.393140768766017e-17
-1.429999999999999e+00 -8.256108849411650e-01  3.393140768766017e-17
-1.429999999999999e+00 -8.256108849411650e-01  3.393140768766017e-17
-1.429999999999999e+00 -8.256108849411650e-01  3.393140768766017e-17
-1.429999999999999e+00 -8.256108849411650e-01  3.393140768766017e-17
-1.429999999999999e+00 -8.256108849411650e-01  3.393140768766017e-17
-1.429999999999999e+00 -8.256108849411650e-01  3.393140768766017e-17
-1.429999999999999e+00 -8.256108849411650e-01  3.393140768766017e-17
-1.429999999999999e+00 -8.256108849411650e-01  3.393140768766017e-17
-1.429999999999999e+00 -8.256108849411650e-01  3.393140768766017e-17
-1.429999999999999e+00 -8.256108849411650e-01  3.393140768766017e-17
-1.429999999999999e+00 -8.256108849411650e-01  3.393140768766017e-17
-1.429999999999999e+00 -8.256108849411650e-01  3.393140768766017e-17
-1.429999999999999e+00 -8.256108849411650e-01  3.393140768766017e-17
-1.429999999999999e+00 -8.256108849411650e-01  3.393140768766017e-17
-1.429999999999999e+00 -8.256108849411650e-01  3.393140768766017e-17
-1.429999999999999e+00 -8.256108849411650e-01  3.393140768766017e-17
-1.429999999999999e+00 -8.256108849411650e-01  3.393140768766017e-17
-1.429999999999999e+00 -8.256108849411650e-01  3.393140768766017e-17
-1.429999999999999e+00 -8.256108849411650e-01  3.393140768766017e-17
-1.429999999999999e+00 -8.256108849411650e-01  3.393140768766017e-17
-1.429999999999999e+00 -8.256108849411650e-01  3.393140768766017e-17
-1.429999999999999e+00 -8.256108849411650e-01  3.393140768766017e-17
-1.429999999999999e+00 -8.256108849411650e-01  3.393140768766017e-17
-1.429999999999999e+00 -8.256108849411650e-01  3.393140768766017e-17
-1.429999999999999e+00 -8.256108849411650e-01  3.393140768766017e-17
-1.429999999999999e+00 -8.256108849411650e-01  3.393140768766017e-17
-1.429999999999999e+00 -8.256108849411650e-01  3.393140768766017e-17
-1.429999999999999e+00 -8.256108849411650e-01  3.393140768766017e-17
-1.429999999999999e+00 -8.256108849411650e-01  3.393140768766017e-17
-1.429999999999999e+00 -8.256108849411650e-01  3.393140768766017e-17
-1.429999999999999e+00 -8.256108849411650e-01  3.393140768766017e-17
-1.429999999999999e+00 -8.256108849411650e-01  3.393140768766017e-17
-1.429999999999999e+00 -8.256108849411650e-01  3.393140768766017e-17
-1.429999999999999e+00 -8.256108849411650e-01  3.393140768766017e-17
-1.429999999999999e+00 -8.256108849411650e-01  3.393140768766017e-17
-1.429999999999999e+00 -8.256108849411650e-01  3.393140768766017e-17
-1.429999999999999e+00 -8.256108849411650e-01  3.393140768766017e-17
-1.429999999999999e+00 -8.256108849411650e-01  3.393140768766017e-17
-1.429999999999999e+00 -8.256108849411650e-01  3.393140768766017e-17
-1.429999999999999e+00 -8.256108849411650e-01  3.393140768766017e-17
-1.429999999999999e+00 -8.256108849411650e-01  3.393140768766017e-17
-1.429999999999999e+00 -8.256108849411650e-01  3.393140768766017e-17
-1.429999999999999e+00 -8.256108849411650e-01  3.393140768766017e-17
-1.429999999999999e+00 -8.256108849411650e-01  3.393140768766017e-17
-1.429999999999999e+00 -8.256108849411650e-01  3.393140768766017e-17
-1.429999999999999e+00 -8.256108849411650e-01  3.393140768766017e-17
-1.429999999999999e+00 -8.256108849411650e-01  3.393140768766017e-17
-1.429999999999999e+00 -8.256108849411650e-01  3.393140768766017e-17
-1.429999999999999e+00 -8.256108849411650e-01  3.393140768766017e-17
-1.429999999999999e+00 -8.256108849411650e-01  3.393140768766017e-17
-1.429999999999999e+00 -8.256108849411650e-01  3.393140768766017e-17
-1.429999999999999e+00 -8.256108849411650e-01  3.393140768766017e-17
-1.429999999999999e+00 -8.256108849411650e-01  3.393140768766017e-17
-1.429999999999999e+00 -8.256108849411650e-01  3.393140768766017e-17
-1.429999999999999e+00 -8.256108849411650e-01  3.393140768766017e-17
-1.429999999999999e+00 -8.256108849411650e-01  3.393140768766017e-17
-1.429999999999999e+00 -8.256108849411650e-01  3.393140768766017e-17
-1.429999999999999e+00 -8.256108849411650e-01  3.393140768766017e-17
-1.429999999999999e+00 -8.256108849411650e-01  3.393140768766017e-17
-1.429999999999999e+00 -8.256108849411650e-01  3.393140768766017e-17
-1.429999999999999e+00 -8.256108849411650e-01  3.393140768766017e-17
-1.429999999999999e+00 -8.256108849411650e-01  3.393140768766017e-17
-1.429999999999999e+00 -8.256108849411650e-01  3.393140768766017e-17
-1.429999999999999e+00 -8.256108849411650e-01  3.393140768766017e-17
-1.429999999999999e+00 -8.256108849411650e-01  3.393140768766017e-17
-1.429999999999999e+00 -8.256108849411650e-01  3.393140768766017e-17
-1.429999999999999e+00 -8.256108849411650e-01  3.393140768766017e-17
-1.429999999999999e+00 -8.256108849411650e-01  3.393140768766017e-17
-1.429999999999999e+00 -8.256108849411650e-01  3.393140768766017e-17
-1.429999999999999e+00 -8.256108849411650e-01  3.393140768766017e-17
-1.429999999999999e+00 -8.256108849411650e-01  3.393140768766017e-17
-1.429999999999999e+00 -8.256108849411650e-01  3.393140768766017e-17
-1.429999999999999e+00 -8.256108849411650e-01  3.393140768766017e-17
-1.429999999999999e+00 -8.256108849411650e-01  3.393140768766017e-17
-1.429999999999999e+00 -8.256108849411650e-01  3.393140768766017e-17
-1.429999999999999e+00 -8.256108849411650e-01  3.393140768766017e-17
-1.429999999999999e+00 -8.256108849411650e-01  3.393140768766017e-17
-1.429999999999999e+00 -8.256108849411650e-01  3.393140768766017e-17
-1.429999999999999e+00 -8.256108849411650e-01  3.393140768766017e-17
-1.429999999999999e+00 -8.256108849411650e-01  3.393140768766017e-17
-1.429999999999999e+00 -8.256108849411650e-01  3.393140768766017e-17
-1.429999999999999e+00 -8.256108849411650e-01  3.393140768766017e-17
-1.429999999999999e+00 -8.256108849411650e-01  3.393140768766017e-17
-1.429999999999999e+00 -8.256108849411650e-01  3.393140768766017e-17
-1.429999999999999e+00 -8.256108849411650e-01  3.393140768766017e-17
-1.429999999999999e+00 -8.256108849411650e-01  3.393140768766017e-17
-1.429999999999999e+00 -8.256108849411650e-01  3.393140768766017e-17
-1.429999999999999e+00 -8.256108849411650e-01  3.393140768766017e-17
-1.429999999999999e+00 -8.256108849411650e-01  3.393140768766017e-17
-1.429999999999999e+00 -8.256108849411650e-01  3.393140768766017e-17
-1.429999999999999e+00 -8.256108849411650e-01  3.393140768766017e-17
-1.429999999999999e+00 -8.256108849411650e-01  3.393140768766017e-17
-1.429999999999999e+00 -8.256108849411650e-01  3.393140768766017e-17
-1.429999999999999e+00 -8.256108849411650e-01  3.393140768766017e-17
-1.429999999999999e+00 -8.256108849411650e-01  3.393140768766017e-17
-1.429999999999999e+00 -8.256108849411650e-01  3.393140768766017e-17
-1.429999999999999e+00 -8.256108849411650e-01  3.393140768766017e-17
-1.429999999999999e+00 -8.256108849411650e-01  3.393140768766017e-17
-1.429999999999999e+00 -8.256108849411650e-01  3.393140768766017e-17
-1.429999999999999e+00 -8.256108849411650e-01  3.393140768766017e-17
-1.429999999999999e+00 -8.256108849411650e-01  3.393140768766017e-17
-1.429999999999999e+00 -8.256108849411650e-01  3.393140768766017e-17
-1.429999999999999e+00 -8.256108849411650e-01  3.393140768766017e-17
-1.429999999999999e+00 -8.256108849411650e-01  3.393140768766017e-17
-1.429999999999999e+00 -8.256108849411650e-01  3.393140768766017e-17
-1.429999999999999e+00 -8.256108849411650e-01  3.393140768766017e-17
-1.429999999999999e+00 -8.256108849411650e-01  3.393140768766017e-17
-1.429999999999999e+00 -8.256108849411650e-01  3.393140768766017e-17
-1.429999999999999e+00 -8.256108849411650e-01  3.393140768766017e-17
-1.429999999999999e+00 -8.256108849411650e-01  3.393140768766017e-17
-1.429999999999999e+00 -8.256108849411650e-01  3.393140768766017e-17
-1.429999999999999e+00 -8.256108849411650e-01  3.393140768766017e-17
-1.429999999999999e+00 -8.256108849411650e-01  3.393140768766017e-17
-1.429999999999999e+00 -8.256108849411650e-01  3.393140768766017e-17
-1.429999999999999e+00 -8.256108849411650e-01  3.393140768766017e-17
-1.429999999999999e+00 -8.256108849411650e-01  3.393140768766017e-17
-1.429999999999999e+00 -8.256108849411650e-01  3.393140768766017e-17
-1.429999999999999e+00 -8.256108849411650e-01  3.393140768766017e-17
-1.429999999999999e+00 -8.256108849411650e-01  3.393140768766017e-17
-1.429999999999999e+00 -8.256108849411650e-01  3.393140768766017e-17
-1.429999999999999e+00 -8.256108849411650e-01  3.393140768766017e-17
-1.429999999999999e+00 -8.256108849411650e-01  3.393140768766017e-17
-1.429999999999999e+00 -8.256108849411650e-01  3.393140768766017e-17
-1.429999999999999e+00 -8.256108849411650e-01  3.393140768766017e-17
-1.429999999999999e+00 -8.256108849411650e-01  3.393140768766017e-17
-1.429999999999999e+00 -8.256108849411650e-01  3.393140768766017e-17
-1.429999999999999e+00 -8.256108849411650e-01  3.393140768766017e-17
-1.429999999999999e+00 -8.256108849411650e-01  3.393140768766017e-17
-1.429999999999999e+00 -8.256108849411650e-01  3.393140768766017e-17
-1.429999999999999e+00 -8.256108849411650e-01  3.393140768766017e-17
-1.429999999999999e+00 -8.256108849411650e-01  3.393140768766017e-17
-1.429999999999999e+00 -8.256108849411650e-01  3.393140768766017e-17
-1.429999999999999e+00 -8.256108849411650e-01  3.393140768766017e-17
-1.429999999999999e+00 -8.256108849411650e-01  3.393140768766017e-17
-1.429999999999999e+00 -8.256108849411650e-01  3.393140768766017e-17
-1.429999999999999e+00 -8.256108849411650e-01  3.393140768766017e-17
-1.429999999999999e+00 -8.256108849411650e-01  3.393140768766017e-17
-1.429999999999999e+00 -8.256108849411650e-01  3.393140768766017e-17
-1.429999999999999e+00 -8.256108849411650e-01  3.393140768766017e-17
-1.429999999999999e+00 -8.256108849411650e-01  3.393140768766017e-17
-1.429999999999999e+00 -8.256108849411650e-01  3.393140768766017e-17
-1.429999999999999e+00 -8.256108849411650e-01  3.393140768766017e-17
-1.429999999999999e+00 -8.256108849411650e-01  3.393140768766017e-17
-1.429999999999999e+00 -8.256108849411650e-01  3.393140768766017e-17
-1.429999999999999e+00 -8.256108849411650e-01  3.393140768766017e-17
-1.429999999999999e+00 -8.256108849411650e-01  3.393140768766017e-17
-1.429999999999999e+00 -8.256108849411650e-01  3.393140768766017e-17
-1.429999999999999e+00 -8.256108849411650e-01  3.393140768766017e-17
-1.429999999999999e+00 -8.256108849411650e-01  3.393140768766017e-17
-1.429999999999999e+00 -8.256108849411650e-01  3.393140768766017e-17
-1.429999999999999e+00 -8.256108849411650e-01  3.393140768766017e-17
-1.429999999999999e+00 -8.256108849411650e-01  3.393140768766017e-17
-1.429999999999999e+00 -8.256108849411650e-01  3.393140768766017e-17
-1.429999999999999e+00 -8.256108849411650e-01  3.393140768766017e-17
-1.429999999999999e+00 -8.256108849411650e-01  3.393140768766017e-17
-1.429999999999999e+00 -8.256108849411650e-01  3.393140768766017e-17
-1.429999999999999e+00 -8.256108849411650e-01  3.393140768766017e-17
-1.429999999999999e+00 -8.256108849411650e-01  3.393140768766017e-17
-1.429999999999999e+00 -8.256108849411650e-01  3.393140768766017e-17
-1.429999999999999e+00 -8.256108849411650e-01  3.393140768766017e-17
-1.429999999999999e+00 -8.256108849411650e-01  3.393140768766017e-17
-1.429999999999999e+00 -8.256108849411650e-01  3.393140768766017e-17
-1.429999999999999e+00 -8.256108849411650e-01  3.393140768766017e-17
-1.429999999999999e+00 -8.256108849411650e-01  3.393140768766017e-17
-1.429999999999999e+00 -8.256108849411650e-01  3.393140768766017e-17
-1.429999999999999e+00 -8.256108849411650e-01  3.393140768766017e-17
-1.429999999999999e+00 -8.256108849411650e-01  3.393140768766017e-17
-1.429999999999999e+00 -8.256108849411650e-01  3.393140768766017e-17
-1.429999999999999e+00 -8.256108849411650e-01  3.393140768766017e-17
-1.429999999999999e+00 -8.256108849411650e-01  3.393140768766017e-17
-1.429999999999999e+00 -8.256108849411650e-01  3.393140768766017e-17
-1.429999999999999e+00 -8.256108849411650e-01  3.393140768766017e-17
-1.429999999999999e+00 -8.256108849411650e-01  3.393140768766017e-17
-1.429999999999999e+00 -8.256108849411650e-01  3.393140768766017e-17
-1.429999999999999e+00 -8.256108849411650e-01  3.393140768766017e-17
-1.429999999999999e+00 -8.256108849411650e-01  3.393140768766017e-17
-1.429999999999999e+00 -8.256108849411650e-01  3.393140768766017e-17
-1.429999999999999e+00 -8.256108849411650e-01  3.393140768766017e-17
-1.429999999999999e+00 -8.256108849411650e-01  3.393140768766017e-17
-1.429999999999999e+00 -8.256108849411650e-01  3.393140768766017e-17
-1.429999999999999e+00 -8.256108849411650e-01  3.393140768766017e-17
-1.429999999999999e+00 -8.256108849411650e-01  3.393140768766017e-17
-1.429999999999999e+00 -8.256108849411650e-01  3.393140768766017e-17
-1.429999999999999e+00 -8.256108849411650e-01  3.393140768766017e-17
-1.429999999999999e+00 -8.256108849411650e-01  3.393140768766017e-17
-1.429999999999999e+00 -8.256108849411650e-01  3.393140768766017e-17
-1.429999999999999e+00 -8.256108849411650e-01  3.393140768766017e-17
-1.429999999999999e+00 -8.256108849411650e-01  3.393140768766017e-17
-1.429999999999999e+00 -8.256108849411650e-01  3.393140768766017e-17
-1.429999999999999e+00 -8.256108849411650e-01  3.393140768766017e-17
-1.429999999999999e+00 -8.256108849411650e-01  3.393140768766017e-17
-1.429999999999999e+00 -8.256108849411650e-01  3.393140768766017e-17
-1.429999999999999e+00 -8.256108849411650e-01  3.393140768766017e-17
-1.429999999999999e+00 -8.256108849411650e-01  3.393140768766017e-17
-1.429999999999999e+00 -8.256108849411650e-01  3.393140768766017e-17
-1.429999999999999e+00 -8.256108849411650e-01  3.393140768766017e-17
-1.429999999999999e+00 -8.256108849411650e-01  3.393140768766017e-17
 1.429999999999999e+00  8.256108849411650e-01 -3.393140768766017e-17
-1.429999999999999e+00 -8.256108849411650e-01  3.393140768766017e-17
 1.429999999999999e+00  8.256108849411650e-01 -3.393140768766017e-17
 1.429999999999999e+00  8.256108849411650e-01 -3.393140768766017e-17
 1.429999999999999e+00  8.256108849411650e-01 -3.393140768766017e-17
 1.429999999999999e+00  8.256108849411650e-01 -3.393140768766017e-17
 1.429999999999999e+00  8.256108849411650e-01 -3.393140768766017e-17
 1.429999999999999e+00  8.256108849411650e-01 -3.393140768766017e-17
 1.429999999999999e+00  8.256108849411650e-01 -3.393140768766017e-17
 1.429999999999999e+00  8.256108849411650e-01 -3.393140768766017e-17
 1.429999999999999e+00  8.256108849411650e-01 -3.393140768766017e-17
 1.429999999999999e+00  8.256108849411650e-01 -3.393140768766017e-17
 1.429999999999999e+00  8.256108849411650e-01 -3.393140768766017e-17
 1.429999999999999e+00  8.256108849411650e-01 -3.393140768766017e-17
 1.429999999999999e+00  8.256108849411650e-01 -3.393140768766017e-17
 1.429999999999999e+00  8.256108849411650e-01 -3.393140768766017e-17
 1.429999999999999e+00  8.256108849411650e-01 -3.393140768766017e-17
 1.429999999999999e+00  8.256108849411650e-01 -3.393140768766017e-17
 1.429999999999999e+00  8.256108849411650e-01 -3.393140768766017e-17
 1.429999999999999e+00  8.256108849411650e-01 -3.393140768766017e-17
 1.429999999999999e+00  8.256108849411650e-01 -3.393140768766017e-17
 1.429999999999999e+00  8.256108849411650e-01 -3.393140768766017e-17
 1.429999999999999e+00  8.256108849411650e-01 -3.393140768766017e-17
 1.429999999999999e+00  8.256108849411650e-01 -3.393140768766017e-17
 1.429999999999999e+00  8.256108849411650e-01 -3.393140768766017e-17
 1.429999999999999e+00  8.256108849411650e-01 -3.393140768766017e-17
 1.429999999999999e+00  8.256108849411650e-01 -3.393140768766017e-17
 1.429999999999999e+00  8.256108849411650e-01 -3.393140768766017e-17
 1.429999999999999e+00  8.256108849411650e-01 -3.393140768766017e-17
 1.429999999999999e+00  8.256108849411650e-01 -3.393140768766017e-17
 1.429999999999999e+00  8.256108849411650e-01 -3.393140768766017e-17
 1.429999999999999e+00  8.256108849411650e-01 -3.393140768766017e-17
 1.429999999999999e+00  8.256108849411650e-01 -3.393140768766017e-17
 1.429999999999999e+00  8.256108849411650e-01 -3.393140768766017e-17
 1.429999999999999e+00  8.256108849411650e-01 -3.393140768766017e-17
 1.429999999999999e+00  8.256108849411650e-01 -3.393140768766017e-17
 1.429999999999999e+00  8.256108849411650e-01 -3.393140768766017e-17
 1.429999999999999e+00  8.256108849411650e-01 -3.393140768766017e-17
 1.429999999999999e+00  8.256108849411650e-01 -3.393140768766017e-17
 1.429999999999999e+00  8.256108849411650e-01 -3.393140768766017e-17
 1.429999999999999e+00  8.256108849411650e-01 -3.393140768766017e-17
 1.429999999999999e+00  8.256108849411650e-01 -3.393140768766017e-17
 1.429999999999999e+00  8.256108849411650e-01 -3.393140768766017e-17
 1.429999999999999e+00  8.256108849411650e-01 -3.393140768766017e-17
 1.429999999999999e+00  8.256108849411650e-01 -3.393140768766017e-17
 1.429999999999999e+00  8.256108849411650e-01 -3.393140768766017e-17
 1.429999999999999e+00  8.256108849411650e-01 -3.393140768766017e-17
 1.429999999999999e+00  8.256108849411650e-01 -3.393140768766017e-17
 1.429999999999999e+00  8.256108849411650e-01 -3.393140768766017e-17
 1.429999999999999e+00  8.256108849411650e-01 -3.393140768766017e-17
 1.429999999999999e+00  8.256108849411650e-01 -3.393140768766017e-17
 1.429999999999999e+00  8.256108849411650e-01 -3.393140768766017e-17
 1.429999999999999e+00  8.256108849411650e-01 -3.393140768766017e-17
 1.429999999999999e+00  8.256108849411650e-01 -3.393140768766017e-17
 1.429999999999999e+00  8.256108849411650e-01 -3.393140768766017e-17
 1.429999999999999e+00  8.256108849411650e-01 -3.393140768766017e-17
 1.429999999999999e+00  8.256108849411650e-01 -3.393140768766017e-17
 1.429999999999999e+00  8.256108849411650e-01 -3.393140768766017e-17
 1.429999999999999e+00  8.256108849411650e-01 -3.393140768766017e-17
 1.429999999999999e+00  8.256108849411650e-01 -3.393140768766017e-17
 1.429999999999999e+00  8.256108849411650e-01 -3.393140768766017e-17
 1.429999999999999e+00  8.256108849411650e-01 -3.393140768766017e-17
 1.429999999999999e+00  8.256108849411650e-01 -3.393140768766017e-17
 1.429999999999999e+00  8.256108849411650e-01 -3.393140768766017e-17
 1.429999999999999e+00  8.256108849411650e-01 -3.393140768766017e-17
 1.429999999999999e+00  8.256108849411650e-01 -3.393140768766017e-17
 1.429999999999999e+00  8.256108849411650e-01 -3.393140768766017e-17
 1.429999999999999e+00  8.256108849411650e-01 -3.393140768766017e-17
 1.429999999999999e+00  8.256108849411650e-01 -3.393140768766017e-17
 1.429999999999999e+00  8.256108849411650e-01 -3.393140768766017e-17
 1.429999999999999e+00  8.256108849411650e-01 -3.393140768766017e-17
 1.429999999999999e+00  8.256108849411650e-01 -3.393140768766017e-17
 1.429999999999999e+00  8.256108849411650e-01 -3.393140768766017e-17
 1.429999999999999e+00  8.256108849411650e-01 -3.393140768766017e-17
 1.429999999999999e+00  8.256108849411650e-01 -3.393140768766017e-17
 1.429999999999999e+00  8.256108849411650e-01 -3.393140768766017e-17
 1.429999999999999e+00  8.256108849411650e-01 -3.393140768766017e-17
 1.429999999999999e+00  8.256108849411650e-01 -3.393140768766017e-17
 1.429999999999999e+00  8.256108849411650e-01 -3.393140768766017e-17
 1.429999999999999e+00  8.256108849411650e-01 -3.393140768766017e-17
 1.429999999999999e+00  8.256108849411650e-01 -3.393140768766017e-17
 1.429999999999999e+00  8.256108849411650e-01 -3.393140768766017e-17
 1.429999999999999e+00  8.256108849411650e-01 -3.393140768766017e-17
 1.429999999999999e+00  8.256108849411650e-01 -3.393140768766017e-17
 1.429999999999999e+00  8.256108849411650e-01 -3.393140768766017e-17
 1.429999999999999e+00  8.256108849411650e-01 -3.393140768766017e-17
 1.429999999999999e+00  8.256108849411650e-01 -3.393140768766017e-17
 1.429999999999999e+00  8.256108849411650e-01 -3.393140768766017e-17
 1.429999999999999e+00  8.256108849411650e-01 -3.393140768766017e-17
 1.429999999999999e+00  8.256108849411650e-01 -3.393140768766017e-17
 1.429999999999999e+00  8.256108849411650e-01 -3.393140768766017e-17
 1.429999999999999e+00  8.256108849411650e-01 -3.393140768766017e-17
 1.429999999999999e+00  8.256108849411650e-01 -3.393140768766017e-17
 1.429999999999999e+00  8.256108849411650e-01 -3.393140768766017e-17
 1.429999999999999e+00  8.256108849411650e-01 -3.393140768766017e-17
 1.429999999999999e+00  8.256108849411650e-01 -3.393140768766017e-17
 1.429999999999999e+00  8.256108849411650e-01 -3.393140768766017e-17
 1.429999999999999e+00  8.256108849411650e-01 -3.393140768766017e-17
 1.429999999999999e+00  8.256108849411650e-01 -3.393140768766017e-17
 1.429999999999999e+00  8.256108849411650e-01 -3.393140768766017e-17
 1.429999999999999e+00  8.256108849411650e-01 -3.393140768766017e-17
 1.429999999999999e+00  8.256108849411650e-01 -3.393140768766017e-17
 1.429999999999999e+00  8.256108849411650e-01 -3.393140768766017e-17
 1.429999999999999e+00  8.256108849411650e-01 -3.393140768766017e-17
 1.429999999999999e+00  8.256108849411650e-01 -3.393140768766017e-17
 1.429999999999999e+00  8.256108849411650e-01 -3.393140768766017e-17
 1.429999999999999e+00  8.256108849411650e-01 -3.393140768766017e-17
 1.429999999999999e+00  8.256108849411650e-01 -3.393140768766017e-17
 1.429999999999999e+00  8.256108849411650e-01 -3.393140768766017e-17
 1.429999999999999e+00  8.256108849411650e-01 -3.393140768766017e-17
 1.429999999999999e+00  8.256108849411650e-01 -3.393140768766017e-17
 1.429999999999999e+00  8.256108849411650e-01 -3.393140768766017e-17
 1.429999999999999e+00  8.256108849411650e-01 -3.393140768766017e-17
 1.429999999999999e+00  8.256108849411650e-01 -3.393140768766017e-17
 1.429999999999999e+00  8.256108849411650e-01 -3.393140768766017e-17
 1.429999999999999e+00  8.256108849411650e-01 -3.393140768766017e-17
 1.429999999999999e+00  8.256108849411650e-01 -3.393140768766017e-17
 1.429999999999999e+00  8.256108849411650e-01 -3.393140768766017e-17
 1.429999999999999e+00  8.256108849411650e-01 -3.393140768766017e-17
 1.429999999999999e+00  8.256108849411650e-01 -3.393140768766017e-17
 1.429999999999999e+00  8.256108849411650e-01 -3.393140768766017e-17
 1.429999999999999e+00  8.256108849411650e-01 -3.393140768766017e-17
 1.429999999999999e+00  8.256108849411650e-01 -3.393140768766017e-17
 1.429999999999999e+00  8.256108849411650e-01 -3.393140768766017e-17
 1.429999999999999e+00  8.256108849411650e-01 -3.393140768766017e-17
 1.429999999999999e+00  8.256108849411650e-01 -3.393140768766017e-17
 1.429999999999999e+00  8.256108849411650e-01 -3.393140768766017e-17
 1.429999999999999e+00  8.256108849411650e-01 -3.393140768766017e-17
 1.429999999999999e+00  8.256108849411650e-01 -3.393140768766017e-17
 1.429999999999999e+00  8.256108849411650e-01 -3.393140768766017e-17
 1.429999999999999e+00  8.256108849411650e-01 -3.393140768766017e-17
 1.429999999999999e+00  8.256108849411650e-01 -3.393140768766017e-17
 1.429999999999999e+00  8.256108849411650e-01 -3.393140768766017e-17
 1.429999999999999e+00  8.256108849411650e-01 -3.393140768766017e-17
 1.429999999999999e+00  8.256108849411650e-01 -3.393140768766017e-17
 1.429999999999999e+00  8.256108849411650e-01 -3.393140768766017e-17
 1.429999999999999e+00  8.256108849411650e-01 -3.393140768766017e-17
 1.429999999999999e+00  8.256108849411650e-01 -3.393140768766017e-17
 1.429999999999999e+00  8.256108849411650e-01 -3.393140768766017e-17
 1.429999999999999e+00  8.256108849411650e-01 -3.393140768766017e-17
 1.429999999999999e+00  8.256108849411650e-01 -3.393140768766017e-17
 1.429999999999999e+00  8.256108849411650e-01 -3.393140768766017e-17
 1.429999999999999e+00  8.256108849411650e-01 -3.393140768766017e-17
 1.429999999999999e+00  8.256108849411650e-01 -3.393140768766017e-17
 1.429999999999999e+00  8.256108849411650e-01 -3.393140768766017e-17
 1.429999999999999e+00  8.256108849411650e-01 -3.393140768766017e-17
 1.429999999999999e+00  8.256108849411650e-01 -3.393140768766017e-17
 1.429999999999999e+00  8.256108849411650e-01 -3.393140768766017e-17
 1.429999999999999e+00  8.256108849411650e-01 -3.393140768766017e-17
 1.429999999999999e+00  8.256108849411650e-01 -3.393140768766017e-17
 1.429999999999999e+00  8.256108849411650e-01 -3.393140768766017e-17
 1.429999999999999e+00  8.256108849411650e-01 -3.393140768766017e-17
 1.429999999999999e+00  8.256108849411650e-01 -3.393140768766017e-17
 1.429999999999999e+00  8.256108849411650e-01 -3.393140768766017e-17
 1.429999999999999e+00  8.256108849411650e-01 -3.393140768766017e-17
 1.429999999999999e+00  8.256108849411650e-01 -3.393140768766017e-17
 1.429999999999999e+00  8.256108849411650e-01 -3.393140768766017e-17
 1.429999999999999e+00  8.256108849411650e-01 -3.393140768766017e-17
 1.429999999999999e+00  8.256108849411650e-01 -3.393140768766017e-17
 1.429999999999999e+00  8.256108849411650e-01 -3.393140768766017e-17
 1.429999999999999e+00  8.256108849411650e-01 -3.393140768766017e-17
 1.429999999999999e+00  8.256108849411650e-01 -3.393140768766017e-17
 1.429999999999999e+00  8.256108849411650e-01 -3.393140768766017e-17
 1.429999999999999e+00  8.256108849411650e-01 -3.393140768766017e-17
 1.429999999999999e+00  8.256108849411650e-01 -3.393140768766017e-17
 1.429999999999999e+00  8.256108849411650e-01 -3.393140768766017e-17
 1.429999999999999e+00  8.256108849411650e-01 -3.393140768766017e-17
 1.429999999999999e+00  8.256108849411650e-01 -3.393140768766017e-17
 1.429999999999999e+00  8.256108849411650e-01 -3.393140768766017e-17
 1.429999999999999e+00  8.256108849411650e-01 -3.393140768766017e-17
 1.429999999999999e+00  8.256108849411650e-01 -3.393140768766017e-17
 1.429999999999999e+00  8.256108849411650e-01 -3.393140768766017e-17
 1.429999999999999e+00  8.256108849411650e-01 -3.393140768766017e-17
 1.429999999999999e+00  8.256108849411650e-01 -3.393140768766017e-17
 1.429999999999999e+00  8.256108849411650e-01 -3.393140768766017e-17
 1.429999999999999e+00  8.256108849411650e-01 -3.393140768766017e-17
 1.429999999999999e+00  8.256108849411650e-01 -3.393140768766017e-17
 1.429999999999999e+00  8.256108849411650e-01 -3.393140768766017e-17
 1.429999999999999e+00  8.256108849411650e-01 -3.393140768766017e-17
 1.429999999999999e+00  8.256108849411650e-01 -3.393140768766017e-17
 1.429999999999999e+00  8.256108849411650e-01 -3.393140768766017e-17
 1.429999999999999e+00  8.256108849411650e-01 -3.393140768766017e-17
 1.429999999999999e+00  8.256108849411650e-01 -3.393140768766017e-17
 1.429999999999999e+00  8.256108849411650e-01 -3.393140768766017e-17
 1.429999999999999e+00  8.256108849411650e-01 -3.393140768766017e-17
 1.429999999999999e+00  8.256108849411650e-01 -3.393140768766017e-17
 1.429999999999999e+00  8.256108849411650e-01 -3.393140768766017e-17
 1.429999999999999e+00  8.256108849411650e-01 -3.393140768766017e-17
 1.429999999999999e+00  8.256108849411650e-01 -3.393140768766017e-17
 1.429999999999999e+00  8.256108849411650e-01 -3.393140768766017e-17
 1.429999999999999e+00  8.256108849411650e-01 -3.393140768766017e-17
 1.429999999999999e+00  8.256108849411650e-01 -3.393140768766017e-17
 1.429999999999999e+00  8.256108849411650e-01 -3.393140768766017e-17
 1.429999999999999e+00  8.256108849411650e-01 -3.393140768766017e-17
 1.429999999999999e+00  8.256108849411650e-01 -3.393140768766017e-17
 1.429999999999999e+00  8.256108849411650e-01 -3.393140768766017e-17
 1.429999999999999e+00  8.256108849411650e-01 -3.393140768766017e-17
 1.429999999999999e+00  8.256108849411650e-01 -3.393140768766017e-17
 1.429999999999999e+00  8.256108849411650e-01 -3.393140768766017e-17
 1.429999999999999e+00  8.256108849411650e-01 -3.393140768766017e-17
 1.429999999999999e+00  8.256108849411650e-01 -3.393140768766017e-17
 1.429999999999999e+00  8.256108849411650e-01 -3.393140768766017e-17
 1.429999999999999e+00  8.256108849411650e-01 -3.393140768766017e-17
 1.429999999999999e+00  8.256108849411650e-01 -3.393140768766017e-17
 1.429999999999999e+00  8.256108849411650e-01 -3.393140768766017e-17
 1.429999999999999e+00  8.256108849411650e-01 -3.393140768766017e-17
 1.429999999999999e+00  8.256108849411650e-01 -3.393140768766017e-17
 1.429999999999999e+00  8.256108849411650e-01 -3.393140768766017e-17
-1.429999999999999e+00 -8.256108849411650e-01  3.393140768766017e-17
 1.429999999999999e+00  8.256108849411650e-01 -3.393140768766017e-17
 1.429999999999999e+00  8.256108849411650e-01 -3.393140768766017e-17
 1.429999999999999e+00  8.256108849411650e-01 -3.393140768766017e-17
 1.429999999999999e+00  8.256108849411650e-01 -3.393140768766017e-17
 1.429999999999999e+00  8.256108849411650e-01 -3.393140768766017e-17
 1.429999999999999e+00  8.256108849411650e-01 -3.393140768766017e-17
 1.429999999999999e+00  8.256108849411650e-01 -3.393140768766017e-17
 1.429999999999999e+00  8.256108849411650e-01 -3.393140768766017e-17
 1.429999999999999e+00  8.256108849411650e-01 -3.393140768766017e-17
 1.429999999999999e+00  8.256108849411650e-01 -3.393140768766017e-17
 1.429999999999999e+00  8.256108849411650e-01 -3.393140768766017e-17
 1.429999999999999e+00  8.256108849411650e-01 -3.393140768766017e-17
 1.429999999999999e+00  8.256108849411650e-01 -3.393140768766017e-17
 1.429999999999999e+00  8.256108849411650e-01 -3.393140768766017e-17
 1.429999999999999e+00  8.256108849411650e-01 -3.393140768766017e-17
 1.429999999999999e+00  8.256108849411650e-01 -3.393140768766017e-17
 1.429999999999999e+00  8.256108849411650e-01 -3.393140768766017e-17
 1.429999999999999e+00  8.256108849411650e-01 -3.393140768766017e-17
 1.429999999999999e+00  8.256108849411650e-01 -3.393140768766017e-17
 1.429999999999999e+00  8.256108849411650e-01 -3.393140768766017e-17
 1.429999999999999e+00  8.256108849411650e-01 -3.393140768766017e-17
 1.429999999999999e+00  8.256108849411650e-01 -3.393140768766017e-17
 1.429999999999999e+00  8.256108849411650e-01 -3.393140768766017e-17
 1.429999999999999e+00  8.256108849411650e-01 -3.393140768766017e-17
 1.429999999999999e+00  8.256108849411650e-01 -3.393140768766017e-17
 1.429999999999999e+00  8.256108849411650e-01 -3.393140768766017e-17
 1.429999999999999e+00  8.256108849411650e-01 -3.393140768766017e-17
 1.429999999999999e+00  8.256108849411650e-01 -3.393140768766017e-17
 1.429999999999999e+00  8.256108849411650e-01 -3.393140768766017e-17
 1.429999999999999e+00  8.256108849411650e-01 -3.393140768766017e-17
 1.429999999999999e+00  8.256108849411650e-01 -3.393140768766017e-17
 1.429999999999999e+00  8.256108849411650e-01 -3.393140768766017e-17
 1.429999999999999e+00  8.256108849411650e-01 -3.393140768766017e-17
 1.429999999999999e+00  8.256108849411650e-01 -3.393140768766017e-17
 1.429999999999999e+00  8.256108849411650e-01 -3.393140768766017e-17
 1.429999999999999e+00  8.256108849411650e-01 -3.393140768766017e-17
 1.429999999999999e+00  8.256108849411650e-01 -3.393140768766017e-17
 1.429999999999999e+00  8.256108849411650e-01 -3.393140768766017e-17
 1.429999999999999e+00  8.256108849411650e-01 -3.393140768766017e-17
 1.429999999999999e+00  8.256108849411650e-01 -3.393140768766017e-17
 1.429999999999999e+00  8.256108849411650e-01 -3.393140768766017e-17
 1.429999999999999e+00  8.256108849411650e-01 -3.393140768766017e-17
 1.429999999999999e+00  8.256108849411650e-01 -3.393140768766017e-17
 1.429999999999999e+00  8.256108849411650e-01 -3.393140768766017e-17
 1.429999999999999e+00  8.256108849411650e-01 -3.393140768766017e-17
 1.429999999999999e+00  8.256108849411650e-01 -3.393140768766017e-17
 1.429999999999999e+00  8.256108849411650e-01 -3.393140768766017e-17
 1.429999999999999e+00  8.256108849411650e-01 -3.393140768766017e-17
 1.429999999999999e+00  8.256108849411650e-01 -3.393140768766017e-17
 1.429999999999999e+00  8.256108849411650e-01 -3.393140768766017e-17
 1.429999999999999e+00  8.256108849411650e-01 -3.393140768766017e-17
 1.429999999999999e+00  8.256108849411650e-01 -3.393140768766017e-17
 1.429999999999999e+00  8.256108849411650e-01 -3.393140768766017e-17
 1.429999999999999e+00  8.256108849411650e-01 -3.393140768766017e-17
 1.429999999999999e+00  8.256108849411650e-01 -3.393140768766017e-17
 1.429999999999999e+00  8.256108849411650e-01 -3.393140768766017e-17
 1.429999999999999e+00  8.256108849411650e-01 -3.393140768766017e-17
 1.429999999999999e+00  8.256108849411650e-01 -3.393140768766017e-17
 1.429999999999999e+00  8.256108849411650e-01 -3.393140768766017e-17
 1.429999999999999e+00  8.256108849411650e-01 -3.393140768766017e-17
 1.429999999999999e+00  8.256108849411650e-01 -3.393140768766017e-17
 1.429999999999999e+00  8.256108849411650e-01 -3.393140768766017e-17
 1.429999999999999e+00  8.256108849411650e-01 -3.393140768766017e-17
 1.429999999999999e+00  8.256108849411650e-01 -3.393140768766017e-17
 1.429999999999999e+00  8.256108849411650e-01 -3.393140768766017e-17
 1.429999999999999e+00  8.256108849411650e-01 -3.393140768766017e-17
 1.429999999999999e+00  8.256108849411650e-01 -3.393140768766017e-17
 1.429999999999999e+00  8.256108849411650e-01 -3.393140768766017e-17
 1.429999999999999e+00  8.256108849411650e-01 -3.393140768766017e-17
 1.429999999999999e+00  8.256108849411650e-01 -3.393140768766017e-17
 1.429999999999999e+00  8.256108849411650e-01 -3.393140768766017e-17
 1.429999999999999e+00  8.256108849411650e-01 -3.393140768766017e-17
 1.429999999999999e+00  8.256108849411650e-01 -3.393140768766017e-17
 1.429999999999999e+00  8.256108849411650e-01 -3.393140768766017e-17
 1.429999999999999e+00  8.256108849411650e-01 -3.393140768766017e-17
 1.429999999999999e+00  8.256108849411650e-01 -3.393140768766017e-17
 1.429999999999999e+00  8.256108849411650e-01 -3.393140768766017e-17
 1.429999999999999e+00  8.256108849411650e-01 -3.393140768766017e-17
 1.429999999999999e+00  8.256108849411650e-01 -3.393140768766017e-17
 1.429999999999999e+00  8.256108849411650e-01 -3.393140768766017e-17
 1.429999999999999e+00  8.256108849411650e-01 -3.393140768766017e-17
 1.429999999999999e+00  8.256108849411650e-01 -3.393140768766017e-17
 1.429999999999999e+00  8.256108849411650e-01 -3.393140768766017e-17
 1.429999999999999e+00  8.256108849411650e-01 -3.393140768766017e-17
 1.429999999999999e+00  8.256108849411650e-01 -3.393140768766017e-17
 1.429999999999999e+00  8.256108849411650e-01 -3.393140768766017e-17
 1.429999999999999e+00  8.256108849411650e-01 -3.393140768766017e-17
 1.429999999999999e+00  8.256108849411650e-01 -3.393140768766017e-17
 1.429999999999999e+00  8.256108849411650e-01 -3.393140768766017e-17
 1.429999999999999e+00  8.256108849411650e-01 -3.393140768766017e-17
 1.429999999999999e+00  8.256108849411650e-01 -3.393140768766017e-17
 1.429999999999999e+00  8.256108849411650e-01 -3.393140768766017e-17
 1.429999999999999e+00  8.256108849411650e-01 -3.393140768766017e-17
 1.429999999999999e+00  8.256108849411650e-01 -3.393140768766017e-17
 1.429999999999999e+00  8.256108849411650e-01 -3.393140768766017e-17
 1.429999999999999e+00  8.256108849411650e-01 -3.393140768766017e-17
 1.429999999999999e+00  8.256108849411650e-01 -3.393140768766017e-17
 1.429999999999999e+00  8.256108849411650e-01 -3.393140768766017e-17
 1.429999999999999e+00  8.256108849411650e-01 -3.393140768766017e-17
 1.429999999999999e+00  8.256108849411650e-01 -3.393140768766017e-17
 1.429999999999999e+00  8.256108849411650e-01 -3.393140768766017e-17
 1.429999999999999e+00  8.256108849411650e-01 -3.393140768766017e-17
 1.429999999999999e+00  8.256108849411650e-01 -3.393140768766017e-17
 1.429999999999999e+00  8.256108849411650e-01 -3.393140768766017e-17
 1.429999999999999e+00  8.256108849411650e-01 -3.393140768766017e-17
 1.429999999999999e+00  8.256108849411650e-01 -3.393140768766017e-17
 1.429999999999999e+00  8.256108849411650e-01 -3.393140768766017e-17
 1.429999999999999e+00  8.256108849411650e-01 -3.393140768766017e-17
 1.429999999999999e+00  8.256108849411650e-01 -3.393140768766017e-17
 1.429999999999999e+00  8.256108849411650e-01 -3.393140768766017e-17
 1.429999999999999e+00  8.256108849411650e-01 -3.393140768766017e-17
 1.429999999999999e+00  8.256108849411650e-01 -3.393140768766017e-17
 1.429999999999999e+00  8.256108849411650e-01 -3.393140768766017e-17
 1.429999999999999e+00  8.256108849411650e-01 -3.393140768766017e-17
 1.429999999999999e+00  8.256108849411650e-01 -3.393140768766017e-17
 1.429999999999999e+00  8.256108849411650e-01 -3.393140768766017e-17
 1.429999999999999e+00  8.256108849411650e-01 -3.393140768766017e-17
 1.429999999999999e+00  8.256108849411650e-01 -3.393140768766017e-17
 1.429999999999999e+00  8.256108849411650e-01 -3.393140768766017e-17
 1.429999999999999e+00  8.256108849411650e-01 -3.393140768766017e-17
 1.429999999999999e+00  8.256108849411650e-01 -3.393140768766017e-17
 1.429999999999999e+00  8.256108849411650e-01 -3.393140768766017e-17
 1.429999999999999e+00  8.256108849411650e-01 -3.393140768766017e-17
 1.429999999999999e+00  8.256108849411650e-01 -3.393140768766017e-17
 1.429999999999999e+00  8.256108849411650e-01 -3.393140768766017e-17
 1.429999999999999e+00  8.256108849411650e-01 -3.393140768766017e-17
 1.429999999999999e+00  8.256108849411650e-01 -3.393140768766017e-17
 1.429999999999999e+00  8.256108849411650e-01 -3.393140768766017e-17
 1.429999999999999e+00  8.256108849411650e-01 -3.393140768766017e-17
 1.429999999999999e+00  8.256108849411650e-01 -3.393140768766017e-17
 1.429999999999999e+00  8.256108849411650e-01 -3.393140768766017e-17
 1.429999999999999e+00  8.256108849411650e-01 -3.393140768766017e-17
 1.429999999999999e+00  8.256108849411650e-01 -3.393140768766017e-17
 1.429999999999999e+00  8.256108849411650e-01 -3.393140768766017e-17
 1.429999999999999e+00  8.256108849411650e-01 -3.393140768766017e-17
 1.429999999999999e+00  8.256108849411650e-01 -3.393140768766017e-17
 1.429999999999999e+00  8.256108849411650e-01 -3.393140768766017e-17
 1.429999999999999e+00  8.256108849411650e-01 -3.393140768766017e-17
 1.429999999999999e+00  8.256108849411650e-01 -3.393140768766017e-17
 1.429999999999999e+00  8.256108849411650e-01 -3.393140768766017e-17
 1.429999999999999e+00  8.256108849411650e-01 -3.393140768766017e-17
 1.429999999999999e+00  8.256108849411650e-01 -3.393140768766017e-17
 1.429999999999999e+00  8.256108849411650e-01 -3.393140768766017e-17
 1.429999999999999e+00  8.256108849411650e-01 -3.393140768766017e-17
 1.429999999999999e+00  8.256108849411650e-01 -3.393140768766017e-17
 1.429999999999999e+00  8.256108849411650e-01 -3.393140768766017e-17
 1.429999999999999e+00  8.256108849411650e-01 -3.393140768766017e-17
 1.429999999999999e+00  8.256108849411650e-01 -3.393140768766017e-17
 1.429999999999999e+00  8.256108849411650e-01 -3.393140768766017e-17
 1.429999999999999e+00  8.256108849411650e-01 -3.393140768766017e-17
 1.429999999999999e+00  8.256108849411650e-01 -3.393140768766017e-17
 1.429999999999999e+00  8.256108849411650e-01 -3.393140768766017e-17
 1.429999999999999e+00  8.256108849411650e-01 -3.393140768766017e-17
 1.429999999999999e+00  8.256108849411650e-01 -3.393140768766017e-17
 1.429999999999999e+00  8.256108849411650e-01 -3.393140768766017e-17
 1.429999999999999e+00  8.256108849411650e-01 -3.393140768766017e-17
 1.429999999999999e+00  8.256108849411650e-01 -3.393140768766017e-17
 1.429999999999999e+00  8.256108849411650e-01 -3.393140768766017e-17
 1.429999999999999e+00  8.256108849411650e-01 -3.393140768766017e-17
 1.429999999999999e+00  8.256108849411650e-01 -3.393140768766017e-17
 1.429999999999999e+00  8.256108849411650e-01 -3.393140768766017e-17
 1.429999999999999e+00  8.256108849411650e-01 -3.393140768766017e-17
 1.429999999999999e+00  8.256108849411650e-01 -3.393140768766017e-17
 1.429999999999999e+00  8.256108849411650e-01 -3.393140768766017e-17
 1.429999999999999e+00  8.256108849411650e-01 -3.393140768766017e-17
 1.429999999999999e+00  8.256108849411650e-01 -3.393140768766017e-17
 1.429999999999999e+00  8.256108849411650e-01 -3.393140768766017e-17
 1.429999999999999e+00  8.256108849411650e-01 -3.393140768766017e-17
 1.429999999999999e+00  8.256108849411650e-01 -3.393140768766017e-17
 1.429999999999999e+00  8.256108849411650e-01 -3.393140768766017e-17
 1.429999999999999e+00  8.256108849411650e-01 -3.393140768766017e-17
 1.429999999999999e+00  8.256108849411650e-01 -3.393140768766017e-17
 1.429999999999999e+00  8.256108849411650e-01 -3.393140768766017e-17
 1.429999999999999e+00  8.256108849411650e-01 -3.393140768766017e-17
 1.429999999999999e+00  8.256108849411650e-01 -3.393140768766017e-17
 1.429999999999999e+00  8.256108849411650e-01 -3.393140768766017e-17
 1.429999999999999e+00  8.256108849411650e-01 -3.393140768766017e-17
 1.429999999999999e+00  8.256108849411650e-01 -3.393140768766017e-17
 1.429999999999999e+00  8.256108849411650e-01 -3.393140768766017e-17
 1.429999999999999e+00  8.256108849411650e-01 -3.393140768766017e-17
 1.429999999999999e+00  8.256108849411650e-01 -3.393140768766017e-17
 1.429999999999999e+00  8.256108849411650e-01 -3.393140768766017e-17
 1.429999999999999e+00  8.256108849411650e-01 -3.393140768766017e-17
 1.429999999999999e+00  8.256108849411650e-01 -3.393140768766017e-17
 1.429999999999999e+00  8.256108849411650e-01 -3.393140768766017e-17
 1.429999999999999e+00  8.256108849411650e-01 -3.393140768766017e-17
 1.429999999999999e+00  8.256108849411650e-01 -3.393140768766017e-17
 1.429999999999999e+00  8.256108849411650e-01 -3.393140768766017e-17
 1.429999999999999e+00  8.256108849411650e-01 -3.393140768766017e-17
 1.429999999999999e+00  8.256108849411650e-01 -3.393140768766017e-17
 1.429999999999999e+00  8.256108849411650e-01 -3.393140768766017e-17
 1.429999999999999e+00  8.256108849411650e-01 -3.393140768766017e-17
 1.429999999999999e+00  8.256108849411650e-01 -3.393140768766017e-17
 1.429999999999999e+00  8.256108849411650e-01 -3.393140768766017e-17
 1.429999999999999e+00  8.256108849411650e-01 -3.393140768766017e-17
 1.429999999999999e+00  8.256108849411650e-01 -3.393140768766017e-17
 1.429999999999999e+00  8.256108849411650e-01 -3.393140768766017e-17
 1.429999999999999e+00  8.256108849411650e-01 -3.393140768766017e-17
 1.429999999999999e+00  8.256108849411650e-01 -3.393140768766017e-17
 1.429999999999999e+00  8.256108849411650e-01 -3.393140768766017e-17
 1.429999999999999e+00  8.256108849411650e-01 -3.393140768766017e-17
 1.429999999999999e+00  8.256108849411650e-01 -3.393140768766017e-17
 1.429999999999999e+00  8.256108849411650e-01 -3.393140768766017e-17
 1.429999999999999e+00  8.256108849411650e-01 -3.393140768766017e-17
 1.429999999999999e+00  8.256108849411650e-01 -3.393140768766017e-17
 1.429999999999999e+00  8.256108849411650e-01 -3.393140768766017e-17
 1.429999999999999e+00  8.256108849411650e-01 -3.393140768766017e-17
 1.429999999999999e+00  8.256108849411650e-01 -3.393140768766017e-17
 1.429999999999999e+00  8.256108849411650e-01 -3.393140768766017e-17
 1.429999999999999e+00  8.256108849411650e-01 -3.393140768766017e-17
 1.429999999999999e+00  8.256108849411650e-01 -3.393140768766017e-17
 1.429999999999999e+00  8.256108849411650e-01 -3.393140768766017e-17
 1.429999999999999e+00  8.256108849411650e-01 -3.393140768766017e-17
 1.429999999999999e+00  8.256108849411650e-01 -3.393140768766017e-17
 1.429999999999999e+00  8.256108849411650e-01 -3.393140768766017e-17
 1.429999999999999e+00  8.256108849411650e-01 -3.393140768766017e-17
 1.429999999999999e+00  8.256108849411650e-01 -3.393140768766017e-17
 1.429999999999999e+00  8.256108849411650e-01 -3.393140768766017e-17
 1.429999999999999e+00  8.256108849411650e-01 -3.393140768766017e-17
 1.429999999999999e+00  8.256108849411650e-01 -3.393140768766017e-17
 1.429999999999999e+00  8.256108849411650e-01 -3.393140768766017e-17
 1.429999999999999e+00  8.256108849411650e-01 -3.393140768766017e-17
 1.429999999999999e+00  8.256108849411650e-01 -3.393140768766017e-17
 1.429999999999999e+00  8.256108849411650e-01 -3.393140768766017e-17
 1.429999999999999e+00  8.256108849411650e-01 -3.393140768766017e-17
 1.429999999999999e+00  8.256108849411650e-01 -3.393140768766017e-17
 1.429999999999999e+00  8.256108849411650e-01 -3.393140768766017e-17
 1.429999999999999e+00  8.256108849411650e-01 -3.393140768766017e-17
 1.429999999999999e+00  8.256108849411650e-01 -3.393140768766017e-17
 1.429999999999999e+00  8.256108849411650e-01 -3.393140768766017e-17
 1.429999999999999e+00  8.256108849411650e-01 -3.393140768766017e-17
 1.429999999999999e+00  8.256108849411650e-01 -3.393140768766017e-17
 1.429999999999999e+00  8.256108849411650e-01 -3.393140768766017e-17
 1.429999999999999e+00  8.256108849411650e-01 -3.393140768766017e-17
 1.429999999999999e+00  8.256108849411650e-01 -3.393140768766017e-17
 1.429999999999999e+00  8.256108849411650e-01 -3.393140768766017e-17
-1.429999999999999e+00  8.256108849411650e-01  1.696570384383008e-17
 1.429999999999999e+00 -8.256108849411650e-01 -1.696570384383008e-17
-1.429999999999999e+00  8.256108849411650e-01  1.696570384383008e-17
-1.429999999999999e+00  8.256108849411650e-01  1.696570384383008e-17
-1.429999999999999e+00  8.256108849411650e-01  1.696570384383008e-17
-1.429999999999999e+00  8.256108849411650e-01  1.696570384383008e-17
-1.429999999999999e+00  8.256108849411650e-01  1.696570384383008e-17
-1.429999999999999e+00  8.256108849411650e-01  1.696570384383008e-17
-1.429999999999999e+00  8.256108849411650e-01  1.696570384383008e-17
-1.429999999999999e+00  8.256108849411650e-01  1.696570384383008e-17
-1.429999999999999e+00  8.256108849411650e-01  1.696570384383008e-17
-1.429999999999999e+00  8.256108849411650e-01  1.696570384383008e-17
-1.429999999999999e+00  8.256108849411650e-01  1.696570384383008e-17
-1.429999999999999e+00  8.256108849411650e-01  1.696570384383008e-17
-1.429999999999999e+00  8.256108849411650e-01  1.696570384383008e-17
-1.429999999999999e+00  8.256108849411650e-01  1.696570384383008e-17
-1.429999999999999e+00  8.256108849411650e-01  1.696570384383008e-17
-1.429999999999999e+00  8.256108849411650e-01  1.696570384383008e-17
-1.429999999999999e+00  8.256108849411650e-01  1.696570384383008e-17
-1.429999999999999e+00  8.256108849411650e-01  1.696570384383008e-17
-1.429999999999999e+00  8.256108849411650e-01  1.696570384383008e-17
-1.429999999999999e+00  8.256108849411650e-01  1.696570384383008e-17
-1.429999999999999e+00  8.256108849411650e-01  1.696570384383008e-17
-1.429999999999999e+00  8.256108849411650e-01  1.696570384383008e-17
-1.429999999999999e+00  8.256108849411650e-01  1.696570384383008e-17
-1.429999999999999e+00  8.256108849411650e-01  1.696570384383008e-17
-1.429999999999999e+00  8.256108849411650e-01  1.696570384383008e-17
-1.429999999999999e+00  8.256108849411650e-01  1.696570384383008e-17
-1.429999999999999e+00  8.256108849411650e-01  1.696570384383008e-17
-1.429999999999999e+00  8.256108849411650e-01  1.696570384383008e-17
-1.429999999999999e+00  8.256108849411650e-01  1.696570384383008e-17
-1.429999999999999e+00  8.256108849411650e-01  1.696570384383008e-17
-1.429999999999999e+00  8.256108849411650e-01  1.696570384383008e-17
-1.429999999999999e+00  8.256108849411650e-01  1.696570384383008e-17
-1.429999999999999e+00  8.256108849411650e-01  1.696570384383008e-17
-1.429999999999999e+00  8.256108849411650e-01  1.696570384383008e-17
-1.429999999999999e+00  8.256108849411650e-01  1.696570384383008e-17
-1.429999999999999e+00  8.256108849411650e-01  1.696570384383008e-17
-1.429999999999999e+00  8.256108849411650e-01  1.696570384383008e-17
-1.429999999999999e+00  8.256108849411650e-01  1.696570384383008e-17
-1.429999999999999e+00  8.256108849411650e-01  1.696570384383008e-17
-1.429999999999999e+00  8.256108849411650e-01  1.696570384383008e-17
-1.429999999999999e+00  8.256108849411650e-01  1.696570384383008e-17
-1.429999999999999e+00  8.256108849411650e-01  1.696570384383008e-17
-1.429999999999999e+00  8.256108849411650e-01  1.696570384383008e-17
-1.429999999999999e+00  8.256108849411650e-01  1.696570384383008e-17
-1.429999999999999e+00  8.256108849411650e-01  1.696570384383008e-17
-1.429999999999999e+00  8.256108849411650e-01  1.696570384383008e-17
-1.429999999999999e+00  8.256108849411650e-01  1.696570384383008e-17
-1.429999999999999e+00  8.256108849411650e-01  1.696570384383008e-17
-1.429999999999999e+00  8.256108849411650e-01  1.696570384383008e-17
-1.429999999999999e+00  8.256108849411650e-01  1.696570384383008e-17
-1.429999999999999e+00  8.256108849411650e-01  1.696570384383008e-17
-1.429999999999999e+00  8.256108849411650e-01  1.696570384383008e-17
-1.429999999999999e+00  8.256108849411650e-01  1.696570384383008e-17
-1.429999999999999e+00  8.256108849411650e-01  1.696570384383008e-17
-1.429999999999999e+00  8.256108849411650e-01  1.696570384383008e-17
-1.429999999999999e+00  8.256108849411650e-01  1.696570384383008e-17
-1.429999999999999e+00  8.256108849411650e-01  1.696570384383008e-17
-1.429999999999999e+00  8.256108849411650e-01  1.696570384383008e-17
-1.429999999999999e+00  8.256108849411650e-01  1.696570384383008e-17
-1.429999999999999e+00  8.256108849411650e-01  1.696570384383008e-17
-1.429999999999999e+00  8.256108849411650e-01  1.696570384383008e-17
-1.429999999999999e+00  8.256108849411650e-01  1.696570384383008e-17
-1.429999999999999e+00  8.256108849411650e-01  1.696570384383008e-17
-1.429999999999999e+00  8.256108849411650e-01  1.696570384383008e-17
-1.429999999999999e+00  8.256108849411650e-01  1.696570384383008e-17
-1.429999999999999e+00  8.256108849411650e-01  1.696570384383008e-17
-1.429999999999999e+00  8.256108849411650e-01  1.696570384383008e-17
-1.429999999999999e+00  8.256108849411650e-01  1.696570384383008e-17
-1.429999999999999e+00  8.256108849411650e-01  1.696570384383008e-17
-1.429999999999999e+00  8.256108849411650e-01  1.696570384383008e-17
-1.429999999999999e+00  8.256108849411650e-01  1.696570384383008e-17
-1.429999999999999e+00  8.256108849411650e-01  1.696570384383008e-17
-1.429999999999999e+00  8.256108849411650e-01  1.696570384383008e-17
-1.429999999999999e+00  8.256108849411650e-01  1.696570384383008e-17
-1.429999999999999e+00  8.256108849411650e-01  1.696570384383008e-17
-1.429999999999999e+00  8.256108849411650e-01  1.696570384383008e-17
-1.429999999999999e+00  8.256108849411650e-01  1.696570384383008e-17
-1.429999999999999e+00  8.256108849411650e-01  1.696570384383008e-17
-1.429999999999999e+00  8.256108849411650e-01  1.696570384383008e-17
-1.429999999999999e+00  8.256108849411650e-01  1.696570384383008e-17
-1.429999999999999e+00  8.256108849411650e-01  1.696570384383008e-17
-1.429999999999999e+00  8.256108849411650e-01  1.696570384383008e-17
-1.429999999999999e+00  8.256108849411650e-01  1.696570384383008e-17
-1.429999999999999e+00  8.256108849411650e-01  1.696570384383008e-17
-1.429999999999999e+00  8.256108849411650e-01  1.696570384383008e-17
-1.429999999999999e+00  8.256108849411650e-01  1.696570384383008e-17
-1.429999999999999e+00  8.256108849411650e-01  1.696570384383008e-17
-1.429999999999999e+00  8.256108849411650e-01  1.696570384383008e-17
-1.429999999999999e+00  8.256108849411650e-01  1.696570384383008e-17
-1.429999999999999e+00  8.256108849411650e-01  1.696570384383008e-17
-1.429999999999999e+00  8.256108849411650e-01  1.696570384383008e-17
-1.429999999999999e+00  8.256108849411650e-01  1.696570384383008e-17
-1.429999999999999e+00  8.256108849411650e-01  1.696570384383008e-17
-1.429999999999999e+00  8.256108849411650e-01  1.696570384383008e-17
-1.429999999999999e+00  8.256108849411650e-01  1.696570384383008e-17
-1.429999999999999e+00  8.256108849411650e-01  1.696570384383008e-17
-1.429999999999999e+00  8.256108849411650e-01  1.696570384383008e-17
-1.429999999999999e+00  8.256108849411650e-01  1.696570384383008e-17
-1.429999999999999e+00  8.256108849411650e-01  1.696570384383008e-17
-1.429999999999999e+00  8.256108849411650e-01  1.696570384383008e-17
-1.429999999999999e+00  8.256108849411650e-01  1.696570384383008e-17
-1.429999999999999e+00  8.256108849411650e-01  1.696570384383008e-17
-1.429999999999999e+00  8.256108849411650e-01  1.696570384383008e-17
-1.429999999999999e+00  8.256108849411650e-01  1.696570384383008e-17
-1.429999999999999e+00  8.256108849411650e-01  1.696570384383008e-17
-1.429999999999999e+00  8.256108849411650e-01  1.696570384383008e-17
-1.429999999999999e+00  8.256108849411650e-01  1.696570384383008e-17
-1.429999999999999e+00  8.256108849411650e-01  1.696570384383008e-17
-1.429999999999999e+00  8.256108849411650e-01  1.696570384383008e-17
-1.429999999999999e+00  8.256108849411650e-01  1.696570384383008e-17
-1.429999999999999e+00  8.256108849411650e-01  1.696570384383008e-17
-1.429999999999999e+00  8.256108849411650e-01  1.696570384383008e-17
-1.429999999999999e+00  8.256108849411650e-01  1.696570384383008e-17
-1.429999999999999e+00  8.256108849411650e-01  1.696570384383008e-17
-1.429999999999999e+00  8.256108849411650e-01  1.696570384383008e-17
-1.429999999999999e+00  8.256108849411650e-01  1.696570384383008e-17
-1.429999999999999e+00  8.256108849411650e-01  1.696570384383008e-17
-1.429999999999999e+00  8.256108849411650e-01  1.696570384383008e-17
-1.429999999999999e+00  8.256108849411650e-01  1.696570384383008e-17
-1.429999999999999e+00  8.256108849411650e-01  1.696570384383008e-17
-1.429999999999999e+00  8.256108849411650e-01  1.696570384383008e-17
-1.429999999999999e+00  8.256108849411650e-01  1.696570384383008e-17
-1.429999999999999e+00  8.256108849411650e-01  1.696570384383008e-17
-1.429999999999999e+00  8.256108849411650e-01  1.696570384383008e-17
-1.429999999999999e+00  8.256108849411650e-01  1.696570384383008e-17
-1.429999999999999e+00  8.256108849411650e-01  1.696570384383008e-17
-1.429999999999999e+00  8.256108849411650e-01  1.696570384383008e-17
-1.429999999999999e+00  8.256108849411650e-01  1.696570384383008e-17
-1.429999999999999e+00  8.256108849411650e-01  1.696570384383008e-17
-1.429999999999999e+00  8.256108849411650e-01  1.696570384383008e-17
-1.429999999999999e+00  8.256108849411650e-01  1.696570384383008e-17
-1.429999999999999e+00  8.256108849411650e-01  1.696570384383008e-17
-1.429999999999999e+00  8.256108849411650e-01  1.696570384383008e-17
-1.429999999999999e+00  8.256108849411650e-01  1.696570384383008e-17
-1.429999999999999e+00  8.256108849411650e-01  1.696570384383008e-17
-1.429999999999999e+00  8.256108849411650e-01  1.696570384383008e-17
-1.429999999999999e+00  8.256108849411650e-01  1.696570384383008e-17
-1.429999999999999e+00  8.256108849411650e-01  1.696570384383008e-17
-1.429999999999999e+00  8.256108849411650e-01  1.696570384383008e-17
-1.429999999999999e+00  8.256108849411650e-01  1.696570384383008e-17
-1.429999999999999e+00  8.256108849411650e-01  1.696570384383008e-17
-1.429999999999999e+00  8.256108849411650e-01  1.696570384383008e-17
-1.429999999999999e+00  8.256108849411650e-01  1.696570384383008e-17
-1.429999999999999e+00  8.256108849411650e-01  1.696570384383008e-17
-1.429999999999999e+00  8.256108849411650e-01  1.696570384383008e-17
-1.429999999999999e+00  8.256108849411650e-01  1.696570384383008e-17
-1.429999999999999e+00  8.256108849411650e-01  1.696570384383008e-17
-1.429999999999999e+00  8.256108849411650e-01  1.696570384383008e-17
-1.429999999999999e+00  8.256108849411650e-01  1.696570384383008e-17
-1.429999999999999e+00  8.256108849411650e-01  1.696570384383008e-17
-1.429999999999999e+00  8.256108849411650e-01  1.696570384383008e-17
-1.429999999999999e+00  8.256108849411650e-01  1.696570384383008e-17
-1.429999999999999e+00  8.256108849411650e-01  1.696570384383008e-17
-1.429999999999999e+00  8.256108849411650e-01  1.696570384383008e-17
-1.429999999999999e+00  8.256108849411650e-01  1.696570384383008e-17
-1.429999999999999e+00  8.256108849411650e-01  1.696570384383008e-17
-1.429999999999999e+00  8.256108849411650e-01  1.696570384383008e-17
-1.429999999999999e+00  8.256108849411650e-01  1.696570384383008e-17
-1.429999999999999e+00  8.256108849411650e-01  1.696570384383008e-17
-1.429999999999999e+00  8.256108849411650e-01  1.696570384383008e-17
-1.429999999999999e+00  8.256108849411650e-01  1.696570384383008e-17
-1.429999999999999e+00  8.256108849411650e-01  1.696570384383008e-17
-1.429999999999999e+00  8.256108849411650e-01  1.696570384383008e-17
-1.429999999999999e+00  8.256108849411650e-01  1.696570384383008e-17
-1.429999999999999e+00  8.256108849411650e-01  1.696570384383008e-17
-1.429999999999999e+00  8.256108849411650e-01  1.696570384383008e-17
-1.429999999999999e+00  8.256108849411650e-01  1.696570384383008e-17
-1.429999999999999e+00  8.256108849411650e-01  1.696570384383008e-17
-1.429999999999999e+00  8.256108849411650e-01  1.696570384383008e-17
-1.429999999999999e+00  8.256108849411650e-01  1.696570384383008e-17
-1.429999999999999e+00  8.256108849411650e-01  1.696570384383008e-17
-1.429999999999999e+00  8.256108849411650e-01  1.696570384383008e-17
-1.429999999999999e+00  8.256108849411650e-01  1.696570384383008e-17
-1.429999999999999e+00  8.256108849411650e-01  1.696570384383008e-17
-1.429999999999999e+00  8.256108849411650e-01  1.696570384383008e-17
-1.429999999999999e+00  8.256108849411650e-01  1.696570384383008e-17
-1.429999999999999e+00  8.256108849411650e-01  1.696570384383008e-17
-1.429999999999999e+00  8.256108849411650e-01  1.696570384383008e-17
-1.429999999999999e+00  8.256108849411650e-01  1.696570384383008e-17
-1.429999999999999e+00  8.256108849411650e-01  1.696570384383008e-17
-1.429999999999999e+00  8.256108849411650e-01  1.696570384383008e-17
-1.429999999999999e+00  8.256108849411650e-01  1.696570384383008e-17
-1.429999999999999e+00  8.256108849411650e-01  1.696570384383008e-17
-1.429999999999999e+00  8.256108849411650e-01  1.696570384383008e-17
-1.429999999999999e+00  8.256108849411650e-01  1.696570384383008e-17
-1.429999999999999e+00  8.256108849411650e-01  1.696570384383008e-17
-1.429999999999999e+00  8.256108849411650e-01  1.696570384383008e-17
-1.429999999999999e+00  8.256108849411650e-01  1.696570384383008e-17
-1.429999999999999e+00  8.256108849411650e-01  1.696570384383008e-17
-1.429999999999999e+00  8.256108849411650e-01  1.696570384383008e-17
-1.429999999999999e+00  8.256108849411650e-01  1.696570384383008e-17
-1.429999999999999e+00  8.256108849411650e-01  1.696570384383008e-17
-1.429999999999999e+00  8.256108849411650e-01  1.696570384383008e-17
-1.429999999999999e+00  8.256108849411650e-01  1.696570384383008e-17
-1.429999999999999e+00  8.256108849411650e-01  1.696570384383008e-17
-1.429999999999999e+00  8.256108849411650e-01  1.696570384383008e-17
-1.429999999999999e+00  8.256108849411650e-01  1.696570384383008e-17
-1.429999999999999e+00  8.256108849411650e-01  1.696570384383008e-17
-1.429999999999999e+00  8.256108849411650e-01  1.696570384383008e-17
-1.429999999999999e+00  8.256108849411650e-01  1.696570384383008e-17
-1.429999999999999e+00  8.256108849411650e-01  1.696570384383008e-17
-1.429999999999999e+00  8.256108849411650e-01  1.696570384383008e-17
-1.429999999999999e+00  8.256108849411650e-01  1.696570384383008e-17
-1.429999999999999e+00  8.256108849411650e-01  1.696570384383008e-17
-1.429999999999999e+00  8.256108849411650e-01  1.696570384383008e-17
-1.429999999999999e+00  8.256108849411650e-01  1.696570384383008e-17
-1.429999999999999e+00  8.256108849411650e-01  1.696570384383008e-17
-1.429999999999999e+00  8.256108849411650e-01  1.696570384383008e-17
-1.429999999999999e+00  8.256108849411650e-01  1.696570384383008e-17
-1.429999999999999e+00  8.256108849411650e-01  1.696570384383008e-17
-1.429999999999999e+00  8.256108849411650e-01  1.696570384383008e-17
-1.429999999999999e+00  8.256108849411650e-01  1.696570384383008e-17
-1.429999999999999e+00  8.256108849411650e-01  1.696570384383008e-17
-1.429999999999999e+00  8.256108849411650e-01  1.696570384383008e-17
-1.429999999999999e+00  8.256108849411650e-01  1.696570384383008e-17
-1.429999999999999e+00  8.256108849411650e-01  1.696570384383008e-17
-1.429999999999999e+00  8.256108849411650e-01  1.696570384383008e-17
-1.429999999999999e+00  8.256108849411650e-01  1.696570384383008e-17
-1.429999999999999e+00  8.256108849411650e-01  1.696570384383008e-17
-1.429999999999999e+00  8.256108849411650e-01  1.696570384383008e-17
-1.429999999999999e+00  8.256108849411650e-01  1.696570384383008e-17
-1.429999999999999e+00  8.256108849411650e-01  1.696570384383008e-17
-1.429999999999999e+00  8.256108849411650e-01  1.696570384383008e-17
-1.429999999999999e+00  8.256108849411650e-01  1.696570384383008e-17
-1.429999999999999e+00  8.256108849411650e-01  1.696570384383008e-17
-1.429999999999999e+00  8.256108849411650e-01  1.696570384383008e-17
-1.429999999999999e+00  8.256108849411650e-01  1.696570384383008e-17
-1.429999999999999e+00  8.256108849411650e-01  1.696570384383008e-17
-1.429999999999999e+00  8.256108849411650e-01  1.696570384383008e-17
-1.429999999999999e+00  8.256108849411650e-01  1.696570384383008e-17
-1.429999999999999e+00  8.256108849411650e-01  1.696570384383008e-17
-1.429999999999999e+00  8.256108849411650e-01  1.696570384383008e-17
-1.429999999999999e+00  8.256108849411650e-01  1.696570384383008e-17
-1.429999999999999e+00  8.256108849411650e-01  1.696570384383008e-17
-1.429999999999999e+00  8.256108849411650e-01  1.696570384383008e-17
-1.429999999999999e+00  8.256108849411650e-01  1.696570384383008e-17
-1.429999999999999e+00  8.256108849411650e-01  1.696570384383008e-17
-1.429999999999999e+00  8.256108849411650e-01  1.696570384383008e-17
-1.429999999999999e+00  8.256108849411650e-01  1.696570384383008e-17
-1.429999999999999e+00  8.256108849411650e-01  1.696570384383008e-17
-1.429999999999999e+00  8.256108849411650e-01  1.696570384383008e-17
-1.429999999999999e+00  8.256108849411650e-01  1.696570384383008e-17
 1.429999999999999e+00 -8.256108849411650e-01 -1.696570384383008e-17
-1.429999999999999e+00  8.256108849411650e-01  1.696570384383008e-17
-1.429999999999999e+00  8.256108849411650e-01  1.696570384383008e-17
-1.429999999999999e+00  8.256108849411650e-01  1.696570384383008e-17
-1.429999999999999e+00  8.256108849411650e-01  1.696570384383008e-17
-1.429999999999999e+00  8.256108849411650e-01  1.696570384383008e-17
-1.429999999999999e+00  8.256108849411650e-01  1.696570384383008e-17
-1.429999999999999e+00  8.256108849411650e-01  1.696570384383008e-17
-1.429999999999999e+00  8.256108849411650e-01  1.696570384383008e-17
-1.429999999999999e+00  8.256108849411650e-01  1.696570384383008e-17
-1.429999999999999e+00  8.256108849411650e-01  1.696570384383008e-17
-1.429999999999999e+00  8.256108849411650e-01  1.696570384383008e-17
-1.429999999999999e+00  8.256108849411650e-01  1.696570384383008e-17
-1.429999999999999e+00  8.256108849411650e-01  1.696570384383008e-17
-1.429999999999999e+00  8.256108849411650e-01  1.696570384383008e-17
-1.429999999999999e+00  8.256108849411650e-01  1.696570384383008e-17
-1.429999999999999e+00  8.256108849411650e-01  1.696570384383008e-17
-1.429999999999999e+00  8.256108849411650e-01  1.696570384383008e-17
-1.429999999999999e+00  8.256108849411650e-01  1.696570384383008e-17
-1.429999999999999e+00  8.256108849411650e-01  1.696570384383008e-17
-1.429999999999999e+00  8.256108849411650e-01  1.696570384383008e-17
-1.429999999999999e+00  8.256108849411650e-01  1.696570384383008e-17
-1.429999999999999e+00  8.256108849411650e-01  1.696570384383008e-17
-1.429999999999999e+00  8.256108849411650e-01  1.696570384383008e-17
-1.429999999999999e+00  8.256108849411650e-01  1.696570384383008e-17
-1.429999999999999e+00  8.256108849411650e-01  1.696570384383008e-17
-1.429999999999999e+00  8.256108849411650e-01  1.696570384383008e-17
-1.429999999999999e+00  8.256108849411650e-01  1.696570384383008e-17
-1.429999999999999e+00  8.256108849411650e-01  1.696570384383008e-17
-1.429999999999999e+00  8.256108849411650e-01  1.696570384383008e-17
-1.429999999999999e+00  8.256108849411650e-01  1.696570384383008e-17
-1.429999999999999e+00  8.256108849411650e-01  1.696570384383008e-17
-1.429999999999999e+00  8.256108849411650e-01  1.696570384383008e-17
-1.429999999999999e+00  8.256108849411650e-01  1.696570384383008e-17
-1.429999999999999e+00  8.256108849411650e-01  1.696570384383008e-17
-1.429999999999999e+00  8.256108849411650e-01  1.696570384383008e-17
-1.429999999999999e+00  8.256108849411650e-01  1.696570384383008e-17
-1.429999999999999e+00  8.256108849411650e-01  1.696570384383008e-17
-1.429999999999999e+00  8.256108849411650e-01  1.696570384383008e-17
-1.429999999999999e+00  8.256108849411650e-01  1.696570384383008e-17
-1.429999999999999e+00  8.256108849411650e-01  1.696570384383008e-17
-1.429999999999999e+00  8.256108849411650e-01  1.696570384383008e-17
-1.429999999999999e+00  8.256108849411650e-01  1.696570384383008e-17
-1.429999999999999e+00  8.256108849411650e-01  1.696570384383008e-17
-1.429999999999999e+00  8.256108849411650e-01  1.696570384383008e-17
-1.429999999999999e+00  8.256108849411650e-01  1.696570384383008e-17
-1.429999999999999e+00  8.256108849411650e-01  1.696570384383008e-17
-1.429999999999999e+00  8.256108849411650e-01  1.696570384383008e-17
-1.429999999999999e+00  8.256108849411650e-01  1.696570384383008e-17
-1.429999999999999e+00  8.256108849411650e-01  1.696570384383008e-17
-1.429999999999999e+00  8.256108849411650e-01  1.696570384383008e-17
-1.429999999999999e+00  8.256108849411650e-01  1.696570384383008e-17
-1.429999999999999e+00  8.256108849411650e-01  1.696570384383008e-17
-1.429999999999999e+00  8.256108849411650e-01  1.696570384383008e-17
-1.429999999999999e+00  8.256108849411650e-01  1.696570384383008e-17
-1.429999999999999e+00  8.256108849411650e-01  1.696570384383008e-17
-1.429999999999999e+00  8.256108849411650e-01  1.696570384383008e-17
-1.429999999999999e+00  8.256108849411650e-01  1.696570384383008e-17
-1.429999999999999e+00  8.256108849411650e-01  1.696570384383008e-17
-1.429999999999999e+00  8.256108849411650e-01  1.696570384383008e-17
-1.429999999999999e+00  8.256108849411650e-01  1.696570384383008e-17
-1.429999999999999e+00  8.256108849411650e-01  1.696570384383008e-17
-1.429999999999999e+00  8.256108849411650e-01  1.696570384383008e-17
-1.429999999999999e+00  8.256108849411650e-01  1.696570384383008e-17
-1.429999999999999e+00  8.256108849411650e-01  1.696570384383008e-17
-1.429999999999999e+00  8.256108849411650e-01  1.696570384383008e-17
-1.429999999999999e+00  8.256108849411650e-01  1.696570384383008e-17
-1.429999999999999e+00  8.256108849411650e-01  1.696570384383008e-17
-1.429999999999999e+00  8.256108849411650e-01  1.696570384383008e-17
-1.429999999999999e+00  8.256108849411650e-01  1.696570384383008e-17
-1.429999999999999e+00  8.256108849411650e-01  1.696570384383008e-17
-1.429999999999999e+00  8.256108849411650e-01  1.696570384383008e-17
-1.429999999999999e+00  8.256108849411650e-01  1.696570384383008e-17
-1.429999999999999e+00  8.256108849411650e-01  1.696570384383008e-17
-1.429999999999999e+00  8.256108849411650e-01  1.696570384383008e-17
-1.429999999999999e+00  8.256108849411650e-01  1.696570384383008e-17
-1.429999999999999e+00  8.256108849411650e-01  1.696570384383008e-17
-1.429999999999999e+00  8.256108849411650e-01  1.696570384383008e-17
-1.429999999999999e+00  8.256108849411650e-01  1.696570384383008e-17
-1.429999999999999e+00  8.256108849411650e-01  1.696570384383008e-17
-1.429999999999999e+00  8.256108849411650e-01  1.696570384383008e-17
-1.429999999999999e+00  8.256108849411650e-01  1.696570384383008e-17
-1.429999999999999e+00  8.256108849411650e-01  1.696570384383008e-17
-1.429999999999999e+00  8.256108849411650e-01  1.696570384383008e-17
-1.429999999999999e+00  8.256108849411650e-01  1.696570384383008e-17
-1.429999999999999e+00  8.256108849411650e-01  1.696570384383008e-17
-1.429999999999999e+00  8.256108849411650e-01  1.696570384383008e-17
-1.429999999999999e+00  8.256108849411650e-01  1.696570384383008e-17
-1.429999999999999e+00  8.256108849411650e-01  1.696570384383008e-17
-1.429999999999999e+00  8.256108849411650e-01  1.696570384383008e-17
-1.429999999999999e+00  8.256108849411650e-01  1.696570384383008e-17
-1.429999999999999e+00  8.256108849411650e-01  1.696570384383008e-17
-1.429999999999999e+00  8.256108849411650e-01  1.696570384383008e-17
-1.429999999999999e+00  8.256108849411650e-01  1.696570384383008e-17
-1.429999999999999e+00  8.256108849411650e-01  1.696570384383008e-17
-1.429999999999999e+00  8.256108849411650e-01  1.696570384383008e-17
-1.429999999999999e+00  8.256108849411650e-01  1.696570384383008e-17
-1.429999999999999e+00  8.256108849411650e-01  1.696570384383008e-17
-1.429999999999999e+00  8.256108849411650e-01  1.696570384383008e-17
-1.429999999999999e+00  8.256108849411650e-01  1.696570384383008e-17
-1.429999999999999e+00  8.256108849411650e-01  1.696570384383008e-17
-1.429999999999999e+00  8.256108849411650e-01  1.696570384383008e-17
-1.429999999999999e+00  8.256108849411650e-01  1.696570384383008e-17
-1.429999999999999e+00  8.256108849411650e-01  1.696570384383008e-17
-1.429999999999999e+00  8.256108849411650e-01  1.696570384383008e-17
-1.429999999999999e+00  8.256108849411650e-01  1.696570384383008e-17
-1.429999999999999e+00  8.256108849411650e-01  1.696570384383008e-17
-1.429999999999999e+00  8.256108849411650e-01  1.696570384383008e-17
-1.429999999999999e+00  8.256108849411650e-01  1.696570384383008e-17
-1.429999999999999e+00  8.256108849411650e-01  1.696570384383008e-17
-1.429999999999999e+00  8.256108849411650e-01  1.696570384383008e-17
-1.429999999999999e+00  8.256108849411650e-01  1.696570384383008e-17
-1.429999999999999e+00  8.256108849411650e-01  1.696570384383008e-17
-1.429999999999999e+00  8.256108849411650e-01  1.696570384383008e-17
-1.429999999999999e+00  8.256108849411650e-01  1.696570384383008e-17
-1.429999999999999e+00  8.256108849411650e-01  1.696570384383008e-17
-1.429999999999999e+00  8.256108849411650e-01  1.696570384383008e-17
-1.429999999999999e+00  8.256108849411650e-01  1.696570384383008e-17
-1.429999999999999e+00  8.256108849411650e-01  1.696570384383008e-17
-1.429999999999999e+00  8.256108849411650e-01  1.696570384383008e-17
-1.429999999999999e+00  8.256108849411650e-01  1.696570384383008e-17
-1.429999999999999e+00  8.256108849411650e-01  1.696570384383008e-17
-1.429999999999999e+00  8.256108849411650e-01  1.696570384383008e-17
-1.429999999999999e+00  8.256108849411650e-01  1.696570384383008e-17
-1.429999999999999e+00  8.256108849411650e-01  1.696570384383008e-17
-1.429999999999999e+00  8.256108849411650e-01  1.696570384383008e-17
-1.429999999999999e+00  8.256108849411650e-01  1.696570384383008e-17
-1.429999999999999e+00  8.256108849411650e-01  1.696570384383008e-17
-1.429999999999999e+00  8.256108849411650e-01  1.696570384383008e-17
-1.429999999999999e+00  8.256108849411650e-01  1.696570384383008e-17
-1.429999999999999e+00  8.256108849411650e-01  1.696570384383008e-17
-1.429999999999999e+00  8.256108849411650e-01  1.696570384383008e-17
-1.429999999999999e+00  8.256108849411650e-01  1.696570384383008e-17
-1.429999999999999e+00  8.256108849411650e-01  1.696570384383008e-17
-1.429999999999999e+00  8.256108849411650e-01  1.696570384383008e-17
-1.429999999999999e+00  8.256108849411650e-01  1.696570384383008e-17
-1.429999999999999e+00  8.256108849411650e-01  1.696570384383008e-17
-1.429999999999999e+00  8.256108849411650e-01  1.696570384383008e-17
-1.429999999999999e+00  8.256108849411650e-01  1.696570384383008e-17
-1.429999999999999e+00  8.256108849411650e-01  1.696570384383008e-17
-1.429999999999999e+00  8.256108849411650e-01  1.696570384383008e-17
-1.429999999999999e+00  8.256108849411650e-01  1.696570384383008e-17
-1.429999999999999e+00  8.256108849411650e-01  1.696570384383008e-17
-1.429999999999999e+00  8.256108849411650e-01  1.696570384383008e-17
-1.429999999999999e+00  8.256108849411650e-01  1.696570384383008e-17
-1.429999999999999e+00  8.256108849411650e-01  1.696570384383008e-17
-1.429999999999999e+00  8.256108849411650e-01  1.696570384383008e-17
-1.429999999999999e+00  8.256108849411650e-01  1.696570384383008e-17
-1.429999999999999e+00  8.256108849411650e-01  1.696570384383008e-17
-1.429999999999999e+00  8.256108849411650e-01  1.696570384383008e-17
-1.429999999999999e+00  8.256108849411650e-01  1.696570384383008e-17
-1.429999999999999e+00  8.256108849411650e-01  1.696570384383008e-17
-1.429999999999999e+00  8.256108849411650e-01  1.696570384383008e-17
-1.429999999999999e+00  8.256108849411650e-01  1.696570384383008e-17
-1.429999999999999e+00  8.256108849411650e-01  1.696570384383008e-17
-1.429999999999999e+00  8.256108849411650e-01  1.696570384383008e-17
-1.429999999999999e+00  8.256108849411650e-01  1.696570384383008e-17
-1.429999999999999e+00  8.256108849411650e-01  1.696570384383008e-17
-1.429999999999999e+00  8.256108849411650e-01  1.696570384383008e-17
-1.429999999999999e+00  8.256108849411650e-01  1.696570384383008e-17
-1.429999999999999e+00  8.256108849411650e-01  1.696570384383008e-17
-1.429999999999999e+00  8.256108849411650e-01  1.696570384383008e-17
-1.429999999999999e+00  8.256108849411650e-01  1.696570384383008e-17
-1.429999999999999e+00  8.256108849411650e-01  1.696570384383008e-17
-1.429999999999999e+00  8.256108849411650e-01  1.696570384383008e-17
-1.429999999999999e+00  8.256108849411650e-01  1.696570384383008e-17
-1.429999999999999e+00  8.256108849411650e-01  1.696570384383008e-17
-1.429999999999999e+00  8.256108849411650e-01  1.696570384383008e-17
-1.429999999999999e+00  8.256108849411650e-01  1.696570384383008e-17
-1.429999999999999e+00  8.256108849411650e-01  1.696570384383008e-17
-1.429999999999999e+00  8.256108849411650e-01  1.696570384383008e-17
-1.429999999999999e+00  8.256108849411650e-01  1.696570384383008e-17
-1.429999999999999e+00  8.256108849411650e-01  1.696570384383008e-17
-1.429999999999999e+00  8.256108849411650e-01  1.696570384383008e-17
-1.429999999999999e+00  8.256108849411650e-01  1.696570384383008e-17
-1.429999999999999e+00  8.256108849411650e-01  1.696570384383008e-17
-1.429999999999999e+00  8.256108849411650e-01  1.696570384383008e-17
-1.429999999999999e+00  8.256108849411650e-01  1.696570384383008e-17
-1.429999999999999e+00  8.256108849411650e-01  1.696570384383008e-17
-1.429999999999999e+00  8.256108849411650e-01  1.696570384383008e-17
-1.429999999999999e+00  8.256108849411650e-01  1.696570384383008e-17
-1.429999999999999e+00  8.256108849411650e-01  1.696570384383008e-17
-1.429999999999999e+00  8.256108849411650e-01  1.696570384383008e-17
-1.429999999999999e+00  8.256108849411650e-01  1.696570384383008e-17
-1.429999999999999e+00  8.256108849411650e-01  1.696570384383008e-17
-1.429999999999999e+00  8.256108849411650e-01  1.696570384383008e-17
-1.429999999999999e+00  8.256108849411650e-01  1.696570384383008e-17
-1.429999999999999e+00  8.256108849411650e-01  1.696570384383008e-17
-1.429999999999999e+00  8.256108849411650e-01  1.696570384383008e-17
-1.429999999999999e+00  8.256108849411650e-01  1.696570384383008e-17
-1.429999999999999e+00  8.256108849411650e-01  1.696570384383008e-17
-1.429999999999999e+00  8.256108849411650e-01  1.696570384383008e-17
-1.429999999999999e+00  8.256108849411650e-01  1.696570384383008e-17
-1.429999999999999e+00  8.256108849411650e-01  1.696570384383008e-17
-1.429999999999999e+00  8.256108849411650e-01  1.696570384383008e-17
-1.429999999999999e+00  8.256108849411650e-01  1.696570384383008e-17
-1.429999999999999e+00  8.256108849411650e-01  1.696570384383008e-17
-1.429999999999999e+00  8.256108849411650e-01  1.696570384383008e-17
-1.429999999999999e+00  8.256108849411650e-01  1.696570384383008e-17
-1.429999999999999e+00  8.256108849411650e-01  1.696570384383008e-17
-1.429999999999999e+00  8.256108849411650e-01  1.696570384383008e-17
-1.429999999999999e+00  8.256108849411650e-01  1.696570384383008e-17
-1.429999999999999e+00  8.256108849411650e-01  1.696570384383008e-17
-1.429999999999999e+00  8.256108849411650e-01  1.696570384383008e-17
-1.429999999999999e+00  8.256108849411650e-01  1.696570384383008e-17
-1.429999999999999e+00  8.256108849411650e-01  1.696570384383008e-17
-1.429999999999999e+00  8.256108849411650e-01  1.696570384383008e-17
-1.429999999999999e+00  8.256108849411650e-01  1.696570384383008e-17
 1.429999999999999e+00 -8.256108849411650e-01 -1.696570384383008e-17
-1.429999999999999e+00  8.256108849411650e-01  1.696570384383008e-17
 1.429999999999999e+00 -8.256108849411650e-01 -1.696570384383008e-17
 1.429999999999999e+00 -8.256108849411650e-01 -1.696570384383008e-17
 1.429999999999999e+00 -8.256108849411650e-01 -1.696570384383008e-17
 1.429999999999999e+00 -8.256108849411650e-01 -1.696570384383008e-17
 1.429999999999999e+00 -8.256108849411650e-01 -1.696570384383008e-17
 1.429999999999999e+00 -8.256108849411650e-01 -1.696570384383008e-17
 1.429999999999999e+00 -8.256108849411650e-01 -1.696570384383008e-17
 1.429999999999999e+00 -8.256108849411650e-01 -1.696570384383008e-17
 1.429999999999999e+00 -8.256108849411650e-01 -1.696570384383008e-17
 1.429999999999999e+00 -8.256108849411650e-01 -1.696570384383008e-17
 1.429999999999999e+00 -8.256108849411650e-01 -1.696570384383008e-17
 1.429999999999999e+00 -8.256108849411650e-01 -1.696570384383008e-17
 1.429999999999999e+00 -8.256108849411650e-01 -1.696570384383008e-17
 1.429999999999999e+00 -8.256108849411650e-01 -1.696570384383008e-17
 1.429999999999999e+00 -8.256108849411650e-01 -1.696570384383008e-17
 1.429999999999999e+00 -8.256108849411650e-01 -1.696570384383008e-17
 1.429999999999999e+00 -8.256108849411650e-01 -1.696570384383008e-17
 1.429999999999999e+00 -8.256108849411650e-01 -1.696570384383008e-17
 1.429999999999999e+00 -8.256108849411650e-01 -1.696570384383008e-17
 1.429999999999999e+00 -8.256108849411650e-01 -1.696570384383008e-17
 1.429999999999999e+00 -8.256108849411650e-01 -1.696570384383008e-17
 1.429999999999999e+00 -8.256108849411650e-01 -1.696570384383008e-17
 1.429999999999999e+00 -8.256108849411650e-01 -1.696570384383008e-17
 1.429999999999999e+00 -8.256108849411650e-01 -1.696570384383008e-17
 1.429999999999999e+00 -8.256108849411650e-01 -1.696570384383008e-17
 1.429999999999999e+00 -8.256108849411650e-01 -1.696570384383008e-17
 1.429999999999999e+00 -8.256108849411650e-01 -1.696570384383008e-17
 1.429999999999999e+00 -8.256108849411650e-01 -1.696570384383008e-17
 1.429999999999999e+00 -8.256108849411650e-01 -1.696570384383008e-17
 1.429999999999999e+00 -8.256108849411650e-01 -1.696570384383008e-17
 1.429999999999999e+00 -8.256108849411650e-01 -1.696570384383008e-17
 1.429999999999999e+00 -8.256108849411650e-01 -1.696570384383008e-17
 1.429999999999999e+00 -8.256108849411650e-01 -1.696570384383008e-17
 1.429999999999999e+00 -8.256108849411650e-01 -1.696570384383008e-17
 1.429999999999999e+00 -8.256108849411650e-01 -1.696570384383008e-17
 1.429999999999999e+00 -8.256108849411650e-01 -1.696570384383008e-17
 1.429999999999999e+00 -8.256108849411650e-01 -1.696570384383008e-17
 1.429999999999999e+00 -8.256108849411650e-01 -1.696570384383008e-17
 1.429999999999999e+00 -8.256108849411650e-01 -1.696570384383008e-17
 1.429999999999999e+00 -8.256108849411650e-01 -1.696570384383008e-17
 1.429999999999999e+00 -8.256108849411650e-01 -1.696570384383008e-17
 1.429999999999999e+00 -8.256108849411650e-01 -1.696570384383008e-17
 1.429999999999999e+00 -8.256108849411650e-01 -1.696570384383008e-17
 1.429999999999999e+00 -8.256108849411650e-01 -1.696570384383008e-17
 1.429999999999999e+00 -8.256108849411650e-01 -1.696570384383008e-17
 1.429999999999999e+00 -8.256108849411650e-01 -1.696570384383008e-17
 1.429999999999999e+00 -8.256108849411650e-01 -1.696570384383008e-17
 1.429999999999999e+00 -8.256108849411650e-01 -1.696570384383008e-17
 1.429999999999999e+00 -8.256108849411650e-01 -1.696570384383008e-17
 1.429999999999999e+00 -8.256108849411650e-01 -1.696570384383008e-17
 1.429999999999999e+00 -8.256108849411650e-01 -1.696570384383008e-17
 1.429999999999999e+00 -8.256108849411650e-01 -1.696570384383008e-17
 1.429999999999999e+00 -8.256108849411650e-01 -1.696570384383008e-17
 1.429999999999999e+00 -8.256108849411650e-01 -1.696570384383008e-17
 1.429999999999999e+00 -8.256108849411650e-01 -1.696570384383008e-17
 1.429999999999999e+00 -8.256108849411650e-01 -1.696570384383008e-17
 1.429999999999999e+00 -8.256108849411650e-01 -1.696570384383008e-17
 1.429999999999999e+00 -8.256108849411650e-01 -1.696570384383008e-17
 1.429999999999999e+00 -8.256108849411650e-01 -1.696570384383008e-17
 1.429999999999999e+00 -8.256108849411650e-01 -1.696570384383008e-17
 1.429999999999999e+00 -8.256108849411650e-01 -1.696570384383008e-17
 1.429999999999999e+00 -8.256108849411650e-01 -1.696570384383008e-17
 1.429999999999999e+00 -8.256108849411650e-01 -1.696570384383008e-17
 1.429999999999999e+00 -8.256108849411650e-01 -1.696570384383008e-17
 1.429999999999999e+00 -8.256108849411650e-01 -1.696570384383008e-17
 1.429999999999999e+00 -8.256108849411650e-01 -1.696570384383008e-17
 1.429999999999999e+00 -8.256108849411650e-01 -1.696570384383008e-17
 1.429999999999999e+00 -8.256108849411650e-01 -1.696570384383008e-17
 1.429999999999999e+00 -8.256108849411650e-01 -1.696570384383008e-17
 1.429999999999999e+00 -8.256108849411650e-01 -1.696570384383008e-17
 1.429999999999999e+00 -8.256108849411650e-01 -1.696570384383008e-17
 1.429999999999999e+00 -8.256108849411650e-01 -1.696570384383008e-17
 1.429999999999999e+00 -8.256108849411650e-01 -1.696570384383008e-17
 1.429999999999999e+00 -8.256108849411650e-01 -1.696570384383008e-17
 1.429999999999999e+00 -8.256108849411650e-01 -1.696570384383008e-17
 1.429999999999999e+00 -8.256108849411650e-01 -1.696570384383008e-17
 1.429999999999999e+00 -8.256108849411650e-01 -1.696570384383008e-17
 1.429999999999999e+00 -8.256108849411650e-01 -1.696570384383008e-17
 1.429999999999999e+00 -8.256108849411650e-01 -1.696570384383008e-17
 1.429999999999999e+00 -8.256108849411650e-01 -1.696570384383008e-17
 1.429999999999999e+00 -8.256108849411650e-01 -1.696570384383008e-17
 1.429999999999999e+00 -8.256108849411650e-01 -1.696570384383008e-17
 1.429999999999999e+00 -8.256108849411650e-01 -1.696570384383008e-17
 1.429999999999999e+00 -8.256108849411650e-01 -1.696570384383008e-17
 1.429999999999999e+00 -8.256108849411650e-01 -1.696570384383008e-17
 1.429999999999999e+00 -8.256108849411650e-01 -1.696570384383008e-17
 1.429999999999999e+00 -8.256108849411650e-01 -1.696570384383008e-17
 1.429999999999999e+00 -8.256108849411650e-01 -1.696570384383008e-17
 1.429999999999999e+00 -8.256108849411650e-01 -1.696570384383008e-17
 1.429999999999999e+00 -8.256108849411650e-01 -1.696570384383008e-17
 1.429999999999999e+00 -8.256108849411650e-01 -1.696570384383008e-17
 1.429999999999999e+00 -8.256108849411650e-01 -1.696570384383008e-17
 1.429999999999999e+00 -8.256108849411650e-01 -1.696570384383008e-17
 1.429999999999999e+00 -8.256108849411650e-01 -1.696570384383008e-17
 1.429999999999999e+00 -8.256108849411650e-01 -1.696570384383008e-17
 1.429999999999999e+00 -8.256108849411650e-01 -1.696570384383008e-17
 1.429999999999999e+00 -8.256108849411650e-01 -1.696570384383008e-17
 1.429999999999999e+00 -8.256108849411650e-01 -1.696570384383008e-17
 1.429999999999999e+00 -8.256108849411650e-01 -1.696570384383008e-17
 1.429999999999999e+00 -8.256108849411650e-01 -1.696570384383008e-17
 1.429999999999999e+00 -8.256108849411650e-01 -1.696570384383008e-17
 1.429999999999999e+00 -8.256108849411650e-01 -1.696570384383008e-17
 1.429999999999999e+00 -8.256108849411650e-01 -1.696570384383008e-17
 1.429999999999999e+00 -8.256108849411650e-01 -1.696570384383008e-17
 1.429999999999999e+00 -8.256108849411650e-01 -1.696570384383008e-17
 1.429999999999999e+00 -8.256108849411650e-01 -1.696570384383008e-17
 1.429999999999999e+00 -8.256108849411650e-01 -1.696570384383008e-17
 1.429999999999999e+00 -8.256108849411650e-01 -1.696570384383008e-17
 1.429999999999999e+00 -8.256108849411650e-01 -1.696570384383008e-17
 1.429999999999999e+00 -8.256108849411650e-01 -1.696570384383008e-17
 1.429999999999999e+00 -8.256108849411650e-01 -1.696570384383008e-17
 1.429999999999999e+00 -8.256108849411650e-01 -1.696570384383008e-17
 1.429999999999999e+00 -8.256108849411650e-01 -1.696570384383008e-17
 1.429999999999999e+00 -8.256108849411650e-01 -1.696570384383008e-17
 1.429999999999999e+00 -8.256108849411650e-01 -1.696570384383008e-17
 1.429999999999999e+00 -8.256108849411650e-01 -1.696570384383008e-17
 1.429999999999999e+00 -8.256108849411650e-01 -1.696570384383008e-17
 1.429999999999999e+00 -8.256108849411650e-01 -1.696570384383008e-17
 1.429999999999999e+00 -8.256108849411650e-01 -1.696570384383008e-17
 1.429999999999999e+00 -8.256108849411650e-01 -1.696570384383008e-17
 1.429999999999999e+00 -8.256108849411650e-01 -1.696570384383008e-17
 1.429999999999999e+00 -8.256108849411650e-01 -1.696570384383008e-17
 1.429999999999999e+00 -8.256108849411650e-01 -1.696570384383008e-17
 1.429999999999999e+00 -8.256108849411650e-01 -1.696570384383008e-17
 1.429999999999999e+00 -8.256108849411650e-01 -1.696570384383008e-17
 1.429999999999999e+00 -8.256108849411650e-01 -1.696570384383008e-17
 1.429999999999999e+00 -8.256108849411650e-01 -1.696570384383008e-17
 1.429999999999999e+00 -8.256108849411650e-01 -1.696570384383008e-17
 1.429999999999999e+00 -8.256108849411650e-01 -1.696570384383008e-17
 1.429999999999999e+00 -8.256108849411650e-01 -1.696570384383008e-17
 1.429999999999999e+00 -8.256108849411650e-01 -1.696570384383008e-17
 1.429999999999999e+00 -8.256108849411650e-01 -1.696570384383008e-17
 1.429999999999999e+00 -8.256108849411650e-01 -1.696570384383008e-17
 1.429999999999999e+00 -8.256108849411650e-01 -1.696570384383008e-17
 1.429999999999999e+00 -8.256108849411650e-01 -1.696570384383008e-17
 1.429999999999999e+00 -8.256108849411650e-01 -1.696570384383008e-17
 1.429999999999999e+00 -8.256108849411650e-01 -1.696570384383008e-17
 1.429999999999999e+00 -8.256108849411650e-01 -1.696570384383008e-17
 1.429999999999999e+00 -8.256108849411650e-01 -1.696570384383008e-17
 1.429999999999999e+00 -8.256108849411650e-01 -1.696570384383008e-17
 1.429999999999999e+00 -8.256108849411650e-01 -1.696570384383008e-17
 1.429999999999999e+00 -8.256108849411650e-01 -1.696570384383008e-17
 1.429999999999999e+00 -8.256108849411650e-01 -1.696570384383008e-17
 1.429999999999999e+00 -8.256108849411650e-01 -1.696570384383008e-17
 1.429999999999999e+00 -8.256108849411650e-01 -1.696570384383008e-17
 1.429999999999999e+00 -8.256108849411650e-01 -1.696570384383008e-17
 1.429999999999999e+00 -8.256108849411650e-01 -1.696570384383008e-17
 1.429999999999999e+00 -8.256108849411650e-01 -1.696570384383008e-17
 1.429999999999999e+00 -8.256108849411650e-01 -1.696570384383008e-17
 1.429999999999999e+00 -8.256108849411650e-01 -1.696570384383008e-17
 1.429999999999999e+00 -8.256108849411650e-01 -1.696570384383008e-17
 1.429999999999999e+00 -8.256108849411650e-01 -1.696570384383008e-17
 1.429999999999999e+00 -8.256108849411650e-01 -1.696570384383008e-17
 1.429999999999999e+00 -8.256108849411650e-01 -1.696570384383008e-17
 1.429999999999999e+00 -8.256108849411650e-01 -1.696570384383008e-17
 1.429999999999999e+00 -8.256108849411650e-01 -1.696570384383008e-17
 1.429999999999999e+00 -8.256108849411650e-01 -1.696570384383008e-17
 1.429999999999999e+00 -8.256108849411650e-01 -1.696570384383008e-17
 1.429999999999999e+00 -8.256108849411650e-01 -1.696570384383008e-17
 1.429999999999999e+00 -8.256108849411650e-01 -1.696570384383008e-17
 1.429999999999999e+00 -8.256108849411650e-01 -1.696570384383008e-17
 1.429999999999999e+00 -8.256108849411650e-01 -1.696570384383008e-17
 1.429999999999999e+00 -8.256108849411650e-01 -1.696570384383008e-17
 1.429999999999999e+00 -8.256108849411650e-01 -1.696570384383008e-17
 1.429999999999999e+00 -8.256108849411650e-01 -1.696570384383008e-17
 1.429999999999999e+00 -8.256108849411650e-01 -1.696570384383008e-17
 1.429999999999999e+00 -8.256108849411650e-01 -1.696570384383008e-17
 1.429999999999999e+00 -8.256108849411650e-01 -1.696570384383008e-17
 1.429999999999999e+00 -8.256108849411650e-01 -1.696570384383008e-17
 1.429999999999999e+00 -8.256108849411650e-01 -1.696570384383008e-17
 1.429999999999999e+00 -8.256108849411650e-01 -1.696570384383008e-17
 1.429999999999999e+00 -8.256108849411650e-01 -1.696570384383008e-17
 1.429999999999999e+00 -8.256108849411650e-01 -1.696570384383008e-17
 1.429999999999999e+00 -8.256108849411650e-01 -1.696570384383008e-17
 1.429999999999999e+00 -8.256108849411650e-01 -1.696570384383008e-17
 1.429999999999999e+00 -8.256108849411650e-01 -1.696570384383008e-17
 1.429999999999999e+00 -8.256108849411650e-01 -1.696570384383008e-17
 1.429999999999999e+00 -8.256108849411650e-01 -1.696570384383008e-17
 1.429999999999999e+00 -8.256108849411650e-01 -1.696570384383008e-17
 1.429999999999999e+00 -8.256108849411650e-01 -1.696570384383008e-17
 1.429999999999999e+00 -8.256108849411650e-01 -1.696570384383008e-17
 1.429999999999999e+00 -8.256108849411650e-01 -1.696570384383008e-17
 1.429999999999999e+00 -8.256108849411650e-01 -1.696570384383008e-17
 1.429999999999999e+00 -8.256108849411650e-01 -1.696570384383008e-17
 1.429999999999999e+00 -8.256108849411650e-01 -1.696570384383008e-17
 1.429999999999999e+00 -8.256108849411650e-01 -1.696570384383008e-17
 1.429999999999999e+00 -8.256108849411650e-01 -1.696570384383008e-17
 1.429999999999999e+00 -8.256108849411650e-01 -1.696570384383008e-17
 1.429999999999999e+00 -8.256108849411650e-01 -1.696570384383008e-17
 1.429999999999999e+00 -8.256108849411650e-01 -1.696570384383008e-17
 1.429999999999999e+00 -8.256108849411650e-01 -1.696570384383008e-17
 1.429999999999999e+00 -8.256108849411650e-01 -1.696570384383008e-17
 1.429999999999999e+00 -8.256108849411650e-01 -1.696570384383008e-17
 1.429999999999999e+00 -8.256108849411650e-01 -1.696570384383008e-17
 1.429999999999999e+00 -8.256108849411650e-01 -1.696570384383008e-17
 1.429999999999999e+00 -8.256108849411650e-01 -1.696570384383008e-17
 1.429999999999999e+00 -8.256108849411650e-01 -1.696570384383008e-17
 1.429999999999999e+00 -8.256108849411650e-01 -1.696570384383008e-17
 1.429999999999999e+00 -8.256108849411650e-01 -1.696570384383008e-17
 1.429999999999999e+00 -8.256108849411650e-01 -1.696570384383008e-17
 1.429999999999999e+00 -8.256108849411650e-01 -1.696570384383008e-17
 1.429999999999999e+00 -8.256108849411650e-01 -1.696570384383008e-17
 1.429999999999999e+00 -8.256108849411650e-01 -1.696570384383008e-17
-1.429999999999999e+00  8.256108849411650e-01  1.696570384383008e-17
 1.429999999999999e+00 -8.256108849411650e-01 -1.696570384383008e-17
 1.429999999999999e+00 -8.256108849411650e-01 -1.696570384383008e-17
 1.429999999999999e+00 -8.256108849411650e-01 -1.696570384383008e-17
 1.429999999999999e+00 -8.256108849411650e-01 -1.696570384383008e-17
 1.429999999999999e+00 -8.256108849411650e-01 -1.696570384383008e-17
 1.429999999999999e+00 -8.256108849411650e-01 -1.696570384383008e-17
 1.429999999999999e+00 -8.256108849411650e-01 -1.696570384383008e-17
 1.429999999999999e+00 -8.256108849411650e-01 -1.696570384383008e-17
 1.429999999999999e+00 -8.256108849411650e-01 -1.696570384383008e-17
 1.429999999999999e+00 -8.256108849411650e-01 -1.696570384383008e-17
 1.429999999999999e+00 -8.256108849411650e-01 -1.696570384383008e-17
 1.429999999999999e+00 -8.256108849411650e-01 -1.696570384383008e-17
 1.429999999999999e+00 -8.256108849411650e-01 -1.696570384383008e-17
 1.429999999999999e+00 -8.256108849411650e-01 -1.696570384383008e-17
 1.429999999999999e+00 -8.256108849411650e-01 -1.696570384383008e-17
 1.429999999999999e+00 -8.256108849411650e-01 -1.696570384383008e-17
 1.429999999999999e+00 -8.256108849411650e-01 -1.696570384383008e-17
 1.429999999999999e+00 -8.256108849411650e-01 -1.696570384383008e-17
 1.429999999999999e+00 -8.256108849411650e-01 -1.696570384383008e-17
 1.429999999999999e+00 -8.256108849411650e-01 -1.696570384383008e-17
 1.429999999999999e+00 -8.256108849411650e-01 -1.696570384383008e-17
 1.429999999999999e+00 -8.256108849411650e-01 -1.696570384383008e-17
 1.429999999999999e+00 -8.256108849411650e-01 -1.696570384383008e-17
 1.429999999999999e+00 -8.256108849411650e-01 -1.696570384383008e-17
 1.429999999999999e+00 -8.256108849411650e-01 -1.696570384383008e-17
 1.429999999999999e+00 -8.256108849411650e-01 -1.696570384383008e-17
 1.429999999999999e+00 -8.256108849411650e-01 -1.696570384383008e-17
 1.429999999999999e+00 -8.256108849411650e-01 -1.696570384383008e-17
 1.429999999999999e+00 -8.256108849411650e-01 -1.696570384383008e-17
 1.429999999999999e+00 -8.256108849411650e-01 -1.696570384383008e-17
 1.429999999999999e+00 -8.256108849411650e-01 -1.696570384383008e-17
 1.429999999999999e+00 -8.256108849411650e-01 -1.696570384383008e-17
 1.429999999999999e+00 -8.256108849411650e-01 -1.696570384383008e-17
 1.429999999999999e+00 -8.256108849411650e-01 -1.696570384383008e-17
 1.429999999999999e+00 -8.256108849411650e-01 -1.696570384383008e-17
 1.429999999999999e+00 -8.256108849411650e-01 -1.696570384383008e-17
 1.429999999999999e+00 -8.256108849411650e-01 -1.696570384383008e-17
 1.429999999999999e+00 -8.256108849411650e-01 -1.696570384383008e-17
 1.429999999999999e+00 -8.256108849411650e-01 -1.696570384383008e-17
 1.429999999999999e+00 -8.256108849411650e-01 -1.696570384383008e-17
 1.429999999999999e+00 -8.256108849411650e-01 -1.696570384383008e-17
 1.429999999999999e+00 -8.256108849411650e-01 -1.696570384383008e-17
 1.429999999999999e+00 -8.256108849411650e-01 -1.696570384383008e-17
 1.429999999999999e+00 -8.256108849411650e-01 -1.696570384383008e-17
 1.429999999999999e+00 -8.256108849411650e-01 -1.696570384383008e-17
 1.429999999999999e+00 -8.256108849411650e-01 -1.696570384383008e-17
 1.429999999999999e+00 -8.256108849411650e-01 -1.696570384383008e-17
 1.429999999999999e+00 -8.256108849411650e-01 -1.696570384383008e-17
 1.429999999999999e+00 -8.256108849411650e-01 -1.696570384383008e-17
 1.429999999999999e+00 -8.256108849411650e-01 -1.696570384383008e-17
 1.429999999999999e+00 -8.256108849411650e-01 -1.696570384383008e-17
 1.429999999999999e+00 -8.256108849411650e-01 -1.696570384383008e-17
 1.429999999999999e+00 -8.256108849411650e-01 -1.696570384383008e-17
 1.429999999999999e+00 -8.256108849411650e-01 -1.696570384383008e-17
 1.429999999999999e+00 -8.256108849411650e-01 -1.696570384383008e-17
 1.429999999999999e+00 -8.256108849411650e-01 -1.696570384383008e-17
 1.429999999999999e+00 -8.256108849411650e-01 -1.696570384383008e-17
 1.429999999999999e+00 -8.256108849411650e-01 -1.696570384383008e-17
 1.429999999999999e+00 -8.256108849411650e-01 -1.696570384383008e-17
 1.429999999999999e+00 -8.256108849411650e-01 -1.696570384383008e-17
 1.429999999999999e+00 -8.256108849411650e-01 -1.696570384383008e-17
 1.429999999999999e+00 -8.256108849411650e-01 -1.696570384383008e-17
 1.429999999999999e+00 -8.256108849411650e-01 -1.696570384383008e-17
 1.429999999999999e+00 -8.256108849411650e-01 -1.696570384383008e-17
 1.429999999999999e+00 -8.256108849411650e-01 -1.696570384383008e-17
 1.429999999999999e+00 -8.256108849411650e-01 -1.696570384383008e-17
 1.429999999999999e+00 -8.256108849411650e-01 -1.696570384383008e-17
 1.429999999999999e+00 -8.256108849411650e-01 -1.696570384383008e-17
 1.429999999999999e+00 -8.256108849411650e-01 -1.696570384383008e-17
 1.429999999999999e+00 -8.256108849411650e-01 -1.696570384383008e-17
 1.429999999999999e+00 -8.256108849411650e-01 -1.696570384383008e-17
 1.429999999999999e+00 -8.256108849411650e-01 -1.696570384383008e-17
 1.429999999999999e+00 -8.256108849411650e-01 -1.696570384383008e-17
 1.429999999999999e+00 -8.256108849411650e-01 -1.696570384383008e-17
 1.429999999999999e+00 -8.256108849411650e-01 -1.696570384383008e-17
 1.429999999999999e+00 -8.256108849411650e-01 -1.696570384383008e-17
 1.429999999999999e+00 -8.256108849411650e-01 -1.696570384383008e-17
 1.429999999999999e+00 -8.256108849411650e-01 -1.696570384383008e-17
 1.429999999999999e+00 -8.256108849411650e-01 -1.696570384383008e-17
 1.429999999999999e+00 -8.256108849411650e-01 -1.696570384383008e-17
 1.429999999999999e+00 -8.256108849411650e-01 -1.696570384383008e-17
 1.429999999999999e+00 -8.256108849411650e-01 -1.696570384383008e-17
 1.429999999999999e+00 -8.256108849411650e-01 -1.696570384383008e-17
 1.429999999999999e+00 -8.256108849411650e-01 -1.696570384383008e-17
 1.429999999999999e+00 -8.256108849411650e-01 -1.696570384383008e-17
 1.429999999999999e+00 -8.256108849411650e-01 -1.696570384383008e-17
 1.429999999999999e+00 -8.256108849411650e-01 -1.696570384383008e-17
 1.429999999999999e+00 -8.256108849411650e-01 -1.696570384383008e-17
 1.429999999999999e+00 -8.256108849411650e-01 -1.696570384383008e-17
 1.429999999999999e+00 -8.256108849411650e-01 -1.696570384383008e-17
 1.429999999999999e+00 -8.256108849411650e-01 -1.696570384383008e-17
 1.429999999999999e+00 -8.256108849411650e-01 -1.696570384383008e-17
 1.429999999999999e+00 -8.256108849411650e-01 -1.696570384383008e-17
 1.429999999999999e+00 -8.256108849411650e-01 -1.696570384383008e-17
 1.429999999999999e+00 -8.256108849411650e-01 -1.696570384383008e-17
 1.429999999999999e+00 -8.256108849411650e-01 -1.696570384383008e-17
 1.429999999999999e+00 -8.256108849411650e-01 -1.696570384383008e-17
 1.429999999999999e+00 -8.256108849411650e-01 -1.696570384383008e-17
 1.429999999999999e+00 -8.256108849411650e-01 -1.696570384383008e-17
 1.429999999999999e+00 -8.256108849411650e-01 -1.696570384383008e-17
 1.429999999999999e+00 -8.256108849411650e-01 -1.696570384383008e-17
 1.429999999999999e+00 -8.256108849411650e-01 -1.696570384383008e-17
 1.429999999999999e+00 -8.256108849411650e-01 -1.696570384383008e-17
 1.429999999999999e+00 -8.256108849411650e-01 -1.696570384383008e-17
 1.429999999999999e+00 -8.256108849411650e-01 -1.696570384383008e-17
 1.429999999999999e+00 -8.256108849411650e-01 -1.696570384383008e-17
 1.429999999999999e+00 -8.256108849411650e-01 -1.696570384383008e-17
 1.429999999999999e+00 -8.256108849411650e-01 -1.696570384383008e-17
 1.429999999999999e+00 -8.256108849411650e-01 -1.696570384383008e-17
 1.429999999999999e+00 -8.256108849411650e-01 -1.696570384383008e-17
 1.429999999999999e+00 -8.256108849411650e-01 -1.696570384383008e-17
 1.429999999999999e+00 -8.256108849411650e-01 -1.696570384383008e-17
 1.429999999999999e+00 -8.256108849411650e-01 -1.696570384383008e-17
 1.429999999999999e+00 -8.256108849411650e-01 -1.696570384383008e-17
 1.429999999999999e+00 -8.256108849411650e-01 -1.696570384383008e-17
 1.429999999999999e+00 -8.256108849411650e-01 -1.696570384383008e-17
 1.429999999999999e+00 -8.256108849411650e-01 -1.696570384383008e-17
 1.429999999999999e+00 -8.256108849411650e-01 -1.696570384383008e-17
 1.429999999999999e+00 -8.256108849411650e-01 -1.696570384383008e-17
 1.429999999999999e+00 -8.256108849411650e-01 -1.696570384383008e-17
 1.429999999999999e+00 -8.256108849411650e-01 -1.696570384383008e-17
 1.429999999999999e+00 -8.256108849411650e-01 -1.696570384383008e-17
 1.429999999999999e+00 -8.256108849411650e-01 -1.696570384383008e-17
 1.429999999999999e+00 -8.256108849411650e-01 -1.696570384383008e-17
 1.429999999999999e+00 -8.256108849411650e-01 -1.696570384383008e-17
 1.429999999999999e+00 -8.256108849411650e-01 -1.696570384383008e-17
 1.429999999999999e+00 -8.256108849411650e-01 -1.696570384383008e-17
 1.429999999999999e+00 -8.256108849411650e-01 -1.696570384383008e-17
 1.429999999999999e+00 -8.256108849411650e-01 -1.696570384383008e-17
 1.429999999999999e+00 -8.256108849411650e-01 -1.696570384383008e-17
 1.429999999999999e+00 -8.256108849411650e-01 -1.696570384383008e-17
 1.429999999999999e+00 -8.256108849411650e-01 -1.696570384383008e-17
 1.429999999999999e+00 -8.256108849411650e-01 -1.696570384383008e-17
 1.429999999999999e+00 -8.256108849411650e-01 -1.696570384383008e-17
 1.429999999999999e+00 -8.256108849411650e-01 -1.696570384383008e-17
 1.429999999999999e+00 -8.256108849411650e-01 -1.696570384383008e-17
 1.429999999999999e+00 -8.256108849411650e-01 -1.696570384383008e-17
 1.429999999999999e+00 -8.256108849411650e-01 -1.696570384383008e-17
 1.429999999999999e+00 -8.256108849411650e-01 -1.696570384383008e-17
 1.429999999999999e+00 -8.256108849411650e-01 -1.696570384383008e-17
 1.429999999999999e+00 -8.256108849411650e-01 -1.696570384383008e-17
 1.429999999999999e+00 -8.256108849411650e-01 -1.696570384383008e-17
 1.429999999999999e+00 -8.256108849411650e-01 -1.696570384383008e-17
 1.429999999999999e+00 -8.256108849411650e-01 -1.696570384383008e-17
 1.429999999999999e+00 -8.256108849411650e-01 -1.696570384383008e-17
 1.429999999999999e+00 -8.256108849411650e-01 -1.696570384383008e-17
 1.429999999999999e+00 -8.256108849411650e-01 -1.696570384383008e-17
 1.429999999999999e+00 -8.256108849411650e-01 -1.696570384383008e-17
 1.429999999999999e+00 -8.256108849411650e-01 -1.696570384383008e-17
 1.429999999999999e+00 -8.256108849411650e-01 -1.696570384383008e-17
 1.429999999999999e+00 -8.256108849411650e-01 -1.696570384383008e-17
 1.429999999999999e+00 -8.256108849411650e-01 -1.696570384383008e-17
 1.429999999999999e+00 -8.256108849411650e-01 -1.696570384383008e-17
 1.429999999999999e+00 -8.256108849411650e-01 -1.696570384383008e-17
 1.429999999999999e+00 -8.256108849411650e-01 -1.696570384383008e-17
 1.429999999999999e+00 -8.256108849411650e-01 -1.696570384383008e-17
 1.429999999999999e+00 -8.256108849411650e-01 -1.696570384383008e-17
 1.429999999999999e+00 -8.256108849411650e-01 -1.696570384383008e-17
 1.429999999999999e+00 -8.256108849411650e-01 -1.696570384383008e-17
 1.429999999999999e+00 -8.256108849411650e-01 -1.696570384383008e-17
 1.429999999999999e+00 -8.256108849411650e-01 -1.696570384383008e-17
 1.429999999999999e+00 -8.256108849411650e-01 -1.696570384383008e-17
 1.429999999999999e+00 -8.256108849411650e-01 -1.696570384383008e-17
 1.429999999999999e+00 -8.256108849411650e-01 -1.696570384383008e-17
 1.429999999999999e+00 -8.256108849411650e-01 -1.696570384383008e-17
 1.429999999999999e+00 -8.256108849411650e-01 -1.696570384383008e-17
 1.429999999999999e+00 -8.256108849411650e-01 -1.696570384383008e-17
 1.429999999999999e+00 -8.256108849411650e-01 -1.696570384383008e-17
 1.429999999999999e+00 -8.256108849411650e-01 -1.696570384383008e-17
 1.429999999999999e+00 -8.256108849411650e-01 -1.696570384383008e-17
 1.429999999999999e+00 -8.256108849411650e-01 -1.696570384383008e-17
 1.429999999999999e+00 -8.256108849411650e-01 -1.696570384383008e-17
 1.429999999999999e+00 -8.256108849411650e-01 -1.696570384383008e-17
 1.429999999999999e+00 -8.256108849411650e-01 -1.696570384383008e-17
 1.429999999999999e+00 -8.256108849411650e-01 -1.696570384383008e-17
 1.429999999999999e+00 -8.256108849411650e-01 -1.696570384383008e-17
 1.429999999999999e+00 -8.256108849411650e-01 -1.696570384383008e-17
 1.429999999999999e+00 -8.256108849411650e-01 -1.696570384383008e-17
 1.429999999999999e+00 -8.256108849411650e-01 -1.696570384383008e-17
 1.429999999999999e+00 -8.256108849411650e-01 -1.696570384383008e-17
 1.429999999999999e+00 -8.256108849411650e-01 -1.696570384383008e-17
 1.429999999999999e+00 -8.256108849411650e-01 -1.696570384383008e-17
 1.429999999999999e+00 -8.256108849411650e-01 -1.696570384383008e-17
 1.429999999999999e+00 -8.256108849411650e-01 -1.696570384383008e-17
 1.429999999999999e+00 -8.256108849411650e-01 -1.696570384383008e-17
 1.429999999999999e+00 -8.256108849411650e-01 -1.696570384383008e-17
 1.429999999999999e+00 -8.256108849411650e-01 -1.696570384383008e-17
 1.429999999999999e+00 -8.256108849411650e-01 -1.696570384383008e-17
 1.429999999999999e+00 -8.256108849411650e-01 -1.696570384383008e-17
 1.429999999999999e+00 -8.256108849411650e-01 -1.696570384383008e-17
 1.429999999999999e+00 -8.256108849411650e-01 -1.696570384383008e-17
 1.429999999999999e+00 -8.256108849411650e-01 -1.696570384383008e-17
 1.429999999999999e+00 -8.256108849411650e-01 -1.696570384383008e-17
 1.429999999999999e+00 -8.256108849411650e-01 -1.696570384383008e-17
 1.429999999999999e+00 -8.256108849411650e-01 -1.696570384383008e-17
 1.429999999999999e+00 -8.256108849411650e-01 -1.696570384383008e-17
 1.429999999999999e+00 -8.256108849411650e-01 -1.696570384383008e-17
 1.429999999999999e+00 -8.256108849411650e-01 -1.696570384383008e-17
 1.429999999999999e+00 -8.256108849411650e-01 -1.696570384383008e-17
 1.429999999999999e+00 -8.256108849411650e-01 -1.696570384383008e-17
 1.429999999999999e+00 -8.256108849411650e-01 -1.696570384383008e-17
 1.429999999999999e+00 -8.256108849411650e-01 -1.696570384383008e-17
 1.429999999999999e+00 -8.256108849411650e-01 -1.696570384383008e-17
 1.429999999999999e+00 -8.256108849411650e-01 -1.696570384383008e-17
 1.429999999999999e+00 -8.256108849411650e-01 -1.696570384383008e-17
 1.429999999999999e+00 -8.256108849411650e-01 -1.696570384383008e-17
 1.429999999999999e+00 -8.256108849411650e-01 -1.696570384383008e-17
 1.429999999999999e+00 -8.256108849411650e-01 -1.696570384383008e-17
 1.429999999999999e+00 -8.256108849411650e-01 -1.696570384383008e-17
 1.429999999999999e+00 -8.256108849411650e-01 -1.696570384383008e-17
 1.429999999999999e+00 -8.256108849411650e-01 -1.696570384383008e-17
 1.429999999999999e+00 -8.256108849411650e-01 -1.696570384383008e-17
 1.429999999999999e+00 -8.256108849411650e-01 -1.696570384383008e-17
 1.429999999999999e+00 -8.256108849411650e-01 -1.696570384383008e-17
 1.429999999999999e+00 -8.256108849411650e-01 -1.696570384383008e-17
 1.429999999999999e+00 -8.256108849411650e-01 -1.696570384383008e-17
 1.429999999999999e+00 -8.256108849411650e-01 -1.696570384383008e-17
 1.429999999999999e+00 -8.256108849411650e-01 -1.696570384383008e-17
 1.429999999999999e+00 -8.256108849411650e-01 -1.696570384383008e-17
 1.429999999999999e+00 -8.256108849411650e-01 -1.696570384383008e-17
 1.429999999999999e+00 -8.256108849411650e-01 -1.696570384383008e-17
 1.429999999999999e+00 -8.256108849411650e-01 -1.696570384383008e-17
 1.429999999999999e+00 -8.256108849411650e-01 -1.696570384383008e-17
 1.429999999999999e+00 -8.256108849411650e-01 -1.696570384383008e-17
 1.429999999999999e+00 -8.256108849411650e-01 -1.696570384383008e-17

VECTORS burgers_vector_local double
-1.666666666666667e-01 -3.333333333333333e-01 -1.666666666666665e-01
1.666666666666667e-01 3.333333333333333e-01 1.666666666666665e-01
-1.666666666666667e-01 -3.333333333333333e-01 -1.666666666666665e-01
-1.666666666666667e-01 -3.333333333333333e-01 -1.666666666666665e-01
-1.666666666666667e-01 -3.333333333333333e-01 -1.666666666666665e-01
-1.666666666666667e-01 -3.333333333333333e-01 -1.666666666666665e-01
-1.666666666666667e-01 -3.333333333333333e-01 -1.666666666666665e-01
-1.666666666666667e-01 -3.333333333333333e-01 -1.666666666666665e-01
-1.666666666666667e-01 -3.333333333333333e-01 -1.666666666666665e-01
-1.666666666666667e-01 -3.333333333333333e-01 -1.666666666666665e-01
-1.666666666666667e-01 -3.333333333333333e-01 -1.666666666666665e-01
-1.666666666666667e-01 -3.333333333333333e-01 -1.666666666666665e-01
-1.666666666666667e-01 -3.333333333333333e-01 -1.666666666666665e-01
-1.666666666666667e-01 -3.333333333333333e-01 -1.666666666666665e-01
-1.666666666666667e-01 -3.333333333333333e-01 -1.666666666666665e-01
-1.666666666666667e-01 -3.333333333333333e-01 -1.666666666666665e-01
-1.666666666666667e-01 -3.333333333333333e-01 -1.666666666666665e-01
-1.666666666666667e-01 -3.333333333333333e-01 -1.666666666666665e-01
-1.666666666666667e-01 -3.333333333333333e-01 -1.666666666666665e-01
-1.666666666666667e-01 -3.333333333333333e-01 -1.666666666666665e-01
-1.666666666666667e-01 -3.333333333333333e-01 -1.666666666666665e-01
-1.666666666666667e-01 -3.333333333333333e-01 -1.666666666666665e-01
-1.666666666666667e-01 -3.333333333333333e-01 -1.666666666666665e-01
-1.666666666666667e-01 -3.333333333333333e-01 -1.666666666666665e-01
-1.666666666666667e-01 -3.333333333333333e-01 -1.666666666666665e-01
-1.666666666666667e-01 -3.333333333333333e-01 -1.666666666666665e-01
-1.666666666666667e-01 -3.333333333333333e-01 -1.666666666666665e-01
-1.666666666666667e-01 -3.333333333333333e-01 -1.666666666666665e-01
-1.666666666666667e-01 -3.333333333333333e-01 -1.666666666666665e-01
-1.666666666666667e-01 -3.333333333333333e-01 -1.666666666666665e-01
-1.666666666666667e-01 -3.333333333333333e-01 -1.666666666666665e-01
-1.666666666666667e-01 -3.333333333333333e-01 -1.666666666666665e-01
-1.666666666666667e-01 -3.333333333333333e-01 -1.666666666666665e-01
-1.666666666666667e-01 -3.333333333333333e-01 -1.666666666666665e-01
-1.666666666666667e-01 -3.333333333333333e-01 -1.666666666666665e-01
-1.666666666666667e-01 -3.333333333333333e-01 -1.666666666666665e-01
-1.666666666666667e-01 -3.333333333333333e-01 -1.666666666666665e-01
-1.666666666666667e-01 -3.333333333333333e-01 -1.666666666666665e-01
-1.666666666666667e-01 -3.333333333333333e-01 -1.666666666666665e-01
-1.666666666666667e-01 -3.333333333333333e-01 -1.666666666666665e-01
-1.666666666666667e-01 -3.333333333333333e-01 -1.666666666666665e-01
-1.666666666666667e-01 -3.333333333333333e-01 -1.666666666666665e-01
-1.666666666666667e-01 -3.333333333333333e-01 -1.666666666666665e-01
-1.666666666666667e-01 -3.333333333333333e-01 -1.666666666666665e-01
-1.666666666666667e-01 -3.333333333333333e-01 -1.666666666666665e-01
-1.666666666666667e-01 -3.333333333333333e-01 -1.666666666666665e-01
-1.666666666666667e-01 -3.333333333333333e-01 -1.666666666666665e-01
-1.666666666666667e-01 -3.333333333333333e-01 -1.666666666666665e-01
-1.666666666666667e-01 -3.333333333333333e-01 -1.666666666666665e-01
-1.666666666666667e-01 -3.333333333333333e-01 -1.666666666666665e-01
-1.666666666666667e-01 -3.333333333333333e-01 -1.666666666666665e-01
-1.666666666666667e-01 -3.333333333333333e-01 -1.666666666666665e-01
-1.666666666666667e-01 -3.333333333333333e-01 -1.666666666666665e-01
-1.666666666666667e-01 -3.333333333333333e-01 -1.666666666666665e-01
-1.666666666666667e-01 -3.333333333333333e-01 -1.666666666666665e-01
-1.666666666666667e-01 -3.333333333333333e-01 -1.666666666666665e-01
-1.666666666666667e-01 -3.333333333333333e-01 -1.666666666666665e-01
-1.666666666666667e-01 -3.333333333333333e-01 -1.666666666666665e-01
-1.666666666666667e-01 -3.333333333333333e-01 -1.666666666666665e-01
-1.666666666666667e-01 -3.333333333333333e-01 -1.666666666666665e-01
-1.666666666666667e-01 -3.333333333333333e-01 -1.666666666666665e-01
-1.666666666666667e-01 -3.333333333333333e-01 -1.666666666666665e-01
-1.666666666666667e-01 -3.333333333333333e-01 -1.666666666666665e-01
-1.666666666666667e-01 -3.333333333333333e-01 -1.666666666666665e-01
-1.666666666666667e-01 -3.333333333333333e-01 -1.666666666666665e-01
-1.666666666666667e-01 -3.333333333333333e-01 -1.666666666666665e-01
-1.666666666666667e-01 -3.333333333333333e-01 -1.666666666666665e-01
-1.666666666666667e-01 -3.333333333333333e-01 -1.666666666666665e-01
-1.666666666666667e-01 -3.333333333333333e-01 -1.666666666666665e-01
-1.666666666666667e-01 -3.333333333333333e-01 -1.666666666666665e-01
-1.666666666666667e-01 -3.333333333333333e-01 -1.666666666666665e-01
-1.666666666666667e-01 -3.333333333333333e-01 -1.666666666666665e-01
-1.666666666666667e-01 -3.333333333333333e-01 -1.666666666666665e-01
-1.666666666666667e-01 -3.333333333333333e-01 -1.666666666666665e-01
-1.666666666666667e-01 -3.333333333333333e-01 -1.666666666666665e-01
-1.666666666666667e-01 -3.333333333333333e-01 -1.666666666666665e-01
-1.666666666666667e-01 -3.333333333333333e-01 -1.666666666666665e-01
-1.666666666666667e-01 -3.333333333333333e-01 -1.666666666666665e-01
-1.666666666666667e-01 -3.333333333333333e-01 -1.666666666666665e-01
-1.666666666666667e-01 -3.333333333333333e-01 -1.666666666666665e-01
-1.666666666666667e-01 -3.333333333333333e-01 -1.666666666666665e-01
-1.666666666666667e-01 -3.333333333333333e-01 -1.666666666666665e-01
-1.666666666666667e-01 -3.333333333333333e-01 -1.666666666666665e-01
-1.666666666666667e-01 -3.333333333333333e-01 -1.666666666666665e-01
-1.666666666666667e-01 -3.333333333333333e-01 -1.666666666666665e-01
-1.666666666666667e-01 -3.333333333333333e-01 -1.666666666666665e-01
-1.666666666666667e-01 -3.333333333333333e-01 -1.666666666666665e-01
-1.666666666666667e-01 -3.333333333333333e-01 -1.666666666666665e-01
-1.666666666666667e-01 -3.333333333333333e-01 -1.666666666666665e-01
-1.666666666666667e-01 -3.333333333333333e-01 -1.666666666666665e-01
-1.666666666666667e-01 -3.333333333333333e-01 -1.666666666666665e-01
-1.666666666666667e-01 -3.333333333333333e-01 -1.666666666666665e-01
-1.666666666666667e-01 -3.333333333333333e-01 -1.666666666666665e-01
-1.666666666666667e-01 -3.333333333333333e-01 -1.666666666666665e-01
-1.666666666666667e-01 -3.333333333333333e-01 -1.666666666666665e-01
-1.666666666666667e-01 -3.333333333333333e-01 -1.666666666666665e-01
-1.666666666666667e-01 -3.333333333333333e-01 -1.666666666666665e-01
-1.666666666666667e-01 -3.333333333333333e-01 -1.666666666666665e-01
-1.666666666666667e-01 -3.333333333333333e-01 -1.666666666666665e-01
-1.666666666666667e-01 -3.333333333333333e-01 -1.666666666666665e-01
-1.666666666666667e-01 -3.333333333333333e-01 -1.666666666666665e-01
-1.666666666666667e-01 -3.333333333333333e-01 -1.666666666666665e-01
-1.666666666666667e-01 -3.333333333333333e-01 -1.666666666666665e-01
-1.666666666666667e-01 -3.333333333333333e-01 -1.666666666666665e-01
-1.666666666666667e-01 -3.333333333333333e-01 -1.666666666666665e-01
-1.666666666666667e-01 -3.333333333333333e-01 -1.666666666666665e-01
-1.666666666666667e-01 -3.333333333333333e-01 -1.666666666666665e-01
-1.666666666666667e-01 -3.333333333333333e-01 -1.666666666666665e-01
-1.666666666666667e-01 -3.333333333333333e-01 -1.666666666666665e-01
-1.666666666666667e-01 -3.333333333333333e-01 -1.666666666666665e-01
-1.666666666666667e-01 -3.333333333333333e-01 -1.666666666666665e-01
-1.666666666666667e-01 -3.333333333333333e-01 -1.666666666666665e-01
-1.666666666666667e-01 -3.333333333333333e-01 -1.666666666666665e-01
-1.666666666666667e-01 -3.333333333333333e-01 -1.666666666666665e-01
-1.666666666666667e-01 -3.333333333333333e-01 -1.666666666666665e-01
-1.666666666666667e-01 -3.333333333333333e-01 -1.666666666666665e-01
-1.666666666666667e-01 -3.333333333333333e-01 -1.666666666666665e-01
-1.666666666666667e-01 -3.333333333333333e-01 -1.666666666666665e-01
-1.666666666666667e-01 -3.333333333333333e-01 -1.666666666666665e-01
-1.666666666666667e-01 -3.333333333333333e-01 -1.666666666666665e-01
-1.666666666666667e-01 -3.333333333333333e-01 -1.666666666666665e-01
-1.666666666666667e-01 -3.333333333333333e-01 -1.666666666666665e-01
-1.666666666666667e-01 -3.333333333333333e-01 -1.666666666666665e-01
-1.666666666666667e-01 -3.333333333333333e-01 -1.666666666666665e-01
-1.666666666666667e-01 -3.333333333333333e-01 -1.666666666666665e-01
-1.666666666666667e-01 -3.333333333333333e-01 -1.666666666666665e-01
-1.666666666666667e-01 -3.333333333333333e-01 -1.666666666666665e-01
-1.666666666666667e-01 -3.333333333333333e-01 -1.666666666666665e-01
-1.666666666666667e-01 -3.333333333333333e-01 -1.666666666666665e-01
-1.666666666666667e-01 -3.333333333333333e-01 -1.666666666666665e-01
-1.666666666666667e-01 -3.333333333333333e-01 -1.666666666666665e-01
-1.666666666666667e-01 -3.333333333333333e-01 -1.666666666666665e-01
-1.666666666666667e-01 -3.333333333333333e-01 -1.666666666666665e-01
-1.666666666666667e-01 -3.333333333333333e-01 -1.666666666666665e-01
-1.666666666666667e-01 -3.333333333333333e-01 -1.666666666666665e-01
-1.666666666666667e-01 -3.333333333333333e-01 -1.666666666666665e-01
-1.666666666666667e-01 -3.333333333333333e-01 -1.666666666666665e-01
-1.666666666666667e-01 -3.333333333333333e-01 -1.666666666666665e-01
-1.666666666666667e-01 -3.333333333333333e-01 -1.666666666666665e-01
-1.666666666666667e-01 -3.333333333333333e-01 -1.666666666666665e-01
-1.666666666666667e-01 -3.333333333333333e-01 -1.666666666666665e-01
-1.666666666666667e-01 -3.333333333333333e-01 -1.666666666666665e-01
-1.666666666666667e-01 -3.333333333333333e-01 -1.666666666666665e-01
-1.666666666666667e-01 -3.333333333333333e-01 -1.666666666666665e-01
-1.666666666666667e-01 -3.333333333333333e-01 -1.666666666666665e-01
-1.666666666666667e-01 -3.333333333333333e-01 -1.666666666666665e-01
-1.666666666666667e-01 -3.333333333333333e-01 -1.666666666666665e-01
-1.666666666666667e-01 -3.333333333333333e-01 -1.666666666666665e-01
-1.666666666666667e-01 -3.333333333333333e-01 -1.666666666666665e-01
-1.666666666666667e-01 -3.333333333333333e-01 -1.666666666666665e-01
-1.666666666666667e-01 -3.333333333333333e-01 -1.666666666666665e-01
-1.666666666666667e-01 -3.333333333333333e-01 -1.666666666666665e-01
-1.666666666666667e-01 -3.333333333333333e-01 -1.666666666666665e-01
-1.666666666666667e-01 -3.333333333333333e-01 -1.666666666666665e-01
-1.666666666666667e-01 -3.333333333333333e-01 -1.666666666666665e-01
-1.666666666666667e-01 -3.333333333333333e-01 -1.666666666666665e-01
-1.666666666666667e-01 -3.333333333333333e-01 -1.666666666666665e-01
-1.666666666666667e-01 -3.333333333333333e-01 -1.666666666666665e-01
-1.666666666666667e-01 -3.333333333333333e-01 -1.666666666666665e-01
-1.666666666666667e-01 -3.333333333333333e-01 -1.666666666666665e-01
-1.666666666666667e-01 -3.333333333333333e-01 -1.666666666666665e-01
-1.666666666666667e-01 -3.333333333333333e-01 -1.666666666666665e-01
-1.666666666666667e-01 -3.333333333333333e-01 -1.666666666666665e-01
-1.666666666666667e-01 -3.333333333333333e-01 -1.666666666666665e-01
-1.666666666666667e-01 -3.333333333333333e-01 -1.666666666666665e-01
-1.666666666666667e-01 -3.333333333333333e-01 -1.666666666666665e-01
-1.666666666666667e-01 -3.333333333333333e-01 -1.666666666666665e-01
-1.666666666666667e-01 -3.333333333333333e-01 -1.666666666666665e-01
-1.666666666666667e-01 -3.333333333333333e-01 -1.666666666666665e-01
-1.666666666666667e-01 -3.333333333333333e-01 -1.666666666666665e-01
-1.666666666666667e-01 -3.333333333333333e-01 -1.666666666666665e-01
-1.666666666666667e-01 -3.333333333333333e-01 -1.666666666666665e-01
-1.666666666666667e-01 -3.333333333333333e-01 -1.666666666666665e-01
-1.666666666666667e-01 -3.333333333333333e-01 -1.666666666666665e-01
-1.666666666666667e-01 -3.333333333333333e-01 -1.666666666666665e-01
-1.666666666666667e-01 -3.333333333333333e-01 -1.666666666666665e-01
-1.666666666666667e-01 -3.333333333333333e-01 -1.666666666666665e-01
-1.666666666666667e-01 -3.333333333333333e-01 -1.666666666666665e-01
-1.666666666666667e-01 -3.333333333333333e-01 -1.666666666666665e-01
-1.666666666666667e-01 -3.333333333333333e-01 -1.666666666666665e-01
-1.666666666666667e-01 -3.333333333333333e-01 -1.666666666666665e-01
-1.666666666666667e-01 -3.333333333333333e-01 -1.666666666666665e-01
-1.666666666666667e-01 -3.333333333333333e-01 -1.666666666666665e-01
-1.666666666666667e-01 -3.333333333333333e-01 -1.666666666666665e-01
-1.666666666666667e-01 -3.333333333333333e-01 -1.666666666666665e-01
-1.666666666666667e-01 -3.333333333333333e-01 -1.666666666666665e-01
-1.666666666666667e-01 -3.333333333333333e-01 -1.666666666666665e-01
-1.666666666666667e-01 -3.333333333333333e-01 -1.666666666666665e-01
-1.666666666666667e-01 -3.333333333333333e-01 -1.666666666666665e-01
-1.666666666666667e-01 -3.333333333333333e-01 -1.666666666666665e-01
-1.666666666666667e-01 -3.333333333333333e-01 -1.666666666666665e-01
-1.666666666666667e-01 -3.333333333333333e-01 -1.666666666666665e-01
-1.666666666666667e-01 -3.333333333333333e-01 -1.666666666666665e-01
-1.666666666666667e-01 -3.333333333333333e-01 -1.666666666666665e-01
-1.666666666666667e-01 -3.333333333333333e-01 -1.666666666666665e-01
-1.666666666666667e-01 -3.333333333333333e-01 -1.666666666666665e-01
-1.666666666666667e-01 -3.333333333333333e-01 -1.666666666666665e-01
-1.666666666666667e-01 -3.333333333333333e-01 -1.666666666666665e-01
-1.666666666666667e-01 -3.333333333333333e-01 -1.666666666666665e-01
-1.666666666666667e-01 -3.333333333333333e-01 -1.666666666666665e-01
-1.666666666666667e-01 -3.333333333333333e-01 -1.666666666666665e-01
-1.666666666666667e-01 -3.333333333333333e-01 -1.666666666666665e-01
-1.666666666666667e-01 -3.333333333333333e-01 -1.666666666666665e-01
-1.666666666666667e-01 -3.333333333333333e-01 -1.666666666666665e-01
-1.666666666666667e-01 -3.333333333333333e-01 -1.666666666666665e-01
-1.666666666666667e-01 -3.333333333333333e-01 -1.666666666666665e-01
-1.666666666666667e-01 -3.333333333333333e-01 -1.666666666666665e-01
-1.666666666666667e-01 -3.333333333333333e-01 -1.666666666666665e-01
-1.666666666666667e-01 -3.333333333333333e-01 -1.666666666666665e-01
-1.666666666666667e-01 -3.333333333333333e-01 -1.666666666666665e-01
-1.666666666666667e-01 -3.333333333333333e-01 -1.666666666666665e-01
-1.666666666666667e-01 -3.333333333333333e-01 -1.666666666666665e-01
-1.666666666666667e-01 -3.333333333333333e-01 -1.666666666666665e-01
-1.666666666666667e-01 -3.333333333333333e-01 -1.666666666666665e-01
-1.666666666666667e-01 -3.333333333333333e-01 -1.666666666666665e-01
-1.666666666666667e-01 -3.333333333333333e-01 -1.666666666666665e-01
-1.666666666666667e-01 -3.333333333333333e-01 -1.666666666666665e-01
-1.666666666666667e-01 -3.333333333333333e-01 -1.666666666666665e-01
-1.666666666666667e-01 -3.333333333333333e-01 -1.666666666666665e-01
-1.666666666666667e-01 -3.333333333333333e-01 -1.666666666666665e-01
-1.666666666666667e-01 -3.333333333333333e-01 -1.666666666666665e-01
-1.666666666666667e-01 -3.333333333333333e-01 -1.666666666666665e-01
-1.666666666666667e-01 -3.333333333333333e-01 -1.666666666666665e-01
-1.666666666666667e-01 -3.333333333333333e-01 -1.666666666666665e-01
-1.666666666666667e-01 -3.333333333333333e-01 -1.666666666666665e-01
-1.666666666666667e-01 -3.333333333333333e-01 -1.666666666666665e-01
1.666666666666667e-01 3.333333333333333e-01 1.666666666666665e-01
-1.666666666666667e-01 -3.333333333333333e-01 -1.666666666666665e-01
-1.666666666666667e-01 -3.333333333333333e-01 -1.666666666666665e-01
-1.666666666666667e-01 -3.333333333333333e-01 -1.666666666666665e-01
-1.666666666666667e-01 -3.333333333333333e-01 -1.666666666666665e-01
-1.666666666666667e-01 -3.333333333333333e-01 -1.666666666666665e-01
-1.666666666666667e-01 -3.333333333333333e-01 -1.666666666666665e-01
-1.666666666666667e-01 -3.333333333333333e-01 -1.666666666666665e-01
-1.666666666666667e-01 -3.333333333333333e-01 -1.666666666666665e-01
-1.666666666666667e-01 -3.333333333333333e-01 -1.666666666666665e-01
-1.666666666666667e-01 -3.333333333333333e-01 -1.666666666666665e-01
-1.666666666666667e-01 -3.333333333333333e-01 -1.666666666666665e-01
-1.666666666666667e-01 -3.333333333333333e-01 -1.666666666666665e-01
-1.666666666666667e-01 -3.333333333333333e-01 -1.666666666666665e-01
-1.666666666666667e-01 -3.333333333333333e-01 -1.666666666666665e-01
-1.666666666666667e-01 -3.333333333333333e-01 -1.666666666666665e-01
-1.666666666666667e-01 -3.333333333333333e-01 -1.666666666666665e-01
-1.666666666666667e-01 -3.333333333333333e-01 -1.666666666666665e-01
-1.666666666666667e-01 -3.333333333333333e-01 -1.666666666666665e-01
-1.666666666666667e-01 -3.333333333333333e-01 -1.666666666666665e-01
-1.666666666666667e-01 -3.333333333333333e-01 -1.666666666666665e-01
-1.666666666666667e-01 -3.333333333333333e-01 -1.666666666666665e-01
-1.666666666666667e-01 -3.333333333333333e-01 -1.666666666666665e-01
-1.666666666666667e-01 -3.333333333333333e-01 -1.666666666666665e-01
-1.666666666666667e-01 -3.333333333333333e-01 -1.666666666666665e-01
-1.666666666666667e-01 -3.333333333333333e-01 -1.666666666666665e-01
-1.666666666666667e-01 -3.333333333333333e-01 -1.666666666666665e-01
-1.666666666666667e-01 -3.333333333333333e-01 -1.666666666666665e-01
-1.666666666666667e-01 -3.333333333333333e-01 -1.666666666666665e-01
-1.666666666666667e-01 -3.333333333333333e-01 -1.666666666666665e-01
-1.666666666666667e-01 -3.333333333333333e-01 -1.666666666666665e-01
-1.666666666666667e-01 -3.333333333333333e-01 -1.666666666666665e-01
-1.666666666666667e-01 -3.333333333333333e-01 -1.666666666666665e-01
-1.666666666666667e-01 -3.333333333333333e-01 -1.666666666666665e-01
-1.666666666666667e-01 -3.333333333333333e-01 -1.666666666666665e-01
-1.666666666666667e-01 -3.333333333333333e-01 -1.666666666666665e-01
-1.666666666666667e-01 -3.333333333333333e-01 -1.666666666666665e-01
-1.666666666666667e-01 -3.333333333333333e-01 -1.666666666666665e-01
-1.666666666666667e-01 -3.333333333333333e-01 -1.666666666666665e-01
-1.666666666666667e-01 -3.333333333333333e-01 -1.666666666666665e-01
-1.666666666666667e-01 -3.333333333333333e-01 -1.666666666666665e-01
-1.666666666666667e-01 -3.333333333333333e-01 -1.666666666666665e-01
-1.666666666666667e-01 -3.333333333333333e-01 -1.666666666666665e-01
-1.666666666666667e-01 -3.333333333333333e-01 -1.666666666666665e-01
-1.666666666666667e-01 -3.333333333333333e-01 -1.666666666666665e-01
-1.666666666666667e-01 -3.333333333333333e-01 -1.666666666666665e-01
-1.666666666666667e-01 -3.333333333333333e-01 -1.666666666666665e-01
-1.666666666666667e-01 -3.333333333333333e-01 -1.666666666666665e-01
-1.666666666666667e-01 -3.333333333333333e-01 -1.666666666666665e-01
-1.666666666666667e-01 -3.333333333333333e-01 -1.666666666666665e-01
-1.666666666666667e-01 -3.333333333333333e-01 -1.666666666666665e-01
-1.666666666666667e-01 -3.333333333333333e-01 -1.666666666666665e-01
-1.666666666666667e-01 -3.333333333333333e-01 -1.666666666666665e-01
-1.666666666666667e-01 -3.333333333333333e-01 -1.666666666666665e-01
-1.666666666666667e-01 -3.333333333333333e-01 -1.666666666666665e-01
-1.666666666666667e-01 -3.333333333333333e-01 -1.666666666666665e-01
-1.666666666666667e-01 -3.333333333333333e-01 -1.666666666666665e-01
-1.666666666666667e-01 -3.333333333333333e-01 -1.666666666666665e-01
-1.666666666666667e-01 -3.333333333333333e-01 -1.666666666666665e-01
-1.666666666666667e-01 -3.333333333333333e-01 -1.666666666666665e-01
-1.666666666666667e-01 -3.333333333333333e-01 -1.666666666666665e-01
-1.666666666666667e-01 -3.333333333333333e-01 -1.666666666666665e-01
-1.666666666666667e-01 -3.333333333333333e-01 -1.666666666666665e-01
-1.666666666666667e-01 -3.333333333333333e-01 -1.666666666666665e-01
-1.666666666666667e-01 -3.333333333333333e-01 -1.666666666666665e-01
-1.666666666666667e-01 -3.333333333333333e-01 -1.666666666666665e-01
-1.666666666666667e-01 -3.333333333333333e-01 -1.666666666666665e-01
-1.666666666666667e-01 -3.333333333333333e-01 -1.666666666666665e-01
-1.666666666666667e-01 -3.333333333333333e-01 -1.666666666666665e-01
-1.666666666666667e-01 -3.333333333333333e-01 -1.666666666666665e-01
-1.666666666666667e-01 -3.333333333333333e-01 -1.666666666666665e-01
-1.666666666666667e-01 -3.333333333333333e-01 -1.666666666666665e-01
-1.666666666666667e-01 -3.333333333333333e-01 -1.666666666666665e-01
-1.666666666666667e-01 -3.333333333333333e-01 -1.666666666666665e-01
-1.666666666666667e-01 -3.333333333333333e-01 -1.666666666666665e-01
-1.666666666666667e-01 -3.333333333333333e-01 -1.666666666666665e-01
-1.666666666666667e-01 -3.333333333333333e-01 -1.666666666666665e-01
-1.666666666666667e-01 -3.333333333333333e-01 -1.666666666666665e-01
-1.666666666666667e-01 -3.333333333333333e-01 -1.666666666666665e-01
-1.666666666666667e-01 -3.333333333333333e-01 -1.666666666666665e-01
-1.666666666666667e-01 -3.333333333333333e-01 -1.666666666666665e-01
-1.666666666666667e-01 -3.333333333333333e-01 -1.666666666666665e-01
-1.666666666666667e-01 -3.333333333333333e-01 -1.666666666666665e-01
-1.666666666666667e-01 -3.333333333333333e-01 -1.666666666666665e-01
-1.666666666666667e-01 -3.333333333333333e-01 -1.666666666666665e-01
-1.666666666666667e-01 -3.333333333333333e-01 -1.666666666666665e-01
-1.666666666666667e-01 -3.333333333333333e-01 -1.666666666666665e-01
-1.666666666666667e-01 -3.333333333333333e-01 -1.666666666666665e-01
-1.666666666666667e-01 -3.333333333333333e-01 -1.666666666666665e-01
-1.666666666666667e-01 -3.333333333333333e-01 -1.666666666666665e-01
-1.666666666666667e-01 -3.333333333333333e-01 -1.666666666666665e-01
-1.666666666666667e-01 -3.333333333333333e-01 -1.666666666666665e-01
-1.666666666666667e-01 -3.333333333333333e-01 -1.666666666666665e-01
-1.666666666666667e-01 -3.333333333333333e-01 -1.666666666666665e-01
-1.666666666666667e-01 -3.333333333333333e-01 -1.666666666666665e-01
-1.666666666666667e-01 -3.333333333333333e-01 -1.666666666666665e-01
-1.666666666666667e-01 -3.333333333333333e-01 -1.666666666666665e-01
-1.666666666666667e-01 -3.333333333333333e-01 -1.666666666666665e-01
-1.666666666666667e-01 -3.333333333333333e-01 -1.666666666666665e-01
-1.666666666666667e-01 -3.333333333333333e-01 -1.666666666666665e-01
-1.666666666666667e-01 -3.333333333333333e-01 -1.666666666666665e-01
-1.666666666666667e-01 -3.333333333333333e-01 -1.666666666666665e-01
-1.666666666666667e-01 -3.333333333333333e-01 -1.666666666666665e-01
-1.666666666666667e-01 -3.333333333333333e-01 -1.666666666666665e-01
-1.666666666666667e-01 -3.333333333333333e-01 -1.666666666666665e-01
-1.666666666666667e-01 -3.333333333333333e-01 -1.666666666666665e-01
-1.666666666666667e-01 -3.333333333333333e-01 -1.666666666666665e-01
-1.666666666666667e-01 -3.333333333333333e-01 -1.666666666666665e-01
-1.666666666666667e-01 -3.333333333333333e-01 -1.666666666666665e-01
-1.666666666666667e-01 -3.333333333333333e-01 -1.666666666666665e-01
-1.666666666666667e-01 -3.333333333333333e-01 -1.666666666666665e-01
-1.666666666666667e-01 -3.333333333333333e-01 -1.666666666666665e-01
-1.666666666666667e-01 -3.333333333333333e-01 -1.666666666666665e-01
-1.666666666666667e-01 -3.333333333333333e-01 -1.666666666666665e-01
-1.666666666666667e-01 -3.333333333333333e-01 -1.666666666666665e-01
-1.666666666666667e-01 -3.333333333333333e-01 -1.666666666666665e-01
-1.666666666666667e-01 -3.333333333333333e-01 -1.666666666666665e-01
-1.666666666666667e-01 -3.333333333333333e-01 -1.666666666666665e-01
-1.666666666666667e-01 -3.333333333333333e-01 -1.666666666666665e-01
-1.666666666666667e-01 -3.333333333333333e-01 -1.666666666666665e-01
-1.666666666666667e-01 -3.333333333333333e-01 -1.666666666666665e-01
-1.666666666666667e-01 -3.333333333333333e-01 -1.666666666666665e-01
-1.666666666666667e-01 -3.333333333333333e-01 -1.666666666666665e-01
-1.666666666666667e-01 -3.333333333333333e-01 -1.666666666666665e-01
-1.666666666666667e-01 -3.333333333333333e-01 -1.666666666666665e-01
-1.666666666666667e-01 -3.333333333333333e-01 -1.666666666666665e-01
-1.666666666666667e-01 -3.333333333333333e-01 -1.666666666666665e-01
-1.666666666666667e-01 -3.333333333333333e-01 -1.666666666666665e-01
-1.666666666666667e-01 -3.333333333333333e-01 -1.666666666666665e-01
-1.666666666666667e-01 -3.333333333333333e-01 -1.666666666666665e-01
-1.666666666666667e-01 -3.333333333333333e-01 -1.666666666666665e-01
-1.666666666666667e-01 -3.333333333333333e-01 -1.666666666666665e-01
-1.666666666666667e-01 -3.333333333333333e-01 -1.666666666666665e-01
-1.666666666666667e-01 -3.333333333333333e-01 -1.666666666666665e-01
-1.666666666666667e-01 -3.333333333333333e-01 -1.666666666666665e-01
-1.666666666666667e-01 -3.333333333333333e-01 -1.666666666666665e-01
-1.666666666666667e-01 -3.333333333333333e-01 -1.666666666666665e-01
-1.666666666666667e-01 -3.333333333333333e-01 -1.666666666666665e-01
-1.666666666666667e-01 -3.333333333333333e-01 -1.666666666666665e-01
-1.666666666666667e-01 -3.333333333333333e-01 -1.666666666666665e-01
-1.666666666666667e-01 -3.333333333333333e-01 -1.666666666666665e-01
-1.666666666666667e-01 -3.333333333333333e-01 -1.666666666666665e-01
-1.666666666666667e-01 -3.333333333333333e-01 -1.666666666666665e-01
-1.666666666666667e-01 -3.333333333333333e-01 -1.666666666666665e-01
-1.666666666666667e-01 -3.333333333333333e-01 -1.666666666666665e-01
-1.666666666666667e-01 -3.333333333333333e-01 -1.666666666666665e-01
-1.666666666666667e-01 -3.333333333333333e-01 -1.666666666666665e-01
-1.666666666666667e-01 -3.333333333333333e-01 -1.666666666666665e-01
-1.666666666666667e-01 -3.333333333333333e-01 -1.666666666666665e-01
-1.666666666666667e-01 -3.333333333333333e-01 -1.666666666666665e-01
-1.666666666666667e-01 -3.333333333333333e-01 -1.666666666666665e-01
-1.666666666666667e-01 -3.333333333333333e-01 -1.666666666666665e-01
-1.666666666666667e-01 -3.333333333333333e-01 -1.666666666666665e-01
-1.666666666666667e-01 -3.333333333333333e-01 -1.666666666666665e-01
-1.666666666666667e-01 -3.333333333333333e-01 -1.666666666666665e-01
-1.666666666666667e-01 -3.333333333333333e-01 -1.666666666666665e-01
-1.666666666666667e-01 -3.333333333333333e-01 -1.666666666666665e-01
-1.666666666666667e-01 -3.333333333333333e-01 -1.666666666666665e-01
-1.666666666666667e-01 -3.333333333333333e-01 -1.666666666666665e-01
-1.666666666666667e-01 -3.333333333333333e-01 -1.666666666666665e-01
-1.666666666666667e-01 -3.333333333333333e-01 -1.666666666666665e-01
-1.666666666666667e-01 -3.333333333333333e-01 -1.666666666666665e-01
-1.666666666666667e-01 -3.333333333333333e-01 -1.666666666666665e-01
-1.666666666666667e-01 -3.333333333333333e-01 -1.666666666666665e-01
-1.666666666666667e-01 -3.333333333333333e-01 -1.666666666666665e-01
-1.666666666666667e-01 -3.333333333333333e-01 -1.666666666666665e-01
-1.666666666666667e-01 -3.333333333333333e-01 -1.666666666666665e-01
-1.666666666666667e-01 -3.333333333333333e-01 -1.666666666666665e-01
-1.666666666666667e-01 -3.333333333333333e-01 -1.666666666666665e-01
-1.666666666666667e-01 -3.333333333333333e-01 -1.666666666666665e-01
-1.666666666666667e-01 -3.333333333333333e-01 -1.666666666666665e-01
-1.666666666666667e-01 -3.333333333333333e-01 -1.666666666666665e-01
-1.666666666666667e-01 -3.333333333333333e-01 -1.666666666666665e-01
-1.666666666666667e-01 -3.333333333333333e-01 -1.666666666666665e-01
-1.666666666666667e-01 -3.333333333333333e-01 -1.666666666666665e-01
-1.666666666666667e-01 -3.333333333333333e-01 -1.666666666666665e-01
-1.666666666666667e-01 -3.333333333333333e-01 -1.666666666666665e-01
-1.666666666666667e-01 -3.333333333333333e-01 -1.666666666666665e-01
-1.666666666666667e-01 -3.333333333333333e-01 -1.666666666666665e-01
-1.666666666666667e-01 -3.333333333333333e-01 -1.666666666666665e-01
-1.666666666666667e-01 -3.333333333333333e-01 -1.666666666666665e-01
-1.666666666666667e-01 -3.333333333333333e-01 -1.666666666666665e-01
-1.666666666666667e-01 -3.333333333333333e-01 -1.666666666666665e-01
-1.666666666666667e-01 -3.333333333333333e-01 -1.666666666666665e-01
-1.666666666666667e-01 -3.333333333333333e-01 -1.666666666666665e-01
-1.666666666666667e-01 -3.333333333333333e-01 -1.666666666666665e-01
-1.666666666666667e-01 -3.333333333333333e-01 -1.666666666666665e-01
-1.666666666666667e-01 -3.333333333333333e-01 -1.666666666666665e-01
-1.666666666666667e-01 -3.333333333333333e-01 -1.666666666666665e-01
-1.666666666666667e-01 -3.333333333333333e-01 -1.666666666666665e-01
-1.666666666666667e-01 -3.333333333333333e-01 -1.666666666666665e-01
-1.666666666666667e-01 -3.333333333333333e-01 -1.666666666666665e-01
-1.666666666666667e-01 -3.333333333333333e-01 -1.666666666666665e-01
-1.666666666666667e-01 -3.333333333333333e-01 -1.666666666666665e-01
-1.666666666666667e-01 -3.333333333333333e-01 -1.666666666666665e-01
-1.666666666666667e-01 -3.333333333333333e-01 -1.666666666666665e-01
-1.666666666666667e-01 -3.333333333333333e-01 -1.666666666666665e-01
-1.666666666666667e-01 -3.333333333333333e-01 -1.666666666666665e-01
-1.666666666666667e-01 -3.333333333333333e-01 -1.666666666666665e-01
-1.666666666666667e-01 -3.333333333333333e-01 -1.666666666666665e-01
-1.666666666666667e-01 -3.333333333333333e-01 -1.666666666666665e-01
-1.666666666666667e-01 -3.333333333333333e-01 -1.666666666666665e-01
-1.666666666666667e-01 -3.333333333333333e-01 -1.666666666666665e-01
-1.666666666666667e-01 -3.333333333333333e-01 -1.666666666666665e-01
-1.666666666666667e-01 -3.333333333333333e-01 -1.666666666666665e-01
-1.666666666666667e-01 -3.333333333333333e-01 -1.666666666666665e-01
-1.666666666666667e-01 -3.333333333333333e-01 -1.666666666666665e-01
-1.666666666666667e-01 -3.333333333333333e-01 -1.666666666666665e-01
-1.666666666666667e-01 -3.333333333333333e-01 -1.666666666666665e-01
-1.666666666666667e-01 -3.333333333333333e-01 -1.666666666666665e-01
-1.666666666666667e-01 -3.333333333333333e-01 -1.666666666666665e-01
-1.666666666666667e-01 -3.333333333333333e-01 -1.666666666666665e-01
-1.666666666666667e-01 -3.333333333333333e-01 -1.666666666666665e-01
-1.666666666666667e-01 -3.333333333333333e-01 -1.666666666666665e-01
-1.666666666666667e-01 -3.333333333333333e-01 -1.666666666666665e-01
1.666666666666667e-01 3.333333333333333e-01 1.666666666666665e-01
-1.666666666666667e-01 -3.333333333333333e-01 -1.666666666666665e-01
1.666666666666667e-01 3.333333333333333e-01 1.666666666666665e-01
1.666666666666667e-01 3.333333333333333e-01 1.666666666666665e-01
1.666666666666667e-01 3.333333333333333e-01 1.666666666666665e-01
1.666666666666667e-01 3.333333333333333e-01 1.666666666666665e-01
1.666666666666667e-01 3.333333333333333e-01 1.666666666666665e-01
1.666666666666667e-01 3.333333333333333e-01 1.666666666666665e-01
1.666666666666667e-01 3.333333333333333e-01 1.666666666666665e-01
1.666666666666667e-01 3.333333333333333e-01 1.666666666666665e-01
1.666666666666667e-01 3.333333333333333e-01 1.666666666666665e-01
1.666666666666667e-01 3.333333333333333e-01 1.666666666666665e-01
1.666666666666667e-01 3.333333333333333e-01 1.666666666666665e-01
1.666666666666667e-01 3.333333333333333e-01 1.666666666666665e-01
1.666666666666667e-01 3.333333333333333e-01 1.666666666666665e-01
1.666666666666667e-01 3.333333333333333e-01 1.666666666666665e-01
1.666666666666667e-01 3.333333333333333e-01 1.666666666666665e-01
1.666666666666667e-01 3.333333333333333e-01 1.666666666666665e-01
1.666666666666667e-01 3.333333333333333e-01 1.666666666666665e-01
1.666666666666667e-01 3.333333333333333e-01 1.666666666666665e-01
1.666666666666667e-01 3.333333333333333e-01 1.666666666666665e-01
1.666666666666667e-01 3.333333333333333e-01 1.666666666666665e-01
1.666666666666667e-01 3.333333333333333e-01 1.666666666666665e-01
1.666666666666667e-01 3.333333333333333e-01 1.666666666666665e-01
1.666666666666667e-01 3.333333333333333e-01 1.666666666666665e-01
1.666666666666667e-01 3.333333333333333e-01 1.666666666666665e-01
1.666666666666667e-01 3.333333333333333e-01 1.666666666666665e-01
1.666666666666667e-01 3.333333333333333e-01 1.666666666666665e-01
1.666666666666667e-01 3.333333333333333e-01 1.666666666666665e-01
1.666666666666667e-01 3.333333333333333e-01 1.666666666666665e-01
1.666666666666667e-01 3.333333333333333e-01 1.666666666666665e-01
1.666666666666667e-01 3.333333333333333e-01 1.666666666666665e-01
1.666666666666667e-01 3.333333333333333e-01 1.666666666666665e-01
1.666666666666667e-01 3.333333333333333e-01 1.666666666666665e-01
1.666666666666667e-01 3.333333333333333e-01 1.666666666666665e-01
1.666666666666667e-01 3.333333333333333e-01 1.666666666666665e-01
1.666666666666667e-01 3.333333333333333e-01 1.666666666666665e-01
1.666666666666667e-01 3.333333333333333e-01 1.666666666666665e-01
1.666666666666667e-01 3.333333333333333e-01 1.666666666666665e-01
1.666666666666667e-01 3.333333333333333e-01 1.666666666666665e-01
1.666666666666667e-01 3.333333333333333e-01 1.666666666666665e-01
1.666666666666667e-01 3.333333333333333e-01 1.666666666666665e-01
1.666666666666667e-01 3.333333333333333e-01 1.666666666666665e-01
1.666666666666667e-01 3.333333333333333e-01 1.666666666666665e-01
1.666666666666667e-01 3.333333333333333e-01 1.666666666666665e-01
1.666666666666667e-01 3.333333333333333e-01 1.666666666666665e-01
1.666666666666667e-01 3.333333333333333e-01 1.666666666666665e-01
1.666666666666667e-01 3.333333333333333e-01 1.666666666666665e-01
1.666666666666667e-01 3.333333333333333e-01 1.666666666666665e-01
1.666666666666667e-01 3.333333333333333e-01 1.666666666666665e-01
1.666666666666667e-01 3.333333333333333e-01 1.666666666666665e-01
1.666666666666667e-01 3.333333333333333e-01 1.666666666666665e-01
1.666666666666667e-01 3.333333333333333e-01 1.666666666666665e-01
1.666666666666667e-01 3.333333333333333e-01 1.666666666666665e-01
1.666666666666667e-01 3.333333333333333e-01 1.666666666666665e-01
1.666666666666667e-01 3.333333333333333e-01 1.666666666666665e-01
1.666666666666667e-01 3.333333333333333e-01 1.666666666666665e-01
1.666666666666667e-01 3.333333333333333e-01 1.666666666666665e-01
1.666666666666667e-01 3.333333333333333e-01 1.666666666666665e-01
1.666666666666667e-01 3.333333333333333e-01 1.666666666666665e-01
1.666666666666667e-01 3.333333333333333e-01 1.666666666666665e-01
1.666666666666667e-01 3.333333333333333e-01 1.666666666666665e-01
1.666666666666667e-01 3.333333333333333e-01 1.666666666666665e-01
1.666666666666667e-01 3.333333333333333e-01 1.666666666666665e-01
1.666666666666667e-01 3.333333333333333e-01 1.666666666666665e-01
1.666666666666667e-01 3.333333333333333e-01 1.666666666666665e-01
1.666666666666667e-01 3.333333333333333e-01 1.666666666666665e-01
1.666666666666667e-01 3.333333333333333e-01 1.666666666666665e-01
1.666666666666667e-01 3.333333333333333e-01 1.666666666666665e-01
1.666666666666667e-01 3.333333333333333e-01 1.666666666666665e-01
1.666666666666667e-01 3.333333333333333e-01 1.666666666666665e-01
1.666666666666667e-01 3.333333333333333e-01 1.666666666666665e-01
1.666666666666667e-01 3.333333333333333e-01 1.666666666666665e-01
1.666666666666667e-01 3.333333333333333e-01 1.666666666666665e-01
1.666666666666667e-01 3.333333333333333e-01 1.666666666666665e-01
1.666666666666667e-01 3.333333333333333e-01 1.666666666666665e-01
1.666666666666667e-01 3.333333333333333e-01 1.666666666666665e-01
1.666666666666667e-01 3.333333333333333e-01 1.666666666666665e-01
1.666666666666667e-01 3.333333333333333e-01 1.666666666666665e-01
1.666666666666667e-01 3.333333333333333e-01 1.666666666666665e-01
1.666666666666667e-01 3.333333333333333e-01 1.666666666666665e-01
1.666666666666667e-01 3.333333333333333e-01 1.666666666666665e-01
1.666666666666667e-01 3.333333333333333e-01 1.666666666666665e-01
1.666666666666667e-01 3.333333333333333e-01 1.666666666666665e-01
1.666666666666667e-01 3.333333333333333e-01 1.666666666666665e-01
1.666666666666667e-01 3.333333333333333e-01 1.666666666666665e-01
1.666666666666667e-01 3.333333333333333e-01 1.666666666666665e-01
1.666666666666667e-01 3.333333333333333e-01 1.666666666666665e-01
1.666666666666667e-01 3.333333333333333e-01 1.666666666666665e-01
1.666666666666667e-01 3.333333333333333e-01 1.666666666666665e-01
1.666666666666667e-01 3.333333333333333e-01 1.666666666666665e-01
1.666666666666667e-01 3.333333333333333e-01 1.666666666666665e-01
1.666666666666667e-01 3.333333333333333e-01 1.666666666666665e-01
1.666666666666667e-01 3.333333333333333e-01 1.666666666666665e-01
1.666666666666667e-01 3.333333333333333e-01 1.666666666666665e-01
1.666666666666667e-01 3.333333333333333e-01 1.666666666666665e-01
1.666666666666667e-01 3.333333333333333e-01 1.666666666666665e-01
1.666666666666667e-01 3.333333333333333e-01 1.666666666666665e-01
1.666666666666667e-01 3.333333333333333e-01 1.666666666666665e-01
1.666666666666667e-01 3.333333333333333e-01 1.666666666666665e-01
1.666666666666667e-01 3.333333333333333e-01 1.666666666666665e-01
1.666666666666667e-01 3.333333333333333e-01 1.666666666666665e-01
1.666666666666667e-01 3.333333333333333e-01 1.666666666666665e-01
1.666666666666667e-01 3.333333333333333e-01 1.666666666666665e-01
1.666666666666667e-01 3.333333333333333e-01 1.666666666666665e-01
1.666666666666667e-01 3.333333333333333e-01 1.666666666666665e-01
1.666666666666667e-01 3.333333333333333e-01 1.666666666666665e-01
1.666666666666667e-01 3.333333333333333e-01 1.666666666666665e-01
1.666666666666667e-01 3.333333333333333e-01 1.666666666666665e-01
1.666666666666667e-01 3.333333333333333e-01 1.666666666666665e-01
1.666666666666667e-01 3.333333333333333e-01 1.666666666666665e-01
1.666666666666667e-01 3.333333333333333e-01 1.666666666666665e-01
1.666666666666667e-01 3.333333333333333e-01 1.666666666666665e-01
1.666666666666667e-01 3.333333333333333e-01 1.666666666666665e-01
1.666666666666667e-01 3.333333333333333e-01 1.666666666666665e-01
1.666666666666667e-01 3.333333333333333e-01 1.666666666666665e-01
1.666666666666667e-01 3.333333333333333e-01 1.666666666666665e-01
1.666666666666667e-01 3.333333333333333e-01 1.666666666666665e-01
1.666666666666667e-01 3.333333333333333e-01 1.666666666666665e-01
1.666666666666667e-01 3.333333333333333e-01 1.666666666666665e-01
1.666666666666667e-01 3.333333333333333e-01 1.666666666666665e-01
1.666666666666667e-01 3.333333333333333e-01 1.666666666666665e-01
1.666666666666667e-01 3.333333333333333e-01 1.666666666666665e-01
1.666666666666667e-01 3.333333333333333e-01 1.666666666666665e-01
1.666666666666667e-01 3.333333333333333e-01 1.666666666666665e-01
1.666666666666667e-01 3.333333333333333e-01 1.666666666666665e-01
1.666666666666667e-01 3.333333333333333e-01 1.666666666666665e-01
1.666666666666667e-01 3.333333333333333e-01 1.666666666666665e-01
1.666666666666667e-01 3.333333333333333e-01 1.666666666666665e-01
1.666666666666667e-01 3.333333333333333e-01 1.666666666666665e-01
1.666666666666667e-01 3.333333333333333e-01 1.666666666666665e-01
1.666666666666667e-01 3.333333333333333e-01 1.666666666666665e-01
1.666666666666667e-01 3.333333333333333e-01 1.666666666666665e-01
1.666666666666667e-01 3.333333333333333e-01 1.666666666666665e-01
1.666666666666667e-01 3.333333333333333e-01 1.666666666666665e-01
1.666666666666667e-01 3.333333333333333e-01 1.666666666666665e-01
1.666666666666667e-01 3.333333333333333e-01 1.666666666666665e-01
1.666666666666667e-01 3.333333333333333e-01 1.666666666666665e-01
1.666666666666667e-01 3.333333333333333e-01 1.666666666666665e-01
1.666666666666667e-01 3.333333333333333e-01 1.666666666666665e-01
1.666666666666667e-01 3.333333333333333e-01 1.666666666666665e-01
1.666666666666667e-01 3.333333333333333e-01 1.666666666666665e-01
1.666666666666667e-01 3.333333333333333e-01 1.666666666666665e-01
1.666666666666667e-01 3.333333333333333e-01 1.666666666666665e-01
1.666666666666667e-01 3.333333333333333e-01 1.666666666666665e-01
1.666666666666667e-01 3.333333333333333e-01 1.666666666666665e-01
1.666666666666667e-01 3.333333333333333e-01 1.666666666666665e-01
1.666666666666667e-01 3.333333333333333e-01 1.666666666666665e-01
1.666666666666667e-01 3.333333333333333e-01 1.666666666666665e-01
1.666666666666667e-01 3.333333333333333e-01 1.666666666666665e-01
1.666666666666667e-01 3.333333333333333e-01 1.666666666666665e-01
1.666666666666667e-01 3.333333333333333e-01 1.666666666666665e-01
1.666666666666667e-01 3.333333333333333e-01 1.666666666666665e-01
1.666666666666667e-01 3.333333333333333e-01 1.666666666666665e-01
1.666666666666667e-01 3.333333333333333e-01 1.666666666666665e-01
1.666666666666667e-01 3.333333333333333e-01 1.666666666666665e-01
1.666666666666667e-01 3.333333333333333e-01 1.666666666666665e-01
1.666666666666667e-01 3.333333333333333e-01 1.666666666666665e-01
1.666666666666667e-01 3.333333333333333e-01 1.666666666666665e-01
1.666666666666667e-01 3.333333333333333e-01 1.666666666666665e-01
1.666666666666667e-01 3.333333333333333e-01 1.666666666666665e-01
1.666666666666667e-01 3.333333333333333e-01 1.666666666666665e-01
1.666666666666667e-01 3.333333333333333e-01 1.666666666666665e-01
1.666666666666667e-01 3.333333333333333e-01 1.666666666666665e-01
1.666666666666667e-01 3.333333333333333e-01 1.666666666666665e-01
1.666666666666667e-01 3.333333333333333e-01 1.666666666666665e-01
1.666666666666667e-01 3.333333333333333e-01 1.666666666666665e-01
1.666666666666667e-01 3.333333333333333e-01 1.666666666666665e-01
1.666666666666667e-01 3.333333333333333e-01 1.666666666666665e-01
1.666666666666667e-01 3.333333333333333e-01 1.666666666666665e-01
1.666666666666667e-01 3.333333333333333e-01 1.666666666666665e-01
1.666666666666667e-01 3.333333333333333e-01 1.666666666666665e-01
1.666666666666667e-01 3.333333333333333e-01 1.666666666666665e-01
1.666666666666667e-01 3.333333333333333e-01 1.666666666666665e-01
1.666666666666667e-01 3.333333333333333e-01 1.666666666666665e-01
1.666666666666667e-01 3.333333333333333e-01 1.666666666666665e-01
1.666666666666667e-01 3.333333333333333e-01 1.666666666666665e-01
1.666666666666667e-01 3.333333333333333e-01 1.666666666666665e-01
1.666666666666667e-01 3.333333333333333e-01 1.666666666666665e-01
1.666666666666667e-01 3.333333333333333e-01 1.666666666666665e-01
1.666666666666667e-01 3.333333333333333e-01 1.666666666666665e-01
1.666666666666667e-01 3.333333333333333e-01 1.666666666666665e-01
1.666666666666667e-01 3.333333333333333e-01 1.666666666666665e-01
1.666666666666667e-01 3.333333333333333e-01 1.666666666666665e-01
1.666666666666667e-01 3.333333333333333e-01 1.666666666666665e-01
1.666666666666667e-01 3.333333333333333e-01 1.666666666666665e-01
1.666666666666667e-01 3.333333333333333e-01 1.666666666666665e-01
1.666666666666667e-01 3.333333333333333e-01 1.666666666666665e-01
1.666666666666667e-01 3.333333333333333e-01 1.666666666666665e-01
1.666666666666667e-01 3.333333333333333e-01 1.666666666666665e-01
1.666666666666667e-01 3.333333333333333e-01 1.666666666666665e-01
1.666666666666667e-01 3.333333333333333e-01 1.666666666666665e-01
1.666666666666667e-01 3.333333333333333e-01 1.666666666666665e-01
1.666666666666667e-01 3.333333333333333e-01 1.666666666666665e-01
1.666666666666667e-01 3.333333333333333e-01 1.666666666666665e-01
1.666666666666667e-01 3.333333333333333e-01 1.666666666666665e-01
1.666666666666667e-01 3.333333333333333e-01 1.666666666666665e-01
1.666666666666667e-01 3.333333333333333e-01 1.666666666666665e-01
1.666666666666667e-01 3.333333333333333e-01 1.666666666666665e-01
1.666666666666667e-01 3.333333333333333e-01 1.666666666666665e-01
1.666666666666667e-01 3.333333333333333e-01 1.666666666666665e-01
1.666666666666667e-01 3.333333333333333e-01 1.666666666666665e-01
1.666666666666667e-01 3.333333333333333e-01 1.666666666666665e-01
1.666666666666667e-01 3.333333333333333e-01 1.666666666666665e-01
1.666666666666667e-01 3.333333333333333e-01 1.666666666666665e-01
1.666666666666667e-01 3.333333333333333e-01 1.666666666666665e-01
1.666666666666667e-01 3.333333333333333e-01 1.666666666666665e-01
1.666666666666667e-01 3.333333333333333e-01 1.666666666666665e-01
-1.666666666666667e-01 -3.333333333333333e-01 -1.666666666666665e-01
1.666666666666667e-01 3.333333333333333e-01 1.666666666666665e-01
1.666666666666667e-01 3.333333333333333e-01 1.666666666666665e-01
1.666666666666667e-01 3.333333333333333e-01 1.666666666666665e-01
1.666666666666667e-01 3.333333333333333e-01 1.666666666666665e-01
1.666666666666667e-01 3.333333333333333e-01 1.666666666666665e-01
1.666666666666667e-01 3.333333333333333e-01 1.666666666666665e-01
1.666666666666667e-01 3.333333333333333e-01 1.666666666666665e-01
1.666666666666667e-01 3.333333333333333e-01 1.666666666666665e-01
1.666666666666667e-01 3.333333333333333e-01 1.666666666666665e-01
1.666666666666667e-01 3.333333333333333e-01 1.666666666666665e-01
1.666666666666667e-01 3.333333333333333e-01 1.666666666666665e-01
1.666666666666667e-01 3.333333333333333e-01 1.666666666666665e-01
1.666666666666667e-01 3.333333333333333e-01 1.666666666666665e-01
1.666666666666667e-01 3.333333333333333e-01 1.666666666666665e-01
1.666666666666667e-01 3.333333333333333e-01 1.666666666666665e-01
1.666666666666667e-01 3.333333333333333e-01 1.666666666666665e-01
1.666666666666667e-01 3.333333333333333e-01 1.666666666666665e-01
1.666666666666667e-01 3.333333333333333e-01 1.666666666666665e-01
1.666666666666667e-01 3.333333333333333e-01 1.666666666666665e-01
1.666666666666667e-01 3.333333333333333e-01 1.666666666666665e-01
1.666666666666667e-01 3.333333333333333e-01 1.666666666666665e-01
1.666666666666667e-01 3.333333333333333e-01 1.666666666666665e-01
1.666666666666667e-01 3.333333333333333e-01 1.666666666666665e-01
1.666666666666667e-01 3.333333333333333e-01 1.666666666666665e-01
1.666666666666667e-01 3.333333333333333e-01 1.666666666666665e-01
1.666666666666667e-01 3.333333333333333e-01 1.666666666666665e-01
1.666666666666667e-01 3.333333333333333e-01 1.666666666666665e-01
1.666666666666667e-01 3.333333333333333e-01 1.666666666666665e-01
1.666666666666667e-01 3.333333333333333e-01 1.666666666666665e-01
1.666666666666667e-01 3.333333333333333e-01 1.666666666666665e-01
1.666666666666667e-01 3.333333333333333e-01 1.666666666666665e-01
1.666666666666667e-01 3.333333333333333e-01 1.666666666666665e-01
1.666666666666667e-01 3.333333333333333e-01 1.666666666666665e-01
1.666666666666667e-01 3.333333333333333e-01 1.666666666666665e-01
1.666666666666667e-01 3.333333333333333e-01 1.666666666666665e-01
1.666666666666667e-01 3.333333333333333e-01 1.666666666666665e-01
1.666666666666667e-01 3.333333333333333e-01 1.666666666666665e-01
1.666666666666667e-01 3.333333333333333e-01 1.666666666666665e-01
1.666666666666667e-01 3.333333333333333e-01 1.666666666666665e-01
1.666666666666667e-01 3.333333333333333e-01 1.666666666666665e-01
1.666666666666667e-01 3.333333333333333e-01 1.666666666666665e-01
1.666666666666667e-01 3.333333333333333e-01 1.666666666666665e-01
1.666666666666667e-01 3.333333333333333e-01 1.666666666666665e-01
1.666666666666667e-01 3.333333333333333e-01 1.666666666666665e-01
1.666666666666667e-01 3.333333333333333e-01 1.666666666666665e-01
1.666666666666667e-01 3.333333333333333e-01 1.666666666666665e-01
1.666666666666667e-01 3.333333333333333e-01 1.666666666666665e-01
1.666666666666667e-01 3.333333333333333e-01 1.666666666666665e-01
1.666666666666667e-01 3.333333333333333e-01 1.666666666666665e-01
1.666666666666667e-01 3.333333333333333e-01 1.666666666666665e-01
1.666666666666667e-01 3.333333333333333e-01 1.666666666666665e-01
1.666666666666667e-01 3.333333333333333e-01 1.666666666666665e-01
1.666666666666667e-01 3.333333333333333e-01 1.666666666666665e-01
1.666666666666667e-01 3.333333333333333e-01 1.666666666666665e-01
1.666666666666667e-01 3.333333333333333e-01 1.666666666666665e-01
1.666666666666667e-01 3.333333333333333e-01 1.666666666666665e-01
1.666666666666667e-01 3.333333333333333e-01 1.666666666666665e-01
1.666666666666667e-01 3.333333333333333e-01 1.666666666666665e-01
1.666666666666667e-01 3.333333333333333e-01 1.666666666666665e-01
1.666666666666667e-01 3.333333333333333e-01 1.666666666666665e-01
1.666666666666667e-01 3.333333333333333e-01 1.666666666666665e-01
1.666666666666667e-01 3.333333333333333e-01 1.666666666666665e-01
1.666666666666667e-01 3.333333333333333e-01 1.666666666666665e-01
1.666666666666667e-01 3.333333333333333e-01 1.666666666666665e-01
1.666666666666667e-01 3.333333333333333e-01 1.666666666666665e-01
1.666666666666667e-01 3.333333333333333e-01 1.666666666666665e-01
1.666666666666667e-01 3.333333333333333e-01 1.666666666666665e-01
1.666666666666667e-01 3.333333333333333e-01 1.666666666666665e-01
1.666666666666667e-01 3.333333333333333e-01 1.666666666666665e-01
1.666666666666667e-01 3.333333333333333e-01 1.666666666666665e-01
1.666666666666667e-01 3.333333333333333e-01 1.666666666666665e-01
1.666666666666667e-01 3.333333333333333e-01 1.666666666666665e-01
1.666666666666667e-01 3.333333333333333e-01 1.666666666666665e-01
1.666666666666667e-01 3.333333333333333e-01 1.666666666666665e-01
1.666666666666667e-01 3.333333333333333e-01 1.666666666666665e-01
1.666666666666667e-01 3.333333333333333e-01 1.666666666666665e-01
1.666666666666667e-01 3.333333333333333e-01 1.666666666666665e-01
1.666666666666667e-01 3.333333333333333e-01 1.666666666666665e-01
1.666666666666667e-01 3.333333333333333e-01 1.666666666666665e-01
1.666666666666667e-01 3.333333333333333e-01 1.666666666666665e-01
1.666666666666667e-01 3.333333333333333e-01 1.666666666666665e-01
1.666666666666667e-01 3.333333333333333e-01 1.666666666666665e-01
1.666666666666667e-01 3.333333333333333e-01 1.666666666666665e-01
1.666666666666667e-01 3.333333333333333e-01 1.666666666666665e-01
1.666666666666667e-01 3.333333333333333e-01 1.666666666666665e-01
1.666666666666667e-01 3.333333333333333e-01 1.666666666666665e-01
1.666666666666667e-01 3.333333333333333e-01 1.666666666666665e-01
1.666666666666667e-01 3.333333333333333e-01 1.666666666666665e-01
1.666666666666667e-01 3.333333333333333e-01 1.666666666666665e-01
1.666666666666667e-01 3.333333333333333e-01 1.666666666666665e-01
1.666666666666667e-01 3.333333333333333e-01 1.666666666666665e-01
1.666666666666667e-01 3.333333333333333e-01 1.666666666666665e-01
1.666666666666667e-01 3.333333333333333e-01 1.666666666666665e-01
1.666666666666667e-01 3.333333333333333e-01 1.666666666666665e-01
1.666666666666667e-01 3.333333333333333e-01 1.666666666666665e-01
1.666666666666667e-01 3.333333333333333e-01 1.666666666666665e-01
1.666666666666667e-01 3.333333333333333e-01 1.666666666666665e-01
1.666666666666667e-01 3.333333333333333e-01 1.666666666666665e-01
1.666666666666667e-01 3.333333333333333e-01 1.666666666666665e-01
1.666666666666667e-01 3.333333333333333e-01 1.666666666666665e-01
1.666666666666667e-01 3.333333333333333e-01 1.666666666666665e-01
1.666666666666667e-01 3.333333333333333e-01 1.666666666666665e-01
1.666666666666667e-01 3.333333333333333e-01 1.666666666666665e-01
1.666666666666667e-01 3.333333333333333e-01 1.666666666666665e-01
1.666666666666667e-01 3.333333333333333e-01 1.666666666666665e-01
1.666666666666667e-01 3.333333333333333e-01 1.666666666666665e-01
1.666666666666667e-01 3.333333333333333e-01 1.666666666666665e-01
1.666666666666667e-01 3.333333333333333e-01 1.666666666666665e-01
1.666666666666667e-01 3.333333333333333e-01 1.666666666666665e-01
1.666666666666667e-01 3.333333333333333e-01 1.666666666666665e-01
1.666666666666667e-01 3.333333333333333e-01 1.666666666666665e-01
1.666666666666667e-01 3.333333333333333e-01 1.666666666666665e-01
1.666666666666667e-01 3.333333333333333e-01 1.666666666666665e-01
1.666666666666667e-01 3.333333333333333e-01 1.666666666666665e-01
1.666666666666667e-01 3.333333333333333e-01 1.666666666666665e-01
1.666666666666667e-01 3.333333333333333e-01 1.666666666666665e-01
1.666666666666667e-01 3.333333333333333e-01 1.666666666666665e-01
1.666666666666667e-01 3.333333333333333e-01 1.666666666666665e-01
1.666666666666667e-01 3.333333333333333e-01 1.666666666666665e-01
1.666666666666667e-01 3.333333333333333e-01 1.666666666666665e-01
1.666666666666667e-01 3.333333333333333e-01 1.666666666666665e-01
1.666666666666667e-01 3.333333333333333e-01 1.666666666666665e-01
1.666666666666667e-01 3.333333333333333e-01 1.666666666666665e-01
1.666666666666667e-01 3.333333333333333e-01 1.666666666666665e-01
1.666666666666667e-01 3.333333333333333e-01 1.666666666666665e-01
1.666666666666667e-01 3.333333333333333e-01 1.666666666666665e-01
1.666666666666667e-01 3.333333333333333e-01 1.666666666666665e-01
1.666666666666667e-01 3.333333333333333e-01 1.666666666666665e-01
1.666666666666667e-01 3.333333333333333e-01 1.666666666666665e-01
1.666666666666667e-01 3.333333333333333e-01 1.666666666666665e-01
1.666666666666667e-01 3.333333333333333e-01 1.666666666666665e-01
1.666666666666667e-01 3.333333333333333e-01 1.666666666666665e-01
1.666666666666667e-01 3.333333333333333e-01 1.666666666666665e-01
1.666666666666667e-01 3.333333333333333e-01 1.666666666666665e-01
1.666666666666667e-01 3.333333333333333e-01 1.666666666666665e-01
1.666666666666667e-01 3.333333333333333e-01 1.666666666666665e-01
1.666666666666667e-01 3.333333333333333e-01 1.666666666666665e-01
1.666666666666667e-01 3.333333333333333e-01 1.666666666666665e-01
1.666666666666667e-01 3.333333333333333e-01 1.666666666666665e-01
1.666666666666667e-01 3.333333333333333e-01 1.666666666666665e-01
1.666666666666667e-01 3.333333333333333e-01 1.666666666666665e-01
1.666666666666667e-01 3.333333333333333e-01 1.666666666666665e-01
1.666666666666667e-01 3.333333333333333e-01 1.666666666666665e-01
1.666666666666667e-01 3.333333333333333e-01 1.666666666666665e-01
1.666666666666667e-01 3.333333333333333e-01 1.666666666666665e-01
1.666666666666667e-01 3.333333333333333e-01 1.666666666666665e-01
1.666666666666667e-01 3.333333333333333e-01 1.666666666666665e-01
1.666666666666667e-01 3.333333333333333e-01 1.666666666666665e-01
1.666666666666667e-01 3.333333333333333e-01 1.666666666666665e-01
1.666666666666667e-01 3.333333333333333e-01 1.666666666666665e-01
1.666666666666667e-01 3.333333333333333e-01 1.666666666666665e-01
1.666666666666667e-01 3.333333333333333e-01 1.666666666666665e-01
1.666666666666667e-01 3.333333333333333e-01 1.666666666666665e-01
1.666666666666667e-01 3.333333333333333e-01 1.666666666666665e-01
1.666666666666667e-01 3.333333333333333e-01 1.666666666666665e-01
1.666666666666667e-01 3.333333333333333e-01 1.666666666666665e-01
1.666666666666667e-01 3.333333333333333e-01 1.666666666666665e-01
1.666666666666667e-01 3.333333333333333e-01 1.666666666666665e-01
1.666666666666667e-01 3.333333333333333e-01 1.666666666666665e-01
1.666666666666667e-01 3.333333333333333e-01 1.666666666666665e-01
1.666666666666667e-01 3.333333333333333e-01 1.666666666666665e-01
1.666666666666667e-01 3.333333333333333e-01 1.666666666666665e-01
1.666666666666667e-01 3.333333333333333e-01 1.666666666666665e-01
1.666666666666667e-01 3.333333333333333e-01 1.666666666666665e-01
1.666666666666667e-01 3.333333333333333e-01 1.666666666666665e-01
1.666666666666667e-01 3.333333333333333e-01 1.666666666666665e-01
1.666666666666667e-01 3.333333333333333e-01 1.666666666666665e-01
1.666666666666667e-01 3.333333333333333e-01 1.666666666666665e-01
1.666666666666667e-01 3.333333333333333e-01 1.666666666666665e-01
1.666666666666667e-01 3.333333333333333e-01 1.666666666666665e-01
1.666666666666667e-01 3.333333333333333e-01 1.666666666666665e-01
1.666666666666667e-01 3.333333333333333e-01 1.666666666666665e-01
1.666666666666667e-01 3.333333333333333e-01 1.666666666666665e-01
1.666666666666667e-01 3.333333333333333e-01 1.666666666666665e-01
1.666666666666667e-01 3.333333333333333e-01 1.666666666666665e-01
1.666666666666667e-01 3.333333333333333e-01 1.666666666666665e-01
1.666666666666667e-01 3.333333333333333e-01 1.666666666666665e-01
1.666666666666667e-01 3.333333333333333e-01 1.666666666666665e-01
1.666666666666667e-01 3.333333333333333e-01 1.666666666666665e-01
1.666666666666667e-01 3.333333333333333e-01 1.666666666666665e-01
1.666666666666667e-01 3.333333333333333e-01 1.666666666666665e-01
1.666666666666667e-01 3.333333333333333e-01 1.666666666666665e-01
1.666666666666667e-01 3.333333333333333e-01 1.666666666666665e-01
1.666666666666667e-01 3.333333333333333e-01 1.666666666666665e-01
1.666666666666667e-01 3.333333333333333e-01 1.666666666666665e-01
1.666666666666667e-01 3.333333333333333e-01 1.666666666666665e-01
1.666666666666667e-01 3.333333333333333e-01 1.666666666666665e-01
1.666666666666667e-01 3.333333333333333e-01 1.666666666666665e-01
1.666666666666667e-01 3.333333333333333e-01 1.666666666666665e-01
1.666666666666667e-01 3.333333333333333e-01 1.666666666666665e-01
1.666666666666667e-01 3.333333333333333e-01 1.666666666666665e-01
1.666666666666667e-01 3.333333333333333e-01 1.666666666666665e-01
1.666666666666667e-01 3.333333333333333e-01 1.666666666666665e-01
1.666666666666667e-01 3.333333333333333e-01 1.666666666666665e-01
1.666666666666667e-01 3.333333333333333e-01 1.666666666666665e-01
1.666666666666667e-01 3.333333333333333e-01 1.666666666666665e-01
1.666666666666667e-01 3.333333333333333e-01 1.666666666666665e-01
1.666666666666667e-01 3.333333333333333e-01 1.666666666666665e-01
1.666666666666667e-01 3.333333333333333e-01 1.666666666666665e-01
1.666666666666667e-01 3.333333333333333e-01 1.666666666666665e-01
1.666666666666667e-01 3.333333333333333e-01 1.666666666666665e-01
1.666666666666667e-01 3.333333333333333e-01 1.666666666666665e-01
1.666666666666667e-01 3.333333333333333e-01 1.666666666666665e-01
1.666666666666667e-01 3.333333333333333e-01 1.666666666666665e-01
1.666666666666667e-01 3.333333333333333e-01 1.666666666666665e-01
1.666666666666667e-01 3.333333333333333e-01 1.666666666666665e-01
1.666666666666667e-01 3.333333333333333e-01 1.666666666666665e-01
1.666666666666667e-01 3.333333333333333e-01 1.666666666666665e-01
1.666666666666667e-01 3.333333333333333e-01 1.666666666666665e-01
1.666666666666667e-01 3.333333333333333e-01 1.666666666666665e-01
1.666666666666667e-01 3.333333333333333e-01 1.666666666666665e-01
1.666666666666667e-01 3.333333333333333e-01 1.666666666666665e-01
1.666666666666667e-01 3.333333333333333e-01 1.666666666666665e-01
1.666666666666667e-01 3.333333333333333e-01 1.666666666666665e-01
1.666666666666667e-01 3.333333333333333e-01 1.666666666666665e-01
1.666666666666667e-01 3.333333333333333e-01 1.666666666666665e-01
1.666666666666667e-01 3.333333333333333e-01 1.666666666666665e-01
1.666666666666667e-01 3.333333333333333e-01 1.666666666666665e-01
1.666666666666667e-01 3.333333333333333e-01 1.666666666666665e-01
1.666666666666667e-01 3.333333333333333e-01 1.666666666666665e-01
1.666666666666667e-01 3.333333333333333e-01 1.666666666666665e-01
1.666666666666667e-01 3.333333333333333e-01 1.666666666666665e-01
1.666666666666667e-01 3.333333333333333e-01 1.666666666666665e-01
1.666666666666667e-01 3.333333333333333e-01 1.666666666666665e-01
1.666666666666667e-01 3.333333333333333e-01 1.666666666666665e-01
1.666666666666667e-01 3.333333333333333e-01 1.666666666666665e-01
1.666666666666667e-01 3.333333333333333e-01 1.666666666666665e-01
1.666666666666667e-01 3.333333333333333e-01 1.666666666666665e-01
1.666666666666667e-01 3.333333333333333e-01 1.666666666666665e-01
1.666666666666667e-01 3.333333333333333e-01 1.666666666666665e-01
1.666666666666667e-01 3.333333333333333e-01 1.666666666666665e-01
1.666666666666667e-01 3.333333333333333e-01 1.666666666666665e-01
1.666666666666667e-01 3.333333333333333e-01 1.666666666666665e-01
1.666666666666667e-01 3.333333333333333e-01 1.666666666666665e-01
1.666666666666667e-01 3.333333333333333e-01 1.666666666666665e-01
1.666666666666667e-01 3.333333333333333e-01 1.666666666666665e-01
 1.666666666666667e-01 -1.666666666666665e-01 -3.333333333333333e-01
-1.666666666666667e-01  1.666666666666665e-01  3.333333333333333e-01
 1.666666666666667e-01 -1.666666666666665e-01 -3.333333333333333e-01
 1.666666666666667e-01 -1.666666666666665e-01 -3.333333333333333e-01
 1.666666666666667e-01 -1.666666666666665e-01 -3.333333333333333e-01
 1.666666666666667e-01 -1.666666666666665e-01 -3.333333333333333e-01
 1.666666666666667e-01 -1.666666666666665e-01 -3.333333333333333e-01
 1.666666666666667e-01 -1.666666666666665e-01 -3.333333333333333e-01
 1.666666666666667e-01 -1.666666666666665e-01 -3.333333333333333e-01
 1.666666666666667e-01 -1.666666666666665e-01 -3.333333333333333e-01
 1.666666666666667e-01 -1.666666666666665e-01 -3.333333333333333e-01
 1.666666666666667e-01 -1.666666666666665e-01 -3.333333333333333e-01
 1.666666666666667e-01 -1.666666666666665e-01 -3.333333333333333e-01
 1.666666666666667e-01 -1.666666666666665e-01 -3.333333333333333e-01
 1.666666666666667e-01 -1.666666666666665e-01 -3.333333333333333e-01
 1.666666666666667e-01 -1.666666666666665e-01 -3.333333333333333e-01
 1.666666666666667e-01 -1.666666666666665e-01 -3.333333333333333e-01
 1.666666666666667e-01 -1.666666666666665e-01 -3.333333333333333e-01
 1.666666666666667e-01 -1.666666666666665e-01 -3.333333333333333e-01
 1.666666666666667e-01 -1.666666666666665e-01 -3.333333333333333e-01
 1.666666666666667e-01 -1.666666666666665e-01 -3.333333333333333e-01
 1.666666666666667e-01 -1.666666666666665e-01 -3.333333333333333e-01
 1.666666666666667e-01 -1.666666666666665e-01 -3.333333333333333e-01
 1.666666666666667e-01 -1.666666666666665e-01 -3.333333333333333e-01
 1.666666666666667e-01 -1.666666666666665e-01 -3.333333333333333e-01
 1.666666666666667e-01 -1.666666666666665e-01 -3.333333333333333e-01
 1.666666666666667e-01 -1.666666666666665e-01 -3.333333333333333e-01
 1.666666666666667e-01 -1.666666666666665e-01 -3.333333333333333e-01
 1.666666666666667e-01 -1.666666666666665e-01 -3.333333333333333e-01
 1.666666666666667e-01 -1.666666666666665e-01 -3.333333333333333e-01
 1.666666666666667e-01 -1.666666666666665e-01 -3.333333333333333e-01
 1.666666666666667e-01 -1.666666666666665e-01 -3.333333333333333e-01
 1.666666666666667e-01 -1.666666666666665e-01 -3.333333333333333e-01
 1.666666666666667e-01 -1.666666666666665e-01 -3.333333333333333e-01
 1.666666666666667e-01 -1.666666666666665e-01 -3.333333333333333e-01
 1.666666666666667e-01 -1.666666666666665e-01 -3.333333333333333e-01
 1.666666666666667e-01 -1.666666666666665e-01 -3.333333333333333e-01
 1.666666666666667e-01 -1.666666666666665e-01 -3.333333333333333e-01
 1.666666666666667e-01 -1.666666666666665e-01 -3.333333333333333e-01
 1.666666666666667e-01 -1.666666666666665e-01 -3.333333333333333e-01
 1.666666666666667e-01 -1.666666666666665e-01 -3.333333333333333e-01
 1.666666666666667e-01 -1.666666666666665e-01 -3.333333333333333e-01
 1.666666666666667e-01 -1.666666666666665e-01 -3.333333333333333e-01
 1.666666666666667e-01 -1.666666666666665e-01 -3.333333333333333e-01
 1.666666666666667e-01 -1.666666666666665e-01 -3.333333333333333e-01
 1.666666666666667e-01 -1.666666666666665e-01 -3.333333333333333e-01
 1.666666666666667e-01 -1.666666666666665e-01 -3.333333333333333e-01
 1.666666666666667e-01 -1.666666666666665e-01 -3.333333333333333e-01
 1.666666666666667e-01 -1.666666666666665e-01 -3.333333333333333e-01
 1.666666666666667e-01 -1.666666666666665e-01 -3.333333333333333e-01
 1.666666666666667e-01 -1.666666666666665e-01 -3.333333333333333e-01
 1.666666666666667e-01 -1.666666666666665e-01 -3.333333333333333e-01
 1.666666666666667e-01 -1.666666666666665e-01 -3.333333333333333e-01
 1.666666666666667e-01 -1.666666666666665e-01 -3.333333333333333e-01
 1.666666666666667e-01 -1.666666666666665e-01 -3.333333333333333e-01
 1.666666666666667e-01 -1.666666666666665e-01 -3.333333333333333e-01
 1.666666666666667e-01 -1.666666666666665e-01 -3.333333333333333e-01
 1.666666666666667e-01 -1.666666666666665e-01 -3.333333333333333e-01
 1.666666666666667e-01 -1.666666666666665e-01 -3.333333333333333e-01
 1.666666666666667e-01 -1.666666666666665e-01 -3.333333333333333e-01
 1.666666666666667e-01 -1.666666666666665e-01 -3.333333333333333e-01
 1.666666666666667e-01 -1.666666666666665e-01 -3.333333333333333e-01
 1.666666666666667e-01 -1.666666666666665e-01 -3.333333333333333e-01
 1.666666666666667e-01 -1.666666666666665e-01 -3.333333333333333e-01
 1.666666666666667e-01 -1.666666666666665e-01 -3.333333333333333e-01
 1.666666666666667e-01 -1.666666666666665e-01 -3.333333333333333e-01
 1.666666666666667e-01 -1.666666666666665e-01 -3.333333333333333e-01
 1.666666666666667e-01 -1.666666666666665e-01 -3.333333333333333e-01
 1.666666666666667e-01 -1.666666666666665e-01 -3.333333333333333e-01
 1.666666666666667e-01 -1.666666666666665e-01 -3.333333333333333e-01
 1.666666666666667e-01 -1.666666666666665e-01 -3.333333333333333e-01
 1.666666666666667e-01 -1.666666666666665e-01 -3.333333333333333e-01
 1.666666666666667e-01 -1.666666666666665e-01 -3.333333333333333e-01
 1.666666666666667e-01 -1.666666666666665e-01 -3.333333333333333e-01
 1.666666666666667e-01 -1.666666666666665e-01 -3.333333333333333e-01
 1.666666666666667e-01 -1.666666666666665e-01 -3.333333333333333e-01
 1.666666666666667e-01 -1.666666666666665e-01 -3.333333333333333e-01
 1.666666666666667e-01 -1.666666666666665e-01 -3.333333333333333e-01
 1.666666666666667e-01 -1.666666666666665e-01 -3.333333333333333e-01
 1.666666666666667e-01 -1.666666666666665e-01 -3.333333333333333e-01
 1.666666666666667e-01 -1.666666666666665e-01 -3.333333333333333e-01
 1.666666666666667e-01 -1.666666666666665e-01 -3.333333333333333e-01
 1.666666666666667e-01 -1.666666666666665e-01 -3.333333333333333e-01
 1.666666666666667e-01 -1.666666666666665e-01 -3.333333333333333e-01
 1.666666666666667e-01 -1.666666666666665e-01 -3.333333333333333e-01
 1.666666666666667e-01 -1.666666666666665e-01 -3.333333333333333e-01
 1.666666666666667e-01 -1.666666666666665e-01 -3.333333333333333e-01
 1.666666666666667e-01 -1.666666666666665e-01 -3.333333333333333e-01
 1.666666666666667e-01 -1.666666666666665e-01 -3.333333333333333e-01
 1.666666666666667e-01 -1.666666666666665e-01 -3.333333333333333e-01
 1.666666666666667e-01 -1.666666666666665e-01 -3.333333333333333e-01
 1.666666666666667e-01 -1.666666666666665e-01 -3.333333333333333e-01
 1.666666666666667e-01 -1.666666666666665e-01 -3.333333333333333e-01
 1.666666666666667e-01 -1.666666666666665e-01 -3.333333333333333e-01
 1.666666666666667e-01 -1.666666666666665e-01 -3.333333333333333e-01
 1.666666666666667e-01 -1.666666666666665e-01 -3.333333333333333e-01
 1.666666666666667e-01 -1.666666666666665e-01 -3.333333333333333e-01
 1.666666666666667e-01 -1.666666666666665e-01 -3.333333333333333e-01
 1.666666666666667e-01 -1.666666666666665e-01 -3.333333333333333e-01
 1.666666666666667e-01 -1.666666666666665e-01 -3.333333333333333e-01
 1.666666666666667e-01 -1.666666666666665e-01 -3.333333333333333e-01
 1.666666666666667e-01 -1.666666666666665e-01 -3.333333333333333e-01
 1.666666666666667e-01 -1.666666666666665e-01 -3.333333333333333e-01
 1.666666666666667e-01 -1.666666666666665e-01 -3.333333333333333e-01
 1.666666666666667e-01 -1.666666666666665e-01 -3.333333333333333e-01
 1.666666666666667e-01 -1.666666666666665e-01 -3.333333333333333e-01
 1.666666666666667e-01 -1.666666666666665e-01 -3.333333333333333e-01
 1.666666666666667e-01 -1.666666666666665e-01 -3.333333333333333e-01
 1.666666666666667e-01 -1.666666666666665e-01 -3.333333333333333e-01
 1.666666666666667e-01 -1.666666666666665e-01 -3.333333333333333e-01
 1.666666666666667e-01 -1.666666666666665e-01 -3.333333333333333e-01
 1.666666666666667e-01 -1.666666666666665e-01 -3.333333333333333e-01
 1.666666666666667e-01 -1.666666666666665e-01 -3.333333333333333e-01
 1.666666666666667e-01 -1.666666666666665e-01 -3.333333333333333e-01
 1.666666666666667e-01 -1.666666666666665e-01 -3.333333333333333e-01
 1.666666666666667e-01 -1.666666666666665e-01 -3.333333333333333e-01
 1.666666666666667e-01 -1.666666666666665e-01 -3.333333333333333e-01
 1.666666666666667e-01 -1.666666666666665e-01 -3.333333333333333e-01
 1.666666666666667e-01 -1.666666666666665e-01 -3.333333333333333e-01
 1.666666666666667e-01 -1.666666666666665e-01 -3.333333333333333e-01
 1.666666666666667e-01 -1.666666666666665e-01 -3.333333333333333e-01
 1.666666666666667e-01 -1.666666666666665e-01 -3.333333333333333e-01
 1.666666666666667e-01 -1.666666666666665e-01 -3.333333333333333e-01
 1.666666666666667e-01 -1.666666666666665e-01 -3.333333333333333e-01
 1.666666666666667e-01 -1.666666666666665e-01 -3.333333333333333e-01
 1.666666666666667e-01 -1.666666666666665e-01 -3.333333333333333e-01
 1.666666666666667e-01 -1.666666666666665e-01 -3.333333333333333e-01
 1.666666666666667e-01 -1.666666666666665e-01 -3.333333333333333e-01
 1.666666666666667e-01 -1.666666666666665e-01 -3.333333333333333e-01
 1.666666666666667e-01 -1.666666666666665e-01 -3.333333333333333e-01
 1.666666666666667e-01 -1.666666666666665e-01 -3.333333333333333e-01
 1.666666666666667e-01 -1.666666666666665e-01 -3.333333333333333e-01
 1.666666666666667e-01 -1.666666666666665e-01 -3.333333333333333e-01
 1.666666666666667e-01 -1.666666666666665e-01 -3.333333333333333e-01
 1.666666666666667e-01 -1.666666666666665e-01 -3.333333333333333e-01
 1.666666666666667e-01 -1.666666666666665e-01 -3.333333333333333e-01
 1.666666666666667e-01 -1.666666666666665e-01 -3.333333333333333e-01
 1.666666666666667e-01 -1.666666666666665e-01 -3.333333333333333e-01
 1.666666666666667e-01 -1.666666666666665e-01 -3.333333333333333e-01
 1.666666666666667e-01 -1.666666666666665e-01 -3.333333333333333e-01
 1.666666666666667e-01 -1.666666666666665e-01 -3.333333333333333e-01
 1.666666666666667e-01 -1.666666666666665e-01 -3.333333333333333e-01
 1.666666666666667e-01 -1.666666666666665e-01 -3.333333333333333e-01
 1.666666666666667e-01 -1.666666666666665e-01 -3.333333333333333e-01
 1.666666666666667e-01 -1.666666666666665e-01 -3.333333333333333e-01
 1.666666666666667e-01 -1.666666666666665e-01 -3.333333333333333e-01
 1.666666666666667e-01 -1.666666666666665e-01 -3.333333333333333e-01
 1.666666666666667e-01 -1.666666666666665e-01 -3.333333333333333e-01
 1.666666666666667e-01 -1.666666666666665e-01 -3.333333333333333e-01
 1.666666666666667e-01 -1.666666666666665e-01 -3.333333333333333e-01
 1.666666666666667e-01 -1.666666666666665e-01 -3.333333333333333e-01
 1.666666666666667e-01 -1.666666666666665e-01 -3.333333333333333e-01
 1.666666666666667e-01 -1.666666666666665e-01 -3.333333333333333e-01
 1.666666666666667e-01 -1.666666666666665e-01 -3.333333333333333e-01
 1.666666666666667e-01 -1.666666666666665e-01 -3.333333333333333e-01
 1.666666666666667e-01 -1.666666666666665e-01 -3.333333333333333e-01
 1.666666666666667e-01 -1.666666666666665e-01 -3.333333333333333e-01
 1.666666666666667e-01 -1.666666666666665e-01 -3.333333333333333e-01
 1.666666666666667e-01 -1.666666666666665e-01 -3.333333333333333e-01
 1.666666666666667e-01 -1.666666666666665e-01 -3.333333333333333e-01
 1.666666666666667e-01 -1.666666666666665e-01 -3.333333333333333e-01
 1.666666666666667e-01 -1.666666666666665e-01 -3.333333333333333e-01
 1.666666666666667e-01 -1.666666666666665e-01 -3.333333333333333e-01
 1.666666666666667e-01 -1.666666666666665e-01 -3.333333333333333e-01
 1.666666666666667e-01 -1.666666666666665e-01 -3.333333333333333e-01
 1.666666666666667e-01 -1.666666666666665e-01 -3.333333333333333e-01
 1.666666666666667e-01 -1.666666666666665e-01 -3.333333333333333e-01
 1.666666666666667e-01 -1.666666666666665e-01 -3.333333333333333e-01
 1.666666666666667e-01 -1.666666666666665e-01 -3.333333333333333e-01
 1.666666666666667e-01 -1.666666666666665e-01 -3.333333333333333e-01
 1.666666666666667e-01 -1.666666666666665e-01 -3.333333333333333e-01
 1.666666666666667e-01 -1.666666666666665e-01 -3.333333333333333e-01
 1.666666666666667e-01 -1.666666666666665e-01 -3.333333333333333e-01
 1.666666666666667e-01 -1.666666666666665e-01 -3.333333333333333e-01
 1.666666666666667e-01 -1.666666666666665e-01 -3.333333333333333e-01
 1.666666666666667e-01 -1.666666666666665e-01 -3.333333333333333e-01
 1.666666666666667e-01 -1.666666666666665e-01 -3.333333333333333e-01
 1.666666666666667e-01 -1.666666666666665e-01 -3.333333333333333e-01
 1.666666666666667e-01 -1.666666666666665e-01 -3.333333333333333e-01
 1.666666666666667e-01 -1.666666666666665e-01 -3.333333333333333e-01
 1.666666666666667e-01 -1.666666666666665e-01 -3.333333333333333e-01
 1.666666666666667e-01 -1.666666666666665e-01 -3.333333333333333e-01
 1.666666666666667e-01 -1.666666666666665e-01 -3.333333333333333e-01
 1.666666666666667e-01 -1.666666666666665e-01 -3.333333333333333e-01
 1.666666666666667e-01 -1.666666666666665e-01 -3.333333333333333e-01
 1.666666666666667e-01 -1.666666666666665e-01 -3.333333333333333e-01
 1.666666666666667e-01 -1.666666666666665e-01 -3.333333333333333e-01
 1.666666666666667e-01 -1.666666666666665e-01 -3.333333333333333e-01
 1.666666666666667e-01 -1.666666666666665e-01 -3.333333333333333e-01
 1.666666666666667e-01 -1.666666666666665e-01 -3.333333333333333e-01
 1.666666666666667e-01 -1.666666666666665e-01 -3.333333333333333e-01
 1.666666666666667e-01 -1.666666666666665e-01 -3.333333333333333e-01
 1.666666666666667e-01 -1.666666666666665e-01 -3.333333333333333e-01
 1.666666666666667e-01 -1.666666666666665e-01 -3.333333333333333e-01
 1.666666666666667e-01 -1.666666666666665e-01 -3.333333333333333e-01
 1.666666666666667e-01 -1.666666666666665e-01 -3.333333333333333e-01
 1.666666666666667e-01 -1.666666666666665e-01 -3.333333333333333e-01
 1.666666666666667e-01 -1.666666666666665e-01 -3.333333333333333e-01
 1.666666666666667e-01 -1.666666666666665e-01 -3.333333333333333e-01
 1.666666666666667e-01 -1.666666666666665e-01 -3.333333333333333e-01
 1.666666666666667e-01 -1.666666666666665e-01 -3.333333333333333e-01
 1.666666666666667e-01 -1.666666666666665e-01 -3.333333333333333e-01
 1.666666666666667e-01 -1.666666666666665e-01 -3.333333333333333e-01
 1.666666666666667e-01 -1.666666666666665e-01 -3.333333333333333e-01
 1.666666666666667e-01 -1.666666666666665e-01 -3.333333333333333e-01
 1.666666666666667e-01 -1.666666666666665e-01 -3.333333333333333e-01
 1.666666666666667e-01 -1.666666666666665e-01 -3.333333333333333e-01
 1.666666666666667e-01 -1.666666666666665e-01 -3.333333333333333e-01
 1.666666666666667e-01 -1.666666666666665e-01 -3.333333333333333e-01
 1.666666666666667e-01 -1.666666666666665e-01 -3.333333333333333e-01
 1.666666666666667e-01 -1.666666666666665e-01 -3.333333333333333e-01
 1.666666666666667e-01 -1.666666666666665e-01 -3.333333333333333e-01
 1.666666666666667e-01 -1.666666666666665e-01 -3.333333333333333e-01
 1.666666666666667e-01 -1.666666666666665e-01 -3.333333333333333e-01
 1.666666666666667e-01 -1.666666666666665e-01 -3.333333333333333e-01
 1.666666666666667e-01 -1.666666666666665e-01 -3.333333333333333e-01
 1.666666666666667e-01 -1.666666666666665e-01 -3.333333333333333e-01
 1.666666666666667e-01 -1.666666666666665e-01 -3.333333333333333e-01
 1.666666666666667e-01 -1.666666666666665e-01 -3.333333333333333e-01
 1.666666666666667e-01 -1.666666666666665e-01 -3.333333333333333e-01
 1.666666666666667e-01 -1.666666666666665e-01 -3.333333333333333e-01
 1.666666666666667e-01 -1.666666666666665e-01 -3.333333333333333e-01
 1.666666666666667e-01 -1.666666666666665e-01 -3.333333333333333e-01
 1.666666666666667e-01 -1.666666666666665e-01 -3.333333333333333e-01
 1.666666666666667e-01 -1.666666666666665e-01 -3.333333333333333e-01
 1.666666666666667e-01 -1.666666666666665e-01 -3.333333333333333e-01
 1.666666666666667e-01 -1.666666666666665e-01 -3.333333333333333e-01
 1.666666666666667e-01 -1.666666666666665e-01 -3.333333333333333e-01
 1.666666666666667e-01 -1.666666666666665e-01 -3.333333333333333e-01
 1.666666666666667e-01 -1.666666666666665e-01 -3.333333333333333e-01
 1.666666666666667e-01 -1.666666666666665e-01 -3.333333333333333e-01
 1.666666666666667e-01 -1.666666666666665e-01 -3.333333333333333e-01
 1.666666666666667e-01 -1.666666666666665e-01 -3.333333333333333e-01
 1.666666666666667e-01 -1.666666666666665e-01 -3.333333333333333e-01
 1.666666666666667e-01 -1.666666666666665e-01 -3.333333333333333e-01
 1.666666666666667e-01 -1.666666666666665e-01 -3.333333333333333e-01
 1.666666666666667e-01 -1.666666666666665e-01 -3.333333333333333e-01
 1.666666666666667e-01 -1.666666666666665e-01 -3.333333333333333e-01
 1.666666666666667e-01 -1.666666666666665e-01 -3.333333333333333e-01
 1.666666666666667e-01 -1.666666666666665e-01 -3.333333333333333e-01
 1.666666666666667e-01 -1.666666666666665e-01 -3.333333333333333e-01
 1.666666666666667e-01 -1.666666666666665e-01 -3.333333333333333e-01
 1.666666666666667e-01 -1.666666666666665e-01 -3.333333333333333e-01
 1.666666666666667e-01 -1.666666666666665e-01 -3.333333333333333e-01
-1.666666666666667e-01  1.666666666666665e-01  3.333333333333333e-01
 1.666666666666667e-01 -1.666666666666665e-01 -3.333333333333333e-01
 1.666666666666667e-01 -1.666666666666665e-01 -3.333333333333333e-01
 1.666666666666667e-01 -1.666666666666665e-01 -3.333333333333333e-01
 1.666666666666667e-01 -1.666666666666665e-01 -3.333333333333333e-01
 1.666666666666667e-01 -1.666666666666665e-01 -3.333333333333333e-01
 1.666666666666667e-01 -1.666666666666665e-01 -3.333333333333333e-01
 1.666666666666667e-01 -1.666666666666665e-01 -3.333333333333333e-01
 1.666666666666667e-01 -1.666666666666665e-01 -3.333333333333333e-01
 1.666666666666667e-01 -1.666666666666665e-01 -3.333333333333333e-01
 1.666666666666667e-01 -1.666666666666665e-01 -3.333333333333333e-01
 1.666666666666667e-01 -1.666666666666665e-01 -3.333333333333333e-01
 1.666666666666667e-01 -1.666666666666665e-01 -3.333333333333333e-01
 1.666666666666667e-01 -1.666666666666665e-01 -3.333333333333333e-01
 1.666666666666667e-01 -1.666666666666665e-01 -3.333333333333333e-01
 1.666666666666667e-01 -1.666666666666665e-01 -3.333333333333333e-01
 1.666666666666667e-01 -1.666666666666665e-01 -3.333333333333333e-01
 1.666666666666667e-01 -1.666666666666665e-01 -3.333333333333333e-01
 1.666666666666667e-01 -1.666666666666665e-01 -3.333333333333333e-01
 1.666666666666667e-01 -1.666666666666665e-01 -3.333333333333333e-01
 1.666666666666667e-01 -1.666666666666665e-01 -3.333333333333333e-01
 1.666666666666667e-01 -1.666666666666665e-01 -3.333333333333333e-01
 1.666666666666667e-01 -1.666666666666665e-01 -3.333333333333333e-01
 1.666666666666667e-01 -1.666666666666665e-01 -3.333333333333333e-01
 1.666666666666667e-01 -1.666666666666665e-01 -3.333333333333333e-01
 1.666666666666667e-01 -1.666666666666665e-01 -3.333333333333333e-01
 1.666666666666667e-01 -1.666666666666665e-01 -3.333333333333333e-01
 1.666666666666667e-01 -1.666666666666665e-01 -3.333333333333333e-01
 1.666666666666667e-01 -1.666666666666665e-01 -3.333333333333333e-01
 1.666666666666667e-01 -1.666666666666665e-01 -3.333333333333333e-01
 1.666666666666667e-01 -1.666666666666665e-01 -3.333333333333333e-01
 1.666666666666667e-01 -1.666666666666665e-01 -3.333333333333333e-01
 1.666666666666667e-01 -1.666666666666665e-01 -3.333333333333333e-01
 1.666666666666667e-01 -1.666666666666665e-01 -3.333333333333333e-01
 1.666666666666667e-01 -1.666666666666665e-01 -3.333333333333333e-01
 1.666666666666667e-01 -1.666666666666665e-01 -3.333333333333333e-01
 1.666666666666667e-01 -1.666666666666665e-01 -3.333333333333333e-01
 1.666666666666667e-01 -1.666666666666665e-01 -3.333333333333333e-01
 1.666666666666667e-01 -1.666666666666665e-01 -3.333333333333333e-01
 1.666666666666667e-01 -1.666666666666665e-01 -3.333333333333333e-01
 1.666666666666667e-01 -1.666666666666665e-01 -3.333333333333333e-01
 1.666666666666667e-01 -1.666666666666665e-01 -3.333333333333333e-01
 1.666666666666667e-01 -1.666666666666665e-01 -3.333333333333333e-01
 1.666666666666667e-01 -1.666666666666665e-01 -3.333333333333333e-01
 1.666666666666667e-01 -1.666666666666665e-01 -3.333333333333333e-01
 1.666666666666667e-01 -1.666666666666665e-01 -3.333333333333333e-01
 1.666666666666667e-01 -1.666666666666665e-01 -3.333333333333333e-01
 1.666666666666667e-01 -1.666666666666665e-01 -3.333333333333333e-01
 1.666666666666667e-01 -1.666666666666665e-01 -3.333333333333333e-01
 1.666666666666667e-01 -1.666666666666665e-01 -3.333333333333333e-01
 1.666666666666667e-01 -1.666666666666665e-01 -3.333333333333333e-01
 1.666666666666667e-01 -1.666666666666665e-01 -3.333333333333333e-01
 1.666666666666667e-01 -1.666666666666665e-01 -3.333333333333333e-01
 1.666666666666667e-01 -1.666666666666665e-01 -3.333333333333333e-01
 1.666666666666667e-01 -1.666666666666665e-01 -3.333333333333333e-01
 1.666666666666667e-01 -1.666666666666665e-01 -3.333333333333333e-01
 1.666666666666667e-01 -1.666666666666665e-01 -3.333333333333333e-01
 1.666666666666667e-01 -1.666666666666665e-01 -3.333333333333333e-01
 1.666666666666667e-01 -1.666666666666665e-01 -3.333333333333333e-01
 1.666666666666667e-01 -1.666666666666665e-01 -3.333333333333333e-01
 1.666666666666667e-01 -1.666666666666665e-01 -3.333333333333333e-01
 1.666666666666667e-01 -1.666666666666665e-01 -3.333333333333333e-01
 1.666666666666667e-01 -1.666666666666665e-01 -3.333333333333333e-01
 1.666666666666667e-01 -1.666666666666665e-01 -3.333333333333333e-01
 1.666666666666667e-01 -1.666666666666665e-01 -3.333333333333333e-01
 1.666666666666667e-01 -1.666666666666665e-01 -3.333333333333333e-01
 1.666666666666667e-01 -1.666666666666665e-01 -3.333333333333333e-01
 1.666666666666667e-01 -1.666666666666665e-01 -3.333333333333333e-01
 1.666666666666667e-01 -1.666666666666665e-01 -3.333333333333333e-01
 1.666666666666667e-01 -1.666666666666665e-01 -3.333333333333333e-01
 1.666666666666667e-01 -1.666666666666665e-01 -3.333333333333333e-01
 1.666666666666667e-01 -1.666666666666665e-01 -3.333333333333333e-01
 1.666666666666667e-01 -1.666666666666665e-01 -3.333333333333333e-01
 1.666666666666667e-01 -1.666666666666665e-01 -3.333333333333333e-01
 1.666666666666667e-01 -1.666666666666665e-01 -3.333333333333333e-01
 1.666666666666667e-01 -1.666666666666665e-01 -3.333333333333333e-01
 1.666666666666667e-01 -1.666666666666665e-01 -3.333333333333333e-01
 1.666666666666667e-01 -1.666666666666665e-01 -3.333333333333333e-01
 1.666666666666667e-01 -1.666666666666665e-01 -3.333333333333333e-01
 1.666666666666667e-01 -1.666666666666665e-01 -3.333333333333333e-01
 1.666666666666667e-01 -1.666666666666665e-01 -3.333333333333333e-01
 1.666666666666667e-01 -1.666666666666665e-01 -3.333333333333333e-01
 1.666666666666667e-01 -1.666666666666665e-01 -3.333333333333333e-01
 1.666666666666667e-01 -1.666666666666665e-01 -3.333333333333333e-01
 1.666666666666667e-01 -1.666666666666665e-01 -3.333333333333333e-01
 1.666666666666667e-01 -1.666666666666665e-01 -3.333333333333333e-01
 1.666666666666667e-01 -1.666666666666665e-01 -3.333333333333333e-01
 1.666666666666667e-01 -1.666666666666665e-01 -3.333333333333333e-01
 1.666666666666667e-01 -1.666666666666665e-01 -3.333333333333333e-01
 1.666666666666667e-01 -1.666666666666665e-01 -3.333333333333333e-01
 1.666666666666667e-01 -1.666666666666665e-01 -3.333333333333333e-01
 1.666666666666667e-01 -1.666666666666665e-01 -3.333333333333333e-01
 1.666666666666667e-01 -1.666666666666665e-01 -3.333333333333333e-01
 1.666666666666667e-01 -1.666666666666665e-01 -3.333333333333333e-01
 1.666666666666667e-01 -1.666666666666665e-01 -3.333333333333333e-01
 1.666666666666667e-01 -1.666666666666665e-01 -3.333333333333333e-01
 1.666666666666667e-01 -1.666666666666665e-01 -3.333333333333333e-01
 1.666666666666667e-01 -1.666666666666665e-01 -3.333333333333333e-01
 1.666666666666667e-01 -1.666666666666665e-01 -3.333333333333333e-01
 1.666666666666667e-01 -1.666666666666665e-01 -3.333333333333333e-01
 1.666666666666667e-01 -1.666666666666665e-01 -3.333333333333333e-01
 1.666666666666667e-01 -1.666666666666665e-01 -3.333333333333333e-01
 1.666666666666667e-01 -1.666666666666665e-01 -3.333333333333333e-01
 1.666666666666667e-01 -1.666666666666665e-01 -3.333333333333333e-01
 1.666666666666667e-01 -1.666666666666665e-01 -3.333333333333333e-01
 1.666666666666667e-01 -1.666666666666665e-01 -3.333333333333333e-01
 1.666666666666667e-01 -1.666666666666665e-01 -3.333333333333333e-01
 1.666666666666667e-01 -1.666666666666665e-01 -3.333333333333333e-01
 1.666666666666667e-01 -1.666666666666665e-01 -3.333333333333333e-01
 1.666666666666667e-01 -1.666666666666665e-01 -3.333333333333333e-01
 1.666666666666667e-01 -1.666666666666665e-01 -3.333333333333333e-01
 1.666666666666667e-01 -1.666666666666665e-01 -3.333333333333333e-01
 1.666666666666667e-01 -1.666666666666665e-01 -3.333333333333333e-01
 1.666666666666667e-01 -1.666666666666665e-01 -3.333333333333333e-01
 1.666666666666667e-01 -1.666666666666665e-01 -3.333333333333333e-01
 1.666666666666667e-01 -1.666666666666665e-01 -3.333333333333333e-01
 1.666666666666667e-01 -1.666666666666665e-01 -3.333333333333333e-01
 1.666666666666667e-01 -1.666666666666665e-01 -3.333333333333333e-01
 1.666666666666667e-01 -1.666666666666665e-01 -3.333333333333333e-01
 1.666666666666667e-01 -1.666666666666665e-01 -3.333333333333333e-01
 1.666666666666667e-01 -1.666666666666665e-01 -3.333333333333333e-01
 1.666666666666667e-01 -1.666666666666665e-01 -3.333333333333333e-01
 1.666666666666667e-01 -1.666666666666665e-01 -3.333333333333333e-01
 1.666666666666667e-01 -1.666666666666665e-01 -3.333333333333333e-01
 1.666666666666667e-01 -1.666666666666665e-01 -3.333333333333333e-01
 1.666666666666667e-01 -1.666666666666665e-01 -3.333333333333333e-01
 1.666666666666667e-01 -1.666666666666665e-01 -3.333333333333333e-01
 1.666666666666667e-01 -1.666666666666665e-01 -3.333333333333333e-01
 1.666666666666667e-01 -1.666666666666665e-01 -3.333333333333333e-01
 1.666666666666667e-01 -1.666666666666665e-01 -3.333333333333333e-01
 1.666666666666667e-01 -1.666666666666665e-01 -3.333333333333333e-01
 1.666666666666667e-01 -1.666666666666665e-01 -3.333333333333333e-01
 1.666666666666667e-01 -1.666666666666665e-01 -3.333333333333333e-01
 1.666666666666667e-01 -1.666666666666665e-01 -3.333333333333333e-01
 1.666666666666667e-01 -1.666666666666665e-01 -3.333333333333333e-01
 1.666666666666667e-01 -1.666666666666665e-01 -3.333333333333333e-01
 1.666666666666667e-01 -1.666666666666665e-01 -3.333333333333333e-01
 1.666666666666667e-01 -1.666666666666665e-01 -3.333333333333333e-01
 1.666666666666667e-01 -1.666666666666665e-01 -3.333333333333333e-01
 1.666666666666667e-01 -1.666666666666665e-01 -3.333333333333333e-01
 1.666666666666667e-01 -1.666666666666665e-01 -3.333333333333333e-01
 1.666666666666667e-01 -1.666666666666665e-01 -3.333333333333333e-01
 1.666666666666667e-01 -1.666666666666665e-01 -3.333333333333333e-01
 1.666666666666667e-01 -1.666666666666665e-01 -3.333333333333333e-01
 1.666666666666667e-01 -1.666666666666665e-01 -3.333333333333333e-01
 1.666666666666667e-01 -1.666666666666665e-01 -3.333333333333333e-01
 1.666666666666667e-01 -1.666666666666665e-01 -3.333333333333333e-01
 1.666666666666667e-01 -1.666666666666665e-01 -3.333333333333333e-01
 1.666666666666667e-01 -1.666666666666665e-01 -3.333333333333333e-01
 1.666666666666667e-01 -1.666666666666665e-01 -3.333333333333333e-01
 1.666666666666667e-01 -1.666666666666665e-01 -3.333333333333333e-01
 1.666666666666667e-01 -1.666666666666665e-01 -3.333333333333333e-01
 1.666666666666667e-01 -1.666666666666665e-01 -3.333333333333333e-01
 1.666666666666667e-01 -1.666666666666665e-01 -3.333333333333333e-01
 1.666666666666667e-01 -1.666666666666665e-01 -3.333333333333333e-01
 1.666666666666667e-01 -1.666666666666665e-01 -3.333333333333333e-01
 1.666666666666667e-01 -1.666666666666665e-01 -3.333333333333333e-01
 1.666666666666667e-01 -1.666666666666665e-01 -3.333333333333333e-01
 1.666666666666667e-01 -1.666666666666665e-01 -3.333333333333333e-01
 1.666666666666667e-01 -1.666666666666665e-01 -3.333333333333333e-01
 1.666666666666667e-01 -1.666666666666665e-01 -3.333333333333333e-01
 1.666666666666667e-01 -1.666666666666665e-01 -3.333333333333333e-01
 1.666666666666667e-01 -1.666666666666665e-01 -3.333333333333333e-01
 1.666666666666667e-01 -1.666666666666665e-01 -3.333333333333333e-01
 1.666666666666667e-01 -1.666666666666665e-01 -3.333333333333333e-01
 1.666666666666667e-01 -1.666666666666665e-01 -3.333333333333333e-01
 1.666666666666667e-01 -1.666666666666665e-01 -3.333333333333333e-01
 1.666666666666667e-01 -1.666666666666665e-01 -3.333333333333333e-01
 1.666666666666667e-01 -1.666666666666665e-01 -3.333333333333333e-01
 1.666666666666667e-01 -1.666666666666665e-01 -3.333333333333333e-01
 1.666666666666667e-01 -1.666666666666665e-01 -3.333333333333333e-01
 1.666666666666667e-01 -1.666666666666665e-01 -3.333333333333333e-01
 1.666666666666667e-01 -1.666666666666665e-01 -3.333333333333333e-01
 1.666666666666667e-01 -1.666666666666665e-01 -3.333333333333333e-01
 1.666666666666667e-01 -1.666666666666665e-01 -3.333333333333333e-01
 1.666666666666667e-01 -1.666666666666665e-01 -3.333333333333333e-01
 1.666666666666667e-01 -1.666666666666665e-01 -3.333333333333333e-01
 1.666666666666667e-01 -1.666666666666665e-01 -3.333333333333333e-01
 1.666666666666667e-01 -1.666666666666665e-01 -3.333333333333333e-01
 1.666666666666667e-01 -1.666666666666665e-01 -3.333333333333333e-01
 1.666666666666667e-01 -1.666666666666665e-01 -3.333333333333333e-01
 1.666666666666667e-01 -1.666666666666665e-01 -3.333333333333333e-01
 1.666666666666667e-01 -1.666666666666665e-01 -3.333333333333333e-01
 1.666666666666667e-01 -1.666666666666665e-01 -3.333333333333333e-01
 1.666666666666667e-01 -1.666666666666665e-01 -3.333333333333333e-01
 1.666666666666667e-01 -1.666666666666665e-01 -3.333333333333333e-01
 1.666666666666667e-01 -1.666666666666665e-01 -3.333333333333333e-01
 1.666666666666667e-01 -1.666666666666665e-01 -3.333333333333333e-01
 1.666666666666667e-01 -1.666666666666665e-01 -3.333333333333333e-01
 1.666666666666667e-01 -1.666666666666665e-01 -3.333333333333333e-01
 1.666666666666667e-01 -1.666666666666665e-01 -3.333333333333333e-01
 1.666666666666667e-01 -1.666666666666665e-01 -3.333333333333333e-01
 1.666666666666667e-01 -1.666666666666665e-01 -3.333333333333333e-01
 1.666666666666667e-01 -1.666666666666665e-01 -3.333333333333333e-01
 1.666666666666667e-01 -1.666666666666665e-01 -3.333333333333333e-01
 1.666666666666667e-01 -1.666666666666665e-01 -3.333333333333333e-01
 1.666666666666667e-01 -1.666666666666665e-01 -3.333333333333333e-01
 1.666666666666667e-01 -1.666666666666665e-01 -3.333333333333333e-01
 1.666666666666667e-01 -1.666666666666665e-01 -3.333333333333333e-01
 1.666666666666667e-01 -1.666666666666665e-01 -3.333333333333333e-01
 1.666666666666667e-01 -1.666666666666665e-01 -3.333333333333333e-01
 1.666666666666667e-01 -1.666666666666665e-01 -3.333333333333333e-01
 1.666666666666667e-01 -1.666666666666665e-01 -3.333333333333333e-01
 1.666666666666667e-01 -1.666666666666665e-01 -3.333333333333333e-01
 1.666666666666667e-01 -1.666666666666665e-01 -3.333333333333333e-01
 1.666666666666667e-01 -1.666666666666665e-01 -3.333333333333333e-01
 1.666666666666667e-01 -1.666666666666665e-01 -3.333333333333333e-01
 1.666666666666667e-01 -1.666666666666665e-01 -3.333333333333333e-01
-1.666666666666667e-01  1.666666666666665e-01  3.333333333333333e-01
 1.666666666666667e-01 -1.666666666666665e-01 -3.333333333333333e-01
-1.666666666666667e-01  1.666666666666665e-01  3.333333333333333e-01
-1.666666666666667e-01  1.666666666666665e-01  3.333333333333333e-01
-1.666666666666667e-01  1.666666666666665e-01  3.333333333333333e-01
-1.666666666666667e-01  1.666666666666665e-01  3.333333333333333e-01
-1.666666666666667e-01  1.666666666666665e-01  3.333333333333333e-01
-1.666666666666667e-01  1.666666666666665e-01  3.333333333333333e-01
-1.666666666666667e-01  1.666666666666665e-01  3.333333333333333e-01
-1.666666666666667e-01  1.666666666666665e-01  3.333333333333333e-01
-1.666666666666667e-01  1.666666666666665e-01  3.333333333333333e-01
-1.666666666666667e-01  1.666666666666665e-01  3.333333333333333e-01
-1.666666666666667e-01  1.666666666666665e-01  3.333333333333333e-01
-1.666666666666667e-01  1.666666666666665e-01  3.333333333333333e-01
-1.666666666666667e-01  1.666666666666665e-01  3.333333333333333e-01
-1.666666666666667e-01  1.666666666666665e-01  3.333333333333333e-01
-1.666666666666667e-01  1.666666666666665e-01  3.333333333333333e-01
-1.666666666666667e-01  1.666666666666665e-01  3.333333333333333e-01
-1.666666666666667e-01  1.666666666666665e-01  3.333333333333333e-01
-1.666666666666667e-01  1.666666666666665e-01  3.333333333333333e-01
-1.666666666666667e-01  1.666666666666665e-01  3.333333333333333e-01
-1.666666666666667e-01  1.666666666666665e-01  3.333333333333333e-01
-1.666666666666667e-01  1.666666666666665e-01  3.333333333333333e-01
-1.666666666666667e-01  1.666666666666665e-01  3.333333333333333e-01
-1.666666666666667e-01  1.666666666666665e-01  3.333333333333333e-01
-1.666666666666667e-01  1.666666666666665e-01  3.333333333333333e-01
-1.666666666666667e-01  1.666666666666665e-01  3.333333333333333e-01
-1.666666666666667e-01  1.666666666666665e-01  3.333333333333333e-01
-1.666666666666667e-01  1.666666666666665e-01  3.333333333333333e-01
-1.666666666666667e-01  1.666666666666665e-01  3.333333333333333e-01
-1.666666666666667e-01  1.666666666666665e-01  3.333333333333333e-01
-1.666666666666667e-01  1.666666666666665e-01  3.333333333333333e-01
-1.666666666666667e-01  1.666666666666665e-01  3.333333333333333e-01
-1.666666666666667e-01  1.666666666666665e-01  3.333333333333333e-01
-1.666666666666667e-01  1.666666666666665e-01  3.333333333333333e-01
-1.666666666666667e-01  1.666666666666665e-01  3.333333333333333e-01
-1.666666666666667e-01  1.666666666666665e-01  3.333333333333333e-01
-1.666666666666667e-01  1.666666666666665e-01  3.333333333333333e-01
-1.666666666666667e-01  1.666666666666665e-01  3.333333333333333e-01
-1.666666666666667e-01  1.666666666666665e-01  3.333333333333333e-01
-1.666666666666667e-01  1.666666666666665e-01  3.333333333333333e-01
-1.666666666666667e-01  1.666666666666665e-01  3.333333333333333e-01
-1.666666666666667e-01  1.666666666666665e-01  3.333333333333333e-01
-1.666666666666667e-01  1.666666666666665e-01  3.333333333333333e-01
-1.666666666666667e-01  1.666666666666665e-01  3.333333333333333e-01
-1.666666666666667e-01  1.666666666666665e-01  3.333333333333333e-01
-1.666666666666667e-01  1.666666666666665e-01  3.333333333333333e-01
-1.666666666666667e-01  1.666666666666665e-01  3.333333333333333e-01
-1.666666666666667e-01  1.666666666666665e-01  3.333333333333333e-01
-1.666666666666667e-01  1.666666666666665e-01  3.333333333333333e-01
-1.666666666666667e-01  1.666666666666665e-01  3.333333333333333e-01
-1.666666666666667e-01  1.666666666666665e-01  3.333333333333333e-01
-1.666666666666667e-01  1.666666666666665e-01  3.333333333333333e-01
-1.666666666666667e-01  1.666666666666665e-01  3.333333333333333e-01
-1.666666666666667e-01  1.666666666666665e-01  3.333333333333333e-01
-1.666666666666667e-01  1.666666666666665e-01  3.333333333333333e-01
-1.666666666666667e-01  1.666666666666665e-01  3.333333333333333e-01
-1.666666666666667e-01  1.666666666666665e-01  3.333333333333333e-01
-1.666666666666667e-01  1.666666666666665e-01  3.333333333333333e-01
-1.666666666666667e-01  1.666666666666665e-01  3.333333333333333e-01
-1.666666666666667e-01  1.666666666666665e-01  3.333333333333333e-01
-1.666666666666667e-01  1.666666666666665e-01  3.333333333333333e-01
-1.666666666666667e-01  1.666666666666665e-01  3.333333333333333e-01
-1.666666666666667e-01  1.666666666666665e-01  3.333333333333333e-01
-1.666666666666667e-01  1.666666666666665e-01  3.333333333333333e-01
-1.666666666666667e-01  1.666666666666665e-01  3.333333333333333e-01
-1.666666666666667e-01  1.666666666666665e-01  3.333333333333333e-01
-1.666666666666667e-01  1.666666666666665e-01  3.333333333333333e-01
-1.666666666666667e-01  1.666666666666665e-01  3.333333333333333e-01
-1.666666666666667e-01  1.666666666666665e-01  3.333333333333333e-01
-1.666666666666667e-01  1.666666666666665e-01  3.333333333333333e-01
-1.666666666666667e-01  1.666666666666665e-01  3.333333333333333e-01
-1.666666666666667e-01  1.666666666666665e-01  3.333333333333333e-01
-1.666666666666667e-01  1.666666666666665e-01  3.333333333333333e-01
-1.666666666666667e-01  1.666666666666665e-01  3.333333333333333e-01
-1.666666666666667e-01  1.666666666666665e-01  3.333333333333333e-01
-1.666666666666667e-01  1.666666666666665e-01  3.333333333333333e-01
-1.666666666666667e-01  1.666666666666665e-01  3.333333333333333e-01
-1.666666666666667e-01  1.666666666666665e-01  3.333333333333333e-01
-1.666666666666667e-01  1.666666666666665e-01  3.333333333333333e-01
-1.666666666666667e-01  1.666666666666665e-01  3.333333333333333e-01
-1.666666666666667e-01  1.666666666666665e-01  3.333333333333333e-01
-1.666666666666667e-01  1.666666666666665e-01  3.333333333333333e-01
-1.666666666666667e-01  1.666666666666665e-01  3.333333333333333e-01
-1.666666666666667e-01  1.666666666666665e-01  3.333333333333333e-01
-1.666666666666667e-01  1.666666666666665e-01  3.333333333333333e-01
-1.666666666666667e-01  1.666666666666665e-01  3.333333333333333e-01
-1.666666666666667e-01  1.666666666666665e-01  3.333333333333333e-01
-1.666666666666667e-01  1.666666666666665e-01  3.333333333333333e-01
-1.666666666666667e-01  1.666666666666665e-01  3.333333333333333e-01
-1.666666666666667e-01  1.666666666666665e-01  3.333333333333333e-01
-1.666666666666667e-01  1.666666666666665e-01  3.333333333333333e-01
-1.666666666666667e-01  1.666666666666665e-01  3.333333333333333e-01
-1.666666666666667e-01  1.666666666666665e-01  3.333333333333333e-01
-1.666666666666667e-01  1.666666666666665e-01  3.333333333333333e-01
-1.666666666666667e-01  1.666666666666665e-01  3.333333333333333e-01
-1.666666666666667e-01  1.666666666666665e-01  3.333333333333333e-01
-1.666666666666667e-01  1.666666666666665e-01  3.333333333333333e-01
-1.666666666666667e-01  1.666666666666665e-01  3.333333333333333e-01
-1.666666666666667e-01  1.666666666666665e-01  3.333333333333333e-01
-1.666666666666667e-01  1.666666666666665e-01  3.333333333333333e-01
-1.666666666666667e-01  1.666666666666665e-01  3.333333333333333e-01
-1.666666666666667e-01  1.666666666666665e-01  3.333333333333333e-01
-1.666666666666667e-01  1.666666666666665e-01  3.333333333333333e-01
-1.666666666666667e-01  1.666666666666665e-01  3.333333333333333e-01
-1.666666666666667e-01  1.666666666666665e-01  3.333333333333333e-01
-1.666666666666667e-01  1.666666666666665e-01  3.333333333333333e-01
-1.666666666666667e-01  1.666666666666665e-01  3.333333333333333e-01
-1.666666666666667e-01  1.666666666666665e-01  3.333333333333333e-01
-1.666666666666667e-01  1.666666666666665e-01  3.333333333333333e-01
-1.666666666666667e-01  1.666666666666665e-01  3.333333333333333e-01
-1.666666666666667e-01  1.666666666666665e-01  3.333333333333333e-01
-1.666666666666667e-01  1.666666666666665e-01  3.333333333333333e-01
-1.666666666666667e-01  1.666666666666665e-01  3.333333333333333e-01
-1.666666666666667e-01  1.666666666666665e-01  3.333333333333333e-01
-1.666666666666667e-01  1.666666666666665e-01  3.333333333333333e-01
-1.666666666666667e-01  1.666666666666665e-01  3.333333333333333e-01
-1.666666666666667e-01  1.666666666666665e-01  3.333333333333333e-01
-1.666666666666667e-01  1.666666666666665e-01  3.333333333333333e-01
-1.666666666666667e-01  1.666666666666665e-01  3.333333333333333e-01
-1.666666666666667e-01  1.666666666666665e-01  3.333333333333333e-01
-1.666666666666667e-01  1.666666666666665e-01  3.333333333333333e-01
-1.666666666666667e-01  1.666666666666665e-01  3.333333333333333e-01
-1.666666666666667e-01  1.666666666666665e-01  3.333333333333333e-01
-1.666666666666667e-01  1.666666666666665e-01  3.333333333333333e-01
-1.666666666666667e-01  1.666666666666665e-01  3.333333333333333e-01
-1.666666666666667e-01  1.666666666666665e-01  3.333333333333333e-01
-1.666666666666667e-01  1.666666666666665e-01  3.333333333333333e-01
-1.666666666666667e-01  1.666666666666665e-01  3.333333333333333e-01
-1.666666666666667e-01  1.666666666666665e-01  3.333333333333333e-01
-1.666666666666667e-01  1.666666666666665e-01  3.333333333333333e-01
-1.666666666666667e-01  1.666666666666665e-01  3.333333333333333e-01
-1.666666666666667e-01  1.666666666666665e-01  3.333333333333333e-01
-1.666666666666667e-01  1.666666666666665e-01  3.333333333333333e-01
-1.666666666666667e-01  1.666666666666665e-01  3.333333333333333e-01
-1.666666666666667e-01  1.666666666666665e-01  3.333333333333333e-01
-1.666666666666667e-01  1.666666666666665e-01  3.333333333333333e-01
-1.666666666666667e-01  1.666666666666665e-01  3.333333333333333e-01
-1.666666666666667e-01  1.666666666666665e-01  3.333333333333333e-01
-1.666666666666667e-01  1.666666666666665e-01  3.333333333333333e-01
-1.666666666666667e-01  1.666666666666665e-01  3.333333333333333e-01
-1.666666666666667e-01  1.666666666666665e-01  3.333333333333333e-01
-1.666666666666667e-01  1.666666666666665e-01  3.333333333333333e-01
-1.666666666666667e-01  1.666666666666665e-01  3.333333333333333e-01
-1.666666666666667e-01  1.666666666666665e-01  3.333333333333333e-01
-1.666666666666667e-01  1.666666666666665e-01  3.333333333333333e-01
-1.666666666666667e-01  1.666666666666665e-01  3.333333333333333e-01
-1.666666666666667e-01  1.666666666666665e-01  3.333333333333333e-01
-1.666666666666667e-01  1.666666666666665e-01  3.333333333333333e-01
-1.666666666666667e-01  1.666666666666665e-01  3.333333333333333e-01
-1.666666666666667e-01  1.666666666666665e-01  3.333333333333333e-01
-1.666666666666667e-01  1.666666666666665e-01  3.333333333333333e-01
-1.666666666666667e-01  1.666666666666665e-01  3.333333333333333e-01
-1.666666666666667e-01  1.666666666666665e-01  3.333333333333333e-01
-1.666666666666667e-01  1.666666666666665e-01  3.333333333333333e-01
-1.666666666666667e-01  1.666666666666665e-01  3.333333333333333e-01
-1.666666666666667e-01  1.666666666666665e-01  3.333333333333333e-01
-1.666666666666667e-01  1.666666666666665e-01  3.333333333333333e-01
-1.666666666666667e-01  1.666666666666665e-01  3.333333333333333e-01
-1.666666666666667e-01  1.666666666666665e-01  3.333333333333333e-01
-1.666666666666667e-01  1.666666666666665e-01  3.333333333333333e-01
-1.666666666666667e-01  1.666666666666665e-01  3.333333333333333e-01
-1.666666666666667e-01  1.666666666666665e-01  3.333333333333333e-01
-1.666666666666667e-01  1.666666666666665e-01  3.333333333333333e-01
-1.666666666666667e-01  1.666666666666665e-01  3.333333333333333e-01
-1.666666666666667e-01  1.666666666666665e-01  3.333333333333333e-01
-1.666666666666667e-01  1.666666666666665e-01  3.333333333333333e-01
-1.666666666666667e-01  1.666666666666665e-01  3.333333333333333e-01
-1.666666666666667e-01  1.666666666666665e-01  3.333333333333333e-01
-1.666666666666667e-01  1.666666666666665e-01  3.333333333333333e-01
-1.666666666666667e-01  1.666666666666665e-01  3.333333333333333e-01
-1.666666666666667e-01  1.666666666666665e-01  3.333333333333333e-01
-1.666666666666667e-01  1.666666666666665e-01  3.333333333333333e-01
-1.666666666666667e-01  1.666666666666665e-01  3.333333333333333e-01
-1.666666666666667e-01  1.666666666666665e-01  3.333333333333333e-01
-1.666666666666667e-01  1.666666666666665e-01  3.333333333333333e-01
-1.666666666666667e-01  1.666666666666665e-01  3.333333333333333e-01
-1.666666666666667e-01  1.666666666666665e-01  3.333333333333333e-01
-1.666666666666667e-01  1.666666666666665e-01  3.333333333333333e-01
-1.666666666666667e-01  1.666666666666665e-01  3.333333333333333e-01
-1.666666666666667e-01  1.666666666666665e-01  3.333333333333333e-01
-1.666666666666667e-01  1.666666666666665e-01  3.333333333333333e-01
-1.666666666666667e-01  1.666666666666665e-01  3.333333333333333e-01
-1.666666666666667e-01  1.666666666666665e-01  3.333333333333333e-01
-1.666666666666667e-01  1.666666666666665e-01  3.333333333333333e-01
-1.666666666666667e-01  1.666666666666665e-01  3.333333333333333e-01
-1.666666666666667e-01  1.666666666666665e-01  3.333333333333333e-01
-1.666666666666667e-01  1.666666666666665e-01  3.333333333333333e-01
-1.666666666666667e-01  1.666666666666665e-01  3.333333333333333e-01
-1.666666666666667e-01  1.666666666666665e-01  3.333333333333333e-01
-1.666666666666667e-01  1.666666666666665e-01  3.333333333333333e-01
-1.666666666666667e-01  1.666666666666665e-01  3.333333333333333e-01
-1.666666666666667e-01  1.666666666666665e-01  3.333333333333333e-01
-1.666666666666667e-01  1.666666666666665e-01  3.333333333333333e-01
-1.666666666666667e-01  1.666666666666665e-01  3.333333333333333e-01
-1.666666666666667e-01  1.666666666666665e-01  3.333333333333333e-01
-1.666666666666667e-01  1.666666666666665e-01  3.333333333333333e-01
-1.666666666666667e-01  1.666666666666665e-01  3.333333333333333e-01
-1.666666666666667e-01  1.666666666666665e-01  3.333333333333333e-01
-1.666666666666667e-01  1.666666666666665e-01  3.333333333333333e-01
-1.666666666666667e-01  1.666666666666665e-01  3.333333333333333e-01
-1.666666666666667e-01  1.666666666666665e-01  3.333333333333333e-01
-1.666666666666667e-01  1.666666666666665e-01  3.333333333333333e-01
-1.666666666666667e-01  1.666666666666665e-01  3.333333333333333e-01
-1.666666666666667e-01  1.666666666666665e-01  3.333333333333333e-01
 1.666666666666667e-01 -1.666666666666665e-01 -3.333333333333333e-01
-1.666666666666667e-01  1.666666666666665e-01  3.333333333333333e-01
-1.666666666666667e-01  1.666666666666665e-01  3.333333333333333e-01
-1.666666666666667e-01  1.666666666666665e-01  3.333333333333333e-01
-1.666666666666667e-01  1.666666666666665e-01  3.333333333333333e-01
-1.666666666666667e-01  1.666666666666665e-01  3.333333333333333e-01
-1.666666666666667e-01  1.666666666666665e-01  3.333333333333333e-01
-1.666666666666667e-01  1.666666666666665e-01  3.333333333333333e-01
-1.666666666666667e-01  1.666666666666665e-01  3.333333333333333e-01
-1.666666666666667e-01  1.666666666666665e-01  3.333333333333333e-01
-1.666666666666667e-01  1.666666666666665e-01  3.333333333333333e-01
-1.666666666666667e-01  1.666666666666665e-01  3.333333333333333e-01
-1.666666666666667e-01  1.666666666666665e-01  3.333333333333333e-01
-1.666666666666667e-01  1.666666666666665e-01  3.333333333333333e-01
-1.666666666666667e-01  1.666666666666665e-01  3.333333333333333e-01
-1.666666666666667e-01  1.666666666666665e-01  3.333333333333333e-01
-1.666666666666667e-01  1.666666666666665e-01  3.333333333333333e-01
-1.666666666666667e-01  1.666666666666665e-01  3.333333333333333e-01
-1.666666666666667e-01  1.666666666666665e-01  3.333333333333333e-01
-1.666666666666667e-01  1.666666666666665e-01  3.333333333333333e-01
-1.666666666666667e-01  1.666666666666665e-01  3.333333333333333e-01
-1.666666666666667e-01  1.666666666666665e-01  3.333333333333333e-01
-1.666666666666667e-01  1.666666666666665e-01  3.333333333333333e-01
-1.666666666666667e-01  1.666666666666665e-01  3.333333333333333e-01
-1.666666666666667e-01  1.666666666666665e-01  3.333333333333333e-01
-1.666666666666667e-01  1.666666666666665e-01  3.333333333333333e-01
-1.666666666666667e-01  1.666666666666665e-01  3.333333333333333e-01
-1.666666666666667e-01  1.666666666666665e-01  3.333333333333333e-01
-1.666666666666667e-01  1.666666666666665e-01  3.333333333333333e-01
-1.666666666666667e-01  1.666666666666665e-01  3.333333333333333e-01
-1.666666666666667e-01  1.666666666666665e-01  3.333333333333333e-01
-1.666666666666667e-01  1.666666666666665e-01  3.333333333333333e-01
-1.666666666666667e-01  1.666666666666665e-01  3.333333333333333e-01
-1.666666666666667e-01  1.666666666666665e-01  3.333333333333333e-01
-1.666666666666667e-01  1.666666666666665e-01  3.333333333333333e-01
-1.666666666666667e-01  1.666666666666665e-01  3.333333333333333e-01
-1.666666666666667e-01  1.666666666666665e-01  3.333333333333333e-01
-1.666666666666667e-01  1.666666666666665e-01  3.333333333333333e-01
-1.666666666666667e-01  1.666666666666665e-01  3.333333333333333e-01
-1.666666666666667e-01  1.666666666666665e-01  3.333333333333333e-01
-1.666666666666667e-01  1.666666666666665e-01  3.333333333333333e-01
-1.666666666666667e-01  1.666666666666665e-01  3.333333333333333e-01
-1.666666666666667e-01  1.666666666666665e-01  3.333333333333333e-01
-1.666666666666667e-01  1.666666666666665e-01  3.333333333333333e-01
-1.666666666666667e-01  1.666666666666665e-01  3.333333333333333e-01
-1.666666666666667e-01  1.666666666666665e-01  3.333333333333333e-01
-1.666666666666667e-01  1.666666666666665e-01  3.333333333333333e-01
-1.666666666666667e-01  1.666666666666665e-01  3.333333333333333e-01
-1.666666666666667e-01  1.666666666666665e-01  3.333333333333333e-01
-1.666666666666667e-01  1.666666666666665e-01  3.333333333333333e-01
-1.666666666666667e-01  1.666666666666665e-01  3.333333333333333e-01
-1.666666666666667e-01  1.666666666666665e-01  3.333333333333333e-01
-1.666666666666667e-01  1.666666666666665e-01  3.333333333333333e-01
-1.666666666666667e-01  1.666666666666665e-01  3.333333333333333e-01
-1.666666666666667e-01  1.666666666666665e-01  3.333333333333333e-01
-1.666666666666667e-01  1.666666666666665e-01  3.333333333333333e-01
-1.666666666666667e-01  1.666666666666665e-01  3.333333333333333e-01
-1.666666666666667e-01  1.666666666666665e-01  3.333333333333333e-01
-1.666666666666667e-01  1.666666666666665e-01  3.333333333333333e-01
-1.666666666666667e-01  1.666666666666665e-01  3.333333333333333e-01
-1.666666666666667e-01  1.666666666666665e-01  3.333333333333333e-01
-1.666666666666667e-01  1.666666666666665e-01  3.333333333333333e-01
-1.666666666666667e-01  1.666666666666665e-01  3.333333333333333e-01
-1.666666666666667e-01  1.666666666666665e-01  3.333333333333333e-01
-1.666666666666667e-01  1.666666666666665e-01  3.333333333333333e-01
-1.666666666666667e-01  1.666666666666665e-01  3.333333333333333e-01
-1.666666666666667e-01  1.666666666666665e-01  3.333333333333333e-01
-1.666666666666667e-01  1.666666666666665e-01  3.333333333333333e-01
-1.666666666666667e-01  1.666666666666665e-01  3.333333333333333e-01
-1.666666666666667e-01  1.666666666666665e-01  3.333333333333333e-01
-1.666666666666667e-01  1.666666666666665e-01  3.333333333333333e-01
-1.666666666666667e-01  1.666666666666665e-01  3.333333333333333e-01
-1.666666666666667e-01  1.666666666666665e-01  3.333333333333333e-01
-1.666666666666667e-01  1.666666666666665e-01  3.333333333333333e-01
-1.666666666666667e-01  1.666666666666665e-01  3.333333333333333e-01
-1.666666666666667e-01  1.666666666666665e-01  3.333333333333333e-01
-1.666666666666667e-01  1.666666666666665e-01  3.333333333333333e-01
-1.666666666666667e-01  1.666666666666665e-01  3.333333333333333e-01
-1.666666666666667e-01  1.666666666666665e-01  3.333333333333333e-01
-1.666666666666667e-01  1.666666666666665e-01  3.333333333333333e-01
-1.666666666666667e-01  1.666666666666665e-01  3.333333333333333e-01
-1.666666666666667e-01  1.666666666666665e-01  3.333333333333333e-01
-1.666666666666667e-01  1.666666666666665e-01  3.333333333333333e-01
-1.666666666666667e-01  1.666666666666665e-01  3.333333333333333e-01
-1.666666666666667e-01  1.666666666666665e-01  3.333333333333333e-01
-1.666666666666667e-01  1.666666666666665e-01  3.333333333333333e-01
-1.666666666666667e-01  1.666666666666665e-01  3.333333333333333e-01
-1.666666666666667e-01  1.666666666666665e-01  3.333333333333333e-01
-1.666666666666667e-01  1.666666666666665e-01  3.333333333333333e-01
-1.666666666666667e-01  1.666666666666665e-01  3.333333333333333e-01
-1.666666666666667e-01  1.666666666666665e-01  3.333333333333333e-01
-1.666666666666667e-01  1.666666666666665e-01  3.333333333333333e-01
-1.666666666666667e-01  1.666666666666665e-01  3.333333333333333e-01
-1.666666666666667e-01  1.666666666666665e-01  3.333333333333333e-01
-1.666666666666667e-01  1.666666666666665e-01  3.333333333333333e-01
-1.666666666666667e-01  1.666666666666665e-01  3.333333333333333e-01
-1.666666666666667e-01  1.666666666666665e-01  3.333333333333333e-01
-1.666666666666667e-01  1.666666666666665e-01  3.333333333333333e-01
-1.666666666666667e-01  1.666666666666665e-01  3.333333333333333e-01
-1.666666666666667e-01  1.666666666666665e-01  3.333333333333333e-01
-1.666666666666667e-01  1.666666666666665e-01  3.333333333333333e-01
-1.666666666666667e-01  1.666666666666665e-01  3.333333333333333e-01
-1.666666666666667e-01  1.666666666666665e-01  3.333333333333333e-01
-1.666666666666667e-01  1.666666666666665e-01  3.333333333333333e-01
-1.666666666666667e-01  1.666666666666665e-01  3.333333333333333e-01
-1.666666666666667e-01  1.666666666666665e-01  3.333333333333333e-01
-1.666666666666667e-01  1.666666666666665e-01  3.333333333333333e-01
-1.666666666666667e-01  1.666666666666665e-01  3.333333333333333e-01
-1.666666666666667e-01  1.666666666666665e-01  3.333333333333333e-01
-1.666666666666667e-01  1.666666666666665e-01  3.333333333333333e-01
-1.666666666666667e-01  1.666666666666665e-01  3.333333333333333e-01
-1.666666666666667e-01  1.666666666666665e-01  3.333333333333333e-01
-1.666666666666667e-01  1.666666666666665e-01  3.333333333333333e-01
-1.666666666666667e-01  1.666666666666665e-01  3.333333333333333e-01
-1.666666666666667e-01  1.666666666666665e-01  3.333333333333333e-01
-1.666666666666667e-01  1.666666666666665e-01  3.333333333333333e-01
-1.666666666666667e-01  1.666666666666665e-01  3.333333333333333e-01
-1.666666666666667e-01  1.666666666666665e-01  3.333333333333333e-01
-1.666666666666667e-01  1.666666666666665e-01  3.333333333333333e-01
-1.666666666666667e-01  1.666666666666665e-01  3.333333333333333e-01
-1.666666666666667e-01  1.666666666666665e-01  3.333333333333333e-01
-1.666666666666667e-01  1.666666666666665e-01  3.333333333333333e-01
-1.666666666666667e-01  1.666666666666665e-01  3.333333333333333e-01
-1.666666666666667e-01  1.666666666666665e-01  3.333333333333333e-01
-1.666666666666667e-01  1.666666666666665e-01  3.333333333333333e-01
-1.666666666666667e-01  1.666666666666665e-01  3.333333333333333e-01
-1.666666666666667e-01  1.666666666666665e-01  3.333333333333333e-01
-1.666666666666667e-01  1.666666666666665e-01  3.333333333333333e-01
-1.666666666666667e-01  1.666666666666665e-01  3.333333333333333e-01
-1.666666666666667e-01  1.666666666666665e-01  3.333333333333333e-01
-1.666666666666667e-01  1.666666666666665e-01  3.333333333333333e-01
-1.666666666666667e-01  1.666666666666665e-01  3.333333333333333e-01
-1.666666666666667e-01  1.666666666666665e-01  3.333333333333333e-01
-1.666666666666667e-01  1.666666666666665e-01  3.333333333333333e-01
-1.666666666666667e-01  1.666666666666665e-01  3.333333333333333e-01
-1.666666666666667e-01  1.666666666666665e-01  3.333333333333333e-01
-1.666666666666667e-01  1.666666666666665e-01  3.333333333333333e-01
-1.666666666666667e-01  1.666666666666665e-01  3.333333333333333e-01
-1.666666666666667e-01  1.666666666666665e-01  3.333333333333333e-01
-1.666666666666667e-01  1.666666666666665e-01  3.333333333333333e-01
-1.666666666666667e-01  1.666666666666665e-01  3.333333333333333e-01
-1.666666666666667e-01  1.666666666666665e-01  3.333333333333333e-01
-1.666666666666667e-01  1.666666666666665e-01  3.333333333333333e-01
-1.666666666666667e-01  1.666666666666665e-01  3.333333333333333e-01
-1.666666666666667e-01  1.666666666666665e-01  3.333333333333333e-01
-1.666666666666667e-01  1.666666666666665e-01  3.333333333333333e-01
-1.666666666666667e-01  1.666666666666665e-01  3.333333333333333e-01
-1.666666666666667e-01  1.666666666666665e-01  3.333333333333333e-01
-1.666666666666667e-01  1.666666666666665e-01  3.333333333333333e-01
-1.666666666666667e-01  1.666666666666665e-01  3.333333333333333e-01
-1.666666666666667e-01  1.666666666666665e-01  3.333333333333333e-01
-1.666666666666667e-01  1.666666666666665e-01  3.333333333333333e-01
-1.666666666666667e-01  1.666666666666665e-01  3.333333333333333e-01
-1.666666666666667e-01  1.666666666666665e-01  3.333333333333333e-01
-1.666666666666667e-01  1.666666666666665e-01  3.333333333333333e-01
-1.666666666666667e-01  1.666666666666665e-01  3.333333333333333e-01
-1.666666666666667e-01  1.666666666666665e-01  3.333333333333333e-01
-1.666666666666667e-01  1.666666666666665e-01  3.333333333333333e-01
-1.666666666666667e-01  1.666666666666665e-01  3.333333333333333e-01
-1.666666666666667e-01  1.666666666666665e-01  3.333333333333333e-01
-1.666666666666667e-01  1.666666666666665e-01  3.333333333333333e-01
-1.666666666666667e-01  1.666666666666665e-01  3.333333333333333e-01
-1.666666666666667e-01  1.666666666666665e-01  3.333333333333333e-01
-1.666666666666667e-01  1.666666666666665e-01  3.333333333333333e-01
-1.666666666666667e-01  1.666666666666665e-01  3.333333333333333e-01
-1.666666666666667e-01  1.666666666666665e-01  3.333333333333333e-01
-1.666666666666667e-01  1.666666666666665e-01  3.333333333333333e-01
-1.666666666666667e-01  1.666666666666665e-01  3.333333333333333e-01
-1.666666666666667e-01  1.666666666666665e-01  3.333333333333333e-01
-1.666666666666667e-01  1.666666666666665e-01  3.333333333333333e-01
-1.666666666666667e-01  1.666666666666665e-01  3.333333333333333e-01
-1.666666666666667e-01  1.666666666666665e-01  3.333333333333333e-01
-1.666666666666667e-01  1.666666666666665e-01  3.333333333333333e-01
-1.666666666666667e-01  1.666666666666665e-01  3.333333333333333e-01
-1.666666666666667e-01  1.666666666666665e-01  3.333333333333333e-01
-1.666666666666667e-01  1.666666666666665e-01  3.333333333333333e-01
-1.666666666666667e-01  1.666666666666665e-01  3.333333333333333e-01
-1.666666666666667e-01  1.666666666666665e-01  3.333333333333333e-01
-1.666666666666667e-01  1.666666666666665e-01  3.333333333333333e-01
-1.666666666666667e-01  1.666666666666665e-01  3.333333333333333e-01
-1.666666666666667e-01  1.666666666666665e-01  3.333333333333333e-01
-1.666666666666667e-01  1.666666666666665e-01  3.333333333333333e-01
-1.666666666666667e-01  1.666666666666665e-01  3.333333333333333e-01
-1.666666666666667e-01  1.666666666666665e-01  3.333333333333333e-01
-1.666666666666667e-01  1.666666666666665e-01  3.333333333333333e-01
-1.666666666666667e-01  1.666666666666665e-01  3.333333333333333e-01
-1.666666666666667e-01  1.666666666666665e-01  3.333333333333333e-01
-1.666666666666667e-01  1.666666666666665e-01  3.333333333333333e-01
-1.666666666666667e-01  1.666666666666665e-01  3.333333333333333e-01
-1.666666666666667e-01  1.666666666666665e-01  3.333333333333333e-01
-1.666666666666667e-01  1.666666666666665e-01  3.333333333333333e-01
-1.666666666666667e-01  1.666666666666665e-01  3.333333333333333e-01
-1.666666666666667e-01  1.666666666666665e-01  3.333333333333333e-01
-1.666666666666667e-01  1.666666666666665e-01  3.333333333333333e-01
-1.666666666666667e-01  1.666666666666665e-01  3.333333333333333e-01
-1.666666666666667e-01  1.666666666666665e-01  3.333333333333333e-01
-1.666666666666667e-01  1.666666666666665e-01  3.333333333333333e-01
-1.666666666666667e-01  1.666666666666665e-01  3.333333333333333e-01
-1.666666666666667e-01  1.666666666666665e-01  3.333333333333333e-01
-1.666666666666667e-01  1.666666666666665e-01  3.333333333333333e-01
-1.666666666666667e-01  1.666666666666665e-01  3.333333333333333e-01
-1.666666666666667e-01  1.666666666666665e-01  3.333333333333333e-01
-1.666666666666667e-01  1.666666666666665e-01  3.333333333333333e-01
-1.666666666666667e-01  1.666666666666665e-01  3.333333333333333e-01
-1.666666666666667e-01  1.666666666666665e-01  3.333333333333333e-01
-1.666666666666667e-01  1.666666666666665e-01  3.333333333333333e-01
-1.666666666666667e-01  1.666666666666665e-01  3.333333333333333e-01
-1.666666666666667e-01  1.666666666666665e-01  3.333333333333333e-01
-1.666666666666667e-01  1.666666666666665e-01  3.333333333333333e-01
-1.666666666666667e-01  1.666666666666665e-01  3.333333333333333e-01
-1.666666666666667e-01  1.666666666666665e-01  3.333333333333333e-01
-1.666666666666667e-01  1.666666666666665e-01  3.333333333333333e-01
-1.666666666666667e-01  1.666666666666665e-01  3.333333333333333e-01
-1.666666666666667e-01  1.666666666666665e-01  3.333333333333333e-01
-1.666666666666667e-01  1.666666666666665e-01  3.333333333333333e-01
-1.666666666666667e-01  1.666666666666665e-01  3.333333333333333e-01
-1.666666666666667e-01  1.666666666666665e-01  3.333333333333333e-01
-1.666666666666667e-01  1.666666666666665e-01  3.333333333333333e-01
-1.666666666666667e-01  1.666666666666665e-01  3.333333333333333e-01
-1.666666666666667e-01  1.666666666666665e-01  3.333333333333333e-01
-1.666666666666667e-01  1.666666666666665e-01  3.333333333333333e-01
-1.666666666666667e-01  1.666666666666665e-01  3.333333333333333e-01
-1.666666666666667e-01  1.666666666666665e-01  3.333333333333333e-01
-1.666666666666667e-01  1.666666666666665e-01  3.333333333333333e-01
-1.666666666666667e-01  1.666666666666665e-01  3.333333333333333e-01
-1.666666666666667e-01  1.666666666666665e-01  3.333333333333333e-01
